# vtk DataFile Version 2.0
Simplicial Mesh Example
ASCII
DATASET UNSTRUCTURED_GRID
POINTS 9490 double
4.132646e+04 -3.761110e+05 -2.495947e+04
1.739130e+04 -4.000000e+05 0.000000e+00
1.424943e+04 -3.757412e+05 -2.497841e+04
3.478261e+04 -4.000000e+05 -2.478841e+04
3.431474e+04 -3.668361e+05 0.000000e+00
6.536071e+04 -3.800007e+05 -2.495579e+04
5.217391e+04 -4.000000e+05 0.000000e+00
5.217391e+04 -4.000000e+05 -5.000000e+04
6.848295e+04 -3.663208e+05 -5.000000e+04
1.739130e+04 -4.000000e+05 -5.000000e+04
3.422046e+04 -3.663210e+05 -5.000000e+04
-4.000000e+05 1.043476e+05 -2.478869e+04
-3.778006e+05 1.290431e+05 -2.559237e+04
-3.668348e+05 1.033122e+05 0.000000e+00
-3.750401e+05 1.075547e+05 -3.181274e+04
4.000000e+05 -3.652174e+05 -2.500000e+04
3.692598e+05 -3.333058e+05 -2.499312e+04
3.776504e+05 -3.747415e+05 -2.247043e+04
3.693733e+05 -3.529960e+05 0.000000e+00
-4.000000e+05 8.695652e+04 0.000000e+00
-3.760516e+05 8.212939e+04 -2.543564e+04
-3.482879e+05 1.253124e+05 -2.574623e+04
-3.665651e+05 9.874016e+04 -5.000000e+04
-3.495547e+05 9.060720e+04 -2.563270e+04
-3.071185e+05 -3.486990e+05 -2.261025e+04
-3.153762e+05 -3.243183e+05 -5.000000e+04
-3.287827e+05 -3.355430e+05 -2.504110e+04
-3.095113e+05 -3.153966e+05 -2.507638e+04
-2.962358e+05 -3.323448e+05 0.000000e+00
-3.357456e+05 -3.422369e+05 0.000000e+00
-2.772919e+05 -3.669732e+05 0.000000e+00
-2.934123e+05 -3.742563e+05 -2.511903e+04
-2.806419e+05 -3.463229e+05 -2.661752e+04
-3.140042e+05 -3.607419e+05 -5.000000e+04
-3.320497e+05 -3.703516e+05 -2.524928e+04
-3.224905e+05 6.841821e+04 -2.756000e+04
-3.000000e+05 4.234958e+04 -2.422604e+04
-3.000000e+05 5.362570e+04 -5.000000e+04
-3.000000e+05 7.749820e+04 -2.479801e+04
3.227610e+05 -1.685566e+05 -2.697912e+04
3.499303e+05 -1.919500e+05 -2.498446e+04
3.500600e+05 -1.567367e+05 -2.546429e+04
3.335574e+05 -1.858748e+05 0.000000e+00
3.000000e+05 -1.659466e+05 0.000000e+00
3.208602e+05 -1.947095e+05 -2.232217e+04
3.000000e+05 -1.806737e+05 -2.506219e+04
3.330650e+05 -1.842018e+05 -5.000000e+04
3.000000e+05 -1.978940e+05 -5.000000e+04
3.000000e+05 -1.638587e+05 -5.000000e+04
-1.949782e+05 -3.787045e+05 -2.503133e+04
-1.713812e+05 -3.663209e+05 -5.000000e+04
-1.725141e+05 -3.772415e+05 -2.530126e+04
-1.913043e+05 -4.000000e+05 -5.000000e+04
-1.972219e+05 -3.510331e+05 -2.499278e+04
-1.739069e+05 -4.000000e+05 -2.478809e+04
-1.716829e+05 -3.668361e+05 0.000000e+00
-1.913043e+05 -4.000000e+05 0.000000e+00
1.358880e+05 -3.243044e+05 -2.504137e+04
1.166322e+05 -3.000000e+05 -2.516475e+04
1.497984e+05 -3.000000e+05 -2.516553e+04
1.333333e+05 -3.000000e+05 -5.000000e+04
1.825802e+05 3.751615e+05 -2.720292e+04
2.119132e+05 3.796036e+05 -2.524922e+04
2.061857e+05 3.668333e+05 0.000000e+00
1.947422e+05 3.503722e+05 -2.524152e+04
1.565217e+05 4.000000e+05 0.000000e+00
1.528807e+05 3.759790e+05 -2.499953e+04
1.739069e+05 4.000000e+05 -2.478809e+04
1.716839e+05 3.668365e+05 0.000000e+00
1.913043e+05 4.000000e+05 0.000000e+00
1.565217e+05 4.000000e+05 -5.000000e+04
1.713714e+05 3.663108e+05 -5.000000e+04
1.613560e+05 3.500277e+05 -2.506640e+04
-8.982230e+04 3.792244e+05 -2.494679e+04
-6.535746e+04 3.800015e+05 -2.495585e+04
-6.848071e+04 3.663195e+05 -5.000000e+04
-8.695652e+04 4.000000e+05 -5.000000e+04
-6.956522e+04 4.000000e+05 -2.478801e+04
-9.132937e+04 3.518806e+05 -2.497956e+04
-8.695652e+04 4.000000e+05 0.000000e+00
-6.863978e+04 3.668364e+05 0.000000e+00
8.983161e+04 -3.792230e+05 -2.494676e+04
8.695652e+04 -4.000000e+05 -5.000000e+04
6.956522e+04 -4.000000e+05 -2.478801e+04
8.695652e+04 -4.000000e+05 0.000000e+00
9.134075e+04 -3.518804e+05 -2.497894e+04
6.864043e+04 -3.668360e+05 0.000000e+00
-1.485035e+05 -3.773486e+05 -2.721498e+04
-1.630495e+05 -3.485427e+05 -2.521974e+04
-1.185212e+05 -3.761066e+05 -2.504756e+04
-1.217391e+05 -4.000000e+05 -5.000000e+04
-1.370985e+05 -3.663236e+05 -5.000000e+04
-1.217391e+05 -4.000000e+05 0.000000e+00
-1.391294e+05 -4.000000e+05 -2.478846e+04
-1.373218e+05 -3.668365e+05 0.000000e+00
-1.565217e+05 -4.000000e+05 0.000000e+00
-1.276844e+05 -3.500075e+05 -2.505733e+04
-3.784905e+05 1.568709e+05 -2.476156e+04
-3.664298e+05 1.337587e+05 -5.000000e+04
-3.514457e+05 1.599418e+05 -2.483113e+04
-4.000000e+05 1.565217e+05 -5.000000e+04
-4.000000e+05 1.391294e+05 -2.478846e+04
-3.668349e+05 1.375908e+05 0.000000e+00
-4.000000e+05 1.565217e+05 0.000000e+00
3.668265e+05 -1.714683e+05 0.000000e+00
4.000000e+05 -1.913043e+05 0.000000e+00
4.000000e+05 -1.739069e+05 -2.478809e+04
4.000000e+05 -1.565217e+05 0.000000e+00
3.763528e+05 1.812702e+05 -2.493822e+04
4.000000e+05 1.565217e+05 0.000000e+00
3.764050e+05 1.528124e+05 -2.490916e+04
4.000000e+05 1.739130e+05 -2.478510e+04
3.668383e+05 1.722952e+05 0.000000e+00
3.797466e+05 2.119345e+05 -2.497186e+04
4.000000e+05 1.913043e+05 -5.000000e+04
3.662642e+05 2.068445e+05 -5.000000e+04
3.507120e+05 1.619053e+05 -2.490325e+04
3.662844e+05 1.729597e+05 -5.000000e+04
4.000000e+05 1.565217e+05 -5.000000e+04
3.776488e+05 -7.900637e+04 -2.735718e+04
3.762845e+05 -4.901174e+04 -2.508786e+04
3.663605e+05 -6.676216e+04 -5.000000e+04
3.502306e+05 -5.807827e+04 -2.511783e+04
4.000000e+05 -5.217391e+04 -5.000000e+04
3.773063e+05 -1.038824e+05 -2.578879e+04
4.000000e+05 -8.695652e+04 0.000000e+00
3.668372e+05 -1.026508e+05 0.000000e+00
4.000000e+05 -5.217391e+04 0.000000e+00
4.000000e+05 -6.956519e+04 -2.478879e+04
3.668380e+05 -6.826645e+04 0.000000e+00
4.000000e+05 -1.043476e+05 -2.478869e+04
-1.666667e+05 -3.000000e+05 -5.000000e+04
-1.833333e+05 -3.000000e+05 -2.518468e+04
-1.933582e+05 -3.216521e+05 -2.503520e+04
-1.657267e+05 -3.213415e+05 -2.506307e+04
-1.666667e+05 -3.000000e+05 0.000000e+00
3.334882e+05 -2.202831e+05 0.000000e+00
3.000000e+05 -1.994599e+05 0.000000e+00
3.000000e+05 -2.085861e+05 -2.501244e+04
-1.859359e+05 -3.331067e+05 -5.000000e+04
-1.862587e+05 -3.335758e+05 0.000000e+00
-4.132523e+04 3.761107e+05 -2.495957e+04
-3.478261e+04 4.000000e+05 -2.478841e+04
-5.217391e+04 4.000000e+05 -5.000000e+04
-1.739130e+04 4.000000e+05 -5.000000e+04
-1.424890e+04 3.757408e+05 -2.497844e+04
-3.421938e+04 3.663190e+05 -5.000000e+04
-5.217391e+04 4.000000e+05 0.000000e+00
-1.739130e+04 4.000000e+05 0.000000e+00
-3.431405e+04 3.668365e+05 0.000000e+00
-2.739007e+04 3.505180e+05 -2.498776e+04
-1.739130e+05 4.000000e+05 -2.478510e+04
-1.528672e+05 3.759826e+05 -2.500255e+04
-1.716148e+05 3.668263e+05 0.000000e+00
-1.825315e+05 3.751689e+05 -2.721318e+04
-1.913043e+05 4.000000e+05 0.000000e+00
-2.059314e+05 3.667832e+05 0.000000e+00
-2.118669e+05 3.796033e+05 -2.526514e+04
-1.612599e+05 3.500460e+05 -2.507149e+04
-1.913043e+05 4.000000e+05 -5.000000e+04
-2.056558e+05 3.663226e+05 -5.000000e+04
-1.712892e+05 3.663242e+05 -5.000000e+04
-1.565217e+05 4.000000e+05 -5.000000e+04
3.507710e+05 -3.071241e+05 -1.983709e+04
3.472371e+05 -2.783609e+05 -2.630278e+04
3.316724e+05 -2.967750e+05 0.000000e+00
3.666108e+05 -2.775848e+05 0.000000e+00
3.309559e+05 -3.255688e+05 -2.698212e+04
3.397681e+05 -3.369212e+05 0.000000e+00
3.744093e+05 -2.934608e+05 -2.492539e+04
3.303054e+05 -2.869393e+05 -5.000000e+04
3.606270e+05 -3.135064e+05 -5.000000e+04
-3.238506e+05 1.781151e+05 -2.284516e+04
-3.335738e+05 1.866432e+05 0.000000e+00
-3.000000e+05 1.673499e+05 0.000000e+00
-3.000000e+05 2.005124e+05 0.000000e+00
-3.242363e+05 2.019112e+05 -2.479758e+04
-3.335722e+05 1.528704e+05 0.000000e+00
-3.219833e+05 1.550144e+05 -2.418889e+04
-3.331119e+05 1.814444e+05 -5.000000e+04
-3.500623e+05 1.947691e+05 -2.492389e+04
3.000000e+05 -1.480457e+05 -2.518612e+04
3.070808e+05 3.546107e+05 -1.714572e+04
2.838715e+05 3.432764e+05 -2.626473e+04
2.962288e+05 3.323792e+05 0.000000e+00
2.772894e+05 3.669850e+05 0.000000e+00
3.214547e+05 3.369143e+05 -2.636251e+04
3.136723e+05 3.607135e+05 -5.000000e+04
2.935138e+05 3.747013e+05 -2.499119e+04
3.357389e+05 3.423035e+05 0.000000e+00
3.310854e+05 3.708053e+05 -2.520548e+04
-3.303425e+05 2.864208e+05 -5.000000e+04
-3.469504e+05 2.817468e+05 -2.677742e+04
-3.300427e+05 3.281790e+05 -2.631692e+04
-3.606526e+05 3.133330e+05 -5.000000e+04
-3.538099e+05 3.084519e+05 -1.787405e+04
-3.749470e+05 2.933940e+05 -2.493585e+04
-3.716865e+05 3.330494e+05 -2.604840e+04
-3.422611e+05 3.357632e+05 0.000000e+00
-3.323575e+05 2.962961e+05 0.000000e+00
-3.669772e+05 2.773495e+05 0.000000e+00
-3.208683e+05 1.285984e+05 -2.543766e+04
-3.000000e+05 1.341874e+05 0.000000e+00
-3.000000e+05 1.457374e+05 -2.479770e+04
-3.331557e+05 1.463574e+05 -5.000000e+04
-3.335717e+05 1.191216e+05 0.000000e+00
-3.000000e+05 1.116890e+05 -2.479816e+04
3.750985e+05 1.731082e+04 -2.495385e+04
3.668370e+05 3.487991e+04 0.000000e+00
3.766226e+05 5.120408e+04 -2.491509e+04
3.486553e+05 3.094323e+04 -2.470062e+04
3.664079e+05 2.208090e+03 -5.000000e+04
3.755591e+05 -1.521008e+04 -2.489784e+04
3.365423e+05 9.969610e+02 -2.491966e+04
3.668382e+05 4.985393e+02 0.000000e+00
4.000000e+05 8.858707e-04 -2.478866e+04
4.000000e+05 1.739130e+04 0.000000e+00
3.664904e+05 3.662308e+04 -5.000000e+04
4.000000e+05 1.739130e+04 -5.000000e+04
4.000000e+05 3.478261e+04 -2.478841e+04
3.241835e+05 -1.338846e+05 -2.511108e+04
3.331162e+05 -1.156285e+05 -5.000000e+04
3.331063e+05 -1.499070e+05 -5.000000e+04
3.000000e+05 -1.298234e+05 -5.000000e+04
3.000000e+05 -1.142814e+05 -2.518156e+04
3.501925e+05 -1.229656e+05 -2.536930e+04
3.335703e+05 -1.518628e+05 0.000000e+00
3.335746e+05 -1.178848e+05 0.000000e+00
3.000000e+05 -1.324332e+05 0.000000e+00
-1.185180e+05 -3.335740e+05 0.000000e+00
-1.333333e+05 -3.000000e+05 0.000000e+00
-1.000000e+05 -3.000000e+05 0.000000e+00
-1.166667e+05 -3.000000e+05 -2.516967e+04
3.767701e+05 8.545747e+04 -2.498937e+04
4.000000e+05 8.695652e+04 -5.000000e+04
3.664910e+05 7.093362e+04 -5.000000e+04
3.664147e+05 1.050627e+05 -5.000000e+04
4.000000e+05 8.695652e+04 0.000000e+00
3.668311e+05 6.925743e+04 0.000000e+00
4.000000e+05 6.956522e+04 -2.478801e+04
3.532003e+05 6.143720e+04 -2.460611e+04
3.529343e+05 9.380645e+04 -2.566405e+04
-6.874474e+04 -3.242435e+05 -2.504036e+04
-6.666667e+04 -3.000000e+05 -5.000000e+04
-8.449632e+04 -3.330926e+05 -5.000000e+04
-8.333333e+04 -3.000000e+05 -2.516717e+04
-5.070534e+04 -3.330921e+05 -5.000000e+04
-3.504121e+04 -3.245413e+05 -2.502465e+04
-6.004943e+04 -3.500827e+05 -2.499331e+04
-5.000000e+04 -3.000000e+05 -2.516571e+04
-6.666667e+04 -3.000000e+05 0.000000e+00
-8.466381e+04 -3.335739e+05 0.000000e+00
-5.081027e+04 -3.335738e+05 0.000000e+00
-4.203528e+01 -3.663214e+05 -5.000000e+04
5.806818e+04 -3.503625e+05 -2.498975e+04
-1.092350e+01 -3.668362e+05 0.000000e+00
-1.692102e+05 3.243414e+05 -2.505659e+04
-1.497984e+05 3.000000e+05 -2.516553e+04
-1.523098e+05 3.335679e+05 0.000000e+00
-1.666667e+05 3.000000e+05 0.000000e+00
-1.861609e+05 3.335431e+05 0.000000e+00
-1.520578e+05 3.330910e+05 -5.000000e+04
-1.666667e+05 3.000000e+05 -5.000000e+04
-2.014509e+05 3.247662e+05 -2.509359e+04
-1.946262e+05 3.503845e+05 -2.526307e+04
-1.859348e+05 3.330882e+05 -5.000000e+04
-1.358600e+05 3.242972e+05 -2.504279e+04
-1.333333e+05 3.000000e+05 -5.000000e+04
-1.182493e+05 3.330906e+05 -5.000000e+04
-1.166322e+05 3.000000e+05 -2.516475e+04
-1.273602e+05 3.501964e+05 -2.499798e+04
-1.184568e+05 3.335728e+05 0.000000e+00
-1.333333e+05 3.000000e+05 0.000000e+00
-3.765844e+05 4.941228e+04 -2.481875e+04
-3.673438e+05 6.361594e+04 -5.000000e+04
-3.697421e+05 3.118381e+04 -5.000000e+04
-4.000000e+05 5.217391e+04 -5.000000e+04
-3.500226e+05 5.694395e+04 -2.502865e+04
-4.000000e+05 6.956519e+04 -2.478879e+04
-3.668344e+05 6.903915e+04 0.000000e+00
-4.000000e+05 5.217391e+04 0.000000e+00
-3.668332e+05 3.476756e+04 0.000000e+00
3.506741e+05 1.954058e+05 -2.492035e+04
3.667880e+05 2.064991e+05 0.000000e+00
4.000000e+05 1.913043e+05 0.000000e+00
3.524115e+05 2.292680e+05 -2.500914e+04
4.000000e+05 2.260870e+05 0.000000e+00
4.000000e+05 2.086957e+05 -2.478282e+04
4.000000e+05 2.260870e+05 -5.000000e+04
3.663607e+05 -1.012768e+05 -5.000000e+04
3.502973e+05 -9.073598e+04 -2.534740e+04
3.507019e+05 -2.679409e+04 -2.496024e+04
3.663535e+05 -3.225670e+04 -5.000000e+04
4.000000e+05 -3.478260e+04 -2.478878e+04
-3.266589e+05 -2.410762e+05 -2.505588e+04
-3.333600e+05 -2.532862e+05 -5.000000e+04
-3.000000e+05 -2.284991e+05 -5.000000e+04
-3.000000e+05 -2.479379e+05 -2.502526e+04
3.668383e+05 -3.388371e+04 0.000000e+00
3.504153e+04 3.245405e+05 -2.502450e+04
1.695789e+04 3.335742e+05 0.000000e+00
1.666670e+04 3.000000e+05 -2.516485e+04
3.333333e+04 3.000000e+05 0.000000e+00
3.333333e+04 3.000000e+05 -5.000000e+04
5.070364e+04 3.330890e+05 -5.000000e+04
5.000000e+04 3.000000e+05 -2.516571e+04
5.081153e+04 3.335742e+05 0.000000e+00
6.874696e+04 3.242418e+05 -2.504019e+04
6.005250e+04 3.500807e+05 -2.499250e+04
2.845989e+04 3.505381e+05 -2.498704e+04
-5.046714e+04 -3.759364e+05 -2.494343e+04
-6.856756e+04 -3.663226e+05 -5.000000e+04
-5.217391e+04 -4.000000e+05 -5.000000e+04
-6.956519e+04 -4.000000e+05 -2.478879e+04
-6.866241e+04 -3.668363e+05 0.000000e+00
-5.217391e+04 -4.000000e+05 0.000000e+00
-3.433659e+04 -3.668363e+05 0.000000e+00
-3.430466e+04 -3.663219e+05 -5.000000e+04
-1.639403e+04 -3.755133e+05 -2.495315e+04
-2.845919e+04 -3.505391e+05 -2.498731e+04
-3.478260e+04 -4.000000e+05 -2.478878e+04
8.466523e+04 3.335742e+05 0.000000e+00
6.666667e+04 3.000000e+05 0.000000e+00
6.666667e+04 3.000000e+05 -5.000000e+04
8.449360e+04 3.330887e+05 -5.000000e+04
8.333333e+04 3.000000e+05 -2.516717e+04
1.023816e+05 3.242321e+05 -2.504202e+04
9.372011e+04 3.500223e+05 -2.499456e+04
1.370925e+05 3.663162e+05 -5.000000e+04
1.913043e+05 4.000000e+05 -5.000000e+04
-3.741679e+05 -2.937858e+05 -2.485895e+04
-3.478377e+05 -2.798632e+05 -2.539851e+04
-3.671308e+05 -2.570003e+05 -2.510635e+04
-3.650927e+05 -2.750990e+05 0.000000e+00
1.373228e+05 3.668367e+05 0.000000e+00
-1.029893e+05 -3.668364e+05 0.000000e+00
-1.028313e+05 -3.663232e+05 -5.000000e+04
-8.469488e+04 -3.758513e+05 -2.494205e+04
-9.370882e+04 -3.500317e+05 -2.500131e+04
-1.043476e+05 -4.000000e+05 -2.478869e+04
-1.565217e+05 -4.000000e+05 -5.000000e+04
-2.061853e+05 -3.668319e+05 0.000000e+00
-2.057310e+05 -3.662991e+05 -5.000000e+04
3.679246e+05 -3.150758e+05 0.000000e+00
4.000000e+05 -3.058551e+05 -2.478408e+04
4.000000e+05 -2.956522e+05 0.000000e+00
-3.770673e+05 -9.000412e+04 -2.540564e+04
-3.543654e+05 -7.397311e+04 -2.715920e+04
-4.000000e+05 -6.956522e+04 -2.478801e+04
-3.668488e+05 -6.807684e+04 0.000000e+00
-3.668495e+05 -1.024032e+05 0.000000e+00
-4.000000e+05 3.652174e+05 -2.500000e+04
-3.777286e+05 3.768122e+05 0.000000e+00
-3.731516e+05 3.486385e+05 0.000000e+00
-3.714872e+05 3.688519e+05 -2.692960e+04
-3.650846e+05 -6.946161e+04 -5.000000e+04
-3.713056e+05 -1.194029e+05 -2.505908e+04
-3.490454e+05 -1.009948e+05 -2.627530e+04
-3.648737e+05 -1.036599e+05 -5.000000e+04
1.020335e+05 -3.246504e+05 -2.504083e+04
8.460407e+04 -3.335732e+05 0.000000e+00
1.000000e+05 -3.000000e+05 0.000000e+00
8.332745e+04 -3.000000e+05 -2.516433e+04
8.445746e+04 -3.330909e+05 -5.000000e+04
1.000000e+05 -3.000000e+05 -5.000000e+04
1.182517e+05 -3.330909e+05 -5.000000e+04
1.184575e+05 -3.335722e+05 0.000000e+00
1.274335e+05 -3.501961e+05 -2.498962e+04
-1.020274e+05 3.246487e+05 -2.504092e+04
-8.445581e+04 3.330901e+05 -5.000000e+04
-6.843288e+04 3.243743e+05 -2.503859e+04
-8.332745e+04 3.000000e+05 -2.516433e+04
-4.000000e+05 -2.608696e+05 0.000000e+00
-4.000000e+05 -2.771014e+05 -2.492608e+04
-1.000000e+05 3.000000e+05 -5.000000e+04
-3.779813e+05 1.793861e+04 -2.471720e+04
-3.538434e+05 2.684010e+04 -2.445155e+04
-3.664206e+05 -4.381184e+02 -5.000000e+04
-4.000000e+05 3.478260e+04 -2.478878e+04
-3.577068e+05 -9.664367e+03 -2.570330e+04
-4.000000e+05 -8.858707e-04 -2.478866e+04
-3.668282e+05 4.980022e+02 0.000000e+00
-1.027426e+05 3.663202e+05 -5.000000e+04
-1.043478e+05 4.000000e+05 -2.478740e+04
3.000000e+05 1.620150e+03 0.000000e+00
3.000000e+05 2.129304e+04 -2.541449e+04
3.000000e+05 -1.290127e+04 -2.521732e+04
-5.806575e+04 3.503621e+05 -2.498975e+04
1.693273e+05 -3.243277e+05 -2.504698e+04
1.520608e+05 -3.330907e+05 -5.000000e+04
1.666667e+05 -3.000000e+05 -5.000000e+04
1.859379e+05 -3.330874e+05 -5.000000e+04
1.523100e+05 -3.335678e+05 0.000000e+00
1.666667e+05 -3.000000e+05 0.000000e+00
2.021077e+05 -3.244261e+05 -2.506304e+04
1.955659e+05 -3.499971e+05 -2.500958e+04
1.861576e+05 -3.335456e+05 0.000000e+00
-2.236109e+05 -3.757007e+05 -2.493324e+04
-2.304991e+05 -3.501497e+05 -2.498146e+04
-2.581312e+05 -3.687067e+05 -2.492134e+04
-2.411432e+05 -3.668207e+05 0.000000e+00
-2.432678e+05 -4.000000e+05 -2.478668e+04
-2.260870e+05 -4.000000e+05 0.000000e+00
-3.328022e+05 -2.535374e+05 0.000000e+00
-3.204426e+05 -2.775350e+05 -2.531241e+04
2.260870e+05 4.000000e+05 0.000000e+00
2.290070e+05 3.516954e+05 -2.497720e+04
2.057115e+05 3.662839e+05 -5.000000e+04
2.260870e+05 4.000000e+05 -5.000000e+04
3.260291e+05 5.527485e+04 -2.167441e+04
3.335746e+05 5.195984e+04 0.000000e+00
3.000000e+05 6.864685e+04 0.000000e+00
3.000000e+05 3.513350e+04 0.000000e+00
3.332136e+05 5.547382e+04 -5.000000e+04
3.301769e+05 9.333567e+04 -3.050587e+04
3.335698e+05 8.592243e+04 0.000000e+00
3.331079e+05 8.918084e+04 -5.000000e+04
3.000000e+05 5.756939e+04 -2.657048e+04
3.778435e+05 -1.292387e+05 -2.746793e+04
4.000000e+05 -1.217391e+05 -5.000000e+04
4.000000e+05 -1.217391e+05 0.000000e+00
4.000000e+05 -8.695652e+04 -5.000000e+04
3.335767e+05 -1.597580e+04 0.000000e+00
3.000000e+05 -3.189320e+04 0.000000e+00
4.000000e+05 -1.739130e+04 -5.000000e+04
4.000000e+05 -1.739130e+04 0.000000e+00
-3.335594e+05 2.207671e+05 0.000000e+00
-3.418106e+05 -3.118196e+05 -2.512406e+04
-3.246449e+05 -3.150201e+05 0.000000e+00
-3.608008e+05 -3.135540e+05 0.000000e+00
-3.306775e+05 -2.872043e+05 0.000000e+00
-3.325656e+05 -2.952111e+05 -5.000000e+04
-2.198549e+05 -3.329933e+05 -5.000000e+04
-2.254694e+05 -3.218515e+05 -2.503149e+04
-2.000000e+05 -3.000000e+05 -5.000000e+04
-2.333333e+05 -3.000000e+05 0.000000e+00
-2.558329e+05 -3.333551e+05 0.000000e+00
-2.204932e+05 -3.335596e+05 0.000000e+00
-2.538498e+05 -3.324107e+05 -5.000000e+04
-2.164815e+05 -3.000000e+05 -2.508297e+04
-2.000000e+05 -3.000000e+05 0.000000e+00
-2.333333e+05 -3.000000e+05 -5.000000e+04
1.333333e+05 -3.000000e+05 0.000000e+00
1.616430e+05 -3.500617e+05 -2.499635e+04
-3.000000e+05 -2.326501e+05 0.000000e+00
-3.334238e+05 -2.194600e+05 0.000000e+00
-3.000000e+05 -2.201815e+05 -2.507577e+04
-3.253349e+05 -1.873345e+05 -2.049121e+04
-3.335650e+05 -2.166662e+05 -5.000000e+04
3.689297e+05 -2.595719e+05 -2.483827e+04
3.667086e+05 -2.411486e+05 0.000000e+00
3.331504e+05 -2.559007e+05 0.000000e+00
2.016677e+05 3.247407e+05 -2.506686e+04
2.000000e+05 3.000000e+05 0.000000e+00
1.862602e+05 3.335762e+05 0.000000e+00
1.822222e+05 3.000000e+05 -2.505826e+04
2.198160e+05 3.329687e+05 -5.000000e+04
2.000000e+05 3.000000e+05 -5.000000e+04
1.859253e+05 3.330974e+05 -5.000000e+04
2.204925e+05 3.335627e+05 0.000000e+00
2.358468e+05 3.210471e+05 -2.328431e+04
2.097778e+05 3.000000e+05 -2.501165e+04
3.648524e+05 -2.748524e+05 -5.000000e+04
4.000000e+05 -2.956522e+05 -5.000000e+04
4.000000e+05 -2.770306e+05 -2.478549e+04
1.821543e+05 -3.000000e+05 -2.516675e+04
2.000000e+05 -3.000000e+05 0.000000e+00
2.000000e+05 -3.000000e+05 -5.000000e+04
2.201138e+05 -3.330690e+05 -5.000000e+04
3.247485e+05 2.029322e+05 -2.477744e+04
3.330635e+05 2.219417e+05 -5.000000e+04
3.330575e+05 1.885308e+05 -5.000000e+04
3.000000e+05 2.033094e+05 -5.000000e+04
3.000000e+05 1.824782e+05 -2.354300e+04
3.000000e+05 2.115622e+05 -2.470860e+04
3.235835e+05 2.457527e+05 -2.507962e+04
3.000000e+05 2.018902e+05 0.000000e+00
3.334338e+05 2.210121e+05 0.000000e+00
-3.761356e+05 -2.222195e+05 -2.495739e+04
-4.000000e+05 -2.260870e+05 0.000000e+00
-3.664180e+05 -2.401224e+05 0.000000e+00
-3.667926e+05 -2.056104e+05 0.000000e+00
-4.000000e+05 -2.434783e+05 -2.477866e+04
-3.516945e+05 -2.282953e+05 -2.504508e+04
-3.668120e+05 -2.393249e+05 -5.000000e+04
-4.000000e+05 -2.260870e+05 -5.000000e+04
-3.669971e+05 -2.045363e+05 -5.000000e+04
-3.208779e+05 2.328595e+05 -2.525954e+04
-3.329471e+05 2.165658e+05 -5.000000e+04
-3.323524e+05 2.517254e+05 -5.000000e+04
-3.000000e+05 2.296073e+05 -5.000000e+04
-3.243401e+05 -8.222141e+04 -2.577569e+04
-3.258057e+05 -1.079323e+05 -2.225284e+04
-3.316101e+05 -1.031153e+05 -5.000000e+04
-3.483678e+05 -8.638943e+04 -5.000000e+04
-3.319027e+05 -6.932098e+04 -5.000000e+04
-3.000000e+05 -7.392711e+04 -2.545413e+04
-3.000000e+05 -1.021352e+05 -2.835688e+04
-3.000000e+05 -8.715961e+04 -5.000000e+04
-3.752462e+05 2.222430e+05 -2.498966e+04
-3.758455e+05 1.877628e+05 -2.494556e+04
-4.000000e+05 2.086597e+05 -2.478752e+04
-3.663383e+05 2.036832e+05 -5.000000e+04
-3.668215e+05 2.412511e+05 0.000000e+00
-4.000000e+05 2.432678e+05 -2.478668e+04
-4.000000e+05 2.260870e+05 0.000000e+00
-3.684371e+05 2.576362e+05 -2.494530e+04
-4.000000e+05 2.260870e+05 -5.000000e+04
-3.660429e+05 2.387791e+05 -5.000000e+04
-3.483566e+05 2.279532e+05 -2.520459e+04
3.203795e+05 2.809613e+05 -2.539911e+04
3.087365e+05 3.135860e+05 -2.498554e+04
3.000000e+05 3.000000e+05 0.000000e+00
3.306623e+05 2.876205e+05 0.000000e+00
-3.000000e+05 1.944110e+05 -5.000000e+04
-3.000000e+05 2.073114e+05 -2.479520e+04
3.401538e+05 3.123778e+05 -2.533245e+04
3.473047e+05 2.813610e+05 -2.539096e+04
-3.664118e+05 1.687046e+05 -5.000000e+04
-3.337477e+05 7.552676e+04 -5.000000e+04
-3.332385e+05 1.111913e+05 -5.000000e+04
3.321658e+05 2.963811e+05 -5.000000e+04
3.000000e+05 2.677698e+05 -5.000000e+04
3.000000e+05 3.000000e+05 -5.000000e+04
-3.524126e+05 -3.523818e+05 -2.502209e+04
-3.722201e+05 -3.343159e+05 -2.459849e+04
-3.506477e+05 -3.701606e+05 -5.000000e+04
-3.720044e+05 -3.666681e+05 -2.494985e+04
-3.734168e+05 -3.485092e+05 -5.000000e+04
-3.425535e+05 -3.353912e+05 -5.000000e+04
6.666667e+04 -3.000000e+05 -5.000000e+04
3.329041e+05 -2.185382e+05 -5.000000e+04
-5.074947e+04 3.335740e+05 0.000000e+00
-6.666667e+04 3.000000e+05 0.000000e+00
-4.999900e+04 3.000000e+05 -2.516422e+04
-6.666667e+04 3.000000e+05 -5.000000e+04
-5.066548e+04 3.330897e+05 -5.000000e+04
-8.460317e+04 3.335738e+05 0.000000e+00
-3.763475e+05 -1.533744e+05 -2.484127e+04
-4.000000e+05 -1.565217e+05 -5.000000e+04
-4.000000e+05 -1.391304e+05 -2.478649e+04
-3.640246e+05 -1.375381e+05 -5.000000e+04
-3.674152e+05 -1.716001e+05 -5.000000e+04
-3.762632e+05 -1.876572e+05 -2.483010e+04
-4.000000e+05 -1.739130e+05 -2.478510e+04
-4.000000e+05 -1.565217e+05 0.000000e+00
-3.668386e+05 -1.711937e+05 0.000000e+00
-3.668436e+05 -1.367793e+05 0.000000e+00
-3.531817e+05 -1.609017e+05 -2.371928e+04
3.250892e+05 1.656344e+05 -2.525625e+04
3.276801e+05 1.323285e+05 -1.712442e+04
3.336147e+05 1.538073e+05 0.000000e+00
3.000000e+05 1.710792e+05 -5.000000e+04
3.330762e+05 1.554724e+05 -5.000000e+04
2.227577e+05 -3.753270e+05 -2.497885e+04
2.260870e+05 -4.000000e+05 0.000000e+00
2.059253e+05 -3.667880e+05 0.000000e+00
2.086957e+05 -4.000000e+05 -2.478282e+04
-3.000000e+05 1.240184e+05 -5.000000e+04
2.402710e+05 -3.664674e+05 0.000000e+00
2.434783e+05 -4.000000e+05 -2.477866e+04
2.582960e+05 -3.660669e+05 -2.501458e+04
2.290046e+05 -3.489136e+05 -2.503577e+04
2.405192e+05 -3.663288e+05 -5.000000e+04
2.260870e+05 -4.000000e+05 -5.000000e+04
2.056604e+05 -3.663196e+05 -5.000000e+04
3.763729e+05 1.197693e+05 -2.481760e+04
4.000000e+05 1.217391e+05 -5.000000e+04
3.663291e+05 1.390466e+05 -5.000000e+04
4.000000e+05 1.217391e+05 0.000000e+00
3.668342e+05 1.036336e+05 0.000000e+00
4.000000e+05 1.043478e+05 -2.478740e+04
3.516098e+05 1.283264e+05 -2.384767e+04
1.195272e+05 -3.758821e+05 -2.493392e+04
1.029661e+05 -3.668356e+05 0.000000e+00
1.217391e+05 -4.000000e+05 0.000000e+00
1.372913e+05 -3.668342e+05 0.000000e+00
1.370121e+05 -3.663215e+05 -5.000000e+04
1.217391e+05 -4.000000e+05 -5.000000e+04
1.027460e+05 -3.663208e+05 -5.000000e+04
3.737250e+05 2.941339e+05 -2.477745e+04
4.000000e+05 2.771014e+05 -2.492608e+04
4.000000e+05 2.956522e+05 0.000000e+00
3.650890e+05 2.754572e+05 0.000000e+00
4.000000e+05 2.956522e+05 -5.000000e+04
3.665665e+05 2.771117e+05 -5.000000e+04
3.688330e+05 3.136933e+05 -5.000000e+04
3.607920e+05 3.136982e+05 0.000000e+00
3.680150e+05 3.318064e+05 -2.459410e+04
4.000000e+05 3.058551e+05 -2.498522e+04
-4.000000e+05 3.058551e+05 -2.478408e+04
-3.691108e+05 3.139776e+05 0.000000e+00
-3.648936e+05 2.744016e+05 -5.000000e+04
-4.000000e+05 2.770306e+05 -2.478549e+04
-4.000000e+05 2.956522e+05 -5.000000e+04
-4.000000e+05 2.956522e+05 0.000000e+00
-3.224760e+05 9.970948e+04 -2.745770e+04
-3.000000e+05 1.789538e+05 -2.479665e+04
-3.000000e+05 1.592147e+05 -5.000000e+04
-4.000000e+05 1.217391e+05 -5.000000e+04
-4.000000e+05 1.217391e+05 0.000000e+00
4.000000e+05 -1.391294e+05 -2.478846e+04
3.774896e+05 -1.622140e+05 -2.718437e+04
4.000000e+05 -1.565217e+05 -5.000000e+04
3.668347e+05 -1.370424e+05 0.000000e+00
3.786799e+05 -2.056239e+05 -2.502252e+04
3.535426e+05 -2.293329e+05 -2.500730e+04
3.667968e+05 -2.060541e+05 0.000000e+00
3.663579e+05 -1.357953e+05 -5.000000e+04
1.535865e+05 -3.758272e+05 -2.494115e+04
1.739130e+05 -4.000000e+05 -2.478510e+04
1.565217e+05 -4.000000e+05 0.000000e+00
1.391304e+05 -4.000000e+05 -2.478649e+04
-8.695652e+04 -4.000000e+05 0.000000e+00
-8.695652e+04 -4.000000e+05 -5.000000e+04
3.000000e+05 1.021602e+05 0.000000e+00
3.331060e+05 1.223768e+05 -5.000000e+04
3.335748e+05 1.198782e+05 0.000000e+00
1.639458e+04 3.755126e+05 -2.495305e+04
1.739130e+04 4.000000e+05 -5.000000e+04
3.430340e+04 3.663184e+05 -5.000000e+04
4.196510e+01 3.663187e+05 -5.000000e+04
5.047155e+04 3.759350e+05 -2.494327e+04
3.433740e+04 3.668366e+05 0.000000e+00
1.739130e+04 4.000000e+05 0.000000e+00
3.478260e+04 4.000000e+05 -2.478878e+04
1.690515e+02 3.358671e+05 -2.501979e+04
1.166851e+01 3.668366e+05 0.000000e+00
-8.858707e-04 4.000000e+05 -2.478866e+04
-1.023578e+05 -3.242389e+05 -2.504325e+04
-1.182887e+05 -3.330931e+05 -5.000000e+04
-1.000000e+05 -3.000000e+05 -5.000000e+04
-1.357128e+05 -3.242111e+05 -2.505656e+04
1.360028e+05 3.242379e+05 -2.504459e+04
1.185195e+05 3.335744e+05 0.000000e+00
1.166667e+05 3.000000e+05 -2.516967e+04
1.333333e+05 3.000000e+05 0.000000e+00
1.333333e+05 3.000000e+05 -5.000000e+04
1.520816e+05 3.330864e+05 -5.000000e+04
1.500000e+05 3.000000e+05 -2.517433e+04
1.523779e+05 3.335748e+05 0.000000e+00
1.693135e+05 3.243438e+05 -2.504088e+04
1.276560e+05 3.500212e+05 -2.500197e+04
1.666667e+05 3.000000e+05 0.000000e+00
1.666667e+05 3.000000e+05 -5.000000e+04
-4.000000e+05 1.913043e+05 -5.000000e+04
2.666667e+05 3.000000e+05 -2.500000e+04
-4.000000e+05 8.695652e+04 -5.000000e+04
-1.333333e+05 -3.000000e+05 -5.000000e+04
-1.520877e+05 -3.330932e+05 -5.000000e+04
-1.500000e+05 -3.000000e+05 -2.517433e+04
-1.686213e+02 -3.358678e+05 -2.501986e+04
8.858707e-04 -4.000000e+05 -2.478866e+04
-1.739130e+04 -4.000000e+05 -5.000000e+04
-1.691472e+04 -3.330916e+05 -5.000000e+04
4.000000e+05 -2.608696e+05 0.000000e+00
4.000000e+05 -2.432678e+05 -2.478668e+04
-1.666670e+04 -3.000000e+05 -2.516485e+04
-3.333333e+04 -3.000000e+05 -5.000000e+04
-3.333333e+04 -3.000000e+05 0.000000e+00
-1.695675e+04 -3.335737e+05 0.000000e+00
8.474723e+04 3.758423e+05 -2.494167e+04
6.856501e+04 3.663180e+05 -5.000000e+04
5.217391e+04 4.000000e+05 -5.000000e+04
6.956519e+04 4.000000e+05 -2.478879e+04
6.843439e+04 -3.243746e+05 -2.503862e+04
5.066633e+04 -3.330910e+05 -5.000000e+04
3.482132e+04 -3.245126e+05 -2.502383e+04
4.999900e+04 -3.000000e+05 -2.516422e+04
3.663426e+05 -1.703254e+05 -5.000000e+04
4.000000e+05 -1.913043e+05 -5.000000e+04
-3.702024e+05 -3.502584e+05 0.000000e+00
-4.000000e+05 -3.304348e+05 0.000000e+00
2.739101e+04 -3.505186e+05 -2.498787e+04
1.687578e+04 -3.330913e+05 -5.000000e+04
5.075044e+04 -3.335735e+05 0.000000e+00
3.333333e+04 -3.000000e+05 -5.000000e+04
1.666650e+04 -3.000000e+05 -2.516438e+04
3.242587e+05 -6.630422e+04 -2.507475e+04
3.335765e+05 -4.994471e+04 0.000000e+00
3.000000e+05 -4.673885e+04 -2.518438e+04
3.000000e+05 -6.540655e+04 0.000000e+00
3.331144e+05 -4.708955e+04 -5.000000e+04
3.331181e+05 -8.135578e+04 -5.000000e+04
3.000000e+05 -6.175270e+04 -5.000000e+04
3.335760e+05 -8.391401e+04 0.000000e+00
3.242337e+05 -1.000588e+05 -2.511107e+04
3.000000e+05 -8.051535e+04 -2.518004e+04
1.043476e+05 4.000000e+05 -2.478869e+04
1.028273e+05 3.663175e+05 -5.000000e+04
8.695652e+04 4.000000e+05 -5.000000e+04
1.029903e+05 3.668367e+05 0.000000e+00
8.695652e+04 4.000000e+05 0.000000e+00
6.866331e+04 3.668366e+05 0.000000e+00
-3.335741e+05 -1.854110e+05 0.000000e+00
-3.335907e+05 -1.513473e+05 0.000000e+00
1.190948e+05 3.758318e+05 -2.494174e+04
1.217391e+05 4.000000e+05 0.000000e+00
1.217391e+05 4.000000e+05 -5.000000e+04
-1.194568e+05 3.758879e+05 -2.493445e+04
-1.370076e+05 3.663217e+05 -5.000000e+04
-1.391304e+05 4.000000e+05 -2.478649e+04
-1.217391e+05 4.000000e+05 -5.000000e+04
-1.029655e+05 3.668361e+05 0.000000e+00
-1.217391e+05 4.000000e+05 0.000000e+00
-1.372909e+05 3.668345e+05 0.000000e+00
-3.333582e+05 2.559979e+05 0.000000e+00
-1.565217e+05 4.000000e+05 0.000000e+00
-3.482072e+04 3.245123e+05 -2.502374e+04
-3.333333e+04 3.000000e+05 -5.000000e+04
-1.687575e+04 3.330895e+05 -5.000000e+04
-1.666650e+04 3.000000e+05 -2.516438e+04
-3.333333e+04 3.000000e+05 0.000000e+00
-1.689577e+04 3.335741e+05 0.000000e+00
1.000000e+05 3.000000e+05 -5.000000e+04
1.182847e+05 3.330881e+05 -5.000000e+04
3.662739e+05 -2.048932e+05 -5.000000e+04
4.000000e+05 -2.260870e+05 0.000000e+00
3.659869e+05 -2.395914e+05 -5.000000e+04
4.000000e+05 -2.260870e+05 -5.000000e+04
4.000000e+05 -2.086597e+05 -2.478752e+04
3.246120e+05 -3.243711e+04 -2.500012e+04
3.331464e+05 -1.284678e+04 -5.000000e+04
3.000000e+05 -2.771737e+04 -5.000000e+04
4.000000e+05 5.217391e+04 -5.000000e+04
4.000000e+05 5.217391e+04 0.000000e+00
-2.767554e+05 -3.193362e+05 -2.484007e+04
-3.000000e+05 -3.000000e+05 0.000000e+00
-2.666667e+05 -3.000000e+05 0.000000e+00
-2.876362e+05 -3.304688e+05 -5.000000e+04
-3.000000e+05 -3.000000e+05 -5.000000e+04
-2.666667e+05 -3.000000e+05 -5.000000e+04
-2.488210e+05 -3.000000e+05 -2.502427e+04
-3.505520e+05 -1.937736e+05 -2.474986e+04
-4.000000e+05 2.608696e+05 -5.000000e+04
-4.000000e+05 -2.086957e+05 -2.478282e+04
-4.000000e+05 -1.913043e+05 -5.000000e+04
2.943600e+05 -3.740399e+05 -2.496150e+04
2.749236e+05 -3.652724e+05 0.000000e+00
2.771014e+05 -4.000000e+05 -2.492608e+04
2.956522e+05 -4.000000e+05 0.000000e+00
2.766348e+05 -3.665248e+05 -5.000000e+04
3.134541e+05 -3.687821e+05 -5.000000e+04
2.956522e+05 -4.000000e+05 -5.000000e+04
2.882526e+05 -3.450401e+05 -2.394162e+04
4.000000e+05 -4.000000e+05 -5.000000e+04
3.767476e+05 -3.777037e+05 -5.000000e+04
4.000000e+05 -3.652174e+05 -5.000000e+04
-2.288127e+05 3.517469e+05 -2.505960e+04
-2.260870e+05 4.000000e+05 0.000000e+00
-2.260870e+05 4.000000e+05 -5.000000e+04
3.246361e+05 3.151522e+05 0.000000e+00
-2.956522e+05 -4.000000e+05 0.000000e+00
-3.139562e+05 -3.691022e+05 0.000000e+00
-2.753600e+05 -3.649433e+05 -5.000000e+04
-2.956522e+05 -4.000000e+05 -5.000000e+04
-3.058551e+05 -4.000000e+05 -2.478408e+04
-3.000000e+05 8.882203e+04 -5.000000e+04
-3.335708e+05 5.163284e+04 0.000000e+00
-3.000000e+05 6.786232e+04 0.000000e+00
-3.335713e+05 8.537688e+04 0.000000e+00
-3.521721e+05 3.516798e+05 -2.533877e+04
-3.502741e+05 3.702051e+05 0.000000e+00
-3.314293e+05 3.694705e+05 -2.470208e+04
-3.354789e+05 3.420119e+05 -5.000000e+04
-3.310329e+05 -1.600730e+05 -1.775653e+04
-3.000000e+05 -1.653002e+05 0.000000e+00
-3.484493e+05 -1.294787e+05 -2.818505e+04
-3.392471e+05 -1.565558e+05 -5.000000e+04
-3.302943e+05 -1.327996e+05 -5.000000e+04
-3.285831e+05 -1.308985e+05 -3.184924e+04
-3.345014e+05 -1.832889e+05 -5.000000e+04
2.752212e+05 3.649003e+05 -5.000000e+04
2.603049e+05 3.680288e+05 -2.483851e+04
2.770306e+05 4.000000e+05 -2.478549e+04
2.956522e+05 4.000000e+05 -5.000000e+04
3.139513e+05 3.691251e+05 0.000000e+00
2.956522e+05 4.000000e+05 0.000000e+00
3.668475e+05 1.379968e+05 0.000000e+00
4.000000e+05 1.391304e+05 -2.478649e+04
1.712945e+05 -3.663228e+05 -5.000000e+04
1.565217e+05 -4.000000e+05 -5.000000e+04
1.716142e+05 -3.668268e+05 0.000000e+00
4.000000e+05 -3.652174e+05 0.000000e+00
4.000000e+05 -4.000000e+05 0.000000e+00
1.880259e+05 -3.757989e+05 -2.494726e+04
1.913043e+05 -4.000000e+05 -5.000000e+04
1.913043e+05 -4.000000e+05 0.000000e+00
-2.200076e+05 3.334178e+05 0.000000e+00
-2.000000e+05 3.000000e+05 0.000000e+00
-2.000000e+05 3.000000e+05 -5.000000e+04
-2.201121e+05 3.330688e+05 -5.000000e+04
2.554586e+05 -3.329534e+05 -5.000000e+04
2.958306e+05 -3.320724e+05 -5.000000e+04
-2.339463e+05 3.217834e+05 -2.506183e+04
-2.097778e+05 3.000000e+05 -2.516827e+04
3.499250e+05 3.518265e+05 -2.484966e+04
3.668898e+05 3.672810e+05 -2.496000e+04
3.486284e+05 3.731663e+05 0.000000e+00
3.701971e+05 3.502998e+05 0.000000e+00
3.421791e+05 3.356674e+05 -5.000000e+04
-4.000000e+05 3.304348e+05 -5.000000e+04
-3.791118e+05 -3.840598e+04 -2.618980e+04
-3.653797e+05 -3.475808e+04 -5.000000e+04
-4.000000e+05 -1.739130e+04 -5.000000e+04
-3.524485e+05 -4.158471e+04 -2.767468e+04
-3.668327e+05 -3.377970e+04 0.000000e+00
-4.000000e+05 -5.217391e+04 -5.000000e+04
-4.000000e+05 -3.478261e+04 -2.478841e+04
3.000000e+05 1.356736e+05 0.000000e+00
3.000000e+05 1.388490e+05 -5.000000e+04
-1.523763e+05 -3.335744e+05 0.000000e+00
-3.059014e+05 3.152767e+05 -2.495502e+04
-2.873505e+05 3.306746e+05 0.000000e+00
-3.000000e+05 3.000000e+05 0.000000e+00
-2.666667e+05 3.000000e+05 -2.500000e+04
3.000000e+05 -9.891990e+04 0.000000e+00
2.608696e+05 -4.000000e+05 -5.000000e+04
3.000000e+05 -9.578803e+04 -5.000000e+04
-4.000000e+05 -2.956522e+05 0.000000e+00
-4.000000e+05 -2.956522e+05 -5.000000e+04
-3.670435e+05 -2.760499e+05 -5.000000e+04
-3.693106e+05 -3.134064e+05 -5.000000e+04
-4.000000e+05 -3.058551e+05 -2.498522e+04
-2.930889e+05 3.750148e+05 -2.496666e+04
-2.956522e+05 4.000000e+05 0.000000e+00
-2.752247e+05 3.650898e+05 0.000000e+00
-2.771014e+05 4.000000e+05 -2.492608e+04
-2.766411e+05 3.665158e+05 -5.000000e+04
-3.134631e+05 3.687601e+05 -5.000000e+04
-2.956522e+05 4.000000e+05 -5.000000e+04
-3.136055e+05 3.608027e+05 0.000000e+00
-2.913316e+05 3.449591e+05 -2.448829e+04
-3.058551e+05 4.000000e+05 -2.498522e+04
-3.000000e+05 -2.663251e+05 0.000000e+00
-3.000000e+05 1.010248e+05 0.000000e+00
-3.000000e+05 2.658206e+05 -2.500000e+04
-3.000000e+05 2.336749e+05 0.000000e+00
-3.336184e+05 -8.341926e+04 0.000000e+00
-3.335582e+05 -1.172986e+05 0.000000e+00
-3.000000e+05 -1.223559e+05 -5.000000e+04
3.519950e+05 -3.592677e+05 -2.648161e+04
3.652174e+05 -4.000000e+05 -2.500000e+04
-3.477007e+05 -1.192782e+05 -5.000000e+04
3.652174e+05 -4.000000e+05 0.000000e+00
-3.286578e+05 -5.679971e+04 -2.523205e+04
-3.335728e+05 -4.961121e+04 0.000000e+00
-3.000000e+05 -6.478778e+04 0.000000e+00
-3.000000e+05 -3.956644e+04 -2.436792e+04
-3.000000e+05 -5.196328e+04 -5.000000e+04
-3.304348e+05 4.000000e+05 0.000000e+00
-3.304348e+05 4.000000e+05 -5.000000e+04
-3.652174e+05 4.000000e+05 -2.500000e+04
-3.295271e+05 -2.322048e+04 -2.465207e+04
-3.000000e+05 -3.162526e+04 0.000000e+00
-3.335654e+05 -1.585457e+04 0.000000e+00
-3.332120e+05 5.383873e+02 -5.000000e+04
-3.282918e+05 1.297392e+04 -2.249035e+04
-3.000000e+05 1.405242e+03 -2.108975e+04
-3.000000e+05 -1.676695e+04 -5.000000e+04
2.608696e+05 4.000000e+05 -5.000000e+04
2.432678e+05 4.000000e+05 -2.478668e+04
2.411426e+05 3.668250e+05 0.000000e+00
2.401909e+05 3.660277e+05 -5.000000e+04
3.228137e+05 -3.534922e+05 -2.542478e+04
3.141018e+05 -3.251872e+05 0.000000e+00
3.433824e+05 -3.702402e+05 0.000000e+00
3.293581e+05 -3.793834e+05 -2.500835e+04
3.058551e+05 -4.000000e+05 -2.498522e+04
3.121544e+05 -3.612530e+05 0.000000e+00
3.484244e+05 -3.730447e+05 -5.000000e+04
3.354645e+05 -3.420884e+05 -5.000000e+04
-3.000000e+05 2.668375e+05 0.000000e+00
-4.000000e+05 2.608696e+05 0.000000e+00
3.331923e+05 2.136349e+04 -5.000000e+04
-3.000000e+05 -1.989752e+05 0.000000e+00
3.665530e+05 2.596664e+05 -2.508942e+04
3.329775e+05 2.565862e+05 -5.000000e+04
4.000000e+05 2.434783e+05 -2.477866e+04
3.663134e+05 2.412768e+05 -5.000000e+04
3.664177e+05 2.407474e+05 0.000000e+00
4.000000e+05 2.608696e+05 0.000000e+00
3.328163e+05 2.545058e+05 0.000000e+00
2.608696e+05 -4.000000e+05 0.000000e+00
-4.000000e+05 -2.608696e+05 -5.000000e+04
3.000000e+05 4.035329e+04 -5.000000e+04
2.869501e+05 -3.309559e+05 0.000000e+00
2.666667e+05 -3.000000e+05 -2.500000e+04
2.483157e+05 -3.227850e+05 -2.500117e+04
2.666667e+05 -3.000000e+05 -5.000000e+04
2.333333e+05 -3.000000e+05 -5.000000e+04
2.537563e+05 -3.328833e+05 0.000000e+00
2.666667e+05 -3.000000e+05 0.000000e+00
2.333333e+05 -3.000000e+05 0.000000e+00
2.199860e+05 -3.334339e+05 0.000000e+00
-2.607076e+05 3.676680e+05 -2.511339e+04
-2.554603e+05 3.329464e+05 -5.000000e+04
-2.538741e+05 3.327971e+05 0.000000e+00
-2.402476e+05 -3.660586e+05 -5.000000e+04
3.054080e+05 -3.150618e+05 -2.500377e+04
3.323151e+05 -2.529348e+05 -5.000000e+04
3.000000e+05 -2.662257e+05 -2.500000e+04
3.210556e+05 -2.364494e+05 -2.494907e+04
3.000000e+05 -2.664866e+05 0.000000e+00
3.000000e+05 -2.329733e+05 0.000000e+00
3.000000e+05 -2.319293e+05 -5.000000e+04
-3.668348e+05 1.718981e+05 0.000000e+00
-3.668311e+05 2.063465e+05 0.000000e+00
-4.000000e+05 1.739069e+05 -2.478809e+04
-3.362024e+05 3.715708e+04 -5.000000e+04
2.537618e+05 3.323788e+05 -5.000000e+04
2.666667e+05 3.000000e+05 0.000000e+00
2.558300e+05 3.333646e+05 0.000000e+00
2.333333e+05 3.000000e+05 0.000000e+00
2.666667e+05 3.000000e+05 -5.000000e+04
2.333333e+05 3.000000e+05 -5.000000e+04
-2.770306e+05 -4.000000e+05 -2.478549e+04
-2.608696e+05 -4.000000e+05 0.000000e+00
-2.608696e+05 -4.000000e+05 -5.000000e+04
-4.000000e+05 1.913043e+05 0.000000e+00
-2.666667e+05 3.000000e+05 -5.000000e+04
-2.333333e+05 3.000000e+05 -5.000000e+04
3.000000e+05 6.317960e+03 -5.000000e+04
-2.666667e+05 3.000000e+05 0.000000e+00
-2.333333e+05 3.000000e+05 0.000000e+00
3.335764e+05 1.799272e+04 0.000000e+00
3.000000e+05 2.675333e+05 -2.500000e+04
3.000000e+05 2.672967e+05 0.000000e+00
3.000000e+05 2.345935e+05 0.000000e+00
3.000000e+05 2.355396e+05 -5.000000e+04
-1.821543e+05 3.000000e+05 -2.516675e+04
1.391294e+05 4.000000e+05 -2.478846e+04
3.243547e+05 -3.148683e+05 -5.000000e+04
-4.000000e+05 -1.217391e+05 0.000000e+00
-2.608696e+05 4.000000e+05 0.000000e+00
-4.000000e+05 -1.043478e+05 -2.478740e+04
-4.000000e+05 -1.217391e+05 -5.000000e+04
1.691392e+04 3.330892e+05 -5.000000e+04
-3.701094e+05 3.502127e+05 -5.000000e+04
-3.484340e+05 3.730208e+05 -5.000000e+04
2.097778e+05 -3.000000e+05 -2.516827e+04
3.700962e+05 -3.502566e+05 -5.000000e+04
1.043478e+05 -4.000000e+05 -2.478740e+04
-3.243738e+05 3.147086e+05 -5.000000e+04
-2.958409e+05 3.320360e+05 -5.000000e+04
-3.150672e+05 3.246592e+05 0.000000e+00
-3.000000e+05 1.842938e+04 -5.000000e+04
-3.322074e+05 -3.453639e+04 -5.000000e+04
2.608696e+05 4.000000e+05 0.000000e+00
-3.513943e+05 1.711029e+04 -5.000000e+04
-3.493049e+05 -1.729855e+04 -5.000000e+04
-3.000000e+05 1.537267e+03 0.000000e+00
-3.335691e+05 1.788917e+04 0.000000e+00
-3.000000e+05 3.469979e+04 0.000000e+00
1.000000e+05 3.000000e+05 0.000000e+00
-2.405195e+05 3.663293e+05 -5.000000e+04
-2.434783e+05 4.000000e+05 -2.477866e+04
-2.403430e+05 3.664130e+05 0.000000e+00
-2.608696e+05 4.000000e+05 -5.000000e+04
1.091394e-10 3.000000e+05 0.000000e+00
5.820766e-11 3.000000e+05 -5.000000e+04
3.304348e+05 -4.000000e+05 0.000000e+00
3.304348e+05 -4.000000e+05 -5.000000e+04
-1.000000e+05 3.000000e+05 0.000000e+00
6.666667e+04 -3.000000e+05 0.000000e+00
1.689682e+04 -3.335736e+05 0.000000e+00
-4.000000e+05 -4.000000e+05 0.000000e+00
-4.000000e+05 -3.652174e+05 0.000000e+00
-3.768106e+05 -3.777236e+05 0.000000e+00
-4.000000e+05 -3.652174e+05 -2.500000e+04
2.873427e+05 3.303762e+05 -5.000000e+04
3.150202e+05 3.245405e+05 -5.000000e+04
-1.091394e-10 -3.000000e+05 0.000000e+00
-3.201421e-10 -3.000000e+05 -5.000000e+04
3.335253e+05 1.874911e+05 0.000000e+00
-2.086597e+05 -4.000000e+05 -2.478752e+04
-2.260870e+05 -4.000000e+05 -5.000000e+04
-4.000000e+05 3.304348e+05 0.000000e+00
-4.000000e+05 3.652174e+05 -5.000000e+04
3.058551e+05 4.000000e+05 -2.478408e+04
4.000000e+05 3.304348e+05 -5.000000e+04
3.730768e+05 3.485142e+05 -5.000000e+04
4.000000e+05 3.652174e+05 -2.500000e+04
-4.000000e+05 -3.652174e+05 -5.000000e+04
-4.000000e+05 -3.304348e+05 -5.000000e+04
-3.652174e+05 -4.000000e+05 -2.500000e+04
-3.486334e+05 -3.731421e+05 0.000000e+00
-3.304348e+05 -4.000000e+05 0.000000e+00
-4.000000e+05 3.652174e+05 0.000000e+00
-3.767522e+05 3.776902e+05 -5.000000e+04
-4.000000e+05 4.000000e+05 -5.000000e+04
3.652174e+05 4.000000e+05 -2.500000e+04
3.768086e+05 3.777367e+05 0.000000e+00
3.304348e+05 4.000000e+05 0.000000e+00
3.503067e+05 3.701619e+05 -5.000000e+04
3.652174e+05 4.000000e+05 -5.000000e+04
3.777202e+05 3.767787e+05 -5.000000e+04
-4.000000e+05 1.739130e+04 -5.000000e+04
-4.000000e+05 1.739130e+04 0.000000e+00
-4.000000e+05 -8.695652e+04 0.000000e+00
-4.000000e+05 -5.217391e+04 0.000000e+00
-4.000000e+05 -4.000000e+05 -5.000000e+04
-3.778564e+05 -3.767774e+05 -5.000000e+04
-3.486436e+05 -5.201927e+04 -5.000000e+04
4.000000e+05 -2.608696e+05 -5.000000e+04
-2.086957e+05 4.000000e+05 -2.478282e+04
4.000000e+05 2.608696e+05 -5.000000e+04
-4.000000e+05 -1.913043e+05 0.000000e+00
4.000000e+05 -3.304348e+05 0.000000e+00
2.086597e+05 4.000000e+05 -2.478752e+04
5.217391e+04 4.000000e+05 0.000000e+00
-3.304348e+05 -4.000000e+05 -5.000000e+04
-1.739130e+04 -4.000000e+05 0.000000e+00
-2.764444e+05 -3.000000e+05 -2.506263e+04
4.000000e+05 3.304348e+05 0.000000e+00
4.000000e+05 4.000000e+05 -5.000000e+04
4.000000e+05 3.652174e+05 -5.000000e+04
-4.000000e+05 -1.739130e+04 0.000000e+00
-4.000000e+05 -8.695652e+04 -5.000000e+04
-3.652174e+05 -4.000000e+05 0.000000e+00
-3.652174e+05 -4.000000e+05 -5.000000e+04
3.652174e+05 -4.000000e+05 -5.000000e+04
-3.652174e+05 4.000000e+05 -5.000000e+04
-4.000000e+05 4.000000e+05 0.000000e+00
4.000000e+05 -3.304348e+05 -5.000000e+04
3.304348e+05 4.000000e+05 -5.000000e+04
3.652174e+05 4.000000e+05 0.000000e+00
3.333333e+04 -3.000000e+05 0.000000e+00
4.000000e+05 3.652174e+05 0.000000e+00
4.000000e+05 4.000000e+05 0.000000e+00
-3.652174e+05 4.000000e+05 0.000000e+00
3.000000e+05 -3.000000e+05 0.000000e+00
3.000000e+05 -3.000000e+05 -5.000000e+04
-3.000000e+05 3.000000e+05 -5.000000e+04
3.000000e+05 -2.659647e+05 -5.000000e+04
-3.000000e+05 2.648037e+05 -5.000000e+04
3.000000e+05 1.066188e+05 -5.000000e+04
-3.000000e+05 -2.642495e+05 -5.000000e+04
-3.000000e+05 -2.757219e+05 -2.507577e+04
3.155524e+05 1.143910e+05 -3.974769e+04
3.150531e+05 9.532401e+04 -2.908245e+04
3.000000e+05 1.063034e+05 -4.166667e+04
3.000000e+05 1.040741e+05 -1.666667e+04
3.159695e+05 1.170491e+05 -2.472073e+04
-3.000000e+05 -1.305875e+05 -8.333333e+03
-3.000000e+05 -1.147878e+05 0.000000e+00
-3.127532e+05 -1.253676e+05 -7.484289e+03
-3.000000e+05 -1.316253e+05 0.000000e+00
-3.167791e+05 -1.076245e+05 0.000000e+00
-3.091376e+05 -1.344669e+05 -1.229268e+04
-3.139467e+05 -1.429546e+05 -1.830742e+04
-3.000000e+05 -1.474250e+05 -8.333333e+03
-3.138265e+05 -1.573560e+05 -3.905267e+04
-3.151220e+05 -1.679748e+05 -4.148292e+04
-3.172399e+05 -1.592548e+05 -2.320415e+04
3.126741e+05 1.677481e+05 -8.636132e+03
3.168074e+05 1.614971e+05 0.000000e+00
3.156606e+05 1.504434e+05 -6.302332e+03
3.167627e+05 1.783390e+05 0.000000e+00
3.000000e+05 1.224185e+05 -4.166667e+04
-3.138419e+05 -1.180898e+05 -1.632841e+04
-3.000000e+05 -1.158425e+05 -2.251177e+04
-3.155052e+05 -1.297736e+05 -2.383751e+04
-3.166586e+05 -1.424500e+05 -3.391427e+04
-3.000000e+05 -1.417526e+05 -4.166667e+04
-3.126129e+05 -1.466077e+05 -4.403321e+04
-3.000000e+05 -8.593871e+04 -1.272707e+04
-3.110703e+05 -8.874003e+04 -1.348790e+04
-3.000000e+05 -8.136905e+04 0.000000e+00
3.132829e+05 1.362635e+05 -1.693088e+04
3.000000e+05 1.198738e+05 -8.333333e+03
3.115220e+05 1.539322e+05 -2.174514e+04
-3.168092e+05 -9.068478e+04 0.000000e+00
-3.119408e+05 -1.038814e+05 -1.487879e+04
-3.119093e+05 -1.715012e+05 -2.659863e+04
-3.000000e+05 -1.800622e+05 -1.666667e+04
-3.000000e+05 -1.632247e+05 -1.666667e+04
3.000000e+05 1.600328e+05 -2.010483e+04
3.000000e+05 1.543333e+05 -3.333333e+04
3.119116e+05 8.879958e+04 -4.447496e+04
3.000000e+05 6.597900e+04 -3.828524e+04
3.000000e+05 8.177872e+04 -2.995191e+04
3.000000e+05 9.050372e+04 -5.000000e+04
3.165539e+05 8.178473e+04 -5.000000e+04
3.000000e+05 8.731745e+04 -1.666667e+04
3.000000e+05 1.382182e+05 -3.333333e+04
-3.000000e+05 -1.000428e+05 -1.417844e+04
-3.000000e+05 -1.259528e+05 -3.333333e+04
-3.000000e+05 -1.593507e+05 -4.166667e+04
-3.000000e+05 -1.575523e+05 -5.000000e+04
-3.000000e+05 -1.751504e+05 -5.000000e+04
-3.172507e+05 -1.880188e+05 -5.000000e+04
-3.127685e+05 -1.923090e+05 -3.188135e+04
-3.000000e+05 -1.958619e+05 -2.500000e+04
3.252225e+05 1.138513e+05 -3.302426e+04
-3.000000e+05 -2.064651e+05 -3.753788e+04
-3.167825e+05 -2.047074e+05 -5.000000e+04
-3.000000e+05 -2.106238e+05 -5.000000e+04
3.000000e+05 1.758325e+05 -1.177150e+04
3.000000e+05 1.855385e+05 0.000000e+00
3.000000e+05 5.737095e+04 -5.000000e+04
3.166068e+05 6.493122e+04 -5.000000e+04
3.000000e+05 1.524302e+05 0.000000e+00
3.000000e+05 1.366305e+05 -8.333333e+03
3.062372e+05 9.964133e+04 -2.957728e+04
3.075906e+05 1.123294e+05 -3.509086e+04
3.000000e+05 1.061457e+05 -3.750000e+04
3.000000e+05 1.059880e+05 -3.333333e+04
3.000000e+05 1.050311e+05 -2.500000e+04
3.064343e+05 1.112093e+05 -2.732539e+04
-3.000000e+05 -1.058502e+05 -4.166667e+03
-3.000000e+05 -1.142689e+05 -4.166667e+03
-3.055313e+05 -1.108567e+05 -4.556343e+03
-3.000000e+05 -1.137500e+05 -8.333333e+03
-3.083896e+05 -1.027874e+05 0.000000e+00
-3.000000e+05 -1.063690e+05 0.000000e+00
-3.000000e+05 -9.795031e+04 0.000000e+00
-3.000000e+05 -1.216499e+05 -1.250000e+04
-3.067446e+05 -1.184911e+05 -7.924532e+03
-3.000000e+05 -1.221688e+05 -8.333333e+03
-3.000000e+05 -1.300686e+05 -1.250000e+04
-3.051084e+05 -1.269020e+05 -1.220424e+04
-3.000000e+05 -1.295497e+05 -1.666667e+04
-3.061370e+05 -1.360206e+05 -1.829939e+04
-3.036012e+05 -1.319232e+05 -1.553547e+04
-3.000000e+05 -1.384874e+05 -1.250000e+04
-3.066453e+05 -1.657877e+05 -3.661085e+04
-3.067552e+05 -1.592695e+05 -3.591015e+04
-3.082854e+05 -1.601746e+05 -2.860452e+04
-3.000000e+05 -1.611492e+05 -3.333333e+04
3.084037e+05 1.653420e+05 0.000000e+00
3.055718e+05 1.670848e+05 -4.684539e+03
3.073753e+05 1.601351e+05 -3.908368e+03
3.000000e+05 1.691869e+05 0.000000e+00
3.083813e+05 1.737630e+05 0.000000e+00
3.000000e+05 1.142033e+05 -3.750000e+04
-3.000000e+05 -1.226961e+05 -1.958922e+04
-3.063753e+05 -1.225656e+05 -1.471601e+04
-3.068475e+05 -1.285463e+05 -2.060557e+04
-3.079835e+05 -1.511425e+05 -3.278381e+04
-3.060466e+05 -1.532495e+05 -3.847295e+04
-3.000000e+05 -1.514509e+05 -3.750000e+04
-3.000000e+05 -1.374496e+05 -2.083333e+04
-3.052250e+05 -1.428441e+05 -1.938468e+04
-3.062838e+05 -1.377113e+05 -2.375365e+04
-3.000000e+05 -1.453495e+05 -2.500000e+04
-3.000000e+05 -1.532493e+05 -2.916667e+04
-3.080674e+05 -1.424026e+05 -2.847944e+04
-3.079644e+05 -1.500137e+05 -2.285693e+04
-3.054226e+05 -9.331281e+04 -7.006736e+03
-3.000000e+05 -9.194451e+04 -6.363533e+03
-3.000000e+05 -8.965968e+04 0.000000e+00
3.000000e+05 1.296876e+05 -2.083333e+04
3.050274e+05 1.299049e+05 -2.269493e+04
3.000000e+05 1.208308e+05 -1.666667e+04
3.000000e+05 1.217878e+05 -2.500000e+04
3.000000e+05 1.287307e+05 -1.250000e+04
3.056588e+05 1.367423e+05 -1.743357e+04
3.000000e+05 1.375875e+05 -1.666667e+04
3.000000e+05 1.138879e+05 -2.916667e+04
3.000000e+05 1.129309e+05 -2.083333e+04
3.076978e+05 1.217824e+05 -2.445294e+04
3.000000e+05 1.454873e+05 -1.250000e+04
3.050830e+05 1.439106e+05 -1.194476e+04
3.061314e+05 1.506598e+05 -1.434713e+04
3.000000e+05 1.533872e+05 -8.333333e+03
3.044550e+05 1.476521e+05 -1.905459e+04
3.000000e+05 1.612870e+05 -4.166667e+03
3.073037e+05 1.614567e+05 -1.028139e+04
3.085218e+05 1.505761e+05 -8.660666e+03
-3.065935e+05 -1.001123e+05 -7.488278e+03
-3.084046e+05 -9.431755e+04 0.000000e+00
-3.000000e+05 -1.706057e+05 -2.500000e+04
-3.045257e+05 -1.673351e+05 -3.063015e+04
-3.000000e+05 -1.621869e+05 -2.500000e+04
3.000000e+05 1.488101e+05 -1.838575e+04
3.000000e+05 1.459604e+05 -2.500000e+04
3.000000e+05 9.808819e+04 -3.750000e+04
3.049753e+05 9.459859e+04 -3.642367e+04
3.000000e+05 8.598352e+04 -3.580929e+04
3.000000e+05 9.018833e+04 -4.166667e+04
3.000000e+05 9.388338e+04 -3.164262e+04
3.000000e+05 8.228847e+04 -4.583333e+04
3.000000e+05 7.808367e+04 -3.997595e+04
3.065671e+05 8.604059e+04 -4.115664e+04
3.044192e+05 8.268987e+04 -4.759995e+04
3.000000e+05 7.018381e+04 -4.414262e+04
3.000000e+05 7.438862e+04 -5.000000e+04
3.000000e+05 8.244617e+04 -5.000000e+04
3.082770e+05 7.808667e+04 -5.000000e+04
3.000000e+05 9.665275e+04 -2.500000e+04
3.000000e+05 9.034602e+04 -4.583333e+04
3.000000e+05 9.824588e+04 -4.166667e+04
3.079793e+05 9.429224e+04 -3.916677e+04
3.000000e+05 1.379029e+05 -2.500000e+04
-3.061282e+05 -1.077564e+05 -8.825625e+03
-3.000000e+05 -1.068964e+05 -1.125589e+04
-3.000000e+05 -9.899654e+04 -7.089221e+03
-3.000000e+05 -1.147963e+05 -1.542255e+04
-3.068825e+05 -1.150440e+05 -1.322958e+04
-3.000000e+05 -1.356511e+05 -2.916667e+04
-3.000000e+05 -1.277513e+05 -2.500000e+04
-3.000000e+05 -1.435510e+05 -3.333333e+04
-3.000000e+05 -1.602499e+05 -3.750000e+04
-3.000000e+05 -1.848487e+05 -4.583333e+04
-3.000000e+05 -1.760497e+05 -4.583333e+04
-3.057700e+05 -1.811069e+05 -4.468680e+04
-3.000000e+05 -1.769489e+05 -4.166667e+04
-3.086253e+05 -1.903837e+05 -5.000000e+04
-3.000000e+05 -1.839495e+05 -5.000000e+04
-3.000000e+05 -1.927486e+05 -5.000000e+04
-3.000000e+05 -1.690490e+05 -3.750000e+04
-3.066945e+05 -1.735988e+05 -4.205922e+04
-3.000000e+05 -1.681498e+05 -4.166667e+04
-3.000000e+05 -1.463872e+05 -1.666667e+04
-3.000000e+05 -1.542871e+05 -2.083333e+04
-3.063544e+05 -1.850261e+05 -3.889635e+04
-3.000000e+05 -1.864054e+05 -3.333333e+04
-3.000000e+05 -1.943052e+05 -3.750000e+04
-3.058278e+05 -1.936140e+05 -3.976391e+04
-3.000000e+05 -1.785055e+05 -2.916667e+04
-3.077018e+05 -1.761536e+05 -3.423519e+04
3.123803e+05 1.091812e+05 -3.116120e+04
-3.000000e+05 -1.996068e+05 -4.376894e+04
-3.083912e+05 -1.987280e+05 -5.000000e+04
-3.000000e+05 -2.016862e+05 -5.000000e+04
3.000000e+05 1.725097e+05 -5.885749e+03
3.000000e+05 1.773627e+05 0.000000e+00
3.083034e+05 6.965992e+04 -5.000000e+04
3.000000e+05 6.587979e+04 -5.000000e+04
3.000000e+05 1.567100e+05 -1.421908e+04
3.000000e+05 1.646099e+05 -1.005242e+04
3.000000e+05 1.608086e+05 0.000000e+00
3.000000e+05 1.371090e+05 -1.250000e+04
3.000000e+05 1.450088e+05 -8.333333e+03
3.000000e+05 1.529087e+05 -4.166667e+03
3.000000e+05 1.300030e+05 -2.916667e+04
3.000000e+05 1.221031e+05 -3.333333e+04
-1.712639e+05 -4.842276e+04 -3.257385e+04
-1.965094e+05 -6.358801e+04 -3.670983e+04
-1.924273e+05 -4.258568e+04 -2.411105e+04
-1.926844e+05 -4.458878e+04 -5.000000e+04
-9.414227e+04 1.452730e+05 -2.702832e+04
-6.179449e+04 1.578489e+05 -2.330667e+04
-6.716525e+04 1.383334e+05 0.000000e+00
-6.767928e+04 1.342724e+05 -3.098366e+04
-4.165057e+04 1.331681e+05 -2.313835e+04
-3.435155e+04 1.521753e+05 0.000000e+00
-2.490523e+04 1.554411e+05 -2.508876e+04
-4.634548e+04 1.823308e+05 -2.462562e+04
-7.773909e+04 1.524805e+05 -5.000000e+04
-4.402620e+04 1.528958e+05 -5.000000e+04
9.083132e+04 1.939658e+05 -2.385616e+04
8.621640e+04 2.131803e+05 -5.000000e+04
7.624280e+04 2.260396e+05 -2.503026e+04
1.030981e+05 2.172301e+05 -2.510105e+04
8.529905e+04 1.667586e+05 -2.391214e+04
5.863631e+04 2.007210e+05 -2.753426e+04
7.136126e+04 1.831556e+05 -5.000000e+04
1.174796e+05 1.875533e+05 0.000000e+00
8.727600e+04 1.719937e+05 0.000000e+00
1.061793e+05 1.857689e+05 -5.000000e+04
1.164042e+05 1.712438e+05 -2.635471e+04
1.265832e+05 2.017357e+05 -2.663269e+04
2.079151e+05 1.747819e+05 -2.229621e+04
2.306844e+05 1.641588e+05 -2.207033e+04
2.393603e+05 1.740625e+05 0.000000e+00
2.084993e+05 1.605617e+05 0.000000e+00
1.869776e+05 1.644403e+05 -2.503981e+04
2.140115e+05 1.449983e+05 -2.845215e+04
1.744448e+05 1.909542e+05 -2.534918e+04
2.094814e+05 1.846287e+05 -5.000000e+04
1.805651e+05 1.816179e+05 0.000000e+00
-2.189869e+05 -5.969150e+04 -2.812774e+04
-2.302233e+05 -5.147951e+04 -5.000000e+04
-1.996024e+05 -7.886449e+04 -5.000000e+04
-1.698730e+05 -2.091269e+04 -2.224094e+04
-1.612136e+05 -3.283826e+04 -5.000000e+04
2.017091e+05 2.035402e+05 -2.346050e+04
1.669007e+05 2.184477e+05 -2.492154e+04
1.880539e+05 2.143648e+05 0.000000e+00
1.667553e+05 1.796557e+05 -5.000000e+04
1.627828e+05 1.601292e+05 -2.575168e+04
1.455105e+05 1.838841e+05 -2.638847e+04
1.852980e+05 2.132586e+05 -5.000000e+04
1.515431e+05 2.137524e+05 -5.000000e+04
1.304186e+04 1.724495e+05 -2.483281e+04
-1.139267e+04 1.555547e+05 -5.000000e+04
2.712701e+03 1.473041e+05 -2.531474e+04
-1.321161e+04 1.857986e+05 -2.486736e+04
3.344626e+04 1.921965e+05 -2.511144e+04
2.926134e+03 1.837697e+05 -5.000000e+04
1.021668e+04 2.012807e+05 -2.182850e+04
1.197741e+02 1.919719e+05 0.000000e+00
3.608423e+04 1.610309e+05 -2.517329e+04
2.581633e+04 1.449915e+05 0.000000e+00
3.468959e+04 2.782181e+05 -2.504364e+04
5.005389e+04 2.708848e+05 0.000000e+00
1.672751e+04 2.709697e+05 0.000000e+00
1.484827e+03 2.787837e+05 -2.504261e+04
2.383265e+04 2.534313e+05 -2.504174e+04
1.701878e+04 2.710084e+05 -5.000000e+04
5.032608e+04 2.710146e+05 -5.000000e+04
4.968036e+04 2.318780e+05 -2.507959e+04
2.647278e+04 2.243874e+05 -2.502191e+04
4.888100e+04 2.122273e+05 0.000000e+00
3.310048e+04 2.419327e+05 0.000000e+00
5.869253e+04 2.549329e+05 -2.496722e+04
6.764916e+04 2.419264e+05 -5.000000e+04
3.412173e+04 2.419778e+05 -5.000000e+04
5.213992e+04 2.126322e+05 -5.000000e+04
-2.781127e+05 9.658472e+04 -2.508233e+04
-2.779638e+05 6.219094e+04 -2.492660e+04
-2.697899e+05 7.174819e+04 -5.000000e+04
-2.538506e+05 8.683917e+04 -2.509652e+04
-2.697723e+05 1.069601e+05 -5.000000e+04
-2.780794e+05 1.304474e+05 -2.510838e+04
-2.711475e+05 1.183343e+05 0.000000e+00
-2.537601e+05 1.204196e+05 -2.530628e+04
-1.380761e+05 2.498203e+04 -2.537244e+04
-1.539884e+05 3.502367e+04 -5.000000e+04
-1.634441e+05 4.598177e+04 -2.395650e+04
-1.391530e+05 5.837050e+04 -2.679893e+04
-1.388103e+05 7.062492e+03 0.000000e+00
-1.626876e+05 1.520687e+04 -2.517426e+04
-1.389929e+05 -1.170803e+04 -2.408981e+04
-1.118364e+05 3.771022e+04 -2.700585e+04
-1.071586e+05 2.061326e+04 0.000000e+00
-1.162972e+05 1.457858e+03 -2.916868e+04
-1.658070e+05 2.848435e+04 0.000000e+00
-1.346924e+05 4.085155e+04 0.000000e+00
-2.338675e+05 -9.224276e+04 -5.000000e+04
-2.474238e+05 -7.375461e+04 -3.210001e+04
-8.480775e+03 2.560611e+05 -2.501224e+04
-1.628249e+04 2.710013e+05 -5.000000e+04
-3.182929e+04 2.782448e+05 -2.504323e+04
-1.652612e+04 2.709964e+05 0.000000e+00
-4.984766e+04 2.710244e+05 0.000000e+00
-4.957774e+04 2.709836e+05 -5.000000e+04
-6.516233e+04 2.782891e+05 -2.504082e+04
-4.111659e+04 2.531259e+05 -2.499477e+04
-8.287741e+04 2.709304e+05 -5.000000e+04
-9.876441e+04 2.779518e+05 -2.504202e+04
-7.550204e+04 2.543188e+05 -2.500231e+04
-8.320659e+04 2.710260e+05 0.000000e+00
-2.773908e+05 2.638624e+04 -2.446454e+04
-2.698329e+05 3.653110e+04 -5.000000e+04
-2.534175e+05 5.301074e+04 -2.484937e+04
-2.707867e+05 8.525110e+04 0.000000e+00
-1.912019e+05 1.915788e+05 -2.484989e+04
-2.291748e+05 2.082644e+05 -2.636852e+04
-2.066944e+05 1.858485e+05 0.000000e+00
-1.997405e+05 2.184179e+05 -2.347518e+04
-1.844547e+05 2.140664e+05 0.000000e+00
-1.755507e+05 1.692493e+05 -2.519043e+04
-1.696480e+05 1.847146e+05 0.000000e+00
-1.869724e+05 1.625681e+05 0.000000e+00
-1.981592e+05 1.548598e+05 -2.511109e+04
-2.045420e+05 1.796857e+05 -5.000000e+04
-1.706993e+05 2.200903e+05 -2.492535e+04
-1.486270e+05 2.406296e+05 -2.499340e+04
-1.838023e+05 2.431558e+05 -2.497778e+04
-1.669024e+05 2.421731e+05 0.000000e+00
-1.564461e+05 1.957780e+05 -2.495701e+04
-1.494142e+05 2.110846e+05 -5.000000e+04
-1.834168e+05 2.106166e+05 -5.000000e+04
6.825899e+04 2.783916e+05 -2.503024e+04
8.363711e+04 2.710230e+05 -5.000000e+04
8.353817e+04 2.707388e+05 0.000000e+00
1.014969e+05 2.781807e+05 -2.503660e+04
9.236368e+04 2.529348e+05 -2.497692e+04
1.347695e+05 2.783283e+05 -2.502650e+04
1.169373e+05 2.705249e+05 0.000000e+00
1.239952e+05 2.556815e+05 -2.500015e+04
1.169496e+05 2.710347e+05 -5.000000e+04
5.399261e+04 1.537680e+05 -5.000000e+04
5.488912e+04 1.735814e+05 -2.539932e+04
9.301547e+04 1.504759e+05 -5.000000e+04
6.716905e+04 1.444996e+05 -2.451782e+04
5.728422e+04 1.581020e+05 0.000000e+00
1.015857e+05 1.333243e+05 -2.620758e+04
-2.021360e+05 2.037131e+04 0.000000e+00
-2.260385e+05 4.622343e+04 -2.472873e+04
-1.973536e+05 5.605391e+04 -2.531080e+04
-2.158709e+05 2.038262e+04 -2.722667e+04
-2.401420e+05 1.976564e+04 -5.000000e+04
-2.510254e+05 1.655866e+04 -2.447008e+04
-2.384007e+05 3.604164e+04 0.000000e+00
-2.412051e+05 7.032413e+04 0.000000e+00
-2.271965e+05 7.511358e+04 -2.325986e+04
-2.112631e+05 5.670795e+04 0.000000e+00
-1.684514e+05 -4.009349e+03 -3.330815e+04
-1.536044e+05 -3.692770e+04 -2.889976e+04
-1.864402e+05 -1.275286e+04 -5.000000e+04
-1.713426e+05 -5.802997e+03 0.000000e+00
-1.928095e+05 7.512485e+02 -2.455784e+04
-1.854605e+05 4.833930e+04 0.000000e+00
-1.691795e+05 7.422985e+04 -2.497390e+04
-1.518848e+05 6.981194e+04 -5.000000e+04
-1.603490e+05 5.991652e+04 0.000000e+00
-1.848457e+05 3.200726e+04 -2.704617e+04
-2.529391e+05 -5.197205e+04 -2.397842e+04
-2.119172e+05 -3.192455e+04 -2.739387e+04
-9.816591e+04 2.035125e+05 -2.523047e+04
-1.178876e+05 1.853710e+05 -2.491348e+04
-1.154134e+05 2.116856e+05 -5.000000e+04
-9.696923e+04 1.818955e+05 -5.000000e+04
-1.155566e+05 2.126629e+05 0.000000e+00
-1.228824e+05 2.232397e+05 -2.503001e+04
-6.623238e+04 2.038218e+05 -2.483790e+04
-8.973929e+04 2.276865e+05 -2.503917e+04
-8.213673e+04 2.123846e+05 0.000000e+00
-8.168645e+04 2.121988e+05 -5.000000e+04
-8.199096e+04 1.804924e+05 -2.501845e+04
-5.317425e+04 1.019561e+05 -2.490044e+04
-8.255136e+04 1.137691e+05 -2.324743e+04
-9.820277e+04 1.575799e+05 0.000000e+00
-9.161987e+04 1.281786e+05 -5.000000e+04
2.771498e+05 2.036554e+05 -2.490819e+04
2.698336e+05 2.212587e+05 -5.000000e+04
2.694858e+05 2.216807e+05 0.000000e+00
2.697101e+05 1.881450e+05 0.000000e+00
2.520428e+05 2.299108e+05 -2.463589e+04
2.776328e+05 2.471803e+05 -2.327985e+04
2.525418e+05 1.963429e+05 -2.511264e+04
-2.786934e+05 -1.193911e+04 -2.233339e+04
-2.794593e+05 -5.056429e+04 -2.132171e+04
-2.675813e+05 -3.430734e+04 -5.000000e+04
-2.687790e+05 1.763587e+04 0.000000e+00
-2.682115e+05 -1.659011e+04 0.000000e+00
-2.694200e+05 1.337040e+03 -5.000000e+04
-2.550252e+05 -1.866458e+04 -2.143753e+04
-1.162222e+05 2.707893e+05 -5.000000e+04
-1.325009e+05 2.719985e+05 -2.504352e+04
-1.095441e+05 2.528065e+05 -2.501771e+04
-1.165963e+05 2.710294e+05 0.000000e+00
-2.698806e+05 5.170488e+04 0.000000e+00
1.978075e+05 2.783631e+05 -2.501025e+04
1.668173e+05 2.721952e+05 -2.499121e+04
1.836654e+05 2.711155e+05 -5.000000e+04
1.839679e+05 2.464173e+05 -2.496976e+04
2.166736e+05 2.718139e+05 0.000000e+00
2.331634e+05 2.806617e+05 -2.683193e+04
1.837553e+05 2.711123e+05 0.000000e+00
4.073335e+04 1.343612e+05 -2.492793e+04
1.375094e+04 1.210389e+05 -2.493329e+04
2.234940e+04 1.107108e+05 0.000000e+00
4.003179e+04 1.028998e+05 -2.648485e+04
6.784559e+04 1.276341e+05 -5.000000e+04
7.132126e+04 1.142785e+05 -2.365024e+04
5.395409e+04 1.246947e+05 0.000000e+00
2.265019e+05 1.912028e+05 -2.642472e+04
2.287763e+05 2.140140e+05 -2.319242e+04
2.121106e+05 1.927991e+05 0.000000e+00
2.405542e+05 2.064466e+05 0.000000e+00
2.432655e+05 1.715596e+05 -5.000000e+04
1.938048e+05 1.513784e+05 -5.000000e+04
2.409116e+05 2.038404e+05 -5.000000e+04
2.147095e+05 2.170277e+05 -5.000000e+04
-2.787754e+05 1.618184e+05 -2.541066e+04
-2.538367e+05 1.539366e+05 -2.554085e+04
-2.709552e+05 1.512823e+05 0.000000e+00
-2.697936e+05 1.772597e+05 -5.000000e+04
-2.703402e+05 1.847134e+05 0.000000e+00
-2.581939e+05 1.865456e+05 -2.750124e+04
2.697066e+05 2.564883e+05 -5.000000e+04
2.587150e+05 2.760482e+05 -2.331128e+04
2.446873e+05 2.736772e+05 -5.000000e+04
2.823169e+05 2.807520e+05 -1.615402e+04
2.696667e+05 2.566789e+05 0.000000e+00
2.417385e+05 2.568794e+05 -2.503701e+04
-1.662732e+05 -6.680801e+04 -5.000000e+04
-6.509648e+04 1.779314e+05 0.000000e+00
-4.821905e+04 2.121067e+05 0.000000e+00
-3.357339e+04 2.131078e+05 -2.497522e+04
-5.872135e+04 2.283364e+05 -2.495591e+04
-6.323937e+04 1.824885e+05 -5.000000e+04
-4.824781e+04 2.125094e+05 -5.000000e+04
1.503152e+05 2.704986e+05 0.000000e+00
1.503084e+05 2.710514e+05 -5.000000e+04
1.510842e+05 2.458682e+05 -2.485003e+04
1.367962e+05 1.437936e+05 -2.437135e+04
1.312977e+05 1.626033e+05 -5.000000e+04
1.602319e+05 1.409293e+05 -5.000000e+04
1.800132e+05 1.362458e+05 -2.689579e+04
1.768504e+05 1.470286e+05 0.000000e+00
1.451615e+05 1.330018e+05 0.000000e+00
1.477325e+05 1.680909e+05 0.000000e+00
-2.696782e+05 1.421757e+05 -5.000000e+04
-2.765276e+05 -8.285567e+04 -3.149084e+04
-2.666224e+05 -7.097436e+04 -5.000000e+04
-2.681420e+05 -5.049397e+04 0.000000e+00
-2.693672e+05 2.136704e+05 -2.727865e+04
-2.702252e+05 2.118808e+05 -5.000000e+04
-2.385583e+05 2.337278e+05 -5.000000e+04
-2.510928e+05 2.391031e+05 -2.311451e+04
-2.395931e+05 2.024422e+05 0.000000e+00
-1.628459e+04 1.132812e+05 -2.509027e+04
5.012481e+03 1.329115e+05 -5.000000e+04
3.561647e+03 1.049570e+05 -5.000000e+04
-2.243870e+04 1.261988e+05 -5.000000e+04
-2.694534e+05 2.193114e+05 0.000000e+00
-2.728069e+05 2.414485e+05 -5.000000e+04
-2.791685e+05 2.460187e+05 -2.718836e+04
2.966451e+04 1.816835e+05 0.000000e+00
-1.837180e+05 1.975751e+04 -5.000000e+04
1.826131e+04 2.128201e+05 -5.000000e+04
3.640119e+04 1.834954e+05 -5.000000e+04
6.178745e+04 1.864487e+05 0.000000e+00
2.030258e+04 1.552831e+05 -5.000000e+04
-2.092852e+04 7.651220e+04 -2.528352e+04
-2.840338e+04 9.278722e+04 -5.000000e+04
-2.804945e+05 2.767063e+05 -3.789438e+04
-2.776737e+05 2.788695e+05 -1.738848e+04
-2.550000e+05 2.679650e+05 -5.000000e+04
2.788240e+05 2.776435e+05 -3.512431e+04
2.446527e+05 2.741225e+05 0.000000e+00
-2.120385e+03 1.643410e+05 0.000000e+00
-2.754174e+04 1.854197e+05 0.000000e+00
-2.695504e+05 2.554330e+05 0.000000e+00
-2.674321e+05 -1.075674e+05 -5.000000e+04
-2.445056e+05 2.731613e+05 0.000000e+00
1.580283e+05 1.119022e+05 -3.241688e+04
1.868516e+05 1.185489e+05 -5.000000e+04
-1.218529e+05 1.475579e+05 -2.514562e+04
-1.312250e+05 1.786495e+05 0.000000e+00
-1.493397e+05 1.631781e+05 -2.518378e+04
-1.189874e+05 1.191024e+05 -5.000000e+04
-1.101778e+05 1.055055e+05 -2.489293e+04
-1.410372e+05 1.237753e+05 -2.175536e+04
-1.486948e+05 1.454051e+05 -5.000000e+04
-9.850638e+04 1.223803e+05 0.000000e+00
-1.110205e+05 1.513407e+05 -5.000000e+04
-1.315803e+05 1.805983e+05 -5.000000e+04
4.217087e+04 6.446248e+04 -3.272013e+04
9.208189e+03 8.721451e+04 -2.393092e+04
3.153212e+04 8.552809e+04 -5.000000e+04
5.907588e+03 5.127245e+04 -3.100263e+04
7.196810e+04 8.048290e+04 -2.942760e+04
6.321505e+04 9.875032e+04 -5.000000e+04
5.944480e+04 6.501031e+04 -5.000000e+04
-2.997821e+04 1.832150e+05 -5.000000e+04
-5.990590e+03 1.308496e+05 0.000000e+00
-1.662538e+05 2.707052e+05 -2.506367e+04
-1.500336e+05 2.710391e+05 0.000000e+00
-1.326419e+05 2.411693e+05 -5.000000e+04
-1.301044e+05 -1.921871e+04 -5.000000e+04
-1.343682e+05 -5.353427e+04 -5.000000e+04
1.290675e+05 1.077003e+05 -2.973795e+04
1.262639e+05 1.276325e+05 -5.000000e+04
1.057319e+05 9.272754e+04 -3.175100e+04
1.136989e+05 1.188738e+05 0.000000e+00
-2.386718e+05 -1.433783e+04 -5.000000e+04
-2.311188e+05 2.710015e+05 -2.569248e+04
-2.170937e+05 2.407818e+05 -2.512614e+04
-2.185131e+05 2.683398e+05 -5.000000e+04
-1.991037e+05 2.702803e+05 -2.513703e+04
-2.163789e+05 2.709702e+05 0.000000e+00
-2.363568e+05 2.399237e+05 0.000000e+00
2.369000e+05 2.419995e+05 0.000000e+00
2.107998e+05 2.314122e+05 -2.478887e+04
-2.529850e+04 3.823197e+04 -3.037786e+04
-4.365713e+01 7.127487e+04 -5.000000e+04
-3.904530e+03 3.701511e+04 -5.000000e+04
-5.450001e+04 2.515180e+04 -3.042726e+04
-4.405274e+04 4.853741e+04 0.000000e+00
-5.250615e+04 6.301238e+04 -2.526126e+04
-2.363559e+05 -3.569797e+04 0.000000e+00
-2.256989e+05 -1.058125e+04 -2.562984e+04
-2.258996e+05 1.387860e+05 -2.523449e+04
-2.420771e+05 1.355489e+05 0.000000e+00
-2.393811e+05 1.249677e+05 -5.000000e+04
-2.399258e+05 5.459670e+04 -5.000000e+04
-1.503734e+04 2.127766e+05 -5.000000e+04
-3.273140e+04 2.419063e+05 0.000000e+00
-1.543553e+04 2.144124e+05 0.000000e+00
-3.184271e+04 5.759666e+04 -5.000000e+04
-6.370943e+04 4.369981e+04 -5.000000e+04
-8.690883e+04 1.230154e+04 -3.045046e+04
-7.561457e+04 3.451611e+04 0.000000e+00
-8.337614e+04 4.876707e+04 -2.541922e+04
-1.569137e+05 8.414777e+02 -5.000000e+04
-9.522936e+04 2.959663e+04 -5.000000e+04
-1.116628e+05 6.998278e+04 -2.521008e+04
-1.234651e+05 4.998467e+04 -5.000000e+04
1.228741e+05 9.276805e+04 -5.000000e+04
1.550178e+05 1.061944e+05 -5.000000e+04
-2.131761e+05 2.119119e+05 -5.000000e+04
-2.005146e+05 2.392098e+05 -5.000000e+04
8.224230e+04 1.047841e+05 0.000000e+00
9.415317e+04 1.127226e+05 -5.000000e+04
2.169553e+05 1.293960e+05 -5.000000e+04
-2.120415e+05 -2.386486e+04 -5.000000e+04
1.351323e+05 1.911968e+05 -5.000000e+04
9.108610e+04 7.885724e+04 -5.000000e+04
-2.405366e+05 1.685007e+05 0.000000e+00
-2.249468e+05 1.731140e+05 -2.555370e+04
-2.391825e+05 1.958725e+05 -5.000000e+04
-2.386174e+05 1.604696e+05 -5.000000e+04
-2.126155e+05 1.516529e+05 0.000000e+00
-2.042534e+05 -2.006021e+04 0.000000e+00
1.161333e+05 1.529324e+05 0.000000e+00
8.518642e+04 1.386472e+05 0.000000e+00
1.504520e+05 2.072756e+05 0.000000e+00
2.216249e+05 1.556804e+05 -5.000000e+04
-1.666998e+05 1.805950e+05 -5.000000e+04
-1.818619e+05 1.548483e+05 -5.000000e+04
-8.325923e+04 8.163193e+04 -2.348709e+04
-6.106637e+04 7.935928e+04 -5.000000e+04
-7.225284e+04 6.851018e+04 0.000000e+00
-1.835833e+05 2.697615e+05 -5.000000e+04
-1.834059e+05 2.710357e+05 0.000000e+00
-6.607357e+04 2.418075e+05 0.000000e+00
-6.576290e+04 2.418368e+05 -5.000000e+04
-9.912333e+04 2.415797e+05 -5.000000e+04
-3.783949e+04 1.172674e+05 0.000000e+00
-4.078881e+04 8.271370e+04 0.000000e+00
-9.267169e+03 9.677874e+04 0.000000e+00
1.339309e+05 2.412027e+05 0.000000e+00
1.007758e+05 2.413817e+05 0.000000e+00
1.265053e+05 2.289863e+05 -2.534704e+04
1.011247e+05 2.421316e+05 -5.000000e+04
-2.364213e+05 6.428654e+01 0.000000e+00
2.521100e+05 1.533321e+05 -3.028122e+04
2.724444e+05 1.752680e+05 -2.701094e+04
2.717314e+05 1.559534e+05 -5.000000e+04
-2.422712e+05 1.032129e+05 0.000000e+00
-2.264090e+05 1.056978e+05 -2.489824e+04
-2.396285e+05 8.981178e+04 -5.000000e+04
7.846688e+02 2.419989e+05 -5.000000e+04
-7.195259e+03 2.272847e+05 -2.481805e+04
-3.247890e+04 2.419563e+05 -5.000000e+04
1.675171e+02 2.422109e+05 0.000000e+00
-1.402335e+05 8.943645e+04 -2.496710e+04
-9.088107e+04 9.922418e+04 -5.000000e+04
-1.002784e+05 8.810759e+04 0.000000e+00
-1.712662e+05 1.063454e+05 -2.210062e+04
-1.858860e+05 1.364203e+05 0.000000e+00
-1.980685e+05 1.223644e+05 -2.466513e+04
-1.856207e+05 1.057960e+05 0.000000e+00
-1.579620e+05 9.083137e+04 0.000000e+00
-1.701431e+05 1.393308e+05 -2.452695e+04
-1.576288e+05 1.224074e+05 0.000000e+00
-1.502161e+05 1.056332e+05 -5.000000e+04
-1.247585e+04 6.258951e+04 0.000000e+00
1.910624e+04 7.664646e+04 0.000000e+00
3.502955e+04 1.225642e+05 -5.000000e+04
5.069173e+04 9.070170e+04 0.000000e+00
-1.036067e+05 5.448473e+04 0.000000e+00
-6.928747e+04 1.029438e+05 0.000000e+00
-1.497182e+05 2.704623e+05 -5.000000e+04
-1.330851e+05 2.419277e+05 0.000000e+00
-1.499242e+05 2.124094e+05 0.000000e+00
-9.949501e+04 2.419421e+05 0.000000e+00
-2.096350e+05 1.074656e+05 -5.000000e+04
-2.136664e+05 1.204556e+05 0.000000e+00
-2.102424e+05 7.224334e+04 -5.000000e+04
-1.997309e+05 8.961905e+04 -2.220360e+04
-1.857477e+05 7.533050e+04 0.000000e+00
-5.947122e+04 1.187451e+05 -5.000000e+04
-1.288809e+05 1.403329e+05 0.000000e+00
8.583154e+04 2.082370e+05 0.000000e+00
1.603201e+04 2.140028e+05 0.000000e+00
-9.255711e+04 6.453318e+04 -5.000000e+04
-1.213578e+05 8.476869e+04 -5.000000e+04
-1.247663e+05 -2.712322e+04 -3.376336e+04
-9.880097e+04 -5.098861e+03 -5.000000e+04
-1.263339e+05 1.525511e+04 -5.000000e+04
1.677204e+05 2.422782e+05 -5.000000e+04
1.679289e+05 2.412422e+05 0.000000e+00
-2.112406e+05 3.741699e+04 -5.000000e+04
-2.120699e+05 4.175779e+03 -5.000000e+04
-2.002872e+05 2.424176e+05 0.000000e+00
-2.134785e+05 8.889659e+04 0.000000e+00
-1.805195e+05 8.917805e+04 -5.000000e+04
-6.722931e+04 8.951619e+03 -5.000000e+04
-7.119834e+04 -2.549233e+04 -5.000000e+04
-2.090054e+05 1.422426e+05 -5.000000e+04
2.775010e+04 5.108128e+04 -5.000000e+04
-1.600181e+05 1.542043e+05 0.000000e+00
6.700759e+04 2.409634e+05 0.000000e+00
2.106191e+05 2.569440e+05 -2.504809e+04
-3.555971e+04 2.298763e+04 -5.000000e+04
-1.664091e+05 2.405252e+05 -5.000000e+04
-2.135469e+05 2.169108e+05 0.000000e+00
-1.818249e+05 5.401233e+04 -5.000000e+04
-1.309057e+05 7.366845e+04 0.000000e+00
2.158226e+05 2.198018e+05 0.000000e+00
2.368289e+05 2.408652e+05 -5.000000e+04
-1.799700e+05 1.244601e+05 -5.000000e+04
1.176940e+05 2.171301e+05 0.000000e+00
1.191576e+05 2.145835e+05 -5.000000e+04
2.445450e+05 1.413727e+05 -5.000000e+04
2.014943e+05 2.433990e+05 0.000000e+00
2.009021e+05 2.425785e+05 -5.000000e+04
2.710308e+05 1.878177e+05 -5.000000e+04
2.166171e+05 2.713045e+05 -5.000000e+04
-9.834260e+04 1.878518e+05 0.000000e+00
-1.286597e+05 1.064069e+05 0.000000e+00
1.343686e+05 2.423293e+05 -5.000000e+04
-3.955439e+04 -1.142488e+04 -5.000000e+04
-7.903814e+03 2.644271e+03 -5.000000e+04
8.713483e+04 4.472152e+04 -5.000000e+04
-1.028066e+05 -3.956182e+04 -5.000000e+04
1.504792e+05 7.220241e+04 -5.000000e+04
1.819144e+05 8.544637e+04 -5.000000e+04
5.543903e+04 3.074863e+04 -5.000000e+04
2.375923e+04 1.670904e+04 -5.000000e+04
1.188326e+05 5.856627e+04 -5.000000e+04
-1.512956e+05 -3.961882e+04 -1.626238e+04
-1.637195e+05 -3.823989e+04 -1.267653e+04
-1.546270e+05 -3.137086e+04 -1.323796e+04
-1.680709e+05 -2.958550e+04 -9.681200e+03
-1.638563e+05 -4.563978e+04 -1.641427e+04
-1.734424e+05 -4.227178e+04 -1.696526e+04
-1.720500e+05 -5.023350e+04 -1.749113e+04
-1.575750e+05 -5.325016e+04 -2.400143e+04
-1.388425e+05 -5.321952e+04 -3.408914e+04
-1.511791e+05 -6.227268e+04 -3.356040e+04
-1.483148e+05 -4.708725e+04 -2.219418e+04
-1.689221e+05 -6.004659e+04 -2.614637e+04
-1.825690e+05 -7.069625e+04 -2.955685e+04
-1.835250e+05 -6.041448e+04 -2.078566e+04
-1.910656e+05 -8.269375e+04 -3.347488e+04
-1.782151e+05 -8.548097e+04 -3.887049e+04
-1.953294e+05 -9.289731e+04 -4.246190e+04
-2.627951e+05 -9.795356e+04 -2.427580e+04
-2.516020e+05 -8.853800e+04 -2.155599e+04
-2.489781e+05 -9.602456e+04 -3.392400e+04
-1.856187e+05 -4.043186e+04 -1.128231e+04
-1.390422e+05 -3.570408e+04 -1.668888e+04
-1.407231e+05 -2.655790e+04 -1.410689e+04
-1.993520e+05 -4.895554e+04 -1.180015e+04
-2.110725e+05 -5.608464e+04 -1.320348e+04
-2.103066e+05 -4.349850e+04 -1.372666e+04
-1.215475e+05 -2.828499e+04 -1.956113e+04
-1.346802e+05 -4.230726e+04 -2.468336e+04
-2.192237e+05 -7.744317e+04 -2.300825e+04
-2.118486e+05 -8.733852e+04 -3.641648e+04
-2.358141e+05 -8.452413e+04 -2.663299e+04
-2.415810e+05 -7.521858e+04 -1.664851e+04
-2.307820e+05 -6.571479e+04 -1.551811e+04
-1.985632e+05 -6.839330e+04 -2.304821e+04
-2.107686e+05 -6.590930e+04 -1.727714e+04
-1.950523e+05 -5.668629e+04 -1.610935e+04
-2.577612e+05 -1.068373e+05 -3.046623e+04
-2.467913e+05 -1.166644e+05 -3.751333e+04
-2.358252e+05 -1.289621e+05 -5.000000e+04
-2.047583e+05 -3.791548e+04 0.000000e+00
-1.804093e+05 -4.913288e+04 -1.623894e+04
-2.709309e+05 -8.424669e+04 -1.596769e+04
-2.757056e+05 -6.992145e+04 -1.168763e+04
-2.626083e+05 -6.784204e+04 -1.094514e+04
-2.815166e+05 -8.035906e+04 -1.120944e+04
-2.682815e+05 -6.719221e+04 0.000000e+00
-2.842105e+05 -7.433912e+04 0.000000e+00
-2.557395e+05 -7.712464e+04 -1.504418e+04
-2.464835e+05 -6.354113e+04 -1.256656e+04
-2.287384e+05 -9.762826e+04 -3.845523e+04
-2.794396e+05 -9.993478e+04 -2.124320e+04
-2.863898e+05 -9.117523e+04 -1.530660e+04
-1.067087e+05 -7.397777e+04 -5.000000e+04
-1.187618e+05 -7.837123e+04 -4.556015e+04
-1.086175e+05 -9.118362e+04 -5.000000e+04
-1.011911e+05 -7.234157e+04 -4.611293e+04
-2.713688e+05 -1.096241e+05 -2.971691e+04
1.469768e+05 9.008519e+04 -2.301300e+04
1.650142e+05 9.078062e+04 -2.745932e+04
1.473003e+05 7.318928e+04 -3.481477e+04
1.632233e+05 7.601421e+04 -3.245365e+04
1.519501e+05 1.041909e+05 -1.702465e+04
1.336737e+05 1.038186e+05 -1.441414e+04
1.314282e+05 8.450169e+04 -2.327427e+04
1.436334e+05 1.159447e+05 0.000000e+00
1.776479e+05 8.182740e+04 -3.660572e+04
1.826883e+05 1.008228e+05 -2.826351e+04
1.715599e+05 1.147130e+05 -1.697419e+04
1.916770e+05 1.172684e+05 -2.238676e+04
1.792628e+05 1.252896e+05 -1.181661e+04
4.625757e+04 4.281358e+04 -2.491490e+04
5.243825e+04 2.903871e+04 -3.484612e+04
3.864535e+04 3.676992e+04 -3.873871e+04
7.239563e+04 4.856633e+04 -3.506585e+04
7.027209e+04 3.433740e+04 -3.602787e+04
6.105248e+04 4.578866e+04 -2.862190e+04
4.637186e+04 6.117971e+04 -1.703803e+04
-2.524920e+05 -6.016229e+04 0.000000e+00
7.177220e+04 5.831293e+04 -2.258072e+04
5.763902e+04 6.933687e+04 -1.250041e+04
1.594229e+05 1.229747e+05 0.000000e+00
1.221453e+05 9.268712e+04 -1.480913e+04
1.096882e+05 8.612634e+04 -1.695350e+04
1.233293e+05 7.530876e+04 -2.501042e+04
1.121126e+05 1.018508e+05 0.000000e+00
-2.091466e+04 1.457635e+04 -2.457830e+04
-1.074255e+04 1.791652e+02 -3.468367e+04
-2.816012e+04 9.115620e+03 -3.933564e+04
1.062858e+04 1.650081e+04 -3.296249e+04
5.683205e+03 5.890604e+03 -3.618388e+04
-1.599355e+03 1.649883e+04 -2.951205e+04
-1.769012e+04 3.223014e+04 -1.708868e+04
-3.389905e+04 2.460853e+04 -1.614216e+04
-4.881378e+04 1.672289e+04 -1.722326e+04
-3.470956e+04 4.964833e+03 -2.659114e+04
-4.571058e+04 3.153296e+04 0.000000e+00
-2.365990e+05 -5.276429e+04 0.000000e+00
-7.728097e+04 1.749239e+04 0.000000e+00
-6.720332e+04 1.383956e+04 -1.263363e+04
-8.276548e+04 5.472637e+03 -1.531603e+04
1.293128e+05 8.067349e+04 -3.893340e+04
2.055047e+05 1.078297e+05 -2.805430e+04
2.096585e+05 1.201137e+05 -2.303254e+04
9.005406e+04 6.216370e+04 -2.582481e+04
7.673465e+04 7.404749e+04 -1.504964e+04
8.468323e+04 4.471945e+04 -3.322092e+04
1.038817e+05 5.821881e+04 -2.891594e+04
1.001262e+05 4.811172e+04 -3.538520e+04
-2.208095e+05 -4.573436e+04 0.000000e+00
2.337048e+05 1.503003e+05 -7.612978e+03
2.445899e+05 1.484120e+05 -1.477399e+04
2.292463e+05 1.439175e+05 -1.597267e+04
2.622102e+05 1.273090e+05 -2.892341e+04
2.710651e+05 1.359781e+05 -3.000082e+04
2.734376e+05 1.256593e+05 -3.521765e+04
2.715138e+05 1.245592e+05 -5.000000e+04
2.842700e+05 1.410226e+05 -3.159076e+04
2.746878e+05 1.449132e+05 -2.374643e+04
2.594445e+05 1.357397e+05 -2.436912e+04
2.855917e+05 1.579361e+05 -2.089099e+04
2.637987e+05 1.540425e+05 -1.576875e+04
2.715224e+05 1.664000e+05 -1.212775e+04
1.437338e+05 5.405079e+04 -4.064565e+04
1.296160e+05 6.263709e+04 -3.525346e+04
1.313018e+05 4.505598e+04 -4.082268e+04
1.974574e+05 1.035457e+05 -3.171147e+04
2.096256e+05 9.852200e+04 -3.635124e+04
1.953183e+05 8.995697e+04 -3.601648e+04
2.127415e+05 9.815743e+04 -5.000000e+04
-1.889688e+05 -3.088556e+04 0.000000e+00
-1.273781e+05 -2.192683e+04 -1.300318e+04
-1.122288e+05 -4.494320e+04 -3.193097e+04
-1.008978e+05 -3.225166e+04 -2.887410e+04
-1.024920e+05 -5.081990e+04 -4.158970e+04
-8.963083e+04 -3.898201e+04 -3.930675e+04
-1.196241e+05 -5.689951e+04 -4.150449e+04
1.010642e+05 3.165212e+04 -4.117821e+04
1.151497e+05 2.722579e+04 -4.448879e+04
9.967405e+04 1.505899e+04 -4.639611e+04
1.145964e+05 2.435699e+04 -5.000000e+04
8.297192e+04 1.036705e+04 -5.000000e+04
-8.492892e+04 -1.190718e+04 -2.406440e+04
-6.586661e+04 -1.158828e+04 -2.847420e+04
-7.479899e+04 -2.601101e+04 -3.538405e+04
-5.658272e+04 -2.241354e+04 -3.510725e+04
-1.088424e+05 3.511036e+03 0.000000e+00
-9.699409e+04 -4.484525e+02 -1.311954e+04
-1.099319e+05 -4.701718e+03 -1.565169e+04
-9.856514e+04 -1.858405e+04 -2.561315e+04
1.310340e+04 2.909040e+04 -2.647332e+04
2.932426e+04 3.857343e+04 -2.569106e+04
-8.813535e+04 -2.618567e+04 -3.032831e+04
-1.213889e+05 -1.394218e+04 -1.321081e+04
-1.246683e+05 -3.264350e+03 0.000000e+00
2.226707e+05 1.508145e+05 0.000000e+00
2.394028e+05 1.317698e+05 -2.281129e+04
2.419797e+05 1.255443e+05 -3.575750e+04
2.690656e+05 1.716360e+05 0.000000e+00
2.848550e+05 1.786659e+05 0.000000e+00
2.895015e+05 1.708972e+05 -1.396470e+04
2.238501e+05 1.149657e+05 -3.394607e+04
2.247921e+05 1.277019e+05 -2.130181e+04
2.068812e+05 1.437845e+05 0.000000e+00
2.112048e+05 1.359017e+05 -1.335126e+04
1.910568e+05 1.370180e+05 0.000000e+00
2.538907e+05 1.645948e+05 0.000000e+00
-1.526602e+05 -2.349946e+04 -8.885665e+03
-1.567239e+05 -1.672702e+04 0.000000e+00
-1.385360e+05 -1.807317e+04 -1.009467e+04
-1.725134e+05 -2.375695e+04 0.000000e+00
2.063169e+04 1.264104e+04 -3.358125e+04
1.916892e+04 -1.342099e+03 -4.060022e+04
4.499724e+03 -1.394141e+04 -4.416741e+04
1.903524e+04 -1.856455e+04 -4.441557e+04
3.486583e+04 -1.343179e+04 -4.445903e+04
3.354803e+04 -2.791117e+04 -5.000000e+04
1.972764e+04 -1.773213e+04 -5.000000e+04
6.984597e+03 -2.757341e+04 -4.541080e+04
-1.149263e+04 -3.082103e+04 -4.495641e+04
-1.188579e+04 -3.179544e+04 -5.000000e+04
1.951843e+03 -4.197275e+04 -5.000000e+04
3.394037e+04 1.525667e+03 -4.217941e+04
-2.935804e+04 -2.467896e+04 -3.981578e+04
-2.408150e+04 -7.922415e+03 -3.498644e+04
-1.245470e+04 -1.495543e+04 -4.138609e+04
-2.650067e+03 3.791994e+04 -1.567642e+04
9.003588e+03 4.768266e+04 -1.430756e+04
-2.334168e+05 -1.272109e+05 -4.348424e+04
-2.363337e+05 -1.467955e+05 -5.000000e+04
-2.205442e+05 -1.397655e+05 -5.000000e+04
3.541542e+04 2.083927e+04 -3.560835e+04
4.955072e+04 1.180689e+04 -4.167762e+04
6.551351e+04 1.703178e+04 -4.248559e+04
-2.524803e+05 -1.539647e+05 -5.000000e+04
-2.681184e+05 -1.433005e+05 -5.000000e+04
-2.682697e+05 -1.609946e+05 -5.000000e+04
-2.644212e+05 -1.426664e+05 -4.517208e+04
-2.837102e+05 -1.487883e+05 -4.340441e+04
-2.842105e+05 -1.681205e+05 -5.000000e+04
-2.671798e+05 -1.221654e+05 -4.088106e+04
-2.831509e+05 -1.189439e+05 -3.281902e+04
-2.800980e+05 -1.326673e+05 -4.020280e+04
4.969058e+04 -2.594120e+03 -4.543587e+04
6.649202e+04 2.474001e+02 -4.479850e+04
6.514706e+04 -1.385177e+04 -5.000000e+04
5.134676e+04 -3.673194e+03 -5.000000e+04
-2.514384e+05 -1.342803e+05 -4.301831e+04
-1.611190e+05 -9.729539e+04 -4.346738e+04
-1.616723e+05 -8.202254e+04 -3.973015e+04
-1.480725e+05 -9.414382e+04 -4.562118e+04
-1.706100e+05 -1.014576e+05 -5.000000e+04
-1.384303e+05 -8.791636e+04 -5.000000e+04
-1.754957e+05 -9.882850e+04 -4.296023e+04
-1.892152e+05 -1.084315e+05 -4.486477e+04
-2.032179e+05 -1.149391e+05 -5.000000e+04
8.405189e+04 2.642491e+04 -4.325320e+04
7.987864e+04 5.517306e+03 -4.681558e+04
9.674912e+04 1.982735e+02 -5.000000e+04
1.143105e+05 4.063567e+04 -4.039124e+04
1.329325e+05 2.872584e+04 -4.587609e+04
1.283508e+05 1.422317e+04 -5.000000e+04
-1.436832e+05 -7.560916e+04 -4.046334e+04
-1.618555e+05 -7.069661e+04 -3.422443e+04
1.646439e+05 6.254751e+04 -4.308963e+04
1.452507e+05 4.036644e+04 -4.458620e+04
1.645914e+05 4.182799e+04 -4.653118e+04
1.599391e+05 2.819688e+04 -5.000000e+04
1.461939e+05 3.824456e+04 -5.000000e+04
1.152911e+05 5.631958e+04 -3.444355e+04
1.795483e+05 6.671573e+04 -3.865618e+04
1.930038e+05 5.688058e+04 -4.463072e+04
1.786283e+05 5.478804e+04 -4.398095e+04
1.925062e+05 7.275803e+04 -4.229754e+04
1.777009e+05 5.197681e+04 -5.000000e+04
1.914820e+05 4.209293e+04 -5.000000e+04
2.706215e+05 1.099137e+05 -4.056684e+04
2.855185e+05 1.164392e+05 -4.219144e+04
-1.345051e+05 -8.410601e+04 -4.365643e+04
-1.325877e+05 -6.686949e+04 -4.085028e+04
-1.563576e+05 -1.119534e+05 -5.000000e+04
-1.402678e+05 -1.051828e+05 -5.000000e+04
-7.740992e+04 -4.536620e+04 -3.831100e+04
-7.510283e+04 -5.991926e+04 -5.000000e+04
-8.762317e+04 -6.209939e+04 -4.405192e+04
-6.292440e+04 -5.211490e+04 -4.329372e+04
-6.035568e+04 -3.523073e+04 -4.125507e+04
-4.353011e+04 -4.397322e+04 -4.450941e+04
-4.349538e+04 -4.585819e+04 -5.000000e+04
-9.282802e+04 -8.415370e+04 -5.000000e+04
-7.702510e+04 -7.712444e+04 -5.000000e+04
-1.244783e+05 -9.815292e+04 -5.000000e+04
-2.964243e+04 -5.603405e+04 -5.000000e+04
-2.725608e+04 -3.957039e+04 -4.596932e+04
-4.543190e+04 -6.306398e+04 -5.000000e+04
-6.123563e+04 -7.009452e+04 -5.000000e+04
2.274709e+05 1.013736e+05 -3.541908e+04
2.402092e+05 1.088126e+05 -3.494451e+04
2.425555e+05 1.109443e+05 -5.000000e+04
2.261489e+05 8.617541e+04 -4.245016e+04
2.276828e+05 7.072169e+04 -4.589037e+04
2.090638e+05 6.474991e+04 -4.608975e+04
2.090069e+05 6.555397e+04 -5.000000e+04
2.229245e+05 5.591144e+04 -5.000000e+04
2.408407e+05 8.248705e+04 -4.398087e+04
2.584525e+05 8.444739e+04 -4.603453e+04
2.541989e+05 6.970181e+04 -5.000000e+04
2.399768e+05 7.907486e+04 -5.000000e+04
2.550933e+05 1.010074e+05 -4.020174e+04
2.583881e+05 1.171291e+05 -3.493190e+04
2.394084e+05 9.449812e+04 -3.964591e+04
2.714553e+05 9.606640e+04 -4.467867e+04
2.694362e+05 7.652279e+04 -5.000000e+04
2.704514e+05 9.271682e+04 -5.000000e+04
2.852257e+05 8.355272e+04 -5.000000e+04
-4.306890e+04 -3.105494e+04 -3.995196e+04
-4.213629e+04 -1.263563e+04 -3.409995e+04
-5.304721e+04 -1.305113e+04 -2.889800e+04
-5.512211e+04 2.011365e+02 -2.537845e+04
-1.413266e+04 4.558894e+04 0.000000e+00
1.775855e+04 -3.494109e+04 -5.000000e+04
-1.383763e+04 -4.900268e+04 -5.000000e+04
1.441496e+05 2.116695e+04 -5.000000e+04
-7.250807e+04 -6.117748e+04 -4.496590e+04
2.825560e+04 5.420963e+04 -1.671106e+04
-2.998817e+04 -2.858410e+04 -4.746480e+04
8.095965e+04 -6.831653e+03 -5.000000e+04
1.978335e+05 1.293982e+05 -1.566119e+04
2.088030e+05 8.262504e+04 -4.222491e+04
1.656813e+03 5.261887e+04 0.000000e+00
1.125613e+05 7.193245e+03 -5.000000e+04
-2.992110e+04 3.856289e+04 0.000000e+00
-6.149149e+04 2.452231e+04 0.000000e+00
4.935759e+04 -2.088170e+04 -5.000000e+04
1.037874e+05 7.101517e+04 -2.535279e+04
6.481955e+04 8.073481e+04 0.000000e+00
4.903008e+04 7.370489e+04 0.000000e+00
1.744786e+04 5.964734e+04 0.000000e+00
1.279021e+05 1.088807e+05 0.000000e+00
1.752673e+05 1.299880e+05 0.000000e+00
-9.305297e+04 1.054096e+04 0.000000e+00
-1.121156e+05 -1.894245e+04 -1.833713e+04
9.638431e+04 9.480592e+04 0.000000e+00
6.246596e+04 6.200812e+04 -3.441602e+04
8.059483e+04 8.777600e+04 0.000000e+00
1.756925e+05 3.506301e+04 -5.000000e+04
-1.855705e+05 -3.063540e+04 -1.295378e+04
9.177679e+04 8.222542e+04 -1.456288e+04
2.556317e+04 3.738502e+04 -4.074643e+04
-2.077059e+05 -7.863467e+04 -2.698907e+04
-1.404578e+05 -1.029428e+04 0.000000e+00
2.071350e+05 4.888151e+04 -5.000000e+04
2.901087e+05 9.942371e+04 -4.552322e+04
3.323733e+04 6.667727e+04 0.000000e+00
2.381012e+05 1.575649e+05 0.000000e+00
2.384094e+05 6.267188e+04 -5.000000e+04
-1.884511e+05 -1.257241e+05 -5.000000e+04
-1.721471e+05 -1.189834e+05 -5.000000e+04
-2.898832e+05 -1.076618e+05 -2.396241e+04
-2.269996e+05 -1.107030e+05 -3.801166e+04
-2.170320e+05 -1.240719e+05 -4.535509e+04
-2.103971e+05 -1.054719e+05 -3.926663e+04
-2.042405e+05 -1.327540e+05 -5.000000e+04
-2.043059e+05 -1.215897e+05 -4.592916e+04
2.888376e+05 1.307205e+05 -3.179859e+04
2.539300e+05 9.562015e+04 -4.732199e+04
2.330714e+05 9.334027e+04 -4.706932e+04
1.293028e+05 4.051435e+04 -4.781209e+04
-2.602480e+05 -7.185984e+04 -2.270778e+04
-2.146964e+05 -9.499202e+04 -4.608204e+04
-1.667693e+05 -4.100215e+04 -1.250000e+03
-1.633868e+05 -4.016187e+04 -6.443333e+03
-1.643265e+05 -3.603397e+04 -5.445911e+03
-1.598544e+05 -4.029340e+04 -2.500000e+03
-1.713650e+05 -3.494887e+04 -4.058183e+03
-1.686962e+05 -3.954606e+04 -5.903140e+03
-1.736842e+05 -4.171090e+04 0.000000e+00
-1.529396e+05 -3.958465e+04 -3.750000e+03
-1.580372e+05 -3.541896e+04 -7.110253e+03
-1.563001e+05 -3.917863e+04 -8.685777e+03
-1.487446e+05 -3.986369e+04 -9.973063e+03
-1.507963e+05 -3.592528e+04 -8.618361e+03
-1.460247e+05 -3.887590e+04 -5.000000e+03
-1.738037e+05 -4.887396e+04 -3.750000e+03
-1.690531e+05 -4.554036e+04 -8.749206e+03
-1.726246e+05 -4.773864e+04 -1.034784e+04
-1.737639e+05 -4.648627e+04 -2.500000e+03
-1.725529e+05 -5.169540e+04 -1.111455e+04
-1.678693e+05 -4.889391e+04 -1.028240e+04
-1.738435e+05 -5.126165e+04 -5.000000e+03
-1.737240e+05 -4.409859e+04 -1.250000e+03
-1.736951e+05 -4.454531e+04 -1.082446e+04
-1.682712e+05 -4.229809e+04 -8.617227e+03
-1.738974e+05 -4.075584e+04 -8.072534e+03
-1.388310e+05 -5.368208e+04 -2.446442e+04
-1.482455e+05 -5.593960e+04 -1.927633e+04
-1.443590e+05 -5.922811e+04 -2.485563e+04
-1.384710e+05 -5.582752e+04 -1.571471e+04
-1.650004e+05 -5.240312e+04 -7.678677e+03
-1.646819e+05 -5.301637e+04 -1.425709e+04
-1.605099e+05 -4.984158e+04 -1.273257e+04
-1.561573e+05 -5.354459e+04 -1.035735e+04
-1.473141e+05 -5.468605e+04 -1.303603e+04
-1.520670e+05 -4.955192e+04 -1.600119e+04
-1.560105e+05 -5.366332e+04 -1.692310e+04
-1.453506e+05 -5.211703e+04 -1.855285e+04
-1.724076e+05 -7.300264e+04 -2.466687e+04
-1.665836e+05 -6.791836e+04 -2.219272e+04
-1.744060e+05 -6.709379e+04 -1.990422e+04
-1.637460e+05 -7.385600e+04 -1.928826e+04
-1.813222e+05 -9.427881e+04 -3.381218e+04
-1.881910e+05 -9.324169e+04 -3.037794e+04
-1.882782e+05 -9.670554e+04 -3.655965e+04
-1.840501e+05 -1.032051e+05 -3.000000e+04
-2.510909e+05 -9.749307e+04 -1.834252e+04
-2.563114e+05 -1.024723e+05 -1.923919e+04
-2.500833e+05 -1.014124e+05 -2.451471e+04
-2.491171e+05 -1.062465e+05 -1.632453e+04
-1.794724e+05 -4.157727e+04 -4.361906e+03
-1.421684e+05 -3.751555e+04 -9.867063e+03
-1.436077e+05 -3.359624e+04 -9.721789e+03
-2.087043e+05 -5.531501e+04 -5.464819e+03
-2.020472e+05 -5.180689e+04 -4.673280e+03
-2.080016e+05 -4.955670e+04 -6.562019e+03
-2.052632e+05 -5.577075e+04 0.000000e+00
-1.182058e+05 -2.649016e+04 -5.000000e+03
-1.251605e+05 -2.958659e+04 -5.000000e+03
-1.184877e+05 -2.875781e+04 -1.167613e+04
-1.232721e+05 -3.382450e+04 -7.678677e+03
-1.321152e+05 -3.268303e+04 -5.000000e+03
-1.267159e+05 -3.111549e+04 -1.155174e+04
-1.302268e+05 -3.692093e+04 -7.678677e+03
-1.256753e+05 -3.664928e+04 -1.536790e+04
-1.283384e+05 -4.115884e+04 -1.035735e+04
-1.390700e+05 -3.577947e+04 -5.000000e+03
-1.354588e+05 -3.456194e+04 -1.114791e+04
-1.371815e+05 -4.001737e+04 -7.678677e+03
-1.441363e+05 -4.311381e+04 -7.678677e+03
-1.409695e+05 -4.117894e+04 -1.261536e+04
-1.422478e+05 -4.735171e+04 -1.035735e+04
-1.352931e+05 -4.425528e+04 -1.035735e+04
-1.304502e+05 -4.405469e+04 -1.754905e+04
-1.334047e+05 -4.849318e+04 -1.303603e+04
-1.389044e+05 -4.387444e+04 -1.644856e+04
-1.403594e+05 -5.158962e+04 -1.303603e+04
-1.365246e+05 -4.981048e+04 -1.943583e+04
-1.339870e+05 -3.995458e+04 -1.387366e+04
-2.156149e+05 -9.246762e+04 -2.808629e+04
-2.194303e+05 -8.784428e+04 -2.034796e+04
-2.257971e+05 -9.127222e+04 -2.432676e+04
-2.173556e+05 -1.000907e+05 -2.053626e+04
-2.319705e+05 -7.739563e+04 -5.134065e+03
-2.348718e+05 -7.928030e+04 -1.154636e+04
-2.297657e+05 -7.403963e+04 -1.140305e+04
-2.270988e+05 -8.496065e+04 -1.026813e+04
-2.326957e+05 -6.786703e+04 -6.529885e+03
-2.380052e+05 -7.383759e+04 -8.339883e+03
-2.368421e+05 -6.983060e+04 0.000000e+00
-2.222272e+05 -9.252567e+04 -1.540219e+04
-2.245041e+05 -8.014939e+04 -1.659253e+04
-2.316970e+05 -8.396615e+04 -1.717978e+04
-2.062686e+05 -6.589810e+04 -9.689170e+03
-1.989922e+05 -6.868575e+04 -1.348458e+04
-1.985051e+05 -6.156507e+04 -1.002820e+04
-2.016624e+05 -6.364740e+04 -5.000000e+03
-2.535434e+05 -1.077592e+05 -2.243402e+04
-2.481919e+05 -1.106226e+05 -2.613284e+04
-2.050107e+05 -4.684312e+04 0.000000e+00
-1.776035e+05 -5.981456e+04 -1.495636e+04
-1.829954e+05 -6.415963e+04 -1.494530e+04
-1.662704e+05 -6.820741e+04 -1.571619e+04
-1.732251e+05 -7.130385e+04 -1.571619e+04
-1.687948e+05 -6.255882e+04 -1.214413e+04
-1.757495e+05 -6.565526e+04 -1.214413e+04
-1.827042e+05 -6.875170e+04 -1.214413e+04
-1.743101e+05 -5.646687e+04 -1.289651e+04
-1.780114e+05 -5.156109e+04 -9.514176e+03
-1.841400e+05 -5.428249e+04 -9.979554e+03
-1.713191e+05 -5.691024e+04 -8.572065e+03
-1.782738e+05 -6.000667e+04 -8.572065e+03
-1.807982e+05 -5.435809e+04 -5.000000e+03
-1.877529e+05 -5.745452e+04 -5.000000e+03
-1.907087e+05 -6.288831e+04 -1.232633e+04
-1.908618e+05 -5.800514e+04 -9.509142e+03
-1.852286e+05 -6.310311e+04 -8.572065e+03
-1.921833e+05 -6.619955e+04 -8.572065e+03
-1.947076e+05 -6.055096e+04 -5.000000e+03
-1.836870e+05 -5.936296e+04 -1.176427e+04
-2.043630e+05 -5.773991e+04 -1.250000e+03
-2.085319e+05 -5.858143e+04 -7.354199e+03
-2.018865e+05 -5.489157e+04 -6.889208e+03
-2.034628e+05 -5.970907e+04 -2.500000e+03
-2.025626e+05 -6.167824e+04 -3.750000e+03
-1.996964e+05 -5.725585e+04 -9.165568e+03
-2.073114e+05 -6.136192e+04 -9.863579e+03
-2.434566e+05 -9.701209e+04 -2.052786e+04
-2.452352e+05 -9.031533e+04 -1.575564e+04
-2.411767e+05 -1.047076e+05 -1.737746e+04
-2.460483e+05 -9.714254e+04 -1.224339e+04
-2.332363e+05 -1.031686e+05 -1.843039e+04
-2.381080e+05 -9.560358e+04 -1.329633e+04
-2.429796e+05 -8.803856e+04 -8.162263e+03
-2.357677e+05 -9.336795e+04 -2.134785e+04
-2.252960e+05 -1.016296e+05 -1.948333e+04
-2.301676e+05 -9.406462e+04 -1.434926e+04
-2.415531e+05 -8.221786e+04 -1.276793e+04
-2.350392e+05 -8.649960e+04 -9.215197e+03
-2.399108e+05 -7.893458e+04 -4.081132e+03
-2.378204e+05 -8.803942e+04 -1.647819e+04
-2.723675e+05 -7.771228e+04 -6.113915e+03
-2.678249e+05 -8.507170e+04 -8.024796e+03
-2.660603e+05 -7.586809e+04 -5.619989e+03
-2.684211e+05 -8.389046e+04 0.000000e+00
-2.747718e+05 -8.285223e+04 -5.703674e+03
-2.683513e+05 -7.554134e+04 0.000000e+00
-2.763158e+05 -7.911479e+04 0.000000e+00
-2.539431e+05 -1.006575e+05 -1.224339e+04
-2.536980e+05 -9.202698e+04 -1.453292e+04
-2.596279e+05 -9.663343e+04 -1.579038e+04
-2.587691e+05 -9.506848e+04 -8.162263e+03
-2.635951e+05 -8.947947e+04 -4.081132e+03
-2.641057e+05 -9.088260e+04 -1.262474e+04
-2.580807e+05 -8.627755e+04 -1.120713e+04
-2.609674e+05 -8.026316e+04 -6.989147e+03
-2.413963e+05 -6.798848e+04 -7.062269e+03
-2.318830e+05 -9.829509e+04 -2.742851e+04
-2.230570e+05 -9.956448e+04 -2.977266e+04
-2.404703e+05 -9.954798e+04 -2.819123e+04
-2.428637e+05 -9.286229e+04 -2.571645e+04
-2.771742e+05 -1.062306e+05 -1.575829e+04
-2.765897e+05 -9.892315e+04 -1.358808e+04
-2.831140e+05 -1.034732e+05 -1.379578e+04
-2.768007e+05 -1.118947e+05 -1.280268e+04
-2.747058e+05 -1.048937e+05 -9.602009e+03
-2.826005e+05 -1.084086e+05 -9.602009e+03
-2.726109e+05 -9.789260e+04 -6.401339e+03
-2.805056e+05 -1.014076e+05 -6.401339e+03
-2.884003e+05 -1.049225e+05 -6.401339e+03
-2.734272e+05 -9.216145e+04 -1.018411e+04
-2.768065e+05 -8.792645e+04 -6.709241e+03
-2.705160e+05 -9.089153e+04 -3.200670e+03
-2.784107e+05 -9.440649e+04 -3.200670e+03
-2.763158e+05 -8.740542e+04 0.000000e+00
-2.842105e+05 -9.092038e+04 0.000000e+00
-2.874739e+05 -9.871486e+04 -1.056593e+04
-2.840714e+05 -9.071382e+04 -7.622047e+03
-2.925397e+05 -9.430445e+04 -6.951914e+03
-2.863054e+05 -9.792146e+04 -3.200670e+03
-2.942002e+05 -1.014364e+05 -3.200670e+03
-2.921053e+05 -9.443535e+04 0.000000e+00
-2.806436e+05 -9.565710e+04 -9.201781e+03
-2.815460e+05 -8.396060e+04 -4.576717e+03
-2.907322e+05 -8.617000e+04 -6.063807e+03
-1.239290e+05 -7.901781e+04 -3.812126e+04
-1.178881e+05 -8.590797e+04 -4.241439e+04
-1.154023e+05 -7.603745e+04 -3.799766e+04
-1.284125e+05 -7.843358e+04 -3.000000e+04
-1.239409e+05 -8.592256e+04 -3.500000e+04
-1.214577e+05 -7.533715e+04 -3.000000e+04
-1.194694e+05 -9.341153e+04 -4.000000e+04
-1.169862e+05 -8.282612e+04 -3.500000e+04
-1.145030e+05 -7.224071e+04 -3.000000e+04
-1.134173e+05 -9.334127e+04 -4.507686e+04
-1.095719e+05 -9.978655e+04 -5.000000e+04
-1.063886e+05 -8.873333e+04 -4.548427e+04
-1.149979e+05 -1.009005e+05 -4.500000e+04
-1.125147e+05 -9.031509e+04 -4.000000e+04
-1.105263e+05 -1.083895e+05 -5.000000e+04
-1.080431e+05 -9.780406e+04 -4.500000e+04
-1.055600e+05 -8.721865e+04 -4.000000e+04
-1.086918e+05 -7.097924e+04 -3.760070e+04
-1.053613e+05 -7.838092e+04 -4.166587e+04
-1.009941e+05 -6.791261e+04 -3.811734e+04
-1.100315e+05 -7.972968e+04 -3.500000e+04
-1.075483e+05 -6.914427e+04 -3.000000e+04
-1.030768e+05 -7.663324e+04 -3.500000e+04
-1.005936e+05 -6.604784e+04 -3.000000e+04
-1.120333e+05 -8.215741e+04 -4.138184e+04
-2.560380e+05 -1.076586e+05 -1.544406e+04
-2.631286e+05 -1.031190e+05 -1.748160e+04
-2.594167e+05 -1.082854e+05 -2.111124e+04
-2.629589e+05 -1.090706e+05 -1.456360e+04
-2.698798e+05 -1.104827e+05 -1.368314e+04
-2.659336e+05 -1.098943e+05 -2.192507e+04
-2.703091e+05 -1.043789e+05 -1.791752e+04
-2.735453e+05 -1.108464e+05 -2.007195e+04
1.665262e+05 7.763997e+04 -1.694154e+04
1.609644e+05 8.294510e+04 -2.028904e+04
1.625349e+05 7.601161e+04 -2.351549e+04
1.586410e+05 7.413518e+04 -1.693840e+04
1.693384e+05 7.707952e+04 -2.351324e+04
1.692754e+05 8.496755e+04 -2.105773e+04
1.744115e+05 8.114477e+04 -1.694468e+04
1.507557e+05 7.063038e+04 -1.693526e+04
1.547590e+05 7.418612e+04 -2.520955e+04
1.532734e+05 8.158435e+04 -2.125870e+04
1.444104e+05 7.827390e+04 -1.931151e+04
1.450735e+05 7.162693e+04 -2.506747e+04
1.428704e+05 6.712559e+04 -1.693212e+04
1.426791e+05 7.506610e+04 -1.269909e+04
1.464631e+05 8.562199e+04 -1.555022e+04
1.367162e+05 8.358341e+04 -1.540876e+04
1.424878e+05 8.300661e+04 -8.466058e+03
1.358376e+05 7.558118e+04 -1.949001e+04
1.422966e+05 9.094712e+04 -4.233029e+03
1.367234e+05 9.234443e+04 -1.220781e+04
1.452790e+05 9.378808e+04 -1.202436e+04
1.479789e+05 1.002360e+05 -7.174992e+03
1.394434e+05 9.991416e+04 -7.032161e+03
1.421053e+05 9.888763e+04 0.000000e+00
1.428693e+05 1.074162e+05 0.000000e+00
1.754701e+05 8.037303e+04 -2.636491e+04
1.816931e+05 1.085162e+05 -4.217921e+03
1.794328e+05 1.076457e+05 -1.215588e+04
1.821846e+05 1.140427e+05 -9.116471e+03
1.897020e+05 1.040850e+05 -8.435843e+03
1.773491e+05 1.190090e+05 -5.107863e+03
1.732982e+05 1.124924e+05 -7.821062e+03
1.736842e+05 1.129475e+05 0.000000e+00
1.977109e+05 9.965374e+04 -1.265376e+04
1.888815e+05 1.111464e+05 -1.424147e+04
1.858842e+05 1.043318e+05 -1.798635e+04
1.942995e+05 9.797057e+04 -2.222532e+04
1.980858e+05 1.056417e+05 -2.015737e+04
2.057198e+05 9.522250e+04 -1.687169e+04
5.176155e+04 2.734174e+04 -2.472383e+04
4.742000e+04 3.357465e+04 -1.955257e+04
4.458739e+04 3.037519e+04 -2.774361e+04
4.814342e+04 2.497320e+04 -1.692010e+04
7.563983e+04 3.679223e+04 -2.621358e+04
7.605757e+04 4.518381e+04 -2.570672e+04
7.022480e+04 4.152190e+04 -2.394853e+04
7.972606e+04 3.903147e+04 -1.692180e+04
5.613175e+04 3.740342e+04 -2.111161e+04
4.632711e+04 4.260714e+04 -1.588581e+04
5.603908e+04 2.848777e+04 -1.692053e+04
4.794967e+04 3.290692e+04 -1.269008e+04
6.393474e+04 3.200233e+04 -1.692095e+04
5.584533e+04 3.642148e+04 -1.269050e+04
4.775592e+04 4.084064e+04 -8.460050e+03
6.424862e+04 3.920762e+04 -2.106183e+04
6.224750e+04 4.784081e+04 -1.879537e+04
7.183040e+04 3.551690e+04 -1.692138e+04
6.374099e+04 3.993605e+04 -1.269093e+04
7.163665e+04 4.345062e+04 -1.269135e+04
6.354724e+04 4.786977e+04 -8.460901e+03
4.540823e+04 5.052721e+04 -1.113399e+04
5.402444e+04 5.156031e+04 -1.347617e+04
4.738007e+04 5.891868e+04 -7.573631e+03
5.565158e+04 4.435520e+04 -8.460476e+03
4.756217e+04 4.877436e+04 -4.230025e+03
5.545783e+04 5.228892e+04 -4.230451e+03
4.736842e+04 5.670807e+04 0.000000e+00
5.630174e+04 4.396073e+04 -1.573495e+04
-2.605263e+05 -8.037549e+04 0.000000e+00
-2.578258e+05 -7.434312e+04 -5.315163e+03
-2.604565e+05 -7.202637e+04 0.000000e+00
-2.526316e+05 -7.686053e+04 0.000000e+00
-2.447368e+05 -7.334557e+04 0.000000e+00
-2.525618e+05 -6.851141e+04 0.000000e+00
-2.505165e+05 -7.018309e+04 -6.489716e+03
-2.446671e+05 -6.499645e+04 0.000000e+00
5.726022e+04 5.757377e+04 -9.326337e+03
5.319159e+04 6.291169e+04 -5.294193e+03
6.499485e+04 5.433983e+04 -1.414397e+04
7.367379e+04 4.807038e+04 -1.850259e+04
-1.780685e+05 -4.764444e+04 -8.971369e+03
-1.801205e+05 -4.428908e+04 -8.330018e+03
1.665535e+05 1.179611e+05 0.000000e+00
1.347844e+05 7.155114e+04 -1.269909e+04
1.311432e+05 7.881382e+04 -1.515422e+04
1.266715e+05 7.408808e+04 -1.644796e+04
1.266984e+05 7.597669e+04 -8.466058e+03
1.320683e+05 6.974498e+04 -1.978969e+04
1.186123e+05 8.040223e+04 -4.233029e+03
1.197214e+05 7.901569e+04 -1.306508e+04
1.243775e+05 8.396798e+04 -1.186436e+04
1.179996e+05 8.742565e+04 -6.122499e+03
1.115285e+05 8.440076e+04 -7.745482e+03
1.105263e+05 8.482778e+04 0.000000e+00
1.113195e+05 9.333928e+04 0.000000e+00
-1.210646e+04 -8.376999e+02 -2.466309e+04
-1.837919e+04 5.115285e+03 -1.983503e+04
-2.103251e+04 1.685086e+03 -2.783817e+04
-1.517144e+04 -3.237565e+03 -1.693127e+04
1.212439e+04 7.154471e+03 -2.621285e+04
1.417378e+04 1.270835e+04 -2.539646e+04
7.851408e+03 1.273602e+04 -2.318720e+04
1.653906e+04 1.090168e+04 -1.692029e+04
-7.825980e+03 8.963312e+03 -2.155621e+04
-1.774417e+04 1.420425e+04 -1.573868e+04
-7.243815e+03 2.972451e+02 -1.692852e+04
-1.532595e+04 4.718918e+03 -1.269845e+04
6.838097e+02 3.832055e+03 -1.692578e+04
-7.398324e+03 8.253728e+03 -1.269570e+04
-1.548046e+04 1.267540e+04 -8.465633e+03
1.056292e+03 1.060022e+04 -2.134387e+04
-4.818208e+02 1.873638e+04 -2.024509e+04
8.611435e+03 7.366866e+03 -1.692303e+04
5.293013e+02 1.178854e+04 -1.269296e+04
8.456926e+03 1.532335e+04 -1.269022e+04
3.747930e+02 1.974502e+04 -8.460143e+03
-1.760902e+04 2.209382e+04 -1.116324e+04
-7.874011e+03 2.347026e+04 -1.401315e+04
-1.517033e+04 2.909618e+04 -7.865108e+03
-7.552832e+03 1.621021e+04 -8.462888e+03
-1.563497e+04 2.063188e+04 -4.232817e+03
-7.707340e+03 2.416670e+04 -4.230072e+03
-1.578947e+04 2.858837e+04 0.000000e+00
-6.864859e+03 1.563053e+04 -1.607910e+04
-2.322069e+04 1.203955e+03 -1.269845e+04
-2.518428e+04 8.861330e+03 -1.551170e+04
-3.093040e+04 3.979715e+03 -1.718216e+04
-3.126993e+04 5.645475e+03 -8.465633e+03
-2.570263e+04 -1.128299e+03 -2.127375e+04
-3.931918e+04 1.008699e+04 -4.232817e+03
-3.814372e+04 9.332085e+03 -1.357422e+04
-3.216672e+04 1.447261e+04 -1.224940e+04
-3.941805e+04 1.797891e+04 -6.554904e+03
-4.652155e+04 1.448529e+04 -8.036852e+03
-4.736842e+04 1.452851e+04 0.000000e+00
-4.653950e+04 2.303074e+04 0.000000e+00
-2.367205e+05 -6.129745e+04 0.000000e+00
-2.337519e+04 9.160438e+03 -8.465633e+03
-2.450642e+04 2.709402e+04 -6.371481e+03
-2.352970e+04 1.711692e+04 -4.232817e+03
-2.368421e+04 2.507340e+04 0.000000e+00
-3.157895e+04 2.155844e+04 0.000000e+00
-3.282969e+04 2.425144e+04 -7.241600e+03
-3.142444e+04 1.360196e+04 -4.232817e+03
-3.947368e+04 1.804348e+04 0.000000e+00
-2.422855e+04 1.740729e+04 -1.077717e+04
-7.187033e+04 5.907173e+03 -5.965593e+03
-7.811417e+04 8.980523e+03 0.000000e+00
-7.902442e+04 2.903661e+03 -7.592956e+03
-7.894737e+04 4.686618e+02 0.000000e+00
1.351331e+05 7.288619e+04 -2.763947e+04
2.072118e+05 1.021827e+05 -2.228711e+04
2.070407e+05 1.081186e+05 -1.958378e+04
8.388877e+04 4.930874e+04 -1.994527e+04
7.632685e+04 5.702833e+04 -1.507704e+04
8.762013e+04 4.254459e+04 -1.692262e+04
7.953139e+04 4.696558e+04 -1.269135e+04
9.551420e+04 4.605771e+04 -1.692344e+04
8.742546e+04 5.047870e+04 -1.269217e+04
7.933671e+04 5.489970e+04 -8.460901e+03
9.065779e+04 5.367525e+04 -2.042450e+04
1.004342e+05 5.534157e+04 -2.096441e+04
9.450030e+04 6.107406e+04 -1.677763e+04
1.034083e+05 4.957083e+04 -1.692425e+04
9.531953e+04 5.399182e+04 -1.269298e+04
1.113023e+05 5.308395e+04 -1.692507e+04
1.032136e+05 5.750494e+04 -1.269380e+04
9.512486e+04 6.192594e+04 -8.462534e+03
7.759501e+04 6.399426e+04 -1.034197e+04
8.713456e+04 6.771495e+04 -1.294928e+04
7.824020e+04 7.080777e+04 -6.627280e+03
8.723079e+04 5.841282e+04 -8.461718e+03
7.914204e+04 6.283381e+04 -4.230451e+03
8.703611e+04 6.634693e+04 -4.231267e+03
7.894737e+04 7.076793e+04 0.000000e+00
8.445388e+04 6.049782e+04 -1.578799e+04
7.144198e+04 5.138473e+04 -8.460901e+03
6.938891e+04 6.866015e+04 -8.374174e+03
7.124730e+04 5.931885e+04 -4.230451e+03
7.105263e+04 6.725296e+04 0.000000e+00
6.315789e+04 6.373800e+04 0.000000e+00
6.110173e+04 6.427211e+04 -7.026215e+03
6.335257e+04 5.580389e+04 -4.230451e+03
5.526316e+04 6.022304e+04 0.000000e+00
6.762199e+04 6.085436e+04 -9.599277e+03
8.305736e+04 4.207035e+04 -2.352956e+04
1.058902e+05 4.990903e+04 -2.554722e+04
1.070137e+05 5.506037e+04 -2.283032e+04
-2.130363e+05 -5.075256e+04 0.000000e+00
-2.055857e+05 -7.275822e+04 -8.884065e+03
-2.104573e+05 -6.519320e+04 -3.750000e+03
-2.107945e+05 -7.332547e+04 -1.432811e+04
-2.143557e+05 -6.572045e+04 -8.483875e+03
-2.095090e+05 -8.186904e+04 -1.276813e+04
-2.143806e+05 -7.430402e+04 -7.634065e+03
-2.192522e+05 -6.673900e+04 -2.500000e+03
-2.150109e+05 -8.085626e+04 -1.745917e+04
-2.134323e+05 -9.097987e+04 -1.665219e+04
-2.183039e+05 -8.341485e+04 -1.151813e+04
-2.241453e+05 -6.635214e+04 -8.421641e+03
-2.231755e+05 -7.584982e+04 -6.384065e+03
-2.280472e+05 -6.828480e+04 -1.250000e+03
-2.187262e+05 -7.336021e+04 -1.275422e+04
-2.289474e+05 -6.631564e+04 0.000000e+00
-2.257332e+05 -6.186755e+04 -6.643552e+03
-2.288258e+05 -5.778248e+04 0.000000e+00
-2.210526e+05 -6.280068e+04 0.000000e+00
-2.131579e+05 -5.928571e+04 0.000000e+00
-2.209311e+05 -5.426752e+04 0.000000e+00
-2.161659e+05 -5.871693e+04 -5.663254e+03
2.409065e+05 1.448621e+05 -6.292048e+03
2.353782e+05 1.452914e+05 -3.416409e+03
2.339583e+05 1.412962e+05 -7.683621e+03
2.368421e+05 1.410672e+05 0.000000e+00
2.685254e+05 1.291928e+05 -2.331584e+04
2.644672e+05 1.245463e+05 -2.197876e+04
2.715294e+05 1.241918e+05 -2.527686e+04
2.684691e+05 1.234924e+05 -1.669656e+04
2.763518e+05 1.270161e+05 -1.668908e+04
2.759126e+05 1.314438e+05 -2.380070e+04
2.717580e+05 1.329581e+05 -1.926538e+04
2.842346e+05 1.305399e+05 -1.668161e+04
2.634468e+05 1.292480e+05 -1.893312e+04
2.921173e+05 1.340637e+05 -1.667414e+04
2.776213e+05 1.374255e+05 -1.982900e+04
2.821217e+05 1.359500e+05 -2.446260e+04
2.919270e+05 1.389420e+05 -2.468094e+04
2.865346e+05 1.407553e+05 -1.997406e+04
2.907256e+05 1.470025e+05 -1.930453e+04
2.763158e+05 1.507422e+05 -4.166667e+03
2.735204e+05 1.491257e+05 -1.096438e+04
2.763309e+05 1.563159e+05 -8.804887e+03
2.842105e+05 1.463573e+05 -8.333333e+03
2.712216e+05 1.608258e+05 -5.192245e+03
2.667219e+05 1.534268e+05 -7.235008e+03
2.684211e+05 1.551270e+05 0.000000e+00
2.921053e+05 1.419724e+05 -1.250000e+04
2.829893e+05 1.529052e+05 -1.347296e+04
2.793190e+05 1.453294e+05 -1.583488e+04
1.427397e+05 4.346204e+04 -2.938242e+04
1.450882e+05 5.167858e+04 -3.239318e+04
1.376965e+05 4.716059e+04 -3.277779e+04
1.427833e+05 5.134989e+04 -2.523232e+04
1.356751e+05 3.788962e+04 -3.714462e+04
1.436046e+05 4.399475e+04 -3.583230e+04
1.426961e+05 3.557419e+04 -3.353252e+04
1.428268e+05 5.923774e+04 -2.108222e+04
1.363987e+05 5.531316e+04 -3.039709e+04
1.444722e+05 6.078202e+04 -2.999972e+04
1.358516e+05 6.462890e+04 -2.586753e+04
2.088534e+05 9.726130e+04 -2.616532e+04
2.017989e+05 1.000537e+05 -2.425638e+04
2.007311e+05 9.273779e+04 -2.614437e+04
-1.973684e+05 -5.225579e+04 0.000000e+00
-1.956659e+05 -4.792380e+04 -5.303266e+03
-1.971160e+05 -4.332815e+04 0.000000e+00
-1.894737e+05 -4.874082e+04 0.000000e+00
-1.815789e+05 -4.522586e+04 0.000000e+00
-1.892212e+05 -3.981319e+04 0.000000e+00
-1.873729e+05 -4.347786e+04 -5.086690e+03
-1.813265e+05 -3.629823e+04 0.000000e+00
-1.284671e+05 -2.793772e+04 -8.551549e+03
-1.228029e+05 -2.529844e+04 -9.088863e+03
-1.349153e+05 -3.014992e+04 -9.628013e+03
-8.657045e+04 -4.193170e+04 -2.057334e+04
-9.684404e+04 -4.086550e+04 -2.503320e+04
-9.093411e+04 -4.243945e+04 -2.987373e+04
-9.124484e+04 -4.997041e+04 -2.371556e+04
-8.460124e+04 -3.565820e+04 -2.934667e+04
-9.127847e+04 -3.377511e+04 -2.304293e+04
-8.189607e+04 -3.389299e+04 -1.743112e+04
-9.591922e+04 -5.800912e+04 -2.685778e+04
-9.607607e+04 -4.952800e+04 -3.393080e+04
-1.018521e+05 -4.804095e+04 -2.855888e+04
-1.064446e+05 -5.546035e+04 -2.993602e+04
-1.016202e+05 -5.709046e+04 -3.498495e+04
-1.093963e+05 -6.070459e+04 -3.605327e+04
1.134962e+05 2.416910e+04 -3.893134e+04
1.059098e+05 2.551241e+04 -3.655745e+04
1.051372e+05 1.900874e+04 -3.986853e+04
1.111235e+05 2.152183e+04 -3.353006e+04
-5.601743e+04 -2.176554e+04 -1.711174e+04
-6.336700e+04 -1.836731e+04 -2.093658e+04
-5.985435e+04 -2.384288e+04 -2.495576e+04
-6.464364e+04 -2.580802e+04 -1.721820e+04
-5.159962e+04 -2.085367e+04 -2.562682e+04
-5.677654e+04 -1.642479e+04 -2.255768e+04
-4.739122e+04 -1.772305e+04 -1.700527e+04
-7.326985e+04 -2.985050e+04 -1.732466e+04
-6.832906e+04 -2.611407e+04 -2.574801e+04
-7.251457e+04 -1.948963e+04 -2.145798e+04
-8.353479e+04 -2.330877e+04 -2.055147e+04
-7.798950e+04 -2.863037e+04 -2.583798e+04
-1.025479e+05 -7.794486e+03 -5.686492e+03
-1.096844e+05 -5.040078e+03 0.000000e+00
-1.081458e+05 -8.543779e+03 -7.815773e+03
-1.105263e+05 -1.359119e+04 0.000000e+00
-8.905363e+04 -2.881754e+04 -1.307334e+04
-8.952394e+04 -1.892714e+04 -1.555575e+04
-9.395074e+04 -2.147513e+04 -1.785970e+04
-9.621119e+04 -2.374209e+04 -8.715560e+03
-9.071401e+04 -2.676773e+04 -2.193001e+04
-1.033688e+05 -1.866664e+04 -4.357780e+03
-1.010761e+05 -1.523566e+04 -1.457017e+04
-9.569330e+04 -1.262283e+04 -1.189765e+04
1.496973e+04 1.884352e+04 -2.173911e+04
3.886415e+04 3.063294e+04 -2.269785e+04
-8.226176e+04 -1.381819e+04 -1.583936e+04
-8.115889e+04 -2.530258e+04 -1.307334e+04
-8.042172e+04 -1.671216e+04 -8.715560e+03
-8.831645e+04 -2.022713e+04 -8.715560e+03
-8.134571e+04 -6.035727e+03 -1.079664e+04
-8.716999e+04 -6.865516e+02 -5.713793e+03
-7.968454e+04 -8.121751e+03 -4.357780e+03
-8.757928e+04 -1.163671e+04 -4.357780e+03
-8.684211e+04 -3.046302e+03 0.000000e+00
-9.473684e+04 -6.561265e+03 0.000000e+00
-9.386988e+04 -4.995419e+03 -6.697470e+03
-9.547402e+04 -1.515168e+04 -4.357780e+03
-1.026316e+05 -1.007623e+04 0.000000e+00
-8.775892e+04 -1.103691e+04 -1.037330e+04
-8.508168e+04 -3.023075e+04 -2.432583e+04
-1.147615e+05 -1.293318e+04 -6.850761e+03
-1.175973e+05 -8.427771e+03 0.000000e+00
2.297564e+05 1.459408e+05 0.000000e+00
2.606116e+05 1.199588e+05 -1.671512e+04
2.550949e+05 1.271877e+05 -1.839137e+04
2.580749e+05 1.237858e+05 -2.257816e+04
2.527542e+05 1.164252e+05 -1.673368e+04
2.448967e+05 1.128917e+05 -1.675224e+04
2.499764e+05 1.223111e+05 -2.579453e+04
2.466867e+05 1.246165e+05 -2.088302e+04
2.387502e+05 1.204719e+05 -1.943091e+04
2.383619e+05 1.175880e+05 -2.663630e+04
2.370392e+05 1.093581e+05 -1.677080e+04
2.921053e+05 1.656719e+05 0.000000e+00
2.845328e+05 1.704115e+05 0.000000e+00
2.881365e+05 1.663267e+05 -6.449888e+03
2.842105e+05 1.621570e+05 0.000000e+00
2.948203e+05 1.684291e+05 -6.399906e+03
2.924275e+05 1.739264e+05 0.000000e+00
2.763158e+05 1.586420e+05 0.000000e+00
2.799560e+05 1.639910e+05 -7.353177e+03
2.766380e+05 1.668965e+05 0.000000e+00
2.687433e+05 1.633815e+05 0.000000e+00
2.135496e+05 9.875640e+04 -1.684646e+04
2.139268e+05 1.058335e+05 -2.533762e+04
2.149743e+05 1.105631e+05 -1.819550e+04
2.213795e+05 1.022903e+05 -1.682124e+04
2.292094e+05 1.058242e+05 -1.679602e+04
2.222829e+05 1.146263e+05 -1.848215e+04
2.224475e+05 1.105744e+05 -2.479895e+04
2.310261e+05 1.110257e+05 -2.596498e+04
2.303804e+05 1.170972e+05 -1.936814e+04
2.088621e+05 1.308153e+05 -5.841632e+03
2.060722e+05 1.353959e+05 0.000000e+00
1.981600e+05 1.320127e+05 0.000000e+00
2.052632e+05 1.270073e+05 0.000000e+00
2.611559e+05 1.598609e+05 0.000000e+00
2.369900e+05 1.172854e+05 -1.257810e+04
2.400995e+05 1.274281e+05 -1.514182e+04
2.318690e+05 1.255236e+05 -1.435360e+04
2.369407e+05 1.252127e+05 -8.385398e+03
2.368914e+05 1.331399e+05 -4.192699e+03
2.324352e+05 1.335305e+05 -1.186507e+04
2.401153e+05 1.359029e+05 -1.174743e+04
-1.494146e+05 -2.218903e+04 0.000000e+00
-1.474574e+05 -2.612989e+04 -3.368244e+03
-1.413283e+05 -2.227298e+04 -4.305957e+03
-1.421053e+05 -2.765104e+04 0.000000e+00
-1.730988e+05 -3.273392e+04 0.000000e+00
-3.650208e+03 2.249192e+03 -2.542504e+04
4.260580e+03 4.891277e+03 -2.520040e+04
1.638369e+04 -1.278469e+04 -2.937684e+04
1.945382e+04 -4.206010e+03 -3.214411e+04
1.177982e+04 -9.258020e+03 -3.344921e+04
1.643548e+04 -4.889237e+03 -2.522465e+04
1.038775e+04 -1.752684e+04 -3.760271e+04
1.817108e+04 -1.230885e+04 -3.704766e+04
1.633190e+04 -2.068015e+04 -3.352902e+04
1.648727e+04 3.006220e+03 -2.107247e+04
1.053654e+04 -1.149552e+03 -3.066851e+04
1.796255e+04 3.487660e+03 -2.914341e+04
1.991096e+04 1.044174e+04 -2.431535e+04
2.423845e+04 -1.715910e+04 -3.352859e+04
2.409103e+04 -2.503266e+04 -3.764677e+04
1.894637e+04 -2.057993e+04 -3.886951e+04
3.214500e+04 -1.363805e+04 -3.352815e+04
3.199758e+04 -2.151162e+04 -3.764633e+04
2.570924e+04 -1.485015e+04 -3.878420e+04
3.185016e+04 -2.938518e+04 -4.176451e+04
2.638814e+04 -2.434411e+04 -4.346237e+04
4.005155e+04 -1.011701e+04 -3.352772e+04
3.990413e+04 -1.799057e+04 -3.764590e+04
3.415055e+04 -1.333302e+04 -3.918630e+04
4.795810e+04 -6.595961e+03 -3.352728e+04
4.781068e+04 -1.446952e+04 -3.764546e+04
4.179455e+04 -1.109006e+04 -3.878889e+04
4.766326e+04 -2.234308e+04 -4.176364e+04
4.134303e+04 -1.773161e+04 -4.292804e+04
3.975671e+04 -2.586413e+04 -4.176408e+04
3.960929e+04 -3.373769e+04 -4.588226e+04
3.475466e+04 -2.807006e+04 -4.575807e+04
4.751584e+04 -3.021665e+04 -4.588182e+04
4.338075e+04 -2.557758e+04 -4.619249e+04
4.736842e+04 -3.809021e+04 -5.000000e+04
4.045822e+04 -3.300069e+04 -5.000000e+04
3.467765e+04 -2.098387e+04 -4.204027e+04
8.373299e+03 -2.423221e+04 -3.353359e+04
1.177256e+04 -2.467510e+04 -3.932671e+04
1.619629e+04 -2.854763e+04 -3.764677e+04
4.147017e+02 -2.778426e+04 -3.353816e+04
4.890072e+03 -2.685226e+04 -3.855644e+04
8.237693e+03 -3.209968e+04 -3.765133e+04
9.968549e+03 -3.277885e+04 -4.307616e+04
1.606068e+04 -3.641511e+04 -4.176451e+04
-7.543895e+03 -3.133632e+04 -3.354272e+04
-3.732209e+03 -2.933514e+04 -3.941968e+04
2.790961e+02 -3.565174e+04 -3.765590e+04
-1.550249e+04 -3.488837e+04 -3.354729e+04
-1.366974e+04 -3.242206e+04 -3.908753e+04
-7.679501e+03 -3.920380e+04 -3.766047e+04
-5.992764e+03 -3.777092e+04 -4.241686e+04
1.434906e+02 -4.351922e+04 -4.177365e+04
8.102088e+03 -3.996716e+04 -4.176908e+04
1.128400e+04 -4.023526e+04 -4.622155e+04
1.592508e+04 -4.428258e+04 -4.588226e+04
2.358376e+03 -4.164603e+04 -4.561856e+04
7.966482e+03 -4.783464e+04 -4.588682e+04
8.870659e+03 -4.706141e+04 -5.000000e+04
1.578947e+04 -5.215006e+04 -5.000000e+04
2.079640e+03 -3.398642e+04 -4.221661e+04
2.429024e+04 -9.263646e+03 -2.937640e+04
2.657504e+04 -7.080615e+03 -3.641505e+04
2.434203e+04 -1.368189e+03 -2.522422e+04
2.439382e+04 6.527267e+03 -2.107204e+04
3.224858e+04 2.152858e+03 -2.522379e+04
2.534235e+04 5.801457e+03 -2.907463e+04
3.219679e+04 -5.742599e+03 -2.937597e+04
3.395213e+04 -6.471056e+03 -3.704349e+04
4.010334e+04 -2.221552e+03 -2.937553e+04
3.292070e+04 2.827777e+03 -3.355299e+04
4.075786e+04 -3.882170e+03 -3.754528e+04
2.658784e+04 -1.654292e+03 -3.154851e+04
-1.525420e+04 -1.115027e+04 -2.108527e+04
-2.089128e+04 -1.407019e+04 -2.822304e+04
-1.358856e+04 -9.648087e+03 -2.797796e+04
-1.533697e+04 -1.906297e+04 -2.523928e+04
-1.990791e+04 -6.450532e+03 -2.528393e+04
-1.541973e+04 -2.697567e+04 -2.939329e+04
-1.319923e+04 -1.649149e+04 -3.248404e+04
-2.132180e+04 -2.155030e+04 -3.307175e+04
-2.223963e+04 -3.322341e+04 -3.693469e+04
-1.381024e+04 -2.576707e+04 -3.624196e+04
-8.051982e+03 3.164967e+04 -6.593112e+03
-6.800798e+02 2.797874e+04 -1.247203e+04
-1.303406e+03 3.620635e+04 -7.457906e+03
-7.894737e+03 3.210333e+04 0.000000e+00
1.873965e+02 2.768166e+04 -4.230072e+03
8.731149e-11 3.561829e+04 0.000000e+00
6.687908e+03 2.239159e+04 -1.691775e+04
1.410137e+04 2.851622e+04 -1.659048e+04
8.269530e+03 2.325999e+04 -8.460143e+03
1.635166e+04 1.883831e+04 -1.269022e+04
1.616427e+04 2.677495e+04 -8.460143e+03
5.445370e+03 4.149658e+04 -6.293639e+03
1.310906e+04 3.638472e+04 -1.081400e+04
1.509331e+04 4.393038e+04 -7.350491e+03
8.082133e+03 3.119662e+04 -4.230072e+03
7.894737e+03 3.913326e+04 0.000000e+00
1.597687e+04 3.471159e+04 -4.230072e+03
1.578947e+04 4.264822e+04 0.000000e+00
7.371154e+03 3.114046e+04 -1.120917e+04
-2.315408e+05 -1.291680e+05 -3.802898e+04
-2.332484e+05 -1.381537e+05 -4.326880e+04
-2.251872e+05 -1.343493e+05 -4.219852e+04
-2.294399e+05 -1.311625e+05 -3.408690e+04
-2.312905e+05 -1.395291e+05 -3.806518e+04
-2.233957e+05 -1.360142e+05 -3.806518e+04
-2.331410e+05 -1.478957e+05 -4.204345e+04
-2.252463e+05 -1.443807e+05 -4.204345e+04
-2.173515e+05 -1.408658e+05 -4.204345e+04
-2.342531e+05 -1.476464e+05 -4.617395e+04
-2.365879e+05 -1.557122e+05 -5.000000e+04
-2.286931e+05 -1.521972e+05 -5.000000e+04
-2.349916e+05 -1.562623e+05 -4.602173e+04
-2.270968e+05 -1.527473e+05 -4.602173e+04
-2.368421e+05 -1.646289e+05 -5.000000e+04
-2.289474e+05 -1.611139e+05 -5.000000e+04
-2.210526e+05 -1.575990e+05 -5.000000e+04
-2.186418e+05 -1.397258e+05 -4.641472e+04
-2.207984e+05 -1.486823e+05 -5.000000e+04
-2.129037e+05 -1.451673e+05 -5.000000e+04
-2.192021e+05 -1.492324e+05 -4.602173e+04
-2.113073e+05 -1.457174e+05 -4.602173e+04
-2.131579e+05 -1.540840e+05 -5.000000e+04
-2.052632e+05 -1.505690e+05 -5.000000e+04
-2.260601e+05 -1.449677e+05 -4.580556e+04
2.444015e+04 1.441956e+04 -1.692024e+04
3.229491e+04 1.004515e+04 -2.107199e+04
2.566630e+04 1.545963e+04 -2.540918e+04
3.234124e+04 1.793744e+04 -1.692019e+04
4.014967e+04 5.670738e+03 -2.522374e+04
4.800443e+04 1.296329e+03 -2.937549e+04
4.291966e+04 5.033697e+03 -3.325758e+04
4.805076e+04 9.188619e+03 -2.522369e+04
4.019600e+04 1.356303e+04 -2.107194e+04
3.356522e+04 2.060737e+04 -2.548827e+04
4.024233e+04 2.145532e+04 -1.692015e+04
4.084324e+04 1.309295e+04 -2.951373e+04
4.809709e+04 1.708091e+04 -2.107190e+04
4.291938e+04 2.217040e+04 -2.554306e+04
3.292091e+04 1.122050e+04 -2.857532e+04
5.989095e+04 3.060846e+04 -2.575823e+04
6.765189e+04 3.338236e+04 -2.528358e+04
5.599382e+04 2.059625e+04 -2.107216e+04
4.949095e+04 1.869647e+04 -2.840524e+04
5.594749e+04 1.270396e+04 -2.522396e+04
5.798157e+04 2.057549e+04 -3.043693e+04
6.384422e+04 1.621930e+04 -2.522423e+04
4.949405e+04 1.149376e+04 -3.285833e+04
5.590116e+04 4.811670e+03 -2.937576e+04
4.834898e+04 1.786560e+03 -3.693215e+04
5.585483e+04 -3.080620e+03 -3.352755e+04
5.590256e+04 3.941831e+03 -3.728369e+04
6.375156e+04 4.347217e+02 -3.352782e+04
6.379789e+04 8.327012e+03 -2.937602e+04
6.619663e+04 1.590983e+04 -3.288929e+04
7.169462e+04 1.184235e+04 -2.937629e+04
6.305283e+04 7.946418e+03 -3.800671e+04
7.164829e+04 3.950063e+03 -3.352809e+04
7.204195e+04 1.074857e+04 -3.775478e+04
7.954502e+04 7.465404e+03 -3.352836e+04
5.837899e+04 1.239746e+04 -3.330508e+04
-2.446612e+05 -1.592968e+05 -5.000000e+04
-2.447368e+05 -1.681439e+05 -5.000000e+04
-2.440923e+05 -1.586242e+05 -4.513033e+04
-2.525559e+05 -1.628117e+05 -5.000000e+04
-2.516842e+05 -1.542928e+05 -4.576515e+04
-2.526316e+05 -1.716588e+05 -5.000000e+04
-2.519871e+05 -1.621391e+05 -4.513033e+04
-2.513426e+05 -1.526195e+05 -4.026066e+04
-2.604507e+05 -1.663267e+05 -5.000000e+04
-2.605263e+05 -1.751738e+05 -5.000000e+04
-2.598818e+05 -1.656541e+05 -4.513033e+04
-2.683454e+05 -1.698417e+05 -5.000000e+04
-2.660910e+05 -1.616842e+05 -4.607560e+04
-2.684211e+05 -1.786887e+05 -5.000000e+04
-2.677766e+05 -1.691691e+05 -4.513033e+04
-2.671321e+05 -1.596494e+05 -4.026066e+04
-2.590858e+05 -1.479969e+05 -4.179641e+04
-2.592373e+05 -1.561344e+05 -4.026066e+04
-2.585928e+05 -1.466147e+05 -3.539099e+04
-2.663863e+05 -1.523533e+05 -4.307908e+04
-2.643494e+05 -1.424785e+05 -3.801127e+04
-2.664876e+05 -1.501297e+05 -3.539099e+04
-2.658431e+05 -1.406100e+05 -3.052132e+04
-2.589224e+05 -1.585356e+05 -4.523317e+04
-2.905996e+05 -1.547353e+05 -3.768367e+04
-2.855762e+05 -1.599061e+05 -4.087645e+04
-2.808282e+05 -1.513554e+05 -3.820838e+04
-2.921053e+05 -1.655341e+05 -3.750000e+04
-2.914608e+05 -1.560144e+05 -3.263033e+04
-2.842105e+05 -1.699190e+05 -4.166667e+04
-2.835660e+05 -1.603993e+05 -3.679700e+04
-2.829215e+05 -1.508796e+05 -3.192732e+04
-2.777348e+05 -1.640674e+05 -4.486116e+04
-2.763158e+05 -1.743038e+05 -4.583333e+04
-2.756713e+05 -1.647842e+05 -4.096366e+04
-2.727378e+05 -1.457436e+05 -3.776289e+04
-2.750268e+05 -1.552645e+05 -3.609399e+04
-2.743823e+05 -1.457448e+05 -3.122432e+04
-2.754299e+05 -1.571671e+05 -4.237354e+04
-2.909481e+05 -1.665014e+05 -4.186005e+04
-2.823931e+05 -1.695089e+05 -4.668718e+04
-2.763158e+05 -1.734046e+05 -5.000000e+04
-2.654718e+05 -1.323441e+05 -3.614446e+04
-2.615358e+05 -1.212774e+05 -3.132901e+04
-2.678835e+05 -1.258459e+05 -2.951694e+04
-2.616616e+05 -1.320192e+05 -2.697212e+04
-2.685825e+05 -1.334312e+05 -2.609166e+04
-2.574801e+05 -1.234283e+05 -2.342292e+04
-2.644010e+05 -1.248403e+05 -2.254246e+04
-2.713219e+05 -1.262524e+05 -2.166200e+04
-2.575844e+05 -1.141525e+05 -2.632149e+04
-2.532986e+05 -1.148374e+05 -1.987372e+04
-2.602195e+05 -1.162495e+05 -1.899326e+04
-2.709093e+05 -1.183318e+05 -2.584055e+04
-2.671404e+05 -1.176615e+05 -1.811280e+04
-2.740613e+05 -1.190736e+05 -1.723234e+04
-2.636749e+05 -1.173381e+05 -2.468838e+04
-2.732428e+05 -1.305005e+05 -3.078452e+04
-2.722774e+05 -1.378079e+05 -3.502403e+04
-2.766914e+05 -1.238056e+05 -2.734487e+04
-2.787670e+05 -1.162331e+05 -2.163133e+04
5.570542e+04 -1.095456e+04 -3.764546e+04
4.837267e+04 -5.762688e+03 -3.981210e+04
6.360215e+04 -7.439218e+03 -3.764573e+04
5.728852e+04 -3.064197e+03 -3.949856e+04
6.345273e+04 -1.531316e+04 -4.176364e+04
5.758461e+04 -1.059010e+04 -4.426183e+04
7.149887e+04 -3.923877e+03 -3.764600e+04
6.506939e+04 6.115750e+02 -3.954499e+04
7.939560e+04 -4.085356e+02 -3.764627e+04
7.306645e+04 3.125212e+03 -3.890906e+04
7.924619e+04 -8.282475e+03 -4.176418e+04
7.251301e+04 -3.715716e+03 -4.265704e+04
7.134946e+04 -1.179782e+04 -4.176391e+04
7.120005e+04 -1.967176e+04 -4.588182e+04
6.634151e+04 -1.409061e+04 -4.578643e+04
7.909678e+04 -1.615641e+04 -4.588209e+04
7.520478e+04 -1.150757e+04 -4.593777e+04
7.894737e+04 -2.403035e+04 -5.000000e+04
7.204722e+04 -1.894106e+04 -5.000000e+04
6.589416e+04 -7.026275e+03 -4.215029e+04
-2.457436e+05 -1.487694e+05 -4.454987e+04
-2.530126e+05 -1.431678e+05 -4.060287e+04
-2.583694e+05 -1.376204e+05 -3.635257e+04
-2.895352e+05 -1.471878e+05 -3.520271e+04
-2.812625e+05 -1.422726e+05 -3.539574e+04
-2.780561e+05 -1.433869e+05 -4.021304e+04
-1.588044e+05 -8.838010e+04 -3.437231e+04
-1.582541e+05 -9.539261e+04 -3.638238e+04
-1.526698e+05 -9.205737e+04 -3.783090e+04
-1.562313e+05 -9.081933e+04 -3.000000e+04
-1.859988e+05 -1.053432e+05 -3.719681e+04
-1.788906e+05 -1.012237e+05 -3.640872e+04
6.388948e+04 2.411082e+04 -2.107259e+04
7.173988e+04 1.973387e+04 -2.522465e+04
7.959028e+04 1.535692e+04 -2.937672e+04
7.369924e+04 2.100787e+04 -3.392618e+04
7.963554e+04 2.324844e+04 -2.522508e+04
7.178514e+04 2.762538e+04 -2.107302e+04
7.425085e+04 2.845880e+04 -2.869300e+04
7.968080e+04 3.113995e+04 -2.107344e+04
6.624111e+04 2.493031e+04 -3.025574e+04
8.194540e+04 2.599830e+04 -3.325065e+04
8.034852e+04 1.647881e+04 -3.805742e+04
8.160990e+04 3.318869e+04 -2.806239e+04
8.743964e+04 1.097951e+04 -3.352878e+04
8.748490e+04 1.887103e+04 -2.937714e+04
9.533427e+04 1.449362e+04 -3.352921e+04
8.946995e+04 1.948304e+04 -3.842843e+04
8.753016e+04 2.676254e+04 -2.522551e+04
8.757542e+04 3.465406e+04 -2.107387e+04
9.542479e+04 3.027665e+04 -2.522593e+04
9.007230e+04 3.640491e+04 -2.887626e+04
9.537953e+04 2.238513e+04 -2.937757e+04
1.032289e+05 1.800772e+04 -3.352964e+04
9.881672e+04 2.166948e+04 -3.719273e+04
1.032742e+05 2.589924e+04 -2.937800e+04
9.756471e+04 3.143615e+04 -3.365094e+04
9.001795e+04 2.705191e+04 -3.237685e+04
8.729034e+04 3.106428e+03 -3.764627e+04
7.944405e+04 7.664973e+03 -4.022695e+04
9.518497e+04 6.620534e+03 -3.764669e+04
8.875467e+04 1.007725e+04 -3.945893e+04
9.503567e+04 -1.252549e+03 -4.176418e+04
8.907196e+04 2.715087e+03 -4.414808e+04
1.030796e+05 1.013464e+04 -3.764712e+04
9.589855e+04 1.421900e+04 -4.044232e+04
1.109742e+05 1.364875e+04 -3.764755e+04
1.108249e+05 5.775665e+03 -4.176503e+04
1.042114e+05 9.726952e+03 -4.346601e+04
1.029303e+05 2.261558e+03 -4.176460e+04
1.027810e+05 -5.611525e+03 -4.588209e+04
9.778259e+04 -1.812874e+02 -4.575422e+04
1.106756e+05 -2.097418e+03 -4.588252e+04
1.059555e+05 2.006962e+03 -4.624178e+04
1.105263e+05 -9.970501e+03 -5.000000e+04
1.036377e+05 -4.886114e+03 -5.000000e+04
9.748168e+04 7.081464e+03 -4.264756e+04
1.127994e+05 3.033066e+04 -3.588530e+04
1.190167e+05 2.503492e+04 -3.353068e+04
1.188690e+05 1.716371e+04 -3.764755e+04
1.269098e+05 2.854801e+04 -3.353129e+04
1.267621e+05 2.067680e+04 -3.764816e+04
1.214567e+05 2.560963e+04 -3.948502e+04
1.266144e+05 1.280559e+04 -4.176503e+04
1.215844e+05 1.848934e+04 -4.393312e+04
1.348030e+05 3.206110e+04 -3.353191e+04
1.346553e+05 2.418989e+04 -3.764878e+04
1.291935e+05 2.918942e+04 -3.998513e+04
1.425484e+05 2.770298e+04 -3.764939e+04
1.382428e+05 3.171810e+04 -3.976617e+04
1.424007e+05 1.983177e+04 -4.176626e+04
1.364602e+05 2.344751e+04 -4.335003e+04
1.345075e+05 1.631868e+04 -4.176565e+04
1.343598e+05 8.447471e+03 -4.588252e+04
1.294976e+05 1.407023e+04 -4.565060e+04
1.422530e+05 1.196056e+04 -4.588313e+04
1.377442e+05 1.595463e+04 -4.628064e+04
1.421053e+05 4.089352e+03 -5.000000e+04
1.352280e+05 9.156261e+03 -5.000000e+04
1.296403e+05 2.127725e+04 -4.232334e+04
1.199737e+05 3.213475e+04 -3.680324e+04
1.268710e+05 3.579938e+04 -3.765240e+04
-1.358919e+05 -7.785951e+04 -3.443211e+04
-1.456135e+05 -7.467201e+04 -3.240993e+04
-1.419394e+05 -8.088009e+04 -3.429780e+04
-1.372458e+05 -7.728919e+04 -2.732206e+04
-1.353672e+05 -8.153002e+04 -3.000000e+04
-1.460792e+05 -7.614479e+04 -2.464413e+04
-1.442005e+05 -8.038562e+04 -2.732206e+04
-1.423219e+05 -8.462646e+04 -3.000000e+04
-1.543381e+05 -7.436653e+04 -2.863502e+04
-1.629086e+05 -7.206643e+04 -2.558604e+04
-1.616548e+05 -7.795641e+04 -2.734109e+04
-1.549126e+05 -7.500039e+04 -2.196619e+04
-1.530339e+05 -7.924123e+04 -2.464413e+04
-1.618673e+05 -7.809683e+04 -2.196619e+04
-1.599886e+05 -8.233766e+04 -2.464413e+04
-1.498646e+05 -8.359780e+04 -3.552862e+04
-1.602267e+05 -8.266768e+04 -3.090736e+04
-1.511553e+05 -8.348206e+04 -2.732206e+04
-1.492766e+05 -8.772289e+04 -3.000000e+04
-1.581100e+05 -8.657850e+04 -2.732206e+04
-1.511259e+05 -7.921363e+04 -3.040281e+04
9.579989e+04 2.184373e+04 -4.142395e+04
1.505852e+05 3.908590e+04 -3.353290e+04
1.511360e+05 4.649994e+04 -3.726337e+04
1.506287e+05 4.697375e+04 -2.938280e+04
1.584742e+05 4.259761e+04 -3.353328e+04
1.506723e+05 5.486160e+04 -2.523270e+04
1.534543e+05 6.533998e+04 -2.864995e+04
1.507159e+05 6.274945e+04 -2.108260e+04
1.585613e+05 5.837331e+04 -2.523307e+04
1.587271e+05 5.099582e+04 -3.863238e+04
1.585178e+05 5.048546e+04 -2.938318e+04
1.663632e+05 4.610932e+04 -3.353366e+04
1.615010e+05 6.146749e+04 -3.321753e+04
1.687459e+05 5.401812e+04 -3.835546e+04
1.664068e+05 5.399717e+04 -2.938355e+04
1.742523e+05 4.962103e+04 -3.353403e+04
1.524234e+05 5.680627e+04 -3.382935e+04
1.504432e+05 3.121795e+04 -3.764939e+04
1.443316e+05 3.802629e+04 -3.867256e+04
1.583322e+05 3.472966e+04 -3.764977e+04
1.527903e+05 3.969016e+04 -3.947493e+04
1.581902e+05 2.686170e+04 -4.176626e+04
1.529195e+05 3.229613e+04 -4.403075e+04
1.662212e+05 3.824137e+04 -3.765015e+04
1.605044e+05 4.323051e+04 -4.047938e+04
1.741103e+05 4.175308e+04 -3.765052e+04
1.695043e+05 4.603693e+04 -3.950374e+04
1.739682e+05 3.388512e+04 -4.176702e+04
1.679385e+05 3.747085e+04 -4.348573e+04
1.660792e+05 3.037341e+04 -4.176664e+04
1.659372e+05 2.250545e+04 -4.588313e+04
1.610487e+05 2.803999e+04 -4.562933e+04
1.738262e+05 2.601716e+04 -4.588351e+04
1.692870e+05 2.994045e+04 -4.625593e+04
1.736842e+05 1.814920e+04 -5.000000e+04
1.668116e+05 2.317304e+04 -5.000000e+04
1.611056e+05 3.531103e+04 -4.249823e+04
1.111682e+05 2.941236e+04 -2.937881e+04
1.143894e+05 3.938381e+04 -3.181818e+04
1.112129e+05 3.730289e+04 -2.522756e+04
1.190614e+05 3.292545e+04 -2.937943e+04
1.122490e+05 4.675737e+04 -2.799481e+04
1.112576e+05 4.519342e+04 -2.107632e+04
1.191061e+05 4.081598e+04 -2.522818e+04
1.132028e+05 5.523113e+04 -2.472218e+04
1.205218e+05 4.841228e+04 -2.897914e+04
1.191508e+05 4.870651e+04 -2.107693e+04
1.269992e+05 4.432907e+04 -2.522880e+04
1.269545e+05 3.643854e+04 -2.938004e+04
1.283781e+05 4.574887e+04 -3.326460e+04
1.348477e+05 3.995163e+04 -2.938066e+04
1.216954e+05 4.021078e+04 -3.234345e+04
1.505644e+05 7.857090e+04 -1.270223e+04
1.612548e+05 9.099296e+04 -1.736218e+04
1.584497e+05 8.207569e+04 -1.270537e+04
1.663350e+05 8.558048e+04 -1.270851e+04
1.582584e+05 9.001620e+04 -8.472342e+03
1.538096e+05 9.549753e+04 -1.223506e+04
1.503731e+05 8.651141e+04 -8.469200e+03
1.501818e+05 9.445192e+04 -4.236171e+03
1.540451e+05 8.822383e+04 -1.538815e+04
1.742921e+05 5.750197e+04 -2.938670e+04
1.785053e+05 6.514213e+04 -3.152339e+04
1.703739e+05 6.272882e+04 -3.278213e+04
1.743319e+05 6.538290e+04 -2.523936e+04
1.750694e+05 5.816901e+04 -3.560150e+04
1.743717e+05 7.326383e+04 -2.109202e+04
1.685736e+05 7.069828e+04 -2.921276e+04
1.759379e+05 7.183304e+04 -3.026329e+04
1.821269e+05 5.313435e+04 -3.353017e+04
1.845837e+05 5.351542e+04 -3.897468e+04
1.832887e+05 5.960205e+04 -3.609635e+04
1.900015e+05 5.664767e+04 -3.352632e+04
1.776196e+05 5.213264e+04 -3.831420e+04
1.978761e+05 6.016099e+04 -3.352246e+04
1.895389e+05 6.347401e+04 -3.753727e+04
1.916770e+05 5.694349e+04 -3.932278e+04
1.996559e+05 5.934543e+04 -3.898058e+04
1.984561e+05 6.669547e+04 -3.762626e+04
2.057507e+05 6.367431e+04 -3.351860e+04
1.820050e+05 4.526804e+04 -3.765052e+04
1.898796e+05 4.878136e+04 -3.764667e+04
1.897577e+05 4.091505e+04 -4.176702e+04
1.847017e+05 4.640841e+04 -4.357416e+04
1.977542e+05 5.229468e+04 -3.764281e+04
2.056288e+05 5.580799e+04 -3.763895e+04
2.055069e+05 4.794168e+04 -4.175930e+04
1.993176e+05 5.255294e+04 -4.300984e+04
1.976323e+05 4.442836e+04 -4.176316e+04
1.975104e+05 3.656205e+04 -4.588351e+04
1.926822e+05 4.216660e+04 -4.572355e+04
2.053850e+05 4.007537e+04 -4.587965e+04
2.012333e+05 4.444390e+04 -4.614863e+04
2.052632e+05 3.220906e+04 -5.000000e+04
1.983726e+05 3.715100e+04 -5.000000e+04
1.925691e+05 4.941420e+04 -4.206634e+04
2.684799e+05 1.155758e+05 -2.087455e+04
2.763518e+05 1.191163e+05 -2.085575e+04
2.684907e+05 1.076593e+05 -2.505254e+04
2.703378e+05 1.165056e+05 -2.816175e+04
2.763626e+05 1.111997e+05 -2.503374e+04
2.784255e+05 1.185157e+05 -3.002487e+04
2.842346e+05 1.147402e+05 -2.501494e+04
2.685015e+05 9.974277e+04 -2.923054e+04
2.705239e+05 1.095108e+05 -3.222265e+04
2.763734e+05 1.032832e+05 -2.921174e+04
2.685123e+05 9.182624e+04 -3.340853e+04
2.693707e+05 1.002147e+05 -3.566776e+04
2.763842e+05 9.536669e+04 -3.338973e+04
2.770865e+05 1.019506e+05 -3.684546e+04
2.842561e+05 9.890714e+04 -3.337093e+04
2.842454e+05 1.068237e+05 -2.919294e+04
2.865077e+05 1.145826e+05 -3.244117e+04
2.921173e+05 1.103641e+05 -2.917414e+04
2.838467e+05 1.057106e+05 -3.770083e+04
2.921281e+05 1.024476e+05 -3.335213e+04
2.928930e+05 1.107407e+05 -3.689165e+04
2.790298e+05 1.106511e+05 -3.304740e+04
-1.300965e+05 -7.390375e+04 -3.513827e+04
-1.309209e+05 -8.304284e+04 -3.693133e+04
-1.770954e+05 -1.001086e+05 -3.000000e+04
-1.718021e+05 -1.000951e+05 -3.661818e+04
-1.747103e+05 -9.489444e+04 -3.415078e+04
-1.701407e+05 -9.701220e+04 -3.000000e+04
-1.631860e+05 -9.391577e+04 -3.000000e+04
-1.678747e+05 -9.159229e+04 -3.506731e+04
-1.652145e+05 -9.730453e+04 -3.738141e+04
-1.442010e+05 -8.850503e+04 -3.796658e+04
-1.377538e+05 -8.475249e+04 -3.678998e+04
-1.526998e+05 -9.872683e+04 -3.500000e+04
-1.554586e+05 -1.013774e+05 -4.130173e+04
-1.484360e+05 -9.827315e+04 -4.127418e+04
-1.491683e+05 -1.066343e+05 -4.000000e+04
-1.456368e+05 -1.145418e+05 -4.500000e+04
-1.438620e+05 -1.048872e+05 -4.466154e+04
-1.502961e+05 -1.083937e+05 -4.557620e+04
-1.492314e+05 -1.172014e+05 -5.000000e+04
-1.411865e+05 -1.138161e+05 -5.000000e+04
-1.421053e+05 -1.224493e+05 -5.000000e+04
-7.930027e+04 -3.902614e+04 -2.772604e+04
-8.974758e+04 -5.447684e+04 -3.373701e+04
-9.468151e+04 -6.322924e+04 -3.662177e+04
-8.504845e+04 -4.736863e+04 -3.059765e+04
-5.257568e+04 -4.230603e+04 -3.673124e+04
-5.404676e+04 -5.087471e+04 -3.817614e+04
-4.522278e+04 -4.738101e+04 -3.961348e+04
-4.652355e+04 -4.961465e+04 -3.402979e+04
-9.518205e+04 -7.311828e+04 -3.500000e+04
-9.695419e+04 -7.592708e+04 -4.209718e+04
-9.047086e+04 -7.143095e+04 -4.125203e+04
-8.977049e+04 -8.018873e+04 -4.000000e+04
-8.435893e+04 -8.725917e+04 -4.500000e+04
-8.466818e+04 -7.850631e+04 -4.507611e+04
-9.055079e+04 -8.374842e+04 -4.612746e+04
-8.588770e+04 -8.924166e+04 -5.000000e+04
-7.798623e+04 -8.572703e+04 -5.000000e+04
-7.894737e+04 -9.432962e+04 -5.000000e+04
-1.262337e+05 -8.901407e+04 -4.191933e+04
-1.201766e+05 -9.620709e+04 -4.602521e+04
-1.175023e+05 -1.032712e+05 -5.000000e+04
-1.227388e+05 -7.069591e+04 -3.503820e+04
-1.169232e+05 -6.664278e+04 -3.598228e+04
-1.133024e+05 -7.014065e+04 -4.157326e+04
-2.271595e+04 -6.112198e+04 -5.000000e+04
-2.047935e+04 -5.440091e+04 -4.652311e+04
-2.919669e+04 -5.592179e+04 -4.586253e+04
-1.578947e+04 -6.620991e+04 -5.000000e+04
-1.571773e+04 -5.837953e+04 -4.588682e+04
-2.347299e+04 -6.206110e+04 -4.600745e+04
-1.564598e+04 -5.054914e+04 -4.177365e+04
-2.340125e+04 -5.423071e+04 -4.189427e+04
-3.115651e+04 -5.791228e+04 -4.201490e+04
-2.133083e+04 -4.689863e+04 -4.430687e+04
-2.000164e+04 -3.872667e+04 -4.037851e+04
-2.703843e+04 -4.102828e+04 -3.979103e+04
-1.557424e+04 -4.271876e+04 -3.766047e+04
-2.332950e+04 -4.640033e+04 -3.778110e+04
-2.325776e+04 -3.856994e+04 -3.366792e+04
-3.101302e+04 -4.225151e+04 -3.378854e+04
-3.709855e+04 -5.230311e+04 -4.265682e+04
-3.431941e+04 -4.557227e+04 -3.981876e+04
-3.108477e+04 -5.008190e+04 -3.790172e+04
-3.884003e+04 -5.376346e+04 -3.802235e+04
-3.876829e+04 -4.593308e+04 -3.390917e+04
-2.928912e+04 -4.802146e+04 -4.276003e+04
-5.536668e+04 -4.568423e+04 -2.988013e+04
-6.091507e+04 -3.902521e+04 -3.239220e+04
-6.266851e+04 -4.626279e+04 -3.432905e+04
-6.420981e+04 -4.175382e+04 -2.573046e+04
-7.305294e+04 -3.782340e+04 -2.158079e+04
-7.045850e+04 -4.236456e+04 -3.147089e+04
-6.979734e+04 -3.451386e+04 -3.046061e+04
-4.715720e+04 -7.260599e+04 -4.600745e+04
-4.386386e+04 -6.536180e+04 -4.657014e+04
-5.152953e+04 -6.797802e+04 -4.622389e+04
-4.694599e+04 -6.494221e+04 -4.201490e+04
-5.430202e+04 -7.518214e+04 -5.000000e+04
-4.640016e+04 -7.166687e+04 -5.000000e+04
-4.736842e+04 -8.026977e+04 -5.000000e+04
-4.673477e+04 -5.727843e+04 -3.802235e+04
-5.399187e+04 -5.935248e+04 -4.323368e+04
-4.542560e+04 -5.787118e+04 -4.446295e+04
2.251293e+05 1.032424e+05 -2.526083e+04
2.327084e+05 1.044372e+05 -2.546793e+04
2.176016e+05 1.003379e+05 -2.692581e+04
2.400928e+05 1.087404e+05 -2.511454e+04
2.370749e+05 1.014549e+05 -2.094761e+04
2.308058e+05 9.616518e+04 -2.927658e+04
2.371106e+05 9.355169e+04 -2.512443e+04
2.292451e+05 9.792100e+04 -2.097284e+04
2.328627e+05 8.871796e+04 -3.280629e+04
2.371463e+05 8.564848e+04 -2.930125e+04
2.292808e+05 9.001779e+04 -2.514965e+04
2.317207e+05 8.064488e+04 -3.792523e+04
2.237972e+05 8.637352e+04 -3.329023e+04
2.371820e+05 7.774527e+04 -3.347806e+04
2.293164e+05 8.211458e+04 -2.932647e+04
2.214509e+05 8.648388e+04 -2.517487e+04
2.214152e+05 9.438709e+04 -2.099806e+04
2.159368e+05 9.152721e+04 -3.097026e+04
2.135853e+05 9.085319e+04 -2.102328e+04
2.238364e+05 9.487786e+04 -2.805167e+04
2.564354e+05 1.358415e+05 -1.573539e+04
2.605624e+05 1.278861e+05 -1.252242e+04
2.526556e+05 1.322798e+05 -8.348278e+03
2.527049e+05 1.243525e+05 -1.254098e+04
2.479345e+05 1.391107e+05 -1.076944e+04
2.447489e+05 1.366735e+05 -4.174139e+03
2.447981e+05 1.287462e+05 -8.366838e+03
2.448474e+05 1.208189e+05 -1.255954e+04
2.476081e+05 1.319447e+05 -1.628269e+04
2.293242e+05 7.422753e+04 -3.348820e+04
2.328751e+05 7.391751e+04 -3.940678e+04
2.370970e+05 6.987618e+04 -3.760855e+04
2.214664e+05 7.070979e+04 -3.349833e+04
2.257323e+05 7.162661e+04 -3.910371e+04
2.292392e+05 6.635844e+04 -3.761868e+04
2.308837e+05 6.580401e+04 -4.324918e+04
2.370121e+05 6.200709e+04 -4.173903e+04
2.136085e+05 6.719205e+04 -3.350847e+04
2.172787e+05 6.879607e+04 -3.971267e+04
2.213814e+05 6.284070e+04 -3.762882e+04
2.065585e+05 6.442125e+04 -4.006058e+04
2.135236e+05 5.932296e+04 -3.763895e+04
2.149430e+05 5.998446e+04 -4.277119e+04
2.212964e+05 5.497161e+04 -4.175930e+04
2.291542e+05 5.848935e+04 -4.174917e+04
2.321848e+05 5.806992e+04 -4.613646e+04
2.369271e+05 5.413800e+04 -4.586952e+04
2.232669e+05 5.640629e+04 -4.564074e+04
2.290693e+05 5.062026e+04 -4.587965e+04
2.298833e+05 5.109018e+04 -5.000000e+04
2.368421e+05 4.626891e+04 -5.000000e+04
2.229185e+05 6.425584e+04 -4.251517e+04
2.450146e+05 8.126551e+04 -3.346068e+04
2.449918e+05 7.339114e+04 -3.760855e+04
2.404736e+05 7.995820e+04 -3.834408e+04
2.528472e+05 8.478575e+04 -3.344330e+04
2.528243e+05 7.691139e+04 -3.759117e+04
2.477499e+05 8.122508e+04 -3.934075e+04
2.528015e+05 6.903702e+04 -4.173903e+04
2.476143e+05 7.434716e+04 -4.382955e+04
2.606797e+05 8.830599e+04 -3.342592e+04
2.606569e+05 8.043163e+04 -3.757378e+04
2.549413e+05 8.530069e+04 -4.015928e+04
2.684895e+05 8.395187e+04 -3.755640e+04
2.641135e+05 8.769687e+04 -3.992650e+04
2.684667e+05 7.607750e+04 -4.170427e+04
2.622659e+05 7.958809e+04 -4.339291e+04
2.606341e+05 7.255726e+04 -4.172165e+04
2.606113e+05 6.468289e+04 -4.586952e+04
2.555013e+05 7.007324e+04 -4.557977e+04
2.684439e+05 6.820313e+04 -4.585213e+04
2.636728e+05 7.197494e+04 -4.620847e+04
2.684211e+05 6.032876e+04 -5.000000e+04
2.613100e+05 6.501529e+04 -5.000000e+04
2.556139e+05 7.743131e+04 -4.233738e+04
2.629887e+05 1.121582e+05 -2.805816e+04
2.639738e+05 1.196535e+05 -2.534204e+04
2.625507e+05 1.046889e+05 -3.289638e+04
2.613046e+05 9.342939e+04 -3.705609e+04
2.386359e+05 1.014919e+05 -2.804653e+04
2.390750e+05 9.485043e+04 -3.189257e+04
2.374806e+05 8.580448e+04 -3.574928e+04
2.329350e+05 9.399211e+04 -3.586497e+04
2.456762e+05 8.753313e+04 -3.614073e+04
2.528261e+05 9.115636e+04 -3.704678e+04
2.701823e+05 9.410377e+04 -3.869594e+04
2.763842e+05 8.746683e+04 -3.755640e+04
2.696118e+05 8.523259e+04 -4.230146e+04
2.763614e+05 7.959246e+04 -4.170427e+04
2.780787e+05 8.692049e+04 -4.402539e+04
2.842561e+05 8.310743e+04 -4.170427e+04
2.698651e+05 7.721143e+04 -4.552889e+04
2.763386e+05 7.171810e+04 -4.585213e+04
2.689286e+05 6.842578e+04 -5.000000e+04
2.763158e+05 6.384373e+04 -5.000000e+04
2.768234e+05 7.194074e+04 -5.000000e+04
2.842105e+05 6.735869e+04 -5.000000e+04
2.842333e+05 7.523306e+04 -4.585213e+04
2.865024e+05 8.259958e+04 -4.620421e+04
2.921281e+05 7.874802e+04 -4.585213e+04
2.847181e+05 7.545570e+04 -5.000000e+04
2.921053e+05 7.087365e+04 -5.000000e+04
2.926129e+05 7.897067e+04 -5.000000e+04
2.790459e+05 7.903459e+04 -4.639604e+04
-3.709412e+04 -4.021163e+04 -3.633079e+04
-4.405592e+04 -4.206442e+04 -3.584154e+04
-3.029309e+04 -3.667375e+04 -3.638484e+04
-3.190964e+04 -3.798644e+04 -4.178670e+04
4.191841e+04 1.103283e+04 -3.666847e+04
-2.347467e+04 -3.059704e+04 -2.941179e+04
-3.144685e+04 -2.630571e+04 -2.527628e+04
-2.868112e+04 -2.676979e+04 -3.232866e+04
-3.122994e+04 -3.427861e+04 -2.953241e+04
-3.941903e+04 -2.201438e+04 -2.114078e+04
-3.702737e+04 -2.238391e+04 -3.010298e+04
-3.920212e+04 -2.998728e+04 -2.539691e+04
-4.468998e+04 -1.522116e+04 -2.463504e+04
-4.717430e+04 -2.569595e+04 -2.126140e+04
-4.542293e+04 -2.418229e+04 -2.824757e+04
-4.695738e+04 -3.366885e+04 -2.551753e+04
-3.898520e+04 -3.796018e+04 -2.965304e+04
-4.552990e+04 -3.210859e+04 -3.305640e+04
-4.674047e+04 -4.164175e+04 -2.977366e+04
-3.618234e+04 -3.082825e+04 -3.285926e+04
-5.186081e+04 -1.012497e+04 -2.036225e+04
-5.055861e+04 -1.593277e+04 -2.307158e+04
-1.496107e+04 3.708865e+04 0.000000e+00
1.747166e+04 -2.738532e+04 -4.209753e+04
1.774831e+04 -3.493490e+04 -4.550229e+04
1.677401e+04 -4.354558e+04 -5.000000e+04
1.098086e+04 -3.522103e+04 -4.695119e+04
-1.310432e+04 -5.068214e+04 -4.626745e+04
-1.481355e+04 -5.760630e+04 -5.000000e+04
-1.365376e+04 -4.215613e+04 -4.354894e+04
-3.905125e+04 -6.142724e+04 -4.201490e+04
-3.850542e+04 -6.815191e+04 -5.000000e+04
-3.926247e+04 -6.909102e+04 -4.600745e+04
-3.947368e+04 -7.675480e+04 -5.000000e+04
-3.157895e+04 -7.323984e+04 -5.000000e+04
-3.061069e+04 -6.463695e+04 -5.000000e+04
-3.136773e+04 -6.557606e+04 -4.600745e+04
-2.368421e+04 -6.972488e+04 -5.000000e+04
-3.751252e+04 -6.032109e+04 -4.670831e+04
2.395542e+04 -3.290014e+04 -4.176451e+04
3.171455e+04 -3.725266e+04 -4.588226e+04
3.256349e+04 -3.651565e+04 -5.000000e+04
3.947368e+04 -4.160517e+04 -5.000000e+04
3.157895e+04 -4.512013e+04 -5.000000e+04
2.381982e+04 -4.076762e+04 -4.588226e+04
2.466875e+04 -4.003061e+04 -5.000000e+04
2.368421e+04 -4.863510e+04 -5.000000e+04
2.689246e+04 -3.288112e+04 -4.637989e+04
2.227699e+05 1.226256e+05 -1.337719e+04
2.290952e+05 1.137704e+05 -1.257810e+04
2.290459e+05 1.216977e+05 -8.385398e+03
2.211512e+05 1.181827e+05 -8.385398e+03
2.250316e+05 1.385285e+05 -8.375894e+03
2.289967e+05 1.296250e+05 -4.192699e+03
2.289474e+05 1.375522e+05 0.000000e+00
2.210526e+05 1.340373e+05 0.000000e+00
2.153047e+05 1.254395e+05 -8.978542e+03
2.178723e+05 1.331359e+05 -7.350231e+03
2.211019e+05 1.261100e+05 -4.192699e+03
2.132072e+05 1.225950e+05 -4.192699e+03
2.131579e+05 1.305223e+05 0.000000e+00
2.252437e+05 1.297797e+05 -1.011893e+04
2.083355e+05 1.138672e+05 -1.488794e+04
2.056056e+05 1.031687e+05 -1.265376e+04
2.134355e+05 1.067026e+05 -1.262854e+04
2.054915e+05 1.111149e+05 -8.435843e+03
2.212654e+05 1.102365e+05 -1.260332e+04
2.083594e+05 1.225541e+05 -1.133802e+04
2.133213e+05 1.146488e+05 -8.410620e+03
2.053773e+05 1.190611e+05 -4.217921e+03
2.154785e+05 1.196584e+05 -1.533496e+04
1.821667e+05 6.101528e+04 -2.938284e+04
1.822065e+05 6.889622e+04 -2.523550e+04
1.822463e+05 7.677715e+04 -2.108816e+04
1.900811e+05 7.240954e+04 -2.523164e+04
1.833564e+05 7.534049e+04 -2.998252e+04
1.900413e+05 6.452860e+04 -2.937898e+04
1.979159e+05 6.804192e+04 -2.937512e+04
1.908349e+05 7.191229e+04 -3.370017e+04
1.851009e+05 6.719960e+04 -3.196877e+04
1.586012e+05 6.625425e+04 -2.108574e+04
1.664864e+05 6.975904e+04 -2.108888e+04
1.664466e+05 6.187811e+04 -2.523622e+04
1.614293e+05 6.797369e+04 -2.709834e+04
1.438382e+05 2.933018e+04 -4.226184e+04
1.502954e+05 2.334674e+04 -4.176626e+04
1.440694e+05 2.134831e+04 -4.554968e+04
1.501477e+05 1.547553e+04 -4.588313e+04
1.431274e+05 1.262815e+04 -5.000000e+04
1.500000e+05 7.604315e+03 -5.000000e+04
1.510222e+05 1.614312e+04 -5.000000e+04
1.578947e+05 1.111928e+04 -5.000000e+04
1.580425e+05 1.899049e+04 -4.588313e+04
1.589169e+05 1.965808e+04 -5.000000e+04
1.657895e+05 1.463424e+04 -5.000000e+04
1.532529e+05 2.336618e+04 -4.638936e+04
-3.933627e+04 -1.410168e+04 -1.698677e+04
-3.654981e+04 -1.364771e+04 -2.482757e+04
-4.261554e+04 -8.153923e+03 -2.093859e+04
-3.128133e+04 -1.048031e+04 -1.696827e+04
-2.322638e+04 -6.858937e+03 -1.694977e+04
-3.550507e+04 -3.751142e+03 -2.159254e+04
-2.890869e+04 -9.288195e+03 -2.567140e+04
-7.106580e+04 -6.483097e+04 -3.629218e+04
-7.192311e+04 -6.323952e+04 -3.982771e+04
-6.493024e+04 -6.102689e+04 -3.572659e+04
-6.514146e+04 -6.869067e+04 -3.971914e+04
-6.647980e+04 -5.922131e+04 -3.959122e+04
-6.684177e+04 -6.695344e+04 -4.299205e+04
-5.879468e+04 -5.722281e+04 -3.516099e+04
-5.900589e+04 -6.488659e+04 -3.915354e+04
-5.921711e+04 -7.255037e+04 -4.314609e+04
-6.088492e+04 -5.457381e+04 -3.860073e+04
-5.265911e+04 -5.341873e+04 -3.459539e+04
-5.287033e+04 -6.108251e+04 -3.858794e+04
-6.083980e+04 -7.043863e+04 -4.629827e+04
-5.308155e+04 -6.874629e+04 -4.258049e+04
-5.329277e+04 -7.641007e+04 -4.657305e+04
-6.118979e+04 -6.261794e+04 -4.257552e+04
-7.295606e+03 -7.598211e+03 -2.108071e+04
-5.771275e+03 -7.574684e+03 -2.929246e+04
5.802279e+02 -1.195886e+04 -2.523014e+04
-7.378369e+03 -1.551091e+04 -2.523471e+04
1.712740e+03 -1.109465e+04 -3.443644e+04
8.456062e+03 -1.631950e+04 -2.937958e+04
4.974648e+02 -1.987156e+04 -2.938415e+04
2.298908e+03 -1.964076e+04 -3.821642e+04
-7.461132e+03 -2.342362e+04 -2.938872e+04
-5.811611e+03 -2.161137e+04 -3.912926e+04
-5.216546e+03 -1.550248e+04 -3.231465e+04
3.921118e+04 3.680336e+04 -1.670547e+04
4.005494e+04 2.939195e+04 -1.269008e+04
3.986119e+04 3.732567e+04 -8.460050e+03
3.196645e+04 3.381071e+04 -8.460050e+03
3.849426e+04 5.545920e+04 -6.426219e+03
3.966743e+04 4.525939e+04 -4.230025e+03
3.947368e+04 5.319311e+04 0.000000e+00
3.157895e+04 4.967815e+04 0.000000e+00
3.067818e+04 4.255882e+04 -1.344696e+04
3.004149e+04 5.273988e+04 -7.518728e+03
2.331724e+04 4.678210e+04 -7.072207e+03
3.177270e+04 4.174443e+04 -4.230025e+03
2.387796e+04 3.822947e+04 -4.230025e+03
2.368421e+04 4.616318e+04 0.000000e+00
3.869395e+04 4.580784e+04 -1.115641e+04
-5.528025e+04 -1.317512e+04 -1.275396e+04
-5.798188e+04 -4.915882e+03 -1.652769e+04
-6.373870e+04 -1.070660e+04 -1.866187e+04
-6.316929e+04 -8.627194e+03 -8.502637e+03
-7.105833e+04 -4.079266e+03 -4.251319e+03
-7.216057e+04 -4.303695e+03 -1.476302e+04
-6.615622e+04 1.164129e+03 -1.264146e+04
3.201584e+04 3.404903e+04 -1.692227e+04
2.189861e+04 3.778583e+04 -1.431443e+04
-2.330915e+04 -1.477164e+04 -2.110378e+04
-2.339191e+04 -2.268434e+04 -2.525778e+04
-3.136409e+04 -1.839301e+04 -2.112228e+04
-2.916898e+04 -1.773424e+04 -2.984485e+04
-2.123856e+04 -3.251478e+04 -4.157891e+04
7.974032e+04 -1.309598e+03 -4.345392e+04
8.714093e+04 -4.767512e+03 -4.176418e+04
9.488625e+04 -9.126488e+03 -4.588209e+04
9.574298e+04 -8.401077e+03 -5.000000e+04
1.026316e+05 -1.348546e+04 -5.000000e+04
9.473684e+04 -1.700043e+04 -5.000000e+04
8.251560e+04 -7.367804e+03 -4.579024e+04
8.699152e+04 -1.264145e+04 -4.588209e+04
8.784824e+04 -1.191604e+04 -5.000000e+04
7.995351e+04 -1.543100e+04 -5.000000e+04
8.684211e+04 -2.051539e+04 -5.000000e+04
9.023722e+04 -4.990972e+03 -4.653482e+04
1.990606e+05 1.142471e+05 -1.473695e+04
1.975967e+05 1.076000e+05 -8.435843e+03
2.014397e+05 1.200092e+05 -1.046768e+04
2.019784e+05 1.268389e+05 -7.233438e+03
1.934434e+05 1.245938e+05 -8.085297e+03
1.974826e+05 1.155462e+05 -4.217921e+03
1.973684e+05 1.234924e+05 0.000000e+00
1.894737e+05 1.199774e+05 0.000000e+00
1.858229e+05 1.205507e+05 -6.864824e+03
1.895878e+05 1.120312e+05 -4.217921e+03
1.815789e+05 1.164625e+05 0.000000e+00
1.924974e+05 1.165665e+05 -1.005066e+04
2.214586e+05 7.859684e+04 -2.933660e+04
2.238497e+05 7.789630e+04 -3.739584e+04
2.136008e+05 7.507909e+04 -2.934674e+04
2.152448e+05 7.613083e+04 -3.868662e+04
2.057430e+05 7.156135e+04 -2.935687e+04
2.067646e+05 7.225820e+04 -3.729707e+04
2.057352e+05 7.944840e+04 -2.519514e+04
2.076922e+05 8.174782e+04 -3.305046e+04
2.135931e+05 8.296614e+04 -2.518501e+04
2.057275e+05 8.733545e+04 -2.103341e+04
2.074390e+05 8.892199e+04 -2.884333e+04
2.157538e+05 8.293401e+04 -3.233113e+04
1.779177e+05 8.876057e+04 -2.172591e+04
1.712796e+05 9.492721e+04 -1.738831e+04
1.822386e+05 8.466420e+04 -1.692643e+04
1.742297e+05 8.909545e+04 -1.270851e+04
1.900656e+05 8.818363e+04 -1.690818e+04
1.820567e+05 9.261488e+04 -1.269026e+04
1.740479e+05 9.704613e+04 -8.472342e+03
1.843192e+05 9.475245e+04 -2.130069e+04
1.978927e+05 9.170306e+04 -1.688993e+04
1.898838e+05 9.613431e+04 -1.267201e+04
1.713612e+05 1.047341e+05 -1.440492e+04
1.818749e+05 1.005656e+05 -8.454092e+03
1.738660e+05 1.049968e+05 -4.236171e+03
1.796149e+05 9.927463e+04 -1.680442e+04
8.284063e+02 4.411858e+04 0.000000e+00
8.723143e+03 4.763354e+04 0.000000e+00
-7.066331e+03 4.060362e+04 0.000000e+00
1.925746e+05 8.913654e+04 -2.529268e+04
1.847903e+05 8.558438e+04 -2.651336e+04
1.784949e+05 9.038696e+04 -2.789834e+04
1.121513e+05 1.562147e+04 -4.228687e+04
1.123955e+05 7.456900e+03 -4.556801e+04
1.115438e+05 -1.388628e+03 -5.000000e+04
1.052699e+05 6.851541e+03 -4.726268e+04
-4.848843e+04 -8.636445e+02 -1.707264e+04
-4.738552e+04 -9.660159e+03 -1.275396e+04
-3.933057e+04 -6.038788e+03 -1.273545e+04
-4.737982e+04 -1.597268e+03 -8.502637e+03
-3.127563e+04 -2.417416e+03 -1.271695e+04
-4.811267e+04 6.516201e+03 -1.164850e+04
-3.932487e+04 2.024104e+03 -8.484135e+03
-4.737412e+04 6.465624e+03 -4.251319e+03
-4.030887e+04 2.158020e+03 -1.653085e+04
2.444839e+04 2.275368e+04 -2.009751e+04
2.425275e+04 2.235619e+04 -1.269017e+04
3.179705e+04 2.755829e+04 -2.040164e+04
3.215385e+04 2.587407e+04 -1.269012e+04
2.406536e+04 3.029283e+04 -8.460097e+03
2.474688e+04 3.057562e+04 -1.669969e+04
6.320188e+02 -4.063401e+03 -2.107796e+04
8.507853e+03 -8.424047e+03 -2.522740e+04
8.559644e+03 -5.285906e+02 -2.107522e+04
2.252654e+03 -2.952742e+03 -2.907964e+04
-2.285529e+04 3.357563e+04 0.000000e+00
-5.442996e+04 1.952541e+04 0.000000e+00
-5.283096e+04 -2.849696e+04 -2.810798e+04
-5.388489e+04 -3.546140e+04 -3.202086e+04
4.872859e+04 -1.560765e+04 -4.444049e+04
5.130163e+04 -2.230533e+04 -4.627595e+04
4.836301e+04 -2.948595e+04 -5.000000e+04
-3.864476e+04 2.654570e+04 0.000000e+00
-3.075003e+04 3.006067e+04 0.000000e+00
1.066578e+05 6.090912e+04 -2.021667e+04
5.609399e+04 6.872144e+04 0.000000e+00
4.819925e+04 6.520648e+04 0.000000e+00
6.398872e+04 7.223641e+04 0.000000e+00
7.188346e+04 7.575137e+04 0.000000e+00
5.555800e+04 -1.882812e+04 -4.176364e+04
5.541058e+04 -2.670168e+04 -4.588182e+04
5.526316e+04 -3.457524e+04 -5.000000e+04
5.625774e+04 -2.597099e+04 -5.000000e+04
6.315789e+04 -3.106028e+04 -5.000000e+04
6.330531e+04 -2.318672e+04 -4.588182e+04
6.415248e+04 -2.245603e+04 -5.000000e+04
7.105263e+04 -2.754532e+04 -5.000000e+04
5.876919e+04 -1.903529e+04 -4.659933e+04
1.187197e+05 9.290628e+03 -4.176503e+04
1.264651e+05 4.932508e+03 -4.588252e+04
1.273333e+05 5.641298e+03 -5.000000e+04
1.342105e+05 5.743884e+02 -5.000000e+04
1.263158e+05 -2.940575e+03 -5.000000e+04
1.185704e+05 1.417545e+03 -4.588252e+04
1.194386e+05 2.126335e+03 -5.000000e+04
1.184211e+05 -6.455538e+03 -5.000000e+04
1.216956e+05 9.375207e+03 -4.637522e+04
1.661866e+04 5.114778e+04 0.000000e+00
7.741518e+04 -5.956658e+03 -4.717634e+04
1.184211e+05 8.834274e+04 0.000000e+00
1.240128e+05 9.241450e+04 -6.961885e+03
1.192142e+05 9.685424e+04 0.000000e+00
1.263158e+05 9.185771e+04 0.000000e+00
1.342105e+05 9.537267e+04 0.000000e+00
1.271089e+05 1.003692e+05 0.000000e+00
1.300692e+05 9.811493e+04 -6.352201e+03
1.350037e+05 1.038842e+05 0.000000e+00
1.902652e+05 1.284977e+05 0.000000e+00
1.823705e+05 1.249827e+05 0.000000e+00
1.744758e+05 1.214678e+05 0.000000e+00
1.999532e+05 8.448115e+04 -2.866809e+04
1.996012e+05 7.685877e+04 -3.379185e+04
1.068563e+05 3.346956e+04 -3.274660e+04
1.055615e+05 4.109193e+04 -3.024030e+04
1.100753e+05 4.555635e+04 -3.403075e+04
1.373802e+05 2.091408e+04 -4.713122e+04
-6.390647e+04 -1.721761e+04 -1.286042e+04
-7.179550e+04 -1.266968e+04 -8.609099e+03
-7.253268e+04 -2.126009e+04 -1.296688e+04
-7.147552e+04 -1.289981e+04 -1.591066e+04
-8.600017e+04 5.504812e+03 0.000000e+00
-9.097350e+04 -3.204228e+04 -1.432334e+04
-1.000509e+05 -3.019157e+04 -1.121556e+04
-9.813107e+04 -2.696683e+04 -9.965560e+03
-1.013944e+05 -3.114814e+04 -1.909107e+04
-9.651105e+04 -2.723599e+04 -1.806487e+04
-1.091284e+05 -2.834086e+04 -8.107780e+03
-1.072085e+05 -2.511612e+04 -6.857780e+03
-1.097146e+05 -2.974817e+04 -1.477138e+04
-1.162859e+05 -2.326542e+04 -3.750000e+03
-1.143661e+05 -2.004067e+04 -2.500000e+03
-1.160301e+05 -2.317941e+04 -1.121407e+04
-1.052886e+05 -2.189138e+04 -5.607780e+03
-1.031582e+05 -2.161920e+04 -1.383772e+04
-1.124462e+05 -1.681593e+04 -1.250000e+03
-1.120806e+05 -1.954766e+04 -9.492816e+03
-1.087886e+05 -1.581513e+04 -8.742089e+03
-1.080589e+05 -2.468590e+04 -1.476141e+04
1.034553e+05 8.981685e+04 0.000000e+00
7.018059e+04 4.861232e+04 -2.655754e+04
7.977110e+04 7.927196e+04 0.000000e+00
8.987677e+04 4.395945e+04 -2.375033e+04
9.690715e+04 4.665834e+04 -2.559689e+04
-1.017896e+05 -1.525114e+03 0.000000e+00
-9.389491e+04 1.989849e+03 0.000000e+00
-9.130076e+04 2.257080e+03 -7.158781e+03
1.755201e+05 4.338533e+04 -4.209094e+04
1.756143e+05 3.537433e+04 -4.554595e+04
1.746884e+05 2.660611e+04 -5.000000e+04
1.689575e+05 3.470565e+04 -4.720148e+04
-1.100630e+05 -6.349276e+04 -2.642868e+04
-1.152680e+05 -5.318281e+04 -2.844216e+04
-1.180596e+05 -5.952515e+04 -3.115863e+04
-1.195323e+05 -6.093768e+04 -2.285735e+04
-1.290017e+05 -5.838260e+04 -1.928603e+04
-1.277644e+05 -5.732692e+04 -2.793024e+04
-1.261110e+05 -5.191423e+04 -2.444826e+04
-7.105263e+04 3.983625e+03 0.000000e+00
-6.437765e+04 8.214544e+03 -6.329803e+03
-7.021943e+04 1.249549e+04 0.000000e+00
-6.315789e+04 7.498588e+03 0.000000e+00
-5.526316e+04 1.101355e+04 0.000000e+00
-6.232469e+04 1.601045e+04 0.000000e+00
-5.653568e+04 1.215457e+04 -7.436239e+03
8.684211e+04 7.428289e+04 0.000000e+00
9.385941e+04 7.805541e+04 -6.519805e+03
8.766584e+04 8.278693e+04 0.000000e+00
9.473684e+04 7.779785e+04 0.000000e+00
8.572114e+04 7.541945e+04 -7.150042e+03
1.026316e+05 8.131282e+04 0.000000e+00
9.556057e+04 8.630189e+04 0.000000e+00
1.017231e+05 8.215568e+04 -7.460378e+03
1.345931e+05 7.949165e+04 -8.466058e+03
1.344018e+05 8.743216e+04 -4.233029e+03
1.265071e+05 8.391720e+04 -4.233029e+03
1.314636e+05 8.665282e+04 -1.019407e+04
1.657895e+05 1.094325e+05 0.000000e+00
1.586588e+05 1.144461e+05 0.000000e+00
1.647251e+05 1.103925e+05 -7.001973e+03
1.578947e+05 1.059176e+05 0.000000e+00
1.500000e+05 1.024026e+05 0.000000e+00
1.557312e+05 1.072359e+05 -7.928670e+03
1.507641e+05 1.109311e+05 0.000000e+00
-2.080084e+05 -8.263789e+04 -2.042755e+04
-2.126262e+05 -8.845478e+04 -2.319185e+04
-2.036142e+05 -7.459474e+04 -1.727106e+04
-1.447898e+05 -6.033464e+04 -1.660810e+04
-1.548899e+05 -5.971004e+04 -2.132381e+04
-1.491734e+05 -6.392052e+04 -2.401043e+04
-1.511085e+05 -6.484176e+04 -1.750148e+04
-1.574272e+05 -6.934888e+04 -1.839487e+04
-1.548871e+05 -6.857514e+04 -2.486207e+04
-1.598334e+05 -6.461208e+04 -2.292718e+04
-1.309271e+05 -7.278207e+04 -2.642868e+04
-1.307353e+05 -6.714926e+04 -3.064325e+04
-1.366539e+05 -7.142775e+04 -3.116522e+04
-1.334417e+05 -6.713055e+04 -2.285735e+04
-1.359564e+05 -6.147904e+04 -1.928603e+04
-1.409159e+05 -6.588493e+04 -2.896716e+04
-1.348974e+05 -6.072665e+04 -2.847218e+04
1.100705e+05 6.966778e+04 -1.701580e+04
1.000602e+05 6.678114e+04 -1.650698e+04
1.111083e+05 6.101990e+04 -1.269380e+04
1.109143e+05 6.895586e+04 -8.462534e+03
1.030196e+05 6.544090e+04 -8.462534e+03
1.102192e+05 7.664735e+04 -1.146083e+04
1.107203e+05 7.689182e+04 -4.231267e+03
1.028256e+05 7.337686e+04 -4.231267e+03
9.356770e+04 7.054229e+04 -1.104897e+04
9.493085e+04 6.986190e+04 -4.231267e+03
1.019177e+05 7.446755e+04 -1.230261e+04
1.818630e+05 3.740008e+04 -4.176702e+04
1.817210e+05 2.953213e+04 -4.588351e+04
1.815789e+05 2.166417e+04 -5.000000e+04
1.825831e+05 3.012107e+04 -5.000000e+04
1.894737e+05 2.517913e+04 -5.000000e+04
1.896157e+05 3.304709e+04 -4.588351e+04
1.904779e+05 3.363603e+04 -5.000000e+04
1.973684e+05 2.869409e+04 -5.000000e+04
1.848639e+05 3.740087e+04 -4.637256e+04
1.979004e+05 8.381602e+04 -2.105166e+04
1.979082e+05 7.592897e+04 -2.521339e+04
1.900734e+05 8.029658e+04 -2.106991e+04
1.918103e+05 8.079189e+04 -3.023405e+04
-1.342105e+05 -2.413608e+04 0.000000e+00
-1.313269e+05 -1.925777e+04 -4.686064e+03
-1.333868e+05 -1.545770e+04 0.000000e+00
-1.263158e+05 -2.062112e+04 0.000000e+00
-1.412815e+05 -1.897266e+04 0.000000e+00
-1.184211e+05 -1.710615e+04 0.000000e+00
-1.254921e+05 -1.194273e+04 0.000000e+00
-1.236500e+05 -1.561938e+04 -5.721266e+03
1.745767e+05 5.857974e+04 -3.993416e+04
-7.377337e+04 -5.709648e+04 -3.157692e+04
-6.763781e+04 -5.329239e+04 -3.101132e+04
-7.397405e+04 -5.497300e+04 -3.662661e+04
-7.648093e+04 -4.936198e+04 -2.686165e+04
-6.150224e+04 -4.948831e+04 -3.044572e+04
-7.034537e+04 -4.555790e+04 -2.629605e+04
-7.752914e+04 -4.717567e+04 -3.172081e+04
-7.918850e+04 -4.162748e+04 -2.214639e+04
-7.015551e+04 -4.955660e+04 -3.426563e+04
2.073034e+05 5.407350e+04 -4.442154e+04
2.134017e+05 5.145665e+04 -4.175930e+04
2.211745e+05 4.710530e+04 -4.587965e+04
2.219886e+05 4.757521e+04 -5.000000e+04
2.289474e+05 4.275395e+04 -5.000000e+04
2.210526e+05 3.923898e+04 -5.000000e+04
2.087803e+05 4.698196e+04 -4.653162e+04
2.132798e+05 4.359033e+04 -4.587965e+04
2.140938e+05 4.406025e+04 -5.000000e+04
2.061991e+05 4.054529e+04 -5.000000e+04
2.131579e+05 3.572402e+04 -5.000000e+04
2.150723e+05 5.190001e+04 -4.648056e+04
2.842561e+05 9.100728e+04 -3.753760e+04
2.797874e+05 9.595360e+04 -3.982626e+04
2.921281e+05 8.664788e+04 -4.168547e+04
2.933485e+05 8.700784e+04 -4.630881e+04
2.921281e+05 9.454774e+04 -3.751880e+04
2.876773e+05 1.001541e+05 -3.904769e+04
2.936050e+05 9.486604e+04 -4.241667e+04
2.945433e+05 1.020649e+05 -3.878048e+04
2.863543e+05 9.108327e+04 -4.343461e+04
2.451340e+04 5.466274e+04 0.000000e+00
3.240814e+04 5.817771e+04 0.000000e+00
4.030288e+04 6.169267e+04 0.000000e+00
-7.894737e+03 -6.269495e+04 -5.000000e+04
-7.822992e+03 -5.486457e+04 -4.588682e+04
-9.458745e-11 -5.917999e+04 -5.000000e+04
-6.918815e+03 -5.409133e+04 -5.000000e+04
-7.751246e+03 -4.703418e+04 -4.177365e+04
7.174528e+01 -5.134960e+04 -4.588682e+04
7.894737e+03 -5.566502e+04 -5.000000e+04
9.759217e+02 -5.057637e+04 -5.000000e+04
-6.000700e+03 -4.595174e+04 -4.644104e+04
2.374716e+05 1.493160e+05 0.000000e+00
1.349784e+05 6.361518e+04 -1.693035e+04
1.238254e+05 6.646488e+04 -2.195158e+04
1.296476e+05 5.977612e+04 -2.473680e+04
1.270864e+05 6.010477e+04 -1.692859e+04
1.191944e+05 5.659436e+04 -1.692683e+04
1.219729e+05 5.712967e+04 -2.496891e+04
1.159073e+05 6.253510e+04 -2.103476e+04
2.218617e+05 1.424259e+05 0.000000e+00
2.139669e+05 1.389109e+05 0.000000e+00
-1.492025e+05 -5.044815e+04 -1.035735e+04
-1.445029e+05 -4.852292e+04 -1.596818e+04
-1.580457e+05 -4.930668e+04 -7.678677e+03
-1.668888e+05 -4.816521e+04 -5.000000e+03
-1.599341e+05 -4.506878e+04 -5.000000e+03
-1.625459e+05 -4.567081e+04 -1.019030e+04
-1.510910e+05 -4.621024e+04 -7.678677e+03
-1.478216e+05 -4.484830e+04 -1.323322e+04
-1.529794e+05 -4.197234e+04 -5.000000e+03
-1.556685e+05 -4.274726e+04 -9.413436e+03
-1.550094e+05 -4.687570e+04 -1.241899e+04
-1.751648e+05 -8.786853e+04 -3.174373e+04
-1.789741e+05 -9.586781e+04 -2.732206e+04
-1.720194e+05 -9.277137e+04 -2.732206e+04
-1.738981e+05 -8.853054e+04 -2.464413e+04
-1.650647e+05 -8.967493e+04 -2.732206e+04
-1.698739e+05 -7.956553e+04 -3.012933e+04
-1.669434e+05 -8.543410e+04 -2.464413e+04
-1.688220e+05 -8.119327e+04 -2.196619e+04
-1.686058e+05 -8.644068e+04 -3.041258e+04
-1.446198e+05 -4.461744e+04 -1.824280e+04
-1.956078e+05 -5.858180e+04 -3.750000e+03
-1.864183e+05 -5.019358e+04 -9.754917e+03
-1.886531e+05 -5.548536e+04 -3.750000e+03
-1.816984e+05 -5.238893e+04 -3.750000e+03
-1.895533e+05 -5.351620e+04 -2.500000e+03
-1.952060e+05 -5.162231e+04 -7.364549e+03
-1.965080e+05 -5.661264e+04 -2.500000e+03
-1.974082e+05 -5.464348e+04 -1.250000e+03
-1.926100e+05 -5.447129e+04 -8.300396e+03
-2.113575e+05 -6.322404e+04 -2.500000e+03
-2.122577e+05 -6.125488e+04 -1.250000e+03
-2.201524e+05 -6.476984e+04 -1.250000e+03
-2.160048e+05 -6.173100e+04 -9.095342e+03
2.385876e+05 7.144107e+04 -4.204973e+04
2.386008e+05 6.334029e+04 -4.549430e+04
2.376258e+05 5.447040e+04 -5.000000e+04
2.319196e+05 6.280172e+04 -4.707412e+04
-1.814587e+05 -1.115311e+05 -3.500000e+04
-1.846785e+05 -1.125419e+05 -4.054530e+04
-1.781468e+05 -1.091130e+05 -4.047851e+04
-1.788672e+05 -1.198571e+05 -4.000000e+04
-1.762757e+05 -1.281832e+05 -4.500000e+04
-1.748304e+05 -1.177856e+05 -4.460703e+04
-1.834712e+05 -1.209792e+05 -4.469143e+04
-1.810676e+05 -1.311166e+05 -5.000000e+04
-1.729157e+05 -1.277463e+05 -5.000000e+04
-1.736842e+05 -1.365092e+05 -5.000000e+04
-1.536329e+05 -5.919317e+04 -1.392942e+04
-1.688221e+05 -5.665330e+04 -1.656814e+04
-1.624760e+05 -5.805170e+04 -1.125074e+04
-1.700278e+05 -6.318825e+04 -1.931047e+04
-1.599516e+05 -6.370029e+04 -1.482281e+04
-1.620293e+05 -5.823980e+04 -1.764590e+04
-1.430851e+05 -3.045726e+04 -1.250000e+03
-1.478575e+05 -2.799907e+04 -6.731802e+03
-1.409570e+05 -2.666185e+04 -5.307582e+03
-1.440650e+05 -3.326347e+04 -2.500000e+03
-1.450448e+05 -3.606969e+04 -3.750000e+03
-1.412808e+05 -2.945763e+04 -7.787309e+03
-1.490831e+05 -3.222876e+04 -7.434423e+03
-6.316359e+04 -5.643030e+02 -4.251319e+03
-5.527456e+04 -5.112231e+03 -8.502637e+03
-5.526886e+04 2.950660e+03 -4.251319e+03
-5.677918e+04 4.158494e+03 -1.276926e+04
-1.816586e+05 -5.000124e+04 -2.500000e+03
-1.816188e+05 -4.761355e+04 -1.250000e+03
-1.895135e+05 -5.112851e+04 -1.250000e+03
-1.877179e+05 -4.749250e+04 -6.942858e+03
-2.825826e+05 -1.104911e+05 -1.885617e+04
-2.203767e+05 -1.078587e+05 -2.392392e+04
-2.260848e+05 -1.121913e+05 -3.094730e+04
-2.180274e+05 -1.099330e+05 -3.171307e+04
-2.233978e+05 -1.156266e+05 -2.731158e+04
-2.132151e+05 -1.019260e+05 -2.939575e+04
-2.225875e+05 -1.052705e+05 -2.850316e+04
-2.264188e+05 -1.233946e+05 -3.069924e+04
-2.202585e+05 -1.173432e+05 -3.556487e+04
-2.285054e+05 -1.202230e+05 -3.533673e+04
-2.235723e+05 -1.270066e+05 -3.897139e+04
-1.904994e+05 -6.833456e+04 -1.725521e+04
-1.815038e+05 -7.129841e+04 -2.022602e+04
-1.598943e+05 -4.268109e+04 -3.750000e+03
-1.668091e+05 -4.338984e+04 -2.500000e+03
-1.668490e+05 -4.577753e+04 -3.750000e+03
-1.616628e+05 -4.215692e+04 -8.897383e+03
-1.264870e+05 -6.403411e+04 -2.285735e+04
-1.239724e+05 -6.968563e+04 -2.642868e+04
-1.170177e+05 -6.658919e+04 -2.642868e+04
-1.251045e+05 -6.315131e+04 -3.209768e+04
-2.047518e+05 -1.416615e+05 -5.000000e+04
-1.968571e+05 -1.381466e+05 -5.000000e+04
-2.028989e+05 -1.349430e+05 -4.658282e+04
-1.973684e+05 -1.470541e+05 -5.000000e+04
-2.044383e+05 -1.440303e+05 -4.674493e+04
-1.894737e+05 -1.435391e+05 -5.000000e+04
-1.965436e+05 -1.405153e+05 -4.674493e+04
-2.036135e+05 -1.374916e+05 -4.348987e+04
-1.889624e+05 -1.346316e+05 -5.000000e+04
-1.901593e+05 -1.277419e+05 -4.663171e+04
-1.815789e+05 -1.400241e+05 -5.000000e+04
-1.886488e+05 -1.370004e+05 -4.674493e+04
-1.807541e+05 -1.334854e+05 -4.674493e+04
-1.878240e+05 -1.304616e+05 -4.348987e+04
-2.033958e+05 -1.287116e+05 -4.339905e+04
-1.969090e+05 -1.257135e+05 -4.383343e+04
-2.026466e+05 -1.226719e+05 -4.028813e+04
-1.957187e+05 -1.339766e+05 -4.348987e+04
-2.027886e+05 -1.309528e+05 -4.023480e+04
-1.948939e+05 -1.274379e+05 -4.023480e+04
-2.019638e+05 -1.244141e+05 -3.697974e+04
-1.953818e+05 -1.322644e+05 -4.627432e+04
-1.982246e+05 -1.165603e+05 -4.100500e+04
-2.059137e+05 -1.164110e+05 -3.715732e+04
-1.974854e+05 -1.191118e+05 -3.523480e+04
-2.058117e+05 -1.183332e+05 -3.286887e+04
-1.930070e+05 -1.138096e+05 -3.348987e+04
-2.013333e+05 -1.130310e+05 -3.112393e+04
-2.096597e+05 -1.122524e+05 -2.875800e+04
-1.920186e+05 -1.109461e+05 -3.911956e+04
-1.940999e+05 -1.037145e+05 -3.461176e+04
-1.885286e+05 -1.085073e+05 -3.174493e+04
-1.968549e+05 -1.077287e+05 -2.937900e+04
-1.923765e+05 -1.024265e+05 -2.763406e+04
-2.007029e+05 -1.016479e+05 -2.526813e+04
-2.098026e+05 -1.098817e+05 -3.497848e+04
-2.029619e+05 -1.029749e+05 -3.339224e+04
-2.051813e+05 -1.069501e+05 -2.701306e+04
-2.135076e+05 -1.061715e+05 -2.464713e+04
-2.090292e+05 -1.008693e+05 -2.290219e+04
-2.014076e+05 -1.093293e+05 -3.565558e+04
-1.145891e+05 -3.816606e+04 -1.873279e+04
-1.138028e+05 -3.637958e+04 -1.125000e+04
-1.188691e+05 -4.371392e+04 -1.392868e+04
-1.093997e+05 -4.626900e+04 -1.750000e+04
-1.239354e+05 -5.104826e+04 -1.660735e+04
-1.098017e+05 -4.756000e+04 -2.493614e+04
-1.144660e+05 -5.360334e+04 -2.017868e+04
-1.049967e+05 -5.615842e+04 -2.375000e+04
-1.201424e+05 -4.445207e+04 -2.184361e+04
2.937187e+05 1.264250e+05 -2.677944e+04
2.947914e+05 1.328045e+05 -2.463212e+04
2.931324e+05 1.209583e+05 -3.202051e+04
2.449068e+05 6.552205e+04 -4.173903e+04
2.448218e+05 5.765296e+04 -4.586952e+04
2.447368e+05 4.978387e+04 -5.000000e+04
2.455205e+05 5.798536e+04 -5.000000e+04
2.526316e+05 5.329884e+04 -5.000000e+04
2.527166e+05 6.116793e+04 -4.586952e+04
2.534152e+05 6.150032e+04 -5.000000e+04
2.605263e+05 5.681380e+04 -5.000000e+04
2.478115e+05 6.536538e+04 -4.634949e+04
-1.457451e+05 -9.563039e+04 -3.500000e+04
-1.364377e+05 -1.027201e+05 -4.563945e+04
-1.422136e+05 -1.035379e+05 -4.000000e+04
-1.386821e+05 -1.114454e+05 -4.500000e+04
-1.352589e+05 -1.004415e+05 -4.000000e+04
-1.347953e+05 -9.204369e+04 -4.129200e+04
-1.387904e+05 -9.253396e+04 -3.500000e+04
-1.318357e+05 -8.943752e+04 -3.500000e+04
-1.418946e+05 -9.633771e+04 -4.169689e+04
-5.558360e+04 -3.771133e+04 -2.562400e+04
-5.580051e+04 -2.973843e+04 -2.136787e+04
-6.442672e+04 -3.378092e+04 -2.147433e+04
-6.106022e+04 -3.154249e+04 -2.968373e+04
-2.168612e+05 -1.327963e+05 -4.285843e+04
-2.106670e+05 -1.372171e+05 -4.613672e+04
-2.942002e+05 -1.251360e+05 -1.570067e+04
-2.919021e+05 -1.241771e+05 -2.269220e+04
-2.951298e+05 -1.202876e+05 -1.903433e+04
-2.884003e+05 -1.207222e+05 -1.473467e+04
-2.826005e+05 -1.163085e+05 -1.376868e+04
-2.902148e+05 -1.150596e+05 -1.915233e+04
-2.863775e+05 -1.195798e+05 -2.355733e+04
2.662930e+05 1.370761e+05 -1.610033e+04
2.684571e+05 1.314010e+05 -1.252242e+04
2.763398e+05 1.349248e+05 -1.251494e+04
2.684451e+05 1.393097e+05 -8.348278e+03
2.842225e+05 1.384486e+05 -1.250747e+04
2.661681e+05 1.450269e+05 -1.259670e+04
2.763278e+05 1.428335e+05 -8.340805e+03
2.684331e+05 1.472184e+05 -4.174139e+03
2.727782e+05 1.411310e+05 -1.550172e+04
2.631345e+05 7.659640e+04 -4.717753e+04
-2.763158e+05 -1.822037e+05 -5.000000e+04
-2.842105e+05 -1.778188e+05 -4.583333e+04
-2.842105e+05 -1.769196e+05 -5.000000e+04
-2.842105e+05 -1.857187e+05 -5.000000e+04
-2.921053e+05 -1.734339e+05 -4.166667e+04
-2.921053e+05 -1.813338e+05 -4.583333e+04
-2.921053e+05 -1.804345e+05 -5.000000e+04
-2.921053e+05 -1.892336e+05 -5.000000e+04
-2.916312e+05 -1.726277e+05 -4.642183e+04
-2.942002e+05 -1.172361e+05 -1.153400e+04
-2.942002e+05 -1.093363e+05 -7.367336e+03
-2.932593e+05 -1.035526e+05 -1.134731e+04
-2.884003e+05 -1.128224e+05 -1.056801e+04
-2.886314e+05 -1.079371e+05 -1.398825e+04
-2.945142e+05 -1.101767e+05 -1.438106e+04
-1.380901e+05 -3.297325e+04 -3.750000e+03
-1.371103e+05 -3.016704e+04 -2.500000e+03
-1.361304e+05 -2.736082e+04 -1.250000e+03
-1.301555e+05 -2.707060e+04 -2.500000e+03
-1.352287e+05 -2.390078e+04 -5.895580e+03
-1.311354e+05 -2.987682e+04 -3.750000e+03
-1.241807e+05 -2.678038e+04 -3.750000e+03
-1.290729e+05 -2.428199e+04 -7.483196e+03
-1.350211e+05 -2.728751e+04 -7.270521e+03
-1.584614e+05 -1.116488e+05 -4.474540e+04
-1.525915e+05 -1.176383e+05 -4.500000e+04
-1.561230e+05 -1.097308e+05 -4.000000e+04
-1.630777e+05 -1.128272e+05 -4.000000e+04
-1.596545e+05 -1.018233e+05 -3.500000e+04
-1.687834e+05 -1.072158e+05 -4.215518e+04
-1.666092e+05 -1.049197e+05 -3.500000e+04
-1.735639e+05 -1.080161e+05 -3.500000e+04
-1.621896e+05 -1.045450e+05 -4.053847e+04
-1.790729e+05 -8.049035e+04 -2.698077e+04
-1.825719e+05 -8.795381e+04 -2.883621e+04
-2.842105e+05 -8.262975e+04 0.000000e+00
-2.921053e+05 -8.614472e+04 0.000000e+00
-2.088328e+05 -1.261012e+05 -3.625653e+04
-2.157019e+05 -1.277883e+05 -3.553332e+04
-2.093117e+05 -1.240645e+05 -4.019652e+04
-2.096577e+05 -1.326399e+05 -3.951159e+04
-2.225709e+05 -1.294754e+05 -3.481011e+04
-2.164106e+05 -1.255872e+05 -3.944524e+04
-2.165267e+05 -1.343271e+05 -3.878839e+04
-2.104825e+05 -1.391787e+05 -4.276666e+04
-2.095058e+05 -1.305416e+05 -4.387204e+04
-1.657895e+05 -3.819593e+04 0.000000e+00
-1.621467e+05 -3.240481e+04 -3.646794e+03
-1.652041e+05 -2.921896e+04 0.000000e+00
-1.578947e+05 -3.468097e+04 0.000000e+00
-1.500000e+05 -3.116601e+04 0.000000e+00
-1.573093e+05 -2.570400e+04 0.000000e+00
-1.542750e+05 -2.792368e+04 -3.729061e+03
-9.564789e+04 -4.008099e+04 -1.746556e+04
-1.047253e+05 -3.823028e+04 -1.435778e+04
-1.003223e+05 -4.811970e+04 -2.060778e+04
-1.057972e+05 -3.912680e+04 -2.272491e+04
1.661531e+05 9.353116e+04 -8.472342e+03
1.659713e+05 1.014818e+05 -4.236171e+03
1.580766e+05 9.796688e+04 -4.236171e+03
1.630050e+05 1.000572e+05 -1.198451e+04
2.605503e+05 1.357947e+05 -8.348278e+03
2.578815e+05 1.511462e+05 -6.726963e+03
2.605383e+05 1.437034e+05 -4.174139e+03
2.605263e+05 1.516121e+05 0.000000e+00
2.526316e+05 1.480971e+05 0.000000e+00
2.494846e+05 1.484774e+05 -7.290036e+03
2.526436e+05 1.401884e+05 -4.174139e+03
2.447368e+05 1.445822e+05 0.000000e+00
2.561371e+05 1.429778e+05 -1.098190e+04
1.348913e+05 4.783948e+04 -2.523056e+04
1.270428e+05 5.221692e+04 -2.107869e+04
1.349348e+05 5.572733e+04 -2.108046e+04
1.282731e+05 5.316367e+04 -2.847946e+04
9.546950e+04 3.816718e+04 -2.107468e+04
1.033636e+05 4.168030e+04 -2.107550e+04
1.033189e+05 3.378977e+04 -2.522675e+04
9.827872e+04 3.862238e+04 -2.812897e+04
2.631173e+05 9.373897e+04 -4.154773e+04
-1.760438e+05 -5.763120e+04 -1.977337e+04
2.828623e+05 1.031940e+05 -4.210206e+04
-9.378243e+04 -9.275662e+04 -5.000000e+04
-8.684211e+04 -9.784458e+04 -5.000000e+04
-9.225367e+04 -9.077414e+04 -4.500000e+04
-9.473684e+04 -1.013595e+05 -5.000000e+04
-9.766523e+04 -8.370369e+04 -4.000000e+04
-1.016772e+05 -9.627159e+04 -5.000000e+04
-1.001484e+05 -9.428910e+04 -4.500000e+04
-1.026316e+05 -1.048745e+05 -5.000000e+04
-9.875990e+04 -8.491187e+04 -4.466770e+04
-1.650209e+05 -1.242313e+05 -5.000000e+04
-1.657895e+05 -1.329942e+05 -5.000000e+04
-1.578947e+05 -1.294793e+05 -5.000000e+04
-1.683810e+05 -1.246682e+05 -4.500000e+04
-1.571262e+05 -1.207164e+05 -5.000000e+04
-1.500000e+05 -1.259643e+05 -5.000000e+04
-1.604862e+05 -1.211532e+05 -4.500000e+04
-1.709724e+05 -1.163422e+05 -4.000000e+04
-1.655192e+05 -1.164523e+05 -4.574418e+04
2.877961e+05 1.308379e+05 -2.410956e+04
2.805115e+05 1.277968e+05 -2.575002e+04
2.775521e+05 1.326623e+05 -2.930749e+04
2.939206e+05 1.615035e+05 -1.064175e+04
2.932116e+05 1.541692e+05 -1.380779e+04
2.532611e+05 1.563460e+05 0.000000e+00
2.453664e+05 1.528310e+05 0.000000e+00
-1.175022e+05 -1.709826e+04 -7.024340e+03
-1.208949e+05 -2.069885e+04 -7.924022e+03
-1.485939e+05 -7.049327e+04 -2.107281e+04
-1.422751e+05 -6.598615e+04 -2.017942e+04
-1.397605e+05 -7.163767e+04 -2.375074e+04
-1.478178e+05 -6.920653e+04 -2.772744e+04
-2.165287e+05 -1.139395e+05 -2.803479e+04
-2.195498e+05 -1.217075e+05 -3.142245e+04
-2.126808e+05 -1.200204e+05 -3.214566e+04
-2.129097e+05 -1.177757e+05 -3.702660e+04
-2.422418e+05 -1.502576e+05 -4.115206e+04
-2.402950e+05 -1.303281e+05 -3.731504e+04
-2.403913e+05 -1.418910e+05 -3.717378e+04
-2.385407e+05 -1.335244e+05 -3.319551e+04
-2.476415e+05 -1.358863e+05 -3.230411e+04
-2.489440e+05 -1.341221e+05 -3.738266e+04
-2.494920e+05 -1.442529e+05 -3.628238e+04
-2.567423e+05 -1.382482e+05 -3.141271e+04
-2.431553e+05 -1.417398e+05 -4.148895e+04
-1.945531e+05 -7.584089e+04 -2.034254e+04
-1.972593e+05 -7.353682e+04 -1.125000e+04
-1.928562e+05 -8.342624e+04 -1.750000e+04
-1.877802e+05 -7.608897e+04 -1.482206e+04
-1.900914e+05 -8.447333e+04 -2.581982e+04
-1.884532e+05 -9.331566e+04 -2.375000e+04
-1.833772e+05 -8.597839e+04 -2.107206e+04
-1.783011e+05 -7.864112e+04 -1.839413e+04
-1.862654e+05 -7.729145e+04 -2.229406e+04
-1.966864e+05 -9.117523e+04 -3.036374e+04
-1.974880e+05 -9.751277e+04 -3.328099e+04
-2.058001e+05 -9.550350e+04 -3.177904e+04
-2.052052e+05 -9.062761e+04 -2.653377e+04
-2.540821e+05 -7.942014e+04 -7.246682e+03
-2.465438e+05 -7.583983e+04 -8.609391e+03
2.363101e+05 8.526003e+04 -3.998851e+04
-2.525608e+05 -1.296573e+05 -2.786352e+04
-2.569094e+05 -1.294880e+05 -3.312739e+04
-2.483793e+05 -1.210664e+05 -2.431432e+04
-2.519824e+05 -1.220456e+05 -3.061905e+04
-2.441978e+05 -1.124755e+05 -2.076512e+04
-2.392785e+05 -1.187045e+05 -2.520572e+04
-2.428799e+05 -1.180269e+05 -3.111450e+04
-2.434600e+05 -1.272954e+05 -2.875491e+04
-2.343592e+05 -1.249335e+05 -2.964631e+04
-2.366060e+05 -1.227332e+05 -3.384354e+04
-2.463070e+05 -1.259029e+05 -3.399238e+04
1.190004e+05 6.453032e+04 -1.269556e+04
1.268924e+05 6.804073e+04 -1.269733e+04
1.188063e+05 7.246627e+04 -8.464296e+03
1.180083e+05 7.224832e+04 -1.614369e+04
2.449075e+05 1.049751e+05 -2.093023e+04
2.449432e+05 9.707193e+04 -2.510705e+04
2.467329e+05 1.035760e+05 -3.003561e+04
2.527758e+05 1.005922e+05 -2.508967e+04
2.449789e+05 8.916872e+04 -2.928386e+04
2.528115e+05 9.268896e+04 -2.926648e+04
2.553621e+05 9.983505e+04 -3.216278e+04
2.606440e+05 9.620921e+04 -2.924910e+04
2.477617e+05 9.601966e+04 -3.265868e+04
2.921053e+05 1.577721e+05 -4.166667e+03
2.842105e+05 1.542571e+05 -4.166667e+03
2.921053e+05 1.498722e+05 -8.333333e+03
2.872137e+05 1.583172e+05 -9.501413e+03
2.563202e+05 1.158908e+05 -2.480709e+04
2.476749e+05 1.131556e+05 -2.661563e+04
2.842346e+05 1.226401e+05 -2.084828e+04
2.921173e+05 1.261638e+05 -2.084081e+04
2.921173e+05 1.182640e+05 -2.500747e+04
2.863534e+05 1.228832e+05 -2.883728e+04
-7.009150e+04 -8.221207e+04 -5.000000e+04
-7.477902e+04 -7.853714e+04 -4.691797e+04
-7.105263e+04 -9.081466e+04 -5.000000e+04
-7.697698e+04 -8.695496e+04 -4.657305e+04
-6.315789e+04 -8.729969e+04 -5.000000e+04
-6.908224e+04 -8.344000e+04 -4.657305e+04
-7.500659e+04 -7.958030e+04 -4.314609e+04
-6.219676e+04 -7.869711e+04 -5.000000e+04
-5.526316e+04 -8.378473e+04 -5.000000e+04
-6.118750e+04 -7.992503e+04 -4.657305e+04
-7.381563e+04 -7.034943e+04 -4.437395e+04
-6.711185e+04 -7.606533e+04 -4.314609e+04
-7.303619e+04 -7.220563e+04 -3.971914e+04
-6.753361e+04 -7.599608e+04 -4.631195e+04
-1.282357e+05 -2.384586e+04 -1.250000e+03
-1.222608e+05 -2.355564e+04 -2.500000e+03
-1.203409e+05 -2.033090e+04 -1.250000e+03
-1.258104e+05 -2.018159e+04 -5.344018e+03
-7.844775e+04 -6.513519e+04 -3.471914e+04
-8.582971e+04 -6.543940e+04 -3.314609e+04
-7.892540e+04 -6.347539e+04 -3.900677e+04
-8.041815e+04 -7.250985e+04 -3.814609e+04
-9.321166e+04 -6.574362e+04 -3.157305e+04
-8.608045e+04 -6.426954e+04 -3.889564e+04
-8.780010e+04 -7.281407e+04 -3.657305e+04
-8.238854e+04 -7.988451e+04 -4.157305e+04
-8.148433e+04 -7.250000e+04 -4.299473e+04
-1.273641e+05 -9.692649e+04 -4.000000e+04
-1.332918e+05 -1.103011e+05 -5.000000e+04
-1.307873e+05 -1.079304e+05 -4.500000e+04
-1.342105e+05 -1.189344e+05 -5.000000e+04
-1.263158e+05 -1.154194e+05 -5.000000e+04
-1.253971e+05 -1.067862e+05 -5.000000e+04
-1.228926e+05 -1.044155e+05 -4.500000e+04
-1.184211e+05 -1.119044e+05 -5.000000e+04
-1.286394e+05 -9.924861e+04 -4.479424e+04
1.377215e+05 3.786628e+04 -4.141328e+04
-8.115532e+04 -5.740069e+04 -3.000387e+04
-8.386289e+04 -4.966620e+04 -2.528861e+04
-8.853727e+04 -5.770491e+04 -2.843083e+04
-8.191644e+04 -5.593288e+04 -3.613229e+04
2.606224e+05 1.120423e+05 -2.089311e+04
2.606332e+05 1.041257e+05 -2.507111e+04
2.527650e+05 1.085087e+05 -2.091167e+04
2.550105e+05 1.083635e+05 -2.980376e+04
-2.914608e+05 -1.323148e+05 -2.013033e+04
-2.829215e+05 -1.350799e+05 -2.359399e+04
-2.901916e+05 -1.306451e+05 -2.926398e+04
-2.856609e+05 -1.279011e+05 -1.916433e+04
-2.743823e+05 -1.378450e+05 -2.705765e+04
-2.806439e+05 -1.333579e+05 -3.041163e+04
-2.771217e+05 -1.306661e+05 -2.262799e+04
-2.798611e+05 -1.234873e+05 -1.819834e+04
-2.827614e+05 -1.271051e+05 -2.572489e+04
-2.386106e+05 -1.079543e+05 -2.787398e+04
-2.304936e+05 -1.067515e+05 -2.773840e+04
-2.914608e+05 -1.402147e+05 -2.429700e+04
-2.829215e+05 -1.429797e+05 -2.776066e+04
-2.914608e+05 -1.481145e+05 -2.846366e+04
-2.887480e+05 -1.390405e+05 -3.182969e+04
-2.656900e+05 -9.648054e+04 -7.281801e+03
-2.677849e+05 -1.034816e+05 -1.048247e+04
-2.608640e+05 -1.020696e+05 -1.136293e+04
-2.681161e+05 -9.732467e+04 -1.505260e+04
-1.588746e+05 -3.748719e+04 -1.250000e+03
-1.519597e+05 -3.677844e+04 -2.500000e+03
-1.509799e+05 -3.397222e+04 -1.250000e+03
-1.556093e+05 -3.151265e+04 -5.998709e+03
-2.508743e+05 -9.155352e+04 -8.162263e+03
-2.478056e+05 -8.244954e+04 -4.081132e+03
-2.557003e+05 -8.596451e+04 -4.081132e+03
-2.500604e+05 -8.417889e+04 -1.177105e+04
-2.563539e+05 -1.241447e+05 -3.687993e+04
-2.362574e+05 -1.109366e+05 -2.181805e+04
-2.313381e+05 -1.171656e+05 -2.625865e+04
-2.283170e+05 -1.093976e+05 -2.287099e+04
-2.344427e+05 -1.149906e+05 -3.222411e+04
-2.637784e+05 -7.768285e+04 -1.095763e+04
-2.168394e+05 -9.714257e+04 -3.446098e+04
-1.904155e+05 -1.221356e+05 -3.848987e+04
-1.833456e+05 -1.251594e+05 -4.174493e+04
-1.859371e+05 -1.168334e+05 -3.674493e+04
-1.906164e+05 -1.185032e+05 -4.101155e+04
-2.011826e+05 -8.264764e+04 -1.513406e+04
-2.051059e+05 -9.175846e+04 -1.901813e+04
-1.967796e+05 -9.253706e+04 -2.138406e+04
-1.996161e+05 -8.296194e+04 -2.328625e+04
-1.541470e+05 -1.320449e+05 -1.836602e+04
-1.457084e+05 -1.571952e+05 -5.000000e+04
-1.317024e+05 -1.552406e+05 -2.555673e+04
-1.721078e+05 -1.500012e+05 -1.884168e+04
1.335896e+05 -1.685736e+05 -2.405670e+04
1.319128e+05 -1.458421e+05 -2.512712e+04
1.524223e+05 -1.541323e+05 -5.000000e+04
1.211816e+05 -1.587249e+05 -5.000000e+04
-1.541346e+05 -1.294230e+05 0.000000e+00
-1.305125e+05 -1.117141e+05 -1.357741e+04
-1.192793e+05 -1.360133e+05 -2.097439e+04
-1.277513e+05 -1.514799e+05 0.000000e+00
1.531387e+04 -1.645283e+05 -2.499883e+04
6.936431e+02 -1.830337e+05 0.000000e+00
2.404123e+04 -1.922284e+05 -2.409264e+04
3.339419e+04 -1.849795e+05 0.000000e+00
4.039896e+04 -1.567922e+05 -2.366945e+04
3.535257e+04 -1.799022e+05 -5.000000e+04
3.767596e+04 -1.416038e+05 -5.000000e+04
-1.401654e+04 -1.479814e+05 -2.710424e+04
-1.123651e+04 -1.570894e+05 0.000000e+00
1.646785e+04 -1.359069e+05 -2.255842e+04
3.195386e+03 -1.869704e+05 -5.000000e+04
5.549729e+03 -1.568187e+05 -5.000000e+04
2.242821e+05 3.085189e+04 -1.482967e+04
2.550143e+05 1.408873e+04 -2.118971e+04
2.224831e+05 -4.121774e+03 -2.301640e+04
2.363799e+05 1.138365e+04 -5.000000e+04
-4.391367e+03 -1.752017e+05 -2.772759e+04
1.787583e+05 -2.310591e+05 -2.512859e+04
2.000350e+05 -2.126119e+05 -2.514338e+04
2.016411e+05 -2.381941e+05 -5.000000e+04
1.848061e+05 -2.051460e+05 -5.000000e+04
1.676509e+05 -2.687021e+05 -2.507386e+04
1.668655e+05 -2.410658e+05 0.000000e+00
1.482764e+05 -2.420183e+05 -2.498253e+04
1.957181e+05 -2.514778e+05 -2.519658e+04
1.670180e+05 -2.391450e+05 -5.000000e+04
1.625870e+05 -2.072106e+05 -2.421092e+04
2.007920e+05 -2.402958e+05 0.000000e+00
-8.185042e+04 -2.490724e+05 -2.524662e+04
-8.411171e+04 -2.696912e+05 -5.000000e+04
-9.964792e+04 -2.775037e+05 -2.510731e+04
-1.111471e+05 -2.523189e+05 -2.506230e+04
-1.004254e+05 -2.419291e+05 0.000000e+00
-9.324883e+04 -2.241696e+05 -2.546465e+04
-1.026098e+05 -2.394923e+05 -5.000000e+04
-6.759599e+04 -2.382969e+05 -5.000000e+04
-6.725129e+04 -2.418920e+05 0.000000e+00
-6.614924e+04 -2.091010e+05 -2.575544e+04
2.787777e+05 -1.656762e+05 -2.491350e+04
2.777143e+05 -1.958769e+05 -2.499796e+04
2.541893e+05 -1.743355e+05 -2.462649e+04
2.707886e+05 -1.808628e+05 -5.000000e+04
2.701873e+05 -1.490857e+05 0.000000e+00
2.698623e+05 -1.824421e+05 0.000000e+00
2.573997e+05 -1.398473e+05 -2.277605e+04
2.707245e+05 -1.470472e+05 -5.000000e+04
-1.177286e+05 -2.260436e+05 -2.487717e+04
-1.173220e+05 -2.120576e+05 0.000000e+00
-1.009169e+05 -1.949809e+05 -2.399902e+04
-1.355886e+05 -1.984410e+05 -2.490060e+04
-1.239631e+05 -2.125149e+05 -5.000000e+04
-1.355868e+05 -2.427272e+05 -5.000000e+04
-1.422182e+05 -2.301808e+05 -2.453652e+04
3.209013e+04 -2.784345e+05 -2.504288e+04
4.970238e+04 -2.707745e+05 -5.000000e+04
1.644789e+04 -2.707681e+05 -5.000000e+04
4.978664e+04 -2.709714e+05 0.000000e+00
6.529470e+04 -2.787122e+05 -2.504668e+04
4.282397e+04 -2.544669e+05 -2.500545e+04
-1.034409e+03 -2.781010e+05 -2.505078e+04
1.038021e+04 -2.538470e+05 -2.498930e+04
1.644563e+04 -2.709988e+05 0.000000e+00
9.888788e+04 -2.781837e+05 -2.504614e+04
8.301811e+04 -2.707794e+05 -5.000000e+04
7.539056e+04 -2.555946e+05 -2.502019e+04
1.165471e+05 -2.707857e+05 0.000000e+00
1.327007e+05 -2.721310e+05 -2.504458e+04
1.096338e+05 -2.534053e+05 -2.502058e+04
1.164272e+05 -2.706021e+05 -5.000000e+04
-8.379187e+04 -2.125862e+05 0.000000e+00
-1.177196e+05 -1.784855e+05 -5.000000e+04
-7.552496e+04 -1.740070e+05 -2.639294e+04
-8.683073e+04 -2.029330e+05 -5.000000e+04
-8.627628e+04 -1.637380e+05 -5.000000e+04
-1.362325e+05 -1.839919e+05 0.000000e+00
-1.042233e+05 -1.615367e+05 -2.347143e+04
2.523953e+05 -1.967997e+04 -2.471985e+04
2.236127e+05 -3.903366e+04 -2.501537e+04
2.534120e+05 -5.369463e+04 -2.543373e+04
2.412475e+05 -3.366318e+04 0.000000e+00
-1.343257e+05 -2.705284e+05 -2.500176e+04
-1.168732e+05 -2.710477e+05 0.000000e+00
-8.356063e+04 -2.710066e+05 0.000000e+00
-6.638318e+04 -2.718259e+05 -2.513096e+04
-1.866957e+04 -2.504051e+05 -2.502868e+04
-3.419104e+04 -2.721360e+05 -2.507922e+04
-1.688982e+04 -2.710076e+05 0.000000e+00
-3.398736e+04 -2.417791e+05 0.000000e+00
-1.682870e+04 -2.705369e+05 -5.000000e+04
2.508234e+02 -2.410308e+05 -5.000000e+04
-3.390912e+04 -2.155626e+05 -2.263623e+04
-5.046352e+04 -2.417963e+05 -2.494731e+04
-6.130362e+03 -2.272928e+05 -2.463088e+04
-3.307191e+04 -2.397785e+05 -5.000000e+04
8.697150e+04 -2.335094e+05 -2.500312e+04
9.742557e+04 -2.075915e+05 -2.506095e+04
8.253244e+04 -2.127049e+05 -5.000000e+04
5.951284e+04 -2.277207e+05 -2.500085e+04
8.236306e+04 -2.128619e+05 0.000000e+00
6.621141e+04 -2.418790e+05 0.000000e+00
9.944191e+04 -2.413718e+05 -5.000000e+04
1.234508e+05 -2.254373e+05 -2.504939e+04
9.962457e+04 -2.417143e+05 0.000000e+00
2.786594e+05 -6.217628e+04 -2.536201e+04
2.696887e+05 -7.871253e+04 -5.000000e+04
2.707219e+05 -4.921540e+04 0.000000e+00
2.775173e+05 -3.055195e+04 -2.509908e+04
2.588356e+05 -8.661111e+04 -2.749111e+04
2.708473e+05 -8.254308e+04 0.000000e+00
1.902176e+04 -9.994527e+04 -2.452134e+04
8.938015e+03 -1.210646e+05 -5.000000e+04
-1.215297e+04 -1.138078e+05 -2.464645e+04
1.234701e+04 -8.629989e+04 -5.000000e+04
8.314562e+04 -2.709080e+05 0.000000e+00
4.647734e+04 -1.200396e+05 -2.728760e+04
5.471854e+04 -1.355523e+05 0.000000e+00
2.610599e+04 -1.154344e+05 0.000000e+00
1.773004e+05 -8.412371e+04 -2.472738e+04
1.848096e+05 -1.014254e+05 -5.000000e+04
1.595356e+05 -8.471249e+04 -5.000000e+04
1.848057e+05 -7.327846e+04 -5.000000e+04
-2.789169e+04 -1.872862e+05 -2.595863e+04
-4.545030e+04 -1.632210e+05 -2.437917e+04
-2.786920e+04 -1.754982e+05 -5.000000e+04
-1.289302e+03 -2.028170e+05 -2.465600e+04
-3.576289e+04 -1.790808e+05 0.000000e+00
-6.727372e+04 -1.881634e+05 0.000000e+00
-1.763718e+04 -2.118808e+05 0.000000e+00
1.558376e+05 -6.797012e+04 -2.529828e+04
1.569610e+05 -1.009318e+05 -2.518223e+04
2.018895e+05 -9.416305e+04 -2.470216e+04
1.828167e+05 -1.150359e+05 -2.484248e+04
1.779354e+05 -5.176575e+04 -2.653447e+04
1.830435e+05 -6.835482e+04 0.000000e+00
1.825383e+05 -1.001261e+05 0.000000e+00
1.535325e+05 -8.460241e+04 0.000000e+00
2.009922e+05 -2.766607e+05 -2.507332e+04
2.188442e+05 -2.686804e+05 -5.000000e+04
1.839528e+05 -2.695384e+05 -5.000000e+04
2.186632e+05 -2.692121e+05 0.000000e+00
1.838233e+05 -2.701562e+05 0.000000e+00
2.444093e+05 -2.760719e+05 -2.497051e+04
2.275529e+05 -2.523977e+05 -2.506448e+04
2.798651e+05 -2.277688e+05 -2.494909e+04
2.536580e+05 -2.078575e+05 -2.487557e+04
2.708159e+05 -2.143858e+05 -5.000000e+04
-2.321981e+04 -1.363102e+05 -5.000000e+04
-1.842864e+05 -1.417497e+05 0.000000e+00
-1.228688e+05 -1.167257e+05 0.000000e+00
-1.500420e+05 -9.566154e+04 0.000000e+00
-2.788200e+05 -2.305987e+05 -2.500461e+04
-2.698763e+05 -2.125447e+05 -5.000000e+04
-2.745965e+05 -2.048261e+05 -2.212297e+04
-2.534255e+05 -2.238581e+05 -2.470500e+04
-2.730521e+05 -2.440393e+05 0.000000e+00
-2.726923e+05 -2.417566e+05 -5.000000e+04
-2.610544e+05 -2.517227e+05 -2.479502e+04
-2.761062e+05 -2.687522e+05 -1.547561e+04
-2.759427e+05 -2.689477e+05 -3.470996e+04
2.323452e+05 -1.500162e+05 -2.455514e+04
2.112029e+05 -1.656739e+05 -2.477902e+04
2.392009e+05 -1.655163e+05 0.000000e+00
2.102668e+05 -1.478162e+05 0.000000e+00
2.419170e+05 -1.647423e+05 -5.000000e+04
2.259608e+05 -1.896601e+05 -2.465297e+04
2.416898e+05 -1.310841e+05 -5.000000e+04
2.324909e+05 -1.097973e+05 -2.641273e+04
2.406040e+05 -1.321617e+05 0.000000e+00
2.056975e+05 -1.343283e+05 -2.404872e+04
2.779324e+05 2.986777e+03 -2.477453e+04
2.682412e+05 -8.699062e+03 -5.000000e+04
2.823417e+05 3.521036e+04 -2.651610e+04
2.695589e+05 1.801993e+04 0.000000e+00
2.681511e+05 2.611825e+04 -5.000000e+04
-2.179058e+05 -2.801719e+05 -2.504873e+04
-2.539526e+05 -2.792306e+05 -2.507432e+04
-2.549919e+05 -2.683740e+05 -5.000000e+04
-2.189503e+05 -2.693594e+05 0.000000e+00
-2.185879e+05 -2.690553e+05 -5.000000e+04
-1.839417e+05 -2.705920e+05 -5.000000e+04
-2.552340e+05 -2.693373e+05 0.000000e+00
-2.283335e+05 -2.509034e+05 -2.498991e+04
-1.940527e+05 -2.575986e+05 -2.494397e+04
1.586012e+05 -1.704442e+05 -2.471243e+04
1.513134e+05 -1.508663e+05 0.000000e+00
1.101850e+05 -1.720415e+05 -2.347804e+04
1.132517e+05 -1.545036e+05 0.000000e+00
1.329297e+05 -1.835055e+05 -5.000000e+04
1.327784e+05 -1.825762e+05 0.000000e+00
1.293119e+05 -1.966136e+05 -2.567596e+04
1.027792e+05 -1.436681e+05 -2.591983e+04
9.963308e+04 -1.120403e+05 -5.000000e+04
7.854523e+04 -1.109829e+05 -2.352092e+04
1.153073e+05 -1.173091e+05 -2.533274e+04
1.678328e+05 -1.832471e+05 0.000000e+00
1.261859e+05 -1.310771e+05 -5.000000e+04
1.269312e+05 -1.293194e+05 0.000000e+00
9.283806e+04 -1.235825e+05 0.000000e+00
7.164586e+04 -1.450226e+05 -2.664911e+04
7.872246e+04 -1.576188e+05 0.000000e+00
1.062333e+05 -6.298616e+04 -2.436805e+04
1.070360e+05 -4.438759e+04 -5.000000e+04
1.314515e+05 -4.827738e+04 -2.615385e+04
1.342722e+05 -6.494452e+04 -5.000000e+04
9.295993e+04 -8.557804e+04 0.000000e+00
1.036008e+05 -9.313742e+04 -2.467149e+04
1.242447e+05 -6.881884e+04 0.000000e+00
7.548181e+04 -5.825286e+04 -5.000000e+04
8.316085e+04 -3.362241e+04 -1.609664e+04
7.944668e+04 -7.459993e+04 -2.277080e+04
9.506467e+04 -5.149711e+04 0.000000e+00
1.261869e+05 -3.609234e+04 0.000000e+00
-1.662067e+05 -2.785615e+05 -2.498205e+04
-1.507143e+05 -2.711835e+05 -5.000000e+04
-1.614788e+05 -2.530995e+05 -2.480984e+04
-1.502734e+05 -2.708906e+05 0.000000e+00
-1.841127e+05 -2.703332e+05 0.000000e+00
2.775083e+05 -2.780380e+05 -3.550796e+04
2.807093e+05 -2.809309e+05 -1.628319e+04
2.363866e+05 -2.523020e+04 -5.000000e+04
2.380789e+05 -6.205767e+04 -5.000000e+04
1.575941e+05 -3.505613e+04 -2.298593e+04
1.364839e+05 -1.571331e+04 -2.099790e+04
1.387129e+05 -3.092091e+04 -5.000000e+04
2.758475e+05 -2.565678e+05 -2.493930e+04
2.552012e+05 -2.687645e+05 -5.000000e+04
1.654906e+05 -5.284795e+04 -5.000000e+04
1.712856e+05 -1.823351e+04 -5.000000e+04
2.019138e+05 -4.528293e+04 -5.000000e+04
1.999148e+05 -6.198669e+04 -2.311177e+04
1.544482e+05 -5.253486e+04 0.000000e+00
1.916476e+05 -2.489696e+04 -2.252440e+04
1.836588e+05 -3.607657e+04 0.000000e+00
2.123462e+05 -5.135730e+04 0.000000e+00
2.685385e+05 5.234441e+04 0.000000e+00
2.618309e+05 4.880492e+04 -1.992941e+04
1.877680e+05 -1.873165e+05 -2.669314e+04
2.137921e+05 -1.828414e+05 -5.000000e+04
1.870849e+05 -1.616981e+05 -2.510333e+04
2.052975e+05 -1.830214e+05 0.000000e+00
1.839072e+05 -2.122298e+05 0.000000e+00
1.833592e+05 -1.592709e+05 0.000000e+00
2.686926e+05 -4.377716e+04 -5.000000e+04
2.703873e+05 -1.578397e+04 0.000000e+00
1.312957e+05 -8.444100e+04 -2.639851e+04
1.300587e+05 -9.831035e+04 -5.000000e+04
1.032158e+05 -7.845529e+04 -5.000000e+04
1.239432e+05 -1.013381e+05 0.000000e+00
2.413923e+05 -9.947664e+04 0.000000e+00
2.706992e+05 -1.158397e+05 0.000000e+00
2.407145e+05 -9.707445e+04 -5.000000e+04
2.704786e+05 -1.130714e+05 -5.000000e+04
2.720064e+05 -1.153565e+05 -2.783155e+04
2.728048e+05 -2.440258e+05 0.000000e+00
2.551032e+05 -2.692582e+05 0.000000e+00
5.064861e+04 -8.602208e+04 -2.441270e+04
4.392030e+04 -7.225636e+04 -5.000000e+04
7.198998e+04 -9.234678e+04 -5.000000e+04
4.060197e+04 -1.064235e+05 -5.000000e+04
-9.548204e+04 -1.094343e+05 -1.763214e+04
-1.588083e+05 -1.615372e+05 0.000000e+00
-1.585046e+05 -1.761640e+05 -2.450451e+04
-1.141123e+05 -1.429266e+05 -5.000000e+04
2.730643e+05 -2.431105e+05 -5.000000e+04
2.549094e+05 -2.404235e+05 -2.499778e+04
1.609498e+05 -1.846074e+05 -5.000000e+04
1.849964e+05 -1.685498e+05 -5.000000e+04
2.132788e+05 -1.495295e+05 -5.000000e+04
1.666776e+05 -1.396291e+05 -2.517815e+04
2.385873e+05 -2.358699e+05 0.000000e+00
2.701571e+05 -2.156393e+05 0.000000e+00
2.254465e+05 -2.234478e+05 -2.498798e+04
-2.049992e+05 -1.400065e+05 -1.189817e+04
-2.212149e+05 -1.628833e+05 -1.634825e+04
-1.916855e+05 -1.647626e+05 -1.999698e+04
-2.135509e+05 -1.547101e+05 0.000000e+00
-2.147758e+05 -1.866590e+05 0.000000e+00
-2.124056e+05 -1.982511e+05 -2.437755e+04
5.977858e+04 -1.012065e+05 0.000000e+00
-2.460039e+05 -1.831228e+05 -1.773963e+04
-2.424542e+05 -1.684479e+05 0.000000e+00
1.561075e+05 -2.054447e+04 0.000000e+00
1.329382e+05 -2.407439e+05 -5.000000e+04
1.500895e+05 -2.121325e+05 0.000000e+00
1.331558e+05 -2.414506e+05 0.000000e+00
1.160997e+05 -2.122837e+05 0.000000e+00
1.293671e+05 -3.245967e+03 0.000000e+00
1.103730e+05 -1.671516e+04 -1.589850e+04
2.098570e+05 1.370125e+04 0.000000e+00
1.953965e+05 6.989318e+03 -1.932357e+04
2.010132e+05 5.014631e+04 0.000000e+00
1.837840e+05 2.241286e+04 0.000000e+00
2.376329e+05 3.405143e+04 0.000000e+00
-5.996337e+03 -1.283995e+05 0.000000e+00
-1.176833e+05 -2.705731e+05 -5.000000e+04
-5.109370e+04 -2.126317e+05 0.000000e+00
-4.852987e+04 -2.078396e+05 -5.000000e+04
2.252964e+04 -6.330633e+04 -1.768981e+04
5.579729e+04 -4.618841e+04 -1.760303e+04
3.070440e+04 -8.076564e+04 0.000000e+00
-1.646361e+05 -2.132138e+05 -2.457045e+04
-1.929649e+05 -2.256213e+05 -2.481012e+04
-1.677331e+05 -2.408210e+05 0.000000e+00
-1.861263e+05 -2.080502e+05 0.000000e+00
-1.833338e+05 -1.919095e+05 -2.475972e+04
-1.637535e+05 -1.879545e+05 0.000000e+00
-1.507528e+05 -2.126384e+05 0.000000e+00
-9.206227e+03 -7.455010e+04 -1.600158e+04
-1.294152e+03 -9.468599e+04 0.000000e+00
3.361214e+03 -6.043456e+04 0.000000e+00
1.633116e+05 -1.408913e+03 -1.885688e+04
8.068722e+04 -1.810679e+05 -2.478148e+04
6.709316e+04 -1.602242e+05 -5.000000e+04
9.756315e+04 -1.801340e+05 -5.000000e+04
6.653153e+04 -1.891398e+05 -5.000000e+04
6.304894e+04 -6.644997e+04 0.000000e+00
-1.868475e+05 -1.735550e+05 0.000000e+00
-1.774057e+05 -1.717363e+05 -5.000000e+04
9.842840e+04 -1.785821e+04 0.000000e+00
7.090280e+04 2.072656e+03 0.000000e+00
1.563443e+05 -1.175224e+05 -5.000000e+04
2.402212e+05 -3.909839e+02 0.000000e+00
-2.385556e+05 -2.348472e+05 -5.000000e+04
-2.398895e+05 -2.362437e+05 0.000000e+00
-5.949966e+04 -1.084355e+05 -2.343410e+04
-4.214862e+04 -1.286093e+05 -2.467305e+04
-6.363762e+04 -1.232246e+05 0.000000e+00
-7.319210e+04 -1.408971e+05 -2.620074e+04
-5.968518e+04 -8.861941e+04 0.000000e+00
-7.750171e+04 -9.165184e+04 -1.489956e+04
-9.119811e+04 -1.029104e+05 0.000000e+00
5.606070e+04 -1.748820e+05 -2.351398e+04
5.029618e+04 -1.631948e+05 0.000000e+00
5.528845e+04 -2.006721e+05 -2.569337e+04
6.504855e+04 -1.858196e+05 0.000000e+00
2.096881e+04 -1.524831e+05 0.000000e+00
6.895960e+04 -1.261339e+05 -5.000000e+04
-8.266250e+04 -1.287986e+05 -5.000000e+04
-9.520244e+04 -1.384787e+05 0.000000e+00
-2.090004e+05 -1.847692e+05 -5.000000e+04
-3.992042e+04 -9.004767e+04 -1.786209e+04
-1.928375e+04 -1.005680e+05 -5.000000e+04
-6.625963e+04 -1.582218e+05 0.000000e+00
-3.608580e+04 -1.424501e+05 0.000000e+00
-5.538728e+04 -1.497593e+05 -5.000000e+04
2.395693e+05 -2.347598e+05 -5.000000e+04
2.119713e+05 -1.886213e+04 0.000000e+00
2.042429e+05 -4.157467e+03 -5.000000e+04
2.272918e+05 -7.383063e+04 -2.531662e+04
2.415811e+05 -6.666393e+04 0.000000e+00
2.121060e+05 -8.371507e+04 0.000000e+00
2.114619e+05 -1.158138e+05 0.000000e+00
2.127351e+05 -1.159578e+05 -5.000000e+04
2.105869e+05 -8.248399e+04 -5.000000e+04
3.319854e+04 -2.415139e+05 -5.000000e+04
2.609278e+04 -2.255331e+05 -2.472435e+04
3.285803e+04 -2.419634e+05 0.000000e+00
-5.461068e+02 -2.418395e+05 0.000000e+00
-2.263323e+05 -2.210506e+05 -2.513889e+04
-2.005657e+05 -2.399524e+05 -5.000000e+04
-2.022295e+05 -2.399110e+05 0.000000e+00
-3.265052e+04 -1.086634e+05 0.000000e+00
2.162488e+05 -2.117288e+05 -5.000000e+04
6.619758e+04 -2.415501e+05 -5.000000e+04
-2.426815e+05 -2.007095e+05 0.000000e+00
-2.394189e+05 -1.982362e+05 -5.000000e+04
-2.711717e+05 -1.830939e+05 0.000000e+00
1.404489e+05 -1.213463e+05 -2.550025e+04
9.680681e+04 -1.447758e+05 -5.000000e+04
1.500438e+05 -2.705701e+05 0.000000e+00
-5.033176e+04 -2.698747e+05 -5.000000e+04
-5.022479e+04 -2.710084e+05 0.000000e+00
-1.672538e+05 -2.423178e+05 -5.000000e+04
-1.479255e+04 -2.105459e+05 -5.000000e+04
1.491289e+05 -2.109674e+05 -5.000000e+04
1.500240e+05 -2.701225e+05 -5.000000e+04
2.420069e+05 -1.981135e+05 -5.000000e+04
-1.515297e+05 -2.196732e+05 -5.000000e+04
-1.186480e+05 -8.214975e+04 0.000000e+00
-8.708209e+04 -6.824884e+04 0.000000e+00
-1.337793e+05 -2.418523e+05 0.000000e+00
-6.101881e+04 -1.799853e+05 -5.000000e+04
-1.812754e+05 -2.092326e+05 -5.000000e+04
-2.137632e+05 -2.134075e+05 -5.000000e+04
-2.170828e+05 -2.143669e+05 0.000000e+00
-2.709967e+05 -2.158758e+05 0.000000e+00
1.533097e+05 -1.163067e+05 0.000000e+00
-9.914124e+04 -1.779239e+05 0.000000e+00
1.611817e+04 -2.128344e+05 0.000000e+00
1.820388e+05 -1.316272e+05 0.000000e+00
1.841400e+05 -1.345655e+05 -5.000000e+04
-5.547648e+04 -5.419282e+04 0.000000e+00
-2.824183e+04 -7.445989e+04 0.000000e+00
-5.103911e+04 -1.148191e+05 -5.000000e+04
1.840362e+05 -4.805858e+03 0.000000e+00
1.773639e+04 -2.120872e+05 -5.000000e+04
1.157838e+05 -2.116576e+05 -5.000000e+04
9.792427e+04 -1.839715e+05 0.000000e+00
5.011632e+04 -2.127336e+05 -5.000000e+04
4.919010e+04 -2.132921e+05 0.000000e+00
-1.495695e+05 -1.915736e+05 -5.000000e+04
-2.115352e+05 -1.221115e+05 0.000000e+00
-2.414839e+05 -1.357260e+05 0.000000e+00
2.393493e+05 -1.993163e+05 0.000000e+00
2.134720e+05 -2.140151e+05 0.000000e+00
6.680514e+04 -3.222249e+04 0.000000e+00
2.359109e+05 7.014425e+04 0.000000e+00
3.508752e+04 -4.637363e+04 0.000000e+00
3.931657e+04 -1.199870e+04 0.000000e+00
2.681033e+05 8.690059e+04 0.000000e+00
1.024679e+05 1.618323e+04 0.000000e+00
7.725771e+03 -2.606595e+04 0.000000e+00
-1.810522e+05 -1.088692e+05 0.000000e+00
1.587564e+05 1.088329e+04 0.000000e+00
-2.387196e+04 -4.013005e+04 0.000000e+00
-2.709433e+05 -1.500803e+05 0.000000e+00
-1.486478e+05 -1.264225e+05 -3.392026e+04
-1.331269e+05 -1.277183e+05 -3.530841e+04
-1.355272e+05 -1.154511e+05 -2.893738e+04
-1.014516e+05 -1.076965e+05 -3.262111e+04
-1.172374e+05 -1.068886e+05 -2.873357e+04
-1.123324e+05 -1.241062e+05 -3.414538e+04
-1.625057e+05 -1.335068e+05 -3.443992e+04
-1.713637e+05 -1.212298e+05 -2.288891e+04
-1.726348e+05 -1.417847e+05 -3.316894e+04
-1.838311e+05 -1.239267e+05 -2.194449e+04
-1.561112e+05 -1.083907e+05 -2.144231e+04
-1.422009e+05 -1.028978e+05 -2.379001e+04
-1.614581e+05 -9.720322e+04 -1.697895e+04
-1.484341e+05 -9.243928e+04 -1.328083e+04
-1.838803e+05 -1.246414e+05 -8.994948e+03
1.243784e+05 -1.445215e+04 -3.805958e+04
1.227713e+05 1.390377e+03 -2.982497e+04
1.081507e+05 -1.330856e+04 -3.347829e+04
1.100993e+05 3.466689e+03 -2.504879e+04
2.658153e+05 5.357151e+04 -3.660859e+04
2.759340e+05 4.704182e+04 -3.915858e+04
2.811038e+05 5.834200e+04 -3.388212e+04
-9.854104e+04 -8.775767e+04 -2.477887e+04
-8.556165e+04 -9.758863e+04 -3.289197e+04
-8.505154e+04 -8.218755e+04 -2.418573e+04
-7.512526e+04 -9.088135e+04 -3.302595e+04
-1.077807e+05 -7.791210e+04 -1.375187e+04
-1.224337e+05 -7.979383e+04 -1.608401e+04
-1.311107e+05 -9.587208e+04 -2.005064e+04
-1.120683e+05 -9.121008e+04 -2.163422e+04
-2.137832e+05 -1.183545e+05 -1.432516e+04
-2.284138e+05 -1.237960e+05 -1.297596e+04
-2.211385e+05 -1.368866e+05 -2.192230e+04
-1.965665e+05 -1.178867e+05 -1.806427e+04
-1.989232e+05 -1.302210e+05 -2.406296e+04
-1.880676e+05 -1.301761e+05 -2.895975e+04
-2.290912e+05 -1.459349e+05 -2.530914e+04
-2.366348e+05 -1.347340e+05 -1.649589e+04
-2.072936e+05 -1.443083e+05 -2.931356e+04
-2.148221e+05 -1.557174e+05 -3.224059e+04
-1.924769e+05 -1.405541e+05 -3.202122e+04
-1.954209e+05 -1.551076e+05 -3.465970e+04
-2.071318e+05 -1.676691e+05 -5.000000e+04
1.864428e+05 3.050263e+04 -2.808912e+04
1.894715e+05 5.165850e+04 -1.610730e+04
1.802306e+05 3.326657e+04 -1.409370e+04
2.320622e+05 7.564506e+04 -1.564276e+04
2.297515e+05 5.824087e+04 -2.217507e+04
2.472456e+05 6.174982e+04 -2.332929e+04
1.980928e+05 3.857402e+04 -2.502909e+04
2.152451e+05 3.153888e+04 -3.304702e+04
2.125418e+05 4.998752e+04 -2.347334e+04
2.029266e+05 6.017303e+04 -1.650248e+04
2.174017e+05 6.628615e+04 -1.556065e+04
2.524966e+05 3.619358e+04 -5.000000e+04
2.518275e+05 4.637823e+04 -3.533161e+04
2.489171e+05 2.795596e+04 -3.418338e+04
2.494475e+05 8.148607e+04 -1.293428e+04
2.345120e+05 4.013156e+04 -3.155802e+04
2.161505e+04 -5.608017e+04 -3.417988e+04
2.317684e+03 -4.610442e+04 -2.525236e+04
4.126953e+03 -6.097404e+04 -3.201706e+04
-1.449991e+04 -5.210627e+04 -2.367249e+04
1.820784e+04 -3.755905e+04 -2.211837e+04
3.734828e+04 -4.553140e+04 -3.194079e+04
3.428647e+04 -2.875780e+04 -1.975887e+04
5.474249e+04 -4.174388e+04 -3.517407e+04
4.564436e+04 -5.517328e+04 -5.000000e+04
5.215211e+04 -2.392635e+04 -2.545389e+04
6.016501e+04 -1.876588e+04 -1.322854e+04
4.446318e+04 -9.611288e+03 -1.186810e+04
2.800204e+04 -1.436538e+04 -1.475167e+04
-1.371800e+05 -1.380083e+05 -3.632245e+04
-1.281088e+05 -1.326880e+05 -5.000000e+04
-1.439068e+05 -1.398223e+05 -5.000000e+04
-1.596963e+05 -1.468522e+05 -5.000000e+04
6.560588e+04 -3.151535e+04 -3.187195e+04
2.366110e+05 2.882628e+04 -5.000000e+04
2.658216e+05 7.035467e+04 -2.239882e+04
2.844935e+05 7.415679e+04 -2.867053e+04
-1.689045e+04 -3.462396e+04 -1.383329e+04
-3.265799e+04 -4.502568e+04 -1.750061e+04
-3.207784e+04 -5.519260e+04 -2.310083e+04
-4.081764e+03 -4.801589e+04 -1.064441e+04
-1.177058e+04 -7.016532e+04 -3.220941e+04
1.123579e+04 -2.163034e+04 -1.549855e+04
-7.094763e+02 -3.259750e+04 -1.722525e+04
1.371939e+05 1.187359e+04 -2.695657e+04
1.420510e+05 -1.058705e+03 -3.368805e+04
1.531480e+05 1.757346e+04 -2.588224e+04
1.531523e+05 5.273583e+03 -3.579888e+04
1.566955e+05 -7.072079e+03 -5.000000e+04
1.087812e+05 -2.717905e+04 -5.000000e+04
-6.634094e+04 -1.030258e+05 -3.619950e+04
2.047530e+05 1.402580e+04 -5.000000e+04
2.152429e+05 1.416477e+04 -3.664317e+04
2.015442e+05 2.097605e+04 -3.247991e+04
2.842105e+05 1.454003e+05 0.000000e+00
-5.800573e+04 -7.161069e+04 -2.490331e+04
-6.506734e+04 -7.203986e+04 -1.247900e+04
-7.155964e+04 -7.715429e+04 -2.322829e+04
-5.307697e+04 -9.223930e+04 -3.934666e+04
-5.940555e+04 -8.711012e+04 -3.295389e+04
6.142511e+04 -4.817154e+04 -5.000000e+04
-2.567063e+05 -1.785792e+05 -3.165564e+04
-2.567754e+05 -1.621236e+05 -2.510985e+04
-2.394954e+05 -1.730068e+05 -3.316393e+04
-2.539200e+05 -1.884625e+05 -5.000000e+04
-2.701929e+05 -1.909764e+05 -3.227836e+04
1.228821e+05 1.157237e+04 -1.889107e+04
1.085106e+05 1.987095e+04 -1.240042e+04
8.000820e+04 8.070315e+03 -1.487433e+04
7.771639e+04 -6.889302e+03 -2.055966e+04
9.366027e+04 -1.638527e+03 -1.968703e+04
1.246196e+05 -2.044571e+04 -5.000000e+04
-3.590050e+04 -5.832344e+04 -1.158328e+04
-4.176605e+04 -6.670645e+04 -2.332482e+04
-4.257985e+04 -8.326512e+04 -3.352717e+04
-4.920377e+04 -9.754442e+04 -5.000000e+04
-6.499324e+04 -1.045743e+05 -5.000000e+04
-6.220327e+04 -5.851895e+04 -1.743528e+04
-7.490441e+04 -6.203860e+04 -1.617861e+04
2.682861e+05 4.322351e+04 -5.000000e+04
-2.824710e+05 -1.758552e+05 -2.090034e+04
-2.697008e+05 -1.798331e+05 -2.861706e+04
-2.867568e+05 -1.851827e+05 -2.930286e+04
1.721536e+05 9.485267e+04 0.000000e+00
1.745608e+05 8.013771e+04 -4.369462e+03
1.887208e+05 1.018272e+05 0.000000e+00
1.706230e+05 7.675786e+04 0.000000e+00
2.037574e+05 9.070692e+04 0.000000e+00
1.881563e+05 8.448747e+04 -5.972357e+03
1.364742e+05 2.006379e+04 -1.569137e+04
1.701432e+05 2.257400e+04 -2.634494e+04
2.026467e+05 7.347743e+04 -1.068164e+04
1.702934e+05 3.513375e+04 -1.872965e+04
1.680675e+05 4.463029e+04 -1.006799e+04
1.645677e+05 4.239708e+04 0.000000e+00
2.208215e+05 2.179636e+04 -5.000000e+04
1.847635e+05 1.237052e+04 -3.513281e+04
1.664249e+05 6.060022e+03 -3.592543e+04
-1.755450e+05 -1.541228e+05 -5.000000e+04
-1.832375e+05 -1.458168e+05 -3.612838e+04
-1.667308e+05 -1.558191e+05 -4.161821e+04
1.889636e+05 6.995869e+03 -5.000000e+04
1.724849e+05 -4.215237e+01 -5.000000e+04
-2.381305e+05 -1.814325e+05 -5.000000e+04
-2.229213e+05 -1.746990e+05 -5.000000e+04
-2.270833e+05 -1.632408e+05 -3.367419e+04
-1.913344e+05 -1.611527e+05 -5.000000e+04
4.558950e+04 2.565010e+04 -3.833880e+03
2.957621e+04 3.250214e+04 0.000000e+00
3.010985e+04 1.623427e+04 -5.036704e+03
4.336294e+04 2.235607e+04 0.000000e+00
6.000165e+04 3.182493e+04 -4.914714e+03
7.494248e+04 3.642000e+04 0.000000e+00
7.562193e+04 3.516187e+04 -4.557745e+03
6.115545e+04 4.656404e+04 0.000000e+00
-5.187214e+03 -1.613729e+04 -7.201201e+03
2.650586e+04 1.319213e+03 -8.931597e+03
4.185740e+04 1.060758e+04 -7.782565e+03
-2.304368e+04 -2.000133e+04 -8.274193e+03
-3.695873e+04 -2.930015e+04 -8.788224e+03
2.630187e+04 -3.173517e+04 -8.694927e+03
8.246615e+04 -2.527771e+04 -3.028186e+04
9.551402e+04 -2.199673e+04 -3.571768e+04
9.194791e+04 1.440657e+04 -1.751915e+04
7.540969e+04 2.101444e+04 -9.682677e+03
8.988762e+04 2.692453e+04 -8.236926e+03
1.109701e+05 5.263180e+04 -4.402874e+03
9.540483e+04 4.377745e+04 -5.219711e+03
1.054244e+05 3.588642e+04 -8.424664e+03
1.065209e+05 5.048656e+04 0.000000e+00
9.273415e+04 6.062725e+04 0.000000e+00
6.011870e+04 1.335927e+04 -6.418907e+03
1.408728e+05 3.772251e+04 -1.376422e+04
1.235972e+05 2.654281e+04 -1.405603e+04
1.336106e+05 3.002121e+04 0.000000e+00
6.415720e+04 -2.967646e+03 -1.678923e+04
6.578789e+04 -1.712782e+04 -2.580511e+04
7.721459e+04 -4.114161e+04 -5.000000e+04
1.219596e+05 4.169643e+04 -8.464890e+03
1.262537e+05 5.709997e+04 -5.696954e+03
1.381346e+05 6.412640e+04 0.000000e+00
1.413802e+05 6.559243e+04 -4.424212e+03
1.243305e+05 7.447709e+04 0.000000e+00
1.404091e+05 -1.341578e+04 -5.000000e+04
1.364983e+05 5.097854e+04 -9.282494e+03
1.529921e+05 4.248300e+04 -1.706365e+04
1.546746e+05 3.083592e+04 -1.729834e+04
1.500243e+05 5.259107e+04 -1.020272e+04
1.563642e+05 8.782275e+04 0.000000e+00
1.749536e+05 5.995128e+04 -1.113220e+04
1.577714e+05 6.633147e+04 -6.204770e+03
1.878246e+05 6.822865e+04 -6.191346e+03
-1.123193e+05 -1.256580e+05 -5.000000e+04
2.690693e+05 1.249263e+05 -3.838989e+03
2.514828e+05 1.145458e+05 -4.928848e+03
2.682168e+05 1.212231e+05 0.000000e+00
2.525295e+05 1.311451e+05 0.000000e+00
2.683189e+05 1.381751e+05 0.000000e+00
2.816252e+05 1.295324e+05 -5.163004e+03
-3.332608e+04 -9.041891e+04 -5.000000e+04
2.207524e+05 1.166363e+05 0.000000e+00
2.369789e+05 1.099996e+05 -3.850443e+03
2.362416e+05 1.062652e+05 0.000000e+00
2.203712e+05 9.939637e+04 -5.231112e+03
2.061772e+05 9.314986e+04 -4.224020e+03
2.045103e+05 1.088571e+05 0.000000e+00
2.806085e+05 1.110127e+05 -6.645076e+03
2.474428e+05 9.955058e+04 -8.936582e+03
2.338579e+05 9.278631e+04 -8.176577e+03
2.633350e+05 1.090556e+05 -7.853042e+03
2.193810e+05 8.641330e+04 -8.933701e+03
2.797834e+05 8.205224e+04 -1.827902e+04
2.660786e+05 9.042068e+04 -1.212068e+04
2.365419e+05 1.236662e+05 0.000000e+00
-4.731257e+04 -1.722447e+04 -4.390493e+03
-4.937988e+04 -2.645080e+03 0.000000e+00
-6.516935e+04 -9.675006e+03 0.000000e+00
-5.139133e+04 -1.981867e+04 0.000000e+00
-6.738936e+04 -4.463074e+04 -8.503321e+03
-5.306873e+04 -3.274739e+04 -8.521850e+03
-6.490557e+04 -2.732131e+04 -6.091737e+03
1.085236e+05 6.765717e+04 0.000000e+00
9.299168e+04 -3.420897e+04 -5.000000e+04
1.401200e+05 8.150702e+04 0.000000e+00
2.842105e+05 5.034103e+04 -5.000000e+04
1.406824e+04 -6.922497e+04 -5.000000e+04
2.985489e+04 -6.220321e+04 -5.000000e+04
-9.659441e+04 -1.185941e+05 -5.000000e+04
-2.115917e+04 -4.717243e+03 -4.725715e+03
-3.358623e+04 4.380653e+03 0.000000e+00
-1.980404e+04 -5.767210e+03 0.000000e+00
-1.779676e+04 1.141058e+04 0.000000e+00
1.604139e+04 1.133067e+04 -3.851101e+03
1.178082e+04 8.293039e+03 0.000000e+00
-4.790082e+04 -4.966880e+04 -1.388371e+04
-3.467585e+04 -1.451727e+04 -6.119887e+03
1.378514e+04 2.547063e+04 0.000000e+00
-2.004329e+03 1.844070e+04 0.000000e+00
-1.651771e+03 2.132720e+03 -3.843604e+03
4.536568e+04 3.953207e+04 0.000000e+00
1.746606e+05 -4.000867e+02 -3.267842e+04
-7.823114e+04 -3.200143e+04 -4.152743e+03
-9.675224e+04 -2.371885e+04 0.000000e+00
-9.826382e+04 -4.115318e+04 -4.450732e+03
-8.297816e+04 -3.384651e+04 0.000000e+00
-1.145534e+05 -4.782161e+04 0.000000e+00
-1.125398e+05 -3.070640e+04 0.000000e+00
-8.482140e+04 -5.208527e+04 -6.588103e+03
-8.096276e+04 -1.668892e+04 0.000000e+00
-1.761947e+05 -1.028116e+05 -1.305990e+04
1.375361e+04 -7.338106e+03 -8.378675e+03
2.488186e+04 -6.980517e+04 -4.106583e+04
-1.256871e+05 -5.391429e+04 -6.008768e+03
-1.360485e+05 -4.655347e+04 -2.796722e+03
-1.434685e+05 -6.216664e+04 -5.049465e+03
-1.460864e+05 -6.170250e+04 0.000000e+00
-1.498698e+05 -4.913930e+04 -2.055270e+03
-1.283293e+05 -3.773633e+04 0.000000e+00
-1.440959e+05 -4.467677e+04 0.000000e+00
-1.035500e+05 -6.048158e+04 -8.577593e+03
-8.922367e+04 -6.826487e+04 -1.422289e+04
-8.080493e+04 -1.115641e+05 -5.000000e+04
-1.274012e+05 -7.121883e+04 -6.756349e+03
-1.356927e+05 -8.292344e+04 -1.407240e+04
-1.396885e+05 -7.145908e+04 -1.015859e+04
-1.721234e+03 -7.625490e+04 -5.000000e+04
-6.690497e+04 -3.767843e+04 -2.207602e+03
-1.575420e+05 -6.772919e+04 -6.991526e+03
-1.634612e+05 -5.996302e+04 -2.746976e+03
-1.686759e+05 -7.451178e+04 -6.107929e+03
-1.775137e+05 -7.546141e+04 0.000000e+00
-1.769481e+05 -6.497019e+04 -2.693560e+03
-2.858423e+05 -1.970119e+05 -3.747077e+04
-1.598853e+05 -5.170670e+04 0.000000e+00
-1.755990e+05 -5.858615e+04 0.000000e+00
-1.522486e+05 -7.776937e+04 -8.127697e+03
-2.851182e+05 -1.591423e+05 -1.800706e+04
-2.692020e+05 -1.680057e+05 -2.378849e+04
-2.652623e+05 -1.470050e+05 -1.301784e+04
-2.880185e+05 -1.439502e+05 -9.486573e+03
-1.878728e+05 -7.129279e+04 -3.177629e+03
-1.913884e+05 -6.561608e+04 0.000000e+00
-1.993613e+05 -7.976787e+04 -3.357165e+03
-2.087379e+05 -8.914020e+04 0.000000e+00
-2.070005e+05 -7.245548e+04 0.000000e+00
2.840250e+05 9.714218e+04 -1.414290e+04
1.226533e+05 4.713335e+04 -2.260943e+03
-2.691487e+05 -1.956167e+05 -5.000000e+04
-2.849382e+05 -2.026467e+05 -5.000000e+04
-1.958899e+05 -9.464563e+04 -8.074550e+03
-1.981304e+05 -1.091023e+05 -7.361305e+03
-2.116655e+05 -9.340098e+04 -6.174525e+03
-2.227900e+05 -7.948540e+04 0.000000e+00
-2.277916e+05 -9.559442e+04 -4.088842e+03
-2.396603e+05 -1.028908e+05 0.000000e+00
-2.382512e+05 -8.636070e+04 0.000000e+00
-1.806483e+05 -8.652991e+04 -7.148194e+03
-1.638092e+05 -8.703052e+04 -8.235431e+03
-2.164623e+05 -1.068602e+05 -5.707503e+03
-2.396170e+05 -1.045223e+05 -4.542359e+03
-2.328311e+05 -1.150303e+05 -6.920968e+03
-2.540407e+05 -9.339063e+04 0.000000e+00
-2.549542e+05 -1.101016e+05 -3.643052e+03
-2.701875e+05 -1.169539e+05 0.000000e+00
-2.693043e+05 -1.004222e+05 0.000000e+00
-2.471548e+05 -1.265103e+05 -6.042693e+03
-2.888634e+05 -1.208438e+05 -4.350479e+03
-2.781607e+05 -1.298172e+05 -6.399742e+03
-2.770466e+05 -1.147915e+05 -3.126095e+03
-2.610914e+05 -1.251232e+05 -7.258535e+03
-2.850937e+05 -1.074521e+05 0.000000e+00
-2.797406e+04 -7.538326e+04 -3.402914e+04
-2.516381e+05 -1.516520e+05 -1.845145e+04
-2.427296e+05 -1.554797e+05 -2.521015e+04
-2.465511e+05 -1.428840e+05 -1.534073e+04
7.694493e+04 5.359396e+04 0.000000e+00
-1.336548e+05 -1.468190e+05 -4.304904e+04
-1.753661e+04 -8.338898e+04 -5.000000e+04
-3.612233e+04 -2.342026e+04 -2.290382e+03
-1.182644e+05 -3.835823e+04 -2.476902e+03
-2.541475e+05 -1.626108e+05 -1.173436e+04
1.436089e+05 4.978785e+04 -3.411324e+03
-1.383833e+05 -1.238268e+05 -4.264382e+04
-1.465875e+05 -1.224327e+05 -4.254637e+04
-1.394606e+05 -1.178859e+05 -3.956094e+04
-1.144114e+05 -1.072724e+05 -4.028297e+04
-1.052733e+05 -1.067213e+05 -4.254243e+04
-1.104922e+05 -1.144424e+05 -4.112619e+04
-1.741475e+05 -1.180869e+05 -3.298266e+04
-1.809533e+05 -1.195558e+05 -3.111455e+04
-1.852625e+05 -1.138468e+05 -2.610465e+04
-1.773560e+05 -1.121590e+05 -2.754627e+04
-1.778871e+05 -1.277433e+05 -3.440899e+04
-1.703869e+05 -1.266761e+05 -3.680554e+04
-1.685127e+05 -1.330868e+05 -4.359835e+04
-1.737422e+05 -1.378230e+05 -4.212523e+04
-1.488273e+05 -1.156162e+05 -3.598125e+04
-1.432330e+05 -1.107109e+05 -3.677289e+04
-1.449426e+05 -1.034340e+05 -3.238977e+04
-1.517921e+05 -1.066967e+05 -3.093748e+04
-1.571958e+05 -9.894806e+04 -2.722770e+04
-1.497508e+05 -9.821652e+04 -2.829064e+04
-1.312148e+05 -1.140896e+05 -4.052194e+04
-1.309130e+05 -1.220260e+05 -4.295197e+04
-1.212999e+05 -1.206283e+05 -4.208870e+04
-1.220021e+05 -1.117734e+05 -3.882194e+04
-1.594092e+05 -9.318789e+04 -2.485548e+04
-1.525128e+05 -9.282430e+04 -2.282549e+04
-1.838606e+05 -1.128828e+05 -1.798387e+04
1.172313e+05 4.040696e+03 -3.754362e+04
1.094761e+05 5.806360e+03 -3.423149e+04
1.090619e+05 1.286592e+04 -3.088322e+04
1.165968e+05 1.188919e+04 -3.305790e+04
1.092589e+05 -2.349813e+03 -3.726670e+04
1.162213e+05 -4.564761e+03 -4.003638e+04
1.174971e+05 -1.138152e+04 -4.484340e+04
1.092005e+05 -1.028098e+04 -4.252267e+04
2.715925e+05 5.334906e+04 -4.441338e+04
2.659865e+05 5.915763e+04 -4.359340e+04
2.748935e+05 5.918728e+04 -4.250542e+04
-8.946285e+04 -8.947913e+04 -3.834082e+04
-8.228272e+04 -8.751590e+04 -3.888038e+04
-7.677069e+04 -9.159822e+04 -4.261612e+04
-8.301257e+04 -9.463430e+04 -4.218832e+04
-8.649386e+04 -8.228041e+04 -3.369183e+04
-9.447459e+04 -8.364537e+04 -3.248820e+04
-1.002274e+05 -7.686180e+04 -2.879241e+04
-9.294771e+04 -7.517675e+04 -2.842105e+04
-1.023100e+05 -7.169731e+04 -2.111982e+04
-1.294241e+05 -8.642463e+04 -2.583839e+04
-1.252615e+05 -7.770683e+04 -2.423428e+04
-1.211693e+05 -8.488440e+04 -2.643283e+04
-2.161480e+05 -1.085478e+05 -1.935927e+04
-2.237109e+05 -1.087666e+05 -1.684068e+04
-2.201133e+05 -1.175169e+05 -2.123133e+04
-2.305174e+05 -1.138017e+05 -1.777705e+04
-2.389173e+05 -1.152731e+05 -1.506258e+04
-2.340026e+05 -1.213266e+05 -1.954610e+04
-2.242097e+05 -1.245365e+05 -2.498125e+04
-2.315850e+05 -1.268115e+05 -2.439651e+04
-2.259554e+05 -1.329769e+05 -2.913257e+04
-2.271672e+05 -1.184117e+05 -2.166278e+04
-1.978215e+05 -1.200105e+05 -2.945918e+04
-1.917512e+05 -1.226140e+05 -3.222231e+04
-1.944501e+05 -1.263765e+05 -3.497266e+04
-2.006340e+05 -1.264488e+05 -3.169832e+04
-1.882887e+05 -1.190705e+05 -2.883383e+04
-1.951405e+05 -1.157517e+05 -2.600908e+04
-1.911357e+05 -1.095482e+05 -2.399540e+04
-2.307224e+05 -1.383039e+05 -3.157583e+04
-2.344642e+05 -1.335085e+05 -2.636254e+04
-2.196378e+05 -1.373160e+05 -3.322582e+04
-2.247527e+05 -1.415410e+05 -3.381744e+04
-2.190473e+05 -1.471371e+05 -3.647549e+04
-2.131771e+05 -1.424573e+05 -3.552768e+04
-2.073346e+05 -1.462475e+05 -4.084907e+04
-2.111114e+05 -1.513940e+05 -4.126577e+04
-1.960356e+05 -1.320757e+05 -3.551285e+04
-2.012875e+05 -1.530131e+05 -4.196424e+04
-2.061975e+05 -1.591191e+05 -5.000000e+04
1.822573e+05 4.955701e+04 -2.570485e+04
1.800091e+05 3.966012e+04 -3.244335e+04
1.783789e+05 4.123842e+04 -2.325326e+04
2.326625e+05 6.915461e+04 -2.884465e+04
2.338214e+05 7.760323e+04 -2.580744e+04
2.407783e+05 7.044746e+04 -2.849364e+04
1.864942e+05 4.421325e+04 -3.134887e+04
2.109766e+05 3.299967e+04 -4.318325e+04
2.021915e+05 3.539764e+04 -3.939008e+04
2.087293e+05 4.198353e+04 -3.704631e+04
1.956567e+05 4.162966e+04 -3.483308e+04
1.920961e+05 4.904652e+04 -2.998744e+04
2.088864e+05 5.096482e+04 -3.419962e+04
1.995597e+05 5.240705e+04 -2.889654e+04
2.079658e+05 5.803941e+04 -2.972906e+04
2.019355e+05 4.634580e+04 -3.305148e+04
2.024149e+05 6.299618e+04 -2.604146e+04
2.105287e+05 6.539792e+04 -2.509197e+04
2.450210e+05 4.687473e+04 -4.378109e+04
2.446694e+05 4.123125e+04 -5.000000e+04
2.431979e+05 3.783340e+04 -4.252732e+04
2.179935e+05 7.024867e+04 -2.584155e+04
2.166213e+05 6.227647e+04 -2.929232e+04
2.246432e+05 6.420339e+04 -2.870763e+04
2.260889e+05 7.297264e+04 -2.476263e+04
2.423147e+05 7.975505e+04 -2.380047e+04
2.338279e+05 6.042539e+04 -3.194203e+04
2.356189e+05 5.348866e+04 -3.722014e+04
2.354679e+05 4.385627e+04 -4.182342e+04
2.263423e+05 4.866624e+04 -3.541286e+04
2.182945e+05 5.482117e+04 -3.307929e+04
2.260132e+05 5.820833e+04 -3.423533e+04
1.125404e+03 -4.280672e+04 -3.456023e+04
-7.192130e+03 -4.617558e+04 -3.396914e+04
-1.623900e+04 -4.299315e+04 -2.961572e+04
-6.296964e+03 -3.995328e+04 -3.049059e+04
-1.822692e+02 -5.139407e+04 -3.715512e+04
9.343908e+03 -4.833842e+04 -3.745988e+04
1.988256e+04 -5.250270e+04 -4.372734e+04
9.775279e+03 -5.475408e+04 -4.213162e+04
3.372537e+04 -3.702261e+04 -3.837879e+04
4.157085e+04 -3.468989e+04 -3.820359e+04
5.113760e+04 -3.883586e+04 -4.373519e+04
4.161759e+04 -4.067517e+04 -4.255542e+04
3.535341e+04 -3.016487e+04 -3.070564e+04
2.604435e+04 -3.349414e+04 -3.215315e+04
1.613855e+04 -2.836773e+04 -2.863465e+04
2.484406e+04 -2.587500e+04 -2.809862e+04
4.650639e+04 -4.663175e+04 -5.000000e+04
1.749253e+04 -3.668597e+04 -3.328497e+04
3.541616e+04 -4.459564e+04 -4.297136e+04
1.794264e+04 -4.443977e+04 -3.913387e+04
2.831457e+04 -4.903537e+04 -4.224025e+04
2.621358e+04 -4.149039e+04 -3.710029e+04
3.111096e+04 -2.052152e+04 -2.805688e+04
4.077271e+04 -1.944785e+04 -2.848294e+04
4.870418e+04 -1.486801e+04 -3.093452e+04
4.992931e+04 -2.236290e+04 -3.486287e+04
5.069301e+04 -3.108227e+04 -3.872087e+04
4.212979e+04 -2.679546e+04 -3.403948e+04
5.542532e+04 -1.277241e+04 -2.395452e+04
4.718892e+04 -8.373523e+03 -2.303318e+04
2.912817e+04 -1.253181e+04 -2.526021e+04
2.225818e+04 -1.743032e+04 -2.432018e+04
3.692289e+04 -1.258109e+04 -2.442025e+04
-1.409929e+05 -1.298188e+05 -4.224907e+04
-1.351070e+05 -1.275686e+05 -5.000000e+04
-1.430061e+05 -1.311358e+05 -5.000000e+04
-1.666903e+05 -1.416807e+05 -5.000000e+04
5.768573e+04 -3.431351e+04 -4.403477e+04
5.673441e+04 -1.738889e+04 -3.451132e+04
6.459268e+04 -3.090579e+04 -4.183408e+04
6.283172e+04 -2.240157e+04 -3.750665e+04
7.186264e+04 -2.623777e+04 -4.161112e+04
5.596248e+04 -2.603182e+04 -3.910607e+04
2.367265e+05 3.754760e+04 -5.000000e+04
2.670127e+05 6.518611e+04 -3.760035e+04
2.743461e+05 6.710097e+04 -4.021750e+04
2.769121e+05 7.358390e+04 -3.650885e+04
2.685030e+05 7.373721e+04 -3.292267e+04
2.672573e+05 8.261036e+04 -2.770394e+04
2.759403e+05 8.220313e+04 -3.100545e+04
-3.323580e+04 -4.186603e+04 -2.666670e+04
-3.312688e+04 -4.881390e+04 -3.014587e+04
-3.857071e+04 -5.200114e+04 -3.013835e+04
-3.918215e+04 -4.612394e+04 -2.695478e+04
-2.548118e+04 -4.733670e+04 -2.929202e+04
-2.482436e+04 -3.924538e+04 -2.467580e+04
-1.630612e+04 -3.374388e+04 -2.440836e+04
-9.268478e+03 -4.056616e+04 -2.226752e+04
-1.466021e+04 -5.243619e+04 -3.407938e+04
3.377701e+03 -5.870570e+04 -4.291788e+04
-1.476184e+04 -5.947911e+04 -3.954377e+04
-3.804980e+03 -6.328045e+04 -4.232438e+04
-1.271797e+04 -6.712485e+04 -4.320429e+04
-6.850928e+03 -5.695224e+04 -3.826965e+04
-1.353211e+03 -2.818874e+04 -2.632868e+04
8.926250e+02 -3.558058e+04 -3.008577e+04
-7.332922e+03 -3.305108e+04 -2.644940e+04
8.441956e+03 -3.271678e+04 -2.866527e+04
6.597365e+03 -2.506343e+04 -2.483779e+04
1.337750e+04 -2.024695e+04 -2.551695e+04
1.391563e+05 2.476903e+04 -3.159240e+04
1.396229e+05 1.652649e+04 -3.442026e+04
1.318212e+05 1.922572e+04 -3.004971e+04
1.401506e+05 1.085033e+04 -3.960263e+04
1.410443e+05 1.918650e+03 -4.291212e+04
1.329827e+05 6.423312e+03 -3.837097e+04
1.235680e+05 1.660821e+04 -3.084568e+04
1.250424e+05 1.012263e+04 -3.599915e+04
1.317852e+05 1.373361e+04 -3.593601e+04
1.474743e+05 1.196753e+04 -4.028211e+04
1.478246e+05 6.593380e+03 -4.459786e+04
1.478827e+05 1.833867e+04 -3.506689e+04
1.470535e+05 2.606468e+04 -3.104437e+04
1.494004e+05 -1.491364e+03 -5.000000e+04
1.096537e+05 -1.857477e+04 -5.000000e+04
-7.325034e+04 -9.838455e+04 -4.268764e+04
-1.198577e+05 -1.015563e+05 -3.675018e+04
-1.119396e+05 -1.000134e+05 -3.745121e+04
-1.155554e+05 -9.295686e+04 -3.168369e+04
-1.241866e+05 -9.490616e+04 -3.043212e+04
2.108663e+05 2.350064e+04 -4.373669e+04
2.050081e+05 2.311743e+04 -5.000000e+04
2.028410e+05 2.613569e+04 -4.208813e+04
2.763158e+05 1.502637e+05 0.000000e+00
2.842105e+05 1.537786e+05 0.000000e+00
2.839850e+05 1.473640e+05 -3.535613e+03
2.921053e+05 1.572936e+05 0.000000e+00
2.908951e+05 1.419131e+05 -6.731164e+03
2.909911e+05 1.508408e+05 -4.385670e+03
-6.686885e+04 -6.594327e+04 -2.455049e+04
-6.356516e+04 -6.691348e+04 -3.268466e+04
-7.052251e+04 -7.023821e+04 -2.968064e+04
-5.557958e+04 -8.983359e+04 -4.583458e+04
-6.060067e+04 -8.618330e+04 -4.295745e+04
-5.504528e+04 -8.186855e+04 -4.364255e+04
-5.273014e+04 -8.628022e+04 -4.399577e+04
-6.882119e+04 -8.990200e+04 -4.134272e+04
-6.188979e+04 -9.357714e+04 -4.342955e+04
5.439677e+04 -4.313087e+04 -5.000000e+04
-2.628860e+05 -1.778427e+05 -4.119702e+04
-2.625756e+05 -1.694004e+05 -3.809267e+04
-2.533640e+05 -1.739115e+05 -4.034594e+04
-2.603362e+05 -1.619880e+05 -3.496906e+04
-2.614073e+05 -1.523263e+05 -2.939234e+04
-2.536515e+05 -1.568185e+05 -3.400756e+04
-2.453446e+05 -1.709487e+05 -4.309782e+04
-2.459489e+05 -1.622962e+05 -3.728991e+04
-2.371724e+05 -1.678701e+05 -4.208932e+04
-2.528028e+05 -1.655398e+05 -3.846344e+04
-2.611705e+05 -1.835756e+05 -5.000000e+04
-2.694101e+05 -1.834249e+05 -4.076624e+04
1.169499e+05 1.544148e+04 -2.700163e+04
1.097891e+05 1.965570e+04 -2.375608e+04
7.767747e+04 1.143733e+03 -2.797390e+04
7.938227e+04 9.337602e+03 -2.490568e+04
8.499034e+04 1.716335e+03 -2.804340e+04
1.175730e+05 -1.520810e+04 -5.000000e+04
-4.025701e+04 -5.156654e+04 -2.263193e+04
-4.335850e+04 -5.702232e+04 -2.844971e+04
-4.608947e+04 -8.149526e+04 -4.236562e+04
-6.407557e+04 -9.593702e+04 -5.000000e+04
-7.197030e+04 -9.945198e+04 -5.000000e+04
-5.618083e+04 -9.242205e+04 -5.000000e+04
-4.828609e+04 -8.890709e+04 -5.000000e+04
-7.325503e+04 -6.166400e+04 -2.697190e+04
-6.553024e+04 -6.096608e+04 -2.835322e+04
-1.068940e+05 -7.935882e+04 -2.698631e+04
-1.109620e+05 -7.292849e+04 -2.386931e+04
-1.183980e+05 -7.578481e+04 -2.301712e+04
-1.140454e+05 -8.131978e+04 -2.738546e+04
-5.778565e+04 -7.286319e+04 -3.396967e+04
-6.592306e+04 -7.430881e+04 -3.590953e+04
-5.948186e+04 -7.918807e+04 -3.839238e+04
-5.195243e+04 -7.563883e+04 -4.012356e+04
2.533267e+05 5.121372e+04 -4.277144e+04
2.525641e+05 4.474621e+04 -5.000000e+04
2.604588e+05 4.826117e+04 -5.000000e+04
2.604049e+05 5.487611e+04 -4.411289e+04
2.683536e+05 5.177614e+04 -5.000000e+04
-2.907971e+05 -1.694156e+05 -2.744675e+04
-2.839021e+05 -1.714805e+05 -3.251677e+04
-2.874281e+05 -1.757414e+05 -3.546794e+04
-2.941178e+05 -1.737329e+05 -3.164156e+04
-2.802381e+05 -1.801454e+05 -3.760807e+04
-2.764667e+05 -1.767998e+05 -3.430706e+04
-2.709132e+05 -1.759985e+05 -3.665312e+04
1.725007e+05 8.897609e+04 -7.649865e+03
1.803513e+05 8.982656e+04 -8.576631e+03
1.813866e+05 8.299870e+04 -1.252640e+04
1.736912e+05 8.090494e+04 -1.088831e+04
1.808723e+05 9.761337e+04 -4.731617e+03
1.723689e+05 9.642778e+04 -3.711411e+03
1.729189e+05 1.039001e+05 0.000000e+00
1.812025e+05 1.073873e+05 0.000000e+00
1.412484e+05 2.672700e+04 -2.406045e+04
1.731214e+05 3.597947e+04 -2.910954e+04
2.034891e+05 6.909625e+04 -2.217269e+04
1.715750e+05 4.186133e+04 -2.557269e+04
1.714556e+05 4.732915e+04 -2.043980e+04
2.130423e+05 2.700271e+04 -5.000000e+04
1.873309e+05 3.668842e+04 -3.582249e+04
1.944197e+05 3.218373e+04 -3.760096e+04
2.014707e+05 3.268846e+04 -3.282757e+04
1.798007e+05 3.063524e+04 -3.539268e+04
1.710526e+05 3.100811e+04 -3.477187e+04
1.698087e+05 2.346492e+04 -3.819229e+04
1.775061e+05 2.261868e+04 -3.869773e+04
1.800548e+05 1.574453e+04 -4.433474e+04
1.713262e+05 1.582296e+04 -4.325998e+04
-1.746146e+05 -1.453160e+05 -5.000000e+04
-1.794943e+05 -1.419580e+05 -4.381100e+04
-1.702134e+05 -1.456726e+05 -4.551216e+04
1.813239e+05 1.257254e+04 -5.000000e+04
1.730846e+05 9.053526e+03 -5.000000e+04
-2.453810e+05 -1.765457e+05 -5.000000e+04
-2.374863e+05 -1.730307e+05 -5.000000e+04
-2.532758e+05 -1.800606e+05 -5.000000e+04
-2.313560e+05 -1.633549e+05 -4.329127e+04
-2.298817e+05 -1.696640e+05 -5.000000e+04
-1.982988e+05 -1.558609e+05 -5.000000e+04
4.678495e+04 2.679404e+04 -1.002160e+04
3.706876e+04 2.858479e+04 -7.142966e+03
3.905302e+04 2.151047e+04 -1.131589e+04
3.132903e+04 3.510273e+04 -3.756376e+03
2.268284e+04 3.757518e+04 0.000000e+00
2.273340e+04 2.787035e+04 -4.715768e+03
3.180752e+04 1.840191e+04 -1.048671e+04
2.249650e+04 2.027111e+04 -8.255351e+03
2.382203e+04 1.363047e+04 -1.159829e+04
2.936601e+04 2.601330e+04 -7.115983e+03
5.383228e+04 2.959773e+04 -1.145719e+04
6.157474e+04 3.207522e+04 -1.049729e+04
5.451198e+04 3.629007e+04 -7.223162e+03
6.914157e+04 3.481995e+04 -1.177823e+04
7.819018e+04 3.689334e+04 -1.040286e+04
6.885384e+04 4.120863e+04 -7.810293e+03
5.342329e+04 4.459717e+04 -4.774140e+03
6.258358e+04 4.658946e+04 -3.985504e+03
5.426194e+04 5.163606e+04 0.000000e+00
6.099067e+04 3.948614e+04 -8.292445e+03
-1.153670e+04 -9.848125e+03 -1.284013e+04
-9.649204e+03 -1.910503e+04 -1.743922e+04
-5.447790e+02 -1.268597e+04 -1.648522e+04
-9.294124e+03 -2.606637e+04 -2.253536e+04
6.317854e+03 -1.675096e+04 -2.239568e+04
-9.732672e+02 -2.128469e+04 -2.093831e+04
3.783191e+04 1.390085e+04 -1.415315e+04
4.481278e+04 1.822412e+04 -1.326107e+04
3.043831e+04 9.751799e+03 -1.341616e+04
2.224347e+04 6.420199e+03 -1.465881e+04
-1.952388e+04 -1.135765e+04 -1.380467e+04
-2.728862e+04 -1.668903e+04 -1.448725e+04
-1.854150e+04 -1.983740e+04 -1.659590e+04
-3.523698e+04 -1.841833e+04 -1.464329e+04
-4.336303e+04 -2.373507e+04 -1.392627e+04
-3.329286e+04 -2.575018e+04 -1.754568e+04
-1.740670e+04 -2.642214e+04 -2.186165e+04
-2.474420e+04 -2.956341e+04 -1.975736e+04
-2.613740e+04 -2.206125e+04 -1.881147e+04
2.084771e+04 -2.523537e+04 -2.082451e+04
2.210037e+04 -8.374705e+03 -2.006160e+04
3.679252e+04 -4.550966e+03 -2.113674e+04
2.077634e+04 -8.500995e+02 -1.746763e+04
2.913490e+04 1.631095e+02 -1.747175e+04
2.893346e+04 -5.775124e+03 -2.270843e+04
7.937474e+04 -1.541570e+04 -3.736565e+04
8.597396e+04 -1.549443e+04 -3.928865e+04
8.749881e+04 -2.199461e+04 -4.429238e+04
8.134293e+04 -2.419429e+04 -4.123309e+04
8.683950e+04 -8.503492e+03 -3.328652e+04
7.988369e+04 -7.545751e+03 -3.085379e+04
9.256436e+04 1.580005e+04 -2.609981e+04
9.337650e+04 7.156819e+03 -2.861258e+04
8.697916e+04 1.055752e+04 -2.679316e+04
1.021166e+05 8.367345e+03 -2.881396e+04
9.988382e+04 1.588585e+04 -2.481805e+04
9.728028e+03 -4.064622e+04 -3.308234e+04
7.771141e+04 1.591877e+04 -2.223542e+04
8.511467e+04 1.738078e+04 -2.325084e+04
8.535605e+04 2.348430e+04 -1.828386e+04
7.721439e+04 2.242363e+04 -1.741761e+04
7.672422e+04 3.049354e+04 -1.528162e+04
8.437981e+04 3.224186e+04 -1.430614e+04
1.008016e+05 2.486136e+04 -2.069880e+04
9.379320e+04 2.907091e+04 -1.655779e+04
9.177491e+04 2.222202e+04 -2.265730e+04
9.368766e+04 4.649412e+04 -1.097511e+04
9.210394e+04 3.796275e+04 -1.400405e+04
8.663361e+04 4.132062e+04 -1.144814e+04
9.969917e+04 4.030736e+04 -1.355825e+04
1.020416e+05 4.852200e+04 -1.061688e+04
1.107928e+05 5.474800e+04 -1.022466e+04
1.076499e+05 4.538341e+04 -1.363288e+04
8.696212e+04 4.936899e+04 -6.865460e+03
1.016282e+05 5.645971e+04 -7.229258e+03
8.523125e+04 5.849681e+04 -4.792154e+03
9.459337e+04 6.104271e+04 -3.801133e+03
8.584076e+04 6.569759e+04 0.000000e+00
9.316464e+04 5.348034e+04 -8.045145e+03
1.322282e+05 2.574118e+04 -2.623097e+04
1.252867e+05 2.143418e+04 -2.481794e+04
5.355369e+04 2.058388e+04 -1.184775e+04
6.199952e+04 1.536297e+04 -1.666928e+04
6.245909e+04 2.481577e+04 -1.309627e+04
7.031287e+04 1.108905e+04 -1.986474e+04
7.017993e+04 2.654776e+04 -1.379836e+04
6.948219e+04 2.002026e+04 -1.868672e+04
1.261489e+05 2.949841e+04 -2.321471e+04
1.179427e+05 2.405155e+04 -2.499306e+04
1.340834e+05 3.276213e+04 -2.447616e+04
1.422194e+05 3.691305e+04 -2.359970e+04
6.275793e+04 7.588986e+02 -2.585233e+04
6.504458e+04 -7.403380e+03 -3.075498e+04
5.764221e+04 -1.144671e+04 -3.097832e+04
5.652539e+04 -4.520729e+03 -2.609878e+04
7.154884e+04 -3.863553e+03 -2.838557e+04
7.121486e+04 3.489760e+03 -2.480424e+04
7.808098e+04 -3.258598e+04 -5.000000e+04
1.166424e+05 3.071439e+04 -2.199384e+04
1.165777e+05 3.802570e+04 -1.770678e+04
1.153667e+05 4.700792e+04 -1.363604e+04
1.249195e+05 4.510465e+04 -1.723900e+04
1.324797e+05 4.051998e+04 -1.934405e+04
1.237292e+05 3.657858e+04 -2.067010e+04
1.188466e+05 5.565821e+04 -1.183198e+04
1.262529e+05 6.101900e+04 -1.105303e+04
1.184490e+05 6.371643e+04 -7.077997e+03
1.341231e+05 6.277039e+04 -1.200858e+04
1.426882e+05 6.569169e+04 -1.085196e+04
1.326563e+05 6.983961e+04 -7.812937e+03
1.168051e+05 7.253246e+04 -4.789715e+03
1.261497e+05 7.472621e+04 -3.908896e+03
1.174284e+05 7.965244e+04 0.000000e+00
1.247417e+05 6.750954e+04 -8.198289e+03
1.622587e+05 1.820861e+04 -3.784469e+04
1.562318e+05 2.479895e+04 -3.423091e+04
1.548599e+05 3.146591e+04 -3.018866e+04
1.628798e+05 3.273118e+04 -2.951755e+04
1.639360e+05 2.809479e+04 -3.529064e+04
1.931910e+05 2.513567e+04 -4.014117e+04
1.866391e+05 2.033540e+04 -4.277940e+04
1.867220e+05 2.977994e+04 -4.004252e+04
1.412572e+05 -4.663214e+03 -5.000000e+04
1.236655e+05 5.239406e+04 -1.433228e+04
1.308926e+05 5.475778e+04 -1.408900e+04
1.383818e+05 5.958882e+04 -1.386500e+04
1.323196e+05 5.781571e+04 -9.083919e+03
1.087156e+05 2.920065e+04 -2.181343e+04
1.081561e+05 3.664155e+04 -1.668296e+04
1.311780e+05 -2.033835e+03 -4.103726e+04
1.233547e+05 -5.322139e+03 -4.255556e+04
1.242868e+05 2.430306e+03 -4.030295e+04
1.333624e+05 -8.178177e+03 -5.000000e+04
1.254677e+05 -1.169314e+04 -5.000000e+04
9.513791e+04 -3.039596e+03 -3.194762e+04
1.005313e+05 -7.849282e+03 -3.891171e+04
1.023617e+05 8.144536e+02 -3.439692e+04
1.548413e+05 4.435042e+04 -2.536319e+04
1.560482e+05 3.758330e+04 -2.595278e+04
1.488848e+05 3.196529e+04 -2.628432e+04
1.490725e+05 3.960650e+04 -2.583509e+04
1.647894e+05 3.814931e+04 -2.396700e+04
1.618101e+05 4.437433e+04 -2.291434e+04
1.401353e+05 4.430805e+04 -2.205093e+04
1.474234e+05 4.558374e+04 -2.294707e+04
1.467400e+05 5.167843e+04 -1.864948e+04
1.391993e+05 5.104688e+04 -1.724588e+04
1.447253e+05 5.836900e+04 -1.547325e+04
1.492347e+05 9.335519e+04 0.000000e+00
1.575208e+05 9.061406e+04 -3.608804e+03
1.571294e+05 9.687015e+04 0.000000e+00
1.650629e+05 8.508424e+04 -5.922399e+03
1.650242e+05 1.003851e+05 0.000000e+00
1.644670e+05 9.425962e+04 -4.338695e+03
1.886821e+05 5.631536e+04 -2.592713e+04
1.973378e+05 5.869470e+04 -2.554323e+04
1.572208e+05 6.356727e+04 -1.603171e+04
1.529134e+05 5.739151e+04 -1.683755e+04
1.500711e+05 6.644326e+04 -1.292793e+04
1.602620e+05 5.167476e+04 -1.802479e+04
1.654282e+05 5.896131e+04 -1.790004e+04
1.735618e+05 5.477273e+04 -2.219679e+04
1.723832e+05 6.261273e+04 -1.932189e+04
1.802425e+05 5.937168e+04 -2.206525e+04
1.806613e+05 6.624335e+04 -1.701391e+04
1.734314e+05 7.069304e+04 -1.436147e+04
1.811481e+05 7.510545e+04 -1.263243e+04
-1.272123e+05 -1.240537e+05 -5.000000e+04
-1.193176e+05 -1.205387e+05 -5.000000e+04
-1.114228e+05 -1.170238e+05 -5.000000e+04
2.678134e+05 1.252320e+05 -1.015776e+04
2.600268e+05 1.201622e+05 -1.117014e+04
2.590204e+05 1.282844e+05 -5.736273e+03
2.527041e+05 1.168460e+05 -1.025312e+04
2.445522e+05 1.117584e+05 -1.161992e+04
2.432270e+05 1.186389e+05 -8.152135e+03
2.506630e+05 1.325709e+05 -3.898833e+03
2.437832e+05 1.263203e+05 -4.695673e+03
2.446858e+05 1.361062e+05 0.000000e+00
2.503686e+05 1.245428e+05 -6.915067e+03
2.668512e+05 1.320916e+05 -7.282623e+03
2.744287e+05 1.333063e+05 -8.262203e+03
2.746188e+05 1.275362e+05 -1.167839e+04
2.753470e+05 1.404692e+05 -4.786804e+03
2.670332e+05 1.391790e+05 -3.718610e+03
2.683700e+05 1.466511e+05 0.000000e+00
-4.034725e+04 -8.534434e+04 -5.000000e+04
2.130078e+05 1.218218e+05 0.000000e+00
2.191494e+05 1.181386e+05 -3.993800e+03
2.124167e+05 1.118503e+05 -4.730456e+03
2.265724e+05 1.126461e+05 -6.662541e+03
2.373679e+05 1.094512e+05 -1.051281e+04
2.286756e+05 1.053659e+05 -1.149833e+04
2.120545e+05 1.040710e+05 -8.344668e+03
2.215932e+05 1.021778e+05 -1.075806e+04
2.133964e+05 9.777069e+04 -1.180186e+04
2.188574e+05 1.100551e+05 -7.166206e+03
2.061948e+05 9.393523e+04 -1.097545e+04
1.965056e+05 9.898448e+04 -5.981007e+03
2.041123e+05 1.028133e+05 -7.616568e+03
1.891789e+05 1.046717e+05 -3.563907e+03
1.890973e+05 1.109023e+05 0.000000e+00
2.041112e+05 1.104970e+05 -3.712233e+03
1.969920e+05 1.144173e+05 0.000000e+00
2.048867e+05 1.179322e+05 0.000000e+00
1.960884e+05 1.083109e+05 -4.332061e+03
2.742690e+05 1.187324e+05 -1.206369e+04
2.423703e+05 9.758518e+04 -1.887586e+04
2.355667e+05 9.477162e+04 -1.715181e+04
2.338236e+05 1.024211e+05 -1.317980e+04
2.415928e+05 1.033549e+05 -1.476150e+04
2.351168e+05 8.514379e+04 -2.046044e+04
2.431708e+05 8.959671e+04 -1.961533e+04
2.585045e+05 1.124465e+05 -1.392971e+04
2.655836e+05 1.167164e+05 -1.318840e+04
2.510538e+05 1.079603e+05 -1.334526e+04
2.266146e+05 9.619565e+04 -1.431289e+04
2.270297e+05 8.157199e+04 -2.241192e+04
2.188535e+05 9.497107e+04 -1.412705e+04
2.208058e+05 8.681565e+04 -1.691835e+04
2.125357e+05 9.084549e+04 -1.479261e+04
2.282547e+05 8.936264e+04 -1.827200e+04
2.681958e+05 9.208765e+04 -2.293915e+04
2.743704e+05 8.803990e+04 -2.689789e+04
2.500549e+05 9.864298e+04 -1.735535e+04
2.580859e+05 9.447171e+04 -2.099353e+04
2.599204e+05 8.663880e+04 -2.518901e+04
2.523854e+05 8.370614e+04 -2.375109e+04
2.501712e+05 9.210626e+04 -2.233059e+04
2.578810e+05 7.692564e+04 -2.971222e+04
2.586155e+05 6.121175e+04 -3.753549e+04
2.488366e+05 7.542187e+04 -2.856100e+04
2.503402e+05 6.622396e+04 -3.323570e+04
2.594079e+05 7.053437e+04 -3.422693e+04
2.348155e+05 1.176461e+05 -7.228583e+03
2.358691e+05 1.255277e+05 -3.443259e+03
2.366920e+05 1.323667e+05 0.000000e+00
-4.779508e+04 -1.600491e+04 -1.067731e+04
-4.899718e+04 -9.194355e+03 -7.561095e+03
-5.670299e+04 -1.301483e+04 -5.987988e+03
-4.906302e+04 -1.741347e+03 -3.777827e+03
-4.837415e+04 5.941718e+03 0.000000e+00
-5.626889e+04 2.426754e+03 0.000000e+00
-6.392238e+04 -7.521301e+03 -3.625236e+03
-6.416362e+04 -1.088209e+03 0.000000e+00
-7.205836e+04 -4.603172e+03 0.000000e+00
-5.694004e+04 -4.015726e+03 -4.375875e+03
-5.795712e+04 -2.955825e+04 -1.468413e+04
-5.626817e+04 -2.147762e+04 -1.164442e+04
-5.089003e+04 -2.496302e+04 -1.400628e+04
-6.394835e+04 -2.508787e+04 -1.097618e+04
-6.552742e+04 -3.457465e+04 -1.398157e+04
-7.535135e+04 -3.973439e+04 -1.370872e+04
-7.214269e+04 -3.056298e+04 -1.230018e+04
-4.086952e+04 -3.178427e+04 -1.880334e+04
-4.114509e+04 -4.004425e+04 -2.293999e+04
-3.287796e+04 -3.501986e+04 -2.101986e+04
6.449999e+04 -1.425228e+04 -3.483210e+04
7.195356e+04 -1.948276e+04 -3.689416e+04
7.315949e+04 -1.223400e+04 -3.229736e+04
1.642987e+05 1.056569e+04 -4.429702e+04
1.553741e+05 8.531600e+03 -4.310906e+04
1.544081e+05 1.701113e+04 -3.872233e+04
2.202628e+05 3.716951e+04 -4.135929e+04
2.270853e+05 4.204754e+04 -4.289132e+04
2.170600e+05 4.624617e+04 -3.672403e+04
1.953269e+05 6.491601e+04 -2.158803e+04
1.891941e+05 6.863448e+04 -1.613010e+04
1.870996e+05 6.331146e+04 -2.246384e+04
2.108080e+05 7.378100e+04 -2.120752e+04
2.111758e+05 8.216653e+04 -1.577193e+04
2.193956e+05 7.760594e+04 -2.051522e+04
5.346177e+04 1.239648e+04 -1.796045e+04
4.560257e+04 1.098055e+04 -1.619466e+04
4.618472e+04 2.018397e+03 -1.839461e+04
5.521321e+04 3.242363e+03 -2.018220e+04
6.151329e+04 7.938897e+03 -2.258547e+04
1.101626e+05 6.295626e+04 -5.669236e+03
1.094046e+05 7.068733e+04 -3.392294e+03
1.095250e+05 7.624248e+04 0.000000e+00
1.970960e+05 9.026365e+04 -1.214695e+04
1.891106e+05 8.743872e+04 -1.117318e+04
1.875828e+05 9.586293e+04 -7.196282e+03
8.596953e+04 -2.911966e+04 -5.000000e+04
1.580237e+05 7.250050e+04 -1.116473e+04
1.657936e+05 7.635349e+04 -1.213686e+04
1.655795e+05 6.754752e+04 -1.321890e+04
1.405086e+05 7.598841e+04 -7.180279e+03
1.253231e+05 8.316740e+04 0.000000e+00
1.410636e+05 8.426795e+04 -3.692612e+03
1.332179e+05 8.668236e+04 0.000000e+00
1.411126e+05 9.019732e+04 0.000000e+00
1.342149e+05 7.891071e+04 -4.402236e+03
1.960148e+05 7.401470e+04 -1.922360e+04
1.888791e+05 7.759929e+04 -1.436072e+04
2.029621e+05 7.678928e+04 -1.923867e+04
2.033918e+05 8.463663e+04 -1.510936e+04
1.964538e+05 8.174681e+04 -1.340508e+04
1.488066e+05 7.489708e+04 -8.750899e+03
1.492401e+05 8.306159e+04 -5.274665e+03
1.563550e+05 8.140205e+04 -7.181483e+03
2.232978e+05 9.509209e+04 -9.988805e+03
2.763158e+05 5.533490e+04 -5.000000e+04
1.319211e+05 4.871481e+04 -1.881392e+04
1.572951e+05 2.023600e+03 -5.000000e+04
1.651898e+05 5.538563e+03 -5.000000e+04
1.646043e+05 2.463670e+03 -4.564723e+04
1.492886e+04 -6.068752e+04 -5.000000e+04
2.209025e+05 1.253368e+05 0.000000e+00
2.287972e+05 1.288517e+05 0.000000e+00
2.275290e+05 1.208937e+05 -3.659368e+03
3.861165e+04 -5.014671e+04 -5.000000e+04
3.071692e+04 -5.366167e+04 -5.000000e+04
2.282218e+04 -5.717664e+04 -5.000000e+04
-1.035604e+05 -1.134918e+05 -5.000000e+04
-1.850667e+04 -3.174698e+03 -1.112000e+04
-2.566669e+04 2.049848e+00 -8.087545e+03
-1.713148e+04 4.473810e+03 -6.519399e+03
-3.160348e+04 5.824993e+03 -3.682663e+03
-4.047733e+04 9.454584e+03 0.000000e+00
-3.258259e+04 1.296955e+04 0.000000e+00
-1.625620e+04 1.388534e+04 -3.578576e+03
-2.468785e+04 1.648451e+04 0.000000e+00
-1.679312e+04 1.999947e+04 0.000000e+00
-2.394338e+04 8.644519e+03 -4.486885e+03
1.016302e+05 7.272751e+04 0.000000e+00
9.373550e+04 6.921255e+04 0.000000e+00
1.022146e+05 6.610770e+04 -4.308606e+03
1.535502e+05 5.046072e+04 -2.146178e+04
-7.371615e+04 -2.287157e+04 -9.150880e+03
-7.234290e+04 -1.391554e+04 -5.482666e+03
-6.573701e+04 -1.672455e+04 -7.397478e+03
1.649863e+04 1.143331e+04 -1.030397e+04
-4.982268e+04 -3.193905e+04 -1.720328e+04
-4.889133e+04 -3.983464e+04 -1.931260e+04
-4.738242e+04 -4.759595e+04 -2.455096e+04
-4.108153e+04 -3.992649e+04 -1.622126e+04
-4.121259e+04 -8.577645e+03 -8.669231e+03
-4.005803e+04 -1.539774e+04 -1.217354e+04
-4.071806e+04 -7.323269e+02 -4.882661e+03
-2.506461e+04 -7.675205e+03 -1.176336e+04
-3.204199e+04 -1.082949e+04 -1.097424e+04
-3.142953e+04 -1.804503e+04 -1.035910e+04
1.468776e+04 1.914750e+04 -7.454624e+03
7.200993e+03 1.527254e+04 -6.035510e+03
1.430816e+04 2.655207e+04 -3.744087e+03
1.478731e+04 3.405943e+04 0.000000e+00
6.892572e+03 3.054446e+04 0.000000e+00
-1.078826e+03 1.958493e+04 -3.969617e+03
-1.002164e+03 2.702950e+04 0.000000e+00
-8.896901e+03 2.351454e+04 0.000000e+00
6.451284e+03 2.408775e+04 -4.385346e+03
-9.828669e+03 -4.931033e+02 -9.793834e+03
4.656709e+04 3.489929e+04 -5.923371e+03
4.618612e+04 4.255897e+04 -3.385579e+03
4.636705e+04 4.812007e+04 0.000000e+00
3.847231e+04 4.460511e+04 0.000000e+00
3.057758e+04 4.109015e+04 0.000000e+00
3.956387e+04 3.712361e+04 -4.723310e+03
3.826502e+04 3.243289e+04 -3.002646e+03
-9.515488e+04 -2.110710e+04 -3.416199e+03
-1.030272e+05 -2.517432e+04 -3.260654e+03
-1.115331e+05 -2.214880e+04 0.000000e+00
-1.036393e+05 -1.865502e+04 0.000000e+00
-9.635785e+04 -3.030222e+04 -5.539248e+03
-8.813548e+04 -2.721642e+04 -5.121203e+03
-7.970951e+04 -3.075161e+04 -1.018683e+04
-8.923586e+04 -3.626875e+04 -1.052639e+04
-8.410375e+04 -4.225995e+04 -1.194055e+04
-8.060470e+04 -1.425215e+04 -3.648990e+03
-7.995507e+04 -8.110132e+03 0.000000e+00
-8.037788e+04 -2.222352e+04 -5.561979e+03
-7.254646e+04 -2.262327e+04 -5.324612e+03
-1.595839e+05 -1.321460e+05 -4.262759e+04
-1.587955e+05 -1.381657e+05 -5.000000e+04
-1.509008e+05 -1.346508e+05 -5.000000e+04
-1.519650e+05 -1.278086e+05 -4.359572e+04
-1.790480e+05 -1.036385e+05 -2.175053e+04
-1.914522e+05 -1.478380e+05 -4.258558e+04
-1.904041e+05 -1.523459e+05 -5.000000e+04
-1.825093e+05 -1.488309e+05 -5.000000e+04
-1.857263e+05 -1.431825e+05 -4.481516e+04
1.487949e+04 2.476291e+03 -1.339727e+04
2.120893e+04 -6.021012e+04 -4.547536e+04
-1.385072e+05 -4.570636e+04 -6.649602e+03
-1.460694e+05 -4.777066e+04 -5.990206e+03
-1.489605e+05 -4.319331e+04 -3.801655e+03
-1.419706e+05 -4.223875e+04 -4.514090e+03
-1.434991e+05 -5.296173e+04 -7.322653e+03
-1.354651e+05 -5.093132e+04 -8.105877e+03
-1.316112e+05 -5.492739e+04 -1.205951e+04
-1.409368e+05 -5.925636e+04 -1.075886e+04
-1.371195e+05 -3.416628e+04 -1.797759e+03
-1.431709e+05 -3.710656e+04 -1.377094e+03
-1.431006e+05 -3.616391e+04 0.000000e+00
-1.352173e+05 -3.269369e+04 0.000000e+00
-1.468875e+05 -4.062510e+04 -2.143599e+03
-1.391881e+05 -3.876820e+04 -2.801390e+03
-9.810934e+04 -5.441789e+04 -1.792662e+04
-9.219952e+04 -5.960522e+04 -1.969317e+04
-9.371357e+04 -6.794227e+04 -2.349055e+04
-1.011212e+05 -6.231058e+04 -2.008635e+04
-8.898433e+04 -5.205256e+04 -1.537724e+04
-9.530247e+04 -4.598725e+04 -1.311375e+04
-3.219287e+02 4.967768e+03 -1.011384e+04
-8.546150e+03 9.354030e+03 -5.801126e+03
8.430329e+03 6.835052e+03 -1.127535e+04
-9.191445e+03 1.735031e+04 -4.327224e+03
-1.740825e+03 1.189987e+04 -7.666090e+03
-3.324674e+04 -3.116071e+03 -6.921844e+03
-7.817560e+04 -7.102760e+04 -3.074838e+04
-7.956627e+04 -6.389075e+04 -2.607295e+04
-8.619510e+04 -6.589908e+04 -2.388922e+04
-8.466727e+04 -7.360249e+04 -2.884695e+04
-9.661798e+04 -1.032470e+05 -4.149072e+04
-9.566562e+04 -1.099768e+05 -5.000000e+04
-8.777089e+04 -1.064618e+05 -5.000000e+04
-8.956417e+04 -9.888795e+04 -4.270260e+04
-7.987615e+04 -1.029469e+05 -5.000000e+04
-1.323688e+05 -6.268114e+04 -1.193993e+04
-7.724832e+04 -5.587068e+04 -2.341557e+04
-6.981189e+04 -5.485162e+04 -2.431603e+04
-7.215903e+04 -4.883223e+04 -1.907114e+04
-7.997211e+04 -4.959863e+04 -1.697475e+04
-3.024511e+03 -4.241037e+03 -1.314934e+04
5.314694e+03 -2.315601e+03 -1.328930e+04
7.030252e+03 1.794717e+03 -7.894397e+03
1.441573e+05 7.959292e+04 -2.984822e+03
2.419806e+05 6.357479e+04 -3.413495e+04
2.438708e+05 5.474224e+04 -3.784038e+04
2.506043e+05 5.949833e+04 -3.953458e+04
6.229150e+04 -3.961591e+04 -5.000000e+04
7.018624e+04 -3.610094e+04 -5.000000e+04
-6.633016e+04 -4.313703e+04 -1.837601e+04
-5.740868e+04 -4.695879e+04 -2.115306e+04
-5.793960e+04 -3.829744e+04 -1.691113e+04
-5.052338e+04 -6.039154e+04 -3.149925e+04
-5.280410e+04 -5.344156e+04 -2.647774e+04
-5.957450e+04 -5.657218e+04 -2.597518e+04
-5.730458e+04 -6.422703e+04 -3.048428e+04
-1.301017e+05 -6.677100e+04 -1.688573e+04
-1.370426e+05 -6.826242e+04 -1.654915e+04
-1.393341e+05 -6.340909e+04 -1.449264e+04
-1.347554e+05 -7.408742e+04 -1.880369e+04
-1.271824e+05 -7.281287e+04 -1.952087e+04
-1.320652e+05 -7.947512e+04 -2.281641e+04
1.027167e+05 -1.460793e+04 -4.443234e+04
9.488089e+04 -1.702927e+04 -4.317676e+04
9.256038e+04 -1.018978e+04 -3.916243e+04
7.034120e+03 -6.420248e+04 -5.000000e+04
-8.606169e+02 -6.771744e+04 -5.000000e+04
-8.755354e+03 -7.123241e+04 -5.000000e+04
-7.286222e+04 -3.430732e+04 -8.524106e+03
-1.661975e+05 -6.007992e+04 -7.757866e+03
-1.731281e+05 -6.219607e+04 -6.846740e+03
-1.764351e+05 -5.733930e+04 -4.595265e+03
-1.689852e+05 -5.575243e+04 -4.905363e+03
-1.703162e+05 -6.754503e+04 -8.618310e+03
-1.628010e+05 -6.500271e+04 -9.636953e+03
-1.608387e+05 -6.962277e+04 -1.361372e+04
-1.668811e+05 -7.310546e+04 -1.271711e+04
-2.928977e+05 -1.820880e+05 -3.575564e+04
-2.784130e+05 -1.873539e+05 -4.176001e+04
-2.940834e+05 -1.881843e+05 -4.009873e+04
-2.868156e+05 -1.888358e+05 -4.300879e+04
-2.927418e+05 -1.941481e+05 -4.431702e+04
-2.865594e+05 -1.820137e+05 -4.041669e+04
-1.670927e+05 -4.776861e+04 -1.720454e+03
-1.744301e+05 -5.146180e+04 -1.422631e+03
-1.746416e+05 -5.014853e+04 0.000000e+00
-1.667848e+05 -4.670880e+04 0.000000e+00
-1.755346e+05 -5.509901e+04 -2.699096e+03
-1.679890e+05 -5.212470e+04 -2.804057e+03
-1.585334e+05 -7.532916e+04 -1.397059e+04
-1.486424e+05 -7.746583e+04 -1.669091e+04
-1.520260e+05 -7.120666e+04 -1.536137e+04
-1.408689e+05 -7.958522e+04 -2.082362e+04
-1.447555e+05 -6.824113e+04 -1.423168e+04
-1.419955e+05 -7.326275e+04 -1.787887e+04
-1.364381e+05 -8.982963e+04 -2.793969e+04
-1.373960e+05 -8.426148e+04 -2.395318e+04
-1.440776e+05 -8.800762e+04 -2.298958e+04
-1.425767e+05 -9.470560e+04 -2.734482e+04
-2.923393e+05 -1.593964e+05 -2.754353e+04
-2.855702e+05 -1.639924e+05 -3.018854e+04
-2.830940e+05 -1.551233e+05 -2.541113e+04
-2.771072e+05 -1.676065e+05 -3.209338e+04
-2.687058e+05 -1.706122e+05 -3.744526e+04
-2.687753e+05 -1.623455e+05 -3.190778e+04
-2.746598e+05 -1.505041e+05 -2.547703e+04
-2.675375e+05 -1.539022e+05 -2.964263e+04
-2.646754e+05 -1.430806e+05 -2.279826e+04
-2.769054e+05 -1.582450e+05 -3.008661e+04
-2.929490e+05 -1.527653e+05 -2.318205e+04
-2.925111e+05 -1.461817e+05 -1.850260e+04
-2.940579e+05 -1.369244e+05 -1.511342e+04
-2.857103e+05 -1.368278e+05 -1.655472e+04
-2.770461e+05 -1.409414e+05 -1.795647e+04
-2.857162e+05 -1.457254e+05 -2.094013e+04
-1.971172e+05 -6.200758e+04 -1.663328e+03
-2.053771e+05 -6.528737e+04 -1.474976e+03
-2.061318e+05 -6.411311e+04 0.000000e+00
-1.983258e+05 -6.069342e+04 0.000000e+00
-2.034677e+05 -6.875207e+04 -2.899602e+03
-1.957361e+05 -6.571295e+04 -3.148328e+03
-1.943790e+05 -6.803601e+04 -5.665245e+03
-2.006004e+05 -7.212577e+04 -5.502635e+03
2.836893e+05 1.296643e+05 -1.024643e+04
2.904008e+05 1.348211e+05 -1.199781e+04
2.819050e+05 1.385903e+05 -7.109164e+03
2.740438e+05 1.108616e+05 -1.789446e+04
2.662204e+05 1.095803e+05 -1.622325e+04
2.668194e+05 1.010158e+05 -1.846613e+04
2.756152e+05 1.023742e+05 -1.988811e+04
2.762285e+05 9.498794e+04 -2.461627e+04
2.847424e+05 7.938638e+04 -3.545775e+04
2.827340e+05 8.759720e+04 -3.187353e+04
2.913033e+05 7.561695e+04 -4.157365e+04
2.917591e+05 8.934704e+04 -3.162818e+04
2.926824e+05 8.191390e+04 -3.655040e+04
2.386762e+05 1.021149e+05 -8.855668e+03
1.005206e+05 3.410087e+04 -1.858401e+04
1.173470e+05 5.086386e+04 -8.481988e+03
1.423421e+04 -1.306024e+04 -2.076212e+04
1.356936e+04 -4.769197e+03 -1.807383e+04
7.129243e+03 -9.404617e+03 -1.824326e+04
-2.845743e+05 -1.941827e+05 -5.000000e+04
-2.924691e+05 -1.976976e+05 -5.000000e+04
-2.766796e+05 -1.906677e+05 -5.000000e+04
-2.687849e+05 -1.871527e+05 -5.000000e+04
9.386426e+04 -2.560470e+04 -5.000000e+04
1.017590e+05 -2.208974e+04 -5.000000e+04
1.022763e+05 -1.941709e+04 -4.185843e+04
-1.140537e+05 -6.898200e+04 -1.944453e+04
-1.105637e+05 -6.192027e+04 -1.716712e+04
-1.212546e+05 -5.759881e+04 -1.312894e+04
-1.215492e+05 -6.653847e+04 -1.462860e+04
-1.890779e+05 -9.735464e+04 -1.698575e+04
-1.907629e+05 -1.056086e+05 -1.712211e+04
-2.242009e+05 -8.128047e+04 -5.293318e+03
-2.321677e+05 -8.276018e+04 -3.928406e+03
-2.375467e+05 -7.809565e+04 0.000000e+00
-2.298161e+05 -7.465800e+04 0.000000e+00
-2.283492e+05 -8.954836e+04 -6.784382e+03
-2.194586e+05 -8.926042e+04 -8.350412e+03
-2.149554e+05 -9.558911e+04 -1.346829e+04
-2.225436e+05 -9.642233e+04 -1.171235e+04
-1.912176e+05 -7.664596e+04 -8.562420e+03
-1.976765e+05 -8.024211e+04 -9.933961e+03
-1.958169e+05 -8.889043e+04 -1.317641e+04
-1.882486e+05 -8.622708e+04 -1.274703e+04
-1.824220e+05 -9.452903e+04 -1.861630e+04
-1.784203e+05 -8.645348e+04 -1.610280e+04
-1.754517e+05 -9.453949e+04 -1.938178e+04
-1.692757e+05 -8.833112e+04 -1.590033e+04
-1.720391e+05 -8.071446e+04 -1.381488e+04
-1.651598e+05 -7.991372e+04 -1.461712e+04
-2.174017e+05 -1.029700e+05 -1.341653e+04
-2.373934e+05 -1.021430e+05 -1.142878e+04
-2.329479e+05 -1.093466e+05 -1.289225e+04
-2.412103e+05 -1.103200e+05 -1.240859e+04
-2.438643e+05 -1.046731e+05 -1.041358e+04
-2.284248e+05 -1.053008e+05 -1.032735e+04
-2.305446e+05 -9.917190e+04 -1.078890e+04
-2.557832e+05 -9.255721e+04 -3.905464e+03
-2.626198e+05 -9.664070e+04 -3.880051e+03
-2.688627e+05 -9.215633e+04 0.000000e+00
-2.612309e+05 -8.864054e+04 0.000000e+00
-2.576047e+05 -1.020294e+05 -5.655155e+03
-2.501167e+05 -9.902555e+04 -6.341104e+03
-2.521610e+05 -1.071278e+05 -9.364253e+03
-2.478958e+05 -1.154919e+05 -1.086168e+04
-2.785561e+05 -1.200788e+05 -1.087712e+04
-2.833449e+05 -1.154402e+05 -9.380873e+03
-2.778388e+05 -1.135336e+05 -7.794576e+03
-2.690045e+05 -1.095909e+05 -7.759867e+03
-2.708950e+05 -1.175005e+05 -1.080712e+04
-2.638478e+05 -1.178710e+05 -1.039422e+04
-2.612148e+05 -1.098638e+05 -7.246848e+03
-2.554417e+05 -1.143130e+05 -1.188142e+04
-2.721024e+05 -1.003412e+05 -3.136011e+03
-2.767574e+05 -9.567129e+04 0.000000e+00
-2.755293e+05 -1.063468e+05 -5.504953e+03
-2.820468e+05 -1.083426e+05 -6.106036e+03
-2.846521e+05 -9.918625e+04 0.000000e+00
-2.852476e+05 -1.045812e+05 -3.291181e+03
-2.925469e+05 -1.027012e+05 0.000000e+00
-2.790375e+05 -1.014572e+05 -3.555355e+03
2.835114e+05 1.126354e+05 -1.599339e+04
2.844990e+05 9.890499e+04 -2.337888e+04
2.903361e+05 1.086167e+05 -2.187351e+04
2.920815e+05 1.019234e+05 -2.526054e+04
2.822612e+05 1.064181e+05 -2.219299e+04
-1.560480e+05 -7.975917e+04 -1.886372e+04
-1.616194e+05 -8.345612e+04 -1.765373e+04
-1.612407e+05 -8.972860e+04 -2.015472e+04
-1.538537e+05 -8.564119e+04 -1.943645e+04
-1.627637e+05 -1.040244e+05 -2.844604e+04
-1.646084e+05 -9.642572e+04 -2.473666e+04
-1.708347e+05 -1.000246e+05 -2.288024e+04
-1.700929e+05 -1.077482e+05 -2.590341e+04
-2.068506e+05 -9.736311e+04 -1.330469e+04
-2.081177e+05 -1.031238e+05 -1.600113e+04
-2.016064e+05 -1.057781e+05 -1.509206e+04
-1.980039e+05 -9.793442e+04 -1.623280e+04
-3.104618e+04 -5.641951e+04 -3.078421e+04
-3.691503e+04 -6.033013e+04 -3.434255e+04
-3.106573e+04 -6.587509e+04 -3.815062e+04
-2.317386e+04 -6.227800e+04 -3.626999e+04
-2.211660e+04 -6.889841e+04 -4.216305e+04
-2.964133e+05 -1.499216e+05 -1.420196e+04
1.892186e+05 1.608750e+04 -5.000000e+04
1.971134e+05 1.960246e+04 -5.000000e+04
1.951717e+05 1.844526e+04 -4.025024e+04
-2.846273e+05 -1.270760e+05 -1.142178e+04
-2.732495e+05 -1.272572e+05 -1.394498e+04
-2.903311e+05 -1.304673e+05 -1.361100e+04
-2.696189e+05 -1.340596e+05 -1.962136e+04
-2.801795e+05 -1.314852e+05 -1.643752e+04
-1.995963e+05 -1.100699e+05 -2.159197e+04
-2.050589e+05 -1.208467e+05 -2.645301e+04
-2.086039e+05 -1.083086e+05 -1.923335e+04
-2.102192e+05 -1.144586e+05 -2.285694e+04
-2.030254e+05 -1.144728e+05 -2.509009e+04
-2.530955e+05 -1.489043e+05 -2.942071e+04
-2.574440e+05 -1.491373e+05 -2.640398e+04
-2.544142e+05 -1.424166e+05 -2.403865e+04
-2.396203e+05 -1.269581e+05 -2.272483e+04
-2.432986e+05 -1.222079e+05 -1.685144e+04
-1.875629e+05 -1.306529e+05 -3.622151e+04
-1.913691e+05 -1.348598e+05 -3.955869e+04
-1.854068e+05 -1.377248e+05 -4.160499e+04
-1.804245e+05 -1.341539e+05 -3.977529e+04
7.820604e+04 4.823749e+04 -5.921211e+03
7.779506e+04 5.648709e+04 -3.414990e+03
7.794615e+04 6.218095e+04 0.000000e+00
-2.471209e+05 -1.521133e+05 -3.380924e+04
-2.392269e+05 -1.585555e+05 -3.724748e+04
-2.622909e+05 -1.669453e+05 -2.989345e+04
-2.647539e+05 -1.035104e+05 -6.910391e+03
-1.381893e+05 -1.344106e+05 -4.596571e+04
-1.666304e+04 -7.479945e+04 -5.000000e+04
-2.940055e+05 -1.244268e+05 -1.169796e+04
-2.887918e+05 -1.206000e+05 -9.264860e+03
-1.361146e+05 -1.070575e+05 -3.479107e+04
-1.332701e+05 -9.672678e+04 -3.084377e+04
-1.275864e+05 -1.047813e+05 -3.456736e+04
-1.050791e+05 -9.526001e+04 -3.545739e+04
-1.027611e+05 -8.536483e+04 -3.215229e+04
-9.657730e+04 -9.289635e+04 -3.631465e+04
-1.657769e+05 -1.162911e+05 -3.110525e+04
-1.562286e+05 -1.207994e+05 -3.821912e+04
-1.639154e+05 -1.225872e+05 -3.854879e+04
-4.154916e+04 -1.959361e+04 -8.792840e+03
-3.547175e+04 -7.717844e+04 -4.269657e+04
-3.245252e+04 -8.182937e+04 -5.000000e+04
-2.455778e+04 -7.831441e+04 -5.000000e+04
-2.819525e+04 -7.281495e+04 -4.345561e+04
2.209371e+05 3.051767e+04 -5.000000e+04
2.288318e+05 3.403263e+04 -5.000000e+04
7.005141e+04 5.866598e+04 0.000000e+00
6.215667e+04 5.515102e+04 0.000000e+00
7.081856e+04 5.082363e+04 -4.360413e+03
-2.050938e+05 -8.236109e+04 -8.277259e+03
-2.102937e+05 -7.350399e+04 -4.209908e+03
-2.110848e+05 -8.913154e+04 -1.099980e+04
-2.194518e+05 -7.347495e+04 -2.451495e+03
-2.149482e+05 -8.179414e+04 -5.938104e+03
-2.165134e+05 -1.316679e+05 -2.784445e+04
-2.083203e+05 -1.296926e+05 -3.010558e+04
-2.024932e+05 -1.336334e+05 -3.483767e+04
-2.041976e+05 -1.409829e+05 -3.610163e+04
-2.111768e+05 -1.358982e+05 -3.429453e+04
-1.625916e+05 -5.142492e+04 -4.761324e+03
-1.585657e+05 -5.714751e+04 -6.409381e+03
-1.550126e+05 -4.823821e+04 -4.447976e+03
-1.505221e+05 -5.855084e+04 -9.116273e+03
-1.512125e+05 -5.251898e+04 -6.560095e+03
3.761265e+04 4.985123e+03 -1.630176e+04
-2.881343e+05 -1.131553e+05 -5.932730e+03
-2.918384e+05 -1.084681e+05 -3.119486e+03
-1.823974e+05 -6.205245e+04 -5.042928e+03
-1.826039e+05 -5.820204e+04 -2.896858e+03
-1.896323e+05 -6.437309e+04 -5.102488e+03
-1.902549e+05 -5.851791e+04 -1.565471e+03
-1.893213e+05 -6.253759e+04 -2.902620e+03
-1.682519e+05 -9.295813e+04 -2.103225e+04
-2.219213e+05 -7.114304e+04 0.000000e+00
-2.140266e+05 -6.762808e+04 0.000000e+00
-2.118722e+05 -6.941732e+04 -1.874385e+03
-1.481444e+05 -6.361369e+04 -1.225251e+04
-1.549253e+05 -6.662096e+04 -1.195164e+04
-1.572933e+05 -6.111831e+04 -1.019742e+04
-1.099906e+05 -8.715024e+04 -3.212105e+04
-1.904311e+05 -5.717845e+04 0.000000e+00
-1.825363e+05 -5.366349e+04 0.000000e+00
-1.821050e+05 -5.485904e+04 -1.512499e+03
-1.209270e+05 -6.918980e+04 -2.069856e+04
-1.553791e+05 -4.360434e+04 -2.417240e+03
-1.622096e+05 -4.452599e+04 -1.270639e+03
-1.588900e+05 -4.319384e+04 0.000000e+00
-1.509953e+05 -3.967887e+04 0.000000e+00
-1.536341e+05 -4.004526e+04 -1.075456e+03
-1.609709e+05 -4.866714e+04 -2.629551e+03
-1.189175e+05 -3.220004e+04 -4.430823e+03
-1.222377e+05 -4.134855e+04 -7.635527e+03
-1.270435e+05 -3.622636e+04 -4.707225e+03
-1.271373e+05 -4.876300e+04 -1.011625e+04
-1.350061e+05 -3.923271e+04 -4.847394e+03
-1.307191e+05 -4.410581e+04 -6.507204e+03
-1.315006e+05 -3.074211e+04 -1.265548e+03
-1.256975e+05 -3.085471e+04 -2.442582e+03
-1.321959e+05 -3.527796e+04 -2.788137e+03
-8.784980e+04 -1.162509e+04 0.000000e+00
-9.574454e+04 -1.514006e+04 0.000000e+00
-8.786818e+04 -1.865309e+04 -4.365359e+03
2.818903e+05 1.218968e+05 -1.401103e+04
2.909767e+05 1.255248e+05 -1.309650e+04
2.583991e+05 1.036444e+05 -1.627445e+04
2.525805e+05 1.396211e+05 0.000000e+00
2.604753e+05 1.431361e+05 0.000000e+00
2.580167e+05 1.362853e+05 -3.573880e+03
-4.274917e+04 -6.590492e+04 -3.422207e+04
-4.548162e+04 -7.272742e+04 -3.930307e+04
-3.701508e+04 -7.016052e+04 -3.939950e+04
-2.386822e+05 -1.412160e+05 -2.819543e+04
-2.426909e+05 -1.335992e+05 -2.568069e+04
-2.487912e+05 -1.374585e+05 -2.424592e+04
-2.465425e+05 -1.443206e+05 -2.894205e+04
-1.846402e+05 -7.072490e+04 -7.433781e+03
-1.760759e+05 -7.357839e+04 -1.053552e+04
-1.828381e+05 -7.962178e+04 -1.193149e+04
-1.475396e+05 -8.218776e+04 -2.144607e+04
-2.297644e+05 -1.475651e+05 -3.434216e+04
-2.318805e+05 -1.552295e+05 -3.924738e+04
-2.384750e+05 -1.502045e+05 -3.313061e+04
-1.992848e+05 -1.450018e+05 -4.223867e+04
-1.971250e+05 -1.390566e+05 -3.916638e+04
-2.590124e+05 -1.514614e+05 -2.109180e+04
-2.140922e+05 -1.626340e+05 -5.000000e+04
-2.166014e+05 -1.560495e+05 -4.310209e+04
-2.234859e+05 -1.600885e+05 -4.267882e+04
-2.219869e+05 -1.661490e+05 -5.000000e+04
-2.660887e+05 -1.755081e+05 -3.226405e+04
-5.056107e+04 -6.854142e+04 -3.365197e+04
-6.469463e+04 -4.994457e+04 -2.359134e+04
-1.273226e+05 -2.917872e+04 0.000000e+00
-1.194278e+05 -2.566376e+04 0.000000e+00
-1.123612e+05 -2.443443e+04 -1.709496e+03
-1.153737e+05 -2.810512e+04 -2.728477e+03
-1.226444e+05 -2.662256e+04 -1.148028e+03
2.919024e+05 1.168447e+05 -1.770591e+04
2.839702e+05 6.402833e+04 -4.135948e+04
2.842105e+05 5.884986e+04 -5.000000e+04
2.921053e+05 6.236482e+04 -5.000000e+04
2.901912e+05 6.856457e+04 -4.463709e+04
2.843475e+05 7.167425e+04 -4.009196e+04
2.839817e+05 8.875952e+04 -2.487276e+04
2.907268e+05 9.466311e+04 -2.709361e+04
8.634535e+04 7.034378e+03 -2.101514e+04
-9.970916e+04 -3.704149e+04 -8.670201e+03
-1.074577e+05 -5.244466e+04 -1.197693e+04
-1.088529e+05 -3.399252e+04 -7.438833e+03
-1.112617e+05 -4.201723e+04 -9.695708e+03
-1.036617e+05 -4.484899e+04 -1.223138e+04
-2.456851e+04 -5.392817e+04 -3.456680e+04
-8.401313e+04 -5.771271e+04 -2.048405e+04
-7.296461e+04 -7.858064e+04 -3.373047e+04
-7.612376e+04 -8.463546e+04 -3.842646e+04
-8.075313e+04 -7.863257e+04 -3.491773e+04
-1.785469e+05 -6.639891e+04 -7.975821e+03
-2.029596e+05 -9.045487e+04 -1.249626e+04
-1.583364e+05 -1.118215e+05 -3.252926e+04
-1.910323e+05 -1.406949e+05 -4.210337e+04
-1.176329e+05 -4.928500e+04 -1.114352e+04
-1.057945e+05 -3.085183e+04 -5.053157e+03
-6.738601e+04 -8.300142e+04 -3.921920e+04
-2.543050e+05 -1.340773e+05 -1.886304e+04
-2.514774e+05 -1.239361e+05 -1.656564e+04
-2.470064e+05 -1.295686e+05 -2.008576e+04
-2.406672e+05 -9.618401e+04 -6.968869e+03
-2.388900e+05 -8.691809e+04 -4.524344e+03
-2.347895e+05 -9.273201e+04 -8.382235e+03
-2.583316e+05 -1.221565e+05 -1.535620e+04
-2.602560e+05 -1.314787e+05 -1.760329e+04
-2.236521e+05 -1.107035e+05 -1.034991e+04
-1.395587e+05 -9.986412e+04 -3.288185e+04
-2.139922e+05 -1.221003e+05 -2.622137e+04
-2.655239e+05 -1.266036e+05 -1.529650e+04
-2.936961e+05 -1.163822e+05 -7.444562e+03
-2.533361e+05 -8.512558e+04 0.000000e+00
-2.454414e+05 -8.161062e+04 0.000000e+00
-2.475128e+05 -9.023898e+04 -3.527040e+03
1.421062e+05 5.802273e+04 -9.762383e+03
-1.849120e+05 -1.234761e+05 -3.486497e+04
2.536585e+05 7.428980e+04 -2.240341e+04
-2.242504e+05 -1.524558e+05 -3.914919e+04
3.237668e+05 -2.502173e+05 -9.456567e+04
3.334349e+05 -2.420732e+05 -1.154541e+05
3.000000e+05 -2.666667e+05 -1.200000e+05
3.000000e+05 -2.333333e+05 -1.200000e+05
3.259994e+05 -2.764733e+05 -1.158349e+05
3.000000e+05 -2.802658e+05 -8.499268e+04
3.342137e+05 -2.192467e+05 -9.248708e+04
3.000000e+05 -2.156906e+05 -8.495487e+04
3.436873e+05 -2.374765e+05 -7.365577e+04
3.342104e+05 -2.713133e+05 -8.971798e+04
-3.233220e+05 2.531019e+05 -9.415470e+04
-3.250300e+05 2.739017e+05 -1.169950e+05
-3.000000e+05 2.799231e+05 -8.499380e+04
-3.000000e+05 2.666667e+05 -1.200000e+05
-3.436992e+05 2.369366e+05 -7.368243e+04
-3.000000e+05 2.142175e+05 -8.496173e+04
-3.336467e+05 2.735259e+05 -9.248262e+04
-3.504679e+05 2.444819e+05 -9.719642e+04
-3.342859e+05 2.182861e+05 -9.250755e+04
3.527757e+05 -1.212673e+04 -1.194726e+05
3.555518e+05 -2.071820e+04 -1.388030e+05
3.628862e+05 -5.501056e+04 -1.352950e+05
3.290032e+05 -4.306231e+04 -1.132668e+05
3.324299e+05 5.176876e+03 -1.152039e+05
3.285940e+05 -2.319454e+04 -9.454581e+04
3.638607e+05 1.185992e+04 -1.115475e+05
2.309867e+04 3.521213e+05 -1.176802e+05
5.377936e+04 3.313242e+05 -9.318133e+04
1.714301e+04 3.675274e+05 -9.979262e+04
1.659562e+04 3.312389e+05 -9.304704e+04
5.317561e+04 -3.599652e+05 -1.396398e+05
4.368283e+04 -3.687456e+05 -1.104351e+05
6.957925e+04 -4.000000e+05 -1.339359e+05
8.221320e+04 -3.702358e+05 -1.169656e+05
1.304288e+04 3.573493e+05 -1.401190e+05
5.217315e+04 3.598411e+05 -1.399520e+05
1.302879e+04 3.802449e+05 -1.221985e+05
-4.703165e+03 3.325417e+05 -1.168851e+05
-1.168423e+04 3.671088e+05 -1.111342e+05
3.232746e+05 -3.163470e+05 -9.509918e+04
3.000000e+05 -3.000000e+05 -1.200000e+05
3.022699e+05 -3.366782e+05 -9.461371e+04
3.000000e+05 -3.000000e+05 -8.500000e+04
-3.340252e+05 6.003835e+04 -7.337047e+04
-3.762687e+05 5.793057e+04 -8.918741e+04
-3.384285e+05 8.583131e+04 -9.459253e+04
-3.457462e+05 4.217848e+04 -9.344565e+04
3.477425e+05 -2.971277e+05 -9.572452e+04
3.336680e+05 -3.100185e+05 -1.166431e+05
3.103790e+05 -3.238396e+05 -7.083509e+04
3.367419e+05 -3.396347e+05 -8.567471e+04
3.108353e+05 -3.335492e+05 -1.153041e+05
3.362355e+05 -3.375334e+05 -1.226019e+05
3.658180e+05 -3.203366e+05 -1.131681e+05
3.452961e+05 -3.146313e+05 -7.814975e+04
3.507534e+05 -2.461349e+05 -9.877354e+04
3.671968e+05 -2.175278e+05 -1.112445e+05
3.570740e+05 -2.518545e+05 -1.201829e+05
-1.162160e+04 -3.520667e+05 -1.173338e+05
-1.818500e+04 -3.662971e+05 -9.793263e+04
-2.512162e+04 -3.284429e+05 -9.472034e+04
-3.932704e+04 -3.333721e+05 -1.169788e+05
-2.607071e+04 -3.803368e+05 -1.200780e+05
-4.596266e+04 -3.671085e+05 -1.111344e+05
-1.739112e+04 -3.598412e+05 -1.399520e+05
3.172574e+05 -1.204865e+05 -1.047306e+05
3.547268e+05 -1.235235e+05 -1.127203e+05
3.261967e+05 -1.032758e+05 -1.335500e+05
3.438282e+05 -9.945119e+04 -1.169378e+05
3.703582e+05 -9.470570e+04 -9.932093e+04
3.350302e+05 -1.039219e+05 -9.303559e+04
3.782030e+05 -1.197308e+05 -8.828783e+04
3.440162e+05 -1.349664e+05 -7.356780e+04
3.342372e+05 -1.511720e+05 -9.243894e+04
3.704868e+05 -1.507879e+05 -1.145869e+05
3.600237e+05 2.720495e+05 -8.092097e+04
3.740327e+05 3.034808e+05 -8.961602e+04
3.578421e+05 2.998402e+05 -7.277372e+04
4.000000e+05 2.783113e+05 -7.917237e+04
3.767900e+05 -1.205335e+05 -1.267205e+05
-5.084283e+04 -2.458081e+05 -1.398584e+05
-3.381459e+04 -2.752968e+05 -1.398597e+05
-1.679305e+04 -2.458055e+05 -1.398626e+05
-3.331984e+04 -2.422503e+05 -1.200000e+05
3.595859e+05 -1.216450e+05 -1.399505e+05
3.598664e+05 -1.565197e+05 -1.401866e+05
3.338090e+05 -1.411641e+05 -1.155423e+05
2.749502e+05 3.576249e+05 -9.269363e+04
2.838555e+05 3.278364e+05 -1.107127e+05
2.563901e+05 3.352940e+05 -9.298258e+04
2.526269e+05 3.671762e+05 -1.127041e+05
2.642558e+05 3.488507e+05 -7.157535e+04
2.848825e+05 3.214032e+05 -7.242355e+04
2.981009e+05 3.348813e+05 -9.324620e+04
2.939659e+05 3.645118e+05 -7.221082e+04
2.926751e+05 3.763171e+05 -9.038345e+04
-3.417041e+05 -1.063249e+05 -9.128871e+04
-3.496471e+05 -1.356918e+05 -9.021177e+04
-3.672605e+05 -1.146350e+05 -1.111182e+05
-3.339271e+05 -1.073821e+05 -1.155199e+05
-2.088189e+05 3.695536e+05 -1.600000e+05
-2.260870e+05 4.000000e+05 -1.600000e+05
-2.087170e+05 4.000000e+05 -1.339462e+05
-1.913043e+05 4.000000e+05 -1.600000e+05
-3.488204e+05 -1.053574e+05 -6.911609e+04
-3.338491e+05 -9.047498e+04 -7.101215e+04
-3.494580e+05 -8.592993e+04 -9.052838e+04
-3.223603e+05 -1.289905e+05 -9.614005e+04
-3.448484e+05 -1.391369e+05 -7.346878e+04
-3.334245e+05 -1.244676e+05 -7.145160e+04
-3.234253e+05 -9.372630e+04 -9.663697e+04
-3.479882e+04 -2.494068e+05 -1.600000e+05
-6.956985e+04 -2.493997e+05 -1.600000e+05
-5.219603e+04 -2.192940e+05 -1.600000e+05
-3.806955e+05 -5.229959e+04 -1.251223e+05
-3.664543e+05 -3.905968e+04 -1.239197e+05
-3.744969e+05 -2.528459e+04 -1.059311e+05
-3.774658e+05 -5.311201e+04 -9.810746e+04
-3.698750e+05 -6.956343e+04 -1.600000e+05
-3.600570e+05 -8.696081e+04 -1.420552e+05
-4.000000e+05 -6.957925e+04 -1.339359e+05
-4.000000e+05 -3.479686e+04 -1.339347e+05
-3.600683e+05 -5.217782e+04 -1.420561e+05
-4.000000e+05 -5.217391e+04 -1.600000e+05
-3.698776e+05 -3.478186e+04 -1.600000e+05
-3.498901e+05 -2.225224e+04 -1.187928e+05
-3.331821e+05 -5.777276e+03 -1.156163e+05
-3.660063e+05 -4.288186e+03 -8.916015e+04
-3.480488e+05 -2.803874e+04 -9.446848e+04
-3.575370e+05 -2.121720e+04 -1.415815e+05
-3.658332e+05 9.468457e+03 -1.110881e+05
-3.580875e+05 1.256198e+04 -1.397609e+05
-3.414811e+05 -4.756566e+04 -1.176329e+05
-3.209485e+05 -4.164568e+04 -1.090339e+05
-3.223410e+05 -3.379645e+04 -1.327887e+05
-3.397558e+05 -1.738937e+04 -1.600000e+05
-3.557836e+05 2.075230e+04 -9.196259e+04
-3.347786e+05 4.001861e+04 -1.150851e+05
-3.672720e+05 4.599341e+04 -1.111128e+05
-3.347737e+05 8.773498e+03 -9.287302e+04
-3.504517e+05 2.252107e+03 -6.922919e+04
-3.679272e+05 1.695308e+04 -6.735806e+04
-3.801582e+05 2.074166e+04 -9.468010e+04
3.769499e+05 -3.094670e+05 -7.414398e+04
3.499281e+05 -2.863601e+05 -7.224457e+04
3.247074e+05 -2.940427e+05 -8.276241e+04
3.500242e+05 -2.811262e+05 -1.139942e+05
3.669197e+05 -2.673132e+05 -9.988788e+04
3.750189e+05 -2.883510e+05 -1.109935e+05
3.791918e+05 2.503611e+05 -9.092973e+04
4.000000e+05 2.435061e+05 -7.917091e+04
3.644473e+05 2.571918e+05 -7.037880e+04
-1.744699e+04 -2.193027e+05 -1.600000e+05
-3.751783e+01 -2.494099e+05 -1.600000e+05
3.621604e+05 2.513689e+05 -1.066070e+05
3.316842e+05 2.581074e+05 -9.410959e+04
3.465560e+05 2.368221e+05 -7.493177e+04
3.768798e+05 2.224386e+05 -8.206795e+04
4.714111e+04 7.048555e+04 -1.395312e+05
3.344720e+04 7.023772e+04 -1.200000e+05
5.052085e+04 9.807891e+04 -1.200000e+05
1.724543e+04 9.798804e+04 -1.200000e+05
1.680187e+04 -2.457722e+05 -1.398696e+05
2.050318e+02 -2.162926e+05 -1.398602e+05
1.727156e+04 -2.192890e+05 -1.600000e+05
-3.665193e+05 2.532216e+05 -7.536859e+04
-3.736400e+05 2.640713e+05 -9.433267e+04
-3.792284e+05 2.420620e+05 -1.066137e+05
-3.794461e+05 2.205763e+05 -8.367020e+04
-3.337770e+05 2.426480e+05 -1.156937e+05
3.400198e+05 -2.799793e+05 -1.411576e+05
3.198600e+05 -2.639516e+05 -1.398440e+05
3.107503e+05 -2.793568e+05 -1.600000e+05
3.199619e+05 -2.981309e+05 -1.399753e+05
3.367816e+05 -3.151171e+05 -1.405529e+05
3.399731e+05 -2.962571e+05 -1.600000e+05
3.598922e+05 -2.961295e+05 -1.399718e+05
3.698801e+05 -2.783250e+05 -1.600000e+05
3.696897e+05 -3.138507e+05 -1.600000e+05
3.599789e+05 -2.610074e+05 -1.401642e+05
3.400324e+05 -2.611939e+05 -1.600000e+05
-3.593483e+05 -3.157760e+05 -8.717602e+04
-3.416130e+05 -3.140234e+05 -7.251305e+04
-3.502389e+05 -2.838690e+05 -7.367969e+04
-3.669424e+05 -2.864805e+05 -1.109495e+05
-3.498834e+05 -3.161108e+05 -1.130179e+05
-3.749087e+05 -3.241932e+05 -1.095151e+05
-3.414606e+05 -3.343426e+05 -8.539073e+04
-3.593291e+05 -3.362994e+05 -6.993884e+04
-3.372230e+05 -3.008859e+05 -9.087257e+04
-3.735363e+05 -5.545984e+04 -6.809508e+04
-3.722290e+05 -7.090296e+04 -7.856995e+04
-4.000000e+05 -6.958407e+04 -7.914830e+04
-3.685172e+05 -3.899714e+04 -8.433395e+04
-4.000000e+05 3.476245e+04 -7.914649e+04
-3.504299e+05 -6.111540e+04 -9.068497e+04
-3.491660e+05 -7.122034e+04 -6.921166e+04
-3.639634e+05 -8.632580e+04 -6.709364e+04
-3.806501e+05 -8.692260e+04 -8.783763e+04
-4.000000e+05 2.260843e+05 -1.069703e+05
-4.000000e+05 2.435060e+05 -7.936143e+04
-3.599131e+05 2.261114e+05 -1.402021e+05
-3.570846e+05 2.518578e+05 -1.201828e+05
-3.672123e+05 2.175319e+05 -1.112424e+05
1.742122e+04 6.749673e+04 -1.396454e+05
1.630158e+03 6.978173e+04 -1.200000e+05
-3.500383e+05 2.811304e+05 -1.139926e+05
3.293460e+05 2.735767e+05 -7.006675e+04
3.355015e+05 2.889822e+05 -9.279741e+04
3.692565e+05 2.854534e+05 -1.089556e+05
3.332094e+05 2.764960e+05 -1.155101e+05
-1.301714e+04 -1.348248e+05 -1.398082e+05
-3.336880e+04 -1.576426e+05 -1.396490e+05
-1.725476e+04 -1.587852e+05 -1.600000e+05
-1.346947e+02 -1.570085e+05 -1.398448e+05
-3.479584e+04 -1.281537e+05 -1.600000e+05
-3.409952e+04 -1.277576e+05 -1.200000e+05
2.620060e+04 -1.413863e+05 -1.397574e+05
5.168765e+02 -1.278062e+05 -1.600000e+05
2.608518e+05 -2.693243e+05 -1.394486e+05
2.804276e+05 -2.629944e+05 -1.600000e+05
2.552257e+05 -2.792954e+05 -1.600000e+05
2.461333e+05 -2.465299e+05 -1.600000e+05
8.067491e+03 -1.121954e+05 -1.397518e+05
-2.592862e+04 -1.125910e+05 -1.397715e+05
-4.949118e+02 -1.264524e+05 -1.200000e+05
3.502358e+05 -1.032479e+05 -7.130039e+04
3.710449e+05 -8.214266e+04 -7.817539e+04
3.437177e+05 -6.824692e+04 -7.387175e+04
3.156550e+05 -9.529501e+04 -7.143954e+04
1.147091e+05 -2.974408e+05 -1.399458e+05
1.019823e+05 -2.751961e+05 -1.398709e+05
1.216685e+05 -2.792222e+05 -1.600000e+05
8.688801e+04 -2.794269e+05 -1.600000e+05
1.275341e+05 -3.198574e+05 -1.400213e+05
1.043251e+05 -3.095508e+05 -1.600000e+05
1.391217e+05 -3.094000e+05 -1.600000e+05
1.000000e+05 -3.000000e+05 -1.200000e+05
1.168829e+05 -2.710196e+05 -1.200000e+05
1.449060e+05 -2.894070e+05 -1.399979e+05
3.329038e+05 -3.584510e+03 -1.345511e+05
3.700733e+05 1.403004e+04 -1.396037e+05
3.367800e+05 2.856196e+04 -1.377359e+05
3.020246e+05 -1.327062e+04 -1.417537e+05
3.000000e+05 -1.091394e-10 -1.200000e+05
3.048322e+05 1.662927e+04 -1.400358e+05
3.000000e+05 -3.333333e+04 -1.200000e+05
3.397590e+05 -1.739433e+04 -1.600000e+05
3.698787e+05 -1.024759e+00 -1.600000e+05
3.796965e+05 -1.209024e+04 -1.230536e+05
-3.382655e+04 -2.162948e+05 -1.398527e+05
-3.478746e+04 -1.891288e+05 -1.600000e+05
3.337321e+05 2.426504e+05 -1.155429e+05
3.643028e+05 2.616536e+05 -1.396822e+05
3.604609e+05 2.256025e+05 -1.391736e+05
3.396905e+05 2.458690e+05 -1.410089e+05
3.090835e+05 2.448770e+05 -1.600000e+05
3.195378e+05 2.292113e+05 -1.398527e+05
3.193238e+05 2.643838e+05 -1.398012e+05
3.393441e+05 2.266082e+05 -1.600000e+05
3.694588e+05 2.439210e+05 -1.600000e+05
3.390355e+05 2.620550e+05 -1.600000e+05
3.391398e+05 2.807620e+05 -1.408888e+05
-3.864364e+04 1.639676e+05 -1.398185e+05
-7.710626e+04 1.712732e+05 -1.399138e+05
-5.102566e+04 1.864255e+05 -1.398785e+05
-5.264690e+04 1.581630e+05 -1.600000e+05
-2.620931e+04 1.414148e+05 -1.397583e+05
1.058098e+02 1.571222e+05 -1.398875e+05
-1.671983e+04 1.552599e+05 -1.200000e+05
2.117280e+04 1.351065e+05 -1.397730e+05
-3.181956e+02 1.279808e+05 -1.600000e+05
1.712187e+04 1.590055e+05 -1.600000e+05
3.533094e+04 1.298009e+05 -1.600000e+05
-1.687226e+04 1.866162e+05 -1.398742e+05
-3.473380e+04 1.889020e+05 -1.600000e+05
-1.767217e+04 1.584794e+05 -1.600000e+05
-2.095361e+05 -3.343238e+05 -1.162799e+05
-2.297431e+05 -3.199577e+05 -1.400310e+05
-2.261114e+05 -3.599131e+05 -1.402021e+05
-2.426112e+05 -3.333489e+05 -1.163683e+05
-2.541187e+05 -3.704641e+05 -1.148933e+05
-2.618013e+05 -3.625106e+05 -1.399134e+05
-2.485924e+05 -3.390030e+05 -1.402912e+05
-2.441367e+05 -3.101151e+05 -1.600000e+05
-2.261640e+05 -3.398536e+05 -1.600000e+05
-2.434643e+05 -3.699120e+05 -1.600000e+05
-2.611939e+05 -3.400324e+05 -1.600000e+05
3.401590e+05 -2.454748e+05 -1.411230e+05
3.199416e+05 -2.297460e+05 -1.400149e+05
3.101151e+05 -2.441367e+05 -1.600000e+05
3.599131e+05 -2.261114e+05 -1.402021e+05
3.338635e+05 -2.088330e+05 -1.155877e+05
-3.348662e+05 -3.165918e+05 -1.406165e+05
-3.249087e+05 -3.080447e+05 -1.165136e+05
-3.387954e+05 -3.376258e+05 -1.228654e+05
-3.218602e+05 -2.810104e+05 -1.383298e+05
-3.582525e+05 -2.971499e+05 -1.392405e+05
-3.351870e+05 -3.366326e+05 -1.600000e+05
-3.579842e+05 -3.354709e+05 -1.414919e+05
-3.687922e+05 -3.147326e+05 -1.600000e+05
-3.143126e+05 -3.355179e+05 -1.389209e+05
-3.099430e+05 -3.131378e+05 -1.600000e+05
3.774934e+05 -3.343956e+05 -8.848597e+04
3.556262e+05 -3.367318e+05 -7.126512e+04
-2.911206e+05 -2.482595e+05 -1.399940e+05
-2.687176e+05 -2.625457e+05 -1.397308e+05
-3.018086e+05 -2.804416e+05 -1.600000e+05
-2.792954e+05 -2.552257e+05 -1.600000e+05
-2.856708e+04 3.367607e+05 -1.377280e+05
-1.739193e+04 3.598956e+05 -1.404529e+05
-5.941018e+04 3.198977e+05 -1.400226e+05
-3.970356e+04 3.337767e+05 -1.155381e+05
-5.217782e+04 3.600683e+05 -1.420561e+05
-3.333333e+04 3.000000e+05 -1.200000e+05
-1.664523e+04 3.048239e+05 -1.400223e+05
-3.477017e+04 3.096330e+05 -1.600000e+05
-5.217003e+04 3.397505e+05 -1.600000e+05
3.597679e+05 8.704680e+04 -1.401747e+05
3.698652e+05 1.043411e+05 -1.600000e+05
3.397503e+05 8.692933e+04 -1.600000e+05
3.397188e+05 1.217086e+05 -1.600000e+05
-3.140392e+05 -3.366767e+05 -9.090388e+04
-3.180381e+05 -3.692533e+05 -7.972230e+04
-3.384268e+05 -3.501328e+05 -7.194133e+04
-3.213261e+05 -3.733356e+05 -1.111761e+05
-2.927968e+05 -3.619164e+05 -7.064232e+04
-2.826601e+05 -3.456849e+05 -9.378771e+04
-2.988154e+05 -3.465900e+05 -1.148618e+05
-2.914436e+05 -3.768227e+05 -9.142412e+04
-3.333332e+05 -3.781588e+05 -8.798084e+04
3.697511e+05 2.190879e+05 -1.135995e+05
1.149907e+05 -2.378901e+05 -1.398971e+05
1.277625e+05 -2.598776e+05 -1.398624e+05
1.041367e+05 -2.490930e+05 -1.600000e+05
1.387929e+05 -2.485812e+05 -1.600000e+05
1.022071e+05 -2.158822e+05 -1.399318e+05
1.004463e+05 -2.420157e+05 -1.200000e+05
1.178571e+05 -2.127536e+05 -1.200000e+05
8.503024e+04 -2.456427e+05 -1.398887e+05
-1.639638e+05 -3.863289e+04 -1.398189e+05
-1.712732e+05 -7.710626e+04 -1.399138e+05
-1.581629e+05 -5.264686e+04 -1.600000e+05
-1.410785e+05 -6.080643e+04 -1.397353e+05
-1.864256e+05 -5.102566e+04 -1.398784e+05
-1.866153e+05 -1.687818e+04 -1.398671e+05
-1.889020e+05 -3.473379e+04 -1.600000e+05
-1.414061e+05 -2.618727e+04 -1.397591e+05
-1.548819e+05 -5.022031e+04 -1.200000e+05
-3.388917e+05 1.203710e+05 -9.474273e+04
-3.388909e+05 1.544794e+05 -9.474131e+04
-3.705056e+05 1.507922e+05 -1.145845e+05
-3.440327e+05 1.336153e+05 -7.360073e+04
-3.789503e+05 1.164971e+05 -8.293420e+04
-3.439304e+05 9.985212e+04 -7.470009e+04
-3.000000e+05 1.114885e+05 -8.496158e+04
3.338248e+05 1.411836e+05 -1.155348e+05
3.000000e+05 1.666667e+05 -1.200000e+05
3.221275e+05 1.826386e+05 -1.053230e+05
3.233324e+05 1.691018e+05 -1.333754e+05
-3.662194e+05 1.131953e+05 -1.123039e+05
2.974935e+05 8.058166e+04 -1.399553e+05
2.751668e+05 1.018710e+05 -1.398941e+05
2.752640e+05 6.781709e+04 -1.398765e+05
2.710151e+05 8.336415e+04 -1.200000e+05
2.795577e+05 8.679864e+04 -1.600000e+05
2.795658e+05 5.207676e+04 -1.600000e+05
3.202751e+05 9.441123e+04 -1.389591e+05
3.096504e+05 6.950782e+04 -1.600000e+05
3.096233e+05 1.042683e+05 -1.600000e+05
3.000000e+05 1.000000e+05 -1.200000e+05
2.974433e+05 1.146389e+05 -1.399666e+05
1.458777e+04 -3.652952e+05 -1.402287e+05
-3.798106e+03 -3.336949e+05 -1.350077e+05
2.855922e+04 -3.370908e+05 -1.374580e+05
5.880552e+03 -3.337756e+05 -1.155379e+05
2.006715e-02 -3.698780e+05 -1.600000e+05
-1.670680e+04 1.121497e+05 -1.397230e+05
-4.211935e+04 1.115498e+05 -1.397627e+05
-4.175073e+04 8.182038e+04 -1.394555e+05
-1.526328e+04 9.753399e+04 -1.200000e+05
-1.091394e-10 -3.000000e+05 -1.200000e+05
1.664528e+04 -3.048239e+05 -1.400223e+05
-1.250122e+04 -3.015291e+05 -1.418102e+05
-1.739155e+04 -3.397565e+05 -1.600000e+05
-6.651119e+02 -3.438552e+05 -7.310128e+04
-3.333333e+04 -3.000000e+05 -1.200000e+05
2.572481e+05 3.206662e+05 -1.374901e+05
2.816684e+05 3.199013e+05 -1.394139e+05
2.788555e+05 3.029073e+05 -1.600000e+05
2.606649e+05 3.382076e+05 -1.600000e+05
2.666667e+05 3.000000e+05 -1.200000e+05
2.607507e+05 3.630439e+05 -1.405874e+05
3.198988e+05 1.275094e+05 -1.400397e+05
2.708222e+05 1.167847e+05 -1.200000e+05
3.218112e+05 -1.282129e+05 -1.395174e+05
3.000000e+05 -1.000000e+05 -1.200000e+05
3.684090e+05 -6.903857e+04 -1.053599e+05
3.601566e+05 -8.436512e+04 -1.397793e+05
3.324600e+05 -7.341802e+04 -1.136856e+05
-2.974390e+05 -1.146961e+05 -1.399596e+05
-3.198849e+05 -1.275260e+05 -1.400491e+05
-3.095508e+05 -1.043251e+05 -1.600000e+05
-3.094000e+05 -1.391217e+05 -1.600000e+05
-2.794269e+05 -8.688801e+04 -1.600000e+05
-2.974806e+05 -8.059798e+04 -1.399742e+05
-2.751961e+05 -1.019823e+05 -1.398709e+05
-3.199454e+05 -9.345033e+04 -1.400806e+05
-3.000000e+05 -1.000000e+05 -1.200000e+05
2.975115e+05 -1.146570e+05 -1.399463e+05
3.054437e+05 -8.361225e+04 -1.381279e+05
2.795178e+05 -8.695764e+04 -1.600000e+05
2.753073e+05 -1.019014e+05 -1.398589e+05
2.897688e+05 -1.449311e+05 -1.400436e+05
3.096341e+05 -1.391285e+05 -1.600000e+05
2.795140e+05 -1.217374e+05 -1.600000e+05
3.096352e+05 -1.043467e+05 -1.600000e+05
-2.981428e+05 -3.198350e+05 -1.398484e+05
-3.076524e+05 -3.249272e+05 -1.155032e+05
-3.317422e+05 -3.705488e+05 -1.387957e+05
-3.138507e+05 -3.696897e+05 -1.600000e+05
-2.962571e+05 -3.399731e+05 -1.600000e+05
2.993720e+02 1.264586e+05 -1.200000e+05
1.489273e+04 1.114691e+05 -1.395802e+05
3.352328e+04 1.268390e+05 -1.200000e+05
3.369353e+04 1.573783e+05 -1.398621e+05
4.694955e+04 1.253005e+05 -1.391557e+05
-3.223383e+05 -1.622369e+05 -9.663515e+04
-3.000000e+05 -1.333333e+05 -1.200000e+05
-3.338560e+05 -1.411909e+05 -1.155307e+05
-3.000000e+05 -1.666667e+05 -1.200000e+05
-3.219848e+05 -1.967039e+05 -9.745588e+04
-3.339956e+05 -1.743480e+05 -1.167928e+05
-8.484862e+04 -2.458386e+05 -1.398533e+05
-6.786635e+04 -2.752950e+05 -1.398567e+05
-6.666124e+04 -2.422601e+05 -1.200000e+05
-3.593101e+04 1.272310e+05 -1.600000e+05
-8.062591e+04 2.974843e+05 -1.399456e+05
-9.346918e+04 3.198880e+05 -1.400228e+05
-6.954495e+04 3.096128e+05 -1.600000e+05
-1.043251e+05 3.095508e+05 -1.600000e+05
-6.788307e+04 2.752558e+05 -1.398690e+05
-6.666667e+04 3.000000e+05 -1.200000e+05
-8.343486e+04 2.710645e+05 -1.200000e+05
-1.019823e+05 2.751961e+05 -1.398709e+05
-1.000000e+05 3.000000e+05 -1.200000e+05
-1.147090e+05 2.974408e+05 -1.399458e+05
3.687300e+05 1.525461e+05 -7.477265e+04
3.507324e+05 1.748270e+05 -7.220960e+04
4.000000e+05 1.565422e+05 -1.067990e+05
3.659313e+05 1.655775e+05 -9.977245e+04
4.000000e+05 1.739337e+05 -7.915745e+04
3.764987e+05 1.413470e+05 -1.068780e+05
3.769131e+05 1.218876e+05 -8.693764e+04
3.423471e+05 1.396925e+05 -7.361563e+04
-3.722657e+05 -1.037573e+05 -7.654760e+04
-3.635821e+05 -1.200314e+05 -6.724658e+04
-3.801689e+05 -1.367972e+04 -8.942194e+04
-3.655308e+05 -1.780519e+04 -6.800102e+04
-3.186061e+05 1.954726e+05 -9.950600e+04
-3.468952e+05 1.929057e+05 -7.264885e+04
-3.000000e+05 2.333333e+05 -1.200000e+05
-3.338528e+05 1.749994e+05 -1.155513e+05
-3.000000e+05 2.000000e+05 -1.200000e+05
-3.338789e+05 2.088371e+05 -1.155856e+05
-3.199405e+05 1.956377e+05 -1.400631e+05
-3.000000e+05 1.666667e+05 -1.200000e+05
-2.854353e+05 -3.665177e+05 -1.124634e+05
-3.000000e+05 1.800182e+05 -8.496157e+04
1.642186e+05 7.178698e+04 -1.398895e+05
1.420077e+05 5.904542e+04 -1.398894e+05
1.548978e+05 4.968236e+04 -1.200000e+05
1.538172e+05 8.321044e+04 -1.200000e+05
2.930101e+05 2.793198e+05 -1.391817e+05
3.092742e+05 2.804285e+05 -1.600000e+05
2.790528e+05 2.637812e+05 -1.600000e+05
1.592373e+05 8.583560e+04 -1.600000e+05
1.864495e+05 8.454011e+04 -1.398895e+05
1.894507e+05 6.898851e+04 -1.600000e+05
1.592810e+05 5.140970e+04 -1.600000e+05
1.571030e+05 3.339850e+04 -1.398834e+05
1.866313e+05 5.060739e+04 -1.398988e+05
3.764946e+05 1.906729e+05 -8.813976e+04
3.501123e+05 1.867899e+05 -1.096856e+05
3.296585e+05 2.083512e+05 -7.277119e+04
3.278635e+05 1.719093e+05 -8.208609e+04
3.664608e+05 -2.536759e+05 -7.534630e+04
4.000000e+05 -2.955719e+05 -1.079943e+05
4.000000e+05 -2.784459e+05 -7.967896e+04
-4.000000e+05 -8.697571e+04 -1.067920e+05
-3.651177e+05 -7.843902e+04 -1.111041e+05
-6.140732e+00 -1.890476e+05 -1.600000e+05
-3.812089e+05 -8.829985e+04 -1.243141e+05
-4.000000e+05 -1.217587e+05 -1.067949e+05
-4.000000e+05 -1.043619e+05 -1.339378e+05
-3.600231e+05 -1.217511e+05 -1.420521e+05
-4.000000e+05 -8.695652e+04 -1.600000e+05
-3.698657e+05 -1.043460e+05 -1.600000e+05
-1.146620e+05 -2.975114e+05 -1.399405e+05
-1.000000e+05 -3.000000e+05 -1.200000e+05
-1.019004e+05 -2.753054e+05 -1.398587e+05
-1.166352e+05 -2.711553e+05 -1.200000e+05
-8.695601e+04 -2.795146e+05 -1.600000e+05
-1.217369e+05 -2.795127e+05 -1.600000e+05
-1.275288e+05 -3.199008e+05 -1.400230e+05
-1.391283e+05 -3.096338e+05 -1.600000e+05
-1.043461e+05 -3.096342e+05 -1.600000e+05
-1.449245e+05 -2.897743e+05 -1.400321e+05
-2.378901e+05 -1.149908e+05 -1.398971e+05
-2.127535e+05 -1.178570e+05 -1.200000e+05
-2.158822e+05 -1.022072e+05 -1.399318e+05
-2.420157e+05 -1.004463e+05 -1.200000e+05
-2.598776e+05 -1.277626e+05 -1.398624e+05
-2.490930e+05 -1.041368e+05 -1.600000e+05
-2.485813e+05 -1.387929e+05 -1.600000e+05
-2.007191e+05 -1.273938e+05 -1.400528e+05
-2.298898e+05 -1.444582e+05 -1.399605e+05
-2.186521e+05 -1.207788e+05 -1.600000e+05
3.381373e+04 -2.752819e+05 -1.398651e+05
5.212623e+04 -2.795025e+05 -1.600000e+05
1.736489e+04 -2.795217e+05 -1.600000e+05
3.471090e+04 -2.493908e+05 -1.600000e+05
-3.798386e+05 -1.510730e+05 -8.890312e+04
-3.650449e+05 -1.562685e+05 -7.134214e+04
-3.762630e+05 -1.880702e+05 -8.663105e+04
-3.470193e+05 -1.671290e+05 -9.235441e+04
-3.519898e+05 -1.792983e+05 -7.096897e+04
-3.451289e+05 -2.029335e+05 -7.573184e+04
-3.230002e+05 -1.888597e+05 -7.333490e+04
-3.249858e+05 -1.569855e+05 -7.265473e+04
3.131378e+05 -3.099430e+05 -1.600000e+05
3.699943e+05 -3.318217e+05 -1.389164e+05
-3.748006e+05 -3.540064e+05 -7.683949e+04
-3.809575e+05 -3.791022e+05 -7.363003e+04
-4.000000e+05 -3.513767e+05 -7.980844e+04
-4.000000e+05 -3.669416e+05 -1.056396e+05
-3.759123e+05 -3.521299e+05 -1.069365e+05
2.961251e+05 -3.781272e+05 -8.829340e+04
3.139385e+05 -4.000000e+05 -7.900966e+04
2.783113e+05 -4.000000e+05 -7.917237e+04
2.962649e+05 -4.000000e+05 -1.064801e+05
-3.782662e+05 -3.347099e+05 -8.409162e+04
-1.673173e+04 -1.867317e+05 -1.398129e+05
-1.662446e+04 -2.133378e+05 -1.200000e+05
8.040227e+01 -1.843714e+05 -1.200000e+05
3.725376e+05 -3.610044e+05 -7.247311e+04
3.548306e+05 -3.574744e+05 -8.965525e+04
3.775128e+05 -3.530876e+05 -1.086920e+05
3.831304e+05 -3.760964e+05 -9.429243e+04
4.000000e+05 -3.511877e+05 -8.246801e+04
3.507721e+05 -3.831532e+05 -7.175373e+04
-3.615476e+05 -3.744904e+05 -7.213278e+04
-8.061602e+04 -2.975049e+05 -1.399382e+05
-6.956448e+04 -3.096351e+05 -1.600000e+05
-3.511877e+05 -4.000000e+05 -8.246801e+04
-3.761378e+05 -3.825718e+05 -9.532691e+04
-3.518282e+05 -3.775863e+05 -1.070388e+05
2.620488e+05 2.564823e+05 -1.396321e+05
2.662431e+05 2.791024e+05 -1.394689e+05
2.508031e+05 2.733163e+05 -1.200000e+05
2.780246e+05 2.782981e+05 -1.200000e+05
2.574943e+05 2.310688e+05 -1.392192e+05
2.447870e+05 2.465576e+05 -1.600000e+05
2.782975e+05 2.273916e+05 -1.600000e+05
2.538188e+05 2.799506e+05 -1.600000e+05
2.905704e+05 2.482464e+05 -1.396730e+05
2.487877e+05 2.083120e+05 -1.600000e+05
2.368005e+05 2.178827e+05 -1.397333e+05
2.199134e+05 1.907541e+05 -1.600000e+05
2.298102e+05 1.792323e+05 -1.401044e+05
2.396553e+05 2.019202e+05 -1.200000e+05
2.594704e+05 1.962002e+05 -1.400012e+05
2.083648e+05 1.982221e+05 -1.388576e+05
2.136954e+05 2.167570e+05 -1.200000e+05
2.378875e+05 2.392729e+05 -1.200000e+05
2.700925e+05 2.182854e+05 -1.200000e+05
-3.119996e+05 3.216312e+05 -1.378770e+05
-3.131378e+05 3.099430e+05 -1.600000e+05
-3.367841e+05 3.151181e+05 -1.405543e+05
-3.366326e+05 3.351870e+05 -1.600000e+05
-3.199652e+05 2.981306e+05 -1.399787e+05
-3.000000e+05 3.000000e+05 -1.200000e+05
-3.336901e+05 3.100255e+05 -1.162586e+05
-2.820337e+05 3.183632e+05 -1.398353e+05
-2.969818e+05 3.634935e+05 -1.391951e+05
-3.105298e+05 3.328918e+05 -1.154196e+05
-3.673240e+05 3.129734e+05 -8.041300e+04
-3.571003e+05 2.872538e+05 -7.137002e+04
-4.000000e+05 2.784459e+05 -7.967896e+04
-3.782682e+05 3.342921e+05 -8.910015e+04
-4.000000e+05 3.137499e+05 -8.047183e+04
9.725340e+04 2.085869e+05 -1.399172e+05
1.101089e+05 2.303715e+05 -1.399094e+05
1.263622e+05 2.008939e+05 -1.399852e+05
1.203124e+05 2.183708e+05 -1.600000e+05
8.650350e+04 2.189450e+05 -1.600000e+05
8.440714e+04 1.868178e+05 -1.399250e+05
1.000707e+05 1.846971e+05 -1.200000e+05
8.330349e+04 2.134077e+05 -1.200000e+05
8.488784e+04 2.458073e+05 -1.398630e+05
6.783959e+04 2.163106e+05 -1.398700e+05
4.361969e+04 -8.177248e+04 -1.388105e+05
1.543304e+04 -9.696738e+04 -1.200000e+05
1.702717e+04 -7.146302e+04 -1.386552e+05
1.857629e+04 -9.540779e+04 -1.600000e+05
2.815120e+05 -3.209397e+05 -9.106088e+04
-1.935593e+05 -8.964634e+04 -1.399228e+05
-1.888144e+05 -1.033208e+05 -1.600000e+05
-1.718176e+05 -1.130304e+05 -1.400427e+05
-2.190324e+05 -8.645037e+04 -1.600000e+05
-2.160606e+05 -6.801670e+04 -1.398956e+05
-1.836375e+05 -1.009380e+05 -1.200000e+05
2.539600e+05 -3.336681e+05 -9.421763e+04
2.840866e+05 -3.633424e+05 -1.085882e+05
2.779131e+05 -3.324127e+05 -1.171870e+05
2.759579e+05 -3.382879e+05 -7.135704e+04
-2.458386e+05 8.484862e+04 -1.398533e+05
-2.752950e+05 6.786635e+04 -1.398567e+05
-2.458081e+05 5.084283e+04 -1.398584e+05
-2.422601e+05 6.666124e+04 -1.200000e+05
2.666667e+05 -3.000000e+05 -1.200000e+05
-2.377768e+05 2.177716e+05 -1.397399e+05
-2.178851e+05 2.038790e+05 -1.396633e+05
-2.309100e+05 1.791835e+05 -1.400797e+05
-2.210723e+05 1.914567e+05 -1.600000e+05
-2.235687e+05 2.214792e+05 -1.600000e+05
-2.592165e+05 2.324239e+05 -1.400391e+05
-2.461333e+05 2.465299e+05 -1.600000e+05
-2.500060e+05 2.086993e+05 -1.600000e+05
-2.177716e+05 -2.377768e+05 -1.397399e+05
-2.032768e+05 -2.167346e+05 -1.390484e+05
-1.791835e+05 -2.309100e+05 -1.400797e+05
-1.914567e+05 -2.210723e+05 -1.600000e+05
-2.214792e+05 -2.235687e+05 -1.600000e+05
-2.086993e+05 -2.500060e+05 -1.600000e+05
-2.324239e+05 -2.592165e+05 -1.400391e+05
-2.465299e+05 -2.461333e+05 -1.600000e+05
3.864055e+04 -1.639551e+05 -1.398180e+05
1.687849e+04 -1.866150e+05 -1.398670e+05
1.672156e+04 -1.552592e+05 -1.200000e+05
5.022355e+04 -1.548815e+05 -1.200000e+05
6.083162e+04 -1.410697e+05 -1.397333e+05
7.711194e+04 -1.712729e+05 -1.399134e+05
5.102617e+04 -1.864253e+05 -1.398784e+05
5.265589e+04 -1.581608e+05 -1.600000e+05
3.473465e+04 -1.889014e+05 -1.600000e+05
-3.486207e+05 -3.562008e+05 -9.535722e+04
-2.457722e+05 -1.680187e+04 -1.398696e+05
-2.493908e+05 -3.471092e+04 -1.600000e+05
-2.494099e+05 3.750978e+01 -1.600000e+05
-2.192890e+05 -1.727161e+04 -1.600000e+05
-3.669274e+05 -3.720309e+05 -1.377023e+05
2.959803e+05 -3.554846e+05 -6.946666e+04
3.216010e+05 -3.668826e+05 -1.106385e+05
3.323935e+05 -3.661963e+05 -7.012989e+04
3.333385e+05 -3.809572e+05 -8.758790e+04
3.762167e+05 -3.811186e+05 -7.775286e+04
3.546771e+05 -3.766486e+05 -1.064981e+05
1.125496e+05 1.252698e+05 -1.402993e+05
1.002007e+05 1.285358e+05 -1.200000e+05
1.208119e+05 1.001337e+05 -1.200000e+05
1.289382e+05 1.309231e+05 -1.200000e+05
3.554820e+05 3.560468e+05 -1.239770e+05
4.000000e+05 3.513272e+05 -1.317047e+05
3.631231e+05 3.198014e+05 -1.064113e+05
3.563943e+05 3.353747e+05 -1.414549e+05
3.333069e+05 3.694103e+05 -1.368016e+05
3.732279e+05 3.749711e+05 -1.307859e+05
3.406621e+05 4.000000e+05 -1.364918e+05
3.531705e+05 3.774404e+05 -1.076419e+05
-8.815457e+03 -8.193794e+04 -1.397821e+05
3.419382e+05 3.720397e+05 -1.600000e+05
3.755307e+05 3.552755e+05 -7.542626e+04
3.610096e+05 3.740989e+05 -6.877494e+04
3.817798e+05 3.837316e+05 -7.101073e+04
3.809688e+05 3.334063e+05 -8.757016e+04
3.662436e+05 3.325460e+05 -7.006705e+04
-2.162948e+05 3.382650e+04 -1.398528e+05
-1.867319e+05 1.673194e+04 -1.398130e+05
-1.844587e+05 3.314723e+04 -1.200000e+05
-2.133378e+05 1.662446e+04 -1.200000e+05
4.000000e+05 3.513767e+05 -7.980844e+04
2.559065e+05 -3.188027e+05 -1.399013e+05
2.820336e+05 -3.183633e+05 -1.398353e+05
2.614621e+05 -3.637958e+05 -1.412330e+05
2.618325e+05 -3.371938e+05 -1.600000e+05
-3.235070e+05 -6.205020e+04 -9.973495e+04
-3.331736e+05 -7.340393e+04 -1.156184e+05
-3.196570e+05 -5.949795e+04 -1.397804e+05
-3.000000e+05 -6.666667e+04 -1.200000e+05
-3.334123e+05 -4.922406e+04 -6.908030e+04
-3.244079e+05 -7.893512e+04 -7.568238e+04
-3.207737e+05 1.737247e+04 -1.152288e+05
-3.218871e+05 2.677160e+04 -9.570658e+04
-3.000000e+05 3.098430e+03 -8.622194e+04
-3.000000e+05 3.333333e+04 -1.200000e+05
-3.397505e+05 -5.217003e+04 -1.600000e+05
-4.000000e+05 -3.480155e+04 -7.914706e+04
-3.490120e+05 -3.453905e+04 -6.861521e+04
-2.752968e+05 3.381464e+04 -1.398597e+05
-2.795178e+05 5.217735e+04 -1.600000e+05
3.802304e+05 -2.610039e+05 -1.246408e+05
-2.800634e+05 3.205800e+05 -8.716770e+04
-2.830236e+05 3.631813e+05 -1.078160e+05
-2.757945e+05 3.434418e+05 -7.305446e+04
-2.532518e+05 3.341885e+05 -9.411102e+04
-3.014308e+05 3.350216e+05 -9.582252e+04
-2.771407e+05 3.317808e+05 -1.170186e+05
-2.711308e+05 4.999745e+04 -1.200000e+05
-3.000000e+05 6.666667e+04 -1.200000e+05
-2.666667e+05 3.000000e+05 -1.200000e+05
-3.510668e+05 3.830874e+05 -7.101955e+04
-3.774339e+05 3.832651e+05 -7.368973e+04
-3.513767e+05 4.000000e+05 -7.980844e+04
-3.729021e+05 3.616861e+05 -7.333794e+04
-3.565293e+05 3.560203e+05 -8.933417e+04
-3.585454e+05 3.341850e+05 -7.088799e+04
-3.821773e+05 3.750459e+05 -9.450212e+04
-3.333429e+05 3.809378e+05 -8.759338e+04
-3.324030e+05 3.661611e+05 -7.013790e+04
-3.189956e+05 5.924315e+04 -9.974052e+04
-3.281684e+05 7.659880e+04 -1.119518e+05
-3.000000e+05 7.712219e+04 -8.498746e+04
-3.199327e+05 5.940004e+04 -1.400549e+05
2.759918e+05 -3.395496e+04 -1.401545e+05
2.458358e+05 -1.681585e+04 -1.398641e+05
2.458228e+05 -5.085225e+04 -1.398592e+05
2.422609e+05 -3.333706e+04 -1.200000e+05
3.201703e+05 3.660258e+05 -1.123573e+05
3.391356e+05 3.354747e+05 -8.885498e+04
3.367175e+05 3.372578e+05 -1.219991e+05
3.458970e+05 3.561527e+05 -9.578562e+04
3.775338e+05 3.546353e+05 -1.064921e+05
3.760964e+05 3.831304e+05 -9.429243e+04
3.343152e+05 3.539786e+05 -7.021908e+04
3.162934e+05 3.660306e+05 -7.878400e+04
3.338305e+05 3.789020e+05 -9.034260e+04
3.137499e+05 4.000000e+05 -8.047183e+04
-3.146863e+05 -4.911501e+04 -8.380480e+04
-3.612884e+05 4.152852e+04 -6.902305e+04
-3.359367e+05 2.198959e+04 -7.105350e+04
2.781176e+05 3.695095e+05 -1.600000e+05
2.973357e+05 3.824250e+05 -1.334446e+05
3.125329e+05 3.695710e+05 -1.600000e+05
2.956522e+05 4.000000e+05 -1.600000e+05
2.604343e+05 -1.278134e+05 -1.398676e+05
2.493984e+05 -1.043481e+05 -1.600000e+05
2.955018e+05 3.591066e+05 -1.396185e+05
2.858056e+05 3.656879e+05 -1.121276e+05
2.955719e+05 4.000000e+05 -1.079943e+05
2.783995e+05 4.000000e+05 -1.343828e+05
3.121419e+05 4.000000e+05 -1.351516e+05
2.458452e+05 -8.485202e+04 -1.398536e+05
2.494100e+05 -6.957425e+04 -1.600000e+05
2.752992e+05 -6.786893e+04 -1.398571e+05
-3.812101e+05 1.882482e+04 -1.243111e+05
-3.698780e+05 3.478217e+04 -1.600000e+05
-3.600719e+05 5.216626e+04 -1.420560e+05
-4.000000e+05 -1.471249e+01 -1.339341e+05
-4.000000e+05 1.739130e+04 -1.600000e+05
-4.000000e+05 5.215260e+04 -1.067892e+05
-4.000000e+05 1.737111e+04 -1.067886e+05
-4.000000e+05 3.476713e+04 -1.339341e+05
-3.700104e+05 3.319162e+05 -1.390592e+05
-3.696897e+05 3.138507e+05 -1.600000e+05
-3.598922e+05 2.961295e+05 -1.399718e+05
-3.670099e+05 3.199399e+05 -1.133187e+05
-3.368485e+05 2.855233e+04 -1.377654e+05
-3.096363e+05 3.478403e+04 -1.600000e+05
-3.196636e+05 8.601911e+03 -1.397841e+05
-3.397563e+05 5.217317e+04 -1.600000e+05
-3.806949e+05 -1.213073e+05 -8.724635e+04
3.513767e+05 -4.000000e+05 -7.980844e+04
3.781351e+05 -2.236252e+05 -8.840499e+04
3.791854e+05 -2.423640e+05 -1.065708e+05
-2.559066e+05 3.188026e+05 -1.399013e+05
-2.618325e+05 3.371938e+05 -1.600000e+05
-2.804416e+05 3.018086e+05 -1.600000e+05
-2.482533e+05 2.911263e+05 -1.399828e+05
-1.348072e+05 1.308981e+04 -1.398083e+05
-1.281682e+05 3.479975e+04 -1.600000e+05
-1.576435e+05 3.336941e+04 -1.396497e+05
-1.277599e+05 3.409966e+04 -1.200000e+05
-1.151889e+05 5.835168e+04 -1.395599e+05
-9.863174e+04 5.756063e+04 -1.200000e+05
-8.303240e+04 9.397275e+04 -1.200000e+05
-1.221846e+05 9.458093e+04 -1.200000e+05
-1.587867e+05 1.725697e+04 -1.600000e+05
-1.570096e+05 1.370257e+02 -1.398452e+05
-1.264590e+05 4.951731e+02 -1.200000e+05
-1.122933e+05 -8.086950e+03 -1.397240e+05
-1.278404e+05 -5.061903e+02 -1.600000e+05
-1.125737e+05 2.606063e+04 -1.397714e+05
-8.333202e+04 -2.711322e+05 -1.200000e+05
-6.666667e+04 -3.000000e+05 -1.200000e+05
-5.217735e+04 -2.795178e+05 -1.600000e+05
-9.347101e+04 -3.198982e+05 -1.400204e+05
-5.941231e+04 -3.198990e+05 -1.400211e+05
1.485416e+05 1.854001e+05 -1.415934e+05
1.506309e+05 2.138595e+05 -1.200000e+05
1.537510e+05 2.173184e+05 -1.600000e+05
-3.757497e+05 -1.388406e+05 -6.727029e+04
8.062596e+04 -2.974843e+05 -1.399456e+05
6.788307e+04 -2.752558e+05 -1.398690e+05
6.666667e+04 -3.000000e+05 -1.200000e+05
8.343486e+04 -2.710645e+05 -1.200000e+05
2.587807e+05 3.772903e+05 -8.727291e+04
2.365791e+05 3.431500e+05 -7.376867e+04
-3.401642e+05 2.454763e+05 -1.411258e+05
-3.599790e+05 2.610075e+05 -1.401643e+05
-3.101151e+05 2.441367e+05 -1.600000e+05
-3.199468e+05 2.297451e+05 -1.400201e+05
-3.398536e+05 2.261640e+05 -1.600000e+05
-3.699120e+05 2.434643e+05 -1.600000e+05
-3.400324e+05 2.611939e+05 -1.600000e+05
-2.643749e+05 -3.489104e+05 -7.156988e+04
-2.806082e+05 -3.240522e+05 -7.427269e+04
-2.586043e+05 -3.779246e+05 -8.855215e+04
-2.379160e+05 -3.437827e+05 -7.360499e+04
-2.335620e+02 2.752952e+05 -1.398605e+05
1.740299e+04 2.795218e+05 -1.600000e+05
3.750978e+01 2.494099e+05 -1.600000e+05
-1.736489e+04 2.795217e+05 -1.600000e+05
-2.556576e+05 -3.347906e+05 -9.274927e+04
4.000000e+05 -8.693354e+04 -1.067915e+05
3.781982e+05 -5.050224e+04 -8.827840e+04
4.000000e+05 -6.954379e+04 -7.914750e+04
4.000000e+05 -1.043246e+05 -7.915048e+04
3.333653e+05 -5.131350e+04 -9.227617e+04
3.732828e+05 -4.544764e+04 -1.164634e+05
3.767465e+05 -8.664541e+04 -1.230255e+05
4.000000e+05 -5.215260e+04 -1.067892e+05
6.786452e+04 2.752954e+05 -1.398590e+05
5.084202e+04 2.458083e+05 -1.398595e+05
3.381464e+04 2.752968e+05 -1.398597e+05
5.217735e+04 2.795178e+05 -1.600000e+05
2.379855e+05 1.146939e+05 -1.398826e+05
2.494141e+05 1.387132e+05 -1.600000e+05
2.601740e+05 1.276919e+05 -1.398958e+05
2.494939e+05 1.040059e+05 -1.600000e+05
2.158270e+05 1.017134e+05 -1.398695e+05
2.193489e+05 1.213304e+05 -1.600000e+05
2.194323e+05 8.657244e+04 -1.600000e+05
2.456046e+05 8.480879e+04 -1.398878e+05
2.417406e+05 1.001124e+05 -1.200000e+05
3.794672e+05 1.905820e+05 -1.250052e+05
3.558262e+05 1.503951e+05 -1.381553e+05
-1.890480e+05 6.606491e+00 -1.600000e+05
-1.891290e+05 3.478766e+04 -1.600000e+05
3.327820e+05 2.099241e+05 -1.172671e+05
3.319482e+05 2.244528e+05 -9.349906e+04
-1.149908e+05 2.378901e+05 -1.398971e+05
-1.273938e+05 2.007192e+05 -1.400528e+05
-1.444582e+05 2.298897e+05 -1.399605e+05
-1.207788e+05 2.186521e+05 -1.600000e+05
-1.022072e+05 2.158822e+05 -1.399318e+05
-1.041368e+05 2.490930e+05 -1.600000e+05
-8.503024e+04 2.456426e+05 -1.398887e+05
-1.277626e+05 2.598776e+05 -1.398624e+05
-1.387929e+05 2.485813e+05 -1.600000e+05
1.146706e+05 2.975041e+05 -1.399385e+05
1.000000e+05 3.000000e+05 -1.200000e+05
1.019163e+05 2.752938e+05 -1.398580e+05
1.166658e+05 2.711327e+05 -1.200000e+05
1.216243e+05 2.793144e+05 -1.600000e+05
8.695601e+04 2.795146e+05 -1.600000e+05
1.275298e+05 3.198975e+05 -1.400198e+05
1.391161e+05 3.095770e+05 -1.600000e+05
1.043461e+05 3.096342e+05 -1.600000e+05
1.446999e+05 2.894001e+05 -1.399950e+05
-8.964634e+04 1.935593e+05 -1.399228e+05
-6.712070e+04 1.839791e+05 -1.200000e+05
-1.009380e+05 1.836375e+05 -1.200000e+05
-1.033208e+05 1.888144e+05 -1.600000e+05
-8.645037e+04 2.190324e+05 -1.600000e+05
-6.801670e+04 2.160606e+05 -1.398956e+05
-6.924207e+04 1.887933e+05 -1.600000e+05
-3.400248e+05 2.799810e+05 -1.411601e+05
-3.698801e+05 2.783250e+05 -1.600000e+05
-3.198649e+05 2.639510e+05 -1.398488e+05
-3.107503e+05 2.793568e+05 -1.600000e+05
-3.399731e+05 2.962571e+05 -1.600000e+05
-2.984813e+05 -4.666826e+04 -1.387320e+05
-2.752819e+05 -3.381373e+04 -1.398651e+05
-3.000000e+05 -3.333333e+04 -1.200000e+05
-2.710989e+05 -5.004224e+04 -1.200000e+05
-3.096330e+05 -3.477017e+04 -1.600000e+05
-3.096128e+05 -6.954495e+04 -1.600000e+05
-3.046874e+05 -1.711732e+04 -1.394560e+05
-3.363938e+05 -2.232942e+05 -9.392645e+04
-3.342719e+05 -2.089914e+05 -1.161007e+05
-3.000000e+05 -2.333333e+05 -1.200000e+05
-3.337757e+05 -2.426625e+05 -1.155371e+05
-3.776238e+05 -2.236555e+05 -8.447006e+04
-3.671090e+05 -2.518695e+05 -1.111327e+05
-3.442254e+05 -2.372994e+05 -7.366428e+04
-3.209588e+05 -2.205742e+05 -7.389536e+04
-3.000000e+05 -2.141715e+05 -8.499790e+04
2.856145e+04 3.367602e+05 -1.377274e+05
5.217317e+04 3.397563e+05 -1.600000e+05
3.478217e+04 3.698780e+05 -1.600000e+05
5.941231e+04 3.198990e+05 -1.400211e+05
4.022688e+04 3.340800e+05 -1.171297e+05
3.333333e+04 3.000000e+05 -1.200000e+05
1.665146e+04 3.048237e+05 -1.400216e+05
3.478403e+04 3.096363e+05 -1.600000e+05
8.061562e+04 2.975064e+05 -1.399396e+05
9.347080e+04 3.198988e+05 -1.400210e+05
6.956448e+04 3.096351e+05 -1.600000e+05
8.333202e+04 2.711322e+05 -1.200000e+05
8.964928e+04 -1.935593e+05 -1.399226e+05
6.712077e+04 -1.839791e+05 -1.200000e+05
1.009383e+05 -1.836377e+05 -1.200000e+05
1.033218e+05 -1.888133e+05 -1.600000e+05
8.645017e+04 -2.190322e+05 -1.600000e+05
1.273942e+05 -2.007186e+05 -1.400528e+05
1.108216e+05 -1.715215e+05 -1.400819e+05
-2.975101e+05 1.146519e+05 -1.399511e+05
-2.753054e+05 1.019004e+05 -1.398587e+05
-2.711553e+05 1.166352e+05 -1.200000e+05
-3.000000e+05 1.000000e+05 -1.200000e+05
-2.795146e+05 8.695601e+04 -1.600000e+05
-3.199221e+05 1.275226e+05 -1.400445e+05
-3.148410e+05 9.183592e+04 -1.400138e+05
3.397607e+05 1.738318e+04 -1.600000e+05
3.698784e+05 3.477979e+04 -1.600000e+05
3.000000e+05 3.333333e+04 -1.200000e+05
3.199140e+05 5.939954e+04 -1.400343e+05
3.096527e+05 3.475013e+04 -1.600000e+05
3.318881e+05 3.968232e+04 -1.138060e+05
3.600141e+05 5.216839e+04 -1.415229e+05
3.397600e+05 5.215728e+04 -1.600000e+05
3.000000e+05 -8.102919e+04 -8.495423e+04
3.619278e+05 1.224101e+05 -1.398460e+05
3.698375e+05 1.391306e+05 -1.600000e+05
4.000000e+05 1.391448e+05 -1.339404e+05
4.000000e+05 1.217391e+05 -1.600000e+05
3.000000e+05 -1.484006e+05 -8.495453e+04
3.000000e+05 -1.333333e+05 -1.200000e+05
-1.843714e+05 -8.039666e+01 -1.200000e+05
3.323748e+05 7.432520e+04 -1.150972e+05
3.000000e+05 6.666667e+04 -1.200000e+05
3.324063e+05 1.254346e+05 -9.373136e+04
4.000000e+05 1.391501e+05 -7.915321e+04
4.000000e+05 1.217587e+05 -1.067949e+05
3.786822e+05 1.575143e+05 -1.270029e+05
3.366326e+05 -3.351870e+05 -1.600000e+05
-3.334759e+05 -1.949454e+04 -6.687877e+04
3.000000e+05 1.524748e+05 -8.500547e+04
3.000000e+05 1.852400e+05 -8.502063e+04
-3.213783e+05 -2.682684e+04 -8.625707e+04
-3.719033e+05 7.767139e+04 -7.011752e+04
-3.802304e+05 2.610038e+05 -1.246408e+05
-4.000000e+05 2.434830e+05 -1.341207e+05
3.000000e+05 2.807933e+05 -8.500799e+04
3.000000e+05 2.503234e+05 -8.504797e+04
-2.458055e+05 1.679305e+04 -1.398626e+05
-2.162925e+05 -2.050825e+02 -1.398602e+05
-2.422275e+05 -3.540724e+01 -1.200000e+05
2.032606e+05 -1.576431e+05 -1.408605e+05
1.856560e+05 -1.598251e+05 -1.200000e+05
2.072399e+05 -1.843156e+05 -1.200000e+05
2.124168e+05 -1.486351e+05 -1.200000e+05
3.000000e+05 3.000000e+05 -8.500000e+04
1.133594e+04 -3.676319e+05 -1.107074e+05
3.478186e+04 -3.698776e+05 -1.600000e+05
5.941018e+04 -3.198977e+05 -1.400226e+05
3.993246e+04 -3.326804e+05 -1.160633e+05
3.477017e+04 -3.096330e+05 -1.600000e+05
5.217003e+04 -3.397505e+05 -1.600000e+05
1.738937e+04 -3.397558e+05 -1.600000e+05
-2.795025e+05 -5.212623e+04 -1.600000e+05
-2.752558e+05 -6.788307e+04 -1.398690e+05
-3.188162e+05 -2.559115e+05 -1.399156e+05
-3.385451e+05 -2.263543e+05 -1.600000e+05
-3.192553e+05 -2.298469e+05 -1.399822e+05
-3.071845e+05 -2.431644e+05 -1.600000e+05
-3.371938e+05 -2.618325e+05 -1.600000e+05
3.197998e+05 1.957168e+05 -1.400382e+05
2.752951e+05 3.378059e+04 -1.398671e+05
2.795532e+05 1.734010e+04 -1.600000e+05
3.000000e+05 2.000000e+05 -1.200000e+05
3.000000e+05 2.179399e+05 -8.504909e+04
3.652635e+05 -1.790947e+04 -9.743409e+04
3.190532e+05 2.988448e+05 -1.399303e+05
2.494597e+05 -6.852860e+01 -1.600000e+05
2.494302e+05 -3.481163e+04 -1.600000e+05
2.193679e+05 -1.747061e+04 -1.600000e+05
3.687647e+05 2.971865e+05 -1.388374e+05
3.382400e+05 2.976816e+05 -1.600000e+05
3.690487e+05 2.793021e+05 -1.600000e+05
4.000000e+05 -2.434830e+05 -1.341207e+05
4.000000e+05 -2.435060e+05 -7.936143e+04
2.753128e+05 2.189168e+02 -1.398625e+05
3.096471e+05 -1.528204e+01 -1.600000e+05
2.795373e+05 -1.741427e+04 -1.600000e+05
3.511877e+05 4.000000e+05 -8.246801e+04
-3.775127e+05 3.530876e+05 -1.086920e+05
-4.000000e+05 3.511877e+05 -8.246801e+04
-2.801640e+05 -3.396644e+05 -1.408367e+05
-2.632071e+05 -3.196225e+05 -1.391517e+05
-2.793568e+05 -3.107503e+05 -1.600000e+05
-2.764556e+05 -3.306831e+05 -1.141159e+05
-2.964802e+05 -3.599368e+05 -1.407400e+05
-2.783250e+05 -3.698801e+05 -1.600000e+05
3.375789e+05 3.169680e+05 -1.406867e+05
3.680709e+05 3.156213e+05 -1.600000e+05
3.335362e+05 3.108312e+05 -1.153059e+05
-2.975882e+05 -3.814613e+05 -1.342889e+05
-3.121419e+05 -4.000000e+05 -1.351516e+05
-2.955719e+05 -4.000000e+05 -1.079943e+05
-2.783995e+05 -4.000000e+05 -1.343828e+05
2.163397e+05 -3.384819e+04 -1.398572e+05
2.377769e+05 -2.177714e+05 -1.397399e+05
2.174209e+05 -2.040720e+05 -1.378661e+05
2.210726e+05 -1.914562e+05 -1.600000e+05
2.235688e+05 -2.214790e+05 -1.600000e+05
2.500061e+05 -2.086992e+05 -1.600000e+05
2.592166e+05 -2.324239e+05 -1.400391e+05
2.703259e+05 -2.179936e+05 -1.200000e+05
2.602724e+05 -1.961997e+05 -1.400019e+05
2.404820e+05 -2.012021e+05 -1.200000e+05
-1.821169e+04 9.556080e+04 -1.600000e+05
-3.108467e+03 8.971527e+04 -1.396396e+05
1.133439e+05 1.792291e+05 -1.399349e+05
1.003748e+05 1.576463e+05 -1.398848e+05
1.166810e+05 1.562514e+05 -1.200000e+05
1.359421e+05 1.882518e+05 -1.600000e+05
1.023580e+05 1.885196e+05 -1.600000e+05
-3.738518e+05 1.872424e+05 -1.180563e+05
-3.792057e+05 1.548541e+05 -7.890734e+04
-3.440350e+05 1.680180e+05 -7.358584e+04
1.913445e+05 3.599260e+05 -1.400980e+05
1.859626e+05 3.731754e+05 -1.184270e+05
2.086719e+05 4.000000e+05 -1.340057e+05
1.738886e+05 4.000000e+05 -1.339602e+05
-3.338339e+05 1.411698e+05 -1.155390e+05
-3.000000e+05 1.457586e+05 -8.496157e+04
3.115777e+05 3.226118e+05 -1.383030e+05
3.000000e+05 3.000000e+05 -1.200000e+05
3.111137e+05 3.113036e+05 -1.600000e+05
3.099751e+05 3.344596e+05 -1.184006e+05
-1.216685e+05 2.792222e+05 -1.600000e+05
-8.688801e+04 2.794269e+05 -1.600000e+05
-1.275341e+05 3.198574e+05 -1.400213e+05
-1.391217e+05 3.094000e+05 -1.600000e+05
-8.039974e+04 -7.641323e+04 -1.403895e+05
-7.654564e+04 -4.247078e+04 -1.388371e+05
-6.734531e+04 -7.004735e+04 -1.600000e+05
-9.495407e+04 -5.457507e+04 -1.600000e+05
4.000000e+05 3.479686e+04 -1.339347e+05
-1.449060e+05 2.894069e+05 -1.399979e+05
-4.883437e+04 1.608542e+04 -1.403420e+05
-3.518361e+04 1.222191e+04 -1.200000e+05
-6.760816e+04 -1.464903e+04 -1.394079e+05
-3.637953e+04 -9.174985e+03 -1.600000e+05
3.794349e+05 -1.535209e+05 -8.003446e+04
3.119981e+05 -3.216284e+05 -1.378751e+05
3.347512e+05 -3.577556e+05 -1.402812e+05
2.969818e+05 -3.634935e+05 -1.391951e+05
4.000000e+05 -2.260843e+05 -1.069703e+05
1.739123e+05 3.698778e+05 -1.600000e+05
1.913043e+05 4.000000e+05 -1.600000e+05
-3.341530e+05 3.383310e+05 -8.551762e+04
-3.346427e+05 2.984659e+05 -9.296586e+04
-3.075018e+05 3.281792e+05 -7.156309e+04
-3.000000e+05 3.000000e+05 -8.500000e+04
-2.494068e+05 3.479882e+04 -1.600000e+05
-2.193027e+05 1.744697e+04 -1.600000e+05
3.221954e+05 3.175902e+05 -7.954555e+04
3.297566e+05 4.000000e+05 -1.100294e+05
3.304348e+05 4.000000e+05 -1.600000e+05
-3.000000e+05 -3.000000e+05 -8.500000e+04
-3.000000e+05 -7.059982e+04 -8.633574e+04
-3.701968e+05 -1.854178e+05 -1.144910e+05
-3.671894e+05 -1.489272e+05 -1.111303e+05
-4.000000e+05 -5.219310e+04 -1.067901e+05
-1.867535e+05 5.052499e+04 -1.398058e+05
3.000000e+05 -1.147158e+05 -8.495442e+04
-3.549204e+05 3.767795e+05 -1.068072e+05
-3.222550e+05 3.677108e+05 -1.100976e+05
-3.362405e+05 3.375067e+05 -1.226126e+05
-3.750300e+05 2.883542e+05 -1.109921e+05
-8.234851e+04 2.769704e+04 -1.400136e+05
-6.868329e+04 1.778583e+02 -1.200000e+05
-3.318343e+05 1.084383e+05 -1.151184e+05
-3.671440e+05 8.152382e+04 -1.116282e+05
-1.563663e+05 -3.328150e+05 -9.366386e+04
-1.475553e+05 -3.671358e+05 -1.114996e+05
-1.855470e+05 -3.700404e+05 -1.166807e+05
-1.740178e+05 -3.349717e+05 -1.176626e+05
-1.615848e+05 -3.199116e+05 -1.400339e+05
-3.345697e+05 -2.766889e+05 -1.152363e+05
-1.348544e+05 -3.435638e+05 -7.304757e+04
-3.000000e+05 -1.793263e+05 -8.500542e+04
-3.196357e+05 -1.957038e+05 -1.400326e+05
-3.000000e+05 -2.000000e+05 -1.200000e+05
-1.637412e+04 7.019123e+04 -1.383955e+05
8.166112e+02 6.465680e+04 -1.600000e+05
1.945037e+04 9.665006e+04 -1.600000e+05
7.679400e+04 -8.026317e+04 -1.403809e+05
8.584155e+04 -3.850225e+04 -1.424549e+05
7.079165e+04 -6.711622e+04 -1.600000e+05
6.110977e+04 -6.608834e+04 -1.200000e+05
7.173530e+04 -1.052403e+05 -1.375305e+05
5.483969e+04 -9.484283e+04 -1.600000e+05
9.425388e+04 -9.261587e+04 -1.600000e+05
-2.161907e+05 -3.387414e+04 -1.398769e+05
-2.192164e+05 -5.192806e+04 -1.600000e+05
9.844750e+04 -5.762502e+04 -1.200000e+05
1.155729e+05 -5.823411e+04 -1.395730e+05
-7.643730e+04 8.056352e+04 -1.404177e+05
-9.400691e+04 9.269843e+04 -1.600000e+05
-7.181663e+04 1.053051e+05 -1.376469e+05
-5.464521e+04 9.513156e+04 -1.600000e+05
-9.745332e+04 5.332274e+04 -1.600000e+05
-6.854205e+04 5.059421e+04 -1.401941e+05
-9.458086e+04 -1.221842e+05 -1.200000e+05
-9.266642e+04 -9.401429e+04 -1.600000e+05
-9.397274e+04 -8.303196e+04 -1.200000e+05
-5.828727e+04 -1.152078e+05 -1.395565e+05
-9.614706e+04 -4.833368e+04 -1.200000e+05
-6.591215e+04 -6.093448e+04 -1.200000e+05
-5.758876e+04 -9.839074e+04 -1.200000e+05
-3.818275e+04 -8.555412e+04 -1.426720e+05
2.896545e+05 1.448566e+05 -1.400381e+05
3.000000e+05 1.333333e+05 -1.200000e+05
2.704484e+05 1.503402e+05 -1.200000e+05
2.598821e+05 1.618860e+05 -1.399445e+05
-2.792222e+05 -1.216685e+05 -1.600000e+05
-2.893922e+05 -1.449221e+05 -1.400257e+05
-2.710196e+05 -1.168829e+05 -1.200000e+05
-2.891916e+05 -1.789616e+05 -1.400287e+05
-2.788117e+05 -1.564811e+05 -1.600000e+05
-2.593489e+05 -1.619537e+05 -1.397760e+05
-2.709830e+05 -1.503896e+05 -1.200000e+05
-2.897634e+05 1.449368e+05 -1.400536e+05
-3.199303e+05 1.615801e+05 -1.400528e+05
-3.096338e+05 1.391283e+05 -1.600000e+05
-2.795127e+05 1.217369e+05 -1.600000e+05
-3.096342e+05 1.043461e+05 -1.600000e+05
-2.604334e+05 1.278132e+05 -1.398676e+05
-2.605160e+05 1.619575e+05 -1.399227e+05
-2.709805e+05 1.500193e+05 -1.200000e+05
1.615884e+05 3.198978e+05 -1.400202e+05
1.785249e+05 2.892164e+05 -1.399942e+05
1.737580e+05 3.094363e+05 -1.600000e+05
1.611602e+05 2.592400e+05 -1.397596e+05
1.560721e+05 2.787948e+05 -1.600000e+05
2.605163e+05 -1.619574e+05 -1.399227e+05
2.709806e+05 -1.500195e+05 -1.200000e+05
2.711557e+05 -1.166357e+05 -1.200000e+05
3.199225e+05 -1.615821e+05 -1.400449e+05
-1.738855e+05 -3.096520e+05 -1.600000e+05
-1.790415e+05 -2.898301e+05 -1.400322e+05
-1.500193e+05 -2.709805e+05 -1.200000e+05
-1.619575e+05 -2.605160e+05 -1.399227e+05
-1.278132e+05 -2.604334e+05 -1.398676e+05
-1.564784e+05 -2.795815e+05 -1.600000e+05
1.789488e+05 -2.892028e+05 -1.400079e+05
1.619537e+05 -2.593489e+05 -1.397759e+05
1.503896e+05 -2.709830e+05 -1.200000e+05
1.616119e+05 -3.197807e+05 -1.400172e+05
1.739339e+05 -3.090808e+05 -1.600000e+05
-1.503896e+05 2.709830e+05 -1.200000e+05
-1.168829e+05 2.710196e+05 -1.200000e+05
-1.619537e+05 2.593489e+05 -1.397760e+05
-1.789489e+05 2.892028e+05 -1.400079e+05
-1.616120e+05 3.197807e+05 -1.400172e+05
-1.739339e+05 3.090808e+05 -1.600000e+05
-1.333333e+05 3.000000e+05 -1.200000e+05
-1.002421e+05 1.404133e+05 -1.395972e+05
-1.062393e+05 1.294753e+05 -1.600000e+05
-1.153029e+05 1.153343e+05 -1.399901e+05
-6.080861e+04 1.410763e+05 -1.397387e+05
-7.167727e+04 1.269051e+05 -1.600000e+05
-7.011197e+04 6.770284e+04 -1.600000e+05
5.070377e+04 1.868420e+05 -1.398882e+05
1.677835e+04 1.867381e+05 -1.398549e+05
3.460617e+04 1.891372e+05 -1.600000e+05
-1.056566e+05 -7.021079e+04 -1.387928e+05
-1.114793e+05 -4.219039e+04 -1.397405e+05
-1.269049e+05 -7.167644e+04 -1.600000e+05
-1.250910e+05 -6.668604e+04 -1.200000e+05
-1.113518e+05 -1.117672e+05 -1.389867e+05
-1.294751e+05 -1.062387e+05 -1.600000e+05
1.062910e+05 -1.294761e+05 -1.600000e+05
1.141843e+05 -1.117617e+05 -1.393008e+05
9.303378e+04 -1.401483e+05 -1.373641e+05
6.669080e+04 -1.250706e+05 -1.200000e+05
-2.629944e+05 -2.804276e+05 -1.600000e+05
8.302941e+04 -9.392053e+04 -1.200000e+05
4.832383e+04 -9.610413e+04 -1.200000e+05
2.303437e+05 1.448109e+05 -1.399120e+05
2.492570e+05 1.734960e+05 -1.600000e+05
2.398107e+05 1.675894e+05 -1.200000e+05
2.059000e+05 1.854231e+05 -1.200000e+05
-2.898205e+05 1.790531e+05 -1.400511e+05
-3.096520e+05 1.738855e+05 -1.600000e+05
-2.796929e+05 1.913765e+05 -1.600000e+05
-2.602722e+05 1.961998e+05 -1.400019e+05
-2.795815e+05 1.564784e+05 -1.600000e+05
-2.705404e+05 1.836979e+05 -1.200000e+05
2.898246e+05 -1.790483e+05 -1.400432e+05
2.897192e+05 -2.134925e+05 -1.399553e+05
2.705405e+05 -1.836979e+05 -1.200000e+05
3.096521e+05 -1.738856e+05 -1.600000e+05
3.199344e+05 -1.956390e+05 -1.400569e+05
3.097601e+05 -2.088319e+05 -1.600000e+05
2.795820e+05 -1.564785e+05 -1.600000e+05
1.428234e+05 1.247148e+05 -1.402157e+05
1.414633e+05 9.300226e+04 -1.399941e+05
1.539422e+05 1.166990e+05 -1.200000e+05
1.529282e+05 1.525436e+05 -1.200000e+05
1.354269e+05 1.554380e+05 -1.400292e+05
1.319420e+05 1.325596e+05 -1.600000e+05
2.894969e+05 1.790572e+05 -1.400235e+05
2.891890e+05 2.136448e+05 -1.399256e+05
2.701543e+05 1.840869e+05 -1.200000e+05
2.794996e+05 1.215288e+05 -1.600000e+05
2.793484e+05 1.563360e+05 -1.600000e+05
3.093743e+05 1.740199e+05 -1.600000e+05
3.095427e+05 1.390714e+05 -1.600000e+05
2.711331e+05 -8.333331e+04 -1.200000e+05
3.000000e+05 -6.666667e+04 -1.200000e+05
3.096374e+05 -6.956617e+04 -1.600000e+05
-2.134894e+05 -2.897216e+05 -1.399507e+05
-1.836979e+05 -2.705404e+05 -1.200000e+05
-1.961998e+05 -2.602722e+05 -1.400019e+05
-1.956400e+05 -3.199297e+05 -1.400523e+05
-2.088319e+05 -3.097600e+05 -1.600000e+05
-2.104553e+05 2.297212e+05 -1.396914e+05
-1.914203e+05 2.129700e+05 -1.600000e+05
-1.891501e+05 1.973288e+05 -1.411447e+05
-2.148036e+05 2.158899e+05 -1.200000e+05
-1.856780e+05 2.135221e+05 -1.200000e+05
-2.072394e+05 1.843151e+05 -1.200000e+05
-2.404819e+05 2.012020e+05 -1.200000e+05
-2.303584e+05 -2.112950e+05 -1.398664e+05
-2.129700e+05 -1.914203e+05 -1.600000e+05
-1.954862e+05 -1.805304e+05 -1.391426e+05
-2.158899e+05 -2.148036e+05 -1.200000e+05
-2.135221e+05 -1.856780e+05 -1.200000e+05
-1.843151e+05 -2.072394e+05 -1.200000e+05
-2.012020e+05 -2.404819e+05 -1.200000e+05
1.804820e+05 -1.954999e+05 -1.391553e+05
2.338597e+05 -2.601143e+05 -1.410364e+05
2.113139e+05 -2.303867e+05 -1.398716e+05
2.309104e+05 -1.791834e+05 -1.400797e+05
2.148036e+05 -2.158899e+05 -1.200000e+05
2.384718e+05 -2.388114e+05 -1.200000e+05
1.914203e+05 -2.129694e+05 -1.600000e+05
-2.709299e+05 -1.839478e+05 -1.200000e+05
-3.090808e+05 -1.739339e+05 -1.600000e+05
-3.084539e+05 -2.086865e+05 -1.600000e+05
-3.198011e+05 -1.616067e+05 -1.400379e+05
-2.897160e+05 2.134967e+05 -1.399615e+05
-2.902288e+05 2.481410e+05 -1.399692e+05
-2.703259e+05 2.179935e+05 -1.200000e+05
-3.097600e+05 2.088319e+05 -1.600000e+05
2.793924e+05 -2.270454e+05 -1.600000e+05
2.796930e+05 -1.913765e+05 -1.600000e+05
-2.481491e+05 -2.902235e+05 -1.399802e+05
-2.179935e+05 -2.703259e+05 -1.200000e+05
-1.913765e+05 -2.796929e+05 -1.600000e+05
1.962436e+05 -2.593455e+05 -1.398484e+05
1.912214e+05 -2.784142e+05 -1.600000e+05
1.564811e+05 -2.788117e+05 -1.600000e+05
1.839478e+05 -2.709299e+05 -1.200000e+05
-1.962436e+05 2.593455e+05 -1.398484e+05
-1.912214e+05 2.784142e+05 -1.600000e+05
-1.666667e+05 3.000000e+05 -1.200000e+05
-1.564811e+05 2.788117e+05 -1.600000e+05
-1.839478e+05 2.709299e+05 -1.200000e+05
2.434231e+05 2.890558e+05 -1.410489e+05
2.309399e+05 2.589101e+05 -1.397459e+05
2.174403e+05 2.709527e+05 -1.200000e+05
2.122683e+05 1.166579e+05 -1.200000e+05
2.006932e+05 1.276135e+05 -1.397783e+05
2.110518e+05 1.496992e+05 -1.200000e+05
2.010271e+05 1.704726e+05 -1.407369e+05
2.411057e+05 1.335895e+05 -1.200000e+05
-8.393827e+04 2.129375e+05 -1.200000e+05
-1.178570e+05 2.127535e+05 -1.200000e+05
1.291020e+05 1.027999e+05 -1.600000e+05
1.591262e+05 1.200778e+05 -1.600000e+05
1.713467e+05 1.099638e+05 -1.399295e+05
1.254023e+05 6.504559e+04 -1.200000e+05
1.106523e+05 7.719595e+04 -1.397337e+05
-5.147429e+04 -3.349483e+05 -9.396365e+04
-7.334373e+04 -3.333822e+05 -1.151954e+05
2.194864e+05 1.561314e+05 -1.600000e+05
-1.043470e+05 -2.493942e+05 -1.600000e+05
-9.990485e+04 -2.423295e+05 -1.200000e+05
-1.107126e+05 -2.309477e+05 -1.398441e+05
-1.333333e+05 -3.000000e+05 -1.200000e+05
-2.493942e+05 1.043470e+05 -1.600000e+05
-2.423295e+05 9.990485e+04 -1.200000e+05
-2.309477e+05 1.107126e+05 -1.398441e+05
-3.000000e+05 1.333333e+05 -1.200000e+05
-2.711322e+05 8.333202e+04 -1.200000e+05
2.128407e+05 -2.889620e+05 -1.400964e+05
2.298495e+05 -3.192409e+05 -1.399672e+05
1.957077e+05 -3.196183e+05 -1.400148e+05
2.086865e+05 -3.084539e+05 -1.600000e+05
-3.669826e+05 -2.163735e+05 -1.109211e+05
-4.000000e+05 -2.261203e+05 -1.068074e+05
-4.000000e+05 -2.087170e+05 -1.339462e+05
-4.000000e+05 -2.435271e+05 -1.339363e+05
-6.694135e+04 3.315028e+04 -1.200000e+05
-4.123476e+04 4.444246e+04 -1.200000e+05
2.333333e+05 -3.000000e+05 -1.200000e+05
2.428121e+05 -3.333221e+05 -1.148388e+05
1.273286e+05 2.598213e+05 -1.398606e+05
1.040583e+05 2.491107e+05 -1.600000e+05
9.999732e+04 2.422639e+05 -1.200000e+05
1.333333e+05 3.000000e+05 -1.200000e+05
-2.298496e+05 3.192408e+05 -1.399672e+05
-1.957077e+05 3.196183e+05 -1.400148e+05
-2.088315e+05 3.338106e+05 -1.155395e+05
-2.000000e+05 3.000000e+05 -1.200000e+05
2.790185e+05 1.914188e+05 -1.600000e+05
3.091280e+05 2.092878e+05 -1.600000e+05
-1.004463e+05 2.420157e+05 -1.200000e+05
-2.333333e+05 3.000000e+05 -1.200000e+05
-2.456427e+05 -8.503024e+04 -1.398887e+05
-2.889522e+05 -2.128520e+05 -1.401142e+05
-2.710645e+05 -8.343486e+04 -1.200000e+05
9.346918e+04 -3.198880e+05 -1.400228e+05
6.954495e+04 -3.096128e+05 -1.600000e+05
1.893303e+05 1.036101e+05 -1.600000e+05
-2.752952e+05 -2.335620e+02 -1.398605e+05
-2.795218e+05 1.740299e+04 -1.600000e+05
1.833366e+05 3.000000e+05 -8.524217e+04
-3.592795e+05 -2.175628e+05 -1.401897e+05
-1.576381e+05 -2.032835e+05 -1.408488e+05
-1.747259e+05 -1.907620e+05 -1.600000e+05
-1.739882e+05 -2.499704e+05 -1.600000e+05
-2.388114e+05 -2.384718e+05 -1.200000e+05
-2.601143e+05 -2.338597e+05 -1.410363e+05
-2.311252e+05 1.447901e+05 -1.398748e+05
-2.024470e+05 1.582820e+05 -1.395475e+05
-2.124150e+05 1.486336e+05 -1.200000e+05
-2.499704e+05 1.739882e+05 -1.600000e+05
-2.384718e+05 2.388114e+05 -1.200000e+05
-2.338597e+05 2.601143e+05 -1.410364e+05
1.907639e+05 -1.747250e+05 -1.600000e+05
2.499708e+05 -1.739880e+05 -1.600000e+05
1.687034e+05 1.854091e+05 -1.200000e+05
1.843252e+05 1.612577e+05 -1.200000e+05
1.444580e+05 -2.298895e+05 -1.399605e+05
1.341619e+05 -2.419675e+05 -1.200000e+05
-2.419675e+05 -1.341619e+05 -1.200000e+05
2.122518e+05 2.891239e+05 -1.400802e+05
2.284057e+05 3.206837e+05 -1.392003e+05
2.419925e+05 3.081725e+05 -1.600000e+05
2.080707e+05 3.091344e+05 -1.600000e+05
2.333333e+05 3.000000e+05 -1.200000e+05
1.961299e+05 3.206382e+05 -1.388693e+05
2.000000e+05 3.000000e+05 -1.200000e+05
2.244059e+05 2.783346e+05 -1.600000e+05
4.000000e+05 -2.609104e+05 -1.072509e+05
4.000000e+05 -2.783995e+05 -1.343828e+05
1.831127e+05 1.328266e+05 -1.200000e+05
1.684987e+05 1.555246e+05 -1.393502e+05
1.834812e+05 9.992082e+04 -1.200000e+05
-2.162963e+05 6.777554e+04 -1.398484e+05
-2.133436e+05 8.312062e+04 -1.200000e+05
-2.493997e+05 6.956985e+04 -1.600000e+05
-2.192605e+05 8.691388e+04 -1.600000e+05
-2.013333e+05 9.348306e+04 -1.398530e+05
-6.777554e+04 -2.162963e+05 -1.398484e+05
-8.312062e+04 -2.133436e+05 -1.200000e+05
-3.486641e+05 -3.721562e+05 -1.600000e+05
-3.652174e+05 -4.000000e+05 -1.600000e+05
-3.770691e+05 -3.773545e+05 -1.600000e+05
-8.691389e+04 -2.192605e+05 -1.600000e+05
-9.348306e+04 -2.013332e+05 -1.398530e+05
1.843836e+05 2.144688e+05 -1.200000e+05
1.766680e+05 2.007081e+05 -1.412747e+05
1.901232e+05 2.124200e+05 -1.600000e+05
2.114281e+05 2.316094e+05 -1.401740e+05
2.220893e+05 2.209320e+05 -1.600000e+05
2.309513e+05 -1.107138e+05 -1.398442e+05
2.192728e+05 -8.691548e+04 -1.600000e+05
2.013502e+05 -9.349198e+04 -1.398541e+05
2.163173e+05 -6.778375e+04 -1.398505e+05
2.133554e+05 -8.313160e+04 -1.200000e+05
2.422659e+05 -6.666852e+04 -1.200000e+05
6.956985e+04 2.493997e+05 -1.600000e+05
-2.420943e+05 1.330588e+05 -1.200000e+05
-2.495685e+05 1.391401e+05 -1.600000e+05
4.000000e+05 3.139325e+05 -1.333754e+05
4.000000e+05 3.322969e+05 -1.060030e+05
-1.330588e+05 -2.420943e+05 -1.200000e+05
-1.447900e+05 -2.311252e+05 -1.398748e+05
2.495700e+05 -1.391401e+05 -1.600000e+05
2.311265e+05 -1.447901e+05 -1.398747e+05
2.420955e+05 -1.330599e+05 -1.200000e+05
2.423323e+05 -9.990776e+04 -1.200000e+05
1.381412e+05 2.483511e+05 -1.600000e+05
1.435502e+05 2.298741e+05 -1.399435e+05
1.334068e+05 2.423591e+05 -1.200000e+05
1.499865e+05 2.711656e+05 -1.200000e+05
2.161427e+05 6.771706e+04 -1.398834e+05
1.207785e+05 -2.186517e+05 -1.600000e+05
8.393830e+04 -2.129375e+05 -1.200000e+05
6.801665e+04 -2.160606e+05 -1.398956e+05
-2.129375e+05 -8.393827e+04 -1.200000e+05
-1.887933e+05 -6.924206e+04 -1.600000e+05
-1.839791e+05 -6.712070e+04 -1.200000e+05
2.711327e+05 -5.000072e+04 -1.200000e+05
2.795252e+05 -5.218196e+04 -1.600000e+05
3.200167e+05 -5.927559e+04 -1.397999e+05
6.944161e+04 -2.493102e+05 -1.600000e+05
6.687730e+04 -2.421057e+05 -1.200000e+05
5.089209e+04 -2.457261e+05 -1.398781e+05
-2.493102e+05 -6.944164e+04 -1.600000e+05
-2.421057e+05 -6.687730e+04 -1.200000e+05
-2.457261e+05 -5.089218e+04 -1.398781e+05
-6.687730e+04 2.421057e+05 -1.200000e+05
-5.089218e+04 2.457260e+05 -1.398781e+05
-6.944164e+04 2.493102e+05 -1.600000e+05
-1.830579e+05 -1.354544e+05 -1.200000e+05
-1.861498e+05 -1.507963e+05 -1.400835e+05
-1.887481e+05 -1.368804e+05 -1.600000e+05
-1.547953e+05 2.177643e+05 -1.600000e+05
-1.527861e+05 1.836434e+05 -1.406131e+05
-1.354544e+05 1.830579e+05 -1.200000e+05
-1.519131e+05 2.129228e+05 -1.200000e+05
-1.108160e+05 1.715216e+05 -1.400817e+05
1.354549e+05 -1.830582e+05 -1.200000e+05
1.507939e+05 -1.861664e+05 -1.400726e+05
1.368812e+05 -1.887469e+05 -1.600000e+05
2.495124e+05 6.933239e+04 -1.600000e+05
2.457468e+05 5.077705e+04 -1.398762e+05
2.420471e+05 6.670901e+04 -1.200000e+05
2.128691e+05 8.335333e+04 -1.200000e+05
-5.773187e+04 -1.451826e+05 -1.395667e+05
-7.627524e+04 -1.718145e+05 -1.398203e+05
-8.089399e+04 -1.556833e+05 -1.200000e+05
-9.508491e+04 -1.439381e+05 -1.399303e+05
-5.052484e+04 -1.867534e+05 -1.398058e+05
-5.205928e+04 -1.587820e+05 -1.600000e+05
-4.892705e+04 -1.565394e+05 -1.200000e+05
-2.193871e+05 1.216902e+05 -1.600000e+05
-2.013550e+05 1.274650e+05 -1.397662e+05
-2.132559e+05 1.159856e+05 -1.200000e+05
-1.159856e+05 -2.132559e+05 -1.200000e+05
-1.274650e+05 -2.013550e+05 -1.397662e+05
-4.126993e+04 -5.327341e+04 -1.392458e+05
2.132609e+05 -1.159898e+05 -1.200000e+05
2.013612e+05 -1.274672e+05 -1.397663e+05
2.711303e+05 -1.666838e+04 -1.200000e+05
-1.844237e+05 6.595951e+04 -1.200000e+05
-2.133308e+05 4.996668e+04 -1.200000e+05
-1.890999e+05 6.942808e+04 -1.600000e+05
-6.595951e+04 -1.844237e+05 -1.200000e+05
-4.996668e+04 -2.133308e+05 -1.200000e+05
-6.942800e+04 -1.890998e+05 -1.600000e+05
-1.451804e+05 5.773364e+04 -1.395622e+05
-1.718147e+05 7.627549e+04 -1.398203e+05
-1.587828e+05 5.206017e+04 -1.600000e+05
-1.556834e+05 8.089410e+04 -1.200000e+05
-1.565397e+05 4.892734e+04 -1.200000e+05
-1.436169e+05 9.484298e+04 -1.408365e+05
-1.278601e+05 7.062420e+04 -1.600000e+05
-1.589770e+05 8.677838e+04 -1.600000e+05
1.679310e+05 -2.419847e+05 -1.200000e+05
1.749513e+05 -2.271104e+05 -1.383702e+05
-2.419847e+05 -1.679310e+05 -1.200000e+05
-2.271107e+05 -1.749513e+05 -1.383703e+05
-2.086865e+05 3.084539e+05 -1.600000e+05
-1.679310e+05 2.419847e+05 -1.200000e+05
-1.749513e+05 2.271107e+05 -1.383703e+05
-1.341619e+05 2.419675e+05 -1.200000e+05
1.868470e+05 -5.057146e+04 -1.398171e+05
1.844595e+05 -6.599069e+04 -1.200000e+05
2.133546e+05 -4.999357e+04 -1.200000e+05
3.382975e+04 2.163178e+05 -1.398601e+05
4.998502e+04 2.133744e+05 -1.200000e+05
5.217325e+04 2.192514e+05 -1.600000e+05
6.862558e+04 1.889543e+05 -1.600000e+05
6.666124e+04 2.422601e+05 -1.200000e+05
-6.531007e+04 1.965751e+03 -1.600000e+05
-6.725737e+04 3.707244e+04 -1.600000e+05
-2.672245e+04 4.082373e+04 -1.397910e+05
-3.633397e+04 2.158792e+04 -1.600000e+05
-3.684592e+04 5.998473e+04 -1.600000e+05
-2.408263e+05 1.668122e+05 -1.200000e+05
-1.391401e+05 -2.495685e+05 -1.600000e+05
-1.666667e+05 -3.000000e+05 -1.200000e+05
-3.598409e+05 8.695549e+04 -1.399518e+05
-4.000000e+05 8.695652e+04 -1.600000e+05
-4.000000e+05 6.954855e+04 -1.339348e+05
-4.000000e+05 1.043294e+05 -1.339371e+05
-1.668122e+05 -2.408263e+05 -1.200000e+05
-3.370316e+05 -2.976558e+05 -1.600000e+05
2.408267e+05 -1.668126e+05 -1.200000e+05
3.000000e+05 -1.666667e+05 -1.200000e+05
1.775928e+05 2.302473e+05 -1.389832e+05
1.669774e+05 2.425309e+05 -1.200000e+05
1.453298e+05 -5.778599e+04 -1.395828e+05
1.718799e+05 -7.631502e+04 -1.398248e+05
1.565980e+05 -4.895761e+04 -1.200000e+05
1.557161e+05 -8.090198e+04 -1.200000e+05
1.436593e+05 -9.484755e+04 -1.408417e+05
1.590779e+05 -8.682181e+04 -1.600000e+05
1.281335e+05 -7.068274e+04 -1.600000e+05
1.288211e+05 -3.500579e+04 -1.600000e+05
-3.000000e+05 -2.666667e+05 -1.200000e+05
1.167965e+05 2.135172e+05 -1.200000e+05
4.219957e+04 -1.114344e+05 -1.397374e+05
3.301485e+04 -1.258236e+05 -1.200000e+05
-2.192940e+05 5.219602e+04 -1.600000e+05
-4.000000e+05 1.043246e+05 -7.915048e+04
-9.545176e+04 -1.824441e+04 -1.600000e+05
-1.427065e+05 -9.685768e+04 -1.390433e+05
-2.593455e+05 -1.962436e+05 -1.398484e+05
-2.784142e+05 -1.912214e+05 -1.600000e+05
-2.707662e+05 -2.179072e+05 -1.200000e+05
-2.780299e+05 -2.255581e+05 -1.600000e+05
5.386236e+04 2.637806e+04 -1.395179e+05
3.907539e+04 1.931111e+04 -1.200000e+05
3.551084e+04 4.983500e+03 -1.401695e+05
6.645092e+04 -3.601272e+02 -1.200000e+05
6.882078e+04 5.025999e+02 -1.600000e+05
6.972689e+04 3.644323e+04 -1.600000e+05
8.380137e+04 2.529645e+04 -1.397365e+05
5.916978e+04 5.656173e+04 -1.395165e+05
6.885611e+04 3.266293e+04 -1.200000e+05
2.131750e+05 4.999161e+04 -1.200000e+05
1.838619e+05 6.662807e+04 -1.200000e+05
2.194546e+05 5.189738e+04 -1.600000e+05
2.804416e+05 -3.018086e+05 -1.600000e+05
2.482533e+05 -2.911263e+05 -1.399828e+05
2.509893e+05 -2.731480e+05 -1.200000e+05
-2.128406e+05 2.889620e+05 -1.400964e+05
-2.431644e+05 3.071845e+05 -1.600000e+05
-2.179072e+05 2.707662e+05 -1.200000e+05
-2.509893e+05 2.731480e+05 -1.200000e+05
-2.625457e+05 2.687176e+05 -1.397309e+05
-2.552257e+05 2.792954e+05 -1.600000e+05
1.289742e+05 6.851268e+04 -1.600000e+05
1.292091e+05 3.426324e+04 -1.600000e+05
1.276657e+05 1.629694e+04 -1.398368e+05
1.128651e+05 4.211119e+04 -1.399754e+05
1.261777e+05 3.247389e+04 -1.200000e+05
-1.098693e+05 -1.719657e+05 -1.399493e+05
-1.039990e+05 -1.891450e+05 -1.600000e+05
-9.866504e+04 -1.842849e+05 -1.200000e+05
-1.842849e+05 9.866504e+04 -1.200000e+05
-1.891450e+05 1.039990e+05 -1.600000e+05
-3.381373e+04 2.752819e+05 -1.398651e+05
-5.212623e+04 2.795025e+05 -1.600000e+05
-5.004224e+04 2.710989e+05 -1.200000e+05
-1.668299e+04 2.711182e+05 -1.200000e+05
-1.584790e+05 -1.766863e+04 -1.600000e+05
-1.842147e+05 -3.354001e+04 -1.200000e+05
2.976558e+05 -3.370316e+05 -1.600000e+05
3.513272e+05 -4.000000e+05 -1.317047e+05
3.304348e+05 -4.000000e+05 -1.600000e+05
3.493991e+05 -3.714640e+05 -1.600000e+05
3.721562e+05 -3.486641e+05 -1.600000e+05
3.147326e+05 -3.687922e+05 -1.600000e+05
3.139325e+05 -4.000000e+05 -1.333754e+05
1.590291e+05 -5.219888e+04 -1.600000e+05
1.891629e+05 -6.945437e+04 -1.600000e+05
1.892785e+05 -3.486764e+04 -1.600000e+05
2.193238e+05 -5.220474e+04 -1.600000e+05
1.843024e+05 -9.867760e+04 -1.200000e+05
1.719915e+05 -1.098817e+05 -1.399507e+05
2.193915e+05 -1.216895e+05 -1.600000e+05
1.891685e+05 -1.040046e+05 -1.600000e+05
-2.200180e+05 1.566691e+05 -1.600000e+05
-1.216902e+05 -2.193871e+05 -1.600000e+05
-1.566691e+05 -2.200180e+05 -1.600000e+05
-1.486336e+05 -2.124150e+05 -1.200000e+05
6.924318e+04 -1.887924e+05 -1.600000e+05
5.192795e+04 -2.192164e+05 -1.600000e+05
5.027348e+04 -2.131303e+05 -1.200000e+05
3.387404e+04 -2.161907e+05 -1.398769e+05
-2.131303e+05 -5.027347e+04 -1.200000e+05
-5.027347e+04 2.131303e+05 -1.200000e+05
-3.387414e+04 2.161907e+05 -1.398769e+05
-5.192806e+04 2.192164e+05 -1.600000e+05
6.666667e+04 3.000000e+05 -1.200000e+05
4.999745e+04 2.711308e+05 -1.200000e+05
2.431644e+05 -3.071845e+05 -1.600000e+05
2.255581e+05 -2.780299e+05 -1.600000e+05
2.179072e+05 -2.707662e+05 -1.200000e+05
1.547951e+05 -2.177638e+05 -1.600000e+05
1.519132e+05 -2.129229e+05 -1.200000e+05
-2.177643e+05 -1.547953e+05 -1.600000e+05
-2.129228e+05 -1.519131e+05 -1.200000e+05
-1.368804e+05 1.887481e+05 -1.600000e+05
3.000000e+05 -2.000000e+05 -1.200000e+05
2.902314e+05 -2.481372e+05 -1.399640e+05
-2.000000e+05 -3.000000e+05 -1.200000e+05
-2.270454e+05 -2.793923e+05 -1.600000e+05
-2.793923e+05 2.270454e+05 -1.600000e+05
-1.907620e+05 1.747259e+05 -1.600000e+05
-3.096351e+05 6.956448e+04 -1.600000e+05
2.163790e+05 1.584107e+02 -1.398667e+05
2.133789e+05 -1.668609e+04 -1.200000e+05
1.869181e+05 -1.684372e+04 -1.398318e+05
1.867904e+05 1.663758e+04 -1.398799e+05
1.844508e+05 -6.561698e+01 -1.200000e+05
2.162783e+05 3.371005e+04 -1.398782e+05
2.194195e+05 1.722898e+04 -1.600000e+05
5.004224e+04 -2.710989e+05 -1.200000e+05
-1.545254e+05 -8.382595e+04 -1.200000e+05
-1.584573e+05 -8.717826e+04 -1.600000e+05
8.718990e+04 -1.584562e+05 -1.600000e+05
8.383041e+04 -1.545260e+05 -1.200000e+05
-1.272146e+05 -3.588552e+04 -1.600000e+05
-1.258387e+05 -3.301368e+04 -1.200000e+05
-1.552599e+05 -1.671983e+04 -1.200000e+05
1.767352e+04 -1.584767e+05 -1.600000e+05
3.591235e+04 -1.271727e+05 -1.600000e+05
2.710933e+05 5.000395e+04 -1.200000e+05
-3.299171e+04 1.259041e+05 -1.200000e+05
-1.254033e+05 -1.450889e+05 -1.405254e+05
-1.538411e+05 -1.696848e+05 -1.400542e+05
-1.582144e+05 -1.566742e+05 -1.600000e+05
-1.211305e+05 -1.595837e+05 -1.600000e+05
-1.516282e+05 -1.368628e+05 -1.407819e+05
-1.506674e+05 -1.539112e+05 -1.200000e+05
-1.276905e+05 -1.297612e+05 -1.200000e+05
-1.139970e+05 -1.549663e+05 -1.200000e+05
1.894289e+05 3.442373e+04 -1.600000e+05
1.842548e+05 3.326581e+04 -1.200000e+05
6.710591e+04 1.580841e+05 -1.400135e+05
8.342694e+04 1.562034e+05 -1.200000e+05
6.662222e+04 1.845722e+05 -1.200000e+05
8.387962e+04 1.590573e+05 -1.600000e+05
-1.541814e+05 -1.173641e+05 -1.200000e+05
1.217371e+05 3.598667e+05 -1.401857e+05
8.695531e+04 3.397560e+05 -1.600000e+05
8.701225e+04 3.598638e+05 -1.401625e+05
1.069350e+05 3.341162e+05 -1.169276e+05
7.417460e+04 3.334951e+05 -1.154165e+05
1.370694e+05 -1.551402e+05 -1.402412e+05
1.173686e+05 -1.541829e+05 -1.200000e+05
3.096413e+05 -3.478825e+04 -1.600000e+05
6.734814e+04 -1.703396e+04 -1.398590e+05
5.237160e+04 -3.929415e+04 -1.394076e+05
6.873276e+04 -3.576554e+04 -1.600000e+05
9.701396e+04 -1.837380e+04 -1.200000e+05
6.589604e+04 -3.432486e+04 -1.200000e+05
2.711213e+05 1.666488e+04 -1.200000e+05
-1.738666e+02 3.926111e+04 -1.400927e+05
-7.242550e+02 2.232657e+03 -1.600000e+05
-1.190362e+04 3.712858e+04 -1.600000e+05
2.886419e+04 4.292280e+04 -1.383346e+05
4.411706e+03 1.173384e+04 -1.200000e+05
1.321775e+04 3.681410e+04 -1.600000e+05
9.794451e+04 -8.065464e+02 -1.398458e+05
1.291781e+05 -1.461624e+02 -1.600000e+05
1.284853e+05 -1.723468e+04 -1.398606e+05
1.265791e+05 -6.048474e+02 -1.200000e+05
9.705579e+04 1.567407e+04 -1.200000e+05
9.914572e+04 1.773338e+04 -1.600000e+05
3.331984e+04 2.422503e+05 -1.200000e+05
-2.422503e+05 3.331984e+04 -1.200000e+05
3.738389e+04 -5.890744e+04 -1.600000e+05
4.131218e+04 -4.658484e+04 -1.200000e+05
1.091394e-10 3.000000e+05 -1.200000e+05
1.666046e+04 2.711272e+05 -1.200000e+05
5.638614e+00 3.096370e+05 -1.600000e+05
-5.638625e+00 -3.096370e+05 -1.600000e+05
2.335620e+02 -2.752952e+05 -1.398605e+05
1.668299e+04 -2.711182e+05 -1.200000e+05
-1.738937e+04 3.397558e+05 -1.600000e+05
2.421481e+05 3.341919e+05 -1.172865e+05
2.217103e+05 3.622537e+05 -1.401208e+05
2.257539e+05 3.394351e+05 -1.600000e+05
2.087073e+05 3.346425e+05 -1.169968e+05
1.952552e+05 2.592760e+05 -1.398190e+05
1.833948e+05 2.711351e+05 -1.200000e+05
-1.842016e+05 1.313600e+05 -1.200000e+05
-1.695750e+05 1.528663e+05 -1.397052e+05
-1.719657e+05 1.098693e+05 -1.399493e+05
3.342305e+04 -2.421816e+05 -1.200000e+05
-3.471092e+04 2.493908e+05 -1.600000e+05
2.608696e+05 4.000000e+05 -1.600000e+05
2.433843e+05 3.697487e+05 -1.600000e+05
2.434830e+05 4.000000e+05 -1.341207e+05
1.842084e+05 -1.313645e+05 -1.200000e+05
1.696823e+05 -1.538920e+05 -1.400414e+05
2.200193e+05 -1.566682e+05 -1.600000e+05
1.891802e+05 -1.392160e+05 -1.600000e+05
7.172629e+04 -1.268846e+05 -1.600000e+05
-3.000000e+05 4.205917e+04 -8.508732e+04
-2.513387e+05 -2.728961e+05 -1.200000e+05
1.342531e+05 1.844152e+05 -1.200000e+05
-6.668611e+04 1.250911e+05 -1.200000e+05
-8.717831e+04 1.584574e+05 -1.600000e+05
-5.022031e+04 1.548819e+05 -1.200000e+05
2.421862e+05 3.334103e+04 -1.200000e+05
2.457989e+05 1.674663e+04 -1.398679e+05
5.080697e+04 1.599622e+05 -1.600000e+05
-2.937773e+05 2.787712e+05 -1.391997e+05
-2.804276e+05 2.629944e+05 -1.600000e+05
-2.781104e+05 2.782307e+05 -1.200000e+05
2.937774e+05 -2.787712e+05 -1.391997e+05
2.781104e+05 -2.782307e+05 -1.200000e+05
1.553831e+05 1.647240e+04 -1.200000e+05
1.575397e+05 -3.344563e+00 -1.398389e+05
1.744697e+04 2.193027e+05 -1.600000e+05
1.679346e+04 2.458054e+05 -1.398621e+05
3.479882e+04 2.494068e+05 -1.600000e+05
-2.064507e+02 2.162929e+05 -1.398618e+05
1.662446e+04 2.133378e+05 -1.200000e+05
9.884710e+04 -1.754317e+04 -1.600000e+05
1.593341e+05 1.692362e+04 -1.600000e+05
-1.369008e+04 4.173095e+04 -1.200000e+05
-2.953981e+04 6.921485e+04 -1.200000e+05
2.073322e+05 2.472003e+05 -1.600000e+05
1.726058e+05 2.470243e+05 -1.600000e+05
2.005797e+05 2.424742e+05 -1.200000e+05
1.845204e+05 -3.321799e+04 -1.200000e+05
1.903900e+05 2.784266e+05 -1.600000e+05
2.726530e+05 2.515075e+05 -1.200000e+05
2.037893e+05 3.439757e+05 -7.355878e+04
2.202845e+05 3.726538e+05 -1.160562e+05
1.677894e+04 -2.132627e+05 -1.200000e+05
-2.132627e+05 -1.677894e+04 -1.200000e+05
-1.680187e+04 2.457722e+05 -1.398696e+05
-1.727161e+04 2.192890e+05 -1.600000e+05
-3.342305e+04 2.421816e+05 -1.200000e+05
1.666667e+05 -3.000000e+05 -1.200000e+05
1.737798e+05 -2.474510e+05 -1.600000e+05
2.087272e+05 -2.475841e+05 -1.600000e+05
2.000000e+05 -3.000000e+05 -1.200000e+05
-2.087273e+05 2.475842e+05 -1.600000e+05
-2.255581e+05 2.780299e+05 -1.600000e+05
-1.737799e+05 2.474512e+05 -1.600000e+05
-2.475842e+05 -2.087273e+05 -1.600000e+05
-2.418827e+05 -2.015187e+05 -1.200000e+05
-2.474512e+05 -1.737799e+05 -1.600000e+05
-1.100396e+03 -6.507078e+04 -1.600000e+05
-1.162813e+04 -5.192859e+04 -1.409509e+05
-2.507652e+02 -6.712814e+04 -1.200000e+05
2.494926e+05 3.464667e+04 -1.600000e+05
2.133195e+05 1.664489e+04 -1.200000e+05
5.003829e+04 1.557733e+05 -1.200000e+05
3.330839e+04 1.844615e+05 -1.200000e+05
1.667988e+04 1.554921e+05 -1.200000e+05
-1.836023e+04 -9.703344e+04 -1.200000e+05
-1.756889e+04 -9.707397e+04 -1.600000e+05
1.556575e+05 1.573684e+05 -1.600000e+05
-1.656627e+04 -1.556792e+05 -1.200000e+05
-3.314723e+04 -1.844587e+05 -1.200000e+05
-1.556796e+05 1.656704e+04 -1.200000e+05
3.354003e+04 -1.842147e+05 -1.200000e+05
-2.421816e+05 -3.342305e+04 -1.200000e+05
6.603562e+00 1.890480e+05 -1.600000e+05
-8.677807e+04 -1.589767e+05 -1.600000e+05
-9.716958e+04 -1.546133e+04 -1.200000e+05
-9.703636e+04 1.783566e+04 -1.600000e+05
-9.746006e+04 1.830880e+04 -1.200000e+05
-8.039666e+01 1.843714e+05 -1.200000e+05
-1.677894e+04 2.132627e+05 -1.200000e+05
-3.354001e+04 1.842147e+05 -1.200000e+05
-1.347953e+05 -1.346350e+05 -1.600000e+05
-1.313600e+05 -1.842016e+05 -1.200000e+05
-1.891726e+05 1.392161e+05 -1.600000e+05
-1.445646e+05 1.246380e+05 -1.404648e+05
-1.539112e+05 1.506674e+05 -1.200000e+05
-1.549664e+05 1.139970e+05 -1.200000e+05
-1.329203e+05 1.516690e+05 -1.406235e+05
-1.566743e+05 1.582144e+05 -1.600000e+05
1.579235e+05 -3.353350e+04 -1.396830e+05
1.449055e+05 -1.248830e+05 -1.401351e+05
1.539160e+05 -1.506699e+05 -1.200000e+05
1.549822e+05 -1.139992e+05 -1.200000e+05
1.566844e+05 -1.582153e+05 -1.600000e+05
-3.000000e+05 1.091394e-10 -1.200000e+05
-2.711272e+05 1.666046e+04 -1.200000e+05
-1.666046e+04 -2.711272e+05 -1.200000e+05
-3.773545e+05 3.770691e+05 -1.600000e+05
-4.000000e+05 4.000000e+05 -1.600000e+05
-3.737402e+05 3.759289e+05 -1.352451e+05
-3.652174e+05 4.000000e+05 -1.600000e+05
-4.999745e+04 -2.711308e+05 -1.200000e+05
1.278021e+05 -3.408666e+04 -1.200000e+05
1.557737e+05 -1.665983e+04 -1.200000e+05
1.592917e+05 -1.761256e+04 -1.600000e+05
-4.000000e+05 -1.043669e+05 -7.915028e+04
4.000000e+05 -2.608696e+05 -1.600000e+05
3.699120e+05 -2.434643e+05 -1.600000e+05
3.398536e+05 -2.261640e+05 -1.600000e+05
-2.711182e+05 -1.668299e+04 -1.200000e+05
3.476713e+04 4.000000e+05 -1.339341e+05
-2.795217e+05 -1.736489e+04 -1.600000e+05
-5.318952e+04 -9.748683e+04 -1.600000e+05
-2.333333e+05 -3.000000e+05 -1.200000e+05
-2.818254e+05 -2.906355e+05 -1.383758e+05
-2.728961e+05 2.513387e+05 -1.200000e+05
1.206243e+05 -1.595041e+05 -1.600000e+05
1.297735e+05 -1.276887e+05 -1.200000e+05
-1.595043e+05 -1.206136e+05 -1.600000e+05
1.650981e+05 1.899255e+05 -1.600000e+05
-1.297613e+05 1.276905e+05 -1.200000e+05
-1.206136e+05 1.595043e+05 -1.600000e+05
-1.173641e+05 1.541814e+05 -1.200000e+05
1.893566e+05 -1.916027e+02 -1.600000e+05
3.697769e+05 1.739490e+05 -1.600000e+05
4.000000e+05 1.565217e+05 -1.600000e+05
4.000000e+05 1.913043e+05 -1.600000e+05
4.000000e+05 1.739288e+05 -1.339438e+05
7.881979e+04 8.325559e+04 -1.400987e+05
6.840883e+04 6.717694e+04 -1.200000e+05
4.560834e+04 4.650701e+04 -1.200000e+05
7.340316e+04 6.711468e+04 -1.600000e+05
4.000000e+05 -3.476713e+04 -1.339341e+05
3.698784e+05 -3.478264e+04 -1.600000e+05
6.118989e+04 1.000160e+05 -1.600000e+05
3.946559e+04 6.033213e+04 -1.600000e+05
3.540725e+01 -2.422275e+05 -1.200000e+05
-4.816259e+04 9.623632e+04 -1.200000e+05
-2.731480e+05 -2.509893e+05 -1.200000e+05
-2.015187e+05 2.418827e+05 -1.200000e+05
2.015187e+05 -2.418827e+05 -1.200000e+05
-1.250063e+05 -1.005544e+05 -1.200000e+05
1.565497e+05 -3.597350e+05 -1.401080e+05
1.217472e+05 -3.396725e+05 -1.600000e+05
1.565659e+05 -3.395274e+05 -1.600000e+05
1.913945e+05 -3.595347e+05 -1.400114e+05
1.850155e+05 -3.706291e+05 -1.152024e+05
1.739288e+05 -4.000000e+05 -1.339438e+05
1.391346e+05 -3.698365e+05 -1.600000e+05
1.565217e+05 -4.000000e+05 -1.600000e+05
1.391448e+05 -4.000000e+05 -1.339404e+05
2.263543e+05 -3.385451e+05 -1.600000e+05
1.217436e+05 -3.598205e+05 -1.401561e+05
1.484559e+05 -3.670232e+05 -1.122287e+05
1.739452e+05 -3.697549e+05 -1.600000e+05
-8.382595e+04 1.545254e+05 -1.200000e+05
-1.870394e+05 3.724170e+05 -1.180689e+05
-1.565422e+05 4.000000e+05 -1.067990e+05
-1.739288e+05 4.000000e+05 -1.339438e+05
-1.913274e+05 4.000000e+05 -1.068042e+05
-3.540724e+01 2.422275e+05 -1.200000e+05
2.422419e+05 -3.127827e+00 -1.200000e+05
-4.000000e+05 -1.913274e+05 -1.068042e+05
2.728961e+05 -2.513387e+05 -1.200000e+05
-1.660727e+05 1.903583e+05 -1.600000e+05
-1.701553e+05 1.840797e+05 -1.200000e+05
2.589416e+05 -3.772874e+05 -8.718423e+04
2.037546e+05 -3.439911e+05 -7.356759e+04
2.171522e+05 -3.000000e+05 -8.523531e+04
1.834141e+05 -3.000000e+05 -8.524273e+04
-2.958033e+05 3.612028e+05 -7.008297e+04
3.166284e+04 -1.782808e+04 -1.200000e+05
-4.000000e+05 -1.739130e+04 -1.600000e+05
-3.698778e+05 2.086949e+05 -1.600000e+05
3.733053e+04 -1.796494e+04 -1.600000e+05
1.333333e+05 -3.000000e+05 -1.200000e+05
4.000000e+05 -3.476245e+04 -7.914649e+04
2.088315e+05 -3.338106e+05 -1.155395e+05
-3.595347e+05 -1.913945e+05 -1.400114e+05
-4.000000e+05 -1.913043e+05 -1.600000e+05
-4.000000e+05 -1.739288e+05 -1.339438e+05
-3.796919e+05 -2.883222e+05 -8.524093e+04
-4.000000e+05 -2.783113e+05 -7.917237e+04
-3.793519e+05 -2.596941e+05 -7.900230e+04
-4.000000e+05 -2.609542e+05 -1.067868e+05
-1.697471e+05 -3.424903e+05 -7.324601e+04
-3.304348e+05 -4.000000e+05 -1.600000e+05
-3.406621e+05 -4.000000e+05 -1.364918e+05
5.217391e+04 -4.000000e+05 -1.600000e+05
6.956343e+04 -3.698750e+05 -1.600000e+05
-1.740299e+04 -2.795218e+05 -1.600000e+05
-4.000000e+05 -2.435061e+05 -7.917091e+04
-3.000000e+05 -2.185358e+04 -1.012544e+05
1.898966e+05 1.742331e+05 -1.600000e+05
1.202887e+05 3.363014e+05 -9.218090e+04
1.401165e+05 3.349458e+05 -1.176749e+05
1.179766e+05 1.583238e+05 -1.600000e+05
-4.573022e+04 -4.042614e+04 -1.200000e+05
-3.346073e+04 -6.537007e+04 -1.200000e+05
-6.956458e+04 -3.698779e+05 -1.600000e+05
-8.695652e+04 -4.000000e+05 -1.600000e+05
-5.217391e+04 -4.000000e+05 -1.600000e+05
-6.954855e+04 -4.000000e+05 -1.339348e+05
4.000000e+05 2.609542e+05 -1.067868e+05
4.000000e+05 2.784489e+05 -1.338515e+05
4.000000e+05 2.962649e+05 -1.064801e+05
1.874419e+05 3.789692e+05 -8.152056e+04
2.240231e+05 3.789413e+05 -8.609136e+04
2.086782e+05 4.000000e+05 -7.923121e+04
1.856781e+05 -2.135222e+05 -1.200000e+05
-1.342457e+04 -2.871118e+04 -1.200000e+05
-3.329127e+04 -2.152277e+04 -1.384949e+05
-2.048900e+04 -3.519890e+04 -1.600000e+05
-3.646010e+04 -6.712750e+04 -1.600000e+05
9.951977e+04 5.177220e+04 -1.600000e+05
9.748010e+04 4.804737e+04 -1.200000e+05
8.545602e+04 5.756955e+04 -1.399760e+05
8.287837e+04 1.316219e+05 -1.400627e+05
9.809997e+04 1.247407e+05 -1.600000e+05
1.565118e+05 3.600731e+05 -1.420633e+05
1.391093e+05 4.000000e+05 -1.339433e+05
1.391297e+05 3.698778e+05 -1.600000e+05
1.825416e+04 4.314636e+04 -1.200000e+05
-1.392161e+05 -1.891726e+05 -1.600000e+05
-1.856537e+05 1.598236e+05 -1.200000e+05
-1.595838e+05 1.211306e+05 -1.600000e+05
1.180505e+05 -3.733409e+05 -1.172524e+05
1.205690e+05 -3.772594e+05 -8.692405e+04
1.217587e+05 -4.000000e+05 -1.067949e+05
-4.000000e+05 2.086719e+05 -1.340057e+05
-4.000000e+05 1.912812e+05 -1.068588e+05
3.000000e+05 2.666667e+05 -1.200000e+05
3.652174e+05 4.000000e+05 -1.600000e+05
3.647945e+05 4.000000e+05 -1.166803e+05
1.596197e+05 -1.211410e+05 -1.600000e+05
1.321904e+05 -6.314467e+04 -1.200000e+05
1.666667e+05 3.000000e+05 -1.200000e+05
1.063598e+04 -3.511333e+04 -1.600000e+05
-3.598663e+05 1.565196e+05 -1.401866e+05
-4.000000e+05 1.565217e+05 -1.600000e+05
-4.000000e+05 1.391093e+05 -1.339433e+05
-4.000000e+05 1.738886e+05 -1.339602e+05
-3.695536e+05 -2.088189e+05 -1.600000e+05
-4.000000e+05 -2.260870e+05 -1.600000e+05
-3.493991e+05 3.714640e+05 -1.600000e+05
-3.721562e+05 3.486641e+05 -1.600000e+05
-4.000000e+05 2.608696e+05 -1.600000e+05
-4.000000e+05 2.783995e+05 -1.343828e+05
-4.000000e+05 2.956522e+05 -1.600000e+05
-2.528520e+05 3.000000e+05 -8.519704e+04
-2.212734e+05 3.797095e+05 -8.119827e+04
-2.087182e+05 4.000000e+05 -7.916346e+04
-2.261203e+05 4.000000e+05 -1.068074e+05
8.695326e+04 -3.397307e+05 -1.600000e+05
8.695509e+04 -3.598530e+05 -1.401767e+05
2.260843e+05 4.000000e+05 -1.069703e+05
2.435060e+05 4.000000e+05 -7.936143e+04
2.609104e+05 4.000000e+05 -1.072509e+05
4.000000e+05 -3.647945e+05 -1.166803e+05
6.721020e+04 -3.438286e+05 -7.188832e+04
4.999824e+04 -3.000000e+05 -8.524440e+04
5.174586e+04 -3.370496e+05 -9.384274e+04
1.739130e+04 -4.000000e+05 -1.600000e+05
3.479686e+04 -4.000000e+05 -1.339347e+05
1.471249e+01 -4.000000e+05 -1.339341e+05
3.333333e+04 -3.000000e+05 -1.200000e+05
-3.322969e+05 4.000000e+05 -1.060030e+05
-2.962649e+05 4.000000e+05 -1.064801e+05
-3.139325e+05 4.000000e+05 -1.333754e+05
-4.000000e+05 2.609104e+05 -1.072509e+05
-4.000000e+05 3.121419e+05 -1.351516e+05
-4.000000e+05 3.297566e+05 -1.100294e+05
-4.000000e+05 3.406621e+05 -1.364918e+05
1.346771e+05 -1.348013e+05 -1.600000e+05
-3.139385e+05 4.000000e+05 -7.900966e+04
-3.096370e+05 5.638614e+00 -1.600000e+05
-3.000000e+05 -4.523309e+04 -1.011907e+05
-4.000000e+05 -1.741081e+04 -1.067890e+05
-4.000000e+05 6.954379e+04 -7.914750e+04
-4.000000e+05 8.693354e+04 -1.067915e+05
-4.000000e+05 -1.391448e+05 -1.339404e+05
-6.977408e+04 -3.030843e+04 -1.200000e+05
-1.346354e+05 1.347955e+05 -1.600000e+05
-5.941260e+04 -3.631613e+04 -1.600000e+05
-3.691635e+05 -2.438333e+05 -1.600000e+05
-4.000000e+05 -2.608696e+05 -1.600000e+05
9.810012e+04 8.585238e+04 -1.600000e+05
-1.840797e+05 -1.701553e+05 -1.200000e+05
9.922572e+04 7.591086e+04 -1.200000e+05
3.812782e+04 1.978280e+04 -1.600000e+05
-1.511229e+05 3.699045e+05 -1.166858e+05
-1.861214e+05 3.342120e+05 -9.261934e+04
-1.758151e+05 3.339233e+05 -1.168707e+05
8.429006e+04 9.955660e+04 -1.200000e+05
-4.652176e+04 -1.732156e+04 -1.200000e+05
-1.056523e+05 -1.300648e+05 -1.600000e+05
-1.005545e+05 1.250063e+05 -1.200000e+05
-3.000000e+05 2.480683e+05 -8.496282e+04
-3.000000e+05 -3.379991e+04 -7.885927e+04
-1.300661e+05 1.056528e+05 -1.600000e+05
6.693713e+04 1.275191e+05 -1.200000e+05
6.566424e+04 1.346887e+05 -1.600000e+05
2.656819e+04 -4.107128e+04 -1.392253e+05
1.791820e+04 -4.586048e+04 -1.200000e+05
3.051520e+04 -6.958216e+04 -1.200000e+05
1.005649e+05 -1.249936e+05 -1.200000e+05
1.301661e+05 -1.056702e+05 -1.600000e+05
-3.698780e+05 -2.006715e-02 -1.600000e+05
-3.397565e+05 1.739155e+04 -1.600000e+05
1.221988e+05 -9.455429e+04 -1.200000e+05
1.888587e+05 1.388146e+05 -1.600000e+05
-3.397307e+05 -8.695326e+04 -1.600000e+05
-4.000000e+05 -1.935912e+01 -7.914644e+04
-3.397560e+05 8.695531e+04 -1.600000e+05
-3.000000e+05 -1.096999e+05 -8.521700e+04
3.000000e+05 2.333333e+05 -1.200000e+05
-3.688567e+05 -2.790472e+05 -1.600000e+05
-6.109316e+04 6.580813e+04 -1.200000e+05
-3.637958e+05 -2.614622e+05 -1.412330e+05
-2.666667e+05 -3.000000e+05 -1.200000e+05
-2.782307e+05 -2.781104e+05 -1.200000e+05
-3.000000e+05 -3.000000e+05 -1.200000e+05
-2.784489e+05 4.000000e+05 -1.338515e+05
-2.614622e+05 3.637958e+05 -1.412330e+05
-2.175628e+05 3.592794e+05 -1.401897e+05
-2.263543e+05 3.385451e+05 -1.600000e+05
-2.428121e+05 3.333221e+05 -1.148388e+05
-6.316387e+04 -1.321600e+05 -1.200000e+05
2.175628e+05 -3.592795e+05 -1.401897e+05
-3.647945e+05 -4.000000e+05 -1.166803e+05
-3.297566e+05 -4.000000e+05 -1.100294e+05
3.681027e+05 3.533930e+05 -1.600000e+05
9.823026e+04 -5.310928e+04 -1.600000e+05
-8.553628e+04 -3.322818e+05 -9.499073e+04
-1.067756e+05 -3.341030e+05 -1.168685e+05
-3.000000e+05 -1.448188e+05 -8.503465e+04
-3.396725e+05 -1.217472e+05 -1.600000e+05
-3.597350e+05 -1.565497e+05 -1.401080e+05
-3.698365e+05 -1.391346e+05 -1.600000e+05
3.335839e+05 3.369847e+05 -1.600000e+05
4.000000e+05 3.304348e+05 -1.600000e+05
4.000000e+05 -3.137499e+05 -8.047183e+04
-7.062286e+04 -1.278552e+05 -1.600000e+05
2.506757e+05 -3.666067e+05 -1.105450e+05
2.784489e+05 -4.000000e+05 -1.338515e+05
-2.037516e+05 3.439929e+05 -7.356780e+04
-1.834141e+05 3.000000e+05 -8.524273e+04
-6.736593e+04 3.443098e+05 -7.282865e+04
-5.208543e+04 3.769241e+05 -8.720591e+04
-8.205470e+04 3.708698e+05 -1.135977e+05
-8.592030e+04 3.782383e+05 -8.766330e+04
-3.295170e+04 3.428626e+05 -7.244899e+04
-5.075349e+04 3.352428e+05 -9.427288e+04
-4.999824e+04 3.000000e+05 -8.524440e+04
-8.333181e+04 3.000000e+05 -8.524443e+04
-8.597624e+04 3.341634e+05 -9.514012e+04
-1.022628e+05 3.446532e+05 -7.342449e+04
-4.000000e+05 3.647945e+05 -1.166803e+05
-3.392075e+05 -1.914217e+05 -1.600000e+05
-1.913028e+05 -3.397557e+05 -1.600000e+05
-1.913945e+05 3.595346e+05 -1.400114e+05
-1.914217e+05 3.392075e+05 -1.600000e+05
4.000000e+05 1.739130e+04 -1.600000e+05
4.000000e+05 5.217391e+04 -1.600000e+05
-1.181636e+05 -3.776842e+05 -8.126212e+04
-1.189849e+05 -3.345595e+05 -9.320312e+04
-1.134613e+05 -3.661629e+05 -1.105541e+05
-1.023197e+05 -3.429007e+05 -7.431901e+04
-1.534740e+05 -3.781183e+05 -8.138303e+04
-1.500026e+05 -3.000000e+05 -8.524319e+04
4.000000e+05 -3.121419e+05 -1.351516e+05
4.000000e+05 -3.406621e+05 -1.364918e+05
4.000000e+05 -3.304348e+05 -1.600000e+05
3.395241e+05 1.914500e+05 -1.600000e+05
4.000000e+05 -4.000000e+05 -1.600000e+05
3.773545e+05 -3.770691e+05 -1.600000e+05
4.000000e+05 -4.000000e+05 -1.233333e+05
4.000000e+05 -3.652174e+05 -1.600000e+05
4.000000e+05 -3.297566e+05 -1.100294e+05
3.780242e+05 -3.586094e+05 -1.381091e+05
3.698781e+05 -6.956478e+04 -1.600000e+05
3.397575e+05 -5.217434e+04 -1.600000e+05
4.000000e+05 -2.260870e+05 -1.600000e+05
4.000000e+05 -2.086719e+05 -1.340057e+05
-8.695504e+04 3.598530e+05 -1.401766e+05
-6.957925e+04 4.000000e+05 -1.339359e+05
-6.956343e+04 3.698750e+05 -1.600000e+05
-8.695652e+04 4.000000e+05 -1.600000e+05
-4.000000e+05 2.955719e+05 -1.079943e+05
3.399618e+05 7.155074e+04 -7.348814e+04
3.745357e+05 5.668588e+04 -8.557346e+04
3.389808e+05 3.551054e+04 -7.253534e+04
3.788815e+05 9.423184e+04 -8.883441e+04
3.352965e+05 8.860984e+04 -9.367683e+04
3.438118e+05 1.034639e+05 -7.229220e+04
-4.000000e+05 3.652174e+05 -1.600000e+05
-4.000000e+05 3.304348e+05 -1.600000e+05
3.664390e+05 7.947209e+04 -1.107002e+05
3.377568e+05 5.176836e+04 -8.993143e+04
3.000000e+05 8.682600e+04 -8.499987e+04
3.000000e+05 5.359278e+04 -8.499904e+04
-2.961283e+05 3.781166e+05 -8.829441e+04
-3.714640e+05 -3.493991e+05 -1.600000e+05
-1.869496e+05 -3.575032e+05 -1.415388e+05
-1.565196e+05 -3.598663e+05 -1.401866e+05
-1.598236e+05 -1.856537e+05 -1.200000e+05
-4.000000e+05 -4.000000e+05 -1.233333e+05
-4.000000e+05 -4.000000e+05 -1.600000e+05
-4.000000e+05 -4.000000e+05 -8.666667e+04
1.701559e+05 -1.840801e+05 -1.200000e+05
-3.397557e+05 1.913028e+05 -1.600000e+05
-3.600720e+05 1.912955e+05 -1.420790e+05
3.652174e+05 -4.000000e+05 -1.600000e+05
3.575032e+05 -1.869496e+05 -1.415388e+05
3.397557e+05 -1.913028e+05 -1.600000e+05
3.338332e+05 -1.749945e+05 -1.155539e+05
1.518588e+05 3.700996e+05 -1.170703e+05
1.564951e+05 4.000000e+05 -1.068149e+05
-3.791894e+05 1.896883e+05 -7.893248e+04
1.217391e+05 4.000000e+05 -1.600000e+05
1.565217e+05 4.000000e+05 -1.600000e+05
-3.342348e+05 3.631567e+05 -1.410049e+05
-3.513272e+05 4.000000e+05 -1.317047e+05
-3.304348e+05 4.000000e+05 -1.600000e+05
-4.000000e+05 -3.322969e+05 -1.060030e+05
1.912217e+05 3.397711e+05 -1.600000e+05
1.756162e+05 3.342583e+05 -1.162550e+05
-3.669416e+05 4.000000e+05 -1.056396e+05
1.914217e+05 -3.392075e+05 -1.600000e+05
1.410280e+05 -3.334343e+05 -1.169233e+05
1.730191e+05 -3.339552e+05 -1.162080e+05
3.322969e+05 -4.000000e+05 -1.060030e+05
3.669416e+05 -4.000000e+05 -1.056396e+05
-1.391337e+05 3.339459e+05 -1.161470e+05
-1.565497e+05 3.597350e+05 -1.401080e+05
-4.000000e+05 -3.513272e+05 -1.317047e+05
-4.000000e+05 -3.652174e+05 -1.600000e+05
-3.397557e+05 1.565203e+05 -1.600000e+05
-1.321608e+05 6.316400e+04 -1.200000e+05
2.273370e+05 -3.285971e+05 -9.472266e+04
2.528520e+05 -3.000000e+05 -8.519704e+04
-3.000000e+05 -2.511533e+05 -8.499965e+04
3.397558e+05 -1.565203e+05 -1.600000e+05
-1.565203e+05 -3.397557e+05 -1.600000e+05
-1.406269e+05 -3.340871e+05 -1.168138e+05
1.565203e+05 3.397557e+05 -1.600000e+05
3.337705e+05 1.075411e+05 -1.149525e+05
1.912812e+05 4.000000e+05 -1.068588e+05
3.411876e+05 1.364683e+03 -7.308142e+04
-3.598665e+05 1.217371e+05 -1.401858e+05
-3.397558e+05 1.217377e+05 -1.600000e+05
-1.565659e+05 3.395274e+05 -1.600000e+05
-1.217472e+05 3.396725e+05 -1.600000e+05
-1.073507e+05 3.337828e+05 -1.155390e+05
1.081028e+05 -3.338745e+05 -1.162273e+05
3.397560e+05 -1.217379e+05 -1.600000e+05
2.957693e+05 3.381992e+05 -1.600000e+05
4.000000e+05 -1.564951e+05 -1.068149e+05
3.738420e+05 -1.872400e+05 -1.180575e+05
-1.895678e+05 3.781665e+05 -8.826877e+04
-1.697334e+05 3.440014e+05 -7.356009e+04
-1.510960e+05 3.787211e+05 -9.058615e+04
-1.522450e+05 3.341969e+05 -9.261529e+04
-1.364031e+05 3.442078e+05 -7.191224e+04
-1.739337e+05 4.000000e+05 -7.915745e+04
-1.217371e+05 -3.598665e+05 -1.401858e+05
-1.217377e+05 -3.397558e+05 -1.600000e+05
-2.240512e+05 -3.781300e+05 -8.837600e+04
-2.202020e+05 -3.343029e+05 -9.258509e+04
-2.038048e+05 -3.440157e+05 -7.352736e+04
-2.609542e+05 4.000000e+05 -1.067868e+05
-2.435060e+05 -4.000000e+05 -7.936143e+04
-2.086782e+05 -4.000000e+05 -7.923121e+04
-3.196754e+05 -2.744308e+05 -9.414568e+04
-1.391050e+05 -4.000000e+05 -7.915833e+04
-1.564951e+05 -4.000000e+05 -1.068149e+05
-1.217140e+05 -4.000000e+05 -1.067979e+05
-2.434830e+05 -4.000000e+05 -1.341207e+05
-2.609104e+05 -4.000000e+05 -1.072509e+05
-2.260843e+05 -4.000000e+05 -1.069703e+05
-7.267077e+04 3.340713e+05 -1.161531e+05
-1.217436e+05 3.598204e+05 -1.401561e+05
-8.695326e+04 3.397307e+05 -1.600000e+05
7.136851e+04 -3.340078e+05 -1.159320e+05
-8.695468e+04 -3.598666e+05 -1.401856e+05
-8.695531e+04 -3.397560e+05 -1.600000e+05
-2.589428e+05 3.772849e+05 -8.718402e+04
-2.435061e+05 4.000000e+05 -7.917091e+04
3.698780e+05 -1.043472e+05 -1.600000e+05
4.000000e+05 -1.217391e+05 -1.600000e+05
4.000000e+05 -8.695652e+04 -1.600000e+05
4.000000e+05 -1.043294e+05 -1.339371e+05
3.653203e+05 4.206203e+04 -1.085174e+05
-4.908997e+04 3.738152e+05 -1.180109e+05
-2.528551e+05 -3.000000e+05 -8.501233e+04
-1.043294e+05 -4.000000e+05 -1.339371e+05
-1.391093e+05 -4.000000e+05 -1.339433e+05
4.000000e+05 -4.000000e+05 -8.666667e+04
3.698778e+05 -2.086949e+05 -1.600000e+05
-5.217317e+04 -3.397563e+05 -1.600000e+05
-5.217245e+04 -3.598667e+05 -1.401857e+05
-3.478403e+04 -3.096363e+05 -1.600000e+05
4.719087e+04 3.654048e+05 -1.113295e+05
4.000000e+05 -1.738868e+05 -7.917879e+04
4.000000e+05 -1.391050e+05 -7.915833e+04
-4.000000e+05 1.217140e+05 -1.067979e+05
-4.000000e+05 1.391050e+05 -7.915833e+04
-4.000000e+05 -2.087182e+05 -7.916346e+04
-4.000000e+05 -3.139325e+05 -1.333754e+05
-4.000000e+05 -3.304348e+05 -1.600000e+05
1.622853e+04 -3.773016e+05 -8.829462e+04
3.480155e+04 -4.000000e+05 -7.914706e+04
1.935912e+01 -4.000000e+05 -7.914644e+04
1.741081e+04 -4.000000e+05 -1.067890e+05
3.000000e+05 -2.489635e+05 -8.495609e+04
-2.175382e+05 3.671439e+05 -1.111420e+05
-1.833366e+05 -3.000000e+05 -8.524217e+04
-4.000000e+05 1.913043e+05 -1.600000e+05
4.000000e+05 3.669416e+05 -1.056396e+05
4.000000e+05 4.000000e+05 -1.233333e+05
1.913043e+05 -4.000000e+05 -1.600000e+05
-1.737111e+04 -4.000000e+05 -1.067886e+05
1.043460e+05 -3.698657e+05 -1.600000e+05
4.000000e+05 4.000000e+05 -1.600000e+05
4.000000e+05 3.652174e+05 -1.600000e+05
1.184081e+05 -3.341944e+05 -9.261346e+04
8.168568e+04 -3.777212e+05 -9.033014e+04
2.379296e+05 -3.448645e+05 -7.307321e+04
1.006726e+05 -3.427220e+05 -7.214230e+04
8.531462e+04 -3.341649e+05 -9.364034e+04
1.043619e+05 -4.000000e+05 -1.339378e+05
1.565422e+05 -4.000000e+05 -1.067990e+05
-2.260870e+05 -4.000000e+05 -1.600000e+05
-4.000000e+05 4.000000e+05 -8.666667e+04
-4.000000e+05 4.000000e+05 -1.233333e+05
-1.903583e+05 -1.660727e+05 -1.600000e+05
-4.000000e+05 -1.217391e+05 -1.600000e+05
-4.000000e+05 -1.565217e+05 -1.600000e+05
4.000000e+05 4.000000e+05 -8.666667e+04
3.439832e+05 -2.032474e+05 -7.354398e+04
3.342323e+05 -1.852267e+05 -9.245292e+04
3.781897e+05 -1.889744e+05 -8.833171e+04
-1.166670e+05 3.000000e+05 -8.524440e+04
-2.608696e+05 -4.000000e+05 -1.600000e+05
1.660734e+05 -1.903573e+05 -1.600000e+05
-2.976558e+05 3.370316e+05 -1.600000e+05
1.217377e+05 3.397558e+05 -1.600000e+05
-2.211836e+05 -3.732820e+05 -1.186483e+05
-3.349289e+05 -2.545767e+05 -9.260961e+04
-2.956522e+05 -4.000000e+05 -1.600000e+05
3.553305e+05 1.914526e+05 -1.401643e+05
3.396479e+05 1.565249e+05 -1.600000e+05
3.397565e+05 -8.695576e+04 -1.600000e+05
2.528551e+05 3.000000e+05 -8.501233e+04
-4.000000e+05 -3.139385e+05 -7.900966e+04
2.609542e+05 -4.000000e+05 -1.067868e+05
1.527042e+05 -3.784528e+05 -8.168262e+04
1.391501e+05 -4.000000e+05 -7.915321e+04
2.784459e+05 4.000000e+05 -7.967896e+04
4.000000e+05 -2.956522e+05 -1.600000e+05
4.000000e+05 3.139385e+05 -7.900966e+04
-3.137499e+05 -4.000000e+05 -8.047183e+04
-4.000000e+05 2.260870e+05 -1.600000e+05
-2.086719e+05 -4.000000e+05 -1.340057e+05
-2.086949e+05 -3.698778e+05 -1.600000e+05
-2.438333e+05 3.691635e+05 -1.600000e+05
-2.435271e+05 4.000000e+05 -1.339363e+05
-2.790472e+05 3.688567e+05 -1.600000e+05
-2.608696e+05 4.000000e+05 -1.600000e+05
2.438333e+05 -3.691635e+05 -1.600000e+05
2.435271e+05 -4.000000e+05 -1.339363e+05
2.790472e+05 -3.688567e+05 -1.600000e+05
2.608696e+05 -4.000000e+05 -1.600000e+05
-3.147326e+05 3.687922e+05 -1.600000e+05
-2.506751e+05 3.666064e+05 -1.105446e+05
-4.000000e+05 -2.784489e+05 -1.338515e+05
2.086653e+05 3.698911e+05 -1.600000e+05
-4.000000e+05 -2.962649e+05 -1.064801e+05
4.000000e+05 2.087170e+05 -1.339462e+05
3.696623e+05 2.088464e+05 -1.600000e+05
4.000000e+05 2.260870e+05 -1.600000e+05
4.000000e+05 2.435271e+05 -1.339363e+05
-2.956522e+05 4.000000e+05 -1.600000e+05
4.000000e+05 1.913274e+05 -1.068042e+05
4.000000e+05 -1.738886e+05 -1.339602e+05
3.698778e+05 -1.739123e+05 -1.600000e+05
4.000000e+05 -1.913043e+05 -1.600000e+05
-1.739123e+05 -3.698778e+05 -1.600000e+05
-1.913043e+05 -4.000000e+05 -1.600000e+05
-1.738886e+05 -4.000000e+05 -1.339602e+05
3.660406e+05 1.137940e+05 -1.097966e+05
4.000000e+05 2.956522e+05 -1.600000e+05
4.000000e+05 2.608696e+05 -1.600000e+05
1.145270e+05 3.697150e+05 -1.133672e+05
2.956522e+05 -4.000000e+05 -1.600000e+05
1.043294e+05 4.000000e+05 -1.339371e+05
1.043471e+05 3.698779e+05 -1.600000e+05
-3.698778e+05 1.739123e+05 -1.600000e+05
-3.698778e+05 1.391297e+05 -1.600000e+05
-1.391297e+05 -3.698778e+05 -1.600000e+05
-1.565217e+05 -4.000000e+05 -1.600000e+05
3.698779e+05 -1.391297e+05 -1.600000e+05
4.000000e+05 -1.565217e+05 -1.600000e+05
-1.043471e+05 -3.698779e+05 -1.600000e+05
-1.217391e+05 -4.000000e+05 -1.600000e+05
-3.698779e+05 1.043471e+05 -1.600000e+05
-4.000000e+05 1.217391e+05 -1.600000e+05
4.000000e+05 -1.217140e+05 -1.067979e+05
4.000000e+05 -1.391093e+05 -1.339433e+05
8.695652e+04 -4.000000e+05 -1.600000e+05
-2.784459e+05 -4.000000e+05 -7.967896e+04
-1.043460e+05 3.698657e+05 -1.600000e+05
8.187206e+04 3.731271e+05 -1.183388e+05
6.956458e+04 3.698779e+05 -1.600000e+05
8.695652e+04 4.000000e+05 -1.600000e+05
6.954855e+04 4.000000e+05 -1.339348e+05
-7.963080e+04 -3.671047e+05 -1.118284e+05
-3.698779e+05 6.956458e+04 -1.600000e+05
4.000000e+05 -6.954855e+04 -1.339348e+05
-5.217391e+04 4.000000e+05 -1.600000e+05
-3.478186e+04 3.698776e+05 -1.600000e+05
-3.479686e+04 4.000000e+05 -1.339347e+05
2.260870e+05 4.000000e+05 -1.600000e+05
5.217391e+04 4.000000e+05 -1.600000e+05
1.739155e+04 3.397565e+05 -1.600000e+05
-3.478217e+04 -3.698780e+05 -1.600000e+05
1.860546e+05 3.342117e+05 -9.263759e+04
-4.000000e+05 5.217391e+04 -1.600000e+05
5.215260e+04 4.000000e+05 -1.067892e+05
-2.006715e-02 3.698780e+05 -1.600000e+05
1.739130e+04 4.000000e+05 -1.600000e+05
-1.723605e+04 3.781460e+05 -8.824091e+04
1.737111e+04 4.000000e+05 -1.067886e+05
-1.741081e+04 4.000000e+05 -1.067890e+05
-1.471249e+01 4.000000e+05 -1.339341e+05
-1.912812e+05 -4.000000e+05 -1.068588e+05
-5.215260e+04 -4.000000e+05 -1.067892e+05
-3.476713e+04 -4.000000e+05 -1.339341e+05
-4.545570e+04 -3.794932e+05 -8.703909e+04
-1.739130e+04 -4.000000e+05 -1.600000e+05
2.207801e+05 3.338506e+05 -9.489780e+04
2.171306e+05 3.000000e+05 -8.507397e+04
4.000000e+05 1.043669e+05 -7.915028e+04
1.700355e+04 -3.349635e+05 -9.461513e+04
4.000000e+05 -5.217391e+04 -1.600000e+05
-2.171306e+05 -3.000000e+05 -8.507397e+04
-1.391346e+05 3.698365e+05 -1.600000e+05
-1.391448e+05 4.000000e+05 -1.339404e+05
-1.217391e+05 4.000000e+05 -1.600000e+05
-1.139916e+05 3.669038e+05 -1.118900e+05
-1.043619e+05 4.000000e+05 -1.339378e+05
1.217391e+05 -4.000000e+05 -1.600000e+05
4.000000e+05 -1.739130e+04 -1.600000e+05
4.000000e+05 -1.737111e+04 -1.067886e+05
3.760062e+05 1.788115e+04 -8.744490e+04
4.000000e+05 1.741081e+04 -1.067890e+05
4.000000e+05 1.471249e+01 -1.339341e+05
4.000000e+05 1.043619e+05 -1.339378e+05
3.698755e+05 6.955988e+04 -1.600000e+05
4.000000e+05 8.695652e+04 -1.600000e+05
-1.565217e+05 4.000000e+05 -1.600000e+05
-1.739452e+05 3.697549e+05 -1.600000e+05
-3.395274e+05 -1.565659e+05 -1.600000e+05
-3.697549e+05 -1.739452e+05 -1.600000e+05
-1.166689e+05 -3.000000e+05 -8.524369e+04
-4.000000e+05 -2.956522e+05 -1.600000e+05
-4.000000e+05 -1.739337e+05 -7.915745e+04
-8.697571e+04 4.000000e+05 -1.067920e+05
-1.043669e+05 4.000000e+05 -7.915028e+04
-6.958407e+04 4.000000e+05 -7.914830e+04
2.175382e+05 -3.671440e+05 -1.111420e+05
4.000000e+05 -2.086782e+05 -7.923121e+04
2.088189e+05 -3.695536e+05 -1.600000e+05
4.000000e+05 -1.912812e+05 -1.068588e+05
2.260870e+05 -4.000000e+05 -1.600000e+05
2.087170e+05 -4.000000e+05 -1.339462e+05
1.882034e+05 -3.772563e+05 -8.763868e+04
3.000000e+05 1.196837e+05 -8.500089e+04
4.000000e+05 2.261203e+05 -1.068074e+05
3.000000e+05 -1.820752e+05 -8.495463e+04
-2.783113e+05 4.000000e+05 -7.917237e+04
-4.000000e+05 -1.565422e+05 -1.067990e+05
1.913274e+05 -4.000000e+05 -1.068042e+05
2.261203e+05 -4.000000e+05 -1.068074e+05
2.212735e+05 -3.797095e+05 -8.119827e+04
1.043669e+05 -4.000000e+05 -7.915028e+04
2.435061e+05 -4.000000e+05 -7.917091e+04
-1.935912e+01 4.000000e+05 -7.914644e+04
3.476245e+04 4.000000e+05 -7.914649e+04
-2.378976e+05 3.446011e+05 -7.322250e+04
-4.000000e+05 1.738868e+05 -7.917879e+04
-4.000000e+05 1.564951e+05 -1.068149e+05
-4.000000e+05 2.086782e+05 -7.923121e+04
-2.202282e+05 3.342998e+05 -9.263455e+04
-1.739130e+04 4.000000e+05 -1.600000e+05
2.087182e+05 -4.000000e+05 -7.916346e+04
3.442729e+05 -3.269371e+04 -7.307787e+04
4.000000e+05 1.935912e+01 -7.914644e+04
3.364380e+05 1.561019e+04 -9.061433e+04
-1.666845e+04 -3.000000e+05 -8.524427e+04
4.000000e+05 8.697571e+04 -1.067920e+05
4.000000e+05 6.958407e+04 -7.914830e+04
4.000000e+05 3.480155e+04 -7.914706e+04
4.000000e+05 5.219310e+04 -1.067901e+05
3.440185e+05 -1.690943e+05 -7.355483e+04
4.000000e+05 6.957925e+04 -1.339359e+05
3.403174e+04 -3.434408e+05 -7.337270e+04
4.494474e+04 -3.775266e+05 -8.983950e+04
1.166689e+05 3.000000e+05 -8.524369e+04
1.739337e+05 -4.000000e+05 -7.915745e+04
1.861214e+05 -3.342120e+05 -9.261934e+04
1.704645e+05 -3.425505e+05 -7.315470e+04
-1.703908e+04 3.341270e+05 -9.397774e+04
6.060247e+02 3.429597e+05 -7.249987e+04
-3.480155e+04 4.000000e+05 -7.914706e+04
-7.917913e+04 -3.798815e+05 -8.527255e+04
-3.397772e+04 -3.439991e+05 -7.356080e+04
-6.694082e+04 -3.432566e+05 -7.342763e+04
-6.954379e+04 -4.000000e+05 -7.914750e+04
6.958407e+04 -4.000000e+05 -7.914830e+04
5.219310e+04 -4.000000e+05 -1.067901e+05
4.745002e+04 3.787157e+05 -9.057480e+04
8.622060e+04 3.763499e+05 -8.581234e+04
3.362411e+04 3.418582e+05 -7.213146e+04
6.820871e+04 3.423747e+05 -7.151657e+04
-5.000184e+04 -3.000000e+05 -8.524415e+04
6.954379e+04 4.000000e+05 -7.914750e+04
1.550540e+05 3.781516e+05 -8.826391e+04
-5.219310e+04 4.000000e+05 -1.067901e+05
-3.476245e+04 -4.000000e+05 -7.914649e+04
-1.043246e+05 -4.000000e+05 -7.915048e+04
-8.693354e+04 -4.000000e+05 -1.067915e+05
8.697571e+04 -4.000000e+05 -1.067920e+05
4.000000e+05 2.087182e+05 -7.916346e+04
-1.184346e+05 3.776535e+05 -8.176522e+04
1.202483e+05 3.767159e+05 -8.244346e+04
1.043246e+05 4.000000e+05 -7.915048e+04
1.017501e+05 3.430802e+05 -7.267713e+04
8.622334e+04 3.357713e+05 -9.256177e+04
8.693354e+04 4.000000e+05 -1.067915e+05
1.357740e+05 -3.440019e+05 -7.355756e+04
-1.391501e+05 4.000000e+05 -7.915321e+04
-1.217587e+05 4.000000e+05 -1.067949e+05
-1.198635e+05 3.363488e+05 -9.348578e+04
1.351466e+05 3.432434e+05 -7.224649e+04
1.391050e+05 4.000000e+05 -7.915833e+04
1.217140e+05 4.000000e+05 -1.067979e+05
1.544530e+05 -3.355094e+05 -9.316076e+04
-1.856242e+05 -3.787259e+05 -9.062841e+04
-2.171522e+05 3.000000e+05 -8.523531e+04
-1.738868e+05 -4.000000e+05 -7.917879e+04
1.522226e+05 3.341944e+05 -9.261945e+04
1.697872e+05 3.439826e+05 -7.357044e+04
1.738868e+05 4.000000e+05 -7.917879e+04
-1.860545e+05 -3.342117e+05 -9.263759e+04
1.500026e+05 3.000000e+05 -8.524319e+04
3.000000e+05 1.998877e+04 -8.499439e+04
-4.000000e+05 -1.391501e+05 -7.915321e+04
-1.666490e+04 3.000000e+05 -8.524435e+04
-8.333530e+04 -3.000000e+05 -8.524398e+04
1.666845e+04 3.000000e+05 -8.524427e+04
5.000184e+04 3.000000e+05 -8.524415e+04
1.166670e+05 -3.000000e+05 -8.524440e+04
3.000000e+05 -1.367359e+04 -8.497925e+04
3.000000e+05 -4.734084e+04 -8.495152e+04
1.500119e+05 -3.000000e+05 -8.524415e+04
-1.500119e+05 3.000000e+05 -8.524415e+04
8.333181e+04 -3.000000e+05 -8.524443e+04
8.333530e+04 3.000000e+05 -8.524398e+04
1.666490e+04 -3.000000e+05 -8.524435e+04
3.000000e+05 6.399070e+04 -6.749952e+04
3.199809e+05 7.296968e+04 -6.174407e+04
-3.104794e+05 -2.066614e+05 -6.194768e+04
-3.000000e+05 -2.034600e+05 -6.749895e+04
-3.115001e+05 -1.908041e+05 -6.166745e+04
-3.000000e+05 -1.860374e+05 -6.750271e+04
3.000000e+05 8.060731e+04 -6.749994e+04
3.099905e+05 7.367915e+04 -5.587204e+04
3.000000e+05 6.918966e+04 -5.874976e+04
-3.000000e+05 -1.981043e+05 -5.874947e+04
-3.052397e+05 -1.997050e+05 -5.597384e+04
-3.057500e+05 -1.917764e+05 -5.583372e+04
-3.000000e+05 -1.893930e+05 -5.875136e+04
3.000000e+05 7.749796e+04 -5.874997e+04
2.275540e+05 2.463300e+05 -8.640045e+04
2.028353e+05 2.530455e+05 -9.608402e+04
-1.409853e+05 1.144707e+05 -7.504675e+04
-1.694036e+05 1.044181e+05 -9.523394e+04
-1.423583e+05 8.231033e+04 -9.459854e+04
-1.597921e+05 9.018253e+04 -7.264833e+04
-1.333566e+05 7.948846e+04 -7.077676e+04
-1.635035e+05 6.331118e+04 -7.338624e+04
-1.728940e+05 7.283632e+04 -9.688043e+04
-1.662975e+05 1.146747e+05 -6.896099e+04
-1.894595e+05 8.814532e+04 -7.397688e+04
1.186137e+05 -7.122146e+04 -9.554174e+04
9.133447e+04 -6.479162e+04 -7.243298e+04
1.154973e+05 -4.191466e+04 -9.305856e+04
8.455658e+04 -4.783053e+04 -9.815963e+04
9.367480e+04 -9.966277e+04 -8.317902e+04
6.308926e+04 -8.300440e+04 -7.159700e+04
8.385297e+04 -7.578686e+04 -9.567489e+04
1.713980e+05 -1.632637e+05 -9.440179e+04
1.538245e+05 -2.034395e+05 -9.754302e+04
1.400043e+05 -1.596041e+05 -1.001227e+05
1.519399e+05 1.859189e+05 -7.282055e+04
1.541666e+05 1.668906e+05 -9.857420e+04
1.653063e+05 1.533386e+05 -7.539896e+04
1.342545e+05 1.752605e+05 -8.634676e+04
1.167504e+05 -7.584056e+04 -7.083649e+04
1.778092e+05 2.609206e+05 -7.155722e+04
-6.723373e+04 -2.326365e+05 -7.761961e+04
-8.157812e+04 -2.465778e+05 -8.548481e+04
-6.051685e+04 -2.641313e+05 -7.445140e+04
-7.547761e+04 -2.134032e+05 -9.784735e+04
-9.529863e+04 -2.249494e+05 -7.463009e+04
-1.123942e+05 -2.229694e+05 -9.800947e+04
1.428350e+05 2.124362e+05 -8.458792e+04
1.550177e+05 2.427132e+05 -9.629078e+04
1.660796e+05 2.127626e+05 -7.460567e+04
1.737706e+05 2.160874e+05 -9.948168e+04
-6.075185e+04 -2.048235e+05 -7.461385e+04
-5.322317e+04 -2.400287e+05 -9.746210e+04
1.104099e+05 1.683004e+05 -9.707589e+04
1.190667e+05 2.015540e+05 -9.445554e+04
-1.691972e+05 2.160718e+05 -7.309740e+04
-1.902291e+05 2.322724e+05 -7.470038e+04
-1.739870e+05 2.306869e+05 -9.715815e+04
-1.922692e+05 2.133340e+05 -9.680107e+04
-1.610861e+05 2.511522e+05 -7.191967e+04
-1.509016e+05 1.957246e+05 -7.353553e+04
-1.368097e+05 2.297732e+05 -7.301269e+04
-1.873175e+05 1.944233e+05 -7.292036e+04
-2.050969e+05 2.132503e+05 -7.441087e+04
-1.616673e+05 1.953981e+05 -9.631613e+04
-2.314490e+05 2.106181e+05 -7.019141e+04
-2.220255e+05 2.408875e+05 -7.388686e+04
-2.503417e+05 2.162053e+05 -8.609765e+04
-2.206211e+05 2.275362e+05 -9.720765e+04
-2.159284e+05 1.804451e+05 -7.229074e+04
1.440935e+05 7.835646e+04 -9.618322e+04
1.203363e+05 8.221893e+04 -7.804282e+04
1.414903e+05 9.960590e+04 -7.248926e+04
1.380115e+05 1.024452e+05 -1.003476e+05
1.631442e+05 6.876485e+04 -7.247151e+04
1.395000e+05 7.453214e+04 -7.265607e+04
1.365653e+05 5.721223e+04 -9.414224e+04
1.714302e+05 6.933010e+04 -9.734374e+04
1.661312e+05 9.149580e+04 -8.574429e+04
1.636969e+05 1.229886e+05 -9.741726e+04
-6.232817e+04 9.204267e+04 -9.876933e+04
-4.567944e+04 6.422350e+04 -9.581137e+04
-7.335012e+04 6.222415e+04 -9.872245e+04
-6.179030e+04 1.344394e+05 -9.796688e+04
-8.670346e+04 1.072005e+05 -9.294393e+04
-7.266931e+04 9.195330e+04 -7.136471e+04
-4.956162e+04 7.138089e+04 -7.240282e+04
-3.547033e+04 9.284433e+04 -8.909905e+04
-4.528651e+04 1.190099e+05 -8.184933e+04
-1.510487e+04 -1.854383e+05 -9.679050e+04
1.098088e+04 -1.701482e+05 -9.892171e+04
-2.229981e+04 -1.623052e+05 -9.460067e+04
-3.196081e+04 -1.392737e+05 -7.496308e+04
-9.205434e+03 -1.626420e+05 -7.396769e+04
-4.484459e+03 -1.369884e+05 -9.670264e+04
-4.236182e+04 -1.498336e+05 -9.850830e+04
-4.007688e+04 -1.722190e+05 -7.347462e+04
-4.938577e+04 -1.842948e+05 -9.689991e+04
-3.063388e+04 4.817680e+03 -8.563739e+04
-2.578904e+04 -1.718941e+04 -1.008871e+05
-4.158321e+04 3.636992e+04 -9.730788e+04
-3.814103e+04 3.393782e+04 -7.135957e+04
-1.142606e+04 3.015608e+04 -9.523751e+04
8.972911e+04 2.796403e+04 -9.628794e+04
-3.504294e+03 -1.078983e+04 -8.406514e+04
-2.771604e+04 -3.710457e+04 -7.689102e+04
-5.416843e+04 -5.693679e+03 -7.234792e+04
-5.302070e+04 -1.954589e+04 -9.840845e+04
4.726989e+04 1.975117e+05 -9.922443e+04
3.003570e+04 2.182333e+05 -1.010791e+05
5.227048e+04 2.243454e+05 -9.601018e+04
7.174240e+04 2.095691e+05 -9.930742e+04
6.033985e+04 1.734163e+05 -9.392887e+04
1.227859e+04 2.019085e+05 -9.664697e+04
4.099449e+04 1.951838e+05 -7.468425e+04
-2.297462e+05 -1.531566e+05 -7.693815e+04
-2.310093e+05 -1.431854e+05 -9.754332e+04
-2.041543e+05 -1.420116e+05 -7.853990e+04
-2.114560e+05 -1.649000e+05 -9.796476e+04
-8.122013e+04 2.329054e+05 -7.101551e+04
-1.077514e+05 2.221075e+05 -9.537065e+04
-1.077467e+05 2.314390e+05 -7.123766e+04
-9.304903e+04 2.503346e+05 -9.371795e+04
-9.214195e+04 2.617033e+05 -7.099733e+04
-5.620158e+04 2.274792e+05 -6.741130e+04
-5.475023e+04 2.052183e+05 -7.309487e+04
-7.224910e+04 2.248696e+05 -9.508874e+04
-8.538747e+04 1.991407e+05 -7.343253e+04
1.793943e+05 1.857995e+05 -9.375948e+04
1.536917e+05 1.937074e+05 -9.803032e+04
1.268911e+05 1.951517e+05 -6.850654e+04
1.038463e+05 2.022536e+05 -7.015577e+04
1.050389e+05 1.751313e+05 -7.326059e+04
-3.158817e+04 2.233063e+05 -7.253603e+04
-2.379344e+04 1.935776e+05 -7.247585e+04
-4.949947e+03 2.221990e+05 -7.141418e+04
-4.192171e+04 2.295759e+05 -9.546728e+04
-5.525230e+04 2.490410e+05 -7.393370e+04
-2.240735e+04 2.502499e+05 -7.229629e+04
-1.914468e+03 2.318275e+05 -9.653469e+04
-2.204808e+04 2.029825e+05 -9.546182e+04
-4.265902e+04 -2.381802e+05 -7.369718e+04
2.520339e+05 5.022670e+04 -7.725707e+04
2.383349e+05 2.413089e+04 -7.397219e+04
2.559430e+05 4.655177e+04 -9.760867e+04
2.780675e+05 4.316252e+04 -7.514542e+04
2.537045e+05 1.199025e+04 -9.201356e+04
2.789611e+05 3.554314e+04 -9.765900e+04
2.760503e+05 2.114188e+03 -8.576692e+04
-2.144461e+05 -2.230404e+05 -9.644595e+04
-2.129735e+05 -1.968563e+05 -9.976137e+04
-1.926298e+05 -2.088607e+05 -8.645984e+04
-1.883291e+05 -1.851018e+05 -9.879902e+04
-1.583760e+05 -1.747627e+05 -9.486339e+04
-1.690762e+05 -2.091352e+05 -9.705665e+04
2.791135e+05 -2.541147e+05 -9.700873e+04
2.462935e+05 -2.656840e+05 -9.710657e+04
2.761950e+05 -2.794575e+05 -1.007350e+05
2.749321e+05 -2.731634e+05 -7.357781e+04
-5.911909e+04 1.194883e+04 -8.887045e+04
-8.307799e+04 2.901019e+04 -9.654406e+04
-2.434975e+05 -8.559340e+04 -7.265670e+04
1.246891e+05 2.364130e+05 -9.511109e+04
2.712390e+05 -2.234251e+05 -9.884833e+04
-2.767793e+05 9.802533e+04 -8.064344e+04
-2.769161e+05 6.549897e+04 -7.844064e+04
-2.490677e+05 8.696112e+04 -7.388400e+04
-1.012298e+05 2.767062e+05 -8.961959e+04
-1.245542e+05 2.593572e+05 -7.259278e+04
-2.552968e+05 8.450395e+04 -9.795225e+04
-2.597065e+05 1.204834e+05 -9.750184e+04
-1.704698e+05 1.009736e+04 -7.292998e+04
-1.906499e+05 7.193087e+02 -9.477137e+04
-1.908414e+05 2.720839e+04 -9.480503e+04
-1.651131e+05 1.670615e+04 -9.578958e+04
2.972273e+04 -9.986152e+03 -9.769616e+04
-1.688324e+05 3.593420e+04 -7.482375e+04
-1.969402e+05 1.461994e+04 -7.166768e+04
-1.767270e+05 -1.462514e+04 -7.304561e+04
-1.801140e+05 1.752806e+05 -9.720971e+04
-2.070564e+05 1.931902e+05 -9.445162e+04
-1.971253e+05 1.543152e+05 -9.578872e+04
-1.742953e+05 1.453324e+05 -7.365898e+04
-1.625917e+05 1.348231e+05 -9.507418e+04
-1.420810e+05 1.646220e+05 -8.023617e+04
-1.783723e+05 1.703645e+05 -7.125674e+04
1.146642e+05 1.117291e+05 -9.611147e+04
9.262925e+04 9.230973e+04 -9.451729e+04
8.532295e+04 1.249329e+05 -9.864244e+04
1.366862e+05 1.403975e+05 -9.678732e+04
1.067650e+05 1.387533e+05 -8.575139e+04
1.399390e+05 1.262022e+05 -7.551179e+04
1.050016e+05 1.054621e+05 -7.267183e+04
-2.609836e+05 -8.555072e+04 -9.296766e+04
1.093434e+05 9.844106e+03 -7.576521e+04
1.334088e+05 1.451363e+04 -7.663826e+04
1.250170e+05 -2.045974e+04 -7.588959e+04
1.305508e+05 -1.236703e+04 -9.681365e+04
8.155948e+04 -6.356478e+03 -7.646262e+04
7.648730e+04 2.053036e+04 -7.265733e+04
1.036059e+05 3.697122e+04 -7.424528e+04
2.128942e+05 -1.344204e+05 -7.405931e+04
1.995746e+05 -1.443751e+05 -9.916524e+04
1.848649e+05 -1.346488e+05 -8.444427e+04
1.999405e+05 -1.129119e+05 -9.633736e+04
2.229303e+05 -1.069842e+05 -7.351951e+04
1.977307e+05 -1.035349e+05 -7.011119e+04
2.007477e+05 -1.608851e+05 -7.492481e+04
5.296033e+04 1.199794e+05 -7.356944e+04
2.901669e+04 1.105079e+05 -7.213308e+04
2.456072e+04 1.273821e+05 -9.555178e+04
4.448355e+04 1.453687e+05 -7.367288e+04
7.661208e+04 1.266069e+05 -7.422737e+04
5.747572e+04 1.389191e+05 -9.754906e+04
5.759222e+04 1.088626e+05 -9.611098e+04
6.784571e+04 8.897407e+04 -7.272414e+04
-1.609263e+05 -2.371554e+05 -9.358493e+04
-1.602830e+05 -2.193470e+05 -7.299989e+04
-1.447927e+05 -2.492389e+05 -7.231463e+04
-1.374381e+05 -2.326754e+05 -9.785980e+04
-1.723358e+05 -2.672378e+05 -9.685488e+04
-1.892940e+05 -2.395994e+05 -9.778131e+04
-1.397503e+05 -2.046467e+05 -9.612283e+04
1.212668e+05 2.236683e+05 -7.217145e+04
1.465366e+05 2.425666e+05 -7.230932e+04
1.521124e+05 -1.333161e+05 -9.521410e+04
1.679503e+05 -1.523698e+05 -6.987909e+04
1.734613e+05 -1.155509e+05 -7.366699e+04
1.440037e+05 -1.248751e+05 -7.127498e+04
1.658861e+05 -1.086471e+05 -9.699482e+04
-2.326883e+05 -1.808009e+05 -9.668804e+04
-2.461812e+05 -1.251510e+05 -7.260125e+04
-2.520255e+05 -1.618058e+05 -9.851661e+04
-2.444023e+05 -1.862151e+05 -7.724300e+04
-2.600658e+05 -1.501127e+05 -7.631546e+04
-2.160895e+05 -2.030779e+05 -7.313341e+04
-2.148111e+05 -1.775906e+05 -7.335538e+04
-2.382495e+05 -2.115471e+05 -9.821486e+04
-2.611441e+05 -1.932827e+05 -9.952942e+04
-2.545771e+05 -1.689333e+04 -7.597935e+04
-2.337928e+05 1.238431e+03 -9.597280e+04
-2.227611e+05 -3.095024e+04 -7.529752e+04
-2.294809e+05 -2.924377e+04 -9.903317e+04
-5.045241e+04 -6.505503e+04 -7.304083e+04
-6.110764e+04 -3.490382e+04 -7.583938e+04
-5.638883e+04 -5.104605e+04 -1.003422e+05
-7.871201e+04 -6.021422e+04 -9.149632e+04
-2.755705e+05 -4.765382e+04 -8.641605e+04
-1.080426e+05 -1.218678e+05 -9.856928e+04
-1.180484e+05 -8.989564e+04 -9.655438e+04
-9.450619e+04 -1.016938e+05 -7.640809e+04
-8.066403e+04 -9.774842e+04 -9.772719e+04
-1.473604e+05 -1.099104e+05 -9.722055e+04
-1.139204e+05 -1.230463e+05 -7.475953e+04
-6.914609e+04 -8.361438e+04 -7.870868e+04
-1.133117e+05 -8.408554e+04 -7.628691e+04
-2.624523e+05 -1.458007e+04 -9.844042e+04
-1.368494e+04 -4.529513e+04 -9.687139e+04
-3.391649e+04 -4.729277e+04 -9.954204e+04
-2.775579e+05 3.055242e+04 -8.060162e+04
1.268439e+04 2.206122e+04 -8.907561e+04
3.461162e+03 3.961783e+04 -7.449190e+04
-8.998909e+03 1.597514e+04 -7.012588e+04
3.617278e+04 2.691795e+04 -9.974363e+04
2.816322e+04 5.083026e+03 -7.431202e+04
2.753159e+05 -3.279248e+04 -8.228071e+04
2.509279e+05 -1.640470e+04 -7.061892e+04
-1.492894e+05 -3.068154e+04 -7.252014e+04
-1.666095e+05 -1.824316e+04 -9.640921e+04
-1.752862e+05 -5.380920e+04 -7.524726e+04
2.490046e+05 -2.276367e+04 -9.497673e+04
-2.462567e+05 -4.936439e+04 -7.406692e+04
1.130291e+05 4.611252e+04 -9.890340e+04
1.159039e+05 7.812143e+04 -9.998971e+04
9.277339e+04 5.905490e+04 -1.009793e+05
9.859412e+04 6.688030e+04 -7.700315e+04
1.270905e+05 2.247051e+04 -9.795413e+04
-1.958563e+05 -3.540040e+04 -7.099928e+04
-2.067598e+05 -1.017850e+04 -8.017211e+04
-2.006768e+05 -5.519386e+04 -9.694004e+04
-2.097010e+05 -6.676531e+04 -7.304525e+04
-1.953632e+05 -2.720188e+04 -9.698718e+04
-1.924451e+05 5.225380e+04 -7.474403e+04
-1.733327e+05 4.538306e+04 -9.885102e+04
-2.028522e+05 5.464268e+04 -9.777374e+04
-2.127691e+05 1.690864e+04 -9.344965e+04
2.772548e+05 -1.334148e+05 -8.085959e+04
2.775389e+05 -1.038659e+05 -8.063614e+04
2.503528e+05 -1.265529e+05 -7.428446e+04
2.617547e+05 -1.570271e+05 -9.700975e+04
2.606657e+05 -1.223367e+05 -9.793143e+04
-1.253534e+05 2.546218e+05 -9.727405e+04
1.456766e+04 -2.048844e+05 -7.198652e+04
4.261853e+04 -1.847078e+05 -9.584801e+04
4.433908e+04 -1.696918e+05 -7.286039e+04
4.469383e+04 -2.067176e+05 -7.106548e+04
1.099315e+04 -1.796656e+05 -7.519812e+04
7.415999e+03 -2.045246e+05 -9.772986e+04
-3.256783e+03 -2.234032e+05 -8.471726e+04
-2.230573e+04 -2.013538e+05 -7.328750e+04
3.827449e+04 -2.180873e+05 -9.514235e+04
-2.847263e+03 2.762054e+05 -7.974317e+04
-2.423269e+04 2.593985e+05 -9.690160e+04
-3.489499e+04 2.767266e+05 -7.940462e+04
7.259806e+03 2.506503e+05 -7.421881e+04
2.061857e+05 -2.709815e+05 -8.893440e+04
2.116137e+05 -2.400040e+05 -7.319789e+04
2.405697e+05 -2.593197e+05 -7.218675e+04
1.894089e+05 -2.587833e+05 -7.287284e+04
1.940925e+05 -5.675242e+04 -8.238231e+04
2.189194e+05 -4.086373e+04 -9.705563e+04
2.155811e+05 -7.403260e+04 -7.161817e+04
2.031182e+05 -8.078266e+04 -9.425008e+04
2.320662e+05 -6.876109e+04 -9.142740e+04
2.316952e+05 -1.001785e+05 -9.721184e+04
2.513348e+05 -5.244516e+04 -9.873712e+04
2.566662e+05 -8.470594e+04 -9.768787e+04
2.523841e+05 -5.209486e+04 -7.315160e+04
2.517521e+05 -8.880636e+04 -7.355064e+04
-4.638501e+04 1.741831e+05 -7.262278e+04
-5.632814e+04 1.932773e+05 -9.553399e+04
-3.335332e+04 1.679835e+05 -9.544372e+04
-7.398338e+04 1.660338e+05 -7.483041e+04
2.422520e+05 -2.201348e+05 -7.194311e+04
2.067026e+05 -2.102741e+05 -7.269255e+04
2.231213e+05 -2.384201e+05 -9.578369e+04
-2.797996e+05 -2.048070e+05 -7.679315e+04
-2.680447e+05 -2.271117e+05 -9.338058e+04
-2.331750e+05 -2.213522e+05 -7.271036e+04
-2.631120e+05 -2.355836e+05 -7.084803e+04
-2.746931e+05 -1.709832e+05 -8.219640e+04
2.757145e+05 1.296645e+05 -7.648246e+04
2.798692e+05 9.830565e+04 -7.020433e+04
2.365238e+05 1.143926e+05 -7.559709e+04
2.593306e+05 1.079677e+05 -9.647578e+04
-2.288032e+05 -1.137680e+05 -8.827279e+04
2.617952e+05 1.421768e+05 -9.533695e+04
2.771977e+05 1.638222e+05 -7.832799e+04
2.539738e+05 1.430918e+05 -6.936976e+04
-2.185202e+05 -2.475846e+05 -8.414629e+04
-2.036903e+05 -2.713867e+05 -9.721676e+04
-1.979768e+05 -2.687093e+05 -7.428152e+04
-2.352425e+05 -2.718820e+05 -9.890690e+04
-2.478534e+05 -2.428915e+05 -9.630126e+04
-2.355823e+05 -2.694374e+05 -7.418899e+04
1.342375e+05 4.787626e+04 -7.193416e+04
2.095641e+05 2.247523e+05 -9.654094e+04
1.940593e+05 2.072017e+05 -7.469040e+04
1.807779e+05 2.375605e+05 -8.762687e+04
1.724043e+05 2.706358e+05 -9.635306e+04
2.034672e+05 2.354957e+05 -7.149637e+04
1.550496e+05 2.722389e+05 -7.447489e+04
-5.934743e+04 -1.243155e+05 -9.799346e+04
-2.203210e+05 3.601761e+04 -7.364206e+04
-2.261095e+05 3.935351e+03 -7.183818e+04
2.364804e+04 1.391484e+05 -6.970741e+04
2.405074e+03 1.386040e+05 -7.313171e+04
2.114293e+04 1.674395e+05 -7.117011e+04
2.551291e+04 1.517184e+05 -9.435255e+04
-1.394436e+04 -2.428657e+05 -7.358194e+04
-3.293805e+04 -2.147540e+05 -9.593015e+04
-2.049161e+04 -2.445662e+05 -9.807399e+04
2.227693e+04 -2.382900e+05 -7.479973e+04
1.348574e+04 -2.432364e+05 -9.767613e+04
1.826408e+05 -9.523167e+04 -9.113776e+04
1.574978e+05 -9.734231e+04 -7.350322e+04
1.684241e+05 -7.535133e+04 -9.566020e+04
1.771056e+05 -8.252333e+04 -7.132383e+04
-6.217239e+04 1.627110e+05 -9.744554e+04
-9.122221e+04 1.868127e+05 -9.719753e+04
-9.300596e+04 1.441531e+05 -9.564586e+04
-5.174157e+04 1.450047e+05 -7.409957e+04
-3.481785e+04 1.403446e+05 -9.669600e+04
-2.496428e+05 5.283189e+04 -7.379284e+04
-2.604154e+05 5.299071e+04 -9.756149e+04
2.021530e+05 2.000568e+05 -9.666310e+04
2.298765e+05 2.115769e+05 -7.333098e+04
1.990857e+05 1.776440e+05 -7.444450e+04
2.309854e+05 1.943878e+05 -9.703494e+04
1.709934e+05 -5.760679e+04 -7.472425e+04
1.793627e+05 -4.545523e+04 -9.827087e+04
1.467480e+05 -7.490250e+04 -7.390745e+04
1.394575e+05 -4.511097e+04 -7.439312e+04
1.480892e+05 -5.699293e+04 -9.696114e+04
-2.592837e+05 1.537651e+04 -9.584304e+04
-1.971423e+05 2.493143e+05 -9.716756e+04
-1.881014e+05 2.547568e+05 -7.347005e+04
-2.044024e+05 2.740578e+05 -8.527107e+04
-2.370537e+05 2.691050e+05 -7.054611e+04
-2.361144e+05 2.646409e+05 -9.487870e+04
-2.040144e+05 -2.253509e+05 -7.309115e+04
-1.808225e+05 -2.400420e+05 -7.363788e+04
-1.817913e+05 -1.883923e+05 -7.349248e+04
2.636481e+05 1.772798e+05 -9.894102e+04
2.505362e+05 1.718148e+05 -7.695831e+04
1.214369e+04 -1.287137e+05 -7.162286e+04
-4.432727e+04 -8.134774e+04 -8.593399e+04
-2.651046e+04 -8.110702e+04 -7.620543e+04
-6.097558e+04 -7.694505e+04 -1.016591e+05
2.253730e+05 8.998975e+04 -9.613520e+04
2.249196e+05 8.512738e+04 -7.054509e+04
2.298112e+05 6.162478e+04 -9.633887e+04
2.522743e+05 8.103104e+04 -7.579150e+04
2.577718e+05 8.132151e+04 -9.812504e+04
2.225529e+05 1.156622e+05 -9.629124e+04
-2.757041e+05 2.013019e+05 -8.126752e+04
-2.619925e+05 2.413347e+05 -7.541645e+04
-2.778134e+05 2.295196e+05 -9.840585e+04
-2.760215e+05 1.669563e+05 -7.719951e+04
-2.585220e+05 1.880146e+05 -9.661439e+04
-2.482355e+05 1.873814e+05 -7.240083e+04
1.918618e+05 -2.473297e+05 -9.831229e+04
2.357308e+05 -2.087984e+05 -9.332313e+04
2.508024e+05 -2.370462e+05 -9.494092e+04
2.012385e+05 -2.134668e+05 -9.751330e+04
6.935507e+04 -2.025278e+05 -9.528022e+04
9.593273e+04 -2.109631e+05 -9.662871e+04
7.395802e+04 -2.356123e+05 -9.679550e+04
7.531255e+04 -2.205217e+05 -7.335781e+04
-8.265171e+04 6.525622e+04 -7.489578e+04
-1.037859e+05 8.548955e+04 -7.009946e+04
-9.686044e+04 1.162058e+05 -7.138445e+04
-8.140008e+04 1.379712e+05 -7.203074e+04
9.078433e+04 2.241311e+05 -7.327658e+04
9.137027e+04 1.965090e+05 -9.566671e+04
7.341840e+04 1.986527e+05 -7.427373e+04
-2.332994e+05 3.509826e+04 -9.645573e+04
1.282194e+05 1.506205e+05 -7.233079e+04
8.173718e+04 1.592955e+05 -8.362164e+04
-1.670448e+05 -5.106780e+04 -9.917850e+04
-1.805606e+05 -7.990752e+04 -9.843188e+04
-1.462770e+05 -7.438121e+04 -9.719785e+04
7.013590e+03 1.136636e+05 -9.286108e+04
3.411445e+03 9.519436e+04 -7.466781e+04
-1.325411e+04 1.091262e+05 -9.895808e+04
-7.029987e+03 1.416863e+05 -9.682631e+04
-1.617305e+04 1.174984e+05 -7.469987e+04
2.249637e+05 1.710136e+05 -7.697433e+04
2.032457e+05 1.524790e+05 -7.498145e+04
2.061105e+05 1.719206e+05 -9.892324e+04
2.114617e+05 1.477699e+05 -9.566192e+04
6.677542e+04 -5.673525e+04 -7.203631e+04
6.228877e+04 -2.685656e+04 -9.797112e+04
8.500693e+04 -3.819355e+04 -7.511663e+04
4.950076e+04 -4.045953e+04 -7.738777e+04
4.777916e+04 -6.144436e+04 -7.365205e+04
5.514325e+04 -7.788244e+04 -9.659084e+04
-2.039858e+05 -1.299124e+05 -9.685090e+04
-2.145626e+05 -9.176961e+04 -9.500671e+04
-2.030880e+05 -1.055137e+05 -7.264434e+04
-2.629276e+05 -1.243177e+05 -9.210017e+04
-1.110018e+05 7.737314e+04 -9.857427e+04
-1.189307e+05 1.042105e+05 -8.454028e+04
-1.105715e+05 5.778388e+04 -8.141599e+04
-1.458116e+05 4.810574e+04 -9.756664e+04
-1.381592e+05 5.052485e+04 -7.300262e+04
2.662585e+05 1.997177e+05 -7.565147e+04
-1.185802e+05 3.782239e+04 -9.657729e+04
-1.027351e+05 -6.219126e+04 -7.710792e+04
-1.116204e+05 -5.111586e+04 -9.728305e+04
-1.398716e+05 -6.279505e+04 -7.412881e+04
-9.075978e+04 -3.546247e+04 -7.385984e+04
-1.193954e+05 -2.519402e+04 -7.443326e+04
2.662485e+05 2.794671e+05 -9.838062e+04
2.698575e+05 2.749286e+05 -7.181282e+04
2.596649e+05 2.475265e+05 -9.734945e+04
-2.588990e+05 1.544546e+05 -9.685774e+04
-2.766660e+05 1.331790e+05 -7.726857e+04
-2.434379e+05 1.527946e+05 -7.241830e+04
-1.899360e+05 1.206547e+05 -7.338565e+04
-2.292938e+05 -5.938130e+04 -9.673118e+04
-2.539003e+05 -4.689961e+04 -1.004455e+05
2.298239e+05 1.443973e+05 -6.939056e+04
2.057229e+05 1.267743e+05 -7.460998e+04
-2.290604e+05 1.985782e+05 -9.333202e+04
-2.516279e+05 2.387866e+05 -1.007759e+05
-1.155536e+05 1.381712e+05 -7.187388e+04
-1.215268e+05 1.347235e+05 -9.590782e+04
1.299000e+05 2.687758e+05 -7.250279e+04
1.369015e+05 2.683713e+05 -9.651455e+04
-7.028049e+04 3.712740e+04 -7.400840e+04
-1.983413e+04 5.756610e+04 -7.194469e+04
-1.530778e+04 6.804947e+04 -9.509607e+04
3.468277e+04 -4.443317e+04 -9.736826e+04
5.546631e+04 -5.505171e+04 -9.858269e+04
-1.542793e+05 -1.929815e+05 -7.413380e+04
-1.293067e+05 -1.788797e+05 -8.308941e+04
-1.195322e+05 -2.009487e+05 -7.271208e+04
-1.299149e+05 -2.247816e+05 -7.239039e+04
7.787542e+04 -1.585813e+05 -8.181550e+04
1.080398e+05 -1.690512e+05 -7.239456e+04
1.063647e+05 -1.524367e+05 -9.444944e+04
8.684916e+04 -1.380424e+05 -6.990227e+04
-1.551315e+05 -1.601330e+05 -6.842098e+04
1.833684e+05 -1.790151e+04 -1.004979e+05
1.867660e+05 1.185256e+04 -1.000324e+05
1.898057e+05 -1.222883e+04 -7.776741e+04
2.193903e+05 -6.621522e+03 -9.760136e+04
1.544444e+05 -2.973544e+04 -9.910118e+04
1.689368e+05 -3.343209e+04 -7.496444e+04
9.608974e+04 -6.013448e+03 -9.676101e+04
6.214541e+04 6.948007e+03 -9.742254e+04
-1.631795e+05 -1.427765e+05 -8.253840e+04
-1.424605e+05 -1.393964e+05 -7.449957e+04
-1.754579e+05 -1.206192e+05 -7.634874e+04
-1.833533e+05 -1.526157e+05 -8.303997e+04
-1.330213e+05 -1.481229e+05 -9.536827e+04
-1.223562e+05 -1.574707e+05 -7.193533e+04
-1.351391e+04 -7.679313e+04 -9.884645e+04
1.236449e+03 -6.272943e+04 -7.773261e+04
9.711123e+03 -4.379669e+04 -9.625565e+04
1.839256e+04 -2.968092e+04 -7.787961e+04
1.604064e+05 -5.507623e+03 -7.725607e+04
1.558476e+05 3.096632e+03 -9.982785e+04
1.585194e+05 2.625825e+04 -7.498744e+04
7.552566e+04 5.126435e+04 -8.420912e+04
6.764667e+04 7.742755e+04 -9.761321e+04
5.384050e+04 5.357182e+04 -7.074490e+04
9.267016e+04 -1.832133e+05 -9.547328e+04
6.686343e+04 -1.723623e+05 -9.763014e+04
7.456042e+04 -1.863806e+05 -7.369355e+04
-8.500855e+04 -2.410365e+03 -7.451540e+04
-7.902321e+04 -6.854377e+03 -9.834514e+04
-1.062426e+05 3.218515e+04 -7.164640e+04
2.392157e+05 -1.775557e+05 -9.506572e+04
2.298208e+05 -1.374361e+05 -9.720524e+04
2.155779e+05 -1.635740e+05 -9.745594e+04
2.344328e+05 -1.568862e+05 -7.269137e+04
2.143513e+05 -1.908782e+05 -9.443131e+04
2.256378e+05 -1.877290e+05 -7.223173e+04
2.629621e+05 -1.907389e+05 -9.897697e+04
2.505695e+05 -1.888037e+05 -7.164942e+04
5.535469e+04 -1.438815e+05 -9.747510e+04
5.353464e+04 -1.352129e+05 -7.368880e+04
8.258369e+04 -1.284806e+05 -9.512713e+04
9.685772e+04 -2.010106e+05 -7.412589e+04
1.212793e+05 -2.057676e+05 -9.635731e+04
1.107123e+05 -2.246724e+05 -7.294267e+04
1.244491e+05 -1.952577e+05 -7.265557e+04
-2.505962e+05 1.203087e+05 -7.346992e+04
-6.438702e+04 2.659519e+05 -9.337185e+04
1.073168e+05 -2.352045e+05 -9.673435e+04
1.749379e+05 -2.263287e+05 -7.920618e+04
-2.490813e+05 1.971046e+04 -7.361450e+04
-2.535505e+04 1.449594e+05 -7.373896e+04
6.480439e+04 2.771918e+05 -8.940193e+04
3.796647e+04 2.629627e+05 -7.230513e+04
7.359148e+04 2.612688e+05 -7.092864e+04
3.747369e+04 2.531881e+05 -9.637670e+04
7.316108e+04 2.512067e+05 -9.385705e+04
6.092289e+04 2.292992e+05 -7.389151e+04
2.594988e+04 2.259102e+05 -7.488214e+04
1.695711e+05 -2.743475e+05 -9.042559e+04
1.301667e+05 -2.645115e+05 -9.767256e+04
1.566107e+05 -2.575233e+05 -7.277057e+04
1.614529e+05 -2.511380e+05 -9.779941e+04
-9.351377e+04 -1.836305e+05 -7.474562e+04
-6.643403e+04 -1.697481e+05 -7.552290e+04
2.197693e+05 5.425239e+04 -7.483715e+04
2.254637e+05 2.908881e+04 -9.638901e+04
2.256971e+05 -2.875375e+03 -7.497636e+04
2.745702e+04 1.769722e+05 -9.527385e+04
-2.933931e+03 1.743126e+05 -9.596482e+04
1.740287e+05 1.188817e+05 -7.260490e+04
2.759433e+05 -6.284951e+04 -8.453093e+04
2.732259e+05 -2.018988e+05 -7.829397e+04
2.673098e+05 -1.663824e+05 -7.376618e+04
1.971502e+05 7.528307e+04 -7.525235e+04
1.950833e+05 9.799386e+04 -9.712733e+04
1.992603e+05 5.293199e+04 -9.863057e+04
-1.041465e+04 1.660234e+05 -7.197655e+04
2.795666e+05 7.397150e+04 -7.937826e+04
3.180612e+04 4.019943e+04 -7.629653e+04
1.051863e+04 6.473196e+04 -7.268826e+04
-7.364614e+04 -2.674648e+05 -9.687772e+04
1.926417e+05 1.314430e+05 -9.828957e+04
-1.117517e+05 -2.601250e+05 -7.195895e+04
-1.127452e+05 -2.536808e+05 -9.618627e+04
-1.049936e+05 -1.654314e+05 -9.736180e+04
-7.882405e+04 -1.854395e+05 -9.599769e+04
-1.073857e+05 -1.970429e+05 -9.723643e+04
-7.249696e+04 -1.594392e+05 -9.846369e+04
-9.530146e+04 -1.483209e+05 -7.498869e+04
-1.453808e+05 2.231640e+05 -9.553346e+04
-1.612860e+05 2.606153e+05 -9.730008e+04
-2.706926e+05 2.605174e+05 -9.750784e+04
-2.740276e+05 2.746518e+05 -7.410037e+04
2.024265e+05 1.007012e+05 -7.357887e+04
-7.496460e+04 -1.179810e+05 -7.900785e+04
-8.494310e+04 -1.374406e+05 -9.927194e+04
-1.360502e+05 1.123921e+05 -1.005678e+05
1.782895e+05 1.562924e+05 -9.830709e+04
-1.406250e+05 2.395799e+04 -7.451311e+04
-1.115529e+05 8.134878e+03 -9.110468e+04
-1.451459e+05 -4.181250e+03 -7.568250e+04
1.906586e+05 -1.844747e+05 -7.379688e+04
1.925937e+05 -1.796406e+05 -9.971805e+04
1.782852e+05 -1.998041e+05 -8.858469e+04
1.394452e+05 -1.641940e+05 -7.356740e+04
1.237182e+05 -1.786703e+05 -9.517662e+04
1.228340e+05 -1.434014e+05 -7.248095e+04
-1.085740e+05 -2.151238e+04 -9.813725e+04
-1.381181e+05 4.136425e+03 -9.850609e+04
9.268780e+04 2.288612e+05 -9.768577e+04
1.873040e+05 4.955154e+04 -7.467673e+04
1.433114e+05 -9.332402e+04 -1.013457e+05
1.208929e+05 -1.257345e+05 -9.678146e+04
1.305856e+05 -1.015115e+05 -8.288459e+04
2.516106e+04 -7.440132e+04 -9.746294e+04
5.630525e+04 -1.060631e+05 -9.672199e+04
2.372251e+05 2.718447e+05 -7.462349e+04
2.202512e+05 2.783198e+05 -9.752653e+04
2.509808e+05 2.458708e+05 -7.015817e+04
2.435665e+05 2.224988e+05 -9.630813e+04
-3.409741e+04 -1.047990e+05 -9.805729e+04
-9.179133e+03 -1.055552e+05 -7.476239e+04
2.710210e+05 2.328671e+05 -7.515048e+04
2.718105e+05 -2.386591e+05 -7.402440e+04
-2.711892e+05 -2.692124e+05 -8.539705e+04
1.126858e+05 -1.181977e+05 -7.097292e+04
2.614887e+04 -1.489397e+05 -8.728556e+04
3.282512e+04 -1.157786e+05 -8.889438e+04
2.248880e+05 -3.653910e+04 -7.374348e+04
6.480434e+04 -1.108736e+05 -7.106668e+04
4.191526e+03 -1.023022e+05 -9.732446e+04
2.944316e+04 -8.929213e+04 -7.404538e+04
5.497449e+04 2.708743e+04 -8.243546e+04
4.970758e+04 5.261819e+04 -9.713631e+04
-2.278929e+05 1.701889e+05 -9.587869e+04
-2.287454e+05 1.371808e+05 -9.590267e+04
-2.034465e+05 1.482418e+05 -7.256047e+04
1.559058e+05 -1.902329e+05 -7.431648e+04
-1.387404e+05 -1.034313e+05 -7.680907e+04
2.932044e+04 9.980077e+04 -9.819121e+04
8.889652e+03 8.347248e+04 -9.943227e+04
3.624577e+04 7.678883e+04 -8.445612e+04
1.659084e+04 5.326301e+04 -9.788468e+04
2.342577e+05 1.404496e+05 -9.532302e+04
4.724192e+04 -1.425290e+04 -7.444934e+04
-1.723964e+05 -8.796551e+04 -7.523160e+04
-6.330017e+04 -1.412388e+05 -7.436265e+04
-4.248840e+04 -1.073160e+05 -7.356948e+04
2.718438e+05 2.082908e+05 -9.916093e+04
-1.822097e+05 -1.154928e+05 -9.883059e+04
8.049962e+03 1.941593e+05 -7.281376e+04
1.965420e+05 1.791441e+04 -7.927344e+04
-1.270327e+05 1.930711e+05 -9.732758e+04
-1.203533e+05 1.996806e+05 -7.334657e+04
-2.199365e+05 1.110768e+05 -7.245120e+04
1.378928e+05 -2.326497e+05 -9.505512e+04
1.410371e+05 -2.230202e+05 -7.202063e+04
-2.306258e+05 6.896341e+04 -9.685955e+04
-2.302738e+05 1.033860e+05 -9.635080e+04
2.766839e+04 -5.627390e+04 -7.551049e+04
1.017828e+05 2.670199e+05 -9.216610e+04
1.050412e+05 2.485501e+05 -7.174239e+04
-2.204433e+05 7.121015e+04 -7.329378e+04
-1.046870e+05 1.682790e+05 -7.396748e+04
-1.158120e+05 1.645730e+05 -9.884224e+04
1.642376e+05 3.876389e+04 -9.616140e+04
2.060182e+05 2.680162e+05 -7.318610e+04
-2.007769e+05 1.204678e+05 -9.638580e+04
-2.016067e+05 8.675210e+04 -9.660438e+04
-1.666514e+05 -2.683552e+05 -7.329227e+04
-1.407840e+05 -2.646578e+05 -9.808963e+04
-1.386758e+05 -3.336623e+04 -9.803984e+04
-8.170915e+04 -3.483142e+04 -9.863347e+04
-2.926714e+04 -2.679658e+05 -7.352044e+04
-3.725743e+04 -2.681349e+05 -9.709867e+04
1.265928e+05 -2.577803e+05 -7.194444e+04
9.408456e+04 -2.551918e+05 -7.409014e+04
9.349144e+04 -2.651288e+05 -9.906389e+04
4.533468e+04 -2.459571e+05 -9.832775e+04
7.361808e+03 2.626128e+05 -9.929959e+04
6.827838e+04 -2.695121e+05 -7.352310e+04
-3.741941e+03 -2.689399e+05 -9.693426e+04
4.001873e+03 -2.681249e+05 -7.350784e+04
6.191372e+04 -2.681933e+05 -9.695850e+04
5.383244e+04 -2.417169e+05 -7.319242e+04
2.937589e+04 -2.690208e+05 -9.703772e+04
3.709512e+04 -2.681593e+05 -7.362752e+04
-2.147765e+05 -1.494366e+05 -6.108846e+04
-2.041349e+05 -1.430812e+05 -6.419731e+04
-2.137363e+05 -1.643793e+05 -6.180456e+04
2.756381e+05 5.297919e+04 -6.129789e+04
2.604786e+05 5.812415e+04 -6.391095e+04
2.779674e+05 7.154330e+04 -6.207047e+04
2.888537e+05 5.948724e+04 -6.209673e+04
2.896842e+05 7.475178e+04 -6.216674e+04
1.400168e+05 8.233010e+03 -6.390269e+04
1.275940e+05 3.722382e+03 -6.362969e+04
1.350978e+05 -8.099905e+03 -6.189742e+04
-4.701821e+04 -7.248005e+04 -6.069473e+04
-4.557995e+04 -8.166877e+04 -6.592936e+04
-5.632829e+04 -8.580409e+04 -6.359384e+04
-4.159691e+04 -9.244041e+04 -6.294975e+04
-7.157424e+04 -8.730021e+04 -6.377872e+04
-3.714597e+04 -7.980969e+04 -6.172065e+04
-2.064807e+04 -7.674537e+04 -6.258332e+04
-3.447601e+04 -6.478407e+04 -6.322901e+04
-1.035783e+05 -1.009400e+05 -6.345171e+04
-1.159559e+05 -9.635203e+04 -6.470413e+04
8.347170e+04 -2.852698e+04 -6.258354e+04
7.245502e+04 -4.135887e+04 -6.046253e+04
6.634299e+04 -3.431047e+04 -6.582603e+04
-2.298311e+05 -1.560978e+05 -6.190834e+04
-2.471973e+05 -1.585409e+05 -6.398198e+04
-1.665810e+05 -1.442289e+05 -5.595769e+04
-1.590785e+05 -1.366754e+05 -6.291575e+04
-1.687852e+05 -1.412652e+05 -6.374908e+04
-1.723182e+05 -1.283068e+05 -6.240832e+04
-1.777520e+05 -1.403194e+05 -6.259401e+04
-1.863899e+05 -1.412591e+05 -6.278480e+04
2.198768e+05 3.049517e+04 -6.312600e+04
2.167464e+05 1.412385e+04 -6.388062e+04
2.357237e+05 3.270214e+04 -6.172898e+04
2.487128e+05 5.069662e+04 -6.193352e+04
-7.256056e+03 -6.132851e+04 -6.272957e+04
2.249415e+04 -5.464913e+04 -6.238556e+04
8.665849e+03 -6.009151e+04 -6.329720e+04
1.908491e+04 -3.859154e+04 -6.310302e+04
-1.412697e+05 -1.294803e+05 -6.341111e+04
-1.533388e+05 -1.217965e+05 -6.323459e+04
-8.687279e+04 -1.009941e+05 -6.221976e+04
-7.415076e+04 -1.085055e+05 -6.389112e+04
-1.124361e+05 -1.156686e+05 -6.165799e+04
4.877575e+04 -4.746007e+04 -6.081936e+04
5.851484e+04 -4.460253e+04 -6.022242e+04
5.024165e+04 -3.647640e+04 -6.344155e+04
6.240857e+04 -1.981685e+04 -6.460469e+04
4.614862e+04 -2.705434e+04 -6.080058e+04
9.603617e+04 -6.532105e+03 -6.388703e+04
1.156919e+05 -1.266638e+04 -6.466209e+04
1.003425e+05 -2.513957e+04 -6.418734e+04
-2.267575e+04 -5.475517e+04 -6.566326e+04
2.921707e+05 8.390028e+04 -5.951852e+04
1.815848e+05 1.668784e+04 -6.275102e+04
1.998499e+05 2.399265e+04 -6.443183e+04
7.839367e+04 -1.454732e+04 -6.194734e+04
3.247073e+04 -3.739944e+04 -6.420911e+04
1.115585e+05 4.693064e+03 -6.152038e+04
-2.646156e+05 -1.627225e+05 -6.230613e+04
-2.573582e+05 -1.832742e+05 -6.422718e+04
-2.386858e+05 -1.698122e+05 -6.300939e+04
3.828791e+04 -5.012705e+04 -6.205571e+04
-2.728161e+05 -1.928513e+05 -6.495249e+04
-2.891054e+05 -1.966299e+05 -6.262520e+04
-1.393408e+05 -1.105250e+05 -6.291581e+04
-1.224007e+05 -1.082566e+05 -6.151647e+04
-1.306309e+05 -1.211159e+05 -6.314405e+04
2.616025e+05 7.365586e+04 -6.131070e+04
1.699504e+05 9.123621e+03 -5.974162e+04
1.541437e+05 -9.946735e+02 -6.231429e+04
1.651497e+05 2.115999e+04 -6.377041e+04
1.475625e+05 1.010177e+04 -5.968761e+04
1.784800e+05 5.639478e+03 -6.302505e+04
1.815434e+05 3.374014e+04 -6.371201e+04
-2.823348e+05 -1.809996e+05 -6.758321e+04
-1.734385e+05 -1.386126e+05 -7.380478e+04
-2.283610e+05 -1.710176e+05 -6.056993e+04
2.300853e+05 4.879594e+04 -6.288222e+04
2.123687e+05 4.338709e+04 -6.147374e+04
-2.713252e+05 -1.758690e+05 -6.372829e+04
1.963112e+05 4.095470e+04 -6.168417e+04
-2.516706e+05 -1.455533e+05 -5.761109e+04
2.190154e+04 -7.031475e+04 -6.325658e+04
2.676791e+05 4.483278e+04 -6.477201e+04
-2.293539e+05 -1.692147e+05 -7.051839e+04
-1.493713e+05 -1.201810e+05 -7.143419e+04
1.405442e+05 -2.298195e+03 -7.117168e+04
-1.806857e+05 -1.167030e+05 -5.760995e+04
7.350858e+04 -3.500511e+03 -5.699091e+04
4.143423e+04 -1.633784e+04 -5.680412e+04
-2.104835e+05 -1.503204e+05 -5.500134e+04
-2.051815e+05 -1.455360e+05 -5.636770e+04
-2.083165e+05 -1.567331e+05 -5.649551e+04
2.635512e+05 5.898437e+04 -5.612025e+04
2.722356e+05 5.701263e+04 -5.497653e+04
2.720907e+05 6.606283e+04 -5.665718e+04
2.800850e+05 6.100892e+04 -5.620449e+04
2.803447e+05 6.883547e+04 -5.405349e+04
2.874429e+05 7.331991e+04 -5.457831e+04
2.872230e+05 6.628924e+04 -5.635122e+04
2.947604e+05 6.522776e+04 -5.554729e+04
2.935136e+05 7.110884e+04 -5.736864e+04
1.349000e+05 2.929835e+03 -5.698903e+04
1.424959e+05 5.873187e+03 -5.667014e+04
1.385331e+05 -1.743758e+03 -5.568122e+04
-4.540413e+04 -7.961822e+04 -5.789767e+04
-4.568925e+04 -7.462892e+04 -5.410405e+04
-5.079988e+04 -8.362777e+04 -5.652337e+04
-4.311709e+04 -8.537139e+04 -5.652161e+04
-6.719172e+04 -8.729072e+04 -5.531720e+04
-7.595124e+04 -9.206930e+04 -5.705790e+04
-5.933200e+04 -8.513591e+04 -5.610029e+04
-4.151057e+04 -7.890571e+04 -5.530400e+04
-3.570799e+04 -7.839904e+04 -5.448772e+04
-3.885352e+04 -7.358721e+04 -5.510101e+04
-3.413899e+04 -6.978088e+04 -5.642079e+04
-2.776105e+04 -7.446096e+04 -5.678866e+04
-1.654865e+04 -7.111452e+04 -5.637762e+04
-2.521428e+04 -6.580882e+04 -5.678096e+04
-1.069645e+05 -1.039823e+05 -5.593093e+04
-1.132194e+05 -1.024663e+05 -5.658765e+04
7.505142e+04 -3.254738e+04 -5.503659e+04
8.105899e+04 -2.473341e+04 -5.585174e+04
7.203284e+04 -2.927477e+04 -5.796045e+04
-2.327506e+05 -1.581204e+05 -5.454509e+04
-2.401662e+05 -1.604974e+05 -5.685235e+04
-1.666337e+05 -1.364894e+05 -5.629612e+04
-1.700310e+05 -1.404123e+05 -5.274770e+04
-1.716552e+05 -1.395595e+05 -5.665403e+04
-1.752941e+05 -1.370573e+05 -5.637105e+04
-1.712419e+05 -1.320250e+05 -5.519595e+04
-1.796522e+05 -1.386119e+05 -5.570078e+04
2.118066e+05 3.180955e+04 -5.696270e+04
2.109201e+05 2.359120e+04 -5.685816e+04
2.372113e+05 3.883509e+04 -5.529867e+04
2.417372e+05 4.691199e+04 -5.687448e+04
-1.214483e+04 -6.265622e+04 -5.554613e+04
1.260547e+04 -5.692859e+04 -5.570876e+04
1.979590e+04 -5.285082e+04 -5.521022e+04
1.706010e+04 -4.622559e+04 -5.685829e+04
-1.599711e+05 -1.345921e+05 -5.536555e+04
-1.637285e+05 -1.297070e+05 -5.604369e+04
-1.562700e+05 -1.256273e+05 -5.686052e+04
-1.507087e+05 -1.315643e+05 -5.624111e+04
-1.412211e+05 -1.248436e+05 -5.623079e+04
-1.480350e+05 -1.234028e+05 -5.658832e+04
-8.275983e+04 -9.907973e+04 -5.527315e+04
-7.661061e+04 -1.025700e+05 -5.635063e+04
-1.118202e+05 -1.115930e+05 -5.456129e+04
5.296866e+04 -4.036279e+04 -5.544531e+04
4.809242e+04 -4.205039e+04 -5.584689e+04
5.653244e+04 -3.528422e+04 -5.743082e+04
5.393152e+04 -3.106633e+04 -5.582728e+04
4.702040e+04 -3.063949e+04 -5.476378e+04
4.910935e+04 -3.570386e+04 -5.625645e+04
6.032711e+04 -2.633565e+04 -5.754910e+04
6.297083e+04 -3.175374e+04 -5.889620e+04
7.129025e+04 -2.182568e+04 -5.742092e+04
1.127720e+05 -8.985517e+03 -5.765909e+04
1.026610e+05 -7.626610e+03 -5.611514e+04
1.046833e+05 -1.598671e+04 -5.775660e+04
-1.896284e+04 -6.018541e+04 -5.779969e+04
2.961316e+05 7.783214e+04 -5.515916e+04
1.952179e+05 2.643581e+04 -5.696853e+04
2.033020e+05 2.744100e+04 -5.627598e+04
1.862270e+05 2.091627e+04 -5.697761e+04
1.779591e+05 1.829044e+04 -5.573138e+04
7.851807e+04 -1.733359e+04 -5.518723e+04
4.002526e+04 -3.670517e+04 -5.702374e+04
1.286897e+05 2.294667e+03 -5.569372e+04
1.309806e+05 -3.696089e+03 -5.581998e+04
1.227974e+05 -7.482792e+03 -5.700165e+04
1.208412e+05 6.105991e+02 -5.727034e+04
1.112234e+05 -1.996094e+03 -5.510472e+04
8.953238e+04 -2.368508e+04 -5.558700e+04
9.659033e+04 -2.193545e+04 -5.684800e+04
-2.488895e+05 -1.644827e+05 -5.557028e+04
-2.439491e+05 -1.707287e+05 -5.579154e+04
-2.373828e+05 -1.659251e+05 -5.532027e+04
-2.520281e+05 -1.767604e+05 -5.716671e+04
-2.573649e+05 -1.688261e+05 -5.699698e+04
-2.676883e+05 -1.705417e+05 -5.591245e+04
-2.631845e+05 -1.782055e+05 -5.707567e+04
9.376629e+04 -1.396729e+04 -5.780947e+04
8.613020e+04 -1.800164e+04 -5.635377e+04
3.580360e+04 -4.605858e+04 -5.622355e+04
4.299060e+04 -4.348818e+04 -5.611699e+04
2.742945e+04 -4.912093e+04 -5.700703e+04
-2.874138e+05 -1.924219e+05 -5.496189e+04
-2.945488e+05 -1.934159e+05 -5.651116e+04
-2.798736e+05 -1.900298e+05 -5.731717e+04
-2.702334e+05 -1.852321e+05 -5.738353e+04
-1.225991e+05 -1.103227e+05 -5.486331e+04
-1.189650e+05 -1.170341e+05 -5.527456e+04
-1.163777e+05 -1.091170e+05 -5.530978e+04
-1.273758e+05 -1.192491e+05 -5.632259e+04
-1.304756e+05 -1.120240e+05 -5.620343e+04
-1.425753e+05 -1.157811e+05 -5.600918e+04
-1.355516e+05 -1.200703e+05 -5.618515e+04
2.643873e+05 6.802417e+04 -5.473497e+04
5.963331e+04 -3.846875e+04 -5.494546e+04
6.675432e+04 -3.661605e+04 -5.594832e+04
1.560982e+05 4.502960e+03 -5.528839e+04
1.510068e+05 9.000393e+03 -5.471266e+04
1.455414e+05 6.803860e+03 -5.407786e+04
1.474350e+05 4.892777e+02 -5.526367e+04
1.578462e+05 1.445738e+04 -5.665661e+04
1.638464e+05 1.119290e+04 -5.603153e+04
1.702438e+05 1.413034e+04 -5.403661e+04
1.690025e+05 1.880920e+04 -5.673373e+04
-4.824210e+03 -6.159488e+04 -5.489976e+04
3.974278e+03 -5.797880e+04 -5.574039e+04
1.196238e+05 5.672471e+03 -5.356563e+04
1.759258e+05 1.220886e+04 -5.595743e+04
1.775540e+05 2.517318e+04 -5.723493e+04
-2.836385e+05 -1.828044e+05 -5.829172e+04
-2.757553e+05 -1.815321e+05 -5.788222e+04
-2.907801e+05 -1.868280e+05 -5.685017e+04
-1.728175e+05 -1.369150e+05 -6.042784e+04
-2.312899e+05 -1.657713e+05 -5.513827e+04
-2.172419e+05 -1.537383e+05 -5.611145e+04
-2.173765e+05 -1.599089e+05 -5.503578e+04
-2.243306e+05 -1.646789e+05 -5.502825e+04
-2.252527e+05 -1.582432e+05 -5.658228e+04
2.337135e+05 4.598688e+04 -5.606046e+04
2.187376e+05 3.320207e+04 -5.499098e+04
2.164445e+05 3.930052e+04 -5.537352e+04
2.094457e+05 3.850123e+04 -5.473666e+04
2.240086e+05 4.379651e+04 -5.650107e+04
2.275091e+05 3.717092e+04 -5.560362e+04
-2.698021e+05 -1.774346e+05 -5.620203e+04
-1.863752e+05 -1.409649e+05 -5.568540e+04
-1.950484e+05 -1.435008e+05 -5.666965e+04
2.021573e+05 3.646051e+04 -5.661703e+04
1.941398e+05 3.341549e+04 -5.487572e+04
1.876409e+05 3.024840e+04 -5.701553e+04
2.241758e+05 3.038458e+04 -5.660850e+04
-2.540696e+05 -1.611652e+05 -5.717680e+04
1.844725e+05 3.480528e+04 -5.397175e+04
2.503277e+05 5.179012e+04 -5.470389e+04
2.566729e+05 5.530266e+04 -5.531450e+04
-1.332677e+05 -1.069583e+05 -5.388660e+04
-2.437434e+05 -1.552733e+05 -5.410629e+04
-3.134297e+04 -8.101167e+04 -5.621073e+04
1.888005e+04 -6.104013e+04 -5.606181e+04
1.997448e+05 4.158546e+04 -5.358723e+04
-1.447622e+05 -1.206312e+05 -6.025422e+04
-9.009386e+04 -9.942667e+04 -5.531169e+04
-9.769091e+04 -1.011462e+05 -5.685909e+04
-1.002164e+05 -9.398137e+04 -5.350704e+04
1.428343e+05 4.024334e+02 -6.011051e+04
-1.762511e+05 -1.265547e+05 -5.377547e+04
3.306714e+04 -4.153394e+04 -5.576691e+04
2.656060e+04 -4.252142e+04 -5.575453e+04
-4.851921e+02 -6.390238e+04 -5.732434e+04
-5.026872e+04 -7.049114e+04 -5.331842e+04
-1.384710e+05 -5.582752e+04 -1.571471e+04
-1.650004e+05 -5.240312e+04 -7.678677e+03
-1.561573e+05 -5.354459e+04 -1.035735e+04
-1.473141e+05 -5.468605e+04 -1.303603e+04
-1.637460e+05 -7.385600e+04 -1.928826e+04
-1.232721e+05 -3.382450e+04 -7.678677e+03
-1.302268e+05 -3.692093e+04 -7.678677e+03
-1.283384e+05 -4.115884e+04 -1.035735e+04
-1.371815e+05 -4.001737e+04 -7.678677e+03
-1.441363e+05 -4.311381e+04 -7.678677e+03
-1.422478e+05 -4.735171e+04 -1.035735e+04
-1.352931e+05 -4.425528e+04 -1.035735e+04
-1.334047e+05 -4.849318e+04 -1.303603e+04
-1.403594e+05 -5.158962e+04 -1.303603e+04
-1.662704e+05 -6.820741e+04 -1.571619e+04
-1.732251e+05 -7.130385e+04 -1.571619e+04
-1.687948e+05 -6.255882e+04 -1.214413e+04
-1.757495e+05 -6.565526e+04 -1.214413e+04
-1.827042e+05 -6.875170e+04 -1.214413e+04
-1.713191e+05 -5.691024e+04 -8.572065e+03
-1.782738e+05 -6.000667e+04 -8.572065e+03
-1.852286e+05 -6.310311e+04 -8.572065e+03
-1.921833e+05 -6.619955e+04 -8.572065e+03
-1.372458e+05 -7.728919e+04 -2.732206e+04
-1.460792e+05 -7.614479e+04 -2.464413e+04
-1.442005e+05 -8.038562e+04 -2.732206e+04
-1.549126e+05 -7.500039e+04 -2.196619e+04
-1.530339e+05 -7.924123e+04 -2.464413e+04
-1.618673e+05 -7.809683e+04 -2.196619e+04
-1.599886e+05 -8.233766e+04 -2.464413e+04
-1.511553e+05 -8.348206e+04 -2.732206e+04
-1.581100e+05 -8.657850e+04 -2.732206e+04
-1.100630e+05 -6.349276e+04 -2.642868e+04
-1.195323e+05 -6.093768e+04 -2.285735e+04
-1.290017e+05 -5.838260e+04 -1.928603e+04
-1.447898e+05 -6.033464e+04 -1.660810e+04
-1.511085e+05 -6.484176e+04 -1.750148e+04
-1.574272e+05 -6.934888e+04 -1.839487e+04
-1.309271e+05 -7.278207e+04 -2.642868e+04
-1.334417e+05 -6.713055e+04 -2.285735e+04
-1.359564e+05 -6.147904e+04 -1.928603e+04
-1.492025e+05 -5.044815e+04 -1.035735e+04
-1.580457e+05 -4.930668e+04 -7.678677e+03
-1.510910e+05 -4.621024e+04 -7.678677e+03
-1.789741e+05 -9.586781e+04 -2.732206e+04
-1.720194e+05 -9.277137e+04 -2.732206e+04
-1.738981e+05 -8.853054e+04 -2.464413e+04
-1.650647e+05 -8.967493e+04 -2.732206e+04
-1.669434e+05 -8.543410e+04 -2.464413e+04
-1.688220e+05 -8.119327e+04 -2.196619e+04
-1.536329e+05 -5.919317e+04 -1.392942e+04
-1.624760e+05 -5.805170e+04 -1.125074e+04
-1.599516e+05 -6.370029e+04 -1.482281e+04
-1.264870e+05 -6.403411e+04 -2.285735e+04
-1.239724e+05 -6.968563e+04 -2.642868e+04
-1.170177e+05 -6.658919e+04 -2.642868e+04
-1.188691e+05 -4.371392e+04 -1.392868e+04
-1.239354e+05 -5.104826e+04 -1.660735e+04
-1.144660e+05 -5.360334e+04 -2.017868e+04
-1.485939e+05 -7.049327e+04 -2.107281e+04
-1.422751e+05 -6.598615e+04 -2.017942e+04
-1.397605e+05 -7.163767e+04 -2.375074e+04
-1.877802e+05 -7.608897e+04 -1.482206e+04
-1.833772e+05 -8.597839e+04 -2.107206e+04
-1.783011e+05 -7.864112e+04 -1.839413e+04
CELLS 20058 100290
4  6032 6033 6034 6035
4  6032 6034 6036 6037
4  6032 6038 6035 6039
4  6032 6040 6039 905
4  6032 1034 6041 900
4  1034 6032 905 900
4  6032 6040 905 900
4  6042 6043 6044 6045
4  6042 6046 6047 490
4  6042 6048 1035 6044
4  6042 6049 6050 6046
4  6042 6046 490 489
4  6042 1035 6048 489
4  6051 6052 6053 6054
4  6051 6055 6054 6056
4  6051 6055 6056 6057
4  6058 6059 6060 6061
4  6062 6063 6064 6065
4  6066 6058 6067 6068
4  6058 6060 6069 6061
4  6058 6070 6068 6066
4  6058 6070 6066 6069
4  6071 6072 6073 6074
4  6075 6076 6077 6078
4  6079 6036 6080 6071
4  6071 6081 6073 6082
4  6071 6082 6083 6084
4  6071 6085 6082 6084
4  6071 6086 6081 6082
4  6032 6087 6040 6041
4  6087 6088 6089 6033
4  6032 6087 6038 6040
4  6090 6091 6092 6093
4  6090 6094 6095 6096
4  6090 6096 6095 6093
4  6097 6098 6099 6100
4  6098 6101 6100 6102
4  6098 6103 6102 6104
4  6098 6104 6105 6106
4  6107 6108 6109 6110
4  6098 6100 6101 6111
4  6112 6113 6114 6115
4  6098 6116 6117 6118
4  6119 6120 6121 6122
4  6119 6123 6121 6124
4  6119 6121 6120 6125
4  6119 6126 6123 6124
4  6119 6125 6127 6126
4  6128 6129 6130 6131
4  6132 6133 6134 6135
4  6128 6136 6137 6138
4  6139 6129 6140 6128
4  6128 6136 6141 6137
4  6128 6139 6142 6141
4  6112 6143 6144 6145
4  6146 6147 6148 6149
4  6146 6150 6151 6152
4  6146 6147 6153 6148
4  6146 6154 6155 6156
4  6146 6155 6154 6150
4  6146 6147 6154 6156
4  6157 6158 6159 6160
4  6161 6158 6162 6157
4  6163 6161 6158 6162
4  6157 6164 6165 6160
4  6157 6164 6166 6165
4  6161 6166 6158 6157
4  6167 6161 6166 6158
4  6168 6169 6170 6078
4  6168 6078 6171 6169
4  6168 6159 6172 6173
4  6162 6168 6169 6170
4  6168 6174 6159 6173
4  6079 6086 6085 6175
4  6079 6086 6176 6177
4  6079 6178 6041 6179
4  6079 6179 6175 6180
4  6181 879 6182 1006
4  6183 6110 1006 6181
4  6114 6143 6184 6185
4  585 6110 1006 6183
4  6183 6107 6186 6187
4  6183 877 6188 879
4  6189 879 6182 6181
4  6190 6191 6192 6193
4  6183 6107 6181 6186
4  6194 6185 6195 6196
4  6049 6048 6197 6046
4  6049 6198 6199 6197
4  6049 6199 6200 6197
4  6049 6200 6050 6046
4  6042 6050 6049 6201
4  6202 6203 6204 6205
4  6202 6206 6207 6208
4  6208 6209 6210 6207
4  6202 6211 6208 6209
4  6202 6204 6203 6212
4  6202 6208 6207 6209
4  6213 822 6214 6215
4  6213 6216 6217 6218
4  6213 6219 6214 6220
4  6213 6214 6221 6215
4  6213 6221 6217 6216
4  6222 6223 6224 6225
4  6225 6223 6224 6149
4  6226 997 275 276
4  6223 6225 6227 6149
4  6223 6228 355 6229
4  355 1018 807 6222
4  6223 6229 1018 6230
4  6199 6231 6200 6232
4  6199 6233 6234 6235
4  6049 6199 6234 6235
4  6236 6237 6191 6193
4  6049 6234 6198 6238
4  6199 6232 6197 6198
4  6183 6107 6187 6239
4  6109 6110 585 6107
4  6186 6188 6189 6181
4  6108 6107 6240 6241
4  6107 6187 6242 6186
4  6107 6187 6240 6242
4  6243 6244 6245 6246
4  6243 6247 6244 6248
4  6243 6249 6246 6250
4  6251 6252 6253 6254
4  6243 6255 6250 6256
4  6243 6256 6248 6257
4  6258 6101 6259 6103
4  6258 6101 6260 6259
4  6258 221 6104 608
4  6258 6261 6260 6102
4  6258 6261 6102 6104
4  6102 6258 6101 6260
4  6262 6263 6264 6265
4  6262 6266 6267 6268
4  6262 6263 6269 6270
4  6262 6268 6271 6266
4  6051 6272 6273 6052
4  6051 6272 6055 6273
4  6272 6274 6055 6273
4  6272 6275 6276 6277
4  6272 6278 6055 6276
4  6272 6052 6279 6280
4  6281 6052 6053 6051
4  6051 6272 6052 6054
4  6054 6278 6055 6272
4  6282 6184 6145 6283
4  6186 6284 6285 6286
4  6287 6288 6289 6290
4  6287 6289 6288 6291
4  6287 6285 6292 6293
4  6287 6242 6290 6284
4  6287 6293 6294 6285
4  6295 6296 6297 6298
4  6295 6299 6300 6301
4  6302 6303 6304 6305
4  6295 6306 6301 6300
4  6295 6298 6297 6307
4  6295 6307 6306 6308
4  6309 6310 6311 6312
4  6313 6314 6312 6311
4  6314 6312 6311 6315
4  6315 6316 6310 6317
4  6315 6314 6318 6311
4  6315 6318 6314 6319
4  6320 6321 6322 6203
4  6320 6089 6211 6323
4  6321 6323 6033 6320
4  6324 6321 6323 6033
4  6325 6326 6217 6327
4  6325 6328 6329 6326
4  6325 6330 6331 6332
4  6325 6333 6330 6334
4  6086 6175 6335 6085
4  6079 6086 6175 6176
4  6086 6175 171 6336
4  6337 6338 6339 6340
4  6086 6082 6085 6335
4  6341 6069 6342 6070
4  6341 6343 6344 6345
4  6341 6346 6347 6069
4  6343 6346 6348 6341
4  6341 6343 6349 6348
4  6350 6351 6352 6353
4  6354 6355 6356 6357
4  6355 6358 6359 6354
4  6355 6357 6360 6361
4  6362 6356 526 6355
4  6355 6354 6356 33
4  6359 6355 6360 6361
4  6286 6363 6186 6284
4  6364 6365 6366 6367
4  6364 6368 6369 6370
4  6364 6263 6369 6371
4  6364 6263 6366 6365
4  6364 6368 6366 6371
4  6372 6373 6374 6375
4  6372 6376 6377 6378
4  6372 6376 6374 6373
4  6372 6379 6380 6375
4  6372 6376 6378 6374
4  6381 6382 6383 6384
4  6381 6383 6385 6384
4  6386 6384 6387 6381
4  6388 6389 6390 6391
4  6381 6077 6387 6386
4  6381 6385 6386 6384
4  6381 6077 6386 6392
4  6393 6394 6395 6396
4  6393 6395 6397 6398
4  6393 6399 6400 6401
4  6393 6402 6403 6394
4  6090 6404 6094 6096
4  6405 6406 6407 6404
4  6405 6096 6408 6404
4  6409 6410 6411 6412
4  6405 6413 6414 6415
4  6405 6414 6413 6407
4  6405 6096 6416 6408
4  6090 6405 6096 6093
4  6090 6091 6417 6092
4  6093 6418 6407 6405
4  6419 6420 6421 6422
4  6419 6420 6120 6423
4  6419 6420 6424 6120
4  6393 6403 6397 6394
4  6403 6425 6402 6399
4  6403 6394 6402 6426
4  6099 6118 6116 6098
4  6427 6099 6118 6116
4  6100 6428 6099 6097
4  6118 6097 6098 6099
4  6098 6102 6103 6101
4  6100 6429 6430 6431
4  6431 6428 6099 6100
4  6432 6433 6434 6435
4  6432 6436 6437 6438
4  6432 6437 6434 6439
4  6432 6433 6440 6439
4  6441 6442 6443 6444
4  6441 6445 6446 6427
4  6441 6447 6444 6443
4  6441 6427 6446 6448
4  6325 6333 6449 6450
4  6325 6450 6449 6326
4  6333 6451 6330 6452
4  6333 6449 6453 6334
4  6302 6454 6455 6456
4  6302 6457 6456 6458
4  6302 6458 6455 6305
4  6459 6129 6140 6139
4  6459 6139 6460 6461
4  6459 6462 6463 6464
4  6465 6466 6112 6467
4  6462 6461 6464 6459
4  6459 6462 6461 6460
4  6409 6468 6299 6303
4  6469 6470 6471 6472
4  6299 6300 6454 6303
4  6469 6473 6474 6475
4  6469 6476 6473 6475
4  6469 6477 6478 6476
4  6479 117 6480 553
4  6479 6481 6482 6483
4  6479 118 6483 117
4  6479 6484 6485 6486
4  6479 6481 6484 6482
4  6479 118 117 568
4  6128 6136 6138 6487
4  6128 6142 6138 6137
4  6136 6137 494 493
4  6136 6229 494 6137
4  6136 358 6487 6488
4  6136 6487 6229 6138
4  6173 6159 6489 6174
4  6490 6159 6489 6173
4  6159 6160 6158 6171
4  6157 6162 6159 6158
4  6159 6225 6160 6490
4  6159 6225 6148 6160
4  6157 6160 6159 6148
4  6491 6492 6047 6050
4  6491 6493 6050 6047
4  6494 6491 6495 6496
4  6496 6494 6497 6495
4  6495 6494 6497 6498
4  6359 6360 6499 6361
4  6491 6500 6494 6498
4  6491 6492 6050 6496
4  6501 6502 6503 6504
4  6505 6421 6506 6507
4  6501 6508 6509 6510
4  6501 6502 6511 6512
4  6501 6513 6503 6512
4  6501 6510 6509 6513
4  6479 6514 117 6483
4  6480 6515 6514 6482
4  6479 6486 568 553
4  6480 6515 6516 6514
4  6480 115 6514 6516
4  6480 6516 471 115
4  6480 6517 553 471
4  6175 6518 6179 6176
4  6086 6335 6175 6336
4  6175 6519 6085 6180
4  6079 6176 6175 6179
4  6175 6180 6520 6519
4  6230 6521 6522 6130
4  6195 6523 6196 6184
4  6524 6130 6525 6526
4  6524 6130 6521 6525
4  6524 6151 6130 6527
4  6524 6528 6151 6529
4  6524 6152 6151 6528
4  6146 6524 6521 6152
4  6530 6531 6532 6533
4  6530 6532 6534 6535
4  6530 6536 6537 6538
4  6530 6537 6539 6535
4  6540 6541 6542 6543
4  6540 6544 6545 6546
4  6540 6542 6541 6547
4  6540 6547 6548 6549
4  6540 6544 6546 6548
4  6550 6551 6552 6553
4  6554 6555 6556 6557
4  6558 6559 6557 6560
4  6558 6556 6559 486
4  6558 6561 6555 768
4  6558 6559 771 486
4  6558 768 6555 542
4  6558 542 771 768
4  6206 6205 6207 6562
4  6206 6085 6563 6208
4  6206 6563 6210 6208
4  6202 6207 6206 6205
4  6564 6565 1002 983
4  6566 6567 6568 6564
4  6569 6570 6571 6572
4  6573 6564 528 6566
4  6220 6564 528 6573
4  6564 6565 983 6566
4  6195 6574 6575 6576
4  6577 6578 6579 6580
4  6577 6581 6580 6579
4  6577 6336 6578 6582
4  6577 6335 6336 941
4  6564 6565 6583 1002
4  6584 6538 6534 6585
4  526 6586 1020 6583
4  6583 6586 6587 6588
4  6583 6362 6356 526
4  6589 6590 6591 6592
4  6589 6593 6594 6595
4  6589 6596 6590 6507
4  6589 6593 6595 6597
4  6589 6507 6590 6505
4  6598 6599 6600 6601
4  6599 6602 6601 6603
4  6599 6604 6602 6605
4  6599 6593 6606 6607
4  6599 6607 6603 6593
4  6608 6609 6610 6611
4  6608 6612 6613 6614
4  6608 6615 6616 6617
4  6608 6613 6612 6615
4  6618 6619 594 6620
4  6618 6621 6622 801
4  6618 6619 194 594
4  6623 6624 6625 6626
4  6623 6624 6626 6627
4  6623 6628 6629 6630
4  6623 6631 6632 6630
4  6623 6631 6624 6627
4  6633 6634 6635 6636
4  6623 6632 6628 6630
4  6637 889 1032 6074
4  6638 6547 6639 6640
4  6638 6641 6542 6642
4  6638 6542 6547 6643
4  6638 6373 6643 6640
4  6638 6639 6542 6641
4  6644 6645 6646 6647
4  6637 6073 6646 6072
4  6648 6649 6650 6651
4  6637 6646 6652 6072
4  6637 6644 6652 6646
4  6653 6654 6655 6656
4  6653 6654 6656 6657
4  6653 6658 6659 6660
4  6661 6662 6663 6664
4  6661 6662 6664 6665
4  6661 6666 6667 6668
4  6669 6670 6671 6246
4  6669 6249 6672 6673
4  6669 6674 6675 6676
4  6669 6670 6677 6675
4  6669 6675 6677 6676
4  6678 6573 6218 6568
4  6679 6680 6681 6682
4  6327 6219 6218 6678
4  6583 6588 6678 6362
4  6362 6357 6678 6356
4  6357 6683 6588 6327
4  6451 6327 6683 6357
4  6678 6327 6354 6357
4  6082 6086 6085 6071
4  6086 932 6081 871
4  6081 6684 793 6647
4  6081 6177 1032 932
4  6637 6074 6081 6073
4  6637 1032 6081 6074
4  6578 6082 6085 6084
4  6578 6082 6084 6685
4  6578 6582 6686 6687
4  6687 6685 6686 6578
4  6578 6580 6688 6689
4  6578 6582 6336 6686
4  6690 6691 6692 6693
4  6694 6695 6696 6697
4  6698 6699 6700 6701
4  6702 6636 6635 6634
4  6694 6698 6703 6697
4  6704 996 6705 981
4  6704 6706 996 1016
4  6704 6707 980 6708
4  6709 6710 6711 6712
4  6704 6706 1016 6713
4  6714 6715 6652 6646
4  6714 6715 6716 6717
4  6718 6142 6138 6719
4  6718 6720 6721 6719
4  6718 6227 6719 6138
4  6718 6722 6227 6723
4  6722 6227 6164 6718
4  6718 6164 6165 6720
4  6718 6722 6165 6164
4  6724 6169 6162 6171
4  6724 6725 6726 6727
4  6724 6171 6158 6726
4  6154 6166 6728 6161
4  6720 6166 6728 6154
4  6157 6158 6160 6165
4  6164 6147 6161 6154
4  6164 6166 6165 6720
4  6574 6245 6523 6283
4  6224 6225 6729 6222
4  6225 6227 6730 6222
4  6225 6148 6729 6489
4  6223 6227 6225 6222
4  6178 6208 6085 6080
4  6202 6178 6080 6208
4  6178 6041 6087 6036
4  6649 6650 6731 6732
4  6178 6089 6733 6211
4  6079 6176 6179 6041
4  6178 6089 6179 6733
4  6734 6735 6736 6737
4  6734 6738 6739 6613
4  6731 6727 6740 6741
4  6734 6739 6742 6613
4  6734 6737 6742 6739
4  6670 6195 6576 6574
4  6743 6744 1022 6745
4  6743 6746 6747 6748
4  6743 6746 989 6744
4  6746 6749 6744 6747
4  6743 6750 851 6751
4  6752 6753 6077 6754
4  6752 6755 6727 6169
4  6752 6169 6727 6725
4  6752 6755 6169 6753
4  6752 6741 6753 6754
4  6752 6078 6169 6725
4  6753 6752 6077 6078
4  6756 6757 6758 6759
4  6760 6761 6762 6763
4  6763 6707 6696 6764
4  6704 6763 6701 6764
4  6701 6704 6765 6705
4  6763 6766 6767 6761
4  6763 6705 6701 6768
4  6694 6696 6763 6762
4  6763 6768 6767 6766
4  6767 6768 6769 1025
4  6126 1025 6767 6769
4  6767 971 6766 187
4  6767 6769 6127 6126
4  6767 6768 1025 6766
4  6223 6227 6222 6228
4  6223 6522 6138 6230
4  6718 6723 6770 6722
4  6164 6147 6149 6160
4  6168 6771 6174 6173
4  6168 6772 6771 6173
4  6078 6169 6725 6171
4  6078 6076 6771 6075
4  6168 6771 6076 6174
4  6168 6162 6169 6171
4  6773 6774 6775 6776
4  6444 6447 6777 6778
4  6774 6775 6698 6779
4  6780 6781 6760 6774
4  6127 6780 6781 6760
4  6774 6780 6781 6782
4  6783 6760 6781 6774
4  6784 6785 6786 6443
4  6774 6698 6760 6779
4  6787 6788 6789 6163
4  6787 6163 6790 6791
4  6787 6789 6170 6163
4  6787 6170 6792 6793
4  6787 6170 6794 6792
4  6174 6162 6793 6170
4  6670 6195 6574 6523
4  6787 6162 6793 6790
4  6610 6795 6611 6796
4  6610 6795 6796 6797
4  6610 6798 6795 6797
4  6799 6755 6789 6169
4  6799 6727 6755 6169
4  6799 6800 6755 6727
4  6724 6799 6801 6158
4  6799 6755 6800 6802
4  6487 6138 6130 6230
4  6136 6137 6138 6229
4  6136 6137 493 6141
4  6487 6488 936 6803
4  6487 1018 6229 6230
4  6582 6687 962 6686
4  6689 6688 6582 6804
4  6578 6082 6335 6085
4  6578 6580 6689 6579
4  6688 6578 6582 6577
4  6578 6689 6582 6687
4  6578 6082 6686 6336
4  6202 6178 6089 6036
4  6087 6805 6038 6040
4  6087 6179 6806 6518
4  6203 6089 6036 6202
4  6089 6320 6203 6033
4  6033 6036 6089 6087
4  6036 6087 6032 6041
4  6089 6088 6806 6323
4  6136 843 6141 493
4  6178 6733 6208 6211
4  6089 6806 6733 6323
4  6807 6615 6808 6809
4  6583 526 1002 1020
4  6807 6809 6810 6742
4  6811 6812 6813 6814
4  6815 6816 6817 6818
4  6811 6813 6819 6820
4  6811 6379 6821 6820
4  6811 6822 6823 6824
4  6811 6820 6819 6823
4  6584 6466 6825 6826
4  6827 6584 6826 6466
4  6584 6828 6585 6829
4  6140 6128 6141 6139
4  6140 6129 6557 6555
4  6830 6831 6832 6625
4  6140 6459 6561 6557
4  6140 6833 541 6488
4  6140 6488 843 6141
4  6140 6129 6555 6833
4  6834 6835 6836 6837
4  6834 6263 6835 6837
4  6262 6834 6269 6263
4  6119 6780 6838 6127
4  6126 6123 6838 6119
4  6119 6124 6125 6126
4  6123 863 6838 6839
4  6123 6124 6126 970
4  6123 6839 910 863
4  6123 970 6126 772
4  6840 6233 6234 6841
4  6840 6842 6843 6844
4  6840 6841 6845 6233
4  6840 6845 6841 6846
4  6847 729 6358 754
4  6847 6848 6358 729
4  6847 6849 6850 898
4  6851 6852 6853 6854
4  6361 6358 6849 6359
4  6847 6359 6848 6855
4  6259 6429 6856 6101
4  6259 6429 6857 6858
4  6259 6859 6103 6101
4  6259 6101 6856 6859
4  6259 289 6859 421
4  6259 289 421 121
4  6429 6431 6260 6860
4  6861 6862 6863 6429
4  6864 6865 6866 6867
4  6100 6429 6862 6430
4  6429 6857 6860 6260
4  6868 6869 6870 6871
4  6868 6872 6873 6874
4  6868 6872 6874 6875
4  6868 6394 6876 6875
4  6393 6403 6401 6397
4  6482 6877 6878 6515
4  6710 6819 6879 6880
4  6515 6881 6882 6363
4  6515 6363 6286 6881
4  6515 6877 6514 6482
4  6561 1089 768 771
4  6883 6884 6885 6886
4  6883 6887 6888 6889
4  6883 6476 6888 6890
4  6883 6890 6891 6885
4  6883 6891 6890 6888
4  6892 6893 6894 6895
4  6892 6896 6894 6897
4  6892 6898 6899 6900
4  6892 6899 6901 6896
4  6902 6296 6903 6904
4  6902 6905 6887 6906
4  6902 6907 6903 6297
4  6902 6296 6908 6297
4  6902 6906 6887 6907
4  6909 6797 6910 6841
4  6909 6238 6614 6797
4  6909 6911 6846 6912
4  6909 6797 6913 6910
4  6909 6612 6911 6912
4  6914 6915 6916 6917
4  6914 6720 6918 6919
4  6914 6920 6918 6166
4  6914 6915 6918 6920
4  6914 6165 6916 6166
4  6921 6922 6923 6924
4  6921 6925 6926 6927
4  6921 6463 6928 6929
4  6921 6559 6925 6927
4  6921 6559 6463 6922
4  6058 6930 6069 6066
4  6930 6067 6931 6932
4  6930 6933 6067 6934
4  6930 6935 6069 6936
4  6934 6930 6935 6069
4  6930 6933 6937 6931
4  6938 6939 6900 6940
4  6938 6941 6894 6893
4  6892 6938 6894 6893
4  6942 6674 6943 6944
4  6942 6945 6368 6946
4  6942 6947 6945 6948
4  6942 6368 6947 6944
4  6942 6674 6948 6945
4  6949 6950 6951 6952
4  6953 6949 6952 6950
4  6949 6954 6955 6952
4  6274 6273 6956 6957
4  6274 6958 6277 6055
4  6959 6958 6960 6274
4  6274 6959 6961 6962
4  6274 6959 6963 6960
4  6097 6261 6102 6964
4  6965 6966 6967 6968
4  6105 6098 6118 6097
4  6097 6105 6969 6118
4  6099 6441 6970 6428
4  6097 6118 6969 6970
4  6097 6427 6099 6118
4  6129 6803 6833 6488
4  6136 6488 6128 6141
4  6377 6820 6710 6971
4  6128 6139 6129 6131
4  6959 6961 6972 6973
4  6484 6486 6388 6974
4  6479 6484 6975 6485
4  6484 6974 6485 6486
4  6484 6975 6485 6976
4  6965 6977 6484 6967
4  6206 6978 6562 6207
4  6484 6977 6481 6967
4  6833 936 6488 6803
4  6129 6557 6555 6554
4  6130 6128 6487 6129
4  6159 6160 6172 6490
4  6172 6173 6490 377
4  6172 6160 6979 6490
4  6172 377 6490 950
4  6172 6173 949 6772
4  6172 950 6490 6979
4  6390 6389 6980 6981
4  6730 6722 947 1003
4  6730 6979 950 947
4  6225 6730 6160 6490
4  6159 6225 6490 6489
4  6730 6222 6722 1003
4  6730 6160 6979 6982
4  6730 6722 6160 6982
4  6983 519 6386 22
4  6983 6076 6075 6771
4  6771 6983 276 274
4  6983 274 6075 519
4  6049 6238 6198 6048
4  6049 6046 6197 6200
4  6234 6238 6984 6198
4  6042 6050 6493 6047
4  6199 6984 6233 6985
4  6234 6233 6984 6841
4  6199 6984 6234 6233
4  6129 6128 6487 6488
4  6487 6230 6130 6803
4  6138 6142 6723 6137
4  6128 6130 6487 6138
4  6128 6137 6141 6142
4  6138 6719 6142 6131
4  6239 522 523 6986
4  6107 6239 6109 6240
4  6239 6188 6987 6187
4  6239 877 522 6987
4  6988 6679 6989 6990
4  6991 6992 6993 6994
4  6240 6995 6986 6239
4  6406 6407 6404 6996
4  6406 6997 6062 6404
4  6406 6062 6998 6999
4  6406 7000 6998 7001
4  6406 6404 7002 6997
4  6437 6439 6919 6434
4  6914 6437 7003 7004
4  6437 6439 6721 6720
4  7005 7006 7007 7008
4  7005 6339 6328 7009
4  6390 6517 6516 6981
4  7010 6390 6515 6881
4  7011 6960 7012 6398
4  6390 7013 7014 6882
4  6051 7015 6057 6056
4  6390 6517 6981 6980
4  6980 6388 6389 6390
4  7013 6881 6882 6390
4  6294 7016 6506 6290
4  6757 7017 7018 7019
4  6241 6242 7020 6285
4  6294 6290 6506 6293
4  6294 7021 7020 7022
4  6294 7022 6285 6293
4  6087 6806 6805 6518
4  6806 7023 6733 6323
4  6087 6806 6089 6088
4  6806 7024 6518 6179
4  6087 6040 6518 6805
4  6764 6704 6765 6701
4  6704 6706 6705 996
4  6275 7025 7026 7027
4  994 7028 995 6705
4  6705 7028 6765 6701
4  6705 6768 6766 994
4  7025 7012 7026 7027
4  6746 6747 7029 6749
4  6746 6749 7029 7030
4  6805 718 719 716
4  6746 6621 6748 938
4  7031 7032 7033 6449
4  7031 6360 7034 6449
4  7031 7035 7036 6314
4  7031 6499 6360 7035
4  7031 6499 7035 6314
4  7037 6696 6697 6762
4  7037 7038 7020 7021
4  7037 6696 7020 6697
4  6294 7020 7037 7039
4  7040 6451 7035 6452
4  6452 7040 7036 7035
4  7040 6451 7041 6357
4  6499 7042 6357 7040
4  6361 6499 7042 6357
4  7040 6499 7042 7043
4  7041 6357 7042 7040
4  6758 7044 6759 6757
4  7035 6499 6357 7040
4  6360 7035 6499 6357
4  7045 7046 7047 7048
4  7045 7049 7050 6254
4  7045 7051 7052 7053
4  6409 6410 7054 6411
4  6409 7055 6455 6412
4  6409 6299 6468 6410
4  6356 529 526 33
4  6409 6299 6454 6303
4  6409 6455 6454 6412
4  7056 7057 7058 6629
4  7056 6625 7059 7060
4  6623 6629 7056 6625
4  7056 6628 7060 7057
4  6382 7061 7062 7063
4  6382 7061 7063 6494
4  7064 7065 7066 7067
4  6382 6498 7068 6494
4  6382 7062 6384 7063
4  6384 7063 7069 6382
4  6813 6820 6710 6819
4  7070 7016 7039 7071
4  7037 7016 7070 7072
4  7037 7070 7039 6762
4  7070 6420 7073 6779
4  7070 7016 7071 6420
4  6478 6476 7074 7075
4  6478 7076 6472 7077
4  7078 7079 7080 7081
4  6273 6962 7082 6957
4  6478 7077 7083 7076
4  6359 6849 6313 6855
4  7084 7085 7086 7087
4  6103 7088 6104 6106
4  6359 6450 6360 6354
4  6361 6358 6359 6355
4  6358 6849 6359 6847
4  6847 6848 6359 6358
4  6359 7034 6855 6313
4  7089 7090 6083 7091
4  7089 6715 6072 6205
4  7089 6715 7091 6083
4  6175 6179 6518 6520
4  6518 718 1004 7024
4  6518 6040 900 718
4  6087 6806 6088 6805
4  6806 7092 6805 7024
4  6518 7024 6805 718
4  7064 7093 7067 7094
4  7095 7096 6617 6738
4  7097 7095 943 764
4  6734 7098 7097 6738
4  7097 1033 944 943
4  6734 1033 7097 7098
4  7097 7096 943 7095
4  6988 7099 7100 6681
4  6041 6036 6079 6177
4  6177 6036 6037 6041
4  6177 1032 170 6037
4  6086 871 6081 6082
4  6086 6085 6071 6079
4  6079 6036 6178 6080
4  6086 6177 170 6176
4  6177 170 1032 932
4  6085 6080 6071 6079
4  6081 6073 6082 6686
4  6086 6081 932 6177
4  7101 7073 6125 6761
4  7101 6761 6240 7039
4  6127 6125 6760 6767
4  6767 6766 971 7101
4  7101 6766 971 800
4  7101 523 521 971
4  7101 521 523 6995
4  7101 6124 6125 6995
4  6988 6989 6681 7100
4  6766 6761 7101 6767
4  6694 6763 6701 6760
4  6698 7102 6701 6700
4  6701 6694 6698 6699
4  6698 6760 7102 6783
4  6774 6760 6698 6783
4  6698 6775 6783 7103
4  6698 7103 6703 6775
4  431 7104 25 6214
4  6214 6221 7104 6354
4  6214 822 6220 529
4  6213 6214 822 6220
4  6214 6221 6215 431
4  6214 6219 6221 6354
4  6214 6219 25 529
4  6723 6228 495 6722
4  6227 6723 6722 6228
4  6227 6730 6722 6160
4  6227 6138 6723 6228
4  6718 6723 7105 6770
4  6459 6461 6129 6139
4  6140 6129 6833 6488
4  6557 6556 6554 7106
4  6557 6556 6559 6558
4  6459 6464 6557 6461
4  6129 6557 6554 7107
4  6157 6164 6147 6161
4  6146 7108 6148 6153
4  6147 6522 6149 6146
4  6157 6164 6160 6147
4  6146 6147 6156 6153
4  6147 6154 6156 6161
4  6157 6147 6160 6148
4  6159 6148 6225 6489
4  6147 6160 6148 6149
4  6730 6982 6979 6722
4  6989 6682 6681 7100
4  6770 6165 6722 6982
4  7109 6709 6710 6711
4  684 6261 6260 683
4  6261 818 683 684
4  6261 7110 6097 6104
4  6258 683 6261 221
4  6261 223 221 818
4  6964 7110 6097 6261
4  6749 6746 978 7030
4  6743 6751 939 6748
4  6743 6750 6747 7111
4  6747 6749 6744 7111
4  6747 6750 7112 7111
4  6747 6798 6621 7029
4  6747 7029 7113 6798
4  6747 7111 7112 7113
4  6234 6984 6238 6841
4  6238 6048 6049 6043
4  6911 6234 6043 6909
4  6909 6841 6238 6797
4  6238 7096 6798 7114
4  6610 6797 6909 6614
4  6238 6797 6798 6614
4  6197 592 6620 734
4  6049 6199 6235 6200
4  6049 6198 6197 6048
4  7115 7086 7084 7116
4  6197 6619 6198 6620
4  6197 6232 6200 508
4  6197 734 508 592
4  6197 6046 489 508
4  6381 6077 6392 7117
4  6077 6386 6392 7118
4  6381 6387 6077 7117
4  6753 6387 6952 7117
4  6386 6077 6983 7118
4  6075 6386 6077 6983
4  6075 6386 6754 6077
4  7119 7120 7121 7122
4  1018 6223 6222 355
4  6228 494 6229 6137
4  6228 6222 1003 6722
4  6160 6227 6164 6722
4  6539 7123 6537 6536
4  6723 498 7105 849
4  6217 6331 6218 6329
4  6325 6331 6217 6329
4  6217 6221 7124 6216
4  7125 91 630 649
4  6217 7124 6329 6216
4  6463 6922 6559 6557
4  6459 6463 6557 6464
4  6459 6560 7126 6561
4  6463 6560 6929 7126
4  6463 7127 6922 6464
4  6463 7127 6462 7128
4  6104 6105 222 6969
4  6459 7126 6463 6462
4  6464 6463 7127 6462
4  7055 7054 7129 6411
4  7055 7129 7054 7130
4  7055 7129 7130 6236
4  7055 6236 7131 6193
4  7055 6193 6455 6412
4  6333 7031 6360 7035
4  6333 6360 6449 6450
4  6333 6451 7035 6357
4  6325 6332 6331 6329
4  6355 6354 6360 6357
4  6360 6354 6450 6327
4  7132 7133 7134 7135
4  7132 7136 7137 7138
4  7139 6680 6682 7140
4  7141 7133 7142 7132
4  7143 7144 7145 7146
4  7143 6815 7147 6816
4  7143 7148 6816 7147
4  7149 7150 7151 7152
4  6530 6828 6536 6538
4  7078 7079 7153 7154
4  7155 7156 7152 7078
4  7078 7156 7080 7154
4  6403 7157 6426 7158
4  7157 7159 6870 6426
4  7157 6870 7159 7160
4  7157 6425 6391 7158
4  6403 6425 7157 7158
4  6432 7161 7162 6435
4  6432 6438 7161 6436
4  6432 6438 6440 7163
4  7162 7164 7165 7166
4  7162 7167 6544 7163
4  7162 6544 7167 7166
4  7168 7169 7170 6954
4  6949 7171 6950 6953
4  6949 6954 7170 7172
4  7168 7173 7174 7175
4  7168 6951 7173 7175
4  6949 6954 7168 7170
4  6901 7176 7177 7178
4  6901 7179 7180 7177
4  6892 6898 6901 6899
4  6901 7176 6899 6898
4  6901 7176 7178 6899
4  6427 6441 6970 6099
4  6441 6442 6428 6099
4  6445 6777 7181 7182
4  6445 6777 7182 7183
4  6445 7184 6446 6427
4  6441 6446 6445 6447
4  6925 484 6927 486
4  6539 7123 7185 6537
4  6530 6536 6539 6537
4  6539 7186 7185 7123
4  6539 7186 7187 7188
4  6539 7189 7190 7188
4  6539 7189 7187 6533
4  6271 7191 7192 7193
4  6271 7193 6365 6270
4  6271 6365 7193 7192
4  6271 7194 6266 6268
4  6262 6264 6271 6268
4  6271 7195 7194 6268
4  7083 7196 6890 7197
4  7083 6890 7196 7198
4  7083 7199 7198 7196
4  7083 7200 7077 7201
4  7083 7200 7202 7076
4  6478 7074 7083 7077
4  7145 7203 7204 7205
4  7145 7206 7207 7203
4  7143 7148 7208 6411
4  7143 7145 7144 6817
4  7209 6457 7210 7211
4  7145 7144 7205 7204
4  7145 7205 7144 6817
4  7212 7213 7214 6375
4  7212 7213 7215 7153
4  7212 7150 7216 7217
4  7212 7216 7150 7151
4  7078 7212 7150 7151
4  6488 541 843 358
4  7078 7212 7081 7150
4  7136 7218 7219 7220
4  7136 6673 7220 7221
4  6787 6163 6162 6790
4  6667 7222 6338 6668
4  7132 7223 7136 7138
4  7132 6633 7224 7135
4  7136 7219 7218 7138
4  7136 7219 7138 7223
4  6601 7225 7226 7160
4  6601 7160 6603 7227
4  6601 6598 6603 7226
4  6599 6603 6601 6598
4  6601 6604 7228 6602
4  7168 7169 7229 7230
4  7229 7174 7231 7232
4  7168 7229 7174 7233
4  7229 7174 7234 7175
4  7235 7236 7237 7052
4  7235 7238 7239 7240
4  6445 7238 7235 7241
4  7235 7239 7238 7184
4  7242 7243 7244 6692
4  7242 7245 7246 6693
4  7242 7246 7247 6690
4  7248 7249 6603 7250
4  7248 7160 7250 6603
4  6403 6394 7251 6397
4  7157 7252 7253 7254
4  7157 7248 7160 7159
4  7248 7160 7159 7250
4  6442 7255 6444 6428
4  6442 6428 6099 6431
4  6441 6443 6442 6448
4  6442 6786 7255 7256
4  6442 6786 7257 6443
4  7186 7258 7259 7260
4  6539 7185 7186 7190
4  7186 7261 7185 7123
4  7186 7185 7261 7262
4  6654 7263 7264 6657
4  7263 7264 7265 6654
4  6654 7263 7266 7267
4  6654 6655 7268 7269
4  7266 6654 7267 7268
4  6662 7270 7271 6665
4  7270 7271 7272 6662
4  6662 7270 7273 7274
4  6662 6663 7275 7276
4  7273 6662 7274 7275
4  7046 7277 6993 7047
4  7045 7278 7279 6254
4  7046 7280 6993 7053
4  7045 7281 7279 7282
4  7046 7279 7283 7048
4  7164 7166 7167 7284
4  7164 7127 7285 7286
4  7164 7127 7287 7285
4  7162 7164 6462 7287
4  7288 7289 7290 6658
4  7288 6843 6842 7291
4  7229 6497 7288 7291
4  7288 6843 7291 6497
4  7236 7052 7292 7050
4  7236 7052 7051 7237
4  7235 7236 7052 7293
4  7235 7240 7236 7293
4  7258 7294 7295 6667
4  7258 7261 6310 7262
4  7258 6310 6316 7262
4  7186 7262 7258 7296
4  7191 7192 7297 7298
4  6271 7299 7191 7195
4  6271 7192 7191 7299
4  7191 7300 7192 7193
4  7199 7198 7301 7302
4  7083 7199 7303 7200
4  7083 7198 7199 7304
4  7199 7305 7198 7196
4  6870 7160 7252 6869
4  7157 7248 7252 7160
4  6870 6394 6871 7251
4  6403 7157 6870 6426
4  7306 6590 6596 6421
4  7306 7307 6591 7308
4  7306 6590 6423 6591
4  6589 6596 7306 6590
4  6868 6870 6426 6394
4  6868 6872 6876 7309
4  7225 7310 7311 7312
4  7225 7310 7309 7311
4  6601 7225 7160 7227
4  7225 7160 6869 7226
4  6868 6871 6873 6869
4  6870 7225 7313 7160
4  6902 6907 6908 6906
4  6887 6889 7314 6907
4  6887 6884 6904 7315
4  6902 6887 6904 7314
4  7242 7243 7316 7317
4  7242 7247 7317 7316
4  7242 6692 6690 7316
4  7243 7317 7318 6508
4  7243 7319 6502 6504
4  7243 6692 7320 7319
4  6501 7243 6502 6504
4  7157 7248 7159 6389
4  7157 6870 7160 7252
4  6870 6869 7252 7251
4  6870 7225 7160 6869
4  6601 6603 7160 7226
4  7321 6093 7322 6826
4  7225 7226 6869 7323
4  6870 7159 7160 7313
4  6532 7189 7324 6535
4  6465 7325 7326 6532
4  6530 6533 7327 6531
4  6584 6532 6466 6534
4  6532 6465 6825 6466
4  6532 6465 7325 6825
4  6950 7171 7173 7328
4  6648 7329 7330 6950
4  6949 7168 7331 6951
4  6950 6952 6649 7332
4  6950 6648 7329 7332
4  6950 6648 7332 6649
4  6442 6786 6444 7255
4  7333 7334 7335 7336
4  6441 6445 7183 6777
4  6428 6099 6097 6970
4  6441 6442 6444 6428
4  7337 7338 7339 7340
4  7084 7341 7085 7342
4  6441 6445 6970 7183
4  6714 7343 7334 7344
4  6894 6896 7345 7346
4  6894 7345 7347 6631
4  6892 6901 7348 6895
4  6938 6894 6864 6897
4  6894 6631 7347 6941
4  7349 7350 7351 7352
4  6894 6631 6941 6864
4  7248 7353 7249 7354
4  7249 6603 6593 6595
4  7248 6603 7249 7353
4  7249 6603 7250 6607
4  6469 6470 6474 6343
4  6478 7076 7202 6477
4  6476 6889 7075 6473
4  6476 6889 6475 7355
4  6478 7197 6477 7202
4  6807 6810 7349 7356
4  6469 6473 6476 7075
4  6437 7004 6436 7003
4  6432 6435 7162 6433
4  6438 7357 6436 7004
4  7358 7007 7127 7286
4  6438 6543 7357 7359
4  6432 7162 7163 6460
4  6437 6438 6436 7004
4  6262 6834 7360 6269
4  6834 7360 6998 7361
4  6262 6263 6270 6365
4  6834 6835 6263 6265
4  6262 6834 6267 7360
4  6262 6271 6264 6365
4  6403 7157 7251 6870
4  6403 6870 7251 6394
4  6870 6869 7251 6871
4  6403 6870 6394 6426
4  6403 6425 6401 7254
4  6868 6394 6875 6871
4  6393 6395 6394 6397
4  6394 6875 6395 6396
4  6394 6875 6396 6876
4  6872 7310 6873 7362
4  6868 6426 6870 7313
4  6868 7225 7309 7313
4  6731 6988 7363 7364
4  458 7365 457 644
4  7005 7007 7006 7366
4  6664 7367 7368 7275
4  6663 7188 7260 7369
4  6663 7260 6666 7369
4  6661 6667 7295 7370
4  6662 7273 7276 7275
4  6661 6667 7371 6668
4  6655 7372 7373 7374
4  6655 7174 7232 7375
4  6655 7232 6660 7375
4  6653 7376 6658 7290
4  6653 6658 7377 6659
4  6654 7269 7268 7266
4  6655 7174 7375 7372
4  7047 6991 7378 6993
4  7280 6991 6993 6994
4  7280 7181 7052 7379
4  7280 7052 7049 7379
4  7045 7046 7279 7281
4  7046 7281 7053 6993
4  7045 7047 7046 7280
4  7312 7380 7381 7228
4  6365 7192 7382 7383
4  6365 7192 7299 6367
4  6271 6365 7299 6264
4  6263 6265 6366 6264
4  6262 6263 6365 6264
4  6262 6271 6365 6270
4  6883 6885 6891 6886
4  6476 7075 6888 7074
4  6478 6476 6890 7074
4  6883 6476 6889 6888
4  6469 6470 6478 6477
4  6883 6476 7355 6889
4  6544 7166 6548 7384
4  6438 6436 6545 7161
4  6432 6438 6544 7161
4  6540 6438 7357 6545
4  6432 6437 6439 6440
4  6540 6542 6545 7357
4  7385 7386 7387 7388
4  7306 7386 7385 7389
4  7385 7386 7390 7391
4  6688 745 746 1021
4  7306 7307 7385 7392
4  6509 7362 7318 6872
4  6180 7393 6519 7394
4  6868 6875 6874 6871
4  7310 7318 7395 7396
4  6868 6872 7310 6873
4  6872 7362 6873 6874
4  7055 6412 7129 6237
4  7310 7395 7318 7397
4  6648 7398 7399 6651
4  6648 7398 6650 7400
4  7330 7401 7402 6648
4  6648 7328 7330 7401
4  6465 7403 7404 6467
4  6683 7405 7406 7407
4  6465 7403 6112 6144
4  7326 7408 7409 6465
4  6465 7324 7326 7408
4  6601 7227 6602 7228
4  6604 6601 7312 6600
4  6604 7410 7411 7228
4  6604 7412 7413 7414
4  6604 7410 7413 7412
4  7415 7416 7417 6784
4  6784 7418 7419 7420
4  6784 7418 7420 6758
4  6784 6778 7415 7416
4  6631 6864 6897 7421
4  6894 6631 6897 7346
4  7345 7346 6631 6894
4  6892 6938 6893 6939
4  6949 6950 7173 6951
4  6949 7168 7173 7171
4  7173 7174 7422 7372
4  7173 6950 7328 7330
4  7173 7330 7423 7372
4  7173 7330 7422 7329
4  6530 6534 6584 6538
4  6696 7424 6695 7425
4  6539 6533 7187 7327
4  7189 7188 7426 7427
4  7189 6532 7324 7326
4  7189 7326 7427 7426
4  7189 7326 7426 7325
4  6777 7415 7428 7429
4  6777 7415 7430 7431
4  6441 6445 6777 6447
4  6777 6444 6778 7415
4  6441 6777 6444 6447
4  6444 6778 6443 6447
4  6901 7179 7345 7180
4  7345 7179 7432 7180
4  7345 6624 7433 7434
4  7345 6624 7434 7347
4  6901 6895 7345 7435
4  6892 6901 7345 6896
4  7345 7179 7434 7433
4  6509 6508 7318 7362
4  6509 7436 6510 6874
4  6872 6509 7362 6874
4  6872 7310 7397 7309
4  6364 6947 7382 7437
4  6364 6365 6367 7382
4  6364 6366 6368 7437
4  6368 6371 7438 7439
4  6542 7357 7440 6642
4  6638 6642 7441 6641
4  6638 6376 6642 7442
4  6542 6547 6643 6541
4  6784 6443 6778 6785
4  6784 6758 6786 6785
4  6786 6758 7420 7443
4  6786 6756 7444 6758
4  6786 7257 6443 7444
4  6442 6431 6099 7445
4  6442 6444 6786 6443
4  6786 6756 7256 7444
4  6371 6835 7446 6265
4  6263 6371 6366 6265
4  6371 6835 7447 7448
4  6371 7439 7446 7448
4  6371 7439 7447 7438
4  6263 6365 6369 6270
4  7357 7004 7449 6436
4  6438 7357 6545 6436
4  7357 7004 7450 7451
4  7357 6642 7449 7451
4  7357 7440 6642 7450
4  6438 6544 6543 7163
4  6887 6888 6906 6886
4  6476 6890 7355 7197
4  6889 6473 7452 7453
4  6887 6889 6907 6906
4  6889 6907 7454 7453
4  6889 6907 7452 7314
4  6547 6640 6643 7455
4  6547 6640 7456 7457
4  6638 6547 6640 6643
4  6542 6641 6639 6549
4  6540 6542 6547 6549
4  6884 6885 6886 7458
4  6884 7459 7460 7461
4  6884 7459 7462 7460
4  6887 6906 6905 6886
4  6883 6887 6884 6886
4  6947 6948 6944 7463
4  6947 6948 7464 7465
4  6942 6947 6948 6944
4  6368 6946 6945 7437
4  6364 6368 6947 7437
4  6875 7436 7466 7467
4  6875 7436 7468 7469
4  6868 6876 6394 6426
4  6872 6875 7436 6874
4  6868 6871 6874 6873
4  6868 6872 6875 6876
4  7470 7471 7472 7473
4  7470 7474 7475 6244
4  7470 6244 6248 7476
4  7470 7474 7476 7471
4  7470 7471 7476 7472
4  7330 6950 7328 6648
4  6648 7401 7400 7328
4  7330 7372 7477 7423
4  7330 7402 7478 7479
4  7330 7402 7479 7399
4  6950 7329 7330 7173
4  7330 7372 7479 7478
4  6465 7408 6144 7324
4  6465 7408 7409 7403
4  6465 7326 7325 7404
4  6532 7325 7326 7189
4  7326 7427 7480 7481
4  7326 7409 7481 7480
4  7326 7409 7480 7404
4  7482 7080 7156 7154
4  6784 7416 6785 6778
4  6444 7431 7415 6777
4  6784 7416 7417 7418
4  6444 7431 6777 7183
4  7415 7429 7483 7484
4  7415 7417 7484 7483
4  7415 7419 7417 7483
4  7249 6603 6595 7353
4  6603 6593 6595 6598
4  7248 7160 7353 7252
4  6774 6782 6781 6783
4  7248 7010 6389 6391
4  6601 7228 7312 7311
4  6599 6602 6603 6607
4  6042 6048 6046 489
4  6601 7226 6600 6598
4  7160 7250 6603 7227
4  6786 7256 6756 7443
4  6756 6759 6758 7443
4  6786 6756 6758 7443
4  6756 7025 7027 6757
4  6756 6757 6759 7485
4  7398 7109 7486 7487
4  7398 7402 7486 7109
4  7398 7402 7488 7401
4  7403 7474 7489 7490
4  7403 7474 7490 6282
4  7403 7408 7409 7491
4  7492 7109 7493 7494
4  7492 7495 7493 7496
4  7492 7497 7498 7499
4  7492 7499 7493 7497
4  7492 7493 7495 7497
4  7191 7336 7333 7335
4  6271 6365 7192 7299
4  6365 6367 7299 6264
4  7192 7382 7500 7501
4  6365 7382 7192 6367
4  7192 7382 7383 7500
4  7162 7164 7167 6462
4  7166 6548 7502 7503
4  7162 6544 7166 7165
4  6544 6546 7165 7161
4  6544 6548 7166 6546
4  7166 6548 7384 7502
4  7199 7350 7201 7504
4  6890 7304 7074 6891
4  7083 6890 7198 7304
4  7198 6885 7505 7506
4  6890 6885 7198 6891
4  7198 6885 7507 7505
4  6784 7415 7431 7419
4  7418 7508 7509 7510
4  7418 7508 7510 7044
4  6632 6865 7511 7512
4  6632 7513 6865 7421
4  6632 6627 6628 7514
4  6631 6632 6630 7515
4  6631 6624 7347 6630
4  6623 6624 6631 6630
4  7168 7169 6954 7331
4  7084 7115 7341 7148
4  7084 7516 7115 7517
4  7084 7518 7519 7520
4  7229 7174 7232 7234
4  7174 7231 7232 7375
4  7173 7174 7372 7423
4  7168 7229 6498 7175
4  7229 6497 7291 7230
4  7174 7372 7521 7422
4  7174 7521 7232 7234
4  7189 7190 7522 6535
4  6539 7189 7188 7187
4  6539 7186 7523 7187
4  7186 7258 7262 7261
4  7189 7188 7427 7522
4  7524 7525 7526 7527
4  7188 7528 7260 7259
4  6328 7009 6339 7529
4  7188 7427 7528 7426
4  7181 7530 7052 7237
4  6445 7182 7235 7531
4  7235 7236 7240 7239
4  7181 7430 7429 7530
4  6445 7181 6777 7241
4  6777 7428 6447 7241
4  6777 7181 7429 7428
4  7179 7433 7532 7533
4  6901 7345 6896 7180
4  7345 7180 7432 6896
4  7179 7433 7533 7434
4  7345 7179 7433 7432
4  7534 7535 7536 7537
4  7534 7535 7537 7538
4  7534 7539 7535 7538
4  7534 7540 7142 7541
4  7534 7538 7540 7539
4  7005 6328 7542 7124
4  7005 7007 6337 7008
4  6337 6338 7542 6339
4  6337 7371 6338 6340
4  6624 7347 6630 7543
4  6624 7432 7433 6626
4  6631 7421 7346 6627
4  6631 6864 6865 7515
4  7345 6624 7346 7432
4  6894 7347 7345 6895
4  7136 7221 7223 7224
4  7136 7224 7544 7221
4  7544 6249 6673 7545
4  7544 6249 7545 6255
4  7544 6255 7545 6634
4  7242 7396 7318 7317
4  7310 6872 7397 7318
4  7225 6873 7310 7323
4  6509 7397 7318 6504
4  7243 6508 7316 7317
4  7318 6872 7397 6509
4  6501 7318 6509 6508
4  7474 7491 7471 7475
4  7474 6283 6282 6145
4  6530 6584 6531 6828
4  7409 7491 7474 7403
4  6530 6532 6535 7189
4  7109 6880 6709 7546
4  6983 22 6385 7547
4  7398 7402 7399 7486
4  7402 7488 7109 7398
4  7109 7493 7494 7488
4  7212 7213 6375 7215
4  7213 7079 7081 7548
4  7212 6375 7549 7215
4  7212 7153 7215 7151
4  7005 6328 6339 7542
4  7164 7550 7358 7551
4  7358 7552 7550 7284
4  7358 7550 7371 7553
4  7164 7358 7128 7127
4  7554 7555 7556 7557
4  7554 7557 7556 7558
4  6632 7209 7513 7514
4  7554 7559 7560 7558
4  7554 7560 7561 7562
4  7436 6513 7563 7564
4  6509 6874 6510 7362
4  6872 6509 7436 7469
4  7436 7467 7565 7466
4  6875 7466 7436 6874
4  6872 6875 6876 7469
4  6714 6652 6715 7566
4  6714 6652 7567 7343
4  7567 6251 6652 7566
4  7567 7278 7568 6251
4  6810 7569 7570 7349
4  6810 7569 7571 7377
4  6810 7572 7377 7571
4  6810 7377 7573 7574
4  7243 6502 7320 7575
4  6502 6512 7576 6511
4  6512 7576 7577 6502
4  6502 7578 7579 7319
4  6502 7578 7320 7575
4  7403 6465 7404 7409
4  7409 6465 7404 7326
4  7409 7580 7581 7481
4  7471 7491 7474 7409
4  7409 7471 7580 7582
4  7409 7471 7582 7489
4  7402 7493 7583 7486
4  7402 7477 7478 7584
4  7398 7546 7401 7488
4  7398 7546 6650 7400
4  7330 7402 7401 7477
4  7402 6648 7399 7330
4  7585 6347 6854 6348
4  7585 6473 7586 7453
4  7585 6473 7587 6474
4  7585 6347 7588 6851
4  6376 6373 7441 6374
4  6372 6378 6377 7589
4  6376 7139 7590 6377
4  6372 6379 7589 6820
4  6372 6376 6373 6380
4  7089 7090 7091 7591
4  7090 7592 7593 7594
4  7090 6563 7595 6978
4  7090 7091 7591 7596
4  7090 6083 6685 6084
4  7090 7596 7593 7597
4  7508 7535 7598 7599
4  7508 7600 7044 7601
4  7508 7417 7599 7418
4  7418 7509 7508 7417
4  7418 6758 7601 7044
4  7417 7484 7602 7603
4  6444 6784 6443 6778
4  7418 6784 7419 7417
4  7415 7417 7416 7604
4  7417 7604 7484 7605
4  7417 6784 7419 7415
4  7330 7328 7423 7477
4  7173 7330 7328 7423
4  7173 7422 7174 7175
4  7372 7423 7375 7606
4  7372 7478 7373 7374
4  6655 7373 7372 7606
4  7189 7427 7326 7522
4  7326 7607 7324 7522
4  7427 7367 7481 7608
4  7326 7427 7481 7607
4  7427 7480 7481 7609
4  6663 7367 7427 7608
4  7415 6444 6778 6784
4  6777 7415 7429 7430
4  7429 7484 6991 6994
4  7415 7429 7484 7604
4  7429 7483 7484 6994
4  7280 7530 7429 6994
4  6942 6946 7610 6945
4  7439 7448 7611 7446
4  6371 7439 6946 7446
4  7439 7448 7612 7613
4  7439 7613 7612 6675
4  7439 6943 6675 7612
4  6368 7438 6371 6369
4  6642 7451 7614 7139
4  6638 6641 7441 6639
4  6540 6545 6542 6549
4  6642 7451 7140 7449
4  7357 6642 6641 7449
4  6542 7440 7357 6543
4  6907 6297 7615 6903
4  6907 7453 7615 7616
4  6907 7453 7617 7454
4  6883 6887 7355 7315
4  6902 6906 6908 6905
4  6889 6907 6906 7454
4  6887 7314 6889 7355
4  6938 6933 6940 6867
4  6866 6864 6867 7618
4  6938 6897 6864 6867
4  6894 6631 6864 6897
4  6631 7421 6897 7346
4  6864 7618 6866 7619
4  6938 6939 6933 7618
4  6938 6864 6894 6941
4  7333 7334 7336 7620
4  7567 7333 7334 7343
4  7567 7333 7278 7621
4  6714 7620 7567 7566
4  7333 7297 7622 7278
4  7569 7301 7571 7377
4  7569 7349 7504 7570
4  6810 7569 7349 7356
4  7569 7349 7352 7350
4  7199 7569 7352 7350
4  6365 7193 7192 7383
4  6263 6365 6264 6366
4  6364 6368 6370 6947
4  6947 7465 7464 7623
4  6947 7624 7464 7463
4  6364 7382 6947 6370
4  7382 7501 7623 7624
4  6364 7383 7382 6370
4  6544 7167 7166 7384
4  7162 6544 7165 7161
4  6432 7162 6544 7163
4  6547 7457 7456 7625
4  6547 7626 7456 7455
4  6540 6548 6547 6541
4  6548 7503 7625 7626
4  6540 7384 6548 6541
4  6890 7196 7198 7507
4  6883 6888 6886 6891
4  1021 870 6582 962
4  6890 6891 7198 7304
4  6884 7627 7459 7458
4  6650 7099 7400 7546
4  6883 6885 6884 7315
4  6885 7506 7461 7505
4  6883 7507 6885 7315
4  7235 7237 7236 7628
4  7236 7629 6322 6321
4  7052 7293 7292 7049
4  7280 7053 7052 7530
4  7280 7052 7181 7530
4  7280 7047 7379 7049
4  7280 7181 7379 7429
4  7052 7050 7049 7292
4  7045 7050 7052 7051
4  7186 7259 7258 7630
4  7258 7294 6316 6310
4  7260 7296 7631 6666
4  6663 7188 7369 7427
4  6663 7369 6666 6664
4  6663 7276 7260 7528
4  6663 7260 7188 7528
4  7260 6667 6666 7631
4  6661 7295 7260 7276
4  7229 7234 7288 6495
4  7288 6842 7289 7632
4  7288 7232 7231 7632
4  6656 7373 7633 7268
4  6655 7375 6660 6656
4  6655 7269 7232 7521
4  6655 7232 7174 7521
4  7232 6658 6660 7632
4  6653 6658 7232 7290
4  6465 6534 7324 6144
4  6532 6465 6466 6534
4  6584 6829 6585 6827
4  6829 6827 6584 6826
4  6584 6825 6532 6531
4  6584 6531 6828 6826
4  6466 6113 6826 6827
4  6584 6466 6532 6825
4  6950 6648 6649 6953
4  6648 7400 6953 7328
4  7634 6649 6741 6732
4  6731 6732 6755 6741
4  6649 6955 6953 7634
4  6649 6952 6955 6741
4  6732 6649 6741 6731
4  6950 6953 6649 6952
4  7635 7044 7636 7637
4  7635 7638 7637 7639
4  7635 7640 7641 7638
4  7635 7639 7637 7636
4  6834 6551 6836 6835
4  6834 6263 6837 6269
4  6835 7448 6551 6550
4  6371 6366 6265 7446
4  6263 6371 6835 6837
4  6835 6550 6551 6836
4  6835 7448 7642 7447
4  6371 6835 7448 7446
4  6469 7586 6474 6473
4  6469 6476 6475 6477
4  6889 6888 7075 7454
4  6476 6889 6473 6475
4  7585 7586 6473 6474
4  7585 6474 6343 7586
4  6473 7453 7587 7452
4  6889 6473 7453 7454
4  7585 6473 7453 7587
4  6437 7004 6721 7359
4  6437 6440 6438 7359
4  7004 7451 7003 6915
4  7357 6436 7449 6545
4  6438 7357 7004 7359
4  6914 7004 7003 6915
4  7357 7004 7451 7449
4  7004 7451 6917 7450
4  6373 6375 6380 7643
4  6638 7441 6373 6639
4  6376 6374 7441 6378
4  6372 7589 6379 6374
4  6373 7644 6640 6639
4  6638 6642 6542 7440
4  6125 6780 6760 7073
4  6902 6296 6905 6908
4  6902 6907 7314 6903
4  6296 6908 6297 6298
4  6674 6673 7220 7645
4  6674 6673 6672 7646
4  6942 7439 6368 7438
4  6379 7589 6820 6823
4  6379 6375 6374 7647
4  7213 6379 6375 7648
4  6372 6379 7649 6380
4  6249 7650 6246 6250
4  6249 6673 6676 7651
4  6669 6249 7650 6246
4  6249 7545 6255 6257
4  7544 6673 6249 7651
4  6393 6399 6402 6973
4  6393 6394 6396 6402
4  6395 7467 6398 7011
4  6394 6395 6875 6397
4  6875 7466 6871 6397
4  6973 6395 6398 7011
4  6875 6395 7467 7466
4  6395 7467 7652 7468
4  6409 7055 6412 6411
4  6923 6922 6929 7128
4  6409 6455 6303 6454
4  6299 7206 6410 7653
4  6299 6300 6303 6308
4  6299 6300 6301 6454
4  7654 7655 7656 7657
4  7654 7655 7657 7580
4  7654 7658 7659 7660
4  7654 7659 7655 7661
4  7654 7655 7658 7656
4  6509 7564 7436 7469
4  6513 6512 7662 7638
4  6513 6512 7663 6503
4  6509 7436 7564 6513
4  6501 6510 6511 6508
4  6501 6513 6512 6511
4  6628 7209 7514 7664
4  6628 7664 7665 7666
4  6623 6625 7543 6629
4  6628 7057 7667 7060
4  6632 7666 6628 6630
4  6628 6627 7060 7514
4  6640 7658 7456 7457
4  6640 7658 7455 7456
4  6373 6640 7549 7643
4  6640 7658 7549 7668
4  7456 7625 7626 6547
4  6373 6640 7644 7549
4  6373 6639 7441 7644
4  6547 7455 6643 6541
4  6939 7669 7670 7671
4  6939 7672 6893 6898
4  6939 6940 6933 7670
4  6939 7671 7673 7672
4  6939 6933 7618 7673
4  6948 7674 7464 7465
4  6948 7674 7463 7464
4  6674 6948 7220 7646
4  6948 7674 7675 7463
4  7464 7623 7624 6947
4  6942 6948 6674 6944
4  6674 7645 6948 6945
4  6947 7463 6944 6370
4  6756 7027 7676 7444
4  6275 6277 7026 7025
4  6756 6275 7025 7485
4  6275 7025 7485 6276
4  6272 6277 6276 6055
4  6272 6279 6054 6278
4  7677 7133 7678 7679
4  7677 7133 7680 7681
4  6277 7025 6276 7682
4  851 6745 6743 1022
4  6277 7011 7025 7682
4  6272 7026 6277 6956
4  6277 6055 6958 6276
4  6277 7025 7012 7026
4  6277 7011 6958 6960
4  7683 7684 7518 7685
4  7683 7686 7687 7688
4  7683 7129 7130 7685
4  7683 7129 7685 7518
4  7683 7687 7684 7688
4  7677 7557 7689 7558
4  7689 7690 7577 7691
4  7689 7692 7577 7693
4  7689 7560 7694 7558
4  7689 7680 7691 7692
4  7689 7693 7560 7557
4  6632 7511 6865 7513
4  6865 7695 7511 7512
4  6864 6865 7619 6866
4  6631 6941 6864 7515
4  6632 7421 6627 7513
4  6631 6632 6865 7421
4  6648 7332 6649 6651
4  6648 6650 7398 6651
4  7398 7400 7401 7546
4  6650 6709 7696 6988
4  7398 6709 6650 7546
4  6650 6709 7487 7696
4  6465 6825 6466 6467
4  6465 6112 7403 6467
4  7403 6144 7408 6145
4  6112 6282 6115 6114
4  7403 6112 6282 7490
4  6112 6282 7490 6115
4  6758 7044 7510 6759
4  6786 6758 7444 6785
4  6758 7018 7444 6785
4  6444 6786 6784 7255
4  6784 7255 6786 7420
4  6784 7418 6758 6785
4  7418 7601 6785 7416
4  6847 754 438 729
4  6633 6635 7697 6636
4  7132 7137 6633 7134
4  7132 7223 7135 7224
4  7697 7135 7678 7698
4  7698 6633 7697 7135
4  7135 6633 7697 7134
4  6936 6347 7699 6069
4  6936 7700 6866 6935
4  6936 6866 6852 6937
4  6936 6347 7701 6851
4  6936 7699 6851 7700
4  6405 6414 7702 6415
4  6414 7703 6415 6413
4  6414 7703 6413 7704
4  6414 7704 6550 7703
4  6405 7702 6414 7002
4  6414 6550 7000 6552
4  6347 6069 7701 7705
4  7585 7586 6348 6854
4  7585 6347 6348 6346
4  7585 6347 6851 6854
4  6347 6851 7699 7588
4  6347 6069 6346 7699
4  6936 6347 6851 7699
4  6419 7386 7389 7706
4  6419 7389 7306 6423
4  6419 7386 7707 7708
4  7386 7707 7709 7706
4  6419 7706 7389 6423
4  7386 7390 7391 7709
4  7385 7710 7308 7711
4  7385 7388 7387 7392
4  7385 7390 7386 7388
4  7402 7584 7401 7477
4  7478 7373 7374 7712
4  7478 7713 7373 7712
4  7478 7713 7712 7714
4  7402 7478 7714 7584
4  7478 7583 7714 7712
4  7439 7446 7611 6946
4  7439 7448 7613 7611
4  7448 7613 7715 7612
4  6371 7447 6835 6837
4  7168 7229 7169 6498
4  7448 6550 7715 6194
4  7451 6915 6680 7003
4  7004 7451 6915 6917
4  7357 6642 7451 7450
4  6642 7449 7140 6641
4  7357 7004 7359 7450
4  6914 6720 6437 6721
4  6907 7453 7616 7617
4  7585 7453 7586 7716
4  7453 7454 7586 7716
4  6889 7452 6473 6475
4  6424 7717 7718 7719
4  6889 6907 7453 7452
4  6907 7454 7617 6906
4  7417 7484 7603 7605
4  7484 7602 7603 7720
4  7484 7721 7720 7603
4  7484 7722 6991 7723
4  7484 7721 6991 7720
4  7484 7720 6991 6994
4  7213 7647 7081 7214
4  6375 7549 7644 7214
4  6379 7589 7647 6374
4  6379 6822 6821 7648
4  7212 7549 6375 7214
4  6373 6374 6375 7644
4  6376 6373 6380 7442
4  7544 6634 6633 6636
4  6673 7220 7645 7724
4  6249 7650 7651 6676
4  6243 6255 6249 6250
4  7136 7220 6673 7724
4  6674 6676 6673 7645
4  6674 6948 7645 7220
4  6674 6672 6675 6943
4  946 909 37 7725
4  7258 6316 7294 7631
4  7280 6994 7429 6991
4  7294 6667 7222 6338
4  7258 7294 6667 7631
4  7294 6667 7726 7295
4  7056 7246 7058 7057
4  6623 7060 6628 6627
4  6424 6779 6422 6773
4  6625 7433 6832 6626
4  6625 6831 7433 7543
4  6625 6830 6831 7727
4  6623 7060 6627 6626
4  6299 6308 6468 6298
4  6299 7206 6298 6468
4  7145 7206 7203 7728
4  6296 7206 7729 6298
4  6295 7206 6296 6298
4  6296 7730 6297 6903
4  6395 7467 7011 7652
4  7436 6874 7466 7565
4  6875 7436 7467 7468
4  7467 7011 7731 7732
4  6875 6395 6396 7468
4  6393 6395 6398 6973
4  7209 7211 7511 7513
4  7209 7664 7733 7514
4  6632 7209 7511 7513
4  6632 7512 7666 6630
4  7289 6912 7734 7735
4  7289 7573 7734 7736
4  7289 6658 7735 7573
4  7289 7734 6045 7736
4  7629 7737 6034 7738
4  7236 6322 7629 7292
4  7629 6321 6203 6322
4  7629 6204 7737 6252
4  7577 7739 6512 7579
4  7577 7578 7693 7579
4  7577 7740 7739 7692
4  7577 7691 7690 7740
4  7511 7741 7742 7743
4  6632 7511 7209 7512
4  7209 7513 7514 7211
4  7511 7742 7744 7745
4  6632 7515 6865 7512
4  6865 7743 6866 6867
4  7689 7691 7746 7690
4  6502 6511 7576 7575
4  7577 7740 7690 7747
4  6512 7638 7739 7740
4  6502 7576 7577 7578
4  6112 6282 6114 6143
4  6282 6184 6114 6143
4  6282 6195 6574 6575
4  6112 6143 6113 6827
4  7403 6112 7490 6467
4  6282 6114 6195 6575
4  6650 6709 6988 7099
4  6709 6988 7099 7100
4  7109 7546 7488 6880
4  7398 7109 6709 7546
4  6650 7099 6731 6732
4  7398 6651 6650 7487
4  7129 7685 7518 7520
4  7129 7518 7748 7749
4  7179 7710 7177 7711
4  7710 7532 7750 7413
4  7179 7710 7532 7751
4  7710 7533 7532 7752
4  7508 7601 7599 7600
4  7418 7508 7044 7601
4  7635 7044 6757 7636
4  7508 7044 7637 7753
4  7044 7637 7753 7636
4  7635 7044 7637 7019
4  7710 7750 7754 7392
4  7710 7413 7307 7752
4  6589 6590 7306 6591
4  7306 7308 6591 7389
4  7306 7385 7308 7389
4  7307 6594 7392 6596
4  7307 7413 6606 7752
4  6589 6593 7755 6606
4  7756 407 458 456
4  6589 7307 6606 6591
4  6624 7433 7434 7543
4  7411 6832 6831 7532
4  7707 7719 7757 6122
4  7179 7532 7433 7751
4  7433 7532 6832 7751
4  7345 7433 6624 7432
4  6624 6626 7346 7432
4  7345 7434 7179 7435
4  7179 7754 7710 7751
4  7613 6194 6196 6553
4  7448 7613 6194 7715
4  7613 6194 7758 6195
4  7439 7448 7447 7612
4  7448 7613 6553 6194
4  7139 6679 7759 6989
4  7139 6377 6682 6989
4  6638 6642 7440 7442
4  6376 7140 6378 7441
4  7139 6377 7759 7590
4  6376 7139 6377 6378
4  7453 7760 7616 7716
4  7616 7760 7761 7716
4  6907 6297 7616 7615
4  6907 7615 7453 7452
4  7453 7616 7762 7615
4  6271 7763 7191 7193
4  7192 7298 7299 7764
4  7297 7765 7278 7621
4  7333 7297 7278 7621
4  7191 7333 7766 7335
4  7191 7766 7333 7300
4  7301 7767 7377 7768
4  7569 7301 7377 7768
4  7569 7301 7305 7571
4  7199 7352 7569 7305
4  7083 7303 7199 7196
4  7198 7302 7304 7769
4  7550 7371 7770 7270
4  7166 7550 7503 7502
4  7550 7503 7502 7771
4  7550 7270 7770 7503
4  7162 7164 7166 7167
4  7166 7551 7165 7772
4  6702 6635 7773 7774
4  6702 6634 6635 7775
4  7640 7732 7641 7776
4  7467 7732 7640 7776
4  7635 7640 7638 7777
4  7436 7467 7468 7563
4  7467 7011 7776 6398
4  7635 7640 7732 7641
4  6457 7664 7778 6458
4  6457 7210 7211 6304
4  6457 6458 7778 6456
4  6457 7210 6304 6300
4  6457 7779 7210 7780
4  7136 6673 7544 7724
4  6255 6256 6257 7781
4  6702 6636 6255 7782
4  7544 6636 6255 6634
4  6255 6256 7782 6250
4  7246 7057 6690 7058
4  7246 7245 6830 7727
4  7056 7246 6830 7727
4  7242 7246 7783 7247
4  7246 7059 6830 7783
4  6244 6574 6283 6245
4  6243 6244 6246 7784
4  6243 6248 6256 6247
4  6244 6246 7784 6574
4  6244 6574 7784 7785
4  6813 6710 6880 6819
4  6811 6814 6824 6812
4  6811 6813 6820 7786
4  6813 6820 7786 6710
4  6813 6710 7786 6711
4  7613 6670 6195 7758
4  7613 6670 6675 6677
4  7613 7612 6675 7787
4  6669 6670 6246 7650
4  6669 6677 6670 7650
4  6372 6377 6820 7589
4  6377 6989 6879 6682
4  7139 6377 6989 7759
4  6372 7589 6374 6378
4  6372 6377 6376 7590
4  6376 7590 7139 7614
4  7451 7139 6679 7788
4  7210 6306 7789 6300
4  7210 6306 7744 7789
4  7209 7210 6457 7779
4  7511 7210 7744 7741
4  7210 7789 7744 7741
4  6865 7511 7742 7743
4  7209 7511 7779 7512
4  7474 7476 7471 7489
4  7471 7581 7580 7790
4  7474 7475 6283 7491
4  7474 6282 6574 7785
4  7409 7471 7491 7581
4  7403 7489 7409 7404
4  7109 6813 6880 7494
4  7493 7714 7499 7584
4  7402 7493 7584 7714
4  7493 7714 7495 7497
4  7492 7493 7109 7496
4  7402 7399 7486 7583
4  6243 6246 6257 7784
4  6246 7784 6574 6576
4  6669 6671 6670 7787
4  6249 6250 6255 7651
4  6246 6523 6574 6245
4  6669 6249 6246 6671
4  7213 7153 7079 7791
4  7213 6379 7647 6375
4  7213 7214 6375 7647
4  6197 592 508 489
4  6822 6823 6824 7792
4  6372 6377 7649 6820
4  6822 6824 6821 7793
4  6379 6821 6820 7649
4  6377 6820 7589 6879
4  6379 6823 6822 7647
4  6820 6710 6971 7786
4  6372 7649 6377 7590
4  6372 6379 6820 7649
4  6820 6710 6819 6879
4  7616 7744 6306 7761
4  6306 7794 7744 7795
4  7616 6306 6297 6307
4  6295 6306 6297 7796
4  7616 6297 7796 7615
4  7654 7656 7658 7797
4  7655 7367 7481 7798
4  7655 7580 7798 7481
4  7655 7580 7661 7798
4  7478 7373 7713 7799
4  7713 7800 7801 7802
4  7478 7713 7714 7799
4  7713 7803 7801 7800
4  7713 7804 7803 7800
4  7508 7805 7600 7598
4  7535 7603 7537 7538
4  7508 7599 7598 7600
4  7417 7535 7599 7605
4  7535 7605 7603 7539
4  7418 7509 7417 7419
4  7484 6991 7721 7723
4  7721 7806 7807 7808
4  7484 7721 7603 7723
4  7721 7674 7807 7806
4  7721 7809 7674 7806
4  6731 6801 7364 7810
4  6650 6988 6731 7099
4  6731 7811 6988 7696
4  6731 7364 6800 6732
4  6649 6741 6731 6740
4  6649 6650 6732 7400
4  6650 6732 7400 7099
4  6113 6114 7812 7703
4  7813 7814 7815 7816
4  6112 6114 6113 6143
4  6113 6114 6115 7812
4  6466 6826 6113 7817
4  6466 6112 6827 6144
4  6112 6827 6144 6143
4  6936 6866 6851 6852
4  6865 7742 6866 7743
4  6866 7742 7695 7700
4  6866 6937 6867 6852
4  6867 7618 6933 6866
4  6864 6865 6867 7421
4  6865 6867 7421 7743
4  7805 7691 7818 7819
4  7805 7691 7740 7820
4  7805 7820 7637 7600
4  7805 7691 7820 7541
4  6223 6227 6138 6522
4  6138 6228 6229 6137
4  6223 355 6228 6222
4  6487 6138 6230 6229
4  6128 6129 6140 6488
4  6223 6224 6230 1018
4  6487 6230 7821 1018
4  7822 6733 7823 6209
4  6320 6322 6321 7824
4  6320 7823 6211 6212
4  7390 7707 7064 7709
4  6079 6041 6177 6176
4  6087 6036 6089 6178
4  6033 6089 6036 6203
4  6202 6211 6209 6212
4  6202 6080 6178 6036
4  6915 7363 6920 7825
4  6067 6068 7826 6932
4  6915 6679 7827 7363
4  7451 7003 6680 7449
4  7004 7003 7451 7449
4  7451 6915 6679 6680
4  6915 7788 6679 7825
4  6835 6550 6836 7642
4  6550 6194 6552 7703
4  7448 6551 6553 7446
4  6835 6551 7448 7446
4  6414 6550 6552 7703
4  7448 6550 6194 6553
4  6550 6194 7704 7715
4  6256 7156 7828 7152
4  6243 6246 6245 6250
4  6256 7156 7152 7155
4  6256 7152 7828 6247
4  6256 7152 6248 7155
4  6702 6256 6255 7781
4  6146 6149 6148 7108
4  6225 6222 6730 6490
4  6159 6148 6489 6162
4  6752 6169 6078 6753
4  6157 6164 6161 6166
4  6377 6989 6710 6879
4  6709 6710 6989 7100
4  6710 6879 6989 7100
4  6820 6879 6819 7589
4  7492 6813 7494 6812
4  6709 6988 6989 6712
4  7109 6709 6711 7487
4  6813 7494 6819 6880
4  6395 7011 6973 7652
4  7011 7732 7025 7682
4  7467 6398 7776 7466
4  6395 6398 7467 7466
4  6277 7025 7011 7012
4  7011 7732 7682 7731
4  7467 7011 7732 7776
4  7629 6204 6203 7737
4  7050 7278 6251 7282
4  7045 7278 7050 7282
4  7045 7282 7050 7051
4  7045 6254 7279 7048
4  7045 7046 7281 7053
4  7236 7052 7050 7051
4  7045 7052 7050 7049
4  6661 7371 6667 7370
4  7258 7294 7829 7295
4  7294 7033 7830 7222
4  6661 6662 7270 7273
4  6661 7260 7295 6667
4  6661 6662 7276 6663
4  6661 7260 6667 6666
4  7258 7260 6667 7295
4  7289 6658 7573 7831
4  6658 7735 7573 6659
4  6653 7232 6658 6660
4  7288 7232 6658 7290
4  7288 7289 6493 7290
4  7289 6658 7831 7290
4  6658 7377 7573 7376
4  6653 7377 6658 7376
4  6589 6593 7307 6594
4  6599 6593 7307 6606
4  6599 6600 6601 6604
4  6599 6604 7414 6600
4  6599 6594 6593 6598
4  6599 6607 6606 6602
4  6593 6595 6598 6594
4  6824 7147 7115 7792
4  6811 6824 6814 6821
4  6097 6427 6118 6970
4  6824 6815 7147 6812
4  6824 6815 6814 6816
4  6824 7792 7115 6822
4  7218 7674 7675 7832
4  6947 7464 6948 7463
4  7674 7806 7833 7807
4  7674 7463 7807 7675
4  7674 7809 7464 7465
4  7721 7674 7464 7807
4  7658 7217 7549 7660
4  7834 7217 7549 7658
4  7654 7797 7658 7660
4  7380 7835 7396 6830
4  7654 7658 7655 7659
4  7658 7668 7455 7659
4  6547 7456 6640 7455
4  7658 7655 7456 7656
4  7658 7456 7457 7656
4  7803 7800 7836 7801
4  7803 7203 7204 7837
4  6104 608 221 222
4  7803 7627 7459 7462
4  7803 7459 7627 7804
4  7803 7462 7460 7838
4  7638 7740 7639 7739
4  6512 6511 7662 7747
4  6513 6512 7638 7663
4  7635 7637 7638 7839
4  7638 7641 7839 7662
4  7640 7641 7638 7662
4  7436 6513 7640 7563
4  6513 7663 7640 7563
4  7179 7433 7432 7751
4  7433 7751 6832 7432
4  7532 7411 6832 7412
4  6832 6831 7532 7433
4  7385 7391 7177 7711
4  7179 7533 7710 7711
4  7532 7411 7410 6831
4  6824 7115 6816 7793
4  7115 7516 7086 7792
4  7115 7148 7517 7147
4  7115 6822 7793 6824
4  7115 7793 7086 7116
4  7115 7341 7148 6816
4  7840 7841 7842 7843
4  7680 7691 7541 7746
4  7689 7691 7680 7746
4  7577 7747 6512 7740
4  7691 7690 7740 7820
4  7746 7680 7142 7541
4  7691 7819 7740 7692
4  7635 7638 7639 7777
4  7508 7044 7600 7637
4  7385 7710 7711 7177
4  7044 7637 7019 7600
4  7637 7839 7019 7600
4  6758 7044 6757 7018
4  7508 7044 7753 7510
4  7805 7637 7820 7740
4  7637 7740 7819 7639
4  7508 7637 7805 7753
4  6190 7844 7845 7561
4  7845 7846 6191 6190
4  6190 7846 6191 7686
4  6190 7847 7844 7561
4  6053 6281 7848 7849
4  6192 7131 7850 6190
4  6190 7561 7851 7847
4  6302 6455 6454 6303
4  6295 6308 6299 6298
4  7210 6300 7789 6304
4  6295 6300 6299 6308
4  6306 6300 6308 7789
4  6457 7210 6300 7780
4  6295 6301 6306 7796
4  6731 6988 7811 7363
4  6650 6709 7099 7546
4  6709 7100 7099 7546
4  6988 6679 6681 6989
4  6709 6989 6988 7100
4  6988 6989 6712 6990
4  6112 7817 6113 6115
4  6112 6282 6143 6145
4  6282 6143 6145 6184
4  6282 6195 6114 6184
4  6114 6195 6575 7852
4  6114 6194 6185 6195
4  7206 7203 7729 7207
4  6410 7853 6411 6412
4  6410 6468 7146 7207
4  7206 6468 6410 7207
4  7145 6410 7728 7853
4  7145 7853 7728 6817
4  6410 6411 7146 7054
4  6865 7511 7743 7513
4  7511 7743 7513 7741
4  6524 6528 6526 6152
4  6866 7742 6851 6852
4  7742 6851 6852 6853
4  6866 7742 7700 6851
4  6865 7619 6866 7695
4  6667 6338 7371 6668
4  7371 7270 7771 7370
4  6337 7552 7358 6923
4  6337 7552 6923 7854
4  7550 7371 7270 7771
4  7550 7551 7770 7553
4  7358 7551 7550 7553
4  6810 7573 7377 7572
4  7377 7263 7855 7376
4  6810 7571 7569 7356
4  6810 7571 7356 7572
4  7301 7377 7263 7855
4  7569 7301 7768 7302
4  7301 7855 7506 7505
4  7567 7278 6251 6253
4  7278 7279 7856 7282
4  7567 7622 7333 7343
4  7567 7622 7343 7568
4  7297 7278 7279 7856
4  7333 7297 7621 7298
4  7297 7501 7500 7856
4  7212 7549 7857 7215
4  7212 7217 7549 7214
4  7549 7216 7660 7217
4  6375 7214 7644 6374
4  7213 7648 6375 7215
4  6640 7644 7549 7834
4  6445 7235 7184 7531
4  6373 6640 7643 6643
4  7838 7203 7836 7803
4  7145 7204 7203 7207
4  6437 6919 7003 6436
4  7206 7207 7729 6298
4  7206 7728 6410 7653
4  7203 7837 7462 7729
4  6296 7203 7462 7729
4  7858 7859 6266 7860
4  7858 7861 7862 7863
4  7858 7864 7865 7866
4  7334 7335 7336 7867
4  7858 7864 7868 7859
4  7858 7868 7866 7869
4  7858 7865 7870 7863
4  6902 6907 6297 6908
4  6296 6298 7729 6908
4  6296 7206 7730 7871
4  6295 6297 7730 7796
4  7616 7760 7795 7744
4  6306 6300 7794 6301
4  6295 6307 6308 6298
4  6295 6297 6296 7730
4  6679 7363 6681 7827
4  6915 6679 7363 7825
4  6679 6989 6682 6681
4  6914 6917 7004 6915
4  7451 7788 6915 6917
4  6679 6990 7363 7825
4  7613 6553 6196 7611
4  6194 7703 6185 6552
4  6550 6194 7703 7704
4  6114 6194 7703 6185
4  7448 6550 7642 7715
4  6550 6836 6998 6551
4  7760 6851 6853 6854
4  6217 6216 6329 6218
4  7585 7760 6851 7588
4  7872 7873 7874 7875
4  7742 7760 7744 7876
4  7585 7453 7762 7587
4  7585 7760 7588 7762
4  7742 7760 6851 6853
4  7467 7731 7011 7652
4  6075 7725 37 909
4  6432 6437 6440 6438
4  7635 6757 7732 7877
4  7337 7878 7339 7338
4  7635 7732 7777 7877
4  7640 7777 7732 7731
4  6555 541 539 542
4  7640 7565 7776 7641
4  7467 7640 7565 7776
4  6988 7363 7364 6681
4  6709 7696 6988 6712
4  6709 6710 7100 6880
4  6710 7100 6880 6879
4  7139 6679 7788 7759
4  7629 7050 7879 7051
4  7451 6680 7139 7140
4  6377 6971 6989 7759
4  6710 6712 6989 6971
4  6377 7649 6820 6971
4  6377 6682 6879 6378
4  7804 7459 7713 7803
4  7804 7633 7459 7880
4  7713 7881 7459 7633
4  7459 7881 7801 7460
4  6228 355 6229 494
4  6767 6127 6768 6760
4  7458 7461 6884 6885
4  7459 7265 7461 7458
4  6881 6284 6882 6363
4  7229 7291 7288 7231
4  7459 7265 7881 7461
4  6884 7462 6904 7460
4  7689 7557 7680 7693
4  7160 7227 7159 7250
4  6569 6687 6686 6570
4  6884 7315 7461 7460
4  7334 7867 7336 7620
4  6569 6073 6686 6685
4  6569 6685 6645 6073
4  6569 6647 741 6684
4  6647 6569 6073 6684
4  7882 6569 6647 741
4  7883 467 7884 7885
4  6569 6684 743 742
4  7886 829 764 944
4  6569 6684 741 743
4  7677 7887 7678 7681
4  7554 7560 7562 7557
4  7554 7851 7561 7559
4  7385 7308 7389 7391
4  6161 6790 7888 6153
4  6772 949 856 909
4  6233 6844 7889 6845
4  7887 7890 7684 7556
4  7556 7555 7686 7687
4  7677 7890 7556 7558
4  7210 7745 7744 7794
4  6172 950 856 377
4  7210 7744 6306 7794
4  7511 7210 7741 7211
4  6271 6270 7891 7193
4  6857 123 6858 7892
4  7367 7481 7798 7609
4  7210 7741 7211 7789
4  7616 7716 7761 7617
4  6517 6981 6980 552
4  7616 7795 7760 7762
4  7744 6853 7741 7761
4  7760 6853 7744 7761
4  7742 7760 7876 6851
4  7511 7695 7742 7745
4  7677 7746 7133 7679
4  7689 7578 7693 7577
4  6513 7662 6512 6511
4  7417 7535 7603 7602
4  7805 7740 7691 7819
4  1034 6037 170 1032
4  7638 7740 7747 7839
4  7637 7820 7740 7839
4  6512 7739 7638 7663
4  7279 7283 7277 7046
4  6277 7026 7012 6960
4  6518 462 718 900
4  7805 7637 7740 7819
4  6670 6196 6523 6677
4  6195 6184 6574 6523
4  7613 6670 7758 7787
4  7613 7758 6194 7715
4  6114 6195 6185 6184
4  6715 6646 6083 6072
4  7334 7893 7344 7343
4  7894 7895 7339 7896
4  6219 6356 6678 6354
4  7897 7898 7899 7900
4  7901 50 91 649
4  7902 7406 7903 7405
4  6062 7904 7905 6064
4  6195 6184 6196 6185
4  6113 6114 7703 7906
4  6282 6115 6114 6575
4  6925 6926 7899 7338
4  6925 484 485 7907
4  7007 7008 7006 7286
4  6925 7899 6926 6927
4  6925 484 7899 6927
4  6653 7290 7269 7376
4  6843 6497 6495 6496
4  6158 7908 7810 6726
4  7288 6843 6497 6495
4  6840 6911 6842 6846
4  7004 6436 7003 7449
4  7288 7632 7291 6842
4  7229 7288 7232 7231
4  6078 7118 6077 6753
4  6843 6493 6911 6201
4  6694 6695 6699 6764
4  6756 6275 6278 7676
4  6295 6306 6300 6308
4  7909 7380 7835 7396
4  6831 6832 6625 7433
4  7056 7246 7059 6830
4  6831 6830 7835 7380
4  7910 7672 7911 7348
4  6625 7543 7727 6831
4  7056 7059 7246 7912
4  7835 6831 7411 6832
4  7263 7767 6657 6659
4  7011 7652 7682 6958
4  6049 6043 6234 6238
4  7377 7571 7376 7855
4  6653 7266 7263 7376
4  7482 7913 7154 7914
4  7263 7506 7264 7767
4  6653 6655 7269 7232
4  6653 7376 7269 7266
4  7915 7916 7917 7918
4  7263 7267 7506 7855
4  7270 7770 6665 6668
4  7371 7552 7370 7771
4  7411 7412 7835 6832
4  7613 6670 6196 6195
4  7270 7503 7271 7770
4  6661 7273 7270 7370
4  7297 7621 7298 7765
4  6271 7763 7193 7891
4  6661 7270 6662 6665
4  6236 7131 7851 7130
4  6661 6663 7276 7260
4  7270 7274 7503 7771
4  6949 6953 6955 7172
4  7279 6254 7765 7048
4  7278 7622 7282 7856
4  7301 7377 7767 7263
4  6455 7131 7054 6303
4  6661 6668 6665 6666
4  7279 7501 7283 7765
4  6884 7460 6904 7315
4  7046 7047 7048 7283
4  6830 7059 6832 7835
4  6241 7919 7920 7921
4  6603 6607 6602 7250
4  7710 7392 7307 7750
4  7045 7049 7280 7052
4  7922 407 7923 7924
4  7045 7282 7053 7281
4  7279 7501 7856 7925
4  7926 7482 7914 7913
4  7684 7087 7927 7085
4  6772 6726 946 856
4  6455 7131 6303 6305
4  7927 7928 7926 7482
4  7482 7156 7080 7929
4  6702 7929 7482 7774
4  7482 7156 7914 7154
4  7055 6412 6237 6193
4  7577 7690 7694 7576
4  7578 7320 7575 7930
4  6410 7853 7653 7728
4  7578 7319 7320 7931
4  7578 7932 7320 7930
4  7578 7560 7693 7931
4  7578 7932 7930 7560
4  7057 6690 7058 6691
4  7057 6690 6691 7933
4  7057 7912 6690 7934
4  7057 7664 7667 7933
4  7057 7934 6690 7933
4  6599 7414 6604 7413
4  7710 7532 7751 7750
4  6604 6605 7413 7410
4  7307 7308 7752 6606
4  7413 7750 6594 7414
4  6604 7411 7412 7909
4  6599 6605 6602 6606
4  7935 7669 7936 7937
4  7683 6236 7938 7686
4  7055 6455 6193 7131
4  7683 6237 7129 7748
4  7883 565 468 391
4  6835 6837 7447 7642
4  6190 6193 6236 6191
4  7055 7131 7130 7054
4  6236 7938 7686 6191
4  6236 7686 7688 7851
4  6752 6754 6075 7725
4  6748 938 764 939
4  7156 7929 7782 7828
4  6190 6236 7131 7851
4  7471 7790 7491 7581
4  7655 7580 7481 7939
4  7580 7481 7939 7581
4  7654 7655 7580 7661
4  7655 7798 7661 7659
4  7373 7374 7940 7268
4  7409 7580 7481 7582
4  7714 7584 7799 7941
4  6841 6910 6846 6845
4  6201 6043 6234 6049
4  7493 7714 7497 7499
4  7714 7495 7497 7802
4  7942 7943 7944 7869
4  6649 6953 6955 6952
4  7683 7938 6237 7748
4  6235 7945 7946 6231
4  7493 7488 7584 7499
4  6540 6438 6545 6544
4  7402 7493 7714 7583
4  7714 7800 7497 7941
4  6113 6418 7817 6826
4  6675 6676 7610 6677
4  7713 7800 7714 7941
4  6419 6421 7306 7387
4  6830 7396 7783 7835
4  7417 7603 7535 7605
4  6187 7947 6284 6987
4  7535 7539 7599 7605
4  6699 7948 6700 7949
4  7573 7735 7574 6659
4  6743 989 6746 939
4  7721 7720 7603 7808
4  7415 7484 7417 7604
4  7417 7602 7484 7483
4  7484 7603 7605 7723
4  7603 7950 7605 7723
4  7554 7686 7555 7846
4  7554 7562 7561 7846
4  7534 7537 7536 7951
4  7382 7764 6367 7623
4  7382 7501 7624 7500
4  7246 7058 6693 7245
4  7177 7711 7952 7435
4  7277 7279 7925 7501
4  7683 7685 7130 7688
4  7297 7279 7501 7856
4  7297 7278 7765 7279
4  7192 7297 7500 7300
4  7046 7279 7925 7277
4  7297 7501 7765 7764
4  7501 7283 7277 7279
4  7803 7462 7459 7460
4  7506 7767 7769 7264
4  7506 7264 7265 7263
4  7585 7587 7762 7588
4  7714 7499 7584 7941
4  7198 7305 7301 7505
4  7310 7309 7311 7395
4  7301 7263 7767 7506
4  6118 6969 6970 7531
4  7265 7263 7267 7506
4  7506 7265 7458 7461
4  7198 6885 7769 6891
4  6885 7769 6891 7458
4  6885 7461 7506 7458
4  7534 7951 7536 7818
4  7846 7561 6190 7845
4  7166 7550 7502 7284
4  7953 7926 7684 7928
4  7683 7687 7686 7938
4  7655 7939 7656 7657
4  7005 6337 6923 7542
4  6662 7270 7274 7272
4  7166 6548 7772 6546
4  7954 7955 7956 7957
4  7173 7329 7422 6951
4  7958 7895 7959 7339
4  6490 803 804 6729
4  6548 7625 7772 6546
4  6548 7503 7626 7502
4  7815 7960 7961 7813
4  7550 7503 7770 7772
4  7503 7271 7272 7270
4  7503 7272 7625 7626
4  6984 6910 7962 7963
4  7503 7272 7271 7625
4  6731 6988 7364 7099
4  6988 6681 7364 7099
4  6731 6727 7810 7811
4  6797 7964 6910 7963
4  6795 6796 7961 6611
4  6736 7965 896 920
4  7810 6731 7363 7364
4  7966 7967 7875 7968
4  6679 7827 6681 6680
4  6915 7827 6679 6680
4  7969 7001 7970 6998
4  6988 7811 7363 6990
4  6988 7363 6679 6990
4  7249 7354 7353 6595
4  6915 6920 7363 7827
4  7742 6851 7876 7700
4  7760 7876 6851 7588
4  6761 7073 6762 7039
4  6124 914 523 970
4  6838 7971 7972 7973
4  6698 6700 6703 7103
4  6866 7742 6852 7743
4  6505 6592 7947 7071
4  6120 7071 6995 6423
4  7070 7073 6420 7071
4  7742 6853 6852 7743
4  6240 7071 6986 6995
4  6589 7307 6596 6594
4  6239 6995 6986 523
4  7585 6347 6346 7588
4  6107 585 6239 6183
4  6341 6343 6346 6344
4  6936 6851 7701 6852
4  6580 7974 6579 6581
4  7975 7976 7977 666
4  6851 6854 7701 6852
4  6936 6851 6866 7700
4  6937 6935 6930 6936
4  6404 7978 7979 7980
4  6113 6114 7906 6143
4  6113 7703 6415 7906
4  6194 6552 6185 6553
4  6550 6552 6194 6553
4  6114 7703 7852 7812
4  6194 7852 7703 7704
4  6405 6418 6407 6413
4  6261 818 221 683
4  6414 7981 6550 7704
4  6177 6036 6072 6037
4  6037 6177 6074 6072
4  6476 6890 7074 6888
4  6756 6275 7485 6278
4  6071 6086 6079 6177
4  6206 6207 6210 6978
4  6582 1021 746 870
4  6277 7011 7682 6958
4  7629 6035 7879 6034
4  6637 6072 6652 6074
4  6476 6475 6477 7197
4  7096 6617 6613 6614
4  7732 7025 6757 7017
4  6653 7290 7232 7269
4  6747 7095 7113 7112
4  7112 7982 7983 7984
4  6756 7025 6757 7485
4  6043 6049 6042 6048
4  7025 6757 7485 7877
4  7011 7732 7776 7012
4  7732 7012 7017 7776
4  6043 6044 6045 6613
4  7174 7234 7175 7521
4  6984 7963 6985 7985
4  6077 6387 6386 6754
4  191 1033 6044 7098
4  6798 7986 7987 7988
4  191 7098 943 1033
4  7096 191 6044 7098
4  7806 7219 7989 7833
4  7721 7720 7808 7807
4  830 7990 829 851
4  6613 6044 7096 6043
4  6616 6735 7112 6617
4  6042 6049 6046 6048
4  6771 909 274 275
4  7721 7806 7603 7950
4  6920 6167 6801 7991
4  6165 7908 7992 6916
4  6642 7451 7139 7140
4  7674 7806 7809 7989
4  7721 7809 7806 7950
4  6723 6722 849 6770
4  6140 843 541 769
4  6157 6148 6159 6162
4  7674 7675 7807 7833
4  7139 6679 6682 6680
4  6148 7108 7993 6153
4  6199 6985 6231 7985
4  6158 6920 6167 6801
4  7674 7806 7989 7833
4  6983 647 7994 276
4  6141 843 769 493
4  6983 7118 6076 7995
4  6076 6174 6792 6170
4  6130 7996 6525 6526
4  6076 7995 7118 6792
4  6463 7126 6929 7128
4  6229 355 358 494
4  6076 6771 6983 276
4  6983 6385 7118 7995
4  6174 6168 6170 6076
4  6076 6771 276 6226
4  7079 7913 7997 7154
4  7836 7800 7803 7205
4  7713 7802 7801 7712
4  6164 6227 6160 6149
4  6661 6668 7270 6665
4  7713 7714 7802 7712
4  7803 7800 7804 7998
4  7713 7804 7800 7941
4  6172 856 949 377
4  7686 7846 6191 7938
4  7803 7838 7801 7836
4  7800 7803 7205 7998
4  7482 7927 7928 7999
4  7482 7079 7999 7080
4  7078 7156 7154 7155
4  7774 7926 7482 7914
4  6256 7828 7156 7782
4  6718 7105 6721 7992
4  7156 7080 7929 7828
4  7894 7106 7337 6922
4  6256 7156 7155 7781
4  8000 8001 7340 7959
4  7932 7320 8002 7844
4  7272 7274 7275 8003
4  6730 6222 1003 803
4  7932 8004 7320 7844
4  7932 7559 7560 7561
4  6557 7106 7107 6464
4  7932 7562 7560 7931
4  7932 7847 7844 8002
4  7932 7561 7847 7559
4  6164 6522 6227 6149
4  6557 7107 6461 6464
4  7554 7561 7560 7559
4  7143 6815 6816 6817
4  7578 7560 7930 7694
4  7554 7558 8005 7559
4  6771 949 909 275
4  7677 7556 7887 7557
4  7689 7560 7558 7557
4  7554 7558 7560 7557
4  7578 7694 7689 7560
4  6147 6153 6161 6156
4  7689 7558 7694 7746
4  7288 7289 6658 7632
4  6042 6043 6048 6044
4  6387 6077 6753 6754
4  7932 8002 7320 7930
4  7577 7694 7689 7578
4  6197 6232 734 6620
4  7243 7575 7320 7316
4  7382 6367 7437 7623
4  8006 8007 7872 8008
4  7320 8009 8004 6692
4  6661 6663 7260 6666
4  7320 8002 6692 7316
4  7578 7576 7930 7575
4  7927 7926 8010 7913
4  7243 7319 6504 6692
4  7212 7549 7217 7216
4  7797 7216 7660 7654
4  7844 6192 8009 7850
4  6942 7438 6944 6943
4  7212 7216 7151 7857
4  7913 7927 7086 8010
4  7216 7149 7151 7857
4  7549 7857 7668 7660
4  6824 6815 6812 6814
4  7654 7797 7216 8011
4  7556 7687 7686 7688
4  7216 7473 7149 7660
4  7683 6236 7686 7688
4  7654 7473 7216 7660
4  6438 7359 7163 6543
4  7205 6818 6817 8012
4  7205 7497 6818 7836
4  7800 7497 7205 7836
4  7145 7203 7205 8012
4  6343 6469 7586 6474
4  6042 6047 6493 8013
4  7025 7027 6757 7017
4  7079 7153 7154 7997
4  7372 7521 7422 7374
4  6979 947 859 856
4  859 8014 6979 6726
4  6146 7108 6152 6521
4  6979 859 947 8014
4  6222 355 1003 803
4  6225 6729 6148 6149
4  6724 6801 6727 7810
4  6920 6167 7991 6918
4  7203 8012 7838 7836
4  7687 7887 7926 7684
4  7800 7998 7205 8015
4  7209 6457 7778 7779
4  7560 7562 7693 7931
4  7664 8016 6458 7933
4  6457 7664 6458 7733
4  7664 7933 8017 7667
4  8018 8019 7698 7887
4  8018 7698 8019 8020
4  6457 6458 6305 7733
4  7664 7933 7665 8016
4  7561 7846 7562 7845
4  8018 8019 7887 7926
4  6635 8019 7774 7775
4  6635 7774 8018 7953
4  7932 7930 7560 7559
4  6635 7775 8020 8019
4  7683 6236 6237 7938
4  7774 8018 7953 7926
4  6635 8018 8019 8020
4  6633 8020 6635 6634
4  6702 6636 7782 7773
4  6635 7953 8018 7697
4  6137 498 495 493
4  6633 7137 6636 7697
4  7544 6636 7137 7651
4  7220 7218 7219 7833
4  6490 950 377 803
4  6524 6526 6525 6521
4  7136 7219 8021 7220
4  7806 7989 7219 8022
4  7136 7724 7138 7218
4  6163 6167 8023 8024
4  7219 7538 8025 7833
4  7806 7538 7219 7833
4  6147 6153 6148 6161
4  6228 494 495 355
4  7136 7219 7223 8021
4  7219 8025 7223 8021
4  7242 7318 7396 7244
4  6770 7105 7992 8014
4  6982 8014 7992 7908
4  7246 6690 6693 7058
4  7310 7396 7312 8026
4  7310 7318 8026 7362
4  7318 8026 7362 7317
4  803 6490 6222 6729
4  6830 7396 7246 7783
4  6718 6164 6720 6719
4  7318 7395 7396 7244
4  6914 6720 6166 6918
4  6979 6171 6772 6726
4  6162 7993 6793 6790
4  6730 803 947 950
4  6151 8027 6529 6150
4  7242 7783 7317 7247
4  804 8028 6490 6729
4  7133 7142 7746 7680
4  7133 7678 7134 7135
4  8029 6955 7524 6755
4  7133 7134 7678 7679
4  6730 1003 947 803
4  6160 6982 6165 6158
4  6228 355 495 1003
4  6722 1003 495 947
4  6718 6723 6138 6142
4  7133 7141 7142 7680
4  6723 8030 6137 6142
4  6982 6726 8014 7908
4  7133 7678 7135 7681
4  6290 6284 6242 7947
4  7228 6604 6601 7312
4  6599 7307 6593 6594
4  6604 7411 7410 7412
4  6419 7386 7708 7387
4  7411 7909 7835 7412
4  6242 6986 7071 7947
4  6284 7947 8031 6987
4  7710 7532 7413 7752
4  7056 7058 7246 7727
4  7396 7245 7381 7380
4  6590 6591 6592 6423
4  7396 7245 7395 7381
4  6830 6831 7727 7380
4  7532 7410 7411 7412
4  7532 6831 7410 7533
4  6329 6332 8032 7529
4  6832 6830 7835 6831
4  6338 7830 7542 6339
4  7550 7371 7771 7552
4  7143 7148 6411 8033
4  6333 6453 7035 6452
4  7516 7115 7086 7084
4  7143 7148 7147 7208
4  6817 6815 7144 7143
4  6337 7358 7553 7008
4  6449 7830 7033 6334
4  6214 431 529 25
4  7145 7146 6411 7143
4  7005 6923 7007 6924
4  7005 7009 8034 7006
4  7830 8035 8036 8037
4  6328 7542 7124 8037
4  7005 6328 8034 7009
4  6723 849 6722 495
4  6337 7358 7371 7553
4  7358 7008 7286 7553
4  7005 8034 6924 7366
4  7007 7128 7127 6922
4  7737 6205 6562 6204
4  7005 6924 7542 6923
4  7366 7007 7127 6922
4  7143 7146 6411 7208
4  7143 6817 8033 7853
4  6714 7566 6715 6717
4  6410 7054 7146 6468
4  7129 6412 6411 7749
4  6411 7146 7520 7208
4  6411 7342 7520 7749
4  7148 7342 6411 8033
4  7129 7520 6411 7054
4  6615 6742 6739 6613
4  6734 7098 6742 7965
4  7506 7265 7461 7267
4  7210 7789 7211 6304
4  6735 8038 7984 7983
4  7129 7054 7130 7520
4  6807 8039 8040 8041
4  7569 7349 7350 7504
4  6810 7356 6742 7572
4  7289 6843 6911 6842
4  7573 6742 7736 7572
4  7349 8040 8042 7351
4  6807 6615 6742 6739
4  6807 8041 7349 7570
4  6807 8042 7349 8040
4  7737 6072 6034 7738
4  7199 7301 7569 7302
4  7569 7570 7504 7768
4  6807 8042 6742 7356
4  7371 7770 7270 6668
4  7470 8043 7476 6248
4  6714 6717 6716 7867
4  6714 7566 7567 6652
4  6612 6043 6911 7734
4  7633 7881 7459 7265
4  6714 7334 8044 7344
4  7333 7334 7766 7335
4  7378 6993 7277 7047
4  7333 7620 7336 7621
4  6714 6716 7344 8044
4  6202 6203 6320 6212
4  7567 6253 7620 7621
4  6084 6080 6071 6085
4  6562 7737 6715 6205
4  7334 7335 7893 7766
4  6714 7344 6652 7343
4  8044 7334 7335 7893
4  7803 7804 7627 7837
4  7209 7664 7666 7778
4  7209 7511 7211 7210
4  6458 6456 6455 6192
4  6458 7850 7933 8016
4  6848 731 730 729
4  6457 7780 6456 7778
4  7664 6458 7733 8017
4  7664 6458 8017 7933
4  6702 7156 7929 7782
4  6702 7774 7482 7914
4  7482 7926 7927 7913
4  7032 7033 6316 6319
4  6998 6834 6551 6836
4  6588 6586 8045 8046
4  7272 7456 7626 8003
4  7774 7928 7953 7773
4  7086 7927 7999 7087
4  6756 7445 7676 6278
4  7086 7999 7079 7548
4  7079 7548 6822 7086
4  6694 8047 6697 6703
4  8010 7913 7997 7086
4  6597 7947 6592 7755
4  7086 7516 7548 7792
4  6419 6590 6421 6423
4  6589 6591 7306 7307
4  7306 7389 6591 6423
4  6589 7307 6593 6606
4  6589 6507 6594 6596
4  6590 6505 6507 6421
4  6589 6597 6505 6592
4  7133 7679 8048 7134
4  7678 8018 7890 7697
4  7678 8018 7698 7887
4  7132 7133 7135 7141
4  7678 7134 7697 7679
4  7544 6633 6634 7224
4  8049 6531 7322 8050
4  6633 7697 8020 7698
4  7242 7243 7317 7318
4  6690 8009 6692 6691
4  6356 33 25 529
4  7934 6690 7933 8009
4  6168 6172 6772 6173
4  7242 7246 6690 6693
4  6628 7060 7667 7514
4  7057 7933 6691 7665
4  8051 1089 840 769
4  6628 7667 7057 7664
4  984 6566 528 983
4  7057 7933 7667 7934
4  6137 494 493 495
4  8030 7105 6723 498
4  6527 8052 8053 8054
4  7246 6690 7912 7247
4  6157 6147 6148 6161
4  6421 6505 7072 6420
4  6505 7072 6420 7016
4  6701 7028 7949 7102
4  7070 6779 6698 8055
4  7070 7016 6420 7072
4  6294 7020 7039 6242
4  994 6705 981 6766
4  6294 7016 6242 7039
4  7016 6290 7947 6505
4  7016 6290 6242 7947
4  6420 6779 6424 6120
4  6704 6766 6708 981
4  7933 7934 8009 7850
4  7358 7371 7550 7552
4  7707 6122 7757 7706
4  7101 7071 7073 7039
4  6703 7103 6700 7948
4  6767 7101 971 6125
4  6123 6124 910 6121
4  7932 7561 7844 7847
4  6697 7038 8056 7424
4  6694 6763 6696 6764
4  6761 6762 6696 7039
4  7844 6192 7845 8009
4  7932 7845 7561 7562
4  7932 8002 7930 7847
4  7913 7079 7086 7999
4  800 6761 7101 6766
4  7482 7999 7079 7913
4  6516 472 471 470
4  7086 6822 7793 7115
4  6995 521 6239 6240
4  523 521 6239 6995
4  7086 7548 7516 7999
4  7213 6822 7548 7647
4  980 6713 6704 1016
4  7213 7548 6822 7079
4  6175 6519 6520 8057
4  7078 7151 7154 7153
4  7213 7548 7081 7647
4  7086 7791 7079 7997
4  6336 941 871 870
4  7470 7475 7471 7790
4  7409 7580 7471 7581
4  7471 7472 7580 7582
4  7473 7790 7657 8011
4  6086 170 171 6176
4  7654 7473 7580 7657
4  6577 747 941 746
4  6577 941 870 746
4  6580 6577 747 6581
4  7473 8058 8011 7216
4  6086 6082 6336 871
4  7473 7149 7660 7661
4  8058 7149 7216 7473
4  7492 7494 7499 7498
4  6716 8059 8060 6645
4  743 6570 742 962
4  7497 8015 7498 7499
4  7095 7886 764 7097
4  7497 7498 8015 7205
4  6734 6613 6742 7098
4  7497 6818 7836 7802
4  7714 7497 7499 7941
4  6743 939 1022 989
4  6746 938 939 989
4  7497 7499 7941 8015
4  8061 8062 8007 265
4  7402 7583 7478 7479
4  7493 7495 7714 7583
4  6262 6267 6265 6264
4  7534 7540 7538 7951
4  7534 7598 7535 7539
4  7538 7540 8022 7219
4  7538 8025 7833 7808
4  7603 7538 7539 7950
4  7538 7539 7950 8022
4  7603 7806 7538 7950
4  7535 7537 7603 7602
4  7166 7772 7165 6546
4  8063 8064 8065 8066
4  8063 536 8067 146
4  8063 8068 8069 8070
4  8063 8070 535 369
4  8071 8063 8065 8072
4  8063 8068 8070 8071
4  7029 7987 8073 7988
4  7097 943 7096 7098
4  8063 8072 8071 369
4  7127 7006 7366 8074
4  7989 7674 7833 7218
4  7261 8075 7262 7185
4  6633 7135 7698 8020
4  7470 7475 7790 8058
4  7894 7127 7287 6464
4  7007 6922 6923 7128
4  7554 7558 7556 8005
4  7078 7828 7152 7150
4  7127 6462 7287 6464
4  7556 7687 7684 7887
4  7164 7166 7550 7551
4  7164 7286 7285 7551
4  7084 7087 7516 7519
4  7164 7287 7127 6462
4  7249 6289 7010 7354
4  7549 7644 7217 7834
4  7249 6289 6597 8031
4  7086 7997 8010 7116
4  6649 6953 7400 6732
4  7249 6597 6288 6595
4  6284 6286 6289 6287
4  6287 6290 6293 6288
4  6289 6597 6290 6288
4  7350 8076 8040 7351
4  7199 7350 7200 7201
4  7350 8076 7351 8008
4  7350 8041 8040 8077
4  8041 7350 8040 7349
4  7199 7569 7301 7305
4  7199 7504 7201 7302
4  7349 7352 7351 7356
4  7125 649 630 648
4  6633 7135 8020 7224
4  6957 8078 8079 7082
4  8080 8081 7120 7125
4  7090 6978 7596 7591
4  6206 6084 6085 6080
4  8082 8080 8081 7120
4  7125 8080 8083 336
4  7125 7120 8080 8084
4  7125 8084 91 7901
4  7125 8081 7119 8085
4  6715 6562 7591 7566
4  7125 7901 649 7119
4  6391 7010 6390 6515
4  7258 7294 6310 7829
4  6085 6180 6519 8086
4  6251 7737 6652 7566
4  6180 7394 6519 8086
4  6389 7010 6390 6391
4  7157 7248 6391 7253
4  8087 8088 6563 8086
4  7010 6391 7253 8089
4  8090 8091 8092 8093
4  6081 6082 871 6686
4  6579 8094 7974 8087
4  8095 8093 8091 7595
4  7248 7010 7249 7013
4  6430 6053 8096 8097
4  6323 8098 8099 7023
4  7248 7354 7253 7353
4  6289 6881 8031 7013
4  7249 7354 6595 6288
4  7258 6310 7630 7829
4  6593 6607 6597 7755
4  7249 8031 6597 6607
4  7249 6593 6597 6595
4  8100 8101 8102 8103
4  6618 6798 8104 6622
4  6653 6660 6659 6657
4  6589 6595 6594 6507
4  8105 8106 217 8107
4  8105 8108 8109 8110
4  7815 8111 7961 7988
4  6795 7961 8112 7988
4  8105 8113 8106 8114
4  8105 413 8107 217
4  8110 8105 8115 8109
4  8112 7961 8111 7988
4  8105 8114 8116 8109
4  8117 6750 6751 7990
4  6744 990 989 1022
4  7138 7223 7142 7132
4  7815 7960 7813 7816
4  7142 7540 7138 8048
4  7540 7951 8025 7538
4  7818 7691 7541 7680
4  7534 7541 7598 7540
4  7534 7805 7818 7536
4  7133 7142 7132 8048
4  6565 1002 983 1001
4  6564 6573 6678 6568
4  7541 7680 7142 7818
4  7268 6656 7373 6655
4  6564 528 983 1002
4  6683 8118 7405 7407
4  7123 8119 8120 7122
4  6655 7372 7374 7521
4  7655 7367 8121 7368
4  7550 7270 7503 7771
4  7830 8036 7542 8037
4  7294 7726 8036 8035
4  7713 7459 7881 7801
4  7713 7799 7633 7804
4  7372 7478 7477 7606
4  6663 7275 7528 7609
4  7713 7940 7373 7712
4  7940 7268 7265 7633
4  7654 7216 7473 8011
4  7655 7939 7368 7656
4  7427 7481 7367 7609
4  6663 7427 7609 7528
4  7407 8122 8123 7406
4  8121 7275 7272 7368
4  6587 6565 6567 8124
4  7815 7988 8073 8111
4  6751 7990 829 8117
4  7815 8111 7814 7813
4  6992 6993 7277 7378
4  7721 7807 7464 8125
4  7721 7723 7378 7809
4  7429 6991 7484 7722
4  7415 7483 7429 7430
4  7721 6992 6991 7720
4  7429 7484 7604 7722
4  6356 528 526 529
4  6497 8126 7291 7230
4  6497 6496 6233 8127
4  6843 6496 6233 6497
4  6578 6085 6335 6579
4  7229 7288 6497 6495
4  8092 8091 8090 8128
4  7229 7230 7291 7231
4  6843 6493 6496 6495
4  7229 6497 7169 6498
4  7594 7592 8128 8091
4  8127 6497 7169 8126
4  6497 7169 6498 6494
4  6036 6037 6034 6072
4  7239 6321 7240 7824
4  6563 6210 7595 6978
4  6806 6805 6518 7024
4  6085 8094 8086 6519
4  7235 7236 7239 7628
4  7235 7240 7293 7238
4  6178 6085 6208 6180
4  7239 7628 6321 6324
4  7235 7239 7184 7531
4  8129 7239 7184 8130
4  8088 8087 7595 8093
4  7239 7184 7531 8131
4  7261 7123 7523 7122
4  7261 6310 7262 6317
4  7261 8119 7122 6309
4  7186 7261 7123 7523
4  7261 7630 6310 6309
4  7186 7258 7261 7630
4  7186 7262 7296 7185
4  7287 6460 6433 6461
4  7162 6433 7287 6460
4  8074 7894 7127 7287
4  6588 8046 8045 7903
4  7503 7274 7502 7771
4  8053 7287 6433 6461
4  7288 7289 6843 6493
4  6451 7405 7902 7903
4  8046 7041 6357 7042
4  6451 6330 6452 7405
4  7162 7287 6433 6435
4  7162 7285 6435 7165
4  7288 6843 6495 6493
4  6310 7829 7032 6312
4  7306 7387 6421 6596
4  6311 6310 7261 6317
4  7258 7262 6316 7631
4  7757 7066 7971 7719
4  7258 7260 7295 7259
4  7258 6310 7261 7630
4  6697 6703 8047 8055
4  6949 6953 7172 7171
4  6780 6781 6782 7973
4  6420 6120 7071 7073
4  6310 7829 6309 7630
4  8132 7936 8133 7067
4  8134 7061 7946 6235
4  6309 6311 6310 7261
4  7937 8135 7936 8136
4  6146 6524 6151 6522
4  6776 7103 6783 6775
4  6701 7102 7949 6700
4  7229 7288 7234 7232
4  6704 981 1016 996
4  7301 7263 7506 7855
4  8014 6979 6726 6982
4  1025 775 6126 187
4  6982 6979 6726 6171
4  6698 6700 7103 6783
4  6982 7992 6770 6165
4  6982 6165 7908 7992
4  7150 7151 7152 7078
4  7156 7152 7078 7828
4  6046 488 490 489
4  6797 7963 7986 7964
4  8137 8138 8139 7960
4  7470 6247 7475 8058
4  7470 7790 7471 7473
4  7470 6248 7152 8043
4  7152 8058 7150 7828
4  8058 8043 7149 7473
4  6539 7123 6536 7327
4  6568 8140 6567 6566
4  6583 1002 526 528
4  6217 7124 6221 6326
4  6587 8122 8124 6567
4  6338 7854 7542 8036
4  6564 6567 6568 6587
4  7236 7240 6322 7292
4  7236 7629 7051 7050
4  7236 6321 7239 7628
4  6321 6035 6324 7628
4  6321 6324 6323 7239
4  7239 6324 6323 8129
4  7390 7707 8141 7064
4  7734 6613 6045 7736
4  7390 7176 7952 8142
4  6807 6615 8039 6808
4  6736 828 944 896
4  7815 8143 7111 8138
4  7390 7707 7386 7708
4  7390 7064 8142 7709
4  7709 7390 7707 7386
4  7390 7177 7178 7388
4  7386 7709 7391 7389
4  7194 7195 7335 8144
4  7191 7335 7194 7195
4  7858 7194 8145 8146
4  7194 7891 6266 8145
4  6689 8147 7592 8148
4  6271 6268 7299 7195
4  6262 6271 6270 7891
4  6271 6266 7194 7891
4  6518 6179 7024 6520
4  7089 7591 6715 6562
4  7200 7202 7076 8149
4  8095 8148 6689 7592
4  8076 7200 7350 8077
4  7198 7769 7304 6891
4  7200 8150 8008 8149
4  7083 7200 7076 7077
4  7350 8008 7352 7303
4  6478 7083 7197 7202
4  6214 529 431 822
4  6683 6567 6568 8151
4  6683 8118 7407 8152
4  7368 7275 7272 6664
4  6539 7190 7189 6535
4  6669 6675 6672 7787
4  7212 7217 7214 7150
4  7654 7797 7657 7656
4  7083 7201 7077 7304
4  6419 6423 7306 6590
4  7168 7229 7175 7174
4  7169 6954 7331 7068
4  6773 7717 6782 6776
4  6494 8127 6497 7169
4  7169 7954 7068 6494
4  6187 6987 6986 7947
4  7186 7261 7523 7630
4  7169 7170 6954 8153
4  6705 994 996 995
4  7506 7505 7855 7267
4  6818 6817 6815 7144
4  7147 6816 6824 7115
4  6795 7029 6798 7113
4  7111 8143 6745 7982
4  7029 7030 8073 7987
4  7492 6812 7494 7498
4  7492 7498 6815 6812
4  7492 6814 6815 8154
4  6815 7498 7144 7147
4  7498 8154 6818 7497
4  6746 978 938 989
4  7050 6254 7292 6252
4  7629 6251 6252 7737
4  7567 7278 6253 7621
4  7096 191 7098 943
4  8095 7594 7595 8091
4  7050 6251 7278 6254
4  7278 7568 6251 7282
4  6081 1032 6177 6074
4  6335 1024 6581 8057
4  7050 6251 7879 7282
4  7294 6667 7631 7222
4  6667 6668 7631 7222
4  7371 6668 6338 6340
4  7371 6340 7553 6668
4  7371 7854 6338 7370
4  6667 6338 7726 7370
4  6072 6177 6074 6071
4  6081 1032 793 932
4  8155 7344 7343 8156
4  6579 6581 7974 8094
4  6847 6849 898 754
4  7289 6658 7632 7735
4  6658 6659 7632 7735
4  7377 7768 6659 7574
4  6810 7768 7377 7574
4  6924 6923 8157 7542
4  7377 7572 7573 7376
4  6658 7573 7831 7376
4  6445 7184 7238 6446
4  6376 6642 7614 7139
4  7109 6813 7496 6711
4  7184 6427 6970 6118
4  7085 7519 7084 7518
4  7307 7750 7392 6594
4  8131 8129 7239 7184
4  7686 8005 7688 7851
4  6236 6191 6237 7938
4  7142 7680 7141 7818
4  7184 6117 6118 8131
4  6539 7186 7188 7190
4  7184 6446 6427 8158
4  7055 6236 7130 7131
4  7683 7688 7684 7685
4  7686 7846 7938 7555
4  7239 8131 7531 7628
4  6190 7131 6193 6192
4  6432 6433 7162 6460
4  6433 6527 8053 6461
4  7287 6461 6462 6460
4  6433 8052 6439 6434
4  6433 6131 6527 6461
4  6433 6440 6439 6131
4  7518 7085 7687 7748
4  7123 8119 7261 8075
4  7122 7123 8119 7261
4  7115 7792 7147 7517
4  7123 6537 6536 8159
4  7123 8119 8159 8120
4  7123 6536 7327 8160
4  7261 7630 7122 7523
4  7123 8120 8160 7122
4  7032 8035 6312 7829
4  6315 6310 7032 6312
4  6315 7032 6316 6319
4  7031 6449 7033 6453
4  7683 7130 7129 6236
4  7683 7129 7518 7748
4  6815 7498 8154 6818
4  7129 6237 7749 7748
4  7683 7687 7938 7748
4  7143 6816 7148 8033
4  6310 6311 6312 6315
4  7032 6449 7830 7033
4  7294 7032 8035 7830
4  6901 7176 6898 7348
4  7556 7688 8005 7684
4  7192 7382 7764 6367
4  7518 7520 7685 7519
4  7129 6411 7520 7749
4  7176 7911 6898 7348
4  7176 7935 7911 8142
4  7055 7129 6236 6237
4  7390 8142 7064 7176
4  6409 6455 7055 7054
4  7390 7177 7176 7178
4  7176 6899 6898 8161
4  7148 7341 7342 8033
4  6437 6436 6434 6919
4  7142 7141 7223 8025
4  6439 8052 6527 8027
4  6439 6720 6919 8027
4  6439 6151 8027 6527
4  6433 6131 6460 6440
4  6439 6721 6720 6719
4  6439 6719 6151 6131
4  7580 7582 7661 7798
4  7239 8130 7240 7238
4  6425 6399 6401 6353
4  6425 6878 6388 6965
4  7928 7087 7927 7684
4  6425 6402 6399 8162
4  7774 7914 7775 7926
4  7561 7559 7851 7847
4  7932 8004 7845 7931
4  7157 6391 6425 7254
4  6425 6965 6388 8162
4  7933 7667 7934 8017
4  7923 8163 7924 7971
4  6948 7675 7646 6944
4  7318 7244 7397 7395
4  6502 7319 7579 6503
4  6502 6504 7319 6503
4  6949 7168 6951 7173
4  7320 7931 7319 8004
4  6954 7954 7169 8153
4  8164 211 874 722
4  7603 7537 7538 7808
4  6954 8165 7117 7068
4  6949 7171 7172 7170
4  6954 6955 6952 7117
4  7169 7068 7331 6498
4  6954 7172 6955 8166
4  7320 7319 6692 8004
4  7744 7795 7745 7876
4  7076 8167 8150 8168
4  8167 7076 8150 7200
4  7578 7320 7932 7931
4  7245 6830 7396 7246
4  7385 7754 7388 7392
4  6478 7076 7083 7202
4  7076 6470 8169 6477
4  6824 6823 6812 7792
4  7200 8149 7303 7202
4  7076 8168 6470 6472
4  6772 946 7725 909
4  7084 7085 7341 7116
4  6266 7868 8145 8170
4  6266 6269 7360 8170
4  6262 6266 6271 7891
4  7396 7783 8026 7317
4  7194 8145 7763 7891
4  6266 7859 7360 6267
4  6690 6691 6693 7058
4  6690 8002 7316 6692
4  6287 6285 6294 6242
4  7396 7245 7244 7395
4  6692 8002 7320 8009
4  7246 7727 7058 7245
4  7242 6693 6690 6692
4  6287 6242 6294 6290
4  7225 7313 7311 7309
4  6830 7059 7835 7783
4  6597 6290 6505 7947
4  6290 8031 6284 7947
4  6393 6402 6396 6973
4  6289 6290 8031 6284
4  7806 7219 7538 8022
4  6287 6289 6291 6286
4  6287 6289 6284 6290
4  7689 7692 7693 7680
4  6441 6444 6777 7183
4  7508 7510 7753 7509
4  6445 7184 6427 6970
4  7184 8158 7238 6446
4  6403 7157 7254 7251
4  7932 7844 7845 8004
4  7236 7629 6321 6035
4  6970 6099 6097 6427
4  7534 7142 7818 7541
4  6427 6448 6099 8171
4  6441 6448 6446 6447
4  6948 7675 7674 7832
4  7184 6118 6970 7531
4  7272 7368 6664 7271
4  7721 7807 6992 7720
4  6752 6755 6753 6741
4  7803 7838 7460 7801
4  6662 7274 7275 7272
4  22 599 7547 647
4  7115 7792 7517 7516
4  6411 7054 7520 7146
4  7275 7367 7368 8121
4  7272 7655 8003 8121
4  6376 6380 7590 7442
4  7456 7655 8003 7272
4  7265 7633 7264 7880
4  6654 6656 7265 7268
4  7268 7373 7633 7940
4  7265 7633 7881 7940
4  7492 7496 8154 7495
4  7148 7147 7208 7517
4  7398 7109 7546 7488
4  7265 7633 6656 7264
4  6654 7267 7268 7265
4  7493 7496 7495 7486
4  7192 7764 7299 6367
4  7330 7479 7372 7422
4  7713 7373 7633 7799
4  6354 6358 6848 25
4  6920 6166 6916 6158
4  6920 6918 6166 6167
4  6661 6666 6665 6664
4  7654 7657 7797 8011
4  7086 7793 7791 7116
4  7927 7926 7085 8010
4  7473 8043 7149 7472
4  7363 7364 7827 7991
4  6249 6257 6671 7545
4  7654 7580 7473 7661
4  7363 6920 7810 7991
4  6915 7825 6920 6916
4  7363 7810 6920 7825
4  6914 6915 6920 6916
4  6915 6918 7827 7003
4  7133 7141 7681 7135
4  7277 7378 7047 7283
4  7925 7046 6993 7281
4  6993 6991 7378 6992
4  7277 7721 8125 6992
4  7236 6321 7628 6035
4  7101 6125 6124 971
4  6995 523 7101 6124
4  6696 6241 7424 7921
4  6766 187 800 994
4  6445 6446 7238 7241
4  523 7101 6124 971
4  7101 7071 6125 7073
4  6610 6612 6909 6913
4  6610 6913 6909 6797
4  6126 971 187 970
4  6610 6614 6909 6612
4  6608 6610 6612 6614
4  6610 6795 6798 7113
4  6779 8172 6422 6773
4  7088 6106 8173 8174
4  6608 6617 7113 6614
4  6608 6612 6609 6615
4  7470 8043 7472 7476
4  7482 7079 7080 7154
4  8175 8176 8007 8177
4  7078 7151 7155 7154
4  6542 7357 6642 6641
4  8177 8176 8178 8179
4  8177 8176 8007 8178
4  7272 7275 8121 8003
4  7403 6467 7490 7404
4  8177 161 8175 8176
4  6663 7609 7367 7275
4  7078 7156 7828 7080
4  8177 162 8180 161
4  6803 6130 7107 6525
4  6530 6584 6534 6532
4  7658 7834 7797 7656
4  6536 8181 8050 8160
4  7655 7659 7456 8003
4  6536 8120 7123 8159
4  6536 6828 6531 8050
4  7518 7684 7687 7085
4  6530 6535 6538 6537
4  7123 8160 7327 7523
4  6640 6639 7834 7457
4  7367 7608 6664 7368
4  6536 6538 6828 8182
4  7655 8003 8121 7659
4  7148 6816 7341 8033
4  6815 7498 6818 7144
4  7927 7684 7926 7928
4  7492 6815 7498 8154
4  7462 7837 6905 7729
4  7205 7204 8015 7998
4  6410 7146 6411 7145
4  8183 8184 6850 8185
4  7145 6410 7206 7728
4  6735 7983 8186 8038
4  7803 7459 7801 7460
4  8184 6850 6855 8183
4  8183 6850 6855 6849
4  8183 6849 898 6850
4  6445 7235 7181 7241
4  8183 976 8187 8188
4  6902 6884 6887 6905
4  7016 7947 6242 7071
4  7294 7829 7726 8035
4  6505 7072 6506 6421
4  6597 8031 6290 7947
4  6597 6506 6288 6507
4  6558 6556 486 542
4  6597 6505 6592 7947
4  6589 7755 6597 6592
4  6420 6423 6421 6505
4  6358 729 25 33
4  6590 6421 6507 6596
4  6450 6326 7104 8037
4  1011 755 6358 33
4  6360 6354 6327 6357
4  8189 7104 8157 1037
4  25 6354 7104 6848
4  6649 6955 7634 6741
4  6955 6953 6949 6952
4  8189 8157 7104 7542
4  730 431 7104 25
4  6955 8165 8029 7524
4  6661 7371 7270 6668
4  6954 7117 6952 7331
4  6848 729 730 25
4  8084 8190 8191 8192
4  6313 8193 8194 7043
4  6955 7634 6755 8029
4  6849 8195 8187 8194
4  6955 7524 6753 7117
4  6848 8035 7034 7104
4  6955 6755 6741 6753
4  6403 7251 7254 6401
4  6425 6353 6401 7254
4  7220 7645 7218 7832
4  7580 7661 7582 7472
4  7142 7951 7141 8025
4  6399 6973 6959 6972
4  6244 7476 7784 6248
4  6702 7775 7774 7914
4  6393 6397 6401 6400
4  6399 6350 8162 6972
4  6399 6959 6400 6352
4  7152 8058 8043 7149
4  7280 7530 6994 6993
4  6425 8162 7158 6402
4  7809 7721 7674 7464
4  7246 6690 7057 7912
4  7044 6759 7636 7510
4  7540 8025 7219 7538
4  7057 7664 7933 7665
4  6256 6247 7828 7782
4  6702 7775 7781 6634
4  7664 7778 6458 8016
4  7057 7665 6691 7058
4  7535 7536 7537 7509
4  7057 7934 7667 7912
4  7674 7832 7989 7809
4  6458 8017 7933 7850
4  7933 6691 8016 8009
4  7534 7598 7539 7540
4  7277 7925 6993 8125
4  6469 6478 6470 6472
4  8100 6470 6343 8196
4  7603 7808 7602 7537
4  7142 7540 7951 8025
4  8197 6470 7076 8168
4  7219 7218 8022 7989
4  6469 7075 6472 6471
4  7578 6502 7579 7577
4  6470 6474 6343 8196
4  6501 6503 6513 7564
4  7076 6477 8169 7202
4  7138 8025 7219 7540
4  7518 7342 7085 7748
4  7145 7204 7207 7144
4  6470 8198 6343 6471
4  6834 6835 6265 6551
4  6824 7793 6816 6814
4  7144 6818 7205 7498
4  7492 8154 7497 7495
4  7800 8015 7941 7998
4  7373 7799 7606 7633
4  6834 6265 6267 7361
4  7360 7970 7868 8170
4  6884 7462 7459 7627
4  6266 8170 7891 6269
4  7360 6998 7361 7969
4  7501 7500 7856 7925
4  7970 7360 6998 8199
4  7087 7519 7084 7085
4  7150 7149 7216 8058
4  7360 6998 8199 6836
4  6822 7791 7086 7793
4  7471 7472 7489 7476
4  7654 7473 7657 8011
4  6490 6222 6729 6225
4  6225 6729 6490 6489
4  6223 6230 6224 6149
4  7474 6244 6283 7475
4  6222 807 355 803
4  6222 6729 807 803
4  7413 7752 7410 6605
4  6225 6160 6149 6148
4  6961 6958 8116 6973
4  6604 7414 6600 7412
4  7396 7835 7909 7783
4  6730 6222 803 6490
4  6228 6722 1003 495
4  6530 6584 6532 6531
4  6828 8181 6536 8182
4  6828 8200 7322 8050
4  6748 194 764 938
4  7098 6613 6044 7096
4  6584 6585 6828 6538
4  6828 6829 6826 7322
4  938 7030 978 6746
4  6536 8050 6531 7327
4  6750 8117 6751 7112
4  6795 6798 7029 7988
4  6828 6585 6829 8201
4  6799 6162 6163 6158
4  6751 939 6748 764
4  6799 6163 6162 6170
4  6469 6478 7075 6476
4  7097 943 7098 1033
4  8202 955 7966 8203
4  6799 6789 6802 6788
4  6799 6727 6801 6800
4  6865 7511 7695 7742
4  6731 6755 6800 6727
4  7417 7599 7416 7605
4  7806 8022 7950 7989
4  7806 7989 7950 7809
4  6758 7420 7443 6759
4  7220 7646 7675 8021
4  7280 7047 6991 7722
4  6954 7954 8166 8165
4  7280 6991 7429 7722
4  8204 8205 8206 8207
4  6955 8029 7172 7634
4  7721 7808 7603 7806
4  7417 7605 7416 7604
4  7721 6991 6992 7378
4  6755 6789 6169 6753
4  6741 6732 6755 7634
4  7721 6991 7378 7723
4  7721 7723 7809 7950
4  7721 8125 6992 7807
4  7674 7832 7218 7989
4  6955 6753 6741 6952
4  6071 6081 6177 6074
4  6042 8013 6493 6045
4  6079 6178 6036 6041
4  7288 7232 7290 7234
4  1035 6044 191 1033
4  7714 7497 7800 7802
4  7800 7998 7941 7804
4  6577 6582 746 870
4  6073 6684 6686 6081
4  7288 7291 7632 7231
4  6072 6177 6071 6036
4  6042 6044 1035 8013
4  6653 7377 7263 6659
4  6071 6081 6074 6073
4  6686 6073 6082 6685
4  7478 7712 7374 7479
4  7372 7478 7374 7479
4  7713 7373 7940 7633
4  6274 6273 8208 6057
4  6158 6165 6916 7908
4  7459 7713 7803 7801
4  7800 7205 7497 8015
4  6274 8208 6273 6962
4  7011 6959 6960 6398
4  7803 7837 7204 7998
4  7803 7837 7998 7804
4  7713 7799 7804 7941
4  7713 7712 7801 7940
4  6399 6401 6352 6400
4  6640 7455 7658 7668
4  6277 7011 6960 7012
4  7367 7609 8121 7275
4  6959 6962 6972 6961
4  6959 6961 6973 6958
4  6848 729 438 731
4  6959 6960 6398 6400
4  6722 849 947 495
4  7216 8011 7797 7217
4  7658 7217 7797 7834
4  6399 6972 6402 6973
4  6341 8209 6345 6344
4  8210 438 441 731
4  7660 7797 7658 7217
4  7655 7659 8121 7798
4  7473 8011 8058 7790
4  6343 8100 6345 6349
4  8198 8100 6470 6343
4  8181 8211 8082 8212
4  6470 8100 8197 8169
4  6470 6471 6472 8198
4  7481 7609 7480 7798
4  7367 7609 7798 8121
4  7357 7450 6543 7440
4  6346 6348 6341 6347
4  7655 7367 7368 7939
4  6343 7586 6471 6348
4  6341 6343 6345 6349
4  6177 6037 6074 1032
4  6336 871 941 171
4  7090 7594 6978 7595
4  6580 6688 8148 8213
4  6470 8196 6477 6474
4  6406 6063 6062 6999
4  6062 6998 8199 7970
4  8091 8092 8093 8095
4  7001 7970 6998 6062
4  8129 7824 8130 8214
4  7360 6267 7969 7361
4  7192 7500 7193 7300
4  7585 7453 7760 7762
4  7981 7000 6406 6414
4  6998 6551 7361 7000
4  7045 7051 7053 7282
4  6071 6083 6082 6073
4  6406 6998 6062 7001
4  7360 6836 8199 6269
4  6706 995 996 1015
4  6705 996 994 981
4  6773 6779 6774 6424
4  8215 6829 8216 6416
4  6756 7444 6758 7018
4  8217 6416 6418 6829
4  7070 8172 8055 7072
4  6698 8055 6775 6703
4  6416 6418 6829 6093
4  6113 6829 8217 6418
4  6688 745 747 746
4  6828 8181 8201 8200
4  6085 8087 8086 8094
4  6275 6277 7025 6276
4  8095 7595 8087 8093
4  6828 8201 6538 6585
4  6829 8216 6093 7322
4  6565 1020 1002 1001
4  6393 6400 6959 6398
4  6357 7041 8046 7903
4  6828 7322 6826 6531
4  6058 6067 6068 8218
4  6840 6846 6844 6845
4  6746 6621 938 7030
4  6744 978 989 990
4  6930 6067 6932 6066
4  6733 6323 7023 7823
4  6866 6933 6937 6935
4  7669 6939 6898 7672
4  669 670 8219 603
4  8129 7239 7824 6323
4  608 419 603 8220
4  6180 6520 6519 7393
4  6081 6686 871 6684
4  8095 7974 8093 8087
4  6939 7670 6900 6940
4  6933 6067 6934 7673
4  6706 1016 1015 996
4  7897 7900 7899 6216
4  6933 6937 6935 6930
4  6683 8045 7406 7903
4  7618 6864 6867 6938
4  6939 7673 7618 6893
4  6375 7643 7549 7215
4  7084 7087 7086 7516
4  7518 7342 7520 7084
4  7473 7149 7661 7472
4  6385 7062 8221 8222
4  7518 7519 7685 7684
4  7683 7518 7687 7748
4  7654 7661 7660 7659
4  7212 7549 7216 7857
4  7216 7150 7151 7149
4  7342 7520 7084 7148
4  7654 7661 7473 7660
4  7518 7520 7342 7749
4  7143 7147 6815 7144
4  7129 7520 7130 7685
4  7084 7085 7518 7342
4  7289 6911 6843 6493
4  8127 6844 8126 7889
4  6911 6045 6201 6493
4  7330 7401 7328 7477
4  7493 7495 7583 7486
4  7497 6818 7802 7495
4  7800 7802 7836 7801
4  7145 7205 6817 8012
4  7205 7144 6817 6818
4  7203 7871 7838 8012
4  6840 6909 6846 6841
4  7289 6911 6045 7734
4  7800 7802 7497 7836
4  6909 6911 6612 6043
4  6201 6234 6043 6911
4  6840 6843 6911 6201
4  6840 6843 6842 6911
4  7219 7220 7833 8021
4  6909 6612 6912 6913
4  6673 7221 6672 7646
4  6202 6212 6320 6211
4  6320 6321 6203 6033
4  7538 8025 7808 7537
4  7806 7808 7833 7807
4  7603 7538 7806 7808
4  7675 7218 7220 7833
4  7219 7138 7223 8025
4  7132 7134 6633 7135
4  6321 6035 6203 6033
4  7806 7808 7538 7833
4  7629 6203 6034 7737
4  6203 7737 6204 6205
4  7246 7783 7912 7059
4  6202 6205 6204 6207
4  6325 6449 6328 6326
4  6325 6326 6327 6450
4  6333 6451 6452 7035
4  6333 6451 6327 6330
4  7306 7307 7392 6596
4  6360 7034 6449 6450
4  7031 7032 6449 7034
4  7242 6693 7244 7245
4  7312 7311 7228 7381
4  6315 7031 6319 6314
4  7243 7320 6502 7319
4  7242 7316 7243 6692
4  929 6516 470 472
4  6251 7566 6252 7737
4  7760 6854 6853 7716
4  6925 8223 7338 7907
4  6203 7737 6205 6036
4  7737 6072 6205 6036
4  7629 6322 6203 6204
4  6331 8224 6332 8225
4  6708 800 586 981
4  6980 810 553 552
4  8226 8227 8228 8229
4  7511 7744 7742 7741
4  6991 7047 7378 7722
4  7629 6252 6322 6204
4  6993 7047 6991 7280
4  1032 6637 6647 889
4  7629 7879 6251 7738
4  7629 7050 6252 6251
4  6032 905 6039 8230
4  7289 6912 6911 7734
4  7277 7464 7623 7624
4  6992 7378 7277 7721
4  7573 6809 7735 7734
4  6498 6491 6495 6494
4  7263 7855 7266 7267
4  6911 7734 6043 6045
4  7713 7801 7881 7940
4  7734 6613 6043 6045
4  7633 7268 7265 6656
4  7713 7633 7940 7881
4  6809 6609 7734 6615
4  7734 6615 6613 6742
4  7734 6615 6742 6809
4  6382 7068 6383 6494
4  8231 7875 6134 7968
4  6612 7734 6912 6609
4  6459 6129 6461 6557
4  7830 6328 8037 7542
4  7659 7658 7655 7456
4  7830 6328 7542 6339
4  7186 7188 7296 7260
4  7260 7259 7276 7295
4  7272 7456 7625 7626
4  8121 7368 7272 7655
4  7901 131 8232 139
4  7294 6316 7032 7033
4  7294 7222 6316 7033
4  7411 7380 7312 7228
4  7294 6338 8036 7726
4  7249 6593 6603 6607
4  7294 6338 7830 8036
4  6604 7228 6605 7410
4  6449 7034 8037 6450
4  7032 7830 6449 8035
4  7830 7033 6334 6339
4  7032 6449 7034 8035
4  7482 7928 7774 7929
4  7085 7684 7926 7927
4  7085 7927 7086 7087
4  7482 7913 7927 7999
4  7086 7516 7087 7999
4  7411 7228 7410 7380
4  7999 7927 7086 7913
4  7312 7411 6604 7909
4  7928 7926 7482 7774
4  6702 6635 7774 7775
4  6909 6910 6913 6846
4  8127 7957 7945 8233
4  7774 8018 7926 8019
4  8018 7953 7926 7887
4  8104 6622 6798 7987
4  6199 6200 6197 6232
4  7678 8018 7887 7890
4  7678 7697 7890 7679
4  7086 8010 7085 7116
4  6635 7697 7773 7953
4  8018 8020 7697 7698
4  6699 6765 8234 8235
4  7518 7749 7342 7748
4  6411 7749 8033 7342
4  6815 8154 6816 6818
4  6699 6694 6698 6703
4  6411 7749 6412 7853
4  7129 7518 7749 7520
4  6699 6764 6695 8234
4  6637 6074 6652 8156
4  7870 7865 8236 7863
4  8229 8237 6996 7980
4  7970 7969 8238 7905
4  6364 6370 6369 7383
4  6699 6703 6700 7948
4  7280 7722 7379 7047
4  7278 7765 7279 6254
4  7277 7925 7046 6993
4  6699 8239 7948 8235
4  6699 8240 8239 8235
4  7942 8241 8145 8170
4  7046 7277 7047 7283
4  7277 6993 6992 8125
4  8242 7942 8241 7943
4  7882 8243 6644 8059
4  8241 8242 8244 8245
4  7942 8246 7970 7868
4  7869 7944 7866 8247
4  7721 7809 7378 7277
4  7942 8145 7868 8170
4  7279 7281 7925 7856
4  7550 7551 7772 7770
4  8241 7942 6065 8170
4  7942 8170 7970 6065
4  6661 7370 7295 7276
4  6749 7815 7111 7029
4  6746 989 6744 978
4  6311 6318 8248 8193
4  7261 7122 7630 6309
4  6749 8249 8250 8073
4  6744 6747 6743 6746
4  6337 7553 7371 6340
4  7111 6747 6743 6744
4  978 6749 8249 6744
4  7456 8251 7625 7457
4  7166 7772 7550 7551
4  8054 7996 8252 8253
4  6705 996 6706 995
4  6699 6765 8235 7949
4  7270 7771 7273 7274
4  7272 7271 7625 8251
4  6661 6662 7273 7276
4  7265 7268 7881 7267
4  7265 7264 7458 7880
4  6654 7263 7267 7265
4  7265 7268 7940 7881
4  6734 7098 920 1033
4  6765 8254 8235 7949
4  6704 8234 6764 6765
4  6765 6706 995 6705
4  6699 6765 6701 6764
4  6653 6660 6657 6656
4  6807 6810 6809 7570
4  7263 7855 7376 7266
4  8255 8256 8257 6088
4  6580 8095 6689 6579
4  8071 8169 6477 8258
4  7326 7480 7427 7426
4  7270 7370 7273 7771
4  6318 8193 8259 8248
4  6577 746 6688 747
4  6580 8213 8092 7974
4  7198 7301 7506 7505
4  6689 6578 6582 6688
4  6478 6890 7083 7074
4  6492 488 502 179
4  6323 7023 7823 8098
4  7246 7247 7912 7783
4  6830 7245 7396 7380
4  7312 7311 7381 7395
4  7057 7667 7060 7912
4  6628 7666 7665 6629
4  6502 6511 7575 6508
4  7433 7532 7533 6831
4  7411 7835 7909 7380
4  7385 7710 7177 7754
4  941 6577 870 6336
4  6604 6600 7312 7909
4  747 6580 8213 6688
4  6604 6600 7909 7412
4  6587 6565 1020 6583
4  526 6583 528 6356
4  6587 6683 6568 6588
4  7381 7380 7312 7396
4  7933 8016 6691 7665
4  6587 8122 8045 8124
4  7411 7410 6831 7380
4  6583 1002 6565 1020
4  6830 7380 7727 7245
4  7242 7396 7245 7244
4  6323 6088 7023 8099
4  7239 8129 8131 6324
4  6799 6801 6163 8024
4  6799 6800 6801 8024
4  6920 7810 6801 6158
4  6724 6169 6725 6727
4  7532 7410 7413 7752
4  7991 7364 6801 7810
4  6724 6801 7810 6158
4  7932 7561 7560 7562
4  6337 7854 6923 7542
4  7655 7481 7367 7939
4  6338 7726 7854 8036
4  6338 7370 7854 7726
4  7294 7033 7032 7830
4  6190 6192 7844 7850
4  6190 6236 7851 7686
4  7554 8005 7686 7851
4  7270 7770 7271 6665
4  6662 6664 7272 7275
4  7655 7656 7368 7272
4  6190 7561 7686 7851
4  7272 7271 8251 7368
4  6190 7850 7844 7847
4  8255 531 716 46
4  7272 7656 7368 8251
4  8005 7556 7554 7686
4  7357 7450 7359 6543
4  7503 7626 7502 7274
4  7713 7714 7800 7802
4  7229 7234 6495 6498
4  7686 7938 7687 7555
4  6655 7174 7372 7521
4  7554 7851 7559 8005
4  7373 7712 7940 7374
4  6885 7458 7506 7769
4  6653 6654 7266 7269
4  6236 7130 7851 7688
4  7573 7376 7572 7831
4  7377 7767 7263 6659
4  6105 6106 8174 8131
4  7265 7633 7880 7459
4  7573 7831 7572 7736
4  7330 7372 7478 7477
4  7289 6045 6493 7831
4  7506 7458 7265 7264
4  7289 7831 7736 6045
4  7289 7573 7736 7831
4  7686 7561 6190 7846
4  7005 7009 7008 6339
4  6328 8034 7009 6329
4  6328 7124 8034 6329
4  6328 6329 6326 7124
4  7415 7483 7431 7419
4  6991 7378 7723 7722
4  7239 6324 8131 7628
4  7279 7281 7856 7282
4  7181 7530 7182 7430
4  7464 7721 8125 7277
4  7277 8125 7464 7624
4  6338 7542 7830 8036
4  7045 7280 7053 7052
4  6339 6334 7830 6328
4  6251 7282 7568 7879
4  7501 7277 7623 7624
4  7277 7283 8260 7378
4  6325 7529 6328 6334
4  6328 7529 6339 6334
4  7501 7624 7500 7925
4  7464 8260 7623 7465
4  7501 7623 7277 7283
4  7501 7765 7764 7283
4  6807 6809 6808 7570
4  6615 8039 6808 6616
4  7278 6253 7621 6254
4  6669 6673 6674 6676
4  6615 6739 8039 6616
4  6948 7832 6945 7645
4  6615 6616 6617 6739
4  7573 6742 7734 7736
4  7289 7735 6842 6912
4  7301 7769 7506 7767
4  6654 7265 6656 7264
4  6884 7627 6886 6905
4  7459 7460 7461 7881
4  7265 7881 7461 7267
4  6608 8261 6615 6609
4  6615 8261 6809 6609
4  6715 6646 6716 7091
4  7803 7462 7837 7627
4  7459 7627 7804 7880
4  6714 7334 7867 8044
4  6714 6717 7620 7566
4  7371 7553 7770 6668
4  6638 6376 6373 7441
4  7089 6072 6715 6083
4  6715 7091 6083 6646
4  7503 7770 7772 7271
4  6642 7442 7614 7440
4  6445 6447 6446 7241
4  6638 6547 6542 6639
4  7004 7450 6917 7359
4  6251 6652 7737 7738
4  6898 8262 8161 6899
4  7566 6562 7737 6715
4  6887 6889 6906 6888
4  6419 6424 6420 6422
4  6300 6301 6454 7780
4  7203 7836 7205 8012
4  7803 7205 7998 7204
4  7803 7204 7203 7205
4  6419 7706 6423 6120
4  6419 6422 6421 7387
4  6423 6421 6505 6590
4  7205 7144 8015 7204
4  7205 6818 8012 7836
4  7016 6290 6505 6506
4  7203 7836 7803 7205
4  6640 7455 7668 6643
4  7658 7660 7668 7659
4  7217 7216 7660 7797
4  6420 6779 6120 7073
4  7070 7072 6420 8172
4  6420 6421 8172 7072
4  8092 8095 8091 7592
4  7216 7150 8011 7217
4  7216 7149 7857 7660
4  7492 7109 6813 7496
4  6579 7090 6084 6563
4  6563 8095 6579 7090
4  6942 6947 6368 6945
4  7592 8095 8091 7594
4  6948 6944 7463 7675
4  6939 6898 6900 8262
4  7833 7674 7675 7218
4  7815 8250 8138 7816
4  8137 7029 7113 7111
4  7815 8138 8137 7960
4  7219 7138 8022 7218
4  7219 8025 8021 7833
4  6628 7665 7057 6629
4  6623 6630 6629 7543
4  7815 7816 8138 7960
4  7056 7246 7057 7912
4  7242 7316 6690 7247
4  6690 7934 7912 7247
4  6683 8122 8151 8152
4  6683 6327 6331 6568
4  6683 8151 6331 8118
4  6683 8152 8151 8118
4  8002 8009 6692 6690
4  7242 6692 7244 6693
4  7242 7246 7245 7396
4  7014 6390 6516 6981
4  6690 7933 8009 6691
4  6289 6881 6284 8031
4  6190 6236 7686 6191
4  6409 7055 6411 7054
4  6458 8017 6305 7733
4  7844 8004 8009 7845
4  7261 6311 8119 6309
4  6881 6363 6286 6284
4  6882 7013 7014 8031
4  7585 7588 6346 7587
4  7209 7664 6457 7733
4  7933 8009 8016 7850
4  7056 6625 6629 7727
4  7664 7733 7667 8017
4  6688 8213 747 745
4  8184 8263 6313 6312
4  6688 1021 8213 745
4  6582 962 6804 1021
4  6804 8148 6689 6688
4  6704 6763 6707 6708
4  6892 6901 6898 7348
4  6623 6625 6624 7543
4  6706 1015 8254 995
4  7057 6629 7665 7058
4  6455 6454 6412 6193
4  6705 6765 7028 995
4  6457 6304 7733 6305
4  7664 7733 7514 7667
4  6907 7314 6903 7615
4  6706 8254 1015 1016
4  8016 8009 6192 7850
4  7129 6237 6412 7749
4  1016 980 981 6704
4  8234 6706 6704 6713
4  6587 6588 6586 8045
4  6678 6573 6220 6219
4  6599 6606 7413 6605
4  6601 7311 7227 7228
4  6501 7564 6504 6503
4  6565 1001 8124 1020
4  8081 8050 8160 7327
4  7413 6605 6606 7752
4  6589 6593 6597 7755
4  6583 6587 6586 1020
4  7020 6696 7039 6241
4  6564 6566 983 528
4  6565 8124 1001 983
4  7629 7738 6034 7879
4  6567 6565 6564 6566
4  6251 7879 7568 7738
4  6921 6924 6923 8157
4  8157 6927 8264 295
4  6921 6928 8157 6929
4  7567 6251 7566 6253
4  6928 6927 295 448
4  6921 6928 6463 6559
4  6251 7568 6652 7738
4  7629 7050 6251 7879
4  7045 7046 7048 7279
4  7567 6652 6251 7568
4  7046 7280 7047 6993
4  7279 7048 7765 7283
4  7045 6254 7048 7049
4  6221 6215 431 8189
4  7046 7925 7279 7281
4  6406 6404 6063 6996
4  7045 7048 7047 7049
4  1037 295 8157 8189
4  8189 6326 6221 7124
4  8189 7104 6221 6326
4  6850 8210 6855 438
4  6662 6663 6664 7275
4  6924 8189 8157 8264
4  8189 7124 8264 6924
4  8189 7124 7542 8037
4  6662 6664 6665 7271
4  7294 6667 6338 7726
4  6928 6560 6559 448
4  6661 7370 7276 7273
4  6140 6561 6139 6141
4  6558 6561 6557 6555
4  6557 6559 6463 6560
4  6452 8265 7041 7902
4  6560 6561 1089 7126
4  6560 1089 6561 771
4  6560 6559 448 771
4  6662 7272 6664 7271
4  7186 7258 7260 7296
4  6678 6220 6356 6219
4  6610 6797 6614 6798
4  6795 6611 8137 7113
4  6653 6654 6657 7263
4  7815 6795 7988 7961
4  6795 7986 6798 7988
4  7168 7169 7230 7170
4  6795 7986 6797 6798
4  6795 6796 8112 7961
4  8112 6795 7986 6796
4  6451 6330 6331 6327
4  6451 7041 6357 7903
4  6655 7373 7606 6656
4  6654 6656 6657 7264
4  7040 7041 6451 6452
4  6683 6451 7903 7405
4  6451 6452 7902 7405
4  6653 6655 7232 6660
4  7902 6451 7041 6452
4  7263 6657 7767 7264
4  6655 7374 7373 7268
4  6654 6655 6656 7268
4  6333 6451 6357 6327
4  6689 7090 6084 6579
4  7569 7352 7356 7571
4  7734 7736 6742 6613
4  7199 7305 7303 7352
4  6206 6208 6210 6207
4  6206 6208 6080 6085
4  7090 6563 6978 6084
4  6563 8086 6208 6085
4  7132 7224 7136 7223
4  6563 6085 8087 8086
4  8018 7890 7953 7887
4  7132 7136 7224 6633
4  8095 6563 8087 7595
4  8088 6563 8086 6210
4  7086 7079 7791 6822
4  6563 7595 6210 8088
4  6409 6410 6412 7653
4  6847 6848 438 6855
4  7078 7079 7154 7080
4  6256 7781 7155 6248
4  6848 7104 730 731
4  971 6124 6126 6125
4  6124 6120 6121 6125
4  7152 7155 7151 7149
4  6124 6121 6120 6423
4  6124 6423 6120 6995
4  6686 742 870 871
4  6419 7386 7306 7389
4  6124 914 6995 523
4  6901 7179 7177 7435
4  7306 7387 6596 7392
4  7710 7307 7308 7752
4  7010 7354 8089 7253
4  6784 6786 6758 7420
4  6589 7755 6592 6591
4  6779 8172 6775 8055
4  6589 6505 6597 6507
4  7010 6881 8266 6286
4  6515 6391 8266 6878
4  6515 6878 6482 6388
4  6589 6606 7755 6591
4  6599 6604 6601 6602
4  7307 7308 6606 6591
4  6391 6388 6389 7158
4  6425 6388 6391 7158
4  6391 8267 7254 7253
4  6442 7257 7445 8268
4  6100 6116 6099 6430
4  6100 6430 6099 6431
4  6442 7445 7256 6431
4  6894 6895 6941 7347
4  6213 6219 6573 6218
4  6751 829 939 764
4  6618 6621 801 6748
4  6213 6573 6220 822
4  7016 7071 6505 7947
4  6220 6573 528 822
4  6573 528 822 984
4  6564 6583 6565 6587
4  6124 6995 8269 6423
4  6698 6783 7102 6700
4  6779 6760 6780 7073
4  6420 6120 6423 7071
4  7923 863 6838 7972
4  6573 8140 6568 6566
4  6774 6773 6782 6776
4  6699 8047 6703 7948
4  7897 6213 8270 6218
4  6699 6700 6701 7949
4  6573 6218 8140 8270
4  6573 8270 6566 984
4  6678 6218 6573 6219
4  6213 8270 6218 6573
4  6214 6220 6219 529
4  6220 6356 6219 529
4  6702 6256 7156 7782
4  6573 8270 984 822
4  6599 6598 6600 7414
4  6287 6293 6292 6291
4  6599 6604 6605 7413
4  6599 6598 7414 6594
4  6424 6122 7706 6120
4  6593 6606 6607 7755
4  6599 7413 7307 6594
4  6419 6424 7707 7706
4  6599 7414 7413 6594
4  6882 6187 6284 6987
4  7312 7323 7909 6600
4  6604 6602 6605 7228
4  6424 7718 7717 6773
4  6424 7719 7707 6122
4  7249 6288 6289 7354
4  6444 7255 7431 7183
4  6424 7707 7718 7708
4  6804 6582 6687 962
4  6577 6582 6688 746
4  7186 7259 7630 7523
4  6569 742 6686 6684
4  6684 6569 6073 6686
4  7232 7234 7269 7290
4  8114 8208 6961 6972
4  6569 6685 8147 6572
4  7429 7722 7428 7379
4  7045 7050 7278 6254
4  6569 6571 7882 8271
4  6582 6804 6687 6689
4  8272 7944 8247 8273
4  7567 7568 7278 7622
4  6578 6689 6687 6685
4  6687 6570 6804 962
4  6578 6689 6685 6084
4  7297 7278 7856 7622
4  7737 6072 7738 6652
4  7567 7566 7620 6253
4  7567 7568 7343 6652
4  7278 7621 7765 6254
4  7567 7333 7620 7334
4  7942 7868 7970 8170
4  7278 7622 7568 7282
4  7883 468 7884 467
4  7942 8145 8241 7869
4  6582 6688 746 1021
4  7344 8156 6652 7343
4  6685 7597 7592 8147
4  6582 6686 870 6336
4  6570 6687 6686 962
4  6550 6998 7981 7000
4  6569 8271 7882 6645
4  851 7990 829 6751
4  6750 7982 8117 7112
4  6743 851 939 6751
4  7371 7370 7552 7854
4  7095 6751 7112 6747
4  6325 6329 6217 6326
4  6338 7222 6340 6668
4  6337 7358 7008 7007
4  6540 6546 6545 6549
4  7358 7128 7007 6923
4  6751 7112 6747 6750
4  6746 939 6748 6743
4  6743 6747 6750 6751
4  6555 768 541 542
4  6751 7095 7886 764
4  6140 768 769 541
4  6337 6339 7008 6340
4  6337 7854 7371 7552
4  6449 8035 7830 8037
4  6561 1089 769 768
4  6702 6634 6255 6636
4  6751 764 6748 7095
4  6750 7990 6745 851
4  7990 6750 6751 851
4  6141 8030 493 840
4  7073 6779 6698 7070
4  6774 6779 6760 6780
4  6780 6424 6782 6774
4  6658 7573 7377 6659
4  6414 7000 6550 7981
4  6810 6809 7570 7574
4  7573 7734 6742 6809
4  6779 6773 6774 6775
4  6424 6773 7717 6782
4  6420 6422 6779 8172
4  6779 6780 6120 7073
4  6890 6888 6891 7074
4  7377 7768 7767 6659
4  6810 7570 7768 7574
4  7301 7377 7855 7571
4  7377 7376 7571 7572
4  7966 8175 160 8061
4  7070 6779 8055 8172
4  6608 6611 8261 6609
4  7040 7035 6451 6357
4  7040 8265 7036 7043
4  7040 7043 6314 6499
4  7031 6319 6314 7036
4  7031 7034 6360 6499
4  6834 7360 7361 6267
4  8265 6452 7040 7036
4  6733 7823 6209 6211
4  6178 6180 6733 6179
4  6202 6320 6089 6211
4  6210 6563 8086 6208
4  7176 7935 6898 7911
4  6206 6562 7089 6205
4  6123 772 910 970
4  6839 863 456 910
4  8274 775 6126 6769
4  6208 6209 8275 6210
4  6202 6320 6203 6089
4  6208 6085 8086 6180
4  6698 6697 6762 8055
4  6796 6795 7986 6797
4  6608 6610 6614 7113
4  6797 6910 7964 6796
4  6797 6984 6910 6841
4  6909 6846 6841 6910
4  6797 6798 7986 7114
4  6079 6178 6179 6180
4  7089 6083 6084 6080
4  6314 7036 8259 7043
4  980 8276 586 6708
4  6704 980 981 6708
4  6704 6705 6706 6765
4  6707 7425 6108 6696
4  6763 6708 6696 6707
4  6202 6212 6207 6204
4  6670 7650 6677 6523
4  6704 6713 6707 6764
4  6708 6109 800 6761
4  6708 800 6766 6761
4  6087 6179 6518 6041
4  6707 8276 6713 980
4  7040 7043 7042 7041
4  8276 6707 6708 980
4  6314 7034 6313 6312
4  8264 8189 6215 7124
4  8277 755 6358 1011
4  7031 7035 6453 7036
4  6618 6619 6620 7114
4  6042 8013 490 6047
4  6618 6620 594 6622
4  6314 8193 6311 6313
4  6315 6310 6316 7032
4  6315 6311 6318 6317
4  6315 7034 7031 6314
4  6984 6797 6238 6841
4  6199 6234 6984 6198
4  6199 6984 7985 6198
4  7844 8009 8004 7320
4  6909 6234 6238 6841
4  6690 7316 7934 7247
4  6509 7436 6513 6510
4  7243 6504 7244 6692
4  7242 7396 7317 7783
4  7242 7246 7396 7783
4  6199 6235 6231 6985
4  8009 7934 6690 8002
4  6238 7114 6984 6198
4  7603 7602 7808 7720
4  6870 6426 7159 7313
4  7310 7318 7396 8026
4  6599 6593 6603 6598
4  6599 7307 7413 6606
4  6984 7962 6845 6985
4  6234 6233 6201 6235
4  7228 7312 7411 6604
4  7037 6697 7038 8055
4  6234 6840 6911 6201
4  7249 8031 6607 7013
4  6514 114 115 117
4  6590 6505 6423 6592
4  6505 6423 6592 7071
4  6589 6590 6592 6505
4  7248 7013 7249 7250
4  6840 6233 6845 6844
4  6909 6234 6043 6238
4  7306 7385 7386 7387
4  6505 7071 6420 6423
4  6256 7781 6248 6257
4  7737 6204 7566 6252
4  6733 7393 6179 6180
4  7050 7049 7292 6254
4  7162 7287 6462 6460
4  6320 6212 7824 7823
4  7737 6715 6205 6072
4  7629 7050 7292 6252
4  6733 7822 7823 7023
4  962 6570 742 6686
4  6715 7591 6717 7566
4  6253 6251 7566 6252
4  6685 6083 7091 6645
4  6667 6666 7631 6668
4  6233 8127 6235 7945
4  7031 7033 7032 6319
4  6568 6327 6678 6588
4  7294 7032 7829 8035
4  6340 6338 6339 7222
4  7294 7830 6338 7222
4  6337 7542 6338 7854
4  6658 6660 7632 6659
4  6496 6843 6233 6201
4  6233 6235 6496 6201
4  7574 7573 6809 7735
4  6810 7573 6809 7574
4  6840 6843 6233 6844
4  7289 7734 7573 7735
4  6810 7573 7572 6742
4  6909 6840 6911 6234
4  6527 6526 6529 8252
4  6233 7889 8278 6845
4  6738 6735 6739 6617
4  6807 6742 6615 6809
4  7111 8138 8143 7982
4  6911 6912 6842 6846
4  6311 8279 8119 8263
4  7261 8119 6311 6317
4  7301 7305 7571 7855
4  6653 6659 7263 6657
4  6311 6312 8263 6309
4  6315 6310 6311 6317
4  6337 7358 7007 6923
4  6311 8193 8263 6313
4  6311 8280 8248 6318
4  6323 8214 8098 7823
4  7297 7300 7622 7856
4  6323 8129 6324 6088
4  6323 8099 8129 6088
4  7045 7046 7053 7280
4  6338 6339 7222 7830
4  7040 7043 7041 8265
4  6333 6334 6453 6330
4  6323 6088 6324 6033
4  7830 7033 6339 7222
4  7005 8034 7366 7006
4  6449 7830 6328 8037
4  6089 6806 6179 6733
4  6320 6321 6323 7824
4  6320 6089 6323 6033
4  6683 6331 7405 8118
4  6333 6452 6330 6453
4  6855 6312 6313 7034
4  6927 295 448 484
4  6449 8037 7034 8035
4  6449 6328 6326 8037
4  6807 8039 6615 6739
4  8039 8281 8040 8041
4  8039 8282 8040 8281
4  8039 8283 8284 8281
4  6714 6716 6715 6646
4  6716 8044 7867 8285
4  6716 8044 8286 8059
4  6716 8287 8288 8285
4  7005 8034 6328 7124
4  8034 7366 7006 8000
4  8034 7366 7340 6926
4  7734 6912 6809 7735
4  8034 8032 8001 8000
4  7289 6842 6911 6912
4  8137 6616 8261 8289
4  7734 6912 6609 6809
4  8137 8139 8138 7984
4  8137 6616 7112 6617
4  6796 8112 7964 7986
4  6438 6544 7161 6545
4  6909 6913 6912 6846
4  6798 7987 7986 8104
4  6612 7734 6615 6613
4  8202 6736 955 828
4  7164 7165 7551 7285
4  6612 6609 6912 6913
4  8095 6579 7974 8087
4  6202 6036 6205 6080
4  7815 7813 7961 8111
4  8137 8138 7111 7112
4  6208 7394 8086 8275
4  7823 7023 7822 8098
4  6795 7961 8137 6611
4  6205 6207 6562 6204
4  8137 8289 8139 7984
4  6203 6034 6033 6035
4  7737 6715 6652 7566
4  6733 7023 7393 7394
4  6733 6209 7822 7394
4  6282 6574 6195 6184
4  6210 8275 8086 8088
4  6202 6209 6207 6212
4  6282 6574 7785 6575
4  7090 7595 8095 7594
4  7474 7490 6282 7785
4  6670 6246 7650 6523
4  6580 6689 8095 8148
4  6716 7091 6646 6645
4  7815 8137 7961 7960
4  6244 7475 6245 6283
4  7470 7474 7471 7475
4  6244 6246 6574 6245
4  8039 8290 8040 8282
4  8137 7960 6611 7961
4  6618 6798 7096 7114
4  7710 7308 7711 7752
4  6892 7345 6894 6896
4  6670 6576 6195 7758
4  7413 7750 7414 7412
4  7532 7412 7413 7410
4  7307 6594 7413 7750
4  6564 6678 6573 6220
4  6670 6671 6246 6576
4  6246 6245 7650 6523
4  6331 8151 8225 8118
4  6683 7903 7406 7405
4  6329 8224 6216 8291
4  7406 6683 7407 8122
4  8264 6926 6924 7124
4  6331 8151 6568 6218
4  6451 7405 6331 6330
4  6331 6329 8224 6218
4  6565 6566 8124 983
4  6331 8225 6332 8118
4  6424 7707 7706 6122
4  6587 8124 6586 1020
4  6926 7900 7338 7340
4  7707 7066 7064 7757
4  6565 8124 6566 6567
4  6583 528 6356 6564
4  7707 8141 7064 8292
4  6566 6573 984 528
4  6568 8151 6567 8140
4  7707 7757 7709 7706
4  6419 7708 6424 6422
4  8034 7009 8032 8000
4  6218 8293 8224 8140
4  6218 8224 8151 8140
4  6218 8270 8293 8140
4  8189 7104 8037 7542
4  6325 6332 7529 6330
4  6214 7104 6221 431
4  7097 764 943 944
4  6286 8294 6877 8295
4  6286 8295 8296 8294
4  6749 8143 8250 8249
4  6749 6744 8143 8249
4  6286 6285 6186 8297
4  7814 7815 7816 8250
4  8039 8290 8038 6735
4  6797 6984 7114 7963
4  7095 7886 8117 6751
4  6750 7111 7982 7112
4  6798 7114 8104 7986
4  6616 8283 8261 8289
4  6284 6285 6286 6287
4  6286 8266 8089 8295
4  6616 8038 8283 8298
4  6616 7984 6735 8038
4  6286 6515 8266 6877
4  6744 6743 7111 6745
4  6286 8295 6292 8296
4  6286 6877 8266 8295
4  8299 6363 8294 6877
4  6540 7384 6544 6548
4  6744 8249 6745 8143
4  6744 6746 978 6749
4  6608 6616 6615 8261
4  7089 6562 6978 7591
4  6877 6363 6286 6515
4  7091 7597 6645 8060
4  6263 6371 6265 6835
4  7840 6877 8295 8266
4  6877 8266 7840 6878
4  6515 6877 6878 8266
4  6580 8148 8092 8213
4  6515 6514 6363 6882
4  7090 8095 7592 7594
4  6081 793 871 932
4  6515 6388 6391 6878
4  6688 8213 6804 8148
4  6390 6882 6515 6881
4  7013 6389 7010 6390
4  6688 6577 747 6580
4  6569 741 7882 6571
4  7842 7840 6877 8295
4  6515 6517 6390 6388
4  6391 8266 6878 8267
4  6581 6580 8213 747
4  6881 6515 8266 6286
4  8266 6878 8267 7840
4  6688 8213 1021 6804
4  7090 7091 6685 6083
4  7064 7066 7065 7757
4  7064 7093 7094 8292
4  7064 7935 8142 7065
4  7064 7067 7935 7065
4  7064 7065 8142 7709
4  8155 7343 7893 7884
4  7593 7592 8128 7594
4  6563 6085 6579 8087
4  6687 6685 6689 8147
4  7390 8141 7707 7708
4  6716 8286 8044 8285
4  6684 742 871 793
4  8129 6117 8174 8300
4  8129 8158 6117 8301
4  8129 6324 8174 8131
4  7239 8130 8129 7824
4  6765 8234 8235 8254
4  6694 6699 8047 6703
4  6699 8047 7948 8240
4  6767 6127 6125 6126
4  6766 971 800 187
4  8129 8099 8174 6088
4  6766 994 800 981
4  6694 6760 6698 6762
4  6768 6769 7102 6781
4  6109 521 586 800
4  8129 8301 8302 8214
4  6706 6713 8254 1016
4  6699 6765 7949 6701
4  8119 8279 7121 8263
4  8119 8303 8304 8280
4  6764 6695 8234 7425
4  6697 6695 6696 7424
4  6765 6706 8234 8254
4  6708 6696 6108 6109
4  6764 8234 6713 7425
4  8119 8120 7121 8305
4  6706 8254 6713 8234
4  6705 981 6766 6704
4  6240 7039 6696 6241
4  8119 8159 8120 8303
4  8119 7121 7122 6309
4  7261 8075 8119 6317
4  7177 7178 7388 7754
4  6892 6901 6895 7345
4  7030 6749 8249 978
4  6744 8249 1022 6745
4  7176 8142 7064 7935
4  7710 7307 7413 7750
4  7385 7710 7392 7307
4  7179 7710 7533 7532
4  7179 7754 7751 7180
4  6765 8254 7028 995
4  7932 7930 7559 7847
4  6702 7482 7929 7156
4  7932 7562 7931 7845
4  7179 7177 7435 7711
4  7578 7932 7560 7931
4  8009 8002 7320 7844
4  7554 7562 7846 7555
4  7678 7681 7698 7135
4  7142 7818 7141 7951
4  6901 7435 7177 7952
4  7935 7176 8141 7064
4  7935 7067 8132 7065
4  7678 7681 7887 7698
4  7556 7557 7555 7887
4  7132 7135 7223 7141
4  7677 7133 7746 7680
4  6502 7320 7578 7319
4  7534 7818 7142 7951
4  7677 7689 7680 7746
4  7577 6512 7747 7576
4  7677 7890 7558 7679
4  7932 7844 7561 7845
4  7935 7937 8136 7093
4  7935 7669 8132 7936
4  6190 7845 6192 6191
4  6190 7850 7847 7851
4  7935 7669 7937 8262
4  7932 7931 7320 8004
4  7320 7930 8002 7575
4  7935 8132 7911 8142
4  7320 8002 7316 7575
4  6690 7316 8002 7934
4  7176 8161 7935 8141
4  7844 7850 8002 7847
4  6878 6977 6484 6965
4  6484 8306 6967 6976
4  6877 6977 6878 7840
4  7554 7686 7561 7851
4  7560 7694 7559 7930
4  6597 6505 6290 6506
4  6877 6482 6977 8299
4  6697 6695 7424 8056
4  7016 6505 7072 6506
4  6835 6265 6551 7446
4  8031 6881 6882 7013
4  6186 7919 8297 7920
4  6966 6977 7840 6878
4  7022 8307 7920 8308
4  7016 6505 7071 6420
4  6977 8299 6482 6481
4  6240 6242 6986 7071
4  6696 7921 7424 7425
4  6484 6878 6965 6388
4  6977 6966 7841 6967
4  7363 6920 7991 7827
4  7016 6506 7072 7021
4  8137 8138 7112 7984
4  6484 6388 6965 8306
4  6364 7383 6365 7382
4  7111 7815 8137 7029
4  6795 7029 7113 8137
4  6977 6482 6877 6878
4  6977 7841 7840 7843
4  7815 8073 8250 8111
4  7815 8138 8250 8143
4  7453 7454 7716 7617
4  7935 7669 7911 8132
4  7669 8309 8132 7936
4  7596 7593 7597 8310
4  6685 6572 6645 7597
4  8095 6563 6579 8087
4  7669 7937 8135 7936
4  7669 7671 8309 8311
4  7669 7671 8312 7670
4  7954 6494 8127 7061
4  7954 8127 7957 7061
4  6647 741 793 792
4  7954 8313 7955 7957
4  7954 8165 6383 7956
4  7954 8166 8165 8314
4  8091 7592 8128 8092
4  8095 7592 8092 8148
4  8095 8092 8093 7974
4  7020 8307 7424 7920
4  879 6183 6181 6188
4  7020 7038 7022 7021
4  8120 7120 7121 8305
4  8120 8303 8315 8316
4  6699 6695 8047 8240
4  8120 8181 7120 8212
4  8120 8182 8181 8315
4  6694 6762 6763 6760
4  8120 7120 8160 7122
4  7123 8159 8119 8075
4  6331 6218 8224 8151
4  8129 8174 6117 8131
4  6564 6583 6587 6678
4  6683 6327 6451 6331
4  6117 6106 8174 8300
4  6117 8301 8317 8318
4  6117 6111 8317 6116
4  6683 8122 7406 8045
4  6683 8151 8122 6567
4  6117 8171 6116 8317
4  6117 6106 6118 8131
4  7184 8158 8129 8130
4  8122 6683 7407 8152
4  8181 8082 7120 8212
4  8181 8315 8319 8320
4  6977 6967 7843 6481
4  8181 8200 8082 8211
4  8181 8201 8200 8319
4  8181 8082 8050 8160
4  6536 8182 8120 8159
4  8165 6392 6383 7956
4  8165 8314 8321 8322
4  8165 7524 6392 7527
4  6239 877 521 522
4  8165 8029 7524 8321
4  8165 6392 7117 7068
4  6954 8166 7954 8153
4  6117 6098 6106 6111
4  7482 7929 7080 7999
4  8018 7890 7697 7953
4  7774 7775 8019 7926
4  7691 7680 7818 7692
4  7156 7155 7914 7154
4  7078 7828 7150 7080
4  7556 8005 7890 7684
4  6106 8323 8324 6111
4  8173 6106 8323 8324
4  8010 7085 7927 7086
4  8204 6111 8317 8205
4  7152 8058 7149 7150
4  7084 7517 7519 7516
4  6914 6721 6437 7004
4  7084 7116 7086 7085
4  7927 7999 7087 7928
4  7086 7791 7997 7116
4  7519 7684 7085 7087
4  6111 6116 6117 6098
4  6098 6100 6111 6116
4  7212 7215 7857 7151
4  7997 7913 7079 7086
4  7213 6822 7648 7791
4  7079 7081 7999 7080
4  8204 6111 6862 6116
4  7084 7115 7148 7517
4  7084 7342 7148 7341
4  7181 7241 7379 7428
4  6806 7393 7023 7092
4  6116 6111 6862 6100
4  6098 6111 6103 6106
4  6100 6429 6101 6862
4  6033 6036 6087 6032
4  6111 8317 8205 8324
4  6118 6098 6106 6117
4  7101 6109 6240 6761
4  7706 8269 7389 6423
4  6427 8171 6117 8158
4  6703 6699 6700 6698
4  6099 6116 8268 6430
4  6116 6430 8204 8268
4  7114 8104 7963 7985
4  7970 8238 8246 8325
4  7942 6065 7970 8246
4  6042 6201 6045 6493
4  7360 7868 7970 7969
4  6062 7001 7970 7905
4  6062 6064 7970 6065
4  6849 918 8326 8187
4  7031 7036 6453 6319
4  6458 6192 7131 7850
4  6190 7845 7844 6192
4  8002 8009 7850 7844
4  7970 7905 8238 8325
4  6439 6151 6720 8027
4  6811 6821 6814 7786
4  6151 6154 6720 6728
4  6524 6529 6526 6528
4  6151 6154 6728 6150
4  6146 6154 6151 6150
4  7115 6816 7148 7147
4  6151 6529 6528 6150
4  6815 6816 8154 6814
4  7084 7148 7520 7517
4  7518 7684 7085 7519
4  7148 6411 7342 7520
4  7084 7341 7115 7116
4  8100 8065 8169 8196
4  6343 6345 8100 8196
4  8100 8327 8103 8102
4  7084 7517 7520 7519
4  7148 7208 6411 7520
4  6914 6437 6720 6919
4  7148 7517 7208 7520
4  6813 7786 6814 7496
4  7492 7497 8154 7498
4  7492 8154 7496 6814
4  8100 6345 6349 8102
4  8100 6345 8101 8065
4  7671 8328 8309 8311
4  7671 8312 8329 8330
4  7671 6067 8328 8331
4  6635 8018 7774 8019
4  7671 6931 6067 8329
4  7474 7490 7785 7489
4  7671 8328 7673 7672
4  6635 8018 8020 7697
4  6939 7669 8262 7670
4  7132 8048 7142 7138
4  8200 8332 8082 8211
4  7585 6854 7716 7586
4  6255 7781 6257 6634
4  7554 7846 7561 7686
4  7560 7558 7559 7694
4  7677 7689 7557 7680
4  7677 7678 7133 7681
4  8200 8319 7915 7916
4  7890 7887 7677 7556
4  7677 7558 7556 7557
4  7578 7579 7931 7693
4  8200 8216 8332 7918
4  7678 7698 8018 7697
4  6512 7747 7576 6511
4  7417 7419 7602 7483
4  7560 7578 7693 7689
4  7132 7142 7141 7223
4  7219 7540 8022 7138
4  8200 8216 7915 8215
4  8200 8332 7322 8050
4  6828 8201 8181 8182
4  7132 7138 7134 8048
4  7544 7224 7545 7221
4  7524 7118 6392 7527
4  6255 6257 7545 6634
4  7524 8321 7525 7527
4  7524 6789 7118 7526
4  7544 7651 6255 6636
4  6702 7773 7782 7929
4  7524 6802 6789 8333
4  6633 6635 8020 7697
4  7524 7118 6753 7117
4  6955 8029 8165 8166
4  7549 7857 7643 7668
4  6862 6430 8206 8204
4  6429 6862 6863 6856
4  7079 7081 7548 7999
4  6822 7548 7647 6823
4  7213 6379 7648 6822
4  6862 6856 6101 8323
4  6813 6711 7786 7496
4  7216 8058 8011 7150
4  7152 8043 7155 7149
4  6100 6102 6101 6429
4  6702 7773 6635 6636
4  7152 7155 8043 6248
4  6259 6260 6429 6101
4  6429 6861 6862 6053
4  6702 7929 7774 7773
4  7139 6679 6989 6682
4  7078 7080 7150 7081
4  7078 7212 7153 7079
4  7482 7929 7999 7928
4  6429 6857 6858 6863
4  8334 6861 6862 6863
4  6862 6116 6430 8204
4  8206 8334 8096 6430
4  8334 6862 6430 8206
4  6429 6053 6431 6861
4  6100 6111 6862 6101
4  6702 7156 7781 7914
4  6862 8204 8206 8207
4  6635 7775 6634 8020
4  6146 6150 6152 6155
4  6151 6154 6522 6719
4  6154 6150 6155 6156
4  6146 6154 6147 6522
4  6679 6989 6990 7759
4  6126 772 970 187
4  8120 8305 8316 8212
4  7036 8265 8259 7043
4  7294 7830 8035 8036
4  6164 6522 6149 6147
4  6910 7962 7963 7964
4  8100 6345 8065 8196
4  6345 8102 8335 8336
4  6345 8209 8196 6344
4  6343 8198 8100 6349
4  6341 6342 6345 8209
4  6345 6342 8337 8209
4  7205 7498 8015 7144
4  6469 6471 7586 7075
4  6406 6404 6062 6063
4  6824 6812 7147 7792
4  6822 7792 7115 7086
4  7143 7144 7208 7147
4  7143 8033 6817 6816
4  7064 8141 7935 7093
4  6419 6421 6420 6423
4  6062 6404 7979 6063
4  6424 6779 6774 6780
4  7386 7709 7389 7706
4  7718 8338 7719 7717
4  6062 7904 6997 7905
4  6062 6063 8199 6999
4  7969 7970 7360 6998
4  6733 7023 7394 7822
4  6209 7822 7394 8275
4  7671 6067 7673 8328
4  6067 8218 8328 8331
4  8263 8195 8193 8279
4  6067 8329 6932 8339
4  6067 6068 6932 6066
4  6359 6849 6361 6499
4  7034 6359 6848 6450
4  6314 8259 8193 7043
4  6354 6450 7104 6848
4  6930 6066 6932 8340
4  6358 33 754 729
4  6067 8218 6934 7673
4  6933 6931 7671 7670
4  8200 8216 7322 8332
4  8216 6095 8332 7918
4  6915 6917 7825 6916
4  8216 7915 8341 7917
4  8216 6094 8341 6096
4  6845 6985 7962 8278
4  7385 7389 7386 7391
4  7306 7385 7307 7308
4  8342 7365 8142 7391
4  6124 8269 6995 914
4  8216 6416 6096 8341
4  6419 7306 7386 7387
4  7683 6236 7688 7130
4  7683 7129 6237 6236
4  8216 6095 6093 7322
4  6807 6810 7356 6742
4  7301 7768 7302 7767
4  8040 8282 6134 6133
4  6302 6300 6303 6454
4  6810 7573 6742 6809
4  7869 7866 7863 8247
4  6829 8200 8201 8215
4  6789 6170 7118 7526
4  6714 7334 7567 7620
4  7567 7333 7622 7278
4  6998 6999 8199 6836
4  6789 8333 8343 7526
4  6337 7358 7552 7371
4  7104 431 730 1037
4  6337 6340 7008 7553
4  6650 6731 6988 7696
4  6215 431 821 822
4  8053 7896 7996 8253
4  6787 6170 6789 6794
4  7556 7554 7686 7555
4  7774 7773 7929 7928
4  6702 6255 6256 7782
4  6702 7914 7482 7156
4  6633 8020 6634 7224
4  6799 6163 6788 8024
4  7774 7926 7953 7928
4  7482 7913 7079 7154
4  7953 7684 7926 7887
4  7132 7138 7137 7134
4  6169 6170 7118 6789
4  6755 6802 7524 8029
4  6068 8218 7826 8344
4  6702 6255 6634 7781
4  6068 6066 6342 8345
4  6619 194 592 191
4  8345 6068 6932 8346
4  6420 6424 6779 6422
4  6078 6171 6725 6772
4  6610 6797 6796 6913
4  6068 6066 6070 6342
4  7629 6203 6035 6034
4  6117 8300 8318 8324
4  7181 7379 7241 7293
4  6098 6103 6104 6106
4  6068 8347 8348 8349
4  6088 7092 7023 8099
4  6068 8350 6070 8349
4  7121 8305 8191 8351
4  6058 8218 6060 6059
4  8315 8316 8320 8212
4  7064 7094 7067 7066
4  6122 7973 6782 7719
4  8292 7094 7066 8338
4  6058 6067 8218 6934
4  6068 6932 8346 7826
4  6066 6342 8345 7705
4  6058 8218 6068 6060
4  6787 6163 6170 6162
4  7451 6915 7788 6679
4  6787 6788 6791 6794
4  6163 6790 6161 6162
4  6163 6161 8023 6167
4  6724 6169 6799 6162
4  6799 6170 6789 6163
4  8237 6996 7980 6094
4  6419 6424 7708 7707
4  7109 7496 7493 7486
4  7088 8220 8219 8173
4  6806 6733 7393 6179
4  8341 6094 6408 6096
4  8216 6094 6096 6095
4  6094 8352 6095 8353
4  8352 8354 8237 6094
4  6311 8279 8193 8248
4  8216 6096 6093 6095
4  7363 6990 7811 7825
4  6333 6449 7031 6453
4  8355 8341 6094 6408
4  6405 7002 6404 6408
4  6233 8278 7945 6985
4  7889 8278 8233 7945
4  8013 1035 6042 490
4  6491 6493 6047 6495
4  6046 508 488 489
4  6090 6095 6094 6091
4  8356 7389 7706 8269
4  8217 6415 6418 6416
4  7756 457 7365 8357
4  6405 6416 6093 6418
4  7707 7066 7719 8338
4  6361 6357 7042 8277
4  7703 6552 7702 7906
4  6414 7703 6552 7702
4  6113 6415 7812 6418
4  6314 7036 6319 6318
4  7040 6314 7036 7035
4  7703 7812 6415 6413
4  6405 6416 6415 7702
4  6032 6037 8230 6034
4  6032 6040 6038 6039
4  6148 7993 6162 6790
4  6321 6322 7240 7824
4  6161 6156 6153 7888
4  6161 6166 6728 6167
4  6208 7394 6733 6180
4  6227 6228 6722 6222
4  6161 8023 6156 7888
4  6801 6163 8024 6167
4  6331 8118 6332 6330
4  7005 6337 6339 7008
4  8108 8358 6485 236
4  6090 6092 8359 6407
4  8137 8139 8289 7960
4  6090 6996 6094 6404
4  6807 8040 8039 8042
4  6404 7978 6408 6997
4  6998 7981 7000 6406
4  6615 6739 6617 6613
4  6406 6996 6999 6407
4  6405 6406 7002 6414
4  6053 7445 6431 6054
4  6430 8268 7445 8097
4  6502 6512 6503 7579
4  6430 8334 8096 6053
4  6053 8096 7849 8360
4  6053 6281 7849 6052
4  6053 6279 6052 7849
4  8129 8302 8300 8099
4  8230 1034 6032 905
4  6032 8230 6035 6034
4  6429 6430 6431 6053
4  6862 8334 6053 6861
4  6439 6151 6527 6131
4  7415 7430 7431 7483
4  8214 8098 8302 8099
4  6527 8054 7996 8252
4  6309 7829 8361 7630
4  6151 6522 6130 6131
4  6527 6131 6130 6461
4  6439 6527 6433 6131
4  6310 6316 7262 6317
4  6527 8054 8252 6529
4  6530 6539 7327 6533
4  6470 8197 8100 8198
4  8197 8362 8363 8364
4  6539 6537 7190 6535
4  8119 8305 8279 8304
4  7121 8351 8279 8305
4  8100 8197 8365 8366
4  8197 8365 8149 8169
4  6470 8168 8197 8198
4  8333 7525 8343 7526
4  8197 8362 8364 8327
4  7868 7864 7866 8367
4  6789 6788 6794 8343
4  7061 7945 7957 7946
4  7942 7869 7868 8145
4  7360 7868 6266 8170
4  7868 7864 8367 8238
4  6280 6281 7849 8368
4  6053 6051 6861 6281
4  7386 7388 7708 7387
4  6863 6861 8369 7848
4  7306 7392 7385 7387
4  6861 8369 7848 6281
4  6051 6057 6281 6273
4  6281 8370 8369 8371
4  6281 8372 6057 8371
4  6054 6051 6861 6053
4  6486 553 6517 6980
4  6052 6280 6281 7849
4  6272 6273 6280 6956
4  6290 6293 6288 6506
4  6294 6293 6506 7021
4  6051 6861 6281 7015
4  6287 6284 6285 6242
4  7390 7391 8142 7952
4  6274 6273 6057 6055
4  6901 7178 7177 7180
4  6274 6962 6961 8208
4  6274 6961 6055 6057
4  8342 7065 7757 7709
4  6272 6274 6956 6277
4  6273 6280 6957 8078
4  6274 6963 6962 6957
4  6965 6966 6968 6351
4  6965 8306 6388 8162
4  7168 7175 7331 6951
4  6527 6130 6526 7996
4  7742 7744 6853 7741
4  6382 6500 7069 6498
4  6878 6965 6353 6966
4  8267 6878 6391 6425
4  6965 8162 6350 8306
4  6965 6350 8373 8306
4  6273 6057 7082 8208
4  7372 7422 7479 7374
4  6962 8374 8079 6957
4  6381 6382 7069 7068
4  6962 6352 6350 8374
4  6962 8208 6972 6961
4  6274 6273 6957 6962
4  6965 6399 6353 6350
4  6347 7701 6854 6348
4  6273 6957 7082 8078
4  6350 6351 8375 8374
4  6399 6353 6350 6352
4  6350 6972 8113 8162
4  6959 6352 6962 6963
4  6962 6972 6350 6959
4  7445 7676 7257 7444
4  8150 8362 8376 8363
4  8197 8150 8149 8006
4  6285 7920 6186 8297
4  8150 8006 8008 8149
4  7076 8150 7200 8149
4  8200 7918 8211 7916
4  8197 8150 8363 8362
4  8150 8377 8376 8362
4  6371 7446 6946 6366
4  8053 7894 6464 7106
4  6774 6783 6698 6775
4  8053 7107 6464 6461
4  7935 7936 7067 8136
4  6527 8053 7107 7996
4  7385 7711 7308 7391
4  6433 8378 8053 8052
4  6527 8053 7996 8054
4  8216 8353 7918 7917
4  8053 8379 8253 8054
4  6942 7439 6675 7610
4  6674 6676 7645 7610
4  6942 7610 6674 6945
4  6530 6538 6535 6534
4  6669 6674 6673 6672
4  8083 8380 630 631
4  6187 6242 7947 6986
4  6670 6246 6523 6574
4  7439 7613 6675 7611
4  6294 7022 6293 7021
4  6669 7650 6676 6677
4  6669 6675 6674 6672
4  7707 8338 8292 7066
4  8034 6329 8291 8032
4  6329 6216 8224 6218
4  6329 8381 8032 6332
4  6217 6326 6329 7124
4  6285 7920 8297 8308
4  6286 8297 8294 8296
4  8034 6926 6216 7124
4  6285 6242 6186 6241
4  6713 8234 6764 6704
4  8225 8151 8152 8118
4  8034 8000 8001 7340
4  6331 8118 6330 7405
4  6216 8293 8291 8224
4  8034 7009 6329 8032
4  7127 7894 7366 6922
4  6328 7529 6329 7009
4  7366 7337 6926 6924
4  6849 8326 754 6358
4  8032 8381 8291 8001
4  6216 8293 7900 8291
4  7090 8095 6689 7592
4  6556 8223 8382 7878
4  7089 6084 7090 6978
4  6220 529 822 528
4  6716 7091 8060 8287
4  7091 8287 7596 8310
4  7091 6645 6083 6646
4  6716 8059 6645 6646
4  6329 8291 8381 8224
4  6716 8285 8288 8286
4  7349 8041 7504 7570
4  6716 6717 7091 8287
4  6890 7198 6885 7507
4  6715 7591 7091 6717
4  6608 6611 8137 8261
4  8039 8290 6735 6739
4  8137 7113 6617 7112
4  8039 8281 8284 8282
4  8039 6808 6616 8283
4  6615 8261 6616 6808
4  8039 6808 8283 8281
4  8283 8298 8038 8284
4  8039 6616 8038 8283
4  8066 8383 8384 8385
4  6616 6735 7984 7112
4  6616 8298 8283 8289
4  6616 6735 6617 6739
4  6285 7920 7020 6241
4  6480 6516 6515 6517
4  6285 6186 6242 6284
4  7091 7596 8287 7591
4  7090 7594 7596 6978
4  6645 6572 8060 7597
4  6714 7344 6646 6652
4  6206 6563 6085 6084
4  6697 7038 8055 8047
4  7016 7039 7071 6242
4  6287 6286 6292 6285
4  6286 6285 8297 6292
4  6287 6290 6294 6293
4  6708 981 586 980
4  6285 6292 7022 8308
4  6716 6717 8287 8285
4  7861 8044 7335 7893
4  7861 8044 7893 8386
4  7858 8145 6266 7868
4  6685 7597 8147 6572
4  7194 8144 7861 7860
4  8287 8310 8060 8288
4  7858 7861 7863 7870
4  716 719 8387 670
4  7861 8236 7870 8388
4  7287 8053 7894 6464
4  8053 7894 7896 8379
4  7894 7895 8379 7958
4  8174 8300 8389 8099
4  7894 7106 6922 6464
4  6211 7823 6209 6212
4  8053 7894 7106 7896
4  7287 8074 7894 8378
4  7200 8150 8076 8008
4  8150 8076 7874 8377
4  170 6037 6041 6177
4  8076 6132 6135 8377
4  8076 7872 7351 8008
4  8150 8076 7872 7874
4  6644 8059 7344 6646
4  7200 8077 8076 8167
4  7366 7337 7340 6926
4  8388 8236 8390 8391
4  8285 8286 8390 8288
4  7894 7366 7339 7958
4  7366 8000 7959 7958
4  7868 8238 8367 8246
4  7005 6337 7542 6339
4  7894 7366 7337 7339
4  7366 7337 6924 6922
4  7006 7366 7007 7127
4  6686 6570 742 6569
4  6086 932 871 171
4  8044 8144 7335 7867
4  7861 7863 7870 8236
4  8044 8386 8286 8059
4  6557 6922 6559 7106
4  7861 8044 8391 8388
4  8044 8285 8390 8388
4  7010 6391 8089 8266
4  6714 7334 7620 7867
4  7010 8089 7354 6291
4  7861 8044 8386 8391
4  8044 8386 7344 7893
4  8076 8040 8231 6134
4  7350 8040 7349 7351
4  7020 6241 7920 7424
4  8076 8040 6134 6132
4  8040 8282 8290 8231
4  6292 8296 8308 8297
4  8040 6132 8281 6133
4  6807 6808 8039 8041
4  6608 6615 6617 6613
4  8281 8284 8282 6133
4  8040 7351 8231 8042
4  8076 8231 8040 7351
4  6285 7022 7020 7920
4  7106 7878 7896 7339
4  7020 6696 6241 7424
4  7020 7038 8307 7022
4  7037 7016 7072 7021
4  7872 7875 7874 6134
4  7350 8077 7504 8041
4  8231 7968 6134 8282
4  7020 7039 6242 6241
4  6294 7039 7037 7016
4  6242 7020 6285 6294
4  6647 889 792 793
4  7616 6306 7795 7796
4  7567 7333 7621 7620
4  6764 6694 6695 6696
4  8392 565 7883 780
4  7333 7334 7343 7766
4  6645 6572 8271 8060
4  7037 6762 6697 8055
4  6698 6697 8055 6703
4  7037 7072 7070 8055
4  7038 6697 7020 7424
4  7613 6196 6677 7611
4  7861 8236 8391 7863
4  6877 8294 7843 7842
4  6697 7038 8047 8056
4  6486 6980 6974 8393
4  6390 6389 6981 7013
4  6363 8294 8297 8394
4  7037 6762 7039 6696
4  6213 6217 6221 6219
4  6217 6221 6219 6326
4  7897 6216 6218 8293
4  7897 821 7898 820
4  7897 820 7898 8270
4  8256 8131 7628 8395
4  6213 6215 7897 822
4  6925 7338 7337 6926
4  7899 6215 8264 6927
4  6640 7549 7643 7668
4  7899 6215 6926 8264
4  7899 484 6215 6927
4  6921 6926 6925 7337
4  6540 6543 6544 7384
4  8379 7895 7896 8253
4  7005 7007 7366 6924
4  7899 7898 821 884
4  7005 6924 7124 7542
4  7899 6926 7900 7338
4  7899 6215 6216 6926
4  6561 6141 769 8051
4  7366 7340 7339 7959
4  7162 7285 7164 7287
4  8076 6134 7872 7874
4  6807 8042 6739 6742
4  6459 6561 6557 6560
4  6922 6464 6557 6463
4  6561 8051 769 1089
4  6601 7312 7225 7311
4  6868 7225 7310 7309
4  8076 7874 6135 6134
4  7569 7349 7356 7352
4  7310 7323 6873 8026
4  7380 7312 7396 7909
4  7411 7909 7312 7380
4  7330 7478 7402 7477
4  7396 7909 7312 8026
4  7396 8026 7783 7909
4  7310 7312 7395 7311
4  7396 7395 7312 7381
4  8165 7527 7956 8322
4  8314 7955 8322 7956
4  6685 6689 8147 7592
4  6114 6194 6195 7852
4  6569 6570 743 6571
4  6081 793 6684 871
4  6684 793 6647 741
4  8117 8186 8202 6735
4  8238 8246 8325 8367
4  8117 8396 8202 8186
4  8117 6738 6736 7886
4  6113 6415 6418 8217
4  6530 7327 6536 6531
4  8117 7095 7112 6738
4  6862 8334 6856 8207
4  8117 6736 828 7886
4  7236 7628 7051 6035
4  6735 8117 6738 6736
4  8202 8117 6736 828
4  8117 7886 830 829
4  8117 830 7886 828
4  8117 8202 6736 6735
4  6486 616 236 568
4  8117 828 8396 830
4  7886 944 6736 828
4  6445 7184 6970 7531
4  6111 8205 8207 8324
4  6738 7886 8117 7095
4  6441 6443 6448 6447
4  8117 7112 7982 7983
4  7056 6625 7727 6830
4  6707 8276 6108 7425
4  6892 6897 6938 6900
4  6108 6181 6241 7919
4  8102 8101 8335 8103
4  6108 6181 7919 6110
4  6108 6109 6696 6240
4  6109 6108 6107 6240
4  6110 6107 6108 6181
4  6076 6792 7994 7995
4  584 6110 585 6109
4  6439 6719 6131 6440
4  6108 586 6109 584
4  6239 6109 521 585
4  7101 6109 800 521
4  6708 800 6109 586
4  6108 584 6110 8276
4  6708 6108 586 6109
4  6139 8030 6460 6440
4  6529 6526 6528 8252
4  6559 7337 7106 6922
4  6286 8296 6292 8297
4  6925 7338 8223 7878
4  7358 7552 7128 6923
4  7107 8397 7996 7896
4  7164 6462 7128 7284
4  6239 6109 6240 521
4  6107 6241 6108 6181
4  6186 7919 8394 8297
4  6110 6108 6109 584
4  6188 6183 6181 6186
4  7862 7863 8391 8398
4  6569 6687 6685 6686
4  7882 8399 8400 8059
4  7943 8273 8401 7944
4  8044 8391 8390 8286
4  6262 6270 6269 7891
4  7192 7764 7297 7298
4  7882 8400 8399 8402
4  8377 7874 8376 6135
4  6060 8403 8404 8348
4  7882 6647 6645 6644
4  7882 6647 6644 8243
4  7882 741 817 6571
4  6603 7353 7226 6598
4  6750 7990 8117 7982
4  8202 7968 7966 8290
4  8202 7966 7968 8203
4  8202 6736 6735 6737
4  8202 6736 6737 8405
4  8202 8396 828 958
4  6108 6696 7425 7921
4  6108 7919 6241 7921
4  6181 8394 6189 6186
4  7191 7763 7766 7300
4  8071 8196 6477 8169
4  7671 8330 8329 8331
4  6181 6189 8394 6182
4  6183 6188 6239 6187
4  6183 1006 585 879
4  6181 6107 6183 6110
4  6078 6771 6076 6168
4  6076 6226 276 7994
4  6432 7161 6435 6434
4  6771 6173 6226 6174
4  6076 6168 6170 6078
4  6556 8382 542 6555
4  6771 6075 274 909
4  6433 8378 8052 6435
4  6527 8252 7996 6526
4  6771 6226 275 276
4  7427 7481 7607 7608
4  7481 7607 7608 7939
4  6684 741 742 793
4  7326 7481 7409 7607
4  7868 8246 8367 7866
4  7333 7622 7766 7343
4  7409 7581 7408 7607
4  6068 8350 8348 7826
4  7083 7077 7074 7304
4  7275 6664 7367 6663
4  7083 6890 7304 7074
4  7655 8121 7367 7798
4  7655 7580 7939 7657
4  7580 7581 7939 7657
4  7580 7481 7582 7798
4  6478 7074 7077 6472
4  7409 7582 7481 7480
4  7613 6670 6677 6196
4  6166 6720 6728 6918
4  8216 6094 8353 8341
4  6282 6574 6184 6283
4  7864 7866 8367 7865
4  6166 6720 6914 6165
4  6275 6279 7676 7026
4  6385 8221 7062 6383
4  7142 7540 8025 7138
4  7157 6391 6389 7158
4  6465 6144 6466 6534
4  6385 6383 7062 6384
4  6385 98 7062 8222
4  6385 98 8222 599
4  6385 6392 7995 8221
4  6965 6968 6967 8373
4  7157 7248 6389 6391
4  6484 6976 6967 6481
4  7062 7063 98 6384
4  6480 115 471 117
4  6878 8267 7840 6966
4  6539 7186 7123 7523
4  6983 6385 7995 7547
4  7062 7061 8134 7063
4  7123 8159 7185 6537
4  7062 518 8134 8406
4  7062 100 518 8406
4  7062 8407 6383 8221
4  8134 6492 518 7063
4  7062 8134 7061 8407
4  8134 6235 6200 6492
4  8134 502 6200 8408
4  6928 296 295 8157
4  8321 7527 8322 7525
4  6173 275 377 949
4  8134 502 8408 645
4  6649 6952 6741 7332
4  8134 7946 7061 8407
4  7966 8175 7875 7967
4  8117 6735 7983 8186
4  8202 8290 8186 7968
4  7966 8405 8409 8061
4  7064 7093 7935 7067
4  8409 7966 8290 8405
4  6889 7454 6906 6888
4  8345 8350 8346 8410
4  7966 955 750 8203
4  7616 6307 6297 7617
4  6756 7256 7445 6278
4  8400 8392 8398 8411
4  7671 8331 8311 8330
4  6932 8339 8346 7826
4  6603 7227 7250 6602
4  6569 6645 6572 8271
4  7882 8059 8271 8399
4  8412 682 121 292
4  7538 8025 7537 7951
4  7429 7604 7428 7722
4  7535 7603 7538 7539
4  8400 8243 8155 7883
4  8155 8400 8059 8243
4  8400 563 564 8402
4  6862 8206 8334 8207
4  7613 6194 6195 6196
4  8370 7015 8369 8413
4  7052 7237 7053 7051
4  7603 7539 7605 7950
4  8370 8414 8164 8107
4  8370 211 8164 7015
4  8370 211 8413 218
4  6092 6418 8415 6413
4  6199 7985 6984 6985
4  6983 519 22 274
4  6200 6492 6050 6046
4  6200 6492 6235 6050
4  6801 6727 6731 6800
4  6699 7948 8239 8240
4  6200 502 6492 6046
4  8134 6200 6235 7946
4  6197 6200 6046 508
4  6200 507 508 6232
4  8139 7960 8138 7816
4  8289 8139 7984 8298
4  6200 6235 7946 6231
4  8106 8416 8108 8417
4  8370 6057 8208 8371
4  8106 217 8418 724
4  8370 8208 8419 8371
4  8370 8106 8208 8107
4  6429 6861 6857 6863
4  7090 7597 7593 7592
4  7090 7593 7596 7594
4  6259 6856 6429 6858
4  6857 6860 6260 8412
4  6429 6860 6857 6861
4  6331 8224 8225 8151
4  6332 8225 8224 8381
4  6857 121 6858 123
4  6857 6861 8369 6863
4  6429 6053 6862 6430
4  6587 6568 6683 6567
4  6258 6103 6104 6102
4  6859 6101 8323 6103
4  6527 6130 7107 6461
4  6432 6433 6439 6434
4  7025 7027 7017 7012
4  6103 7088 6106 8323
4  6136 493 494 358
4  6136 493 358 843
4  6927 484 448 486
4  6136 6229 6487 358
4  6722 6770 8014 849
4  6103 608 7088 8220
4  7088 6104 6106 6105
4  7088 608 6104 8420
4  6103 608 419 289
4  7088 6105 8174 8257
4  6437 7359 6438 7004
4  7088 669 8257 8219
4  7088 669 8219 603
4  6272 6956 6279 7026
4  6972 6973 8115 6402
4  6967 6966 6965 6977
4  6350 8421 8375 8373
4  7088 8173 6106 8323
4  7970 8325 6064 7905
4  8257 8255 8420 8256
4  8256 8257 6088 8174
4  7088 8257 8174 8173
4  8257 6088 6805 8255
4  8257 6805 716 8255
4  8257 670 716 8387
4  6757 6759 7877 7636
4  6962 8374 6350 8421
4  6351 8373 8375 6968
4  8257 8174 8173 8389
4  8226 6091 8237 8228
4  8226 8422 8359 6417
4  7349 7351 8042 7356
4  8197 8366 8364 8363
4  8226 10 8423 8422
4  8226 8227 9 8228
4  7966 8231 7968 7875
4  8177 8006 7872 7873
4  8175 8061 8007 8176
4  8007 8175 8231 8061
4  8175 161 8061 8176
4  8327 8366 8103 8364
4  7445 6431 6054 7256
4  8175 160 159 7967
4  7672 8424 6893 7348
4  8175 7872 7875 7873
4  7011 6959 6958 6960
4  8400 8386 8399 8398
4  6725 6727 7725 6726
4  8392 8247 8272 7862
4  6955 6755 7634 6741
4  6788 6794 8343 6791
4  8392 8272 8247 8425
4  7418 7419 7510 7509
4  8392 7883 8426 8427
4  8426 8392 8386 7883
4  7015 8370 8369 6281
4  8392 565 786 8411
4  6393 6400 6398 6397
4  8347 6060 8348 8403
4  8347 8067 8428 8429
4  8347 8064 8067 146
4  8347 144 8430 146
4  8354 8352 8431 8332
4  8354 8432 7321 8433
4  6067 6068 8218 7826
4  8354 311 8431 8434
4  8354 8434 312 311
4  6933 6937 6940 6867
4  6469 6477 6475 6474
4  8354 6095 6094 8352
4  6466 6112 6113 6827
4  8423 7975 7977 8422
4  8423 7975 8242 7977
4  8423 10 7975 8422
4  8423 8359 6063 8226
4  8423 8242 7975 8
4  8423 8435 7 8227
4  8423 6063 8436 8229
4  8437 8438 8328 8344
4  6584 6828 6829 6826
4  8437 8439 6059 8440
4  8437 8438 662 8440
4  8433 246 8441 243
4  8437 8442 663 662
4  7923 7971 7924 7972
4  8437 8218 6068 8344
4  8132 8342 7065 8443
4  8347 8349 6070 8209
4  6068 8348 8344 7826
4  8347 8209 8068 8064
4  6789 8343 6794 7526
4  8063 146 8064 75
4  8166 6954 8165 6955
4  8064 8349 8209 8444
4  8064 143 75 146
4  8064 143 8385 75
4  6784 7418 6785 7416
4  6513 6510 7662 6511
4  8433 8083 8049 8332
4  8065 8101 8366 8383
4  8006 8363 7874 7873
4  8431 311 8433 8083
4  8354 312 8445 317
4  8100 8103 8366 8101
4  8063 8065 8072 8066
4  8431 8082 8080 8083
4  8392 8425 8247 8398
4  8431 336 8080 8446
4  8431 614 336 8446
4  7904 7905 6064 8325
4  7191 7297 7333 7298
4  8431 8447 8332 8352
4  8242 7942 6065 8241
4  6829 6093 6418 6826
4  8242 8244 7975 8
4  6375 7647 7214 6374
4  6094 8355 6408 7980
4  8023 6791 7888 6790
4  8242 579 7943 8244
4  6720 6728 6918 6919
4  8242 82 8401 579
4  7942 8448 8242 6065
4  6524 6152 6526 6521
4  8242 6065 8448 8436
4  6189 115 6514 8449
4  6857 6863 8369 7892
4  8066 8365 8450 8383
4  6281 7848 8368 8372
4  7805 7753 7819 7536
4  7310 7397 7309 7395
4  7849 8360 8368 7848
4  8064 8444 8209 8065
4  8066 8450 8365 8072
4  6820 6823 7589 6819
4  6246 6250 7650 6245
4  8066 382 8450 8072
4  8066 76 8384 382
4  7806 8022 7538 7950
4  8066 8065 8383 8444
4  8438 689 8451 8452
4  6345 8335 8101 8337
4  8438 690 689 8452
4  8438 8440 8453 662
4  8437 663 8404 620
4  8438 8440 8454 8453
4  6933 7671 6939 7670
4  8438 8437 8328 8454
4  8438 8455 8328 8344
4  8080 8084 7120 8192
4  8431 8080 8082 8447
4  7125 8080 336 91
4  6437 6721 6439 6440
4  8080 8082 8447 8192
4  6920 6801 7810 7991
4  6174 8028 6793 7993
4  7062 518 100 98
4  8080 90 336 91
4  8080 8190 90 91
4  7943 8272 8456 577
4  6161 6158 6167 6163
4  6158 7810 7908 6916
4  7943 8272 7869 8456
4  7943 7944 8272 8273
4  6787 6791 6790 6794
4  8242 8448 7943 8401
4  6170 6794 6792 7526
4  7935 7669 8262 6898
4  7942 7944 7943 8448
4  6159 6171 6158 6162
4  6062 6063 7979 6064
4  6113 8217 6827 7906
4  7943 579 8456 8244
4  8177 8457 8450 8458
4  8066 8383 8065 8365
4  6094 7980 8353 8355
4  8450 8179 8459 8072
4  8450 8179 8177 8459
4  8450 382 8179 8072
4  8066 8072 8365 8065
4  7448 7613 7611 6553
4  8450 702 8457 700
4  8450 8383 8365 8458
4  6669 6249 6673 6676
4  8451 8453 8309 7910
4  6777 7430 7181 7182
4  8451 689 8453 8460
4  8438 8309 8451 8453
4  8451 7910 8132 8443
4  7534 7508 7805 7536
4  7418 7420 7510 7419
4  6865 7743 7421 7513
4  8451 328 8443 8461
4  8451 8461 698 328
4  8451 8462 8309 8455
4  7585 6343 6346 6348
4  7737 6204 6562 7566
4  7737 6652 6715 6072
4  6206 6563 6978 6210
4  7089 6080 6072 6083
4  6202 6178 6211 6089
4  7629 6203 6321 6035
4  6070 8337 8349 8350
4  6203 7737 6036 6034
4  7737 6036 6034 6072
4  6202 6203 6205 6036
4  6068 8346 8350 7826
4  8272 781 780 577
4  8400 8398 8392 8386
4  8392 7862 8398 8247
4  7943 8272 577 8273
4  8272 8463 7869 8456
4  8272 8427 8463 8456
4  6829 8200 8215 8216
4  8272 781 8425 780
4  8272 7869 8247 7944
4  8083 336 311 244
4  8272 8427 8392 8463
4  6406 7002 6414 7000
4  6062 7979 6997 7904
4  8080 8082 8192 7120
4  6962 8079 8421 7082
4  8084 8464 7121 8191
4  7125 8084 7901 7119
4  8197 8150 8006 8363
4  7351 8465 7356 7352
4  8336 8337 8410 8335
4  8084 7119 7121 8464
4  8084 8464 50 7901
4  8084 340 50 8466
4  8084 7120 8192 8191
4  6342 8337 8350 8410
4  6181 6186 7919 8394
4  6189 6514 6363 8299
4  6189 6514 8299 8449
4  6189 6882 6516 6188
4  6882 6514 6363 6189
4  6189 879 288 6182
4  6249 6250 7651 7650
4  8443 8467 8468 8460
4  8467 8468 8342 8443
4  8451 8443 8132 8462
4  8443 8468 8342 7922
4  8443 71 7922 8469
4  8443 70 71 8469
4  6406 6998 7981 6999
4  8443 8133 8132 8462
4  8183 8195 6849 6313
4  8183 8263 8351 8195
4  8464 8185 50 7901
4  8464 8470 8185 7901
4  8470 8185 8184 8464
4  6914 6920 6166 6916
4  6156 6153 7888 6155
4  6148 6790 6153 7993
4  6146 6152 7108 6153
4  6164 6227 6522 6719
4  7125 8081 7120 7119
4  8464 52 342 8188
4  8464 7121 8191 8351
4  7121 8184 8263 8464
4  6752 6725 6727 7725
4  6755 7524 6802 6789
4  6925 7878 7337 7338
4  6556 8397 6554 7106
4  6556 6554 8397 8382
4  6635 7774 7953 7773
4  6633 7137 7697 7134
4  6635 6636 7773 7697
4  7132 7133 8048 7134
4  6555 6556 6557 6558
4  6556 8223 486 736
4  7134 7135 7678 7697
4  6556 6559 7337 7106
4  6312 8035 8210 7829
4  6176 171 462 170
4  7922 8342 7756 8468
4  592 6620 734 594
4  7065 8342 7757 7922
4  8443 7922 7065 8133
4  7062 6383 8407 7061
4  7922 7757 7923 7756
4  6610 6913 6796 6611
4  6235 7945 6231 6985
4  775 772 860 8274
4  7922 8133 8469 8163
4  8356 7757 7706 7709
4  7922 7923 407 7756
4  7922 7924 329 407
4  7922 8469 7924 8163
4  7922 8163 7065 8133
4  6089 6211 6323 6733
4  6805 8255 6040 716
4  7055 7129 6412 6411
4  8257 6805 6088 8389
4  6805 8255 6038 6040
4  6805 8255 6088 6038
4  6699 8240 8235 6695
4  6699 8235 7948 7949
4  8047 8240 6695 8056
4  6518 6805 6040 718
4  6805 718 7024 719
4  6805 6088 8389 7092
4  8108 234 8358 236
4  8108 6485 8358 6976
4  8106 8419 8208 8113
4  8108 236 6485 8110
4  7213 7081 7079 7212
4  7079 7153 7997 7791
4  8108 234 235 8417
4  8106 8113 8416 8419
4  7213 7153 7648 7215
4  7687 7085 7684 7926
4  7683 7687 7518 7684
4  7556 7687 7887 7555
4  6058 6069 6060 6070
4  8344 8437 8348 6068
4  6342 8345 8336 8410
4  6341 6342 8209 6070
4  6341 6070 6344 6069
4  6481 8299 6482 6483
4  6239 6986 6187 6987
4  6066 8340 6069 7705
4  7145 7207 7146 7144
4  7143 7145 7853 6411
4  6411 7749 7853 8033
4  6411 7145 7853 6410
4  6302 6457 6458 6305
4  6839 7923 7757 7756
4  7143 7146 7208 7144
4  7953 7887 7890 7684
4  7556 7688 7686 8005
4  7064 7066 8292 7094
4  7677 7679 7678 7890
4  6122 7923 7757 6839
4  7922 7923 7757 8163
4  7923 6122 6838 6839
4  7923 6838 863 6839
4  7923 408 7972 7924
4  7923 7971 7757 8163
4  6479 6485 568 6486
4  6082 6685 6073 6083
4  6715 6646 6072 6652
4  6485 6486 6974 8110
4  6484 8306 6485 6974
4  8108 8110 6485 8306
4  6173 377 275 997
4  6485 236 6486 8110
4  6437 6439 6720 6919
4  6485 567 236 8358
4  8108 8306 6976 8416
4  6756 6757 7027 7018
4  204 598 558 7069
4  6329 8032 8381 8291
4  6383 7956 8407 7957
4  6757 7017 7027 7018
4  179 514 598 6500
4  6042 8013 6045 6044
4  6492 6500 6047 514
4  6756 6275 7676 7027
4  6756 6758 6757 7018
4  7635 7017 7019 7641
4  7635 7732 7017 7641
4  7044 6757 7636 6759
4  7635 7636 6757 7877
4  7044 7018 7601 7019
4  6758 7044 7018 7601
4  6514 114 8449 115
4  8299 6482 6483 6514
4  7935 7937 7093 8161
4  7474 6244 7476 7785
4  6491 6496 6050 6493
4  6109 6107 585 6239
4  6048 191 1035 6044
4  7062 8406 8222 100
4  6619 489 191 592
4  6189 8299 6363 8394
4  6514 6516 6882 6515
4  6849 6361 6499 8194
4  7385 7710 7754 7392
4  7385 7390 7388 7177
4  7577 6502 7579 6512
4  8183 898 6849 8187
4  6442 7257 6448 6443
4  8096 8206 8360 8334
4  6280 8368 8078 8372
4  7577 7576 7747 7690
4  6786 7443 7420 7255
4  7079 7212 7153 7213
4  8183 8464 8351 8263
4  7714 7802 7583 7495
4  6849 8194 6313 8195
4  6849 918 8187 898
4  7470 7152 8058 8043
4  6849 918 754 8326
4  6838 6127 6780 7973
4  7544 7651 7137 7724
4  7923 7971 6838 6122
4  6123 772 6838 863
4  6243 6246 6249 6257
4  6838 7973 6122 7971
4  6838 860 7972 863
4  6256 7152 6247 6248
4  7544 7137 6633 7136
4  6838 860 772 8274
4  8127 7061 6496 6235
4  638 637 8471 644
4  7757 7971 7066 8163
4  6947 7382 7437 7623
4  7277 7623 7464 8260
4  8356 7757 6122 7706
4  6106 8324 8173 8300
4  6518 6520 1004 462
4  7277 7283 7623 8260
4  6175 463 171 1024
4  7277 7624 7925 8125
4  7674 7463 7464 7807
4  6948 7832 7674 7465
4  7464 7807 7463 8125
4  8185 8470 8232 139
4  8260 7464 7277 7809
4  6313 8194 8193 8195
4  7508 7753 7536 7509
4  7318 7244 6504 7397
4  7578 7931 7579 7319
4  7556 8005 7558 7890
4  874 885 8472 922
4  7277 7809 7378 8260
4  6784 7420 7419 7431
4  8110 1036 8115 416
4  6273 8372 8078 7082
4  6558 6555 6556 542
4  6554 6803 7107 6525
4  8107 885 8116 8472
4  6554 6803 6525 8473
4  6925 6556 7878 8223
4  6556 7106 7878 8397
4  6679 7788 6990 7825
4  6381 7068 6392 6383
4  6556 486 542 736
4  6833 539 541 936
4  7109 6711 7496 7486
4  7470 7473 8058 7790
4  6282 6575 7785 7490
4  6633 7136 7224 7544
4  6555 8382 542 539
4  7125 91 336 630
4  6574 7785 6576 7784
4  7474 7489 7785 7476
4  7580 7657 7473 7790
4  6833 8473 6554 539
4  6746 6747 6748 6621
4  6746 7029 6747 6621
4  6618 6798 7114 8104
4  6877 8299 6514 6482
4  6618 943 6748 194
4  6618 6748 943 7095
4  6190 7851 7131 7850
4  6190 6236 6193 7131
4  6458 7850 6305 8017
4  6618 6619 7114 7096
4  6618 8104 7114 6620
4  8064 143 146 8430
4  7377 7573 7574 6659
4  8197 8327 8364 8366
4  6653 7263 7377 7376
4  6866 7618 6935 7619
4  6621 7029 7987 7030
4  6622 6798 7987 6621
4  8272 8427 577 780
4  7278 6254 6251 6253
4  6714 7343 7567 7334
4  7045 7279 7278 7282
4  7474 6244 6574 6283
4  8400 8411 8398 8399
4  7858 7863 7866 7865
4  6947 7463 6370 7624
4  7192 7297 7764 7501
4  8155 8156 7343 7884
4  6559 448 771 486
4  8326 6361 6358 6849
4  6337 6338 7371 7854
4  7127 6464 7894 6922
4  6661 7270 7371 7370
4  7550 7771 7284 7552
4  7358 7007 7128 7127
4  6747 6621 7095 6748
4  6354 6450 6326 7104
4  6213 8270 6573 822
4  6618 6798 6621 7095
4  6621 7030 6622 801
4  8034 6329 7124 6216
4  801 6618 594 6622
4  6243 6257 6248 7784
4  6683 6588 8045 7903
4  6355 6362 8277 1011
4  6383 8407 7956 8221
4  6618 943 6619 7096
4  6355 8277 6361 6358
4  488 514 6047 490
4  6200 6232 8408 507
4  6111 8207 8323 8324
4  6335 6336 941 6175
4  6564 6356 6678 6220
4  6805 6040 718 716
4  6071 6036 6080 6072
4  6583 6362 526 6586
4  8255 8256 6039 8395
4  526 6355 1011 6362
4  6355 6356 526 33
4  8183 6850 342 8185
4  6362 6588 6357 8046
4  6362 6357 8277 8046
4  8184 8263 6312 6309
4  8084 8190 8466 8191
4  6358 1011 6355 8277
4  7390 7709 8142 7391
4  6564 6566 6573 6568
4  6127 8274 6781 7973
4  6362 6586 1011 526
4  8451 8452 8461 8462
4  6356 25 6354 6219
4  7005 6924 8034 7124
4  6220 6356 529 528
4  6578 6579 6084 6085
4  6686 742 962 870
4  6356 6219 529 25
4  6835 7448 6550 7642
4  6751 829 851 939
4  8277 6355 6357 6362
4  6183 6239 6188 877
4  33 6355 1011 526
4  6707 6708 6696 6108
4  8183 8188 8195 8351
4  8464 52 50 342
4  8119 6317 8075 8280
4  941 6175 1024 6335
4  6175 6336 941 171
4  6086 171 6175 6176
4  6175 462 6518 6176
4  8050 8380 6531 7327
4  8328 8331 8455 8311
4  6079 6180 6175 6085
4  6335 6579 8094 6581
4  6061 8428 6069 8474
4  8057 6085 8094 6335
4  7403 7409 7489 7474
4  6578 6082 6336 6335
4  6392 7527 8221 7956
4  6086 6082 6335 6336
4  6175 6176 171 462
4  6799 6163 6801 6158
4  6649 6741 6740 7332
4  7229 6497 6498 6495
4  6175 6335 8057 1024
4  6577 6335 941 6581
4  6114 6185 7703 7906
4  6768 6766 994 1025
4  6767 6766 1025 187
4  7184 6117 6427 6118
4  6767 6761 7101 6125
4  6768 6127 6781 6760
4  6768 6701 7102 7028
4  8216 6094 6095 8353
4  8080 8192 8447 8446
4  8082 8447 8192 8211
4  6768 6760 6781 7102
4  222 48 223 6969
4  6704 6707 6763 6764
4  6763 6767 6760 6761
4  6767 6768 6127 6769
4  6097 6964 6428 7110
4  8309 8462 8311 8455
4  7709 8357 7391 7389
4  6768 7028 1025 994
4  7910 8309 8132 7911
4  6392 7527 7995 8221
4  6766 1025 187 994
4  6214 431 6215 822
4  6221 6215 6216 6213
4  8189 6215 7124 6221
4  6432 6434 6437 6436
4  8189 7124 8037 6326
4  7164 7551 7358 7286
4  6221 6215 7124 6216
4  6214 6354 25 6219
4  8290 8186 7968 8282
4  8007 8008 7352 7351
4  6221 6326 6354 6219
4  8034 6329 6216 8291
4  6174 6173 8028 6489
4  7164 7165 7166 7551
4  6213 6573 6219 6220
4  6226 6173 8028 6174
4  8386 8391 8286 8399
4  6771 6772 909 949
4  6771 949 6173 6772
4  8155 8386 7893 7344
4  6168 6162 6159 6174
4  6168 6078 6771 6772
4  7037 8055 7038 7021
4  6076 6792 6174 6226
4  6174 6489 7993 6162
4  6181 6182 8394 7919
4  7322 6531 8475 6826
4  6532 6533 6531 6825
4  6489 6173 8028 6490
4  8082 8192 8212 8211
4  6174 7993 6489 8028
4  6055 8472 6958 6276
4  6075 6983 6077 6076
4  6173 997 8028 377
4  6862 8323 8207 6856
4  997 6226 6173 8028
4  6172 6772 949 856
4  6172 6173 377 949
4  7118 7526 6792 7995
4  6227 6722 6730 6222
4  7403 6112 6145 6282
4  6670 6195 6523 6196
4  6949 6952 6951 7331
4  7118 7526 7995 7527
4  8028 6490 6729 6489
4  6718 6227 6164 6719
4  6172 6979 856 950
4  6159 6172 6173 6490
4  6730 6979 6490 950
4  6109 585 584 586
4  6490 804 803 377
4  6486 6974 6980 6388
4  6148 6149 6729 7108
4  6148 6161 6790 6162
4  6148 6161 6153 6790
4  6490 8028 804 377
4  6174 6792 6170 6793
4  6174 6162 7993 6793
4  6492 6496 6235 6050
4  6878 8267 6966 6353
4  8134 645 518 502
4  6882 6516 6188 929
4  6492 514 179 6500
4  6492 514 488 179
4  7063 6492 6500 6494
4  7062 7063 8134 518
4  6492 6046 488 6050
4  6492 7063 179 518
4  6197 6619 6048 6198
4  6486 6980 810 553
4  6966 7841 6967 6968
4  6197 489 6619 592
4  6977 7843 6967 7841
4  6517 552 6980 553
4  6492 488 6046 502
4  6049 6201 6050 6235
4  7248 6389 7250 7159
4  8374 8079 8375 8421
4  6049 6234 6199 6198
4  6049 6234 6201 6235
4  8134 6492 7063 7061
4  8110 6974 8393 616
4  8110 416 616 1036
4  6491 6492 6496 6494
4  6492 7063 6500 179
4  7063 98 6384 204
4  7474 6244 7785 6574
4  6238 6048 6619 6198
4  8208 7082 8421 8419
4  6618 7096 6798 7095
4  6748 943 7095 764
4  6618 6621 6798 6622
4  6425 8162 6388 7158
4  6618 194 6619 943
4  6619 191 7096 943
4  6619 6198 6620 7114
4  6619 592 194 594
4  6972 8115 6973 8116
4  6381 7331 7068 7069
4  6381 6382 6384 7069
4  6382 6500 7063 7069
4  7560 7557 7693 7562
4  6384 520 558 204
4  416 8110 8105 8115
4  6382 6384 7062 6383
4  6384 98 6386 520
4  7248 6389 7013 7250
4  6724 6158 6171 6162
4  6286 8295 8089 6291
4  6532 7325 7189 6533
4  6799 6169 6170 6162
4  8109 8113 6972 8162
4  6485 567 8358 6975
4  6108 584 8276 586
4  6799 6789 6788 6163
4  6516 7014 929 6882
4  6799 6802 6800 8024
4  6724 6727 6799 6169
4  6752 6077 6078 6075
4  6480 117 471 553
4  6386 520 757 6387
4  6381 7069 6384 6387
4  6386 519 757 520
4  6385 6386 6384 98
4  6983 6075 6386 519
4  6189 6182 8449 8394
4  6390 7014 7013 6981
4  6514 114 117 6483
4  8189 295 8157 8264
4  6189 8394 8449 8299
4  877 6987 929 522
4  6213 6217 6219 6218
4  7899 884 821 484
4  8264 6215 8189 295
4  6215 6927 484 295
4  7897 7899 6215 6216
4  7157 7158 6389 7159
4  616 1036 810 8393
4  6388 7158 6980 6389
4  6215 6216 6213 7897
4  6881 6882 6284 8031
4  6517 553 471 552
4  6981 472 552 471
4  7897 822 6215 821
4  6516 6515 6390 6882
4  6189 879 6188 115
4  6877 7843 8294 8299
4  929 6188 6882 6987
4  6589 6507 6597 6595
4  6965 8373 6350 6351
4  7088 8420 8257 669
4  7010 6286 8089 6291
4  8306 8373 6967 6976
4  8255 47 531 46
4  8266 8089 8295 7840
4  6486 8393 810 6980
4  8255 8420 46 669
4  6516 7014 6981 472
4  6806 6179 7393 7024
4  8255 6039 8256 6038
4  6480 117 6514 115
4  1006 6183 6181 879
4  8255 6040 531 6038
4  6751 8117 829 7886
4  6239 6986 6987 522
4  6188 877 929 470
4  6736 896 8405 955
4  7965 6734 6736 6737
4  6708 6109 6761 6696
4  6239 585 521 877
4  7007 6922 6924 6923
4  7097 6734 6736 944
4  6738 6735 6736 6734
4  6213 6221 6214 6219
4  7164 7128 7358 7284
4  6737 6739 6734 6735
4  7897 8270 7898 8293
4  6194 6185 6196 6553
4  7097 7886 6736 6738
4  7191 7298 7195 7299
4  7893 7884 7343 7766
4  6569 6687 6570 8147
4  8179 261 267 268
4  6647 8243 563 792
4  8156 6637 6647 6644
4  265 790 8062 262
4  6187 6240 6242 6986
4  6647 1032 793 6081
4  6647 6645 6646 6073
4  6108 7921 6110 7919
4  585 1006 6110 584
4  6239 6987 6188 877
4  6882 7014 6390 6516
4  6188 879 470 115
4  6646 6647 6637 6644
4  6645 6647 6569 6073
4  6413 6415 6405 6418
4  8422 7977 7976 666
4  6431 6428 6102 6964
4  6862 6856 8334 6863
4  6081 6684 6647 6073
4  6087 6033 6038 6088
4  6518 6176 6041 6179
4  8197 8363 8365 8366
4  7911 7952 8471 7348
4  6518 6176 900 6041
4  6032 6038 6087 6033
4  8347 8349 8430 8403
4  6151 6150 6728 8027
4  8255 531 6040 716
4  6518 6040 6041 900
4  6724 7810 6727 6726
4  6847 6849 6855 6850
4  6849 8183 6313 6855
4  6850 8185 432 342
4  8117 7990 8396 7983
4  6850 438 432 441
4  6847 438 6850 6855
4  6850 6855 8210 8184
4  6558 542 486 771
4  6928 296 8157 6929
4  6928 296 448 295
4  6925 6927 6559 486
4  6215 8264 6927 295
4  7106 7878 8397 7896
4  7162 6462 7167 6460
4  6927 6559 486 448
4  6065 6064 8246 8448
4  6847 6849 6359 6855
4  6079 6085 6178 6180
4  6849 6313 8194 6499
4  6354 6355 6360 6359
4  33 1011 6355 6358
4  6979 856 950 947
4  6114 6194 7852 7703
4  6358 8326 754 755
4  6057 8372 7082 8371
4  7157 6870 7252 7251
4  6361 7042 6499 8194
4  6359 7034 6848 6855
4  6068 8350 6342 6070
4  6359 6360 7034 6499
4  8354 8352 8237 8445
4  6359 6313 6849 6499
4  6360 6361 6357 6499
4  8431 8352 8434 8447
4  7164 7358 7550 7284
4  7862 8247 7863 8398
4  6848 25 6358 729
4  8042 7965 6742 7356
4  6358 6354 33 25
4  8183 6849 8195 8187
4  6358 755 754 33
4  7335 8146 7766 7763
4  7194 8146 7335 7763
4  8177 8458 7873 8457
4  8175 8180 7873 7875
4  7157 7254 7251 7252
4  7191 7333 7297 7300
4  7882 741 6647 563
4  7191 7336 7195 7298
4  6723 6137 498 495
4  7861 7335 8044 8144
4  8113 8421 8373 8416
4  8114 8208 6972 8113
4  8266 8089 7840 8267
4  7334 7766 7893 7343
4  7861 7335 8146 7893
4  6202 6178 6208 6211
4  6091 8228 8445 8237
4  8400 8243 7883 565
4  6175 6335 6085 8057
4  6148 7108 6729 7993
4  6175 463 462 171
4  6857 7892 7015 292
4  8370 7015 8413 211
4  6177 6176 6041 170
4  6175 6179 6520 6180
4  6518 900 6176 462
4  6061 8476 6935 8477
4  6176 6041 170 900
4  8437 8440 662 620
4  8405 7965 8409 8465
4  8202 958 828 955
4  8405 8061 160 791
4  6261 818 7110 223
4  8405 921 791 896
4  8405 6737 8409 7965
4  6948 7220 7646 7675
4  7858 7194 7861 7860
4  8405 6736 7965 896
4  6149 6224 6729 7108
4  6225 6160 6227 6149
4  7108 6521 6149 6224
4  8243 8155 7884 8156
4  6833 539 6554 6555
4  6225 6730 6227 6160
4  7882 741 563 817
4  7760 7876 7762 7795
4  8243 7883 565 468
4  8243 792 890 468
4  8243 6644 8155 8156
4  8243 6647 8156 792
4  6067 8339 6932 7826
4  8185 8232 8361 434
4  7569 7571 7305 7352
4  8392 8411 8425 8398
4  6364 6263 6371 6366
4  8183 8351 8464 8188
4  6063 8229 7979 8436
4  8185 7901 139 50
4  6069 7699 8474 6346
4  8185 8470 8361 8232
4  8169 8258 7202 6477
4  8185 432 434 8361
4  6850 8185 8184 432
4  8209 8349 8337 8444
4  8065 8444 8101 8383
4  8185 8184 8361 8470
4  6838 6121 6839 6122
4  8114 6961 8472 8116
4  8208 8371 7082 8419
4  6123 6839 6838 6121
4  6839 7756 456 407
4  6839 8269 910 915
4  8106 8418 8419 8417
4  6123 910 6839 6121
4  6839 6121 8269 8356
4  7088 6104 6105 8420
4  6350 8373 8113 8421
4  8113 8419 8421 8416
4  6149 6225 6729 6224
4  6166 6167 6918 6728
4  8175 7967 8180 7875
4  6889 7355 7314 7452
4  8007 7352 8062 8465
4  6736 920 896 944
4  6104 221 223 222
4  8365 8458 8383 8366
4  6259 289 6103 6859
4  6097 6104 6105 6098
4  6674 7610 6675 6676
4  6947 6370 7382 7624
4  6106 6098 6118 6105
4  6104 6105 8420 222
4  8170 8478 7891 6269
4  6104 6261 6102 6097
4  6062 6998 6999 8199
4  6258 6103 608 6104
4  7209 7778 6457 7664
4  7933 7850 8017 7934
4  7934 8002 8009 7850
4  7923 6838 7971 7972
4  6302 6455 6458 6456
4  6119 6123 6838 6121
4  6838 6122 7973 6780
4  6780 6127 6125 6760
4  6119 6780 6127 6125
4  8066 8385 8444 8383
4  6126 8274 772 775
4  8100 8065 8365 8169
4  6032 6041 6040 900
4  187 1025 6767 6126
4  6127 6780 7973 6781
4  6716 6717 8285 7867
4  7532 7751 7412 6832
4  6625 6832 6830 7059
4  7532 7751 7750 7412
4  6623 6624 6630 7543
4  6624 6625 7433 7543
4  7345 6896 7432 7346
4  6458 7131 6305 7850
4  7209 7211 7514 7733
4  6458 8016 6192 7850
4  7199 7302 7569 7504
4  6123 6124 970 910
4  6769 775 6126 1025
4  6486 568 553 616
4  970 971 6124 6126
4  7691 7692 7818 7819
4  772 6126 6123 6838
4  7677 7679 7558 7746
4  7133 7679 7746 8048
4  6838 8274 772 6126
4  6512 6503 7579 7739
4  7577 7692 7579 7693
4  6501 6513 6509 7564
4  6126 6769 6127 8274
4  6784 7431 7255 7420
4  7535 7602 7509 7537
4  6857 121 123 292
4  6857 8412 292 7015
4  6260 682 8412 6860
4  6429 6860 6861 6431
4  6259 121 6857 6260
4  7714 7583 7802 7712
4  6154 6161 6728 6156
4  7402 7479 7399 7583
4  7471 7582 7489 7472
4  7471 7580 7473 7790
4  6516 115 470 471
4  6745 6743 6750 851
4  8117 7983 7982 7990
4  121 289 683 6260
4  8117 8186 7983 8396
4  938 6746 939 6748
4  6748 764 194 943
4  6215 295 484 821
4  820 822 984 8270
4  722 723 8479 6056
4  6583 6678 6588 6587
4  7398 7109 7487 6709
4  6861 7015 6860 6857
4  962 870 6582 6686
4  6569 6572 8147 6570
4  6857 8412 6260 121
4  6569 8271 6572 6571
4  7199 7504 7569 7350
4  8412 8164 6056 722
4  8412 8164 292 7015
4  6713 6704 6707 980
4  6108 7921 7425 8276
4  8412 6056 6860 8480
4  6260 121 8412 682
4  6108 8276 6110 7921
4  6697 7020 7424 6696
4  7883 8426 7885 7884
4  6569 742 743 6570
4  8400 563 565 564
4  8386 8398 8391 8399
4  7883 8427 780 391
4  7883 467 391 468
4  7883 8155 8426 7884
4  6187 6242 6284 7947
4  6181 7919 6110 6182
4  7199 7304 7302 7201
4  6109 585 586 521
4  8061 8465 8007 8062
4  8061 8176 161 265
4  7966 8405 8061 160
4  8061 790 265 791
4  7966 750 955 160
4  8117 829 830 7990
4  8202 958 8203 8396
4  8061 8007 8465 8409
4  8202 8186 8396 8203
4  8405 8061 791 8409
4  6734 1033 944 7097
4  7977 6063 6999 8199
4  6516 472 6981 471
4  7501 7764 7623 7283
4  7503 7772 7625 7271
4  7166 7550 7772 7503
4  472 7014 929 6516
4  6189 6188 6516 115
4  7506 7769 7458 7264
4  8438 8452 8455 8442
4  7506 7267 7461 7505
4  7115 6816 7793 7341
4  6482 6480 6486 6479
4  6516 6188 929 470
4  6517 6516 6515 6390
4  6480 6516 6517 471
4  7664 7778 8016 7665
4  8134 8407 8406 7946
4  8370 8164 6057 7015
4  8107 8164 8472 8414
4  8164 6056 8414 6057
4  8412 8164 7015 6056
4  6384 7069 558 6387
4  8164 8479 8414 6056
4  8332 8447 8211 7918
4  8412 8164 722 292
4  6499 8194 7042 7043
4  7756 458 7365 457
4  6667 7726 7295 7370
4  6667 7371 6338 7370
4  6536 8050 7327 8160
4  7923 6839 407 7756
4  7232 7231 7632 6660
4  6215 6216 8264 7124
4  6658 7290 7376 7831
4  6653 6654 7269 6655
4  7756 8468 458 71
4  7756 7365 8342 8357
4  6840 6201 6234 6233
4  7756 458 457 456
4  6839 7756 8356 456
4  7629 7738 6251 7737
4  7050 7051 7282 7879
4  7236 7629 6035 7051
4  7756 8357 8356 456
4  6393 6399 6959 6400
4  8463 7885 8146 7763
4  6442 7256 7445 7257
4  7044 7510 7636 7753
4  8463 7869 8456 8241
4  6395 7468 7652 6396
4  8463 8145 7763 8146
4  7199 7304 7198 7302
4  7897 821 820 822
4  6803 8473 7821 6525
4  8463 389 8456 8427
4  8463 8456 389 8481
4  6925 8223 7907 485
4  8463 8456 8481 8241
4  7083 7202 7303 7196
4  7899 884 7907 7898
4  7897 820 8270 822
4  6223 6230 6149 6522
4  7897 7900 8293 7898
4  6138 6130 6230 6522
4  6223 6227 6522 6149
4  6136 494 6229 358
4  8176 8062 8178 8482
4  7886 828 829 944
4  584 586 980 8276
4  6223 6229 355 1018
4  6761 6240 6696 6109
4  6487 6229 1018 358
4  6181 6110 1006 6182
4  6189 6516 6882 6514
4  8084 340 8190 91
4  8084 7120 8191 7121
4  6081 6637 6647 1032
4  7901 7119 8232 8085
4  7136 7137 6633 7132
4  7901 139 649 131
4  7125 649 7901 91
4  7677 7681 7557 7887
4  7556 7684 7687 7688
4  8185 7901 8470 139
4  7901 8232 8470 139
4  7191 7299 7192 7298
4  6601 7226 7323 6600
4  7243 6508 6502 7575
4  7318 7362 6508 7317
4  7310 7396 7395 7312
4  7243 6508 7575 7316
4  8106 8417 235 724
4  8108 8306 8416 8113
4  8356 7709 7389 8357
4  6107 6187 6239 6240
4  6189 879 115 288
4  6188 877 6987 929
4  6987 929 7014 6882
4  8443 8462 8461 8133
4  6183 6239 877 585
4  6516 115 6188 470
4  6850 898 342 432
4  8105 8106 8108 235
4  432 434 8361 441
4  8454 8328 8309 7672
4  8370 8107 8164 211
4  8451 8455 8452 8462
4  329 70 8469 71
4  8114 8107 8105 8116
4  8107 8105 8116 413
4  8107 8414 8472 8114
4  8164 8107 874 211
4  8176 261 262 8482
4  7088 8323 8220 8173
4  531 905 47 6039
4  7966 7875 8175 8231
4  8257 8219 8387 8389
4  6805 719 7024 8387
4  8176 8179 700 261
4  8176 8482 8178 261
4  8176 261 265 262
4  8342 7365 7391 8357
4  8176 8007 8178 8062
4  70 698 8461 328
4  8438 8344 8442 8455
4  7119 8085 7523 8232
4  340 90 8190 91
4  8061 8176 265 8007
4  7189 6533 7426 7187
4  6055 8479 8414 8472
4  6281 6052 6273 6280
4  6273 6962 8208 7082
4  6272 6279 6275 7026
4  6274 6956 6277 6960
4  6055 8414 8479 6056
4  6709 7100 7546 6880
4  8257 8219 8389 8173
4  7398 6648 7399 7402
4  8456 8241 8478 8481
4  8456 60 389 8481
4  8134 8406 8408 7946
4  7062 8221 8222 8407
4  8463 8241 8481 8145
4  8463 8241 8145 7869
4  7943 578 8273 577
4  8179 267 8482 8258
4  6230 6521 6803 7821
4  8179 8072 382 268
4  8179 8258 8459 268
4  6556 736 8382 8223
4  8179 261 8482 267
4  8258 268 267 374
4  8202 6736 8405 955
4  896 920 7965 921
4  8177 8180 8457 7873
4  8202 7966 955 8405
4  8177 8175 7873 7872
4  8179 8459 8482 8178
4  8176 8179 261 8178
4  8072 8070 369 374
4  8072 8070 8071 369
4  8072 374 369 268
4  8177 8006 7873 8458
4  8063 8072 369 75
4  8072 8071 8258 8459
4  6479 6483 6975 6481
4  6485 6975 8358 6976
4  8179 8072 268 8459
4  8244 8483 363 364
4  7943 8242 8244 8241
4  8242 82 579 8
4  6882 6186 6363 6284
4  8244 7975 8 363
4  6983 7995 7994 7547
4  8244 8483 8245 363
4  8244 363 365 364
4  8456 60 8481 8478
4  6653 6656 6655 6660
4  8244 8245 8478 8241
4  7062 8222 8406 8407
4  8456 8244 365 8241
4  7398 6650 6709 7487
4  6756 7676 7445 7444
4  7125 8081 8380 630
4  6427 8171 6446 6448
4  6442 8268 6448 7257
4  8263 8279 8351 8195
4  6430 7445 6099 6431
4  7676 6275 6278 6279
4  8256 6324 8174 6088
4  7257 7256 7444 6786
4  8454 7673 7672 6893
4  8342 8467 8132 8142
4  8454 8453 8440 8484
4  6429 6863 6858 6856
4  8129 8174 8099 8300
4  6442 6431 7256 6428
4  7975 8483 7976 530
4  6103 8220 8323 6859
4  7975 8422 10 666
4  7975 7977 7976 8483
4  7975 8483 530 363
4  8440 6059 8477 304
4  8242 8244 8245 7975
4  7975 7977 8483 8245
4  8437 8348 8404 8344
4  8244 7975 363 8245
4  8067 710 8429 621
4  6983 22 7547 647
4  7191 7335 7195 7336
4  8067 8428 8474 8069
4  8067 536 8069 709
4  8063 8064 8066 75
4  7417 7602 7419 7509
4  8067 8428 8069 8068
4  7181 7429 7428 7379
4  8317 8318 8205 8324
4  6176 462 900 170
4  6777 7430 7182 7183
4  6364 7437 7382 6367
4  8063 8067 536 8068
4  8422 6417 253 674
4  8272 781 577 8273
4  8426 7766 7885 7884
4  7942 7944 8246 7866
4  8422 8359 674 8485
4  8422 676 674 666
4  6803 7821 6521 6525
4  8226 6996 6063 8229
4  8422 8359 7976 7977
4  6556 8382 736 542
4  8108 8416 8358 8417
4  8108 8416 6976 8358
4  7975 8422 666 7977
4  8068 8428 6070 8347
4  8429 960 8474 8476
4  6271 7195 7191 7194
4  8429 960 937 710
4  8429 8439 6060 621
4  8429 8439 937 6061
4  8429 6061 8474 8428
4  6911 6201 6045 6043
4  8067 8429 710 8428
4  8226 8422 8423 8359
4  6417 8485 8415 973
4  8226 6417 6996 6091
4  6983 647 276 274
4  6983 7994 6076 276
4  6771 276 275 274
4  6417 973 654 674
4  6259 421 6859 6858
4  6103 6859 419 8220
4  6417 8432 6091 253
4  6964 6260 6860 8480
4  6417 8432 654 6092
4  6417 6092 8415 8359
4  6173 6226 997 275
4  8422 6417 674 8359
4  7524 6392 7118 7117
4  6168 6172 6159 6171
4  6730 950 6490 803
4  6173 8028 6490 377
4  8439 304 937 303
4  8218 6060 6059 8437
4  6222 1018 807 6224
4  6060 8218 6068 8437
4  8429 937 8439 621
4  6137 6141 8030 493
4  6489 7993 6729 8028
4  804 8028 997 377
4  8429 6060 8439 6061
4  8439 6061 6059 8477
4  8359 7976 6999 7981
4  8427 390 391 7885
4  7942 7868 7869 7866
4  82 8435 7 8
4  8423 8227 8229 8436
4  8354 312 317 311
4  8439 8440 304 6059
4  6092 658 8415 8441
4  6417 253 674 654
4  8226 8422 6417 253
4  8432 8441 246 658
4  6091 6095 6094 8354
4  8405 955 896 791
4  6632 7209 7666 7512
4  6046 502 488 508
4  6417 6091 8432 6092
4  6417 654 8432 253
4  8432 8441 6092 7321
4  8432 8433 246 7321
4  6372 6379 6375 6374
4  6914 6918 6915 7003
4  6342 6070 8337 8209
4  8347 8430 144 8403
4  6718 6721 6720 6165
4  6914 7003 6919 6918
4  6151 6728 6720 8027
4  8110 235 236 416
4  8370 8418 8371 8419
4  6272 6052 6280 6273
4  8370 8371 8413 8369
4  6439 6719 6440 6721
4  8437 8439 620 6060
4  8370 8418 8413 8371
4  8440 6059 8484 8477
4  6230 7821 6224 6521
4  8440 8484 324 323
4  6128 6488 6136 6487
4  8438 8451 8309 8455
4  8439 304 8440 620
4  6377 7589 6378 6879
4  6223 6227 6228 6138
4  8440 6059 8454 8484
4  8453 8440 8484 324
4  8354 8432 317 6091
4  8433 8441 7321 8475
4  8433 244 246 243
4  8083 8431 8332 8433
4  8165 7524 7527 8321
4  8437 8348 6060 8404
4  8432 246 8433 317
4  8433 7321 8049 8475
4  8433 8083 244 8049
4  6936 6347 6069 7701
4  6479 118 568 6975
4  8438 690 8442 662
4  8453 8454 8424 8484
4  6962 8374 6963 6352
4  8468 71 638 458
4  8453 715 324 714
4  8451 8453 7910 8460
4  6631 6632 7421 6627
4  8438 690 8452 8442
4  8440 324 8453 662
4  8453 8424 8454 7910
4  6174 6793 6226 6792
4  6174 6226 6793 8028
4  8453 8460 715 7910
4  6172 6979 6772 856
4  6983 6771 6075 274
4  8468 644 638 8471
4  8431 614 8446 8434
4  8181 8200 8211 8319
4  7922 7756 71 8468
4  8468 8460 638 328
4  8468 8467 8471 638
4  8468 638 644 458
4  292 424 123 7892
4  7015 8413 7892 8369
4  7756 8468 8342 458
4  6229 355 1018 358
4  8468 8342 7365 8467
4  539 6554 6555 8382
4  8354 8433 8431 311
4  8083 8049 8380 8475
4  6718 6723 6142 7105
4  7492 6813 7109 7494
4  8083 244 631 630
4  6479 568 6485 6975
4  7125 8080 91 8084
4  6484 6976 6481 6975
4  8433 244 8083 311
4  6271 6268 6264 7299
4  8083 8380 8049 8081
4  7125 8083 8081 630
4  8145 7891 8481 7763
4  8451 698 8452 689
4  8460 8424 7910 8471
4  7943 7869 8272 7944
4  8460 638 637 8471
4  7943 8401 8448 7944
4  8443 8468 328 8460
4  7333 7336 7298 7621
4  6851 7700 7588 7876
4  8453 715 8460 689
4  6200 8408 6232 6231
4  8460 7910 8467 8471
4  8064 8347 8067 8068
4  8468 8460 8467 638
4  8450 8457 8384 8458
4  7942 8242 8448 7943
4  6744 990 8249 978
4  7191 7298 7333 7336
4  7943 8401 578 579
4  6414 6415 7703 7702
4  8272 8273 8247 8425
4  6744 1022 8249 990
4  6129 6833 6554 6555
4  6222 6224 807 6729
4  6488 358 936 541
4  1022 851 939 6743
4  6745 6744 8143 7111
4  6486 8393 6974 616
4  8068 8064 8065 8063
4  8039 6616 6735 8038
4  6486 616 553 810
4  6484 6974 6388 8306
4  6479 6484 6486 6482
4  7301 7769 7767 7302
4  8405 896 7965 921
4  6517 6482 6480 6486
4  6479 553 6480 6486
4  8108 6485 6976 8306
4  8105 8106 8107 8114
4  6486 8110 236 616
4  6648 7398 7400 7401
4  8110 8393 8115 1036
4  7713 7714 7799 7941
4  7232 7521 7269 7234
4  7288 6495 7290 6493
4  8110 1036 616 8393
4  8110 8109 8115 8393
4  6385 8221 7547 8222
4  6385 599 8222 7547
4  7125 649 648 8085
4  6486 6974 8110 616
4  7580 7581 7657 7790
4  7409 7404 7489 7582
4  7427 7522 7369 7608
4  8105 8110 416 235
4  6983 6076 7994 7995
4  6771 6173 275 6226
4  7326 7522 7427 7607
4  6771 6772 6075 909
4  7326 7426 7325 7480
4  7186 7187 7259 7523
4  8280 8248 8304 8279
4  6661 6664 6663 6666
4  6075 7725 6772 6725
4  6078 6075 6772 6725
4  6095 8352 7918 8353
4  7095 7113 6617 6614
4  7897 6216 8293 7900
4  6921 7337 6925 6559
4  6198 6620 7985 6232
4  6558 6557 6561 6560
4  6921 6928 6559 6927
4  6129 6803 6130 7107
4  6487 7821 6803 936
4  6833 6803 8473 936
4  6763 6705 6768 6766
4  463 462 1004 6520
4  6136 843 6488 6141
4  6129 6461 6557 7107
4  6833 6803 6554 8473
4  6521 6522 6130 6524
4  6227 6138 6522 6719
4  6357 7042 8277 8046
4  6487 7821 6230 6803
4  6361 8194 8326 7042
4  6849 8187 8326 8194
4  6777 7183 7431 7430
4  6140 843 6488 541
4  6399 6972 8162 6402
4  6487 1018 7821 936
4  6777 6778 6447 7428
4  6803 6130 6525 6521
4  6513 7640 7638 7662
4  6487 6488 358 936
4  6868 6872 7309 7310
4  6833 6488 936 541
4  8326 755 6358 8277
4  8295 7842 8296 8294
4  6285 6292 8308 8297
4  6189 6363 6186 8394
4  6390 6388 6391 6515
4  8394 8299 6363 8294
4  6977 6481 7843 8299
4  8306 8416 8373 6976
4  6848 6450 7104 7034
4  7403 7474 6145 7491
4  6678 6219 6354 6327
4  6373 7643 7442 6643
4  7109 6709 6880 6710
4  6356 33 6354 25
4  6848 438 6855 8210
4  7212 7081 7079 7078
4  7212 7214 7081 7150
4  6214 25 6354 7104
4  6221 7104 6354 6326
4  6921 8264 6924 8157
4  1037 431 295 8189
4  6868 7313 7309 6876
4  8105 8114 8109 8113
4  431 295 8189 6215
4  8264 6926 7124 6216
4  6925 6556 486 6559
4  8412 682 723 8480
4  8412 8480 6860 682
4  6350 8162 6965 6399
4  8370 8107 8208 8414
4  8162 6402 8393 7158
4  6394 6426 6396 6402
4  6403 6426 6402 7158
4  6403 6425 6399 6401
4  7637 7639 7753 7636
4  722 8479 723 922
4  7363 7810 7825 7811
4  7398 7487 7486 7399
4  6376 6642 7442 7614
4  7899 6927 8264 6926
4  7439 6675 7610 7611
4  7970 8246 6065 6064
4  7481 7798 7480 7582
4  8189 6924 7542 7124
4  7403 7404 7490 7489
4  7542 6924 8189 8157
4  7882 6647 8243 563
4  6637 6073 6081 6647
4  8243 6644 8059 8155
4  6073 6647 6637 6646
4  6597 6507 6505 6506
4  6409 6410 6468 7054
4  6299 6301 7730 7653
4  7203 7729 7207 7204
4  7206 7653 7730 7728
4  6476 6889 6888 7075
4  7742 7876 7695 7700
4  6644 7344 6652 6646
4  6644 7344 8156 6652
4  6279 6278 7445 6054
4  6644 8155 8156 7344
4  8106 8417 8419 8416
4  8202 8405 6737 8290
4  6053 7848 8334 8360
4  6734 6738 7097 6736
4  6752 6754 7725 6741
4  6735 6739 6734 6738
4  6955 7524 6755 6753
4  6650 7696 6651 6740
4  7330 7399 7479 7329
4  6843 6842 7291 6844
4  7330 7329 7479 7422
4  8405 8409 6737 8290
4  7326 7404 7480 7325
4  6112 6115 6467 7817
4  6737 8409 7965 8042
4  8183 8195 8188 8187
4  6357 6355 6356 6362
4  8049 8380 8475 6531
4  6737 8042 6742 6739
4  6737 8042 7965 6742
4  6848 7104 25 730
4  6848 8210 731 438
4  8464 8351 8466 8188
4  8183 342 8464 8185
4  6359 6313 6499 7034
4  6850 8184 8361 432
4  6479 6514 6483 6482
4  6855 8035 6312 7034
4  6709 7487 6712 6711
4  7115 7793 7116 7341
4  6822 7793 6821 7791
4  6855 6312 8035 8210
4  7139 7788 7614 7759
4  6194 7852 7704 7715
4  6249 6672 6673 7545
4  7409 7404 7582 7480
4  7220 7724 7218 7645
4  8433 244 243 8475
4  6255 6636 7651 6250
4  6702 7914 7781 7775
4  6855 8184 6312 8210
4  6839 8357 8356 8269
4  6124 6125 6995 6120
4  7923 408 7924 407
4  8269 910 915 914
4  6119 6125 6120 6780
4  6121 7706 6120 6423
4  6501 7243 6504 7318
4  6121 8269 7706 6423
4  7318 7317 7396 8026
4  6513 6503 7663 7564
4  6121 8356 7706 8269
4  7242 7243 7318 7244
4  6403 6401 6397 7251
4  6398 6973 6959 6393
4  6848 7104 8210 8035
4  7096 7097 6738 7095
4  6564 6583 6678 6356
4  7097 7886 944 6736
4  7160 7353 7252 7226
4  8440 323 324 304
4  6458 8016 6456 6192
4  8117 7990 830 8396
4  6458 7778 6456 8016
4  6458 6455 6305 7131
4  8202 6737 6735 8290
4  6738 7095 7112 6617
4  6623 7056 6629 6628
4  7664 7666 7778 7665
4  6302 6456 7780 6454
4  6734 6738 6613 7098
4  6738 6739 6613 6617
4  6082 6685 6083 6084
4  889 6637 6647 8156
4  6647 8156 792 889
4  6925 485 486 8223
4  6637 6074 8156 889
4  6113 6829 6827 8217
4  7882 6644 6645 8059
4  6569 7882 6647 6645
4  6637 6073 6072 6074
4  6628 7664 7057 7665
4  7056 7727 6629 7058
4  7056 7060 7059 7912
4  6073 6646 6072 6083
4  7380 6831 7411 7835
4  7056 6628 7057 6629
4  6723 495 6228 6137
4  6223 6230 6138 6229
4  8107 413 8116 885
4  6770 6718 6722 6165
4  6982 6722 6770 8014
4  7578 7930 7576 7694
4  6730 6722 6979 947
4  6165 6722 6982 6160
4  6491 6495 6496 6493
4  6168 6171 6078 6772
4  6822 7792 7548 6823
4  7078 7152 7155 7151
4  6243 6244 7784 6248
4  6138 6723 6228 6137
4  6249 6246 6671 6257
4  7209 7779 7778 7666
4  6718 6165 6770 7992
4  6172 6979 6160 6171
4  6628 7664 7514 7667
4  8309 8462 7936 8311
4  7669 8135 8311 7936
4  7710 7750 7751 7754
4  7433 6626 7432 6832
4  8132 7936 8462 8133
4  6722 849 8014 947
4  8468 458 644 7365
4  6624 7346 6626 6627
4  6068 8349 8348 8350
4  8312 8135 8330 8311
4  6748 801 194 938
4  6393 6399 6403 6402
4  6618 6620 6622 8104
4  6982 8014 6770 7992
4  801 938 7030 978
4  6770 849 7105 8014
4  6868 7225 6869 6873
4  7071 7101 6240 7039
4  6127 8274 6769 6781
4  7096 6614 6613 6043
4  1025 994 7028 995
4  6617 6613 6738 7096
4  6238 7096 6048 6043
4  7096 7095 6617 6614
4  6354 6219 6326 6327
4  8152 8122 8123 7407
4  6355 33 6358 6354
4  6625 7727 7543 6629
4  7179 7435 7434 7533
4  7098 7097 6738 7096
4  6938 6941 6893 7618
4  6628 6629 6630 7666
4  7096 7095 6614 6798
4  7433 7434 6831 7533
4  6625 7059 6626 6832
4  6810 7569 7768 7570
4  7199 7196 7303 7305
4  6723 6770 849 7105
4  8150 8363 8376 7874
4  8006 8458 8363 7873
4  6866 6867 7743 6852
4  7439 7611 7610 6946
4  7333 7622 7300 7766
4  947 6722 6979 8014
4  6479 553 568 117
4  6514 8449 6483 8299
4  6514 8449 114 6483
4  6722 6979 8014 6982
4  6479 6482 6480 6514
4  6350 8306 8162 8113
4  6974 7158 8393 6980
4  6160 6171 6982 6158
4  498 8030 6137 6723
4  6125 6761 7073 6760
4  7143 6411 7853 8033
4  6767 187 6126 971
4  7577 7740 6512 7739
4  6124 910 6121 8269
4  6119 6122 6838 6780
4  6872 7397 6509 7469
4  6767 6125 6760 6761
4  6125 7071 6120 7073
4  7225 7313 7227 7311
4  7297 7279 7765 7501
4  7333 7297 7300 7622
4  6125 6120 7071 6995
4  6124 970 523 971
4  7272 7270 7274 7503
4  8242 8401 8435 8448
4  7297 7764 7765 7298
4  7942 7868 7866 8246
4  7191 7193 7763 7300
4  6042 6046 6050 6047
4  7272 8003 7626 7274
4  7658 7456 7659 7455
4  7166 7167 7284 7502
4  6547 6548 6549 7625
4  6548 7503 7772 7625
4  7358 7284 7128 7552
4  6438 7359 6440 7163
4  7272 7625 7456 8251
4  7357 7449 6641 6545
4  7550 7371 7553 7770
4  7358 7007 7286 7008
4  7456 7659 7455 8003
4  7358 7551 7553 7286
4  7301 7505 7305 7855
4  6807 7349 6810 7570
4  8251 7456 7272 7656
4  6394 6875 6871 6397
4  7569 7302 7768 7504
4  6885 7461 7315 7507
4  7198 7769 7301 7302
4  6345 8102 8101 8335
4  8450 8458 8384 8383
4  6469 6470 6477 6474
4  7691 7820 7541 7690
4  6640 7834 7658 7457
4  6137 6142 8030 6141
4  7740 7692 7819 7739
4  7577 7692 7739 7579
4  6457 6304 7211 7733
4  6623 6628 6632 6627
4  6488 6129 6803 6487
4  6718 6227 6138 6723
4  7585 7760 7453 7716
4  6623 6625 7056 7060
4  7209 7511 7210 7779
4  6487 6129 6803 6130
4  6887 6884 6886 6905
4  6878 6484 6482 6388
4  6962 8421 8208 7082
4  6485 567 568 236
4  6485 6486 236 568
4  6521 6149 6224 6230
4  7637 7753 7639 7819
4  6142 6139 6131 6440
4  7310 8026 7312 7323
4  6512 7739 7663 6503
4  6104 222 8420 608
4  7484 7604 7723 7605
4  7052 7530 7053 7237
4  6128 6131 6142 6139
4  6137 8030 498 493
4  6718 6142 6721 7105
4  7638 7663 7739 7639
4  6513 7563 7564 7663
4  6142 6719 6721 6440
4  6113 6827 6143 7906
4  6172 6979 6171 6772
4  6872 7469 7309 7397
4  6157 6148 6162 6161
4  6441 6428 7183 6970
4  7174 7372 7423 7375
4  6385 7547 8221 7995
4  6113 7906 6415 8217
4  7398 6651 7487 7399
4  6648 7329 6651 7399
4  6160 6982 6171 6979
4  6979 859 6726 856
4  630 631 8380 648
4  6730 6979 6160 6490
4  6465 7325 6467 7404
4  7189 7325 7426 6533
4  8080 8190 8192 8446
4  6875 6395 7468 7467
4  7403 7491 6145 7408
4  6724 6725 6171 6726
4  7120 8212 8192 8191
4  8303 8316 8305 8304
4  7109 7402 7486 7493
4  6724 6162 6799 6158
4  7549 7214 7217 7644
4  6726 6158 6982 6171
4  6820 6821 7786 7649
4  7954 6383 7068 6494
4  6377 6971 7590 7649
4  7169 8153 8127 8126
4  8127 6496 7061 6494
4  6497 8126 8127 6844
4  6371 7447 6837 6369
4  8127 7061 6235 7945
4  7954 7957 8127 8313
4  8127 8313 8233 7889
4  6670 6576 7758 7787
4  7884 8243 7883 8155
4  8243 7884 468 890
4  6942 6674 6675 6943
4  7883 8155 8386 8426
4  6246 6576 6671 7784
4  8386 8155 8400 8059
4  8400 7883 8155 8386
4  365 8478 364 60
4  7501 7277 7624 7925
4  7464 7463 7624 8125
4  7382 7623 7501 7764
4  7448 7642 7447 7715
4  8155 7893 7343 7344
4  6947 7623 7437 7465
4  6947 7437 6945 7465
4  7382 7383 7500 7624
4  8155 8426 7884 7893
4  6839 8269 915 8357
4  7459 7458 7461 6884
4  6810 7569 7377 7768
4  6884 7315 6885 7461
4  7459 7265 7458 7880
4  7459 7627 7880 7458
4  6839 456 8356 8357
4  7922 329 8469 71
4  7756 6839 8356 7757
4  6393 6403 6399 6401
4  6884 6905 7462 7627
4  6885 7507 7505 7461
4  6884 7458 6886 7627
4  7456 7455 7626 8003
4  8356 7709 7706 7389
4  7503 7272 7626 7274
4  8356 8357 8342 7709
4  6850 8361 8184 8210
4  6548 6546 6549 7625
4  6547 7625 6549 7457
4  6548 7384 7502 7626
4  7287 6461 8053 6464
4  6547 7455 6541 7626
4  8110 416 236 616
4  6850 432 8361 441
4  8105 8109 8116 8115
4  8464 52 8466 50
4  8183 8464 8263 8184
4  6848 8210 6855 8035
4  6731 7811 6740 6727
4  8184 7829 6309 6312
4  1011 526 6586 1020
4  8184 8470 6309 8361
4  8464 8185 342 50
4  7119 7120 7122 8160
4  7350 8008 7351 7352
4  8008 8062 7352 7303
4  7199 7303 7350 7352
4  8370 8106 8107 217
4  8365 8458 8366 8363
4  6478 6472 7075 7074
4  8362 8364 8376 8363
4  8370 6057 8164 8414
4  6055 6056 8479 6276
4  6463 6922 7127 7128
4  7107 6525 7996 8397
4  7164 7127 7128 6462
4  6928 6559 6927 448
4  7127 7287 7285 8074
4  6459 6462 8051 7126
4  6922 6929 7128 6463
4  6141 840 493 769
4  6140 6555 6557 6561
4  6961 8472 6055 8414
4  6433 6434 6435 8052
4  7335 8146 7893 7766
4  8146 7885 7766 7763
4  7191 7335 7766 7763
4  8245 8199 6269 8170
4  6271 7194 7763 7891
4  6958 6961 8472 6055
4  6266 6267 6268 7859
4  6550 6551 7000 6552
4  6299 7653 6454 6301
4  7210 7794 7780 7779
4  7742 7876 7745 7695
4  8107 8414 8114 8208
4  6628 7209 7664 7666
4  7209 7666 7512 7779
4  6055 8414 6056 6057
4  6302 6456 6457 7780
4  8414 8114 8208 6961
4  6051 6055 6272 6054
4  6281 7015 6861 8369
4  7638 7639 7777 7663
4  7139 6377 6378 6682
4  7109 6813 6711 6710
4  7015 6056 6054 6860
4  6755 7524 6789 6753
4  8164 292 7015 211
4  6282 7490 6115 6575
4  8164 722 922 8479
4  8370 211 218 217
4  8371 6057 6281 8370
4  8412 6056 7015 6860
4  6056 6278 6054 8480
4  6574 6576 7785 6575
4  6861 6863 8334 7848
4  6431 6964 7256 6428
4  6277 6960 6956 7026
4  6097 7110 6428 6970
4  6055 6056 6278 6054
4  6056 8479 6276 6278
4  6281 8369 7848 8372
4  7436 7467 7563 7640
4  6950 6952 7332 6951
4  6950 6951 7332 7329
4  6055 6278 6056 6276
4  6752 6077 6075 6754
4  6955 7172 6953 7634
4  6055 8414 6057 6961
4  6753 6754 6741 6952
4  7117 6387 6952 7331
4  8370 8106 8419 8208
4  6056 723 8479 8480
4  6532 6465 6534 7324
4  6530 6536 6828 6531
4  8332 8352 8447 7918
4  8081 8160 8085 7327
4  7120 8191 8305 8212
4  8412 722 723 682
4  7015 6860 6054 6861
4  6756 6278 7443 7256
4  8107 885 874 413
4  6281 8371 8369 8372
4  7011 7652 7731 7682
4  8107 8472 874 885
4  8414 6057 6961 8208
4  6276 6275 6272 6278
4  7721 7603 7723 7950
4  7160 7226 6603 7353
4  6601 7227 6603 6602
4  8328 8331 8344 8455
4  8370 6057 8414 8208
4  8329 8339 8331 8330
4  6933 7671 6931 6067
4  7390 7952 7177 7391
4  6122 7971 7973 7719
4  8242 8435 8436 8448
4  8105 8106 8113 8108
4  6907 7616 6297 7617
4  8114 8109 8113 6972
4  6883 6476 6890 7355
4  8106 217 724 235
4  682 684 8480 6260
4  6146 6151 6524 6152
4  6540 6549 6548 6546
4  7162 7163 6460 7167
4  6544 7163 7384 6543
4  6547 6549 6639 7457
4  6260 6964 6860 6431
4  6868 6870 6869 7225
4  6860 6054 6431 7256
4  7056 6625 6830 7059
4  6624 7433 6625 6626
4  6056 6860 8480 6054
4  6625 7060 6626 7059
4  8428 6060 8347 8429
4  8428 6061 6060 8429
4  6632 6628 7209 7514
4  6631 6624 6627 7346
4  7156 7155 7781 7914
4  6066 6342 7705 6069
4  8439 6061 6060 6059
4  8347 6070 6068 6060
4  8349 6070 6068 8347
4  7243 7316 7320 6692
4  7511 7745 7512 7695
4  6060 8428 6070 6069
4  6058 6061 6934 6059
4  6632 7514 7513 6627
4  6865 7512 7515 7695
4  7577 7691 7740 7692
4  6068 8437 8348 6060
4  8437 8404 6060 620
4  7243 6504 7318 7244
4  6069 6061 6060 8428
4  6058 6059 6934 8218
4  6786 7256 7443 7255
4  6142 7105 6440 6721
4  7200 8149 8008 7303
4  7083 7197 7202 7196
4  8068 8209 6344 8196
4  6061 6934 8477 6935
4  8429 8428 8474 710
4  7194 8145 8146 7763
4  7942 8448 8246 7944
4  8439 8477 6059 304
4  8456 7943 8241 7869
4  8439 937 8476 303
4  6088 8389 7092 8099
4  8067 8069 8474 709
4  6996 6091 6417 6090
4  6092 6090 8359 6417
4  8174 8173 8389 8300
4  6805 8387 7092 8389
4  6805 7092 8387 7024
4  6090 6405 6404 6096
4  8257 716 670 669
4  8432 6092 6091 7321
4  8226 8237 6091 6996
4  8226 6996 8229 8237
4  7903 7902 6451 7041
4  6315 7032 7031 7034
4  6333 6360 6327 6357
4  7035 6453 7036 6452
4  6090 6405 6407 6404
4  6091 6092 6093 7321
4  6094 8354 8237 6091
4  6563 8088 8087 7595
4  6202 6205 6206 6080
4  6868 6870 6394 6871
4  6040 531 6039 905
4  7988 8112 6795 7986
4  6238 6798 6797 7114
4  6090 6407 8359 6996
4  8359 6092 8415 6407
4  6199 6985 6233 6235
4  7114 8104 7986 7963
4  6624 7543 7434 7347
4  6631 7515 6630 7347
4  6092 6093 8441 6418
4  8441 8432 6092 658
4  6417 8359 8485 674
4  7145 7728 8012 6817
4  6455 6456 6454 6193
4  8422 8485 674 676
4  6902 6296 7462 6905
4  6295 6299 6301 7730
4  8432 7321 246 8441
4  7837 7462 7803 7203
4  8474 7699 6069 6061
4  6379 6380 7648 7649
4  8347 144 146 621
4  8068 8347 8067 8428
4  7212 7214 7213 7081
4  6070 8428 6060 8347
4  6509 6504 7564 7397
4  6407 8359 8485 8415
4  8226 253 9 10
4  8359 8422 8423 7977
4  7640 7777 7563 7663
4  6509 7469 7397 7564
4  8226 6417 8359 6996
4  6092 7321 8441 6093
4  6091 7321 8354 8432
4  7321 8049 7322 8332
4  6302 6300 6457 6304
4  7280 7181 7429 7530
4  6856 6859 6101 8323
4  8433 7321 8332 8049
4  289 6859 421 419
4  8433 8475 243 8441
4  8255 6038 531 6039
4  6211 6323 6733 7823
4  6274 6057 8208 6961
4  6272 6274 6277 6055
4  7236 6321 6322 7240
4  6394 6871 7251 6397
4  6061 6059 8477 6934
4  6441 6444 7183 6428
4  8301 8302 8318 8300
4  6060 6059 8437 8439
4  8454 6059 8218 7673
4  8181 8211 8212 8320
4  8319 8320 7916 8211
4  7061 8407 7946 7957
4  7289 7632 6842 7735
4  8313 8233 7955 7957
4  7229 7233 7230 7231
4  6949 7170 7168 7171
4  8437 6059 8218 8454
4  7168 7174 7173 7233
4  8440 8484 323 8477
4  6954 7117 7331 7068
4  6949 6955 6954 7172
4  6789 6169 6753 7118
4  6789 6170 7526 6794
4  8119 8304 8303 8305
4  8464 8466 8351 8191
4  7258 7295 7829 7630
4  7065 8133 8163 7067
4  8063 8071 8070 369
4  7093 7094 8136 7067
4  8142 7391 7365 7952
4  6424 7719 6782 7717
4  6901 7952 7348 7435
4  8443 8461 8469 8133
4  8161 7176 7935 6898
4  8068 8196 8071 8065
4  8451 8460 8443 328
4  8063 535 8070 8069
4  8063 8068 8071 8065
4  8460 8424 637 715
4  6901 7176 7348 7952
4  6892 6895 7348 6893
4  7433 7543 6831 7434
4  8064 8065 8066 8444
4  6758 7420 6759 7510
4  8347 8068 8209 6070
4  6872 6875 7469 7436
4  7975 8245 8483 363
4  7977 8199 8245 6065
4  8347 8349 8403 8348
4  8423 10 7 8
4  8437 8404 8442 8344
4  6632 6628 7666 7209
4  8218 7826 8344 8331
4  6067 7826 8331 8339
4  7977 7975 8242 8245
4  8226 8359 6063 6996
4  7977 8359 6063 8423
4  8244 8241 8478 365
4  7248 7253 7252 7353
4  7732 7731 7877 7682
4  6868 7313 6876 6426
4  7143 7853 7145 6817
4  6299 6468 6308 6303
4  6299 6410 7206 6468
4  7977 8245 8199 8483
4  6296 6903 7871 7730
4  7467 7640 7731 7563
4  6063 7977 8423 6065
4  6432 6460 7163 6440
4  6164 6722 6165 6160
4  7107 6554 6129 6803
4  6140 6561 769 768
4  6149 6521 6146 6522
4  6432 7162 7161 6544
4  6542 6545 6641 6549
4  8245 7977 6065 8242
4  8209 8444 8337 8101
4  6478 6476 6477 7197
4  7076 8169 8149 7202
4  8347 621 8429 6060
4  8064 8444 8385 8430
4  8170 8241 8245 6065
4  7360 7859 7868 7969
4  6262 6266 7360 6267
4  8423 8435 8227 8436
4  6942 7439 6943 6675
4  6263 6837 6269 6270
4  6266 8170 8145 7891
4  7045 7280 7049 7047
4  8072 268 8459 8258
4  7235 7531 7237 7628
4  6040 531 6038 6039
4  6445 6970 7183 7182
4  8071 8169 8459 8365
4  7427 7609 7426 7480
4  6530 7189 6539 6533
4  8063 8064 8067 8068
4  8119 8305 7121 8279
4  8072 8071 8459 8365
4  7174 7175 7422 7521
4  7173 6951 7422 7175
4  7168 6498 7331 7175
4  8063 8066 8072 75
4  7492 6813 6812 6814
4  8209 8068 8064 8065
4  7498 6818 7205 7497
4  7497 6818 7495 8154
4  6059 8454 8484 7673
4  7493 7494 7488 7499
4  7800 8015 7497 7941
4  8454 7910 7672 8309
4  8453 8454 8309 7910
4  8453 714 8484 8424
4  6942 7439 7438 6943
4  8218 8454 8328 8437
4  6256 6250 6247 7782
4  6244 7785 7784 7476
4  6670 6246 6574 6576
4  7011 6973 6959 6398
4  8438 8454 8309 8453
4  7635 7877 7777 7636
4  7321 7322 8049 8475
4  8049 8081 8050 8082
4  6102 6431 6429 6100
4  8083 8049 8082 8081
4  6501 6511 6502 6508
4  8431 614 8434 311
4  6757 7877 6759 7485
4  7142 7746 7541 8048
4  6057 8208 8371 7082
4  6272 6275 6277 7026
4  8354 7321 6095 8332
4  6111 6862 8207 8204
4  8082 8431 8332 8083
4  6958 6960 6274 6277
4  7025 7877 7485 7682
4  6756 7485 7443 6278
4  6756 7443 7485 6759
4  6428 6102 6100 6431
4  6857 8369 7015 7892
4  6988 6679 7363 6681
4  6258 6261 6104 221
4  6442 6099 6448 8268
4  6442 6428 7256 7255
4  7445 7256 6054 6278
4  6105 8395 8256 8420
4  6321 6033 6324 6035
4  7445 7257 7256 7444
4  6865 7515 7619 7695
4  6894 6941 6895 6893
4  8241 8145 7891 8481
4  7669 7672 6898 7911
4  8456 8427 389 577
4  8424 715 714 637
4  8241 8170 7891 8145
4  8272 8463 7862 7869
4  8179 8178 8482 261
4  8459 8149 8178 8006
4  8441 658 243 246
4  8450 702 700 382
4  6828 7322 6531 8050
4  8459 8179 8177 8178
4  8341 8355 8353 7917
4  8072 8071 8365 8065
4  6829 8216 6416 6093
4  6404 6997 7979 7978
4  6466 6827 6534 6144
4  6094 8353 8237 8352
4  8440 304 8477 323
4  6939 7673 6893 7672
4  8450 8072 8459 8365
4  8049 8081 8380 8050
4  8081 7119 8160 7120
4  7125 8083 630 336
4  6938 6893 6939 7618
4  6864 7619 6941 7618
4  7810 6727 6731 6801
4  7125 8085 648 8380
4  6756 7445 7256 7444
4  7109 7486 7487 6711
4  8431 8332 8447 8082
4  8454 7910 8424 7672
4  6801 8024 6800 7991
4  6787 6793 6792 6794
4  6955 6753 6952 7117
4  7118 6169 6753 6078
4  7910 8467 7911 8132
4  6275 6278 6276 7485
4  8467 8460 8443 7910
4  8460 8471 637 8424
4  7015 6860 6857 8412
4  7011 7025 7732 7012
4  6501 6509 6504 7564
4  6513 7640 7662 7565
4  7740 7820 7690 7747
4  7732 7877 7731 7777
4  6403 6425 7158 6402
4  6395 6973 6396 7652
4  7910 8460 8443 8451
4  6042 6050 6201 6493
4  6200 508 507 502
4  6046 488 6047 490
4  6875 6876 7468 6396
4  7157 6426 7158 7159
4  7061 6492 6496 6235
4  6840 6234 6909 6841
4  6049 6050 6200 6235
4  7966 160 8175 7967
4  791 790 921 8465
4  6050 6493 6496 6201
4  8426 7884 7893 7766
4  8202 8203 7968 8186
4  8463 8481 8427 7885
4  8463 8427 8392 8426
4  8463 8146 8426 7862
4  8426 8146 7766 7893
4  8061 8007 8409 8231
4  8061 791 8465 790
4  8175 160 161 159
4  7966 7967 7968 8203
4  8076 7872 6134 8231
4  6736 955 828 896
4  8007 8177 7872 8175
4  8007 8409 8231 7351
4  8007 8178 8006 8177
4  8007 8178 8062 8008
4  8459 8178 8149 8482
4  8176 8007 8062 265
4  8178 8062 8008 7303
4  8356 8342 7757 7709
4  8409 7965 7356 8465
4  8365 8459 8450 8006
4  8177 162 700 8457
4  8117 828 8202 8396
4  8177 8007 7872 8006
4  8149 7202 8482 7303
4  8178 8459 8006 8177
4  8178 8149 7303 8008
4  8063 75 369 536
4  7462 7627 6905 7837
4  6296 7206 7203 7729
4  6930 6936 8340 6937
4  8177 8176 8179 700
4  8039 8041 6808 8281
4  6296 6905 6908 7729
4  8068 8196 6474 8070
4  7462 7871 6904 7838
4  7203 7871 7462 7838
4  7462 6904 7460 7838
4  98 100 8222 599
4  7145 7728 7203 8012
4  7203 7729 7204 7837
4  7198 6885 7506 7769
4  8109 6972 8115 6402
4  8106 8208 8114 8113
4  7977 8199 6836 8483
4  8110 6974 8109 8393
4  8110 8109 6974 8306
4  8109 6974 8306 8162
4  8105 8108 8110 235
4  7882 8402 8399 8271
4  8342 7709 8357 7391
4  8443 70 8461 328
4  7922 8443 7065 8342
4  8342 7757 7922 7756
4  8342 7391 8142 7709
4  8342 8467 8142 7365
4  8185 8361 8184 432
4  8080 8083 8082 8081
4  8464 7119 7121 8470
4  7436 7467 7640 7565
4  8463 8426 8146 7885
4  8470 7122 6309 7630
4  8359 6996 6407 6999
4  8226 8227 8423 10
4  8470 8232 7119 7122
4  8456 8478 365 60
4  944 6734 6736 920
4  8405 8465 921 7965
4  8081 7119 8085 8160
4  7119 7122 8232 7523
4  7966 8203 750 7967
4  7901 7119 8470 8232
4  8392 7883 8427 780
4  6637 6652 6644 8156
4  6465 7403 6144 7408
4  8400 8411 8399 8402
4  7334 7893 8044 7344
4  8427 389 780 391
4  7858 7861 8146 7862
4  7119 7901 8464 8084
4  792 889 8156 890
4  6532 6825 7325 6533
4  7119 7523 8160 7122
4  7910 7911 8467 8471
4  8468 7365 8342 458
4  8467 8142 7365 7952
4  6756 7444 7018 7027
4  8443 7910 8132 8467
4  6406 7981 6414 6407
4  6829 8200 8216 7322
4  7125 8084 7119 7120
4  8467 7952 7911 8142
4  8255 8256 8395 46
4  8256 7628 6324 6039
4  8256 6088 6038 6324
4  8255 8256 6088 6038
4  8256 8131 6324 7628
4  6105 8174 8256 8131
4  6105 6118 8131 7531
4  6105 8420 6969 8395
4  8108 8109 8306 8113
4  8115 8109 6402 8393
4  7858 7868 7869 8145
4  468 890 7884 467
4  6974 6980 6388 7158
4  6484 6486 6482 6388
4  6485 8110 6974 8306
4  6974 8162 7158 6388
4  8456 577 365 579
4  7867 8044 7334 7335
4  6087 6179 6178 6089
4  6032 6038 6033 6035
4  7235 7531 7182 7237
4  7236 7628 7237 7051
4  6324 6039 7628 6035
4  8129 8130 8301 8214
4  7235 7239 7531 7628
4  7236 7240 7292 7293
4  6445 7235 7238 7184
4  6087 6038 6805 6088
4  6087 6089 6806 6179
4  6038 6324 6033 6035
4  389 60 390 8481
4  6129 6130 6461 7107
4  6140 6561 768 6555
4  8427 577 780 389
4  391 390 467 7885
4  6140 541 6555 768
4  6138 6130 6522 6131
4  6128 6131 6138 6142
4  6554 6525 7107 8397
4  6129 6131 6139 6461
4  6488 6128 6141 6140
4  6459 6561 8051 6139
4  6554 6129 6803 6833
4  8155 8386 8426 7893
4  8427 7885 8481 390
4  6558 6560 6561 771
4  6139 6459 6561 6140
4  6459 6460 6139 8051
4  840 8051 6141 8030
4  6141 8051 840 769
4  8439 6061 8476 937
4  6580 8095 6579 7974
4  6578 6579 6689 6084
4  941 6581 747 6577
4  8467 8471 7911 7952
4  6066 6070 6342 6069
4  7673 8484 7618 6893
4  7176 7911 7952 8142
4  7922 329 71 407
4  8064 8444 8430 8349
4  8453 324 8484 714
4  6688 8148 6689 6580
4  8468 8471 8467 7365
4  7326 6532 7324 6465
4  6582 6688 1021 6804
4  6577 6580 6688 6578
4  6866 7700 7695 7619
4  937 960 8476 303
4  6342 8410 8336 8337
4  6577 6579 6335 6581
4  6335 6579 6085 8094
4  6579 8087 6085 8094
4  6580 8095 8092 8148
4  6059 7673 8484 7618
4  6687 8147 6689 6804
4  6577 6579 6578 6335
4  6142 8030 6440 7105
4  6580 6581 8213 7974
4  7108 6149 6521 6146
4  6139 6131 6440 6460
4  8134 6492 502 518
4  6577 870 6336 6582
4  6678 6588 6587 6568
4  6587 6683 6588 8045
4  7068 6498 7069 7331
4  6200 8408 6231 7946
4  7288 6495 7234 7290
4  7229 6497 7230 7169
4  7903 6451 6683 6357
4  6587 6565 6564 6567
4  518 645 8406 100
4  6564 6568 6678 6587
4  6327 6683 6588 6568
4  8134 645 8408 8406
4  7063 179 518 204
4  6491 6498 6495 6500
4  6678 6362 6588 6357
4  7169 7068 6498 6494
4  8127 8126 8313 7889
4  7229 7175 7234 6498
4  7168 7169 7331 6498
4  6588 7903 6357 8046
4  6587 6683 8122 6567
4  6362 6588 8046 6586
4  6386 6387 757 6754
4  6587 8045 6586 8124
4  6587 8122 6683 8045
4  6983 22 647 274
4  6573 6218 6568 8140
4  6331 6568 6327 6218
4  6568 8140 6218 8151
4  6704 6763 6766 6705
4  6075 6754 37 7725
4  6694 6698 6760 6701
4  7935 7065 8132 8142
4  6699 6765 6764 8234
4  6765 6706 6704 8234
4  6763 6767 6768 6760
4  8453 714 8424 715
4  6694 6763 6764 6701
4  6705 6701 6768 7028
4  8454 8424 8484 6893
4  6768 6701 6760 7102
4  6698 6760 6701 7102
4  8061 8062 790 8465
4  6765 7949 6701 7028
4  8176 262 265 8062
4  6763 6768 6701 6760
4  8177 8180 8175 161
4  6765 7028 8254 7949
4  6699 8235 8234 6695
4  7258 7630 7259 7295
4  6663 7188 7427 7528
4  8232 139 131 434
4  8160 7523 8085 7327
4  7186 7188 7260 7259
4  6530 6539 7189 6535
4  7258 7260 7296 7631
4  6694 6764 6699 6701
4  7064 7757 7065 7709
4  8357 457 915 456
4  6707 7425 6764 6713
4  6694 6762 6697 6696
4  6764 7425 6696 6695
4  6749 7815 7029 8073
4  6749 7815 8250 8143
4  6747 6751 6748 7095
4  6315 6319 6317 6318
4  6743 6748 6747 6751
4  7111 6744 8143 6749
4  6361 8277 6355 6357
4  6618 7095 6621 6748
4  8184 7829 8210 8361
4  6747 7029 7111 7113
4  6618 194 6748 801
4  6621 7029 6798 7987
4  7029 7988 6798 7987
4  6749 8073 7029 7030
4  6747 7095 6621 6798
4  6117 8174 6106 8131
4  6444 6428 7255 7183
4  6445 7531 6970 7182
4  6104 223 7110 6969
4  6105 8256 8395 8131
4  8131 8395 7531 7628
4  7236 7052 7293 7292
4  7184 6118 7531 8131
4  6749 7030 8249 8073
4  6749 8250 7815 8073
4  7429 7530 7430 6994
4  6750 7982 7111 6745
4  8137 7111 7113 7112
4  7111 7982 7112 8138
4  8257 8387 8219 670
4  6516 6517 471 6981
4  6882 6284 6187 6186
4  7125 8085 7119 649
4  6532 6534 6535 7324
4  6188 6882 6187 6186
4  6882 6189 6186 6188
4  7703 6415 7906 7702
4  7101 6761 7039 7073
4  6188 6187 6882 6987
4  6159 6172 6160 6171
4  6983 6077 6076 7118
4  6838 8274 7973 7972
4  6839 456 915 910
4  8470 8361 8232 7630
4  7901 131 649 8085
4  6855 8184 6313 6312
4  7123 8160 7523 7122
4  8119 8303 8280 8075
4  7188 7426 7528 7187
4  7260 7369 7296 6666
4  6539 7123 7327 7523
4  7188 7259 7187 7528
4  6663 7608 7369 6664
4  7260 7528 7276 7259
4  6771 275 6173 949
4  7725 6725 6075 6752
4  6171 6772 6726 6725
4  7122 8232 7523 7630
4  6648 7332 6651 7329
4  7232 7375 7231 6660
4  6655 7606 7375 6656
4  6159 6174 6162 6489
4  946 6772 7725 6726
4  6772 7725 6726 6725
4  6075 909 6772 7725
4  6772 856 946 909
4  7235 7181 7241 7293
4  6441 6099 6427 6448
4  6078 6771 6772 6075
4  6724 6169 6171 6725
4  8185 8232 434 139
4  8119 8263 7121 6309
4  6114 7906 6143 6185
4  7168 7173 7171 7233
4  6363 6882 6189 6186
4  8467 8132 8142 7911
4  6839 8269 6121 910
4  6107 6241 6186 6242
4  6419 7386 7706 7707
4  7756 8342 8356 8357
4  6107 6241 6181 6186
4  6183 6188 6187 6186
4  6239 6187 6986 6240
4  8443 8468 7922 71
4  6333 7031 6449 6360
4  6850 441 8210 438
4  7524 6789 7526 8333
4  7032 7034 6312 8035
4  8183 6850 898 342
4  6683 6357 6588 7903
4  889 1032 793 6647
4  8243 890 8156 7884
4  6077 7117 7118 6392
4  6076 6174 6771 6226
4  7882 8400 563 8243
4  7882 6571 8402 8271
4  6170 7118 7526 6792
4  8400 8411 8402 564
4  6078 6170 6076 7118
4  6787 6163 6791 6788
4  6076 6170 6792 7118
4  6162 6793 6170 6787
4  8459 8365 8169 8149
4  6458 6455 7131 6192
4  7858 7868 6266 7859
4  6407 8485 7981 6413
4  6299 7730 7206 7653
4  6409 6303 7054 6468
4  8244 8483 364 8478
4  8226 8228 9 253
4  6302 6300 6454 7780
4  6455 7131 6192 6193
4  7055 6455 7131 7054
4  6259 6858 6859 6856
4  6430 8097 8096 8268
4  6409 6454 6299 7653
4  6950 6648 6953 7328
4  8354 8445 6091 317
4  7055 6236 6193 6237
4  7136 7220 8021 7221
4  7833 7218 7219 7989
4  6673 7724 7645 6676
4  7544 6673 7221 7545
4  8216 8332 6095 7322
4  7220 8021 7675 7833
4  8083 8081 630 8380
4  6948 7220 7832 7645
4  7832 7218 7220 7675
4  6674 6948 7646 6944
4  6527 6130 7996 7107
4  6151 6154 6719 6720
4  6524 6529 6151 6527
4  6130 7107 6525 7996
4  6142 6139 6440 8030
4  6138 6131 6522 6719
4  6927 6928 8157 6921
4  6921 6463 6929 6922
4  8084 7901 50 91
4  8432 658 246 654
4  6062 6064 7979 7904
4  6554 539 8473 8382
4  8485 674 676 973
4  6140 6561 6141 769
4  6557 6554 7107 7106
4  8470 7119 7121 7122
4  6833 6555 541 539
4  6949 7331 6954 6952
4  6564 6356 6220 528
4  8150 8076 8008 7872
4  6354 6450 6327 6326
4  6564 1002 6583 528
4  7173 7330 7372 7422
4  6737 8290 8042 6739
4  7076 8197 8150 8149
4  6583 6588 6362 6586
4  6683 6568 6331 8151
4  8179 700 268 382
4  6345 8209 8065 8196
4  8124 6587 6565 1020
4  6333 6360 6450 6327
4  6333 6360 6357 7035
4  7899 7907 7338 7900
4  6556 8382 8397 7878
4  6215 8264 6216 6926
4  6325 6333 6334 6449
4  6573 8270 8140 6566
4  7899 7900 7898 7907
4  6847 6850 438 898
4  6847 6848 729 438
4  8034 6926 8291 6216
4  6921 6559 6922 7337
4  6325 6217 6331 6327
4  6124 970 910 914
4  6325 6449 6334 6328
4  6839 8357 915 456
4  6325 6331 6330 6327
4  6121 6122 6120 7706
4  7101 6995 6125 7071
4  6463 6560 6928 6929
4  6433 8053 6527 8052
4  6921 6927 6926 8264
4  6217 6218 6331 6327
4  6588 6327 6678 6357
4  6077 6753 7118 7117
4  6983 7118 6385 6386
4  6644 8059 8155 7344
4  6714 6716 8044 7867
4  6076 6226 7994 6792
4  6094 6096 6404 6408
4  7118 6392 7527 7995
4  7858 7861 7194 8146
4  6385 6386 7118 6392
4  6385 6392 7118 7995
4  8426 8427 391 7885
4  6754 6387 6952 6753
4  7882 8402 6571 817
4  8243 890 792 8156
4  6714 7344 6716 6646
4  7090 7091 7597 6685
4  6799 6789 6755 6802
4  6725 6075 6752 6078
4  6062 7979 6404 6997
4  6996 7979 6063 8229
4  7756 8357 456 457
4  8226 8423 8229 6063
4  8226 8229 8423 8227
4  6416 6415 6418 6405
4  8179 8258 268 267
4  6092 6407 6093 6418
4  8176 161 261 700
4  8359 7981 6407 8485
4  6345 8337 6342 8336
4  6070 8209 8349 8337
4  8347 8209 8064 8349
4  8202 7966 8405 8290
4  8347 8064 8430 8349
4  6930 6936 6069 8340
4  6061 6069 6934 6935
4  8428 6346 6069 8474
4  6839 863 407 456
4  6738 6735 6617 7112
4  8117 6735 6738 7112
4  7386 7390 7708 7388
4  6314 6313 7043 8193
4  6751 7095 7112 8117
4  8470 7630 6309 8361
4  8084 50 8464 8466
4  6619 7096 191 6048
4  6315 6314 6312 7034
4  8185 434 432 139
4  6850 8210 441 8361
4  7096 6048 6044 191
4  8450 702 382 8384
4  8178 7303 8482 8062
4  6734 7098 7965 920
4  8040 8282 8231 6134
4  6610 7113 6798 6614
4  6608 6610 6609 6612
4  8025 7138 7223 7142
4  6610 6612 6913 6609
4  6747 7095 6798 7113
4  7095 6798 7113 6614
4  6608 8137 6616 8261
4  6608 8137 7113 6617
4  6608 8137 6617 6616
4  6279 6275 6278 6272
4  6962 8374 8421 8079
4  6273 7082 6057 8372
4  6459 6460 8051 6462
4  6463 6462 7126 7128
4  7287 6462 6461 6464
4  8049 6531 8050 8380
4  8106 8108 8416 8113
4  8431 8434 8446 8447
4  6962 8208 8421 8113
4  8208 8113 8419 8421
4  8370 8419 8106 8418
4  8105 8108 8113 8109
4  8414 8114 6961 8472
4  6350 6959 6352 6962
4  6972 8116 6961 8114
4  6274 6956 6960 6963
4  6273 6280 6956 6957
4  6111 6862 6101 8323
4  6429 6101 6862 6856
4  7015 292 7892 8413
4  6860 6054 6861 6431
4  8460 715 7910 8424
4  6260 6431 6102 6964
4  8196 6474 8070 6477
4  6258 6103 6102 6101
4  8063 146 75 536
4  6344 8069 6474 6346
4  6259 6858 6857 121
4  7760 7795 7744 7876
4  6430 6053 8097 7445
4  7511 7512 7745 7779
4  6801 6800 7364 7991
4  7616 6306 6307 7761
4  8412 292 722 682
4  8164 722 874 922
4  8072 268 8258 374
4  6260 6431 6429 6102
4  6415 7702 8217 7906
4  6933 7618 6934 6935
4  8439 6061 8477 8476
4  8484 323 714 324
4  8474 709 960 710
4  6915 7003 7827 6680
4  8429 6061 8476 8474
4  6860 6054 7256 8480
4  6469 6470 6343 6471
4  8072 8070 374 8258
4  6105 8420 8257 7088
4  7088 669 603 608
4  6935 8476 6061 7699
4  6343 6346 6344 6474
4  6296 7729 7462 6905
4  6302 6300 6304 6303
4  6457 7780 7778 7779
4  8257 8255 669 8420
4  8256 6038 6039 6324
4  8420 222 6969 48
4  6106 6105 8174 7088
4  6103 6104 7088 608
4  8420 222 48 46
4  6406 6996 6063 6999
4  6206 6978 7089 6562
4  6206 7089 6978 6084
4  6998 7001 7000 7361
4  8245 6269 8483 8478
4  6996 8229 7980 7979
4  6405 6406 6414 6407
4  6206 7089 6080 6205
4  7613 6670 7787 6675
4  6368 6947 7437 6945
4  7189 7326 7324 7522
4  7403 7474 6282 6145
4  7089 7090 6084 6083
4  7090 8095 6579 6689
4  6563 6579 6085 6084
4  7090 6685 7597 7592
4  6404 7979 6996 7980
4  8423 8436 8242 8435
4  6062 7970 6064 7905
4  6060 8347 8348 6068
4  6063 6065 8436 6064
4  8359 6999 7977 6063
4  6414 7002 7702 7000
4  6550 6998 7000 6551
4  304 8477 323 303
4  7977 6836 6999 7976
4  6406 6407 6999 7981
4  6405 6406 6404 7002
4  6342 6070 8350 8337
4  8064 8066 8385 8444
4  8100 8101 6345 8102
4  8209 8101 8065 8444
4  6070 8068 8209 6344
4  6347 6348 7705 7701
4  8439 620 937 304
4  7585 6343 6348 7586
4  8068 6474 6344 8069
4  6341 7705 6348 6349
4  8429 8476 937 960
4  6341 6342 6069 7705
4  8354 8431 8433 8332
4  8200 8216 7918 7915
4  6341 6070 8209 6344
4  8428 6344 6346 8069
4  6061 7699 6069 6935
4  8354 8332 6095 8352
4  6095 8332 7918 8352
4  8359 6407 7981 6999
4  6405 6408 6416 7002
4  6091 317 8445 8228
4  6090 6093 6092 6407
4  8165 6383 6392 7068
4  6752 7725 6727 6741
4  6719 6439 6151 6720
4  6648 6649 6953 7400
4  6752 6727 6755 6741
4  6094 7980 6404 6996
4  6787 6790 6793 6794
4  6724 6726 6158 7810
4  6934 6935 7618 8477
4  6829 8215 8217 6416
4  6343 6471 6349 6348
4  8437 8440 8454 8438
4  8439 620 6060 621
4  6936 6935 6069 7699
4  6936 7700 6935 7699
4  6405 6416 6096 6093
4  7474 6574 6282 6283
4  7321 7322 8475 6826
4  7321 6093 6826 8441
4  6094 8237 8353 7980
4  8359 6063 6996 6999
4  8422 8485 676 7976
4  6415 6418 6413 7812
4  6058 6060 6068 6070
4  6194 7758 6195 7852
4  7613 6675 7611 6677
4  7703 7812 7704 7852
4  7470 8058 7152 6247
4  6060 620 8404 8403
4  6058 6930 6934 6069
4  8437 8438 8344 8442
4  8067 710 709 8474
4  8218 8328 8331 8344
4  8439 8477 303 8476
4  8429 621 710 937
4  8429 710 8474 960
4  8428 6069 6346 6344
4  6066 7705 8345 8340
4  6058 6934 6061 6069
4  6950 7329 7173 6951
4  6930 6931 6937 8340
4  6920 6916 7825 7810
4  7011 6958 6959 6973
4  8105 217 8106 235
4  6959 6400 6963 6960
4  7671 6067 8331 8329
4  6059 8477 6934 7618
4  6098 6103 6111 6101
4  6275 7676 7027 7026
4  6053 6862 6430 8334
4  6272 6052 6054 6279
4  6053 7849 8097 6279
4  7445 8097 7676 6279
4  7445 8268 7257 8097
4  6866 6935 7700 7619
4  8426 7862 7893 8386
4  7883 7885 391 467
4  468 7884 8243 7883
4  7210 6300 7780 7794
4  8272 8427 8456 577
4  6261 818 6964 7110
4  8426 8463 7862 8392
4  7883 8426 8427 391
4  6261 6260 6102 6964
4  8463 8426 7885 8427
4  8427 389 390 8481
4  8392 565 780 786
4  8427 389 391 390
4  6051 7015 6281 6057
4  8107 217 413 874
4  6973 6972 8116 6961
4  7 9 10 8227
4  6092 6418 8441 8415
4  7976 530 676 666
4  8109 8393 6974 8162
4  8244 364 365 8478
4  8226 8422 253 10
4  6274 6959 6962 6963
4  8114 8116 8109 6972
4  8109 6402 8393 8162
4  6959 6972 6350 6399
4  6962 8113 6350 6972
4  6350 6351 8373 8375
4  6959 6352 6963 6400
4  7524 7118 7527 7526
4  6915 6920 7827 6918
4  6955 8165 7524 7117
4  6381 6392 6385 6383
4  7954 8165 7956 8314
4  6385 6383 6392 8221
4  6392 6383 7956 8221
4  6417 6090 8359 6996
4  7524 8333 7526 7525
4  6955 8166 7172 8029
4  6063 6064 8436 7979
4  6062 6065 7970 8199
4  8359 7977 6999 7976
4  8423 6063 6065 8436
4  8070 369 374 535
4  7360 8199 7970 8170
4  8245 6065 8199 8170
4  7585 7760 6854 6851
4  7943 8241 7869 7942
4  8245 6269 8199 8483
4  8100 8327 8366 8103
4  7970 7868 8238 7969
4  6406 6997 7002 7001
4  6998 7361 7969 7001
4  6062 6997 7001 7905
4  8067 536 709 710
4  6345 8101 8209 8337
4  8066 8450 8384 8383
4  8100 8065 8366 8365
4  8065 8365 8383 8366
4  8347 8067 8429 621
4  6470 8196 8169 6477
4  6058 6934 6930 6067
4  8150 8006 7874 7872
4  8068 8065 8209 8196
4  6095 6091 7321 8354
4  6094 6996 6091 8237
4  8415 8359 8485 6417
4  6341 6349 6345 8336
4  6417 8485 973 674
4  7585 6854 7760 7716
4  8226 8228 8237 8229
4  7975 530 7976 666
4  8071 6477 8196 8070
4  6341 6349 8336 7705
4  7975 666 363 530
4  6065 8241 8245 8242
4  8199 6836 8483 6269
4  7977 6065 6063 8199
4  8359 7981 8485 7976
4  6345 8102 8336 6349
4  8428 8069 6346 8474
4  8067 8474 8428 710
4  6343 6471 8198 6349
4  6067 8218 8331 7826
4  6059 8440 8454 8437
4  6638 6373 6376 7442
4  8438 8451 8455 8452
4  6721 6165 6916 6914
4  8328 8309 8311 8455
4  6067 8328 8218 7673
4  8200 7918 8332 8211
4  7673 8454 8328 8218
4  8454 7673 6893 8484
4  7673 6933 7671 6939
4  6930 8340 6932 6931
4  7699 8476 6061 8474
4  6933 7670 6940 6931
4  7321 6095 8332 7322
4  8216 8353 6095 7918
4  8431 8080 8447 8446
4  8332 8082 8211 8447
4  8226 6091 8228 253
4  6091 7321 6093 6095
4  8049 8475 7322 6531
4  8201 6828 8200 6829
4  8216 8341 8215 6416
4  7321 6093 6095 7322
4  8422 666 7976 676
4  6829 8201 6585 8215
4  6977 6966 6965 6878
4  6484 6977 6482 6481
4  8109 8115 6972 8116
4  6090 6091 6094 6996
4  6479 6975 6484 6481
4  6974 8306 8162 6388
4  6999 7976 6836 7981
4  6550 7642 7981 6836
4  6399 8162 6965 6425
4  8244 8478 8245 8483
4  8109 6972 6402 8162
4  6056 8480 8479 6278
4  6350 8306 8113 8373
4  6399 6401 6353 6352
4  6055 8472 6276 8479
4  8370 8418 218 8413
4  6053 8360 7849 7848
4  6974 7158 8162 8393
4  6051 7015 6054 6861
4  6399 6959 6352 6350
4  6557 6129 6140 6459
4  8382 6554 6555 6556
4  8053 7107 7896 7106
4  6554 7107 7106 8397
4  7107 7896 7106 8397
4  7287 6433 6435 8378
4  6459 6463 7126 6560
4  8423 8242 8436 6065
4  6407 8485 6413 8415
4  8051 6141 8030 6139
4  6459 6560 6557 6463
4  6139 6461 6131 6460
4  654 973 8415 658
4  8423 8227 7 10
4  6111 8204 8207 8205
4  8268 6430 7445 6099
4  6103 608 8220 419
4  6090 6405 6093 6407
4  6274 6957 6956 6963
4  8106 8208 8107 8114
4  6258 6259 6260 289
4  6053 6861 6054 6431
4  6103 7088 8323 8220
4  6998 7981 6999 6836
4  6368 7438 6369 6370
4  6258 6103 6259 289
4  6097 6102 6428 6964
4  8347 144 621 8403
4  536 8069 709 535
4  6097 6102 6100 6428
4  6427 6099 6116 8171
4  8063 8069 8068 536
4  6731 6755 6732 6800
4  6988 7811 6990 7696
4  6260 121 682 683
4  6709 6712 7487 7696
4  6259 6429 6260 6857
4  663 619 8404 620
4  7954 6383 7061 7957
4  6381 6383 6382 7068
4  6385 599 22 98
4  8439 304 303 8477
4  8440 662 620 304
4  6383 7061 7957 8407
4  6914 6721 7004 6917
4  6638 6373 6640 6639
4  6382 6383 7062 7061
4  6540 6438 6543 7357
4  7062 8134 8407 8406
4  6382 7069 7068 6498
4  8165 8321 8166 8029
4  6417 8415 654 973
4  8432 317 6091 253
4  6954 8166 8153 7170
4  6381 7117 7331 6387
4  8354 8237 6091 8445
4  654 658 8415 6092
4  8177 8459 8006 8450
4  8450 8365 8006 8458
4  8197 8365 8363 8006
4  8365 8363 8006 8458
4  6093 8441 6418 6826
4  658 8432 6092 654
4  8428 6070 6069 6344
4  8438 690 662 689
4  6060 621 620 8403
4  8437 662 8438 8442
4  8347 6060 8403 621
4  8437 8439 8440 620
4  8440 662 304 324
4  6547 6541 6548 7626
4  8071 8365 8065 8169
4  7970 7868 8246 8238
4  6364 6367 6366 7437
4  6365 6270 7383 6369
4  8067 621 146 710
4  6444 6784 7431 7255
4  6675 6672 7787 6943
4  8083 244 8475 631
4  312 653 8445 317
4  8459 7202 8169 8258
4  8063 8069 536 535
4  8100 8102 6349 8198
4  8063 8064 146 8067
4  8071 8459 8169 8258
4  8068 8071 8196 8070
4  6470 8168 8198 6472
4  8072 8258 8071 8070
4  6344 8428 6070 8068
4  8063 369 535 536
4  8405 791 921 8465
4  8405 8465 8409 791
4  6469 6473 7075 7586
4  6737 8405 6736 7965
4  6890 7197 7507 7355
4  6933 7671 6067 7673
4  6737 8409 8042 8290
4  8409 7351 7356 8042
4  8007 7872 7351 8231
4  6075 909 519 274
4  8409 8290 8231 8042
4  7966 8061 8409 8231
4  8242 579 8244 8
4  6065 6064 8448 8436
4  6062 6063 6065 8199
4  7859 7360 7868 6266
4  8241 7891 8170 8478
4  244 8475 631 243
4  8083 631 8475 8380
4  8354 8432 8433 317
4  8083 8049 8475 244
4  7970 7969 7905 7001
4  8226 253 6417 6091
4  8433 246 7321 8441
4  8456 8244 579 365
4  7360 6267 7859 7969
4  8244 579 363 8
4  8437 8218 8344 8328
4  8242 82 8 8435
4  8309 8132 7936 8462
4  6394 6426 6876 6396
4  6393 6399 6973 6959
4  8309 8451 7910 8132
4  8451 8443 8462 8461
4  8483 363 364 530
4  6272 6956 6280 6279
4  7671 8309 8328 7672
4  6111 8207 6862 8323
4  7669 7671 8311 8312
4  6786 6443 6785 7444
4  7910 7672 7348 8424
4  7671 8329 7670 6931
4  7672 7911 7348 6898
4  6938 7618 6864 6941
4  1037 8189 7104 431
4  6848 8210 7104 731
4  6215 431 295 821
4  6892 6939 6898 6900
4  7034 8037 7104 8035
4  8423 8242 8 8435
4  7742 7744 7745 7876
4  8456 8478 8241 365
4  6059 6934 8218 7673
4  7883 565 391 780
4  7943 8244 8456 8241
4  6484 6965 6967 8306
4  6388 6517 6390 6980
4  8456 365 389 60
4  6485 567 6975 568
4  8081 8050 8082 8160
4  7125 630 8380 648
4  8083 630 336 244
4  6484 6976 6485 8306
4  874 8107 8164 8472
4  6425 7254 6391 8267
4  6965 6350 6353 6351
4  6965 6967 8306 8373
4  6878 6391 6425 6388
4  7160 7313 7159 7227
4  649 8085 131 648
4  7901 8085 8232 131
4  6425 6399 6353 6965
4  6425 8267 6353 7254
4  7901 7119 8085 649
4  7125 8081 8085 8380
4  8080 8084 8190 91
4  8120 8181 8212 8315
4  8080 8084 8192 8190
4  8082 7120 8212 8192
4  8432 246 317 654
4  6843 6201 6496 6493
4  520 757 6387 558
4  6909 6238 6043 6614
4  6381 7117 6392 7068
4  7063 598 179 204
4  8200 8082 8332 8050
4  8049 8332 8082 8050
4  7181 7237 7182 7530
4  8081 8050 7327 8380
4  8420 48 6969 8395
4  8050 6828 8181 6536
4  8200 8215 7915 8201
4  8354 8431 8352 8434
4  8460 637 638 715
4  8468 8471 7365 644
4  6828 8182 6538 8201
4  6425 8267 6878 6353
4  8438 8453 8451 689
4  8460 328 715 638
4  6969 6097 6104 6105
4  6106 8174 8300 8173
4  6597 7755 6607 8031
4  6098 6100 6097 6102
4  8066 8384 8450 382
4  7088 8257 8173 8219
4  8176 8062 8482 262
4  261 8482 267 262
4  6589 7306 6596 7307
4  6561 7126 8051 1089
4  8158 7184 6117 6427
4  6139 8030 8051 6460
4  6116 8268 8204 8171
4  8255 8256 46 8420
4  6427 8171 8158 6446
4  6650 6740 6731 7696
4  7954 8127 8153 8313
4  7363 7364 6681 7827
4  6112 6467 6115 7490
4  6113 7812 6115 7817
4  6954 8165 6955 7117
4  6948 7220 7675 7832
4  7954 6383 7957 7956
4  7613 7758 7715 7612
4  8134 6492 7061 6235
4  6263 6837 6270 6369
4  6371 6369 7438 7447
4  6195 7758 6576 6575
4  6233 8127 7945 7889
4  8134 6200 7946 8408
4  6883 7315 7355 7507
4  6885 7458 6891 6886
4  6478 6476 7197 6890
4  7061 7946 6235 7945
4  6497 7169 8126 7230
4  7954 8314 8153 8166
4  6376 7614 7442 7590
4  6540 6543 7384 6541
4  7063 204 7069 598
4  7169 8153 8126 7230
4  6761 6763 6708 6696
4  6707 6764 7425 6696
4  6704 6766 6763 6708
4  6813 6812 6819 7494
4  6638 7440 6643 7442
4  7101 6240 521 6995
4  7101 6109 6761 800
4  6708 8276 586 6108
4  7101 6240 6109 521
4  6698 8055 6779 6775
4  6698 6779 7073 6760
4  6698 6762 6760 7073
4  7073 6760 6761 6762
4  6675 6943 7787 7612
4  7436 7468 7469 7563
4  7640 7777 7731 7563
4  7070 6762 7073 7039
4  6875 7469 7468 6876
4  7744 7794 7745 7795
4  7616 7615 7795 7762
4  7453 7452 7615 7762
4  8055 7070 6762 6698
4  6694 6698 6697 6762
4  7037 7070 7016 7039
4  7037 6697 7020 7038
4  7382 7624 6370 7383
4  6194 7852 7715 7758
4  7439 7612 7438 6943
4  6368 6947 6944 6370
4  6925 6556 6559 7337
4  7894 7106 7339 7337
4  6300 6308 6304 6303
4  6556 7106 7337 7878
4  6473 6475 7452 7587
4  6889 7452 6475 7355
4  7760 7876 7588 7762
4  7106 7339 7337 7878
4  7436 7469 7564 7563
4  7467 7563 7731 7468
4  6558 6560 771 6559
4  6129 6461 6130 6131
4  6527 8053 6461 7107
4  6223 6229 6138 6228
4  7210 7745 7794 7779
4  8053 8054 8378 8379
4  7451 7450 7788 6917
4  7287 8053 8378 7894
4  7834 6640 7658 7549
4  6459 8051 6561 7126
4  8008 8178 8006 8007
4  8177 700 8450 8457
4  8006 7872 7873 7874
4  8177 8458 8450 8006
4  8177 7873 8175 8180
4  8197 8365 8006 8149
4  7200 8167 7076 7077
4  6300 6301 7780 7794
4  6623 6632 6631 6627
4  8178 7303 8149 8482
4  6296 7203 7206 7871
4  7139 7140 6682 6378
4  6544 7384 7163 7167
4  8197 8198 8168 8327
4  8197 8168 8362 8327
4  7076 8167 8168 7077
4  7942 6065 8246 8448
4  6550 7981 7642 7704
4  7943 579 578 577
4  7869 7862 8247 7863
4  8453 689 324 715
4  8392 8463 7862 8272
4  8272 7869 7862 8247
4  7977 6999 6836 8199
4  7194 6266 6268 7860
4  6763 6761 6762 6696
4  8463 7763 8145 8481
4  7868 7859 8238 7969
4  7868 7859 7864 8238
4  7467 7731 7652 7468
4  7439 7612 7447 7438
4  7448 7612 7715 7447
4  6670 6576 7787 6671
4  6266 7860 7859 6268
4  8129 6117 8300 8301
4  6323 8214 8129 8099
4  6642 7614 7450 7440
4  6377 7590 6971 7759
4  7451 7614 7788 7450
4  6902 6296 6297 6903
4  8257 6105 8174 8256
4  6306 7794 7795 7796
4  6111 8323 6103 6106
4  8174 6088 8099 8389
4  6674 6945 7610 7645
4  7613 7787 7758 7612
4  6105 6969 8420 222
4  8257 6805 8389 8387
4  7239 7184 8130 7238
4  6117 8317 8158 8171
4  8256 8174 6324 8131
4  7184 8158 8130 7238
4  7139 7614 7590 7759
4  6536 8120 8181 8160
4  7120 8084 7119 7121
4  8119 8120 8305 8303
4  6297 6903 7796 7615
4  6306 7796 6301 7794
4  8084 8464 8191 8466
4  6902 6887 7314 6907
4  7120 7121 8305 8191
4  7616 7615 7796 7795
4  6341 6069 6344 6346
4  8081 8082 7120 8160
4  6632 6630 7515 7512
4  6851 7700 7699 7588
4  7119 8085 8160 7523
4  7097 7886 6738 7095
4  162 8457 702 700
4  8160 6536 8120 7123
4  8181 8319 8182 8201
4  7858 7866 7868 7864
4  8181 8320 8319 8211
4  6536 6537 8182 8159
4  8127 6497 6844 6233
4  6492 6494 7061 6496
4  8127 7957 7061 7945
4  6233 8127 6496 6235
4  6233 6844 8127 7889
4  7894 8074 7366 7958
4  6233 7889 7945 8278
4  8034 7009 8000 7006
4  6921 6929 8157 6923
4  6199 6235 6200 6231
4  6233 6497 6844 6843
4  6497 8126 6844 7291
4  6939 7669 7671 7672
4  7669 8311 8309 7936
4  8438 8328 8455 8309
4  8443 7922 8133 8469
4  8132 7065 7067 8133
4  7935 8161 6898 8262
4  8460 8471 8467 638
4  7249 6593 6607 6597
4  6638 6542 6643 7440
4  6542 7440 6543 6541
4  6887 7314 7355 7315
4  6907 7314 7615 7452
4  8257 8174 8389 6088
4  7453 7452 7762 7587
4  6806 6088 6805 7092
4  6089 6323 6033 6088
4  6806 6323 6088 7023
4  7462 7803 7203 7838
4  6038 6088 6033 6324
4  6902 6296 6904 7462
4  6323 8214 8099 8098
4  6372 6376 6380 7590
4  6323 7824 8129 8214
4  6372 7590 6380 7649
4  8129 8301 8130 8158
4  6202 6080 6206 6208
4  6188 470 879 877
4  6882 7014 6987 8031
4  6323 7239 7824 6321
4  7239 8130 7824 7240
4  7078 7153 7212 7151
4  6363 6186 8394 8297
4  7549 7215 7643 7857
4  7660 7658 7668 7549
4  6640 7668 7643 6643
4  6142 6131 6719 6440
4  8052 6439 6527 6433
4  8053 7107 7106 6464
4  6151 8027 6527 6529
4  7136 7138 7724 7137
4  7136 7221 8021 7223
4  6674 7646 6943 6944
4  6524 6151 6522 6130
4  6561 6139 6141 8051
4  8053 8052 8378 8054
4  7192 7382 7501 7764
4  6311 8280 8119 8279
4  6942 6368 6944 7438
4  8470 7901 8464 7119
4  7125 8083 8080 8081
4  7121 8263 8279 8351
4  6104 6969 222 223
4  7110 6969 6097 6104
4  8464 8185 8184 8183
4  171 6175 1024 941
4  8464 8263 7121 8351
4  7261 7123 8075 7185
4  6902 6884 7462 6904
4  8120 8315 8159 8182
4  8120 7121 7120 7122
4  7166 6548 7503 7772
4  6372 6373 6375 6380
4  7123 8159 8075 7185
4  7248 7160 6603 7353
4  6497 8127 6494 6496
4  8464 8470 7121 8184
4  8183 8188 8464 342
4  8263 6313 8193 8195
4  8263 8183 8184 6313
4  6365 7383 6270 7193
4  6550 7715 7704 7642
4  6548 7626 6541 7384
4  8183 6313 8263 8195
4  6892 7348 6898 6893
4  6623 7060 7056 6628
4  7179 7435 7533 7711
4  8120 8315 8212 8316
4  6901 7435 7348 6895
4  6623 6626 6625 7060
4  7345 6895 7347 7434
4  7345 6895 7434 7435
4  7742 7743 7741 6853
4  7261 8075 6317 7262
4  7935 7669 6898 7911
4  7106 6464 6557 6922
4  7106 6557 6556 6559
4  6925 486 6556 8223
4  7136 7544 7137 7724
4  6669 7787 6672 6671
4  6574 6523 6184 6283
4  7145 6410 7146 7207
4  6907 7617 6297 6908
4  7206 7728 7730 7871
4  7337 7340 6926 7338
4  6925 484 486 485
4  6379 6375 7648 6380
4  6989 7100 6879 6682
4  6373 6374 7644 7441
4  6375 7215 6380 7643
4  6947 6948 7465 6945
4  6368 6944 7438 6370
4  6925 7899 7907 7338
4  6921 6923 6922 6929
4  7894 8378 8074 8379
4  7894 7958 8379 8074
4  6948 6945 7832 7465
4  7366 7958 7959 7339
4  7127 8074 7286 7006
4  6296 7462 7871 6904
4  6887 7315 6904 7314
4  8242 8401 7943 579
4  8392 780 8272 8425
4  7862 8386 8398 8391
4  6373 6375 7549 7644
4  6542 6643 7440 6541
4  6547 6640 7457 6639
4  6640 6639 7644 7834
4  8400 8392 7883 8386
4  7280 7530 6993 7053
4  8392 7862 8386 8398
4  6663 7528 7275 7276
4  8426 7766 8146 7885
4  7186 7188 7190 7296
4  7858 7859 7860 7864
4  7858 7860 7870 7864
4  6655 7521 7268 7269
4  7229 7174 7233 7231
4  7861 7194 7335 8144
4  7678 7890 7887 7677
4  7133 7141 7680 7681
4  7133 7746 7142 8048
4  8177 162 161 700
4  8177 8450 700 8179
4  7535 7598 7599 7539
4  7577 7578 7576 7694
4  7740 7639 7739 7819
4  6501 6502 6512 6503
4  7872 6134 8231 7875
4  7966 8175 8061 8231
4  8175 7872 8231 7875
4  8007 7352 8008 8062
4  8150 8167 8362 8168
4  849 859 8014 947
4  8150 8167 8377 8362
4  7200 8167 7201 8077
4  7707 8292 7064 7066
4  8443 8467 8132 8342
4  8451 8309 8462 8132
4  7065 7757 7066 8163
4  7248 7010 7253 7354
4  7922 7923 8163 7924
4  7206 7203 7728 7871
4  7064 7176 8141 7390
4  7390 7176 8141 7178
4  6296 7871 6903 6904
4  7176 7911 7348 7952
4  7910 7672 8309 7911
4  7549 7660 7216 7857
4  7176 8161 8141 7178
4  8176 261 161 265
4  6673 7646 7220 7221
4  7220 7221 7646 8021
4  8007 8465 7351 7352
4  7192 7500 7383 7193
4  6835 6836 6837 7642
4  6246 6671 6257 7784
4  7872 8007 8175 8231
4  6942 6674 7610 6675
4  7349 7350 7504 8041
4  8076 8377 6135 7874
4  6364 6369 6365 7383
4  6942 7439 7610 6946
4  6255 6636 6250 7782
4  6195 7758 6575 7852
4  6437 7359 6721 6440
4  6544 7166 7165 6546
4  6432 6434 6436 7161
4  6376 7139 6378 7140
4  8409 7356 7351 8465
4  8409 7351 8042 8231
4  6638 6373 7442 6643
4  6542 7357 6641 6545
4  8039 8040 8290 8042
4  6679 7759 6990 7788
4  7164 6462 7284 7167
4  6883 6890 7507 7355
4  8076 8077 8040 6132
4  6883 6887 7315 6884
4  7350 7303 7200 8008
4  6883 6888 6887 6886
4  6295 7730 6301 7796
4  7861 8391 7862 7863
4  7858 7869 8146 8145
4  7882 8400 8243 8059
4  8386 8059 8399 8286
4  7056 7057 7060 7912
4  8400 565 8392 8411
4  8400 8386 8059 8399
4  8244 363 579 365
4  7861 7870 8144 8388
4  8044 8388 8390 8391
4  7335 8144 7336 7867
4  7935 8136 7937 7936
4  7707 7064 7709 7757
4  7757 6839 8356 6122
4  7923 6122 7757 7971
4  6424 7718 7707 7719
4  7757 6122 7719 7971
4  6621 7030 801 938
4  6747 6749 7111 7029
4  6621 7030 7987 6622
4  6743 6744 989 1022
4  7815 6795 7029 7988
4  7935 7093 8141 8161
4  7390 7176 7177 7952
4  7064 7093 8292 8141
4  6768 1025 7028 6769
4  6767 6126 6125 971
4  6768 7028 7102 6769
4  8254 6765 6706 995
4  6705 6763 6701 6704
4  6362 1011 6586 8277
4  6356 6357 6678 6354
4  6362 6586 8046 8277
4  6877 6514 8299 6363
4  6286 6289 7010 6881
4  7160 7252 6869 7226
4  7040 7035 6499 6314
4  1024 941 6581 747
4  7089 6978 7090 7591
4  6335 8057 6581 8094
4  6480 6515 6482 6517
4  7010 6286 8266 8089
4  6685 6645 6073 6083
4  6577 6335 6578 6336
4  6515 6514 6877 6363
4  8109 8162 8306 8113
4  7249 6607 7250 7013
4  6515 6388 6482 6517
4  6515 7010 6881 8266
4  6517 6981 552 471
4  6486 616 810 8393
4  8306 8113 8373 8416
4  6479 6480 117 6514
4  7007 6922 7366 6924
4  8255 47 8395 6039
4  7366 7340 7337 7339
4  6921 6927 8264 8157
4  8256 6039 8395 7628
4  6925 6556 7337 7878
4  6119 6125 6124 6121
4  7922 7756 407 71
4  6926 6216 7900 8291
4  7184 8129 8158 6117
4  7897 7899 821 6215
4  6117 8317 8324 8318
4  7669 8132 8309 7911
4  7899 6926 6216 7900
4  7127 7366 7894 8074
4  7366 7006 7958 8074
4  7005 7008 7009 7006
4  8034 7366 6926 6924
4  8183 342 976 8188
4  8164 6056 722 8479
4  8164 8472 8479 922
4  6849 6361 8194 8326
4  6260 684 8480 6964
4  6311 8119 8280 6317
4  723 8412 6056 722
4  6311 8248 8280 8279
4  7184 8129 6117 8131
4  6313 6499 7043 8194
4  6314 6318 6311 8193
4  6855 8183 6313 8184
4  6315 6317 6319 6316
4  7901 139 50 649
4  6315 7032 7034 6312
4  6984 6233 6985 6845
4  8127 8233 8313 7957
4  6382 6500 6494 7063
4  7088 8220 603 8219
4  46 47 48 8395
4  7524 8333 8029 6802
4  6843 7291 6497 6844
4  7861 8044 8388 8144
4  8044 8286 8386 8391
4  7862 8426 8392 8386
4  6644 6645 8059 6646
4  7623 7624 6947 7382
4  7882 563 8400 8402
4  7464 7465 7809 8260
4  7674 7465 7832 7809
4  7625 7626 6547 6548
4  7456 7457 7656 8251
4  8059 6645 8271 8060
4  7658 7656 7457 7834
4  6663 7427 7367 7609
4  6684 741 743 742
4  7882 8059 6645 8271
4  7427 7609 7528 7426
4  8044 7867 8388 8144
4  6755 6800 7634 6732
4  6716 8044 8059 7344
4  6714 6717 7867 7620
4  8231 8409 7966 8290
4  8290 6735 8186 8038
4  7235 7181 7237 7182
4  6445 7235 7182 7181
4  7052 7379 7293 7049
4  684 8480 723 682
4  8290 8231 8282 7968
4  8040 8290 8042 8231
4  6051 6057 6273 6055
4  6807 7349 8041 8040
4  8007 8409 7351 8465
4  7350 8040 8076 8077
4  6807 7570 6808 8041
4  6734 6742 6737 7965
4  8178 8006 8149 8008
4  7445 6053 6279 6054
4  8197 8150 8362 8168
4  6877 8299 6977 7843
4  6239 523 522 521
4  6181 6188 6189 879
4  6187 6186 6284 6242
4  6260 684 683 682
4  6882 6284 8031 6987
4  6186 7920 6241 7919
4  6110 6107 6183 585
4  6181 6186 6241 7919
4  6289 7013 7010 6881
4  7249 7013 6289 8031
4  6289 7010 7354 6291
4  6424 6120 6779 6780
4  8274 6127 6126 6838
4  7707 7757 7719 7066
4  6838 6127 7973 8274
4  8106 8108 235 8417
4  6424 6122 6780 6782
4  6122 6780 6782 7973
4  8105 217 235 413
4  6124 6121 6423 8269
4  8108 234 236 235
4  7707 8292 7708 8141
4  6419 6422 7387 7708
4  8108 8110 235 236
4  6291 6286 6289 7010
4  6419 6424 7706 6120
4  7635 7640 7777 7732
4  7707 8292 7718 7708
4  6323 8214 7823 7824
4  6601 7311 7225 7227
4  8420 46 669 222
4  7294 6316 7222 7631
4  6320 6203 6322 6212
4  6309 8184 8263 7121
4  7629 6322 6252 7292
4  7235 7241 7238 7293
4  8129 8174 6324 6088
4  7418 6758 7044 7510
4  6107 6242 6240 6241
4  7580 7472 7473 7661
4  6249 6672 7545 6671
4  7635 7044 7019 6757
4  7367 7939 7608 7368
4  6240 7071 7039 6242
4  7044 7019 7601 7600
4  7039 6761 6240 6696
4  7478 7799 7714 7584
4  7174 7375 7233 7231
4  7373 7606 6656 7633
4  6655 7268 7521 7374
4  6797 6984 7963 6910
4  8064 8385 8066 75
4  619 8404 620 8403
4  8439 620 621 937
4  8429 6061 937 8476
4  8347 8067 621 146
4  6238 7114 6619 7096
4  6843 6233 6201 6840
4  6984 7985 7114 7963
4  6198 7114 7985 6620
4  6197 489 6046 6048
4  6059 7618 8484 8477
4  8438 8453 689 662
4  6197 6619 6620 592
4  6238 6198 6619 7114
4  8437 663 620 662
4  8437 8404 663 8442
4  8453 689 662 324
4  619 620 621 8403
4  8066 8072 75 382
4  8068 8069 8070 6474
4  8347 8064 146 8430
4  144 8403 619 621
4  8066 76 382 75
4  7672 6898 7348 6893
4  6238 6798 7096 6614
4  6618 7096 7095 943
4  8179 8482 8459 8258
4  8071 8070 8258 6477
4  8071 8065 8196 8169
4  1035 6042 490 489
4  8134 6492 6200 502
4  7954 7955 8313 8314
4  8226 10 9 8227
4  8242 7977 6065 8423
4  653 8445 317 8228
4  8432 317 253 654
4  6417 6092 654 8415
4  6048 489 1035 191
4  6091 253 317 8228
4  6092 6413 6407 6418
4  8422 8359 8485 7976
4  6619 6048 191 489
4  7007 7006 7127 7286
4  6925 7907 7899 484
4  7977 7976 8483 6836
4  8423 7975 10 8
4  8034 6926 7124 6924
4  7897 821 7899 7898
4  8431 614 311 336
4  7321 6826 8475 8441
4  6216 8224 6218 8293
4  8354 8433 311 317
4  8354 8445 312 8434
4  8354 8352 8445 8434
4  653 317 253 8228
4  6090 6996 6404 6407
4  8332 8083 8049 8082
4  8431 8083 8080 336
4  6213 822 7897 8270
4  8431 8083 336 311
4  7897 8293 6218 8270
4  6217 6326 6219 6327
4  7910 8471 8424 7348
4  8189 6326 8037 7104
4  6716 8059 8286 8060
4  6073 6645 6646 6083
4  8460 328 689 715
4  8426 7862 8146 7893
4  6569 6687 8147 6685
4  7858 7869 7863 7862
4  6286 8295 6291 6292
4  7089 7091 6715 7591
4  6716 8059 6646 7344
4  8470 7122 7630 8232
4  8081 7327 8085 8380
4  6685 6645 7091 7597
4  7090 6685 6689 6084
4  8243 563 792 468
4  7090 6685 7592 6689
4  6715 6716 6717 7091
4  8459 8482 7202 8258
4  8008 8076 7200 7350
4  8450 8179 382 700
4  6071 6083 6073 6072
4  6071 6084 6083 6080
4  8066 76 75 8385
4  8370 8106 217 8418
4  7225 7160 7227 7313
4  8241 8481 7891 8478
4  7861 8146 7862 7893
4  7943 8456 579 577
4  8117 6735 7112 7983
4  7966 8290 7968 8231
4  6735 7112 7983 7984
4  8039 8290 6739 8042
4  8039 8290 8282 8038
4  6723 498 849 495
4  498 8030 840 493
4  6613 6738 7096 7098
4  6807 7356 7349 8042
4  8202 8290 6735 8186
4  6807 8039 6739 8042
4  7097 944 7886 764
4  7029 7815 8137 6795
4  6615 6808 6809 8261
4  6320 6323 7823 7824
4  8467 8471 7952 7365
4  8451 698 689 328
4  690 663 8442 662
4  6208 6209 6733 7394
4  6087 6041 6178 6179
4  8468 71 328 638
4  8451 8460 328 689
4  6310 6312 6309 7829
4  6179 6180 7393 6520
4  8084 340 91 50
4  8184 8470 7121 6309
4  6733 6180 7394 7393
4  6175 6520 6518 462
4  6086 6177 932 170
4  8080 336 90 8446
4  8061 160 265 161
4  7350 8077 7200 7201
4  8459 8169 7202 8149
4  6079 6178 6085 6080
4  8177 8176 700 161
4  702 8384 76 382
4  6881 6284 6286 6289
4  8463 7763 8481 7885
4  8463 7869 8145 8146
4  1034 170 6037 6041
4  6040 718 531 900
4  7861 7862 8386 7893
4  6175 463 8057 6520
4  7169 7954 8127 8153
4  6032 6036 6041 6037
4  6041 900 1034 170
4  7511 7210 7779 7745
4  6285 6186 7920 6241
4  6864 7619 7515 6941
4  6631 6941 7515 7347
4  6850 898 432 438
4  6285 8308 7022 7920
4  6359 7034 6360 6450
4  6839 6121 8356 6122
4  6121 8356 6122 7706
4  7756 458 8342 7365
4  8443 70 328 71
4  7031 6314 7034 6499
4  8443 8468 71 328
4  7756 407 71 458
4  52 340 8466 50
4  7034 6450 7104 8037
4  8181 7120 8082 8160
4  6683 6451 7405 6331
4  8185 342 50 139
4  7886 828 830 829
4  6314 6313 7034 6499
4  6450 6359 6848 6354
4  7294 7032 6310 7829
4  6384 520 6387 558
4  6334 7830 6328 6449
4  6424 6780 6122 6120
4  6774 6424 6782 6773
4  578 82 579 8401
4  6424 7719 6122 6782
4  6768 6781 6127 6769
4  6119 6838 6122 6121
4  7554 7557 7562 7555
4  7923 6839 863 407
4  8105 235 416 413
4  7635 7636 7777 7639
4  6424 6773 6422 7718
4  7070 6420 6779 8172
4  6501 7243 6508 6502
4  6479 6483 118 6975
4  6420 6421 6422 8172
4  6189 6182 288 8449
4  6158 6167 6163 6801
4  6075 519 909 37
4  6168 6159 6162 6171
4  6230 7821 1018 6224
4  6803 8473 936 7821
4  860 408 7972 863
4  6285 6292 6293 7022
4  6799 8024 6788 6802
4  8108 234 8417 8358
4  6801 8024 7991 6167
4  118 114 6483 117
4  6982 6165 6158 7908
4  6961 8472 8116 6958
4  211 218 424 8413
4  6168 6772 6172 6171
4  7815 6795 7961 8137
4  7815 8250 7814 8111
4  7815 7111 8137 8138
4  9 653 253 8228
4  6608 8137 6611 7113
4  7815 7029 8073 7988
4  6621 6748 938 801
4  6749 7111 7815 8143
4  8423 8 7 8435
4  6619 943 194 191
4  6608 6610 7113 6611
4  6610 6795 7113 6611
4  6238 6614 7096 6043
4  7954 8314 8313 8153
4  6608 6614 6613 6617
4  6175 8057 6085 6519
4  8064 8385 143 8430
4  6335 6581 1024 941
4  6119 6838 6126 6127
4  8120 8303 8316 8305
4  7090 8095 7595 6563
4  6086 6336 171 871
4  8451 8452 698 8461
4  6685 6686 6578 6082
4  7038 8056 7424 8307
4  7089 6205 6072 6080
4  6206 6563 6084 6978
4  6036 6177 6071 6079
4  614 312 8434 311
4  8080 8446 90 8190
4  6071 6080 6083 6072
4  7089 6715 6205 6562
4  698 690 8452 689
4  8443 70 8469 8461
4  7707 7718 8338 7719
4  6124 8269 914 910
4  6419 7306 6421 6590
4  6698 7070 6762 7073
4  6708 981 6766 800
4  7102 6783 6760 6781
4  6694 6695 6697 8047
4  6125 6120 6780 7073
4  6779 6773 6775 8172
4  7037 7070 6762 8055
4  7070 7073 7071 7039
4  6165 6720 6914 6721
4  6136 6488 843 358
4  6142 7105 6723 8030
4  6164 6154 6719 6522
4  6983 7994 647 7547
4  6151 6527 6131 6130
4  6463 6559 6928 6560
4  6720 6919 8027 6728
4  90 614 8446 336
4  8084 340 8466 8190
4  6439 8027 6919 6434
4  8378 8053 7287 6433
4  6439 6434 8052 8027
4  6128 6138 6131 6130
4  8066 8384 76 8385
4  143 8430 144 146
4  6718 7992 6770 7105
4  6718 6165 7992 6721
4  6151 6131 6719 6522
4  8242 8401 82 8435
4  6527 8052 6529 8027
4  7095 7113 7112 6617
4  6750 6745 7990 7982
4  6241 7424 7921 7920
4  8137 6616 7984 7112
4  7112 7984 8138 7982
4  6610 6611 6609 6913
4  6746 6621 7030 7029
4  6743 6750 7111 6745
4  8137 7960 8289 6611
4  7043 7040 6314 7036
4  6082 6686 6336 871
4  6580 8092 8095 7974
4  217 218 8418 724
4  567 8358 234 236
4  6686 871 6684 742
4  6686 6336 871 870
4  6707 6713 8276 7425
4  6763 6708 6766 6761
4  6108 6707 6708 8276
4  6694 8047 6699 6695
4  6108 6240 6696 6241
4  7101 800 971 521
4  807 6729 804 803
4  7943 8273 578 8401
4  7037 7039 7020 6696
4  6240 6242 7039 6241
4  7037 7021 7072 8055
4  8450 8457 702 8384
4  6877 7843 6977 7840
4  76 8385 143 75
4  6995 7071 7101 6240
4  7063 6500 598 7069
4  6189 6514 115 6516
4  8464 52 8188 8466
4  6287 6292 6286 6291
4  6294 7016 7037 7021
4  6108 6241 6696 7921
4  6294 6506 7016 7021
4  6294 7020 6285 7022
4  7020 7920 7022 8307
4  7922 8469 329 7924
4  6294 7016 6290 6242
4  6286 8297 6363 8294
4  6294 7021 7037 7020
4  6515 6391 7010 8266
4  6197 6198 6232 6620
4  6984 6198 7114 7985
4  6042 6201 6043 6045
4  8272 8425 781 8273
4  6238 6619 6048 7096
4  6797 7963 7114 7986
4  7962 6910 6984 6845
4  7096 6044 6048 6043
4  6612 6614 6043 6613
4  234 724 235 8417
4  6201 6043 6049 6042
4  6797 6910 6796 6913
4  6609 7734 6615 6612
4  6261 7110 6104 223
4  8177 8180 162 8457
4  6211 6733 6208 6209
4  6040 718 716 531
4  6208 8275 6209 7394
4  6806 6733 7023 7393
4  6208 6180 8086 7394
4  6487 1018 936 358
4  6206 7089 6084 6080
4  6224 6223 6222 1018
4  6687 6804 6570 8147
4  8392 8411 786 8425
4  932 6086 170 171
4  6519 8057 6085 8094
4  781 8273 578 577
4  6205 6080 6036 6072
4  6359 6358 6848 6354
4  6361 8277 7042 8326
4  6306 6307 7761 7789
4  8119 8303 8075 8159
4  567 118 6975 568
4  6311 8263 6312 6313
4  6678 6327 6568 6218
4  8175 8180 7967 159
4  6217 6327 6219 6218
4  7031 6319 6453 7033
4  6325 6333 6327 6330
4  6449 7033 6453 6334
4  6333 6453 7031 7035
4  7065 8163 7066 7067
4  7390 7388 8141 7708
4  6449 6450 8037 6326
4  295 6928 8157 6927
4  6583 6362 6678 6356
4  6894 7346 6897 6896
4  7177 7391 7952 7711
4  6892 6939 6893 6898
4  7385 7754 7177 7388
4  6901 7345 7179 7435
4  6325 7529 6334 6330
4  8034 6926 7340 8291
4  6921 6924 8264 6926
4  7894 7896 8379 7895
4  7005 6337 7007 6923
4  6569 743 741 6571
4  539 542 736 8382
4  6833 539 936 8473
4  6146 6524 6522 6521
4  6718 6142 6719 6721
4  6230 6522 6521 6149
4  6146 6151 6154 6522
4  6230 6803 6521 6130
4  6148 6489 7993 6729
4  6166 6916 6158 6165
4  8453 7910 715 8424
4  6901 7176 7952 7177
4  7176 8161 7178 6899
4  7910 7348 7911 8471
4  288 8449 114 115
4  485 486 8223 736
4  8454 7673 8328 7672
4  7669 8312 8311 8135
4  6892 6896 6900 6899
4  6939 7670 8262 6900
4  6892 6938 6897 6894
4  946 859 856 6726
4  519 37 6754 757
4  6386 520 98 22
4  6381 7117 7068 7331
4  8061 265 790 8062
4  7923 408 407 863
4  8356 8269 8357 7389
4  519 6075 6386 6754
4  6384 204 558 7069
4  6385 6386 98 22
4  976 342 52 8188
4  7544 6634 7545 7224
4  6849 918 898 754
4  7544 6633 7137 6636
4  6822 7086 7548 7792
4  7213 7791 7648 7153
4  6822 7079 7791 7213
4  6492 6050 488 6047
4  6492 518 179 502
4  6491 6495 6047 6500
4  786 8425 781 780
4  565 564 786 8411
4  6492 6500 6494 6491
4  6491 6047 6492 6500
4  7063 6500 179 598
4  6409 6455 7054 6303
4  6409 6299 6410 7653
4  6410 6412 7653 7853
4  159 162 161 8180
4  160 7967 750 159
4  7063 204 518 98
4  8165 6392 7956 7527
4  204 6384 7063 7069
4  563 564 8402 817
4  520 6386 6384 6387
4  7544 7724 6673 7651
4  7544 6249 6255 7651
4  6243 6255 6256 6257
4  6669 6249 6671 6672
4  6811 6379 6822 6821
4  879 288 6182 1006
4  7213 6379 6822 7647
4  6811 6822 6824 6821
4  7689 7577 7690 7694
4  7677 7681 7680 7557
4  7677 7689 7746 7558
4  7249 6289 7013 7010
4  6289 7354 6288 6291
4  955 750 8203 958
4  7883 8426 391 7885
4  7858 6266 7194 7860
4  7194 7860 6268 7195
4  8053 7894 8379 8378
4  7744 7761 7741 7789
4  484 485 7907 884
4  7287 8378 6435 7285
4  8061 8409 8465 791
4  7083 7202 7200 7303
4  7200 8167 7077 7201
4  7470 6244 6247 6248
4  6243 6245 6244 6247
4  6243 6250 6245 6247
4  7923 7972 408 863
4  6702 7156 6256 7781
4  6123 772 863 910
4  6838 860 863 772
4  408 329 7924 407
4  6243 6247 6256 6250
4  7492 6813 6814 7496
4  6811 6819 6813 6812
4  6815 7147 6816 6824
4  8184 6312 8210 7829
4  6811 6823 6819 6812
4  6811 6820 6821 7786
4  6390 6881 7010 7013
4  7858 7869 7862 8146
4  502 645 507 8408
4  6271 7194 7191 7763
4  7760 6853 7761 7716
4  7162 7165 7164 7285
4  8150 8006 7872 8008
4  7083 7304 7199 7201
4  6391 8089 8267 7253
4  6403 7157 6425 7254
4  6391 8266 8267 8089
4  8463 7862 7869 8146
4  8183 8187 976 898
4  6262 6266 6269 7360
4  6847 898 438 754
4  6037 6032 1034 6041
4  7975 666 8 363
4  6527 8052 8054 6529
4  6432 6438 7163 6544
4  6433 6461 6460 6131
4  6838 860 8274 7972
4  7076 8197 8168 8150
4  8072 75 382 369
4  7899 484 7907 884
4  821 884 7898 820
4  6325 6329 6328 7529
4  8202 955 8203 958
4  6050 6496 6235 6201
4  828 958 8396 830
4  7068 6954 7954 7169
4  755 918 8326 754
4  6751 764 7886 829
4  8400 8392 565 7883
4  6569 6645 6685 6572
4  8183 898 976 342
4  6716 8288 8287 8060
4  7091 8310 7596 7597
4  7091 8287 8310 8060
4  6865 6866 7742 7695
4  7385 7710 7307 7308
4  7179 7180 7177 7754
4  7511 7741 7513 7211
4  6341 6347 7705 6069
4  6473 7075 7586 7454
4  7210 6306 6300 7794
4  6347 7588 7699 6346
4  6716 7091 6645 8060
4  7162 6435 7161 7165
4  7882 817 563 8402
4  741 817 6571 743
4  6377 6710 6989 6971
4  7166 7502 7384 7167
4  6473 7586 7453 7454
4  8039 8284 8283 8038
4  7198 7505 7196 7305
4  6478 7076 6470 6472
4  7198 7505 7507 7196
4  6890 7197 7196 7507
4  8245 8478 8170 6269
4  6262 6265 6834 6263
4  6616 8289 7984 8298
4  6834 6269 6837 6836
4  6179 6520 7393 7024
4  6203 6322 6212 6204
4  6329 6332 8224 8381
4  6325 6329 7529 6332
4  8257 716 6805 8387
4  6032 6037 1034 8230
4  6087 6041 6518 6040
4  6261 684 6964 818
4  121 421 6858 123
4  6860 7256 6431 6964
4  8076 6135 6132 6134
4  8146 7861 7194 7335
4  6032 6039 6035 8230
4  6038 6324 6035 6039
4  7511 7210 7745 7744
4  7861 8388 8391 8236
4  7858 7864 7870 7865
4  6647 741 792 563
4  6098 6099 6100 6116
4  8420 8395 46 48
4  8044 8386 8059 7344
4  8400 564 565 8411
4  6381 6386 6385 6392
4  7062 7063 518 98
4  7062 98 100 8222
4  8256 8420 8257 6105
4  8255 6039 531 47
4  6601 7225 7312 7323
4  8134 8406 518 645
4  8107 8116 8114 8472
4  7894 7339 7106 7896
4  6329 8032 7009 7529
4  8480 8412 6056 723
4  8034 8001 8032 8291
4  8164 922 874 8472
4  6857 7892 6858 6863
4  6053 6281 6861 7848
4  292 7892 8413 424
4  8164 6057 7015 6056
4  7894 7366 6922 7337
4  7894 7958 7339 7895
4  6105 8131 8395 7531
4  6097 6970 6969 7110
4  8053 8253 8379 7896
4  6261 223 6104 221
4  8040 8041 6132 8077
4  8076 8377 8167 8077
4  6501 7243 7318 6508
4  6868 7225 6873 7310
4  8150 7874 8006 8363
4  6872 7469 6876 7309
4  7415 6778 7604 7416
4  7225 6873 7323 6869
4  8007 7872 8008 7351
4  6601 7312 6600 7323
4  8076 6132 8377 8077
4  8150 8376 8377 7874
4  8044 8285 8388 7867
4  8044 8390 8285 8286
4  7091 8287 6717 7591
4  7899 6215 484 821
4  6213 6218 7897 6216
4  296 8157 1037 295
4  8169 8197 6470 7076
4  7076 8197 8149 8169
4  8040 6133 8281 8282
4  8100 8366 8065 8101
4  6203 6033 6034 6036
4  6175 463 1024 8057
4  8076 7351 7872 8231
4  6071 6081 6086 6177
4  6518 1004 6520 7024
4  8040 6132 8041 8281
4  6737 6735 8290 6739
4  7326 7409 7408 7607
4  7703 7812 6413 7704
4  6114 7852 6115 7812
4  6675 7611 6677 7610
4  6616 8283 6808 8261
4  6909 6612 6614 6043
4  6385 7547 22 599
4  6364 6263 6365 6369
4  7954 8314 7956 7955
4  6114 7852 6575 6115
4  6989 7759 6971 6712
4  6386 757 519 6754
4  6820 7649 7786 6971
4  6989 7759 6712 6990
4  6384 520 204 98
4  7453 7616 7617 7716
4  6296 7203 7871 7462
4  6872 7362 7318 7310
4  6902 6904 6903 7314
4  6297 7730 7796 6903
4  6811 6813 7786 6814
4  6200 6046 508 502
4  7004 6721 7359 6917
4  6544 7161 6545 6546
4  6542 6547 6549 6639
4  7114 6984 6797 6238
4  6902 6884 6905 7462
4  7585 6474 7587 6346
4  6907 6906 7617 6908
4  6200 502 507 8408
4  6197 6232 508 734
4  6624 7346 6631 7345
4  7177 7180 7178 7754
4  6892 6938 6939 6900
4  7861 7870 7860 8144
4  8392 8272 780 8427
4  8142 8342 7065 8132
4  6631 6632 7515 6865
4  7942 7866 7869 7944
4  7861 7862 8391 8386
4  8400 563 8243 565
4  6281 8372 6273 6057
4  8106 724 8418 8417
4  8107 211 217 874
4  8164 8414 8479 8472
4  6199 6198 7985 6232
4  6492 6047 488 514
4  6480 6517 6486 553
4  6286 6363 6877 8294
4  918 976 8187 898
4  6877 7842 8295 8294
4  7841 6966 6977 7840
4  920 6734 6736 7965
4  920 1033 944 6734
4  7966 8405 160 955
4  718 719 1004 7024
4  7966 160 7967 750
4  7366 8000 7958 7006
4  6554 8473 8397 8382
4  6921 7337 6922 6924
4  8053 7896 7107 7996
4  7366 7959 8000 7340
4  7200 8150 8167 8076
4  8061 160 791 265
4  6965 8373 6351 6968
4  7157 7253 6391 7254
4  508 734 6232 507
4  7484 6994 7483 7720
4  7484 7720 7483 7602
4  6991 6994 7720 6992
4  6425 6878 6965 6353
4  7287 8074 8378 7285
4  7809 7464 7277 7721
4  6558 6561 768 771
4  7280 7429 7379 7722
4  7194 8144 7860 7195
4  7640 7641 7662 7565
4  8145 7858 6266 7194
4  7478 7477 7799 7584
4  7109 6880 7488 7494
4  7402 7584 7493 7488
4  7478 7712 7479 7583
4  7402 7401 7584 7488
4  7372 7477 7423 7606
4  6755 8029 7634 6802
4  7020 8307 7038 7424
4  6697 8056 8047 6695
4  6151 6152 6150 6528
4  6524 6527 6130 6526
4  7713 7804 7633 7459
4  7372 7373 7478 7606
4  7478 7606 7373 7799
4  7326 7324 7607 7408
4  6311 8263 8119 6309
4  7474 7409 7489 7471
4  8119 8280 8304 8279
4  8127 7889 8233 7945
4  6382 6494 6383 7061
4  7470 8043 7473 7472
4  7481 7607 7939 7581
4  6954 7954 8165 7068
4  7367 7939 7481 7608
4  8165 8321 8314 8166
4  7656 7456 7272 7655
4  7189 7188 7187 7426
4  6663 7367 7608 6664
4  7935 7093 8136 7067
4  7669 8312 7937 8262
4  8392 8425 786 780
4  8120 8315 8303 8159
4  7858 7861 7870 7860
4  6644 8243 6647 8156
4  8243 563 468 565
4  8175 159 161 8180
4  8049 7322 8332 8050
4  8175 8061 161 160
4  8119 8120 7122 7121
4  8405 955 791 160
4  8409 8042 7356 7965
4  8181 8319 8315 8182
4  8129 8099 8214 8302
4  6857 7015 8369 6861
4  6117 8317 8301 8158
4  6429 6102 6101 6260
4  8164 292 211 722
4  8370 217 218 8418
4  7671 8329 8312 7670
4  7935 8262 7937 8161
4  8370 8107 211 217
4  7689 7694 7690 7746
4  7805 7819 7818 7536
4  7508 7805 7637 7600
4  6502 7578 7575 7576
4  6385 6384 7062 98
4  7689 7691 7577 7692
4  8165 8314 8322 7956
4  6513 7640 7663 7638
4  6163 8023 6790 6791
4  6512 7638 7747 7662
4  7011 7652 6958 6973
4  7954 8165 7068 6383
4  7524 8333 8321 8029
4  6828 8200 6829 7322
4  8181 8315 8320 8212
4  6509 7362 6510 6508
4  7637 7600 7820 7839
4  8200 7915 8319 8201
4  6111 6103 8323 6101
4  6427 6117 6116 6118
4  6116 8204 8317 8171
4  292 211 424 8413
4  6117 8301 8318 8300
4  6964 684 6261 6260
4  6860 6964 8480 7256
4  7015 211 292 8413
4  8328 8438 8454 8309
4  6601 7225 7323 7226
4  7669 7671 7672 8309
4  7671 8312 8330 8311
4  6501 6513 6511 6510
4  7635 6757 7019 7017
4  6067 6932 8329 6931
4  6382 6498 6494 6500
4  7524 7525 8321 8333
4  6789 6788 8333 6802
4  8216 7917 8341 8353
4  8200 8319 7916 8211
4  8216 8341 7915 8215
4  6325 6333 6450 6327
4  6331 8224 6329 6332
4  6983 6385 22 6386
4  6954 8166 7170 7172
4  431 8189 7104 6221
4  6078 6170 7118 6169
4  8165 8322 8321 7527
4  6828 8181 8200 8050
4  7596 7090 7091 7597
4  7091 7597 8060 8310
4  6689 6804 8147 8148
4  8289 8137 6616 7984
4  7225 7310 7312 7323
4  6616 8298 7984 8038
4  8137 8289 8261 6611
4  6536 8182 6537 6538
4  7248 7010 7013 6389
4  6857 7892 292 123
4  7157 7248 7253 7252
4  6857 8412 121 292
4  7248 7253 7010 6391
4  6099 6116 8171 8268
4  289 6259 6260 121
4  6117 8317 6111 8324
4  6116 8204 6111 8317
4  7117 6077 6753 6387
4  6430 8096 8204 8268
4  6345 8337 8336 8335
4  6381 7069 6387 7331
4  6345 8209 8101 8065
4  8067 146 536 710
4  6259 6858 121 421
4  8100 8327 8102 8198
4  6260 289 683 6258
4  6146 6156 6155 6153
4  6117 8324 6111 6106
4  6258 608 289 221
4  8370 6057 6281 7015
4  6103 289 419 6859
4  6054 8480 6278 7256
4  6522 6154 6147 6164
4  6105 6969 7531 8395
4  8420 669 608 222
4  6142 6141 6139 8030
4  6258 608 6103 289
4  6379 7649 7648 6821
4  6710 6971 7786 6711
4  6822 7791 6821 7648
4  7470 7152 6248 6247
4  6243 6249 6255 6257
4  6811 6379 6820 6823
4  6824 6821 7793 6814
4  7470 6244 7475 6247
4  6058 6930 6066 6067
4  7088 608 603 8220
4  8255 46 8395 47
4  7088 8420 669 608
4  8255 716 669 46
4  6105 6118 7531 6969
4  6067 8329 8339 8331
4  6066 8345 6932 8340
4  6789 8343 8333 6788
4  6755 6800 6802 7634
4  6126 775 772 187
4  7524 6789 6753 7118
4  6358 8277 6361 8326
4  6163 8023 6788 8024
4  6096 6408 8341 6416
4  7492 6815 6814 6812
4  6811 6379 6823 6822
4  6811 6812 6824 6823
4  6258 221 289 683
4  6105 6106 8131 6118
4  194 801 6618 594
4  6099 8171 6448 8268
4  6427 6117 8171 6116
4  6175 462 463 6520
4  6829 7322 6093 6826
4  6094 8341 8355 8353
4  6404 6997 6408 7002
4  7534 7805 7598 7541
4  6501 6509 7318 6504
4  6404 7980 6408 7978
4  8454 6893 7672 8424
4  6068 8345 8350 8346
4  6864 6865 7515 7619
4  8443 8132 8133 7065
4  6342 8336 8345 7705
4  6066 8345 6068 6932
4  7390 8141 7388 7178
4  8342 7065 7709 8142
4  6799 6169 6789 6170
4  6076 6077 6078 7118
4  7179 7177 7710 7754
4  7710 7752 7711 7533
4  6163 6791 6788 8023
4  8165 7524 7117 6392
4  6901 6896 6899 7180
4  7385 7390 7177 7391
4  6787 6794 6789 6788
4  7532 7413 7412 7750
4  7179 7180 7751 7432
4  7532 7752 7533 7410
4  6075 519 37 6754
4  6262 6267 6834 6265
4  6059 7618 6934 7673
4  6365 6264 6366 6367
4  6405 7002 6416 7702
4  6368 6366 6946 7437
4  6368 6371 6946 6366
4  6942 6946 6368 7439
4  8262 7669 6939 6898
4  6432 6440 6433 6460
4  6933 7673 6934 7618
4  6938 6897 6940 6900
4  8181 8200 8050 8082
4  8354 8332 8433 7321
4  6476 7197 7355 6475
4  7083 7201 7199 7200
4  6883 6890 6885 7507
4  6094 6408 6404 7980
4  6889 6473 7454 7075
4  6092 6407 6413 8415
4  6473 6475 7587 6474
4  7453 7616 7760 7762
4  6892 6894 7345 6895
4  6997 7978 7904 7979
4  6164 6719 6154 6720
4  6631 7345 7347 6624
4  6161 8023 7888 6790
4  8257 669 670 8219
4  6920 6158 6916 7810
4  8257 8255 716 669
4  6806 6088 7092 7023
4  6163 8023 6161 6790
4  6806 7024 7393 7092
4  6320 7824 6212 6322
4  7297 7300 7856 7500
4  7191 7297 7192 7300
4  6154 6150 6156 6728
4  7191 7194 7335 7763
4  7192 7297 7501 7500
4  6342 8345 8410 8350
4  7198 7506 7301 7769
4  7199 7301 7198 7305
4  6341 7705 6347 6348
4  6068 8345 6342 8350
4  7199 7350 7303 7200
4  6343 6344 6345 8196
4  6100 6116 6430 6862
4  7550 7284 7771 7502
4  6540 6438 6544 6543
4  7164 7550 7166 7284
4  7164 7286 7358 7127
4  6430 8206 8204 8096
4  6053 7849 8096 8097
4  8100 8197 8169 8365
4  7436 7565 6513 6510
4  7076 6472 7077 8168
4  6777 7415 6778 7428
4  7484 7723 7604 7722
4  6470 8196 8100 8169
4  7417 7509 7508 7535
4  7415 7428 7429 7604
4  7429 6994 7430 7483
4  7418 7599 7601 7416
4  6478 6470 7076 6477
4  6469 6478 6472 7075
4  7427 7522 7608 7607
4  7409 7491 7408 7581
4  8100 8197 8366 8327
4  6466 7817 6467 6825
4  7409 7607 7481 7581
4  6465 7325 6825 6467
4  7403 6145 6112 6144
4  7188 7427 7522 7369
4  8459 8149 7202 8482
4  6228 6137 495 494
4  6663 7608 7427 7369
4  6140 541 6833 6555
4  7189 7324 6535 7522
4  7189 7188 7522 7190
4  7908 6726 6158 6982
4  7168 7230 7229 7233
4  6524 6527 6526 6529
4  6648 7330 7329 7399
4  6949 6950 7171 7173
4  7402 7478 7583 7714
4  6655 7606 7372 7375
4  6649 6740 6651 7332
4  8463 8427 8481 389
4  7360 8199 8170 6269
4  7970 6065 8170 8199
4  7478 7799 7477 7606
4  7493 7488 7109 7402
4  6648 7401 7402 7398
4  7975 8 666 10
4  8456 365 577 389
4  8245 8241 8170 8478
4  6530 6539 6536 7327
4  6536 8120 8182 8181
4  6949 7168 6954 7331
4  6386 519 520 22
4  6228 1003 6222 355
4  7169 8153 7230 7170
4  8433 311 246 244
4  8216 7915 7917 7918
4  8433 8475 8049 244
4  7669 7670 8312 8262
4  7236 7239 6321 7240
4  7050 6252 6251 6254
4  6930 6066 8340 6069
4  7235 7181 7052 7237
4  7629 7051 7879 6035
4  7235 7181 7293 7052
4  6933 6931 6940 6937
4  8480 6260 6860 682
4  7181 7293 7052 7379
4  7258 7260 7631 6667
4  8470 7121 6309 7122
4  6053 6052 6279 6054
4  7294 7295 7726 7829
4  7188 7369 7190 7296
4  6311 6317 8280 6318
4  7445 8097 7257 7676
4  7258 7262 7631 7296
4  6053 8096 8360 8334
4  6052 6280 7849 6279
4  6166 6164 6154 6720
4  7173 7423 7171 7233
4  7173 7328 7171 7423
4  7174 7233 7375 7423
4  6341 6342 7705 8336
4  6653 6654 7263 7266
4  8067 536 8068 8069
4  7289 7290 7831 6493
4  7288 7232 7632 6658
4  6441 6442 6099 6448
4  6441 6445 6427 6970
4  6117 6106 8300 8324
4  6445 6777 6447 7241
4  6758 7018 6785 7601
4  7732 7025 7017 7012
4  6777 7181 7430 7429
4  7188 7522 7190 7369
4  7188 7296 7260 7369
4  8200 7916 7915 7918
4  6539 7523 7327 7187
4  7186 7188 7259 7187
4  6584 6585 6534 6827
4  7168 7170 7233 7171
4  7168 7233 7170 7230
4  7169 8127 7954 6494
4  7173 7233 7174 7423
4  6539 6537 7185 7190
4  8120 8212 7120 8305
4  7310 6873 7362 8026
4  7312 7323 8026 7909
4  6649 7634 6953 6732
4  6518 1004 718 462
4  6805 8387 716 719
4  6938 6933 6939 6940
4  7638 7637 7639 7740
4  7418 7508 7601 7599
4  6938 7618 6933 6867
4  6069 8340 7701 7705
4  6513 7565 7662 6510
4  6406 7001 6062 6997
4  6406 7001 7002 7000
4  6161 6164 6154 6166
4  6281 6280 8372 8368
4  6281 7849 8368 7848
4  6962 6972 8208 8113
4  6910 6984 6845 6841
4  6984 6985 7963 7962
4  6612 7734 6613 6043
4  8100 8198 8197 8327
4  6840 6844 6846 6842
4  6797 6796 7964 7986
4  8179 268 700 261
4  6046 6050 6047 488
4  6040 531 905 900
4  6979 6726 6772 856
4  6168 6174 6170 6162
4  6180 6178 6733 6208
4  6208 6210 8275 8086
4  6165 6721 6916 7992
4  6161 8023 6167 6156
4  8129 8301 8300 8302
4  6554 8397 8473 6525
4  6090 6091 6093 6095
4  6834 6998 7360 6836
4  8422 10 666 674
4  6098 6097 6104 6102
4  6197 6048 6619 489
4  6258 6260 6261 683
4  6311 8263 8193 8279
4  6053 7848 6861 8334
4  8184 8361 6309 7829
4  6314 8259 7036 6318
4  8108 8110 8306 8109
4  6314 6318 8193 8259
4  6314 7043 6313 6499
4  7040 6452 8265 7041
4  6350 8374 8375 8421
4  6977 6878 6484 6482
4  6424 6422 7708 7718
4  6705 6768 994 7028
4  6774 6776 6783 6775
4  6774 6783 6776 6782
4  7707 8338 7718 8292
4  6409 7653 6412 6454
4  6965 6966 6351 6353
4  6302 6304 6457 6305
4  6302 6457 6300 7780
4  6455 6456 6193 6192
4  7025 7682 7485 6276
4  6875 6871 7466 6874
4  7732 7025 7877 6757
4  7436 6513 7565 7640
4  6277 6958 7682 6276
4  6950 7328 6953 7171
4  6183 879 585 877
4  6189 8449 288 115
4  6286 6186 6363 8297
4  6584 6466 6827 6534
4  6032 6033 6036 6034
4  6465 6112 6466 6144
4  6530 6584 6828 6538
4  6530 6532 7189 6533
4  7236 7629 7050 7292
4  8256 8420 8395 46
4  6320 6211 7823 6323
4  6962 8421 6350 8113
4  6486 6388 6517 6482
4  6962 7082 6957 8079
4  6350 6351 8374 6352
4  6984 6845 6841 6233
4  6281 6280 6273 8372
4  7288 6843 7289 6842
4  7289 6911 6493 6045
4  7691 7690 7541 7746
4  6848 8035 6855 7034
4  6273 6280 8078 8372
4  7294 6310 7032 6316
4  6962 8374 6957 6963
4  6847 6358 6849 754
4  6315 7031 7032 6319
4  6800 6801 7364 6731
4  6157 6165 6166 6158
4  6148 7993 6489 6162
4  8120 8181 8160 7120
4  7186 7185 7296 7190
4  8185 342 139 432
4  8127 8313 8126 8153
4  6840 6909 6911 6846
4  6233 6235 6985 7945
4  6233 6985 6845 8278
4  6936 6866 6937 6935
4  6829 8217 8215 6585
4  7954 7061 6383 6494
4  7805 7598 7541 7820
4  6901 7180 6899 7178
4  6113 6829 6418 6826
4  6936 7701 6937 6852
4  6892 6897 6900 6896
4  7436 6874 7565 6510
4  6898 8262 6899 6900
4  6872 6509 6874 7436
4  6868 6870 7225 7313
4  7669 8135 7937 8312
4  7671 8328 8311 8331
4  8097 7445 6053 6279
4  6512 7638 7740 7747
4  6430 6053 7445 6431
4  7640 7663 7638 7777
4  6875 6397 6395 7466
4  6442 7257 6786 7256
4  6051 7015 6056 6054
4  6051 6273 6281 6052
4  6272 6274 6273 6956
4  7616 7760 7744 7761
4  7742 7760 6853 7744
4  6731 6732 7099 7364
4  8034 7340 8001 8291
4  6731 6741 6755 6727
4  6926 8291 7900 7340
4  6649 6650 6651 6740
4  6328 7124 6326 8037
4  7162 7287 6435 7285
4  6648 6650 6649 7400
4  7142 7541 7540 8048
4  8039 8038 8282 8284
4  6866 7618 6933 6935
4  8290 8038 8186 8282
4  8039 6616 6739 6735
4  6631 6865 6864 7421
4  6716 8060 8286 8288
4  6864 6867 6897 7421
4  8059 8060 8271 8286
4  6113 7703 7812 6415
4  6829 8217 6585 6827
4  8059 8399 8286 8271
4  6597 6288 6595 6507
4  6603 6598 6595 7353
4  6466 6112 6467 7817
4  6289 6290 6597 8031
4  6287 6291 6288 6293
4  7248 7354 7249 7010
4  6597 8031 7947 7755
4  6597 6506 6290 6288
4  6731 7696 6740 7811
4  6988 6990 6712 7696
4  6642 7140 7441 6641
4  6710 6712 6971 6711
4  6373 7549 6375 7643
4  6375 6380 7215 7648
4  6377 6710 6820 6879
4  6584 6826 6825 6531
4  6373 7442 7643 6380
4  6376 7140 6642 7139
4  6376 7441 6642 7140
4  6936 8340 6937 7701
4  6642 7451 7450 7614
4  8216 6096 6416 6093
4  7109 6813 6710 6880
4  8433 311 317 246
4  6638 6642 6376 7441
4  6113 6829 6826 6827
4  6915 7825 6917 7788
4  7616 6306 7796 6297
4  6415 7702 6416 8217
4  6442 6099 8268 7445
4  6902 6887 6884 6904
4  6302 6305 6455 6303
4  6297 7617 6307 6908
4  7616 7761 6307 7617
4  6297 6298 6908 6307
4  6619 592 594 6620
4  6784 7431 7415 6444
4  7616 6306 7744 7795
4  6444 6784 6786 6443
4  6295 6296 7206 7730
4  6295 6299 7730 7206
4  6295 6297 6306 6307
4  6341 8336 6345 6342
4  6478 7083 6890 7197
4  6343 6344 8196 6474
4  6674 7220 6673 7646
4  6673 7545 6672 7221
4  6469 6471 6343 7586
4  6674 6943 7646 6672
4  6262 6264 6268 6267
4  6669 6670 6675 7787
4  6368 6371 7439 6946
4  6414 7704 6413 7981
4  6262 6266 7891 6269
4  7538 7540 7539 8022
4  6263 6369 6371 6837
4  6834 7360 6269 6836
4  6364 6368 6371 6369
4  6371 7439 7448 7447
4  7448 6550 6553 6551
4  6834 7361 6998 6551
4  6914 6437 6919 7003
4  7448 7446 6553 7611
4  7585 6346 6343 6474
4  6883 6887 6889 7355
4  6140 769 6141 843
4  8428 8068 6344 8069
4  7451 7449 6680 7140
4  6914 6917 6916 6721
4  7451 7139 6680 6679
4  7451 7139 7788 7614
4  6930 6933 6934 6935
4  8068 6344 6474 8196
4  6540 6542 7357 6543
4  6936 6069 8340 7701
4  6815 6812 7498 7147
4  7492 7494 7493 7499
4  8072 382 268 369
4  8422 10 674 253
4  6414 7702 6552 7000
4  7470 7473 8043 8058
4  7152 6247 8058 7828
4  6877 7840 7842 7843
4  7249 6289 6288 6597
4  7418 6758 7510 7420
4  7467 7640 7732 7731
4  7534 7535 7508 7536
4  7467 7466 7776 7565
4  6408 7978 7980 8355
4  6414 6413 6407 7981
4  6274 6959 6958 6961
4  6395 6397 6398 7466
4  7635 7638 7641 7839
4  6404 6996 7979 6063
4  6834 7361 6551 6265
4  6550 7981 6998 6836
4  6379 6823 7647 7589
4  6146 6153 6155 6152
4  6161 6156 6167 6728
4  7805 7600 7598 7820
4  6166 6158 6920 6167
4  6920 6918 7991 7827
4  7145 7206 6410 7207
4  7203 7871 8012 7728
4  6150 6155 6528 6152
4  7811 6731 7363 7810
4  6119 6122 6780 6120
4  7922 7065 8163 7757
4  7756 8356 8342 7757
4  7669 8309 7672 7911
4  7364 7363 7810 7991
4  6724 6801 6799 6727
4  7935 8132 7067 7936
4  6649 6650 6740 6731
4  6866 6933 6867 6937
4  6669 6249 6676 7650
4  6673 7651 7724 6676
4  7136 7544 6673 7221
4  7136 7220 7724 7218
4  7635 7732 6757 7017
4  7740 7839 7820 7747
4  7535 7417 7599 7508
4  6347 7701 6851 6854
4  7638 7839 7747 7662
4  7114 6620 8104 7985
4  7805 7691 7541 7818
4  7534 7508 7535 7598
4  6930 6067 6933 6931
4  6938 6867 6940 6897
4  7508 7535 7509 7536
4  7638 7637 7740 7839
4  7415 7604 6778 7428
4  6466 6112 7817 6113
4  7703 6552 7906 6185
4  6393 6395 6973 6396
4  7534 7805 7541 7818
4  7805 7637 7819 7753
4  7417 7509 7535 7602
4  7970 6064 8325 8246
4  7418 7416 7417 7599
4  7858 7863 7869 7866
4  7044 7019 6757 7018
4  7011 6398 7012 7776
4  7335 8144 7195 7336
4  7732 7776 7017 7641
4  8155 8059 8386 7344
4  6709 6710 6712 6989
4  6650 7696 7487 6651
4  6113 7812 7817 6418
4  7474 6145 7491 6283
4  6466 6825 6826 7817
4  6244 6247 6245 7475
4  7470 7474 6244 7476
4  6921 6926 7337 6924
4  8053 8054 8253 7996
4  7471 7475 7491 7790
4  7471 7580 7472 7473
4  7127 8074 7285 7286
4  8034 7340 7366 8000
4  8459 8006 8365 8149
4  7206 6468 7207 6298
4  6300 6308 7789 6304
4  6295 6299 7206 6298
4  6306 7789 6308 6307
4  8150 8076 8377 8167
4  7350 8077 7201 7504
4  6306 7744 7789 7761
4  7209 7733 6457 7211
4  8040 6132 6133 6134
4  7418 6758 6785 7601
4  6756 6275 7027 7025
4  7508 7805 7536 7753
4  7635 7019 7839 7641
4  7676 6279 6278 7445
4  6274 6055 6961 6958
4  6486 6388 6980 6517
4  6777 7241 7181 7428
4  6492 6494 7063 7061
4  6199 6232 7985 6231
4  7732 7025 7682 7877
4  7635 7019 7637 7839
4  7534 7805 7508 7598
4  7534 7951 7538 7537
4  6612 7734 6911 6912
4  7534 7142 7540 7951
4  8486 8487 1101 8116
4  8487 8105 1101 8116
4  1101 8105 413 8116
4  8487 1083 1101 8105
4  1083 416 413 8105
4  1101 1083 413 8105
4  8488 8489 1097 6928
4  8489 6929 1097 6928
4  1097 6929 296 6928
4  1096 8488 1097 448
4  8488 6928 1097 448
4  1097 6928 296 448
4  1096 8490 8488 448
4  8490 6560 8488 448
4  8488 6560 6928 448
4  8490 1090 8491 6560
4  1090 1089 8491 6560
4  8491 1089 7126 6560
4  1091 1090 8490 771
4  1090 1089 6560 771
4  8490 1090 6560 771
4  8487 8492 1083 8105
4  8492 8115 1083 8105
4  1083 8115 416 8105
4  8486 8492 8487 8116
4  8492 8115 8105 8116
4  8487 8492 8105 8116
4  8492 1082 1083 8115
4  1082 1036 1083 8115
4  1083 1036 416 8115
4  1091 8490 1096 771
4  8490 6560 448 771
4  1096 8490 448 771
4  8486 1101 1100 8116
4  1101 413 885 8116
4  1100 1101 885 8116
4  8490 8489 8488 6560
4  8489 6929 6928 6560
4  8488 8489 6928 6560
4  8490 8491 8489 6560
4  8491 7126 8489 6560
4  8489 7126 6929 6560
4  8493 8494 1228 1187
4  8494 8493 1228 8486
4  8493 8487 1228 8486
4  1228 8487 1101 8486
4  1189 8493 1228 1187
4  8493 1189 1228 8487
4  1189 1083 1101 8487
4  1228 1189 1101 8487
4  8495 8496 1225 1210
4  8496 8495 1225 8488
4  8495 8489 1225 8488
4  1225 8489 1097 8488
4  8496 1224 1225 1210
4  1224 8496 1225 1096
4  8496 8488 1225 1096
4  1225 8488 1097 1096
4  8497 1224 8496 1210
4  1224 8497 8496 1096
4  8497 8490 8496 1096
4  8496 8490 8488 1096
4  1209 8497 8498 1210
4  8497 1209 8498 8490
4  1209 1090 8498 8490
4  8498 1090 8491 8490
4  1209 1208 8497 1210
4  1208 1209 8497 1091
4  1209 1090 8490 1091
4  8497 1209 8490 1091
4  8499 8493 1189 1187
4  8493 8499 1189 8487
4  8499 8492 1189 8487
4  1189 8492 1083 8487
4  8499 8494 8493 1187
4  8494 8499 8493 8486
4  8499 8492 8487 8486
4  8493 8499 8487 8486
4  1188 8499 1189 1187
4  8499 1188 1189 8492
4  1188 1082 1189 8492
4  1189 1082 1083 8492
4  8497 1208 1224 1210
4  1208 8497 1224 1091
4  8497 8490 1096 1091
4  1224 8497 1096 1091
4  1228 8494 1229 1187
4  8494 1228 1229 8486
4  1228 1101 1100 8486
4  1229 1228 1100 8486
4  8495 8497 8496 1210
4  8497 8495 8496 8490
4  8495 8489 8488 8490
4  8496 8495 8488 8490
4  8498 8497 8495 1210
4  8497 8498 8495 8490
4  8498 8491 8495 8490
4  8495 8491 8489 8490
4  6606 8500 7308 8501
4  8502 8503 8504 8505
4  8505 8504 8502 8506
4  8505 1674 8507 1398
4  8505 8503 8504 8508
4  8505 8509 8510 1674
4  8505 8503 8508 8510
4  8511 8512 8513 8514
4  8512 8515 8516 8517
4  8518 8519 8520 8125
4  8512 8516 4451 4401
4  4451 8512 8515 8516
4  8521 8522 8523 8524
4  8512 8525 8513 4395
4  8512 4440 8525 4395
4  1479 644 1439 8526
4  8527 4229 8528 8529
4  8528 8530 8531 8527
4  8531 7325 8532 8530
4  8533 8534 8535 8536
4  8537 8531 8530 8527
4  8527 8528 8538 8529
4  8530 8528 8538 8527
4  8524 8539 8540 7727
4  8541 8542 8543 8544
4  8541 8542 8545 8543
4  8541 1364 8546 8547
4  8541 8544 8548 8549
4  8541 1605 8546 1364
4  8523 1483 1281 1482
4  8541 8548 8550 8546
4  8551 1587 8552 1494
4  8551 8553 8552 8554
4  8551 8549 8554 8552
4  8551 8555 8549 1587
4  8556 8557 8558 8559
4  8536 6831 7533 7410
4  8556 8560 8561 8562
4  8556 8562 6503 8563
4  8556 8558 8561 8564
4  8561 8556 8557 8558
4  8558 8559 8565 8564
4  8559 7319 6692 6504
4  8556 8562 7319 6503
4  8566 8567 8568 8033
4  8566 8569 7728 8570
4  8566 8571 8572 8573
4  8566 8571 8573 8574
4  8566 8033 8568 6817
4  8566 6817 8570 7728
4  7784 8575 8576 8577
4  8577 8578 8579 8580
4  8578 8577 8581 8580
4  8580 8577 8581 7784
4  8577 8579 8578 8582
4  8577 8575 8582 8583
4  8577 8575 8583 7785
4  8577 8581 7785 8583
4  8584 7687 8585 7085
4  8584 8586 8587 8588
4  8589 7693 7562 7931
4  8584 8585 7687 8590
4  1700 8591 8592 8584
4  8593 8584 8591 8585
4  8584 1682 8592 1700
4  8584 8592 1682 8587
4  8594 7512 8595 8596
4  8594 7666 8597 8598
4  8594 8598 7779 7666
4  8594 8595 8599 8600
4  8594 8595 7779 8599
4  8601 8602 8603 8604
4  8605 8606 8607 8608
4  8605 8607 1614 8609
4  8605 8610 8611 8612
4  8605 8606 8612 8613
4  8605 8607 1412 1614
4  8605 8610 1412 8611
4  8522 8521 8614 8615
4  8616 1691 8617 1261
4  8616 8524 1482 8618
4  8616 1482 8524 8521
4  8616 1261 8617 8618
4  8619 1573 8620 8621
4  8619 8622 8610 8623
4  8619 8624 8625 8622
4  8619 8624 8621 8625
4  8619 8622 8626 8611
4  8621 8619 8625 8626
4  8540 7543 7727 6629
4  8537 4229 8627 4490
4  8628 8629 8630 8631
4  4367 8632 8629 8631
4  8631 8472 8633 8116
4  8472 8634 4367 8631
4  8635 7275 8636 8637
4  8539 7727 7058 6629
4  8638 7275 8636 7274
4  8638 8121 8639 8640
4  8638 8640 7275 8121
4  8641 8642 8643 8644
4  7085 8645 8646 7116
4  8647 1331 1274 1490
4  7879 8643 6034 8641
4  8533 6831 8540 8648
4  8641 6037 8230 8644
4  8641 6035 8230 6034
4  8641 6035 8649 8230
4  8650 1313 8651 8652
4  8650 1315 558 757
4  8653 8654 1432 8258
4  7332 8650 8651 8655
4  8650 8655 6951 8656
4  8650 8651 8655 8652
4  8657 8658 8659 8660
4  8661 7926 7687 7887
4  8657 8662 1505 1320
4  8657 8659 8663 8662
4  8657 1393 8663 8664
4  8657 8664 1581 1393
4  8665 8666 7268 8667
4  8665 8668 8667 8669
4  8665 8668 8670 8671
4  8665 8544 8548 8550
4  8665 8548 8666 8555
4  8665 8671 8548 8555
4  8672 8673 8674 8009
4  8672 8673 8009 6692
4  8672 8675 8676 8677
4  8672 8559 6693 8675
4  8672 8676 8678 8677
4  8679 6440 7359 7163
4  8672 8559 6692 6693
4  8680 8681 8682 8683
4  8680 8684 1849 8685
4  8680 1848 8686 1849
4  8687 8688 8689 8690
4  8687 8691 4546 4359
4  8687 8690 8689 8692
4  8687 4584 8689 8693
4  8687 4584 8693 4461
4  8694 1646 8695 1539
4  8694 8696 8695 8697
4  8694 8698 8699 8697
4  8694 8695 8700 8701
4  8694 8698 8701 8700
4  8702 8703 8704 8705
4  8702 7528 8706 8707
4  8702 8703 8708 8640
4  8702 8708 8705 7609
4  8702 8705 7528 7609
4  8533 8540 6831 8615
4  8533 8709 8710 8648
4  8533 8524 8540 8615
4  8533 8521 8524 8615
4  8540 8617 8618 8616
4  8616 8533 8709 1285
4  1285 8533 8710 8535
4  8711 7807 8520 7833
4  8711 7720 8689 8518
4  8711 8689 8712 8518
4  8540 7727 7543 6831
4  8713 8711 8712 8714
4  8711 8715 8713 8689
4  8716 7274 8636 7771
4  8601 8602 8717 8603
4  8601 8718 8719 8720
4  8601 8716 8718 8602
4  8716 8721 8722 8719
4  8716 8722 8721 8636
4  8716 8723 8724 7771
4  8725 8726 8727 8728
4  8729 8730 8731 8732
4  8733 6917 7105 7992
4  8734 8735 8736 8737
4  8734 8735 7151 7857
4  8734 8735 7857 8738
4  8734 8739 8736 8735
4  8737 8740 8741 8736
4  8736 8741 1761 8740
4  8736 8737 8735 8741
4  8584 8585 8593 7085
4  8585 8590 8584 8591
4  8584 8590 7687 8588
4  8733 8742 7825 7908
4  8585 8591 8743 8590
4  8585 8590 7926 7687
4  8585 7926 8743 8744
4  8651 8745 37 7725
4  8010 8744 7926 8585
4  8746 1707 8747 8748
4  8746 8749 8750 8661
4  8746 8749 7687 7938
4  8751 4364 8752 4436
4  8751 6278 8480 7443
4  8753 8754 8755 8664
4  8751 8634 7485 8756
4  8751 6278 8479 8480
4  8634 8751 4364 8752
4  8757 1427 1490 1274
4  8758 8759 8760 8761
4  8758 7693 8589 7931
4  8758 8589 7693 8762
4  8758 8562 7579 7319
4  7319 8759 8760 8758
4  8763 1393 8764 1592
4  8763 8755 8664 1277
4  8763 8755 8754 8664
4  8763 8765 8755 8766
4  8763 8764 8727 1592
4  1274 8727 8763 8766
4  7965 920 1514 921
4  8765 8728 8767 7614
4  8763 8765 8766 8727
4  8659 8768 8769 8770
4  8659 8771 8770 7487
4  8659 8769 8768 8662
4  8659 8771 7487 6712
4  8659 8660 8769 8662
4  8659 8658 6712 6971
4  8659 6971 8660 8658
4  8772 8773 8774 4445
4  8772 8775 8776 7182
4  8772 8776 6970 7182
4  8772 223 6969 7110
4  8772 8773 7110 8776
4  8772 8776 7110 6970
4  8653 6475 6477 8070
4  8653 8654 8609 1432
4  8653 6477 6475 7197
4  8653 8777 8608 8654
4  8653 8654 8258 8777
4  8778 8779 8780 8781
4  8778 4199 8780 8782
4  8778 4199 8782 4204
4  8778 8783 8784 8785
4  8779 8778 8786 8781
4  8787 8476 960 1301
4  8787 7588 8788 8474
4  8787 8789 8788 8624
4  8787 960 8474 1334
4  8787 8624 8788 8790
4  8787 8474 8789 1334
4  8766 1275 1241 1274
4  4331 8791 8792 8793
4  8791 467 8794 7885
4  8791 7884 8642 8793
4  8791 7766 7884 7885
4  8791 7622 7884 7766
4  8795 8796 8797 8798
4  8766 8727 8757 1274
4  8799 8800 8798 7419
4  8742 7825 7908 6726
4  8799 7420 8801 8802
4  8802 8799 8803 8801
4  8797 8804 8800 8799
4  8765 8767 8728 8727
4  8548 1358 8671 1605
4  1587 8548 8555 8549
4  8548 8549 1587 1365
4  8665 7801 8669 7940
4  8665 8555 8666 8667
4  8548 1358 8555 8671
4  8633 8634 8632 7682
4  8742 8726 8728 6990
4  8631 8634 4367 8632
4  8631 4367 8472 885
4  8632 8633 8631 8634
4  8805 8806 8620 8807
4  8805 8611 1541 8620
4  8805 8806 8613 8611
4  8805 8613 8808 1476
4  8792 4556 8809 8810
4  8785 4490 4567 4317
4  8792 4556 4539 8809
4  8791 8811 8792 8793
4  8794 4331 8791 8792
4  8812 6929 7128 7552
4  8812 8813 7552 8724
4  8813 8814 8719 8815
4  8812 8816 8719 8724
4  8812 8724 7128 7126
4  8813 8719 8723 8724
4  8817 8818 8819 8820
4  8821 8717 8603 1747
4  8817 1036 8818 8393
4  8817 8822 7158 6426
4  8817 8823 8822 8824
4  8817 8822 6980 7158
4  8817 6426 8820 8822
4  8825 8826 8707 8827
4  8825 7295 8826 8828
4  8825 8826 7276 8707
4  8825 7276 8826 7295
4  8825 8815 4516 8814
4  8825 8814 8829 8815
4  8825 8829 8828 8830
4  8558 1704 1585 8561
4  6504 8556 8564 8559
4  8559 8556 8564 8558
4  8556 8564 8560 8563
4  8561 1585 8557 1708
4  8556 8561 8557 8562
4  8557 8556 8759 8559
4  8561 1708 8831 1704
4  8561 8562 8560 8831
4  8832 8536 8833 8834
4  8834 8835 7533 8534
4  8526 8836 1668 8834
4  1694 8526 8836 1668
4  8834 8535 1284 1668
4  8726 6712 7759 6990
4  8834 1284 8833 8836
4  8834 8526 8501 8835
4  8534 8526 8710 8834
4  8837 8534 8526 8710
4  8834 1668 8526 8710
4  7149 8838 7155 8737
4  8771 8663 8839 8840
4  8841 8695 1498 8842
4  8650 8651 757 6754
4  8696 8842 8695 8841
4  8841 8697 8843 1509
4  8841 8844 8843 8697
4  8841 8844 8842 8843
4  8784 8845 8846 8847
4  8848 8784 8783 8849
4  8778 8781 8848 8786
4  8784 8845 4283 4567
4  8778 8785 4204 8782
4  8783 8848 8786 8778
4  8784 8845 8848 4283
4  8778 8784 8848 4283
4  8784 8785 8845 4567
4  8778 8785 8782 8783
4  8784 8846 8785 8783
4  8850 8851 8852 8715
4  8715 8713 8689 8690
4  8850 8853 8692 8798
4  8850 8715 7602 8690
4  8850 8798 7509 8852
4  8850 8798 7602 7509
4  8619 1631 1477 1573
4  8854 8855 7871 8856
4  8854 8569 8857 8808
4  8854 7730 8858 8569
4  8854 7871 8569 8856
4  8651 8859 8655 8652
4  8651 1346 8745 8859
4  8651 37 1313 757
4  8651 8655 8860 7332
4  8860 6741 6740 7725
4  8651 8745 8860 8859
4  8833 8861 8862 8863
4  8861 8862 8864 8832
4  8861 8862 8863 8864
4  8861 8833 8614 8863
4  8861 8614 8536 7410
4  8861 8832 6605 7410
4  8861 6605 8864 7228
4  8865 8795 8852 8866
4  8865 8867 8868 8869
4  8865 8868 8867 4420
4  8865 8795 4314 8853
4  8865 8867 8869 8852
4  8870 7811 8742 6726
4  1587 1588 8549 8552
4  8542 8544 8554 8871
4  8542 8554 8549 8552
4  8541 8542 8544 8549
4  8542 8871 8872 8543
4  8873 8552 8874 8875
4  8873 8465 8875 8874
4  8873 8872 1610 1555
4  8873 8552 8871 8872
4  8873 1555 8552 8872
4  7275 8636 8637 8638
4  8637 8707 8876 8635
4  8637 4576 8876 8877
4  8638 8636 8637 8722
4  8637 8721 8878 8722
4  8638 8878 8637 8640
4  8637 8878 4576 8703
4  8823 6981 1695 552
4  8823 6980 552 810
4  8817 6980 8823 810
4  8823 8879 7159 8822
4  8817 1966 8824 8819
4  8823 8880 8822 8824
4  8579 8575 8785 8582
4  8577 8575 8579 8582
4  8579 4317 8582 8785
4  8579 4204 8785 8782
4  8579 8782 4205 4204
4  8579 4340 8881 8578
4  8882 8883 8744 8729
4  8729 8591 8730 1956
4  8731 8744 7914 7913
4  8730 8731 8744 8729
4  8729 8732 1951 8730
4  8764 8767 8728 7759
4  8731 7914 8882 8884
4  8885 8886 8887 8888
4  8687 4359 4546 4461
4  8885 7468 8889 8887
4  8885 8889 6876 8820
4  8885 8887 7469 7468
4  8885 7309 8890 6876
4  8891 8892 8553 8893
4  8891 514 8894 1462
4  8891 8895 6500 6495
4  8891 1462 8894 8896
4  498 1520 8030 7105
4  8891 8894 6500 8895
4  8891 6047 514 1493
4  8791 8811 7622 8897
4  8811 8898 8809 8899
4  8811 8897 7856 7622
4  8811 8897 8900 7856
4  1490 498 7105 1520
4  8901 8902 8903 7438
4  8901 8781 8779 8786
4  8901 8904 8781 8786
4  8571 8905 1608 1663
4  1663 8571 8906 1634
4  8907 8570 8908 1659
4  8570 8571 1659 8907
4  8571 8907 8570 8906
4  8571 8574 1659 8573
4  8616 8709 1691 1285
4  8658 6971 7759 6712
4  8909 8910 8540 8617
4  8597 8910 8909 8911
4  8733 7105 8679 1490
4  8617 8909 1253 1691
4  1593 8616 1482 1261
4  8617 1253 8911 1261
4  8668 8509 1530 1689
4  8665 8667 8668 8671
4  8668 8670 1530 8669
4  8767 6971 7590 7759
4  8670 1530 1605 8671
4  8671 1530 1605 1606
4  8771 8840 8839 8912
4  8771 8770 7487 8912
4  8771 8839 8770 8912
4  8764 8771 8663 8658
4  8771 8726 8764 8840
4  8726 8771 8764 7759
4  8771 8726 6712 7759
4  8676 1549 8677 8913
4  8672 8558 8559 8677
4  8676 6691 6693 8672
4  8676 8914 8618 8539
4  8676 8698 8914 8674
4  8915 8753 8754 8755
4  8915 8916 7643 8917
4  8915 8917 7643 6380
4  8918 8695 8842 8919
4  8918 6454 8920 8921
4  8918 8921 8920 8922
4  8923 8924 1604 8863
4  8923 8924 8925 8926
4  7227 8923 8880 8864
4  8923 8864 8862 8880
4  8927 8928 8929 8514
4  8927 8928 8930 8929
4  8927 8931 8932 8516
4  8927 4450 8516 4401
4  8601 8602 8718 8720
4  8601 8604 8603 8722
4  8821 8933 8934 8935
4  8717 8602 8720 8936
4  8602 8821 8603 8933
4  8601 8717 8602 8720
4  8937 8506 8938 8504
4  8937 8570 8938 8906
4  8937 8905 8939 8568
4  8937 8939 8905 8906
4  8940 8504 8941 8939
4  8864 8942 8862 8880
4  8937 8939 8943 6816
4  8943 8937 8940 8939
4  8643 8156 7568 6652
4  8643 6034 6037 6072
4  8643 7738 6072 6652
4  8643 8644 8156 6074
4  8713 8712 8689 4584
4  8713 4514 8714 8712
4  8713 8692 4312 4584
4  8711 8714 8713 8715
4  8732 8737 8884 8740
4  7151 8944 8732 8945
4  8944 8741 1761 8946
4  8944 8947 1703 1951
4  8944 8947 8945 8948
4  8949 8950 6995 8269
4  8949 8951 6591 7755
4  6986 8949 6592 6987
4  8949 6987 8950 8951
4  8821 8647 8679 8936
4  8821 1331 8647 8717
4  8933 6541 8602 8821
4  8821 8933 8935 8603
4  8821 6541 8934 8933
4  8823 6980 8822 7159
4  8717 1331 1520 1747
4  8894 8952 7234 8895
4  8891 1462 1493 514
4  8894 8953 1488 598
4  8894 8896 8954 8895
4  8894 8953 8954 1488
4  8894 8953 8952 8954
4  8894 1462 514 598
4  8502 8669 8503 8509
4  8668 8509 8955 8669
4  8502 8509 1530 8669
4  8668 8669 8955 8667
4  8509 8502 1530 1643
4  8644 6074 6037 1032
4  8509 8955 1674 1689
4  8956 8934 8765 8766
4  8956 8934 8647 8679
4  7614 8956 7440 8765
4  8956 7788 8957 8728
4  8956 8765 8728 8727
4  8956 8957 8679 8757
4  8819 8958 8959 1591
4  6047 8892 1502 1493
4  8895 7290 8891 8553
4  8551 8553 8554 8960
4  8553 8554 7269 8961
4  8924 1591 8958 1604
4  8553 7290 8893 8961
4  8856 8907 8962 8963
4  8571 8905 8568 8572
4  8574 8571 1659 8570
4  8907 1659 8908 1417
4  8907 8938 8906 1527
4  8837 8964 637 8471
4  8837 8964 1479 637
4  8837 8526 8534 8835
4  8537 4229 4490 4266
4  8837 8835 8534 8965
4  8837 8526 1668 8710
4  8837 8526 1479 1668
4  8902 6944 6370 7438
4  1699 1479 8710 8964
4  8567 8966 8568 8586
4  8567 8967 8968 8572
4  8566 8567 7853 8573
4  8567 8573 8572 8968
4  8930 8969 8928 8970
4  8927 8932 8517 8516
4  8927 8970 8930 8928
4  8971 8639 8972 8708
4  8971 8973 8972 4594
4  8974 4244 8973 4594
4  8971 8640 8708 8703
4  8971 8878 8703 4576
4  8975 8976 8977 8978
4  4511 8971 4576 8878
4  8971 8878 4511 8979
4  8980 8981 8982 8983
4  8980 8984 8866 8985
4  8684 8986 8987 8685
4  8988 8989 8738 8990
4  8988 8991 7659 8639
4  8979 8989 8992 8988
4  8993 8979 8989 8992
4  8988 8991 8639 8979
4  8744 8883 8882 8994
4  8743 8995 8994 8996
4  7775 8743 8744 8994
4  8997 8590 8996 8591
4  8590 8996 8591 8743
4  8743 8994 7775 8996
4  8994 7775 7914 8744
4  8743 7926 8590 8996
4  7153 8732 7151 7154
4  8575 8846 7785 6575
4  8944 8741 8740 1761
4  8731 8732 7154 8884
4  8729 8884 8731 8882
4  8729 8732 8740 1951
4  8944 8740 1951 1761
4  8998 8984 8683 8999
4  8980 8981 8999 8998
4  8998 8985 4421 4417
4  8998 8681 9000 8999
4  9001 7845 8760 7562
4  1702 1540 8761 9001
4  9001 8760 7845 9002
4  8701 9003 9001 1540
4  8673 8761 9002 8760
4  8901 9004 9005 9006
4  9001 9002 8701 8761
4  8606 7315 7355 7314
4  8645 8966 1675 8587
4  8645 9007 8966 8646
4  8572 8587 1577 8966
4  8781 4592 8904 4508
4  8645 9008 7116 8593
4  1577 8587 1675 8966
4  8904 4290 9006 4508
4  8966 8646 9007 9009
4  8903 7438 7447 7612
4  8905 9009 8646 8966
4  1663 8966 9009 8905
4  8966 8905 1663 1577
4  9010 8775 7530 9011
4  9010 9011 9012 9013
4  9010 9014 8898 9015
4  9010 8898 9016 9017
4  9010 8898 7053 9016
4  8975 7646 9005 9018
4  8975 9005 9006 8780
4  8975 8780 4506 9019
4  8975 9019 9020 9018
4  9021 9022 8902 9004
4  8890 7313 6876 7309
4  9021 4590 9023 9024
4  9021 9024 8976 4507
4  9021 8902 9022 9023
4  9021 8904 8902 9023
4  8753 1277 8946 1547
4  8953 9025 8952 8954
4  8953 1488 558 1315
4  8953 558 1488 598
4  8953 8952 8656 7175
4  8656 7331 6951 6387
4  8650 8656 8953 9025
4  8633 8634 7682 8472
4  8634 8632 7682 7485
4  8634 8632 8756 8752
4  8751 8752 8634 8756
4  8789 1338 8069 9026
4  8787 8789 8624 1334
4  8789 8474 8788 6346
4  8789 1334 8474 709
4  8789 709 8474 8069
4  8902 7438 9004 6944
4  8901 8902 9021 8904
4  8902 6370 9027 7438
4  9021 9023 4590 4290
4  8828 7726 7295 7829
4  9021 9023 9022 9024
4  8745 946 1346 37
4  8792 8810 9028 4213
4  8745 8870 9029 1430
4  8745 8860 8870 6740
4  8745 9029 8860 8859
4  9030 8858 8807 8921
4  9030 1251 8857 1500
4  9030 1500 8574 8922
4  9030 8858 8921 8922
4  9030 8858 8574 8857
4  9031 8484 7618 8477
4  9031 9032 9033 1302
4  9031 8477 7618 7619
4  9031 9034 9035 9032
4  9031 8477 9034 9032
4  9036 9037 8596 8600
4  8885 8888 8887 8889
4  8595 8596 7512 7695
4  8595 7779 8599 7745
4  8595 8599 9037 8625
4  8806 8612 8611 8622
4  8619 8623 8624 8622
4  8610 8611 1477 1412
4  8610 8623 1613 1631
4  8619 8610 8622 8611
4  9038 9039 8481 9040
4  9038 9040 8481 390
4  9038 8897 9041 8794
4  9038 7763 8481 7193
4  9038 7885 7763 7300
4  9042 4575 9043 4267
4  9042 8973 4266 4264
4  8886 9044 1975 1970
4  8629 9045 9044 8628
4  8629 8630 8632 9045
4  8629 8630 8631 8632
4  8629 8632 8752 9046
4  8841 8842 8844 8696
4  8844 9047 7780 9048
4  8844 6456 8699 8696
4  8844 8699 8598 8697
4  8844 6456 8696 7780
4  8844 8697 9047 8843
4  8844 8598 9047 8697
4  8677 8558 1586 1549
4  8677 8565 8558 8559
4  8677 8558 8565 9049
4  8676 8913 8677 8675
4  8864 7227 7228 6602
4  8675 8523 8913 8677
4  8751 9050 4436 8803
4  9050 8804 8803 8802
4  8802 8804 8773 6964
4  9050 8803 4298 4436
4  6964 4298 684 9050
4  8924 8863 8523 1456
4  9051 4235 9052 9017
4  9016 8649 7628 9051
4  9053 9054 9055 8563
4  9051 6039 47 4339
4  9051 9052 9016 9017
4  9051 9016 8395 7628
4  8805 8854 8806 8807
4  8805 9030 8807 9056
4  9030 8807 8858 8857
4  8858 8807 8921 6301
4  8858 8574 8920 8922
4  8858 8921 7653 6301
4  8858 8574 7653 8920
4  9057 8889 8115 6396
4  8631 9057 8630 8628
4  9057 7652 8889 6396
4  9057 8630 8889 7652
4  8747 1563 8967 8587
4  8747 1678 9058 9059
4  8747 1678 1707 9058
4  1563 8747 1678 1707
4  8980 8984 7753 8866
4  8984 8868 8513 8869
4  8998 4417 8682 8868
4  8998 8999 8683 8681
4  8984 8513 8683 7818
4  8980 8982 8985 8866
4  8984 7753 8866 7536
4  8984 8869 7818 7536
4  8998 8868 8984 8985
4  4229 4223 4228 8531
4  8527 8529 8538 8627
4  8528 8529 4223 9060
4  9049 8523 8959 9061
4  8531 4223 4228 9062
4  8528 9063 9062 8531
4  8769 8662 8940 8507
4  8769 7486 8770 8508
4  8769 7786 8660 6711
4  8769 7486 8508 7496
4  9064 9065 9042 9066
4  9065 7582 9064 9067
4  7489 8530 8583 9065
4  8523 1456 8863 1281
4  9042 9065 8537 8530
4  9042 9065 8530 9066
4  9064 9068 8993 9042
4  9065 8530 8583 8537
4  8543 9069 7505 9070
4  8543 8871 7855 8544
4  8543 8871 7505 7855
4  8632 8756 7877 7485
4  8543 7505 9069 7461
4  8543 7461 8550 7267
4  9054 7397 8565 9061
4  9071 7831 8013 6045
4  8803 4436 4413 4414
4  9071 8013 6044 6045
4  9071 7736 6044 9072
4  8564 9053 9054 9073
4  8564 1586 8558 8560
4  8564 8565 7397 6504
4  8564 9054 7397 8565
4  8564 9053 8563 9054
4  8816 7126 8051 6462
4  8816 8718 8720 8719
4  8816 7126 6462 7284
4  8816 7284 8718 8724
4  8734 7151 8737 7149
4  8523 1281 1483 1456
4  8734 9074 8739 9068
4  9075 8838 9067 8043
4  7661 9075 8734 9064
4  9075 9064 7661 7472
4  9075 8838 8043 7149
4  7104 8036 8035 8037
4  9076 8938 8012 8963
4  9076 8669 8963 7836
4  9076 8502 8503 8504
4  9076 8938 6818 8012
4  7802 8504 6818 9076
4  7058 8524 8522 7727
4  8639 8992 8979 8972
4  8924 9077 8523 8863
4  8993 8989 4456 8739
4  8993 4183 8989 8979
4  9042 9068 8993 4264
4  8993 4264 9068 4456
4  9078 9079 9009 1667
4  8657 9078 1581 9080
4  9078 1584 9009 8941
4  9078 1581 9080 1667
4  9078 8941 1320 1584
4  8900 9081 9014 9082
4  9082 8688 9012 6992
4  9082 8518 6992 8125
4  9082 8688 8693 9012
4  9082 9083 8900 9081
4  9082 9014 9012 8693
4  8523 8522 8521 8614
4  8522 8614 9077 7380
4  8913 8524 8523 8675
4  8522 7727 8524 8615
4  7727 7058 7245 8522
4  8522 9077 7245 7380
4  8522 8565 9077 8523
4  8522 8565 7245 9077
4  9084 8977 8520 9085
4  9084 8977 9086 8520
4  9084 4189 9086 8976
4  9084 4459 8712 4188
4  9084 8976 4381 4189
4  9079 7791 9008 9087
4  9078 9079 8943 9009
4  9079 8943 7793 6814
4  9079 9087 6821 7791
4  9079 8943 6814 9088
4  7515 8596 8597 9089
4  8597 9036 8911 8909
4  8594 8600 8598 8911
4  8594 8596 8600 8911
4  8594 8596 8597 7512
4  8597 7515 6630 7512
4  8597 8910 8911 8598
4  9049 1483 1586 1523
4  8764 7759 8658 8767
4  8840 8764 8771 8663
4  8771 8764 7759 8658
4  8767 8755 8754 8763
4  8763 8764 8664 8767
4  8574 8908 8569 8570
4  8858 8921 8920 7653
4  8574 1511 8573 8922
4  8574 1500 8857 1659
4  8574 8569 8908 8857
4  8858 8574 8857 8569
4  9053 1837 9073 1705
4  9053 9090 1970 1942
4  8564 9049 9073 9054
4  8564 9073 9049 1705
4  9053 9090 1942 8560
4  9053 8563 9055 9090
4  8688 7720 8690 7483
4  8688 9012 6992 6994
4  9091 7833 8711 9092
4  9091 8511 7951 8025
4  9091 7951 8869 7537
4  9091 8867 8852 8869
4  8711 9091 9093 8715
4  9091 9093 8851 8867
4  9091 9093 8715 8851
4  8821 6543 8934 6541
4  8924 9061 9077 8926
4  8923 1604 8924 8958
4  8924 1456 8523 8959
4  8924 9077 8863 8925
4  8923 8924 8863 8925
4  8932 9094 8020 7224
4  8932 7223 8517 9095
4  8932 8517 7223 7135
4  8932 8517 8516 9095
4  8995 8996 8591 8997
4  8743 8994 8995 8883
4  8995 8994 8996 9094
4  8554 7266 8960 7269
4  8542 8554 8552 8871
4  8554 8871 8544 7855
4  8554 8666 8549 8960
4  8554 7266 8666 8960
4  8500 9096 8951 9097
4  8500 9096 1688 9098
4  8500 8862 9099 9098
4  8832 8500 8862 9099
4  8629 4209 4364 4367
4  8743 8995 8996 8591
4  8994 8743 8744 8883
4  8994 8883 9100 9101
4  8995 8994 9101 8883
4  8773 4298 4445 818
4  8773 818 223 7110
4  8773 8802 7183 8776
4  8773 8802 7255 7183
4  8804 9050 6964 8802
4  6964 8802 7255 8773
4  8886 1966 8819 1837
4  8890 8885 8819 9073
4  8885 9053 9055 8887
4  8885 8886 8888 8819
4  8886 8888 8819 1966
4  9053 8886 1970 9044
4  8885 9053 9073 9054
4  8757 8733 8679 1490
4  8733 849 1490 1427
4  8733 8014 8742 7908
4  8679 7359 7105 8733
4  8565 8675 7245 7244
4  8733 1490 849 7105
4  8733 7359 7105 6917
4  8950 9102 9098 8951
4  8950 9096 915 8269
4  8950 1467 9096 9098
4  7071 8949 6592 6986
4  6423 8949 6592 7071
4  8949 9096 8950 8269
4  9071 9072 8875 7965
4  8892 1514 8874 9072
4  9072 1514 8874 7965
4  9072 1502 8892 1514
4  9072 920 7098 1033
4  9072 920 1033 1035
4  9072 7736 6044 7098
4  8643 8644 6074 6037
4  8644 1032 889 6074
4  8644 1034 8230 9103
4  8644 889 1032 1034
4  8644 8793 4419 4457
4  9104 7542 7104 8157
4  9104 7104 8035 8210
4  8828 8830 8829 9104
4  9104 8828 8830 8210
4  8822 7313 7159 6426
4  9104 8157 8813 7854
4  8914 8697 8698 1375
4  8914 8911 8910 8598
4  8914 8910 6629 8598
4  8676 8913 8539 8618
4  9091 8852 8867 8851
4  9093 8515 9105 8525
4  9093 8867 4439 8851
4  8939 1663 9009 8905
4  8905 8937 8570 8568
4  8939 8905 9009 8646
4  8590 1885 8750 1701
4  8746 8590 8588 7687
4  8584 7085 8588 7687
4  8591 8590 8584 1700
4  8584 8587 8748 8588
4  8590 8750 8997 8661
4  8590 7687 8661 7926
4  8585 8744 8743 8591
4  8938 8906 1664 8506
4  8950 8269 914 6995
4  9076 8938 8502 8504
4  8937 8504 8938 6818
4  8938 8012 8963 8570
4  9076 8938 8963 8502
4  9076 8963 8012 7836
4  8972 7798 8708 8639
4  8972 4264 8979 4594
4  9042 8972 9066 8973
4  9106 8782 8780 4205
4  9106 9018 8779 6672
4  9106 8881 9107 8580
4  9106 4200 8780 9019
4  9106 8576 8780 8782
4  9106 8780 8779 9018
4  8616 8533 1285 8521
4  8616 1482 1261 8618
4  8523 8524 1482 8521
4  8524 1482 8618 8913
4  8524 7727 8540 8615
4  8539 8618 8524 8540
4  8522 8524 8521 8615
4  8688 9011 7483 8690
4  8713 8851 4312 8853
4  8850 8713 8851 8715
4  8689 7720 8715 8690
4  8711 9091 9092 9093
4  8687 9012 8688 9011
4  8687 9012 9011 9013
4  8711 9091 8715 7808
4  8687 8692 8689 4584
4  9054 7309 7469 7397
4  8968 8572 1511 8573
4  8573 8920 8919 8968
4  8574 8920 8573 7653
4  8574 7853 8569 7653
4  8571 8573 1659 8572
4  8574 8922 1500 1511
4  8574 7653 8573 7853
4  8573 8572 1511 1659
4  8573 8919 8920 8922
4  8985 8795 4422 8865
4  8865 8853 4314 4420
4  8795 8797 8796 9108
4  8795 8866 7510 7509
4  8795 8797 4314 8853
4  8795 7510 8796 8798
4  8795 8866 7509 8852
4  8865 8852 8795 8853
4  8515 8517 7223 9095
4  8515 9109 8978 4385
4  8515 9109 9020 8978
4  9107 9110 8580 8881
4  9107 9095 9109 9019
4  9107 4452 9019 9109
4  4452 8881 9111 9107
4  9053 8560 8563 9090
4  9107 9111 9094 9110
4  9001 8589 7562 8760
4  9112 7562 8987 8749
4  9112 9058 9113 8749
4  9083 4214 9028 8810
4  9081 9083 8900 8810
4  9114 9115 8667 9116
4  9083 7925 9028 8519
4  9083 8519 8125 7925
4  9081 9117 8518 9083
4  8712 9081 9117 8518
4  9083 9028 9117 8519
4  8989 8738 8990 9118
4  8924 8959 1591 1456
4  9119 9120 6191 9121
4  8949 7389 8269 6423
4  9121 9122 6191 9113
4  9123 7311 7227 7313
4  9121 9113 9058 9122
4  9121 9058 1678 9059
4  9121 1536 9059 1678
4  9121 8919 9119 9120
4  8672 8673 8678 8674
4  8673 8678 8674 8698
4  8557 8558 8559 8672
4  8672 8009 8674 6691
4  8673 8760 8759 8761
4  8673 8004 8760 9002
4  8009 9002 8004 8673
4  8981 8982 8998 8980
4  8577 8575 7785 7784
4  8575 8783 6576 8576
4  8575 8582 8583 8785
4  8513 8869 8511 7951
4  9108 8982 4422 4541
4  8682 8513 8929 8986
4  8525 8511 8512 8513
4  8513 8929 4395 8682
4  8984 8683 8513 8868
4  9082 9083 9081 8518
4  9081 9117 4459 8712
4  9015 9081 8693 9014
4  9014 9081 8693 9082
4  9081 8693 8518 8712
4  8975 4506 8780 9006
4  7825 7810 7908 6726
4  8975 9004 9005 7646
4  8901 9004 9021 8902
4  8975 8977 7646 9020
4  9005 8779 8780 9018
4  9005 6672 9018 7646
4  8901 7612 8779 6943
4  9005 9018 6672 8779
4  9106 7545 9107 9018
4  8780 9019 4200 4506
4  8778 8782 8780 8779
4  9106 9019 8780 9018
4  8750 8661 8987 9124
4  8750 1706 9058 1707
4  8750 8997 8661 9124
4  8661 7555 8987 7557
4  8746 8590 8661 8750
4  8746 8590 8748 8588
4  8661 8997 8996 8969
4  8661 7887 8996 7926
4  8750 9124 1885 8997
4  8750 1707 8748 1701
4  8930 8997 8661 8969
4  8661 8749 7555 7687
4  8956 8728 8957 8757
4  8765 8916 8766 8934
4  8956 8766 8647 8934
4  8980 7819 8999 7639
4  8956 8934 7450 7440
4  8765 8755 8766 8916
4  8763 8765 8727 8767
4  8766 8916 8755 9125
4  8766 1274 1241 8763
4  8956 8757 8727 8728
4  8763 8766 8755 1241
4  9075 9126 9067 8838
4  9075 9074 9068 9126
4  8736 8735 8739 8741
4  8737 8740 9074 9127
4  8737 8838 9075 7149
4  8736 9074 4531 8739
4  8512 8927 8929 8514
4  9104 7854 8036 7542
4  8513 8929 8986 8514
4  840 1903 8051 8030
4  8657 9078 1320 1581
4  8929 8513 8512 8514
4  8512 8929 8927 4401
4  4395 8929 8513 8512
4  7116 7085 7341 8646
4  8646 9008 7793 7116
4  8586 8645 8646 7085
4  8645 8966 8586 8646
4  8883 9101 4306 4535
4  8799 9108 8803 8801
4  8883 8744 8729 8591
4  8799 8798 7510 7419
4  8587 1576 1563 8967
4  1682 8587 1576 1563
4  8567 8968 8967 8586
4  8844 8842 9056 8921
4  1577 1576 8587 8572
4  8967 8968 8572 1511
4  8967 8968 8919 9059
4  8967 9059 1562 1563
4  8672 8673 6692 8759
4  8672 8677 8559 8675
4  8676 8914 8698 1377
4  8676 8678 8677 1549
4  8678 8558 1585 8557
4  8678 8557 1585 1594
4  8676 8698 1590 1377
4  8957 7825 8733 8742
4  8733 8757 1427 1490
4  8956 7440 8765 8934
4  8957 8757 8733 8679
4  7359 8957 8733 8679
4  8957 8679 7359 7450
4  8796 8797 8798 8799
4  8796 9108 8756 8983
4  8796 7636 8983 6759
4  8799 8796 8801 7420
4  8796 8756 9108 8801
4  8796 8801 7420 6759
4  9108 8797 4414 4422
4  9108 8801 8756 8803
4  9108 8803 8756 8752
4  9108 4414 8803 4413
4  8971 8708 8972 8973
4  8972 8973 8708 9066
4  8708 8639 7798 8121
4  8971 8640 8878 8639
4  8708 8639 8121 8640
4  8702 8705 8708 8703
4  8930 8661 9124 8928
4  8514 8970 7681 7135
4  8513 8511 7141 7951
4  8514 8986 7680 8928
4  8986 7557 8987 7693
4  8927 8514 8517 8970
4  8514 8928 7680 7681
4  8513 8514 8986 7680
4  8614 8535 8536 8615
4  8680 8986 8684 8685
4  8684 8685 8987 9124
4  8986 8928 8987 7557
4  8843 1291 9056 1509
4  8864 9099 8862 8942
4  9099 9128 8942 8864
4  8923 8862 8864 8863
4  8864 8925 7228 7227
4  8861 8832 8833 8862
4  8864 7227 8879 8880
4  8923 8864 7227 8925
4  8891 1493 8553 8892
4  8891 8553 1493 8896
4  8893 6047 6493 6495
4  8891 6047 8893 6495
4  7590 8765 8915 8767
4  8956 8647 8766 8757
4  8934 8933 9129 8935
4  8766 1275 8935 9125
4  8934 9129 6541 6643
4  8934 9125 8935 9129
4  8934 6643 8916 9129
4  8600 8598 1258 1375
4  8600 8911 1310 1258
4  8600 9037 1506 1310
4  8600 9037 9130 1506
4  8600 9037 8599 9130
4  8600 9130 9047 8843
4  8582 8785 4317 4490
4  8582 9126 4538 8578
4  8579 8578 8582 4317
4  8858 7653 8569 7730
4  8579 8785 8575 8782
4  8582 9126 8581 9043
4  8582 8537 4575 9043
4  8582 4538 9043 4575
4  8734 9064 9075 9068
4  7149 7661 9075 8734
4  8734 8992 7660 7661
4  8993 8979 8972 4264
4  8992 8979 8972 8993
4  8972 8992 7798 8639
4  9064 7472 9067 7582
4  9064 9066 7798 7582
4  9042 9043 9067 9068
4  8566 8574 8569 8570
4  8678 1549 1590 1585
4  7784 8576 8580 8577
4  8580 9100 8578 9101
4  8580 6248 8581 9100
4  8747 8587 8588 8748
4  7784 8580 6248 8581
4  8922 1500 1511 1499
4  8532 9063 7426 7325
4  8974 8532 9063 8705
4  8532 9063 8705 7426
4  8708 8532 7480 9066
4  8708 8532 9066 8973
4  8819 8818 8817 1966
4  8818 8819 8888 1966
4  8817 1824 8818 1036
4  9057 8888 8630 8628
4  8975 9020 9019 8978
4  8975 8780 9019 9018
4  9019 9109 4530 8978
4  8579 9106 8580 8881
4  9107 9019 4452 8881
4  9019 4530 9109 4452
4  9095 6634 7224 7545
4  9094 6634 7224 9095
4  9106 9107 9019 9018
4  8719 8723 8814 8813
4  8813 8723 8814 8829
4  8716 8724 8723 8719
4  7510 8980 7753 8866
4  8678 1585 8558 1549
4  9108 9046 4541 4413
4  8982 8983 9131 9046
4  8982 8985 4422 4421
4  8980 8984 8999 7819
4  8980 8982 8796 8983
4  8815 8814 8719 4345
4  8812 8813 8815 6929
4  8723 7552 8813 8724
4  8723 8813 7552 8829
4  6923 8813 7552 6929
4  6929 8813 7552 8812
4  8515 9020 9092 9105
4  8515 8025 9092 8021
4  8927 8517 8932 8970
4  8512 8927 8514 8517
4  8512 8927 8516 4401
4  8514 7141 8517 7135
4  8517 7141 8511 8025
4  8670 8546 9132 8550
4  8670 1605 8546 8671
4  8595 7745 7512 7779
4  8797 4422 4314 4547
4  1530 8668 8671 8670
4  9030 8922 8842 1500
4  8670 8962 1532 1530
4  9074 4587 9126 9127
4  9126 8578 8838 9127
4  9126 9067 8838 8581
4  9074 4531 9126 4587
4  9126 9043 4538 4267
4  9126 8838 8578 8581
4  9075 8043 9067 7472
4  9074 8739 9068 4531
4  9074 4587 9127 8740
4  8975 8978 8977 9020
4  8977 9020 8021 7646
4  8977 9004 7646 6944
4  8977 9086 9105 8978
4  8977 9086 9092 9105
4  8977 9085 7675 8520
4  8878 8991 8979 8639
4  8638 8722 8637 8878
4  8638 7274 8604 8003
4  8638 8991 8604 8722
4  8637 8722 8636 8721
4  8878 8722 4533 4511
4  8991 4511 8722 8878
4  8603 8991 4511 8722
4  9099 8832 6606 6605
4  8500 9099 8832 6606
4  9099 9128 8951 9102
4  9102 9128 8942 9099
4  9099 9128 6607 8951
4  9030 8842 9056 1287
4  8951 7308 8500 9097
4  8825 4553 8814 4516
4  8825 8877 8876 4553
4  8825 8814 4553 8876
4  8825 8830 8815 8829
4  8830 8825 8815 4516
4  8814 8876 4577 4553
4  8814 8721 4559 4577
4  8606 9133 9069 9132
4  8606 8547 9133 8607
4  8606 8608 8777 8607
4  8606 7507 8777 7355
4  8606 9069 8547 8777
4  8606 9069 8777 7507
4  8821 8936 8679 6543
4  8956 8765 8727 8766
4  8956 8647 8757 8679
4  8956 8766 8727 8757
4  8647 8936 1520 8679
4  8766 8647 1274 8757
4  8766 8935 1331 8934
4  8647 8757 1490 1274
4  8647 1490 8679 1520
4  8894 6498 7069 6500
4  8952 8656 7422 9115
4  8894 8954 8952 8895
4  8894 8952 8953 7069
4  8953 8954 1488 9025
4  8952 9115 8954 9025
4  8954 8896 1462 1598
4  9115 9116 9114 8954
4  1677 9134 1571 8954
4  8954 8555 8896 1598
4  8954 9025 1571 1488
4  8895 6500 6495 7234
4  8891 8894 8895 8896
4  8551 8552 1587 8549
4  8891 8553 8896 8895
4  8895 7290 7234 6495
4  8952 7521 8895 9114
4  8952 8954 9114 8895
4  8895 8960 8896 9114
4  8914 8911 1258 8618
4  8895 7269 9114 7521
4  8551 8555 8896 8960
4  8551 8896 8555 1597
4  8954 8895 8896 9114
4  8957 8757 8728 8725
4  8648 6831 7543 7434
4  8954 9114 8896 8555
4  8895 9114 7269 8960
4  8892 1494 8553 8552
4  8553 8892 1493 1494
4  8551 8553 8960 8896
4  8833 1271 8863 8862
4  8833 8863 1271 1281
4  8844 8921 8696 8842
4  8834 8535 8833 1284
4  8513 8682 8868 8683
4  8682 4395 8868 4417
4  8699 8700 8674 8698
4  8914 8598 8699 8697
4  8914 8699 7665 8674
4  8724 7552 7128 7284
4  9114 7269 8960 7268
4  8896 9114 8960 8555
4  8894 8952 6498 7234
4  9114 8555 8667 8666
4  8896 8555 1597 1598
4  9116 9114 8954 8555
4  9114 8555 9116 8667
4  8549 8960 8555 8551
4  8551 8555 1587 1597
4  9062 4488 4228 4245
4  1358 1587 8548 8555
4  8665 8555 8667 8671
4  8548 8555 8549 8666
4  8909 1621 1253 1691
4  8555 1677 8954 9116
4  8555 9116 1358 1677
4  9047 7794 7779 7780
4  9051 9103 6039 4339
4  8649 7628 6035 7051
4  9051 6039 8649 7628
4  9052 8775 9013 8774
4  9051 8649 6039 9103
4  8802 7255 7431 7420
4  9016 7530 7237 7053
4  9051 9017 4339 4235
4  9010 9052 9017 9016
4  9052 48 4239 4235
4  9052 48 4235 8395
4  8575 8846 8783 8785
4  8784 8846 6575 8847
4  8846 8583 7785 7490
4  8846 8538 6115 8847
4  8846 6575 8847 6115
4  8933 8603 8990 8935
4  8933 8990 8603 8991
4  8602 8933 7626 6541
4  8602 8933 8603 8604
4  8933 8991 8604 7626
4  8599 9047 9048 7794
4  8603 8935 1747 1923
4  8906 8905 8937 8570
4  8841 1509 8843 8842
4  8567 8587 8966 8586
4  8567 7853 8573 7749
4  8567 8966 8587 8572
4  8566 8568 8570 6817
4  8566 8568 8567 8572
4  8769 8768 8507 8508
4  8662 8507 8941 8940
4  8662 8768 1685 8507
4  8561 8564 8558 8560
4  8564 9049 8558 1586
4  8561 8558 1704 8560
4  8558 8560 1586 1704
4  8564 8559 8565 6504
4  8556 8561 8560 8564
4  7319 8556 8559 8759
4  8672 8676 8675 6693
4  8559 8675 7244 6693
4  6454 8918 8920 6193
4  8672 8678 8676 8674
4  8672 8676 6691 8674
4  8672 8759 8559 8557
4  8569 7728 8856 7871
4  8574 8857 8908 1659
4  7342 8567 8568 8586
4  8574 8573 8920 8922
4  8856 8569 8808 8908
4  8841 8697 1509 1646
4  8841 1509 8842 1498
4  9121 9119 8695 8700
4  8918 8696 8842 8695
4  8695 1499 8919 1536
4  8986 8685 8589 8987
4  9112 8750 8987 9124
4  1706 9003 1702 8685
4  8680 8589 8685 8686
4  9112 8589 8685 8987
4  9112 8749 8750 9058
4  8684 1849 8685 1914
4  9112 8685 9124 8987
4  8684 8929 8928 8986
4  8986 8683 7692 8762
4  9001 8589 8760 8686
4  9001 9113 9112 9003
4  8680 8986 8589 8762
4  9001 7562 9112 9113
4  8589 8760 7931 7562
4  8597 8598 7666 8910
4  8696 7780 6456 6454
4  8539 7665 8676 8914
4  8914 8911 8598 1258
4  8945 8735 8944 8946
4  8737 8741 8944 8735
4  8740 8741 8944 8737
4  8735 8738 8739 9118
4  8734 9068 9075 9074
4  8734 8736 9074 8737
4  8735 8945 7151 7215
4  8582 4538 9126 9043
4  8838 9127 8578 9100
4  9075 8838 9074 9126
4  8582 4490 8537 8785
4  8579 8782 8575 8576
4  8582 8581 8583 9043
4  9106 8579 4205 8881
4  8577 7785 8581 7784
4  8581 8583 7476 7785
4  9106 4205 8780 4200
4  9048 8921 6301 7780
4  8634 922 4364 8479
4  8629 8632 9046 9045
4  8632 9045 7731 7877
4  8632 7731 9045 8630
4  8598 7666 8910 6629
4  8600 8598 8911 1258
4  8911 1253 8909 9036
4  8600 8911 8596 9036
4  8910 8909 8911 8617
4  8594 7779 8595 7512
4  8598 7778 9047 7779
4  8595 8596 9034 9037
4  8942 9128 9102 7014
4  8942 7014 1419 472
4  8823 6389 8879 6981
4  8823 1695 8880 1625
4  8942 8879 8864 9128
4  9128 6981 8879 7250
4  8576 6672 7787 6671
4  9128 6607 8031 7013
4  9128 8951 8031 6607
4  8937 8504 8154 8940
4  8939 1584 8906 8506
4  8937 8570 6817 6818
4  8937 8568 6816 6817
4  8907 8906 8938 8570
4  8905 1663 8571 8906
4  1664 8938 8502 1527
4  8571 8907 8906 1634
4  9135 9028 9040 9041
4  9028 9041 9135 8519
4  9028 9041 8519 7500
4  9028 9136 9117 8519
4  9028 9041 8897 8794
4  9028 8794 9040 9041
4  9028 9136 4219 4568
4  8692 4546 4547 4312
4  8861 7410 6605 7228
4  8554 8544 8666 7266
4  8666 7268 8960 7266
4  8891 8896 1493 1462
4  9114 8667 7374 7268
4  8512 4440 8515 8525
4  8512 8514 8511 8517
4  8927 8930 8970 8931
4  8932 8516 8931 9111
4  8932 9095 7224 7223
4  8932 8517 7135 8970
4  9086 8520 8711 9084
4  9086 4562 8976 4189
4  8977 9020 9092 8021
4  9086 9105 8714 9092
4  8977 9086 8520 9092
4  8812 8816 8724 7126
4  8816 8718 7167 8720
4  8716 7274 8604 8636
4  8795 4314 8797 4422
4  7167 8720 8051 8816
4  8816 7167 8718 7284
4  8718 7502 8724 7284
4  8602 8720 8936 8718
4  8602 7626 8604 7502
4  8602 8821 7384 8936
4  8718 7167 8720 8936
4  8816 1089 8051 7126
4  8720 8717 1903 1747
4  8601 8717 8720 1747
4  8867 8851 8853 4313
4  8867 4420 8868 4397
4  8720 1903 8051 1089
4  8650 6387 6951 6952
4  8650 8652 8655 8656
4  8655 9137 6651 7329
4  8655 9138 8652 9137
4  8655 8652 9138 8656
4  8655 6951 8656 7329
4  8652 8859 1572 1313
4  8652 9025 1628 9134
4  8652 1628 9025 1315
4  8865 8867 8852 8853
4  9093 4439 8867 8525
4  7808 9091 7833 8711
4  9091 7537 8715 7808
4  8867 8525 8868 8511
4  9091 8867 8869 8511
4  8930 8929 8928 9124
4  8930 8969 8661 8928
4  8928 8970 8969 7698
4  8661 8928 8987 9124
4  8514 8970 8928 7681
4  8684 8928 8929 9124
4  8684 8928 9124 8987
4  8986 8928 7557 7680
4  8986 7693 8589 8762
4  8930 8931 9139 8969
4  8930 9139 8997 8969
4  8604 7626 7274 7502
4  9096 915 1696 1467
4  9112 1914 8685 1706
4  9001 8761 8686 8760
4  8688 9011 9012 6994
4  8572 1608 1576 1511
4  8680 8684 8986 8682
4  8680 8685 1849 8686
4  8964 1374 8424 9140
4  8680 8682 8986 8683
4  8998 8682 8681 8683
4  8683 8999 8762 8681
4  8672 6691 6692 8009
4  8680 8683 8762 8681
4  8478 6270 7891 6269
4  8672 6693 6692 6691
4  8513 8683 7818 7680
4  8684 1914 8685 9124
4  8920 6193 6412 6454
4  8838 8043 8581 9067
4  8713 4312 8851 4514
4  8850 8852 8851 8853
4  8883 9127 9100 9101
4  9141 1367 1621 1374
4  8838 9100 8578 8581
4  9100 6248 8581 8838
4  8851 8853 4313 4312
4  9127 4340 8578 9101
4  8501 7711 7308 7752
4  8616 1261 1593 1691
4  9127 8578 4340 4587
4  8994 8883 8882 9100
4  9100 9110 6257 7781
4  8994 9100 7914 7781
4  8865 8985 8866 8869
4  8951 6606 6591 7755
4  9127 9100 9101 8578
4  8838 6248 8581 8043
4  8580 8881 9101 8578
4  8650 8953 8656 6387
4  8953 7069 7331 6387
4  8690 7720 7602 7483
4  8953 7069 7175 7331
4  8656 9138 7329 7422
4  8656 9025 9138 9115
4  8952 9025 8656 9115
4  9025 9134 9138 9115
4  7069 8952 6498 8894
4  8954 9134 1571 9025
4  8711 9092 9086 8714
4  9104 8815 8813 8157
4  9104 730 731 1037
4  9104 8815 4349 4370
4  8865 8985 8869 8868
4  8724 8812 8813 8719
4  8719 8815 8812 8813
4  9104 7542 8157 7854
4  9104 4349 8157 1037
4  8692 4547 4314 4312
4  8812 296 8815 4345
4  8815 8157 296 6929
4  8829 8828 7726 7370
4  7726 8829 9104 8828
4  8814 4345 8815 4516
4  8652 1572 8859 9142
4  9052 4235 4239 4357
4  8715 7808 7602 7720
4  8860 8859 9029 8912
4  8860 8870 7696 8912
4  8745 8859 1346 9029
4  8651 8860 8745 7725
4  8650 9025 8953 1315
4  7332 6741 6740 8860
4  8651 6741 6754 7332
4  8651 6754 6741 7725
4  8859 8839 9137 9142
4  8829 7854 7552 7370
4  8652 9142 1628 1572
4  8859 9029 1385 1346
4  8638 8636 8722 8604
4  8846 8537 8785 8583
4  9133 8613 1406 9143
4  8606 9132 7315 8855
4  9133 9132 8855 9143
4  8844 7780 7778 6456
4  8873 790 8465 1555
4  7365 8837 8526 644
4  9133 8546 1364 8547
4  8606 7315 9132 9069
4  9122 7938 6191 7846
4  9133 9069 9132 8546
4  9132 8855 6904 7315
4  8670 9133 8546 1533
4  8815 4349 4516 4345
4  8961 7290 7376 7269
4  9133 9143 8855 8613
4  9132 8855 9144 6904
4  9076 8669 7836 7802
4  8605 8613 8611 1412
4  8669 8963 7836 7801
4  8670 9132 7460 8550
4  8665 7881 8550 7801
4  8668 9116 8671 8667
4  8544 7266 7855 7267
4  8665 8667 7268 7940
4  8669 7712 8667 7940
4  8542 8871 8552 8872
4  8593 7116 7085 8010
4  8875 8552 8892 8961
4  8552 8874 1494 1555
4  1588 8549 8552 8542
4  8552 8874 8892 1494
4  9071 8875 7572 7965
4  8013 8892 1502 6047
4  8575 8783 8576 8782
4  8874 8875 8552 8892
4  9072 1514 1035 1502
4  9071 8961 8893 7831
4  8553 7269 8895 7290
4  8980 8983 7636 8981
4  8772 8773 4445 223
4  1493 6047 8892 8891
4  1494 8553 8552 8551
4  7175 7331 6951 8656
4  8960 8553 8554 7269
4  8553 8961 7269 7290
4  8868 4420 4417 4397
4  7376 7269 8554 8961
4  8961 8875 7376 7572
4  8772 9052 8775 6969
4  9071 8875 8961 7572
4  8944 8732 8945 8947
4  8556 6504 8563 6503
4  1592 8727 8763 1274
4  8562 8762 9145 8831
4  9105 4385 4389 4439
4  8731 7913 7914 7154
4  8562 8762 7579 6503
4  9064 8992 7798 8972
4  8974 4594 4571 4244
4  9019 8881 4200 4452
4  8647 1520 8936 8717
4  8936 8679 8030 1520
4  8936 8030 7163 6460
4  8602 8821 8936 8717
4  8994 7781 7914 7775
4  9084 4381 9117 4459
4  8821 1747 8603 8935
4  8897 7856 7300 7500
4  8800 8690 8798 7419
4  8821 8647 8936 8717
4  8936 7167 6460 7163
4  8602 8718 8936 7384
4  8743 8883 8995 8591
4  8584 1700 8590 8748
4  8995 8997 9139 8996
4  8785 4204 4317 4567
4  8502 1643 1664 1527
4  8584 8587 8645 8592
4  8585 8593 8010 8744
4  8590 1888 8997 1885
4  8799 8800 8802 8804
4  8713 8851 8715 8714
4  8799 8797 8798 8800
4  8677 1549 1586 1483
4  8799 4414 9108 8797
4  9050 8801 8802 8803
4  8751 8801 9050 8803
4  9104 7104 730 1037
4  8801 7255 8802 7420
4  9078 1584 1320 1667
4  8950 6986 6995 523
4  9050 7255 8801 7443
4  8980 8796 8982 8866
4  8801 6759 8756 7443
4  8804 8802 8799 8803
4  8803 8804 4298 4414
4  8803 8752 4413 4436
4  8751 8803 8752 8756
4  8980 8981 7636 7639
4  8795 8982 8796 8866
4  7636 8980 7753 7510
4  9108 8983 9046 8756
4  8632 7877 8983 9045
4  9097 7389 8269 8949
4  8980 8796 7510 7636
4  8983 8756 6759 7877
4  8500 9146 9097 8501
4  4364 8632 4367 8634
4  8632 8752 4364 8629
4  8629 8752 4364 4209
4  8836 8832 8500 8862
4  8796 8801 6759 8756
4  8629 8632 4367 4364
4  9046 8752 4209 4413
4  7947 6592 6986 7071
4  8503 8504 7495 7802
4  6986 6995 7071 8949
4  8503 9147 7712 7583
4  8505 8503 8509 8502
4  8792 8793 8809 4539
4  8503 9147 9148 8510
4  9051 4339 47 4235
4  8758 8762 7693 7579
4  8680 8681 8762 8686
4  8998 8682 8683 8868
4  8758 8686 8589 8762
4  9084 4188 4381 4459
4  8762 9145 8681 8999
4  8762 8999 7692 7739
4  8681 1936 8831 1848
4  8998 8981 8999 9000
4  8513 8514 7141 8511
4  7879 7282 8899 8649
4  8680 8762 8589 8686
4  8758 8686 8761 8760
4  8986 8762 7692 7693
4  8680 8681 8686 1848
4  8643 6072 6037 6074
4  8680 8986 8685 8589
4  8683 7692 8762 8999
4  8665 8671 8670 8550
4  8665 8548 8671 8550
4  8643 8644 8642 8156
4  8665 8670 8669 7801
4  7992 6917 6916 7908
4  8892 1502 1493 1494
4  7268 7881 7267 8665
4  8665 8666 8548 8544
4  9132 8550 8546 9069
4  8543 7267 8550 8544
4  8550 8665 8544 7267
4  9133 8547 1364 1405
4  8541 8548 1365 8549
4  8548 1605 8546 8541
4  8546 8541 9069 8550
4  8258 7202 6477 7197
4  8541 8547 1683 1364
4  8554 8871 7855 7571
4  8919 1562 1536 1499
4  8960 7268 7269 7266
4  8670 1533 8546 1605
4  1605 1365 8541 8548
4  7965 6742 7356 7572
4  8644 4419 8793 8156
4  6742 6613 7736 7098
4  8793 9103 4457 8644
4  8642 8156 8793 7884
4  8791 7622 8642 7884
4  8811 8899 8642 7282
4  7098 7965 9072 7736
4  8791 8811 8642 7622
4  9071 8013 8893 8892
4  7568 8642 7879 7282
4  4539 9103 4457 8793
4  8642 7884 7343 8156
4  6045 6613 6044 7736
4  8811 8793 8642 8899
4  8791 8794 467 4331
4  8642 8793 9103 8899
4  8733 7908 7992 8014
4  8793 4331 890 4419
4  8793 890 7884 8156
4  8503 7802 7495 7583
4  8657 9078 8660 8662
4  8935 9125 1919 8990
4  8934 8679 7450 6543
4  8935 9125 1275 1919
4  8766 1331 1275 1274
4  8632 8983 8756 9046
4  8655 7332 7329 6651
4  9050 8801 7255 8802
4  9108 8803 8752 4413
4  8751 8801 8803 8756
4  6917 6916 6721 7992
4  8866 7536 7753 7509
4  8751 8752 8803 4436
4  8751 4436 723 4364
4  8988 7455 7668 7659
4  8751 7485 8634 8479
4  8634 8756 8632 7485
4  9038 9039 9040 9041
4  9109 4451 4452 4530
4  8791 9038 7885 8794
4  8791 8792 8811 8897
4  8792 9028 8897 8794
4  8792 4213 9028 8794
4  8937 6816 8154 6818
4  8791 8811 8793 8642
4  8792 8793 8811 8809
4  8811 8809 8898 8810
4  8995 4306 8883 9101
4  9113 7846 6191 7845
4  8811 7282 8642 7622
4  8794 9040 4332 4219
4  8730 1676 1951 1956
4  8791 7884 4331 467
4  9122 6237 6191 7938
4  8792 8900 9028 8810
4  8811 8809 8793 8899
4  8591 1956 1888 1700
4  8602 8718 7384 7502
4  8733 8014 7992 7105
4  8792 8811 8810 8809
4  8679 6440 7105 7359
4  8742 8014 6726 7908
4  8766 8934 9125 8935
4  8996 7926 7887 8019
4  8661 7557 7887 7555
4  8678 1594 8761 8557
4  9121 9122 9059 9120
4  1331 8934 8647 8766
4  8915 8767 8765 8755
4  9113 7846 7845 7562
4  8733 8757 8725 1427
4  8821 8679 8934 6543
4  8647 8717 1331 1520
4  8936 7163 8679 6543
4  8825 8830 8826 8827
4  8826 8827 8361 8232
4  8826 8232 8706 8827
4  8826 8706 8707 8827
4  8760 8004 7931 7845
4  8995 8994 9094 9110
4  9094 8019 8020 7775
4  8826 8707 7259 7276
4  8500 9099 8951 9098
4  9001 9003 8701 9002
4  8694 8698 8697 1448
4  8694 8695 8701 1539
4  8673 8009 9002 8700
4  9045 9055 7563 7777
4  9045 9055 7777 8981
4  9045 8887 9055 9044
4  9071 8875 9072 8892
4  8949 6995 7071 6423
4  6987 8949 6592 7755
4  8949 6591 6423 6592
4  8949 6995 8950 6986
4  9071 7831 8893 8013
4  8554 8552 8871 8875
4  9061 7311 7395 7381
4  8554 8875 7571 7376
4  9128 8031 8951 7014
4  8893 7290 6493 7831
4  8873 8552 8875 8871
4  9097 8835 7711 8501
4  8833 1271 1458 1284
4  8949 6592 7755 6591
4  8875 7965 8874 8465
4  7736 7965 9072 9071
4  9149 8706 9150 8085
4  9071 7965 7572 7736
4  8806 8807 7796 8626
4  8806 8622 8611 8626
4  7104 7542 8036 8037
4  8805 8806 8854 8808
4  8854 8807 7730 6903
4  8724 7771 7284 7502
4  8806 8807 6903 7796
4  8815 4349 4345 296
4  8865 4422 8985 4420
4  8210 4370 731 441
4  8806 8613 8612 8855
4  8806 8855 8808 8613
4  8989 8992 8738 8739
4  9104 8036 7104 7542
4  8738 7660 8992 7668
4  8734 7660 8738 7857
4  8735 8738 9118 8917
4  9093 8867 8511 8525
4  8644 1034 1032 6037
4  8738 8917 7857 7643
4  6643 8738 8916 9129
4  8738 7668 9129 6643
4  9118 1920 9125 1919
4  9015 4570 4357 4431
4  8644 889 8156 6074
4  8643 7738 6652 7568
4  9091 9093 8867 8511
4  8643 6034 6072 7738
4  1920 9125 8946 9118
4  8641 8230 8649 9103
4  8643 6074 6652 6072
4  8734 8738 7660 8992
4  7736 7098 6613 6044
4  8735 9118 8946 8917
4  8859 1385 8839 1572
4  8839 9137 9142 8770
4  8859 9137 8839 8912
4  7965 7736 6742 7572
4  9072 1033 7098 6044
4  8839 8840 1671 1385
4  8839 8663 1671 8840
4  8482 8654 1432 1650
4  8768 8770 8659 8839
4  8646 8568 7341 6816
4  9071 7736 7572 7831
4  9079 9088 6821 9087
4  8939 8943 9009 8941
4  9072 8013 1502 1035
4  9072 920 7965 7098
4  8939 8646 8943 6816
4  8939 8940 8943 8941
4  8943 6814 8940 8154
4  9078 8943 9079 9088
4  9078 8943 8941 9009
4  9079 9088 6814 6821
4  7854 7726 8829 9104
4  8645 8646 9008 9007
4  9104 8815 8157 4349
4  8966 9007 1675 1582
4  8033 7342 8567 8568
4  8646 7085 7341 8586
4  1582 1663 8966 9009
4  8939 1584 9009 1663
4  9009 1666 9007 1582
4  9007 9009 9079 1666
4  8642 8641 7879 8899
4  9078 1667 9009 1584
4  9104 8829 8813 8815
4  9079 9087 9008 9007
4  8806 8807 8626 8620
4  9110 6634 7781 7775
4  8807 9048 8921 6301
4  9104 7854 7726 8036
4  8582 4490 4317 4575
4  9030 8921 8807 9056
4  8807 8620 9048 8626
4  9137 9148 9142 8770
4  9137 7399 8770 7487
4  8657 1581 1320 1505
4  8652 9137 9138 9142
4  8652 8859 9137 9142
4  8651 8652 1313 8859
4  6754 7332 8650 8651
4  8744 7775 7914 7926
4  8650 6951 8655 7332
4  8893 8961 7290 7831
4  9137 7487 8770 8912
4  8655 6651 8860 7332
4  8810 4556 4431 4214
4  8641 6034 7879 6035
4  9142 9148 9134 8510
4  6037 8643 8641 6034
4  9142 9134 1628 1656
4  8576 8579 9106 8580
4  6592 6987 7947 6986
4  8983 9045 7777 8981
4  8881 9101 9111 9110
4  8942 472 1419 1695
4  9107 9110 8881 9111
4  9106 9018 6672 7545
4  6917 6721 7105 7992
4  8939 8941 9009 1584
4  8657 8660 9078 9080
4  9080 9088 8948 9151
4  9080 1546 8753 8948
4  9080 8754 9088 9151
4  8013 6045 7831 6493
4  8895 7269 7234 7290
4  8659 8839 8663 8768
4  8662 1685 8768 1505
4  8944 8948 1547 1703
4  7267 8665 8544 7268
4  9080 9088 8754 8660
4  8657 9080 8754 8660
4  8730 1676 1956 1700
4  8869 7818 7536 7951
4  8585 8010 8593 7085
4  6821 9151 9087 9088
4  8932 9094 9095 9111
4  9078 8940 9088 8660
4  8940 8154 7496 7495
4  9087 7648 6821 7791
4  7825 7810 6916 7908
4  9078 8662 1320 8941
4  8669 7940 7801 7712
4  8695 1499 1646 1498
4  1666 9009 9079 1667
4  8745 8860 9029 8870
4  8565 9077 9061 7395
4  8760 8759 7319 8004
4  8806 7796 6903 7615
4  8745 6740 8870 7811
4  8590 8661 8996 7926
4  8745 7811 6727 6740
4  8870 8726 9029 8725
4  8870 8742 6990 8726
4  8745 7811 6726 6727
4  8870 8725 9029 1430
4  8749 7938 7846 7555
4  8745 8870 1430 6726
4  8968 7749 6237 7748
4  8839 9029 8912 8840
4  9029 1552 8725 8840
4  8799 8802 8800 7420
4  8859 8839 9029 8912
4  9029 8725 1552 1430
4  8950 914 523 6995
4  9061 7311 7309 7395
4  8860 9137 8912 6651
4  8926 8890 8959 9061
4  8513 8683 8986 8682
4  8515 9109 8516 9095
4  8923 8926 9123 8958
4  8514 8517 7141 8511
4  8928 8970 7698 7681
4  9060 8529 4223 8475
4  4223 631 4488 8475
4  9062 4245 8704 4488
4  8863 1281 1456 1271
4  8523 1483 9049 1456
4  8924 9077 9061 8523
4  8914 8697 8699 8698
4  4488 8475 9062 4223
4  8475 8380 9062 9063
4  8535 1284 1668 1285
4  9063 8380 9062 9150
4  8818 8820 8393 8115
4  8958 1455 1604 1692
4  9062 9063 9150 8704
4  9062 8704 8085 4488
4  8085 9062 9150 8704
4  8681 9000 8831 1936
4  8984 8683 8999 7819
4  8031 7755 6987 7947
4  8863 1456 1604 1271
4  8923 8880 1455 8958
4  8681 8999 9145 9000
4  8951 8031 7755 6987
4  8590 1700 1888 1701
4  929 522 6987 1465
4  8984 8985 8868 8869
4  8986 7692 8683 7680
4  8686 8761 1708 8831
4  8562 8556 8759 8557
4  8975 9019 4506 8978
4  8984 8513 7818 8869
4  8758 8589 8760 7931
4  8985 4421 4417 4420
4  8749 7562 7555 7846
4  8661 8987 8928 7557
4  9001 8685 8686 1702
4  9032 1308 1302 1309
4  8732 7153 8945 9152
4  9112 8685 1914 9124
4  9002 6192 8009 7845
4  8676 1549 1377 1590
4  8944 7151 8737 8735
4  8737 8944 8732 7151
4  8945 8948 9087 9151
4  8920 6412 8573 7653
4  8945 9087 9152 7153
4  8945 9151 9087 7648
4  7058 8539 7665 8676
4  8572 1608 1577 1576
4  8841 1498 1646 1509
4  9119 6193 6192 6191
4  9122 6237 7938 7748
4  9120 6193 6191 6237
4  8945 7215 9151 7648
4  8655 7329 7332 6951
4  7489 7582 7404 8530
4  9066 9065 8530 7582
4  8860 6740 7332 6651
4  8940 7786 7496 6814
4  8914 8699 8674 8698
4  8858 8922 8920 8921
4  9056 1291 1541 1287
4  9042 8537 4266 8531
4  9091 7833 9092 8025
4  8852 7602 7537 7509
4  7325 8528 8531 9063
4  9016 7237 7051 7053
4  8562 7319 6503 7579
4  9011 7430 6994 7483
4  8531 8537 4229 8527
4  8530 7490 8538 6467
4  8532 8530 7325 7404
4  8527 8538 8537 8627
4  8641 8644 8230 9103
4  9042 4266 8537 4575
4  4266 8531 8537 4229
4  8770 8768 8508 9148
4  8824 1824 1692 1966
4  8804 4298 4414 4444
4  8770 7399 9148 7486
4  8839 9142 8768 8770
4  8859 8839 1385 9029
4  8761 1702 1708 1594
4  8839 8770 8659 8771
4  8659 8663 8771 8658
4  8657 8659 8662 8660
4  8839 9137 8770 8912
4  8567 8033 7749 7342
4  8771 8912 7487 6712
4  8657 8664 9080 1581
4  8662 8768 8663 1505
4  8918 8696 8921 8842
4  8506 1584 1664 1398
4  8968 7748 7342 7749
4  8768 1670 8663 1505
4  8768 8510 1656 1685
4  8768 8510 8507 8508
4  8793 9103 8809 4539
4  8649 9103 8809 8899
4  8809 8898 8810 9015
4  9009 1582 1584 1667
4  8792 8810 4213 4556
4  8864 6605 9099 6602
4  8568 8033 7341 6816
4  8667 7374 7940 7712
4  9099 9128 6602 6607
4  8950 9098 9102 1465
4  8515 9095 9020 9109
4  9020 7646 7221 8021
4  9102 1419 929 1465
4  9086 4189 4389 4562
4  8561 1708 1704 1585
4  9102 929 7014 6987
4  8519 7624 7463 8125
4  9012 7530 6993 6994
4  8644 4419 889 1034
4  8688 8689 8518 8693
4  8796 9108 8983 8982
4  8985 8868 4420 4417
4  8998 8868 8985 4417
4  8797 8692 8853 8798
4  8980 8984 8998 8999
4  8518 6992 7807 7720
4  8999 7739 8981 7639
4  9106 8576 6672 8779
4  8976 4381 4189 4507
4  9135 6370 7624 7383
4  8795 8798 8852 7509
4  8976 4507 4189 4562
4  9000 8982 8998 8981
4  7663 7739 8981 9145
4  8980 8998 8984 8985
4  8513 7141 8514 7680
4  8980 8984 7819 7753
4  8980 8983 8796 7636
4  8734 8739 8992 9068
4  8704 4245 4571 4566
4  8915 7590 6380 7442
4  8745 7725 6740 6727
4  8829 7370 7726 7854
4  8814 8635 8721 8876
4  8980 8999 8981 7639
4  8984 8866 8869 7536
4  8866 8869 7536 8852
4  9153 4287 4564 4282
4  9104 8210 8035 7726
4  8575 8846 6575 8783
4  8828 8830 8210 8361
4  8723 8635 7370 7273
4  9042 4267 4266 4575
4  8825 8829 7370 8828
4  9104 8828 8210 7726
4  8995 9110 9094 9111
4  8826 8830 8828 8361
4  9129 6643 7455 6541
4  8650 8652 8656 9025
4  8825 8829 8814 8635
4  8705 7609 7480 7426
4  8825 8635 7276 7370
4  8815 8830 4516 4370
4  9149 4407 8704 4566
4  9088 9151 7649 6821
4  8588 7085 7748 7687
4  8723 8829 7552 7370
4  8830 4372 441 8361
4  8514 7141 7135 7681
4  8865 4420 8867 8853
4  8830 4372 4370 441
4  8977 9105 9020 8978
4  9104 7854 8813 8829
4  9060 8529 9154 8538
4  4223 9060 9062 8528
4  8683 7819 7818 7692
4  8475 9060 9062 4223
4  8711 8518 7807 7720
4  9053 9044 1970 9090
4  9060 8538 7817 6467
4  9063 8528 9060 7325
4  8702 8877 8704 8703
4  8527 8627 8537 4229
4  8996 7775 7926 8019
4  8528 8529 9060 8538
4  8616 1285 1691 1593
4  8521 1593 1281 1285
4  8528 9060 9062 9063
4  9060 7817 8538 9154
4  9063 7325 8532 8531
4  8923 8863 8864 8925
4  8833 8836 1284 1458
4  9077 7245 7380 7381
4  6693 8676 8675 7058
4  9060 8529 8441 9154
4  8709 1621 1691 1699
4  8676 6691 8674 7665
4  9141 1374 1621 1699
4  8529 4223 8475 243
4  9142 8768 8510 1656
4  8703 4576 4571 4594
4  8566 8574 8573 7853
4  8757 1427 1274 1552
4  8769 8662 8660 8940
4  8839 8663 8768 1670
4  9148 7583 8508 7486
4  8769 8770 8768 8508
4  8839 9142 1670 8768
4  9142 8768 9148 8510
4  9137 8912 6651 7487
4  8771 8912 6712 8726
4  8510 1685 8507 1674
4  8510 9134 1656 1654
4  9126 4531 4267 4538
4  8505 1674 8510 8507
4  8679 7163 8030 6440
4  8510 9134 1654 8955
4  9079 7793 7791 6821
4  8769 8940 7786 7496
4  8961 7572 7376 7831
4  8657 8664 8663 8658
4  9029 1430 1552 1385
4  8840 1592 1671 1552
4  8764 8767 8727 8728
4  8660 8658 6971 8754
4  8668 1606 1689 1530
4  8939 8905 8906 1663
4  8632 7877 7731 7682
4  9123 7313 7309 7311
4  8657 9078 8662 1320
4  8923 1455 1271 1604
4  8577 8579 8575 8576
4  8867 4397 4313 4420
4  8581 9043 9067 8583
4  7579 6503 8762 7739
4  8581 9100 8578 8580
4  8577 8583 8582 8581
4  8760 7845 7931 7562
4  8843 1375 1507 1509
4  8837 8835 8471 7365
4  7845 8009 9002 8004
4  8759 7319 8004 6692
4  8832 7752 7410 8536
4  8834 8710 8534 8535
4  8834 8534 8536 8535
4  8526 8835 7365 9146
4  8526 8835 9146 8501
4  8920 8968 9120 8919
4  9143 1406 1533 1532
4  8597 6630 8910 7666
4  8526 9146 1694 8836
4  8942 8880 1457 8862
4  8909 1621 1308 1253
4  8698 1377 1375 1448
4  8879 7227 7250 7159
4  8559 6693 7244 6692
4  8618 1377 1482 1261
4  8675 7245 6693 7058
4  9054 7469 7564 7397
4  9131 9145 9090 9055
4  8562 9145 8560 8831
4  8617 8540 8909 8709
4  9134 8955 1677 1654
4  8624 1334 1338 1631
4  9079 8646 9009 9007
4  8550 7461 7460 7881
4  9137 8770 7399 9148
4  8625 7695 7745 7876
4  8652 9142 9134 1628
4  8652 9025 9134 9138
4  8650 8953 558 1315
4  8915 8917 9151 8946
4  8570 8012 6817 6818
4  8567 7749 8033 7853
4  8915 8755 8917 8946
4  8571 1634 1608 1659
4  8753 8664 1277 1581
4  8907 1417 1634 1659
4  8915 8754 8753 9151
4  8506 1664 8938 8502
4  9008 7116 7791 7793
4  9147 7712 7479 7374
4  8503 8508 7495 8504
4  8505 8509 1674 1643
4  8509 8510 1674 8955
4  8509 8955 8503 8510
4  9072 6044 1035 1033
4  8505 8509 8503 8510
4  8986 8987 8589 7693
4  8509 8669 8503 8955
4  8963 8962 8670 8502
4  8938 8502 8504 8506
4  8505 8506 8507 8504
4  9043 4575 4538 4267
4  8505 8509 1643 8502
4  8530 7404 6467 7325
4  8505 8507 8510 8508
4  8982 8981 9000 9131
4  9076 8938 8504 6818
4  9039 9135 9027 9155
4  8030 6440 7163 6460
4  9039 9027 7383 6369
4  9039 9155 9156 8478
4  9039 7891 8481 8478
4  9039 9040 9155 8481
4  9156 4294 4557 4257
4  8520 7463 8519 9085
4  9027 6369 9157 8903
4  9039 7193 8481 7891
4  8711 8518 8712 9084
4  8518 8125 7807 6992
4  9117 4459 4381 4568
4  9008 9007 8730 8592
4  8584 8592 8645 8593
4  9084 4188 4189 4381
4  9008 9152 9007 9087
4  9008 7997 9152 7791
4  9008 9007 9152 8730
4  9008 8593 9152 7997
4  8754 7649 6971 7786
4  8504 7495 6818 8154
4  9079 9088 9087 8948
4  8632 8630 7682 7731
4  8885 9073 8890 9054
4  9138 7479 7329 7422
4  8586 7085 7341 7342
4  8651 8655 8859 8860
4  8579 4205 4340 4317
4  8655 9137 7329 9138
4  9084 4459 9117 8712
4  9091 8025 7951 7537
4  8711 7833 7808 7807
4  8912 6712 8726 7696
4  8650 6952 6754 6387
4  8860 8870 8912 9029
4  8958 1692 1604 1591
4  8839 9029 8840 1385
4  6504 8556 8559 7319
4  8778 8784 4283 4567
4  8677 8678 8558 1549
4  8924 1456 1591 1604
4  8674 8016 7665 6691
4  8781 4508 8904 9006
4  8778 8783 8782 8779
4  8804 8797 8691 4444
4  8539 6629 7058 7665
4  8780 8781 8779 9006
4  8521 1281 1593 1482
4  8529 8538 8627 9154
4  8697 1646 1375 1509
4  8616 8617 1691 8709
4  9102 9098 8862 1419
4  8699 8598 7665 7778
4  8529 9153 8441 9154
4  8565 7395 7244 7245
4  9062 9063 9060 8475
4  9060 8475 9063 6825
4  8617 1261 1691 1253
4  9042 8531 4266 8973
4  8527 8530 8537 8538
4  9060 8441 8529 8475
4  8807 7730 7796 6301
4  8846 8537 8627 8785
4  8538 8627 9154 8847
4  8538 9154 7817 6115
4  8627 8845 8785 4287
4  9067 7476 7472 8043
4  8738 7668 7857 7660
4  8530 8528 8531 7325
4  8627 9153 8847 8845
4  8737 9075 8838 9074
4  9098 1465 1467 1688
4  8538 6115 8847 9154
4  8964 9141 1699 1374
4  8950 523 522 6986
4  8949 6986 8950 6987
4  8627 4564 9153 4287
4  8873 8871 8875 7571
4  8874 8873 1555 8552
4  9097 7365 7391 7711
4  8542 8872 1683 8545
4  8554 8875 8871 7571
4  8834 8836 1668 1284
4  6423 6591 8949 7389
4  9070 8543 8545 8872
4  8871 8873 8872 9070
4  8872 8543 8545 8542
4  8864 9099 6605 8832
4  8950 8269 915 914
4  9098 1419 1465 1688
4  8543 7267 8544 7855
4  6606 8951 7308 8500
4  8861 7228 8864 8925
4  8513 7951 7141 7818
4  8542 8549 1365 1588
4  8542 1683 8872 1588
4  8853 4313 4312 4314
4  8865 4422 4420 4314
4  8758 8760 7319 7931
4  8062 7305 9070 8873
4  8872 9070 8062 8545
4  8853 4420 4313 4314
4  8758 7931 7319 7579
4  8763 8755 8765 8767
4  8915 8753 8946 9151
4  8766 1275 9125 8755
4  8959 1837 1591 1523
4  8915 8755 8765 8916
4  8915 8916 8917 8755
4  8980 7639 7753 7819
4  8821 8934 8679 8647
4  8924 8959 8926 8958
4  8738 9125 8916 9129
4  8869 7536 7537 7951
4  9091 8025 7808 7833
4  8852 7509 7537 7536
4  8935 8990 1919 1923
4  8933 9129 8935 8990
4  8689 8693 4584 8712
4  8851 4514 4312 4313
4  8503 7583 7712 7802
4  8503 8510 8955 9147
4  8965 7434 8534 8648
4  8763 1241 1393 1592
4  9125 8755 1275 1471
4  8940 7496 8154 6814
4  8764 1671 1592 1393
4  8693 9014 9012 9015
4  8907 1527 1634 1417
4  9144 7871 7838 6904
4  9082 6993 9014 8900
4  9082 9083 8518 8125
4  8665 7940 7881 7801
4  9010 9052 9016 8775
4  8663 1393 1505 1671
4  9014 8898 7281 7053
4  9014 8898 9015 8810
4  9014 7281 8898 8900
4  9028 9136 8519 9135
4  8742 7788 7825 6990
4  8568 7341 8033 7342
4  9041 9135 8519 7500
4  8846 7490 8530 8583
4  9067 7489 7472 7476
4  9038 7885 8794 4332
4  8791 9038 8897 7300
4  8791 8897 9038 8794
4  8525 9105 4439 4440
4  9039 9041 7383 9135
4  8909 9036 1308 9033
4  8581 8043 6248 7476
4  8702 8708 7609 8640
4  9039 9040 9135 9155
4  9041 9135 7500 7383
4  9040 4476 9155 4569
4  8988 9129 7668 7455
4  9040 4569 390 4332
4  8704 4407 4488 4245
4  8974 4244 4245 4228
4  8974 4244 4571 4245
4  9038 4332 8794 9040
4  9038 9041 8897 7300
4  8357 457 1696 915
4  9040 9155 8481 4569
4  8844 9047 8598 7778
4  8676 8678 1590 8698
4  8508 8507 8940 8504
4  8508 8940 7496 7495
4  8769 8662 8507 8768
4  8839 1670 9142 1572
4  9145 6503 7564 7663
4  8659 8662 8768 8663
4  8508 7495 8504 8940
4  8507 1320 8941 1398
4  8510 1674 1656 1685
4  9057 6396 8115 6973
4  8507 8504 8506 8941
4  8614 7228 7381 7380
4  8901 8903 8786 7612
4  8519 7624 7925 7500
4  8505 8506 1643 1398
4  8649 7051 6035 7879
4  8809 9017 9051 8898
4  8483 4262 364 8478
4  8809 8898 9015 9017
4  9006 4290 4507 4508
4  8578 4340 4538 4317
4  8881 4340 4205 4304
4  8643 8641 7879 8642
4  8901 8904 9021 9006
4  8644 8642 8156 8793
4  8642 7884 7622 7343
4  8793 8809 9103 8899
4  1034 4457 9103 8644
4  9158 7715 8786 7612
4  8904 4508 4592 4290
4  8781 4199 4592 4508
4  8641 8899 8642 9103
4  9082 9014 6993 9012
4  8688 6994 6992 7720
4  8791 8794 8792 8897
4  8641 8899 8649 7879
4  9103 905 6039 4339
4  9085 8519 9022 7463
4  9103 6039 905 8230
4  8809 4539 9103 4339
4  8898 9017 9051 9016
4  8643 8642 7568 8156
4  9012 6994 6993 6992
4  8649 7282 8899 7053
4  8900 7281 7925 6993
4  8899 7282 8898 7053
4  7833 9092 7675 8520
4  8712 4188 4584 4514
4  9086 4389 4189 4188
4  8649 6039 9103 8230
4  8809 9051 4339 9103
4  8703 4576 4566 4571
4  9053 8886 1837 1970
4  8640 7275 8121 7609
4  9065 9066 9064 7582
4  1586 8558 1704 1585
4  9073 1523 9049 1705
4  9061 9054 8959 9049
4  9054 8959 9049 9073
4  9062 4488 4223 4228
4  9073 9049 1523 8959
4  8821 8934 8647 1331
4  8638 7274 8003 7275
4  8992 7668 7660 7659
4  8974 8971 8708 8703
4  8708 7480 8532 8705
4  9073 9054 8959 8890
4  8878 4511 4533 4576
4  8886 8887 9053 8885
4  9053 9055 8887 9044
4  8564 9049 9054 8565
4  9147 8955 8667 9116
4  8533 8535 8615 8536
4  9054 9049 9061 8565
4  9054 8890 7309 9061
4  9055 7564 9054 7469
4  9078 8660 8662 8940
4  9054 8563 7397 7564
4  7290 8891 8553 8893
4  8502 8506 1664 1643
4  8937 8568 8939 6816
4  8952 7521 9114 9115
4  8872 1588 1610 1555
4  8665 7881 7940 7268
4  8885 7469 9054 7309
4  8070 9026 8609 8653
4  8695 1536 1646 1499
4  9116 1677 1606 1358
4  8653 9026 8609 8608
4  8653 8608 8609 8654
4  8608 8612 9026 8623
4  8623 8608 8605 8609
4  8608 8612 7452 9026
4  8659 6971 6712 6711
4  8993 8992 8989 8739
4  8605 8609 8608 8607
4  8608 8612 7355 7452
4  8624 8625 8790 8621
4  8624 1629 8621 8790
4  8671 1606 1605 1358
4  8908 1532 1417 1250
4  8623 8788 9026 8789
4  8788 8624 8623 8622
4  8789 8788 7587 6346
4  8950 6987 9102 8951
4  9096 8269 9097 8357
4  8950 1465 914 1467
4  8624 1629 8790 1334
4  8917 7215 7643 6380
4  8754 7590 6971 7649
4  8787 8788 8789 8474
4  8979 4264 4183 4594
4  8839 1671 8663 1670
4  8659 8771 6712 8658
4  8988 8991 9129 7455
4  8992 7660 7661 7659
4  8973 4264 4594 4244
4  1471 1920 9125 8946
4  8934 9129 8933 6541
4  8884 7155 7154 7914
4  8933 8991 9129 8990
4  8916 9125 8917 8755
4  9075 7472 7149 8043
4  9075 7149 7472 7661
4  8738 7643 8916 8917
4  8908 1417 1659 1250
4  8908 8856 8907 8962
4  9030 1500 1287 1251
4  8821 8717 1747 1331
4  8669 7802 7712 7801
4  8765 8934 7440 8916
4  8935 9125 8990 9129
4  8962 1530 1527 1532
4  8962 1532 1527 1417
4  7495 7802 8504 6818
4  8623 8605 1613 1341
4  9143 8808 1250 8908
4  8602 8603 8821 8717
4  8841 1646 8695 8697
4  8934 9129 8916 9125
4  8934 7440 8916 6643
4  8716 7502 8602 8604
4  9086 4389 9105 4562
4  9024 9004 8976 9085
4  9093 8851 4439 8714
4  8977 9085 9004 6944
4  8715 7602 7808 7537
4  8738 9125 9129 8990
4  8952 7422 8656 7175
4  8603 8990 8935 1923
4  8511 7951 8025 7141
4  8515 8021 7223 8025
4  9084 8714 4188 8712
4  8851 4313 4439 4514
4  9086 4562 8978 8976
4  8821 8935 1331 1747
4  8915 7643 8916 7442
4  9034 8790 8625 9037
4  9034 9037 9032 8790
4  9159 9034 8790 8625
4  8595 9037 9034 8625
4  9034 8596 9035 9036
4  8477 9034 8476 7619
4  8650 558 8953 6387
4  8536 7380 6831 7410
4  8833 1281 1271 1284
4  8535 1281 1284 1285
4  9099 9098 9102 8951
4  8862 1457 1458 1271
4  9034 9159 7700 7695
4  8885 9053 8886 9073
4  8925 7227 7311 7228
4  8836 1458 1694 1284
4  9034 8596 7515 9035
4  9034 7619 9035 7515
4  8925 7228 7311 7381
4  8820 8822 6426 7313
4  8533 8710 8535 8534
4  8560 1704 1942 1705
4  8857 8808 1250 1251
4  9030 8857 8574 1500
4  8959 1523 1591 1456
4  8566 8571 8574 8570
4  8858 8574 8569 7653
4  8865 4314 8795 4422
4  8866 8796 7510 8980
4  8675 6693 7245 7244
4  8868 8525 4397 4395
4  8684 8987 8986 8928
4  8512 8927 8517 8516
4  8900 7925 7281 7856
4  8867 8868 8869 8511
4  9092 7675 8021 7833
4  8520 7463 7807 8125
4  8841 8695 8696 8697
4  8694 8699 8696 8697
4  9081 9015 8693 4431
4  9081 4214 4460 4459
4  9117 4568 4214 4459
4  8979 4183 4511 4594
4  8935 1331 1747 1923
4  7825 8733 7908 6917
4  8841 8844 8697 8696
4  8697 8843 1509 1375
4  8697 8698 1375 1448
4  8551 1597 1494 1493
4  8991 8604 7626 8003
4  8716 8602 7502 8718
4  8893 6047 8013 6493
4  8722 4559 8719 8721
4  8554 8549 8666 8544
4  8606 8607 9133 8613
4  8826 7630 7295 7259
4  8707 7275 7528 7276
4  8954 9116 9134 9115
4  8635 7276 7273 7275
4  8640 7528 7275 7609
4  8636 7273 7274 7275
4  8601 8603 8717 1747
4  8826 7276 7259 7295
4  8830 4372 4516 4370
4  8603 8991 8722 8604
4  8649 6035 7628 6039
4  8602 8933 8604 7626
4  9016 8395 7628 7237
4  8601 8716 8722 8719
4  8641 8644 9103 8642
4  8638 8636 8604 7274
4  8644 4457 4419 1034
4  9081 4214 4431 4460
4  8988 8992 8979 8639
4  8638 8991 8003 8604
4  8716 7502 8604 7274
4  7282 7051 8649 7879
4  8633 7652 8116 6958
4  8630 8628 8888 8887
4  8630 7468 8889 7652
4  9039 7891 6270 7193
4  8649 9016 7051 7053
4  9103 4339 4457 905
4  8633 8632 8631 8630
4  8642 7568 7343 7622
4  8811 7281 8898 7282
4  8633 7682 7652 6958
4  8630 8887 7468 7731
4  9082 7925 8125 6993
4  8508 7495 7496 7486
4  8665 7881 7267 8550
4  8629 4209 9046 8752
4  9076 7836 6818 7802
4  8669 7802 7801 7836
4  8633 9057 7652 8630
4  9057 1981 8818 8888
4  8628 1975 8888 9044
4  8920 8921 6454 7653
4  9007 1666 8948 8947
4  9073 1705 1837 1523
4  8698 1590 1448 1539
4  8760 8004 7319 7931
4  8698 1377 1448 1590
4  8614 8521 8523 1281
4  8630 8887 8888 8889
4  9141 9035 9033 9140
4  9097 7308 7389 6591
4  8897 7925 8900 7856
4  8809 4339 9017 4570
4  8809 4570 9017 9015
4  8832 6605 7410 7752
4  9010 7530 9016 7053
4  8832 6606 6605 7752
4  8695 8919 1499 1498
4  8649 7053 8898 9016
4  8811 8810 8898 8900
4  8862 1458 1457 1688
4  8923 1457 1271 1455
4  8649 8809 8898 8899
4  8942 1419 1457 1695
4  8501 7308 6606 7752
4  9096 1688 9098 1467
4  9096 1688 1467 1696
4  8641 8649 8899 9103
4  8811 8899 7282 8898
4  9010 9017 9013 9015
4  9082 6993 8125 6992
4  8712 4460 4188 4459
4  9010 8898 9017 9015
4  8809 9015 8810 4556
4  8712 4460 4584 4188
4  8897 9041 7500 7300
4  9017 9015 4357 9013
4  9051 9016 9052 8395
4  8576 6576 6671 7787
4  9016 8775 7237 7530
4  9051 8649 9103 8809
4  4506 8975 8978 4507
4  9105 4385 4562 4389
4  9042 8537 8531 8530
4  8774 9011 8691 8800
4  9013 4357 4461 4431
4  8809 4556 4539 4570
4  4264 9042 8972 8993
4  9065 8583 7489 9067
4  8687 8692 4584 4546
4  4213 8792 4556 4539
4  9010 6993 7530 7053
4  8581 7476 8583 9067
4  8579 8580 8578 8881
4  8579 8578 4317 4340
4  8582 8578 4538 4317
4  7490 7489 8530 8583
4  8649 7053 8899 8898
4  9015 8693 9013 9012
4  8582 8537 9043 8583
4  8993 9064 8992 9068
4  8974 8708 8532 8705
4  8901 9004 7438 6943
4  9001 9112 7562 8589
4  8747 9059 1563 1678
4  8685 9003 1702 9001
4  8731 7997 8593 7913
4  9075 9064 7472 9067
4  8848 4283 4548 4589
4  8778 4204 4589 4199
4  9058 9113 8749 9122
4  9112 9113 9058 9003
4  9121 9122 9058 9059
4  9078 9079 1667 9080
4  8778 4589 4204 4567
4  8919 8842 1498 8695
4  9079 7793 9008 7791
4  9104 7104 1037 8157
4  9007 8947 8948 9087
4  9007 8592 1676 8730
4  8825 8830 8827 4372
4  8645 8592 8587 1675
4  8645 1675 9007 8592
4  8723 8635 8829 7370
4  8721 4533 4577 4576
4  8584 8587 1682 8748
4  8592 1676 8730 1700
4  9104 8830 8815 4370
4  8638 8003 8639 8121
4  8738 8916 9125 8917
4  9007 1676 8592 1675
4  8821 8936 6543 7384
4  8604 7274 7626 8003
4  8991 7455 7659 8003
4  8964 1699 1479 1374
4  8526 1694 9146 1439
4  9099 6602 6605 6606
4  8500 8951 9096 9098
4  8592 1682 8587 1675
4  8988 8989 8992 8738
4  8739 9068 4531 4456
4  8837 8710 1668 1479
4  8836 1458 1688 1694
4  8500 9099 6606 8951
4  8864 9099 8832 8862
4  9097 8835 9146 7365
4  8614 8615 8536 7380
4  8644 6037 8230 1034
4  8993 8739 9068 8992
4  9133 8547 1405 8607
4  9069 8547 8777 9070
4  8606 8777 8547 8607
4  8665 8670 7801 8550
4  8548 8550 8546 8671
4  9133 8546 8547 9069
4  8541 8545 8542 1683
4  8785 4287 4567 4490
4  8541 8546 9069 8547
4  8541 9069 8550 8543
4  8901 9006 9005 8779
4  8547 8607 8777 8654
4  4459 9117 9081 4214
4  8810 4213 4556 4214
4  9117 8520 8519 9085
4  8547 8607 1545 1405
4  8792 4213 4331 4539
4  9014 7053 7281 6993
4  8809 4570 4539 4339
4  8547 8545 1545 8654
4  8547 1545 8545 1683
4  9016 7051 7237 7628
4  8811 7281 7282 7856
4  8597 8910 9089 8909
4  9037 8596 8600 8595
4  9103 4339 4539 4457
4  8811 7856 8900 7281
4  8898 7053 7282 7281
4  9015 4570 4431 4556
4  8914 8910 8911 8618
4  8814 4516 4577 4559
4  8721 4533 4559 4577
4  8816 8720 8051 1089
4  8957 7825 8742 7788
4  6629 8914 7665 8539
4  8716 8724 7502 7771
4  8910 8540 8618 8539
4  8806 8612 8622 7615
4  8612 8622 7615 7452
4  8806 8611 8612 8613
4  8605 8610 8612 8623
4  8635 7276 7370 7273
4  8876 4577 4553 4576
4  8704 8877 4566 8703
4  8814 4516 4553 4577
4  8612 8622 7452 9026
4  8766 1274 8647 1331
4  8636 7274 7273 7771
4  9106 8580 7545 6671
4  7965 9072 8875 8874
4  9106 6672 8576 6671
4  8770 7486 7487 7399
4  8555 1597 1358 1587
4  8780 8781 9006 4508
4  8550 7267 7461 7881
4  9005 6943 8779 6672
4  8782 9106 8579 4205
4  8554 7376 8961 8875
4  8540 6831 8615 7727
4  8616 8533 8540 8709
4  8540 8648 9089 8709
4  8670 9133 9132 8546
4  8994 9101 9100 9110
4  8740 9100 8884 8882
4  8883 9127 9101 4535
4  8825 8826 8830 8828
4  8881 4304 9101 4340
4  9106 8580 6671 8576
4  8580 8881 9110 9101
4  8723 7273 7370 7771
4  8554 7269 7376 7266
4  8952 7422 7175 7521
4  8554 7266 7376 7855
4  9127 4587 4340 4535
4  9101 9111 4306 4304
4  8805 8613 8806 8808
4  9133 8546 1533 1364
4  8668 8509 1689 8955
4  8806 8855 7314 6903
4  9132 6904 9144 7460
4  1341 8605 1613 1614
4  8573 8968 7749 6412
4  8806 8855 8612 7314
4  8606 8612 8855 7314
4  8907 1527 8906 1634
4  8856 7871 8012 7838
4  8601 8722 8716 8604
4  8724 7552 7284 7771
4  8733 8957 8725 8757
4  8971 4594 8979 4511
4  8608 8607 8609 8654
4  8999 7639 7819 7739
4  9133 1406 8613 1405
4  9078 8940 8943 9088
4  8613 8611 1412 1476
4  9133 1405 8613 8607
4  8697 1448 1375 1646
4  8694 1539 1448 1646
4  8605 8613 1412 8607
4  8578 4340 4587 4538
4  8892 8874 1514 1494
4  8553 8552 8554 8961
4  8551 1493 8896 1597
4  8677 9049 1483 1586
4  8701 1540 1539 1536
4  8522 7245 8565 8675
4  8694 1539 8701 8698
4  9094 7224 6634 8020
4  8542 8549 8554 8544
4  8666 8549 8960 8555
4  9024 4381 4590 4568
4  8520 7463 7675 7807
4  9057 8630 8888 8889
4  9006 4506 4508 4507
4  9106 8779 8780 8576
4  9057 8818 8889 8888
4  9158 7715 8849 8786
4  9005 7646 6943 6672
4  8942 6981 9128 7014
4  9057 8889 8818 8115
4  8818 8820 8888 8819
4  8500 8836 9146 8501
4  8818 8888 8820 8889
4  9123 8923 8880 7227
4  8823 8879 6389 7159
4  8886 8888 1966 1975
4  8861 8832 8536 8833
4  8864 6605 6602 7228
4  9102 9098 1419 1465
4  8885 8888 8820 8819
4  8885 6876 8889 7468
4  8818 8889 8820 8115
4  9115 9147 9138 7479
4  9134 9115 9147 9138
4  9114 8667 9115 7374
4  8553 8961 8893 8892
4  8954 1598 1462 1488
4  8652 8656 9025 9138
4  8815 4370 4516 4349
4  8813 7854 6923 7552
4  8813 7552 8829 7854
4  9134 8955 9116 1677
4  8580 6257 7784 6248
4  9132 8855 9143 9144
4  8670 9143 9133 1533
4  8816 6462 8051 7167
4  8670 9144 7801 7460
4  8856 9143 8855 9144
4  8157 6923 7854 7542
4  9144 8856 7838 7871
4  9144 8963 7801 7838
4  9144 8856 9143 8962
4  8825 8707 8635 8876
4  9143 8808 1406 1250
4  8543 9069 9070 8545
4  8636 8721 8716 8723
4  8525 4440 4439 4397
4  8606 8613 9133 8855
4  9019 4452 4200 4530
4  8613 1412 8607 1405
4  8854 7871 8855 6903
4  8517 7135 7141 7223
4  8943 6816 7793 6814
4  8937 6818 6817 6816
4  8670 7460 9132 9144
4  8670 1532 9143 1533
4  8043 7149 8838 7155
4  8543 9069 8550 7461
4  8546 1364 1605 1533
4  8838 8043 7155 6248
4  9132 7461 9069 7315
4  8564 9049 1586 1705
4  8696 6454 8921 7780
4  9114 7374 9115 7521
4  8544 7268 8665 8666
4  1367 9033 9141 1308
4  8676 7665 7058 6691
4  8665 8669 8667 7940
4  8669 8503 8955 9147
4  7564 9145 9055 8563
4  9033 1308 1367 1302
4  9145 8560 9000 9090
4  8999 9145 9000 8981
4  9145 8831 9000 8560
4  9149 8706 8232 8827
4  8762 8681 9145 8831
4  8681 9000 9145 8831
4  8562 9145 8762 6503
4  8762 8999 7739 9145
4  8544 7268 7266 7267
4  8580 9100 9101 9110
4  8998 8985 8982 4421
4  8799 8803 9108 4414
4  8775 7530 7182 7237
4  8814 8719 4345 4559
4  8827 4553 4372 4373
4  8802 7183 8776 7431
4  8637 8877 8640 8703
4  8799 7510 8796 7420
4  8637 8877 8707 8640
4  8638 8722 8878 8991
4  8802 8804 8800 8776
4  8773 8802 8776 8804
4  8734 7149 7661 7660
4  6964 8804 8773 4298
4  8802 8800 7420 7431
4  7661 9064 8992 7798
4  8896 1462 1597 1493
4  8691 8797 8804 8800
4  8799 8796 8797 9108
4  8804 8774 4444 8691
4  8548 1605 1365 1358
4  8802 7431 8776 8800
4  8804 4444 8774 4445
4  8014 1430 8725 6726
4  8733 8725 8014 1427
4  8870 8725 8742 8726
4  8957 8742 8725 8728
4  9071 7572 8961 7831
4  8013 490 1502 1035
4  8957 8742 8728 7788
4  8871 7855 7305 7505
4  8482 7202 7196 7303
4  9025 9134 1571 1628
4  1493 6047 490 1502
4  8667 7374 7268 7940
4  8870 6990 8742 7811
4  8742 6990 8728 7788
4  9106 9019 9107 8881
4  9029 8840 1385 1552
4  8961 7290 7831 7376
4  8656 6951 7422 7329
4  8725 8840 8727 8726
4  8757 8727 1552 1274
4  8757 8725 8727 8728
4  8567 8587 8967 8572
4  8666 7266 8544 7268
4  8873 7571 8465 7352
4  9069 7505 7507 7461
4  8567 8573 8968 7749
4  8572 8905 1577 1608
4  8967 1511 8572 1576
4  9069 8541 8545 8543
4  8571 8570 8568 8905
4  1606 8668 8671 1530
4  8918 9119 6193 8696
4  8571 8572 1608 8905
4  9123 8926 7309 8890
4  9123 8890 7309 7313
4  9123 8926 7227 7311
4  9123 8880 8958 8824
4  9123 8959 8926 8890
4  9071 9072 6044 8013
4  8542 1683 1588 1365
4  8552 1494 1587 1588
4  8895 7521 7234 7269
4  8551 8960 8554 8549
4  8548 1358 1365 1587
4  9123 8820 8890 7313
4  8923 8863 1271 8862
4  8542 8871 8543 8544
4  8549 1587 1365 1588
4  8669 9147 8955 8667
4  9123 7227 8880 8822
4  8923 8863 1604 1271
4  8880 8879 8864 8942
4  8942 472 6981 7014
4  8923 1457 8880 8862
4  9134 9115 9116 9147
4  8670 1530 1533 1605
4  8671 1358 9116 1606
4  8823 8942 8879 8880
4  9025 9115 8954 9134
4  8668 8955 1689 9116
4  8823 8880 8879 8822
4  8503 7583 9148 9147
4  8771 8840 8912 8726
4  9116 1689 1606 1677
4  8503 7495 8508 7583
4  8963 7838 7836 7801
4  8502 8962 8670 1530
4  8670 1533 1530 1532
4  8823 8879 8942 6981
4  8864 9128 8879 6602
4  9128 7013 7250 6607
4  8668 1606 8671 9116
4  8823 810 552 1625
4  8880 1695 1457 1455
4  9128 7250 7013 6981
4  8942 1457 8880 1695
4  8923 1455 8880 1457
4  8879 7159 8822 7227
4  8555 1598 1677 1358
4  9114 7521 7268 7374
4  8670 9133 9143 9132
4  8507 1398 1685 1320
4  9148 9147 7583 7479
4  8855 9144 7871 8856
4  8955 1677 1654 1689
4  8606 8608 8612 7355
4  8663 1670 1671 1505
4  8607 1614 8654 1545
4  8608 8607 8654 8777
4  8579 4317 4204 4205
4  8915 8767 8755 8754
4  8734 7149 7660 7857
4  8716 8722 8636 8604
4  8638 8639 8878 8640
4  8934 7440 6643 6541
4  8530 7490 7404 7489
4  9126 8581 9043 9067
4  8821 6541 7384 6543
4  8973 4264 4244 4266
4  8530 7582 7404 9066
4  8720 8717 8936 1903
4  8575 8846 8785 8583
4  8537 4490 4575 4266
4  8030 8051 8936 1903
4  8708 8705 7609 7480
4  1520 1903 8030 8936
4  8701 8761 1594 1540
4  9033 8909 9035 9141
4  8909 9035 9141 9089
4  8881 4304 4205 4200
4  9102 1465 929 6987
4  8880 1695 1455 1625
4  9089 9141 9140 9035
4  9089 9036 8909 9035
4  8597 9036 9089 8596
4  4457 8793 4419 4539
4  9160 530 4257 4248
4  8156 7343 7568 6652
4  8910 8540 6629 7543
4  8897 7856 7500 7925
4  9109 4385 4451 4530
4  8616 8524 8533 8521
4  9089 7515 8596 9035
4  9089 9035 7347 7515
4  8713 4514 4584 4312
4  8711 7808 7720 7807
4  8517 8025 7223 7141
4  8909 1691 8709 1621
4  8617 8709 8909 1691
4  8950 522 914 1465
4  8910 8540 8617 8618
4  8950 914 522 523
4  9089 9035 8596 9036
4  9027 9023 9135 9022
4  9027 9135 7383 6370
4  9027 9023 8904 9156
4  9027 8903 9157 9156
4  9027 9023 9155 9135
4  8950 6986 522 6987
4  9027 9155 9023 9156
4  8949 9096 8269 9097
4  7755 6987 7947 6592
4  9021 9023 4290 8904
4  9004 9022 9024 9021
4  9023 8904 4294 4290
4  9023 9024 4590 9136
4  8731 8884 7154 7914
4  8527 8531 8528 4229
4  8529 8627 9153 9154
4  8817 810 1824 1036
4  8886 1970 1975 1837
4  9153 9161 8847 8845
4  8942 9102 8862 1419
4  9153 9161 8845 9162
4  8817 810 1625 1824
4  8529 8441 9153 4564
4  9153 8415 9161 9162
4  8769 6711 7496 7786
4  9153 8441 9154 8415
4  9155 8481 60 8478
4  8664 1581 1393 1277
4  9038 9039 9041 7193
4  9039 9041 7193 7383
4  8531 4266 4244 4228
4  8581 7784 7785 7476
4  9039 8478 9157 6270
4  8583 7785 7489 7476
4  8857 8908 1659 1250
4  8575 6576 8783 6575
4  8805 8620 1541 9056
4  8891 8894 514 6500
4  8805 9056 8807 8620
4  8894 7069 8953 598
4  8805 1251 9030 9056
4  1598 8555 1677 8954
4  8805 8857 9030 1251
4  8805 1476 8808 1251
4  8657 1505 8663 1393
4  8854 8569 8808 8856
4  8657 8658 8754 8664
4  8657 1505 1393 1581
4  8977 9086 8978 8976
4  8977 8021 9092 7675
4  8558 8678 8672 8557
4  9092 7833 8021 8025
4  8677 9049 8565 8523
4  8564 1705 9053 9073
4  1483 9049 1456 1523
4  9073 8959 1523 1837
4  8564 8558 9049 8565
4  9079 6821 6814 7793
4  8744 7914 7913 7926
4  9073 8819 8890 8959
4  8565 7245 9077 7395
4  8769 7496 8508 8940
4  8564 8563 6504 7397
4  8763 1241 1277 1393
4  9049 8565 8523 9061
4  8565 7395 9061 7397
4  9149 8706 8085 8232
4  9149 4566 8704 8877
4  8861 8925 8614 7228
4  8702 8706 9149 8877
4  9149 8704 8085 9150
4  8836 1668 1284 1694
4  9097 7711 8835 7365
4  8699 7778 7665 8016
4  8842 1509 1287 1498
4  9149 131 8085 4407
4  8842 1500 1498 1287
4  8706 8085 8232 7523
4  8922 1499 1498 1500
4  8706 8827 8877 8707
4  8702 9150 8706 7528
4  8706 9150 7187 7528
4  8706 8232 7259 7523
4  8157 1037 4349 296
4  9010 9016 7530 8775
4  9156 9039 9157 9027
4  9028 4219 4213 4214
4  9052 4357 9017 4235
4  9052 8774 9013 4239
4  8794 4213 4332 4331
4  9010 9052 8775 9013
4  8614 8925 9077 7381
4  8772 8776 8775 8774
4  8775 8395 7237 7531
4  8775 7531 6969 8395
4  8622 8788 9026 8623
4  8619 8625 8626 8622
4  9025 1315 1628 1571
4  9072 920 1035 1514
4  8622 8626 7615 7795
4  8619 8623 8610 1631
4  8619 8611 8626 8620
4  8704 4407 8085 4488
4  9060 7325 6825 9063
4  8950 9096 8951 9098
4  9096 8357 1696 915
4  8706 7259 7528 7187
4  9149 4566 4373 4407
4  8650 757 8651 1313
4  8950 9098 1465 1467
4  9096 8357 9097 9146
4  9096 1696 9146 1688
4  8500 1688 9096 9146
4  8893 8013 7831 6493
4  8501 9097 8835 9146
4  6606 6591 7308 8951
4  9097 8357 7389 7391
4  9011 7430 7530 6994
4  8644 8643 8641 6037
4  7738 7879 8643 6034
4  8968 6237 7749 6412
4  8857 1250 8808 8908
4  8644 8156 889 4419
4  7389 6591 8949 9097
4  8967 8968 1511 8919
4  7879 8642 7568 8643
4  8586 7748 8968 8588
4  8567 8586 7342 8968
4  8567 8968 7342 7749
4  8645 9008 8646 7116
4  8584 8645 8586 7085
4  9103 1034 8230 905
4  8586 7748 8588 7085
4  905 4457 9103 1034
4  8966 8568 8646 8905
4  8649 6039 8230 6035
4  8644 9103 8642 8793
4  8645 9008 8593 8592
4  8966 8646 8568 8586
4  8569 7853 7728 7653
4  9034 8625 9159 7695
4  8581 6248 7784 7476
4  9056 1251 1287 1541
4  8545 8482 1650 8654
4  8062 8482 1650 8545
4  8547 8545 9070 9069
4  9070 8777 7507 7196
4  1610 8873 790 8062
4  8880 8824 1625 1455
4  8886 1837 1975 1966
4  8688 7483 6994 7720
4  8775 9011 7430 7530
4  8543 8871 9070 7505
4  8713 8712 4584 4514
4  9024 9022 9085 8519
4  8687 4461 4546 4584
4  9070 8547 8777 8654
4  8800 7419 7431 7483
4  9070 7305 8062 7303
4  9070 8482 7303 8062
4  8772 8775 7182 6969
4  8692 4546 4312 4584
4  8866 7753 7510 7509
4  8541 1365 8542 8549
4  9071 8892 9072 8013
4  8980 8998 8985 8982
4  8670 9143 1532 8962
4  8819 1966 1591 1837
4  9070 8654 8777 8482
4  8545 8654 1650 1545
4  8503 9148 8508 8510
4  8669 8503 9147 7712
4  9025 1488 1315 1571
4  9061 7397 7395 7309
4  8565 7397 7244 7395
4  9148 9138 7479 7399
4  8477 323 303 1302
4  8894 6500 7234 6498
4  9115 7479 9138 7422
4  9056 1287 1509 1291
4  8854 6903 8806 8807
4  8620 1291 1573 1541
4  9134 9147 9116 8955
4  8600 1258 1310 1507
4  9147 7374 8667 7712
4  9115 7521 7374 7422
4  8621 1629 1631 1573
4  8505 1398 8507 8506
4  8620 1541 1573 1477
4  8510 8955 1654 1674
4  8921 6301 7780 6454
4  9115 9147 7479 7374
4  9146 1439 1694 1696
4  8709 1691 1285 1699
4  1677 8954 9116 9134
4  8476 1301 303 960
4  8955 1689 9116 1677
4  8741 8946 1920 1761
4  9044 8886 8887 9053
4  9055 8981 7663 7777
4  8886 8888 1975 9044
4  9108 8982 9046 8983
4  8885 8820 8890 8819
4  8585 7687 7926 7085
4  8588 7748 7938 7687
4  8704 4245 4566 4407
4  8630 8887 8889 7468
4  631 648 4488 8380
4  8707 7528 7259 7276
4  8571 1608 8572 1659
4  8566 6817 7853 8033
4  9055 7469 8887 7563
4  8857 1500 1251 1659
4  8963 8856 8570 8012
4  9045 9055 9131 9044
4  9045 8887 8630 7731
4  8573 6412 7749 7853
4  8747 8967 8968 8588
4  9121 6192 9002 6191
4  8967 1511 1576 1562
4  8673 8678 8701 8761
4  8922 8842 1498 8919
4  9120 6412 6193 6237
4  9045 8887 7731 7563
4  8758 8831 8562 8761
4  8758 8589 8686 8760
4  8562 9145 8563 8560
4  9072 1035 6044 8013
4  8673 8701 9002 8761
4  9071 6045 6044 7736
4  9071 6045 7736 7831
4  1540 9003 9001 1702
4  8761 8557 1594 1708
4  8631 8116 885 8472
4  8888 1975 1981 1966
4  9123 8820 8819 8890
4  9123 8820 7313 8822
4  8820 6402 6396 6426
4  8824 1692 1625 1455
4  8818 1966 1981 1824
4  8818 1036 1824 1981
4  1824 1966 8824 8817
4  8824 1692 1824 1625
4  8818 8888 1981 1966
4  8817 8822 8820 8819
4  8942 9099 8862 9102
4  8820 6426 8393 6402
4  8918 8920 9120 8919
4  6193 8696 6454 8918
4  8823 552 1695 1625
4  8566 8567 8033 7853
4  9021 4290 4590 4507
4  8566 8572 8571 8568
4  8854 8857 8858 8807
4  8569 8808 8908 8857
4  9114 7268 8666 8667
4  8573 8922 1511 8919
4  8918 8920 8919 8922
4  8918 6193 9119 9120
4  8950 1467 914 915
4  8909 8709 9141 1621
4  7711 8501 8834 7752
4  9146 1694 1688 1696
4  9146 7365 1439 457
4  9030 8922 8921 8842
4  1498 8919 1499 8922
4  8922 8842 1500 1498
4  8552 1588 1555 1494
4  8572 1608 1511 1659
4  8922 8919 1499 1511
4  8785 8845 4567 4287
4  8778 8785 4567 4204
4  8633 8630 7652 7682
4  8954 1598 1488 1571
4  8784 8847 8849 8845
4  8984 7536 7818 7819
4  7159 6980 7158 6389
4  8846 8530 8538 8537
4  8850 8715 8852 7602
4  8849 8784 8783 7852
4  8577 8582 8578 8581
4  8589 8987 7562 7693
4  8846 8538 8847 8627
4  8661 8987 7555 8749
4  9066 7404 7480 7582
4  9112 9058 8750 1706
4  8926 7227 8923 9123
4  8987 8749 7562 7555
4  8513 7680 7818 7141
4  9073 8819 8959 1837
4  9088 8948 9151 9087
4  8985 4422 4421 4420
4  9080 9151 8753 8754
4  8984 8866 8985 8869
4  9079 9080 8948 1667
4  8753 1547 1546 1277
4  9087 7791 7153 7648
4  9079 9007 8948 9087
4  8727 1274 1592 1552
4  8646 8943 6816 7793
4  8753 8948 1546 1547
4  8948 8947 1666 1703
4  8575 6575 7785 6576
4  4317 8579 4204 8785
4  8778 4589 4567 4283
4  9101 4340 4304 4535
4  9163 9157 6837 7447
4  9163 9160 8903 9164
4  9163 9165 7976 9166
4  8580 6248 9100 6257
4  8846 8845 8627 8847
4  9163 9160 9164 9166
4  9163 9158 9165 9166
4  9160 4248 7976 530
4  9160 9164 4557 9156
4  9019 4200 4506 4530
4  8867 4439 4313 4397
4  9160 9164 9156 8903
4  9160 8483 530 7976
4  9020 7221 7223 8021
4  9086 4389 8714 9105
4  9160 8483 9157 9156
4  9091 7808 8025 7537
4  8768 1505 1685 1670
4  8652 9142 9138 9134
4  8659 7487 8770 6711
4  8654 9070 8545 8482
4  9115 7422 7374 7479
4  1650 8482 267 1432
4  1430 6726 8014 859
4  8652 1315 1313 1628
4  8894 598 6500 7069
4  8953 8952 7175 7069
4  8653 7197 8777 8258
4  8912 7696 6651 7487
4  9148 7399 7479 7583
4  8653 7197 8608 8777
4  8654 8545 9070 8547
4  8836 8832 8833 8834
4  9002 7845 6191 6192
4  8913 1549 1482 1377
4  8924 1604 8863 1456
4  8607 8609 8654 1614
4  8547 8607 8654 1545
4  8723 7370 7552 7771
4  8605 8609 1341 8623
4  7552 6929 7128 6923
4  8897 7300 7856 7622
4  8654 1614 8609 1432
4  8776 8800 7431 7430
4  8794 4219 4332 4213
4  9161 8847 7812 9154
4  4332 390 7885 467
4  8793 4331 4419 4539
4  8776 8774 8800 9011
4  8873 8465 8874 1555
4  8875 7356 7571 7572
4  8772 8773 8776 8774
4  8773 6428 6964 7110
4  8874 1555 1514 1494
4  8751 8480 9050 7443
4  8775 8776 9011 8774
4  8772 6969 7182 6970
4  8772 6969 6970 7110
4  4461 4460 8693 4431
4  9081 8693 8712 4460
4  8772 9052 8774 8775
4  8687 8774 9011 8691
4  9013 4239 4357 9052
4  8529 243 8441 4564
4  9128 6981 7013 7014
4  8817 1625 8824 1824
4  4359 4239 4357 9013
4  8938 8502 8962 8963
4  8937 8939 8906 8506
4  8907 8963 8856 8570
4  8775 8774 9011 9013
4  1576 8587 8572 8967
4  8966 8572 8905 1577
4  8939 8568 8646 6816
4  8574 1659 8573 1511
4  1591 8958 1692 1966
4  8939 8943 8646 9009
4  8645 8586 8966 8587
4  8566 8572 8567 8573
4  8567 8586 8967 8587
4  8605 8612 8611 8613
4  8951 7755 6607 6606
4  9099 6607 6602 6606
4  8806 7615 8626 7796
4  8805 9030 8857 8807
4  9143 1532 8908 1250
4  8817 8393 6980 810
4  8818 8115 8393 1036
4  8854 8806 6903 8855
4  8885 8890 8820 6876
4  8880 8958 8824 1455
4  8885 6876 7468 7469
4  8854 8858 8857 8569
4  8613 1406 8808 1476
4  8823 6981 8942 1695
4  9102 1419 7014 929
4  8619 8621 8620 8626
4  8611 1541 8620 1477
4  8805 1541 8611 1476
4  8823 6981 6980 6389
4  6981 472 1695 552
4  6380 7215 9151 8917
4  9118 1920 8741 8946
4  8950 1465 9102 6987
4  7014 929 1419 472
4  9128 6607 7250 6602
4  9125 8946 8755 1471
4  8823 6980 6981 552
4  8942 1695 6981 472
4  8738 9125 9118 8917
4  9125 8917 8755 8946
4  9128 7013 8031 7014
4  8823 8942 8880 1695
4  8732 8945 7153 7151
4  8914 1377 1258 1375
4  8735 8946 8945 8917
4  8915 8765 7442 8916
4  8915 8754 7590 8767
4  8945 8917 8946 9151
4  9152 7997 7153 7791
4  8945 7648 7153 7215
4  8992 8639 7659 7798
4  8651 37 6754 7725
4  8735 7857 7215 7151
4  8732 7151 7154 8884
4  8745 946 37 7725
4  8933 8991 7626 7455
4  8988 9129 8738 7668
4  8735 7857 8738 8917
4  8769 8660 7786 8940
4  8858 7730 6301 7653
4  8946 8755 1471 1277
4  9119 6456 6192 6193
4  9036 1310 1253 1308
4  8699 8016 6456 7778
4  9121 8701 8695 1536
4  8598 8914 7665 6629
4  8753 8946 1277 8755
4  8674 8016 6691 8009
4  8673 8761 8759 8557
4  8915 9151 8917 6380
4  8380 8475 9062 4488
4  8620 9130 8626 8621
4  8987 7557 7555 7562
4  946 6726 1430 859
4  8930 9124 8661 8997
4  9093 4439 8525 9105
4  8620 9130 1573 1291
4  9030 8574 8858 8922
4  8807 9056 8921 9048
4  8633 7652 9057 8116
4  8683 7692 8999 7819
4  9145 6503 7663 7739
4  8620 9048 8626 9130
4  8690 7602 7419 7483
4  9091 9093 8025 9092
4  8620 9130 1291 9056
4  8612 8611 8622 8610
4  9091 7537 8869 8852
4  8622 7762 8625 7795
4  8807 7796 8626 9048
4  8974 8531 9062 9063
4  8784 8845 8849 8848
4  8626 8599 8625 8621
4  8626 8599 8621 9130
4  9163 8483 6836 6837
4  9165 7704 7981 8485
4  8770 7486 9148 8508
4  8626 7794 8599 9048
4  8626 9048 7796 7794
4  9142 1670 8768 1656
4  8846 8583 8530 8537
4  9137 9148 7399 9138
4  8939 8504 8941 8506
4  8839 1572 1385 1670
4  8528 7325 8530 6467
4  8582 8537 8583 8785
4  6467 8530 8528 8538
4  9063 6825 6533 7325
4  8527 8529 8627 4229
4  8531 8973 4244 4266
4  8932 7224 8020 7135
4  8978 4385 4530 4562
4  8515 8525 4440 9105
4  9062 8528 8531 4223
4  8622 8626 7795 8625
4  8791 7766 7300 7622
4  8608 8623 9026 8609
4  8519 7624 8125 7925
4  8850 8852 7509 7602
4  8623 8609 1341 9026
4  8789 8623 8624 1338
4  1338 8623 9026 8789
4  8981 7739 7663 7639
4  8631 8633 8630 9057
4  8854 8807 8858 7730
4  8843 1509 1507 1291
4  8618 1258 1377 1261
4  8841 8695 1646 1498
4  8622 7762 9026 8788
4  9026 6474 6475 8070
4  8676 8539 8675 7058
4  9026 6474 8070 8069
4  8624 1338 8623 1631
4  8608 6475 9026 7452
4  9069 9070 7507 7505
4  1614 8609 1341 8605
4  8606 7355 8612 7314
4  8543 7855 7505 7267
4  8619 1631 8610 1477
4  8872 1610 1588 1683
4  8646 7116 7793 7341
4  9026 7587 8788 7762
4  8154 8943 8937 8940
4  8944 8732 1951 8740
4  8614 1281 8523 8863
4  8926 7311 8925 7227
4  8521 8614 8535 1281
4  8555 8671 9116 8667
4  8891 8895 6495 7290
4  9072 8892 1502 8013
4  8861 7410 8536 8832
4  8825 7295 7370 7276
4  8614 9077 8863 8523
4  8861 8614 8833 8536
4  4372 434 441 8361
4  7630 8361 7295 7829
4  8614 7380 8536 7410
4  8825 8830 4372 4516
4  8707 8637 7275 8635
4  8641 7879 8649 6035
4  9051 4235 47 8395
4  7053 7051 8649 7282
4  8614 8925 7381 7228
4  6034 6037 8230 8641
4  8811 8898 7281 8900
4  8614 7381 9077 7380
4  9161 8847 8849 7852
4  9153 9162 4282 8415
4  8598 6629 7665 7666
4  9161 9162 8485 9165
4  8583 7785 7490 7489
4  4223 8528 8531 4229
4  9161 8849 9162 9165
4  9161 8849 7704 7852
4  9161 8485 9162 8415
4  8556 8562 8759 7319
4  9162 973 8415 8485
4  8932 7135 7223 7224
4  8515 8517 9095 8516
4  8627 8847 9153 9154
4  9162 8845 4282 4283
4  8683 7680 7692 7818
4  9162 4282 8415 973
4  8565 9077 8523 9061
4  8522 8565 8523 8675
4  8525 4395 4440 4397
4  9045 9055 8981 9131
4  9000 8831 1942 8560
4  1942 8831 1704 8560
4  8924 9077 8925 8926
4  8524 8539 7058 8675
4  8522 8614 7380 8615
4  8800 7431 7430 7483
4  8776 7183 7430 7431
4  8775 7182 7530 7430
4  8776 7430 9011 8800
4  9013 4359 4461 4357
4  8522 7380 7727 8615
4  8798 7419 7602 7509
4  8924 8958 1591 8959
4  8926 7381 9061 9077
4  1903 8717 8936 1520
4  8523 1482 8913 1483
4  8677 1586 8558 9049
4  8953 9025 1488 1315
4  8894 1462 8954 8896
4  8655 8652 8859 9137
4  9165 8848 9166 9158
4  9148 9138 9134 9147
4  9137 7487 6651 7399
4  9165 9158 7715 8849
4  9153 9162 8845 4282
4  8627 4287 4229 4564
4  9126 9067 9068 9075
4  9165 9158 7642 7715
4  8974 8703 8708 8705
4  9165 9166 8485 7976
4  8532 9066 8530 7404
4  8974 8703 8704 4571
4  8802 7431 7255 7183
4  8772 4239 223 4445
4  9163 7976 9165 7642
4  9162 9166 8848 4249
4  8691 4444 4546 4359
4  8798 7510 7419 7509
4  8800 7420 7431 7419
4  8796 7510 6759 7420
4  9166 8848 4249 4548
4  8797 4414 4547 4444
4  8691 4444 4547 4546
4  8850 8798 8852 8853
4  7250 7013 6981 6389
4  9166 8485 676 4249
4  8508 7583 7495 7486
4  8770 7487 7486 6711
4  8769 7496 6711 7486
4  9166 7976 676 8485
4  9037 8621 1629 8790
4  8768 8507 8510 1685
4  9037 9032 8790 1309
4  498 8030 1520 840
4  8532 7480 7325 7426
4  8475 6825 6826 6531
4  8532 9066 7404 7480
4  8742 7825 6726 7811
4  8870 6726 8742 8725
4  8625 7876 9159 7695
4  8526 1439 1668 1694
4  7533 8834 8536 7752
4  8622 8788 8625 7762
4  8625 8599 7795 7745
4  9100 7781 6248 7155
4  8737 7149 7151 7155
4  8625 8788 8790 9159
4  8594 8599 7779 9047
4  8817 7158 6980 8393
4  8626 9130 9048 8599
4  9037 8621 8625 8599
4  9123 8880 8824 8822
4  8970 9094 8931 8969
4  8910 8540 8539 6629
4  8675 8524 8522 7058
4  6396 6973 6402 8115
4  8617 8909 8911 1253
4  8539 8910 6629 8914
4  8676 8539 8913 8675
4  9050 6964 7255 7256
4  8799 7420 7419 7510
4  8885 8888 8889 8820
4  8914 8598 1375 1258
4  8676 8618 1377 8913
4  8914 8699 8598 7665
4  8522 7058 7245 8675
4  8835 8501 8834 7711
4  8710 1668 1479 1699
4  8524 7058 8539 7727
4  8540 8539 6629 7727
4  8533 8534 8536 6831
4  8616 8521 1593 1482
4  8914 8910 8618 8539
4  8765 8916 7440 7442
4  8943 8154 6816 6814
4  9080 1546 1667 1581
4  8914 1377 8618 1258
4  8618 8913 1482 1377
4  8764 8840 8726 8727
4  8726 6990 7696 6712
4  8653 374 8070 8258
4  8605 8606 8613 8607
4  8840 1385 1552 1671
4  8839 1385 1671 1670
4  9165 7976 8485 7981
4  9023 4290 4294 4590
4  8845 4287 4283 4567
4  9026 8609 1341 8070
4  8532 8531 8530 9066
4  8653 6475 8608 7197
4  8532 7426 8705 7480
4  9123 7227 8822 7313
4  8795 8798 8853 8852
4  7739 8981 9145 8999
4  8565 7397 6504 7244
4  8609 1341 8070 374
4  9057 6396 6973 7652
4  7244 8559 6504 8565
4  8606 8777 8608 7355
4  8560 1586 1704 1705
4  8556 6503 7319 6504
4  8706 9150 8085 7187
4  8605 8610 1613 1412
4  8826 8707 8706 7259
4  8951 6987 7014 8031
4  8556 8562 8563 8560
4  8564 8563 9053 8560
4  8942 7014 9102 1419
4  8942 9128 6981 8879
4  8857 1251 1250 1659
4  8574 1511 1500 1659
4  8562 9145 6503 8563
4  8854 7730 8569 7871
4  8920 7653 6454 6412
4  8526 1479 1668 1439
4  9097 7308 8501 7711
4  8834 8526 8836 8501
4  9145 8563 7564 6503
4  7663 7564 9145 9055
4  8632 8752 9046 8756
4  9055 9145 9090 8563
4  8677 1483 8523 8913
4  8759 7319 6692 8559
4  9162 9165 9166 8485
4  8627 4229 4287 4490
4  8783 7852 7758 8849
4  9161 8845 9162 8849
4  8582 4575 8537 4490
4  9036 1309 1310 1308
4  8484 9140 9033 9031
4  8694 8696 8699 8700
4  8846 8785 8627 8845
4  9130 1507 1506 1291
4  9162 8845 4283 8848
4  8512 8929 4401 4395
4  9161 8415 7812 6413
4  8847 9154 6115 7812
4  9019 8978 4530 4506
4  8784 7852 8847 6575
4  9065 9067 9043 8583
4  9162 4249 8848 4283
4  8970 8969 7698 8020
4  8980 7639 7636 7753
4  6426 7158 8393 6402
4  9123 8890 8819 8959
4  9162 9165 8848 9166
4  9057 6973 8115 8116
4  9164 8903 9158 8786
4  8795 8985 8982 8866
4  8776 7430 7183 7182
4  9164 9156 8903 8904
4  9160 4257 9156 4557
4  9166 9164 9158 8848
4  8564 9053 1705 8560
4  9082 9083 7925 8900
4  9164 8786 9158 8848
4  8531 4228 4229 4266
4  8085 7523 7187 7327
4  9158 7612 8786 8903
4  9158 8848 8786 8849
4  9165 7704 8849 7715
4  9163 9158 7447 7642
4  9158 8903 7447 7612
4  8788 8474 7588 6346
4  8624 8790 8625 8788
4  8624 8622 8788 8625
4  8624 1631 8621 1629
4  8788 7588 9159 7876
4  8623 1613 1631 1338
4  8787 8788 9159 8790
4  8795 9108 4422 8797
4  9079 8646 8943 9009
4  9088 7649 7786 6821
4  8738 7668 7643 7857
4  8780 4508 9006 4506
4  7545 9107 9095 6634
4  8513 8869 7951 7818
4  9005 9004 6943 7646
4  8780 4200 4205 4199
4  9095 7224 7221 7545
4  8984 8683 7819 7818
4  8677 1483 8913 1549
4  8867 4397 8868 8525
4  9053 1705 1970 1837
4  9053 1705 1942 1970
4  8647 1520 1331 1490
4  8867 8851 4313 4439
4  8833 8862 1458 1271
4  9047 7780 7779 7778
4  8911 1258 1261 1253
4  8528 8529 4229 4223
4  8846 8538 8530 7490
4  8707 8877 8876 8825
4  8827 4373 8877 4553
4  8827 434 8232 4373
4  8827 434 4372 8361
4  8844 8921 9048 7780
4  6456 8696 6454 6193
4  8700 6456 8016 6192
4  8918 8921 8696 6454
4  8844 7780 8696 8921
4  8600 9130 8843 1507
4  8085 4488 4407 648
4  8825 8814 8876 8635
4  8659 8769 8660 6711
4  8657 8660 8754 8658
4  9149 8232 8085 131
4  8232 7259 7523 7630
4  8669 8503 7712 7802
4  8907 8938 8962 8963
4  9076 8502 8669 8503
4  8507 8940 8504 8941
4  8504 8937 8939 8940
4  8085 648 4407 131
4  8937 8154 8504 6818
4  8875 8465 7356 7965
4  8874 8465 921 1555
4  8835 8471 7365 7952
4  8874 1555 921 1514
4  9140 6941 6895 7347
4  9140 8484 6893 6941
4  8892 1494 1514 1502
4  8923 8924 8926 8958
4  8873 7571 8875 8465
4  9077 9061 7395 7381
4  8618 8524 8540 8616
4  8524 8523 8675 8522
4  8874 9072 8875 8892
4  8875 8465 7571 7356
4  9160 9156 4257 8483
4  8837 7365 8526 8835
4  4367 885 922 8472
4  4298 9050 6964 8804
4  8629 9046 9131 9045
4  9157 8483 6837 6269
4  8762 7579 7692 7693
4  9163 8903 9160 9157
4  8761 1708 8831 8557
4  9151 6380 7649 7648
4  8753 1546 1581 1277
4  8939 8506 8941 1584
4  9157 6837 6270 6269
4  8902 9027 9023 8904
4  9088 6814 6821 7786
4  9110 7545 6257 6634
4  9100 9127 8740 8737
4  9155 60 8481 4569
4  9163 8903 9157 7447
4  9157 8903 6369 7447
4  9040 9155 9136 9135
4  8598 7779 7666 7778
4  9156 8904 4557 4294
4  9027 8903 9156 8904
4  9031 9032 1302 8477
4  8598 7778 7666 7665
4  8534 7434 7435 7533
4  644 8837 637 8471
4  8526 1439 9146 7365
4  8625 8788 9159 7876
4  8843 8697 9047 8600
4  9026 7762 7452 7587
4  8787 7588 8474 7699
4  9146 1696 457 1439
4  7365 457 644 1439
4  8619 1477 8620 1573
4  8834 8536 8534 7533
4  8835 7711 7533 7435
4  8787 8474 8476 7699
4  9037 1309 8790 1629
4  9034 9159 8790 9032
4  9166 4249 676 4248
4  9034 9036 9037 8596
4  9034 9032 8477 8476
4  9031 7619 9034 8477
4  8790 9159 8787 9032
4  8965 6895 7435 7434
4  8787 9032 1301 8790
4  8534 7533 8536 6831
4  8540 7543 8648 6831
4  9089 6630 7347 7543
4  8615 6831 7380 7727
4  9034 9032 9037 9036
4  8534 7434 7533 6831
4  8787 9159 8788 7588
4  8594 7512 7666 7779
4  8911 8618 1261 1258
4  8964 9141 8710 1699
4  8837 8965 8534 8710
4  8600 9047 9130 8599
4  8481 390 4569 60
4  8787 9159 7699 8476
4  6575 7852 7758 8783
4  7885 7300 7766 7763
4  9038 7885 8481 7763
4  8522 8614 8523 9077
4  8595 7745 8625 7695
4  8790 1309 9032 1301
4  7884 7622 7343 7766
4  9021 9024 4507 4590
4  8834 7711 7533 8835
4  8688 7483 9011 6994
4  8687 8774 8691 4359
4  8687 8774 4359 9013
4  9010 8775 9011 9013
4  9069 9070 8777 7507
4  9011 9012 6994 7530
4  8069 1341 1338 535
4  9070 7303 7196 7305
4  1610 790 262 8062
4  8873 7305 8871 7571
4  8595 8600 9037 8599
4  8600 8598 1375 8697
4  9037 1309 9036 9032
4  9072 7965 920 1514
4  8594 8911 8597 8596
4  8571 1663 1608 1634
4  8594 8597 8911 8598
4  9034 9036 9035 9032
4  8566 7728 7853 6817
4  8570 7728 6817 8012
4  8889 6876 8820 6396
4  9089 8648 7543 7347
4  8820 6402 8393 8115
4  8885 6876 7469 7309
4  8925 8926 7227 8923
4  9123 8958 8819 8824
4  8820 7313 6426 6876
4  8817 1036 8393 810
4  9022 7463 6370 6944
4  8597 8596 8911 9036
4  6969 6970 7531 7182
4  8597 9089 8910 6630
4  8774 4359 4445 4444
4  8801 7443 7420 6759
4  9011 8800 7483 8690
4  8594 8595 8600 8596
4  9036 9032 9033 9035
4  8687 9013 8693 9012
4  9036 1308 9032 1309
4  4239 6969 9052 8772
4  9042 9066 8530 8531
4  9064 7661 7582 7798
4  8972 9066 8708 7798
4  9066 7480 7798 7582
4  9034 7515 8596 7695
4  8992 7661 7798 7659
4  9037 8621 8599 9130
4  8594 9047 8600 8599
4  9089 7515 6630 8597
4  8722 8721 4533 4559
4  8835 8965 7435 8534
4  8965 8964 8648 8710
4  8965 8964 8471 8424
4  8965 8648 9140 7434
4  8718 7284 7167 7502
4  8965 8964 8424 9140
4  9028 8810 4214 4213
4  8965 7434 9140 6895
4  8965 9140 8424 6895
4  8965 7348 8471 7435
4  9027 6370 7383 6369
4  1479 8710 8964 8837
4  1374 9141 9140 8964
4  8606 9069 7507 7315
4  8964 637 8471 8424
4  8070 374 1341 535
4  8796 6759 7510 7636
4  8911 9036 1310 1253
4  9141 9033 1367 9140
4  9140 9033 1367 8484
4  8804 4445 4298 4444
4  9140 1374 8424 1367
4  9055 7563 7777 7663
4  8964 9141 8648 8710
4  8516 9111 9109 4452
4  8999 7739 7819 7692
4  8834 8526 8835 8534
4  9141 1308 1621 1367
4  8484 6941 7618 6893
4  9032 9159 8787 8476
4  9032 8477 303 1302
4  9097 7308 7391 7389
4  9031 9032 9035 9033
4  9032 9033 1302 1308
4  7365 7391 7711 7952
4  8837 8835 8965 8471
4  9089 9141 8709 8648
4  8676 8914 1377 8618
4  9165 9158 8849 8848
4  8911 1258 1253 1310
4  9161 7704 8485 6413
4  8784 6575 8846 8783
4  8600 1507 1310 1506
4  8778 8784 4567 8785
4  9045 7777 7563 7731
4  8849 8848 8786 8783
4  8778 8848 8781 4589
4  48 47 4235 8395
4  8781 9164 8848 8786
4  9162 8485 9166 4249
4  8797 4547 4414 4422
4  8846 8627 8537 8538
4  9162 8845 8848 8849
4  8849 8786 7758 8783
4  8690 8713 8689 8692
4  9165 7642 7981 7704
4  9160 9157 8903 9156
4  8737 9100 8884 8740
4  8621 1506 1629 1573
4  9037 1310 1309 1506
4  9038 9041 7300 7193
4  8729 8740 8732 8884
4  7151 8737 8884 8732
4  8737 9127 9074 8838
4  8156 889 4419 890
4  8793 4331 7884 890
4  9041 7193 7383 7500
4  8994 9100 7781 9110
4  8731 8732 8730 9152
4  8735 8944 8946 8741
4  8773 4445 8804 8774
4  7110 7183 6428 6970
4  8734 8737 9074 9075
4  8772 4445 8774 4239
4  8774 4445 4359 4239
4  7725 6740 6727 6741
4  8859 1572 1346 1385
4  8744 8729 8591 8730
4  9126 9127 4587 8578
4  8729 1956 8730 1951
4  8994 7775 9110 7781
4  9137 6651 7329 7399
4  9161 9165 8485 7704
4  9043 9126 9067 9068
4  9060 8441 6826 7817
4  8993 9042 8972 9064
4  9042 4267 9068 4264
4  9074 9068 9126 4531
4  9063 7325 6533 7426
4  8902 9022 9027 6370
4  9150 7187 7426 6533
4  9150 6533 8380 7327
4  9075 9068 9064 9067
4  8971 4594 8972 8979
4  9149 131 4407 4373
4  8030 8679 6440 7105
4  9151 6821 7648 7649
4  8737 7151 8884 7155
4  8728 7759 7614 7788
4  8765 8767 7590 7614
4  8734 8739 8735 8738
4  9126 9043 4267 9068
4  9067 9064 9065 9042
4  8778 4283 8848 4589
4  8783 7758 6575 6576
4  8576 6671 6576 7784
4  8848 4283 4249 4548
4  8655 8860 9137 8859
4  8652 1313 1572 1628
4  8580 6257 6671 7784
4  8575 7784 6576 7785
4  8782 4199 4205 4204
4  8835 8965 8471 7435
4  8953 8656 8952 9025
4  9142 1656 1628 1572
4  8771 8839 8663 8659
4  9086 9105 8978 4562
4  9142 9148 9138 9134
4  8900 9083 7925 9028
4  9040 4219 4476 4569
4  8668 9116 1689 1606
4  8668 8667 8955 9116
4  8904 4294 4290 4557
4  8510 1674 1654 1656
4  8537 8627 8785 4490
4  9136 4476 4219 4568
4  8622 9026 7762 7452
4  8825 8635 8707 7276
4  8702 8707 8877 8640
4  9070 7196 7507 7505
4  8702 9149 8706 9150
4  8654 1432 1545 1614
4  8608 7355 8777 7197
4  8707 8640 7528 7275
4  8702 9149 8704 8877
4  8610 1613 1412 1477
4  8702 8707 8706 8877
4  8872 1683 8545 1610
4  8816 8718 8719 8724
4  8733 8957 8742 8725
4  8936 7167 8720 8051
4  9053 9090 9055 9044
4  8950 6987 522 1465
4  8602 7502 7384 7626
4  8718 8936 7384 7167
4  8679 6543 7163 7359
4  8716 7771 7502 7274
4  8716 8724 8718 7502
4  8624 1334 1631 1629
4  8909 9036 9033 9035
4  8716 8723 7771 8636
4  8812 7126 7128 6929
4  8723 8724 7771 7552
4  8812 7128 8724 7552
4  8830 8829 9104 8815
4  9089 9141 8648 9140
4  8788 7876 7762 7588
4  8723 8814 8829 8635
4  8723 8635 8636 8721
4  8813 8157 6923 7854
4  8814 8719 4559 8721
4  9031 9140 9033 9035
4  7512 8596 8597 7515
4  8653 7197 8258 6477
4  8600 8911 9036 1310
4  8629 9045 9131 9044
4  1308 9033 9141 8909
4  8476 9159 7700 9034
4  9039 9157 6369 6270
4  9089 7347 9140 8648
4  9035 6941 9031 9140
4  9038 7193 7300 7763
4  8622 7795 7615 7762
4  9031 9033 323 1302
4  9033 8484 323 1367
4  8844 8921 9056 9048
4  9130 1506 1573 1291
4  8808 1251 1476 1250
4  8865 8866 8852 8869
4  8597 9089 9036 8909
4  8597 7666 7512 6630
4  9089 9035 9140 7347
4  9037 1629 1506 1309
4  8921 7653 6301 6454
4  8594 7512 8597 7666
4  9035 9140 7347 6941
4  8807 9048 8620 9056
4  9036 9033 9032 1308
4  8777 7197 7507 7196
4  8482 9070 8545 8062
4  8781 4592 9164 8904
4  8781 8848 4548 4589
4  8062 7303 7305 7352
4  8981 7639 7663 7777
4  8781 9164 4548 8848
4  8784 8785 8846 8845
4  9166 4248 4548 4249
4  8485 4249 973 676
4  9161 8847 7852 7812
4  8786 8783 8779 7787
4  8849 7758 8786 7715
4  8786 7787 8779 7612
4  9130 8599 9047 9048
4  8860 8859 8912 9137
4  8887 7468 7731 7563
4  8605 1613 8610 8623
4  8806 8612 7615 7314
4  8630 7682 7731 7652
4  8594 8598 9047 7779
4  8475 6533 6825 6531
4  9037 8621 9130 1506
4  9060 7817 6826 6825
4  6754 6741 6952 7332
4  8806 8611 8620 8626
4  8745 6727 6726 7725
4  9037 9036 1309 1310
4  8650 7332 6952 6951
4  9148 7486 7399 7583
4  9037 8625 8621 8790
4  8599 7779 9047 7794
4  8626 7795 8599 7794
4  8982 8985 8795 4422
4  8595 8625 9034 7695
4  9130 8843 9048 9047
4  8983 8981 7777 7636
4  9046 4413 4209 4541
4  8620 9130 9056 9048
4  8923 1604 8958 1455
4  9023 9022 9136 9135
4  9031 323 8484 8477
4  8833 1284 8535 1281
4  9000 9090 8560 1942
4  8471 7348 7952 7435
4  8424 714 1367 1374
4  9000 8831 1936 1942
4  1367 9141 9140 1374
4  8758 8761 8686 8831
4  9001 7562 9113 7845
4  8680 8683 8986 8762
4  8681 8686 1848 8831
4  8561 1704 8831 8560
4  9032 1302 1301 1309
4  8761 8562 8758 8759
4  8481 7763 7891 7193
4  8975 9006 8976 4507
4  8614 9077 8925 8863
4  4262 364 8478 60
4  8819 8822 8820 9123
4  8792 8900 8811 8897
4  9135 7383 7624 7500
4  9123 8958 8926 8959
4  9160 4557 4248 4257
4  8926 7309 8890 9061
4  9123 7309 8926 7311
4  8789 1338 8624 1334
4  8476 6935 8477 7619
4  8923 8862 1271 1457
4  8610 1631 1613 1477
4  7311 8926 7381 9061
4  6460 7167 8051 6462
4  8051 8936 1903 8720
4  8926 8925 7311 7381
4  8988 7659 8991 7455
4  9118 1919 9125 8990
4  9042 8972 9064 9066
4  8993 8972 8992 9064
4  8993 8979 4264 4183
4  9140 7347 6895 7434
4  8910 6630 6629 7666
4  8734 9064 9068 8992
4  8910 9089 7543 6630
4  8617 8911 8618 1261
4  9035 6941 7347 7515
4  8989 8739 8738 9118
4  8993 4456 8989 4183
4  9024 9136 4568 4590
4  9084 9024 8976 9085
4  9024 9136 9117 4568
4  9033 1367 323 1302
4  8964 1479 637 1374
4  9024 8519 9136 9022
4  9133 9143 1406 1533
4  8482 7196 7202 7197
4  8795 9108 8982 4422
4  9024 8519 9085 9117
4  9141 8709 1699 1621
4  9089 8909 8709 9141
4  9140 7434 8648 7347
4  9032 8476 303 8477
4  9015 9013 4431 4357
4  8809 9015 4556 4570
4  9015 8810 4556 4431
4  9010 7053 9014 6993
4  9016 8775 8395 7237
4  8612 7314 7452 7615
4  8716 8718 8724 8719
4  9154 6115 7812 7817
4  9010 9052 9013 9017
4  9010 9014 9015 9012
4  9052 9013 9017 4357
4  8415 7812 6413 6418
4  8886 8887 8888 9044
4  8887 7469 7468 7563
4  9053 8560 1942 1705
4  8882 9127 8740 9100
4  9055 8885 7469 9054
4  9055 9044 9090 9131
4  9111 4450 4306 4452
4  8515 8021 9020 7223
4  9054 9053 9055 8885
4  8559 7244 6504 6692
4  8885 8819 9073 8886
4  8799 8796 9108 8801
4  9108 9046 8752 8756
4  9108 8982 4541 9046
4  8797 8691 4547 8692
4  8797 8691 4444 4547
4  8790 1301 1629 1309
4  8595 8625 7745 8599
4  8596 7512 7695 7515
4  8909 1308 1621 9141
4  8795 8866 8796 7510
4  9118 9125 8946 8917
4  7643 6643 8738 8916
4  8717 1747 1520 1903
4  8956 8728 7614 7788
4  8956 8934 8679 7450
4  8718 7167 7384 7502
4  8721 8716 8723 8719
4  8601 8716 8719 8718
4  6541 8602 8821 7384
4  8965 6895 7348 7435
4  8915 9151 6380 8754
4  8915 8946 8753 8755
4  9032 1302 303 1301
4  7442 7590 8765 8915
4  8995 8994 9110 9101
4  8846 6575 7490 7785
4  9070 8482 8777 7196
4  8606 8855 8612 8613
4  8583 9067 7476 7489
4  8805 1251 1541 1476
4  9126 9068 4267 4531
4  8746 1707 8750 9058
4  9112 8987 8750 8749
4  9121 9003 9058 9113
4  7938 7846 9122 8749
4  8835 8534 7435 7533
4  8936 8051 6460 7167
4  7359 6721 6440 7105
4  8935 1331 1923 1275
4  9141 8709 8710 1699
4  8710 8535 1668 1285
4  8533 8710 8534 8648
4  8709 1285 8533 8710
4  8534 6831 8648 7434
4  9039 6270 7383 7193
4  8956 7450 8957 7788
4  9140 8484 8424 6893
4  8679 1520 7105 8030
4  8533 8534 6831 8648
4  8536 7752 7410 7533
4  8965 7435 8534 7434
4  8965 8534 8710 8648
4  8623 1341 1613 1338
4  9051 8898 8649 8809
4  9088 8660 7786 8754
4  8945 8948 9151 8946
4  9052 9016 8775 8395
4  8944 8948 8946 1547
4  9085 7675 7463 6944
4  8753 8948 8946 9151
4  9078 9080 8660 9088
4  8740 8944 8732 8737
4  6814 8940 7786 9088
4  9040 8481 390 4569
4  7648 6821 9151 9087
4  9151 8754 7649 6380
4  9041 7193 7500 7300
4  8881 8578 4340 9101
4  4304 4452 8881 9111
4  9031 8477 1302 323
4  9035 7619 6941 7515
4  9107 9095 9094 9111
4  9107 9110 9094 6634
4  9106 8580 9107 7545
4  8994 7914 8882 8744
4  8380 6533 9063 8475
4  9162 9165 8849 8848
4  9160 9164 9166 4248
4  9153 8847 9161 9154
4  9042 8531 8973 9066
4  8538 6115 7817 6467
4  8883 9127 8882 9100
4  8580 9100 9110 6257
4  8995 9101 9111 4306
4  8995 9094 9139 9111
4  8995 9094 8996 9139
4  9100 8737 7155 8838
4  9091 8851 8715 8852
4  8424 637 714 1374
4  8867 8853 8851 8852
4  9114 7268 7521 7269
4  9140 6895 6941 6893
4  8648 7347 7434 7543
4  8540 7543 9089 8648
4  8837 8965 8964 8471
4  8594 8600 9047 8598
4  8934 7440 6543 7450
4  8873 7352 8465 8062
4  9089 6630 7515 7347
4  8484 714 323 1367
4  8609 374 1432 1341
4  8548 8544 8666 8549
4  9070 8873 8872 8062
4  8605 8606 8608 8612
4  8551 1494 1597 1587
4  8873 7305 9070 8871
4  8553 8552 8961 8892
4  8858 8807 6301 7730
4  8544 8541 8550 8543
4  8609 1614 1341 1432
4  9026 1338 8069 1341
4  1555 8552 8872 1588
4  9045 9044 8628 8887
4  8633 8632 8630 7682
4  8632 9045 8983 9046
4  8541 8542 1365 1683
4  8563 7564 6504 7397
4  9055 7563 7564 7469
4  9155 9156 4262 4294
4  1364 1365 8541 1605
4  9114 8555 8666 8960
4  8611 1477 1476 1541
4  8918 8922 8842 8921
4  8625 7745 7795 7876
4  9158 7715 7612 7447
4  8669 8665 8668 8670
4  8553 8895 8960 8896
4  8619 1631 8624 8623
4  6634 9107 9095 9094
4  9094 9139 9111 8931
4  8579 8576 9106 8782
4  9050 684 4436 4298
4  8774 4444 8691 4359
4  7327 6531 6533 8380
4  4345 8815 8812 8719
4  8825 8828 7370 7295
4  8826 8361 8828 7295
4  8723 7771 8636 7273
4  8723 8721 8814 8635
4  8702 8704 9149 9150
4  4553 8827 8825 8877
4  8876 4576 8721 4577
4  8637 8635 8721 8636
4  8637 8876 8707 8877
4  8814 8876 8721 4577
4  8828 8361 7829 7295
4  8896 1462 1598 1597
4  8825 4516 4372 4553
4  8901 8903 7612 7438
4  8983 9045 8981 9131
4  8983 7777 9045 7877
4  8795 8796 8982 9108
4  6387 7331 6951 6952
4  8952 7234 8895 7521
4  8796 6759 8983 8756
4  8982 8983 8981 9131
4  8982 4541 4421 4422
4  8795 8797 8853 8798
4  8865 8795 8866 8985
4  9045 8630 8887 8628
4  9031 9033 8484 323
4  8998 8984 8868 8683
4  9145 9090 8563 8560
4  9055 9054 7564 8563
4  8837 7365 8471 644
4  8687 9013 4461 8693
4  8835 7435 7952 7711
4  8548 8546 1605 8671
4  8687 8774 9013 9011
4  8691 8692 4546 4547
4  8983 9131 9046 9045
4  8804 8776 8774 8800
4  8804 8774 8691 8800
4  9050 6964 8480 684
4  8773 8774 8804 8776
4  8599 7794 7745 7779
4  8621 1573 9130 1506
4  8889 7468 6396 7652
4  8817 8818 8820 8393
4  9053 8886 9073 1837
4  8773 8804 4445 4298
4  8773 8776 7183 7110
4  8822 7227 7159 7313
4  8984 7536 7819 7753
4  8654 1545 1432 1650
4  8605 1614 1412 1613
4  8543 7461 7267 7505
4  9070 7196 7505 7305
4  8691 8798 8800 8690
4  8800 7483 8690 7419
4  8797 8691 8692 8798
4  8799 8800 7419 7420
4  8792 8897 9028 8900
4  9011 7483 8800 7430
4  7976 530 4248 676
4  9050 6964 7256 8480
4  8856 7871 7728 8012
4  9030 8842 1287 1500
4  8571 1659 8907 1634
4  8963 7838 8012 7836
4  8804 8797 4444 4414
4  8761 9002 8760 9001
4  8673 8759 8760 8004
4  8673 8557 8672 8678
4  8673 8004 6692 8759
4  9002 8700 8009 6192
4  8424 7348 6895 6893
4  8608 7355 7197 6475
4  8936 8030 6460 8051
4  9112 1706 8750 1914
4  9001 9002 9113 9003
4  9121 9113 9002 9003
4  8515 9020 9095 7223
4  9094 8969 8996 9139
4  9162 8485 4249 973
4  9095 9018 9019 9107
4  9107 9095 9018 7545
4  9111 4306 4304 4452
4  9020 9018 9019 9095
4  9094 9110 7775 6634
4  8932 9094 9111 8931
4  8515 9105 4440 4385
4  8512 8515 8517 8525
4  8894 6500 598 514
4  8656 6951 7175 7422
4  7331 8953 8656 7175
4  9109 4530 8978 4385
4  4440 4451 8512 8515
4  8932 8970 9094 8931
4  9018 7545 9095 7221
4  8516 9109 4451 4452
4  9162 973 4249 4282
4  9095 7223 9020 7221
4  8516 9111 4452 4450
4  8932 8516 9111 9095
4  8516 9111 9095 9109
4  8983 7636 7877 6759
4  9154 8415 6418 7812
4  6467 7325 6825 9060
4  9045 7877 7777 7731
4  8529 8475 8441 243
4  9153 8415 658 8441
4  9154 8415 8441 6418
4  9108 4413 4541 4422
4  8847 7852 7812 6115
4  9153 658 4282 4564
4  9161 8849 8847 8845
4  8901 8902 7438 9004
4  8480 7443 6278 7256
4  9158 7447 7642 7715
4  9163 9160 9166 7976
4  9163 9164 8903 9158
4  9163 7447 9158 8903
4  8751 7443 7485 6278
4  9027 9155 9156 9039
4  8902 9027 8903 7438
4  7652 6958 6973 8116
4  9163 9166 9164 9158
4  8799 8804 4414 8797
4  9023 9136 4590 4476
4  9050 7443 7256 7255
4  8801 7420 7443 7255
4  8662 1505 1320 1685
4  8966 1582 9009 9007
4  8507 1674 1685 1398
4  9088 9151 8754 7649
4  8632 7682 7485 7877
4  8509 1643 1689 1674
4  8787 8476 8474 960
4  8505 8508 8504 8507
4  8937 6816 8943 8154
4  9079 8943 8646 7793
4  8506 8937 8939 8504
4  8617 8911 8910 8618
4  9034 7515 7695 7619
4  9140 6941 9031 8484
4  8504 8940 7495 8154
4  8662 8941 8507 1320
4  9031 6941 7619 7618
4  9078 1667 1320 1581
4  8547 9069 8541 8545
4  6935 7619 7618 8477
4  7700 7619 6935 8476
4  8659 6711 8660 6971
4  9060 8475 6826 8441
4  9162 4283 4282 4249
4  8657 8754 9080 8664
4  8529 8627 4564 9153
4  9060 6467 7817 6825
4  9154 7817 6418 8441
4  8941 8506 1398 1584
4  7700 9034 7619 8476
4  8787 1301 960 1334
4  8787 1334 8790 1301
4  8484 1367 8424 714
4  9031 9035 9034 7619
4  8659 8770 8769 6711
4  8822 8824 8819 8817
4  1966 8818 8817 1824
4  8595 7695 9034 8596
4  9031 9035 7619 6941
4  9034 8476 9159 9032
4  8887 8885 7469 9055
4  9123 8824 8819 8822
4  8886 8819 9073 1837
4  8824 8819 1966 8958
4  8958 8819 1966 1591
4  8819 8959 1837 1591
4  8860 7696 6740 6651
4  8651 8859 1313 1346
4  9134 1571 1628 1654
4  8630 7731 7468 7652
4  9054 8890 9061 8959
4  8926 9061 7311 7309
4  9054 7397 9061 7309
4  8634 7485 7682 6276
4  6958 8472 7682 6276
4  9130 1291 8843 1507
4  8697 9047 8600 8598
4  8479 6276 6278 7485
4  8993 8739 4456 9068
4  8676 8914 7665 8674
4  8600 1507 8843 1375
4  8844 8843 9047 9048
4  8871 9070 7505 7305
4  8620 1541 9056 1291
4  8465 7356 7352 7571
4  8844 7778 8699 6456
4  8873 7352 7305 7571
4  8699 8674 8016 7665
4  8835 8471 7952 7435
4  1479 644 8837 637
4  7183 8773 6428 7255
4  6964 7256 6428 7255
4  8395 7531 7628 7237
4  9051 8395 47 6039
4  8776 7183 6970 7182
4  8775 9011 8776 7430
4  8775 7531 7237 7182
4  8914 1375 8698 1377
4  9038 390 8481 7885
4  8844 8843 9056 8842
4  9156 4257 4262 4294
4  8600 1375 1258 1507
4  8791 7300 8897 7622
4  9155 4476 4262 4569
4  8791 7885 7884 467
4  8844 9047 7778 7780
4  8844 8843 9048 9056
4  9014 8900 6993 7281
4  7884 890 4331 467
4  8642 7568 7622 7282
4  9160 530 8483 4257
4  9010 6993 9014 9012
4  9013 8693 4431 4461
4  8687 9011 8690 8691
4  9011 8691 8800 8690
4  644 8837 8526 1479
4  9097 7711 7391 7308
4  8687 4461 9013 4359
4  8580 9110 7545 6257
4  4239 8774 9013 4359
4  9040 9136 9155 4476
4  8772 6969 223 4239
4  9136 8519 9135 9022
4  9023 9136 9155 9135
4  840 8051 1903 1089
4  8816 8724 7126 7284
4  9023 4294 9155 4476
4  1490 849 7105 498
4  8933 8991 8603 8604
4  9023 9155 4294 9156
4  8793 8156 4419 890
4  9024 4568 9117 4381
4  8643 6074 8156 6652
4  8643 7879 7738 7568
4  9016 8898 8649 9051
4  8478 9039 9157 9156
4  9155 4476 4294 4262
4  9039 6270 6369 7383
4  8792 8793 4539 4331
4  8794 4332 467 4331
4  8811 7622 7856 7282
4  9136 9135 9028 9040
4  9024 9117 9136 8519
4  9021 4507 9006 4290
4  9028 4214 9117 4568
4  9135 8519 7500 7624
4  9135 9022 7624 6370
4  9027 9022 9135 6370
4  9096 9146 1696 8357
4  9128 9102 7014 8951
4  8951 6607 7755 8031
4  8874 7965 1514 921
4  7965 7098 6742 7736
4  9071 8893 8961 8892
4  9071 8892 8961 8875
4  9099 9102 9098 8862
4  8864 9099 9128 6602
4  8949 6987 8951 7755
4  9146 1696 8357 457
4  8949 9097 6591 8951
4  9097 7365 9146 8357
4  9096 8269 8357 915
4  8872 8545 8062 1610
4  8874 921 8465 7965
4  8543 8871 8872 9070
4  8554 7571 7855 7376
4  8875 7571 7376 7572
4  8871 7571 7305 7855
4  8500 7308 8501 9097
4  8500 9098 1688 8862
4  8949 8950 9096 8951
4  9128 8879 6602 7250
4  1419 8862 1688 9098
4  9164 8786 8904 8903
4  1530 8502 8669 8670
4  9114 8666 7268 8960
4  9104 731 7104 8210
4  8551 8553 8896 1493
4  8210 7829 8035 7726
4  9104 1037 731 4370
4  9104 8036 7726 8035
4  8510 9134 8955 9147
4  9104 731 730 7104
4  9104 8035 7104 8036
4  8509 1530 8669 8668
4  8669 9147 8667 7712
4  9115 9147 8667 9116
4  9142 8510 9134 1656
4  9147 7479 7712 7583
4  8670 9132 9143 9144
4  8817 8393 6426 7158
4  8954 1598 1571 1677
4  8551 8553 1493 1494
4  7126 7284 7128 6462
4  8829 8813 8815 8814
4  8812 8815 296 6929
4  8555 9116 8671 1358
4  8891 8893 7290 6495
4  8952 8954 9115 9114
4  8875 7572 7965 7356
4  8873 8062 7305 7352
4  8465 1555 790 921
4  9099 6606 8951 6607
4  9045 7563 9055 8887
4  8823 8880 8824 1625
4  8817 8823 1625 810
4  8824 1455 8958 1692
4  8817 8822 8823 6980
4  8817 8393 8820 6426
4  8820 6876 8890 7313
4  8889 6396 8820 8115
4  9123 8959 8819 8958
4  8816 7167 7284 6462
4  8724 7128 7126 7284
4  8822 7159 7158 6426
4  8601 8604 8716 8602
4  8823 7159 6389 6980
4  8879 7159 7250 6389
4  8828 8361 8210 7829
4  8879 6389 7250 6981
4  8822 7159 6980 7158
4  9104 8210 8830 4370
4  8483 364 4257 530
4  9040 4219 4569 4332
4  9157 6269 6270 8478
4  1966 8958 1692 8824
4  9039 9155 8478 8481
4  9000 9145 9090 9131
4  9049 8959 1456 1523
4  8676 1590 8678 1549
4  8734 8738 8992 8739
4  8783 8576 7787 6576
4  9023 4476 9155 9136
4  8913 8524 1482 8523
4  8524 8539 8675 8913
4  9155 8478 60 4262
4  8483 364 4262 4257
4  7058 6691 6693 8676
4  8616 8533 8524 8540
4  8559 8675 8565 7244
4  7245 8522 7380 7727
4  8523 8521 1482 1281
4  8677 8559 8675 8565
4  8918 8922 8919 8842
4  6193 8918 8920 9120
4  8695 8701 1539 1536
4  6741 8651 8860 7332
4  9097 8357 8269 7389
4  9119 8700 6192 6456
4  8696 9119 6193 6456
4  8695 9119 8696 8700
4  8950 915 9096 1467
4  8949 6423 8269 6995
4  8070 535 1341 8069
4  9063 9150 8704 8705
4  8552 8872 1588 8542
4  9070 7303 8482 7196
4  1650 262 267 8482
4  8380 8085 9062 9150
4  7051 9016 8649 7628
4  9017 4235 4570 4339
4  9051 9052 4235 8395
4  9017 4570 4235 4357
4  9149 8877 8706 8827
4  8974 8971 8973 8708
4  8974 8708 8973 8532
4  9149 8085 8704 4407
4  9052 48 8395 6969
4  9051 7628 8395 6039
4  8825 8829 8635 7370
4  8974 9062 8531 4228
4  8704 8703 4566 4571
4  8826 8232 8361 7630
4  9149 8877 4373 4566
4  8813 8157 8815 6929
4  9063 6533 9150 7426
4  8828 7829 8210 7726
4  8830 8361 8827 4372
4  9150 8085 7187 7327
4  8830 8210 441 4370
4  8828 7295 7726 7370
4  8232 434 131 4373
4  9150 8085 7327 8380
4  8706 8707 7528 7259
4  9150 8705 7426 7528
4  8826 7259 8706 8232
4  1502 6047 490 8013
4  8893 6495 6493 7290
4  8893 6047 8892 8013
4  8952 7521 9115 7422
4  8518 9117 8520 8519
4  8977 9085 8976 9004
4  9149 8827 4373 8877
4  8877 4373 4566 4553
4  8702 8640 8877 8703
4  9117 8520 9084 8518
4  8706 8085 7523 7187
4  9150 7187 7528 7426
4  9021 9006 8976 9004
4  9085 9022 9024 9004
4  8085 648 8380 4488
4  9084 8977 9085 8976
4  9146 457 8357 7365
4  9149 4373 8232 131
4  8826 7295 7630 8361
4  8526 8501 9146 8836
4  8835 7365 7711 7952
4  8949 8951 9096 9097
4  8500 8501 6606 8832
4  8653 8258 1432 374
4  8500 8501 8832 8836
4  9146 8836 1688 1694
4  1432 8482 267 8258
4  8554 8552 8875 8961
4  8891 8893 6047 8892
4  8891 6495 6500 6047
4  6591 7308 8951 9097
4  8952 6498 7234 7175
4  8526 644 1439 7365
4  8837 8965 8710 8964
4  9102 8951 6987 7014
4  7752 8834 8536 8832
4  8501 8832 7752 6606
4  8692 8850 8690 8713
4  9125 1919 1471 1275
4  514 6047 490 1493
4  9084 9086 4188 8714
4  8714 8712 4514 4188
4  8714 9105 4389 4439
4  7069 6498 7175 7331
4  6500 6498 6495 7234
4  8689 8713 8711 8712
4  8794 467 4332 7885
4  9155 9156 8478 4262
4  8791 7884 8793 4331
4  8830 8361 441 8210
4  8711 8715 7720 7808
4  8827 4373 4372 434
4  8711 9084 8714 9086
4  8533 8536 8615 6831
4  8710 1699 8709 1285
4  8545 1650 1610 1683
4  9077 8926 7381 8925
4  8924 8926 8959 9061
4  8545 1683 1545 1650
4  8642 8156 7343 7568
4  8834 8501 8832 7752
4  8791 7885 7300 7766
4  8642 7879 7282 8899
4  8791 9038 7300 7885
4  8834 8833 8535 8536
4  8833 8614 8535 8536
4  1432 267 374 8258
4  8833 8614 8863 1281
4  8535 1285 8521 1281
4  8826 8232 7630 7259
4  8827 8361 8232 434
4  9149 8827 8232 4373
4  8706 7187 7523 7259
4  8933 6541 9129 7455
4  8834 8832 8501 8836
4  8813 8157 6929 6923
4  9104 1037 4370 4349
4  8723 8635 7273 8636
4  8815 296 8157 4349
4  8536 8615 6831 7380
4  8873 8465 790 8062
4  8670 8550 7460 7801
4  8062 8872 1610 8873
4  1555 8873 790 1610
4  8902 9027 9022 9023
4  8938 8962 8502 1527
4  9039 7383 9027 9135
4  8938 8570 6818 8012
4  8907 8962 1417 8908
4  47 6039 905 4339
4  9144 8962 8963 8856
4  9163 9160 8483 9157
4  8670 8550 8671 8546
4  8670 8963 9144 8962
4  9076 8669 8502 8963
4  8962 1417 8908 1532
4  8907 1417 8962 1527
4  8988 7668 8738 8992
4  8963 8856 8012 7838
4  9143 8908 8962 8856
4  8910 8540 7543 9089
4  8474 1334 960 709
4  9121 6192 9119 8700
4  9001 1540 8761 8701
4  8562 8759 8761 8557
4  9165 7715 7642 7704
4  7642 6836 7976 7981
4  8795 8798 7509 7510
4  9163 7642 9165 9158
4  9001 9112 8685 9003
4  8415 658 973 4282
4  8758 8762 8831 8686
4  9164 4548 4248 4557
4  8556 8564 8563 6504
4  8759 8673 8557 8672
4  8677 8565 8675 8523
4  9157 8483 6269 8478
4  9166 676 7976 4248
4  9026 6475 8653 8070
4  8069 535 1338 709
4  8561 8557 8831 1708
4  8561 8558 8557 1585
4  8686 8831 1708 1848
4  8612 8622 9026 8623
4  8009 8673 8004 6692
4  8678 8701 8761 1594
4  8673 8701 8700 9002
4  8789 709 1338 1334
4  8685 8686 1702 1849
4  8758 8562 8831 8762
4  8789 6346 8069 8474
4  8982 9046 9131 4541
4  8797 8692 4314 8853
4  8799 8798 8796 7510
4  9050 4298 8803 8804
4  8479 8634 8751 4364
4  8634 6276 8479 7485
4  8728 7759 7788 6990
4  9108 4413 4422 4414
4  8803 4436 4414 4298
4  8788 7587 7588 7762
4  8787 7699 9159 7588
4  8751 723 4436 684
4  8790 1301 1334 1629
4  9032 303 8476 1301
4  7695 9034 7619 7700
4  8476 9032 1301 8787
4  8751 9050 8801 7443
4  9087 9152 7153 7791
4  8943 9088 8940 6814
4  9007 8730 1676 8947
4  9078 9088 9079 9080
4  9079 7793 8646 9008
4  7588 6346 8474 7699
4  7700 7699 8476 6935
4  8781 4589 4592 4199
4  8941 1320 1584 1398
4  8939 8646 8568 8905
4  9078 8941 8943 8940
4  8441 6418 6826 7817
4  9148 9147 7479 9138
4  8938 1664 8906 1527
4  9060 9154 8441 7817
4  7811 6726 6727 7810
4  8768 9148 8510 8508
4  8505 8502 1643 8506
4  8507 8941 8506 1398
4  8505 1398 1643 1674
4  8745 1430 946 6726
4  8870 6740 7696 7811
4  6726 1430 8725 8870
4  8840 1552 8727 1592
4  8764 8840 1592 1671
4  8733 8742 8014 8725
4  9159 7700 7699 8476
4  9029 8725 8726 8840
4  9029 8912 8840 8726
4  8789 8069 1338 709
4  9159 7588 7699 7700
4  8662 8507 1685 1320
4  8595 7745 7695 7512
4  7587 6346 6474 8069
4  8789 7587 9026 8069
4  8764 1671 8663 8840
4  8764 8664 8663 1393
4  8789 6346 7587 8069
4  9079 1666 8948 9007
4  8912 7696 7487 6712
4  8745 8870 6726 7811
4  8742 8725 8728 8726
4  7325 8528 9060 6467
4  8764 8840 8727 1592
4  4223 631 8475 243
4  8529 4564 8627 4229
4  9153 658 4564 8441
4  658 8441 243 4564
4  8725 8727 8840 1552
4  8764 8726 7759 8728
4  8771 8658 7759 6712
4  8591 8592 8730 1700
4  8568 7342 8586 7341
4  9153 658 8415 4282
4  8646 8568 8586 7341
4  9008 8593 8730 9152
4  9008 8593 7997 7116
4  9122 9113 7846 6191
4  7908 6917 6916 7825
4  8764 8727 8726 8728
4  8756 6759 7485 7443
4  8756 7485 6759 7877
4  9058 9003 1678 1706
4  8633 8472 6958 8116
4  8746 8588 7938 7687
4  8566 8574 7853 8569
4  8968 9122 8588 7748
4  9122 9120 6191 6237
4  9122 8588 7748 7938
4  8746 8588 8747 9122
4  8820 8115 6396 6402
4  9059 8919 1562 1536
4  8633 6958 8472 7682
4  8967 8586 8588 8587
4  8968 9059 9122 9120
4  9121 1678 9058 9003
4  8747 1563 8748 1707
4  8907 8938 8963 8570
4  9076 7836 8012 6818
4  8566 7728 8569 7853
4  8937 8906 8938 8506
4  8906 1664 1634 1527
4  8780 8782 4199 4205
4  9163 8483 7976 6836
4  9164 4557 4592 4548
4  8881 4452 4304 4200
4  9092 8977 9105 9020
4  8515 8978 9020 9105
4  8978 4562 9105 4385
4  8975 7646 8977 9004
4  9005 9006 8780 8779
4  8975 4506 9006 4507
4  8975 9005 9004 9006
4  8627 8785 4490 4287
4  8529 4229 4223 4564
4  8784 8847 7852 8849
4  4507 8975 8978 8976
4  7704 8485 6413 7981
4  8825 8827 4553 4372
4  8640 8707 8637 7275
4  9106 4200 8881 4205
4  8988 8992 8639 7659
4  9161 8415 6413 8485
4  9154 7812 6418 7817
4  8971 8639 8708 8640
4  9153 9161 8415 9154
4  9161 9165 7704 8849
4  8789 8624 8623 8788
4  8788 7588 7587 6346
4  8638 8991 8639 8003
4  8070 9026 8069 1341
4  6475 6474 6477 8070
4  1341 8623 9026 1338
4  8847 6575 7852 6115
4  9161 7852 7704 7812
4  9161 7704 6413 7812
4  8878 8721 4576 4533
4  8708 7609 8640 8121
4  9160 9164 4248 4557
4  8634 8472 6276 7682
4  8751 7485 8479 6278
4  8634 8752 4364 8632
4  8933 9129 8991 7455
4  8988 9129 8991 8990
4  8752 4413 4436 4364
4  8708 9066 7480 7798
4  8971 8979 8972 8639
4  7825 6726 7811 7810
4  8909 9036 1253 1308
4  8757 8725 1552 8727
4  8910 6630 7543 6629
4  8540 9089 8909 8709
4  8725 6726 8742 8014
4  8860 7696 8870 6740
4  8745 946 1430 1346
4  9157 6837 6369 6270
4  9163 7447 6837 7642
4  9165 7981 7642 7976
4  9163 7642 6836 7976
4  9160 9166 7976 4248
4  8834 8710 8535 1668
4  9029 1346 1430 1385
4  8616 1593 8521 1285
4  8859 8839 9142 1572
4  8650 7332 6754 6952
4  7725 8651 8860 6741
4  8475 6531 8380 6533
4  9060 6826 8475 6825
4  9063 8475 6533 6825
4  8703 4594 8974 8971
4  8616 8540 8617 8709
4  8965 8424 7348 6895
4  9166 4548 9164 8848
4  9028 7500 8897 9041
4  9157 9156 8483 8478
4  9107 9111 9109 9095
4  7359 7105 6917 6721
4  8936 8679 7163 8030
4  8710 1285 1668 1699
4  8957 7788 7450 6917
4  9031 7618 8484 6941
4  8964 9141 9140 8648
4  9140 6893 8424 6895
4  8533 8535 8521 8615
4  8484 9140 8424 1367
4  9026 8069 7587 6474
4  9089 8909 8910 8540
4  9141 8710 8709 8648
4  8622 7615 7452 7762
4  7255 8773 6428 6964
4  9050 8480 7256 7443
4  8533 8535 1285 8521
4  818 6964 4298 684
4  8799 8803 4414 8804
4  8971 4576 8703 4594
4  8723 8814 8721 8719
4  9057 8116 7652 6973
4  8814 4516 4559 4345
4  8988 8992 7659 7668
4  8820 6426 6396 6876
4  8653 8070 6477 8258
4  9026 7587 6475 6474
4  8653 8609 374 1432
4  8637 8878 8721 4576
4  8659 6711 6712 7487
4  9163 6837 6836 7642
4  8483 6837 6269 6836
4  8658 8767 7759 6971
4  9156 4257 8483 4262
4  9156 8483 8478 4262
4  8658 8664 8767 8754
4  8475 631 4488 8380
4  8529 4223 243 4564
4  8528 9060 6467 8538
4  8660 8754 6971 7786
4  8805 8857 1251 8808
4  9056 8842 1509 1287
4  8619 8611 8620 1477
4  9130 8843 1291 9056
4  8613 9143 8808 1406
4  9104 8210 4370 731
4  9030 9056 8842 8921
4  9038 4332 390 7885
4  8599 7745 7794 7795
4  9038 9040 390 4332
4  8897 8900 7925 9028
4  6387 8953 8656 7331
4  7175 7069 8952 6498
4  9101 4304 4306 4535
4  8807 9048 6301 7796
4  8894 598 1488 1462
4  9130 8843 9056 9048
4  8952 7521 7175 7234
4  8619 8610 8611 1477
4  8482 8258 7197 7202
4  1650 8062 1610 262
4  8777 7197 7196 8482
4  8843 9056 8842 1509
4  8600 9036 9037 1310
4  7852 8784 8783 6575
4  6671 7784 8576 8580
4  8778 8781 8780 4199
4  9039 8478 6270 7891
4  9038 8481 9039 7193
4  8783 8779 8778 8786
4  8778 8784 8783 8848
4  8575 8846 8583 7785
4  9155 4569 4262 60
4  8776 7110 6970 7183
4  8775 7182 6969 7531
4  48 4239 6969 9052
4  8862 1688 8836 1458
4  1457 1419 8862 1688
4  8775 7430 8776 7182
4  8965 8424 8471 7348
4  8879 7227 6602 7250
4  8965 8964 9140 8648
4  8964 8424 1374 637
4  8864 6602 8879 7227
4  8923 8958 9123 8880
4  9121 8695 9119 8919
4  9150 7327 7187 6533
4  8974 8705 8704 8703
4  9062 4488 8085 8380
4  8884 9100 7914 8882
4  8258 8654 1432 8482
4  6193 9119 9120 6191
4  8777 7197 8482 8258
4  1650 262 8482 8062
4  8545 1610 1650 8062
4  8701 1536 9003 1540
4  9121 8701 9002 8700
4  9132 7460 8550 7461
4  9112 9003 9058 1706
4  8513 7680 8986 8683
4  9112 8749 9113 7562
4  9001 9113 9002 7845
4  8817 8823 8824 1625
4  9159 7695 7876 7700
4  9037 1629 8621 1506
4  9107 9110 6634 7545
4  8619 8621 8624 1631
4  8684 8682 8929 8986
4  9002 9113 6191 7845
4  9042 9043 9065 9067
4  9121 8701 1536 9003
4  8745 8860 6740 7725
4  9137 9138 9142 9148
4  8870 8912 8726 7696
4  8870 7696 8726 6990
4  8746 9122 7938 8588
4  8870 6990 7811 7696
4  8779 6943 7612 7787
4  8904 4592 4557 4290
4  9157 7447 6369 6837
4  8901 9006 9021 9004
4  8968 6412 9120 6237
4  9112 8750 9124 1914
4  9024 4590 4381 4507
4  9021 9006 8904 4290
4  8685 1702 1706 1849
4  9047 7780 9048 7794
4  8611 1476 1477 1412
4  9058 1706 1678 1707
4  9112 8589 8987 7562
4  8570 8012 8856 7728
4  8625 7876 7795 7762
4  8787 8624 8790 1334
4  9030 1287 9056 1251
4  8854 8806 8855 8808
4  9159 7876 7588 7700
4  8569 8570 8856 7728
4  8766 8935 1275 1331
4  8907 8570 8856 8908
4  9106 9019 8881 4200
4  8937 6818 8938 8570
4  8569 8570 8908 8856
4  9153 4282 8845 4287
4  8966 8572 8568 8905
4  9161 9154 7812 8415
4  8805 8808 8854 8857
4  8637 8878 8703 8640
4  8631 8628 8629 4367
4  8889 6396 7468 6876
4  9143 8856 8808 8908
4  8907 8962 8938 1527
4  8631 8633 9057 8116
4  8626 7795 8625 8599
4  8699 6456 8700 8696
4  8566 8571 8570 8568
4  8805 8857 8854 8807
4  8600 1506 9130 1507
4  8679 6543 7359 7450
4  6917 8957 7825 8733
4  8855 6903 7871 6904
4  8934 8935 1331 8821
4  8764 8658 8664 8767
4  9088 8754 7786 7649
4  8781 4589 4548 4592
4  8763 8755 1277 1241
4  8849 7758 7715 7852
4  8627 9153 8845 4287
4  8849 7852 7715 7704
4  8769 8508 8507 8940
4  9080 1581 8753 1546
4  8608 7452 7355 6475
4  8789 8788 9026 7587
4  8753 8948 1547 8946
4  9080 8948 1667 1546
4  8654 8258 8777 8482
4  8845 4283 4287 4282
4  9080 8753 1581 8664
4  8726 8728 6990 7759
4  8538 7490 6115 6467
4  8660 7786 6971 6711
4  8846 6115 7490 6575
4  8759 8562 8758 7319
4  8885 7309 9054 8890
4  8940 7786 9088 8660
4  9055 7563 7663 7564
4  8657 8663 8659 8658
4  8767 7590 7614 7759
4  6917 8733 7908 7992
4  8768 1685 1656 1670
4  8764 1393 8663 1671
4  8763 8664 8754 8767
4  8915 7590 8754 6380
4  8754 8767 6971 7590
4  8715 8690 7720 7602
4  8855 8613 9143 8808
4  9093 9105 8714 4439
4  8783 7758 6576 7787
4  8901 8786 8903 8904
4  9093 8515 8511 8025
4  8582 8581 9126 8578
4  8786 7612 7715 7758
4  9048 7794 7780 6301
4  9091 8715 7537 8852
4  9048 7796 7794 6301
4  8620 8621 1573 9130
4  8625 7762 8788 7876
4  8711 7833 8520 9092
4  8711 9093 9092 8714
4  9039 9027 6369 9157
4  9163 9160 7976 8483
4  8713 8692 8853 4312
4  8687 8693 8688 9012
4  9028 9040 8794 4219
4  8713 8689 8692 4584
4  9026 7452 6475 7587
4  8715 7537 8852 7602
4  8547 1683 1364 1545
4  8612 7452 7314 7355
4  8901 9006 8781 8904
4  8781 4548 9164 4592
4  9164 8904 4592 4557
4  9052 8775 6969 8395
4  8687 9011 8688 8690
4  8733 1427 8014 849
4  6917 8957 8733 7359
4  9082 8688 6992 8518
4  8688 8518 7720 6992
4  8956 7788 7614 7450
4  7450 7614 8956 7440
4  9082 9081 8693 8518
4  8902 9022 6944 9004
4  9055 8981 9131 9145
4  8628 8888 8887 9044
4  8855 7314 6904 7315
4  8541 1364 1683 1365
4  8805 8613 1476 8611
4  8610 8612 8623 8622
4  8613 1476 1412 1406
4  9023 8904 9156 4294
4  8626 7796 7615 7795
4  9027 6369 8903 7438
4  8806 8622 8626 7615
4  8626 7794 7796 7795
4  9164 9156 8904 4557
4  8735 9118 8741 8946
4  8745 9029 1346 1430
4  8901 9005 6943 8779
4  8956 8728 8765 7614
4  9126 8578 4587 4538
4  9163 6837 9157 8483
4  8903 7447 7438 6369
4  9126 4538 4587 4531
4  9074 9127 9126 8838
4  8786 7612 7758 7787
4  8901 8779 8781 9006
4  6576 7784 8575 8576
4  9127 9101 4535 4340
4  8805 9056 1541 1251
4  1659 8570 8908 8574
4  8619 1573 8621 1631
4  8808 8856 9143 8855
4  8884 8737 7155 9100
4  8582 4575 4317 4538
4  9151 7648 7215 6380
4  8766 8934 8916 9125
4  8746 8747 9058 9122
4  4460 8693 4431 9081
4  9028 4568 4219 4214
4  8928 7680 7681 7557
4  8970 7681 7135 7698
4  8661 7557 8928 7887
4  8514 7681 7680 7141
4  8970 7135 8020 7698
4  9095 7221 7224 7223
4  8515 8517 8525 8511
4  8705 7426 7528 7609
4  9023 4294 4476 4590
4  9027 6370 6369 7438
4  8590 8997 8750 1885
4  8765 7442 7614 7590
4  8757 1552 8725 1427
4  8590 8591 8997 1888
4  9079 9080 9088 8948
4  8808 1406 1250 1476
4  8806 6903 7314 7615
4  8607 1545 1405 1614
4  8661 8928 8969 7887
4  8590 8661 8997 8996
4  8901 6943 7438 7612
4  8833 8862 8832 8836
4  8977 7675 7646 8021
4  8780 4506 4199 4508
4  8779 7787 6672 6943
4  8805 8620 8806 8611
4  9143 8962 8908 1532
4  8861 8925 8864 8863
4  8500 8836 8862 1688
4  8500 9146 8836 1688
4  8606 9069 9133 8547
4  8569 7728 7730 7653
4  8755 1241 1471 1277
4  8966 1582 1577 1663
4  8614 8535 1281 8833
4  8533 8540 8709 8648
4  8861 7228 8614 7410
4  8945 7215 7153 7151
4  8861 8832 8864 6605
4  8916 6643 7442 7643
4  9097 8357 7391 7365
4  8500 9096 9097 9146
4  8515 4451 4385 4440
4  8713 8851 8714 4514
4  8978 4530 4506 4562
4  7752 7711 7533 8834
4  9004 7646 6944 6943
4  8503 8508 9148 7583
4  9142 1656 1572 1670
4  9138 7329 7479 7399
4  8553 8960 8895 7269
4  8991 8639 8003 7659
4  8833 1458 8862 8836
4  8861 8863 8614 8925
4  8866 7509 8852 7536
4  8655 7329 8656 9138
4  9134 1628 1656 1654
4  8867 8853 4420 4313
4  8513 8525 8868 4395
4  9018 7221 9095 9020
4  8901 8903 8902 8904
4  8901 6943 9005 9004
4  8515 8517 8511 8025
4  9136 4476 4568 4590
4  8512 8517 8511 8525
4  8867 4397 8525 4439
4  9129 7455 6643 7668
4  8755 1275 1471 1241
4  8679 1490 7105 1520
4  8850 8853 8713 8692
4  8653 8609 8070 374
4  8855 6903 6904 7314
4  8606 8855 7315 7314
4  9093 8515 8025 9092
4  9091 9093 8511 8025
4  8607 1614 1405 1412
4  8608 6475 8653 9026
4  8564 8560 1705 1586
4  9091 8511 8869 7951
4  8564 7397 9054 8563
4  8701 8698 1539 1590
4  8678 8698 8701 1590
4  8677 8678 8672 8558
4  9108 8752 9046 4413
4  8634 4364 922 4367
4  8851 8714 4514 4439
4  8758 7931 7579 7693
4  8513 8868 8511 8869
4  8762 7579 7739 7692
4  8986 7680 7693 7692
4  8987 7693 7557 7562
4  9008 7791 7116 7997
4  8764 8658 8663 8664
4  9152 7153 7997 7154
4  8658 8754 8767 6971
4  8646 7793 6816 7341
4  9079 8646 9007 9008
4  8869 8852 7537 7536
4  8868 4395 4397 4417
4  8512 4395 4401 4440
4  8513 8682 4395 8868
4  8688 8689 7720 8518
4  8976 4507 4562 8978
4  9019 9109 8978 9020
4  9018 7646 6672 7221
4  8580 6671 6257 7545
4  9106 6671 7545 6672
4  8917 7643 7215 7857
4  8688 8689 8690 7720
4  8916 6643 7440 7442
4  8763 8764 8767 8727
4  9083 9117 8518 8519
4  9082 6992 9012 6993
4  8855 9144 6904 7871
4  9015 4431 9013 8693
4  8807 7730 6903 7796
4  8569 7871 7730 7728
4  9081 8810 4431 4214
4  4571 8703 4594 8974
4  8532 8531 9066 8973
4  8579 4205 8881 4340
4  9018 7221 9020 7646
4  8975 9018 9020 7646
4  8575 8785 8783 8782
4  9004 6943 6944 7438
4  8978 4507 4562 4506
4  9024 8976 4507 4381
4  9039 9041 9135 9040
4  8974 9062 4245 8704
4  8854 7871 6903 7730
4  9068 4456 4264 4267
4  9042 9043 9068 4267
4  9132 7460 7315 6904
4  8854 8808 8855 8856
4  8613 1405 1406 1412
4  8612 8623 8608 8605
4  9143 1250 1406 1532
4  9064 7582 7661 7472
4  8915 6380 7643 7442
4  9042 9064 9068 9067
4  8944 8948 1703 8947
4  9067 7582 7472 7489
4  8933 7455 7626 6541
4  9065 9067 7489 7582
4  9065 8537 8583 9043
4  9010 9015 9013 9012
4  8792 8810 8811 8900
4  8689 8693 8712 8518
4  8693 4584 8712 4460
4  8974 4244 8531 8973
4  8554 7855 8544 7266
4  8555 1597 1598 1358
4  8894 8895 7234 6500
4  8532 7325 7480 7404
4  8637 8877 8703 4576
4  8974 8532 8973 8531
4  8877 4576 4553 4566
4  9150 6533 9063 8380
4  8974 9062 8704 9063
4  9069 7315 7461 7507
4  8606 7355 7315 7507
4  8974 9062 4228 4245
4  8606 8855 9133 9132
4  8777 7197 7355 7507
4  8548 8544 8541 8550
4  8986 7693 7680 7557
4  8758 7579 8562 8762
4  8972 4594 8973 4264
4  7582 9065 8530 7489
4  9042 4575 8537 9043
4  9042 8972 8973 4264
4  9042 4264 4266 4267
4  8745 946 7725 6726
4  8713 8850 8690 8715
4  8687 8692 8691 8690
4  8936 7163 7384 7167
4  9081 9014 9015 8810
4  8850 8713 8853 8851
4  8956 8679 8957 7450
4  8797 8800 8691 8798
4  8797 4314 8692 4547
4  8547 1364 1405 1545
4  8692 8853 4312 4314
4  8691 8690 8692 8798
4  8687 8689 8688 8693
4  9144 8856 8963 7838
4  8687 4546 8691 8692
4  8690 8798 7419 7602
4  9040 9136 4476 4219
4  9023 9024 9136 9022
4  8772 8773 223 7110
4  8946 1547 1277 1471
4  9083 8810 9028 8900
4  8738 6643 7643 7668
4  9084 8518 8712 9117
4  9084 8520 9117 9085
4  9115 9147 7374 8667
4  8670 9144 9143 8962
4  9144 7460 7838 7801
4  9166 4248 9164 4548
4  8977 6944 7646 7675
4  9135 9022 8519 7624
4  8519 9022 7463 7624
4  8981 7639 7777 7636
4  8983 7877 7636 7777
4  9082 7925 9083 8125
4  8519 9028 7500 7925
4  8634 8633 8631 8472
4  8614 7410 7228 7380
4  9038 8794 9041 9040
4  8894 1488 8954 1462
4  9077 7381 7395 7245
4  7227 8880 8822 8879
4  8968 9059 9120 8919
4  8586 7085 7342 7748
4  8966 1577 1582 1675
4  8520 8518 8125 7807
4  8711 8518 8520 7807
4  8712 9084 8714 8711
4  8838 9127 9100 8737
4  8735 8741 9118 8739
4  8751 8480 8479 723
4  8711 9093 8714 8715
4  8670 8669 7801 8963
4  9084 9117 9024 9085
4  9133 1533 1406 1405
4  8550 7881 7460 7801
4  9132 7315 7460 7461
4  9092 7675 8520 8977
4  9085 7675 8520 7463
4  9082 6993 8900 7925
4  9010 9012 9011 7530
4  9117 9081 4214 9083
4  8752 4413 4364 4209
4  8125 8520 7463 8519
4  8711 8715 8689 7720
4  8850 8690 7602 8798
4  8518 8520 9084 8711
4  9083 8125 8519 8518
4  9081 4460 8712 4459
4  8634 8479 8472 922
4  8773 6964 818 7110
4  8850 8798 8692 8690
4  8865 4420 8985 8868
4  8711 8520 9086 9092
4  223 48 4239 6969
4  9081 9015 4431 8810
4  9082 8693 8688 8518
4  8810 9081 9014 8900
4  9022 7463 7624 6370
4  8708 8121 7798 7609
4  8541 1683 8547 8545
4  8693 4460 4461 4584
4  9132 7461 8550 9069
4  9133 1405 1364 1533
4  9144 7838 7460 6904
4  8638 8121 7275 8003
4  9085 6944 9022 9004
4  8902 6944 9022 6370
4  9084 9024 9117 4381
4  9021 9004 8976 9024
4  8792 4213 8794 4331
4  9017 4357 9015 4570
4  8629 9045 8628 8630
4  8773 223 818 4445
4  9014 8898 8810 8900
4  9050 8802 7255 6964
4  8772 8774 9052 4239
4  8773 4298 818 6964
4  9028 8794 4213 4219
4  9028 9136 4568 9117
4  9010 9014 7053 8898
4  9083 9117 9028 4214
4  4594 4511 8971 4576
4  9028 9040 4219 9136
4  8935 1923 1919 1275
4  8906 1664 8506 1584
4  8584 8645 8587 8586
4  8509 1689 1643 1530
4  8939 8906 1584 1663
4  9010 9012 7530 6993
4  8571 8905 8906 8570
4  8506 1643 1398 1664
4  8906 1664 1663 1634
4  8937 8570 8568 6817
4  8934 6541 6543 7440
4  9009 1582 1667 1666
4  1667 1666 8948 9079
4  7925 9028 7500 8897
4  8573 6412 8920 8968
4  8647 8757 8679 1490
4  9083 8810 9081 4214
4  8568 6817 8033 6816
4  8673 8701 8698 8700
4  8678 1594 1585 1590
4  8677 9049 8523 1483
4  9017 8809 9051 4339
4  1936 1942 8831 1704
4  8563 7564 6503 6504
4  8942 8862 1457 1419
4  8614 8535 8615 8521
4  9094 7775 8996 8019
4  8515 4385 8978 9105
4  8918 8695 9119 8696
4  8746 8750 8749 9058
4  8694 8698 1448 1539
4  8694 8697 1646 1448
4  8955 1654 1674 1689
4  8769 6711 8770 7486
4  8844 8699 8697 8696
4  8694 8700 8699 8698
4  9076 8504 8503 7802
4  9148 8510 9147 9134
4  8670 8502 8669 8963
4  8670 9144 8963 7801
4  8699 8016 8700 6456
4  8968 9120 9122 6237
4  8746 8747 8588 8748
4  8846 6115 8538 7490
4  9121 9120 9059 8919
4  8530 6467 7404 7490
4  8746 8749 7938 9122
4  8587 1577 1682 1576
4  8751 684 8480 723
4  8773 7110 7183 6428
4  8969 7698 8020 8019
4  8928 7557 7681 7887
4  8760 7845 9002 8004
4  8592 8593 8584 8591
4  8747 8967 8588 8587
4  8512 4401 4451 4440
4  9093 8715 8851 8714
4  8749 7555 7687 7938
4  9001 8686 8685 8589
4  8656 9115 9138 7422
4  7116 7085 8645 8593
4  9001 1702 8686 8761
4  8919 1562 1499 1511
4  8590 1701 8750 8748
4  8967 8588 8586 8968
4  8584 8590 8588 8748
4  8747 8588 8968 9122
4  8918 9119 8919 9120
4  8747 9058 9122 9059
4  7085 8645 8593 8584
4  8748 1682 1700 1701
4  9059 1678 1536 1562
4  8695 1646 1536 1539
4  8700 8674 8009 8016
4  8701 1540 1594 1539
4  8967 9059 8919 1562
4  8747 9059 8967 1563
4  9134 1571 1654 1677
4  8884 7151 7154 7155
4  9078 8940 8662 8941
4  8746 8661 7687 8749
4  8746 9122 9058 8749
4  8734 7857 7151 7149
4  9100 7781 7155 7914
4  8645 9008 8592 9007
4  9042 8537 9065 9043
4  7215 9151 8917 8945
4  8944 1547 8946 1761
4  9121 8919 9059 1536
4  8920 9120 8968 6412
4  8573 8968 8919 1511
4  9003 1678 1540 1536
4  9121 8700 8695 8701
4  9121 6191 9122 9120
4  8974 9063 8704 8705
4  8747 8587 8748 1563
4  8967 1562 8919 1511
4  8746 8748 8750 1707
4  8762 8686 8681 8831
4  9121 8695 8919 1536
4  8632 8756 8983 7877
4  8994 7775 9094 9110
4  9110 7781 6634 6257
4  8838 9100 6248 7155
4  8694 8695 1646 8697
4  9121 8701 9003 9002
4  9094 8020 6634 7775
4  8927 8514 8970 8928
4  8927 8970 8932 8931
4  9145 8981 9131 9000
4  8831 1708 1936 1704
4  9119 8696 8700 6456
4  8924 8959 8523 9061
4  8586 7342 8968 7748
4  9121 1678 9003 1536
4  8918 8695 8919 9119
4  8657 8662 8663 1505
4  9009 1582 1663 1584
4  9121 8700 9002 6192
4  8906 1584 1663 1664
4  9076 8503 8669 7802
4  8502 1643 1527 1530
4  8877 8827 8825 8707
4  8502 8962 1530 1527
4  8707 8635 7275 7276
4  8913 1549 1483 1482
4  8558 1549 1585 1586
4  8953 6387 558 7069
4  8637 8635 8876 8721
4  9049 1586 1705 1523
4  8635 8636 7275 7273
4  8634 8479 6276 8472
4  8638 8637 7275 8640
4  4364 723 8479 922
4  8878 4533 8722 8721
4  8637 8721 8876 4576
4  8783 8779 8576 8782
4  8634 4367 922 8472
4  8751 684 9050 8480
4  8786 8783 7787 7758
4  8576 8779 7787 6672
4  8751 8801 8756 7443
4  8751 4436 9050 684
4  8751 4364 723 8479
4  8751 7443 8756 7485
4  8567 8568 8966 8572
4  8593 7116 8010 7997
4  9007 8947 9087 9152
4  8731 7913 7154 7997
4  9125 1919 1920 1471
4  8702 8707 8640 7528
4  8780 8576 8779 8782
4  8948 1703 1666 1546
4  8948 1666 1667 1546
4  9019 9095 9109 9020
4  1682 1577 8587 1675
4  9084 9086 8977 8976
4  9080 8753 9151 8948
4  9093 9105 8515 9092
4  9084 9024 4381 8976
4  8860 6651 8912 7696
4  8650 8652 1315 1313
4  9137 9138 7399 7329
4  8686 1708 8761 1702
4  8515 8516 9109 4451
4  8515 8517 8025 7223
4  8831 1708 1848 1936
4  8561 8562 8831 8557
4  8557 1708 1585 1594
4  9055 9145 7663 8981
4  9049 8523 1456 8959
4  9105 4440 4385 4439
4  8515 9092 9020 8021
4  8513 8868 8525 8511
4  8714 4439 4389 4514
4  6503 8762 7739 9145
4  9093 9092 8714 9105
4  8714 4188 4514 4389
4  8844 8598 8699 7778
4  8891 6500 514 6047
4  8600 8697 1375 8843
4  8676 8913 1377 1549
4  8673 8678 8698 8701
4  8673 8700 8674 8009
4  8859 1313 1346 1572
4  8725 1430 1427 1552
4  1427 8014 849 859
4  8870 9029 8726 8912
4  8673 8700 8698 8674
4  8742 7811 6990 7825
4  8699 8674 8700 8016
4  8678 1590 8701 1594
4  8914 8598 8697 1375
4  8975 8976 9006 9004
4  9018 6672 7545 7221
4  9107 9109 9111 4452
4  8585 7085 7926 8010
4  8590 8591 1888 1700
4  9121 6191 9119 6192
4  8694 8700 8695 8696
4  8524 8618 8539 8913
4  8702 8704 9150 8705
4  8593 8010 8744 7913
4  8661 7887 7687 7555
4  8700 8016 8009 6192
4  9003 9112 8685 1706
4  8701 1594 1590 1539
4  8928 7681 7698 7887
4  8676 8674 8678 8698
4  8516 4450 4451 4401
4  8957 7788 6917 7825
4  9142 8770 9148 8768
4  8991 7455 8003 7626
4  8957 6917 7450 7359
4  8638 8878 8639 8991
4  8639 8121 8003 7659
4  8639 8121 7659 7798
4  8936 6543 7384 7163
4  8753 8664 8755 1277
4  8765 7614 7442 7440
4  8602 6541 7626 7384
4  8767 8728 7759 7614
4  8736 9074 8737 8740
4  8946 1920 1547 1471
4  8754 7649 6380 7590
4  8761 1540 1702 1594
4  8686 1702 1848 1708
4  9120 6193 6412 8920
4  8945 9087 8948 8947
4  8514 7135 8517 8970
4  8766 1275 8755 1241
4  8763 1274 1241 1592
4  8763 8664 8764 1393
4  9003 1706 1702 1540
4  8591 8730 8592 8593
4  8650 757 6387 6754
4  8650 8656 6951 6387
4  9007 9152 8730 8947
4  8655 8860 6651 9137
4  8650 8652 9025 1315
4  8970 8020 9094 8969
4  8929 8514 8928 8986
4  9007 1666 8947 1676
4  8731 8593 8730 8744
4  8591 1700 8730 1956
4  8927 8931 8516 4450
4  9003 1678 1706 1540
4  8932 9094 8970 8020
4  8672 8559 8759 6692
4  8516 9111 4450 8931
4  8969 8019 7887 7698
4  8881 9111 9101 4304
4  8750 1707 1914 1706
4  9093 8511 8515 8525
4  8746 9058 8747 1707
4  8749 7846 9113 7562
4  8685 1706 1914 1849
4  8953 598 7069 558
4  8932 9094 7224 9095
4  8515 4451 9109 4385
4  9021 4507 8976 9006
4  8651 37 757 6754
4  9084 4188 9086 4189
4  8520 7807 7675 7833
4  9086 4188 8714 4389
4  8902 9027 8904 8903
4  8975 9004 8977 8976
4  8977 9085 6944 7675
4  9001 9112 8589 8685
4  8932 8020 8970 7135
4  9085 9022 6944 7463
4  8930 8970 8931 8969
4  8783 8576 8779 7787
4  8750 8987 8661 8749
4  8901 7612 8786 8779
4  8928 8969 7887 7698
4  8877 4566 8703 4576
4  9059 1563 1678 1562
4  8746 8661 8590 7687
4  8780 4506 4200 4199
4  8577 8580 8579 8576
4  8562 8761 8831 8557
4  8975 9005 8780 9018
4  8661 8969 8996 7887
4  8750 1707 1885 1914
4  8750 9124 1914 1885
4  8778 8781 4199 4589
4  8780 8781 4508 4199
4  8744 8593 8591 8585
4  8781 8904 9164 8786
4  8968 6237 9122 7748
4  9007 1675 1582 1666
4  8516 4450 4452 4451
4  8750 1701 1885 1707
4  8686 1849 1848 1702
4  9007 1676 1675 1666
4  9094 8931 8969 9139
4  8590 1885 1701 1888
4  8748 1701 1707 1563
4  8997 8969 9139 8996
4  8969 8996 7887 8019
4  8673 8557 8678 8761
4  7846 9122 8749 9113
4  9121 9002 9113 6191
4  6412 8573 7653 7853
4  8947 1676 1666 1703
4  8593 7913 7997 8010
4  8763 8664 1393 1277
4  8994 8996 9094 7775
4  8947 1951 1676 1703
4  8731 8732 9152 7154
4  8584 1700 8748 1682
4  9094 8969 8019 8996
4  9094 8019 8969 8020
4  9107 7545 8580 9110
4  8994 9100 8882 7914
4  9111 8931 9139 4450
4  8746 8590 8750 8748
4  7155 8884 9100 7914
4  8732 1951 8730 8947
4  8945 9152 9087 8947
4  8734 8737 9075 7149
4  7926 8743 8744 7775
4  9100 7781 6257 6248
4  8590 1701 8748 1700
4  8995 8997 8591 1888
4  8587 8748 1563 1682
4  8747 8968 9059 9122
4  8905 1608 1663 1577
4  9063 7426 9150 8705
4  8748 1682 1701 1563
4  8584 8586 8588 7085
4  8883 8743 8744 8591
4  8702 8640 7609 7528
4  8592 1700 1675 1676
4  7913 8010 8744 7926
4  8944 1761 1703 1547
4  8971 8878 8979 8639
4  8735 8945 7215 8917
4  8729 8884 8882 8740
4  8974 4228 8531 4244
4  8944 8945 8946 8948
4  8702 8705 9150 7528
4  8651 8745 1346 37
4  8650 1313 1315 757
4  8974 8971 4594 8973
4  8974 9063 8532 8531
4  8729 8731 8884 8732
4  8731 8882 7914 8744
4  8974 8704 4245 4571
4  8946 1920 1761 1547
4  8585 8590 8743 7926
4  8944 8732 8947 1951
4  8732 9152 7154 7153
4  8734 8735 8737 7151
4  8743 7926 8996 7775
4  8729 8731 8744 8882
4  8995 9111 9101 9110
4  8591 8593 8744 8730
4  8944 1761 1951 1703
4  8944 7151 8735 8945
4  9008 9087 7791 9152
4  9080 8753 8664 8754
4  8735 8917 7215 7857
4  8645 8966 9007 1675
4  8945 7648 9087 7153
4  8732 8947 8730 9152
4  8731 8593 9152 8730
4  8731 9152 7997 7154
4  8731 8593 8744 7913
4  8581 7476 9067 8043
4  8592 1675 1700 1682
4  8732 9152 8945 8947
4  8725 1427 1430 8014
4  8948 1547 1703 1546
4  8972 7798 9064 9066
4  8971 8703 8878 8640
4  8991 4511 8979 8988
4  8878 8991 4511 8979
4  9008 8592 8730 8593
4  8988 8990 8738 9129
4  8731 9152 8593 7997
4  8730 8947 1951 1676
4  8650 6387 757 558
4  8734 7661 9064 8992
4  8651 1313 37 1346
4  8734 9074 8736 8739
4  8747 8967 9059 8968
4  8708 7798 7480 7609
4  8967 1576 1563 1562
4  9068 4531 4456 4267
4  8993 4456 4183 4264
4  8738 8990 9118 9125
4  8876 4553 8877 4576
4  8826 8827 8830 8361
4  1520 8030 1903 840
4  8733 7105 849 8014
4  1427 859 1430 8014
4  9167 1898 9168 8601
4  1898 1747 9168 8601
4  9168 1747 8603 8601
4  9167 9168 9169 8601
4  9168 8603 9169 8601
4  9169 8603 8722 8601
4  9170 9171 9172 8631
4  9171 8628 9172 8631
4  9172 8628 9057 8631
4  9173 9170 9172 8631
4  8631 9057 9172 9173
4  9172 9174 9173 9057
4  8486 1100 9173 8116
4  1100 885 9173 8116
4  9173 885 8631 8116
4  9175 9176 1929 8681
4  9176 8680 1929 8681
4  1929 8680 1848 8681
4  9175 9177 9176 8681
4  9177 8682 9176 8681
4  9176 8682 8680 8681
4  9178 9179 9180 8729
4  9179 8882 9180 8729
4  9180 8882 8740 8729
4  9179 9181 9180 8882
4  9181 9127 9180 8882
4  9180 9127 8740 8882
4  9178 9180 1963 8729
4  9180 8740 1963 8729
4  1963 8740 1951 8729
4  9180 9182 1963 8740
4  8740 1951 9182 1963
4  1958 1963 9182 1951
4  9178 9183 9179 8729
4  9183 8883 9179 8729
4  9179 8883 8882 8729
4  9184 9183 9185 8883
4  8883 8729 9183 9185
4  9178 9185 9183 8729
4  1763 9186 9187 1761
4  9186 8736 9187 1761
4  9187 8736 8741 1761
4  4732 9170 4837 4367
4  9170 8631 4837 4367
4  4837 8631 885 4367
4  9188 9189 9190 8929
4  9189 8927 9190 8929
4  9190 8927 8930 8929
4  1897 9191 9192 1747
4  9191 8601 9192 1747
4  9192 8601 8720 1747
4  9193 9194 4685 8979
4  9194 8989 4685 8979
4  4685 8989 4183 8979
4  9193 9195 9194 8979
4  9195 8988 9194 8979
4  9194 8988 8989 8979
4  9196 9197 9198 8990
4  9197 8991 9198 8990
4  9198 8991 8603 8990
4  9199 4748 9200 8629
4  4748 4209 9200 8629
4  9200 4209 9046 8629
4  4664 9201 9202 4367
4  9201 8629 9202 4367
4  9202 8629 8628 4367
4  8486 9174 8492 8116
4  9174 9057 8492 8116
4  8492 9057 8115 8116
4  2030 9168 1898 1923
4  9168 8603 1747 1923
4  1898 9168 1747 1923
4  9203 4878 9184 8995
4  4878 4306 9184 8995
4  9184 4306 8883 8995
4  9204 9205 9206 9139
4  9205 8995 9206 9139
4  9206 8995 8997 9139
4  9195 9196 9194 8988
4  9196 8990 9194 8988
4  9194 8990 8989 8988
4  9207 9194 9208 8989
4  8989 8990 9194 9208
4  9196 9208 9194 8990
4  9197 4751 9198 8991
4  4751 4511 9198 8991
4  9198 4511 8603 8991
4  4874 9209 9210 4531
4  9209 8736 9210 4531
4  9210 8736 9074 4531
4  9211 9186 4840 8739
4  9186 8736 4840 8739
4  4840 8736 4531 8739
4  4729 9210 9182 4587
4  9210 9074 9182 4587
4  9182 9074 8740 4587
4  9212 9213 4677 8931
4  9213 8927 4677 8931
4  4677 8927 4450 8931
4  9190 9214 9215 8930
4  8930 9124 9214 9215
4  9216 9215 9214 9124
4  9217 9218 9219 8684
4  9218 8682 9219 8684
4  9219 8682 8929 8684
4  9218 4702 9219 8682
4  4702 4395 9219 8682
4  9219 4395 8929 8682
4  1960 9220 9185 1956
4  9220 8591 9185 1956
4  9185 8591 8729 1956
4  9174 9221 8492 9057
4  9221 8818 8492 9057
4  8492 8818 8115 9057
4  9221 1082 8492 8818
4  1082 1036 8115 8818
4  8492 1082 8115 8818
4  9197 9195 4751 8991
4  9195 8988 4751 8991
4  4751 8988 4511 8991
4  9196 9198 2024 8990
4  9198 8603 2024 8990
4  2024 8603 1923 8990
4  9222 9223 4754 9131
4  9131 4541 9223 4754
4  4704 4754 9223 4541
4  1913 9224 9215 1914
4  9224 8684 9215 1914
4  9215 8684 9124 1914
4  9188 4790 9189 8929
4  4790 4401 9189 8929
4  9189 4401 8927 8929
4  1884 9216 9225 1885
4  9216 9124 9225 1885
4  9225 9124 8997 1885
4  9226 9176 9218 8680
4  8680 8682 9176 9218
4  9177 9218 9176 8682
4  9216 9214 9225 9124
4  9214 8930 9225 9124
4  9225 8930 8997 9124
4  4702 4835 9219 4395
4  4395 8929 4835 9219
4  9188 9219 4835 8929
4  9224 9188 9215 8684
4  9188 8929 9215 8684
4  9215 8929 9124 8684
4  9227 9192 9228 8720
4  8720 8719 9192 9228
4  9229 9228 9192 8719
4  9203 9184 9220 8995
4  9184 8883 9220 8995
4  9220 8883 8591 8995
4  4704 9223 9200 4541
4  9223 9131 9200 4541
4  9200 9131 9046 4541
4  1889 1988 9206 1888
4  1988 1885 9206 1888
4  9206 1885 8997 1888
4  9224 9217 9188 8684
4  8684 8929 9219 9188
4  9219 9188 9217 8684
4  9204 9230 4839 9139
4  9139 4450 9230 4839
4  4677 4839 9230 4450
4  4878 4930 9184 4306
4  4930 4535 9184 4306
4  9184 4535 8883 4306
4  4900 4901 9231 4345
4  4345 8812 4901 9231
4  9232 9231 4901 8812
4  9233 9234 9235 9118
4  9118 8739 9234 9235
4  9211 9235 9234 8739
4  9211 9234 9187 8739
4  9234 9118 9187 8739
4  9187 9118 8741 8739
4  1974 1980 9236 1975
4  1980 1981 9236 1975
4  9236 1981 8888 1975
4  9189 9213 9190 8927
4  8927 8930 9213 9190
4  9214 9190 9213 8930
4  4796 4724 9177 4417
4  4417 8682 4724 9177
4  9218 9177 4724 8682
4  9188 9190 9215 8929
4  9190 8930 9215 8929
4  9215 8930 9124 8929
4  9214 9213 9212 8930
4  9213 8927 8931 8930
4  9212 9213 8931 8930
4  9237 9238 9239 8998
4  8998 9000 9238 9239
4  9240 9239 9238 9000
4  9205 9203 1889 8995
4  8995 1888 9203 1889
4  1989 1889 9203 1888
4  1926 9226 9217 1849
4  9226 8680 9217 1849
4  9217 8680 8684 1849
4  1998 1929 9226 1848
4  1848 8680 1929 9226
4  9176 9226 1929 8680
4  9222 9241 9239 9131
4  9241 8982 9239 9131
4  9239 8982 9000 9131
4  8491 9232 8489 7126
4  9232 8812 8489 7126
4  8489 8812 6929 7126
4  9222 9239 9242 9131
4  9239 9000 9242 9131
4  9242 9000 9090 9131
4  8491 9243 9232 7126
4  7126 8812 9243 9232
4  9231 9232 9243 8812
4  9237 9239 9241 8998
4  9239 9000 8982 8998
4  9241 9239 8982 8998
4  9207 4683 4684 8989
4  4683 4456 4684 8989
4  4684 4456 4183 8989
4  2025 1948 9196 1919
4  1919 8990 1948 9196
4  9208 9196 1948 8990
4  8990 8991 8988 9244
4  9195 9197 9196 9244
4  9196 9197 8990 9244
4  8991 8990 9197 9244
4  9197 9195 8991 9244
4  8988 8991 9195 9244
4  9195 9196 8988 9244
4  8990 8988 9196 9244
4  9233 9235 9207 9118
4  9235 8739 9207 9118
4  9207 8739 8989 9118
4  9229 9245 4756 8719
4  9245 8722 4756 8719
4  4756 8722 4559 8719
4  9191 9167 9169 8601
4  8601 8722 9169 9191
4  9169 9245 9191 8722
4  9201 9246 9202 8629
4  9246 9044 9202 8629
4  9202 9044 8628 8629
4  9201 9199 9246 8629
4  8629 9044 9199 9246
4  9247 9246 9199 9044
4  1974 9236 9171 1975
4  9236 8888 9171 1975
4  9171 8888 8628 1975
4  9193 4685 4751 8979
4  4685 4183 4751 8979
4  4751 4183 4511 8979
4  9209 9182 9210 8736
4  9182 8740 9074 8736
4  9210 9182 9074 8736
4  9234 1959 9187 9118
4  1959 1920 9187 9118
4  9187 1920 8741 9118
4  9248 1907 9227 8816
4  1907 1089 9227 8816
4  9227 1089 8720 8816
4  9193 4751 9195 8979
4  4751 4511 8988 8979
4  9195 4751 8988 8979
4  9236 9172 9171 8888
4  9172 9057 8628 8888
4  9171 9172 8628 8888
4  9246 2023 9202 9044
4  2023 1975 9202 9044
4  9202 1975 8628 9044
4  9218 4724 4702 8682
4  4724 4417 4702 8682
4  4702 4417 4395 8682
4  9237 9241 4755 8998
4  9241 8982 4755 8998
4  4755 8982 4421 8998
4  9240 9175 1990 9000
4  9175 8681 1990 9000
4  1990 8681 1936 9000
4  9239 2013 9242 9000
4  2013 1942 9242 9000
4  9242 1942 9090 9000
4  9168 9198 4759 8603
4  8603 4511 9198 4759
4  4751 4759 9198 4511
4  9167 9191 1898 8601
4  8601 1747 9191 1898
4  1897 1898 9191 1747
4  9209 1957 9182 8736
4  1957 1761 9182 8736
4  9182 1761 8740 8736
4  9223 9199 9200 9131
4  9199 8629 9200 9131
4  9200 8629 9046 9131
4  2019 9247 9249 1970
4  9247 9044 9249 1970
4  9249 9044 9090 1970
4  9221 1982 1082 8818
4  1982 1981 1082 8818
4  1082 1981 1036 8818
4  1763 9187 1959 1761
4  9187 8741 1920 1761
4  1959 9187 1920 1761
4  1949 9233 1948 1920
4  9233 9118 1948 1920
4  1948 9118 1919 1920
4  9208 1948 9233 8990
4  1948 1919 9118 8990
4  9233 1948 9118 8990
4  9174 9172 1982 9057
4  9057 1981 9172 1982
4  1980 1982 9172 1981
4  9245 4757 4756 8722
4  4757 4533 4756 8722
4  4756 4533 4559 8722
4  9242 9249 9223 9090
4  9090 9131 9223 9242
4  9223 9222 9242 9131
4  9247 9199 9223 9044
4  9199 8629 9131 9044
4  9223 9199 9131 9044
4  8486 9173 9174 8116
4  9173 8631 9057 8116
4  9174 9173 9057 8116
4  9174 1982 9221 9057
4  1982 1981 8818 9057
4  9221 1982 8818 9057
4  9199 9201 4748 8629
4  8629 4209 9201 4748
4  4687 4748 9201 4209
4  9228 9229 4756 8719
4  8719 4559 4756 9228
4  4756 4717 9228 4559
4  9232 1097 8489 8812
4  1097 296 6929 8812
4  8489 1097 6929 8812
4  9192 9227 1902 8720
4  8720 1903 9227 1902
4  1904 1902 9227 1903
4  2013 1943 9242 1942
4  1942 9090 1943 9242
4  9249 9242 1943 9090
4  9184 9185 9220 8883
4  9185 8729 8591 8883
4  9220 9185 8591 8883
4  9181 4728 9180 9127
4  4728 4587 9180 9127
4  9180 4587 8740 9127
4  9182 9180 4729 4587
4  8740 4587 9180 9182
4  4728 4729 9180 4587
4  9235 4683 9207 8739
4  4683 4456 8989 8739
4  9207 4683 8989 8739
4  4704 9200 4748 4541
4  9200 9046 4209 4541
4  4748 9200 4209 4541
4  9248 9227 9228 8816
4  9227 8720 9228 8816
4  9228 8720 8719 8816
4  9168 4759 9169 8603
4  4759 4511 9169 8603
4  9169 4511 8722 8603
4  9248 9228 9231 8816
4  9228 8719 9231 8816
4  9231 8719 8812 8816
4  9248 9231 9243 8816
4  9231 8812 9243 8816
4  9243 8812 7126 8816
4  9246 1971 2023 9044
4  1971 1970 2023 9044
4  2023 1970 1975 9044
4  9246 9247 1971 9044
4  9044 1970 9247 1971
4  2019 1971 9247 1970
4  9171 9202 1974 1975
4  8628 1975 9202 9171
4  2023 1974 9202 1975
4  9202 9171 4732 8628
4  8628 4367 4732 9202
4  4732 4664 9202 4367
4  1949 1959 9233 1920
4  1920 9118 1959 9233
4  9234 9233 1959 9118
4  9211 4840 4805 8739
4  4840 4531 4805 8739
4  4805 4531 4456 8739
4  4717 4900 9228 4559
4  4900 4345 9228 4559
4  9228 4345 8719 4559
4  8720 1747 1903 9250
4  1902 1897 9192 9250
4  9192 1897 1747 9250
4  1747 8720 9192 9250
4  1897 1902 1903 9250
4  1903 1747 1897 9250
4  1902 9192 8720 9250
4  8720 1903 1902 9250
4  9183 9184 4812 8883
4  8883 4535 9184 4812
4  4930 4812 9184 4535
4  4838 9205 9251 4306
4  9205 8995 9251 4306
4  9251 8995 9111 4306
4  9204 4839 9251 9139
4  4839 4450 9251 9139
4  9251 4450 9111 9139
4  9170 9173 4837 8631
4  8631 885 9173 4837
4  1100 4837 9173 885
4  9238 9237 4755 8998
4  8998 4421 4755 9238
4  4755 4701 9238 4421
4  9222 4754 9241 9131
4  4754 4541 9241 9131
4  9241 4541 8982 9131
4  4754 4755 9241 4541
4  4755 4421 8982 4541
4  9241 4755 8982 4541
4  4687 9201 4664 4209
4  9201 8629 4367 4209
4  4664 9201 4367 4209
4  8631 8628 4367 9252
4  4732 9171 9170 9252
4  9170 9171 8631 9252
4  8628 8631 9171 9252
4  9171 4732 8628 9252
4  4367 8628 4732 9252
4  4732 9170 4367 9252
4  8631 4367 9170 9252
4  9232 4901 1097 8812
4  4901 4345 1097 8812
4  1097 4345 296 8812
4  9247 9223 9249 9044
4  9223 9131 9090 9044
4  9249 9223 9090 9044
4  9191 9229 9192 8601
4  9229 8719 9192 8601
4  9192 8719 8720 8601
4  1980 9172 9236 1981
4  9172 9057 8888 1981
4  9236 9172 8888 1981
4  9226 9218 9217 8680
4  9218 8682 8684 8680
4  9217 9218 8684 8680
4  9183 4812 9181 8883
4  4812 4535 9181 8883
4  9181 4535 9127 8883
4  8601 8719 8722 9253
4  9245 9229 9191 9253
4  9191 9229 8601 9253
4  8719 8601 9229 9253
4  9229 9245 8719 9253
4  8722 8719 9245 9253
4  9245 9191 8722 9253
4  8601 8722 9191 9253
4  2019 9249 1943 1970
4  9249 9090 1943 1970
4  1943 9090 1942 1970
4  9214 9230 9225 8930
4  9230 9139 9225 8930
4  9225 9139 8997 8930
4  9204 9251 9205 9139
4  9251 9111 8995 9139
4  9205 9251 8995 9139
4  4652 4757 9169 4533
4  4533 8722 4757 9169
4  9245 9169 4757 8722
4  9175 1929 1990 8681
4  1929 1848 1990 8681
4  1990 1848 1936 8681
4  4796 9177 9238 4417
4  9177 8682 9238 4417
4  9238 8682 8998 4417
4  8989 9118 8990 9254
4  9208 9233 9207 9254
4  9207 9233 9118 9254
4  9118 8989 9207 9254
4  9233 9208 8990 9254
4  8990 9118 9233 9254
4  9208 9207 8989 9254
4  8989 8990 9208 9254
4  4900 9231 9228 4345
4  9231 8812 8719 4345
4  9228 9231 8719 4345
4  9248 9243 1907 8816
4  9243 7126 1907 8816
4  1907 7126 1089 8816
4  4796 9238 4701 4417
4  9238 8998 4421 4417
4  4701 9238 4421 4417
4  4838 9251 4839 4306
4  9251 9111 4450 4306
4  4839 9251 4450 4306
4  9243 8491 1907 7126
4  7126 1089 8491 1907
4  1090 1907 8491 1089
4  1763 1957 9186 1761
4  1761 8736 1957 9186
4  9209 9186 1957 8736
4  9211 9187 9186 8739
4  9187 8741 8736 8739
4  9186 9187 8736 8739
4  1935 2013 9239 1936
4  2013 1942 9000 1936
4  9239 2013 9000 1936
4  1990 1935 9239 1936
4  1936 9000 9239 1990
4  9239 9240 1990 9000
4  4652 9169 4759 4533
4  9169 8722 4511 4533
4  4759 9169 4511 4533
4  9240 9238 9175 9000
4  9238 8998 9175 9000
4  9175 8998 8681 9000
4  9188 4835 4790 8929
4  4835 4395 4790 8929
4  4790 4395 4401 8929
4  1994 1926 9217 1849
4  1849 8684 9217 1994
4  9217 9224 1994 8684
4  8682 8998 8681 9255
4  9175 9238 9177 9255
4  9177 9238 8682 9255
4  8998 8682 9238 9255
4  9238 9175 8998 9255
4  8681 8998 9175 9255
4  9175 9177 8681 9255
4  8682 8681 9177 9255
4  1926 1998 9226 1849
4  1998 1848 9226 1849
4  9226 1848 8680 1849
4  9198 9168 2024 8603
4  8603 1923 9168 2024
4  2030 2024 9168 1923
4  1923 8990 1919 9256
4  2025 9196 2024 9256
4  2024 9196 8990 9256
4  8990 1923 2024 9256
4  9196 2025 1919 9256
4  1919 8990 9196 9256
4  2025 2024 1923 9256
4  1923 1919 2025 9256
4  1914 8684 1849 9257
4  1994 9224 1913 9257
4  1913 9224 1914 9257
4  8684 1914 9224 9257
4  9224 1994 8684 9257
4  1849 8684 1994 9257
4  1994 1913 1849 9257
4  1914 1849 1913 9257
4  9212 4677 9230 8931
4  4677 4450 9230 8931
4  9230 4450 9139 8931
4  2001 1913 9215 1914
4  1914 9124 9215 2001
4  9215 9216 2001 9124
4  9206 9225 9204 9139
4  8997 9139 9225 9206
4  9230 9204 9225 9139
4  9214 9212 9230 8930
4  9212 8931 9230 8930
4  9230 8931 9139 8930
4  1960 1989 9220 1956
4  1989 1888 9220 1956
4  9220 1888 8591 1956
4  1989 9203 9220 1888
4  9203 8995 9220 1888
4  9220 8995 8591 1888
4  1885 9124 1914 9258
4  2001 9216 1884 9258
4  1884 9216 1885 9258
4  9124 1885 9216 9258
4  9216 2001 9124 9258
4  1914 9124 2001 9258
4  2001 1884 1914 9258
4  1885 1914 1884 9258
4  1988 1884 9206 1885
4  1885 8997 9225 9206
4  9225 9206 1884 1885
4  9205 1889 9206 8995
4  1889 1888 9206 8995
4  9206 1888 8997 8995
4  4790 4713 9189 4401
4  4401 8927 4713 9189
4  9213 9189 4713 8927
4  9183 9181 9179 8883
4  9181 9127 8882 8883
4  9179 9181 8882 8883
4  9213 4713 4677 8927
4  4713 4401 4677 8927
4  4677 4401 4450 8927
4  1962 1960 9185 1956
4  1956 8729 9185 1962
4  9185 9178 1962 8729
4  4874 9210 4729 4531
4  9210 9074 4587 4531
4  4729 9210 4587 4531
4  9203 9205 4878 8995
4  8995 4306 9205 4878
4  4838 4878 9205 4306
4  9178 1963 1962 8729
4  1963 1951 1956 8729
4  1962 1963 1956 8729
4  1957 1958 9182 1761
4  1958 1951 9182 1761
4  9182 1951 8740 1761
4  9186 9209 4840 8736
4  8736 4531 9209 4840
4  4874 4840 9209 4531
4  4812 4728 9181 4535
4  4728 4587 9127 4535
4  9181 4728 9127 4535
4  9194 9207 4685 8989
4  8989 4183 4684 4685
4  4684 4685 9207 8989
4  9235 9211 4683 8739
4  8739 4456 4805 4683
4  4805 4683 9211 8739
4  1907 1904 9227 1089
4  1904 1903 9227 1089
4  9227 1903 8720 1089
4  2746 9259 9260 2750
4  9259 2746 9260 9167
4  2746 1898 9260 9167
4  9260 1898 9168 9167
4  9260 9259 9261 2750
4  9259 9260 9261 9167
4  9260 9168 9261 9167
4  9261 9168 9169 9167
4  9262 9263 9264 3246
4  9263 9262 9264 9170
4  9262 9171 9264 9170
4  9264 9171 9172 9170
4  3268 9265 9266 3270
4  3268 9264 9263 3246
4  3268 9266 9265 9264
4  3268 9263 9264 9265
4  9264 9266 9265 9172
4  9172 9170 9265 9264
4  9265 9263 9264 9170
4  3275 9267 9268 3270
4  3275 9269 9270 1187
4  3275 9268 9267 9270
4  3275 9270 9269 9268
4  9269 9268 9270 9173
4  9173 9174 9268 9270
4  9267 9270 9268 9174
4  9268 9266 9265 3270
4  9266 9268 9265 9172
4  9268 9173 9265 9172
4  9265 9173 9170 9172
4  9267 9266 9268 3270
4  9266 9267 9268 9172
4  9267 9174 9268 9172
4  9268 9174 9173 9172
4  1229 8494 9269 1187
4  8494 1229 9269 8486
4  1229 1100 9269 8486
4  9269 1100 9173 8486
4  9271 9272 2947 2946
4  9272 9271 2947 9175
4  9271 9176 2947 9175
4  2947 9176 1929 9175
4  9273 9272 9271 2946
4  9272 9273 9271 9175
4  9273 9177 9271 9175
4  9271 9177 9176 9175
4  9274 9275 9276 3170
4  9275 9274 9276 9178
4  9274 9179 9276 9178
4  9276 9179 9180 9178
4  9277 9274 9276 3170
4  9274 9277 9276 9179
4  9277 9181 9276 9179
4  9276 9181 9180 9179
4  9276 9275 3168 3170
4  9275 9276 3168 9178
4  9276 9180 3168 9178
4  3168 9180 1963 9178
4  4097 9278 4095 4099
4  4097 3127 9279 3128
4  4097 4095 9278 9279
4  4097 9279 3127 4095
4  3127 4095 9279 1958
4  1958 9182 4095 9279
4  9278 9279 4095 9182
4  4103 4102 9280 4099
4  4103 9276 3168 3170
4  4103 9280 4102 3168
4  4103 3168 9276 9280
4  9276 9280 3168 9180
4  9180 1963 9280 3168
4  4102 3168 9280 1963
4  4095 9278 4102 4099
4  9278 4095 4102 9182
4  4095 1958 4102 9182
4  4102 1958 1963 9182
4  4102 9278 9280 4099
4  9278 4102 9280 9182
4  4102 1963 9280 9182
4  9280 1963 9180 9182
4  9281 9275 9274 3170
4  9275 9281 9274 9178
4  9281 9183 9274 9178
4  9274 9183 9179 9178
4  3311 9282 9283 3312
4  3311 9275 9281 3170
4  3311 9283 9282 9281
4  3311 9281 9275 9283
4  9275 9283 9281 9178
4  9178 9183 9283 9281
4  9282 9281 9283 9183
4  3315 9284 9285 3312
4  3315 9286 9287 3138
4  3315 9285 9284 9287
4  3315 9287 9286 9285
4  9286 9285 9287 9184
4  9184 9185 9285 9287
4  9284 9287 9285 9185
4  9283 9282 9284 3312
4  9282 9283 9284 9183
4  9283 9178 9284 9183
4  9284 9178 9185 9183
4  9284 9282 9285 3312
4  9282 9284 9285 9183
4  9284 9185 9285 9183
4  9285 9185 9184 9183
4  9288 2231 9289 2235
4  2231 9288 9289 1763
4  9288 9186 9289 1763
4  9289 9186 9187 1763
4  9263 5193 5537 3246
4  5193 9263 5537 4732
4  9263 9170 5537 4732
4  5537 9170 4837 4732
4  9290 9291 9292 2866
4  9291 9290 9292 9188
4  9290 9189 9292 9188
4  9292 9189 9190 9188
4  9293 2737 9294 2741
4  2737 9293 9294 1897
4  9293 9191 9294 1897
4  9294 9191 9192 1897
4  9295 9296 5081 3783
4  9296 9295 5081 9193
4  9295 9194 5081 9193
4  5081 9194 4685 9193
4  9297 9296 9295 3783
4  9296 9297 9295 9193
4  9297 9195 9295 9193
4  9295 9195 9194 9193
4  9298 9299 9300 3783
4  9299 9298 9300 9196
4  9298 9197 9300 9196
4  9300 9197 9198 9196
4  5214 9301 9302 3065
4  9301 5214 9302 9199
4  5214 4748 9302 9199
4  9302 4748 9200 9199
4  9303 5032 9304 3224
4  5032 9303 9304 4664
4  9303 9201 9304 4664
4  9304 9201 9202 4664
4  9270 8494 8499 1187
4  8494 9270 8499 8486
4  9270 9174 8499 8486
4  8499 9174 8492 8486
4  3826 2746 9260 2750
4  2746 3826 9260 1898
4  3826 2030 9260 1898
4  9260 2030 9168 1898
4  5686 9305 9286 3138
4  9305 5686 9286 9203
4  5686 4878 9286 9203
4  9286 4878 9184 9203
4  9306 9307 9308 2684
4  9307 9306 9308 9204
4  9306 9205 9308 9204
4  9308 9205 9206 9204
4  9299 9297 9295 3783
4  9297 9299 9295 9195
4  9299 9196 9295 9195
4  9295 9196 9194 9195
4  4011 9309 9310 4012
4  4011 9299 9295 3783
4  4011 9310 9309 9295
4  4011 9295 9299 9310
4  9299 9310 9295 9196
4  9196 9194 9310 9295
4  9309 9295 9310 9194
4  4015 9311 9312 4012
4  4015 9313 9314 3110
4  4015 9312 9311 9314
4  4015 9314 9313 9312
4  9313 9312 9314 9207
4  9207 9208 9312 9314
4  9311 9314 9312 9208
4  9310 9309 9311 4012
4  9309 9310 9311 9194
4  9310 9196 9311 9194
4  9311 9196 9208 9194
4  9311 9309 9312 4012
4  9309 9311 9312 9194
4  9311 9208 9312 9194
4  9312 9208 9207 9194
4  5224 9298 9300 3783
4  9298 5224 9300 9197
4  5224 4751 9300 9197
4  9300 4751 9198 9197
4  9315 5653 9316 3128
4  5653 9315 9316 4874
4  9315 9209 9316 4874
4  9316 9209 9210 4874
4  9288 9317 5549 2235
4  9317 9288 5549 9211
4  9288 9186 5549 9211
4  5549 9186 4840 9211
4  9316 5176 9279 3128
4  5176 9316 9279 4729
4  9316 9210 9279 4729
4  9279 9210 9182 4729
4  9318 9319 5061 2659
4  9319 9318 5061 9212
4  9318 9213 5061 9212
4  5061 9213 4677 9212
4  3532 9320 9321 3534
4  3532 9322 9323 2659
4  3532 9321 9320 9323
4  3532 9323 9322 9321
4  9322 9321 9323 9216
4  9216 9214 9321 9323
4  9320 9323 9321 9214
4  3537 9324 9325 3534
4  3537 9292 9326 2866
4  3537 9325 9324 9326
4  3537 9326 9292 9325
4  9292 9325 9326 9190
4  9190 9215 9325 9326
4  9324 9326 9325 9215
4  9321 9320 9324 3534
4  9320 9321 9324 9214
4  9321 9216 9324 9214
4  9324 9216 9215 9214
4  9324 9320 9325 3534
4  9320 9324 9325 9214
4  9324 9215 9325 9214
4  9325 9215 9190 9214
4  9327 9328 9329 2923
4  9328 9327 9329 9217
4  9327 9218 9329 9217
4  9329 9218 9219 9217
4  5129 9327 9329 2923
4  9327 5129 9329 9218
4  5129 4702 9329 9218
4  9329 4702 9219 9218
4  9330 3135 9287 3138
4  3135 9330 9287 1960
4  9330 9220 9287 1960
4  9287 9220 9185 1960
4  9331 9270 8499 1187
4  9270 9331 8499 9174
4  9331 9221 8499 9174
4  8499 9221 8492 9174
4  1188 9331 8499 1187
4  9331 1188 8499 9221
4  1188 1082 8492 9221
4  8499 1188 8492 9221
4  9297 9298 5224 3783
4  9298 9297 5224 9197
4  9297 9195 5224 9197
4  5224 9195 4751 9197
4  9300 9299 3781 3783
4  9299 9300 3781 9196
4  9300 9198 3781 9196
4  3781 9198 2024 9196
4  3669 9332 5847 3666
4  3669 5136 9333 3065
4  3669 5847 9332 9333
4  3669 9333 5136 5847
4  5136 5847 9333 4704
4  4704 9223 5847 9333
4  9332 9333 5847 9223
4  3664 5846 9334 3666
4  3664 9335 5227 3006
4  3664 9334 5846 5227
4  3664 5227 9335 9334
4  9335 9334 5227 9222
4  9222 4754 9334 5227
4  5846 5227 9334 4754
4  5847 9332 5846 3666
4  9332 5847 5846 9223
4  5847 4704 5846 9223
4  5846 4704 4754 9223
4  5846 9332 9334 3666
4  9332 5846 9334 9223
4  5846 4754 9334 9223
4  9334 4754 9222 9223
4  9336 2867 9326 2866
4  2867 9336 9326 1913
4  9336 9224 9326 1913
4  9326 9224 9215 1913
4  5332 9291 9290 2866
4  9291 5332 9290 9188
4  5332 4790 9290 9188
4  9290 4790 9189 9188
4  9322 2660 9337 2659
4  2660 9322 9337 1884
4  9322 9216 9337 1884
4  9337 9216 9225 1884
4  3542 9338 9339 3543
4  3542 9273 9271 2946
4  3542 9339 9338 9271
4  3542 9271 9273 9339
4  9273 9339 9271 9177
4  9177 9176 9339 9271
4  9338 9271 9339 9176
4  3546 9340 9341 3543
4  3546 9342 9327 2923
4  3546 9341 9340 9327
4  3546 9327 9342 9341
4  9342 9341 9327 9226
4  9226 9218 9341 9327
4  9340 9327 9341 9218
4  9339 9338 9340 3543
4  9338 9339 9340 9176
4  9339 9177 9340 9176
4  9340 9177 9218 9176
4  9340 9338 9341 3543
4  9338 9340 9341 9176
4  9340 9218 9341 9176
4  9341 9218 9226 9176
4  9323 9322 9337 2659
4  9322 9323 9337 9216
4  9323 9214 9337 9216
4  9337 9214 9225 9216
4  3447 5765 9343 3442
4  3447 9291 5518 2866
4  3447 9343 5765 5518
4  3447 5518 9291 9343
4  9291 9343 5518 9188
4  9188 4835 9343 5518
4  5765 5518 9343 4835
4  3441 9344 5766 3442
4  3441 5129 9329 2923
4  3441 5766 9344 9329
4  3441 9329 5129 5766
4  5129 5766 9329 4702
4  4702 9219 5766 9329
4  9344 9329 5766 9219
4  9343 5765 9344 3442
4  5765 9343 9344 4835
4  9343 9188 9344 4835
4  9344 9188 9219 4835
4  9344 5765 5766 3442
4  5765 9344 5766 4835
4  9344 9219 5766 4835
4  5766 9219 4702 4835
4  9291 9336 9326 2866
4  9336 9291 9326 9224
4  9291 9188 9326 9224
4  9326 9188 9215 9224
4  2789 9345 9346 2793
4  2789 9347 9294 2741
4  2789 9346 9345 9294
4  2789 9294 9347 9346
4  9347 9346 9294 9229
4  9229 9192 9346 9294
4  9345 9294 9346 9192
4  2797 9348 9349 2793
4  2797 9350 9351 2801
4  2797 9349 9348 9351
4  2797 9351 9350 9349
4  9350 9349 9351 9227
4  9227 9228 9349 9351
4  9348 9351 9349 9228
4  9346 9345 9348 2793
4  9345 9346 9348 9192
4  9346 9229 9348 9192
4  9348 9229 9228 9192
4  9348 9345 9349 2793
4  9345 9348 9349 9192
4  9348 9228 9349 9192
4  9349 9228 9227 9192
4  9286 9305 9330 3138
4  9305 9286 9330 9203
4  9286 9184 9330 9203
4  9330 9184 9220 9203
4  9333 5136 9302 3065
4  5136 9333 9302 4704
4  9333 9223 9302 4704
4  9302 9223 9200 4704
4  3303 2683 9308 2684
4  2683 3303 9308 1889
4  3303 1988 9308 1889
4  9308 1988 9206 1889
4  3441 9352 9344 3442
4  3441 9329 9328 2923
4  3441 9344 9352 9329
4  3441 9328 9329 9352
4  9329 9344 9352 9219
4  9219 9217 9352 9329
4  9352 9328 9329 9217
4  3447 9343 9353 3442
4  3447 9336 9291 2866
4  3447 9353 9343 9291
4  3447 9291 9336 9353
4  9336 9353 9291 9224
4  9224 9188 9353 9291
4  9343 9291 9353 9188
4  9352 9343 9344 3442
4  9343 9352 9344 9188
4  9352 9217 9219 9188
4  9344 9352 9219 9188
4  9353 9343 9352 3442
4  9343 9353 9352 9188
4  9353 9224 9352 9188
4  9352 9224 9217 9188
4  3320 9354 5546 3321
4  3320 5061 9355 2659
4  3320 5546 9354 9355
4  3320 9355 5061 5546
4  5061 5546 9355 4677
4  4677 9230 5546 9355
4  9354 9355 5546 9230
4  3324 5547 9356 3321
4  3324 9307 5548 2684
4  3324 9356 5547 5548
4  3324 5548 9307 9356
4  9307 9356 5548 9204
4  9204 4839 9356 5548
4  5547 5548 9356 4839
4  5546 9354 5547 3321
4  9354 5546 5547 9230
4  5546 4677 5547 9230
4  5547 4677 4839 9230
4  5547 9354 9356 3321
4  9354 5547 9356 9230
4  5547 4839 9356 9230
4  9356 4839 9204 9230
4  5876 5686 9286 3138
4  5686 5876 9286 4878
4  5876 4930 9286 4878
4  9286 4930 9184 4878
4  3927 5761 9357 3923
4  3927 9358 5762 1210
4  3927 9357 5761 5762
4  3927 5762 9358 9357
4  9358 9357 5762 9232
4  9232 4901 9357 5762
4  5761 5762 9357 4901
4  3920 9359 5763 3923
4  3920 5764 9360 2801
4  3920 5763 9359 9360
4  3920 9360 5764 5763
4  5764 5763 9360 4900
4  4900 9231 5763 9360
4  9359 9360 5763 9231
4  9357 5761 9359 3923
4  5761 9357 9359 4901
4  9357 9232 9359 4901
4  9359 9232 9231 4901
4  9359 5761 5763 3923
4  5761 9359 5763 4901
4  9359 9231 5763 4901
4  5763 9231 4900 4901
4  4129 9361 9362 4126
4  4129 9317 9363 2235
4  4129 9362 9361 9363
4  4129 9363 9317 9362
4  9317 9362 9363 9211
4  9211 9234 9362 9363
4  9361 9363 9362 9234
4  4125 9364 9365 4126
4  4125 9366 9367 3110
4  4125 9365 9364 9367
4  4125 9367 9366 9365
4  9366 9365 9367 9233
4  9233 9235 9365 9367
4  9364 9367 9365 9235
4  9362 9361 9364 4126
4  9361 9362 9364 9234
4  9362 9211 9364 9234
4  9364 9211 9235 9234
4  9364 9361 9365 4126
4  9361 9364 9365 9234
4  9364 9235 9365 9234
4  9365 9235 9233 9234
4  9363 9317 9289 2235
4  9317 9363 9289 9211
4  9363 9234 9289 9211
4  9289 9234 9187 9211
4  3267 3247 9368 3246
4  3247 3267 9368 1974
4  3267 1980 9368 1974
4  9368 1980 9236 1974
4  3532 9369 9320 3534
4  3532 9323 9318 2659
4  3532 9320 9369 9318
4  3532 9318 9323 9320
4  9323 9320 9318 9214
4  9214 9213 9320 9318
4  9369 9318 9320 9213
4  3537 9325 9370 3534
4  3537 9290 9292 2866
4  3537 9370 9325 9292
4  3537 9292 9290 9370
4  9290 9370 9292 9189
4  9189 9190 9370 9292
4  9325 9292 9370 9190
4  9320 9369 9325 3534
4  9369 9320 9325 9213
4  9320 9214 9325 9213
4  9325 9214 9190 9213
4  9325 9369 9370 3534
4  9369 9325 9370 9213
4  9325 9190 9370 9213
4  9370 9190 9189 9213
4  3546 5368 9340 3543
4  3546 9327 5171 2923
4  3546 9340 5368 5171
4  3546 5171 9327 9340
4  9327 9340 5171 9218
4  9218 4724 9340 5171
4  5368 5171 9340 4724
4  3542 9339 5367 3543
4  3542 5357 9273 2946
4  3542 5367 9339 9273
4  3542 9273 5357 5367
4  5357 5367 9273 4796
4  4796 9177 5367 9273
4  9339 9273 5367 9177
4  5368 9339 9340 3543
4  9339 5368 9340 9177
4  5368 4724 9340 9177
4  9340 4724 9218 9177
4  5367 9339 5368 3543
4  9339 5367 5368 9177
4  5367 4796 5368 9177
4  5368 4796 4724 9177
4  9292 9291 9326 2866
4  9291 9292 9326 9188
4  9292 9190 9326 9188
4  9326 9190 9215 9188
4  9318 9323 9319 2659
4  9323 9318 9319 9214
4  9318 9213 9212 9214
4  9319 9318 9212 9214
4  3367 9371 9372 3369
4  3367 9373 9374 2946
4  3367 9372 9371 9374
4  3367 9374 9373 9372
4  9373 9372 9374 9240
4  9240 9238 9372 9374
4  9371 9374 9372 9238
4  3372 9375 9376 3369
4  3372 9377 9378 3006
4  3372 9376 9375 9378
4  3372 9378 9377 9376
4  9377 9376 9378 9237
4  9237 9239 9376 9378
4  9375 9378 9376 9239
4  9372 9371 9375 3369
4  9371 9372 9375 9238
4  9372 9240 9375 9238
4  9375 9240 9239 9238
4  9375 9371 9376 3369
4  9371 9375 9376 9238
4  9375 9239 9376 9238
4  9376 9239 9237 9238
4  3717 9379 3720 3719
4  3717 3306 9305 3138
4  3717 3720 9379 9305
4  3717 9305 3306 3720
4  3306 3720 9305 1989
4  1989 9203 3720 9305
4  9379 9305 3720 9203
4  3723 3724 9380 3719
4  3723 9306 2683 2684
4  3723 9380 3724 2683
4  3723 2683 9306 9380
4  9306 9380 2683 9205
4  9205 1889 9380 2683
4  3724 2683 9380 1889
4  3720 9379 3724 3719
4  9379 3720 3724 9203
4  3720 1989 3724 9203
4  3724 1989 1889 9203
4  3724 9379 9380 3719
4  9379 3724 9380 9203
4  3724 1889 9380 9203
4  9380 1889 9205 9203
4  9342 2924 9328 2923
4  2924 9342 9328 1926
4  9342 9226 9328 1926
4  9328 9226 9217 1926
4  3542 3541 9338 3543
4  3542 9271 2947 2946
4  3542 9338 3541 2947
4  3542 2947 9271 9338
4  9271 9338 2947 9176
4  9176 1929 9338 2947
4  3541 2947 9338 1929
4  3546 9341 3545 3543
4  3546 3495 9342 2923
4  3546 3545 9341 9342
4  3546 9342 3495 3545
4  3495 3545 9342 1998
4  1998 9226 3545 9342
4  9341 9342 3545 9226
4  9338 3541 9341 3543
4  3541 9338 9341 1929
4  9338 9176 9341 1929
4  9341 9176 9226 1929
4  3541 3545 9341 3543
4  1929 1998 9226 9381
4  9341 3545 3541 9381
4  3541 3545 1998 9381
4  1998 1929 3541 9381
4  3545 9341 9226 9381
4  9226 1998 3545 9381
4  9341 3541 1929 9381
4  1929 9226 9341 9381
4  9382 9335 9378 3006
4  9335 9382 9378 9222
4  9382 9241 9378 9222
4  9378 9241 9239 9222
4  9358 8498 8495 1210
4  8498 9358 8495 8491
4  9358 9232 8495 8491
4  8495 9232 8489 8491
4  9378 9335 9383 3006
4  9335 9378 9383 9222
4  9378 9239 9383 9222
4  9383 9239 9242 9222
4  3920 9384 9359 3923
4  3920 9360 9385 2801
4  3920 9359 9384 9385
4  3920 9385 9360 9359
4  9360 9359 9385 9231
4  9231 9243 9359 9385
4  9384 9385 9359 9243
4  3927 9357 9386 3923
4  3927 8498 9358 1210
4  3927 9386 9357 9358
4  3927 9358 8498 9386
4  8498 9386 9358 8491
4  8491 9232 9386 9358
4  9357 9358 9386 9232
4  9384 9357 9359 3923
4  9357 9384 9359 9232
4  9384 9243 9359 9232
4  9359 9243 9231 9232
4  9386 9357 9384 3923
4  9357 9386 9384 9232
4  9386 8491 9384 9232
4  9384 8491 9243 9232
4  9378 9377 9382 3006
4  9377 9378 9382 9237
4  9378 9239 9241 9237
4  9382 9378 9241 9237
4  5079 9313 5080 3110
4  9313 5079 5080 9207
4  5079 4683 5080 9207
4  5080 4683 4684 9207
4  4015 4014 9311 4012
4  4015 9314 3108 3110
4  4015 9311 4014 3108
4  4015 3108 9314 9311
4  9314 9311 3108 9208
4  9208 1948 9311 3108
4  4014 3108 9311 1948
4  4011 9310 4010 4012
4  4011 3782 9299 3783
4  4011 4010 9310 9299
4  4011 9299 3782 4010
4  3782 4010 9299 2025
4  2025 9196 4010 9299
4  9310 9299 4010 9196
4  4014 9310 9311 4012
4  9310 4014 9311 9196
4  4014 1948 9311 9196
4  9311 1948 9208 9196
4  4010 9310 4014 4012
4  9310 4010 4014 9196
4  4010 2025 4014 9196
4  4014 2025 1948 9196
4  9299 9298 9297 3783
4  9196 9197 9195 9387
4  9297 9298 9299 9387
4  9299 9298 9196 9387
4  9197 9196 9298 9387
4  9298 9297 9197 9387
4  9195 9197 9297 9387
4  9297 9299 9195 9387
4  9196 9195 9299 9387
4  9367 9366 9313 3110
4  9366 9367 9313 9233
4  9367 9235 9313 9233
4  9313 9235 9207 9233
4  9388 9347 5230 2741
4  9347 9388 5230 9229
4  9388 9245 5230 9229
4  5230 9245 4756 9229
4  2749 9389 9390 2743
4  2749 9261 9259 2750
4  2749 9390 9389 9261
4  2749 9259 9261 9389
4  9261 9390 9389 9169
4  9169 9167 9389 9261
4  9389 9259 9261 9167
4  2742 9391 9392 2743
4  2742 9293 9388 2741
4  2742 9392 9391 9388
4  2742 9388 9293 9392
4  9293 9392 9388 9191
4  9191 9245 9392 9388
4  9391 9388 9392 9245
4  9392 9390 9389 2743
4  9390 9392 9389 9169
4  9392 9191 9389 9169
4  9389 9191 9167 9169
4  9391 9390 9392 2743
4  9390 9391 9392 9169
4  9391 9245 9392 9169
4  9392 9245 9191 9169
4  9393 9303 9304 3224
4  9303 9393 9304 9201
4  9393 9246 9304 9201
4  9304 9246 9202 9201
4  3703 9394 9395 3698
4  3703 9396 9301 3065
4  3703 9395 9394 9301
4  3703 9301 9396 9395
4  9396 9395 9301 9247
4  9247 9199 9395 9301
4  9394 9301 9395 9199
4  3697 9397 9398 3698
4  3697 9303 9393 3224
4  3697 9398 9397 9393
4  3697 9393 9303 9398
4  9303 9398 9393 9201
4  9201 9246 9398 9393
4  9397 9393 9398 9246
4  9395 9394 9397 3698
4  9394 9395 9397 9199
4  9395 9247 9397 9199
4  9397 9247 9246 9199
4  9397 9394 9398 3698
4  9394 9397 9398 9199
4  9397 9246 9398 9199
4  9398 9246 9201 9199
4  9368 3247 9262 3246
4  3247 9368 9262 1974
4  9368 9236 9262 1974
4  9262 9236 9171 1974
4  5081 9296 5224 3783
4  9296 5081 5224 9193
4  5081 4685 5224 9193
4  5224 4685 4751 9193
4  9279 9315 9316 3128
4  9315 9279 9316 9209
4  9279 9182 9210 9209
4  9316 9279 9210 9209
4  3131 9363 9289 2235
4  9363 3131 9289 9234
4  3131 1959 9289 9234
4  9289 1959 9187 9234
4  2829 9399 9350 2801
4  9399 2829 9350 9248
4  2829 1907 9350 9248
4  9350 1907 9227 9248
4  5224 9296 9297 3783
4  9296 5224 9297 9193
4  5224 4751 9195 9193
4  9297 5224 9195 9193
4  9264 9368 9262 3246
4  9368 9264 9262 9236
4  9264 9172 9171 9236
4  9262 9264 9171 9236
4  3772 9393 9304 3224
4  9393 3772 9304 9246
4  3772 2023 9304 9246
4  9304 2023 9202 9246
4  5171 9327 5129 2923
4  9327 5171 5129 9218
4  5171 4724 5129 9218
4  5129 4724 4702 9218
4  9382 9377 5228 3006
4  9377 9382 5228 9237
4  9382 9241 5228 9237
4  5228 9241 4755 9237
4  9272 9373 3366 2946
4  9373 9272 3366 9240
4  9272 9175 3366 9240
4  3366 9175 1990 9240
4  3599 9378 9383 3006
4  9378 3599 9383 9239
4  3599 2013 9383 9239
4  9383 2013 9242 9239
4  3836 9400 5615 3831
4  3836 5224 9300 3783
4  3836 5615 9400 9300
4  3836 9300 5224 5615
4  5224 5615 9300 4751
4  4751 9198 5615 9300
4  9400 9300 5615 9198
4  3829 5614 9401 3831
4  3829 9260 5234 2750
4  3829 9401 5614 5234
4  3829 5234 9260 9401
4  9260 9401 5234 9168
4  9168 4759 9401 5234
4  5614 5234 9401 4759
4  5615 9400 5614 3831
4  9400 5615 5614 9198
4  5615 4751 5614 9198
4  5614 4751 4759 9198
4  5614 9400 9401 3831
4  9400 5614 9401 9198
4  5614 4759 9401 9198
4  9401 4759 9168 9198
4  2742 9392 2738 2743
4  2742 2737 9293 2741
4  2742 2738 9392 9293
4  2742 9293 2737 2738
4  2737 2738 9293 1897
4  1897 9191 2738 9293
4  9392 9293 2738 9191
4  2749 2745 9389 2743
4  2749 9259 2746 2750
4  2749 9389 2745 2746
4  2749 2746 9259 9389
4  9259 9389 2746 9167
4  9167 1898 9389 2746
4  2745 2746 9389 1898
4  2738 9392 2745 2743
4  9392 2738 2745 9191
4  2738 1897 2745 9191
4  2745 1897 1898 9191
4  2745 9392 9389 2743
4  9392 2745 9389 9191
4  2745 1898 9389 9191
4  9389 1898 9167 9191
4  3126 9315 9279 3128
4  9315 3126 9279 9209
4  3126 1957 9279 9209
4  9279 1957 9182 9209
4  9301 9333 9302 3065
4  9333 9301 9302 9223
4  9301 9199 9302 9223
4  9302 9199 9200 9223
4  9396 3702 9402 3065
4  3702 9396 9402 2019
4  9396 9247 9402 2019
4  9402 9247 9249 2019
4  3276 9331 1188 1187
4  9331 3276 1188 9221
4  3276 1982 1188 9221
4  1188 1982 1082 9221
4  2231 3131 9289 2235
4  3131 2231 9289 1959
4  2231 1763 9289 1959
4  9289 1763 9187 1959
4  3109 3108 9366 3110
4  3108 3109 9366 1948
4  3109 1949 9366 1948
4  9366 1949 9233 1948
4  3108 9314 9366 3110
4  9314 3108 9366 9208
4  3108 1948 9366 9208
4  9366 1948 9233 9208
4  3268 9266 3269 3270
4  3268 3267 9264 3246
4  3268 3269 9266 9264
4  3268 9264 3267 3269
4  3267 3269 9264 1980
4  1980 9172 3269 9264
4  9266 9264 3269 9172
4  3275 3274 9267 3270
4  3275 9270 3276 1187
4  3275 9267 3274 3276
4  3275 3276 9270 9267
4  9270 9267 3276 9174
4  9174 1982 9267 3276
4  3274 3276 9267 1982
4  3269 9266 3274 3270
4  9266 3269 3274 9172
4  3269 1980 3274 9172
4  3274 1980 1982 9172
4  3274 9266 9267 3270
4  9266 3274 9267 9172
4  3274 1982 9267 9172
4  9267 1982 9174 9172
4  5233 9388 5230 2741
4  9388 5233 5230 9245
4  5233 4757 5230 9245
4  5230 4757 4756 9245
4  3669 9403 9332 3666
4  3669 9333 9402 3065
4  3669 9332 9403 9402
4  3669 9402 9333 9332
4  9333 9332 9402 9223
4  9223 9249 9332 9402
4  9403 9402 9332 9249
4  3664 9334 9404 3666
4  3664 9383 9335 3006
4  3664 9404 9334 9383
4  3664 9335 9383 9334
4  9383 9404 9334 9242
4  9242 9222 9334 9383
4  9334 9335 9383 9222
4  9332 9403 9404 3666
4  9403 9332 9404 9249
4  9332 9223 9404 9249
4  9404 9223 9242 9249
4  9334 9332 9404 3666
4  9332 9334 9404 9223
4  9334 9222 9242 9223
4  9404 9334 9242 9223
4  9301 9396 9333 3065
4  9396 9301 9333 9247
4  9301 9199 9223 9247
4  9333 9301 9223 9247
4  9269 8494 9270 1187
4  8494 9269 9270 8486
4  9269 9173 9270 8486
4  9270 9173 9174 8486
4  3276 9270 9331 1187
4  9270 3276 9331 9174
4  3276 1982 9221 9174
4  9331 3276 9221 9174
4  3697 9398 5894 3698
4  3697 5088 9303 3224
4  3697 5894 9398 9303
4  3697 9303 5088 5894
4  5088 5894 9303 4687
4  4687 9201 5894 9303
4  9398 9303 5894 9201
4  3703 5893 9394 3698
4  3703 9301 5214 3065
4  3703 9394 5893 5214
4  3703 5214 9301 9394
4  9301 9394 5214 9199
4  9199 4748 9394 5214
4  5893 5214 9394 4748
4  5894 9398 5893 3698
4  9398 5894 5893 9201
4  5894 4687 5893 9201
4  5893 4687 4748 9201
4  9398 9394 5893 3698
4  9201 9199 4748 9405
4  5893 9394 9398 9405
4  9398 9394 9199 9405
4  9199 9201 9398 9405
4  9394 5893 4748 9405
4  4748 9199 9394 9405
4  5893 9398 9201 9405
4  9201 4748 5893 9405
4  2789 9346 5229 2793
4  2789 5230 9347 2741
4  2789 5229 9346 5230
4  2789 9347 5230 9346
4  5230 5229 9346 4756
4  4756 9229 9346 5230
4  9346 9347 5230 9229
4  2797 5231 9348 2793
4  2797 9351 5164 2801
4  2797 9348 5231 5164
4  2797 5164 9351 9348
4  9351 9348 5164 9228
4  9228 4717 9348 5164
4  5231 5164 9348 4717
4  9348 5229 9346 2793
4  5229 9348 9346 4756
4  9348 9228 9229 4756
4  9346 9348 9229 4756
4  5231 5229 9348 2793
4  5229 5231 9348 4756
4  5231 4717 9348 4756
4  9348 4717 9228 4756
4  1225 9358 8495 1210
4  9358 1225 8495 9232
4  1225 1097 8489 9232
4  8495 1225 8489 9232
4  2797 9349 2796 2793
4  2797 2799 9350 2801
4  2797 2796 9349 9350
4  2797 9350 2799 2796
4  2799 2796 9350 1904
4  1904 9227 2796 9350
4  9349 9350 2796 9227
4  2789 2791 9345 2793
4  2789 9294 2788 2741
4  2789 9345 2791 2788
4  2789 2788 9294 9345
4  9294 9345 2788 9192
4  9192 1902 9345 2788
4  2791 2788 9345 1902
4  2796 9349 2791 2793
4  9349 2796 2791 9227
4  2796 1904 2791 9227
4  2791 1904 1902 9227
4  9349 9345 2791 2793
4  9227 9192 1902 9406
4  2791 9345 9349 9406
4  9349 9345 9192 9406
4  9192 9227 9349 9406
4  9345 2791 1902 9406
4  1902 9192 9345 9406
4  2791 9349 9227 9406
4  9227 1902 2791 9406
4  3669 3668 9403 3666
4  3669 9402 3066 3065
4  3669 9403 3668 3066
4  3669 3066 9402 9403
4  9402 9403 3066 9249
4  9249 1943 9403 3066
4  3668 3066 9403 1943
4  3664 9404 3665 3666
4  3664 3599 9383 3006
4  3664 3665 9404 9383
4  3664 9383 3599 3665
4  3599 3665 9383 2013
4  2013 9242 3665 9383
4  9404 9383 3665 9242
4  9403 3668 9404 3666
4  3668 9403 9404 1943
4  9403 9249 9404 1943
4  9404 9249 9242 1943
4  3668 3665 9404 3666
4  1943 2013 9242 9407
4  9404 3665 3668 9407
4  3668 3665 2013 9407
4  2013 1943 3668 9407
4  3665 9404 9242 9407
4  9242 2013 3665 9407
4  9404 3668 1943 9407
4  1943 9242 9404 9407
4  9287 9286 9330 3138
4  9286 9287 9330 9184
4  9287 9185 9220 9184
4  9330 9287 9220 9184
4  5178 9277 9276 3170
4  9277 5178 9276 9181
4  5178 4728 9276 9181
4  9276 4728 9180 9181
4  4103 9280 5177 4099
4  4103 5178 9276 3170
4  4103 5177 9280 9276
4  4103 9276 5178 5177
4  5178 5177 9276 4728
4  4728 9180 5177 9276
4  9280 9276 5177 9180
4  4097 5175 9278 4099
4  4097 9279 5176 3128
4  4097 9278 5175 9279
4  4097 5176 9279 5175
4  9279 9278 5175 9182
4  9182 4729 5175 9279
4  5175 5176 9279 4729
4  5177 9280 5175 4099
4  9280 5177 5175 9180
4  5177 4728 5175 9180
4  5175 4728 4729 9180
4  9280 9278 5175 4099
4  9278 9280 5175 9182
4  9280 9180 5175 9182
4  5175 9180 4729 9182
4  5079 9367 9313 3110
4  9367 5079 9313 9235
4  5079 4683 9207 9235
4  9313 5079 9207 9235
4  9302 5136 5214 3065
4  5136 9302 5214 4704
4  9302 9200 4748 4704
4  5214 9302 4748 4704
4  9350 9399 9351 2801
4  9399 9350 9351 9248
4  9350 9227 9351 9248
4  9351 9227 9228 9248
4  5234 9260 9261 2750
4  9260 5234 9261 9168
4  5234 4759 9261 9168
4  9261 4759 9169 9168
4  9351 9399 9360 2801
4  9399 9351 9360 9248
4  9351 9228 9360 9248
4  9360 9228 9231 9248
4  9360 9399 9385 2801
4  9399 9360 9385 9248
4  9360 9231 9385 9248
4  9385 9231 9243 9248
4  3223 9393 3772 3224
4  9393 3223 3772 9246
4  3223 1971 3772 9246
4  3772 1971 2023 9246
4  3703 9395 3701 3698
4  3703 3702 9396 3065
4  3703 3701 9395 9396
4  3703 9396 3702 3701
4  3702 3701 9396 2019
4  2019 9247 3701 9396
4  9395 9396 3701 9247
4  3697 3696 9397 3698
4  3697 9393 3223 3224
4  3697 9397 3696 3223
4  3697 3223 9393 9397
4  9393 9397 3223 9246
4  9246 1971 9397 3223
4  3696 3223 9397 1971
4  3701 9395 3696 3698
4  9395 3701 3696 9247
4  3701 2019 3696 9247
4  3696 2019 1971 9247
4  3696 9395 9397 3698
4  9395 3696 9397 9247
4  3696 1971 9397 9247
4  9397 1971 9246 9247
4  3881 9408 3882 3883
4  3881 3772 9304 3224
4  3881 3882 9408 9304
4  3881 9304 3772 3882
4  3772 3882 9304 2023
4  2023 9202 3882 9304
4  9408 9304 3882 9202
4  3886 3885 9409 3883
4  3886 9262 3247 3246
4  3886 9409 3885 9262
4  3886 3247 9262 3885
4  9262 9409 3885 9171
4  9171 1974 3885 9262
4  3885 3247 9262 1974
4  3882 9408 3885 3883
4  9408 3882 3885 9202
4  3882 2023 3885 9202
4  3885 2023 1974 9202
4  3885 9408 9409 3883
4  9408 3885 9409 9202
4  3885 1974 9171 9202
4  9409 3885 9171 9202
4  3886 9409 5191 3883
4  3886 5193 9262 3246
4  3886 5191 9409 9262
4  3886 9262 5193 5191
4  5193 5191 9262 4732
4  4732 9171 5191 9262
4  9409 9262 5191 9171
4  3881 5190 9408 3883
4  3881 9304 5032 3224
4  3881 9408 5190 9304
4  3881 5032 9304 5190
4  9304 9408 5190 9202
4  9202 4664 5190 9304
4  5190 5032 9304 4664
4  9409 9408 5191 3883
4  9408 9409 5191 9202
4  9409 9171 5191 9202
4  5191 9171 4732 9202
4  5191 9408 5190 3883
4  9408 5191 5190 9202
4  5191 4732 5190 9202
4  5190 4732 4664 9202
4  4129 4127 9361 4126
4  4129 9363 3131 2235
4  4129 9361 4127 3131
4  4129 3131 9363 9361
4  9363 9361 3131 9234
4  9234 1959 9361 3131
4  4127 3131 9361 1959
4  4125 9365 4123 4126
4  4125 3109 9366 3110
4  4125 4123 9365 9366
4  4125 9366 3109 4123
4  3109 4123 9366 1949
4  1949 9233 4123 9366
4  9365 9366 4123 9233
4  9361 4127 9365 4126
4  4127 9361 9365 1959
4  9361 9234 9365 1959
4  9365 9234 9233 1959
4  4127 4123 9365 4126
4  1959 1949 9233 9410
4  9365 4123 4127 9410
4  4127 4123 1949 9410
4  1949 1959 4127 9410
4  4123 9365 9233 9410
4  9233 1949 4123 9410
4  9365 4127 1959 9410
4  1959 9233 9365 9410
4  5549 9317 5404 2235
4  9317 5549 5404 9211
4  5549 4840 5404 9211
4  5404 4840 4805 9211
4  5164 9351 5764 2801
4  9351 5164 5764 9228
4  5164 4717 5764 9228
4  5764 4717 4900 9228
4  9294 2737 2788 2741
4  9192 1897 1902 9411
4  2788 2737 9294 9411
4  9294 2737 1897 9411
4  1897 9192 9294 9411
4  2737 2788 1902 9411
4  1902 1897 2737 9411
4  2788 9294 9192 9411
4  9192 1902 2788 9411
4  3315 9285 5891 3312
4  3315 5876 9286 3138
4  3315 5891 9285 9286
4  3315 9286 5876 5891
4  5876 5891 9286 4930
4  4930 9184 5891 9286
4  9285 9286 5891 9184
4  3311 5890 9282 3312
4  3311 9281 5421 3170
4  3311 9282 5890 5421
4  3311 5421 9281 9282
4  9281 9282 5421 9183
4  9183 4812 9282 5421
4  5890 5421 9282 4812
4  5891 9285 5890 3312
4  9285 5891 5890 9184
4  5891 4930 5890 9184
4  5890 4930 4812 9184
4  9285 9282 5890 3312
4  9184 9183 4812 9412
4  5890 9282 9285 9412
4  9285 9282 9183 9412
4  9183 9184 9285 9412
4  9282 5890 4812 9412
4  4812 9183 9282 9412
4  5890 9285 9184 9412
4  9184 4812 5890 9412
4  9306 5542 9413 2684
4  5542 9306 9413 4838
4  9306 9205 9413 4838
4  9413 9205 9251 4838
4  5548 9307 9413 2684
4  9307 5548 9413 9204
4  5548 4839 9413 9204
4  9413 4839 9251 9204
4  3275 9268 5989 3270
4  3275 1229 9269 1187
4  3275 5989 9268 9269
4  3275 9269 1229 5989
4  1229 5989 9269 1100
4  1100 9173 5989 9269
4  9268 9269 5989 9173
4  3268 5988 9265 3270
4  3268 9263 5537 3246
4  3268 9265 5988 5537
4  3268 5537 9263 9265
4  9263 9265 5537 9170
4  9170 4837 9265 5537
4  5988 5537 9265 4837
4  5989 9268 5988 3270
4  9268 5989 5988 9173
4  5989 1100 5988 9173
4  5988 1100 4837 9173
4  5988 9268 9265 3270
4  9268 5988 9265 9173
4  5988 4837 9265 9173
4  9265 4837 9170 9173
4  3372 9376 5540 3369
4  3372 5228 9377 3006
4  3372 5540 9376 5228
4  3372 9377 5228 9376
4  5228 5540 9376 4755
4  4755 9237 9376 5228
4  9376 9377 5228 9237
4  3367 5539 9371 3369
4  3367 9374 5128 2946
4  3367 9371 5539 5128
4  3367 5128 9374 9371
4  9374 9371 5128 9238
4  9238 4701 9371 5128
4  5539 5128 9371 4701
4  9376 9371 5540 3369
4  9371 9376 5540 9238
4  9376 9237 4755 9238
4  5540 9376 4755 9238
4  9371 5539 5540 3369
4  5539 9371 5540 4701
4  9371 9238 5540 4701
4  5540 9238 4755 4701
4  5227 9335 9382 3006
4  9335 5227 9382 9222
4  5227 4754 9382 9222
4  9382 4754 9241 9222
4  5228 5227 9382 3006
4  5227 5228 9382 4754
4  5228 4755 9241 4754
4  9382 5228 9241 4754
4  9303 5088 5032 3224
4  5088 9303 5032 4687
4  9303 9201 4664 4687
4  5032 9303 4664 4687
4  9262 5193 9263 3246
4  5193 9262 9263 4732
4  9262 9171 9170 4732
4  9263 9262 9170 4732
4  5762 9358 1225 1210
4  9358 5762 1225 9232
4  5762 4901 1225 9232
4  1225 4901 1097 9232
4  9333 9396 9402 3065
4  9396 9333 9402 9247
4  9333 9223 9402 9247
4  9402 9223 9249 9247
4  9347 9293 9294 2741
4  9293 9347 9294 9191
4  9347 9229 9294 9191
4  9294 9229 9192 9191
4  9264 3267 9368 3246
4  3267 9264 9368 1980
4  9264 9172 9236 1980
4  9368 9264 9236 1980
4  9327 9342 9328 2923
4  9342 9327 9328 9226
4  9327 9218 9217 9226
4  9328 9327 9217 9226
4  5421 9281 9277 3170
4  9281 5421 9277 9183
4  5421 4812 9277 9183
4  9277 4812 9181 9183
4  9388 9293 9347 2741
4  9293 9388 9347 9191
4  9388 9245 9229 9191
4  9347 9388 9229 9191
4  9402 3702 3066 3065
4  9249 2019 1943 9414
4  3066 3702 9402 9414
4  9402 3702 2019 9414
4  2019 9249 9402 9414
4  3702 3066 1943 9414
4  1943 2019 3702 9414
4  3066 9402 9249 9414
4  9249 1943 3066 9414
4  9355 9323 9337 2659
4  9323 9355 9337 9214
4  9355 9230 9337 9214
4  9337 9230 9225 9214
4  9413 9307 9306 2684
4  9307 9413 9306 9204
4  9413 9251 9205 9204
4  9306 9413 9205 9204
4  2742 5977 9391 2743
4  2742 9388 5233 2741
4  2742 9391 5977 5233
4  2742 5233 9388 9391
4  9388 9391 5233 9245
4  9245 4757 9391 5233
4  5977 5233 9391 4757
4  2749 9390 5974 2743
4  2749 5012 9261 2750
4  2749 5974 9390 9261
4  2749 9261 5012 5974
4  5012 5974 9261 4652
4  4652 9169 5974 9261
4  9390 9261 5974 9169
4  5977 9390 9391 2743
4  9390 5977 9391 9169
4  5977 4757 9391 9169
4  9391 4757 9245 9169
4  5974 9390 5977 2743
4  9390 5974 5977 9169
4  5974 4652 5977 9169
4  5977 4652 4757 9169
4  2947 9272 3366 2946
4  9272 2947 3366 9175
4  2947 1929 3366 9175
4  3366 1929 1990 9175
4  9273 5357 9374 2946
4  5357 9273 9374 4796
4  9273 9177 9374 4796
4  9374 9177 9238 4796
4  9313 9366 9314 3110
4  9207 9233 9208 9415
4  9314 9366 9313 9415
4  9313 9366 9233 9415
4  9233 9207 9313 9415
4  9366 9314 9208 9415
4  9208 9233 9366 9415
4  9314 9313 9207 9415
4  9207 9208 9314 9415
4  5764 9351 9360 2801
4  9351 5764 9360 9228
4  5764 4900 9360 9228
4  9360 4900 9231 9228
4  9385 9399 2829 2801
4  9399 9385 2829 9248
4  9385 9243 2829 9248
4  2829 9243 1907 9248
4  9374 5357 5128 2946
4  5357 9374 5128 4796
4  9374 9238 5128 4796
4  5128 9238 4701 4796
4  9413 5542 5548 2684
4  5542 9413 5548 4838
4  9413 9251 4839 4838
4  5548 9413 4839 4838
4  3927 9386 3926 3923
4  3927 1209 8498 1210
4  3927 3926 9386 8498
4  3927 8498 1209 3926
4  1209 3926 8498 1090
4  1090 8491 3926 8498
4  9386 8498 3926 8491
4  3920 3922 9384 3923
4  3920 9385 2829 2801
4  3920 9384 3922 2829
4  3920 2829 9385 9384
4  9385 9384 2829 9243
4  9243 1907 9384 2829
4  3922 2829 9384 1907
4  3926 9386 3922 3923
4  9386 3926 3922 8491
4  3926 1090 3922 8491
4  3922 1090 1907 8491
4  3922 9386 9384 3923
4  9386 3922 9384 8491
4  3922 1907 9384 8491
4  9384 1907 9243 8491
4  4002 4001 9416 4004
4  4002 9315 3126 3128
4  4002 9416 4001 3126
4  4002 3126 9315 9416
4  9315 9416 3126 9209
4  9209 1957 9416 3126
4  4001 3126 9416 1957
4  4008 9417 4006 4004
4  4008 2231 9288 2235
4  4008 4006 9417 9288
4  4008 9288 2231 4006
4  2231 4006 9288 1763
4  1763 9186 4006 9288
4  9417 9288 4006 9186
4  9416 4001 9417 4004
4  4001 9416 9417 1957
4  9416 9209 9417 1957
4  9417 9209 9186 1957
4  4001 4006 9417 4004
4  1957 1763 9186 9418
4  9417 4006 4001 9418
4  4001 4006 1763 9418
4  1763 1957 4001 9418
4  4006 9417 9186 9418
4  9186 1763 4006 9418
4  9417 4001 1957 9418
4  1957 9186 9417 9418
4  9289 9317 9288 2235
4  9317 9289 9288 9211
4  9289 9187 9186 9211
4  9288 9289 9186 9211
4  3599 3007 9378 3006
4  3007 3599 9378 1935
4  3599 2013 9239 1935
4  9378 3599 9239 1935
4  3372 3371 9375 3369
4  3372 9378 3007 3006
4  3372 9375 3371 9378
4  3372 3007 9378 3371
4  9378 9375 3371 9239
4  9239 1935 3371 9378
4  3371 3007 9378 1935
4  3367 9372 3368 3369
4  3367 3366 9373 2946
4  3367 3368 9372 3366
4  3367 9373 3366 9372
4  3366 3368 9372 1990
4  1990 9240 9372 3366
4  9372 9373 3366 9240
4  3371 3368 9375 3369
4  3368 3371 9375 1990
4  3371 1935 9239 1990
4  9375 3371 9239 1990
4  9375 3368 9372 3369
4  3368 9375 9372 1990
4  9375 9239 9240 1990
4  9372 9375 9240 1990
4  9261 5012 5234 2750
4  5012 9261 5234 4652
4  9261 9169 4759 4652
4  5234 9261 4759 4652
4  9374 9373 9272 2946
4  9373 9374 9272 9240
4  9374 9238 9272 9240
4  9272 9238 9175 9240
4  5518 9291 5332 2866
4  9291 5518 5332 9188
4  5518 4835 5332 9188
4  5332 4835 4790 9188
4  3441 3440 9352 3442
4  3441 9328 2924 2923
4  3441 9352 3440 9328
4  3441 2924 9328 3440
4  9328 9352 3440 9217
4  9217 1926 3440 9328
4  3440 2924 9328 1926
4  3447 9353 3445 3442
4  3447 3446 9336 2866
4  3447 3445 9353 9336
4  3447 9336 3446 3445
4  3446 3445 9336 1994
4  1994 9224 3445 9336
4  9353 9336 3445 9224
4  3440 3445 9352 3442
4  3445 3440 9352 1994
4  3440 1926 9217 1994
4  9352 3440 9217 1994
4  3445 9353 9352 3442
4  9353 3445 9352 9224
4  3445 1994 9352 9224
4  9352 1994 9217 9224
4  9273 9374 9272 2946
4  9177 9238 9175 9419
4  9272 9374 9273 9419
4  9273 9374 9177 9419
4  9238 9177 9374 9419
4  9374 9272 9238 9419
4  9175 9238 9272 9419
4  9272 9273 9175 9419
4  9177 9175 9273 9419
4  3495 2924 9342 2923
4  2924 3495 9342 1926
4  3495 1998 9342 1926
4  9342 1998 9226 1926
4  3829 9401 3827 3831
4  3829 3826 9260 2750
4  3829 3827 9401 9260
4  3829 9260 3826 3827
4  3826 3827 9260 2030
4  2030 9168 3827 9260
4  9401 9260 3827 9168
4  3836 3834 9400 3831
4  3836 9300 3781 3783
4  3836 9400 3834 3781
4  3836 3781 9300 9400
4  9300 9400 3781 9198
4  9198 2024 9400 3781
4  3834 3781 9400 2024
4  9401 3834 3827 3831
4  3834 9401 3827 2024
4  9401 9168 3827 2024
4  3827 9168 2030 2024
4  9400 3834 9401 3831
4  3834 9400 9401 2024
4  9400 9198 9401 2024
4  9401 9198 9168 2024
4  3781 9299 3782 3783
4  2024 9196 2025 9420
4  3782 9299 3781 9420
4  3781 9299 9196 9420
4  9196 2024 3781 9420
4  9299 3782 2025 9420
4  2025 9196 9299 9420
4  3782 3781 2024 9420
4  2024 2025 3782 9420
4  3446 2867 9336 2866
4  2867 3446 9336 1913
4  3446 1994 9336 1913
4  9336 1994 9224 1913
4  5061 9319 9355 2659
4  9319 5061 9355 9212
4  5061 4677 9355 9212
4  9355 4677 9230 9212
4  3537 3536 9324 3534
4  3537 9326 2867 2866
4  3537 9324 3536 9326
4  3537 2867 9326 3536
4  9326 9324 3536 9215
4  9215 1913 3536 9326
4  3536 2867 9326 1913
4  3532 9321 3533 3534
4  3532 3522 9322 2659
4  3532 3533 9321 9322
4  3532 9322 3522 3533
4  3522 3533 9322 2001
4  2001 9216 3533 9322
4  9321 9322 3533 9216
4  3536 3533 9324 3534
4  3533 3536 9324 2001
4  3536 1913 9215 2001
4  9324 3536 9215 2001
4  3533 9321 9324 3534
4  9321 3533 9324 9216
4  3533 2001 9324 9216
4  9324 2001 9215 9216
4  3320 9421 9354 3321
4  3320 9355 9337 2659
4  3320 9354 9421 9337
4  3320 9337 9355 9354
4  9355 9354 9337 9230
4  9230 9225 9354 9337
4  9421 9337 9354 9225
4  3324 9356 9422 3321
4  3324 9308 9307 2684
4  3324 9422 9356 9308
4  3324 9307 9308 9356
4  9308 9422 9356 9206
4  9206 9204 9356 9308
4  9356 9307 9308 9204
4  9354 9421 9356 3321
4  9421 9354 9356 9225
4  9354 9230 9356 9225
4  9356 9230 9204 9225
4  9356 9421 9422 3321
4  9421 9356 9422 9225
4  9356 9204 9206 9225
4  9422 9356 9206 9225
4  9319 9323 9355 2659
4  9323 9319 9355 9214
4  9319 9212 9355 9214
4  9355 9212 9230 9214
4  3306 3135 9330 3138
4  3135 3306 9330 1960
4  3306 1989 9330 1960
4  9330 1989 9220 1960
4  9305 3306 9330 3138
4  3306 9305 9330 1989
4  9305 9203 9330 1989
4  9330 9203 9220 1989
4  3522 2660 9322 2659
4  2660 3522 9322 1884
4  3522 2001 9322 1884
4  9322 2001 9216 1884
4  3320 3319 9421 3321
4  3320 9337 2660 2659
4  3320 9421 3319 9337
4  3320 2660 9337 3319
4  9337 9421 3319 9225
4  9225 1884 3319 9337
4  3319 2660 9337 1884
4  3324 9422 3323 3321
4  3324 3303 9308 2684
4  3324 3323 9422 9308
4  3324 9308 3303 3323
4  3303 3323 9308 1988
4  1988 9206 3323 9308
4  9422 9308 3323 9206
4  9422 9421 3319 3321
4  9421 9422 3319 9225
4  9422 9206 3319 9225
4  3319 9206 1884 9225
4  3323 9422 3319 3321
4  9422 3323 3319 9206
4  3323 1988 3319 9206
4  3319 1988 1884 9206
4  2683 9306 9308 2684
4  9306 2683 9308 9205
4  2683 1889 9308 9205
4  9308 1889 9206 9205
4  3532 5666 9369 3534
4  3532 9318 5153 2659
4  3532 9369 5666 5153
4  3532 5153 9318 9369
4  9318 9369 5153 9213
4  9213 4713 9369 5153
4  5666 5153 9369 4713
4  3537 9370 5667 3534
4  3537 5332 9290 2866
4  3537 5667 9370 9290
4  3537 9290 5332 5667
4  5332 5667 9290 4790
4  4790 9189 5667 9290
4  9370 9290 5667 9189
4  9369 5666 9370 3534
4  5666 9369 9370 4713
4  9369 9213 9370 4713
4  9370 9213 9189 4713
4  9370 5666 5667 3534
4  5666 9370 5667 4713
4  9370 9189 5667 4713
4  5667 9189 4790 4713
4  9277 9281 9274 3170
4  9281 9277 9274 9183
4  9277 9181 9179 9183
4  9274 9277 9179 9183
4  5153 9318 5061 2659
4  9318 5153 5061 9213
4  5153 4713 5061 9213
4  5061 4713 4677 9213
4  3315 3313 9284 3312
4  3315 9287 3135 3138
4  3315 9284 3313 9287
4  3315 3135 9287 3313
4  9287 9284 3313 9185
4  9185 1960 3313 9287
4  3313 3135 9287 1960
4  3311 9283 3309 3312
4  3311 3169 9275 3170
4  3311 3309 9283 9275
4  3311 9275 3169 3309
4  3169 3309 9275 1962
4  1962 9178 3309 9275
4  9283 9275 3309 9178
4  3313 3309 9284 3312
4  3309 3313 9284 1962
4  3313 1960 9185 1962
4  9284 3313 9185 1962
4  3309 9283 9284 3312
4  9283 3309 9284 9178
4  3309 1962 9284 9178
4  9284 1962 9185 9178
4  9316 5653 5176 3128
4  5653 9316 5176 4874
4  9316 9210 4729 4874
4  5176 9316 4729 4874
4  3723 9380 5684 3719
4  3723 5542 9306 2684
4  3723 5684 9380 9306
4  3723 9306 5542 5684
4  5542 5684 9306 4838
4  4838 9205 5684 9306
4  9380 9306 5684 9205
4  3717 5685 9379 3719
4  3717 9305 5686 3138
4  3717 9379 5685 5686
4  3717 5686 9305 9379
4  9305 9379 5686 9203
4  9203 4878 9379 5686
4  5685 5686 9379 4878
4  5684 9380 5685 3719
4  9380 5684 5685 9205
4  5684 4838 5685 9205
4  5685 4838 4878 9205
4  9380 9379 5685 3719
4  9205 9203 4878 9423
4  5685 9379 9380 9423
4  9380 9379 9203 9423
4  9203 9205 9380 9423
4  9379 5685 4878 9423
4  4878 9203 9379 9423
4  5685 9380 9205 9423
4  9205 4878 5685 9423
4  3168 9275 3169 3170
4  1963 9178 1962 9424
4  3169 9275 3168 9424
4  3168 9275 9178 9424
4  9178 1963 3168 9424
4  9275 3169 1962 9424
4  1962 9178 9275 9424
4  3169 3168 1963 9424
4  1963 1962 3169 9424
4  3127 3126 9279 3128
4  3126 3127 9279 1957
4  3127 1958 9279 1957
4  9279 1958 9182 1957
4  4002 9416 5651 4004
4  4002 5653 9315 3128
4  4002 5651 9416 9315
4  4002 9315 5653 5651
4  5653 5651 9315 4874
4  4874 9209 5651 9315
4  9416 9315 5651 9209
4  4008 5650 9417 4004
4  4008 9288 5549 2235
4  4008 9417 5650 5549
4  4008 5549 9288 9417
4  9288 9417 5549 9186
4  9186 4840 9417 5549
4  5650 5549 9417 4840
4  5651 9416 5650 4004
4  9416 5651 5650 9209
4  5651 4874 5650 9209
4  5650 4874 4840 9209
4  5650 9416 9417 4004
4  9416 5650 9417 9209
4  5650 4840 9417 9209
4  9417 4840 9186 9209
4  5178 5421 9277 3170
4  5421 5178 9277 4812
4  5178 4728 9181 4812
4  9277 5178 9181 4812
4  4015 9312 5610 4012
4  4015 5080 9313 3110
4  4015 5610 9312 5080
4  4015 9313 5080 9312
4  5080 5610 9312 4684
4  4684 9207 9312 5080
4  9312 9313 5080 9207
4  4011 5609 9309 4012
4  4011 9295 5081 3783
4  4011 9309 5609 5081
4  4011 5081 9295 9309
4  9295 9309 5081 9194
4  9194 4685 9309 5081
4  5609 5081 9309 4685
4  5609 5610 9312 4012
4  5610 5609 9312 4684
4  5609 4685 9312 4684
4  9312 4685 9207 4684
4  9309 5609 9312 4012
4  5609 9309 9312 4685
4  9309 9194 9312 4685
4  9312 9194 9207 4685
4  4129 9362 5403 4126
4  4129 5404 9317 2235
4  4129 5403 9362 5404
4  4129 9317 5404 9362
4  5404 5403 9362 4805
4  4805 9211 9362 5404
4  9362 9317 5404 9211
4  4125 5402 9364 4126
4  4125 9367 5079 3110
4  4125 9364 5402 5079
4  4125 5079 9367 9364
4  9367 9364 5079 9235
4  9235 4683 9364 5079
4  5402 5079 9364 4683
4  5402 5403 9362 4126
4  5403 5402 9362 4805
4  5402 4683 9362 4805
4  9362 4683 9211 4805
4  9364 5402 9362 4126
4  5402 9364 9362 4683
4  9364 9235 9211 4683
4  9362 9364 9211 4683
4  2799 2829 9350 2801
4  2829 2799 9350 1907
4  2799 1904 9350 1907
4  9350 1904 9227 1907
CELL_TYPES 20058
10
10
10
10
10
10
10
10
10
10
10
10
10
10
10
10
10
10
10
10
10
10
10
10
10
10
10
10
10
10
10
10
10
10
10
10
10
10
10
10
10
10
10
10
10
10
10
10
10
10
10
10
10
10
10
10
10
10
10
10
10
10
10
10
10
10
10
10
10
10
10
10
10
10
10
10
10
10
10
10
10
10
10
10
10
10
10
10
10
10
10
10
10
10
10
10
10
10
10
10
10
10
10
10
10
10
10
10
10
10
10
10
10
10
10
10
10
10
10
10
10
10
10
10
10
10
10
10
10
10
10
10
10
10
10
10
10
10
10
10
10
10
10
10
10
10
10
10
10
10
10
10
10
10
10
10
10
10
10
10
10
10
10
10
10
10
10
10
10
10
10
10
10
10
10
10
10
10
10
10
10
10
10
10
10
10
10
10
10
10
10
10
10
10
10
10
10
10
10
10
10
10
10
10
10
10
10
10
10
10
10
10
10
10
10
10
10
10
10
10
10
10
10
10
10
10
10
10
10
10
10
10
10
10
10
10
10
10
10
10
10
10
10
10
10
10
10
10
10
10
10
10
10
10
10
10
10
10
10
10
10
10
10
10
10
10
10
10
10
10
10
10
10
10
10
10
10
10
10
10
10
10
10
10
10
10
10
10
10
10
10
10
10
10
10
10
10
10
10
10
10
10
10
10
10
10
10
10
10
10
10
10
10
10
10
10
10
10
10
10
10
10
10
10
10
10
10
10
10
10
10
10
10
10
10
10
10
10
10
10
10
10
10
10
10
10
10
10
10
10
10
10
10
10
10
10
10
10
10
10
10
10
10
10
10
10
10
10
10
10
10
10
10
10
10
10
10
10
10
10
10
10
10
10
10
10
10
10
10
10
10
10
10
10
10
10
10
10
10
10
10
10
10
10
10
10
10
10
10
10
10
10
10
10
10
10
10
10
10
10
10
10
10
10
10
10
10
10
10
10
10
10
10
10
10
10
10
10
10
10
10
10
10
10
10
10
10
10
10
10
10
10
10
10
10
10
10
10
10
10
10
10
10
10
10
10
10
10
10
10
10
10
10
10
10
10
10
10
10
10
10
10
10
10
10
10
10
10
10
10
10
10
10
10
10
10
10
10
10
10
10
10
10
10
10
10
10
10
10
10
10
10
10
10
10
10
10
10
10
10
10
10
10
10
10
10
10
10
10
10
10
10
10
10
10
10
10
10
10
10
10
10
10
10
10
10
10
10
10
10
10
10
10
10
10
10
10
10
10
10
10
10
10
10
10
10
10
10
10
10
10
10
10
10
10
10
10
10
10
10
10
10
10
10
10
10
10
10
10
10
10
10
10
10
10
10
10
10
10
10
10
10
10
10
10
10
10
10
10
10
10
10
10
10
10
10
10
10
10
10
10
10
10
10
10
10
10
10
10
10
10
10
10
10
10
10
10
10
10
10
10
10
10
10
10
10
10
10
10
10
10
10
10
10
10
10
10
10
10
10
10
10
10
10
10
10
10
10
10
10
10
10
10
10
10
10
10
10
10
10
10
10
10
10
10
10
10
10
10
10
10
10
10
10
10
10
10
10
10
10
10
10
10
10
10
10
10
10
10
10
10
10
10
10
10
10
10
10
10
10
10
10
10
10
10
10
10
10
10
10
10
10
10
10
10
10
10
10
10
10
10
10
10
10
10
10
10
10
10
10
10
10
10
10
10
10
10
10
10
10
10
10
10
10
10
10
10
10
10
10
10
10
10
10
10
10
10
10
10
10
10
10
10
10
10
10
10
10
10
10
10
10
10
10
10
10
10
10
10
10
10
10
10
10
10
10
10
10
10
10
10
10
10
10
10
10
10
10
10
10
10
10
10
10
10
10
10
10
10
10
10
10
10
10
10
10
10
10
10
10
10
10
10
10
10
10
10
10
10
10
10
10
10
10
10
10
10
10
10
10
10
10
10
10
10
10
10
10
10
10
10
10
10
10
10
10
10
10
10
10
10
10
10
10
10
10
10
10
10
10
10
10
10
10
10
10
10
10
10
10
10
10
10
10
10
10
10
10
10
10
10
10
10
10
10
10
10
10
10
10
10
10
10
10
10
10
10
10
10
10
10
10
10
10
10
10
10
10
10
10
10
10
10
10
10
10
10
10
10
10
10
10
10
10
10
10
10
10
10
10
10
10
10
10
10
10
10
10
10
10
10
10
10
10
10
10
10
10
10
10
10
10
10
10
10
10
10
10
10
10
10
10
10
10
10
10
10
10
10
10
10
10
10
10
10
10
10
10
10
10
10
10
10
10
10
10
10
10
10
10
10
10
10
10
10
10
10
10
10
10
10
10
10
10
10
10
10
10
10
10
10
10
10
10
10
10
10
10
10
10
10
10
10
10
10
10
10
10
10
10
10
10
10
10
10
10
10
10
10
10
10
10
10
10
10
10
10
10
10
10
10
10
10
10
10
10
10
10
10
10
10
10
10
10
10
10
10
10
10
10
10
10
10
10
10
10
10
10
10
10
10
10
10
10
10
10
10
10
10
10
10
10
10
10
10
10
10
10
10
10
10
10
10
10
10
10
10
10
10
10
10
10
10
10
10
10
10
10
10
10
10
10
10
10
10
10
10
10
10
10
10
10
10
10
10
10
10
10
10
10
10
10
10
10
10
10
10
10
10
10
10
10
10
10
10
10
10
10
10
10
10
10
10
10
10
10
10
10
10
10
10
10
10
10
10
10
10
10
10
10
10
10
10
10
10
10
10
10
10
10
10
10
10
10
10
10
10
10
10
10
10
10
10
10
10
10
10
10
10
10
10
10
10
10
10
10
10
10
10
10
10
10
10
10
10
10
10
10
10
10
10
10
10
10
10
10
10
10
10
10
10
10
10
10
10
10
10
10
10
10
10
10
10
10
10
10
10
10
10
10
10
10
10
10
10
10
10
10
10
10
10
10
10
10
10
10
10
10
10
10
10
10
10
10
10
10
10
10
10
10
10
10
10
10
10
10
10
10
10
10
10
10
10
10
10
10
10
10
10
10
10
10
10
10
10
10
10
10
10
10
10
10
10
10
10
10
10
10
10
10
10
10
10
10
10
10
10
10
10
10
10
10
10
10
10
10
10
10
10
10
10
10
10
10
10
10
10
10
10
10
10
10
10
10
10
10
10
10
10
10
10
10
10
10
10
10
10
10
10
10
10
10
10
10
10
10
10
10
10
10
10
10
10
10
10
10
10
10
10
10
10
10
10
10
10
10
10
10
10
10
10
10
10
10
10
10
10
10
10
10
10
10
10
10
10
10
10
10
10
10
10
10
10
10
10
10
10
10
10
10
10
10
10
10
10
10
10
10
10
10
10
10
10
10
10
10
10
10
10
10
10
10
10
10
10
10
10
10
10
10
10
10
10
10
10
10
10
10
10
10
10
10
10
10
10
10
10
10
10
10
10
10
10
10
10
10
10
10
10
10
10
10
10
10
10
10
10
10
10
10
10
10
10
10
10
10
10
10
10
10
10
10
10
10
10
10
10
10
10
10
10
10
10
10
10
10
10
10
10
10
10
10
10
10
10
10
10
10
10
10
10
10
10
10
10
10
10
10
10
10
10
10
10
10
10
10
10
10
10
10
10
10
10
10
10
10
10
10
10
10
10
10
10
10
10
10
10
10
10
10
10
10
10
10
10
10
10
10
10
10
10
10
10
10
10
10
10
10
10
10
10
10
10
10
10
10
10
10
10
10
10
10
10
10
10
10
10
10
10
10
10
10
10
10
10
10
10
10
10
10
10
10
10
10
10
10
10
10
10
10
10
10
10
10
10
10
10
10
10
10
10
10
10
10
10
10
10
10
10
10
10
10
10
10
10
10
10
10
10
10
10
10
10
10
10
10
10
10
10
10
10
10
10
10
10
10
10
10
10
10
10
10
10
10
10
10
10
10
10
10
10
10
10
10
10
10
10
10
10
10
10
10
10
10
10
10
10
10
10
10
10
10
10
10
10
10
10
10
10
10
10
10
10
10
10
10
10
10
10
10
10
10
10
10
10
10
10
10
10
10
10
10
10
10
10
10
10
10
10
10
10
10
10
10
10
10
10
10
10
10
10
10
10
10
10
10
10
10
10
10
10
10
10
10
10
10
10
10
10
10
10
10
10
10
10
10
10
10
10
10
10
10
10
10
10
10
10
10
10
10
10
10
10
10
10
10
10
10
10
10
10
10
10
10
10
10
10
10
10
10
10
10
10
10
10
10
10
10
10
10
10
10
10
10
10
10
10
10
10
10
10
10
10
10
10
10
10
10
10
10
10
10
10
10
10
10
10
10
10
10
10
10
10
10
10
10
10
10
10
10
10
10
10
10
10
10
10
10
10
10
10
10
10
10
10
10
10
10
10
10
10
10
10
10
10
10
10
10
10
10
10
10
10
10
10
10
10
10
10
10
10
10
10
10
10
10
10
10
10
10
10
10
10
10
10
10
10
10
10
10
10
10
10
10
10
10
10
10
10
10
10
10
10
10
10
10
10
10
10
10
10
10
10
10
10
10
10
10
10
10
10
10
10
10
10
10
10
10
10
10
10
10
10
10
10
10
10
10
10
10
10
10
10
10
10
10
10
10
10
10
10
10
10
10
10
10
10
10
10
10
10
10
10
10
10
10
10
10
10
10
10
10
10
10
10
10
10
10
10
10
10
10
10
10
10
10
10
10
10
10
10
10
10
10
10
10
10
10
10
10
10
10
10
10
10
10
10
10
10
10
10
10
10
10
10
10
10
10
10
10
10
10
10
10
10
10
10
10
10
10
10
10
10
10
10
10
10
10
10
10
10
10
10
10
10
10
10
10
10
10
10
10
10
10
10
10
10
10
10
10
10
10
10
10
10
10
10
10
10
10
10
10
10
10
10
10
10
10
10
10
10
10
10
10
10
10
10
10
10
10
10
10
10
10
10
10
10
10
10
10
10
10
10
10
10
10
10
10
10
10
10
10
10
10
10
10
10
10
10
10
10
10
10
10
10
10
10
10
10
10
10
10
10
10
10
10
10
10
10
10
10
10
10
10
10
10
10
10
10
10
10
10
10
10
10
10
10
10
10
10
10
10
10
10
10
10
10
10
10
10
10
10
10
10
10
10
10
10
10
10
10
10
10
10
10
10
10
10
10
10
10
10
10
10
10
10
10
10
10
10
10
10
10
10
10
10
10
10
10
10
10
10
10
10
10
10
10
10
10
10
10
10
10
10
10
10
10
10
10
10
10
10
10
10
10
10
10
10
10
10
10
10
10
10
10
10
10
10
10
10
10
10
10
10
10
10
10
10
10
10
10
10
10
10
10
10
10
10
10
10
10
10
10
10
10
10
10
10
10
10
10
10
10
10
10
10
10
10
10
10
10
10
10
10
10
10
10
10
10
10
10
10
10
10
10
10
10
10
10
10
10
10
10
10
10
10
10
10
10
10
10
10
10
10
10
10
10
10
10
10
10
10
10
10
10
10
10
10
10
10
10
10
10
10
10
10
10
10
10
10
10
10
10
10
10
10
10
10
10
10
10
10
10
10
10
10
10
10
10
10
10
10
10
10
10
10
10
10
10
10
10
10
10
10
10
10
10
10
10
10
10
10
10
10
10
10
10
10
10
10
10
10
10
10
10
10
10
10
10
10
10
10
10
10
10
10
10
10
10
10
10
10
10
10
10
10
10
10
10
10
10
10
10
10
10
10
10
10
10
10
10
10
10
10
10
10
10
10
10
10
10
10
10
10
10
10
10
10
10
10
10
10
10
10
10
10
10
10
10
10
10
10
10
10
10
10
10
10
10
10
10
10
10
10
10
10
10
10
10
10
10
10
10
10
10
10
10
10
10
10
10
10
10
10
10
10
10
10
10
10
10
10
10
10
10
10
10
10
10
10
10
10
10
10
10
10
10
10
10
10
10
10
10
10
10
10
10
10
10
10
10
10
10
10
10
10
10
10
10
10
10
10
10
10
10
10
10
10
10
10
10
10
10
10
10
10
10
10
10
10
10
10
10
10
10
10
10
10
10
10
10
10
10
10
10
10
10
10
10
10
10
10
10
10
10
10
10
10
10
10
10
10
10
10
10
10
10
10
10
10
10
10
10
10
10
10
10
10
10
10
10
10
10
10
10
10
10
10
10
10
10
10
10
10
10
10
10
10
10
10
10
10
10
10
10
10
10
10
10
10
10
10
10
10
10
10
10
10
10
10
10
10
10
10
10
10
10
10
10
10
10
10
10
10
10
10
10
10
10
10
10
10
10
10
10
10
10
10
10
10
10
10
10
10
10
10
10
10
10
10
10
10
10
10
10
10
10
10
10
10
10
10
10
10
10
10
10
10
10
10
10
10
10
10
10
10
10
10
10
10
10
10
10
10
10
10
10
10
10
10
10
10
10
10
10
10
10
10
10
10
10
10
10
10
10
10
10
10
10
10
10
10
10
10
10
10
10
10
10
10
10
10
10
10
10
10
10
10
10
10
10
10
10
10
10
10
10
10
10
10
10
10
10
10
10
10
10
10
10
10
10
10
10
10
10
10
10
10
10
10
10
10
10
10
10
10
10
10
10
10
10
10
10
10
10
10
10
10
10
10
10
10
10
10
10
10
10
10
10
10
10
10
10
10
10
10
10
10
10
10
10
10
10
10
10
10
10
10
10
10
10
10
10
10
10
10
10
10
10
10
10
10
10
10
10
10
10
10
10
10
10
10
10
10
10
10
10
10
10
10
10
10
10
10
10
10
10
10
10
10
10
10
10
10
10
10
10
10
10
10
10
10
10
10
10
10
10
10
10
10
10
10
10
10
10
10
10
10
10
10
10
10
10
10
10
10
10
10
10
10
10
10
10
10
10
10
10
10
10
10
10
10
10
10
10
10
10
10
10
10
10
10
10
10
10
10
10
10
10
10
10
10
10
10
10
10
10
10
10
10
10
10
10
10
10
10
10
10
10
10
10
10
10
10
10
10
10
10
10
10
10
10
10
10
10
10
10
10
10
10
10
10
10
10
10
10
10
10
10
10
10
10
10
10
10
10
10
10
10
10
10
10
10
10
10
10
10
10
10
10
10
10
10
10
10
10
10
10
10
10
10
10
10
10
10
10
10
10
10
10
10
10
10
10
10
10
10
10
10
10
10
10
10
10
10
10
10
10
10
10
10
10
10
10
10
10
10
10
10
10
10
10
10
10
10
10
10
10
10
10
10
10
10
10
10
10
10
10
10
10
10
10
10
10
10
10
10
10
10
10
10
10
10
10
10
10
10
10
10
10
10
10
10
10
10
10
10
10
10
10
10
10
10
10
10
10
10
10
10
10
10
10
10
10
10
10
10
10
10
10
10
10
10
10
10
10
10
10
10
10
10
10
10
10
10
10
10
10
10
10
10
10
10
10
10
10
10
10
10
10
10
10
10
10
10
10
10
10
10
10
10
10
10
10
10
10
10
10
10
10
10
10
10
10
10
10
10
10
10
10
10
10
10
10
10
10
10
10
10
10
10
10
10
10
10
10
10
10
10
10
10
10
10
10
10
10
10
10
10
10
10
10
10
10
10
10
10
10
10
10
10
10
10
10
10
10
10
10
10
10
10
10
10
10
10
10
10
10
10
10
10
10
10
10
10
10
10
10
10
10
10
10
10
10
10
10
10
10
10
10
10
10
10
10
10
10
10
10
10
10
10
10
10
10
10
10
10
10
10
10
10
10
10
10
10
10
10
10
10
10
10
10
10
10
10
10
10
10
10
10
10
10
10
10
10
10
10
10
10
10
10
10
10
10
10
10
10
10
10
10
10
10
10
10
10
10
10
10
10
10
10
10
10
10
10
10
10
10
10
10
10
10
10
10
10
10
10
10
10
10
10
10
10
10
10
10
10
10
10
10
10
10
10
10
10
10
10
10
10
10
10
10
10
10
10
10
10
10
10
10
10
10
10
10
10
10
10
10
10
10
10
10
10
10
10
10
10
10
10
10
10
10
10
10
10
10
10
10
10
10
10
10
10
10
10
10
10
10
10
10
10
10
10
10
10
10
10
10
10
10
10
10
10
10
10
10
10
10
10
10
10
10
10
10
10
10
10
10
10
10
10
10
10
10
10
10
10
10
10
10
10
10
10
10
10
10
10
10
10
10
10
10
10
10
10
10
10
10
10
10
10
10
10
10
10
10
10
10
10
10
10
10
10
10
10
10
10
10
10
10
10
10
10
10
10
10
10
10
10
10
10
10
10
10
10
10
10
10
10
10
10
10
10
10
10
10
10
10
10
10
10
10
10
10
10
10
10
10
10
10
10
10
10
10
10
10
10
10
10
10
10
10
10
10
10
10
10
10
10
10
10
10
10
10
10
10
10
10
10
10
10
10
10
10
10
10
10
10
10
10
10
10
10
10
10
10
10
10
10
10
10
10
10
10
10
10
10
10
10
10
10
10
10
10
10
10
10
10
10
10
10
10
10
10
10
10
10
10
10
10
10
10
10
10
10
10
10
10
10
10
10
10
10
10
10
10
10
10
10
10
10
10
10
10
10
10
10
10
10
10
10
10
10
10
10
10
10
10
10
10
10
10
10
10
10
10
10
10
10
10
10
10
10
10
10
10
10
10
10
10
10
10
10
10
10
10
10
10
10
10
10
10
10
10
10
10
10
10
10
10
10
10
10
10
10
10
10
10
10
10
10
10
10
10
10
10
10
10
10
10
10
10
10
10
10
10
10
10
10
10
10
10
10
10
10
10
10
10
10
10
10
10
10
10
10
10
10
10
10
10
10
10
10
10
10
10
10
10
10
10
10
10
10
10
10
10
10
10
10
10
10
10
10
10
10
10
10
10
10
10
10
10
10
10
10
10
10
10
10
10
10
10
10
10
10
10
10
10
10
10
10
10
10
10
10
10
10
10
10
10
10
10
10
10
10
10
10
10
10
10
10
10
10
10
10
10
10
10
10
10
10
10
10
10
10
10
10
10
10
10
10
10
10
10
10
10
10
10
10
10
10
10
10
10
10
10
10
10
10
10
10
10
10
10
10
10
10
10
10
10
10
10
10
10
10
10
10
10
10
10
10
10
10
10
10
10
10
10
10
10
10
10
10
10
10
10
10
10
10
10
10
10
10
10
10
10
10
10
10
10
10
10
10
10
10
10
10
10
10
10
10
10
10
10
10
10
10
10
10
10
10
10
10
10
10
10
10
10
10
10
10
10
10
10
10
10
10
10
10
10
10
10
10
10
10
10
10
10
10
10
10
10
10
10
10
10
10
10
10
10
10
10
10
10
10
10
10
10
10
10
10
10
10
10
10
10
10
10
10
10
10
10
10
10
10
10
10
10
10
10
10
10
10
10
10
10
10
10
10
10
10
10
10
10
10
10
10
10
10
10
10
10
10
10
10
10
10
10
10
10
10
10
10
10
10
10
10
10
10
10
10
10
10
10
10
10
10
10
10
10
10
10
10
10
10
10
10
10
10
10
10
10
10
10
10
10
10
10
10
10
10
10
10
10
10
10
10
10
10
10
10
10
10
10
10
10
10
10
10
10
10
10
10
10
10
10
10
10
10
10
10
10
10
10
10
10
10
10
10
10
10
10
10
10
10
10
10
10
10
10
10
10
10
10
10
10
10
10
10
10
10
10
10
10
10
10
10
10
10
10
10
10
10
10
10
10
10
10
10
10
10
10
10
10
10
10
10
10
10
10
10
10
10
10
10
10
10
10
10
10
10
10
10
10
10
10
10
10
10
10
10
10
10
10
10
10
10
10
10
10
10
10
10
10
10
10
10
10
10
10
10
10
10
10
10
10
10
10
10
10
10
10
10
10
10
10
10
10
10
10
10
10
10
10
10
10
10
10
10
10
10
10
10
10
10
10
10
10
10
10
10
10
10
10
10
10
10
10
10
10
10
10
10
10
10
10
10
10
10
10
10
10
10
10
10
10
10
10
10
10
10
10
10
10
10
10
10
10
10
10
10
10
10
10
10
10
10
10
10
10
10
10
10
10
10
10
10
10
10
10
10
10
10
10
10
10
10
10
10
10
10
10
10
10
10
10
10
10
10
10
10
10
10
10
10
10
10
10
10
10
10
10
10
10
10
10
10
10
10
10
10
10
10
10
10
10
10
10
10
10
10
10
10
10
10
10
10
10
10
10
10
10
10
10
10
10
10
10
10
10
10
10
10
10
10
10
10
10
10
10
10
10
10
10
10
10
10
10
10
10
10
10
10
10
10
10
10
10
10
10
10
10
10
10
10
10
10
10
10
10
10
10
10
10
10
10
10
10
10
10
10
10
10
10
10
10
10
10
10
10
10
10
10
10
10
10
10
10
10
10
10
10
10
10
10
10
10
10
10
10
10
10
10
10
10
10
10
10
10
10
10
10
10
10
10
10
10
10
10
10
10
10
10
10
10
10
10
10
10
10
10
10
10
10
10
10
10
10
10
10
10
10
10
10
10
10
10
10
10
10
10
10
10
10
10
10
10
10
10
10
10
10
10
10
10
10
10
10
10
10
10
10
10
10
10
10
10
10
10
10
10
10
10
10
10
10
10
10
10
10
10
10
10
10
10
10
10
10
10
10
10
10
10
10
10
10
10
10
10
10
10
10
10
10
10
10
10
10
10
10
10
10
10
10
10
10
10
10
10
10
10
10
10
10
10
10
10
10
10
10
10
10
10
10
10
10
10
10
10
10
10
10
10
10
10
10
10
10
10
10
10
10
10
10
10
10
10
10
10
10
10
10
10
10
10
10
10
10
10
10
10
10
10
10
10
10
10
10
10
10
10
10
10
10
10
10
10
10
10
10
10
10
10
10
10
10
10
10
10
10
10
10
10
10
10
10
10
10
10
10
10
10
10
10
10
10
10
10
10
10
10
10
10
10
10
10
10
10
10
10
10
10
10
10
10
10
10
10
10
10
10
10
10
10
10
10
10
10
10
10
10
10
10
10
10
10
10
10
10
10
10
10
10
10
10
10
10
10
10
10
10
10
10
10
10
10
10
10
10
10
10
10
10
10
10
10
10
10
10
10
10
10
10
10
10
10
10
10
10
10
10
10
10
10
10
10
10
10
10
10
10
10
10
10
10
10
10
10
10
10
10
10
10
10
10
10
10
10
10
10
10
10
10
10
10
10
10
10
10
10
10
10
10
10
10
10
10
10
10
10
10
10
10
10
10
10
10
10
10
10
10
10
10
10
10
10
10
10
10
10
10
10
10
10
10
10
10
10
10
10
10
10
10
10
10
10
10
10
10
10
10
10
10
10
10
10
10
10
10
10
10
10
10
10
10
10
10
10
10
10
10
10
10
10
10
10
10
10
10
10
10
10
10
10
10
10
10
10
10
10
10
10
10
10
10
10
10
10
10
10
10
10
10
10
10
10
10
10
10
10
10
10
10
10
10
10
10
10
10
10
10
10
10
10
10
10
10
10
10
10
10
10
10
10
10
10
10
10
10
10
10
10
10
10
10
10
10
10
10
10
10
10
10
10
10
10
10
10
10
10
10
10
10
10
10
10
10
10
10
10
10
10
10
10
10
10
10
10
10
10
10
10
10
10
10
10
10
10
10
10
10
10
10
10
10
10
10
10
10
10
10
10
10
10
10
10
10
10
10
10
10
10
10
10
10
10
10
10
10
10
10
10
10
10
10
10
10
10
10
10
10
10
10
10
10
10
10
10
10
10
10
10
10
10
10
10
10
10
10
10
10
10
10
10
10
10
10
10
10
10
10
10
10
10
10
10
10
10
10
10
10
10
10
10
10
10
10
10
10
10
10
10
10
10
10
10
10
10
10
10
10
10
10
10
10
10
10
10
10
10
10
10
10
10
10
10
10
10
10
10
10
10
10
10
10
10
10
10
10
10
10
10
10
10
10
10
10
10
10
10
10
10
10
10
10
10
10
10
10
10
10
10
10
10
10
10
10
10
10
10
10
10
10
10
10
10
10
10
10
10
10
10
10
10
10
10
10
10
10
10
10
10
10
10
10
10
10
10
10
10
10
10
10
10
10
10
10
10
10
10
10
10
10
10
10
10
10
10
10
10
10
10
10
10
10
10
10
10
10
10
10
10
10
10
10
10
10
10
10
10
10
10
10
10
10
10
10
10
10
10
10
10
10
10
10
10
10
10
10
10
10
10
10
10
10
10
10
10
10
10
10
10
10
10
10
10
10
10
10
10
10
10
10
10
10
10
10
10
10
10
10
10
10
10
10
10
10
10
10
10
10
10
10
10
10
10
10
10
10
10
10
10
10
10
10
10
10
10
10
10
10
10
10
10
10
10
10
10
10
10
10
10
10
10
10
10
10
10
10
10
10
10
10
10
10
10
10
10
10
10
10
10
10
10
10
10
10
10
10
10
10
10
10
10
10
10
10
10
10
10
10
10
10
10
10
10
10
10
10
10
10
10
10
10
10
10
10
10
10
10
10
10
10
10
10
10
10
10
10
10
10
10
10
10
10
10
10
10
10
10
10
10
10
10
10
10
10
10
10
10
10
10
10
10
10
10
10
10
10
10
10
10
10
10
10
10
10
10
10
10
10
10
10
10
10
10
10
10
10
10
10
10
10
10
10
10
10
10
10
10
10
10
10
10
10
10
10
10
10
10
10
10
10
10
10
10
10
10
10
10
10
10
10
10
10
10
10
10
10
10
10
10
10
10
10
10
10
10
10
10
10
10
10
10
10
10
10
10
10
10
10
10
10
10
10
10
10
10
10
10
10
10
10
10
10
10
10
10
10
10
10
10
10
10
10
10
10
10
10
10
10
10
10
10
10
10
10
10
10
10
10
10
10
10
10
10
10
10
10
10
10
10
10
10
10
10
10
10
10
10
10
10
10
10
10
10
10
10
10
10
10
10
10
10
10
10
10
10
10
10
10
10
10
10
10
10
10
10
10
10
10
10
10
10
10
10
10
10
10
10
10
10
10
10
10
10
10
10
10
10
10
10
10
10
10
10
10
10
10
10
10
10
10
10
10
10
10
10
10
10
10
10
10
10
10
10
10
10
10
10
10
10
10
10
10
10
10
10
10
10
10
10
10
10
10
10
10
10
10
10
10
10
10
10
10
10
10
10
10
10
10
10
10
10
10
10
10
10
10
10
10
10
10
10
10
10
10
10
10
10
10
10
10
10
10
10
10
10
10
10
10
10
10
10
10
10
10
10
10
10
10
10
10
10
10
10
10
10
10
10
10
10
10
10
10
10
10
10
10
10
10
10
10
10
10
10
10
10
10
10
10
10
10
10
10
10
10
10
10
10
10
10
10
10
10
10
10
10
10
10
10
10
10
10
10
10
10
10
10
10
10
10
10
10
10
10
10
10
10
10
10
10
10
10
10
10
10
10
10
10
10
10
10
10
10
10
10
10
10
10
10
10
10
10
10
10
10
10
10
10
10
10
10
10
10
10
10
10
10
10
10
10
10
10
10
10
10
10
10
10
10
10
10
10
10
10
10
10
10
10
10
10
10
10
10
10
10
10
10
10
10
10
10
10
10
10
10
10
10
10
10
10
10
10
10
10
10
10
10
10
10
10
10
10
10
10
10
10
10
10
10
10
10
10
10
10
10
10
10
10
10
10
10
10
10
10
10
10
10
10
10
10
10
10
10
10
10
10
10
10
10
10
10
10
10
10
10
10
10
10
10
10
10
10
10
10
10
10
10
10
10
10
10
10
10
10
10
10
10
10
10
10
10
10
10
10
10
10
10
10
10
10
10
10
10
10
10
10
10
10
10
10
10
10
10
10
10
10
10
10
10
10
10
10
10
10
10
10
10
10
10
10
10
10
10
10
10
10
10
10
10
10
10
10
10
10
10
10
10
10
10
10
10
10
10
10
10
10
10
10
10
10
10
10
10
10
10
10
10
10
10
10
10
10
10
10
10
10
10
10
10
10
10
10
10
10
10
10
10
10
10
10
10
10
10
10
10
10
10
10
10
10
10
10
10
10
10
10
10
10
10
10
10
10
10
10
10
10
10
10
10
10
10
10
10
10
10
10
10
10
10
10
10
10
10
10
10
10
10
10
10
10
10
10
10
10
10
10
10
10
10
10
10
10
10
10
10
10
10
10
10
10
10
10
10
10
10
10
10
10
10
10
10
10
10
10
10
10
10
10
10
10
10
10
10
10
10
10
10
10
10
10
10
10
10
10
10
10
10
10
10
10
10
10
10
10
10
10
10
10
10
10
10
10
10
10
10
10
10
10
10
10
10
10
10
10
10
10
10
10
10
10
10
10
10
10
10
10
10
10
10
10
10
10
10
10
10
10
10
10
10
10
10
10
10
10
10
10
10
10
10
10
10
10
10
10
10
10
10
10
10
10
10
10
10
10
10
10
10
10
10
10
10
10
10
10
10
10
10
10
10
10
10
10
10
10
10
10
10
10
10
10
10
10
10
10
10
10
10
10
10
10
10
10
10
10
10
10
10
10
10
10
10
10
10
10
10
10
10
10
10
10
10
10
10
10
10
10
10
10
10
10
10
10
10
10
10
10
10
10
10
10
10
10
10
10
10
10
10
10
10
10
10
10
10
10
10
10
10
10
10
10
10
10
10
10
10
10
10
10
10
10
10
10
10
10
10
10
10
10
10
10
10
10
10
10
10
10
10
10
10
10
10
10
10
10
10
10
10
10
10
10
10
10
10
10
10
10
10
10
10
10
10
10
10
10
10
10
10
10
10
10
10
10
10
10
10
10
10
10
10
10
10
10
10
10
10
10
10
10
10
10
10
10
10
10
10
10
10
10
10
10
10
10
10
10
10
10
10
10
10
10
10
10
10
10
10
10
10
10
10
10
10
10
10
10
10
10
10
10
10
10
10
10
10
10
10
10
10
10
10
10
10
10
10
10
10
10
10
10
10
10
10
10
10
10
10
10
10
10
10
10
10
10
10
10
10
10
10
10
10
10
10
10
10
10
10
10
10
10
10
10
10
10
10
10
10
10
10
10
10
10
10
10
10
10
10
10
10
10
10
10
10
10
10
10
10
10
10
10
10
10
10
10
10
10
10
10
10
10
10
10
10
10
10
10
10
10
10
10
10
10
10
10
10
10
10
10
10
10
10
10
10
10
10
10
10
10
10
10
10
10
10
10
10
10
10
10
10
10
10
10
10
10
10
10
10
10
10
10
10
10
10
10
10
10
10
10
10
10
10
10
10
10
10
10
10
10
10
10
10
10
10
10
10
10
10
10
10
10
10
10
10
10
10
10
10
10
10
10
10
10
10
10
10
10
10
10
10
10
10
10
10
10
10
10
10
10
10
10
10
10
10
10
10
10
10
10
10
10
10
10
10
10
10
10
10
10
10
10
10
10
10
10
10
10
10
10
10
10
10
10
10
10
10
10
10
10
10
10
10
10
10
10
10
10
10
10
10
10
10
10
10
10
10
10
10
10
10
10
10
10
10
10
10
10
10
10
10
10
10
10
10
10
10
10
10
10
10
10
10
10
10
10
10
10
10
10
10
10
10
10
10
10
10
10
10
10
10
10
10
10
10
10
10
10
10
10
10
10
10
10
10
10
10
10
10
10
10
10
10
10
10
10
10
10
10
10
10
10
10
10
10
10
10
10
10
10
10
10
10
10
10
10
10
10
10
10
10
10
10
10
10
10
10
10
10
10
10
10
10
10
10
10
10
10
10
10
10
10
10
10
10
10
10
10
10
10
10
10
10
10
10
10
10
10
10
10
10
10
10
10
10
10
10
10
10
10
10
10
10
10
10
10
10
10
10
10
10
10
10
10
10
10
10
10
10
10
10
10
10
10
10
10
10
10
10
10
10
10
10
10
10
10
10
10
10
10
10
10
10
10
10
10
10
10
10
10
10
10
10
10
10
10
10
10
10
10
10
10
10
10
10
10
10
10
10
10
10
10
10
10
10
10
10
10
10
10
10
10
10
10
10
10
10
10
10
10
10
10
10
10
10
10
10
10
10
10
10
10
10
10
10
10
10
10
10
10
10
10
10
10
10
10
10
10
10
10
10
10
10
10
10
10
10
10
10
10
10
10
10
10
10
10
10
10
10
10
10
10
10
10
10
10
10
10
10
10
10
10
10
10
10
10
10
10
10
10
10
10
10
10
10
10
10
10
10
10
10
10
10
10
10
10
10
10
10
10
10
10
10
10
10
10
10
10
10
10
10
10
10
10
10
10
10
10
10
10
10
10
10
10
10
10
10
10
10
10
10
10
10
10
10
10
10
10
10
10
10
10
10
10
10
10
10
10
10
10
10
10
10
10
10
10
10
10
10
10
10
10
10
10
10
10
10
10
10
10
10
10
10
10
10
10
10
10
10
10
10
10
10
10
10
10
10
10
10
10
10
10
10
10
10
10
10
10
10
10
10
10
10
10
10
10
10
10
10
10
10
10
10
10
10
10
10
10
10
10
10
10
10
10
10
10
10
10
10
10
10
10
10
10
10
10
10
10
10
10
10
10
10
10
10
10
10
10
10
10
10
10
10
10
10
10
10
10
10
10
10
10
10
10
10
10
10
10
10
10
10
10
10
10
10
10
10
10
10
10
10
10
10
10
10
10
10
10
10
10
10
10
10
10
10
10
10
10
10
10
10
10
10
10
10
10
10
10
10
10
10
10
10
10
10
10
10
10
10
10
10
10
10
10
10
10
10
10
10
10
10
10
10
10
10
10
10
10
10
10
10
10
10
10
10
10
10
10
10
10
10
10
10
10
10
10
10
10
10
10
10
10
10
10
10
10
10
10
10
10
10
10
10
10
10
10
10
10
10
10
10
10
10
10
10
10
10
10
10
10
10
10
10
10
10
10
10
10
10
10
10
10
10
10
10
10
10
10
10
10
10
10
10
10
10
10
10
10
10
10
10
10
10
10
10
10
10
10
10
10
10
10
10
10
10
10
10
10
10
10
10
10
10
10
10
10
10
10
10
10
10
10
10
10
10
10
10
10
10
10
10
10
10
10
10
10
10
10
10
10
10
10
10
10
10
10
10
10
10
10
10
10
10
10
10
10
10
10
10
10
10
10
10
10
10
10
10
10
10
10
10
10
10
10
10
10
10
10
10
10
10
10
10
10
10
10
10
10
10
10
10
10
10
10
10
10
10
10
10
10
10
10
10
10
10
10
10
10
10
10
10
10
10
10
10
10
10
10
10
10
10
10
10
10
10
10
10
10
10
10
10
10
10
10
10
10
10
10
10
10
10
10
10
10
10
10
10
10
10
10
10
10
10
10
10
10
10
10
10
10
10
10
10
10
10
10
10
10
10
10
10
10
10
10
10
10
10
10
10
10
10
10
10
10
10
10
10
10
10
10
10
10
10
10
10
10
10
10
10
10
10
10
10
10
10
10
10
10
10
10
10
10
10
10
10
10
10
10
10
10
10
10
10
10
10
10
10
10
10
10
10
10
10
10
10
10
10
10
10
10
10
10
10
10
10
10
10
10
10
10
10
10
10
10
10
10
10
10
10
10
10
10
10
10
10
10
10
10
10
10
10
10
10
10
10
10
10
10
10
10
10
10
10
10
10
10
10
10
10
10
10
10
10
10
10
10
10
10
10
10
10
10
10
10
10
10
10
10
10
10
10
10
10
10
10
10
10
10
10
10
10
10
10
10
10
10
10
10
10
10
10
10
10
10
10
10
10
10
10
10
10
10
10
10
10
10
10
10
10
10
10
10
10
10
10
10
10
10
10
10
10
10
10
10
10
10
10
10
10
10
10
10
10
10
10
10
10
10
10
10
10
10
10
10
10
10
10
10
10
10
10
10
10
10
10
10
10
10
10
10
10
10
10
10
10
10
10
10
10
10
10
10
10
10
10
10
10
10
10
10
10
10
10
10
10
10
10
10
10
10
10
10
10
10
10
10
10
10
10
10
10
10
10
10
10
10
10
10
10
10
10
10
10
10
10
10
10
10
10
10
10
10
10
10
10
10
10
10
10
10
10
10
10
10
10
10
10
10
10
10
10
10
10
10
10
10
10
10
10
10
10
10
10
10
10
10
10
10
10
10
10
10
10
10
10
10
10
10
10
10
10
10
10
10
10
10
10
10
10
10
10
10
10
10
10
10
10
10
10
10
10
10
10
10
10
10
10
10
10
10
10
10
10
10
10
10
10
10
10
10
10
10
10
10
10
10
10
10
10
10
10
10
10
10
10
10
10
10
10
10
10
10
10
10
10
10
10
10
10
10
10
10
10
10
10
10
10
10
10
10
10
10
10
10
10
10
10
10
10
10
10
10
10
10
10
10
10
10
10
10
10
10
10
10
10
10
10
10
10
10
10
10
10
10
10
10
10
10
10
10
10
10
10
10
10
10
10
10
10
10
10
10
10
10
10
10
10
10
10
10
10
10
10
10
10
10
10
10
10
10
10
10
10
10
10
10
10
10
10
10
10
10
10
10
10
10
10
10
10
10
10
10
10
10
10
10
10
10
10
10
10
10
10
10
10
10
10
10
10
10
10
10
10
10
10
10
10
10
10
10
10
10
10
10
10
10
10
10
10
10
10
10
10
10
10
10
10
10
10
10
10
10
10
10
10
10
10
10
10
10
10
10
10
10
10
10
10
10
10
10
10
10
10
10
10
10
10
10
10
10
10
10
10
10
10
10
10
10
10
10
10
10
10
10
10
10
10
10
10
10
10
10
10
10
10
10
10
10
10
10
10
10
10
10
10
10
10
10
10
10
10
10
10
10
10
10
10
10
10
10
10
10
10
10
10
10
10
10
10
10
10
10
10
10
10
10
10
10
10
10
10
10
10
10
10
10
10
10
10
10
10
10
10
10
10
10
10
10
10
10
10
10
10
10
10
10
10
10
10
10
10
10
10
10
10
10
10
10
10
10
10
10
10
10
10
10
10
10
10
10
10
10
10
10
10
10
10
10
10
10
10
10
10
10
10
10
10
10
10
10
10
10
10
10
10
10
10
10
10
10
10
10
10
10
10
10
10
10
10
10
10
10
10
10
10
10
10
10
10
10
10
10
10
10
10
10
10
10
10
10
10
10
10
10
10
10
10
10
10
10
10
10
10
10
10
10
10
10
10
10
10
10
10
10
10
10
10
10
10
10
10
10
10
10
10
10
10
10
10
10
10
10
10
10
10
10
10
10
10
10
10
10
10
10
10
10
10
10
10
10
10
10
10
10
10
10
10
10
10
10
10
10
10
10
10
10
10
10
10
10
10
10
10
10
10
10
10
10
10
10
10
10
10
10
10
10
10
10
10
10
10
10
10
10
10
10
10
10
10
10
10
10
10
10
10
10
10
10
10
10
10
10
10
10
10
10
10
10
10
10
10
10
10
10
10
10
10
10
10
10
10
10
10
10
10
10
10
10
10
10
10
10
10
10
10
10
10
10
10
10
10
10
10
10
10
10
10
10
10
10
10
10
10
10
10
10
10
10
10
10
10
10
10
10
10
10
10
10
10
10
10
10
10
10
10
10
10
10
10
10
10
10
10
10
10
10
10
10
10
10
10
10
10
10
10
10
10
10
10
10
10
10
10
10
10
10
10
10
10
10
10
10
10
10
10
10
10
10
10
10
10
10
10
10
10
10
10
10
10
10
10
10
10
10
10
10
10
10
10
10
10
10
10
10
10
10
10
10
10
10
10
10
10
10
10
10
10
10
10
10
10
10
10
10
10
10
10
10
10
10
10
10
10
10
10
10
10
10
10
10
10
10
10
10
10
10
10
10
10
10
10
10
10
10
10
10
10
10
10
10
10
10
10
10
10
10
10
10
10
10
10
10
10
10
10
10
10
10
10
10
10
10
10
10
10
10
10
10
10
10
10
10
10
10
10
10
10
10
10
10
10
10
10
10
10
10
10
10
10
10
10
10
10
10
10
10
10
10
10
10
10
10
10
10
10
10
10
10
10
10
10
10
10
10
10
10
10
10
10
10
10
10
10
10
10
10
10
10
10
10
10
10
10
10
10
10
10
10
10
10
10
10
10
10
10
10
10
10
10
10
10
10
10
10
10
10
10
10
10
10
10
10
10
10
10
10
10
10
10
10
10
10
10
10
10
10
10
10
10
10
10
10
10
10
10
10
10
10
10
10
10
10
10
10
10
10
10
10
10
10
10
10
10
10
10
10
10
10
10
10
10
10
10
10
10
10
10
10
10
10
10
10
10
10
10
10
10
10
10
10
10
10
10
10
10
10
10
10
10
10
10
10
10
10
10
10
10
10
10
10
10
10
10
10
10
10
10
10
10
10
10
10
10
10
10
10
10
10
10
10
10
10
10
10
10
10
10
10
10
10
10
10
10
10
10
10
10
10
10
10
10
10
10
10
10
10
10
10
10
10
10
10
10
10
10
10
10
10
10
10
10
10
10
10
10
10
10
10
10
10
10
10
10
10
10
10
10
10
10
10
10
10
10
10
10
10
10
10
10
10
10
10
10
10
10
10
10
10
10
10
10
10
10
10
10
10
10
10
10
10
10
10
10
10
10
10
10
10
10
10
10
10
10
10
10
10
10
10
10
10
10
10
10
10
10
10
10
10
10
10
10
10
10
10
10
10
10
10
10
10
10
10
10
10
10
10
10
10
10
10
10
10
10
10
10
10
10
10
10
10
10
10
10
10
10
10
10
10
10
10
10
10
10
10
10
10
10
10
10
10
10
10
10
10
10
10
10
10
10
10
10
10
10
10
10
10
10
10
10
10
10
10
10
10
10
10
10
10
10
10
10
10
10
10
10
10
10
10
10
10
10
10
10
10
10
10
10
10
10
10
10
10
10
10
10
10
10
10
10
10
10
10
10
10
10
10
10
10
10
10
10
10
10
10
10
10
10
10
10
10
10
10
10
10
10
10
10
10
10
10
10
10
10
10
10
10
10
10
10
10
10
10
10
10
10
10
10
10
10
10
10
10
10
10
10
10
10
10
10
10
10
10
10
10
10
10
10
10
10
10
10
10
10
10
10
10
10
10
10
10
10
10
10
10
10
10
10
10
10
10
10
10
10
10
10
10
10
10
10
10
10
10
10
10
10
10
10
10
10
10
10
10
10
10
10
10
10
10
10
10
10
10
10
10
10
10
10
10
10
10
10
10
10
10
10
10
10
10
10
10
10
10
10
10
10
10
10
10
10
10
10
10
10
10
10
10
10
10
10
10
10
10
10
10
10
10
10
10
10
10
10
10
10
10
10
10
10
10
10
10
10
10
10
10
10
10
10
10
10
10
10
10
10
10
10
10
10
10
10
10
10
10
10
10
10
10
10
10
10
10
10
10
10
10
10
10
10
10
10
10
10
10
10
10
10
10
10
10
10
10
10
10
10
10
10
10
10
10
10
10
10
10
10
10
10
10
10
10
10
10
10
10
10
10
10
10
10
10
10
10
10
10
10
10
10
10
10
10
10
10
10
10
10
10
10
10
10
10
10
10
10
10
10
10
10
10
10
10
10
10
10
10
10
10
10
10
10
10
10
10
10
10
10
10
10
10
10
10
10
10
10
10
10
10
10
10
10
10
10
10
10
10
10
10
10
10
10
10
10
10
10
10
10
10
10
10
10
10
10
10
10
10
10
10
10
10
10
10
10
10
10
10
10
10
10
10
10
10
10
10
10
10
10
10
10
10
10
10
10
10
10
10
10
10
10
10
10
10
10
10
10
10
10
10
10
10
10
10
10
10
10
10
10
10
10
10
10
10
10
10
10
10
10
10
10
10
10
10
10
10
10
10
10
10
10
10
10
10
10
10
10
10
10
10
10
10
10
10
10
10
10
10
10
10
10
10
10
10
10
10
10
10
10
10
10
10
10
10
10
10
10
10
10
10
10
10
10
10
10
10
10
10
10
10
10
10
10
10
10
10
10
10
10
10
10
10
10
10
10
10
10
10
10
10
10
10
10
10
10
10
10
10
10
10
10
10
10
10
10
10
10
10
10
10
10
10
10
10
10
10
10
10
10
10
10
10
10
10
10
10
10
10
10
10
10
10
10
10
10
10
10
10
10
10
10
10
10
10
10
10
10
10
10
10
10
10
10
10
10
10
10
10
10
10
10
10
10
10
10
10
10
10
10
10
10
10
10
10
10
10
10
10
10
10
10
10
10
10
10
10
10
10
10
10
10
10
10
10
10
10
10
10
10
10
10
10
10
10
10
10
10
10
10
10
10
10
10
10
10
10
10
10
10
10
10
10
10
10
10
10
10
10
10
10
10
10
10
10
10
10
10
10
10
10
10
10
10
10
10
10
10
10
10
10
10
10
10
10
10
10
10
10
10
10
10
10
10
10
10
10
10
10
10
10
10
10
10
10
10
10
10
10
10
10
10
10
10
10
10
10
10
10
10
10
10
10
10
10
10
10
10
10
10
10
10
10
10
10
10
10
10
10
10
10
10
10
10
10
10
10
10
10
10
10
10
10
10
10
10
10
10
10
10
10
10
10
10
10
10
10
10
10
10
10
10
10
10
10
10
10
10
10
10
10
10
10
10
10
10
10
10
10
10
10
10
10
10
10
10
10
10
10
10
10
10
10
10
10
10
10
10
10
10
10
10
10
10
10
10
10
10
10
10
10
10
10
10
10
10
10
10
10
10
10
10
10
10
10
10
10
10
10
10
10
10
10
10
10
10
10
10
10
10
10
10
10
10
10
10
10
10
10
10
10
10
10
10
10
10
10
10
10
10
10
10
10
10
10
10
10
10
10
10
10
10
10
10
10
10
10
10
10
10
10
10
10
10
10
10
10
10
10
10
10
10
10
10
10
10
10
10
10
10
10
10
10
10
10
10
10
10
10
10
10
10
10
10
10
10
10
10
10
10
10
10
10
10
10
10
10
10
10
10
10
10
10
10
10
10
10
10
10
10
10
10
10
10
10
10
10
10
10
10
10
10
10
10
10
10
10
10
10
10
10
10
10
10
10
10
10
10
10
10
10
10
10
10
10
10
10
10
10
10
10
10
10
10
10
10
10
10
10
10
10
10
10
10
10
10
10
10
10
10
10
10
10
10
10
10
10
10
10
10
10
10
10
10
10
10
10
10
10
10
10
10
10
10
10
10
10
10
10
10
10
10
10
10
10
10
10
10
10
10
10
10
10
10
10
10
10
10
10
10
10
10
10
10
10
10
10
10
10
10
10
10
10
10
10
10
10
10
10
10
10
10
10
10
10
10
10
10
10
10
10
10
10
10
10
10
10
10
10
10
10
10
10
10
10
10
10
10
10
10
10
10
10
10
10
10
10
10
10
10
10
10
10
10
10
10
10
10
10
10
10
10
10
10
10
10
10
10
10
10
10
10
10
10
10
10
10
10
10
10
10
10
10
10
10
10
10
10
10
10
10
10
10
10
10
10
10
10
10
10
10
10
10
10
10
10
10
10
10
10
10
10
10
10
10
10
10
10
10
10
10
10
10
10
10
10
10
10
10
10
10
10
10
10
10
10
10
10
10
10
10
10
10
10
10
10
10
10
10
10
10
10
10
10
10
10
10
10
10
10
10
10
10
10
10
10
10
10
10
10
10
10
10
10
10
10
10
10
10
10
10
10
10
10
10
10
10
10
10
10
10
10
10
10
10
10
10
10
10
10
10
10
10
10
10
10
10
10
10
10
10
10
10
10
10
10
10
10
10
10
10
10
10
10
10
10
10
10
10
10
10
10
10
10
10
10
10
10
10
10
10
10
10
10
10
10
10
10
10
10
10
10
10
10
10
10
10
10
10
10
10
10
10
10
10
10
10
10
10
10
10
10
10
10
10
10
10
10
10
10
10
10
10
10
10
10
10
10
10
10
10
10
10
10
10
10
10
10
10
10
10
10
10
10
10
10
10
10
10
10
10
10
10
10
10
10
10
10
10
10
10
10
10
10
10
10
10
10
10
10
10
10
10
10
10
10
10
10
10
10
10
10
10
10
10
10
10
10
10
10
10
10
10
10
10
10
10
10
10
10
10
10
10
10
10
10
10
10
10
10
10
10
10
10
10
10
10
10
10
10
10
10
10
10
10
10
10
10
10
10
10
10
10
10
10
10
10
10
10
10
10
10
10
10
10
10
10
10
10
10
10
10
10
10
10
10
10
10
10
10
10
10
10
10
10
10
10
10
10
10
10
10
10
10
10
10
10
10
10
10
10
10
10
10
10
10
10
10
10
10
10
10
10
10
10
10
10
10
10
10
10
10
10
10
10
10
10
10
10
10
10
10
10
10
10
10
10
10
10
10
10
10
10
10
10
10
10
10
10
10
10
10
10
10
10
10
10
10
10
10
10
10
10
10
10
10
10
10
10
10
10
10
10
10
10
10
10
10
10
10
10
10
10
10
10
10
10
10
10
10
10
10
10
10
10
10
10
10
10
10
10
10
10
10
10
10
10
10
10
10
10
10
10
10
10
10
10
10
10
10
10
10
10
10
10
10
10
10
10
10
10
10
10
10
10
10
10
10
10
10
10
10
10
10
10
10
10
10
10
10
10
10
10
10
10
10
10
10
10
10
10
10
10
10
10
10
10
10
10
10
10
10
10
10
10
10
10
10
10
10
10
10
10
10
10
10
10
10
10
10
10
10
10
10
10
10
10
10
10
10
10
10
10
10
10
10
10
10
10
10
10
10
10
10
10
10
10
10
10
10
10
10
10
10
10
10
10
10
10
10
10
10
10
10
10
10
10
10
10
10
10
10
10
10
10
10
10
10
10
10
10
10
10
10
10
10
10
10
10
10
10
10
10
10
10
10
10
10
10
10
10
10
10
10
10
10
10
10
10
10
10
10
10
10
10
10
10
10
10
10
10
10
10
10
10
10
10
10
10
10
10
10
10
10
10
10
10
10
10
10
10
10
10
10
10
10
10
10
10
10
10
10
10
10
10
10
10
10
10
10
10
10
10
10
10
10
10
10
10
10
10
10
10
10
10
10
10
10
10
10
10
10
10
10
10
10
10
10
10
10
10
10
10
10
10
10
10
10
10
10
10
10
10
10
10
10
10
10
10
10
10
10
10
10
10
10
10
10
10
10
10
10
10
10
10
10
10
10
10
10
10
10
10
10
10
10
10
10
10
10
10
10
10
10
10
10
10
10
10
10
10
10
10
10
10
10
10
10
10
10
10
10
10
10
10
10
10
10
10
10
10
10
10
10
10
10
10
10
10
10
10
10
10
10
10
10
10
10
10
10
10
10
10
10
10
10
10
10
10
10
10
10
10
10
10
10
10
10
10
10
10
10
10
10
10
10
10
10
10
10
10
10
10
10
10
10
10
10
10
10
10
10
10
10
10
10
10
10
10
10
10
10
10
10
10
10
10
10
10
10
10
10
10
10
10
10
10
10
10
10
10
10
10
10
10
10
10
10
10
10
10
10
10
10
10
10
10
10
10
10
10
10
10
10
10
10
10
10
10
10
10
10
10
10
10
10
10
10
10
10
10
10
10
10
10
10
10
10
10
10
10
10
10
10
10
10
10
10
10
10
10
10
10
10
10
10
10
10
10
10
10
10
10
10
10
10
10
10
10
10
10
10
10
10
10
10
10
10
10
10
10
10
10
10
10
10
10
10
10
10
10
10
10
10
10
10
10
10
10
10
10
10
10
10
10
10
10
10
10
10
10
10
10
10
10
10
10
10
10
10
10
10
10
10
10
10
10
10
10
10
10
10
10
10
10
10
10
10
10
10
10
10
10
10
10
10
10
10
10
10
10
10
10
10
10
10
10
10
10
10
10
10
10
10
10
10
10
10
10
10
10
10
10
10
10
10
10
10
10
10
10
10
10
10
10
10
10
10
10
10
10
10
10
10
10
10
10
10
10
10
10
10
10
10
10
10
10
10
10
10
10
10
10
10
10
10
10
10
10
10
10
10
10
10
10
10
10
10
10
10
10
10
10
10
10
10
10
10
10
10
10
10
10
10
10
10
10
10
10
10
10
10
10
10
10
10
10
10
10
10
10
10
10
10
10
10
10
10
10
10
10
10
10
10
10
10
10
10
10
10
10
10
10
10
10
10
10
10
10
10
10
10
10
10
10
10
10
10
10
10
10
10
10
10
10
10
10
10
10
10
10
10
10
10
10
10
10
10
10
10
10
10
10
10
10
10
10
10
10
10
10
10
10
10
10
10
10
10
10
10
10
10
10
10
10
10
10
10
10
10
10
10
10
10
10
10
10
10
10
10
10
10
10
10
10
10
10
10
10
10
10
10
10
10
10
10
10
10
10
10
10
10
10
10
10
10
10
10
10
10
10
10
10
10
10
10
10
10
10
10
10
10
10
10
10
10
10
10
10
10
10
10
10
10
10
10
10
10
10
10
10
10
10
10
10
10
10
10
10
10
10
10
10
10
10
10
10
10
10
10
10
10
10
10
10
10
10
10
10
10
10
10
10
10
10
10
10
10
10
10
10
10
10
10
10
10
10
10
10
10
10
10
10
10
10
10
10
10
10
10
10
10
10
10
10
10
10
10
10
10
10
10
10
10
10
10
10
10
10
10
10
10
10
10
10
10
10
10
10
10
10
10
10
10
10
10
10
10
10
10
10
10
10
10
10
10
10
10
10
10
10
10
10
10
10
10
10
10
10
10
10
10
10
10
10
10
10
10
10
10
10
10
10
10
10
10
10
10
10
10
10
10
10
10
10
10
10
10
10
10
10
10
10
10
10
10
10
10
10
10
10
10
10
10
10
10
10
10
10
10
10
10
10
10
10
10
10
10
10
10
10
10
10
10
10
10
10
10
10
10
10
10
10
10
10
10
10
10
10
10
10
10
10
10
10
10
10
10
10
10
10
10
10
10
10
10
10
10
10
10
10
10
10
10
10
10
10
10
10
10
10
10
10
10
10
10
10
10
10
10
10
10
10
10
10
10
10
10
10
10
10
10
10
10
10
10
10
10
10
10
10
10
10
10
10
10
10
10
10
10
10
10
10
10
10
10
10
10
10
10
10
10
10
10
10
10
10
10
10
10
10
10
10
10
10
10
10
10
10
10
10
10
10
10
10
10
10
10
10
10
10
10
10
10
10
10
10
10
10
10
10
10
10
10
10
10
10
10
10
10
10
10
10
10
10
10
10
10
10
10
10
10
10
10
10
10
10
10
10
10
10
10
10
10
10
10
10
10
10
10
10
10
10
10
10
10
10
10
10
10
10
10
10
10
10
10
10
10
10
10
10
10
10
10
10
10
10
10
10
10
10
10
10
10
10
10
10
10
10
10
10
10
10
10
10
10
10
10
10
10
10
10
10
10
10
10
10
10
10
10
10
10
10
10
10
10
10
10
10
10
10
10
10
10
10
10
10
10
10
10
10
10
10
10
10
10
10
10
10
10
10
10
10
10
10
10
10
10
10
10
10
10
10
10
10
10
10
10
10
10
10
10
10
10
10
10
10
10
10
10
10
10
10
10
10
10
10
10
10
10
10
10
10
10
10
10
10
10
10
10
10
10
10
10
10
10
10
10
10
10
10
10
10
10
10
10
10
10
10
10
10
10
10
10
10
10
10
10
10
10
10
10
10
10
10
10
10
10
10
10
10
10
10
10
10
10
10
10
10
10
10
10
10
10
10
10
10
10
10
10
10
10
10
10
10
10
10
10
10
10
10
10
10
10
10
10
10
10
10
10
10
10
10
10
10
10
10
10
10
10
10
10
10
10
10
10
10
10
10
10
10
10
10
10
10
10
10
10
10
10
10
10
10
10
10
10
10
10
10
10
10
10
10
10
10
10
10
10
10
10
10
10
10
10
10
10
10
10
10
10
10
10
10
10
10
10
10
10
10
10
10
10
10
10
10
10
10
10
10
10
10
10
10
10
10
10
10
10
10
10
10
10
10
10
10
10
10
10
10
10
10
10
10
10
10
10
10
10
10
10
10
10
10
10
10
10
10
10
10
10
10
10
10
10
10
10
10
10
10
10
10
10
10
10
10
10
10
10
10
10
10
10
10
10
10
10
10
10
10
10
10
10
10
10
10
10
10
10
10
10
10
10
10
10
10
10
10
10
10
10
10
10
10
10
10
10
10
10
10
10
10
10
10
10
10
10
10
10
10
10
10
10
10
10
10
10
10
10
10
10
10
10
10
10
10
10
10
10
10
10
10
10
10
10
10
10
10
10
10
10
10
10
10
10
10
10
10
10
10
10
10
10
10
10
10
10
10
10
10
10
10
10
10
10
10
10
10
10
10
10
10
10
10
10
10
10
10
10
10
10
10
10
10
10
10
10
10
10
10
10
10
10
10
10
10
10
10
10
10
10
10
10
10
10
10
10
10
10
10
10
10
10
10
10
10
10
10
10
10
10
10
10
10
10
10
10
10
10
10
10
10
10
10
10
10
10
10
10
10
10
10
10
10
10
10
10
10
10
10
10
10
10
10
10
10
10
10
10
10
10
10
10
10
10
10
10
10
10
10
10
10
10
10
10
10
10
10
10
10
10
10
10
10
10
10
10
10
10
10
10
10
10
10
10
10
10
10
10
10
10
10
10
10
10
10
10
10
10
10
10
10
10
10
10
10
10
10
10
10
10
10
10
10
10
10
10
10
10
10
10
10
10
10
10
10
10
10
10
10
10
10
10
10
10
10
10
10
10
10
10
10
10
10
10
10
10
10
10
10
10
10
10
10
10
10
10
10
10
10
10
10
10
10
10
10
10
10
10
10
10
10
10
10
10
10
10
10
10
10
10
10
10
10
10
10
10
10
10
10
10
10
10
10
10
10
10
10
10
10
10
10
10
10
10
10
10
10
10
10
10
10
10
10
10
10
10
10
10
10
10
10
10
10
10
10
10
10
10
10
10
10
10
10
10
10
10
10
10
10
10
10
10
10
10
10
10
10
10
10
10
10
10
10
10
10
10
10
10
10
10
10
10
10
10
10
10
10
10
10
10
10
10
10
10
10
10
10
10
10
10
10
10
10
10
10
10
10
10
10
10
10
10
10
10
10
10
10
10
10
10
10
10
10
10
10
10
10
10
10
10
10
10
10
10
10
10
10
10
10
10
10
10
10
10
10
10
10
10
10
10
10
10
10
10
10
10
10
10
10
10
10
10
10
10
10
10
10
10
10
10
10
10
10
10
10
10
10
10
10
10
10
10
10
10
10
10
10
10
10
10
10
10
10
10
10
10
10
10
10
10
10
10
10
10
10
10
10
10
10
10
10
10
10
10
10
10
10
10
10
10
10
10
10
10
10
10
10
10
10
10
10
10
10
10
10
10
10
10
10
10
10
10
10
10
10
10
10
10
10
10
10
10
10
10
10
10
10
10
10
10
10
10
10
10
10
10
10
10
10
10
10
10
10
10
10
10
10
10
10
10
10
10
10
10
10
10
10
10
10
10
10
10
10
10
10
10
10
10
10
10
10
10
10
10
10
10
10
10
10
10
10
10
10
10
10
10
10
10
10
10
10
10
10
10
10
10
10
10
10
10
10
10
10
10
10
10
10
10
10
10
10
10
10
10
10
10
10
10
10
10
10
10
10
10
10
10
10
10
10
10
10
10
10
10
10
10
10
10
10
10
10
10
10
10
10
10
10
10
10
10
10
10
10
10
10
10
10
10
10
10
10
10
10
10
10
10
10
10
10
10
10
10
10
10
10
10
10
10
10
10
10
10
10
10
10
10
10
10
10
10
10
10
10
10
10
10
10
10
10
10
10
10
10
10
10
10
10
10
10
10
10
10
10
10
10
10
10
10
10
10
10
10
10
10
10
10
10
10
10
10
10
10
10
10
10
10
10
10
10
10
10
10
10
10
10
10
10
10
10
10
10
10
10
10
10
10
10
10
10
10
10
10
10
10
10
10
10
10
10
10
10
10
10
10
10
10
10
10
10
10
10
10
10
10
10
10
10
10
10
10
10
10
10
10
10
10
10
10
10
10
10
10
10
10
10
10
10
10
10
10
10
10
10
10
10
10
10
10
10
10
10
10
10
10
10
10
10
10
10
10
10
10
10
10
10
10
10
10
10
10
10
10
10
10
10
10
10
10
10
10
10
10
10
10
10
10
10
10
10
10
10
10
10
10
10
10
10
10
10
10
10
10
10
10
10
10
10
10
10
10
10
10
10
10
10
10
10
10
10
10
10
10
10
10
10
10
10
10
10
10
10
10
10
10
10
10
10
10
10
10
10
10
10
10
10
10
10
10
10
10
10
10
10
10
10
10
10
10
10
10
10
10
10
10
10
10
10
10
10
10
10
10
10
10
10
10
10
10
10
10
10
10
10
10
10
10
10
10
10
10
10
10
10
10
10
10
10
10
10
10
10
10
10
10
10
10
10
10
10
10
10
10
10
10
10
10
10
10
10
10
10
10
10
10
10
10
10
10
10
10
10
10
10
10
10
10
10
10
10
10
10
10
10
10
10
10
10
10
10
10
10
10
10
10
10
10
10
10
10
10
10
10
10
10
10
10
10
10
10
10
10
10
10
10
10
10
10
10
10
10
10
10
10
10
10
10
10
10
10
10
10
10
10
10
10
10
10
10
10
10
10
10
10
10
10
10
10
10
10
10
10
10
10
10
10
10
10
10
10
10
10
10
10
10
10
10
10
10
10
10
10
10
10
10
10
10
10
10
10
10
10
10
10
10
10
10
10
10
10
10
10
10
10
10
10
10
10
10
10
10
10
10
10
10
10
10
10
10
10
10
10
10
10
10
10
10
10
10
10
10
10
10
10
10
10
10
10
10
10
10
10
10
10
10
10
10
10
10
10
10
10
10
10
10
10
10
10
10
10
10
10
10
10
10
10
10
10
10
10
10
10
10
10
10
10
10
10
10
10
10
10
10
10
10
10
10
10
10
10
10
10
10
10
10
10
10
10
10
10
10
10
10
10
10
10
10
10
10
10
10
10
10
10
10
10
10
10
10
10
10
10
10
10
10
10
10
10
10
10
10
10
10
10
10
10
10
10
10
10
10
10
10
10
10
10
10
10
10
10
10
10
10
10
10
10
10
10
10
10
10
10
10
10
10
10
10
10
10
10
10
10
10
10
10
10
10
10
10
10
10
10
10
10
10
10
10
10
10
10
10
10
10
10
10
10
10
10
10
10
10
10
10
10
10
10
10
10
10
10
10
10
10
10
10
10
10
10
10
10
10
10
10
10
10
10
10
10
10
10
10
10
10
10
10
10
10
10
10
10
10
10
10
10
10
10
10
10
10
10
10
10
10
10
10
10
10
10
10
10
10
10
10
10
10
10
10
10
10
10
10
10
10
10
10
10
10
10
10
10
10
10
10
10
10
10
10
10
10
10
10
10
10
10
10
10
10
10
10
10
10
10
10
10
10
10
10
10
10
10
10
10
10
10
10
10
10
10
10
10
10
10
10
10
10
10
10
10
10
10
10
10
10
10
10
10
10
10
10
10
10
10
10
10
10
10
10
10
10
10
10
10
10
10
10
10
10
10
10
10
10
10
10
10
10
10
10
10
10
10
10
10
10
10
10
10
10
10
10
10
10
10
10
10
10
10
10
10
10
10
10
10
10
10
10
10
10
10
10
10
10
10
10
10
10
10
10
10
10
10
10
10
10
10
10
10
10
10
10
10
10
10
10
10
10
10
10
10
10
10
10
10
10
10
10
10
10
10
10
10
10
10
10
10
10
10
10
10
10
10
10
10
10
10
10
10
10
10
10
10
10
10
10
10
10
10
10
10
10
10
10
10
10
10
10
10
10
10
10
10
10
10
10
10
10
10
10
10
10
10
10
10
10
10
10
10
10
10
10
10
10
10
10
10
10
10
10
10
10
10
10
10
10
10
10
10
10
10
10
10
10
10
10
10
10
10
10
10
10
10
10
10
10
10
10
10
10
10
10
10
10
10
10
10
10
10
10
10
10
10
10
10
10
10
10
10
10
10
10
10
10
10
10
10
10
10
10
10
10
10
10
10
10
10
10
10
10
10
10
10
10
10
10
10
10
10
10
10
10
10
10
10
10
10
10
10
10
10
10
10
10
10
10
10
10
10
10
10
10
10
10
10
10
10
10
10
10
10
10
10
10
10
10
10
10
10
10
10
10
10
10
10
10
10
10
10
10
10
10
10
10
10
10
10
10
10
10
10
10
10
10
10
10
10
10
10
10
10
10
10
10
10
10
10
10
10
10
10
10
10
10
10
10
10
10
10
10
10
10
10
10
10
10
10
10
10
10
10
10
10
10
10
10
10
10
10
10
10
10
10
10
10
10
10
10
10
10
10
10
10
10
10
10
10
10
10
10
10
10
10
10
10
10
10
10
10
10
10
10
10
10
10
10
10
10
10
10
10
10
10
10
10
10
10
10
10
10
10
10
10
10
10
10
10
10
10
10
10
10
10
10
10
10
10
10
10
10
10
10
10
10
10
10
10
10
10
10
10
10
10
10
10
10
10
10
10
10
10
10
10
10
10
10
10
10
10
10
10
10
10
10
10
10
10
10
10
10
10
10
10
10
10
10
10
10
10
10
10
10
10
10
10
10
10
10
10
10
10
10
10
10
10
10
10
10
10
10
10
10
10
10
10
10
10
10
10
10
10
10
10
10
10
10
10
10
10
10
10
10
10
10
10
10
10
10
10
10
10
10
10
10
10
10
10
10
10
10
10
10
10
10
10
10
10
10
10
10
10
10
10
10
10
10
10
10
10
10
10
10
10
10
10
10
10
10
10
10
10
10
10
10
10
10
10
10
10
10
10
10
10
10
10
10
10
10
10
10
10
10
10
10
10
10
10
10
10
10
10
10
10
10
10
10
10
10
10
10
10
10
10
10
10
10
10
10
10
10
10
10
10
10
10
10
10
10
10
10
10
10
10
10
10
10
10
10
10
10
10
10
10
10
10
10
10
10
10
10
10
10
10
10
10
10
10
10
10
10
10
10
10
10
10
10
10
10
10
10
10
10
10
10
10
10
10
10
10
10
10
10
10
10
10
10
10
10
10
10
10
10
10
10
10
10
10
10
10
10
10
10
10
10
10
10
10
10
10
10
10
10
10
10
10
10
10
10
10
10
10
10
10
10
10
10
10
10
10
10
10
10
10
10
10
10
10
10
10
10
10
10
10
10
10
10
10
10
10
10
10
10
10
10
10
10
10
10
10
10
10
10
10
10
10
10
10
10
10
10
10
10
10
10
10
10
10
10
10
10
10
10
10
10
10
10
10
10
10
10
10
10
10
10
10
10
10
10
10
10
10
10
10
10
10
10
10
10
10
10
10
10
10
10
10
10
10
10
10
10
10
10
10
10
10
10
10
10
10
10
10
10
10
10
10
10
10
10
10
10
10
10
10
10
10
10
10
10
10
10
10
10
10
10
10
10
10
10
10
10
10
10
10
10
10
10
10
10
10
10
10
10
10
10
10
10
10
10
10
10
10
10
10
10
10
10
10
10
10
10
10
10
10
10
10
10
10
10
10
10
10
10
10
10
10
10
10
10
10
10
10
10
10
10
10
10
10
10
10
10
10
10
10
10
10
10
10
10
10
10
10
10
10
10
10
10
10
10
10
10
10
10
10
10
10
10
10
10
10
10
10
10
10
10
10
10
10
10
10
10
10
10
10
10
10
10
10
10
10
10
10
10
10
10
10
10
10
10
10
10
10
10
10
10
10
10
10
10
10
10
10
10
10
10
10
10
10
10
10
10
10
10
10
10
10
10
10
10
10
10
10
10
10
10
10
10
10
10
10
10
10
10
10
10
10
10
10
10
10
10
10
10
10
10
10
10
10
10
10
10
10
10
10
10
10
10
10
10
10
10
10
10
10
10
10
10
10
10
10
10
10
10
10
10
10
10
10
10
10
10
10
10
10
10
10
10
10
10
10
10
10
10
10
10
10
10
10
10
10
10
10
10
10
10
10
10
10
10
10
10
10
10
10
10
10
10
10
10
10
10
10
10
10
10
10
10
10
10
10
10
10
10
10
10
10
10
10
10
10
10
10
10
10
10
10
10
10
10
10
10
10
10
10
10
10
10
10
10
10
10
10
10
10
10
10
10
10
10
10
10
10
10
10
10
10
10
10
10
10
10
10
10
10
10
10
10
10
10
10
10
10
10
10
10
10
10
10
10
10
10
10
10
10
10
10
10
10
10
10
10
10
10
10
10
10
10
10
10
10
10
10
10
10
10
10
10
10
10
10
10
10
10
10
10
10
10
10
10
10
10
10
10
10
10
10
10
10
10
10
10
10
10
10
10
10
10
10
10
10
10
10
10
10
10
10
10
10
10
10
10
10
10
10
10
10
10
10
10
10
10
10
10
10
10
10
10
10
10
10
10
10
10
10
10
10
10
10
10
10
10
10
10
10
10
10
10
10
10
10
10
10
10
10
10
10
10
10
10
10
10
10
10
10
10
10
10
10
10
10
10
10
10
10
10
10
10
10
10
10
10
10
10
10
10
10
10
10
10
10
10
10
10
10
10
10
10
10
10
10
10
10
10
10
10
10
10
10
10
10
10
10
10
10
10
10
10
10
10
10
10
10
10
10
10
10
10
10
10
10
10
10
10
10
10
10
10
10
10
10
10
10
10
10
10
10
10
10
10
10
10
10
10
10
10
10
10
10
10
10
10
10
10
10
10
10
10
10
10
10
10
10
10
10
10
10
10
10
10
10
10
10
10
10
10
10
10
10
10
10
10
10
10
10
10
10
10
10
10
10
10
10
10
10
10
10
10
10
10
10
10
10
10
10
10
10
10
10
10
10
10
10
10
10
10
10
10
10
10
10
10
10
10
10
10
10
10
10
10
10
10
10
10
10
10
10
10
10
10
10
10
10
10
10
10
10
10
10
10
10
10
10
10
10
10
10
10
10
10
10
10
10
10
10
10
10
10
10
10
10
10
10
10
10
10
10
10
10
10
10
10
10
10
10
10
10
10
10
10
10
10
10
10
10
10
10
10
10
10
10
10
10
10
10
10
10
10
10
10
10
10
10
10
10
10
10
10
10
10
10
10
10
10
10
10
10
10
10
10
10
10
10
10
10
10
10
10
10
10
10
10
10
10
10
10
10
10
10
10
10
10
10
10
10
10
10
10
10
10
10
10
10
10
10
10
10
10
10
10
10
10
10
10
10
10
10
10
10
10
10
10
10
10
10
10
10
10
10
10
10
10
10
10
10
10
10
10
10
10
10
10
10
10
10
10
10
10
10
10
10
10
10
10
10
10
10
10
10
10
10
10
10
10
10
10
10
10
10
10
10
10
10
10
10
10
10
10
10
10
10
10
10
10
10
10
10
10
10
10
10
10
10
10
10
10
10
10
10
10
10
10
10
10
10
10
10
10
10
10
10
10
10
10
10
10
10
10
10
10
10
10
10
10
10
10
10
10
10
10
10
10
10
10
10
10
10
10
10
10
10
10
10
10
10
10
10
10
10
10
10
10
10
10
10
10
10
10
10
10
10
10
10
10
10
10
10
10
10
10
10
10
10
10
10
10
10
10
10
10
10
10
10
10
10
10
10
10
10
10
10
10
10
10
10
10
10
10
10
10
10
10
10
10
10
10
10
10
10
10
10
10
10
10
10
10
10
10
10
10
10
10
10
10
10
10
10
10
10
10
10
10
10
10
10
10
10
10
10
10
10
10
10
10
10
10
10
10
10
10
10
10
10
10
10
10
10
10
10
10
10
10
10
10
10
10
10
10
10
10
10
10
10
10
10
10
10
10
10
10
10
10
10
10
10
10
10
10
10
10
10
10
10
10
10
10
10
10
10
10
10
10
10
10
10
10
10
10
10
10
10
10
10
10
10
10
10
10
10
10
10
10
10
10
10
10
10
10
10
10
10
10
10
10
10
10
10
10
10
10
10
10
10
10
10
10
10
10
10
10
10
10
10
10
10
10
10
10
10
10
10
10
10
10
10
10
10
10
10
10
10
10
10
10
10
10
10
10
10
10
10
10
10
10
10
10
10
10
10
10
10
10
10
10
10
10
10
10
10
10
10
10
10
10
10
10
10
10
10
10
10
10
10
10
10
10
10
10
10
10
10
10
10
10
10
10
10
10
10
10
10
10
10
10
10
10
10
10
10
10
10
10
10
10
10
10
10
10
10
10
10
10
10
10
10
10
10
10
10
10
10
10
10
10
10
10
10
10
10
10
10
10
10
10
10
10
10
10
10
10
10
10
10
10
10
10
10
10
10
10
10
10
10
10
10
10
10
10
10
10
10
10
10
10
10
10
10
10
10
10
10
10
10
10
10
10
10
10
10
10
10
10
10
10
10
10
10
10
10
10
10
10
10
10
10
10
10
10
10
10
10
10
10
10
10
10
10
10
10
10
10
10
10
10
10
10
10
10
10
10
10
10
10
10
10
10
10
10
10
10
10
10
10
10
10
10
10
10
10
10
10
10
10
10
10
10
10
10
10
10
10
10
10
10
10
10
10
10
10
10
10
10
10
10
10
10
10
10
10
10
10
10
10
10
10
10
10
10
10
10
10
10
10
10
10
10
10
10
10
10
10
10
10
10
10
10
10
10
10
10
10
10
10
10
10
10
10
10
10
10
10
10
10
10
10
10
10
10
10
10
10
10
10
10
10
10
10
10
10
10
10
10
10
10
10
10
10
10
10
10
10
10
10
10
10
10
10
10
10
10
10
10
10
10
10
10
10
10
10
10
10
10
10
10
10
10
10
10
10
10
10
10
10
10
10
10
10
10
10
10
10
10
10
10
10
10
10
10
10
10
10
10
10
10
10
10
10
10
10
10
10
10
10
10
10
10
10
10
10
10
10
10
10
10
10
10
10
10
10
10
10
10
10
10
10
10
10
10
10
10
10
10
10
10
10
10
10
10
10
10
10
10
10
10
10
10
10
10
10
10
10
10
10
10
10
10
10
10
10
10
10
10
10
10
10
10
10
10
10
10
10
10
10
10
10
10
10
10
10
10
10
10
10
10
10
10
10
10
10
10
10
10
10
10
10
10
10
10
10
10
10
10
10
10
10
10
10
10
10
10
10
10
10
10
10
10
10
10
10
10
10
10
10
10
10
10
10
10
10
10
10
10
10
10
10
10
10
10
10
10
10
10
10
10
10
10
10
10
10
10
10
10
10
10
10
10
10
10
10
10
10
10
10
10
10
10
10
10
10
10
10
10
10
10
10
10
10
10
10
10
10
10
10
10
10
10
10
10
10
10
10
10
10
10
10
10
10
10
10
10
10
10
10
10
10
10
10
10
10
10
10
10
10
10
10
10
10
10
10
10
10
10
10
10
10
10
10
10
10
10
10
10
10
10
10
10
10
10
10
10
10
10
10
10
10
10
10
10
10
10
10
10
10
10
10
10
10
10
10
10
10
10
10
10
10
10
10
10
10
10
10
10
10
10
10
10
10
10
10
10
10
10
10
10
10
10
10
10
10
10
10
10
10
10
10
10
10
10
10
10
10
10
10
10
10
10
10
10
10
10
10
10
10
10
10
10
10
10
10
10
10
10
10
10
10
10
10
10
10
10
10
10
10
10
10
10
10
10
10
10
10
10
10
10
10
10
10
10
10
10
10
10
10
10
10
10
10
10
10
10
10
10
10
10
10
10
10
10
10
10
10
10
10
10
10
10
10
10
10
10
10
10
10
10
10
10
10
10
10
10
10
10
10
10
10
10
10
10
10
10
10
10
10
10
10
10
10
10
10
10
10
10
10
10
10
10
10
10
10
10
10
10
10
10
10
10
10
10
10
10
10
10
10
10
10
10
10
10
10
10
10
10
10
10
10
10
10
10
10
10
10
10
10
10
10
10
10
10
10
10
10
10
10
10
10
10
10
10
10
10
10
10
10
10
10
10
10
10
10
10
10
10
10
10
10
10
10
10
10
10
10
10
10
10
10
10
10
10
10
10
10
10
10
10
10
10
10
10
10
10
10
10
10
10
10
10
10
10
10
10
10
10
10
10
10
10
10
10
10
10
10
10
10
10
10
10
10
10
10
10
10
10
10
10
10
10
10
10
10
10
10
10
10
10
10
10
10
10
10
10
10
10
10
10
10
10
10
10
10
10
10
10
10
10
10
10
10
10
10
10
10
10
10
10
10
10
10
10
10
10
10
10
10
10
10
10
10
10
10
10
10
10
10
10
10
10
10
10
10
10
10
10
10
10
10
10
10
10
10
10
10
10
10
10
10
10
10
10
10
10
10
10
10
10
10
10
10
10
10
10
10
10
10
10
10
10
10
10
10
10
10
10
10
10
10
10
10
10
10
10
10
10
10
10
10
10
10
10
10
10
10
10
10
10
10
10
10
10
10
10
10
10
10
10
10
10
10
10
10
10
10
10
10
10
10
10
10
10
10
10
10
10
10
10
10
10
10
10
10
10
10
10
10
10
10
10
10
10
10
10
10
10
10
10
10
10
10
10
10
10
10
10
10
10
10
10
10
10
10
10
10
10
10
10
10
10
10
10
10
10
10
10
10
10
10
10
10
10
10
10
10
10
10
10
10
10
10
10
10
10
10
10
10
10
10
10
10
10
10
10
10
10
10
10
10
10
10
10
10
10
10
10
10
10
10
10
10
10
10
10
10
10
10
10
10
10
10
10
10
10
10
10
10
10
10
10
10
10
10
10
10
10
10
10
10
10
10
10
10
10
10
10
10
10
10
10
10
10
10
10
10
10
10
10
10
10
10
10
10
10
10
10
10
10
10
10
10
10
10
10
10
10
10
10
10
10
10
10
10
10
10
10
10
10
10
10
10
10
10
10
10
10
10
10
10
10
10
10
10
10
10
10
10
10
10
10
10
10
10
10
10
10
10
10
10
10
10
10
10
10
10
10
10
10
10
10
10
10
10
10
10
10
10
10
10
10
10
10
10
10
10
10
10
10
10
10
10
10
10
10
10
10
10
10
10
10
10
10
10
10
10
10
10
10
10
10
10
10
10
10
10
10
10
10
10
10
10
10
10
10
10
10
10
10
10
10
10
10
10
10
10
10
10
10
10
10
10
10
10
10
10
10
10
10
10
10
10
10
10
10
10
10
10
10
10
10
10
10
10
10
10
10
10
10
10
10
10
10
10
10
10
10
10
10
10
10
10
10
10
10
10
10
10
10
10
10
10
10
10
10
10
10
10
10
10
10
10
10
10
10
10
10
10
10
10
10
10
10
10
10
10
10
10
10
10
10
10
10
10
10
10
10
10
10
10
10
10
10
10
10
10
10
10
10
10
10
10
10
10
10
10
10
10
10
10
10
10
10
10
10
10
10
10
10
10
10
10
10
10
10
10
10
10
10
10
10
10
10
10
10
10
10
10
10
10
10
10
10
10
10
10
10
10
10
10
10
10
10
10
10
10
10
10
10
10
10
10
10
10
10
10
10
10
10
10
10
10
10
10
10
10
10
10
10
10
10
10
10
10
10
10
10
10
10
10
10
10
10
10
10
10
10
10
10
10
10
10
10
10
10
10
10
10
10
10
10
10
10
10
10
10
10
10
10
10
10
10
10
10
10
10
10
10
10
10
10
10
10
10
10
10
10
10
10
10
10
10
10
10
10
10
10
10
10
10
10
10
10
10
10
10
10
10
10
10
10
10
10
10
10
10
10
10
10
10
10
10
10
10
10
10
10
10
10
10
10
10
10
10
10
10
10
10
10
10
10
10
10
10
10
10
10
10
10
10
10
10
10
10
10
10
10
10
10
10
10
10
10
10
10
10
10
10
10
10
10
10
10
10
10
10
10
10
10
10
10
10
10
10
10
10
10
10
10
10
10
10
10
10
10
10
10
10
10
10
10
10
10
10
10
10
10
10
10
10
10
10
10
10
10
10
10
10
10
10
10
10
10
10
10
10
10
10
10
10
10
10
10
10
10
10
10
10
10
10
10
10
10
10
10
10
10
10
10
10
10
10
10
10
10
10
10
10
10
10
10
10
10
10
10
10
10
10
10
10
10
10
10
10
10
10
10
10
10
10
10
10
10
10
10
10
10
10
10
10
10
10
10
10
10
10
10
10
10
10
10
10
10
10
10
10
10
10
10
10
10
10
10
10
10
10
10
10
10
10
10
10
10
10
10
10
10
10
10
10
10
10
10
10
10
10
10
10
10
10
10
10
10
10
10
10
10
10
10
10
10
10
10
10
10
10
10
10
10
10
10
10
10
10
10
10
10
10
10
10
10
10
10
10
10
10
10
10
10
10
10
10
10
10
10
10
10
10
10
10
10
10
10
10
10
10
10
10
10
10
10
10
10
10
10
10
10
10
10
10
10
10
10
10
10
10
10
10
10
10
10
10
10
10
10
10
10
10
10
10
10
10
10
10
10
10
10
10
10
10
10
10
10
10
10
10
10
10
10
10
10
10
10
10
10
10
10
10
10
10
10
10
10
10
10
10
10
10
10
10
10
10
10
10
10
10
10
10
10
10
10
10
10
10
10
10
10
10
10
10
10
10
10
10
10
10
10
10
10
10
10
10
10
10
10
10
10
10
10
10
10
10
10
10
10
10
10
10
10
10
10
10
10
10
10
10
10
10
10
10
10
10
10
10
10
10
10
10
10
10
10
10
10
10
10
10
10
10
10
10
10
10
10
10
10
10
10
10
10
10
10
10
10
10
10
10
10
10
10
10
10
10
10
10
10
10
10
10
10
10
10
10
10
10
10
10
10
10
10
10
10
10
10
10
10
10
10
10
10
10
10
10
10
10
10
10
10
10
10
10
10
10
10
10
10
10
10
10
10
10
10
10
10
10
10
10
10
10
10
10
10
10
10
10
10
10
10
10
10
10
10
10
10
10
10
10
10
10
10
10
10
10
10
10
10
10
10
10
10
10
10
10
10
10
10
10
10
10
10
10
10
10
10
10
10
10
10
10
10
10
10
10
10
10
10
10
10
10
10
10
10
10
10
10
10
10
10
10
10
10
10
10
10
10
10
10
10
10
10
10
10
10
10
10
10
10
10
10
10
10
10
10
10
10
10
10
10
10
10
10
10
10
10
10
10
10
10
10
10
10
10
10
10
10
10
10
10
10
10
10
10
10
10
10
10
10
10
10
10
10
10
10
10
10
10
10
10
10
10
10
10
10
10
10
10
10
10
10
10
10
10
10
10
10
10
10
10
10
10
10
10
10
10
10
10
10
10
10
10
10
10
10
10
10
10
10
10
10
10
10
10
10
10
10
10
10
10
10
10
10
10
10
10
10
10
10
10
10
10
10
10
10
10
10
10
10
10
10
10
10
10
10
10
10
10
10
10
10
10
10
10
10
10
10
10
10
10
10
10
10
10
10
10
10
10
10
10
10
10
10
10
10
10
10
10
10
10
10
10
10
10
10
10
10
10
10
10
10
10
10
10
10
10
10
10
10
10
10
10
10
10
10
10
10
10
10
10
10
10
10
10
10
10
10
10
10
10
10
10
10
10
10
10
10
10
10
10
10
10
10
10
10
10
10
10
10
10
10
10
10
10
10
10
10
10
10
10
10
10
10
10
10
10
10
10
10
10
10
10
10
10
10
10
10
10
10
10
10
10
10
10
10
10
10
10
10
10
10
10
10
10
10
10
10
10
10
10
10
10
10
10
10
10
10
10
10
10
10
10
10
10
10
10
10
10
10
10
10
10
10
10
10
10
10
10
10
10
10
10
10
10
10
10
10
10
10
10
10
10
10
10
10
10
10
10
10
10
10
10
10
10
10
10
10
10
10
10
10
10
10
10
10
10
10
10
10
10
10
10
10
10
10
10
10
10
10
10
10
10
10
10
10
10
10
10
10
10
10
10
10
10
10
10
10
10
10
10
10
10
10
10
10
10
10
10
10
10
10
10
10
10
10
10
10
10
10
10
10
10
10
10
10
10
10
10
10
10
10
10
10
10
10
10
10
10
10
10
10
10
10
10
10
10
10
10
10
10
10
10
10
10
10
10
10
10
10
10
10
10
10
10
10
10
10
10
10
10
10
10
10
10
10
10
10
10
10
10
10
10
10
10
10
10
10
10
10
10
10
10
10
10
10
10
10
10
10
10
10
10
10
10
10
10
10
10
10
10
10
10
10
10
10
10
10
10
10
10
10
10
10
10
10
10
10
10
10
10
10
10
10
10
10
10
10
10
10
10
10
10
10
10
10
10
10
10
10
10
10
10
10
10
10
10
10
10
10
10
10
10
10
10
10
10
10
10
10
10
10
10
10
10
10
10
10
10
10
10
10
10
10
10
10
10
10
10
10
10
10
10
10
10
10
10
10
10
10
10
10
10
10
10
10
10
10
10
10
10
10
10
10
10
10
10
10
10
10
10
10
10
10
10
10
10
10
10
10
10
10
10
10
10
10
10
10
10
10
10
10
10
10
10
10
10
10
10
10
10
10
10
10
10
10
10
10
10
10
10
10
10
10
10
10
10
10
10
10
10
10
10
10
10
10
10
10
10
10
10
10
10
10
10
10
10
10
10
10
10
10
10
10
10
10
10
10
10
10
10
10
10
10
10
10
10
10
10
10
10
10
10
10
10
10
10
10
10
10
10
10
10
10
10
10
10
10
10
10
10
10
10
10
10
10
10
10
10
10
10
10
10
10
10
10
10
10
10
10
10
10
10
10
10
10
10
10
10
10
10
10
10
10
10
10
10
10
10
10
10
10
10
10
10
10
10
10
10
10
10
10
10
10
10
10
10
10
10
10
10
10
10
10
10
10
10
10
10
10
10
10
10
10
10
10
10
10
10
10
10
10
10
10
10
10
10
10
10
10
10
10
10
10
10
10
10
10
10
10
10
10
10
10
10
10
10
10
10
10
10
10
10
10
10
10
10
10
10
10
10
10
10
10
10
10
10
10
10
10
10
10
10
10
10
10
10
10
10
10
10
10
10
10
10
10
10
10
10
10
10
10
10
10
10
10
10
10
10
10
10
10
10
10
10
10
10
10
10
10
10
10
10
10
10
10
10
10
10
10
10
10
10
10
10
10
10
10
10
10
10
10
10
10
10
10
10
10
10
10
10
10
10
10
10
10
10
10
10
10
10
10
10
10
10
10
10
10
10
10
10
10
10
10
10
10
10
10
10
10
10
10
10
10
10
10
10
10
10
10
10
10
10
10
10
10
10
10
10
10
10
10
10
10
10
10
10
10
10
10
10
10
10
10
10
10
10
10
10
10
10
10
10
10
10
10
10
10
10
10
10
10
10
10
10
10
10
10
10
10
10
10
10
10
10
10
10
10
10
10
10
10
10
10
10
10
10
10
10
10
10
10
10
10
10
10
10
10
10
10
10
10
10
10
10
10
10
10
10
10
10
10
10
10
10
10
10
10
10
10
10
10
10
10
10
10
10
10
10
10
10
10
10
10
10
10
10
10
10
10
10
10
10
10
10
10
10
10
10
10
10
10
10
10
10
10
10
10
10
10
10
10
10
10
10
10
10
10
10
10
10
10
10
10
10
10
10
10
10
10
10
10
10
10
10
10
10
10
10
10
10
10
10
10
10
10
10
10
10
10
10
10
10
10
10
10
10
10
10
10
10
10
10
10
10
10
10
10
10
10
10
10
10
10
10
10
10
10
10
10
10
10
10
10
10
10
10
10
10
10
10
10
10
10
10
10
10
10
10
10
10
10
10
10
10
10
10
10
10
10
10
10
10
10
10
10
10
10
10
10
10
10
10
10
10
10
10
10
10
10
10
10
10
10
10
10
10
10
10
10
10
10
10
10
10
10
10
10
10
10
10
10
10
10
10
10
10
10
10
10
10
10
10
10
10
10
10
10
10
10
10
10
10
10
10
10
10
10
10
10
10
10
10
10
10
10
10
10
10
10
10
10
10
10
10
10
10
10
10
10
10
10
10
10
10
10
10
10
10
10
10
10
10
10
10
10
10
10
10
10
10
10
10
10
10
10
10
10
10
10
10
10
10
10
10
10
10
10
10
10
10
10
10
10
10
10
10
10
10
10
10
10
10
10
10
10
10
10
10
10
10
10
10
10
10
10
10
10
10
10
10
10
10
10
10
10
10
10
10
10
10
10
10
10
10
10
10
10
10
10
10
10
10
10
10
10
10
10
10
10
10
10
10
10
10
10
10
10
10
10
10
10
10
10
10
10
10
10
10
10
10
10
10
10
10
10
10
10
10
10
10
10
10
10
10
10
10
10
10
10
10
10
10
10
10
10
10
10
10
10
10
10
10
10
10
10
10
10
10
10
10
10
10
10
10
10
10
10
10
10
10
10
10
10
10
10
10
10
10
10
10
10
10
10
10
10
10
10
10
10
10
10
10
10
10
10
10
10
10
10
10
10
10
10
10
10
10
10
10
10
10
10
10
10
10
10
10
10
10
10
10
10
10
10
10
10
10
10
10
10
10
10
10
10
10
10
10
10
10
10
10
10
10
10
10
10
10
10
10
10
10
10
10
10
10
10
10
10
10
10
10
10
10
10
10
10
10
10
10
10
10
10
10
10
10
10
10
10
10
10
10
10
10
10
10
10
10
10
10
10
10
10
10
10
10
10
10
10
10
10
10
10
10
10
10
10
10
10
10
10
10
10
10
10
10
10
10
10
10
10
10
10
10
10
10
10
10
10
10
10
10
10
10
10
10
10
10
10
10
10
10
10
10
10
10
10
10
10
10
10
10
10
10
10
10
10
10
10
10
10
10
10
10
10
10
10
10
10
10
10
10
10
10
10
10
10
10
10
10
10
10
10
10
10
10
10
10
10
10
10
10
10
10
10
10
10
10
10
10
10
10
10
10
10
10
10
10
10
10
10
10
10
10
10
10
10
10
10
10
10
10
10
10
10
10
10
10
10
10
10
10
10
10
10
10
10
10
10
10
10
10
10
10
10
10
10
10
10
10
10
10
10
10
10
10
10
10
10
10
10
10
10
10
10
10
10
10
10
10
10
10
10
10
10
10
10
10
10
10
10
10
10
10
10
10
10
10
10
10
10
10
10
10
10
10
10
10
10
10
10
10
10
10
10
10
10
10
10
10
10
10
10
10
10
10
10
10
10
10
10
10
10
10
10
10
10
10
10
10
10
10
10
10
10
10
10
10
10
10
10
10
10
10
10
10
10
10
10
10
10
10
10
10
10
10
10
10
10
10
10
10
10
10
10
10
10
10
10
10
10
10
10
10
10
10
10
10
10
10
10
10
10
10
10
10
10
10
10
10
10
10
10
10
10
10
10
10
10
10
10
10
10
10
10
10
10
10
10
10
10
10
10
10
10
10
10
10
10
10
10
10
10
10
10
10
10
10
10
10
10
10
10
10
10
10
10
10
10
10
10
10
10
10
10
10
10
10
10
10
10
10
10
10
10
10
10
10
10
10
10
10
10
10
10
10
10
10
10
10
10
10
10
10
10
10
10
10
10
10
10
10
10
10
10
10
10
10
10
10
10
10
10
10
10
10
10
10
10
10
10
10
10
10
10
10
10
10
10
10
10
10
10
10
10
10
10
10
10
10
10
10
10
CELL_DATA 20058
SCALARS total_strain double 6
LOOKUP_TABLE default
-5.424843e-10 2.194180e-09 -2.465318e-10 -3.540324e-09 -5.963976e-11 -2.922109e-10
-2.490141e-09 2.677457e-09 -7.775602e-11 -2.633086e-09 -3.414548e-10 2.760436e-11
8.865877e-10 1.213744e-09 -5.143597e-10 -3.057333e-09 -2.678620e-10 -4.127118e-10
-1.079137e-11 1.451382e-09 -3.173588e-10 -3.320938e-09 -2.082386e-10 1.712561e-10
-1.891427e-09 2.482579e-09 -2.499210e-10 -2.444228e-09 -2.375444e-10 -5.560952e-11
-1.105068e-09 1.992423e-09 -2.827208e-10 -3.320519e-09 -3.900102e-10 -1.426773e-10
-1.728098e-10 1.613044e-09 -2.966389e-10 -2.726719e-09 -2.686843e-10 -1.173502e-10
-2.642883e-09 -2.289319e-08 4.984767e-09 1.184936e-08 1.429639e-09 9.557797e-11
-7.377997e-09 -2.166382e-08 6.310930e-09 1.576015e-08 3.677343e-09 -1.727778e-10
-3.005070e-09 -2.219964e-08 6.197408e-09 1.117082e-08 2.624281e-09 -2.364220e-10
-8.522549e-09 -1.356899e-08 6.062189e-09 1.141532e-08 2.387684e-09 -7.396906e-10
-6.753728e-09 -2.043135e-08 5.811223e-09 1.380934e-08 3.658161e-09 -1.252272e-09
-4.371403e-09 -2.059891e-08 6.208436e-09 1.221448e-08 1.653948e-09 2.178274e-10
1.017389e-08 -5.489053e-09 -1.316604e-09 -1.640074e-10 2.688152e-11 1.616919e-10
9.286118e-09 -5.674310e-09 -1.379791e-09 2.303891e-10 -2.843607e-12 -1.431093e-10
9.401503e-09 -5.527086e-09 -1.258631e-09 3.662981e-10 1.524668e-10 -2.047407e-11
-2.064141e-09 -1.791104e-08 5.216142e-09 -4.843955e-09 -3.114535e-10 -1.089814e-09
-7.081379e-09 -6.213178e-09 4.376504e-10 1.825053e-09 -2.437966e-10 1.710234e-10
-1.288556e-09 -1.820741e-08 5.369208e-09 -2.903606e-09 -6.878408e-11 2.188045e-10
6.245660e-11 -1.791455e-08 5.251488e-09 -4.844512e-09 -3.220211e-10 -7.134746e-10
1.534691e-09 -1.827649e-08 5.569355e-09 -2.600320e-09 -1.032371e-10 -5.801761e-10
9.236036e-10 -2.181244e-08 5.573347e-09 -4.072249e-09 -1.140145e-10 -5.820929e-10
-4.515874e-09 4.302227e-09 1.309797e-10 -1.962624e-09 -2.055673e-10 -1.420278e-10
-7.749559e-09 2.760587e-08 -1.573686e-08 -4.538751e-09 7.942920e-09 -1.047068e-08
-3.656458e-09 3.624477e-09 1.280007e-10 -1.681486e-09 -1.376147e-10 9.334178e-11
-5.558400e-09 4.422752e-09 1.997966e-10 -1.481438e-09 -7.597622e-11 -2.254155e-10
-5.261057e-09 4.366796e-09 2.473532e-10 -1.392098e-09 -1.202412e-10 -1.907390e-10
-4.437289e-09 4.414414e-09 2.506360e-10 -1.110016e-09 -7.046830e-11 -9.910894e-11
-4.737063e-09 4.390607e-09 2.285399e-10 -1.126814e-09 -7.430079e-11 1.255307e-10
-8.940992e-10 2.353419e-09 -4.330174e-10 -2.235118e-09 -4.466811e-10 -3.215839e-11
-1.536762e-10 1.316941e-09 -2.822267e-10 -1.455972e-09 -5.703216e-11 1.091931e-10
-7.412071e-10 9.404848e-10 -4.568044e-10 -2.440134e-09 -1.311752e-10 1.059422e-10
7.891836e-09 -2.824649e-08 -4.392664e-09 7.107739e-09 -7.051615e-09 1.222307e-09
9.153579e-09 -2.689464e-08 -3.989888e-09 4.829612e-09 -2.371654e-09 1.038116e-09
7.800167e-09 -2.913042e-08 -3.285577e-09 6.779575e-09 -3.711543e-09 1.483222e-09
7.790977e-09 -4.304400e-09 -1.212504e-09 -1.602079e-09 -1.231748e-10 5.530524e-10
8.461024e-09 -4.133321e-09 -1.248596e-09 -1.376637e-09 -6.929902e-12 1.594316e-10
7.375503e-09 -3.794165e-09 -1.092003e-09 -1.852103e-09 -2.010639e-10 1.428989e-10
5.470438e-09 -3.222179e-09 -1.078253e-09 -1.706654e-09 -1.054251e-10 -6.290957e-11
-5.565321e-09 3.187229e-09 9.209660e-10 4.500913e-10 7.790690e-11 4.113763e-10
7.907954e-09 -4.099097e-09 -1.164655e-09 -1.331656e-09 -1.592680e-10 5.623146e-10
2.602224e-10 3.205097e-09 -3.286009e-08 1.004644e-08 -1.295210e-08 8.861249e-09
6.383061e-09 -3.123359e-09 -1.209446e-09 -1.776709e-09 -3.169635e-11 -5.337508e-11
-7.860275e-09 3.063637e-09 1.524692e-09 5.216643e-10 1.989555e-10 -1.636773e-10
-7.918163e-09 3.242490e-09 1.442035e-09 4.403260e-10 4.706813e-11 -1.503669e-10
-7.637202e-09 3.176530e-09 1.343625e-09 3.602500e-10 1.136279e-10 1.831200e-12
-8.018776e-09 3.470696e-09 1.432773e-09 5.608318e-10 1.698448e-10 -1.967588e-10
-8.103473e-09 3.586273e-09 1.402952e-09 3.214544e-10 -7.970097e-12 -3.533981e-12
4.987470e-08 -1.561712e-09 -1.134413e-09 1.987587e-08 5.300923e-09 4.726328e-09
1.081771e-08 -3.994641e-08 8.436428e-09 9.470225e-10 2.217469e-16 -1.571747e-10
6.675481e-08 -1.343975e-08 1.093536e-09 1.836072e-08 4.298431e-09 1.710472e-08
3.263055e-08 -1.296213e-09 -1.059341e-08 2.057445e-08 -2.263357e-09 8.923439e-10
4.872259e-08 -1.577845e-09 -2.982884e-09 2.083419e-08 7.447735e-09 8.215846e-09
5.527080e-08 -2.934256e-09 -2.881866e-09 2.880096e-08 7.529242e-09 1.555238e-08
6.999413e-09 1.704192e-08 -4.371780e-08 6.326664e-09 -5.457569e-09 3.094851e-09
6.526166e-08 -2.128661e-08 2.073947e-09 -7.959063e-09 -2.769471e-10 4.668972e-09
6.338857e-08 -3.017065e-08 9.662702e-09 1.708931e-09 2.772714e-10 1.317113e-09
6.215041e-08 -2.548970e-08 -1.290212e-10 -4.341044e-09 3.083082e-09 1.737845e-09
6.479665e-08 -2.879135e-08 7.520984e-09 -6.249708e-09 -1.506496e-09 1.045240e-09
6.477048e-08 -3.029609e-08 7.551198e-09 2.142943e-10 1.687846e-09 1.069294e-09
6.596678e-08 -2.828551e-08 1.028411e-08 -5.038826e-09 7.210822e-10 2.887667e-09
4.469338e-08 -1.029347e-08 8.556282e-09 -2.287582e-08 -5.713470e-09 1.259376e-08
3.473310e-08 -8.140090e-09 9.970639e-09 -1.827449e-08 -4.056042e-09 7.648620e-09
3.464110e-08 -6.533431e-09 2.953954e-09 -1.813641e-08 -9.505693e-10 9.078400e-09
6.825788e-08 -2.479216e-08 9.837827e-09 -1.500892e-08 -1.090077e-09 2.505813e-08
6.592069e-08 -2.469410e-08 3.409180e-08 -1.503430e-08 -2.698444e-09 2.324122e-08
4.889731e-08 -1.286333e-08 8.745320e-09 -2.243105e-08 -6.529528e-09 6.588899e-09
4.856720e-08 -1.527442e-08 1.598860e-08 -2.347747e-08 -8.047518e-09 4.921661e-09
3.992834e-10 1.976850e-08 -8.113043e-09 -1.052563e-08 1.009702e-09 -4.507739e-09
2.060315e-08 1.932938e-08 -3.698420e-09 -1.436346e-08 -4.378430e-10 5.061036e-09
2.993001e-08 5.808900e-09 -2.181633e-09 -1.400785e-08 -2.285791e-09 7.126968e-09
2.543674e-09 1.248511e-08 -2.674784e-09 -8.360570e-09 -6.715069e-10 2.235904e-11
1.636942e-08 4.727953e-09 -5.011402e-09 -1.006766e-08 -4.664843e-10 9.269166e-10
-3.819075e-09 3.831977e-09 6.843948e-11 -1.124941e-09 -1.293398e-10 1.088511e-10
-3.329724e-09 3.682758e-09 1.536660e-11 -1.462922e-09 -2.451332e-10 -8.750692e-11
-2.027233e-09 3.067039e-09 -1.807383e-10 -1.483971e-09 -2.085568e-10 -1.285534e-10
-3.216838e-09 2.939564e-09 -9.288748e-11 -1.007816e-09 -2.393048e-10 -1.107849e-10
-4.227129e-09 2.426578e-09 5.611027e-10 1.443812e-10 1.599734e-10 -8.521009e-11
-4.853254e-09 2.856817e-09 6.123322e-10 3.891110e-11 1.152125e-10 4.535261e-11
-2.760937e-09 1.704996e-08 -2.835235e-08 4.121541e-09 -3.060593e-09 2.118467e-09
-5.139450e-09 2.900224e-09 6.801577e-10 3.499683e-10 1.849101e-10 2.118125e-10
-4.858348e-09 2.943475e-09 5.851641e-10 5.454310e-10 1.463705e-10 -4.204503e-11
-4.541581e-09 2.596946e-09 5.966494e-10 9.322529e-10 2.242939e-10 1.760230e-10
-4.093440e-09 2.100521e-09 5.649168e-10 5.020557e-10 1.218012e-10 2.266942e-11
-1.794633e-08 2.222748e-08 6.040883e-09 7.043836e-09 -5.072830e-09 -1.249018e-09
-4.386244e-09 3.055763e-09 5.833347e-10 8.462999e-10 1.238227e-10 -5.637713e-11
-8.249155e-09 1.485211e-08 -2.060449e-08 2.851091e-10 -3.370046e-09 3.802747e-09
-8.792110e-09 -1.682856e-08 5.330464e-09 8.649326e-09 1.622013e-09 -5.880021e-10
-1.156717e-08 -1.369769e-08 5.942161e-09 6.770173e-09 8.330127e-10 -5.283447e-10
-1.154196e-08 -1.201192e-08 5.133220e-09 7.135165e-09 1.604643e-09 -6.113453e-10
-1.327954e-08 -1.404442e-08 6.007971e-09 9.590812e-09 2.596558e-09 -2.284328e-10
-8.486930e-09 -1.339218e-08 3.119109e-09 1.126773e-08 3.215935e-09 -6.580487e-10
-2.633226e-09 3.144182e-09 -1.478426e-10 -2.207390e-09 -2.181384e-10 -2.332996e-10
-3.326056e-09 3.547071e-09 3.209566e-11 -1.437755e-09 -1.869876e-10 -1.094961e-10
-3.470255e-09 3.348482e-09 1.083267e-11 -9.236976e-10 6.697228e-11 -3.199618e-11
-2.677162e-09 2.795224e-09 -9.049206e-11 -1.340404e-09 -2.777938e-10 -1.300590e-10
-2.523139e-09 2.830832e-09 -1.477987e-10 -2.244774e-09 -4.715250e-11 -3.163063e-10
-2.901461e-09 3.184491e-09 -1.464695e-11 -1.348848e-09 -2.999156e-12 -2.988723e-10
-1.866253e-08 3.864466e-09 9.127679e-10 -8.771817e-09 -8.091770e-09 -2.320106e-09
-1.912497e-08 1.100113e-08 -2.721663e-09 -5.594303e-09 -5.653090e-09 -1.646106e-09
-1.742865e-08 -4.717293e-10 9.378720e-12 -8.197764e-09 -8.119051e-09 -2.733178e-09
-1.735458e-08 3.960604e-09 -1.679083e-09 -8.414230e-09 -8.092339e-09 -2.082937e-09
-1.851101e-08 7.186413e-09 -4.058669e-09 -8.889026e-09 -7.922061e-09 -3.397297e-09
6.658224e-08 -2.007024e-08 -6.842965e-09 -1.060301e-09 2.561064e-10 4.545477e-09
6.663116e-08 -2.005825e-08 -1.157388e-09 -1.426380e-09 8.066289e-10 2.502449e-09
1.169322e-08 1.218153e-08 -5.521806e-09 2.107326e-09 4.920952e-09 1.153641e-10
7.357238e-08 -1.980487e-08 -8.938945e-09 -2.753241e-09 -6.199507e-10 9.641364e-09
7.284862e-08 -1.430964e-08 -1.175833e-08 5.592768e-09 4.030492e-09 1.292527e-08
6.280531e-08 -1.242661e-08 -3.318970e-09 -5.557380e-11 9.683810e-10 5.030606e-09
6.033090e-08 -1.648562e-08 -5.068319e-09 3.917102e-09 -1.446598e-10 5.474664e-09
-1.394732e-08 -8.939601e-09 4.242879e-09 3.044145e-09 2.535044e-09 -1.217733e-09
-1.196703e-08 -9.143979e-09 1.595314e-09 5.647875e-09 1.938484e-09 -1.263981e-09
-1.176951e-08 -8.853529e-09 4.584535e-09 6.570743e-09 3.660508e-09 -2.361192e-10
-2.147856e-08 2.212713e-08 -1.135803e-10 5.926767e-09 1.283687e-09 2.512175e-09
-8.875943e-09 -1.678294e-08 4.737453e-09 7.271230e-09 2.185090e-09 -9.199448e-10
-1.163734e-08 -1.348068e-08 5.304978e-09 3.546960e-09 2.078641e-09 2.926014e-10
-5.286414e-09 2.891497e-09 7.096141e-10 7.325531e-10 1.251748e-10 2.150374e-10
-5.567096e-09 3.203420e-09 7.239940e-10 5.707976e-10 7.913137e-11 -1.018852e-12
-3.960480e-09 2.141846e-09 5.713860e-10 4.032872e-10 1.907279e-10 -3.049307e-10
-6.186207e-09 3.290694e-09 7.339396e-10 3.800220e-10 1.617924e-10 -1.687674e-10
-4.917715e-09 2.849020e-09 7.366319e-10 8.136576e-10 9.185896e-11 -2.456799e-10
-5.285029e-09 2.990309e-09 8.059198e-10 9.654338e-10 1.916442e-10 -1.134399e-10
-4.173241e-09 2.551650e-08 -2.160848e-08 -2.730130e-08 4.115242e-09 6.118028e-09
-1.446043e-09 2.796355e-08 3.546103e-09 -2.991730e-08 2.637768e-09 3.860696e-09
1.688910e-09 2.108801e-08 4.382582e-09 -2.940214e-08 4.633162e-09 9.841783e-10
-2.612225e-09 3.308739e-09 6.703260e-11 -4.840095e-09 2.966527e-11 1.496325e-10
9.580542e-09 1.480936e-08 2.389416e-09 -3.229521e-08 4.487648e-09 6.460839e-10
3.555215e-10 2.030267e-08 1.847212e-09 -3.025329e-08 3.056025e-09 3.823282e-09
8.018212e-09 -4.347580e-09 -1.237551e-09 -9.288763e-10 -1.805962e-10 -5.829115e-12
8.677326e-09 -4.793520e-09 -1.219876e-09 -9.369918e-10 -7.271123e-11 1.660108e-10
7.044161e-09 -3.974043e-09 -1.131203e-09 -1.737579e-09 -1.042173e-10 -2.298329e-10
8.880080e-09 -4.944132e-09 -1.286068e-09 -1.332547e-09 -8.739609e-11 -3.670162e-11
8.566552e-09 -3.950561e-09 -1.243214e-09 -1.897262e-09 -2.943432e-10 6.834105e-11
8.355794e-09 -4.894193e-09 -1.173519e-09 -1.182202e-09 -2.287780e-10 6.782083e-11
-1.065097e-08 5.361344e-09 -1.920593e-09 -2.473204e-09 -4.499157e-10 -3.693197e-10
-1.038944e-08 3.618896e-09 9.038503e-11 -1.995289e-09 -2.615752e-10 -3.246485e-10
-1.047983e-08 4.934351e-09 -7.711960e-10 -2.802202e-09 -9.546715e-10 1.744487e-10
-1.056081e-08 3.585150e-09 5.392966e-10 -2.073704e-09 -1.420850e-10 -1.442029e-10
9.566977e-09 -5.341338e-09 -1.337567e-09 1.916553e-10 3.617945e-11 1.742029e-11
9.453053e-09 -5.402924e-09 -1.300487e-09 3.712535e-10 2.343051e-11 1.821854e-10
8.836903e-09 -5.228994e-09 -1.301707e-09 8.979677e-10 -1.578551e-11 -8.574647e-11
1.005288e-08 -5.726021e-09 -1.405704e-09 1.058056e-09 -6.850354e-12 -1.933363e-10
1.018804e-08 -5.874925e-09 -1.325867e-09 4.414504e-10 1.575428e-10 1.449401e-10
9.678371e-09 -5.479457e-09 -1.349180e-09 1.650644e-10 -5.809461e-11 1.383109e-10
9.398430e-09 -5.418391e-09 -1.318942e-09 -8.717302e-11 2.888609e-11 1.185270e-10
9.628994e-09 -5.640959e-09 -1.344559e-09 1.328555e-10 9.800963e-11 8.955947e-12
1.068595e-08 -5.653614e-09 -1.297025e-09 9.492507e-11 7.437662e-11 2.855417e-10
-1.342728e-09 3.144627e-08 -4.297209e-08 -3.146498e-09 -5.171909e-09 3.442209e-09
-4.036279e-09 2.394626e-09 6.012708e-10 6.093637e-10 -2.686984e-11 7.066192e-11
-4.329208e-09 2.431979e-09 6.329408e-10 1.425133e-09 1.783531e-10 -2.154561e-10
-4.144693e-09 2.222025e-09 5.055059e-10 1.383353e-09 9.776612e-13 -3.164993e-10
-4.567157e-09 2.557464e-09 6.243481e-10 8.270358e-10 2.495337e-12 -2.726022e-10
-5.149204e-09 2.774811e-09 6.008984e-10 1.117455e-09 1.146632e-10 -8.268408e-11
-4.887875e-09 2.809231e-09 6.845586e-10 9.732505e-10 1.471396e-10 -9.224127e-11
4.314235e-09 -1.007894e-08 -2.268229e-08 -2.370059e-08 4.466710e-09 1.004631e-09
-8.897711e-09 6.155989e-09 -1.076109e-08 -2.057058e-08 4.479732e-09 3.185748e-09
-1.755196e-08 1.048965e-08 -5.123797e-09 -9.286734e-09 2.910228e-11 2.564954e-10
-8.630361e-09 -1.964190e-09 -1.085291e-08 -2.053475e-08 3.302657e-09 3.336132e-09
2.551074e-10 -8.056471e-09 -1.561286e-08 -2.297323e-08 6.194507e-10 -1.416350e-09
-5.407844e-09 -3.396730e-09 -1.198021e-08 -2.133509e-08 4.420906e-09 3.548910e-09
1.370577e-08 -2.919766e-08 -1.383356e-08 -1.192330e-08 -7.971678e-09 -1.178434e-09
9.152343e-09 -2.972135e-08 -8.634198e-09 -7.769076e-09 -6.258686e-09 -1.341467e-09
9.332374e-09 -2.501897e-08 -1.334190e-08 -9.056788e-09 -7.003860e-09 -2.247540e-10
1.047838e-08 -2.162674e-08 -2.051642e-08 -1.400811e-08 -5.203569e-09 -2.188788e-09
9.351422e-09 -2.492556e-08 -7.872949e-09 -9.012887e-09 -3.084583e-09 1.115102e-09
5.971200e-09 -2.352688e-08 -1.135866e-08 -9.378989e-09 -3.664245e-09 -2.331996e-09
-4.900036e-10 1.808663e-09 -3.665868e-10 -2.756883e-09 -3.981611e-10 -2.273892e-10
-5.733831e-10 1.609606e-09 -2.566616e-10 -1.678552e-09 7.013945e-12 -1.154017e-10
6.966434e-10 1.315762e-09 -4.166942e-10 -2.185019e-09 -6.621237e-11 1.594475e-11
7.677032e-10 7.729213e-10 -5.402878e-10 -2.563183e-09 -3.278815e-10 -1.954938e-10
-1.581397e-08 1.058146e-09 -7.863479e-09 -8.188039e-09 -5.361477e-09 -2.883478e-09
-1.602738e-08 7.298088e-09 -9.932163e-09 -7.404250e-09 -5.430199e-09 -1.504309e-09
-1.691844e-08 4.452158e-09 -5.471356e-09 -5.505713e-09 -2.451349e-09 -1.275873e-09
-1.344782e-08 2.371964e-09 -7.894504e-09 -9.182994e-09 -1.692484e-10 3.168710e-10
-4.015200e-09 4.211391e-09 3.610667e-11 -4.110844e-10 -1.078313e-10 -7.793412e-11
-3.721328e-09 3.630587e-09 1.393330e-11 -1.268307e-09 -2.541403e-10 -4.753148e-11
-3.878879e-09 4.205841e-09 -1.971301e-11 -7.651433e-10 -1.027772e-10 -1.567967e-10
-9.208471e-09 2.117128e-08 -3.495268e-08 -1.565856e-08 -2.868700e-09 -2.002123e-09
-4.727191e-09 4.322788e-09 3.599299e-11 -8.872458e-10 -9.456269e-11 -2.028675e-10
3.053930e-09 -2.297865e-08 5.817496e-09 -5.998490e-09 8.119443e-10 -3.800619e-10
6.106109e-09 -3.073598e-08 5.943335e-09 -5.696250e-09 -2.285805e-10 -6.569671e-11
3.556885e-09 -2.426322e-08 4.568853e-09 -6.796318e-09 1.630478e-09 -1.165008e-10
5.966858e-09 -2.564463e-08 4.566117e-09 -6.963639e-09 2.096283e-10 -2.324965e-10
5.961941e-09 -2.789252e-08 5.332917e-09 -6.434864e-09 1.080514e-09 -7.415314e-11
4.528352e-09 -2.393371e-09 -7.848362e-10 1.830713e-09 1.095593e-10 5.492069e-10
-1.259973e-08 -1.049620e-08 1.560278e-09 -6.871899e-09 -3.964401e-09 -1.690030e-09
-7.684684e-09 -8.268024e-09 3.690060e-09 -1.011330e-08 -1.385425e-09 -1.844875e-09
-7.793650e-09 -1.140664e-08 1.040415e-09 -5.923151e-09 -2.233190e-09 -1.653883e-09
-1.181760e-08 -6.487083e-09 4.032245e-09 -4.925894e-09 -3.535390e-09 4.619769e-11
-1.201965e-08 -1.100600e-08 3.652870e-09 -7.354744e-09 -4.645314e-09 -5.702016e-10
-7.636420e-09 -1.948006e-08 -2.119382e-09 -8.840010e-09 -7.988055e-09 -2.664764e-09
-4.027836e-09 2.068986e-09 3.947043e-10 5.473617e-10 2.325020e-10 1.193672e-10
-8.621736e-09 6.799876e-09 -1.862956e-09 -6.855866e-09 -2.638360e-10 -6.779595e-10
-7.583280e-09 8.050024e-09 -2.489727e-09 -9.026060e-09 -1.452918e-09 1.094608e-09
-1.034497e-08 6.506420e-09 -2.652381e-09 -4.703495e-09 -9.373170e-10 6.786034e-10
-8.213028e-09 7.340596e-09 -2.752041e-09 -6.270903e-09 -3.678366e-10 -3.390932e-10
-8.649486e-09 9.218788e-09 -3.135337e-09 -8.329704e-09 -1.166413e-09 1.565092e-09
-1.430929e-07 -6.077963e-08 3.168410e-07 -1.210626e-08 -1.995761e-08 -1.162351e-09
-9.899311e-08 -1.367110e-08 2.479409e-07 -3.691787e-08 -4.454791e-08 6.615785e-09
-1.285877e-07 -6.776020e-08 3.129713e-07 4.779871e-09 -1.140215e-08 -2.721367e-09
-1.230710e-07 -1.630842e-08 3.943463e-07 1.981286e-08 -5.290473e-08 -2.189050e-08
-1.203792e-07 -4.354217e-08 3.120172e-07 -9.343136e-09 -2.116356e-08 3.337705e-09
-2.254768e-08 1.264373e-08 -2.785698e-09 1.144017e-08 7.830232e-09 -3.817548e-09
-2.423079e-08 1.313581e-08 -2.692015e-09 1.101389e-08 7.608886e-09 -3.735671e-09
-2.565947e-08 1.558802e-08 -5.567442e-09 2.332438e-08 1.034741e-08 -8.499943e-09
1.425642e-10 -1.162892e-10 3.217249e-11 2.181088e-09 3.305947e-10 -9.958256e-12
-2.545824e-08 2.431303e-08 -1.138801e-08 1.952657e-08 1.192162e-08 -1.216226e-08
-2.317508e-08 1.573207e-08 -2.780131e-09 8.878889e-09 6.762933e-09 -2.535412e-09
-2.094572e-08 2.392521e-08 -8.535694e-09 6.250135e-09 8.455214e-09 -6.206189e-09
6.175619e-09 -2.872617e-09 -8.168266e-10 3.923439e-09 -8.968928e-11 4.803191e-11
6.721453e-09 -3.611648e-09 -8.872787e-10 3.657988e-09 -1.710935e-10 -2.858269e-10
5.850681e-09 -2.886541e-09 -7.939267e-10 2.837964e-09 -1.305138e-10 -4.253731e-11
4.709392e-09 -2.378702e-09 -6.280638e-10 3.390254e-09 -6.684144e-11 1.238853e-11
2.816002e-09 -2.527130e-08 -3.932128e-09 4.810722e-09 -2.062243e-09 9.468131e-10
-1.847372e-09 -1.483708e-08 -4.260648e-09 6.026473e-09 -1.322341e-09 1.280429e-09
2.486886e-09 -1.831448e-08 -2.814533e-09 4.486427e-09 -1.455879e-09 1.219426e-10
-1.901827e-08 3.101243e-08 -1.401228e-08 -1.665519e-08 6.767291e-09 6.428695e-09
-1.530158e-09 -1.372004e-08 -1.022553e-08 8.559676e-09 -4.313655e-09 1.824300e-09
-1.688342e-09 -1.356846e-08 -6.641783e-09 8.462392e-09 -5.456491e-09 3.611496e-09
2.855332e-09 -1.950731e-08 -5.615422e-09 5.136747e-09 3.768694e-10 -7.728151e-10
5.464692e-09 -2.176773e-08 -4.732154e-09 7.491700e-09 -4.197661e-09 3.321742e-09
2.555116e-09 -2.771080e-08 -1.050252e-09 8.560614e-09 -5.685972e-09 3.790327e-09
3.830674e-09 -2.071647e-08 -5.811737e-09 8.641563e-09 -5.623455e-09 1.404318e-09
-7.421501e-09 3.029783e-09 1.395026e-09 7.544519e-10 5.099787e-11 7.704628e-12
-7.444488e-09 3.121094e-09 1.340457e-09 9.338381e-10 1.071525e-10 -2.093185e-10
-7.454254e-09 2.901850e-09 1.378420e-09 4.178432e-10 6.906242e-11 -6.722614e-11
4.712025e-09 -2.378605e-09 -6.924950e-10 3.390846e-09 7.934080e-11 4.420064e-10
3.841294e-09 -1.925080e-09 -6.010863e-10 2.614384e-09 1.246871e-10 -4.617251e-10
4.024812e-09 -1.825276e-09 -5.168119e-10 3.832327e-09 2.252483e-10 4.567182e-10
7.387024e-09 -3.612163e-09 -1.197919e-09 -2.176137e-09 -8.466539e-11 5.490830e-11
7.282546e-09 -3.871408e-09 -1.126625e-09 -2.349694e-09 -2.884712e-10 -2.946332e-11
8.952545e-09 -4.376039e-09 -1.250044e-09 -2.543190e-09 -1.836360e-10 1.858893e-10
7.437798e-09 -3.444663e-09 -1.270187e-09 -2.297485e-09 1.200136e-10 1.604483e-11
8.130586e-09 -4.180856e-09 -1.217521e-09 -1.053939e-09 1.924749e-11 -3.091951e-10
9.341742e-09 -4.839221e-09 -1.339399e-09 -1.255070e-09 -5.124740e-11 1.911652e-10
8.960058e-09 -5.073669e-09 -1.287197e-09 -1.568537e-09 -2.262590e-11 -4.249290e-11
3.735311e-08 -6.139369e-09 2.590649e-08 3.352574e-08 1.746439e-09 1.675788e-08
4.079856e-08 -2.757888e-08 9.877837e-08 3.490765e-08 9.714656e-09 1.683409e-08
4.664791e-08 -2.760004e-08 3.694433e-08 2.713923e-08 7.097222e-09 1.084901e-08
4.293239e-08 -1.504054e-08 4.570217e-08 3.115387e-08 5.979406e-09 1.935925e-08
1.019834e-08 -4.683506e-09 -1.622313e-09 -2.985524e-09 7.747391e-11 3.006244e-10
7.414586e-09 -3.836390e-09 -1.154590e-09 -3.682279e-09 4.069167e-11 3.737362e-10
9.476175e-09 -4.846053e-09 -1.495911e-09 -3.657348e-09 8.061019e-11 -1.961438e-10
8.156784e-09 -3.911039e-09 -1.218703e-09 -3.056358e-09 1.099913e-10 -1.708231e-10
-1.250358e-08 -9.953451e-10 -8.152100e-09 -1.009695e-08 -3.135668e-09 -1.023786e-09
-1.272773e-08 6.969323e-10 -9.014703e-09 -1.137265e-08 -4.715702e-09 -1.497708e-09
-1.240476e-08 -3.541187e-09 -4.887329e-09 -6.689245e-09 -2.995771e-09 -1.690519e-09
-1.009443e-08 -2.082114e-09 -1.000090e-08 -1.087063e-08 -3.389832e-09 -1.823308e-09
-1.886817e-08 1.944695e-08 -6.177001e-09 -7.483926e-09 3.524034e-09 4.464215e-09
-1.751326e-08 1.033424e-08 -1.708255e-09 -5.776285e-09 3.262772e-10 3.125661e-10
-1.604532e-08 1.660777e-08 -2.838991e-09 -2.606824e-09 1.367192e-09 1.465844e-09
2.871586e-08 2.427311e-08 -7.670326e-09 2.850727e-08 6.682260e-09 2.519962e-09
1.985600e-08 2.435370e-08 -4.616248e-09 3.094148e-08 4.060357e-09 4.906532e-10
3.186468e-09 3.177139e-08 -1.577014e-08 1.479569e-08 -7.889977e-09 -9.947093e-09
1.171169e-08 -2.544154e-09 -4.941175e-08 1.123621e-08 -1.991800e-08 1.019023e-08
1.937691e-09 2.062797e-08 -1.613120e-08 1.861869e-08 -5.001032e-09 -1.109427e-08
1.964316e-08 2.762425e-08 -6.278153e-09 3.216465e-08 5.244971e-09 2.117576e-09
-1.528575e-08 1.684357e-08 -1.725874e-08 -1.804504e-08 -6.779033e-10 -4.938263e-10
1.154908e-08 -3.577854e-08 4.466465e-09 -6.199448e-09 8.719920e-10 2.512111e-10
-1.482674e-08 1.116598e-08 -9.791833e-09 -1.710929e-08 2.840028e-09 2.945269e-09
1.014388e-08 -3.385345e-08 2.401658e-09 -9.468982e-09 2.884345e-09 9.521791e-10
1.215266e-08 -3.380803e-08 5.747438e-10 -8.850666e-09 2.337759e-09 8.503281e-10
1.299795e-08 -3.949004e-08 4.231953e-09 -6.294887e-09 1.603867e-09 3.646257e-10
4.953451e-10 -1.882214e-10 -4.354950e-11 1.310262e-09 2.747316e-10 -2.434899e-10
4.350404e-10 -3.145422e-10 -1.316316e-10 5.049736e-10 2.164580e-10 -2.526943e-10
4.037073e-10 -1.340474e-10 -6.965606e-11 5.893970e-10 2.650814e-10 3.195397e-10
2.041487e-09 -1.200583e-09 -3.138850e-10 8.976151e-10 2.933602e-10 9.790702e-11
7.810161e-10 -6.548637e-10 -2.094347e-10 9.178214e-10 5.373546e-11 -5.404011e-11
7.970513e-10 -4.741478e-10 -1.105518e-10 9.098797e-10 4.233773e-10 1.939621e-11
5.407092e-08 -1.534013e-08 -3.710404e-09 1.344539e-08 6.070865e-10 7.292347e-09
7.177437e-08 -1.262381e-08 -2.723857e-09 2.038456e-08 4.690991e-09 1.804188e-08
6.008581e-08 -2.120659e-10 -1.336443e-08 1.363899e-08 1.744738e-09 6.941824e-09
6.775249e-08 -9.459155e-09 -1.212669e-08 1.536691e-08 5.569475e-09 1.097352e-08
5.514326e-08 -2.040295e-09 -1.166194e-08 1.429050e-08 2.974831e-09 7.106872e-09
5.570945e-08 -1.132376e-08 -9.038671e-09 9.300878e-09 -4.727638e-10 4.556568e-09
4.019340e-08 -7.992486e-10 -7.477175e-09 -1.007405e-08 3.278373e-09 -3.738025e-10
4.641152e-08 2.997682e-10 -5.984532e-09 -1.525522e-08 1.987953e-09 5.069406e-09
3.300206e-08 -4.343900e-09 -1.830097e-09 -1.957525e-08 -3.443807e-10 1.220749e-09
3.440681e-08 -8.301716e-09 -1.140720e-10 -1.714466e-08 -2.557872e-09 2.541464e-09
6.810037e-08 -1.261475e-08 -5.481453e-09 -1.467382e-08 -1.499901e-09 1.211782e-08
6.427302e-08 -1.236939e-08 -6.578649e-09 -1.464346e-08 -4.164398e-10 7.504999e-09
5.594064e-08 -1.053229e-08 8.369287e-09 -1.891088e-08 -6.423367e-09 1.220474e-08
-1.015978e-08 -1.108001e-08 2.427590e-09 1.854550e-08 5.397343e-09 1.161987e-10
-8.760631e-09 -1.354162e-08 1.277228e-09 1.910555e-08 8.152192e-09 -2.228218e-09
-1.150177e-08 -1.793081e-09 -3.447852e-09 1.831414e-08 7.659664e-09 -3.489138e-09
-1.105784e-08 -1.799046e-09 -4.936199e-09 1.796667e-08 4.983491e-09 -1.886570e-09
-1.341254e-08 -5.666577e-09 -3.863367e-09 2.101397e-08 5.274015e-09 -1.890277e-09
-4.842182e-09 -1.807515e-08 -3.267375e-09 -1.138496e-08 -6.689400e-09 -2.952179e-09
-1.448911e-08 -6.489166e-09 -6.405407e-09 2.023258e-08 1.102912e-08 -3.462893e-09
-1.436341e-08 -1.081132e-08 6.462071e-10 1.818158e-08 5.520269e-09 -2.988058e-09
6.406943e-09 -8.020535e-10 6.841878e-10 1.013546e-08 3.997400e-10 -3.306841e-10
-5.903908e-09 2.899999e-09 1.024092e-09 1.401325e-09 -8.459899e-11 7.715650e-11
5.188876e-09 -6.170800e-10 3.987517e-10 8.864306e-09 -4.956915e-10 -9.968026e-10
7.411854e-09 -2.902295e-09 1.051738e-09 9.861999e-09 3.760371e-10 -2.306870e-10
9.321736e-09 -2.798336e-09 9.168719e-10 9.403772e-09 -4.380677e-10 -8.564947e-10
6.503692e-09 -2.230425e-09 1.164846e-11 8.181096e-09 4.225186e-10 -1.417770e-10
3.566925e-12 3.738054e-11 8.278445e-11 7.666807e-10 1.032821e-10 1.647873e-10
-1.012512e-09 4.527347e-10 4.020118e-11 9.696606e-10 1.627176e-10 -2.015530e-10
1.359447e-09 -6.900915e-10 -1.968152e-10 1.491578e-09 2.961743e-10 3.029991e-10
-1.597892e-09 9.896368e-10 5.699619e-11 1.566559e-09 2.760026e-10 1.861244e-11
-1.925590e-09 9.414398e-10 2.180673e-10 1.421163e-09 2.171358e-10 -3.197276e-10
-1.963331e-09 1.001137e-09 1.762532e-10 1.459349e-09 1.474862e-10 -2.768095e-10
-3.660161e-10 3.052421e-10 -1.034306e-11 1.858738e-09 3.930100e-10 1.902023e-11
-2.931579e-09 2.762609e-09 -2.057443e-10 -1.177680e-09 -3.442638e-10 -1.319005e-10
-4.041678e-09 4.195442e-09 9.634604e-11 -6.456745e-10 -1.113412e-10 3.275548e-10
-3.071534e-09 3.478714e-09 2.389156e-11 -7.209850e-10 2.216672e-12 -1.126195e-10
-3.134537e-09 3.092294e-09 -3.253475e-11 -1.129469e-09 -6.677614e-11 -2.038936e-10
-2.893820e-09 3.172760e-09 -3.704703e-11 -3.540013e-10 -1.379397e-10 1.004188e-10
6.290818e-08 -2.007395e-08 -3.472953e-09 6.797264e-09 1.978311e-09 3.389288e-09
-8.195727e-09 2.521255e-08 -2.554697e-08 -6.171546e-09 -2.460041e-09 2.164834e-09
4.854942e-08 -1.802523e-08 -3.220562e-09 7.372989e-09 4.784293e-11 6.409864e-09
4.807136e-08 -1.559763e-08 1.193262e-09 1.494134e-09 3.548467e-09 -5.122086e-09
6.511261e-08 -2.046850e-08 -1.667461e-10 8.448260e-09 -5.444375e-10 1.842224e-09
6.213152e-08 -2.497259e-08 4.820516e-09 7.316906e-09 2.397632e-09 1.874243e-09
6.240363e-08 -2.602133e-08 4.635335e-09 1.147408e-09 4.911788e-10 1.611323e-09
6.355790e-08 -2.860064e-08 1.611459e-09 1.239978e-09 -3.644796e-10 3.085820e-09
2.580519e-08 -3.013676e-08 -4.145340e-08 1.325665e-08 -2.320257e-08 1.146511e-08
2.413709e-08 -2.306750e-08 -4.732776e-08 7.539298e-09 -1.044394e-08 1.809639e-09
2.726789e-08 -3.468952e-08 -3.144319e-08 3.082867e-09 -8.208415e-09 3.767873e-10
2.957327e-08 -2.677220e-08 -4.166083e-08 7.480675e-10 -5.988950e-09 2.285443e-09
-6.322556e-08 1.921892e-10 1.473119e-07 6.029421e-08 3.653409e-08 3.357260e-08
-1.071961e-08 7.864998e-09 9.416802e-08 4.621772e-08 2.815188e-09 3.708412e-08
-5.176226e-08 1.090922e-08 1.549498e-07 4.729809e-08 4.558772e-08 2.238095e-08
-5.403523e-08 3.226565e-08 1.278334e-07 4.755069e-08 3.210545e-08 1.021211e-08
-1.441496e-08 2.726756e-08 2.363536e-08 4.374256e-08 3.466644e-08 1.082537e-08
-8.278668e-09 7.614666e-09 -9.261016e-09 1.769895e-09 -7.070703e-10 7.284123e-10
6.217522e-09 1.624726e-08 -6.209901e-09 3.425287e-09 -4.414829e-09 -1.783734e-09
-1.520821e-08 2.112471e-08 -1.567031e-08 -5.125612e-09 -1.273809e-08 -1.625373e-08
-9.810111e-09 2.203392e-08 -4.650986e-09 5.306043e-10 -5.615652e-09 -4.301601e-09
4.027718e-09 1.779836e-08 -5.948467e-09 3.285850e-09 -7.147103e-09 -6.353847e-09
-1.812746e-08 2.028076e-08 -7.777167e-09 -7.415386e-09 -1.222206e-08 -9.689845e-09
1.578474e-10 1.622801e-08 -6.482226e-09 7.922989e-10 -5.302267e-09 -3.807069e-09
-6.467505e-09 2.645268e-08 -1.013913e-08 4.264322e-09 -6.781898e-09 -9.805953e-09
-4.168088e-09 3.970916e-09 2.091305e-11 -1.794029e-09 -2.415312e-11 -3.059180e-10
-4.378811e-09 3.821119e-09 1.584155e-10 -9.200729e-10 1.015299e-11 6.735923e-11
-4.358663e-09 3.815641e-09 8.291856e-11 -9.186185e-10 -1.408913e-10 -1.822660e-10
-3.760949e-09 3.614146e-09 3.974732e-11 -1.787137e-09 -2.196172e-10 -7.567835e-11
-1.768658e-08 -5.070340e-10 3.888970e-09 -8.102825e-10 -1.950225e-09 -7.193680e-11
-1.891940e-08 1.951584e-09 1.342612e-09 -1.081912e-09 -2.138040e-09 -1.732667e-10
-6.769082e-09 5.220420e-09 5.576846e-10 -4.162700e-10 -2.525069e-11 -2.022904e-10
-1.901583e-08 1.452252e-09 3.218857e-09 -1.320788e-09 -3.408872e-09 -1.957170e-10
-1.821755e-08 3.596075e-10 3.430405e-09 -4.933790e-09 -3.299460e-09 -1.517931e-09
-1.885241e-08 -3.821963e-10 3.817058e-09 -1.204842e-09 -2.361638e-09 -6.276972e-10
-1.107279e-08 2.808923e-08 -2.653893e-08 -5.805007e-09 -8.621725e-09 1.266419e-08
-5.251174e-09 4.776915e-09 1.547278e-10 -2.487764e-10 -2.623057e-11 -3.170837e-11
-5.050680e-09 4.790554e-09 1.594589e-10 -1.926015e-10 -1.819633e-11 1.147748e-12
-5.200711e-09 4.834821e-09 1.754150e-10 -4.395551e-10 -1.646726e-10 -1.357264e-10
-4.677483e-09 4.660730e-09 1.251332e-10 -3.786145e-10 -4.112199e-11 -3.268530e-11
-1.730070e-08 -2.649791e-11 3.884225e-09 -1.788406e-09 -1.857859e-09 -6.991594e-11
2.069395e-08 -2.392506e-08 -2.896582e-08 7.934222e-09 -3.724581e-09 8.478375e-10
-1.570131e-08 -3.876124e-09 3.547753e-09 -1.529240e-09 -1.523757e-09 -2.626444e-10
-1.687592e-08 -4.013536e-09 2.539194e-09 -1.236570e-09 -7.513705e-10 -5.925025e-10
-1.521789e-08 -6.759628e-09 4.451535e-09 -3.258803e-09 -2.856202e-09 -3.195667e-10
-6.595274e-09 2.828909e-09 1.126502e-09 1.648756e-09 7.028356e-11 -4.943157e-11
-5.105556e-09 2.516327e-09 7.954024e-10 2.251010e-09 4.774725e-11 -2.676792e-10
-6.162857e-09 2.808577e-09 1.155463e-09 1.663171e-09 8.523049e-11 -8.648326e-11
-5.073677e-09 2.476512e-09 5.770611e-10 2.370950e-09 1.911558e-10 -3.572720e-10
-6.348701e-09 2.774139e-09 9.937131e-10 1.771091e-09 1.744923e-10 -2.632259e-10
-3.736757e-09 1.990295e-09 6.413781e-10 3.465317e-09 1.246123e-10 -1.391778e-10
-2.845553e-09 1.933606e-09 6.426766e-10 3.548179e-09 -3.022832e-11 1.552047e-11
-4.434827e-09 2.175961e-09 8.405361e-10 3.143526e-09 2.445597e-10 1.077007e-10
-4.711425e-09 2.092351e-09 9.283916e-10 2.505230e-09 1.964866e-10 1.442496e-10
-4.771229e-09 2.011265e-09 7.719025e-10 2.577169e-09 8.077583e-11 2.410210e-10
-1.210824e-09 -2.586312e-08 7.469876e-09 6.344683e-09 -3.554228e-10 4.127173e-10
-1.044452e-09 -2.713742e-08 6.541122e-09 8.018683e-09 8.261793e-10 1.691935e-11
1.314947e-09 -3.101980e-08 8.291283e-09 6.548791e-09 7.198893e-10 8.539625e-11
1.370470e-09 -2.705317e-08 5.936363e-09 7.547429e-09 9.114783e-10 -8.514056e-10
-6.962050e-09 -2.093724e-08 7.523288e-09 2.853544e-09 1.312193e-09 -6.569667e-10
-5.280855e-09 -2.297261e-08 8.087646e-09 1.835670e-09 4.537553e-10 -2.814630e-10
-5.581098e-09 -2.167743e-08 7.672990e-09 3.141093e-09 7.358233e-10 5.121177e-10
-9.828305e-09 1.598077e-09 1.791982e-09 -1.846555e-09 -2.875814e-11 -4.980035e-10
-9.443797e-09 1.943294e-09 1.711178e-09 -2.252411e-09 -2.526155e-10 -3.795066e-10
-1.011437e-08 3.571979e-09 1.339208e-09 -2.361795e-09 1.490292e-10 -6.992498e-10
-1.027147e-08 -3.200424e-10 1.508918e-09 -5.160066e-09 6.164434e-12 -1.679558e-10
-8.402005e-09 1.469531e-09 1.649536e-09 -2.158024e-09 -6.114263e-10 -7.800793e-10
1.809515e-08 -1.062218e-08 2.433755e-08 -1.765430e-08 4.043306e-09 -7.084028e-09
-9.399182e-09 3.996056e-09 1.520301e-09 -2.932061e-09 -2.172230e-10 -2.903184e-10
-4.547342e-09 4.139501e-09 1.388656e-10 -2.491497e-09 -1.272924e-10 -2.846656e-10
-9.086725e-08 -5.554388e-09 2.538202e-07 2.608850e-08 4.571389e-08 3.804625e-09
-9.165643e-08 -5.875196e-08 2.518572e-07 2.760282e-08 2.359787e-08 4.169314e-08
-1.013958e-07 -3.361339e-09 2.835191e-07 2.065371e-08 7.466205e-08 4.034879e-08
-1.268174e-07 -3.696876e-08 3.071097e-07 -7.428468e-09 7.054243e-08 1.322826e-08
-9.173419e-08 -4.059659e-08 2.800106e-07 2.256077e-08 4.764205e-08 3.268041e-08
-6.499681e-09 4.929603e-09 4.674212e-10 -1.429949e-09 -3.554590e-11 -1.879853e-10
-5.628822e-09 4.436969e-09 3.967604e-10 -2.165744e-09 -9.954259e-12 -2.839829e-10
-1.248604e-08 6.268398e-08 -7.176127e-08 8.263388e-09 2.803691e-08 -2.072800e-08
-4.687760e-09 4.465668e-09 4.150658e-10 -2.501509e-09 -5.259659e-11 -1.519485e-10
-6.163735e-09 4.587056e-09 4.804765e-10 -2.551605e-09 -1.429228e-10 -6.272860e-11
1.384179e-08 -2.661539e-08 -2.340095e-08 2.424119e-08 5.221389e-09 -1.689255e-09
1.309926e-08 -3.071624e-08 -1.754396e-08 2.227397e-08 2.635872e-09 -4.156788e-09
7.468580e-09 -2.870275e-08 -8.243309e-09 2.082326e-08 2.431307e-09 -2.575458e-09
1.730834e-08 3.889102e-08 -9.081726e-08 -2.114971e-08 -2.081764e-08 -3.738783e-09
7.690201e-09 3.343290e-08 -8.474606e-08 -1.389284e-08 -2.112913e-08 -2.895217e-09
8.550044e-09 1.802328e-08 -6.346153e-08 -1.860027e-08 -1.670408e-08 -3.339193e-09
-4.255189e-09 2.177224e-08 -8.117228e-09 -2.094566e-08 -4.233338e-09 4.628728e-09
3.829201e-09 1.313363e-08 -2.686680e-09 -2.378425e-08 2.226144e-09 1.582965e-10
-2.234266e-09 1.378401e-08 -4.219995e-09 -1.954733e-08 9.105750e-11 1.289647e-09
-8.220551e-09 1.820675e-08 -1.305816e-08 -1.719277e-08 -6.595205e-11 3.776312e-09
-4.065146e-09 1.540439e-08 -7.325642e-09 -1.857384e-08 3.482848e-10 -1.312819e-09
-1.827792e-08 3.517721e-09 7.596590e-11 -2.875167e-09 -4.232960e-09 -8.674459e-10
-3.637564e-08 -2.090258e-09 1.096317e-07 -5.522046e-08 -4.123133e-09 8.732426e-09
-1.698902e-08 -8.879049e-10 -2.487527e-09 -4.947374e-09 -5.025407e-09 -9.598084e-10
-1.554476e-08 -2.918664e-09 2.347633e-09 -3.504241e-09 -2.229032e-09 -1.005252e-09
-1.344287e-08 -6.061693e-09 7.748640e-10 -4.760066e-09 -3.071499e-09 -1.033004e-09
-1.443344e-08 -4.183978e-10 -4.458337e-10 -3.864797e-09 -1.511629e-09 -1.419654e-09
-1.562556e-08 -4.581358e-10 -2.000595e-09 -3.554392e-09 -2.003364e-09 5.846341e-11
-1.387358e-08 -6.055899e-09 -2.898764e-09 -6.730700e-09 -6.583119e-09 -2.537094e-09
-4.352911e-09 4.396668e-09 5.856782e-11 -1.057028e-09 -1.494040e-10 -5.984768e-11
-4.866330e-09 4.356828e-09 6.591749e-11 -1.293063e-09 -1.893090e-10 -3.846014e-10
-6.015011e-09 4.858896e-09 2.682370e-10 -1.398736e-09 -1.020097e-10 -3.997682e-10
-4.377169e-09 4.011998e-09 1.037854e-10 -2.045261e-09 -1.017224e-10 -2.615723e-10
-5.466005e-09 4.167787e-09 3.259104e-10 -2.227817e-09 -2.155098e-11 -2.760029e-13
-5.068452e-09 4.093970e-09 1.388656e-10 -2.235664e-09 -1.718976e-10 -2.341465e-10
-4.984528e-09 4.468167e-09 2.550058e-10 -6.717520e-10 -3.518097e-11 -8.968803e-11
-5.464021e-09 4.680179e-09 2.497647e-10 -8.069656e-10 -9.119191e-11 -1.604397e-10
-5.816432e-09 4.994165e-09 3.025686e-10 -4.528147e-10 -2.211009e-11 -1.230211e-10
-5.771581e-09 5.002991e-09 2.844107e-10 -4.770246e-10 -1.613953e-11 -1.175238e-10
-5.515504e-09 4.896441e-09 2.368896e-10 -3.928582e-10 -1.212785e-11 -8.575385e-11
-5.910557e-09 4.868891e-09 1.635390e-10 -5.638393e-10 -1.686107e-10 -2.411192e-10
-6.483534e-09 6.126100e-09 1.053343e-09 7.174320e-09 4.962290e-10 -5.563252e-10
-7.378710e-09 3.940983e-09 1.010003e-09 2.945251e-10 7.183054e-11 1.575073e-11
-7.752622e-09 4.035109e-09 1.140439e-09 4.734443e-11 -5.999506e-12 -4.631351e-11
1.908900e-08 -1.061061e-08 2.421434e-08 -1.877531e-08 3.959710e-09 -7.831047e-09
-7.815208e-09 3.968371e-09 1.157821e-09 2.754730e-10 -9.940937e-12 -4.301315e-11
-7.776020e-09 4.219471e-09 1.023307e-09 1.373195e-10 5.746215e-11 -4.097001e-11
-7.715446e-09 4.184316e-09 1.092655e-09 5.989698e-11 3.215736e-11 1.375733e-11
-7.176778e-09 4.036055e-09 9.868357e-10 1.704503e-10 6.135525e-11 -1.355005e-11
-2.204879e-08 1.338307e-07 -9.254373e-08 2.351900e-09 1.246498e-09 -3.352537e-08
-7.517489e-09 4.182388e-09 1.059903e-09 6.535983e-11 1.883872e-11 -6.104961e-11
-5.997397e-09 4.486580e-09 3.824456e-10 -2.689430e-09 -1.940319e-10 -4.500573e-10
-6.019991e-09 4.935096e-09 5.899867e-10 -2.033585e-09 -1.029844e-10 -3.712738e-10
6.984124e-08 -3.259639e-08 1.912894e-08 1.158229e-08 4.933963e-09 2.397660e-08
6.997986e-08 -4.202886e-08 3.500395e-08 6.160010e-09 -9.033348e-09 3.513264e-08
7.820262e-08 -2.648598e-08 1.982147e-08 4.302204e-09 1.825068e-09 2.715363e-08
7.436628e-08 -2.171551e-08 2.623955e-09 -5.160184e-10 -7.855731e-10 1.897242e-08
7.630750e-08 -2.464511e-08 7.539613e-09 -8.509930e-09 -5.496921e-09 2.334297e-08
6.563750e-08 -3.216449e-08 3.348097e-08 -1.033089e-08 -6.949124e-10 2.063292e-08
7.038840e-08 -2.951244e-08 7.497722e-09 -1.396069e-08 -5.030774e-09 2.388755e-08
2.018435e-08 1.662825e-08 -2.324825e-09 -1.904588e-08 -1.848574e-09 3.637785e-09
7.953156e-09 2.292096e-08 1.041465e-09 -2.933320e-08 -8.573605e-09 5.636451e-09
2.383951e-08 7.311633e-09 1.300941e-09 -2.157897e-08 -5.875215e-09 8.075535e-09
5.956086e-08 -2.695930e-08 2.784785e-08 -1.055624e-08 -1.763068e-09 5.156416e-09
6.084696e-08 -3.415432e-08 2.847398e-08 -1.087119e-08 -9.374153e-10 6.160572e-09
5.286763e-08 -1.446966e-08 5.691204e-09 -2.459709e-08 -1.089333e-08 1.608225e-08
6.226021e-08 -2.713032e-08 1.836323e-08 -9.767090e-09 -1.573522e-09 1.327222e-08
6.588024e-08 -3.363061e-08 3.563746e-08 -1.303346e-08 -2.119006e-09 2.230824e-08
-6.171234e-09 3.245630e-08 -3.190015e-08 -1.664586e-08 -3.681182e-09 3.059166e-09
6.387842e-08 -1.856514e-08 -6.931113e-09 -1.034860e-10 7.632236e-10 5.794072e-09
6.683825e-08 -1.860308e-08 -4.082463e-09 -4.537374e-09 -3.621152e-10 9.992665e-09
6.146932e-08 -1.413787e-08 -1.054158e-09 -6.363523e-09 -5.781301e-10 4.090460e-09
7.854147e-08 -1.993545e-08 -1.975043e-09 -2.413173e-09 -7.272114e-10 1.634625e-08
-4.053168e-09 3.488182e-09 1.973666e-11 -1.199854e-09 -2.082682e-10 -1.857843e-10
-3.182951e-09 3.393103e-09 -4.410705e-11 -1.401026e-09 -1.252130e-10 9.618661e-11
-2.424883e-09 2.477116e-09 -9.264012e-11 -1.748100e-09 -1.740909e-10 -1.362817e-10
-2.666998e-08 5.567665e-08 -2.583440e-08 -6.046544e-09 -1.761340e-09 -8.401393e-09
-1.337472e-09 2.372892e-09 -2.342277e-10 -1.547750e-09 -1.495480e-10 -9.618173e-11
-2.031234e-09 3.045889e-09 -3.736778e-11 -1.432065e-09 -5.178302e-11 -1.119613e-10
-1.406294e-09 2.393578e-09 -2.581748e-10 -1.551028e-09 -8.272538e-11 -2.357212e-10
6.460919e-09 -3.258105e-08 8.729469e-09 6.144754e-09 6.598308e-10 2.690435e-10
2.940610e-09 -2.983437e-08 7.346895e-09 7.255933e-09 1.124942e-09 -1.805479e-10
-2.599282e-08 4.044554e-08 -2.870035e-08 -2.471514e-09 1.576822e-08 -2.345450e-08
2.688561e-09 -3.249028e-08 7.400192e-09 9.231735e-09 9.243005e-10 -3.200146e-10
5.472902e-09 -3.386519e-08 7.486051e-09 7.441352e-09 5.109409e-10 1.785323e-10
-9.033811e-09 2.347394e-08 -1.951182e-08 -9.236816e-09 -7.138829e-09 7.897656e-09
-1.122359e-09 -2.601387e-08 8.187252e-09 3.377165e-10 1.670084e-10 1.060485e-10
-2.012030e-09 -2.498040e-08 7.868416e-09 1.393465e-09 -4.435740e-10 -5.877887e-11
-1.122073e-09 -2.489297e-08 8.044801e-09 8.142624e-10 1.166698e-10 1.429852e-10
-2.414637e-09 -2.461697e-08 8.376615e-09 1.354336e-09 -1.239972e-10 1.301506e-10
-5.704370e-10 -2.698047e-08 8.222881e-09 1.062806e-09 6.471713e-11 5.826006e-11
-3.134733e-08 4.442094e-08 -1.401595e-08 6.609608e-09 5.663262e-09 -1.361479e-08
-3.821613e-09 3.714169e-08 -1.447539e-08 -1.326487e-08 2.487652e-09 -4.351305e-09
-3.856912e-09 3.266197e-08 -6.471272e-09 -1.462696e-08 2.164401e-09 -2.705676e-09
-1.999151e-08 2.783154e-08 -1.430070e-08 -9.781046e-10 4.985088e-09 -7.451956e-09
-2.479947e-08 4.676735e-08 -1.849363e-08 1.834307e-10 1.121867e-08 -1.487068e-08
-9.935721e-10 3.187030e-08 -6.985258e-09 -1.278585e-08 4.295514e-10 -3.517846e-09
-1.405081e-08 2.637582e-08 -1.190808e-08 -5.763450e-10 5.913187e-09 -6.991418e-09
1.227736e-08 -7.018940e-09 -1.431654e-09 -2.888798e-10 1.061701e-12 -5.155352e-10
-7.651028e-09 3.857840e-09 1.102915e-09 3.804415e-10 3.020145e-11 -2.229056e-11
-7.385064e-09 3.923147e-09 1.031680e-09 2.489440e-10 9.920731e-12 1.297751e-10
-7.519560e-09 4.045845e-09 1.042171e-09 1.478742e-10 -5.146106e-12 -5.314105e-11
-7.772991e-09 4.169522e-09 1.094996e-09 1.013962e-10 4.393130e-11 -2.874767e-11
-7.682278e-09 3.871024e-09 1.099900e-09 3.467764e-10 1.736389e-11 -4.011502e-11
-7.775704e-09 4.072423e-09 1.106943e-09 2.074416e-10 4.435841e-11 -4.701373e-11
-7.287550e-09 3.855370e-09 1.105642e-09 2.532312e-10 2.746603e-11 9.328093e-12
-7.989056e-09 4.016489e-09 1.048091e-09 8.769940e-11 -4.055789e-11 -1.767821e-10
-7.854188e-09 3.894391e-09 1.180320e-09 1.508374e-10 4.673321e-11 -7.453921e-11
-7.881070e-09 3.886134e-09 1.266217e-09 6.356582e-11 9.042811e-11 -1.456161e-10
-7.419034e-09 3.755749e-09 1.192646e-09 5.212297e-10 7.311285e-11 -2.108204e-12
-7.950110e-09 3.876659e-09 1.333749e-09 3.583986e-11 2.646263e-11 -2.550604e-10
-7.986738e-09 4.077236e-09 1.130536e-09 1.044702e-10 3.033984e-11 -1.563858e-10
7.189928e-08 -1.933399e-08 -2.784111e-09 -3.862019e-10 -9.757208e-10 1.200385e-08
6.561517e-08 -2.103750e-08 1.774589e-09 4.415696e-09 -1.979175e-09 9.420290e-09
7.302195e-08 -2.252670e-08 9.889413e-09 -2.278155e-09 3.149435e-09 3.561063e-08
6.577513e-08 -2.308800e-08 5.540778e-09 -7.048572e-09 -1.749965e-09 1.059156e-08
1.642898e-08 1.613273e-08 -5.083034e-09 -1.194284e-08 1.218828e-10 6.708958e-10
1.183125e-08 1.464021e-08 -6.085115e-09 -8.273157e-09 1.808899e-09 -1.476093e-09
-7.071566e-12 2.071302e-08 -6.830121e-09 -1.577656e-08 -5.788254e-10 -3.124531e-09
-9.909030e-09 3.210325e-08 -9.121076e-09 -6.702781e-09 2.462793e-09 -8.278644e-09
1.788078e-08 1.363707e-08 -1.066914e-08 -4.651679e-09 4.388729e-09 -5.559122e-09
1.951228e-08 1.307514e-08 -2.181293e-09 -1.720124e-08 -4.296907e-09 4.185797e-09
-7.889070e-09 3.563965e-09 1.359678e-09 5.802354e-12 -2.379785e-11 2.806622e-11
9.803785e-09 -4.583676e-09 -1.469350e-09 -4.745072e-09 -1.278331e-10 5.992509e-10
-7.684533e-09 3.574172e-09 1.284137e-09 2.735598e-10 4.100498e-11 -5.211231e-11
-7.858458e-09 3.583831e-09 1.369473e-09 6.312769e-11 3.298695e-11 -1.435157e-10
-7.854943e-09 3.598541e-09 1.396613e-09 3.529865e-11 -2.861733e-11 7.954093e-11
-7.957700e-09 3.505818e-09 1.379080e-09 2.010458e-10 6.308765e-11 -1.413396e-10
-8.029351e-09 3.790850e-09 1.343906e-09 1.279816e-10 -8.125500e-12 -7.608358e-11
1.193524e-08 -6.028127e-09 -1.525054e-09 -2.951638e-09 4.165568e-11 2.479517e-10
-7.684600e-09 3.592348e-09 1.246697e-09 2.698912e-10 1.161427e-11 -3.788836e-11
1.990383e-08 1.133652e-08 -3.265436e-09 -9.999309e-09 1.264472e-09 -1.472244e-09
2.702489e-08 1.105003e-09 -2.039624e-09 -1.354119e-09 -2.807073e-10 -2.186046e-10
2.343470e-08 1.157550e-08 -7.692086e-09 -8.869563e-09 2.348438e-09 -4.601544e-10
1.615557e-09 9.760199e-09 -4.897834e-09 2.186197e-09 3.687908e-09 -1.198929e-08
2.932078e-09 1.327362e-08 -5.448214e-09 -6.899313e-09 3.470049e-10 5.742018e-09
2.623691e-08 1.218843e-08 -5.229407e-09 -1.162761e-08 -2.442473e-09 2.117531e-09
-9.041639e-09 2.346862e-08 -2.452170e-08 -9.228832e-09 -3.203067e-09 5.466722e-09
3.013806e-08 1.629668e-10 -1.763304e-09 -5.288494e-09 6.673637e-10 4.347801e-09
-3.361821e-09 -2.431040e-08 7.873028e-09 3.842050e-09 6.283916e-10 -4.901686e-10
-3.400085e-09 -2.194139e-08 7.493850e-09 4.354337e-09 -1.634053e-10 -3.516234e-10
-3.361138e-09 -2.195182e-08 7.699048e-09 4.359682e-09 1.846661e-10 1.720684e-10
-6.355300e-09 2.771115e-08 -7.512231e-09 -1.257436e-08 2.067836e-09 -2.942810e-09
-2.920596e-09 2.767387e-08 -7.209614e-09 -1.345841e-08 1.622408e-09 -1.790835e-09
-2.914709e-09 2.813978e-08 -7.292667e-09 -1.379876e-08 2.246318e-09 -1.774408e-09
1.621712e-08 1.362222e-08 7.394912e-10 -2.539101e-08 -5.309237e-10 -3.788225e-09
-3.297455e-09 2.906379e-08 -9.527358e-09 -1.469812e-08 1.643368e-09 -3.005918e-09
6.538335e-08 -1.473295e-08 -4.268743e-09 9.684312e-09 3.462384e-09 9.623443e-09
6.890963e-08 -9.460806e-09 4.658204e-10 1.538810e-08 5.819119e-09 1.625105e-08
4.840501e-08 -1.553113e-09 -6.263605e-09 2.069506e-08 6.362663e-09 6.837416e-09
3.759265e-08 -4.341805e-09 -7.751081e-09 9.184964e-09 -4.366510e-10 1.652036e-09
6.023143e-08 -1.454466e-08 -5.133472e-09 6.101201e-09 2.908651e-09 5.382136e-09
-5.711653e-09 5.108705e-09 2.988172e-10 -3.425322e-10 -6.554490e-11 -1.701767e-10
-5.672927e-09 5.044377e-09 3.388816e-10 -8.789791e-11 3.420375e-12 -4.656722e-11
-4.789224e-09 4.558857e-09 1.065894e-10 -5.386525e-10 3.531581e-11 1.117675e-11
-5.460469e-09 4.813854e-09 2.433818e-10 -3.538445e-10 3.221556e-11 -1.538833e-10
-5.578838e-09 4.912113e-09 2.240599e-10 -2.839222e-10 -9.774470e-11 7.924716e-11
-5.797702e-09 4.923011e-09 3.142326e-10 -4.276889e-10 -6.046649e-11 -1.393552e-10
-5.176134e-09 4.681517e-09 2.206852e-10 -7.181971e-10 -9.497636e-11 9.187584e-11
-2.421006e-09 2.524294e-09 -8.945844e-11 -1.680973e-09 -1.022397e-10 1.035572e-11
1.047245e-09 9.482877e-10 -4.589453e-10 -1.899290e-09 -1.391722e-10 1.591147e-10
-3.106950e-10 2.053347e-09 -2.855365e-10 -1.248173e-09 -7.298384e-11 3.708589e-12
-1.937655e-09 2.625518e-09 -1.298974e-10 -2.000203e-09 -1.015756e-10 1.537599e-10
-1.189497e-09 2.059649e-09 -3.687841e-10 -2.465299e-09 -1.653175e-10 -1.277083e-10
-1.020428e-09 2.248463e-09 -2.814025e-10 -2.409283e-09 -1.314789e-10 2.825624e-10
-9.441745e-10 2.470076e-09 -1.023692e-10 -2.275531e-09 -1.952321e-10 -2.356380e-10
-3.407727e-10 1.243322e-09 -4.248646e-10 -1.113848e-09 -2.268749e-10 1.955147e-11
4.545387e-08 1.671407e-09 -5.899353e-09 2.105978e-08 4.443432e-09 8.146216e-09
-1.770053e-09 2.798141e-09 -1.299862e-10 -1.170875e-09 6.457457e-11 1.459131e-10
-7.257972e-10 1.492999e-09 -3.923075e-10 -1.082567e-09 -7.177192e-11 1.965003e-10
5.315774e-09 -3.371637e-08 6.761813e-09 7.994068e-09 1.034108e-09 4.717691e-10
-1.656142e-08 -3.530147e-09 3.555321e-09 -1.673549e-09 -1.378465e-09 -1.014658e-10
5.304066e-09 -3.471422e-08 5.352550e-09 9.914577e-09 7.189295e-10 -5.720469e-11
2.014270e-08 1.260339e-07 -1.380797e-07 1.600350e-08 1.923114e-08 7.740143e-09
1.972936e-08 4.130451e-08 -1.126486e-07 -3.199181e-08 4.093208e-08 2.398442e-08
-4.042124e-09 1.191451e-07 -7.700770e-08 -7.637696e-10 -1.766840e-08 -1.310804e-08
-2.203613e-08 9.171863e-08 -9.529515e-08 2.264401e-08 -2.961220e-08 -1.104495e-09
-1.560838e-08 9.739742e-08 -4.031267e-08 1.418946e-08 -9.584885e-09 1.709394e-08
-1.718960e-08 1.143832e-07 -6.279132e-08 1.186814e-08 -1.192435e-08 -7.595890e-09
1.394246e-08 -2.015842e-08 -3.328846e-08 1.525687e-08 -1.772244e-08 9.535361e-09
1.412680e-08 -1.435275e-08 -2.887762e-08 1.012241e-08 -1.217008e-08 6.604241e-09
1.897165e-08 -2.822789e-08 -2.305079e-08 8.248053e-09 -6.486522e-09 1.093159e-09
3.767916e-08 2.575753e-09 -7.489825e-09 2.536027e-08 2.609403e-09 5.294949e-09
1.280811e-08 1.625673e-08 -7.626122e-09 1.394265e-08 -6.683589e-10 -2.959586e-09
-8.241917e-09 3.490006e-09 1.435131e-09 1.241727e-09 6.948564e-11 -1.561847e-10
2.876757e-09 2.725356e-08 -1.453324e-08 1.465391e-08 -5.891850e-09 -1.113015e-08
2.491019e-08 4.521815e-09 -1.000296e-08 1.035080e-08 -1.583550e-09 -1.583788e-09
4.065321e-08 1.007744e-08 -9.400382e-09 2.009540e-08 4.540113e-10 3.071159e-09
2.380115e-08 1.010988e-08 -9.437927e-09 9.558240e-09 -4.086584e-09 -4.276384e-09
-1.054185e-08 3.957910e-09 -2.717575e-09 -3.050589e-10 -1.511034e-09 5.381040e-10
-1.065486e-08 3.337518e-09 -2.567877e-09 -8.757999e-10 -1.072070e-09 5.064299e-10
-1.039991e-08 5.610769e-09 -7.089083e-10 -2.185472e-09 -4.513686e-10 2.452607e-10
-8.128804e-09 3.303215e-09 1.442108e-09 5.004233e-10 9.858492e-11 -2.616980e-10
-7.833956e-09 3.119212e-09 1.410115e-09 4.765255e-10 6.801248e-11 -1.837176e-10
-7.581121e-09 3.462175e-09 1.250517e-09 5.362866e-10 1.302155e-10 -2.786296e-10
-8.080770e-09 2.807790e-09 1.691006e-09 2.250129e-10 -5.132250e-11 -1.535561e-10
-8.011176e-09 3.473756e-09 1.322157e-09 5.554493e-10 2.643033e-11 -5.743015e-11
-8.141304e-09 2.858270e-09 1.505547e-09 4.522693e-10 2.326639e-11 -3.837955e-10
-7.934682e-09 3.439640e-09 1.372037e-09 4.870473e-10 2.070744e-11 -1.731273e-10
-1.027904e-08 -1.078635e-08 4.026147e-09 9.779213e-09 1.335555e-09 -1.972791e-10
-8.236012e-09 -1.374629e-08 8.142997e-10 1.308180e-08 1.208972e-09 -1.108072e-09
-1.028748e-08 -1.078044e-08 2.740919e-09 9.637134e-09 -1.641351e-09 -3.162744e-10
-9.828016e-09 -1.496603e-08 3.604652e-09 8.440971e-09 6.211787e-10 -9.627874e-10
-1.279726e-09 -2.393296e-08 4.497656e-09 -1.084024e-08 -5.179921e-09 -2.321257e-09
-4.457241e-10 -2.081820e-08 5.345246e-09 -1.245261e-08 -7.659806e-09 -1.010480e-09
6.762287e-09 -3.569915e-08 5.330449e-09 -1.167353e-08 -5.217638e-09 -1.319311e-09
-3.466678e-10 -1.548562e-08 2.676919e-09 -1.064030e-08 -1.230116e-10 2.719610e-10
-5.520375e-10 -2.079598e-08 3.613813e-09 -6.325805e-09 -3.955010e-09 -6.333661e-10
2.396853e-09 -2.379326e-08 -2.448405e-09 -1.397717e-08 -8.308375e-09 -2.962927e-09
8.479814e-09 -4.731189e-09 -1.247493e-09 -6.384573e-10 -6.896927e-11 9.838130e-12
8.832794e-09 -5.266341e-09 -1.196163e-09 -2.455167e-10 -1.489865e-10 1.608753e-10
7.873760e-09 -4.127325e-09 -1.245335e-09 -4.814488e-10 -2.557859e-10 2.914613e-11
8.250748e-09 -4.565838e-09 -1.219158e-09 -3.919266e-10 -1.413829e-10 -1.430163e-10
8.222065e-09 -4.598378e-09 -1.169342e-09 -4.360643e-10 -9.020729e-11 1.916832e-10
8.373632e-09 -4.935869e-09 -1.144402e-09 -5.422501e-10 -1.723623e-10 7.465989e-11
9.275389e-09 -5.393768e-09 -1.289447e-09 -9.023593e-10 -9.299150e-11 1.659558e-10
9.335597e-09 -5.211350e-09 -1.383008e-09 -3.337313e-10 1.451683e-10 -4.110423e-11
-5.639118e-09 -6.127662e-09 3.036604e-09 -6.814047e-09 8.197566e-10 -4.452087e-10
8.475404e-09 -5.011673e-09 -1.345668e-09 -7.812289e-10 -1.809508e-11 1.068350e-10
9.564016e-09 -5.289087e-09 -1.267351e-09 -6.600185e-10 -4.446532e-11 2.887136e-10
2.641141e-09 -6.996443e-10 -2.880700e-10 5.020961e-09 -1.583316e-10 -1.044571e-10
3.162378e-09 -8.627067e-10 -1.357758e-10 6.375385e-09 -1.928617e-10 -3.082550e-10
4.453454e-09 -1.653715e-09 -2.851093e-10 5.506251e-09 2.332536e-10 5.844065e-10
4.206852e-09 -1.671377e-09 -5.256151e-10 5.440122e-09 -2.203815e-11 -9.475365e-11
5.092499e-09 -2.378896e-09 -6.971215e-10 3.267067e-09 1.902542e-10 2.744409e-10
-9.480221e-10 3.316409e-10 -1.663828e-10 1.099340e-09 5.564688e-11 1.193686e-10
-2.161434e-08 1.053124e-07 -5.990109e-08 -1.082963e-08 1.555745e-08 -6.120587e-09
-2.596223e-09 1.215394e-09 3.498131e-10 1.228857e-09 2.156761e-10 2.454597e-10
-2.504201e-09 1.157368e-09 4.298872e-10 1.184903e-09 8.847811e-11 -6.297229e-11
-1.196120e-09 4.340901e-10 1.146063e-10 8.967176e-10 2.309766e-10 -1.161761e-10
-1.524990e-08 2.136793e-08 -1.141652e-08 -1.083674e-08 -1.686266e-08 -1.678851e-08
2.226869e-08 -4.240055e-08 -1.557218e-08 -5.822220e-09 4.989358e-09 -2.649027e-10
1.655013e-08 -3.804617e-08 -4.152765e-09 -1.097287e-08 2.621942e-09 -1.935381e-10
1.698647e-08 -4.105611e-08 -5.265341e-09 -6.564164e-09 3.316940e-09 -2.321510e-10
2.196513e-08 -4.138401e-08 -6.424747e-09 -5.398884e-09 3.877450e-09 -2.607714e-10
1.870527e-08 -4.110096e-08 -5.272304e-09 -6.104838e-09 3.281213e-09 5.053620e-10
-7.558375e-09 -2.633399e-09 2.993092e-09 -2.930178e-09 -3.301057e-10 -5.086278e-10
-7.670540e-09 -2.194936e-09 2.700532e-09 -3.276119e-09 1.009060e-11 -1.020581e-10
-7.497282e-09 -2.734996e-09 3.196535e-09 -2.014670e-09 -2.287710e-10 -1.509259e-11
-7.876268e-09 -1.170859e-09 2.878023e-09 -1.751504e-09 -7.351452e-12 -9.523893e-11
1.510153e-08 -2.562509e-08 -1.995142e-08 -2.250286e-08 1.102453e-08 3.419458e-09
1.956461e-08 -3.317895e-08 -1.746127e-08 -1.602739e-08 1.566365e-09 -2.285888e-09
1.007283e-08 -2.228550e-08 -1.665793e-08 -2.099736e-08 7.921981e-09 3.868757e-09
9.213735e-09 -2.498496e-08 -1.762137e-08 -2.358690e-08 4.527736e-09 8.722207e-10
1.543238e-08 -3.368000e-08 -1.084835e-08 -1.763565e-08 3.308839e-09 -3.056595e-10
-6.255437e-09 -1.802901e-08 5.446640e-09 6.953060e-09 -7.682166e-10 -3.194096e-10
-5.051040e-09 -2.195833e-08 6.169679e-09 6.100460e-09 3.394136e-10 5.559060e-10
-4.937872e-09 -2.016193e-08 4.708006e-09 9.913648e-09 9.586183e-10 -7.021910e-10
-6.028732e-09 -2.082325e-08 6.299963e-09 6.076161e-09 6.482383e-10 -7.629550e-10
-4.829891e-09 -2.279314e-08 5.280972e-09 9.035567e-09 -2.157297e-10 -4.308048e-10
4.818808e-08 -4.006225e-08 9.763147e-08 -3.659830e-08 -3.323207e-08 5.137048e-08
5.722428e-08 -3.977282e-08 5.624700e-08 -1.137089e-08 -1.757147e-09 1.743209e-08
4.095997e-08 -2.489992e-08 4.689462e-08 -2.846593e-08 -7.055555e-09 1.095904e-08
3.824276e-08 -2.651121e-08 4.147927e-08 -3.276761e-08 -4.080938e-09 1.808344e-08
5.103162e-08 -3.172331e-08 3.846138e-08 -2.417112e-08 3.040670e-09 2.228426e-08
-1.679750e-08 2.663730e-08 -1.687970e-08 -8.139940e-09 -1.461030e-08 -1.286147e-08
-1.816754e-08 2.055806e-08 -8.079787e-09 -5.422799e-09 -1.106657e-08 -6.745875e-09
-2.222303e-08 3.533769e-08 -1.229763e-08 -8.660784e-09 -9.847503e-09 -1.566098e-08
-1.736024e-08 2.043481e-08 -6.203236e-09 -2.976712e-09 -9.869862e-09 -4.687823e-09
-1.002583e-08 2.572002e-08 -1.496356e-08 -3.354012e-09 -1.302816e-08 -1.209719e-08
5.164535e-11 -1.831905e-08 5.142729e-09 -4.642323e-09 4.345924e-10 3.455352e-11
-2.180646e-09 -1.374964e-08 4.995239e-09 -3.382408e-09 1.043994e-09 -2.128941e-13
-2.779729e-09 -1.127566e-08 4.613436e-09 -4.413418e-09 -8.138119e-11 -2.487874e-10
-1.052623e-09 -1.550776e-08 4.361868e-09 -6.112632e-09 -1.192097e-09 -1.146511e-09
-7.791689e-10 -1.380012e-08 4.682623e-09 -5.119762e-09 4.367664e-10 -8.115005e-10
-2.893017e-09 -1.282448e-08 4.555562e-09 -4.934528e-09 -6.008984e-10 -5.773568e-10
-6.236238e-09 -6.251665e-09 3.678835e-09 -3.622459e-09 -1.370253e-10 3.391010e-11
-7.117701e-09 -4.193381e-09 3.009901e-09 -3.683016e-09 5.896910e-10 -1.162690e-10
-6.970654e-09 -2.849349e-09 3.069725e-09 -2.909077e-09 -2.046500e-10 -2.239283e-10
-4.008184e-09 1.060247e-08 -5.042097e-09 -1.531771e-08 -1.395150e-09 3.292996e-09
-5.187376e-09 9.073761e-09 -3.795379e-09 -1.255013e-08 -1.561727e-11 -3.568230e-10
-3.446096e-09 6.813887e-09 -3.175806e-09 -1.353962e-08 -7.027907e-10 6.028927e-10
-3.319632e-09 7.861694e-09 -2.874673e-09 -1.310308e-08 -1.002664e-09 3.373443e-10
4.318823e-10 8.258851e-09 -3.293636e-09 -1.615069e-08 -9.218151e-10 1.354903e-09
-1.777065e-08 3.624719e-08 -3.024568e-08 2.235192e-08 8.623157e-09 -8.078941e-09
-2.006980e-08 3.164057e-08 -3.283026e-08 1.902337e-08 5.163469e-09 -1.061692e-08
-2.226082e-08 2.901628e-08 -2.648977e-08 1.645396e-08 7.605173e-09 -7.276871e-09
8.673632e-09 -4.909195e-09 -1.240446e-09 7.459649e-10 -3.493178e-11 1.781297e-10
9.175796e-09 -5.113391e-09 -1.259404e-09 1.322685e-09 7.443621e-11 3.348020e-10
9.023077e-09 -4.618804e-09 -1.198841e-09 1.992961e-09 5.711583e-11 1.711586e-11
7.075281e-09 -4.577685e-09 -1.066409e-09 1.491599e-09 9.576332e-12 -1.633343e-10
8.177612e-09 -4.596610e-09 -1.129964e-09 1.819892e-09 1.644079e-11 4.458369e-10
8.597991e-09 -4.770379e-09 -1.363630e-09 -2.412167e-09 -1.047007e-11 2.745090e-10
2.716900e-09 -1.438352e-09 -3.961644e-10 5.579197e-10 5.067036e-11 -2.944820e-10
7.497841e-09 -3.220141e-09 -9.990526e-10 -2.413831e-09 -2.291202e-10 2.051299e-10
6.071192e-09 -3.343029e-09 -9.474501e-10 -2.978031e-09 -1.903249e-10 1.106644e-10
8.905657e-09 -4.239135e-09 -1.383476e-09 -3.132278e-09 -2.841016e-10 2.379787e-10
6.805813e-09 -3.372239e-09 -1.192693e-09 -2.979051e-09 -2.963791e-10 4.274394e-10
7.281677e-09 -3.833135e-09 -1.192833e-09 -2.734792e-09 -8.853007e-11 3.354938e-11
3.530292e-08 6.656492e-10 -7.766184e-09 9.963894e-09 -1.307233e-09 2.643771e-09
4.045832e-08 1.478663e-09 -5.206827e-09 1.963368e-08 5.035696e-09 3.158553e-09
-4.610908e-08 9.303552e-08 -2.257516e-08 -2.144916e-08 -1.946226e-08 -2.524865e-08
3.316404e-08 -1.646815e-09 -2.785761e-10 2.219873e-08 5.022955e-09 3.238600e-09
6.874386e-09 -4.095071e-09 -9.722869e-10 1.747737e-09 2.495065e-10 6.836531e-11
1.857167e-09 -1.432129e-09 -2.137734e-10 2.241565e-09 9.508858e-11 1.282138e-10
1.864057e-09 -1.260498e-09 -3.075522e-10 7.289841e-10 2.708992e-10 1.009051e-10
2.828251e-09 -1.391886e-09 -3.186971e-10 1.257986e-09 1.992606e-10 5.217138e-10
2.686606e-09 -1.387132e-09 -3.952587e-10 4.183622e-10 1.637601e-10 -2.301441e-10
2.331520e-09 -8.375571e-10 -3.122906e-10 7.206653e-10 3.049561e-12 1.268416e-10
-4.589273e-09 4.099792e-09 1.297327e-10 -1.413963e-09 9.435053e-11 2.866862e-11
1.447711e-09 -7.041567e-10 -2.546190e-10 4.187575e-10 9.607537e-11 -1.899163e-10
3.772348e-08 2.442494e-09 -7.761482e-09 7.806671e-09 -1.850661e-10 1.655178e-09
1.906604e-08 1.640668e-08 -7.531827e-09 1.690357e-08 1.764507e-09 -2.616391e-10
5.316508e-08 -1.610869e-09 -6.388322e-09 1.943959e-08 4.499900e-09 5.090946e-09
4.850427e-08 -4.617255e-09 -8.359596e-09 -1.519549e-08 -1.458623e-09 4.598311e-09
3.406956e-08 7.390237e-10 -7.477430e-09 -1.327739e-08 -9.313336e-10 4.820290e-09
5.468067e-08 -8.704261e-10 -4.495132e-11 -2.003742e-08 -7.072754e-09 1.194197e-08
4.174801e-08 -1.119705e-09 -3.366172e-09 -1.467727e-08 -1.956425e-09 1.043884e-08
1.518818e-08 1.565926e-08 -6.696517e-09 -1.786614e-08 -2.497668e-09 7.317859e-10
5.487753e-08 -4.424139e-10 -1.077541e-08 -2.038626e-08 -4.983465e-09 8.886242e-09
-1.118670e-09 4.338698e-10 7.851941e-12 2.855855e-09 4.091532e-10 -5.823297e-11
7.700933e-08 -1.150156e-08 -1.207716e-08 -8.409188e-09 -3.281437e-09 1.474914e-08
6.314557e-08 -6.390685e-09 -3.564199e-09 -2.011929e-08 -6.609132e-09 1.629393e-08
6.497456e-08 -1.344203e-08 -1.034169e-09 -1.277999e-08 -3.066336e-09 1.270925e-08
4.435825e-08 -1.337199e-08 -4.302952e-09 -9.119088e-09 -1.197098e-09 5.195730e-09
7.643733e-08 -1.652298e-08 -1.571538e-08 -1.113675e-08 -7.568533e-09 1.256170e-08
6.498307e-08 -3.006839e-09 -5.983016e-09 -2.231808e-08 -1.290749e-08 1.916326e-08
6.445366e-08 -1.990141e-08 1.680360e-10 -1.911267e-08 -2.536906e-09 1.818846e-08
-2.175455e-08 1.215543e-08 -2.961378e-09 1.247437e-08 1.151001e-08 -5.710287e-09
-1.678021e-08 2.381410e-08 -2.846158e-10 2.328816e-09 1.329471e-09 -1.876720e-09
-4.384397e-09 1.970547e-08 -7.498092e-09 -3.518783e-09 6.956703e-09 -4.572170e-09
-1.866763e-08 3.404948e-08 -6.289121e-09 4.581444e-09 9.099409e-09 -8.802911e-09
-7.897316e-09 -1.670511e-08 6.781324e-09 7.752202e-09 2.733408e-09 5.641686e-10
-1.168915e-08 -1.299976e-08 5.429011e-09 7.943901e-09 2.265538e-09 -5.359918e-10
-9.651273e-09 -1.579982e-08 5.749202e-09 6.256972e-09 9.472096e-10 -6.410077e-10
-8.755653e-09 -1.699790e-08 -1.173928e-10 1.733448e-08 5.931239e-09 -3.193990e-09
-1.309228e-08 -1.183565e-08 3.843351e-09 3.442943e-09 1.120192e-09 2.106422e-10
-1.016683e-08 -1.080075e-08 4.204201e-09 6.258436e-09 1.841009e-09 -8.239480e-10
-1.098857e-08 -1.022389e-08 3.529884e-09 5.827297e-09 1.687545e-09 1.952333e-10
5.844678e-08 -1.529515e-09 -5.196833e-09 1.871881e-08 4.001700e-09 1.093766e-08
5.530549e-08 -1.278020e-08 -4.162047e-09 9.194765e-09 7.807040e-10 4.256086e-09
7.465967e-08 -1.692623e-08 -2.819229e-09 2.458143e-08 1.323395e-08 2.055852e-08
5.389479e-08 -1.443803e-08 -4.409430e-09 1.489798e-08 3.542984e-09 6.941427e-09
5.903712e-08 -1.486209e-09 -6.768399e-09 2.351723e-08 6.491240e-09 1.086430e-08
7.272271e-08 -2.637250e-08 1.774575e-08 1.604317e-08 6.635033e-09 2.595976e-08
-5.792436e-09 3.151359e-09 9.589787e-10 1.252430e-09 1.970858e-10 -1.087158e-10
-5.723797e-09 3.160622e-09 8.599641e-10 5.854446e-10 1.099303e-10 -3.555755e-10
-4.695766e-09 2.536186e-09 6.789298e-10 9.877543e-10 2.412665e-10 -6.638423e-11
-5.391835e-09 2.775144e-09 8.194476e-10 1.205074e-09 2.277222e-10 1.059633e-10
-3.889303e-08 4.168436e-08 2.267488e-08 -5.259563e-08 -2.092808e-08 3.029977e-09
6.372706e-09 -8.092903e-10 -1.250443e-09 -9.195126e-09 -4.979248e-10 1.802341e-10
-6.054203e-09 2.990260e-09 8.384853e-10 1.139024e-09 -7.093508e-12 8.360945e-11
-3.242574e-09 -1.506470e-08 -1.305784e-09 6.637023e-09 -1.905787e-09 1.806551e-09
-4.093282e-09 -1.119520e-08 -3.997958e-10 2.942310e-09 -9.548708e-10 -2.057497e-10
-6.751220e-09 -5.296568e-09 -1.604212e-09 4.122162e-09 -1.576617e-09 5.320706e-10
-6.252473e-09 -5.203052e-09 -2.452975e-09 3.687962e-09 -9.784706e-11 -6.367884e-11
-3.282797e-09 -1.220805e-08 -2.469898e-09 3.526059e-09 5.537164e-10 -6.248293e-10
6.046877e-08 -3.655919e-08 5.193896e-08 1.752048e-08 1.970935e-09 2.615196e-08
5.288000e-08 -4.729752e-08 1.226986e-07 -2.342102e-09 -1.170665e-10 3.370781e-08
6.920555e-08 -3.844164e-08 6.516839e-08 1.042698e-08 1.994191e-09 2.567147e-08
-1.389107e-08 2.739467e-08 -2.523175e-08 -4.596639e-09 -2.319312e-09 -6.981135e-10
-1.392868e-08 1.905426e-08 -1.815905e-08 -8.414775e-09 -3.183007e-09 -1.900622e-09
-1.419895e-09 7.748353e-10 1.063321e-10 1.860006e-09 3.864888e-10 -4.970002e-11
-1.011692e-09 1.154044e-09 1.495821e-10 1.624277e-09 1.630580e-10 -2.604606e-10
8.837991e-09 -4.914472e-09 -1.179376e-09 2.753415e-09 -2.212641e-10 -2.630798e-10
-3.207126e-09 1.326543e-09 5.067367e-10 1.707172e-09 2.152826e-10 1.592357e-10
9.627113e-09 -5.379372e-09 -1.280635e-09 1.810956e-10 9.153922e-11 3.828227e-11
-5.201901e-10 4.338174e-10 1.249594e-10 2.804210e-09 3.527314e-10 3.216145e-10
3.595400e-10 -1.728617e-11 -7.717893e-11 2.333397e-09 2.128363e-10 -2.568833e-10
-2.530957e-09 1.326945e-09 2.870522e-10 1.757075e-09 2.251865e-10 -2.109959e-10
-5.698062e-09 3.015012e-09 8.838068e-10 1.018234e-09 8.753620e-11 -1.908462e-10
1.459592e-08 -6.823859e-09 -1.295217e-09 8.578572e-10 -5.907968e-11 -2.911114e-10
-5.616027e-09 3.140456e-09 8.055461e-10 4.231149e-10 -6.883384e-13 2.504852e-11
-5.663445e-09 2.965733e-09 7.882317e-10 1.014297e-09 1.790124e-11 -1.864671e-10
-5.991117e-09 3.257050e-09 8.403553e-10 5.891780e-10 1.188960e-11 -2.076055e-10
-5.408985e-09 2.997028e-09 7.357888e-10 7.259224e-10 2.876321e-11 2.043949e-10
-3.178164e-10 1.333567e-09 -3.253939e-10 -1.139667e-09 -2.552998e-10 3.883316e-11
3.930456e-11 1.642109e-09 -4.500693e-10 -7.442325e-10 -1.059730e-10 1.319567e-10
-2.945000e-10 1.192609e-09 -3.752849e-10 -1.272253e-09 5.175771e-11 -3.486067e-11
-4.129994e-10 1.880604e-09 -2.523528e-10 -1.022599e-09 -4.883782e-11 5.601597e-11
2.299636e-10 1.363782e-09 -4.248073e-10 -1.375265e-09 -2.801008e-10 -1.607436e-10
-7.724793e-09 4.153181e-09 1.043544e-09 8.816348e-11 1.431683e-11 -4.129874e-11
-7.843118e-09 4.180960e-09 1.083351e-09 8.211454e-11 4.260073e-11 -3.413753e-11
1.105503e-08 -6.053017e-09 -1.413638e-09 8.076515e-10 -7.498296e-11 1.733922e-10
-7.848218e-09 4.221612e-09 1.104827e-09 8.063239e-11 2.113443e-11 -6.240297e-11
-7.756491e-09 4.169914e-09 1.080904e-09 7.692202e-11 -1.755263e-12 -1.706235e-11
-7.808330e-09 4.050248e-09 1.097340e-09 2.395133e-10 -3.902435e-13 -2.297651e-11
1.039796e-08 -6.020836e-09 -1.414113e-09 1.366906e-09 -9.078574e-11 -3.935128e-10
-2.303743e-09 -2.435545e-08 8.352815e-09 1.524738e-09 -1.155245e-10 1.338824e-10
-2.735046e-09 -2.481450e-08 8.372782e-09 7.968213e-10 9.059543e-12 1.342555e-10
8.112568e-10 5.559135e-10 -4.446709e-10 -1.092424e-09 -3.242825e-10 3.965495e-12
-3.099267e-09 -2.409874e-08 8.268772e-09 1.891367e-09 -2.889986e-11 -2.939430e-12
-2.632249e-09 -1.134070e-08 -1.597644e-08 -1.314569e-08 -4.384165e-09 -2.947202e-10
-3.870645e-09 -9.374427e-09 -8.813740e-09 -1.263677e-08 -6.494927e-09 -2.144877e-09
-1.793305e-09 -1.485568e-08 -5.855169e-09 -8.308377e-09 -2.063014e-09 8.767784e-10
-3.842119e-09 -1.377683e-08 -5.350626e-09 -8.164410e-09 -3.080532e-09 -1.648014e-11
-1.700911e-09 -1.489908e-08 -4.673107e-09 -8.334239e-09 -3.009644e-09 -1.221412e-09
-7.072083e-09 3.738885e-09 1.020788e-09 3.669047e-10 4.599876e-11 3.454237e-11
-6.543124e-09 3.517172e-09 9.301027e-10 4.611418e-10 1.792078e-11 1.564424e-10
-6.801892e-09 3.628484e-09 9.836416e-10 2.776845e-10 -1.823608e-11 -2.621081e-11
-6.173892e-09 3.371902e-09 9.451986e-10 6.932734e-10 1.642940e-11 1.764391e-11
-1.010526e-08 -1.229242e-08 -3.933620e-09 -3.880826e-09 -9.070593e-10 -1.502694e-10
-5.691936e-09 -1.193514e-08 -5.145581e-09 -5.136750e-09 -6.434564e-10 -1.031361e-09
-9.445536e-09 -9.256448e-09 -1.585204e-09 -2.701904e-09 -1.574976e-09 -1.338213e-09
-6.981508e-09 -1.684093e-08 -2.743582e-09 -4.067571e-09 -1.971601e-09 -7.488347e-10
-6.997721e-09 -1.699014e-08 -3.043925e-10 -4.168532e-09 -2.386399e-09 -1.462097e-09
-3.202274e-09 -1.798666e-08 -2.922497e-09 -3.062294e-09 -2.599144e-09 -1.074688e-09
-7.721953e-09 -1.169531e-08 -1.798946e-09 -1.991341e-09 4.012353e-10 -2.772569e-10
1.517723e-08 -7.018904e-09 -1.464351e-09 -3.403964e-10 -8.069073e-12 -3.460130e-10
-6.898467e-09 -1.320234e-08 -3.394690e-09 -4.647617e-09 -2.430600e-09 -7.574234e-10
-6.149034e-09 -1.122218e-08 -4.746799e-09 -6.917102e-09 -4.364386e-09 -9.906727e-10
4.946390e-10 1.623283e-09 -6.744734e-10 -7.657712e-09 -2.168621e-11 -1.186682e-10
-6.960335e-10 2.018028e-09 -5.324123e-10 -6.038966e-09 2.021805e-10 -3.980638e-11
7.781500e-10 8.575382e-10 -6.816512e-10 -6.281811e-09 -2.025340e-10 -4.266594e-10
-1.901896e-08 3.092089e-08 -1.890114e-08 -1.664519e-08 2.303044e-09 6.624601e-09
-2.105067e-08 3.063461e-08 -1.708900e-08 -7.990707e-09 3.830268e-09 5.622587e-09
-1.879836e-08 1.516978e-08 -2.695725e-08 -2.119802e-08 3.370276e-09 7.605131e-09
-1.225279e-08 -5.749613e-09 2.887138e-09 -6.304421e-09 -4.572991e-09 -1.092431e-10
-1.490814e-08 1.869503e-08 -9.759870e-09 -1.514372e-08 3.490163e-09 3.234886e-09
-2.116349e-08 2.032477e-08 -1.157143e-08 -1.118496e-08 3.746601e-09 3.396976e-09
-9.180274e-09 5.442447e-09 1.070326e-09 1.817331e-09 4.191754e-10 -4.140537e-10
-8.817523e-09 4.318546e-09 1.226205e-09 9.572048e-10 -4.409830e-10 -6.806269e-10
-8.835017e-09 4.920434e-09 1.113730e-09 4.674575e-10 5.728986e-10 1.375715e-10
-9.687007e-09 6.806858e-09 1.080232e-09 8.380734e-10 9.565056e-10 3.302011e-10
-2.213859e-08 3.192513e-09 8.070056e-10 1.150094e-08 6.073407e-09 -1.623199e-09
-1.764447e-08 2.672325e-09 -1.211553e-10 1.311036e-08 7.474424e-09 -7.661123e-10
-8.125530e-09 6.582743e-10 2.436865e-09 4.283751e-10 2.081906e-10 -1.789125e-11
-1.588635e-08 9.344778e-09 -6.572321e-09 2.015982e-08 1.033433e-08 -5.174703e-09
-2.210045e-08 6.431128e-09 -5.287859e-11 1.099632e-08 5.541573e-09 -1.736142e-09
-2.060668e-08 6.430109e-09 -2.209939e-09 2.405677e-08 8.717813e-09 -5.989593e-09
-1.177370e-08 1.198305e-07 -7.819362e-08 1.673971e-08 -1.876582e-08 -4.550950e-09
-6.809080e-09 3.451145e-09 1.012327e-09 7.976006e-10 1.202716e-10 -1.601026e-10
-7.007385e-09 3.515621e-09 1.124485e-09 8.557982e-10 7.618822e-11 -9.656920e-11
-7.197250e-09 3.702230e-09 9.503140e-10 4.643432e-10 9.465162e-11 -1.612723e-10
-7.149654e-09 3.398105e-09 1.197665e-09 3.925737e-10 4.035483e-11 -5.080263e-11
-7.182605e-09 3.404879e-09 1.160958e-09 6.583924e-10 5.291900e-11 -2.570064e-10
1.433854e-08 -4.028681e-08 1.147433e-09 -6.606894e-09 1.509170e-09 4.515437e-10
1.436551e-08 -4.069739e-08 4.345816e-09 -3.134369e-09 1.413658e-09 1.754159e-10
-1.086391e-08 -3.404727e-08 1.349965e-07 -1.497197e-10 -6.360838e-09 -1.127031e-08
7.868825e-09 -4.673351e-09 -1.130451e-09 5.619634e-10 1.397736e-10 6.706302e-11
1.597328e-08 -4.079862e-08 4.369744e-09 -2.765759e-09 1.483979e-09 -5.439536e-10
1.791205e-09 -3.081676e-08 -4.112334e-09 -1.177152e-08 -8.387244e-09 -3.300185e-09
-2.917816e-08 3.995885e-08 4.221509e-08 3.098059e-08 -1.866429e-08 -4.370169e-09
6.285439e-09 -3.153971e-09 -1.053248e-09 -9.839752e-10 -1.625123e-10 -8.556877e-11
-7.008410e-09 -5.723782e-09 -3.458380e-09 -9.123234e-09 -7.099365e-09 -2.086313e-09
-7.840763e-09 -1.981214e-08 3.544838e-09 -7.239561e-09 -4.393988e-09 -1.693691e-09
-9.872670e-10 -2.795315e-08 -1.978894e-10 -1.040652e-08 -9.784333e-09 -2.626360e-09
-4.162153e-10 -2.122290e-08 -2.215078e-09 -1.253803e-08 -1.005931e-08 -2.079950e-09
1.654400e-09 -2.553804e-08 -6.799861e-09 -1.246964e-08 -1.187962e-08 -3.908457e-09
-5.908255e-09 4.636881e-09 2.315419e-10 -1.337811e-09 4.316569e-11 -2.323342e-11
-5.187216e-09 4.131321e-09 2.592753e-10 -1.913868e-09 -8.937384e-11 -4.966787e-10
-5.179382e-09 4.722717e-09 2.256728e-10 -1.588070e-09 5.192880e-11 -5.104753e-11
-2.007868e-09 2.940771e-09 -2.191474e-10 -6.132215e-10 -3.700970e-10 -9.198098e-11
-7.183418e-10 1.715492e-09 -3.854601e-10 -6.476459e-10 -2.140030e-10 -2.908548e-10
-5.326308e-10 1.536887e-09 -3.033449e-10 -1.891060e-09 -2.428273e-10 2.662897e-10
-2.004801e-10 1.130839e-09 -4.936616e-10 -1.235821e-09 -6.858725e-11 1.519188e-10
4.741469e-10 1.020296e-09 -3.040210e-10 -5.888232e-10 -8.872580e-11 -2.325301e-10
-4.581188e-10 1.275172e-09 -3.655152e-10 -9.171610e-10 -1.078647e-10 -8.675090e-11
-8.212890e-09 3.961764e-10 2.601722e-09 -5.262124e-11 -2.949656e-10 -9.208256e-11
4.083205e-10 -2.485150e-08 7.486411e-09 5.321588e-09 5.918976e-10 1.804707e-10
-1.633931e-10 -2.506058e-08 7.865925e-09 5.342912e-09 4.109462e-10 -3.548576e-11
2.641092e-09 -2.856409e-08 7.975523e-09 7.867455e-09 9.541838e-10 2.505721e-10
3.218155e-10 -2.900948e-08 8.131265e-09 6.814190e-09 3.028770e-10 3.445069e-10
2.787844e-09 -2.815769e-08 7.489056e-09 7.540125e-09 4.612837e-10 2.915632e-10
-1.402753e-10 -2.478891e-08 7.711856e-09 5.650858e-09 3.821770e-10 1.582016e-10
-3.403746e-08 5.878262e-08 -3.748414e-09 -3.682183e-08 4.157065e-09 -4.154012e-09
-3.359554e-09 3.087810e-09 -2.626632e-11 -1.855448e-09 -2.781662e-10 -4.621081e-11
-2.926774e-09 3.137542e-09 -3.998135e-11 -2.011663e-09 -2.821750e-10 -6.213552e-11
-3.553353e-09 3.607857e-09 4.067591e-11 -2.435342e-09 -2.907022e-10 -2.700074e-11
-4.900537e-09 4.407008e-09 2.090117e-10 -1.027727e-09 -9.032330e-11 -1.350085e-10
-4.367843e-09 3.782279e-09 7.454304e-11 -1.295183e-09 -1.608105e-10 -2.887744e-11
-2.423509e-09 3.526280e-09 -5.829559e-11 -1.725863e-09 5.360001e-11 -3.030655e-10
-3.240050e-09 3.651504e-09 -5.103296e-11 -1.484388e-09 -1.345781e-10 -1.956963e-10
-4.094427e-09 3.856456e-09 1.545875e-11 -1.861169e-09 -2.204356e-10 -1.548321e-10
-4.265789e-09 3.821347e-09 1.405456e-10 -1.372244e-09 -2.188218e-10 1.172594e-10
-5.388988e-09 4.686528e-09 1.688421e-10 -1.106766e-09 -1.335386e-10 -4.328213e-10
-4.417786e-09 3.900375e-09 7.518275e-11 -1.944963e-09 -1.593716e-10 -2.173822e-10
-7.446702e-09 3.824603e-09 1.178320e-09 6.250351e-10 1.684326e-10 -6.106360e-11
-7.387737e-09 3.532166e-09 1.041904e-09 7.189849e-10 1.503133e-10 -1.418414e-10
-7.656003e-09 3.616372e-09 1.220498e-09 5.007261e-10 5.865375e-11 -5.012213e-11
-7.418013e-09 3.757968e-09 1.172868e-09 4.893619e-10 6.784506e-11 -4.788755e-11
-7.224358e-09 3.785290e-09 1.133490e-09 4.161520e-10 8.097678e-11 -7.239232e-11
-6.644364e-09 3.494476e-09 1.079045e-09 6.560523e-10 1.903446e-10 -9.768855e-11
-6.639325e-09 3.444676e-09 1.064843e-09 6.756500e-10 1.629703e-10 -8.363596e-11
-7.111862e-09 3.413655e-09 1.336259e-09 9.091223e-10 1.569000e-10 1.359610e-10
-3.144892e-08 6.250648e-08 2.206407e-08 -4.013675e-08 -1.491425e-08 7.720241e-09
-7.264889e-09 3.755763e-09 1.061001e-09 4.936904e-10 8.608292e-11 -1.630744e-10
-7.775617e-09 4.068751e-09 1.093323e-09 1.468577e-10 1.530709e-11 -9.148859e-11
-7.838221e-09 4.028713e-09 1.176760e-09 7.102141e-11 -7.523315e-12 -4.936807e-11
-7.792270e-09 4.030027e-09 1.121258e-09 2.295177e-10 4.219314e-11 -8.809842e-11
-7.781715e-09 3.914677e-09 1.208218e-09 1.186367e-10 4.123735e-11 -1.226117e-10
-7.912242e-09 3.860066e-09 1.220978e-09 3.419576e-11 2.183675e-11 -1.534779e-10
-7.848811e-09 3.901485e-09 1.269175e-09 7.127854e-11 -4.380918e-11 2.772915e-11
-7.772245e-09 3.938722e-09 1.217410e-09 1.710720e-11 -3.226752e-11 2.206324e-11
-1.393118e-08 -5.636449e-09 1.567747e-09 -1.380793e-08 -8.493342e-09 -3.300371e-09
-1.499091e-08 -5.242849e-09 -3.408549e-09 -1.454209e-08 -1.297180e-08 -5.053569e-09
-1.766325e-08 1.661435e-10 3.331119e-09 -7.965244e-09 -5.829589e-09 -6.954095e-10
-1.865871e-08 1.649797e-09 6.993619e-10 -8.780591e-09 -6.565315e-09 -2.370916e-09
-1.756911e-08 1.361223e-09 -1.729715e-09 -1.272610e-08 -1.006243e-08 -2.187362e-09
-1.484224e-08 3.222198e-10 -4.960065e-10 -1.019428e-08 -8.610478e-09 -2.927470e-09
-1.420681e-08 -2.267693e-09 2.464818e-09 -1.248017e-08 -7.531908e-09 -2.842450e-09
7.697544e-08 -1.886183e-08 -9.062294e-09 8.283989e-10 -3.936448e-09 2.120801e-08
7.650485e-08 -1.992013e-08 -3.612650e-09 1.714436e-09 -1.015838e-09 2.067699e-08
8.168044e-08 -2.219176e-08 1.379276e-09 -1.113294e-08 -7.538751e-10 2.279496e-08
8.152099e-08 -2.632469e-08 1.314895e-09 6.203611e-09 3.089639e-09 2.565454e-08
1.069446e-07 -2.982133e-08 2.914220e-09 4.398966e-10 -4.815507e-09 4.633388e-08
2.768327e-08 2.430275e-08 -7.126418e-09 2.831970e-08 5.673019e-09 2.425809e-10
2.386570e-08 5.278137e-09 -9.428218e-09 1.011303e-08 -4.525102e-09 -4.146348e-09
5.585022e-09 1.616323e-08 -1.228665e-08 3.178500e-09 -5.202372e-09 -4.443376e-09
-3.612251e-09 2.487527e-08 -1.160184e-08 4.727083e-09 -8.429759e-09 -8.482740e-09
3.503327e-09 2.048728e-08 -1.702091e-08 1.477251e-08 -2.712497e-09 -1.080060e-08
1.887729e-08 1.644868e-08 -8.662157e-09 1.695618e-08 1.460217e-09 -1.564300e-09
6.148463e-08 -2.367206e-08 7.068709e-09 -1.469997e-08 -5.143944e-09 7.547163e-09
6.219342e-08 -2.275776e-08 2.573566e-09 -1.846976e-09 -3.189687e-10 4.831443e-10
6.034999e-08 -2.771207e-08 2.279795e-09 -2.325733e-09 -1.382874e-11 4.361581e-09
5.754792e-08 -2.372668e-08 9.767385e-09 -1.518567e-08 -4.560905e-09 1.458048e-08
6.049141e-08 -2.675195e-08 1.034588e-08 -2.875199e-09 1.029094e-09 3.349690e-09
5.241195e-08 -2.739997e-08 1.037860e-08 -7.803336e-09 -9.124103e-11 1.624243e-09
5.594836e-08 -2.223260e-08 1.077455e-08 -1.530052e-08 -2.757440e-09 1.307020e-08
4.478072e-08 -1.335804e-08 -1.080600e-09 -9.392494e-09 -9.121979e-10 3.191586e-09
6.258259e-08 -2.122575e-08 6.308659e-09 -6.034731e-09 6.455892e-10 8.952338e-09
6.271402e-08 -1.316639e-08 -1.974762e-08 -1.661012e-08 -7.496455e-10 1.147479e-08
-3.394380e-08 5.654704e-08 5.617927e-08 -3.625646e-08 -6.862954e-11 -4.460674e-10
8.093868e-08 -2.300231e-08 1.853929e-08 -1.654459e-08 -6.478311e-09 4.399586e-08
-7.712694e-09 1.130545e-07 -1.534880e-07 8.702950e-09 4.459112e-08 -2.486810e-08
9.591508e-09 -5.323384e-09 -1.244504e-09 -1.522997e-09 -1.760794e-10 4.301113e-12
9.245154e-09 -5.423386e-09 -1.219575e-09 -1.845162e-09 -1.304706e-10 3.290606e-10
8.226005e-09 -4.200975e-09 -1.208843e-09 -2.191007e-09 -3.375483e-10 -4.903283e-11
8.650867e-09 -4.685524e-09 -1.088278e-09 -1.791827e-09 -3.452093e-10 4.357613e-10
7.839490e-09 -4.367749e-09 -1.233701e-09 -2.791577e-09 -2.952345e-10 -2.100054e-10
8.681832e-09 -4.819189e-09 -1.333925e-09 -2.420915e-09 -1.546860e-11 2.228100e-10
-2.402897e-09 -2.466444e-08 8.240106e-09 5.081153e-10 8.986598e-12 -3.772738e-11
-2.706422e-10 -2.521412e-08 8.214834e-09 2.037092e-09 2.143559e-10 3.486377e-10
-6.269065e-10 -2.602952e-08 8.352823e-09 1.241006e-09 1.430223e-10 8.268608e-11
-1.769713e-09 -2.588486e-08 8.382441e-09 1.183133e-09 2.458216e-10 -9.550960e-11
-5.440945e-10 -2.700177e-08 8.436057e-09 1.767081e-09 -3.443152e-10 -5.324650e-13
-2.756012e-09 -2.406387e-08 8.300364e-09 1.903979e-09 1.645799e-10 3.035099e-10
-2.188534e-09 -2.360591e-08 8.062329e-09 2.518446e-09 -3.398601e-10 7.830480e-11
-2.414682e-10 -2.649441e-08 8.227595e-09 2.246132e-09 -1.186442e-10 4.275624e-10
-9.771925e-09 -1.598611e-08 4.909763e-09 6.065102e-09 1.628315e-09 -2.959398e-10
-5.632856e-09 -1.794565e-08 5.898076e-09 8.704388e-09 1.208785e-09 1.192534e-11
-6.257597e-09 -1.935044e-08 5.055213e-09 9.534205e-09 7.060597e-10 6.479475e-10
-6.195730e-09 -1.804542e-08 6.083534e-09 7.030712e-09 6.903997e-10 2.385208e-10
-6.394608e-09 -2.143852e-08 7.402350e-09 4.632004e-09 9.119519e-10 1.263169e-09
-5.061833e-09 -2.283805e-08 7.227220e-09 5.772165e-09 5.719153e-10 2.890981e-10
-3.298886e-09 -2.153720e-08 6.519309e-09 5.216425e-09 7.364927e-10 -3.283116e-10
-8.913006e-09 -1.587501e-08 6.912099e-09 3.191813e-09 1.219458e-09 6.506969e-10
-1.193907e-08 -7.989422e-09 3.426753e-09 6.861358e-09 2.565935e-09 2.204218e-10
-7.891399e-09 -1.609337e-08 6.087336e-09 7.820826e-09 8.396970e-10 2.437035e-10
-2.337818e-08 6.316285e-08 -1.616358e-08 1.155676e-08 -4.835564e-09 1.566429e-08
-7.663711e-09 -1.613624e-08 5.705626e-09 3.693290e-09 1.793037e-09 -1.809184e-10
-1.185749e-08 -9.783215e-09 5.824024e-09 3.346525e-09 2.830454e-09 1.487768e-10
-9.234379e-09 -1.497232e-08 5.941029e-09 3.434712e-09 1.453071e-09 8.195049e-11
-9.328000e-09 -1.299984e-08 6.033560e-09 9.758237e-09 2.000669e-09 7.982372e-10
-2.109672e-08 2.392738e-08 -9.386082e-09 6.412933e-09 8.202464e-09 -5.815726e-09
-1.656623e-08 2.376151e-08 -8.269040e-09 7.946755e-09 8.122700e-09 -7.308707e-09
-2.545001e-08 2.431418e-08 -1.304597e-08 1.937837e-08 1.251052e-08 -1.197033e-08
-2.327865e-08 3.057040e-08 -1.594179e-08 1.290788e-08 1.362443e-08 -1.122739e-08
-1.805922e-08 2.401291e-08 -6.459753e-09 4.734911e-09 6.631079e-09 -5.555984e-09
-1.513678e-08 2.151319e-08 -5.793360e-09 4.388492e-09 7.496735e-09 -3.741921e-09
-2.821359e-08 2.793779e-08 -7.036748e-09 1.548292e-08 7.172356e-09 -1.067461e-08
2.524909e-08 -4.840902e-08 -1.519174e-08 -1.617524e-09 -1.701834e-08 2.497881e-10
6.312523e-08 -1.600899e-08 -6.666260e-09 5.226912e-10 -2.497473e-09 5.540968e-09
6.620394e-08 -1.540558e-08 -1.110168e-08 8.734728e-09 1.193473e-09 1.107571e-08
7.263278e-08 -1.718119e-08 -1.514826e-08 1.198792e-09 4.815359e-09 1.092400e-08
7.440019e-08 -2.287822e-08 8.993102e-09 -8.326977e-09 -1.513098e-09 1.994726e-08
2.830061e-08 -3.563647e-08 -3.347257e-08 -2.574897e-09 -7.291485e-09 -5.628678e-11
8.994838e-08 -3.764156e-12 -1.588356e-08 1.355433e-08 1.990796e-09 3.468161e-08
-1.891587e-08 8.876545e-09 -4.940859e-09 -5.426981e-09 -4.442995e-09 -1.850828e-09
-1.690178e-08 8.785659e-09 -5.597903e-09 -7.241680e-09 -3.861805e-09 -1.063881e-09
-1.824098e-08 8.629939e-09 -5.000347e-09 -7.685601e-09 -8.756747e-09 -3.071215e-09
2.724268e-08 -6.579306e-08 1.151242e-09 2.453038e-09 -1.429276e-08 2.018044e-09
-1.809124e-08 8.662121e-09 -7.267087e-09 -7.298304e-09 -5.825132e-09 -2.646883e-09
-1.187749e-08 2.364288e-08 -1.629032e-08 -1.096387e-09 -1.048982e-08 -1.382222e-08
4.781141e-09 3.158167e-08 -1.666720e-08 1.092331e-08 -5.563883e-09 -9.663440e-09
-1.358609e-08 2.734725e-08 -1.470428e-08 8.393496e-10 -9.855289e-09 -1.762947e-08
-1.115841e-08 3.300716e-08 -1.634281e-08 -2.593130e-09 -1.235348e-08 -1.646320e-08
-1.509773e-08 2.710554e-08 -2.279984e-08 1.730746e-09 -9.543777e-09 -1.177255e-08
-5.961006e-09 4.104446e-08 -2.251591e-08 1.673731e-08 -5.348272e-09 -1.031144e-08
6.216718e-09 -2.891619e-09 -1.052522e-09 -2.185171e-09 -2.535598e-10 1.401014e-10
-9.951848e-09 3.202302e-08 -2.484988e-08 4.867048e-09 -1.742565e-08 -2.097997e-08
2.849419e-09 3.773842e-08 -2.233349e-08 1.599260e-08 -6.915619e-09 -7.781952e-09
-2.664939e-08 4.186147e-08 -2.224560e-08 -7.086590e-09 2.531672e-09 9.188894e-09
-2.517244e-08 3.137557e-08 -9.474690e-09 -5.506957e-10 7.257484e-10 1.793083e-09
-2.411147e-08 2.649782e-08 -4.193282e-09 3.063361e-09 2.775242e-09 5.066765e-09
-2.461556e-08 2.527093e-08 -2.521226e-09 2.166489e-09 -4.174985e-10 1.902059e-09
-2.456788e-08 3.006916e-08 -9.627122e-09 -6.190315e-09 8.914161e-10 7.882992e-09
-6.974895e-09 -1.037955e-08 -6.141905e-09 -9.024322e-09 -3.517845e-09 -1.590939e-09
-1.071569e-08 -4.917402e-09 -7.864170e-09 -9.087782e-09 -3.624664e-09 -5.274889e-11
-9.620748e-09 -4.872935e-09 -1.975661e-09 -6.030989e-09 -1.506849e-09 -1.164341e-09
-1.690297e-08 8.277191e-09 -6.084935e-09 -7.194664e-09 4.849592e-10 -1.125267e-09
-7.872495e-09 -1.079259e-08 1.065183e-09 -6.255057e-09 -4.490377e-09 1.027784e-09
-1.200210e-08 -4.546982e-09 -3.234179e-09 -8.780188e-09 -6.353446e-09 -2.994174e-09
3.174364e-08 -1.328939e-08 1.573011e-08 -5.964689e-09 9.369986e-10 -6.045274e-09
1.930265e-08 -9.255771e-09 8.941756e-09 -1.657100e-08 1.330145e-09 9.000623e-11
-5.160278e-08 -4.056014e-08 2.465614e-07 -3.093510e-08 -1.052040e-08 1.575062e-08
1.895116e-08 -1.342440e-08 8.010978e-09 -4.237757e-09 4.676276e-10 -4.167797e-09
1.807074e-09 3.011117e-08 -6.512208e-08 -1.877789e-08 1.605483e-08 3.656856e-09
1.184799e-08 4.572991e-08 -1.038679e-07 -2.294067e-08 2.772327e-08 2.186427e-08
-7.907090e-09 5.337988e-08 -1.035374e-07 -1.892352e-08 2.600868e-08 2.204830e-08
-1.825944e-08 2.911926e-08 1.132705e-07 -3.618826e-08 4.670433e-08 8.403334e-09
2.554092e-08 -3.646734e-08 -2.921704e-08 5.120104e-09 -7.625033e-09 9.202055e-10
-1.136268e-08 -3.472944e-08 1.572025e-07 4.332872e-09 -4.979013e-09 -5.962476e-08
-2.887179e-10 -9.875046e-10 6.912506e-08 -2.764026e-08 1.388848e-08 -2.148205e-08
4.434229e-09 -4.203963e-08 1.226658e-07 -2.020732e-08 1.767235e-09 -2.654731e-08
2.921302e-09 -1.076669e-09 -2.899911e-10 3.512483e-09 -3.246020e-11 -1.770231e-10
1.590155e-09 -5.466196e-10 -2.120455e-10 4.207505e-09 3.381617e-10 2.135672e-10
1.079546e-09 1.124576e-10 -8.582868e-11 4.449778e-09 -1.272338e-11 -1.060316e-10
1.367171e-09 -5.164298e-10 -3.076055e-10 2.653351e-09 1.018335e-11 -3.847578e-10
2.527563e-09 -1.051181e-09 -2.983631e-10 3.511521e-09 -4.782785e-11 -9.310653e-11
1.564077e-08 6.868286e-09 2.485093e-08 4.013095e-08 5.126729e-09 -7.019513e-09
3.140730e-08 -2.279229e-08 8.341521e-08 4.169679e-08 2.976701e-09 2.901719e-08
2.665265e-08 -1.082835e-08 3.910971e-08 4.253226e-08 9.234801e-09 1.182676e-08
-8.392377e-09 3.775580e-08 -6.708071e-09 2.843888e-08 2.260018e-09 -4.490531e-09
-3.258276e-09 3.167775e-08 2.301798e-08 4.678564e-08 1.955381e-08 -4.991711e-09
1.959367e-09 4.289040e-08 -2.473640e-09 3.904818e-08 8.399721e-09 5.951335e-10
-1.692312e-08 1.498795e-08 -1.852518e-08 2.233758e-08 3.536235e-09 -2.272583e-09
-1.905154e-08 3.538478e-08 -3.875133e-08 2.098625e-08 6.979872e-09 -9.394082e-09
-1.956968e-08 2.506000e-08 -2.250267e-08 1.767643e-08 4.287920e-09 -7.067132e-09
-6.283305e-09 4.652551e-09 -2.647628e-08 2.817688e-08 1.324101e-08 -6.711835e-09
-7.964076e-09 9.723792e-09 -3.031558e-08 2.824322e-08 1.358416e-08 -4.158748e-09
-1.608116e-08 2.151941e-08 -1.806729e-08 1.972298e-08 5.269802e-09 -2.945142e-09
-7.888781e-09 -2.258858e-10 2.406392e-09 -8.369500e-10 -3.175611e-10 -2.811817e-10
-7.877376e-09 1.326411e-09 2.304226e-09 2.172275e-10 9.061241e-11 -3.238463e-10
-8.082243e-09 -2.245119e-09 2.887665e-09 -2.276554e-09 -5.032035e-10 -4.474977e-10
-7.760041e-09 -4.933778e-10 2.898505e-09 -6.307455e-10 -4.329093e-11 -3.821889e-10
-7.906841e-09 -5.184759e-10 2.633792e-09 -5.674181e-10 -1.498002e-10 -1.627745e-10
8.385604e-09 -3.900399e-09 -1.261244e-09 -2.820313e-09 -5.208501e-11 6.237582e-10
8.585507e-09 -4.858603e-09 -1.490156e-09 -2.389913e-09 9.908436e-12 -2.511589e-10
6.784957e-09 -2.841421e-09 -1.213027e-09 -5.596328e-09 -4.528479e-11 -9.062658e-11
7.688950e-09 -3.525234e-09 -1.314790e-09 -5.029273e-09 -3.838268e-10 4.909124e-10
6.726645e-09 -2.849095e-09 -1.142468e-09 -3.274054e-09 -9.729262e-11 2.383485e-10
7.796281e-09 -3.717776e-09 -1.206566e-09 -3.960892e-09 -1.629513e-10 5.211134e-10
-2.031105e-08 1.572085e-08 -2.925100e-09 -7.794791e-09 -9.381507e-09 -5.326246e-09
2.872861e-08 -3.311326e-08 -3.426092e-08 -4.975142e-09 -8.949225e-09 -3.456737e-10
2.983834e-08 -3.258767e-08 -3.405127e-08 5.094053e-10 -7.452807e-09 7.445072e-10
2.951390e-08 -3.050422e-08 -3.435013e-08 -7.552187e-09 -6.852332e-09 -6.495490e-10
2.951741e-08 -1.852766e-08 -5.588189e-08 -8.638417e-09 -2.816749e-08 8.147575e-10
3.147614e-08 -1.482070e-08 -5.536170e-08 -4.774009e-09 -1.103486e-08 7.054827e-10
3.295446e-08 -1.943958e-08 -5.516267e-08 -1.116687e-09 -2.573303e-08 3.011171e-09
-8.555409e-09 5.481798e-09 -4.728289e-10 -5.491316e-09 -5.533525e-10 4.095723e-11
-9.026247e-09 5.903816e-09 -8.435781e-10 -4.707157e-09 -1.037042e-09 1.031065e-09
-7.867398e-09 4.929866e-09 -3.943810e-10 -5.202056e-09 -5.213665e-10 2.838496e-10
-1.004823e-08 4.891928e-09 4.267751e-10 -3.364832e-09 -3.499428e-10 -2.721393e-10
-1.001763e-08 5.012297e-09 -2.939804e-10 -3.279450e-09 -3.482934e-10 6.706396e-10
-9.466429e-09 4.522569e-09 5.195218e-10 -3.540129e-09 -9.875300e-11 -5.715843e-10
1.755554e-08 -4.371528e-08 4.310716e-10 -2.444819e-09 1.547695e-09 -5.608638e-10
1.945446e-08 -4.256651e-08 6.194050e-10 -9.070067e-10 2.414151e-09 3.264786e-10
1.661961e-08 -4.550145e-08 6.503642e-10 2.478530e-09 1.804596e-09 6.189371e-10
1.535554e-08 -4.268148e-08 4.386979e-09 7.327137e-10 1.387749e-09 -2.648193e-11
1.460310e-08 -4.338357e-08 4.726999e-09 -1.105937e-10 3.678862e-11 4.469925e-10
1.592460e-08 -4.193609e-08 2.779861e-09 -2.522597e-09 9.746692e-11 -2.293692e-10
1.971436e-08 -9.324773e-10 -6.939054e-08 -2.789678e-08 1.659123e-08 8.105081e-09
1.023462e-08 7.367604e-09 -4.761393e-08 -2.622570e-08 8.655602e-09 4.452028e-09
-1.171683e-08 5.386793e-08 -6.409486e-08 -1.799953e-08 6.282935e-09 1.355812e-08
1.498516e-09 3.176557e-08 -7.577316e-08 -2.901851e-08 2.531309e-08 9.425303e-09
-1.145874e-08 7.333371e-09 -1.593407e-09 -8.983780e-09 1.947661e-09 6.498759e-10
1.944731e-08 2.342469e-08 -8.055301e-08 -2.631806e-08 1.918627e-08 6.217722e-09
1.616471e-08 1.642221e-08 -7.711956e-08 -3.323529e-08 2.007015e-08 1.063857e-08
-8.116551e-08 -3.776071e-08 2.879208e-07 1.243755e-08 -2.326831e-08 -3.983990e-08
-6.436563e-08 -3.711963e-08 2.587833e-07 1.642906e-08 -3.891248e-08 -9.195462e-08
-3.273974e-08 -4.483390e-10 1.111652e-07 -3.521552e-08 9.154069e-09 -1.593734e-08
-5.333097e-08 -5.675253e-09 1.285681e-07 -1.518539e-08 2.188109e-08 -1.257421e-08
-2.869339e-08 -2.506893e-08 1.360470e-07 -2.093851e-08 7.593276e-09 -3.859175e-08
3.995016e-08 3.366570e-09 -8.776903e-09 9.156144e-09 -1.723888e-09 3.644347e-09
-2.678346e-08 -3.944291e-08 1.778599e-07 -1.698683e-08 -5.815363e-09 -4.766335e-08
1.547484e-08 -1.306448e-09 -3.847500e-11 -1.877183e-08 6.904230e-10 7.024553e-11
7.266948e-09 3.956802e-11 2.971738e-09 -2.019483e-08 2.259842e-09 -2.006402e-09
3.010019e-08 -3.322581e-10 -2.820501e-10 -4.447163e-09 -3.198167e-10 3.834191e-09
3.142453e-09 1.692554e-08 -4.360775e-08 -2.014523e-08 -4.569475e-09 -4.899852e-09
1.584852e-08 -9.376854e-09 6.499284e-09 -1.576564e-08 2.061392e-09 -2.835939e-09
2.293412e-08 -1.138495e-08 1.377102e-08 -1.485851e-08 2.574993e-09 -2.443335e-09
1.612287e-08 -4.929338e-09 3.621963e-09 -1.619102e-08 2.874450e-10 -2.678015e-09
1.604639e-08 -7.398400e-09 6.667728e-09 -1.662608e-08 1.403780e-09 -2.455915e-09
-8.699876e-10 1.439015e-09 2.924256e-10 4.998785e-09 3.164440e-10 4.921863e-10
-2.565639e-09 1.314964e-09 2.318181e-10 3.484880e-09 -1.137636e-10 -6.580608e-10
-2.650868e-09 1.691981e-09 4.730332e-10 3.446526e-09 2.227640e-11 8.575229e-11
-2.844816e-09 1.928314e-09 6.628387e-10 3.547127e-09 2.341085e-10 1.798467e-10
-3.773569e-09 2.163964e-09 6.607332e-10 3.726612e-09 5.753220e-11 -4.788365e-10
-1.276149e-08 2.906871e-09 -1.077461e-08 2.277652e-08 3.500418e-09 -1.210059e-09
-2.516004e-09 -1.252350e-08 -1.200299e-08 2.674537e-08 3.658667e-09 -9.221188e-10
-5.893823e-09 2.925426e-09 -2.362075e-08 2.834835e-08 3.995103e-09 -1.798688e-09
-3.240507e-09 -8.428259e-09 -1.994071e-08 2.728399e-08 1.049951e-08 -1.569937e-09
2.383247e-09 -1.812613e-10 -8.966961e-10 -4.864886e-09 -1.377658e-10 -5.819234e-10
3.645784e-09 -5.971454e-10 -8.297825e-10 -3.835481e-09 1.794636e-10 -1.356604e-10
4.996954e-09 -1.982470e-09 -1.014932e-09 -4.649757e-09 -2.788150e-10 3.043907e-10
4.058041e-09 -1.241044e-09 -9.100556e-10 -3.639150e-09 -1.299525e-10 1.384044e-10
-8.148868e-10 3.178395e-09 1.003464e-09 8.707625e-09 1.785166e-10 -6.543504e-10
-4.943772e-09 4.679695e-09 8.112560e-10 6.047050e-09 1.042478e-10 -6.297280e-10
-5.023726e-09 4.573088e-09 8.844712e-10 5.818739e-09 3.424412e-10 -8.870072e-11
-2.842719e-09 1.418927e-09 2.801759e-10 2.619004e-09 -2.333891e-11 -4.685490e-10
-1.417303e-09 1.323570e-09 2.858673e-10 3.839627e-09 -2.820055e-11 -8.811285e-11
3.882980e-09 -1.978805e-09 -5.515113e-10 3.995353e-09 -1.761817e-10 -1.416249e-10
3.819407e-10 -1.049179e-10 -2.451026e-10 2.802276e-09 -1.298355e-10 -4.322527e-10
-4.046853e-10 3.929077e-10 -8.728485e-11 3.234630e-09 2.325299e-11 -4.643245e-10
-1.143744e-09 7.794156e-10 1.061697e-10 3.762952e-09 3.035661e-10 3.876410e-11
1.036153e-08 -5.089851e-09 -1.438701e-09 -2.934974e-09 -1.526368e-10 -2.168974e-10
9.326023e-09 -5.005736e-09 -1.392111e-09 -1.913803e-09 -2.811851e-11 3.679487e-10
9.800125e-09 -4.761716e-09 -1.345464e-09 -2.739868e-09 -1.409465e-10 4.112386e-10
1.094678e-08 -5.795913e-09 -1.508127e-09 -2.213063e-09 3.424905e-11 3.089828e-10
1.074814e-08 -5.621496e-09 -1.474461e-09 -2.398301e-09 -1.206613e-10 -1.425844e-10
2.288767e-08 -9.459311e-09 -5.644740e-08 -1.620409e-08 -2.875793e-08 -2.577996e-09
2.951633e-08 -2.460593e-08 -4.616359e-08 -8.301327e-09 -3.833493e-09 7.995474e-11
2.563642e-08 -3.172750e-08 -3.404134e-08 -9.731243e-09 -6.799175e-09 -5.189760e-10
2.369782e-08 -2.882601e-08 -3.331072e-08 -1.182440e-08 -9.168086e-09 -8.472556e-10
1.829492e-08 -3.740775e-08 -1.337340e-08 1.647386e-08 5.109455e-09 -7.373919e-10
2.114158e-08 -3.791356e-08 -1.582979e-08 1.695004e-08 6.445830e-09 -1.139992e-10
1.964425e-08 -3.727526e-08 -9.627494e-09 1.605514e-08 6.727842e-09 -1.155415e-09
1.375275e-08 -2.811966e-08 -2.078430e-08 2.555167e-08 1.125186e-08 -4.916551e-09
2.001093e-08 -4.088575e-08 -1.660787e-08 1.816369e-08 1.345065e-08 -2.106735e-09
6.919649e-10 6.306083e-08 -7.890512e-08 -1.107735e-08 -1.350409e-08 -8.812214e-09
3.962066e-10 7.140279e-08 -7.131800e-08 -1.126921e-08 -5.432419e-09 -9.256586e-09
1.347098e-09 6.157954e-08 -7.923595e-08 -9.593990e-09 -2.880672e-08 -1.187229e-08
1.817819e-08 2.964688e-08 -9.042986e-08 -2.359185e-08 -4.459644e-08 -1.137126e-08
9.218930e-09 6.270988e-08 -9.266496e-08 -1.686607e-08 -3.265321e-08 -1.924929e-08
7.907177e-10 1.139688e-09 -7.793277e-10 -8.258689e-09 -3.065694e-10 -2.464884e-10
-2.163802e-09 2.752779e-09 -2.103171e-10 -6.319747e-09 -4.511746e-10 -7.342626e-12
2.536929e-09 6.532593e-10 -8.811636e-10 -7.790703e-09 -9.238532e-11 -4.620777e-10
-1.462044e-09 2.222060e-09 -5.041381e-10 -6.923778e-09 -3.075997e-10 -6.025613e-10
-1.001588e-09 2.200358e-09 -5.873968e-10 -8.128097e-09 -3.068616e-10 3.526379e-11
-1.220352e-08 6.032683e-08 -2.180952e-08 2.549859e-08 1.451483e-09 -1.392056e-08
-3.629761e-09 3.668105e-08 -2.396154e-08 1.229987e-08 -2.311355e-09 -3.336382e-09
-3.867750e-09 2.893972e-08 -1.870363e-08 1.464521e-08 -2.117846e-09 -4.972034e-09
8.752863e-09 3.775332e-08 -1.718077e-08 2.827313e-08 1.821930e-09 -3.493304e-09
1.792645e-09 -1.967934e-08 -6.549198e-09 1.977333e-08 5.004904e-09 -1.847885e-09
-6.742559e-09 -1.420852e-08 -1.984091e-09 1.826576e-08 2.088638e-09 -1.381391e-09
-9.069261e-09 -1.040670e-08 -3.959547e-09 2.126472e-08 2.118694e-09 -3.838754e-11
-7.295835e-09 -8.655997e-09 -4.552158e-09 1.924883e-08 1.609030e-09 -8.864487e-11
9.761347e-10 1.113052e-09 -4.691212e-10 -5.679659e-09 -1.748595e-10 5.953194e-10
1.352413e-09 2.734915e-10 -6.139773e-10 -5.606516e-09 -5.010514e-10 1.401288e-10
2.383126e-09 -1.816580e-10 -8.135146e-10 -4.862970e-09 -2.153911e-10 1.671268e-10
2.057002e-09 -1.830632e-10 -7.271233e-10 -4.700748e-09 -2.965807e-10 1.639338e-10
1.195811e-08 -1.608420e-10 -4.980405e-08 -1.821817e-08 -2.395557e-08 -5.784281e-09
1.745122e-08 -2.239452e-08 -3.074706e-08 -1.426992e-08 -5.793002e-09 -6.287859e-10
1.373082e-08 -1.968668e-08 -2.892833e-08 -1.577522e-08 -8.364995e-09 -8.856369e-10
2.289646e-08 -1.617148e-08 -4.354690e-08 -1.595565e-08 -3.117044e-09 -9.686355e-10
-6.027443e-09 4.560928e-09 1.507736e-10 -5.578527e-09 -3.611642e-10 1.205045e-10
-8.571499e-09 5.147820e-09 1.072800e-10 -4.122048e-09 -2.853486e-10 5.900714e-10
-8.555523e-09 5.479894e-09 -1.359997e-10 -5.489992e-09 -4.290714e-10 -1.280525e-10
-7.354658e-09 5.268876e-09 -2.207212e-10 -5.343185e-09 -6.493166e-10 7.282772e-10
1.860951e-08 -4.240408e-08 5.657679e-10 5.757812e-09 1.535088e-09 -8.284202e-10
1.663115e-08 -4.219421e-08 4.497900e-09 1.526884e-09 1.166125e-09 2.125394e-10
1.662025e-08 -4.550630e-08 4.693481e-10 2.471500e-09 1.484270e-09 -3.232479e-10
1.817239e-08 -4.482103e-08 5.886895e-10 3.520168e-09 1.269507e-09 -5.814527e-11
4.496048e-10 1.132654e-10 -8.750689e-11 4.456839e-09 2.145867e-10 1.391158e-10
-4.014247e-10 3.927241e-10 -6.143885e-11 3.235035e-09 2.428762e-10 9.672974e-11
3.570597e-09 -1.343946e-09 -4.181642e-10 4.524733e-09 1.785456e-10 4.503684e-10
2.557495e-09 -1.049914e-09 -3.778053e-10 3.516322e-09 2.570604e-11 -4.480924e-10
-6.980022e-09 2.990440e-09 1.276583e-09 1.158735e-09 1.038392e-10 4.087008e-11
-6.706020e-09 2.655621e-09 1.351659e-09 1.361436e-09 2.307000e-10 3.399658e-11
-6.830182e-09 2.800523e-09 1.185057e-09 1.247269e-09 7.950374e-11 -2.300210e-10
-6.508323e-09 2.827091e-09 1.271523e-09 1.643298e-09 1.337059e-10 -7.538459e-11
3.508657e-09 -1.376426e-09 -3.911844e-10 4.478768e-09 -4.353318e-11 -1.417457e-10
3.451214e-09 -7.253956e-10 -3.613425e-10 6.089796e-09 4.397696e-10 4.644376e-10
-2.868066e-10 1.791880e-09 1.004845e-10 6.021888e-09 -2.620015e-11 -1.442260e-10
7.060574e-12 9.152449e-10 7.212009e-12 6.025971e-09 3.867715e-10 2.636824e-11
-8.669759e-10 1.434527e-09 2.369545e-10 4.995676e-09 -8.748349e-11 -2.204880e-10
-6.888179e-11 7.545321e-10 8.238699e-11 4.502203e-09 -1.050289e-10 -5.331113e-11
2.191325e-09 -6.998095e-10 -2.928188e-10 4.984736e-09 -1.787244e-10 -2.370021e-10
3.483533e-10 1.103762e-10 -1.223028e-10 4.326762e-09 -2.826162e-11 -4.834547e-10
1.277275e-08 -2.709664e-08 -1.506621e-08 -1.978794e-08 5.027266e-09 3.094156e-09
1.540502e-08 -3.239237e-08 -1.181291e-08 -1.555460e-08 6.896150e-09 2.326099e-09
2.287078e-08 -3.710193e-08 -1.603886e-08 -1.222809e-08 1.094894e-08 6.071212e-10
1.921386e-08 -3.562450e-08 -1.877111e-08 -1.830367e-08 1.184712e-08 4.806717e-09
-1.234636e-09 3.142218e-09 8.856746e-10 9.167141e-09 3.252327e-10 3.100875e-11
-1.695013e-09 5.193021e-09 8.169874e-10 8.977060e-09 -3.528786e-10 -2.803169e-10
-4.914288e-09 6.007923e-09 1.336086e-09 8.745938e-09 -5.673366e-13 -5.657074e-10
1.267365e-09 1.874140e-09 6.735137e-10 8.684790e-09 -6.582735e-11 -3.533682e-10
4.547738e-09 1.299637e-09 1.308679e-09 1.039901e-08 -3.050285e-10 -1.795218e-09
4.826850e-10 3.306557e-09 1.466510e-09 1.157660e-08 5.107298e-10 -6.607719e-10
5.027638e-09 1.308969e-09 6.415268e-10 1.073214e-08 -4.987538e-10 -1.395817e-09
1.862333e-10 3.925735e-10 -6.226619e-11 3.196192e-09 -1.467583e-11 -1.684044e-10
1.084051e-09 1.130973e-10 -5.994849e-11 4.451475e-09 2.064923e-10 4.603853e-10
1.317781e-09 -4.701483e-10 -2.836273e-10 3.891224e-09 -1.508305e-10 -4.305600e-10
3.487235e-10 1.112637e-10 -1.115792e-10 4.327805e-09 2.830638e-10 1.885668e-10
-2.572145e-09 1.316257e-09 2.875620e-10 3.484287e-09 2.907454e-10 8.167605e-11
1.337583e-08 -3.242523e-08 -6.143604e-09 9.593192e-09 -1.200461e-08 3.958177e-09
-1.049646e-09 7.533477e-10 4.141221e-11 4.368919e-09 -2.293761e-10 -5.397940e-10
1.128967e-09 1.114215e-10 -1.045177e-10 4.383485e-09 2.233814e-11 -1.012213e-10
2.728249e-08 -7.998363e-09 -5.845877e-08 4.841843e-09 -9.826789e-09 6.010495e-09
2.421360e-08 -1.464717e-09 -6.792163e-08 4.219866e-09 -3.040330e-08 9.387511e-09
2.823778e-08 -3.889255e-08 -3.212213e-08 6.367045e-09 -2.222393e-08 3.624442e-09
1.877951e-08 -1.676519e-08 -4.228332e-08 1.087409e-08 -8.085037e-09 3.374316e-09
1.877953e-08 -6.329039e-09 -4.096733e-08 9.991641e-09 -1.854803e-08 7.761312e-09
2.153634e-08 -1.138826e-08 -5.539856e-08 1.356668e-08 -2.723660e-08 1.551042e-08
-8.778900e-09 2.745614e-08 -4.148719e-08 2.635966e-08 2.619048e-09 -7.785420e-10
-6.138146e-09 4.058576e-08 -6.063622e-08 2.826805e-08 2.438696e-08 -1.487610e-08
-1.626136e-08 1.703704e-08 -2.451216e-08 2.857571e-08 1.273826e-08 -1.210252e-08
-2.514212e-08 4.465250e-08 -4.309980e-08 2.180688e-08 1.855852e-08 -1.861646e-08
-1.281724e-08 4.459109e-08 -4.943321e-08 2.365787e-08 1.615511e-08 -1.367763e-08
-1.854981e-08 4.465069e-08 -4.450686e-08 1.872067e-08 1.920741e-08 -1.595600e-08
1.034297e-08 -5.544981e-09 -1.532069e-09 -2.793613e-09 1.307450e-10 -2.590291e-10
-7.757816e-09 4.871500e-09 5.760965e-10 -3.920969e-09 -2.624743e-10 -2.464887e-10
8.599631e-09 -3.612053e-09 -1.470897e-09 -4.266981e-09 -2.566198e-10 -1.462017e-10
8.388027e-09 -4.239135e-09 -1.251276e-09 -3.053913e-09 -1.325966e-10 -2.282098e-10
1.022007e-08 -4.672343e-09 -1.480043e-09 -2.960954e-09 -3.365305e-11 -1.205393e-10
-1.184111e-08 2.342133e-08 -1.268235e-08 -2.043473e-09 -6.382904e-09 -1.419786e-09
-3.794686e-08 5.350008e-08 -6.344877e-09 -2.890987e-09 -5.801034e-11 3.322244e-08
8.423081e-09 -3.742527e-09 -1.281478e-09 -3.993048e-09 4.954942e-11 -1.874623e-10
-6.824536e-09 4.654998e-09 6.306942e-10 -3.092830e-09 -2.016585e-10 -5.113269e-10
-7.851834e-09 -9.108732e-10 2.459288e-09 -2.738307e-09 -1.292413e-10 -1.521074e-10
-8.027987e-09 -2.524433e-09 2.375292e-09 -3.374172e-09 -1.107184e-09 -8.042113e-10
-7.693885e-09 -1.533891e-09 2.639213e-09 -1.460886e-09 1.313527e-10 -3.017833e-10
-7.305481e-09 -5.915786e-09 2.825285e-09 -4.671819e-09 5.438100e-10 -3.535136e-10
-8.600073e-09 -1.662733e-09 2.716053e-09 -3.955271e-09 -3.487677e-10 -7.544341e-10
1.157141e-08 -4.091957e-08 5.792417e-09 5.854673e-09 1.941613e-09 -4.347661e-10
-7.305443e-09 -1.948567e-09 3.020187e-09 -4.081772e-09 -2.549785e-10 -4.036826e-11
-2.738666e-09 1.420791e-09 3.229124e-10 2.779328e-09 1.543070e-10 -1.083400e-11
-3.441984e-09 2.045441e-09 6.028689e-10 2.941550e-09 1.529461e-10 3.578831e-10
-2.843572e-09 1.417444e-09 3.217613e-10 2.617397e-09 2.379379e-10 1.745399e-11
-3.363114e-09 1.659699e-09 4.666689e-10 2.989568e-09 1.887750e-10 -1.218732e-10
1.024446e-08 -3.520436e-08 4.360014e-09 -6.064733e-09 -7.205318e-10 -2.464667e-10
1.443578e-08 -4.153610e-08 4.625937e-09 -3.841533e-09 7.892380e-11 -4.592890e-10
1.215627e-08 -3.640582e-08 1.792832e-09 -9.839917e-09 9.739396e-10 -3.515141e-10
1.409542e-08 -3.843320e-08 -2.149921e-09 -1.104769e-08 5.300939e-09 1.713567e-09
1.443578e-08 -4.317446e-08 4.118587e-09 -3.721515e-09 2.161100e-09 -4.746883e-10
8.850373e-09 -3.600929e-08 4.812782e-09 8.075494e-09 2.008912e-09 4.407571e-10
1.215279e-08 -3.382048e-08 1.488216e-09 -8.853943e-09 5.146955e-10 -1.438216e-10
4.563767e-08 -5.274862e-08 1.260151e-07 5.511373e-09 -7.480313e-10 3.833214e-08
2.719507e-08 5.514043e-09 6.553630e-10 3.915630e-08 1.097150e-08 7.396322e-10
1.867490e-08 -4.496336e-08 9.993190e-08 2.859907e-08 7.611951e-09 2.743716e-08
-1.324195e-08 3.413824e-08 -2.878737e-08 1.182532e-10 -3.406118e-09 -4.646982e-09
1.299606e-08 -4.513131e-08 1.394488e-07 3.362410e-08 6.177689e-09 5.376094e-08
2.336054e-08 7.543393e-09 2.153228e-08 4.245308e-08 1.585658e-08 2.110145e-08
2.724608e-08 -4.499551e-08 1.037858e-07 1.949301e-08 9.499144e-09 1.731599e-08
-1.040484e-08 1.374960e-09 -7.390026e-10 -2.512022e-10 -8.392551e-10 4.914267e-10
-9.724830e-09 2.043127e-09 -2.110168e-09 5.274804e-10 -7.800452e-10 3.012521e-10
-1.121735e-08 4.922264e-09 -1.083255e-09 -3.024772e-09 -8.424739e-10 6.747363e-10
-1.065488e-08 3.339154e-09 -3.094160e-09 -8.753825e-10 -1.310898e-09 3.797094e-10
-1.040484e-08 1.372957e-09 -2.938787e-10 -2.499295e-10 -5.490901e-10 1.225720e-10
-9.289947e-09 5.903356e-09 -8.742993e-10 -4.772209e-09 -3.397709e-10 -3.580851e-10
2.561915e-09 -1.048930e-09 -4.194893e-10 3.519105e-09 1.823264e-10 2.887783e-10
3.219852e-09 -1.367752e-09 -4.204470e-10 4.402398e-09 1.616461e-10 3.115499e-10
2.726715e-09 -6.994698e-10 -2.836271e-10 5.059071e-09 -1.786361e-10 -1.314626e-10
3.217794e-09 -1.368365e-09 -3.892771e-10 4.401268e-09 -4.759265e-11 -1.146018e-10
3.238971e-09 -1.436060e-09 -4.800564e-10 3.001224e-09 -1.349827e-10 -4.202438e-11
4.206994e-09 -1.671444e-09 -4.485052e-10 5.440182e-09 2.980007e-10 1.645292e-10
6.175615e-09 -2.872274e-09 -7.173462e-10 3.924495e-09 2.359953e-10 4.744377e-11
6.086707e-09 -2.871226e-09 -8.154322e-10 4.157898e-09 -4.007643e-11 4.192595e-11
5.196369e-09 -2.236796e-09 -6.678991e-10 4.746404e-09 3.079079e-10 6.142045e-10
2.178517e-09 7.215017e-11 3.272405e-11 6.719005e-09 2.687186e-10 3.882294e-10
2.659595e-09 -7.016867e-10 -2.443210e-10 5.006643e-09 3.323377e-10 4.332095e-10
2.087083e-09 -2.120887e-11 -9.517898e-11 5.464194e-09 -1.523609e-11 -2.851854e-10
-2.240354e-08 3.818816e-08 1.038891e-08 -3.689090e-08 -8.904744e-09 -1.733845e-09
-7.635886e-09 9.276029e-10 2.041356e-09 -2.306260e-10 1.937007e-10 -6.547707e-10
-1.238809e-08 2.747164e-08 -2.174063e-08 -1.912164e-09 -4.915153e-09 -3.236561e-09
2.235314e-08 6.265190e-08 -1.033542e-07 -1.368427e-08 -3.027689e-08 -4.408654e-09
2.707295e-08 9.530818e-09 -7.662765e-08 -1.594409e-08 -1.310777e-08 -1.397435e-09
2.093189e-08 1.389799e-08 -7.324209e-08 -1.795320e-08 -1.738524e-08 -1.813069e-09
1.204612e-08 1.425699e-08 -5.201252e-08 -1.688489e-08 -2.274564e-08 -5.688674e-09
1.321013e-08 2.838121e-08 -8.467659e-08 -2.108423e-08 -4.355227e-08 -1.340325e-08
1.187563e-09 2.256317e-08 -5.246564e-08 -1.954415e-08 -9.605639e-09 -3.932501e-09
1.806797e-08 -1.375322e-08 -4.862783e-08 2.917668e-08 2.017822e-08 -6.164784e-09
6.573468e-09 -1.254370e-08 -2.518471e-08 2.834704e-08 4.307253e-09 -1.010651e-09
7.085483e-09 -1.896441e-08 -1.886829e-08 2.693687e-08 3.034659e-09 -3.613432e-09
6.797638e-09 -2.983489e-08 -4.581459e-09 1.997694e-08 2.994640e-09 -6.776550e-10
7.426760e-09 -3.470451e-08 -2.739652e-09 1.878899e-08 1.402940e-09 -1.006005e-09
1.352421e-08 -3.832318e-08 -1.536896e-08 2.273509e-08 1.134013e-08 -3.167901e-09
6.041015e-09 -1.392252e-08 -2.406475e-08 2.920588e-08 6.006211e-09 -1.979232e-09
3.477537e-09 -6.173727e-10 -9.083596e-10 -9.263432e-09 -2.746765e-10 1.463931e-10
4.383193e-09 -8.831819e-10 -1.089225e-09 -8.796155e-09 -5.626566e-10 3.402998e-10
3.910079e-09 -8.024213e-10 -1.041354e-09 -6.351176e-09 -2.603239e-10 2.177255e-10
3.302660e-09 5.754874e-11 -8.995320e-10 -6.628921e-09 1.765601e-10 -1.597171e-10
-3.059832e-10 2.129681e-09 -7.101653e-10 -8.122683e-09 -1.183718e-10 1.110454e-10
1.694454e-09 1.468613e-09 -8.295882e-10 -8.412841e-09 -4.567740e-10 1.988036e-10
1.270629e-09 6.805171e-10 -8.326513e-10 -7.478250e-09 -4.620222e-10 1.613019e-10
-4.762593e-09 3.014614e-09 5.895742e-10 4.724362e-09 1.029245e-10 -9.188057e-10
-7.797831e-09 6.321112e-09 -1.311133e-09 -7.444460e-09 -5.592901e-10 1.773336e-10
-7.846361e-09 5.875606e-09 -8.357413e-10 -5.984480e-09 -4.278653e-10 8.633709e-10
-9.099431e-09 5.442241e-09 -4.833605e-10 -5.110964e-09 -1.311544e-10 -6.666061e-10
-1.062847e-08 7.499805e-09 -2.235588e-09 -4.390866e-09 9.547851e-11 1.947531e-11
-1.121902e-08 4.920082e-09 -8.497141e-10 -3.022482e-09 -4.321689e-10 4.852539e-12
-9.284944e-09 5.908736e-09 -1.360625e-09 -4.777465e-09 -1.204420e-09 6.216263e-10
2.201425e-08 -4.211228e-08 -9.810952e-09 -5.389207e-09 1.586781e-09 2.033473e-10
1.434186e-08 -4.013848e-08 6.925656e-10 -6.889881e-09 4.191454e-10 3.999086e-10
1.638165e-08 -4.050683e-08 2.598988e-10 -6.218679e-09 1.968495e-09 8.229283e-11
1.624301e-08 -3.832828e-08 -4.833085e-09 -1.034316e-08 1.748305e-09 2.650394e-10
1.299737e-08 -3.610597e-08 4.344804e-09 -6.070052e-09 9.453378e-10 3.362791e-10
1.624281e-08 -3.833198e-08 -4.751008e-09 -1.034407e-08 4.531314e-09 1.179491e-09
-2.165513e-08 4.296076e-08 4.689653e-08 4.155867e-08 5.950039e-09 3.429884e-09
1.177230e-08 -2.274544e-08 9.237999e-08 4.561884e-08 2.029558e-09 9.253706e-09
1.654560e-08 -1.148398e-08 4.704450e-08 5.156356e-08 1.912839e-08 5.758849e-09
-6.269669e-09 -2.500276e-08 1.420747e-07 4.461662e-08 2.118839e-08 1.839483e-08
4.655267e-08 -2.759574e-08 4.282351e-08 2.711799e-08 1.217988e-08 2.040249e-08
-4.126708e-08 -2.114540e-08 1.427441e-07 4.753687e-08 1.787033e-08 2.489889e-08
-7.627618e-09 2.142391e-09 1.767542e-09 8.177718e-10 2.597833e-11 -2.322040e-10
-7.283254e-09 2.264905e-09 1.573452e-09 6.035177e-10 3.208231e-11 -7.534502e-12
-7.907091e-09 2.153863e-09 1.925518e-09 8.547762e-10 3.397963e-10 -1.339810e-11
-5.641116e-09 5.050724e-09 1.930112e-10 -8.458656e-11 -3.947376e-11 -5.392720e-11
-7.290290e-09 2.681765e-09 1.519355e-09 1.432002e-09 1.422838e-10 -1.795188e-10
2.575151e-09 3.711262e-10 2.176717e-10 8.392737e-09 4.620110e-10 2.274665e-10
-2.668710e-09 2.770394e-09 -1.805418e-10 -8.968504e-11 -1.984991e-10 -6.959400e-11
5.003253e-09 -1.669480e-09 -4.756320e-10 5.545506e-09 2.917667e-10 3.073120e-10
-1.457914e-10 2.566330e-09 2.668785e-10 7.297694e-09 -1.746561e-10 -3.641794e-10
2.245232e-09 1.996531e-10 -6.086065e-11 6.848004e-09 3.133261e-10 3.498970e-10
3.080747e-09 -8.633986e-10 -1.056946e-10 6.230933e-09 -2.182519e-10 -2.306590e-10
-2.604765e-08 3.336826e-08 -9.127855e-09 -1.275279e-09 1.953720e-09 6.977481e-09
2.438312e-10 1.276548e-09 1.385909e-10 7.356774e-09 4.184606e-10 -1.532783e-10
-3.952179e-09 6.734466e-08 -7.841590e-08 2.604808e-08 2.334685e-08 -2.143140e-08
-1.391698e-08 6.270585e-08 -5.764464e-08 1.609258e-08 2.092295e-09 -1.188333e-08
6.160286e-09 3.644989e-08 -8.985407e-08 2.832333e-08 1.399007e-08 -7.629991e-09
8.831033e-10 4.025875e-08 -6.677703e-08 2.653842e-08 4.549161e-09 -1.798673e-09
8.656583e-09 1.166831e-08 -6.050781e-08 1.236052e-08 -2.814508e-08 1.880989e-08
-1.741423e-08 -1.351754e-10 -6.545502e-10 -1.390767e-09 2.697105e-10 -2.986660e-10
1.171694e-08 1.617227e-08 -5.175503e-08 7.576429e-09 -9.904294e-09 5.868738e-09
1.812044e-08 2.312291e-08 -7.472582e-08 6.015926e-09 -8.210449e-09 6.570714e-09
2.000142e-08 1.480005e-08 -7.217701e-08 5.250430e-09 -1.244323e-08 9.210334e-09
-3.433780e-09 1.722043e-09 4.480905e-10 3.486974e-09 3.735791e-10 -2.281735e-10
-2.721228e-09 2.149280e-09 6.538645e-10 4.282333e-09 3.121368e-10 2.335585e-10
-5.124201e-09 2.504411e-09 9.323218e-10 3.227743e-09 2.514429e-10 -2.737778e-10
-5.545788e-09 2.441402e-09 1.015052e-09 2.799279e-09 -7.761070e-11 -2.686331e-10
-5.987877e-09 2.515398e-09 1.197166e-09 2.541446e-09 2.067195e-10 -1.546328e-10
1.343269e-08 -5.557112e-09 -1.214633e-09 -5.612062e-09 6.292988e-11 -1.518075e-10
1.357160e-08 -6.561853e-09 -1.441892e-09 -3.740011e-09 -3.937229e-11 1.860478e-10
1.442450e-08 -6.500451e-09 -1.572829e-09 -2.984399e-09 1.636591e-11 -3.662499e-10
1.214607e-08 -5.699684e-09 -1.390516e-09 -5.117598e-09 -1.331288e-10 7.285210e-10
-7.789816e-09 -3.256672e-09 2.503347e-09 -5.354555e-09 -6.012839e-10 -5.812886e-10
-8.006869e-09 -2.041477e-09 2.472864e-09 -3.799063e-09 5.174841e-10 2.051399e-10
-8.027989e-09 -2.525129e-09 2.264567e-09 -3.374324e-09 9.465385e-10 7.459454e-11
-6.970765e-09 -5.919709e-09 3.124039e-09 -3.701892e-09 -2.295961e-10 -1.247547e-10
-1.287377e-08 3.046474e-08 -3.726722e-08 2.491825e-08 1.518685e-08 -9.382931e-09
-1.254770e-08 1.773208e-08 -3.482969e-08 2.670008e-08 7.380077e-09 -3.656841e-09
2.617057e-09 4.685068e-09 -4.578096e-08 3.166845e-08 1.807489e-08 -9.579103e-09
-5.542522e-09 2.405076e-08 -5.764267e-08 2.840051e-08 1.003885e-08 -5.448007e-09
2.560909e-09 8.037397e-09 -4.044917e-08 3.074602e-08 8.755308e-09 -4.094613e-09
6.063191e-10 1.243931e-08 -4.982471e-08 3.032192e-08 2.216677e-08 -7.568401e-09
2.289108e-08 -2.407815e-08 -3.301213e-08 7.432514e-09 -5.236093e-09 2.358374e-09
-6.797890e-09 3.852590e-09 9.496959e-10 -5.008072e-11 1.641035e-11 -1.075739e-11
3.296828e-08 -3.329800e-08 -4.291641e-08 1.657452e-10 -2.577720e-08 1.741476e-09
3.147233e-08 2.545900e-09 -7.690772e-08 -5.734447e-09 -3.732812e-08 3.377427e-09
2.660050e-08 -7.350732e-10 -6.849831e-08 6.330037e-09 -9.533159e-09 2.921067e-09
2.762184e-08 8.394367e-09 -7.797274e-08 -1.800677e-09 -3.755452e-08 5.866315e-09
2.863045e-08 -3.171798e-10 -7.263999e-08 5.408730e-09 -3.348828e-08 9.602877e-09
8.716535e-09 -3.867488e-09 -1.313767e-09 -6.631483e-09 -2.128209e-11 4.527232e-10
9.889294e-09 -4.540884e-09 -1.386816e-09 -5.816298e-09 -3.579406e-10 6.697363e-10
8.602577e-09 -3.614054e-09 -1.318251e-09 -4.267808e-09 -1.490488e-11 2.644407e-10
1.066699e-08 -4.442106e-09 -1.412116e-09 -5.116038e-09 3.581091e-11 5.060041e-11
8.752534e-09 -4.780187e-09 -1.314238e-09 -4.272132e-09 -5.283795e-11 2.923534e-10
1.088396e-08 -4.846003e-09 -1.551363e-09 -3.885458e-09 3.297296e-11 -1.817311e-10
-8.138590e-09 -8.265300e-11 2.323316e-09 -1.140132e-09 -2.480145e-10 -3.258196e-10
-8.125410e-09 1.154410e-09 2.168586e-09 -6.706883e-10 2.669638e-10 1.163648e-10
-8.393187e-09 2.270923e-10 2.080905e-09 -1.489165e-09 2.664981e-10 1.282625e-11
-8.441893e-09 6.874270e-10 2.183698e-09 -1.869514e-09 6.262300e-10 -2.998802e-11
-7.911926e-09 2.216476e-10 2.427232e-09 -1.459918e-09 4.376479e-10 -2.063885e-10
-7.575825e-09 -3.472935e-10 2.760137e-09 -1.081192e-09 -2.699756e-10 -5.313142e-10
-8.094386e-09 1.992292e-09 2.076106e-09 2.225026e-10 5.357665e-10 2.406073e-11
3.102673e-09 3.046123e-10 2.990026e-10 8.493838e-09 4.566727e-10 4.715763e-10
6.383462e-09 -1.957500e-09 -1.920273e-10 7.209643e-09 4.495385e-10 6.049250e-10
4.318259e-09 -9.669766e-10 -1.745626e-11 7.294830e-09 -2.523444e-10 -9.804604e-10
2.887915e-09 -4.525158e-12 -9.400392e-11 6.861557e-09 -8.108847e-11 -4.690206e-10
-5.849197e-09 6.851076e-09 -2.319084e-09 -1.012848e-08 -7.526153e-10 2.298916e-10
-7.357923e-09 5.940954e-09 -1.076041e-09 -7.225535e-09 -6.467564e-10 3.245493e-10
-6.541264e-09 7.753062e-09 -2.650486e-09 -8.983488e-09 -2.380156e-10 3.745839e-10
-8.366298e-09 8.788990e-09 -4.255047e-09 -8.040481e-09 -1.230819e-09 7.195551e-10
-5.790655e-08 -5.884183e-08 3.284339e-07 2.216958e-08 3.893149e-08 6.665845e-08
-1.033137e-07 -7.850113e-08 3.223667e-07 1.205181e-08 7.563919e-10 1.615744e-08
-1.235497e-07 -8.166561e-08 5.002311e-07 -2.550704e-11 1.646712e-08 5.571043e-08
-8.612958e-08 1.309891e-08 1.811376e-07 3.880209e-08 7.116029e-08 5.860508e-08
1.104151e-08 -5.950227e-09 -1.485792e-09 -3.703112e-09 9.798673e-11 -4.048721e-10
1.175757e-08 -6.500060e-09 -1.500908e-09 -2.661508e-09 -9.481973e-11 3.384801e-10
1.268523e-08 -6.519751e-09 -1.637525e-09 -1.863770e-09 1.410716e-11 1.657441e-10
1.321327e-08 -6.241357e-09 -1.537109e-09 -1.326038e-09 -3.099314e-11 4.233469e-10
1.040606e-08 -5.940397e-09 -1.562777e-09 -2.010015e-09 9.104984e-11 -4.829819e-10
9.998871e-09 -5.167152e-09 -1.289178e-09 -1.780020e-09 1.015958e-10 -1.425078e-10
1.028881e-08 -5.544948e-09 -1.537341e-09 -2.779573e-09 -1.144087e-10 2.129248e-10
1.093528e-08 -6.242705e-09 -1.512412e-09 -1.268720e-09 -2.514737e-11 2.642331e-10
-1.111073e-08 7.432654e-09 -4.701467e-09 -2.844776e-09 -4.054996e-10 1.308986e-11
-9.772612e-09 6.951403e-09 -3.075399e-09 -4.151984e-09 -5.872742e-10 4.158638e-10
-1.085903e-08 6.257570e-09 -5.428562e-09 -1.903594e-09 -1.671481e-09 1.251028e-09
-1.083890e-08 1.200427e-08 -6.470640e-09 -5.955762e-09 -1.795395e-09 1.845218e-09
-1.071104e-08 1.073681e-08 -5.189109e-09 -7.020523e-09 -2.437801e-09 2.288015e-09
-8.924079e-09 6.053233e-09 -1.239848e-09 -5.290300e-09 -1.041879e-09 4.180725e-10
7.845001e-09 -6.155566e-08 1.700372e-07 1.443808e-08 -1.650946e-08 1.834381e-08
6.535843e-09 -3.709344e-08 1.344035e-07 3.693504e-08 3.084052e-08 2.530554e-08
-1.580482e-09 -7.046331e-08 2.713364e-07 3.668981e-09 6.254710e-09 7.616679e-08
-3.460523e-08 -7.045304e-08 1.950737e-07 5.231984e-09 2.260790e-09 4.087171e-08
-5.325649e-08 -7.203924e-08 2.738121e-07 2.191922e-08 2.386215e-09 8.068948e-08
3.005955e-08 -8.268341e-09 7.414813e-08 5.828778e-08 4.256283e-08 5.541156e-08
1.913415e-08 -3.563207e-08 -1.366426e-08 -1.211221e-08 1.901204e-09 4.722395e-10
1.705184e-08 -4.014851e-08 -6.812062e-10 -6.888691e-09 3.897131e-09 -3.453898e-10
1.032543e-08 -3.130201e-08 -2.557633e-09 -1.372015e-08 2.810007e-09 1.231817e-09
1.540988e-08 -3.238458e-08 -1.119805e-08 -1.554778e-08 2.263111e-09 1.995718e-11
1.033164e-08 -2.984776e-08 -2.537289e-09 -1.480267e-08 2.097718e-09 -2.604139e-10
1.193335e-08 -3.323738e-08 -7.172610e-09 -1.728745e-08 7.739654e-09 3.385774e-09
-9.725229e-08 7.417401e-08 1.742154e-07 1.269775e-08 1.129138e-07 -2.522032e-08
-8.110953e-08 7.293049e-08 7.358270e-08 -3.229617e-09 3.916203e-08 4.901566e-09
-9.082630e-08 -5.769640e-09 3.073240e-07 2.608113e-08 7.447768e-08 1.745984e-08
-7.900620e-08 -2.398388e-08 2.168884e-07 3.859721e-08 8.188957e-09 1.537066e-08
-5.182482e-08 1.094807e-08 1.282781e-07 4.730368e-08 3.882225e-08 1.267078e-08
2.479255e-08 -4.053806e-08 -1.622364e-08 -3.488123e-09 6.135133e-09 4.332685e-10
2.812944e-08 -4.515825e-08 -2.650325e-08 -2.784559e-09 1.394247e-08 -3.612138e-10
2.959677e-08 -3.189041e-08 -3.035293e-08 -8.404047e-09 1.477512e-08 1.173331e-09
1.916064e-08 -3.609270e-08 -1.366426e-08 -1.330509e-08 1.867054e-09 2.949835e-10
2.158641e-08 -3.920087e-08 -1.549415e-08 -1.050108e-08 4.425182e-09 9.617868e-10
-1.246261e-09 6.042006e-09 -2.702342e-09 -1.359376e-08 -8.798064e-10 1.767285e-09
6.080700e-10 4.980473e-09 -1.751927e-09 -1.400451e-08 -5.856626e-10 3.460595e-10
-3.446256e-09 6.815477e-09 -3.145499e-09 -1.353871e-08 -4.624686e-10 5.833343e-10
-7.141451e-09 8.889368e-09 -3.472947e-09 -1.183950e-08 -1.765702e-12 9.357093e-11
-6.806789e-09 6.794541e-09 -2.332069e-09 -9.883971e-09 -8.239816e-10 4.507874e-10
7.863894e-09 -3.379180e-09 -8.157910e-10 5.061180e-09 3.191022e-10 1.142235e-10
6.727310e-09 -2.683695e-09 -5.671272e-10 5.839156e-09 4.022254e-10 5.092116e-10
3.837915e-09 -1.503703e-09 -4.819345e-10 4.934485e-09 6.666733e-11 -4.406746e-10
5.706581e-09 -1.986210e-09 -3.220739e-10 6.516417e-09 3.698157e-10 -1.179813e-10
3.806695e-09 -8.628643e-10 -2.928187e-10 6.343266e-09 -1.622145e-10 -5.216121e-10
4.452504e-09 -1.653706e-09 -5.252172e-10 5.506095e-09 -4.902785e-11 -2.005927e-10
1.512722e-09 5.636207e-08 -6.272351e-08 -2.939058e-08 -1.849090e-08 1.559886e-08
5.271392e-10 4.490805e-08 -3.317509e-08 -2.185641e-08 1.314851e-09 4.394995e-09
-8.819448e-09 4.479090e-08 -2.926249e-08 -3.111831e-08 9.425451e-10 1.846869e-08
-4.059359e-09 4.586737e-08 -4.321338e-08 -2.005003e-08 -1.267724e-08 2.135294e-08
-1.852825e-09 4.233919e-08 -4.811857e-08 -1.824594e-08 -1.684168e-08 2.330313e-08
-6.143592e-09 4.059173e-08 -5.750067e-08 2.827098e-08 8.400581e-09 -5.545633e-09
-5.818441e-09 5.022516e-08 -6.578682e-08 2.362944e-08 9.435120e-09 -6.481985e-09
7.907024e-09 8.035310e-09 -5.671753e-08 3.051984e-08 9.012490e-09 2.316546e-09
1.616425e-08 1.341478e-08 -7.165867e-08 3.022940e-08 3.382969e-08 -1.451440e-08
1.549032e-08 1.667774e-08 -7.928651e-08 3.059879e-08 3.741369e-08 -1.123164e-08
-5.533380e-09 2.406439e-08 -6.018097e-08 2.838931e-08 2.135845e-08 -1.563614e-08
1.566650e-08 8.091078e-09 -7.297715e-08 3.217710e-08 3.043999e-08 -1.284952e-08
1.874809e-08 1.541605e-08 -6.096482e-08 5.080585e-09 -8.235998e-09 3.277207e-09
1.636094e-08 2.148896e-08 -7.465053e-08 1.634199e-09 -8.808945e-09 6.681099e-09
2.210086e-08 1.431539e-08 -6.736487e-08 6.928709e-09 -2.728140e-08 9.527320e-09
2.659586e-08 -7.152495e-10 -6.611077e-08 6.341608e-09 -3.163299e-08 6.771923e-09
2.764592e-08 3.170553e-08 -9.474854e-08 -4.864080e-09 -4.300052e-08 9.912286e-09
1.895859e-08 3.498171e-08 -9.559201e-08 -4.435350e-09 -4.269512e-08 1.271337e-08
2.101460e-08 2.213647e-08 -8.267719e-08 6.010555e-09 -3.882334e-08 2.175389e-08
1.367387e-08 -2.661358e-08 1.225967e-07 -8.172248e-09 -4.149286e-11 -2.816368e-08
1.342266e-08 -5.949971e-09 -1.485792e-09 -4.086960e-09 3.023404e-11 -1.945084e-10
1.066703e-08 -4.441602e-09 -1.410152e-09 -5.116252e-09 -3.881560e-10 8.887413e-11
1.298353e-08 -6.844932e-09 -1.212103e-09 -4.330473e-09 -2.780454e-11 2.434986e-11
1.018446e-08 -4.693692e-09 -1.378177e-09 -4.758244e-09 -1.657996e-11 -3.163791e-10
1.032360e-08 -3.872981e-09 -1.265651e-09 -7.214498e-09 -3.298415e-10 -3.172675e-10
1.114043e-08 -5.340777e-09 -1.285414e-09 -7.519060e-09 -1.128562e-10 -1.681429e-10
1.266409e-08 -5.703201e-09 -1.319154e-09 -6.314410e-09 -2.764895e-10 8.467882e-10
-2.968778e-09 1.812865e-09 4.845631e-10 2.608777e-09 -2.276357e-11 -1.060507e-11
-4.227385e-09 2.039779e-09 5.958283e-10 2.845654e-09 7.083342e-11 -3.639089e-11
-7.205037e-10 8.900463e-10 1.253602e-10 3.364395e-09 -7.738610e-11 -6.938983e-11
-8.079251e-09 3.677398e-09 1.354324e-09 2.199512e-10 2.938139e-11 -8.276824e-11
-7.505045e-10 6.580292e-10 -2.838974e-11 1.937699e-09 3.615771e-12 -8.090921e-10
-3.029655e-09 1.887519e-09 4.801888e-10 4.875365e-09 3.173530e-10 -4.098585e-10
-3.987519e-09 2.130809e-09 6.328265e-10 3.051178e-09 2.841838e-11 -3.879166e-10
-6.869108e-09 -1.904140e-08 6.289266e-09 1.320299e-08 2.094590e-09 1.273760e-10
-3.423769e-09 1.688167e-09 4.526204e-10 3.299821e-09 -1.156190e-10 -3.009624e-10
-1.423150e-09 1.319755e-09 2.664344e-10 3.668187e-09 6.240990e-11 -6.814771e-11
1.175438e-08 -6.242153e-09 -1.691640e-09 -1.290363e-09 -1.645589e-11 -1.722893e-10
1.289724e-08 -6.731901e-09 -1.590140e-09 -9.146677e-10 -5.966361e-11 -2.600831e-11
1.320768e-08 -6.241152e-09 -1.753196e-09 -1.330890e-09 -2.009238e-11 -1.436982e-10
1.308062e-08 -6.354713e-09 -1.478233e-09 5.908540e-10 6.261217e-11 4.447334e-10
1.287929e-08 -6.765704e-09 -1.537116e-09 3.055036e-10 6.316847e-11 -6.035528e-11
1.141954e-08 8.618761e-08 -1.121083e-07 2.659265e-08 3.495221e-08 -2.895098e-08
1.510106e-08 6.110083e-08 -1.381272e-07 2.239884e-08 6.092961e-08 -2.264354e-08
1.419248e-08 5.975302e-08 -1.007000e-07 2.380860e-08 8.573344e-09 -3.044321e-09
7.824614e-10 3.018839e-08 -5.805027e-08 2.445293e-09 -2.376730e-08 1.990262e-08
2.183027e-09 3.413720e-08 -5.090542e-08 -1.350867e-09 -1.845276e-08 1.492583e-08
8.367653e-09 3.603531e-08 -7.585562e-08 -9.966117e-10 -1.303938e-08 1.198775e-08
3.285607e-08 7.477959e-08 -1.489061e-07 8.672115e-09 1.887005e-08 -1.423776e-09
4.248352e-08 4.384320e-08 -1.525816e-07 4.338333e-09 7.094695e-08 3.769797e-10
3.675996e-08 4.489363e-08 -1.343557e-07 -8.609870e-09 2.891405e-08 6.363169e-09
4.218234e-08 4.308872e-08 -1.264691e-07 4.346784e-09 1.910988e-08 -8.353324e-10
4.209022e-08 4.607724e-08 -1.414156e-07 4.845349e-09 6.311963e-08 -4.274356e-09
-7.191795e-09 4.567410e-09 6.310090e-10 -3.806386e-09 -2.158109e-10 -6.960913e-11
-7.866621e-09 4.928201e-09 -4.929035e-11 -5.201436e-09 -3.837717e-10 1.238333e-10
-9.080975e-09 6.397963e-09 -1.264897e-09 -5.899302e-09 -1.801836e-10 7.766587e-11
-4.714495e-09 4.712574e-09 -5.449712e-10 -7.886841e-09 -2.046232e-10 1.755529e-10
-7.797246e-09 6.320615e-09 -1.174094e-09 -7.444852e-09 -6.117357e-10 6.488747e-11
-6.253724e-09 5.804942e-09 -9.566916e-10 -7.412273e-09 -8.166450e-10 1.057320e-09
1.379237e-09 3.772682e-08 -1.131026e-08 2.598528e-08 6.390908e-10 6.004110e-12
-1.294340e-08 7.647001e-08 -3.547340e-08 2.407600e-08 -2.766408e-10 -1.187975e-08
1.980615e-09 4.290930e-08 -1.266447e-08 3.901739e-08 1.229029e-08 -9.003344e-10
-7.805198e-09 1.995519e-08 5.312000e-08 4.315259e-08 1.127093e-09 4.577739e-09
-2.167933e-08 4.299269e-08 3.342032e-08 4.158097e-08 1.206990e-08 8.342762e-10
-2.645545e-08 7.069711e-08 1.227428e-09 3.725045e-08 1.975889e-08 -1.566758e-08
1.405510e-08 -4.230422e-08 4.495393e-09 4.769803e-09 1.655404e-09 -2.248517e-10
1.735939e-08 -4.450302e-08 -2.732085e-09 -1.498874e-09 -1.546150e-10 4.673096e-10
1.944969e-08 -4.256950e-08 4.351666e-10 -9.134961e-10 2.164233e-09 -6.537260e-10
2.327824e-08 -4.308123e-08 -5.722386e-09 3.470323e-09 4.963246e-09 -8.348211e-11
1.943343e-08 -4.622923e-08 -6.149701e-09 -3.376930e-10 3.173804e-09 -5.452274e-10
2.197317e-08 -4.556664e-08 -5.279861e-09 9.754184e-10 3.393148e-09 -3.479510e-10
1.262534e-08 -5.749470e-09 -1.363102e-09 -5.212760e-09 -5.887818e-11 -4.356917e-10
1.653344e-08 -8.081034e-09 -9.247518e-10 -2.875162e-09 -1.628620e-11 -1.022098e-10
1.749384e-08 -7.742422e-09 -1.223131e-09 -1.952952e-09 3.108858e-11 -6.610337e-10
-9.456270e-09 -4.038125e-09 1.205215e-09 -8.938206e-09 -3.496901e-10 -2.039743e-10
-8.965396e-09 -2.075741e-09 1.676407e-09 -7.093854e-09 -4.309091e-10 -7.832911e-10
-1.068603e-08 2.833013e-09 1.155859e-09 -4.327528e-09 -3.907431e-11 -6.029356e-10
-9.375423e-09 -3.682472e-10 1.962364e-09 -5.377202e-09 1.220239e-10 -8.172637e-10
-8.762621e-09 -2.614486e-10 2.181009e-09 -2.982721e-09 4.290712e-10 -1.431877e-11
-8.399336e-09 1.464721e-09 1.422639e-09 -2.156527e-09 1.653564e-09 3.430324e-10
-1.692420e-08 1.498931e-08 -2.075982e-08 2.233722e-08 6.318409e-09 -5.600443e-09
-2.586848e-08 6.807287e-08 -6.126310e-08 8.850420e-09 2.030111e-08 2.284780e-08
-2.359004e-08 6.582654e-08 -3.225658e-08 1.164390e-08 7.674959e-09 2.234357e-08
-2.355237e-08 4.482223e-08 1.619574e-09 1.369404e-08 -2.304173e-09 -6.455551e-10
-2.498830e-09 -1.249743e-08 -1.536043e-08 2.672187e-08 9.241675e-09 -3.761452e-09
1.276565e-09 -1.252584e-08 -2.081993e-08 2.685281e-08 3.494800e-09 1.790784e-09
2.607796e-09 4.646773e-09 -4.151717e-08 3.168746e-08 6.195819e-09 -2.867816e-09
-1.023349e-08 2.929662e-09 -1.851375e-08 2.988114e-08 1.006462e-08 -8.625844e-09
-1.060974e-08 -3.509255e-09 -8.629735e-09 2.176252e-08 2.893207e-09 -2.720962e-09
5.999884e-09 -1.012694e-08 -3.459194e-08 3.025664e-08 1.745758e-08 -3.357285e-09
1.271180e-09 -1.253919e-08 -1.959148e-08 3.022593e-08 1.105788e-08 -6.951716e-09
3.051154e-08 -8.817366e-09 -6.707667e-08 -3.153304e-09 -9.125303e-09 7.819623e-10
3.147333e-08 -1.465727e-08 -5.650042e-08 -4.750093e-09 -2.852329e-08 1.584326e-09
2.951465e-08 -3.354055e-08 -4.333720e-08 -7.779866e-09 -2.780456e-08 3.131130e-11
2.289803e-08 -2.512522e-08 -3.048750e-08 -1.496343e-08 -5.177848e-09 -1.968791e-09
3.147871e-08 2.512703e-09 -7.743455e-08 -5.771855e-09 -1.326650e-08 1.396900e-09
-1.425894e-08 2.380927e-08 -9.416451e-09 3.351403e-09 1.608238e-09 -8.445714e-10
2.709088e-08 -1.121092e-08 -6.629730e-08 -1.554068e-08 -3.935406e-08 -4.005183e-09
-1.472499e-08 1.533583e-08 -1.575788e-08 -1.014963e-08 -1.795617e-09 -1.057815e-09
3.454085e-08 4.290054e-09 -7.963940e-08 -8.125157e-09 -3.683605e-08 3.476412e-09
4.401812e-09 -8.069734e-10 -9.365526e-10 -6.126423e-09 2.947361e-11 -2.382632e-10
5.835432e-09 -1.982287e-09 -1.022877e-09 -4.596002e-09 6.400008e-11 -1.803380e-10
2.784109e-09 -1.832635e-10 -6.710410e-10 -4.504059e-09 -9.978126e-11 5.554224e-10
6.511048e-09 -2.439885e-09 -1.215122e-09 -6.928687e-09 -4.950891e-10 5.478562e-10
6.790987e-09 -2.841421e-09 -1.110047e-09 -5.597281e-09 -4.532308e-11 5.049609e-10
7.919591e-09 -3.230923e-09 -1.388783e-09 -5.054956e-09 -5.286882e-11 -3.034686e-10
7.686511e-09 -2.843055e-09 -1.289227e-09 -6.038968e-09 -1.984344e-10 2.588027e-10
-7.444275e-09 1.469808e-09 1.683135e-09 4.684804e-10 8.916098e-11 -7.057384e-11
-8.021216e-09 -1.703713e-10 2.486912e-09 -1.099173e-09 -2.363809e-10 -1.811136e-10
-8.007336e-09 1.065283e-09 2.331063e-09 -6.297991e-10 2.781133e-10 2.609917e-10
-7.919824e-09 2.054361e-09 1.883779e-09 1.183988e-10 5.558387e-10 -6.831429e-12
-8.091920e-09 1.995958e-09 2.067662e-09 2.255540e-10 1.217770e-10 -3.788718e-10
1.987533e-08 -9.149257e-09 3.297389e-10 -5.124819e-09 9.907807e-11 7.283556e-10
1.696733e-08 -9.054545e-09 2.049991e-10 -7.153138e-09 5.991908e-11 -9.887198e-10
1.694015e-08 -9.066769e-09 3.901781e-10 -7.187747e-09 2.401996e-10 -2.948130e-11
2.283700e-08 -1.125168e-08 4.608070e-09 -2.447403e-09 -2.515393e-10 -4.279698e-09
1.963435e-08 -9.002106e-09 1.437404e-09 -7.736785e-09 -1.589624e-10 1.690097e-09
-1.524052e-08 1.925980e-08 -1.875558e-08 -1.205455e-08 -8.081679e-09 -7.123115e-09
-1.380327e-08 2.721566e-08 -2.804890e-08 -9.471112e-09 -5.243362e-09 -3.056390e-09
-8.517124e-09 2.274894e-08 -2.331223e-08 -1.461419e-08 -7.383139e-09 -4.988813e-09
-6.084433e-09 2.325842e-08 -3.522138e-08 -1.254266e-08 -7.548503e-09 -4.933885e-09
-9.384239e-09 1.577565e-10 2.040928e-09 -3.165222e-09 1.673384e-10 -3.616454e-10
-8.377296e-09 1.938505e-09 1.880227e-09 -9.468046e-10 4.338752e-10 8.359143e-11
-8.473307e-09 6.854135e-10 2.277156e-09 -3.624535e-09 -3.880152e-10 1.035284e-10
-8.046070e-09 -5.090949e-09 2.308101e-09 -7.017179e-09 -3.263797e-10 -3.066363e-10
-8.466115e-09 3.490674e-10 2.212865e-09 -1.569712e-09 -3.796239e-10 -3.510279e-10
-7.585951e-09 -1.282644e-09 2.637632e-09 -2.633128e-09 3.826295e-11 -1.328545e-10
2.086133e-08 -3.022697e-09 6.777537e-09 -2.118637e-08 2.961040e-09 -4.124245e-09
1.627086e-08 -2.945811e-09 1.056740e-08 -2.258110e-08 4.217511e-09 -4.545517e-09
3.824876e-09 5.521492e-09 5.354107e-09 -2.338086e-08 3.674644e-09 -1.597648e-09
1.167710e-08 7.230222e-09 5.066589e-09 -2.707753e-08 4.565180e-09 -3.193920e-09
1.170981e-08 -1.750612e-09 1.635552e-08 -2.769972e-08 9.194496e-09 -3.891422e-09
-2.316873e-09 2.477542e-09 6.258514e-10 6.637459e-09 4.267171e-10 2.707206e-11
1.873700e-09 -1.486943e-10 2.158629e-11 6.443619e-09 -2.705765e-10 -1.286607e-09
4.253788e-10 8.554301e-10 8.848700e-11 5.679012e-09 -1.163580e-10 -1.558054e-10
3.820354e-09 2.328828e-10 1.793614e-10 8.646216e-09 -2.253166e-10 -9.409754e-10
-1.305289e-10 1.873428e-09 9.676140e-10 8.572899e-09 -1.625552e-10 -8.077949e-10
2.576968e-09 3.700917e-10 4.802736e-11 8.392785e-09 -1.352910e-10 -5.364064e-10
4.584977e-09 4.758092e-10 7.407497e-10 9.077181e-09 1.670950e-10 -6.710071e-10
-8.229889e-11 4.576415e-08 -5.896699e-08 -1.666757e-08 -7.571147e-09 8.533168e-09
-2.289879e-10 3.195918e-08 -4.833518e-08 -3.912252e-09 -6.678800e-09 6.229348e-09
2.289064e-08 -2.897187e-08 -2.803580e-08 7.794768e-09 -1.217120e-08 4.590923e-09
5.391053e-09 3.571210e-08 -6.890186e-08 -3.648658e-09 -1.057912e-08 1.021132e-08
2.929570e-08 -1.980016e-08 -5.191280e-08 3.206655e-09 -9.483671e-09 2.226090e-09
-5.205601e-09 1.064305e-07 -1.049114e-07 8.384790e-09 1.017169e-09 -9.996962e-09
-2.036136e-08 2.190518e-08 -4.359997e-09 7.884099e-10 9.285565e-09 -2.391637e-09
1.448992e-08 4.788827e-08 -1.040055e-07 3.392115e-08 4.809677e-08 -3.241989e-08
1.508071e-08 6.102800e-08 -1.267459e-07 2.245451e-08 1.296690e-08 -1.246935e-08
2.751950e-08 7.398245e-08 -1.360478e-07 1.090599e-08 1.701495e-08 -2.078760e-10
-7.992842e-08 -3.850665e-08 3.110822e-07 1.167716e-08 -3.537573e-08 -7.320659e-08
-4.035486e-08 -5.963101e-09 1.550863e-07 2.222835e-08 -1.241882e-08 -2.408892e-08
-8.704474e-08 -5.774983e-08 3.174823e-07 -4.372347e-09 1.603249e-09 -6.440219e-08
-3.551224e-08 -3.035015e-08 2.008351e-07 -8.469787e-09 -7.407730e-09 -9.455370e-08
-1.523603e-08 1.964792e-08 -2.297216e-08 -1.309069e-08 -7.375995e-09 -5.109854e-09
-1.265195e-08 4.492802e-08 -3.675308e-08 6.254161e-09 -4.152781e-09 -7.934797e-09
-9.928289e-09 4.772073e-08 -4.032893e-08 3.215801e-09 -1.485034e-08 -1.270315e-08
-4.662738e-09 4.755376e-08 -4.295683e-08 -1.620924e-09 -6.199886e-09 -5.652933e-09
-4.604112e-09 4.500715e-08 -2.813420e-08 1.089848e-08 -6.932254e-09 -9.802259e-09
9.631085e-09 -5.437351e-10 1.601024e-08 2.039914e-08 -6.433914e-10 -4.847256e-09
1.073938e-08 -1.505118e-09 1.483338e-08 2.055075e-08 -1.958220e-09 -5.478655e-09
-1.038616e-08 1.722905e-09 6.031318e-10 -6.519067e-09 8.713104e-10 7.354380e-10
5.771276e-09 -1.557218e-09 1.132488e-08 1.625732e-08 -1.081254e-09 -2.810790e-09
6.009986e-09 6.645336e-09 9.450916e-09 2.014915e-08 -1.655059e-09 -5.015438e-09
8.665014e-09 -3.270201e-09 -4.281486e-10 7.057874e-09 4.832794e-10 4.975136e-10
5.107217e-09 -9.402211e-10 1.221148e-10 7.999365e-09 -1.707787e-10 -2.246765e-10
5.591639e-09 -1.986128e-09 -3.544853e-10 6.502535e-09 -3.288507e-11 -2.283646e-10
8.350364e-09 -3.659451e-09 -7.212226e-10 5.406286e-09 2.208386e-10 5.781315e-10
6.667431e-09 -2.716616e-09 -5.936784e-10 5.899922e-09 -9.905011e-11 -7.223069e-10
5.216802e-09 -1.842646e-09 -4.772311e-10 6.126144e-09 -2.313905e-11 -6.653560e-10
-5.992876e-09 4.384354e-09 2.799672e-10 -2.845105e-09 -9.145351e-11 -3.042921e-10
-5.711117e-09 4.380303e-09 3.727685e-10 -3.290077e-09 -1.763330e-10 1.057900e-10
-5.370208e-09 3.799693e-09 3.002127e-10 -3.767372e-09 -1.110944e-10 -1.302931e-10
-3.183402e-09 3.847892e-09 -3.830269e-12 -4.444766e-09 -6.806555e-11 -4.085354e-11
1.073712e-08 -3.834906e-08 5.474941e-09 9.247279e-09 9.650595e-11 -4.989550e-10
1.097413e-08 -3.828940e-08 1.282853e-09 1.116030e-08 2.947280e-09 1.978747e-10
1.030690e-08 -3.659033e-08 2.213024e-09 1.269829e-08 9.953315e-10 7.492496e-11
7.280371e-09 -3.517756e-08 3.012770e-09 1.352215e-08 8.235964e-10 -3.907570e-10
2.130142e-09 1.308248e-09 2.081737e-09 1.049725e-08 5.128657e-10 1.759168e-10
1.002604e-08 -2.998613e-09 1.503111e-09 1.054972e-08 5.331774e-10 9.550134e-10
1.158088e-08 -3.278517e-09 3.256592e-09 1.076914e-08 4.781874e-10 -7.473437e-10
7.292099e-09 -8.868355e-10 2.114721e-09 1.249389e-08 4.328265e-10 -6.514092e-10
5.384354e-09 1.631488e-09 2.032362e-09 1.339944e-08 2.692048e-10 2.934775e-10
1.635696e-08 2.149112e-08 -7.029463e-08 1.638520e-09 -3.215176e-08 1.642168e-08
1.812774e-08 2.311932e-08 -7.009718e-08 6.006430e-09 -3.389681e-08 1.581946e-08
1.894000e-08 5.961707e-08 -8.738872e-08 -1.204214e-08 -5.870964e-09 7.154749e-09
7.071324e-09 5.158230e-08 -6.673316e-08 -8.817328e-09 -3.602819e-09 7.886653e-09
5.515943e-09 5.981724e-08 -1.016457e-07 -1.536866e-08 -4.040250e-08 1.827648e-08
5.960241e-09 4.358190e-08 -8.508371e-08 -1.593267e-09 -3.614368e-08 2.930847e-08
3.368505e-08 2.513815e-08 -1.183601e-07 1.871715e-08 5.943888e-08 -9.116250e-09
2.392710e-08 1.349544e-08 -8.787368e-08 2.608254e-08 1.703484e-08 2.602672e-09
5.889526e-09 7.080935e-08 -9.765016e-08 1.985284e-08 1.511614e-08 -8.211630e-09
-1.234031e-08 7.816350e-08 -7.713635e-08 1.028225e-08 6.271431e-10 -7.879663e-09
1.196695e-08 3.053738e-08 -8.184311e-08 3.159658e-08 1.173530e-08 -1.460272e-08
6.158059e-09 3.643179e-08 -9.527827e-08 2.833123e-08 3.689929e-08 -2.356332e-08
3.578371e-09 -2.433330e-08 3.588046e-09 -1.001739e-08 1.789147e-09 8.200402e-10
7.265478e-09 -2.783898e-08 2.360736e-09 -1.159165e-08 9.847306e-10 -2.555058e-10
7.264739e-09 -3.104123e-08 2.406393e-09 -1.122781e-08 1.262934e-09 5.533027e-10
1.646981e-09 -2.197230e-08 2.417343e-09 -1.150573e-08 1.595519e-10 1.874649e-10
-1.351945e-07 -7.787172e-08 3.687310e-07 -5.863038e-09 -1.136621e-08 1.332396e-08
-8.701525e-08 1.636050e-08 2.117302e-07 -1.624268e-08 -4.133258e-08 1.791042e-08
-1.001114e-07 -1.341369e-08 2.744637e-07 -1.492546e-08 -6.397303e-08 2.191964e-08
-1.007939e-07 6.530955e-08 1.220033e-07 -2.290759e-08 -5.182212e-08 -1.868687e-08
-1.285788e-07 -6.764121e-08 4.070052e-07 4.825646e-09 -3.863877e-08 -5.855707e-09
-5.914391e-09 4.653590e-09 4.187877e-10 -1.340681e-09 -1.497478e-10 -1.064067e-10
-5.722033e-09 4.982716e-09 3.227281e-10 -2.902745e-10 -1.025580e-11 -1.283840e-10
-5.091493e-09 4.556142e-09 2.178058e-10 -7.278338e-10 -4.590106e-11 1.917246e-10
-5.978378e-09 4.868921e-09 4.323333e-10 -1.075996e-09 -7.867485e-12 2.444048e-10
-5.076298e-09 4.732392e-09 3.472858e-10 -9.954655e-10 -1.680776e-10 -6.323653e-11
-6.168779e-09 5.023400e-09 4.377956e-10 -4.023106e-10 -6.088963e-11 -3.329848e-11
1.792844e-08 -8.978663e-09 -1.819220e-10 -4.227123e-09 8.404588e-11 5.864698e-10
1.652921e-08 -8.182240e-09 -7.129257e-10 -9.764854e-10 -4.395429e-11 -1.290836e-10
1.464280e-08 -7.434735e-09 -5.689764e-10 -4.306948e-09 -4.038865e-10 6.965327e-10
1.463959e-08 -7.435772e-09 -5.719163e-10 -4.305042e-09 4.653884e-10 -1.354081e-09
1.360419e-08 -7.742491e-09 -1.160475e-09 -1.912884e-09 -1.467021e-11 4.098604e-10
1.366187e-08 -5.342244e-09 -7.680350e-10 -8.057207e-09 -3.282702e-10 -1.558211e-10
1.113602e-08 -5.467601e-09 -1.527271e-09 -3.924285e-09 -1.407210e-10 -3.285305e-10
1.298352e-08 -6.844915e-09 -1.306844e-09 -4.330438e-09 -8.244139e-11 -2.056417e-10
1.262304e-08 -5.519168e-09 -1.190192e-09 -6.297185e-09 9.342216e-11 -7.307881e-10
1.204066e-08 -5.341832e-09 -1.055439e-09 -7.859805e-09 -2.734557e-10 8.913830e-10
1.343261e-08 -5.557460e-09 -1.300166e-09 -5.611849e-09 -3.510288e-10 2.636318e-10
4.056542e-09 2.048562e-08 -6.774385e-08 3.078912e-08 8.175489e-09 -4.238978e-09
-1.298829e-09 2.048807e-08 -5.147252e-08 3.102054e-08 7.906590e-09 -1.065837e-08
-4.326816e-09 4.688934e-09 -3.361190e-08 3.374204e-08 1.615121e-08 -1.296338e-08
9.388480e-09 -2.980762e-09 -4.651748e-08 3.018397e-08 6.005043e-09 -2.438112e-09
1.844378e-08 -1.277627e-08 -4.700097e-08 2.854849e-08 2.352653e-08 -7.791480e-09
1.794079e-08 -1.390854e-08 -4.244417e-08 2.938678e-08 7.352601e-09 -1.748767e-09
2.762547e-08 8.381000e-09 -7.841859e-08 -1.821820e-09 -1.339355e-08 3.846353e-09
2.775848e-08 1.727170e-08 -8.312449e-08 -1.613982e-09 -1.265342e-08 2.053990e-09
1.926313e-08 4.143579e-08 -1.022565e-07 -1.094307e-08 -1.531610e-08 5.750014e-09
2.765578e-08 3.151595e-08 -9.241233e-08 -4.873304e-09 -1.275640e-08 4.328838e-09
3.058061e-08 3.087682e-08 -1.021697e-07 -4.996868e-09 -4.597654e-08 1.254265e-08
2.843624e-08 3.718482e-08 -9.977042e-08 -1.361003e-08 -1.533101e-08 5.478013e-10
1.050160e-08 -5.789997e-09 -1.415172e-09 -4.565843e-09 -6.591863e-11 1.086676e-10
8.716218e-09 -3.867410e-09 -1.348954e-09 -6.630978e-09 -6.488337e-11 -1.246924e-10
7.522610e-09 -2.276061e-09 -1.244620e-09 -9.156139e-09 -8.597368e-11 -1.893157e-10
1.032723e-08 -3.873262e-09 -1.203572e-09 -7.214508e-09 -1.696517e-10 2.630343e-10
9.004537e-09 -3.430435e-09 -1.270553e-09 -8.226345e-09 -5.327612e-10 7.431864e-10
6.498759e-09 -1.521837e-09 -1.134654e-09 -7.639459e-09 1.123280e-11 -3.243943e-10
-4.014792e-09 9.534080e-09 -4.049157e-09 -1.328970e-08 -1.129039e-10 -2.660638e-10
-1.108034e-08 1.174409e-08 -8.033285e-09 -5.660550e-09 -1.124508e-09 9.589443e-10
-9.276274e-09 1.012256e-08 -5.505852e-09 -7.143046e-09 -6.705276e-10 6.094943e-10
-1.044015e-08 1.121103e-08 -8.544156e-09 -5.384465e-09 -2.874355e-09 2.519903e-09
-1.040000e-08 1.652323e-08 -8.883728e-09 -1.054965e-08 -2.148523e-09 3.292627e-09
-9.628219e-09 1.497060e-08 -7.694726e-09 -1.168377e-08 -2.820980e-09 4.340490e-09
-8.251887e-09 8.703873e-09 -3.577070e-09 -7.999494e-09 -1.351623e-09 1.115293e-09
-5.970988e-08 -7.436653e-08 3.888518e-07 -1.769929e-08 -2.892403e-08 7.843757e-08
-1.009296e-07 -6.747981e-08 3.297055e-07 6.821128e-09 9.776508e-09 1.194190e-08
-4.516068e-08 -1.453088e-09 1.505458e-07 4.519040e-08 3.088706e-08 2.517782e-08
-4.460774e-08 -7.789052e-08 2.619258e-07 -5.585395e-09 -2.655365e-08 3.094489e-08
-4.608520e-08 -6.986255e-08 2.489594e-07 1.504616e-08 3.313885e-08 3.205402e-08
-4.509902e-08 -3.630547e-08 2.337825e-07 3.977993e-08 7.489365e-08 8.271948e-08
6.433841e-09 -2.268906e-08 -1.207647e-08 -2.239311e-08 9.105740e-09 4.869286e-09
5.606043e-09 -2.392618e-08 -6.733266e-09 -1.857082e-08 3.767017e-09 1.939041e-09
8.489951e-09 -2.714181e-08 -5.871649e-09 -1.661793e-08 3.563306e-09 2.310256e-09
1.903232e-08 -4.006407e-08 -1.032670e-08 -1.197775e-08 8.709560e-09 3.178264e-09
1.593521e-08 -2.798347e-08 -2.045059e-08 -1.966729e-08 2.602051e-09 1.432418e-09
1.266657e-08 -3.112191e-08 -6.652357e-09 -1.523957e-08 -2.216700e-10 -1.571297e-09
1.665580e-08 -3.599587e-08 -7.048593e-09 -1.278511e-08 5.130743e-09 -6.785963e-10
-5.097497e-09 -9.293615e-09 3.827127e-09 -4.808165e-09 -4.397656e-10 -4.542323e-10
-5.639118e-09 -8.001960e-09 3.147034e-09 -6.815468e-09 8.867398e-10 -4.454894e-10
-6.488616e-09 -5.249382e-09 2.888981e-09 -5.488528e-09 3.859535e-11 2.322609e-11
-7.305432e-09 -1.948849e-09 2.701114e-09 -4.081769e-09 6.630566e-10 -2.299169e-10
-8.497493e-09 -3.332492e-09 2.277155e-09 -5.084611e-09 -7.335956e-10 -1.447389e-10
-5.639158e-09 -7.532542e-09 2.982790e-09 -7.106622e-09 6.607737e-10 -8.326962e-11
-5.408955e-09 -6.610111e-09 3.542031e-09 -3.542008e-09 8.205546e-10 -5.706666e-11
-7.305492e-09 -5.922495e-09 3.144666e-09 -4.671102e-09 -3.745281e-10 -1.638668e-10
-6.816049e-09 4.688556e-09 4.748966e-10 -3.821752e-09 -1.013156e-10 -5.353633e-10
-5.813191e-09 4.548062e-09 4.462253e-10 -3.663734e-09 -4.427527e-11 -1.054402e-10
-5.946690e-09 4.130653e-09 1.690204e-10 -4.765175e-09 -2.934019e-10 -5.474691e-11
-5.589751e-09 4.337790e-09 3.878238e-10 -3.352601e-09 -1.012673e-10 -4.500027e-10
-4.560095e-09 4.134657e-09 1.438387e-10 -5.264301e-09 -1.117215e-10 -3.546341e-11
1.405323e-08 -3.955009e-08 1.426857e-09 1.093913e-08 2.728747e-09 -5.935210e-10
1.092776e-08 -3.977107e-08 4.853832e-09 8.045125e-09 1.534137e-09 -2.858624e-10
1.073929e-08 -3.835517e-08 4.954005e-09 9.250024e-09 1.292700e-09 -1.448086e-10
1.154985e-08 -4.116981e-08 4.622815e-09 6.968436e-09 1.221339e-09 6.592229e-10
1.479800e-08 -4.113760e-08 4.641097e-09 6.033357e-09 1.246276e-09 9.176777e-11
-7.819018e-09 5.586099e-09 -6.818293e-10 -6.636762e-09 -5.800689e-10 -5.385657e-10
-9.522747e-09 6.507444e-09 -1.750235e-09 -4.921873e-09 -4.753360e-10 7.774805e-10
-6.806098e-09 6.795921e-09 -2.170534e-09 -9.882971e-09 -6.104197e-10 5.719922e-10
-2.277308e-09 4.645611e-09 -1.718914e-09 -1.157964e-08 -5.824395e-10 1.019070e-09
-1.806659e-09 4.239984e-09 -1.573579e-09 -1.183402e-08 -2.358373e-10 -7.462553e-10
-5.848597e-09 6.852506e-09 -2.284260e-09 -1.012725e-08 -5.654041e-10 4.981408e-10
-4.260094e-09 5.536995e-09 -1.319227e-09 -1.035537e-08 -5.387535e-10 1.180538e-10
-6.313154e-09 6.382544e-09 -1.368300e-09 -9.215537e-09 -6.520420e-10 -4.362226e-10
-5.449471e-09 4.288876e-08 1.526075e-08 3.893714e-08 8.631231e-09 1.378313e-08
6.207596e-09 1.992551e-08 2.257455e-08 4.197639e-08 2.519976e-09 1.383035e-08
8.244837e-09 9.103077e-09 6.011726e-08 4.331814e-08 8.094628e-09 1.597536e-08
-5.232974e-08 8.245804e-08 5.796039e-08 1.338003e-08 2.551854e-08 -1.639398e-08
-5.004659e-08 8.466760e-08 3.142533e-08 1.585772e-08 3.083054e-08 -2.100859e-09
-5.395371e-08 3.225780e-08 1.588319e-07 4.755222e-08 3.560925e-08 2.095226e-08
-4.690858e-08 7.575725e-08 -2.913173e-09 1.502041e-08 7.147860e-09 -8.714402e-09
-2.804583e-08 3.383790e-08 6.864841e-08 5.398532e-08 4.218233e-08 4.194316e-08
1.945228e-08 -4.508107e-08 -2.491893e-09 -8.211578e-10 5.830938e-09 2.436076e-10
1.870927e-08 -4.193211e-08 -7.796158e-09 -6.234163e-09 7.556224e-10 4.648728e-10
-5.867570e-09 5.121411e-09 2.031293e-10 -2.159286e-10 -4.158568e-11 -2.119603e-10
1.944213e-08 -4.417945e-08 -2.892948e-09 -6.130486e-10 -3.431029e-10 -3.530812e-10
2.787352e-08 -4.271038e-08 -2.837651e-08 -3.297887e-09 4.427045e-09 2.417902e-09
-2.204338e-08 7.114868e-08 -5.738918e-08 -1.486644e-10 9.667983e-09 -7.939857e-09
2.226622e-08 -4.241745e-08 -1.336288e-08 -5.828912e-09 7.200218e-09 8.403618e-10
2.334137e-08 -4.640033e-08 -1.218739e-08 3.445901e-09 1.047896e-08 -4.564321e-10
2.222717e-08 -4.404095e-08 -8.431167e-09 -5.535149e-09 8.221624e-09 3.752065e-10
3.079963e-09 -1.815361e-10 -8.055983e-10 -4.638085e-09 8.058878e-11 -1.994596e-10
8.710899e-11 1.515772e-09 -3.569616e-10 -4.242337e-09 -1.207301e-10 4.387157e-10
1.162455e-09 6.005443e-10 -8.440351e-10 -5.213857e-09 1.595741e-11 -5.599539e-10
2.783827e-09 -2.079802e-10 -9.309731e-10 -7.149586e-09 -5.465544e-10 2.758327e-10
3.916205e-09 -8.027318e-10 -1.085789e-09 -6.349685e-09 -1.922042e-10 -5.533468e-10
2.487466e-09 5.705048e-11 -1.002874e-09 -6.874078e-09 -5.773659e-11 -6.038143e-10
5.507625e-09 -1.521700e-09 -1.055691e-09 -7.519005e-09 -1.300891e-10 6.088764e-10
1.886526e-10 1.122884e-09 -6.463026e-10 -5.830704e-09 -3.355472e-10 1.121818e-10
-1.225253e-10 1.128044e-09 -3.793463e-10 -5.930346e-09 1.055313e-10 2.302762e-10
2.288874e-08 -2.909597e-08 -4.143838e-08 -1.559809e-08 -2.710056e-08 -3.176462e-09
1.197203e-08 -1.594741e-08 -2.420702e-08 -1.879980e-08 -3.641523e-09 -2.417783e-09
1.789257e-08 7.220445e-09 -6.389905e-08 -1.747985e-08 -1.098987e-08 -1.433790e-09
2.845347e-08 1.223819e-08 -7.730548e-08 -1.321074e-08 -1.312664e-08 -4.495597e-10
2.093223e-08 3.648258e-08 -9.063936e-08 -1.813404e-08 -1.910456e-08 -1.660414e-09
2.531664e-08 1.443588e-08 -7.826728e-08 -1.977604e-08 -3.412206e-08 -6.222165e-09
2.708249e-08 9.315926e-09 -8.466842e-08 -1.589066e-08 -4.015811e-08 -3.477440e-09
1.434586e-08 1.103302e-08 -5.821501e-08 -1.942618e-08 -6.226241e-09 -2.762776e-09
1.529887e-08 2.611963e-09 -6.673947e-08 -2.666010e-08 -3.688105e-08 -1.167371e-08
-4.922435e-09 -1.046134e-08 -9.618361e-09 2.611988e-08 6.976899e-09 -4.953843e-09
-2.232811e-09 -1.972723e-08 -2.543146e-09 1.819198e-08 6.210960e-10 6.180136e-10
-4.219046e-10 -1.631992e-08 -8.939331e-09 2.368272e-08 2.510779e-09 -2.378858e-09
2.134613e-08 -2.710571e-08 -2.849877e-08 2.062855e-08 1.283515e-08 2.608540e-09
1.128712e-08 -1.896777e-08 -2.685129e-08 2.530138e-08 4.606330e-09 -1.453696e-09
8.272504e-09 -2.437126e-08 -2.071367e-08 2.640635e-08 1.175569e-08 -1.199424e-09
6.541476e-09 -1.250481e-08 -2.847810e-08 2.837167e-08 1.281944e-08 -5.043679e-09
3.821578e-09 -2.348395e-08 -9.431025e-09 2.179663e-08 2.013386e-09 1.051370e-09
7.855176e-09 -2.354233e-08 -5.998732e-09 2.287061e-08 5.776020e-09 -2.488592e-10
1.874918e-08 -1.735533e-09 -6.096483e-08 8.559482e-09 -6.721207e-09 2.662473e-09
1.878003e-08 -6.332013e-09 -4.252370e-08 9.991676e-09 -8.601832e-09 3.558425e-09
1.349159e-08 -1.814614e-08 -2.313740e-08 1.097689e-08 -4.709781e-09 3.150706e-09
1.502699e-08 -2.111009e-08 -2.528065e-08 1.011824e-08 -8.722185e-09 4.410540e-09
2.263934e-08 -2.410064e-08 -3.370816e-08 8.871001e-09 -1.663262e-08 2.299680e-09
1.909189e-08 -3.103142e-08 -2.658441e-08 1.067498e-08 -1.103162e-08 3.687952e-09
9.545466e-09 -1.053637e-08 -3.001254e-08 1.210536e-08 -1.049365e-08 4.234735e-09
1.877902e-08 -1.669279e-08 -4.072505e-08 1.085937e-08 -1.803774e-08 7.579692e-09
-1.855218e-08 4.464868e-08 -3.688821e-08 1.872366e-08 2.361864e-09 -8.031273e-09
-1.012291e-08 5.022719e-08 -6.578682e-08 1.713514e-08 1.058230e-08 -6.101824e-09
-2.042109e-08 5.353728e-08 -2.230546e-08 -5.853002e-09 -3.418006e-09 -8.373499e-09
-1.551238e-08 5.212984e-08 -2.390913e-08 -1.400832e-08 8.881278e-10 -2.862652e-09
-2.073058e-08 4.079011e-08 -3.124406e-08 6.292235e-09 6.972939e-09 -3.923794e-09
-1.875244e-08 3.863511e-08 -2.251250e-08 7.259199e-09 4.805176e-09 -7.047641e-09
-1.537736e-08 5.567700e-08 -2.673261e-08 -1.083900e-08 -7.569148e-10 -7.442363e-09
-1.423476e-08 4.464367e-08 -3.658230e-08 1.021496e-08 4.141793e-09 -9.214017e-09
1.663576e-08 -7.506511e-09 -9.341661e-10 1.514277e-09 -2.234745e-11 -6.810085e-10
1.392766e-08 -7.457884e-09 -1.328671e-10 3.845730e-09 -1.086987e-10 -1.010970e-09
1.407740e-08 -6.203387e-09 -7.991812e-10 4.330408e-09 2.576679e-10 3.234949e-10
1.540119e-08 -7.532922e-09 -6.058389e-10 2.593177e-09 1.833645e-10 9.775076e-12
-1.070865e-08 5.184722e-09 -4.219032e-09 7.223558e-10 -1.236309e-09 -4.989201e-10
-1.048617e-08 4.175540e-09 -1.965399e-09 -1.392504e-09 -1.821425e-09 8.678047e-10
-1.034658e-08 8.339887e-09 -6.660234e-09 5.363499e-11 -2.242206e-09 1.241300e-09
-1.024629e-08 6.373163e-09 -4.471076e-09 -3.508861e-09 3.241594e-10 -4.983818e-10
-1.064569e-08 8.010402e-09 -2.769359e-09 -3.478385e-09 -1.081004e-09 1.050136e-09
-1.035016e-08 3.205425e-09 -6.044808e-09 2.326242e-09 -3.165209e-09 7.648749e-10
-1.161387e-08 7.707732e-09 -5.838625e-09 -8.598707e-10 -2.687676e-09 1.819647e-09
-1.085912e-08 6.257472e-09 -6.291787e-09 -1.903690e-09 -1.772613e-09 1.116663e-09
8.871378e-09 -3.310556e-08 3.166365e-09 -9.176684e-09 2.095856e-09 9.478778e-10
1.294424e-08 -3.729912e-08 2.511471e-09 -7.416895e-09 1.103069e-09 -4.526439e-10
1.392874e-08 -3.465806e-08 -4.415331e-09 -1.159138e-08 8.185397e-10 7.055976e-10
1.215616e-08 -3.640813e-08 8.811618e-10 -9.840646e-09 2.796391e-09 6.410925e-10
7.264109e-09 -3.077197e-08 2.518125e-09 -1.072443e-08 1.050417e-09 -7.363949e-11
7.260775e-09 -3.023969e-08 3.344871e-09 -1.057641e-08 -3.808653e-10 -8.383379e-10
8.540644e-09 -3.064555e-08 -3.449840e-10 -1.366264e-08 4.028770e-09 1.637940e-09
1.032623e-08 -3.130052e-08 -2.784987e-09 -1.371905e-08 1.280227e-09 -6.351302e-11
7.265313e-09 -2.783912e-08 2.230483e-09 -1.159195e-08 1.180064e-09 4.774552e-10
4.619248e-08 -4.017382e-08 9.243640e-08 1.425301e-09 -1.405207e-08 4.652110e-08
4.998288e-08 -4.335498e-08 9.602264e-08 3.220458e-08 2.852512e-08 5.162704e-08
2.020451e-08 -4.785849e-08 1.080565e-07 -2.179536e-08 -8.060975e-09 2.797222e-08
-4.267561e-09 -5.386852e-08 2.042429e-07 2.266614e-08 6.294131e-09 1.630288e-08
1.871187e-08 -4.496342e-08 1.360915e-07 2.859781e-08 8.171500e-09 5.662937e-08
2.640385e-08 -4.785038e-08 1.123372e-07 -1.665539e-08 -9.149593e-09 1.714425e-08
-1.629629e-09 -7.046099e-08 1.995024e-07 3.682777e-09 2.517066e-09 2.562400e-08
2.125346e-08 -6.329006e-08 1.904838e-07 -1.824579e-08 -3.496373e-08 8.370280e-08
-1.441001e-07 -8.666387e-08 3.877165e-07 -4.239034e-09 -9.491016e-09 -2.259030e-09
-1.278434e-07 -6.747394e-08 3.427045e-07 2.074208e-09 8.633723e-09 3.620855e-08
-1.249366e-07 -6.377443e-08 3.474239e-07 -1.914857e-08 -4.638846e-09 1.443211e-08
-1.108907e-07 -3.453837e-09 2.508636e-07 5.253874e-09 -9.822112e-09 -5.078618e-08
-1.275278e-07 -3.694145e-08 3.013614e-07 -2.077007e-09 4.465159e-08 -1.844345e-08
-9.164085e-08 -5.878285e-08 3.243924e-07 2.756250e-08 3.816547e-08 8.246955e-08
-7.866609e-09 3.680883e-09 1.219661e-09 4.951309e-10 6.634138e-11 -1.178756e-10
1.593514e-08 -2.276547e-08 -2.184130e-08 -1.972370e-08 4.921413e-09 1.447972e-09
1.237241e-08 -2.640784e-08 -1.201895e-08 -1.995187e-08 5.899358e-09 5.813358e-10
6.311264e-09 -1.345372e-08 -2.054838e-08 -2.444748e-08 5.972344e-09 3.800927e-09
6.858157e-09 6.852753e-09 -2.175216e-09 -2.049496e-08 -3.646636e-10 1.114992e-09
1.793857e-09 8.751796e-09 -3.441117e-09 -2.010670e-08 -2.556825e-10 2.718284e-09
-8.326625e-09 1.098664e-08 -4.438349e-09 -1.173420e-08 -7.982563e-10 1.279344e-09
-4.775611e-08 7.839095e-08 6.429861e-08 3.830667e-09 -2.975124e-08 1.404317e-08
-9.582509e-08 -1.655713e-08 2.328625e-07 6.186570e-09 -4.411033e-08 2.029633e-08
-7.871937e-08 -1.658111e-08 1.643865e-07 3.838602e-09 -2.848614e-08 -1.509162e-08
-1.131073e-07 6.786582e-08 2.169433e-07 -1.249456e-08 -1.233993e-07 2.916786e-08
-6.329551e-10 1.901150e-08 -7.584996e-09 -2.683979e-08 -1.036886e-09 6.262569e-09
3.821790e-09 9.484897e-09 -5.204122e-10 -2.348843e-08 -8.884163e-10 1.848389e-09
-4.739237e-09 1.689898e-08 -9.660086e-09 -2.274262e-08 1.334943e-09 3.164969e-09
4.600737e-09 1.161663e-08 2.373254e-09 -2.574623e-08 2.623116e-09 1.372159e-09
3.820073e-09 5.522971e-09 4.303014e-09 -2.338018e-08 1.187206e-09 1.877316e-09
5.430614e-09 -3.002211e-09 -8.410685e-10 3.185930e-09 3.511154e-10 1.260667e-10
5.440439e-09 -2.588648e-09 -7.462964e-10 3.675013e-09 1.019511e-10 -3.562823e-10
9.106165e-09 -4.273982e-09 -1.046207e-09 3.454501e-09 1.989817e-10 1.627998e-10
6.086707e-09 -2.870889e-09 -7.159935e-10 4.157870e-09 2.864820e-10 4.096282e-11
5.694908e-09 -2.447471e-09 -6.540657e-10 5.052325e-09 -1.610674e-10 -1.554571e-10
7.423246e-09 -4.274456e-09 -1.033407e-09 3.209429e-09 1.469830e-10 1.361000e-11
7.121748e-09 -3.380405e-09 -7.922347e-10 4.915303e-09 2.917967e-10 1.049901e-10
8.055117e-09 -3.817528e-09 -9.544086e-10 4.233080e-09 2.169124e-10 4.927911e-10
-2.399553e-08 2.679163e-08 -1.450117e-08 -1.204801e-08 4.722839e-09 8.499336e-09
-1.041645e-08 3.586143e-08 -2.687730e-08 -7.969953e-10 -2.042726e-08 -1.490942e-08
-2.118787e-08 1.876627e-08 -9.796405e-09 -1.169357e-08 3.140537e-09 3.732792e-09
-5.722606e-09 1.552564e-08 -1.959373e-08 -2.501628e-08 9.735982e-09 4.723835e-09
-1.353156e-08 1.039473e-08 -1.268167e-08 -1.794866e-08 4.399934e-09 3.877634e-09
-1.419874e-08 1.048331e-08 -9.725992e-09 -1.744098e-08 2.333056e-09 2.108117e-09
-1.352055e-08 1.006903e-07 -5.609923e-08 -2.702884e-08 5.614332e-09 -3.296884e-09
2.634331e-09 8.094666e-08 -5.279547e-08 -2.751171e-08 1.310668e-08 6.855118e-09
-3.028515e-08 1.221770e-07 -3.615017e-08 -3.362930e-08 3.031723e-08 -3.823332e-09
-2.308294e-09 7.669339e-08 -8.051828e-08 -2.318955e-08 -1.671119e-08 1.286772e-08
-2.192611e-08 1.035353e-07 -3.541291e-08 -2.330078e-08 1.913733e-08 -9.646515e-09
6.686746e-09 -2.048948e-09 -1.543978e-10 7.450936e-09 -1.554570e-10 -9.798362e-10
1.286491e-08 -5.134552e-09 -8.841283e-11 7.046011e-09 3.774336e-10 1.023353e-10
1.102835e-08 -4.124787e-09 2.791549e-10 8.327596e-09 5.088341e-10 2.258374e-10
7.297265e-09 -2.232718e-09 -4.837908e-11 7.937879e-09 -1.905671e-10 -4.239116e-10
6.406212e-09 -9.186472e-10 6.234191e-10 9.871810e-09 -3.797647e-10 -2.732612e-10
9.322319e-09 -2.798222e-09 1.047752e-09 9.404210e-09 3.858298e-10 -2.512535e-10
-1.144900e-08 7.631137e-09 3.671208e-10 -3.222134e-09 1.295214e-09 4.623363e-10
-1.201417e-08 6.637396e-09 7.583409e-10 -2.221132e-09 7.703709e-10 -5.036737e-10
-9.152253e-09 3.394814e-09 1.518138e-09 -3.302934e-10 -1.391873e-10 -5.060957e-10
-1.070976e-08 6.033777e-09 9.511023e-10 -1.470066e-10 2.561202e-10 -2.194882e-10
-9.918714e-09 2.463967e-09 9.988272e-10 -4.438853e-09 9.406349e-10 2.651008e-10
-1.079899e-08 1.974017e-09 9.860033e-10 -3.573364e-09 -7.107806e-10 -4.549877e-10
-5.083258e-08 6.938885e-08 8.485616e-08 -4.296775e-09 4.272035e-08 -1.534158e-08
-5.063565e-08 6.947582e-08 3.596952e-08 -4.441113e-09 3.876839e-08 -1.190317e-08
-1.297141e-07 -3.727058e-08 4.356626e-07 2.440120e-09 7.107159e-08 -5.579260e-09
-1.048914e-07 4.559059e-08 1.416213e-07 -4.144971e-08 4.216336e-08 -8.221297e-09
-3.950674e-08 8.948055e-08 -6.194777e-09 2.300573e-08 2.759432e-08 -8.647616e-09
-1.297713e-07 -3.712529e-08 3.224624e-07 3.203058e-09 4.776906e-08 -2.857335e-09
-1.284755e-07 -6.747994e-08 3.906086e-07 6.933580e-09 4.411121e-09 9.031680e-09
-8.718273e-08 7.447940e-08 8.223746e-08 2.187455e-08 1.058510e-07 2.299909e-08
-6.036308e-09 -6.418134e-09 4.081842e-09 -1.080988e-09 -5.109668e-10 -4.083058e-10
-6.902959e-09 -4.349925e-09 3.470990e-09 -2.231672e-09 1.908215e-10 -3.026949e-10
-5.408958e-09 -7.556810e-09 3.885056e-09 -3.855847e-09 -1.890217e-10 -2.610579e-10
-5.663074e-09 -6.927985e-09 3.929705e-09 -2.652652e-09 6.029652e-10 -3.955654e-10
-5.408957e-09 -8.307094e-09 4.032786e-09 -3.682394e-09 2.241198e-10 -1.965942e-10
1.435840e-09 2.609494e-09 -1.731816e-09 -1.330956e-08 -1.549302e-10 -9.871441e-11
1.438473e-09 2.604917e-09 -1.743474e-09 -1.330632e-08 -5.146665e-10 5.283376e-10
3.974234e-10 5.462819e-09 -2.017678e-09 -1.754796e-08 6.154132e-10 -3.156201e-11
2.957537e-09 2.785813e-09 -1.052083e-09 -1.459499e-08 -1.344628e-10 -1.271750e-09
-2.827539e-09 4.120847e-09 -1.358842e-09 -1.097473e-08 -2.387943e-10 3.296049e-10
4.211396e-10 8.261981e-09 -3.122790e-09 -1.615001e-08 -2.721373e-10 2.841979e-10
4.291965e-10 7.350075e-09 -3.030104e-09 -1.659501e-08 -6.784027e-10 1.739491e-09
-1.274190e-09 5.991220e-09 -1.890187e-09 -1.276155e-08 -1.322263e-09 1.048150e-09
1.083590e-08 -6.314243e-09 -1.498212e-09 -3.513466e-10 3.672906e-11 -3.975647e-10
1.126111e-08 -5.759251e-09 -1.326341e-09 1.071567e-09 1.120912e-10 3.728837e-10
1.083189e-08 -6.352108e-09 -1.536897e-09 5.869696e-10 -6.273442e-11 -3.652332e-10
1.117336e-08 -6.066532e-09 -1.436077e-09 9.664683e-10 1.278303e-10 -4.649503e-11
1.006238e-08 -5.572017e-09 -1.338202e-09 1.107998e-09 1.021686e-10 -1.660281e-10
1.068452e-08 -5.728417e-09 -1.336115e-09 1.061726e-10 -5.002623e-12 3.009120e-10
2.427173e-08 -1.352179e-08 1.866280e-08 6.582931e-09 -3.998876e-10 -4.869241e-09
2.364080e-08 -1.339851e-08 1.364317e-08 6.594800e-09 -1.521892e-09 -8.277742e-09
1.060011e-08 -5.763168e-09 -1.348034e-09 1.665771e-09 4.031300e-11 2.812512e-10
-2.086491e-10 -2.619966e-08 8.270666e-09 9.849077e-11 2.417849e-11 4.079982e-10
9.929625e-09 -5.663467e-09 -1.318086e-09 2.234863e-09 -2.269057e-11 -2.749886e-10
9.609496e-09 -5.428815e-09 -1.309640e-09 9.787985e-10 -4.529849e-11 2.177791e-10
9.818487e-09 -5.382660e-09 -1.306908e-09 1.529439e-09 1.949978e-10 1.701899e-10
1.061397e-08 -5.727465e-09 -1.326555e-09 1.638782e-09 9.679834e-11 -1.855545e-10
9.242744e-09 -5.043293e-09 -1.207044e-09 1.820919e-09 4.108913e-11 2.178013e-11
-2.355130e-08 2.351786e-08 6.246341e-09 1.853667e-08 1.141653e-09 3.132641e-09
-1.804738e-08 2.562878e-08 1.491030e-08 2.426632e-08 -6.601914e-09 -5.787254e-10
-2.268708e-08 3.189782e-08 2.597004e-09 1.069568e-08 -6.623146e-10 7.061118e-09
-2.384133e-08 3.868362e-08 8.248914e-09 1.643822e-08 -7.034830e-09 3.082379e-09
-2.288408e-08 2.253980e-08 2.495082e-08 2.024754e-08 -3.072137e-09 6.361614e-09
1.713421e-08 -8.219237e-09 1.494542e-08 1.282024e-08 -1.047929e-09 -4.868173e-09
1.977935e-08 -8.318240e-09 4.199188e-09 8.134243e-09 2.342578e-10 -4.818463e-10
1.680261e-08 -6.851024e-09 5.207478e-09 1.029893e-08 9.191898e-10 -1.758384e-09
1.271851e-08 -5.534110e-09 8.980142e-09 1.378519e-08 5.746369e-10 5.180141e-10
2.041726e-08 -9.656543e-09 5.890348e-09 8.370127e-09 -1.422309e-09 -4.566528e-09
1.601270e-08 -5.484835e-09 9.231601e-09 1.473582e-08 -2.187274e-09 -7.617141e-09
-9.456215e-09 -4.038646e-09 9.766152e-10 -8.937822e-09 1.041315e-09 -1.088229e-10
-8.619475e-09 -3.780540e-09 1.576310e-09 -9.402826e-09 -2.992096e-11 -7.864970e-10
-5.639136e-09 -6.127657e-09 2.844599e-09 -6.814043e-09 4.786738e-10 -2.192097e-11
-7.299543e-09 -3.764255e-09 2.647785e-09 -5.652406e-09 9.427763e-10 2.407475e-10
-9.648688e-09 -2.337661e-09 1.325632e-09 -6.669761e-09 -7.440004e-10 -2.852662e-10
-8.045925e-09 -6.078998e-10 2.257857e-09 -5.554647e-09 1.047169e-09 -2.703150e-11
-1.896898e-08 4.260908e-08 -5.352971e-08 1.967270e-08 2.673520e-08 -2.014742e-08
-1.391015e-08 6.269844e-08 -7.002390e-08 1.608845e-08 2.662847e-08 -2.544231e-08
-3.575964e-09 7.081728e-08 -9.765016e-08 1.575601e-08 1.572321e-08 -7.511116e-09
-3.160454e-08 7.483648e-08 -4.906193e-08 -1.473572e-08 1.174933e-08 -2.948452e-08
-1.037941e-08 8.500556e-08 -8.379560e-08 6.610695e-09 3.115162e-09 -9.480303e-09
-2.316550e-08 1.030771e-07 -6.895771e-08 7.237155e-10 9.982792e-09 -3.114077e-08
1.511759e-08 -5.721812e-09 -4.276138e-08 9.462882e-09 -1.898728e-08 5.193279e-09
1.171844e-08 1.617791e-08 -4.959278e-08 7.573487e-09 -2.109287e-08 1.084532e-08
1.002427e-08 1.788948e-08 -6.437686e-08 4.719522e-09 -7.091686e-09 3.602520e-09
2.609842e-10 1.726766e-08 -3.317068e-08 6.265441e-09 -1.334400e-08 9.538107e-09
2.182124e-09 1.722536e-08 -4.992245e-08 5.749848e-09 -2.048074e-08 1.386563e-08
-1.712390e-09 1.305626e-08 -4.245715e-08 1.048730e-08 -1.962538e-08 1.626640e-08
1.466351e-08 -7.476418e-09 -1.324647e-09 -9.177223e-10 8.030304e-11 -5.099210e-11
1.246871e-08 -6.411792e-09 -1.538603e-09 -2.020168e-09 -1.085091e-10 -1.575040e-10
1.204238e-08 -6.778963e-09 -1.500651e-09 -1.545044e-09 6.264755e-11 -5.279521e-10
1.203069e-08 -5.545153e-09 -1.561345e-09 -3.173731e-09 5.087220e-11 -1.515490e-10
1.212354e-08 -6.096115e-09 -1.555650e-09 -3.095436e-09 -1.260196e-10 -2.070157e-10
1.442485e-08 -6.500505e-09 -1.528687e-09 -2.984292e-09 -1.523191e-10 4.968882e-10
1.302020e-08 -7.122293e-09 -1.194299e-09 -3.399960e-09 1.490945e-10 -5.030272e-10
-5.337823e-10 -2.838660e-08 2.434856e-09 -1.696087e-08 -1.049443e-08 -3.365199e-09
2.188358e-08 -1.481939e-08 3.148171e-08 -1.348657e-08 3.074708e-09 -1.376440e-08
2.217161e-08 -1.229801e-08 1.572838e-08 -1.186209e-08 1.715607e-09 -7.552247e-09
1.998573e-08 -1.161740e-08 1.112622e-08 -1.395770e-08 3.394310e-09 -5.255296e-09
3.092161e-08 -1.605960e-08 2.624155e-08 -2.259034e-09 2.699187e-09 -1.077163e-08
1.959527e-08 -1.558199e-08 2.820983e-08 -7.772344e-09 1.714273e-10 -1.083951e-08
2.212762e-08 -1.492293e-08 1.760892e-08 -9.184876e-09 -1.878699e-09 -3.546361e-09
5.122524e-10 -1.964485e-08 4.541935e-09 -7.837724e-09 -2.111360e-10 -2.034392e-10
-2.420455e-09 -1.337041e-08 3.312649e-09 -8.351563e-09 1.423362e-09 1.953791e-10
-2.880316e-09 -1.316214e-08 3.725109e-09 -8.288904e-09 -9.476160e-10 -7.570108e-10
5.122723e-10 -1.801314e-08 4.751226e-09 -8.269716e-09 6.751799e-10 -7.957564e-10
-1.263262e-09 -1.629431e-08 4.127260e-09 -9.281515e-09 -7.950695e-10 -1.252831e-09
-1.459910e-09 -1.315660e-08 -9.893323e-09 8.322698e-09 -2.878905e-09 9.082558e-10
-1.834972e-09 -3.110820e-09 -1.034565e-08 7.951642e-09 -4.625794e-09 2.051757e-09
-4.340682e-09 -2.481876e-09 -1.034233e-08 7.829849e-09 -4.226605e-09 1.179198e-09
-6.948694e-09 -2.185968e-09 -1.150659e-08 7.362082e-09 -4.131050e-09 3.028300e-09
-2.049084e-09 -1.070962e-08 -6.959986e-09 7.069248e-09 -4.094369e-11 -1.209473e-09
-7.330179e-09 -7.264162e-10 -8.796696e-09 6.205178e-09 -6.837453e-10 -6.567904e-10
2.075799e-09 -2.273326e-08 5.117672e-09 -7.030393e-09 6.234182e-10 2.248400e-10
4.964655e-09 -2.587587e-08 2.232595e-09 -1.095107e-08 1.193268e-10 7.486354e-10
4.126350e-09 -2.607757e-08 4.708168e-09 -8.691735e-09 5.440395e-10 -1.391772e-12
1.647156e-09 -2.196642e-08 2.768772e-09 -1.150920e-08 7.043099e-10 -4.405026e-10
9.003940e-10 -2.023655e-08 3.442006e-09 -1.016805e-08 1.927185e-09 3.756885e-10
2.235702e-09 -1.999635e-08 4.313730e-09 -8.451288e-09 4.456262e-10 -7.277865e-10
5.122512e-10 -1.801972e-08 4.584631e-09 -8.267029e-09 7.324231e-11 -3.068695e-10
-7.586908e-09 2.490546e-09 1.651176e-09 8.595510e-10 4.649614e-11 -2.938181e-10
-7.247372e-09 2.855278e-09 1.459898e-09 9.011880e-10 1.459484e-10 1.783307e-11
-7.593005e-09 2.099873e-09 1.878525e-09 4.386644e-10 5.458932e-11 -2.534664e-10
-7.929572e-09 2.058380e-09 1.937734e-09 2.686877e-10 1.887817e-10 -5.955769e-11
-7.247372e-09 2.550018e-09 1.506240e-09 7.139069e-10 -1.478828e-11 -2.034564e-10
-7.912437e-09 1.676451e-09 2.044512e-09 5.792414e-10 1.336895e-10 -3.111279e-10
-7.312464e-09 2.326839e-09 1.713182e-09 8.843932e-10 2.744536e-10 2.815459e-11
-7.610869e-09 2.478380e-09 1.743296e-09 1.117851e-09 1.815992e-10 6.235293e-11
-7.911837e-09 2.169729e-09 1.924930e-09 8.599523e-10 1.005307e-10 -2.438336e-10
1.973179e-08 3.050726e-08 -1.036704e-07 2.747258e-08 1.546698e-08 -5.813308e-09
2.741408e-08 -1.263637e-08 -5.563620e-08 3.089706e-08 2.442571e-08 -1.364906e-08
3.023887e-08 -1.354021e-08 -7.281125e-08 2.010602e-08 3.433877e-08 -5.083513e-09
3.319174e-08 -1.125828e-08 -7.179022e-08 1.734797e-08 3.593265e-08 -6.822557e-09
3.177660e-08 1.350025e-08 -9.893668e-08 2.342160e-08 1.543674e-08 -4.175456e-09
3.535215e-08 -1.353199e-08 -8.659945e-08 1.849008e-08 4.713150e-08 -1.944581e-09
-9.530487e-09 9.854482e-09 -7.044024e-09 -6.833029e-09 1.350106e-13 -2.867491e-10
-1.044054e-08 1.121135e-08 -1.006112e-08 -5.384237e-09 -2.277139e-09 2.160850e-09
-1.177195e-08 1.339628e-08 -1.013500e-08 -3.872006e-09 -4.105419e-09 3.998868e-09
-1.038620e-08 6.750915e-09 -4.238820e-09 -2.466826e-09 -2.443398e-09 2.076871e-09
-1.276141e-08 2.906428e-09 -1.332397e-08 2.277670e-08 6.460058e-09 -4.167672e-09
-1.064145e-08 6.096131e-09 -1.067671e-08 2.080099e-09 -3.640716e-09 3.088300e-09
6.502853e-09 -4.789831e-08 1.534340e-07 -3.367213e-08 -3.005722e-08 2.748748e-08
2.023218e-08 -4.785812e-08 1.418685e-07 -2.180016e-08 -9.698672e-09 6.501674e-08
-3.456356e-08 -7.045536e-08 2.669162e-07 5.217903e-09 5.998962e-09 9.140748e-08
-5.602535e-08 -7.740050e-08 3.154311e-07 4.081514e-09 3.669679e-09 2.222928e-08
2.424889e-08 -4.963510e-08 1.806220e-07 3.202184e-08 4.033966e-08 7.931962e-08
4.992521e-08 -4.734431e-08 7.043728e-08 -3.971848e-09 1.030008e-11 2.724698e-08
5.607825e-09 -2.392530e-08 -7.255910e-09 -1.856949e-08 2.151298e-09 3.122980e-10
5.912963e-09 -2.560659e-08 2.192895e-10 -1.313439e-08 2.377014e-09 1.480404e-09
7.073493e-09 -2.723549e-08 -2.103670e-09 -1.420700e-08 3.576512e-10 7.310968e-10
1.119731e-08 -3.350625e-08 -1.020477e-10 -1.206671e-08 1.573955e-09 -4.198748e-10
-8.259083e-09 2.862213e-09 1.755301e-09 1.008571e-10 -1.352429e-10 -4.013190e-11
1.033084e-08 -2.984902e-08 -2.310356e-09 -1.480368e-08 3.627301e-09 1.035269e-09
1.078653e-08 -2.845920e-08 -9.977731e-09 -1.708151e-08 1.214097e-09 1.031459e-09
1.365792e-08 -5.341348e-09 -8.844028e-10 -8.056952e-09 -1.548013e-10 2.613681e-10
1.220165e-08 -4.942247e-09 -9.106644e-10 -9.143804e-09 -4.389071e-10 1.018963e-09
9.722329e-09 -3.262717e-09 -9.433383e-10 -1.073069e-08 1.368252e-10 -4.816865e-10
7.302925e-09 -2.291567e-09 -1.077278e-09 -9.488858e-09 -3.896264e-10 6.226570e-10
7.017720e-09 -2.314312e-09 -8.584280e-10 -9.494033e-09 -1.922795e-10 -1.266419e-09
8.817896e-09 -2.301713e-09 -1.118851e-09 -9.264357e-09 -2.079956e-11 -6.287881e-10
-6.046767e-08 -4.148181e-08 1.787688e-07 8.479696e-09 -5.197602e-10 -8.588639e-09
-1.080148e-07 -5.664370e-08 2.879635e-07 -1.059536e-08 1.208590e-08 -1.361430e-08
-8.387935e-08 -3.701376e-09 1.437324e-07 -8.323098e-09 2.257029e-09 1.666200e-09
-5.350948e-08 9.231448e-08 3.340326e-08 1.494471e-08 -8.258187e-08 2.997048e-08
-8.870375e-08 -5.708088e-08 2.620421e-07 -3.938670e-09 1.763942e-08 -2.479299e-08
-1.442710e-07 -7.017188e-08 3.610225e-07 -8.466244e-09 1.619845e-09 -1.419445e-08
-1.653205e-07 -8.684589e-08 4.516992e-07 -2.235348e-08 -2.021328e-08 9.853581e-09
2.050614e-08 -8.020408e-09 2.435633e-08 -2.058507e-08 1.399414e-09 -5.647061e-09
6.874577e-09 3.878469e-09 6.764367e-12 -2.028107e-08 -4.852459e-10 8.599497e-10
-1.725739e-09 1.152500e-08 -1.241615e-09 -2.309930e-08 5.067772e-10 -9.544352e-10
2.784922e-09 1.079326e-08 4.497023e-09 -2.697323e-08 2.393343e-09 2.514821e-09
6.879594e-09 1.801505e-10 2.880574e-09 -2.017113e-08 4.791760e-10 6.703579e-10
1.442802e-09 8.398391e-09 -2.041400e-09 -2.049365e-08 8.969710e-10 -1.086696e-09
4.071314e-10 5.639501e-09 -2.008597e-09 -1.764588e-08 -4.348313e-10 1.077609e-09
-2.925210e-09 1.349524e-08 -4.549281e-09 -1.887055e-08 9.237315e-10 1.349864e-11
-1.290752e-08 4.629692e-08 -1.080394e-08 -1.067390e-08 1.712350e-10 -8.940578e-09
1.197658e-08 -6.297885e-09 -3.649229e-08 -1.903250e-08 -2.283298e-09 -2.335532e-09
6.227262e-09 -1.515641e-09 -1.217314e-09 -7.898642e-09 -2.331544e-10 -4.958833e-10
3.194274e-09 3.720693e-09 -3.152814e-08 -1.974907e-08 -5.194224e-09 -4.002795e-09
1.195105e-08 -8.246709e-11 -4.342851e-08 -1.822353e-08 -7.253191e-09 -1.787678e-09
8.737234e-09 4.114584e-09 -4.016761e-08 -2.159772e-08 -1.729940e-08 -8.977156e-09
-8.334154e-09 4.376979e-09 1.025498e-09 2.445888e-09 -3.584646e-10 -7.528760e-10
-9.466451e-09 3.095669e-09 1.346076e-09 -2.149925e-09 3.991125e-10 3.620781e-10
-7.985827e-09 3.093620e-09 1.495470e-09 5.397360e-10 -2.500000e-11 8.027273e-11
-8.066110e-09 2.555431e-09 1.613406e-09 5.335793e-10 -3.511997e-10 -5.295502e-10
-8.156939e-09 2.789405e-09 1.489814e-09 3.597666e-10 7.025240e-10 1.250941e-10
-7.892878e-09 3.637320e-09 1.237754e-09 1.577279e-09 3.986521e-11 -5.142389e-10
-9.407175e-09 4.115535e-09 1.448344e-09 -1.155900e-09 3.832801e-11 1.623189e-10
-5.441521e-09 9.134510e-09 -1.742539e-08 -2.209149e-08 2.033284e-09 1.361661e-10
-5.716476e-09 5.780852e-09 -2.553220e-08 -2.526867e-08 7.248712e-09 4.973240e-09
1.025011e-08 8.625419e-09 -4.060800e-08 -2.602646e-08 1.976274e-08 7.421023e-09
7.662093e-09 -6.975312e-09 -2.984303e-08 -2.476984e-08 2.929492e-09 5.196336e-10
3.457725e-09 -6.649047e-09 -2.381346e-08 -2.561544e-08 5.092384e-09 2.203837e-09
5.757799e-09 -1.322212e-08 -1.597832e-08 -2.403698e-08 7.422187e-09 2.328214e-09
9.106264e-09 -4.274115e-09 -1.080040e-09 3.454445e-09 -4.107434e-11 -1.660541e-10
7.154617e-09 -2.996480e-09 -4.990754e-10 6.244739e-09 -1.974457e-10 -2.578078e-10
7.863925e-09 -3.379425e-09 -8.258150e-10 5.061094e-09 -3.868080e-11 -1.878267e-10
9.817395e-09 -5.197958e-09 -1.035944e-09 3.806801e-09 -1.110954e-10 -3.787786e-10
6.866274e-09 -3.177857e-09 -7.921241e-10 4.750103e-09 4.339284e-11 -4.168226e-10
7.268036e-09 -3.751965e-09 -1.025225e-09 3.225213e-09 -3.139444e-11 9.881696e-11
-1.059690e-08 7.423613e-10 -2.524336e-11 -9.172944e-09 -2.314027e-10 -9.532988e-10
-1.287388e-08 6.524148e-09 -1.869260e-10 -4.603063e-09 2.009770e-10 -5.063163e-10
-9.455426e-09 2.414057e-09 9.761010e-10 -7.384262e-09 1.510252e-09 1.177109e-10
-9.752574e-09 3.081596e-09 1.246706e-09 -5.020731e-09 1.484305e-09 4.977749e-11
4.500437e-10 -2.561341e-08 2.942286e-09 1.357124e-08 7.470285e-10 4.402048e-10
3.075048e-09 -2.543870e-08 3.431517e-09 1.450740e-08 7.634535e-10 -5.608305e-10
1.827227e-09 -3.022134e-08 2.090948e-09 1.711749e-08 6.284058e-10 1.275413e-10
6.689771e-11 -2.564107e-08 4.362329e-09 1.355981e-08 1.288531e-09 8.767387e-11
-3.039290e-09 2.963600e-09 -3.369305e-11 -3.492665e-09 -8.711454e-11 7.041478e-11
-6.667324e-10 1.511875e-09 -4.273328e-10 -4.381844e-09 -2.546418e-10 2.821654e-11
-1.329500e-09 1.812876e-09 -3.548806e-10 -3.191480e-09 -1.849355e-10 -3.445117e-11
-3.257270e-09 2.926634e-09 -7.937873e-11 -3.643625e-09 -2.099529e-10 -1.308451e-10
1.377522e-08 -5.087588e-09 1.782607e-09 9.407138e-09 6.926920e-10 -4.722152e-10
1.341051e-08 -3.830258e-09 3.936489e-09 1.273105e-08 -1.275677e-09 -4.665376e-09
1.676964e-08 -7.292815e-09 2.624057e-09 8.302042e-09 -8.245640e-10 -2.845890e-09
1.612487e-08 -8.350814e-09 4.254702e-09 7.422261e-09 2.097715e-10 -7.885569e-11
-6.854703e-09 -6.585018e-09 8.832375e-10 -1.144027e-08 -7.388097e-10 -1.094696e-09
-9.455480e-09 2.416238e-09 1.204672e-09 -7.384590e-09 1.260898e-10 2.583574e-11
-1.155453e-08 9.299683e-11 -3.769900e-10 -8.337045e-09 -8.322860e-10 -3.353181e-10
-7.163664e-09 -9.007646e-09 -9.564527e-11 -1.362618e-08 4.830262e-10 4.052359e-10
-8.418548e-09 -2.183841e-09 1.688354e-09 -7.029459e-09 1.375386e-09 5.519929e-10
-6.006120e-09 -7.835090e-09 2.604506e-09 -8.398478e-09 -8.279393e-10 -8.439160e-10
1.949039e-08 -9.559265e-09 6.756298e-09 7.531817e-09 1.170889e-09 7.929192e-11
7.672244e-09 -1.135521e-09 1.672241e-09 1.208265e-08 -3.739970e-10 -7.840852e-10
1.617853e-08 -7.286046e-09 2.684875e-09 7.761895e-09 8.107453e-10 4.359138e-10
1.352136e-08 -6.509372e-09 1.282193e-09 7.238997e-09 -2.764791e-10 -1.639114e-09
9.145602e-09 -3.625093e-09 3.276347e-09 1.169408e-08 3.781809e-10 -5.206121e-10
2.599249e-10 1.726421e-08 -3.563254e-08 6.267381e-09 -6.800925e-09 5.199481e-09
-2.341987e-09 1.628275e-08 -3.519518e-08 4.666331e-09 -6.080019e-09 6.277853e-09
-6.554126e-09 2.870236e-08 -3.140035e-08 -3.977080e-09 -1.003589e-08 1.119807e-08
7.103131e-09 6.126619e-10 -3.458838e-08 9.777880e-09 -7.663151e-09 7.426126e-09
8.251635e-09 1.672350e-08 -4.872008e-08 7.054991e-09 -2.040218e-08 1.027085e-08
-6.555488e-09 1.586100e-08 -3.056569e-08 3.080331e-09 -1.188355e-08 1.014784e-08
-3.161342e-08 7.484110e-08 -2.685206e-08 -1.473287e-08 -7.155145e-09 -1.247864e-08
-2.855587e-08 9.227519e-08 -3.650215e-08 -2.241430e-08 -3.297990e-09 -1.232517e-08
5.018812e-09 9.459554e-08 -1.369015e-07 1.382819e-08 2.491057e-08 -6.605853e-09
-3.842162e-09 8.500640e-08 -8.144275e-08 1.325419e-08 2.126068e-09 -1.787224e-08
-2.211424e-08 6.943739e-08 -3.661930e-08 -1.396432e-08 1.231234e-10 -9.459768e-09
-1.587317e-08 5.475979e-08 -8.186418e-08 2.007633e-08 3.791290e-08 -3.152195e-08
-2.744936e-08 4.195704e-08 -2.037906e-09 1.295275e-08 -7.909957e-09 -4.761034e-09
-3.063345e-08 4.607949e-08 -8.417915e-09 5.492446e-09 1.940034e-09 1.342135e-08
-7.508073e-09 1.197278e-09 1.916287e-09 2.241781e-10 8.132128e-11 3.352244e-12
-6.457918e-09 1.991057e-09 1.405485e-09 1.515319e-09 5.362777e-11 -1.718679e-10
-7.511568e-09 2.540398e-09 1.755351e-09 1.385095e-09 1.478825e-10 -2.955037e-10
-6.973401e-09 2.473230e-09 1.503527e-09 1.297116e-09 3.636467e-10 5.757861e-11
1.516807e-08 -8.499333e-09 -3.820890e-10 -2.247406e-09 1.682521e-11 -1.016149e-09
1.749694e-08 -7.742442e-09 -1.195804e-09 -1.952773e-09 -2.034564e-11 5.805603e-10
1.335681e-08 -7.506200e-09 -8.886456e-10 1.376382e-09 -4.348448e-11 -7.753752e-10
1.538523e-08 -8.545205e-09 -2.704832e-10 1.329161e-10 8.816286e-12 -1.097561e-09
1.626152e-08 -8.080962e-09 -6.385474e-10 1.024332e-09 1.123349e-11 -5.384146e-10
1.663811e-08 -7.506407e-09 -9.991146e-10 1.514788e-09 1.666852e-10 4.650696e-10
-7.360579e-09 2.544079e-09 1.678528e-09 1.507950e-09 1.512430e-10 5.361800e-11
-6.786765e-09 2.752699e-09 1.368276e-09 2.071960e-09 1.489474e-10 -1.101996e-10
-6.518518e-09 2.826430e-09 1.164080e-09 1.647925e-09 7.019757e-11 4.344552e-12
-6.665100e-09 2.321761e-09 1.385212e-09 1.084470e-09 1.234466e-10 -1.906623e-10
-7.300364e-09 2.379231e-09 1.549868e-09 1.205742e-09 2.435962e-11 -3.254969e-10
-6.898843e-09 2.753795e-09 1.282531e-09 1.679151e-09 3.705747e-11 -5.408318e-11
-6.126955e-09 2.596106e-09 1.207856e-09 1.938722e-09 3.117124e-10 1.105764e-10
-5.547582e-09 2.573753e-09 1.022154e-09 2.147981e-09 2.022280e-10 -3.840750e-11
-7.911256e-09 1.557159e-09 1.985055e-09 -3.029223e-11 1.228184e-10 -7.771493e-10
-6.108709e-09 2.632603e-09 1.037024e-09 1.963752e-09 5.103184e-11 -4.130841e-10
-8.369868e-09 1.845048e-09 1.856774e-09 -6.588434e-10 -5.296652e-11 -4.912477e-10
-7.479178e-09 2.786984e-09 1.440801e-09 1.790109e-09 1.685264e-10 -1.861623e-10
-8.260402e-09 2.521809e-09 1.935398e-09 -4.585932e-11 -3.722844e-11 -1.168075e-10
-7.433504e-09 1.466947e-09 1.766355e-09 4.702203e-10 -4.384158e-11 -2.618983e-10
-7.469812e-09 2.583914e-09 1.620462e-09 9.900385e-10 3.159690e-10 1.754370e-10
-8.394001e-09 2.293745e-10 2.074120e-09 -1.488749e-09 -2.440235e-10 -3.993038e-10
-8.442636e-09 2.053415e-09 2.016562e-09 -1.023989e-09 3.035193e-10 1.343745e-10
-8.111093e-09 6.833343e-10 2.188128e-09 -3.604034e-10 2.727196e-11 -4.765783e-10
-7.508353e-09 2.043632e-09 1.834271e-09 6.238709e-10 2.328333e-10 1.652812e-10
-1.103170e-08 1.444023e-08 -1.535898e-08 -1.994158e-09 -1.655330e-09 1.220580e-09
-1.062903e-08 1.474372e-08 -1.099926e-08 -2.373428e-09 -3.518755e-09 3.885550e-09
-1.068173e-08 1.368303e-08 -1.626409e-08 -1.439988e-09 -6.081691e-09 5.447668e-09
-1.045720e-08 1.099383e-08 -7.375336e-09 -5.191238e-09 -3.035462e-09 3.109901e-09
-1.062954e-08 1.474388e-08 -1.251912e-08 -2.373341e-09 -2.741375e-09 2.849754e-09
-4.471704e-08 2.218865e-08 1.421383e-07 -4.194702e-08 -5.311695e-08 4.179830e-08
-7.364415e-08 2.213929e-08 1.535015e-07 -4.816575e-08 -4.116388e-08 2.631806e-09
-1.157032e-07 -7.095344e-08 3.510964e-07 9.202331e-09 5.478040e-08 9.413546e-08
-1.025715e-07 -6.371634e-08 3.474239e-07 -9.891812e-09 -5.750265e-09 1.308434e-08
-9.304085e-08 1.262189e-08 2.087859e-07 -2.855888e-08 -8.831167e-08 3.712706e-08
-1.001051e-07 -1.342488e-08 2.496063e-07 -1.492040e-08 -4.719525e-08 -3.427835e-10
3.246439e-09 -1.955122e-08 -6.433245e-10 -1.545413e-08 1.721035e-09 -2.771341e-10
1.020763e-09 -1.775342e-08 -2.597195e-09 -1.637036e-08 2.701540e-09 1.811780e-09
5.611507e-09 -1.885488e-08 -6.635504e-09 -1.928222e-08 4.473523e-09 1.832020e-09
7.877677e-09 -2.674862e-08 -3.624189e-09 -1.677867e-08 2.294568e-09 -7.619110e-10
4.114232e-09 -2.268782e-08 -4.114549e-09 -1.792610e-08 5.574591e-09 2.690386e-09
-8.564198e-09 4.706568e-09 1.959588e-10 -4.787797e-09 -5.605485e-10 -6.014711e-10
-7.514656e-09 5.209701e-09 -4.273026e-10 -6.299769e-09 6.189716e-12 -3.692919e-11
-4.540524e-09 4.038226e-09 -1.084306e-10 -5.616287e-09 -1.286900e-10 4.971983e-10
-4.546964e-09 4.130456e-09 1.965503e-10 -5.269428e-09 -3.341765e-10 1.720170e-10
-7.191481e-09 4.567493e-09 5.427445e-10 -3.806222e-09 -1.806519e-10 -9.379445e-12
-7.178779e-09 4.545646e-09 3.427214e-10 -4.923970e-09 -3.699099e-10 -6.182426e-10
1.403988e-08 -3.947672e-08 -1.807792e-09 1.216786e-08 -1.132613e-09 3.847023e-10
1.406146e-08 -3.951223e-08 1.710013e-09 1.100412e-08 7.205086e-10 -7.274975e-10
1.527109e-08 -4.188633e-08 1.261821e-09 9.223395e-09 1.090409e-09 -2.353200e-10
1.478883e-08 -4.335365e-08 2.519725e-09 6.846954e-09 3.794834e-09 -3.597555e-10
1.662749e-08 -4.403098e-08 2.524064e-09 1.844947e-09 3.499487e-09 3.416307e-11
1.719259e-08 -4.489269e-08 -3.046045e-09 4.888615e-09 3.621827e-10 6.254071e-10
-9.882134e-09 4.799575e-08 -5.916305e-08 -9.342512e-09 -7.876674e-09 -7.291221e-09
-1.689759e-08 6.187218e-08 -3.402800e-08 1.624069e-08 -1.331338e-08 -1.706330e-08
-1.163951e-08 7.168934e-08 -4.783890e-08 8.956979e-09 -9.842993e-09 -1.815652e-08
-5.130760e-09 7.430313e-08 -6.362519e-08 2.061908e-09 -4.992324e-09 -5.081717e-09
-8.413927e-09 3.775689e-08 2.905714e-09 2.847206e-08 -1.716023e-09 -3.246497e-09
-1.204149e-08 4.712261e-08 -1.495173e-08 2.266640e-08 -2.644852e-09 -1.749132e-09
1.096727e-08 -2.285519e-08 5.163058e-08 -6.356042e-09 3.288224e-09 -7.404995e-09
2.271964e-08 -1.120670e-08 4.272996e-08 -2.255612e-08 1.053757e-08 -1.626392e-08
1.148974e-08 -5.639690e-09 -8.862013e-10 4.050166e-09 9.816759e-11 4.466987e-10
1.135275e-08 -5.197023e-09 -1.043600e-09 4.058005e-09 2.391476e-10 2.826401e-10
1.407789e-08 -6.203630e-09 -7.461161e-10 4.330173e-09 -9.753250e-11 -6.287148e-10
8.617111e-09 -3.788074e-09 -7.513252e-10 5.602078e-09 4.974043e-11 -6.757754e-10
9.430150e-09 -4.610601e-09 -1.061995e-09 3.639520e-09 1.784395e-11 4.488310e-10
1.168384e-08 -6.205039e-09 -7.581811e-10 4.056479e-09 2.165598e-10 2.731208e-10
-1.410881e-08 1.243942e-08 -6.181577e-10 -2.506017e-09 -1.252554e-10 8.608264e-11
-1.272772e-08 5.496307e-09 -2.977538e-09 -1.094414e-08 8.816493e-12 -6.809198e-10
-1.487383e-08 1.144330e-08 -1.791057e-09 -3.915685e-09 1.163434e-09 1.130088e-09
-1.398758e-08 3.003301e-09 -5.347609e-09 -1.347002e-08 2.567643e-09 1.334557e-09
-1.255646e-08 4.931765e-09 -3.109294e-09 -1.138422e-08 2.864481e-09 2.175277e-09
1.567675e-08 1.166050e-09 2.136767e-09 -2.311788e-08 3.915231e-10 8.439090e-10
9.587664e-09 1.640890e-09 2.130691e-08 -3.236920e-08 1.228293e-08 -2.568049e-09
1.321195e-08 -5.654644e-09 3.242559e-08 -2.567711e-08 7.870975e-09 -1.448453e-09
1.167509e-08 -4.661765e-09 2.490243e-08 -2.687771e-08 4.702266e-09 -4.370934e-09
9.476994e-09 4.472452e-09 1.808080e-08 -2.761096e-08 -1.780936e-09 -2.786934e-09
-8.001281e-09 7.282205e-09 1.021860e-09 5.176153e-09 -4.304556e-10 -7.104913e-10
-6.517089e-09 4.309446e-09 9.264038e-10 3.897976e-09 6.271431e-10 -2.278990e-10
-8.149668e-09 5.285424e-09 1.247112e-09 3.020342e-09 -2.503596e-10 -5.037153e-10
-5.643207e-09 4.695200e-09 8.593117e-10 5.994066e-09 2.354942e-10 7.949374e-11
-6.268777e-09 4.259519e-09 1.075914e-09 3.796401e-09 -2.105733e-10 -3.023250e-10
-3.713281e-09 3.444473e-08 -2.941229e-08 -1.907665e-08 -1.389871e-09 5.379448e-10
-4.132039e-09 2.549282e-08 -1.853729e-08 -2.733472e-08 -2.640208e-09 9.644552e-09
-1.577225e-09 1.953851e-08 3.535035e-09 -3.147267e-08 3.060391e-09 3.978467e-09
-4.360012e-09 3.191714e-08 -1.789271e-08 -2.157306e-08 -6.781583e-09 9.235829e-09
-8.782770e-09 3.901040e-08 -3.265084e-08 -1.670336e-08 -7.726400e-09 1.933838e-08
-3.290221e-09 1.199104e-07 -1.013882e-07 9.245226e-09 -3.533835e-09 -7.537805e-09
-4.184260e-10 1.469540e-07 -1.384851e-07 -1.333663e-08 1.564040e-08 2.071649e-08
-4.061666e-09 1.185870e-07 -1.660858e-07 -6.475432e-10 3.031282e-08 -1.876200e-08
-1.174909e-08 1.192674e-07 -1.674934e-07 1.666680e-08 2.903120e-08 -9.984576e-09
5.791865e-09 1.154937e-07 -1.447561e-07 2.557758e-09 3.976406e-08 -3.104441e-08
-1.064202e-08 2.243362e-08 -1.686466e-08 -7.858569e-09 -4.735671e-09 6.402057e-09
-8.281566e-09 1.719090e-08 -1.259911e-08 -1.173934e-08 -1.942270e-09 3.141120e-09
-9.539270e-09 1.594542e-08 -1.019213e-08 -1.029634e-08 -3.029667e-09 3.864207e-09
-4.252283e-09 2.176079e-08 -9.881769e-09 -2.094775e-08 2.445177e-10 3.048600e-09
-6.479662e-09 2.007923e-08 -1.184668e-08 -1.900329e-08 -1.620220e-09 5.251508e-09
-6.919311e-08 5.238090e-08 1.246065e-07 1.030992e-08 -5.146885e-08 -2.114163e-09
-6.184846e-08 4.980323e-08 9.538861e-08 -2.989585e-08 -2.282955e-08 1.038324e-08
-7.364648e-08 2.215030e-08 1.471147e-07 -4.817753e-08 -5.224069e-08 2.737654e-08
-1.108545e-07 -3.358365e-09 2.867363e-07 1.053757e-08 -7.760201e-09 1.301172e-08
-9.910259e-08 -1.365944e-08 2.728388e-07 -3.688421e-08 -6.138327e-08 2.885670e-08
-1.217454e-07 -3.566146e-08 3.055015e-07 -4.010850e-08 -6.991984e-08 3.016154e-08
-3.605624e-08 -3.259942e-08 1.794324e-07 -5.025669e-08 -3.281012e-08 6.102549e-08
-8.542349e-09 3.681642e-09 -5.191158e-09 -1.560489e-08 2.663986e-09 8.595155e-10
-8.529522e-09 -6.524965e-09 -5.136237e-09 -1.732382e-08 2.296393e-09 6.540615e-10
-1.145901e-08 7.332482e-09 -1.210055e-09 -8.985191e-09 5.540606e-10 5.157312e-10
-7.165214e-09 -1.493979e-09 -5.347882e-10 -1.255462e-08 1.948104e-09 1.588591e-10
-8.023156e-09 -3.766300e-09 -2.486711e-09 -1.477747e-08 -5.370209e-10 -1.267987e-09
-6.015128e-09 -4.579107e-09 1.888089e-09 -9.461922e-09 1.283581e-09 -1.722683e-10
-1.021938e-08 2.564776e-10 -2.336358e-10 -9.487580e-09 2.064452e-09 1.291252e-09
-1.894767e-09 5.396780e-08 -5.995205e-08 -1.583402e-08 -1.372304e-08 2.151660e-08
5.592380e-09 5.847912e-08 -7.430759e-08 -1.907122e-08 -1.258525e-08 1.248750e-08
1.663412e-09 4.392930e-08 -5.383685e-08 -1.556623e-08 -7.273516e-09 4.824173e-09
-4.636825e-09 3.073480e-08 -3.982998e-08 -6.279594e-09 -1.581302e-08 1.434217e-08
8.657119e-09 5.720427e-08 -7.744096e-08 -1.409462e-08 -3.920231e-09 2.174299e-09
7.543711e-09 3.593564e-08 -6.728457e-08 -1.729751e-09 -2.497953e-08 1.704943e-08
1.664938e-08 1.039614e-07 -1.394264e-07 7.773782e-09 2.392854e-08 -9.510548e-09
3.639731e-08 2.754111e-08 -1.166951e-07 1.379985e-08 2.236011e-08 3.957188e-09
3.272725e-08 2.755280e-08 -9.840053e-08 1.865260e-08 1.818583e-08 -5.141661e-09
4.172447e-08 2.782117e-08 -1.404983e-07 1.104139e-08 6.199229e-08 -5.201109e-09
3.302522e-08 7.524606e-08 -1.739322e-07 8.265326e-09 7.172281e-08 -1.410736e-08
2.364650e-08 2.500149e-08 -9.047799e-08 3.484598e-08 4.569363e-08 -2.106707e-08
-5.279459e-09 2.605691e-08 -1.016867e-08 -2.718036e-08 8.160163e-10 1.449379e-08
-7.730349e-09 2.809051e-08 -1.873412e-08 -1.720145e-08 -3.540518e-09 7.291405e-09
-5.634438e-09 1.854027e-08 -1.022533e-08 -1.860419e-08 -1.005205e-09 2.884952e-09
6.875832e-09 8.077854e-09 6.485880e-09 -2.788737e-08 3.529651e-09 -3.950407e-10
-6.897903e-09 2.992532e-08 -2.348676e-08 -1.907322e-08 -2.233695e-09 8.294247e-09
-4.744501e-09 1.692408e-08 -8.741255e-09 -2.274472e-08 -2.352873e-09 5.189482e-09
-3.913119e-08 4.145578e-08 1.446307e-07 4.734862e-08 -8.104654e-08 -4.042633e-08
-7.871790e-08 -1.660546e-08 1.712571e-07 3.841147e-09 -4.624261e-08 -1.798048e-08
-8.001786e-08 -4.140779e-08 2.542633e-07 1.267263e-08 -4.252537e-09 -4.979212e-08
-8.017064e-09 -1.530009e-08 5.957305e-09 8.494455e-09 1.271463e-09 -1.597473e-10
-1.686393e-08 9.740544e-08 -4.007530e-08 1.474575e-08 -1.001449e-08 1.741829e-08
-6.920694e-08 5.238604e-08 6.257637e-08 1.031130e-08 -4.865204e-08 3.420570e-09
-1.005493e-08 9.725505e-08 -7.793033e-08 3.177486e-09 4.445956e-09 2.656194e-08
-5.337296e-08 8.337253e-08 4.884111e-08 6.335122e-09 -4.592866e-08 -2.331155e-08
-6.040041e-08 7.738940e-08 7.278869e-08 -4.526582e-09 -3.120667e-08 -1.334370e-08
-4.441651e-08 4.642252e-08 8.016308e-08 2.193687e-08 -2.746366e-09 -3.954455e-08
-2.537790e-08 1.408471e-07 -7.455701e-08 1.045557e-08 -3.400883e-08 -2.934067e-08
-8.813919e-08 5.615628e-08 1.902445e-07 2.304795e-09 -9.328647e-08 -2.179606e-08
-1.008654e-07 6.534694e-08 6.987977e-08 -2.294302e-08 -3.724075e-08 -7.942993e-09
-2.981799e-08 1.049928e-07 -3.728593e-08 -3.542933e-09 8.617756e-10 -3.164869e-09
-2.026124e-09 -8.752088e-09 -3.294431e-09 -1.716685e-08 2.356249e-09 2.034396e-10
-5.948702e-09 -7.147789e-09 -3.312798e-09 -1.749280e-08 1.379804e-09 -4.952950e-10
-1.163018e-09 -1.403437e-08 -1.071959e-08 -2.151301e-08 2.867500e-09 8.133748e-10
-1.160071e-09 -6.362827e-09 -9.563424e-09 -2.183617e-08 4.576428e-09 2.472915e-09
1.900601e-09 -1.601431e-08 -7.444381e-09 -2.067762e-08 2.975293e-09 -8.345627e-11
-2.625702e-08 7.550314e-08 2.220765e-08 -3.451995e-08 9.922894e-09 -1.022627e-08
1.949280e-08 7.218455e-08 -1.123496e-07 -1.189204e-08 -4.484155e-08 4.557605e-09
3.576248e-09 7.229224e-08 -1.128036e-07 -1.841721e-08 -4.451511e-08 9.143646e-09
3.214685e-09 8.074993e-08 -8.379211e-08 -2.180023e-08 -1.996145e-08 7.836072e-09
3.025545e-08 -1.322183e-08 -6.559313e-08 2.000679e-08 1.146735e-08 -2.800132e-09
4.291360e-08 -2.667040e-08 -7.306419e-08 -3.234864e-10 4.138559e-08 8.641323e-09
3.320821e-08 -1.098658e-08 -6.538777e-08 1.726658e-08 1.261131e-08 -3.809455e-09
3.731298e-08 -2.157074e-08 -5.901457e-08 -3.836721e-11 3.027176e-08 4.617787e-10
3.726959e-08 -2.140016e-08 -5.297209e-08 -4.715687e-10 1.268534e-08 -3.344568e-10
1.842797e-08 -9.156705e-09 4.093952e-10 -1.124696e-09 3.144894e-10 -2.355134e-10
1.748536e-08 -6.796603e-09 2.645097e-10 -8.283436e-09 -3.742908e-10 -8.052159e-10
1.976819e-08 -8.497809e-09 -3.820895e-10 -2.483040e-09 -1.004407e-11 -7.450343e-10
1.567689e-08 -7.227423e-09 -5.965264e-10 -6.426632e-09 1.492679e-10 -1.275558e-09
1.556084e-08 -6.797737e-09 -3.511200e-10 -8.137004e-09 -8.243011e-11 1.266491e-09
1.542203e-08 -7.065196e-09 -1.126124e-09 -4.851031e-09 3.545542e-11 -8.728125e-10
7.096671e-09 -2.303154e-09 -1.036616e-09 -9.564689e-09 -3.486864e-10 6.587575e-10
9.841908e-09 -2.620459e-09 -1.295850e-09 -1.241218e-08 -3.864975e-10 1.265669e-09
9.704870e-09 -3.261476e-09 -1.048955e-09 -1.073001e-08 -2.326927e-10 7.170417e-10
6.110441e-09 -1.544716e-09 -1.342040e-09 -1.338144e-08 -9.238884e-12 1.915885e-11
6.108815e-09 -1.545546e-09 -1.291889e-09 -1.338299e-08 2.046244e-10 1.533765e-10
4.842059e-09 3.574111e-08 8.415649e-09 -3.841216e-08 -8.268284e-09 2.751940e-09
-1.603041e-08 7.483988e-08 -3.062708e-08 -2.079220e-08 -6.070833e-09 -3.311892e-09
-2.748330e-08 7.810784e-08 -2.302930e-08 -2.976765e-08 -4.632902e-09 -2.023872e-08
-3.349827e-09 4.700245e-08 -1.836346e-08 -2.519843e-08 3.399746e-09 -6.475099e-09
-2.881920e-08 5.567361e-08 -3.513211e-08 -5.226165e-10 1.207747e-08 -1.917982e-08
-1.922776e-08 5.739041e-08 -4.660696e-08 8.941204e-10 9.009327e-09 -7.539326e-09
-1.467288e-08 7.115152e-08 -5.738918e-08 -7.023021e-09 1.089496e-08 -8.597695e-09
-1.406401e-09 5.016938e-09 -1.988054e-08 8.958319e-09 -8.090943e-09 5.638493e-09
-2.047722e-09 -2.599609e-08 8.984451e-09 1.311653e-10 2.511269e-11 -2.227374e-11
2.591635e-10 3.205456e-09 -3.532238e-08 1.004712e-08 -6.411991e-09 4.524065e-09
-2.377739e-09 1.309649e-09 -2.697284e-08 1.244987e-08 -1.323211e-08 1.077464e-08
9.546063e-09 -1.785973e-08 -2.946971e-08 1.391950e-08 -1.483121e-08 6.492604e-09
9.443453e-09 -1.247084e-09 -4.072782e-08 1.076862e-08 -4.031521e-09 -4.020934e-10
7.001238e-09 -4.648397e-10 -4.371780e-08 1.074075e-08 -3.895041e-09 2.306589e-09
-2.519969e-09 -1.514988e-08 3.096355e-09 -9.905942e-09 5.080375e-10 -4.288326e-10
-6.014955e-09 -1.006100e-08 1.892199e-09 -1.032849e-08 8.051385e-10 -3.272171e-10
-4.322225e-09 -1.070121e-08 2.466449e-09 -1.026213e-08 -3.111491e-10 -1.027214e-09
-4.139436e-09 -1.263811e-08 3.124668e-09 -8.379512e-09 -7.078684e-10 1.529887e-10
-4.775011e-09 -9.562502e-09 3.423927e-09 -7.136239e-09 6.750257e-10 4.413055e-11
-6.744761e-09 -5.725733e-09 2.444752e-09 -6.843049e-09 9.431986e-10 3.811159e-10
-7.111863e-09 -7.433273e-09 2.012711e-09 -8.427496e-09 -7.045735e-10 -1.761623e-11
2.050770e-08 -1.008065e-08 2.468821e-09 2.827245e-09 -5.497633e-10 -2.263758e-09
2.099714e-08 -9.137031e-09 1.354737e-09 3.547963e-09 2.003971e-10 -2.403088e-10
1.811095e-08 -8.946227e-09 6.954868e-10 1.509399e-09 -2.615324e-10 -5.846330e-10
1.969303e-08 -1.061108e-08 3.018187e-09 1.955210e-09 6.091908e-10 -6.592718e-10
6.910791e-08 -2.633758e-08 7.831717e-10 5.676263e-09 3.303627e-09 1.218999e-08
6.701687e-08 -1.541425e-08 -5.613474e-10 8.718574e-09 8.666540e-10 1.485665e-08
7.250009e-08 -1.641878e-08 -1.126821e-08 9.785758e-10 7.862038e-12 1.304394e-08
6.501146e-08 -1.467788e-08 -1.005974e-08 7.642950e-09 1.467585e-09 6.528850e-09
3.680879e-08 1.630629e-09 -1.007796e-08 1.481412e-08 -2.692098e-10 -5.754410e-10
6.683988e-08 -1.785908e-08 -6.770825e-09 2.081190e-09 1.651184e-09 5.469611e-09
5.447538e-08 -1.383673e-08 -8.855573e-09 4.099947e-09 6.617867e-11 2.743403e-10
-1.274991e-09 2.207211e-09 -2.610969e-10 -8.292820e-10 6.644729e-11 6.487477e-12
-2.734790e-10 1.341873e-09 -4.486940e-10 -2.774179e-09 -1.093348e-10 -3.615304e-10
-9.119301e-10 2.059473e-09 -2.449951e-10 -1.724558e-09 -9.392309e-11 -2.966443e-10
-8.218719e-09 1.151537e-09 2.163258e-09 6.930797e-10 -1.179394e-10 6.807641e-11
-3.253414e-09 3.110444e-09 7.375878e-12 -1.752660e-09 -1.081220e-10 5.624012e-11
-2.408504e-09 2.509188e-09 -3.206924e-10 -1.720088e-09 -1.620233e-10 -1.691274e-10
-1.180173e-09 2.267461e-09 -2.637686e-10 -2.421281e-09 -3.224805e-10 -1.610489e-10
-2.136237e-09 2.614178e-09 -1.272671e-10 -1.565854e-09 -1.447864e-10 2.593481e-10
-2.477826e-09 3.539933e-09 -9.035395e-11 -1.726431e-09 -1.025096e-10 1.762546e-11
1.823713e-08 -4.613996e-09 6.487977e-08 -4.440686e-08 -1.891649e-08 1.957694e-08
-1.751974e-09 -1.450750e-08 5.408107e-09 -1.950047e-09 -6.269873e-10 -5.619062e-10
-1.309185e-09 -4.623503e-09 6.451606e-08 -5.354469e-08 -1.061031e-08 1.508461e-08
-7.368359e-09 -6.167510e-08 2.128261e-07 -1.769627e-08 -3.671065e-09 1.951004e-08
6.326164e-09 -6.167417e-08 1.673937e-07 -5.756675e-09 1.851212e-08 2.000651e-08
-6.786281e-09 -3.257893e-08 1.565329e-07 -4.073665e-08 -2.248699e-08 2.073726e-08
8.720276e-09 -1.257501e-08 1.253861e-07 -5.994806e-08 -5.553814e-08 5.443305e-08
-1.035086e-08 2.972383e-09 -5.689012e-09 2.884148e-09 -3.167463e-09 1.459470e-09
-6.946427e-09 7.377912e-09 -1.237840e-08 4.256783e-09 -3.691826e-09 2.344319e-09
-1.076884e-08 6.161925e-09 -8.941092e-09 -2.061296e-10 1.969431e-10 -2.021253e-10
-1.040550e-08 7.050098e-09 -6.496659e-09 -1.084657e-09 -1.280497e-09 1.177465e-09
-6.949067e-09 -2.198146e-09 -1.224531e-08 7.369465e-09 -3.001813e-09 1.690519e-09
-1.064197e-08 6.096593e-09 -1.219389e-08 2.079987e-09 -2.857181e-09 2.046033e-09
-9.794861e-09 7.440197e-09 -1.116037e-08 3.490092e-09 -4.589393e-09 2.947208e-09
5.209443e-09 -2.752694e-09 4.984282e-08 -2.743721e-08 5.500758e-09 -3.322336e-09
1.263933e-09 2.188721e-08 -5.856591e-09 -2.883541e-08 1.831973e-09 -5.074636e-09
5.237849e-09 -2.433537e-09 7.865509e-08 -2.821161e-08 8.533362e-09 -1.060186e-08
5.539485e-09 1.247818e-08 2.307330e-08 -3.020362e-08 -3.823508e-09 -3.995190e-09
7.210810e-09 9.734739e-09 4.146002e-08 -4.013462e-08 2.502543e-08 -2.715968e-09
9.434425e-09 -4.262922e-09 3.720778e-08 -2.548408e-08 4.433871e-09 -7.816821e-09
6.614788e-08 -2.243883e-08 2.577976e-09 -3.950235e-09 -4.930179e-10 2.578600e-09
7.029641e-08 -1.206057e-08 -9.230236e-09 -9.341262e-09 -1.300936e-09 1.128630e-08
4.485534e-08 -9.912049e-09 -1.175806e-10 -1.056336e-08 -3.026393e-09 3.581336e-09
-1.253085e-08 2.833164e-08 -1.271494e-08 -3.775546e-09 7.242694e-09 -1.168640e-08
5.457145e-08 -2.451192e-08 8.655479e-09 -1.712006e-08 -5.503517e-09 6.186666e-09
-5.289880e-08 9.318617e-08 4.162627e-08 -9.742962e-09 -4.098683e-08 -3.079865e-09
-3.872075e-08 9.601836e-08 -5.969220e-09 -2.292164e-08 -2.282339e-08 -1.537036e-08
-4.476889e-08 9.937941e-08 1.733084e-09 -1.862323e-08 -1.720429e-08 -1.260378e-08
-4.374356e-08 8.899275e-08 -1.062356e-08 1.323184e-08 8.481964e-09 -6.225639e-10
2.024956e-08 1.065007e-07 -1.487298e-07 -2.004243e-09 2.133023e-08 2.740146e-09
-2.596491e-08 9.600569e-08 -6.820687e-08 -2.573436e-08 5.508763e-09 -1.913965e-08
-3.842222e-09 7.470143e-08 -1.132420e-07 1.615686e-08 4.784396e-08 -4.018163e-08
6.328103e-09 1.107254e-07 -1.427948e-07 1.491557e-08 2.537025e-08 1.144762e-10
7.872584e-09 -4.274269e-09 -1.062459e-09 3.374142e-09 -5.782819e-11 -2.543077e-10
1.163222e-08 -5.663318e-09 -1.354215e-09 2.369876e-09 5.591177e-12 -1.815244e-10
8.448999e-09 -4.298803e-09 -9.261454e-10 4.395585e-09 -1.986242e-10 -2.776499e-10
8.127148e-09 -3.961352e-09 -9.106738e-10 4.212186e-09 -1.740686e-11 -5.618785e-10
9.935725e-09 -5.663420e-09 -1.289316e-09 2.235912e-09 1.456693e-10 2.517472e-10
1.076199e-08 -5.512793e-09 -1.234222e-09 3.079831e-09 1.423542e-10 3.293339e-10
9.817199e-09 -5.197811e-09 -1.022133e-09 3.806890e-09 1.930394e-10 1.987605e-10
-1.960720e-09 2.948132e-09 -1.630251e-11 -3.476420e-09 -1.404827e-10 4.344938e-10
-3.442460e-09 2.850019e-09 -2.459304e-10 -5.129175e-09 -4.557878e-11 -8.065134e-10
-1.124481e-09 2.678742e-09 -2.718412e-10 -6.130281e-09 3.782787e-11 2.758856e-11
-4.801413e-10 1.928934e-09 -3.015712e-10 -5.930357e-09 -3.668319e-10 4.982729e-10
-1.869742e-09 2.554310e-09 -5.537979e-10 -6.586947e-09 -1.846443e-10 4.486906e-10
7.793819e-10 1.508328e-09 -7.831047e-10 -7.624302e-09 -4.050695e-10 6.378771e-10
9.788497e-10 1.112786e-09 -4.075869e-10 -5.679344e-09 -3.761286e-11 -3.722348e-11
-1.219851e-10 1.129138e-09 -7.054819e-10 -5.935428e-09 -2.831674e-10 2.488593e-10
1.788054e-09 2.233793e-08 -5.789725e-08 -1.909419e-08 -2.680147e-08 -1.385514e-08
1.199754e-08 -1.806503e-08 -3.516355e-08 -1.954017e-08 -2.273086e-08 -4.273321e-09
-7.631981e-10 3.209438e-09 -2.702757e-08 -1.782406e-08 -2.128060e-09 -2.522441e-09
-4.706944e-10 4.178786e-08 -7.963739e-08 -1.611864e-08 -3.558745e-08 -1.330752e-08
1.434162e-08 1.681156e-08 -5.102553e-08 -1.956336e-08 -2.035864e-08 -7.392870e-09
1.717660e-08 3.977526e-08 -7.288039e-08 -2.114118e-08 -3.118086e-08 -7.532673e-09
1.432978e-08 1.665492e-08 -6.752010e-08 -1.962654e-08 -1.422384e-08 -3.170821e-09
1.436186e-08 -2.656973e-09 -4.911424e-08 -1.948775e-08 -2.376443e-08 -7.152732e-09
1.832235e-09 -3.025425e-08 7.227339e-10 1.712354e-08 2.527948e-09 -1.035569e-09
4.939298e-09 -3.031347e-08 -6.857790e-10 1.680911e-08 1.201696e-09 2.362395e-10
7.878427e-09 -2.355101e-08 -1.255971e-08 2.290948e-08 2.683948e-09 -1.100964e-09
2.807501e-10 -2.349641e-08 -5.754776e-09 2.217592e-08 5.340853e-09 -2.041935e-09
-2.151619e-09 -1.965177e-08 -1.979406e-09 2.068945e-08 4.049764e-09 -2.270025e-09
2.324777e-09 -2.669992e-08 -2.014073e-09 1.850904e-08 3.748742e-09 -1.723630e-10
8.333911e-09 -3.051688e-08 -4.542293e-09 1.624208e-08 5.277601e-09 -9.707428e-10
7.418223e-09 -3.450717e-08 -3.037722e-09 1.879101e-08 4.685940e-09 -1.657953e-09
-6.095360e-09 2.623514e-09 1.004157e-09 2.065872e-09 2.853464e-10 -3.281630e-11
-4.928635e-09 2.493046e-09 9.879413e-10 2.560515e-09 -4.228634e-11 -2.508299e-11
-4.531703e-09 2.092332e-09 6.517928e-10 3.243568e-09 3.006087e-10 9.015322e-11
-4.734628e-09 2.403834e-09 8.136505e-10 3.274361e-09 7.596013e-11 6.231793e-11
-4.886137e-09 2.299103e-09 7.555894e-10 2.587114e-09 5.036860e-12 -5.081047e-12
-4.041986e-09 2.249275e-09 7.908323e-10 3.069984e-09 1.700386e-10 -3.909082e-10
-4.363940e-09 2.348679e-09 6.926926e-10 2.851398e-09 -1.152269e-10 -8.543677e-11
-1.132896e-08 8.417998e-08 -7.743367e-08 1.799238e-09 1.832978e-08 1.407017e-08
-5.579447e-09 1.199546e-07 -1.024885e-07 -1.046095e-09 6.078822e-09 2.920247e-08
7.077908e-09 -3.621095e-09 -1.187483e-09 -2.691158e-09 -1.370957e-10 -1.148809e-11
5.436589e-09 9.944616e-08 -1.107059e-07 -6.163911e-09 1.625486e-08 9.636533e-09
1.146626e-08 9.578858e-08 -1.315794e-07 -2.747296e-08 3.135486e-08 3.833622e-08
-1.209739e-08 9.728129e-08 -4.986544e-08 8.073582e-09 -1.519043e-08 1.283538e-08
6.006575e-09 2.031223e-09 -1.359455e-09 -1.633586e-08 -5.434324e-10 1.157605e-10
6.080869e-10 4.981009e-09 -1.736932e-09 -1.400441e-08 -3.399000e-10 3.961321e-10
9.177349e-09 -1.455640e-09 -3.971734e-10 -1.394820e-08 2.816508e-10 -1.779377e-09
6.109965e-09 2.121636e-09 -1.170979e-09 -1.413790e-08 -6.742470e-10 1.526930e-10
3.597848e-09 2.278357e-09 -1.382747e-09 -1.321360e-08 2.895220e-11 -1.145982e-09
6.092261e-09 1.791088e-09 -1.225915e-09 -1.319841e-08 -6.317273e-10 -1.602519e-11
-5.731016e-08 4.207709e-08 1.190596e-07 -3.723087e-08 4.453488e-08 -5.455967e-08
-7.940131e-08 3.837750e-08 1.683016e-07 -2.716746e-08 4.150203e-08 -2.977910e-08
-3.630956e-08 3.209378e-08 3.213275e-08 -5.746563e-08 1.432725e-08 -1.253878e-08
-6.669898e-09 3.316416e-09 9.868462e-10 3.602509e-09 1.166896e-10 -1.695791e-10
-2.195726e-08 1.020809e-07 -9.462670e-08 -2.308494e-08 -1.404992e-08 -3.935102e-09
-4.488005e-08 1.191831e-07 2.701640e-08 -4.550555e-08 6.797711e-08 -6.343603e-09
-8.111139e-08 7.294608e-08 4.001088e-08 -3.226459e-09 3.250832e-08 8.747260e-10
-3.327746e-08 1.050364e-07 -3.672357e-08 -3.311745e-08 2.169058e-08 -5.677038e-09
-4.437837e-08 7.949893e-08 1.819422e-08 -1.456796e-08 2.030930e-09 -4.289562e-09
3.787088e-08 -2.037591e-08 -6.721817e-08 -1.562829e-09 3.061768e-08 -3.373476e-09
3.228643e-08 -1.435870e-08 -5.523784e-08 -1.709474e-08 6.682139e-09 1.028734e-09
6.422804e-09 -3.443054e-09 -1.086455e-09 -2.088618e-09 -2.890050e-10 2.153067e-11
2.987996e-08 -3.794885e-08 -2.756993e-08 -8.685986e-09 7.716124e-09 1.459414e-09
3.383137e-08 -3.166821e-08 -4.224105e-08 -2.402106e-09 8.062333e-09 -4.051837e-09
3.153062e-08 -3.773031e-08 -4.055621e-08 -1.000827e-08 2.072052e-08 1.121478e-09
1.569676e-08 -7.056264e-09 3.891443e-10 5.487190e-09 4.678927e-10 -2.218372e-10
1.118504e-08 -4.711214e-09 1.340949e-09 8.604852e-09 -3.268513e-10 -7.005003e-10
1.286451e-08 -5.135128e-09 -1.115810e-10 7.045354e-09 -1.399011e-10 -8.964929e-10
1.392860e-08 -7.456945e-09 -9.084467e-11 3.847750e-09 2.174362e-10 3.119874e-10
1.247067e-08 -6.422005e-09 3.005241e-11 5.306226e-09 -2.396493e-10 -6.860357e-10
1.254553e-08 -5.822772e-09 -3.611929e-10 5.543295e-09 -1.562071e-10 -7.403425e-10
1.008069e-08 -4.121593e-09 -7.390595e-10 6.084837e-09 -5.249402e-11 -3.723924e-10
1.089715e-08 -4.586961e-09 -4.038636e-10 6.667719e-09 -1.122146e-10 -1.025770e-09
-7.856519e-09 1.609004e-09 1.912614e-09 4.809870e-10 -2.006091e-10 -3.802421e-10
-7.816438e-09 2.682693e-09 1.751087e-09 1.022229e-09 1.997156e-10 9.051670e-11
-6.908568e-09 2.833847e-09 1.366793e-09 2.200701e-09 -2.905232e-10 -4.886682e-10
-7.461000e-09 3.184276e-09 1.448288e-09 1.659443e-09 2.673140e-10 -2.392289e-10
-7.675097e-09 1.560331e-09 1.898355e-09 7.459866e-10 1.017231e-11 -3.412613e-10
-7.511251e-09 1.779267e-09 1.800613e-09 9.798132e-10 3.288034e-12 -4.503154e-10
-6.879710e-09 2.742476e-09 1.204449e-09 1.918180e-09 3.996672e-10 1.147409e-10
-1.127897e-08 8.750450e-08 -6.413862e-08 2.053087e-09 7.567408e-09 2.014930e-08
-2.466447e-08 7.279197e-08 -8.159268e-09 2.528887e-08 -1.796483e-08 -1.349773e-08
-3.631751e-09 6.623188e-08 -6.168271e-08 3.387893e-09 8.691905e-09 5.947282e-09
-1.192881e-08 9.732720e-08 -7.198513e-08 8.214252e-09 5.768504e-10 2.337251e-08
-3.518799e-08 6.146120e-08 -2.508935e-08 7.053558e-09 3.073541e-09 3.832371e-08
-9.882513e-09 7.424268e-08 -6.971312e-08 -1.083262e-09 1.911877e-08 2.501039e-08
-3.397016e-11 1.799050e-10 -4.040146e-11 2.679923e-11 -8.629586e-11 -8.881830e-16
2.222002e-08 -1.191550e-08 8.700829e-09 3.722044e-09 -2.040944e-09 -2.497931e-09
2.193400e-08 -9.903849e-09 8.782469e-09 9.712265e-09 5.344361e-11 -2.428926e-09
1.604829e-08 -6.491876e-09 1.305504e-09 7.859253e-09 3.868857e-10 -9.382583e-11
1.866748e-08 -9.176451e-09 3.191257e-09 5.525992e-09 -7.741863e-10 -1.470878e-09
1.889602e-08 -1.170668e-08 8.983882e-09 9.301047e-10 9.456930e-10 -8.962355e-10
1.914920e-08 -8.928934e-09 2.098396e-09 5.045208e-09 6.014472e-10 -1.284475e-09
1.425180e-08 -6.883625e-09 -4.662053e-10 4.296737e-09 -3.266679e-11 -8.496368e-10
1.538862e-08 -8.545115e-09 -3.078098e-10 1.336883e-10 1.125866e-10 4.245773e-10
-7.671687e-09 2.214073e-09 1.906924e-09 1.085662e-09 3.101135e-10 -3.596545e-11
1.600599e-08 -8.084195e-09 -6.252634e-10 8.014787e-10 1.143348e-10 9.371260e-11
1.469316e-08 -8.171727e-09 -8.246115e-11 1.962103e-09 -1.259050e-10 -8.344945e-10
1.517748e-08 -7.018888e-09 -1.448157e-09 -3.402676e-10 4.759764e-11 5.009502e-10
1.658674e-08 -8.273285e-09 -7.727721e-10 -1.001435e-09 1.471798e-10 -2.528115e-10
1.649879e-08 -9.149874e-09 1.445227e-09 2.977360e-09 1.656970e-10 1.781198e-10
1.734446e-08 -8.282878e-09 4.747056e-10 3.962918e-09 -1.893262e-10 -1.377217e-09
1.962358e-08 -8.544989e-09 -3.474128e-10 7.618599e-11 3.236223e-12 -1.167615e-09
-1.026321e-08 1.161617e-08 3.905083e-09 1.506302e-08 -8.800628e-10 -4.518012e-10
-9.671669e-09 1.688666e-08 3.160913e-09 1.648393e-08 -1.443394e-09 -3.485441e-10
-1.157346e-08 1.626251e-08 5.829449e-09 1.538767e-08 -9.080432e-10 8.641177e-10
-1.029335e-08 1.157118e-08 6.351313e-09 1.502498e-08 -2.699538e-09 -1.597905e-09
9.315289e-09 -5.411836e-09 -1.326330e-09 -4.840685e-11 1.004230e-11 6.115941e-11
-1.720885e-08 1.961660e-08 5.777983e-10 7.544870e-09 -1.411616e-09 -1.069234e-09
-8.759097e-09 1.258548e-08 6.515056e-09 1.627485e-08 -1.968805e-09 -6.511668e-10
-1.922065e-08 2.064899e-08 -9.854257e-09 -9.768030e-09 1.830794e-09 2.347910e-09
-5.448846e-09 3.888358e-09 -1.677033e-08 -2.166296e-08 2.222045e-10 4.723567e-10
-1.138092e-08 3.388046e-09 -5.472738e-09 -1.454607e-08 2.341469e-09 2.289546e-09
-8.906542e-09 6.147333e-09 -1.236778e-08 -2.058041e-08 3.406470e-09 1.413502e-09
-9.284349e-09 1.160578e-09 -7.960208e-09 -1.800963e-08 -2.030787e-10 -1.001936e-09
-1.398720e-08 3.005311e-09 -3.909452e-09 -1.346874e-08 1.087495e-09 1.084346e-09
-5.929530e-09 -2.720557e-09 -9.466291e-09 -2.144605e-08 3.140205e-09 8.166054e-10
-2.240460e-08 3.818792e-08 -2.756414e-10 -3.689034e-08 -4.133809e-09 -8.128220e-09
-2.006948e-08 7.796160e-08 -6.408750e-08 -3.824998e-09 1.213665e-08 -9.546165e-09
-1.701480e-08 9.539347e-08 -7.372694e-08 -1.150417e-08 1.600267e-08 -9.393203e-09
-3.889358e-08 4.168458e-08 5.247459e-08 -5.259581e-08 -2.143775e-08 4.397352e-09
-2.597261e-08 9.601781e-08 -1.070798e-08 -2.573266e-08 -2.240184e-08 -4.606510e-10
-4.516492e-08 1.087832e-07 -2.132563e-08 -3.872002e-08 -2.557377e-08 -1.805934e-08
4.793975e-09 1.564735e-09 -3.099870e-08 9.935293e-09 -1.209711e-08 5.682380e-09
1.261884e-09 1.790886e-08 -4.341206e-08 5.419569e-09 -4.809984e-09 1.326313e-09
-1.339271e-09 1.692703e-08 -4.297208e-08 3.818456e-09 -4.089537e-09 2.403503e-09
-6.557489e-09 1.585850e-08 -3.398556e-08 3.082595e-09 -5.867170e-09 5.577921e-09
-8.800899e-09 1.352455e-08 -2.606541e-08 5.755097e-09 -1.138025e-08 1.151171e-08
-7.003903e-09 1.681647e-08 -2.217514e-08 2.379461e-09 -4.534650e-09 4.055496e-09
1.023756e-08 -2.535723e-09 -4.224880e-08 -2.620632e-08 8.174690e-09 4.579561e-09
-2.288548e-08 3.103286e-08 -3.359456e-08 -2.282413e-08 1.515010e-08 1.625744e-08
-3.055998e-09 2.419855e-08 -3.440671e-08 -2.391790e-08 4.425503e-09 1.913929e-09
-3.037119e-09 1.459565e-08 -3.400057e-08 -2.490934e-08 9.814063e-10 1.112257e-09
-5.802908e-09 1.733062e-08 -3.378505e-08 -2.696588e-08 1.223567e-08 9.281494e-09
-5.774115e-09 1.175487e-08 -5.356855e-08 -3.129941e-08 2.290813e-08 1.905586e-08
-1.682166e-08 3.090214e-08 -3.492606e-08 -1.700241e-08 1.688485e-09 1.006421e-09
-7.602108e-09 -4.437455e-09 1.313113e-09 -9.126975e-09 1.209697e-09 8.611417e-10
-8.443516e-09 -6.440562e-09 3.098100e-10 -1.110769e-08 -8.100229e-10 -6.165516e-11
6.257628e-08 -2.369962e-08 3.801885e-09 2.764744e-09 3.422655e-10 2.404373e-09
-2.519982e-09 -1.185270e-08 3.125621e-09 -9.784889e-09 9.236776e-10 -4.034187e-10
-2.621684e-09 -1.376828e-08 2.101264e-09 -1.147323e-08 -1.026758e-09 -9.678916e-10
-2.520002e-09 -1.185261e-08 2.980409e-09 -9.784898e-09 2.297211e-10 -1.200337e-11
-5.717292e-09 -7.970967e-09 2.132614e-09 -8.432764e-09 1.882286e-09 5.183452e-10
2.612752e-09 2.550291e-08 -5.243269e-08 -1.742017e-08 -7.661874e-09 -2.157980e-09
-8.735253e-10 4.119987e-08 -5.786296e-08 -1.197012e-08 -2.243073e-08 -1.046390e-08
-1.332686e-08 3.540020e-08 -3.744979e-08 -1.316407e-08 -1.529923e-08 -1.657003e-08
-9.474018e-09 2.705364e-08 -3.003445e-08 -1.461265e-08 -1.498570e-08 -1.099450e-08
-9.544381e-09 4.894474e-08 -6.327265e-08 -8.767389e-09 -2.299098e-08 -1.807639e-08
-1.183584e-08 4.721185e-08 -5.000592e-08 3.192578e-10 -4.861126e-09 -3.058844e-09
-8.678334e-09 4.725124e-08 -4.199266e-08 2.096615e-09 -6.568877e-09 -8.795027e-09
7.273559e-09 -3.521084e-08 2.489146e-09 1.356913e-08 1.942111e-09 -4.845065e-10
1.390291e-08 -3.707505e-08 -4.251892e-09 1.572787e-08 2.016176e-09 -4.921492e-10
1.086123e-08 -3.980441e-08 3.297434e-09 1.023073e-08 3.342175e-09 -5.440289e-10
1.017803e-08 -3.800843e-08 4.184523e-09 1.175225e-08 1.434195e-09 -6.610805e-10
1.412504e-08 -4.076822e-08 -5.210236e-09 1.327946e-08 4.691251e-09 -6.298060e-11
1.430545e-08 -4.151002e-08 8.002567e-10 9.263582e-09 2.691030e-09 -3.598015e-10
1.986983e-08 -4.323207e-08 -4.920042e-09 8.989217e-09 3.120862e-09 -9.176087e-10
-3.198518e-09 3.845509e-09 1.502105e-10 -4.435258e-09 -2.178917e-10 8.951237e-11
-2.851300e-09 3.350317e-09 -3.296794e-10 -6.200267e-09 -3.219927e-10 5.110181e-10
-5.920785e-09 4.251307e-09 3.218021e-10 -4.575946e-09 -2.441087e-10 -5.543497e-10
-4.581172e-09 4.128846e-09 2.782321e-10 -4.338541e-09 -3.696563e-10 8.050249e-11
-4.631849e-09 3.706531e-09 -3.655494e-10 -6.597245e-09 -1.117068e-10 -3.197346e-10
-6.048030e-09 4.393829e-09 1.378559e-10 -5.445762e-09 -1.267644e-10 -5.664393e-10
-4.380539e-09 4.217830e-09 -4.599592e-10 -7.380068e-09 -4.230723e-10 7.993834e-10
-6.634709e-08 -3.220373e-08 2.160749e-07 -2.799431e-08 4.461264e-08 -9.006405e-08
-7.603403e-08 -4.049658e-08 2.372630e-07 -1.869332e-08 4.190420e-09 -1.686666e-08
-5.294582e-08 5.104908e-08 1.492303e-07 -2.893343e-08 7.589305e-08 -9.346327e-09
-1.098380e-07 -7.022661e-08 3.220317e-07 -5.403147e-09 -1.293628e-09 -5.737456e-09
-1.055379e-07 2.164218e-08 2.124639e-07 1.313054e-08 -7.217500e-08 -1.836074e-08
-1.158103e-07 -3.436253e-09 2.260516e-07 -1.857801e-08 9.574502e-09 1.772101e-08
5.204903e-09 -1.981688e-09 -8.957644e-10 -4.412411e-09 -2.985465e-11 -1.449116e-10
-1.385260e-07 -3.718152e-08 3.523724e-07 -1.180280e-09 7.357907e-08 4.742224e-08
3.317594e-08 -2.962616e-08 -5.514837e-08 -1.859241e-08 3.460833e-08 8.896748e-09
1.247464e-08 7.852213e-09 -5.535778e-08 -2.498394e-08 4.914562e-09 7.391360e-10
4.091232e-08 -5.275201e-08 7.427097e-08 4.728751e-09 -1.510891e-09 7.483807e-09
7.668448e-09 -1.092419e-10 -3.363523e-08 -2.436786e-08 3.597133e-09 8.161385e-10
-7.783119e-09 8.736555e-09 -3.361775e-08 -3.102573e-08 1.949430e-08 1.327785e-08
2.361725e-08 -1.926755e-08 -4.381406e-08 -1.993246e-08 9.226377e-09 1.517323e-09
1.931028e-08 -2.056050e-08 -3.792855e-08 -2.251872e-08 8.582101e-09 2.547302e-09
-1.030691e-08 3.365990e-09 1.056735e-09 -1.406570e-09 -3.981897e-10 -5.049010e-10
-9.909790e-09 3.886024e-09 1.348431e-09 -2.170477e-10 -1.840170e-10 -5.575225e-11
-1.059102e-08 2.903331e-09 1.639696e-09 -3.800131e-10 3.621725e-10 -2.675333e-10
-7.783489e-09 4.899405e-09 6.668994e-10 -2.835350e-09 -1.723817e-10 3.507579e-10
-1.030958e-08 1.853749e-09 1.491573e-09 -1.091716e-09 5.193179e-11 3.898121e-10
-1.031469e-08 2.149889e-09 1.570249e-09 2.651442e-10 -1.536916e-10 -1.743418e-10
-9.961935e-09 3.544721e-09 1.543150e-09 -6.081442e-10 -2.628688e-10 -1.715004e-10
1.008078e-08 -2.228460e-08 -1.746082e-08 -2.099114e-08 2.842345e-09 4.568086e-10
7.657624e-09 -1.451708e-08 -2.696637e-08 -2.506410e-08 3.112327e-09 6.689048e-10
6.101365e-09 -1.066143e-08 -2.906911e-08 -2.870917e-08 1.660801e-08 8.056305e-09
-3.023005e-10 -1.015374e-08 -1.666482e-08 -2.505221e-08 9.783844e-09 6.459623e-09
-2.026017e-09 -1.564508e-08 -3.027861e-09 -1.731712e-08 1.622185e-09 1.175937e-09
-9.584041e-09 1.368021e-10 -8.273870e-09 -1.898286e-08 5.770349e-09 4.339969e-09
-5.417243e-09 -5.672057e-09 -1.655073e-08 -2.336630e-08 1.176815e-09 9.672802e-10
4.294958e-09 -1.006811e-08 -2.169625e-08 -2.370239e-08 8.186624e-09 5.383358e-09
-4.902538e-09 1.179143e-08 6.891429e-08 -5.214430e-08 -2.082898e-08 1.691260e-08
-1.305053e-09 -4.621750e-09 6.385702e-08 -5.354739e-08 -1.699713e-08 2.406406e-08
-4.134707e-08 3.562162e-08 8.611843e-08 -4.871039e-08 -6.354243e-09 -3.657861e-09
2.998873e-08 -4.785014e-08 1.458002e-07 -1.673723e-08 -1.076810e-08 5.462826e-08
1.631469e-09 -4.490418e-08 1.426408e-07 -3.703288e-08 -8.116414e-09 5.415457e-08
-1.364949e-08 3.382396e-08 3.361807e-08 -5.374934e-08 -2.463549e-08 4.303924e-09
-1.051010e-08 1.233880e-08 -1.377163e-08 -3.656692e-09 -5.001712e-10 1.140212e-10
-7.383990e-09 6.084546e-09 -1.671244e-08 5.532433e-09 -1.320170e-09 -1.053906e-10
-6.946061e-09 7.377396e-09 -1.164040e-08 4.256935e-09 -4.816412e-09 3.679711e-09
-7.013121e-09 4.470425e-09 -2.184670e-08 6.865845e-09 -4.337558e-09 3.250709e-09
-1.054445e-08 6.582778e-09 -8.907359e-09 1.630685e-09 -4.574744e-09 4.037020e-09
-8.135141e-09 -2.668931e-10 -4.935783e-09 3.294058e-09 -1.886274e-09 2.389859e-09
-2.733669e-11 -1.776056e-08 1.443047e-09 -1.251622e-08 1.801344e-09 1.001379e-09
-1.898680e-08 1.101478e-08 -7.035775e-09 -5.486853e-09 -4.922032e-09 -1.437535e-09
1.647315e-09 -1.897868e-08 2.472873e-09 -1.189991e-08 6.060668e-10 1.047766e-10
1.221887e-08 -4.063373e-08 8.170715e-09 4.479936e-10 3.079459e-10 -2.143850e-10
-2.333189e-09 -1.100578e-08 1.245657e-09 -1.328299e-08 1.001568e-09 3.685139e-10
5.089891e-09 -2.531196e-08 1.232178e-09 -1.314869e-08 7.576544e-11 -9.967201e-10
2.043832e-09 -2.162296e-08 6.454250e-10 -1.407861e-08 3.016849e-09 1.190037e-09
-2.332726e-09 -1.606531e-08 8.753940e-10 -1.337884e-08 9.083498e-10 -2.320470e-10
9.654255e-09 -4.774521e-09 -1.032181e-09 3.786635e-09 9.835410e-11 -5.167529e-10
-2.352796e-08 4.429708e-08 -1.733035e-08 1.454236e-09 1.039985e-08 -1.729176e-08
4.074342e-08 -2.757593e-08 4.369902e-08 3.489574e-08 1.317538e-08 2.346942e-08
1.392217e-08 -6.503891e-09 -1.167032e-09 2.155786e-09 -4.657169e-11 -3.579233e-10
-1.184111e-08 2.241000e-08 -1.194519e-08 -1.934601e-09 -6.132415e-09 -1.543535e-09
1.291223e-08 -6.417189e-09 -9.824057e-10 3.026981e-09 1.099922e-10 2.366083e-10
1.179587e-08 -5.689732e-09 -8.965566e-10 4.301534e-09 4.162721e-12 -6.427676e-10
1.062790e-08 1.374539e-08 -6.335211e-09 7.720407e-09 -5.590144e-09 -1.492602e-09
1.028167e-08 -5.205605e-09 -6.587735e-10 4.967368e-09 -2.242601e-10 -4.293919e-10
1.014477e-08 -4.762912e-09 -8.161924e-10 4.975292e-09 -8.327045e-11 -5.933847e-10
-1.601561e-08 4.456281e-08 1.899860e-08 -4.426349e-08 -1.409041e-09 -9.742094e-09
-3.025755e-08 6.739707e-08 -3.871811e-08 -1.375695e-08 7.363623e-09 -2.453939e-08
-2.192412e-08 1.019759e-07 -6.777729e-08 -6.702145e-09 8.854013e-09 -8.499010e-09
-2.801680e-08 1.053519e-07 -5.990109e-08 -2.371453e-09 1.456984e-08 -5.747128e-09
-4.366183e-08 5.594033e-09 1.413293e-07 -4.581912e-08 -4.484769e-08 4.118093e-08
-1.337346e-09 1.975387e-09 -3.223972e-10 -4.943318e-09 -3.735157e-10 3.084311e-11
-4.787200e-08 -5.807474e-08 2.268605e-07 -3.266267e-08 8.108849e-09 1.825497e-08
-8.799561e-08 1.033814e-07 6.622012e-08 -3.811842e-08 -7.584495e-08 -1.253966e-08
-4.044351e-08 9.892813e-08 -2.781049e-08 -2.223923e-08 -1.942462e-08 -2.182350e-08
-4.484691e-08 8.780419e-08 2.975950e-08 -2.104654e-08 -5.093974e-08 -5.145368e-09
-7.088906e-08 2.978232e-08 1.420709e-07 -1.626476e-08 -6.201446e-09 2.872576e-09
3.736544e-08 -2.933728e-08 -5.400224e-08 5.711783e-10 9.755911e-09 -5.861958e-11
2.948534e-08 -3.341790e-08 -3.472524e-08 8.791500e-09 3.324539e-09 1.454878e-09
3.072919e-08 -3.643896e-08 -3.286318e-08 9.163432e-09 1.696370e-08 -3.449325e-09
3.154319e-08 -5.103284e-08 -2.852200e-08 9.209918e-10 1.995972e-08 -2.845427e-10
6.759767e-08 -1.162738e-08 -1.153012e-08 6.257733e-09 2.496883e-09 1.067078e-08
-7.980455e-09 3.994074e-09 1.218387e-09 1.850335e-10 4.537126e-11 -7.797008e-11
2.619683e-08 -4.147381e-08 -1.685974e-08 -3.871491e-09 7.043366e-09 1.863402e-10
2.685765e-08 -4.168474e-08 -1.633885e-08 6.050459e-09 7.554358e-09 -1.371319e-09
-2.724793e-09 1.930330e-09 4.040084e-10 1.506693e-09 -4.903375e-11 4.078449e-11
-5.611425e-09 -1.040750e-08 -9.986088e-09 2.218070e-08 1.200488e-09 1.245134e-09
2.795602e-08 -4.771667e-08 -2.806535e-08 6.234149e-09 1.596855e-08 -1.736754e-09
2.654262e-08 -3.590129e-08 -2.569849e-08 -1.280735e-08 1.305065e-08 2.379256e-09
2.022968e-08 -8.208931e-09 7.245541e-09 1.142488e-08 1.387126e-10 -4.789900e-09
-1.167514e-09 7.762440e-10 8.239254e-11 3.580845e-09 3.992684e-10 6.765788e-11
-6.172381e-09 5.150396e-09 2.355360e-10 -2.942984e-10 -5.296807e-11 -3.361870e-10
2.502898e-08 -4.643316e-08 -2.180751e-08 -4.795583e-09 1.437428e-08 9.091213e-10
-6.895825e-09 4.706885e-09 5.708514e-10 -2.738707e-09 -1.292766e-11 8.708234e-11
-5.865497e-09 4.913392e-09 3.254317e-10 -9.840091e-10 -1.110768e-10 -1.673199e-10
-6.426299e-09 4.910115e-09 4.390488e-10 -1.050871e-09 -1.779050e-10 -4.416975e-10
-5.944663e-09 5.050368e-09 5.939069e-10 -1.217355e-09 -1.994425e-10 3.062350e-11
-5.672426e-09 4.962000e-09 4.274057e-10 -1.120208e-09 -7.698016e-11 -6.911782e-11
-7.175564e-09 5.114604e-09 6.052345e-10 -1.325569e-09 -1.554213e-10 -2.067100e-10
-7.424757e-09 4.575717e-09 7.444552e-10 -2.753082e-09 -3.779045e-10 -4.656286e-10
-5.500048e-09 5.109196e-09 3.884879e-10 -6.390354e-10 -1.478137e-10 -4.121719e-10
4.510570e-10 -2.811226e-08 7.778117e-09 4.118528e-09 1.017359e-09 -7.599617e-10
-7.323541e-09 5.110512e-09 3.848246e-10 -8.871877e-10 -1.500878e-10 -5.909089e-10
2.145707e-08 -1.462668e-08 1.961996e-08 8.306755e-09 1.644712e-09 -1.007071e-08
5.852114e-09 -1.385590e-09 1.049582e-08 1.766417e-08 -1.760576e-09 -4.248504e-09
-4.499679e-09 7.869364e-09 9.897217e-09 1.759291e-08 -3.045404e-09 -4.338150e-09
-7.617846e-09 2.525452e-09 1.712265e-09 1.158975e-09 1.840054e-10 -3.136424e-10
5.191095e-08 -1.765633e-08 3.300114e-09 -1.933992e-09 -4.408970e-10 1.416474e-09
1.454183e-08 2.597047e-08 -2.925834e-09 -1.626048e-08 1.411496e-09 2.577700e-09
-1.329933e-08 -6.631223e-09 1.240839e-09 9.445996e-09 -8.842371e-10 -7.997315e-11
4.117888e-09 -6.017910e-09 3.041251e-08 2.119080e-08 -3.654967e-09 -7.892371e-09
-1.530605e-09 8.819644e-09 1.899608e-08 2.381666e-08 -5.552335e-09 -8.372278e-09
1.233866e-08 -7.505180e-09 1.965121e-08 1.580211e-08 1.861020e-09 -1.205795e-09
-7.855683e-09 -4.298672e-09 -2.601838e-09 -1.519346e-08 3.887638e-09 2.480279e-09
3.201887e-08 1.008176e-08 -6.711128e-09 -1.409828e-08 1.663060e-09 3.988354e-09
-8.530187e-09 -6.524830e-09 -4.322815e-09 -1.732346e-08 1.571903e-09 1.233076e-09
-9.277262e-09 -1.545448e-09 -1.176589e-09 -1.190107e-08 1.702139e-09 1.465117e-09
-9.028094e-09 4.402460e-09 2.475806e-10 -3.860185e-09 -9.380503e-10 2.524065e-10
9.267570e-09 -5.260325e-09 -1.228278e-09 -1.127528e-10 2.012557e-12 5.181722e-11
1.941763e-08 5.339242e-08 -1.038228e-07 -1.043148e-08 -4.150398e-08 3.706800e-09
-1.014006e-08 -3.805666e-09 -3.118739e-09 -1.413317e-08 -7.704186e-10 3.484146e-11
1.929792e-09 -1.983266e-08 -5.446867e-09 -1.790152e-08 1.580418e-10 6.688385e-10
-4.621007e-10 4.336469e-10 2.885070e-11 2.823429e-09 1.686117e-10 5.029283e-11
1.099058e-10 -1.713718e-08 -1.339497e-09 -1.664001e-08 9.153829e-10 -7.266059e-10
-4.649381e-09 -1.237430e-08 -1.930768e-09 -1.537514e-08 -5.004663e-10 3.226310e-10
-2.422453e-09 -1.322278e-08 -9.326717e-10 -1.527675e-08 -8.817722e-10 -1.251063e-09
-2.332986e-09 -1.606512e-08 1.187597e-09 -1.337883e-08 3.861485e-10 3.510335e-10
-6.201714e-09 -6.916863e-09 5.372138e-10 -1.153903e-08 2.399122e-09 1.195643e-09
2.104123e-08 -1.284871e-08 1.485630e-08 5.380458e-09 1.528140e-09 -1.229925e-09
1.357387e-08 -4.302583e-09 7.156094e-09 1.237261e-08 -1.309742e-09 -3.506823e-09
1.086154e-08 -4.149278e-09 5.981451e-10 8.476074e-09 -4.465064e-10 -1.193857e-09
1.387831e-08 -6.796548e-09 -8.487726e-10 -7.845897e-09 1.548182e-11 -2.170501e-10
2.101049e-08 -9.139707e-09 1.140448e-09 3.540138e-09 -9.027236e-11 -2.156372e-09
-3.228361e-09 3.458664e-09 -8.243184e-12 -2.780243e-09 -3.761427e-10 -2.209485e-10
1.542449e-08 -7.238936e-09 7.544174e-10 5.775387e-09 -3.474709e-10 -9.981074e-10
1.689541e-08 -8.373260e-09 6.740106e-10 3.545853e-09 3.140912e-10 1.617748e-10
1.369158e-08 -5.814202e-09 5.973355e-10 7.585977e-09 -3.440540e-10 -1.718147e-09
7.017524e-10 2.245019e-09 -9.280954e-10 -8.405186e-09 -1.599152e-10 -7.621426e-10
1.035591e-08 -5.274959e-09 -1.263960e-09 1.545532e-09 -1.054208e-10 -5.612666e-11
-1.062382e-09 2.092560e-09 -3.141435e-10 -1.332751e-09 -3.896849e-10 -1.138860e-10
1.648920e-08 -9.152705e-09 1.257304e-09 2.967415e-09 -1.372870e-10 -1.790101e-09
-8.503433e-09 1.997657e-08 -1.685691e-08 -1.084175e-08 -1.375297e-09 6.332951e-10
-7.055563e-09 2.557753e-08 -2.852684e-08 -6.816744e-09 -3.296618e-09 3.599533e-09
-1.090584e-08 2.066257e-08 -1.505505e-08 -9.476022e-09 -5.260932e-09 7.466605e-09
-1.105882e-08 1.286982e-08 -1.430968e-08 -6.263991e-10 -6.012152e-09 6.303530e-09
-6.971895e-09 1.662491e-08 -2.714399e-08 2.536516e-09 -2.848831e-09 1.413787e-09
-5.752746e-09 4.299411e-09 3.766427e-10 -2.036698e-09 -2.244387e-10 -1.331061e-10
-7.690709e-09 4.723825e-09 7.217951e-10 -3.036210e-09 -2.877654e-10 -4.589768e-10
1.488125e-09 2.024696e-08 -1.327240e-08 -7.895198e-10 -1.424303e-09 -6.541513e-10
-1.436410e-08 -9.184842e-10 2.423509e-09 -8.360456e-09 -3.685110e-09 -1.824398e-09
-2.170930e-08 1.402567e-08 -5.025407e-09 -2.474789e-09 -8.207101e-09 -1.218016e-09
2.439049e-08 -6.856945e-08 8.176116e-10 -1.267797e-09 -1.664778e-08 1.576217e-09
-1.530552e-08 -1.792106e-09 -1.754795e-09 -6.240510e-10 5.250066e-19 -4.206440e-10
-6.654816e-09 -7.402113e-09 6.400662e-10 8.221340e-10 -1.269377e-09 1.634504e-10
-8.200956e-09 1.463479e-08 -2.554697e-08 4.603505e-10 -1.671393e-09 1.176237e-09
-1.406533e-09 5.017328e-09 -2.084926e-08 8.958160e-09 -5.755096e-09 3.027059e-09
-3.604733e-09 1.723126e-08 -3.153524e-08 5.118728e-09 -1.271962e-08 9.251490e-09
-1.657676e-08 1.848555e-08 -6.084074e-09 -2.330037e-09 -8.104710e-09 -2.169439e-09
-1.939747e-08 1.969501e-08 -4.732756e-09 -2.163885e-09 -1.025648e-08 -2.605460e-09
-8.439578e-09 3.467067e-08 -2.647658e-08 2.438521e-09 -1.744060e-09 -1.462114e-09
-2.112151e-08 1.836234e-08 -7.695743e-09 -8.371847e-09 -1.043451e-08 -5.142061e-09
-2.110456e-08 1.879012e-08 -2.859626e-09 -8.711804e-09 -8.733846e-09 -5.795425e-09
5.166415e-09 -3.297970e-08 -9.474639e-09 2.225257e-08 6.953699e-09 -3.505000e-09
-1.060600e-08 -8.664503e-09 -3.601385e-09 1.835747e-08 4.850772e-09 -2.675271e-09
3.020730e-08 1.879805e-08 7.977243e-09 -4.562291e-08 -1.983713e-08 1.205513e-08
-7.282043e-09 -8.661957e-09 -6.791006e-09 1.924598e-08 3.972089e-09 -2.723512e-09
-6.954620e-09 -1.785276e-08 3.593288e-09 1.187282e-08 -5.782183e-10 7.843574e-10
1.577682e-08 -5.275053e-08 1.380343e-07 5.041587e-09 -7.189979e-10 1.273636e-08
-3.169316e-09 -1.419635e-08 -5.973193e-09 1.888870e-08 1.502091e-09 -1.183345e-09
-1.048775e-09 -1.043101e-08 -1.291861e-08 2.487464e-08 2.578534e-09 -5.063383e-10
-1.545280e-08 2.717761e-08 -8.363616e-09 -3.143654e-09 3.724123e-09 -4.819801e-09
-6.684448e-09 -1.716396e-08 1.327234e-09 1.470198e-08 3.085290e-09 -1.160980e-09
-7.438839e-09 4.041879e-09 1.006399e-09 6.424283e-11 -2.122624e-11 -2.371664e-11
1.150846e-08 -5.926321e-09 -1.497301e-09 3.493906e-11 -1.853923e-11 1.555027e-10
-8.638011e-09 -1.963835e-09 -1.233488e-08 -2.053552e-08 3.579730e-09 1.313361e-09
-4.235076e-09 3.426365e-09 9.521344e-10 4.806210e-09 2.950445e-11 -6.783490e-11
-7.198222e-09 1.990317e-09 1.442475e-09 7.510583e-10 1.251566e-10 -2.444274e-10
-8.082331e-09 5.349821e-09 1.184691e-09 3.087057e-09 6.899250e-10 3.137170e-10
-6.404011e-09 3.252831e-09 1.022240e-09 2.617190e-09 2.542653e-10 -3.123133e-10
-7.116649e-09 -1.467471e-09 3.072749e-09 -1.092157e-09 -3.039293e-10 -3.807673e-10
-8.177253e-09 3.969388e-09 1.445052e-09 1.357870e-09 3.621746e-10 -5.143284e-10
-8.296255e-09 5.158572e-09 9.987904e-10 2.884725e-09 4.745075e-10 8.858025e-11
-6.562989e-09 3.240134e-09 1.404285e-09 2.674374e-09 6.318324e-11 -1.695264e-10
1.249860e-08 -3.653107e-08 -9.121810e-09 1.581155e-08 1.674380e-09 1.577621e-10
9.092503e-09 -5.090430e-09 -1.186295e-09 2.899118e-09 3.184838e-10 1.361558e-10
-5.858176e-09 -1.733907e-08 4.199725e-09 8.668184e-09 1.488158e-09 -6.494283e-10
1.409055e-08 -3.904355e-08 -1.603684e-10 1.468084e-08 3.094575e-09 -1.785693e-09
1.342290e-08 -3.649406e-08 -8.363143e-09 1.821210e-08 8.228771e-09 -1.365987e-09
1.078406e-08 -2.080475e-08 8.074638e-08 1.364678e-08 -7.475698e-09 -3.500049e-08
2.044576e-08 -4.084362e-08 -9.947243e-09 1.224230e-08 -8.590732e-10 -9.108256e-10
6.922476e-09 -2.629057e-08 -1.305968e-08 2.468313e-08 7.884382e-09 -2.929328e-09
1.432488e-08 -3.281421e-08 -9.176337e-09 2.045965e-08 6.724512e-09 -1.464805e-09
1.691569e-08 -3.840428e-08 -6.147823e-09 6.695196e-10 -6.653219e-16 6.063439e-10
2.046362e-08 -4.457997e-08 -9.932873e-09 1.179447e-08 9.973778e-09 -9.680716e-10
-3.242183e-09 4.403389e-08 -7.138307e-08 -1.244254e-08 -1.013957e-08 -3.685278e-09
-3.586643e-09 4.106259e-08 -4.777667e-08 -1.290875e-08 -2.203094e-08 -1.418617e-08
-6.721335e-09 3.487242e-09 1.229108e-09 2.939849e-09 -1.498941e-10 5.522676e-13
-1.064370e-08 2.243339e-08 -1.987498e-08 -7.857292e-09 -2.331471e-09 4.711402e-09
-1.235452e-08 7.470986e-08 -6.266566e-08 -1.519506e-09 -1.705842e-09 -2.522977e-09
3.070922e-09 3.486334e-08 -7.255192e-08 -2.261428e-08 -3.345333e-08 -1.994301e-08
-6.040257e-09 4.301839e-09 -1.676908e-10 -5.792395e-09 7.855539e-11 -2.407252e-10
-9.479224e-09 5.314018e-09 6.203749e-11 -4.502990e-09 -9.413528e-10 -1.549230e-10
-8.245484e-10 4.128976e-08 -7.459789e-08 -1.693699e-08 -1.209537e-08 -7.916783e-09
-2.025577e-08 2.130861e-08 2.389383e-09 8.712193e-09 -6.938658e-10 -6.734564e-10
1.709429e-08 1.608215e-08 -7.413029e-08 -1.882816e-08 -3.674708e-08 -7.080326e-09
-9.147500e-09 7.853253e-08 -7.905276e-08 -1.069196e-08 -2.601110e-08 -2.700180e-08
-1.763137e-08 3.239934e-08 -2.467925e-08 1.247842e-08 8.123273e-10 -1.830719e-09
-3.246527e-09 3.013678e-09 -4.958718e-10 -6.952023e-09 9.814372e-11 -2.160840e-10
-2.878261e-09 3.554241e-09 3.309042e-11 -6.046551e-09 -6.057854e-10 3.648877e-10
1.413674e-08 -4.088002e-08 -5.017613e-09 1.336169e-08 1.932905e-09 -2.536944e-10
-2.297996e-08 2.014832e-08 -5.160728e-09 -7.747232e-09 6.558368e-10 1.176023e-09
9.025786e-09 3.544658e-08 -7.365822e-08 -1.538482e-08 -1.242260e-08 -3.699540e-09
-2.576653e-09 3.624746e-09 -5.858420e-10 -7.700214e-09 -1.681362e-10 7.649806e-10
2.652116e-08 -3.824231e-08 -2.230782e-08 -1.214873e-08 1.396740e-08 2.905121e-09
-7.384289e-10 1.623556e-09 -6.954819e-10 -7.707335e-09 -2.545114e-11 -2.990612e-10
-6.935818e-09 2.649626e-09 1.171085e-09 1.884382e-09 -4.719056e-10 -4.706990e-10
-5.782172e-09 3.187686e-09 6.068777e-10 -7.343459e-12 1.900204e-10 -4.642864e-11
-3.506713e-09 1.658765e-09 4.610219e-10 2.730963e-09 3.265712e-10 -7.830192e-11
-6.802505e-09 2.532786e-09 1.471824e-09 1.365224e-09 2.219509e-10 2.006259e-10
2.487013e-09 7.715758e-10 -7.058816e-10 -7.121895e-09 -2.580605e-10 4.266343e-10
-8.151787e-09 1.478281e-09 1.910148e-09 -1.286271e-10 -8.784262e-11 -4.468321e-10
-4.062297e-10 1.685366e-09 -5.665504e-10 -6.638549e-09 -6.147168e-10 -6.942763e-11
-2.756271e-09 3.415071e-09 -5.563430e-10 -8.053126e-09 -3.786575e-10 -6.789016e-10
9.932159e-09 -2.171211e-08 7.866287e-08 1.251493e-08 -2.081801e-09 -2.417466e-08
-1.788971e-08 1.709697e-08 4.362133e-08 3.092008e-08 -1.419057e-08 1.335367e-09
3.938261e-09 3.922472e-08 -1.349889e-08 -2.005347e-08 2.170504e-09 -6.936821e-09
-1.805299e-08 2.206299e-08 -5.160727e-09 -4.675597e-09 2.997255e-10 5.978273e-10
-1.272205e-08 -1.009766e-08 6.623961e-08 2.165355e-08 -8.720586e-09 -1.583759e-08
-2.343846e-09 -2.681862e-08 8.360661e-08 -1.058755e-08 3.902799e-09 -3.116625e-09
1.368254e-08 -2.282938e-08 8.333414e-08 -4.681379e-09 -4.043760e-11 -1.331281e-08
5.828695e-09 -2.685515e-08 9.624883e-08 -4.893809e-09 4.316381e-09 -4.353988e-08
-2.468416e-08 3.193124e-08 -9.918160e-09 -2.040634e-09 8.704664e-10 6.184805e-09
1.469837e-08 -6.004694e-09 3.865500e-09 1.024169e-08 -3.902899e-10 -1.149345e-09
3.551244e-09 1.605057e-09 3.550618e-09 1.311538e-08 1.144921e-10 3.502532e-10
-7.892396e-09 1.577723e-08 -2.847921e-08 -2.884644e-08 1.338416e-08 1.174519e-08
5.702193e-09 1.636055e-09 3.424519e-09 1.338826e-08 -4.815422e-10 -3.199507e-09
2.169363e-09 1.545989e-09 4.664328e-09 1.263083e-08 3.328790e-10 -9.019354e-11
8.541944e-09 -1.293972e-09 5.351390e-09 1.504280e-08 -3.091349e-10 -1.448177e-09
5.794259e-09 2.893967e-09 4.513656e-09 1.622459e-08 -3.020499e-10 -1.462537e-10
-7.852234e-09 6.833618e-09 9.691727e-10 4.624150e-09 4.290255e-11 -7.363627e-10
-9.169638e-09 6.566767e-09 1.061792e-09 4.019507e-09 -1.244626e-10 -1.013615e-09
-8.408243e-09 6.932980e-09 9.465495e-10 4.654478e-09 4.831564e-10 2.191538e-10
-1.128004e-08 1.014632e-08 4.602150e-10 2.045269e-09 9.661958e-10 5.158358e-10
-9.151387e-09 6.545089e-09 8.074283e-10 4.008195e-09 8.933644e-10 5.890517e-10
-4.651501e-09 2.378890e-09 9.637460e-10 3.220865e-09 1.856182e-10 -5.617151e-11
-7.075154e-09 2.154688e-09 1.607549e-09 1.553921e-09 -1.416252e-10 -3.571103e-10
-5.608111e-09 2.514569e-09 1.027774e-09 2.544106e-09 2.227859e-10 2.859235e-11
-6.184597e-09 2.151513e-09 1.269882e-09 1.583766e-09 1.295122e-10 -2.105589e-10
-6.148492e-09 2.663638e-09 1.170828e-09 2.561519e-09 1.367795e-12 -1.876287e-11
-5.153747e-09 2.698960e-09 1.039283e-09 3.563705e-09 2.560527e-10 2.539300e-10
-5.181994e-09 2.197504e-09 8.018830e-10 2.496026e-09 2.257714e-10 -3.822121e-10
-7.300237e-09 -2.721363e-09 3.272620e-09 -1.085577e-09 -7.358791e-11 -3.425991e-10
-1.595058e-08 2.183691e-08 1.153967e-08 1.716561e-08 -3.220659e-09 -2.932274e-09
-2.158954e-08 1.961233e-08 -2.626741e-09 -1.087036e-09 7.273511e-10 1.774484e-09
-2.441894e-08 3.344720e-08 3.626665e-09 1.155792e-08 -6.069200e-09 -2.322129e-10
-8.003224e-09 4.604343e-09 9.976604e-10 -1.657240e-09 -4.321719e-10 -9.592812e-10
-1.114417e-08 8.197799e-09 -4.645444e-09 -1.418232e-09 -3.457680e-09 2.644287e-09
-1.746219e-08 2.603470e-08 4.740879e-09 1.044567e-08 -3.298255e-09 -1.994888e-09
-2.346550e-08 3.199206e-08 -7.879825e-09 4.754259e-10 -4.261074e-10 -1.004833e-10
-1.695949e-08 2.114573e-08 9.079601e-09 1.621883e-08 -4.685330e-09 -5.369155e-09
-1.631704e-08 2.226473e-08 9.821233e-09 1.746656e-08 -3.417823e-10 1.978153e-09
-1.892879e-08 4.160367e-08 -1.272276e-08 1.047514e-09 5.001023e-09 -1.314115e-08
-1.792820e-09 -2.558057e-08 8.354555e-09 2.218625e-09 5.605344e-10 2.140534e-10
5.740984e-09 -2.008788e-08 6.700551e-08 -2.010878e-08 -6.987814e-10 -8.832100e-09
-1.739559e-08 2.204796e-08 3.828809e-09 1.017112e-08 3.486349e-10 1.407483e-09
8.666387e-09 5.583826e-08 -6.386424e-08 -1.763540e-08 -1.125590e-08 5.219904e-09
3.585624e-09 7.285378e-08 -1.004305e-07 -1.851022e-08 -6.667840e-09 6.787446e-09
1.260846e-08 6.809837e-08 -9.518900e-08 -1.730510e-08 -8.706291e-09 -2.487601e-10
2.619426e-09 7.966700e-08 -8.602102e-08 -2.735371e-08 -1.818090e-08 1.255331e-08
-2.067108e-09 7.924148e-08 -7.616471e-08 -1.896184e-08 -2.047066e-08 9.472973e-09
2.623508e-08 -2.966470e-08 -4.265096e-08 2.324763e-08 1.917211e-08 -3.975672e-09
1.898385e-08 5.928792e-08 -1.011744e-07 -1.209105e-08 -4.090289e-08 1.572841e-08
3.676935e-08 4.692637e-09 -1.002922e-07 1.681215e-08 1.410287e-08 -2.691898e-09
-8.544441e-09 -1.421309e-08 4.176823e-09 7.135990e-09 -8.704726e-11 -3.853162e-11
-8.269356e-09 -1.801613e-08 4.454655e-09 1.054636e-08 1.545979e-09 4.301730e-11
4.194310e-08 2.748298e-08 -1.261915e-07 9.638243e-09 1.963366e-08 -1.690344e-09
4.328344e-08 -4.130926e-09 -1.095364e-07 3.465075e-09 6.167312e-08 4.916388e-09
-1.056969e-08 7.208307e-10 2.065941e-09 6.183525e-10 -2.696961e-10 -5.437229e-10
-1.927627e-08 4.442524e-08 -3.214582e-08 8.594144e-09 7.916984e-09 -3.263937e-09
-2.157239e-08 2.936865e-08 6.702457e-09 1.451442e-08 -4.442114e-09 2.899486e-09
-1.576382e-08 -2.720435e-09 1.069861e-09 3.486415e-09 2.596271e-09 -3.974250e-10
3.369733e-08 4.456030e-08 -1.352328e-07 1.629235e-08 1.938949e-08 -4.120353e-09
-6.436084e-09 -8.486666e-09 1.414748e-07 4.725975e-08 2.317302e-08 1.800948e-08
3.271016e-08 2.780700e-08 -1.073989e-07 1.866119e-08 5.123230e-08 -1.267671e-08
4.304029e-08 2.815085e-09 -8.787057e-08 4.088269e-09 1.750452e-08 -1.417755e-09
9.198907e-09 -1.809930e-08 -2.724120e-08 1.422718e-08 -1.532442e-08 7.520599e-09
-7.041884e-09 1.490079e-08 -8.551155e-09 -1.727423e-08 -4.545371e-10 6.158583e-10
4.229724e-08 -1.003186e-08 -8.854614e-08 8.217354e-09 1.455837e-08 -4.767894e-10
-7.222339e-09 2.701060e-09 1.467917e-09 1.110114e-09 9.650880e-11 -2.085019e-10
-5.866159e-09 3.858700e-09 8.448442e-10 4.265483e-09 4.597103e-10 2.004237e-10
1.387733e-08 -6.797674e-09 -9.530501e-10 -7.847620e-09 1.655472e-10 1.940201e-10
-5.028271e-09 2.705870e-09 7.180683e-10 1.381542e-09 1.118063e-10 -2.541132e-10
1.732658e-08 -7.227515e-09 9.204193e-12 -6.713631e-09 -9.666109e-11 -2.153892e-10
-7.846284e-09 4.178672e-09 1.123505e-09 4.188827e-11 2.567280e-12 -3.689804e-11
4.088555e-09 -3.316399e-08 1.968636e-09 1.523883e-08 3.276672e-10 -4.095268e-11
-1.234694e-09 -2.511108e-08 8.098738e-09 9.746568e-10 1.751160e-10 1.192645e-10
1.115078e-08 -3.253104e-09 -7.733028e-10 -1.086126e-08 2.061149e-10 -1.085732e-09
1.114175e-08 -5.340025e-09 -1.221738e-09 -7.517430e-09 3.270167e-11 3.973044e-10
1.254045e-08 -5.340362e-09 -1.038046e-09 -7.688931e-09 -1.097688e-11 -7.947540e-10
1.182815e-08 -4.366926e-09 -9.134391e-10 -9.308592e-09 2.177383e-10 -9.848842e-10
1.238448e-08 -4.367168e-09 -6.703296e-10 -9.673901e-09 -9.530337e-11 -6.046763e-10
-3.691919e-09 9.584247e-09 1.459431e-08 2.100766e-08 -5.126307e-09 -7.589471e-09
-9.753196e-10 7.378153e-09 8.927973e-09 1.867900e-08 -2.365708e-10 -2.162643e-09
2.254294e-08 -9.143485e-09 1.617304e-09 -5.266162e-09 1.894909e-10 -1.166086e-09
-6.423857e-09 5.773926e-09 -1.337310e-09 -8.628608e-09 2.210720e-11 1.348058e-11
-4.367149e-09 4.700245e-09 -8.996119e-10 -9.214188e-09 -4.427063e-10 -8.029616e-10
-6.128145e-09 6.201494e-09 7.250835e-10 6.018391e-09 7.671674e-10 2.433386e-11
-7.707336e-09 4.835510e-10 2.156631e-09 -3.457488e-10 -7.227108e-11 -3.532108e-10
-2.897728e-09 3.580446e-09 -7.850818e-10 -9.264523e-09 -2.947975e-10 2.706071e-10
-1.892948e-08 2.722328e-08 1.078808e-08 1.488567e-08 1.140997e-10 -1.541187e-09
-2.542186e-09 3.682395e-09 -3.485585e-10 -7.117625e-09 -1.302799e-10 -7.491883e-11
-4.618700e-09 3.714563e-09 -2.846456e-10 -6.608617e-09 -3.719811e-10 -1.081844e-10
-6.030450e-09 4.699096e-09 -1.780198e-10 -6.786585e-09 -3.884821e-10 -6.473729e-10
4.981233e-10 2.305674e-09 -7.093544e-10 -8.513644e-09 -6.362081e-10 1.272704e-09
-4.382162e-09 3.994977e-09 -3.958385e-10 -7.463659e-09 -1.920912e-10 -7.160916e-10
-2.958156e-09 3.577082e-09 -8.943988e-10 -9.280909e-09 -3.927668e-10 -4.367919e-10
2.986700e-08 -3.816012e-08 -3.159362e-08 -8.854628e-09 1.831670e-08 1.907372e-09
1.891117e-08 -4.245365e-08 -1.165872e-08 1.024861e-08 1.286276e-09 7.105294e-10
2.046168e-08 -4.374073e-08 -1.607011e-08 1.217546e-08 4.390212e-09 -5.464746e-10
3.886284e-09 -2.411759e-08 2.717502e-09 -1.245545e-08 1.505447e-09 -7.693937e-10
3.756787e-08 1.828718e-08 -1.002922e-07 1.218399e-08 1.548794e-08 -2.832281e-09
1.860767e-08 -4.525591e-08 -2.841142e-09 6.431368e-09 6.416921e-09 -4.195631e-10
-2.880061e-10 8.906665e-10 7.790035e-11 5.686763e-09 5.729996e-10 4.713008e-11
2.037182e-08 -4.038132e-08 -4.823539e-09 1.134269e-08 2.246219e-09 -1.595532e-09
6.517048e-09 -2.619680e-09 -1.209816e-09 -3.738600e-09 -1.545177e-10 6.909839e-11
2.048617e-08 -4.423274e-08 -1.365297e-08 1.205269e-08 7.678487e-09 -8.855907e-10
2.520866e-08 -4.067486e-08 -1.668494e-08 7.415843e-09 6.536399e-09 -5.576839e-10
2.084707e-08 -4.425338e-08 -6.376842e-09 1.756607e-09 4.489341e-09 -9.383605e-11
2.080540e-08 -4.462149e-08 -1.177957e-08 2.407631e-09 1.394548e-09 5.964399e-10
2.335530e-08 -4.926195e-08 -1.661303e-08 3.368306e-09 6.629226e-09 -4.509148e-10
1.961931e-08 -1.103125e-08 1.514379e-09 -2.202595e-09 7.415920e-10 -1.715794e-09
-6.591441e-09 1.212634e-08 6.956531e-09 1.694281e-08 -2.555267e-09 -3.800954e-09
-1.391602e-08 6.186786e-08 -4.092099e-08 1.514068e-08 -1.233793e-08 -1.444358e-08
3.661931e-09 -8.125526e-09 6.112096e-08 2.418962e-08 -1.208759e-09 -1.024987e-08
-1.737477e-08 2.264483e-08 1.257440e-08 2.299605e-08 -9.541550e-09 -2.654499e-09
-1.317127e-08 9.171318e-08 -9.449691e-08 -2.515499e-08 -2.746621e-08 -4.254893e-09
-1.250095e-08 2.068897e-08 -2.650779e-08 -1.095217e-08 -9.094107e-09 -4.518648e-09
3.708823e-10 7.089147e-08 -8.221451e-08 -1.043145e-08 -3.478735e-08 -8.656544e-09
-1.502125e-08 5.554291e-08 6.524595e-10 3.223184e-08 -2.407793e-09 7.725829e-09
-2.166061e-08 1.333518e-08 -5.289763e-09 4.615775e-09 1.497999e-09 -5.258312e-10
-5.808909e-09 1.240428e-08 -3.599992e-08 3.281414e-08 1.994515e-08 -1.211738e-08
-4.656210e-09 2.309312e-08 -1.479750e-08 -1.192058e-09 -1.614181e-09 -2.181962e-16
5.251687e-08 -8.928870e-09 -6.934946e-09 -4.377797e-09 -3.841938e-10 6.377113e-09
-2.620238e-08 5.556652e-08 2.596308e-08 3.241670e-08 -3.187923e-09 -8.128344e-10
-2.312864e-08 7.652367e-08 -2.220681e-08 2.361531e-08 1.020951e-09 -7.017220e-09
-1.785850e-09 -2.565203e-08 8.984451e-09 1.200948e-09 -7.153433e-11 -2.510525e-11
-1.087940e-08 6.633142e-08 -4.830761e-08 9.184532e-09 -8.915509e-09 -4.834239e-09
-1.915656e-08 7.487106e-08 -6.980568e-08 -1.782721e-09 -1.631103e-09 -9.848210e-09
-1.780967e-08 8.005114e-08 -2.620476e-09 3.107304e-09 8.456183e-09 -1.169711e-08
-9.237906e-09 -1.501020e-08 5.235420e-09 2.144380e-09 5.400214e-10 -6.256422e-10
-1.717726e-08 8.615985e-08 -5.697644e-08 5.292959e-09 -1.510708e-08 -1.546641e-08
-1.819425e-08 5.240512e-08 -1.236851e-08 -2.914169e-08 -3.399961e-09 1.868800e-09
-1.180583e-08 5.878257e-08 -3.748415e-09 -3.651333e-08 4.101695e-09 -6.142842e-09
-9.622651e-09 2.766869e-08 -1.701141e-09 -2.927881e-08 -9.425940e-09 -2.582252e-09
-7.415395e-09 -1.781864e-08 6.240348e-09 2.779211e-09 2.679998e-10 8.706067e-10
-2.440045e-09 -2.381628e-08 8.190274e-09 2.968518e-09 2.310257e-10 2.502490e-10
6.136461e-09 -3.418894e-08 7.977267e-09 7.272087e-09 -4.304581e-11 7.000458e-10
4.885258e-09 3.818777e-08 7.799016e-09 -4.054327e-08 -8.137925e-09 1.575101e-09
1.067946e-08 -3.795361e-08 8.288852e-09 3.316250e-10 8.435985e-11 1.727285e-11
-6.957223e-09 -2.080540e-09 1.096317e-07 -4.635818e-08 -5.719099e-09 6.081099e-09
-3.313663e-09 -1.830385e-08 1.051196e-07 -4.786345e-08 4.608503e-09 4.246032e-09
-8.570735e-09 -2.592598e-09 -5.695657e-10 1.764338e-09 -1.454235e-09 -1.677612e-10
-1.330885e-08 4.021792e-08 2.339422e-08 -4.535257e-08 -2.109861e-08 6.985416e-09
-1.020186e-08 4.169282e-08 2.099101e-08 -4.846923e-08 -2.166031e-08 5.154957e-09
-2.866273e-09 1.819232e-09 4.848348e-10 2.768609e-09 -1.067502e-10 -3.796696e-11
1.798923e-08 -4.615675e-09 6.553819e-08 -4.431757e-08 -1.255024e-08 1.062507e-08
-2.456664e-09 -1.421462e-08 1.932047e-09 -1.181191e-08 2.136602e-09 6.834927e-10
-7.214774e-10 -1.729052e-08 2.185947e-09 -1.273845e-08 -3.482538e-10 -9.383580e-10
-7.381580e-09 3.667008e-09 1.111712e-09 5.463908e-10 6.626072e-11 -5.310408e-11
-6.946804e-09 3.250637e-09 1.236286e-09 7.628130e-10 2.071684e-10 -3.038426e-10
-8.246087e-09 3.035368e-09 1.679738e-09 2.292873e-10 5.624323e-11 -1.149854e-10
-7.857945e-09 4.017684e-09 1.208043e-09 9.544010e-11 3.310241e-12 -7.064127e-12
-4.148310e-09 -1.109129e-08 2.412228e-09 -9.974767e-09 1.321183e-09 7.396926e-10
-6.220096e-09 3.019800e-09 1.032970e-09 1.032912e-09 1.592819e-10 -1.648777e-10
-6.825239e-09 3.151986e-09 1.062753e-09 7.145600e-10 9.363199e-11 -1.031848e-10
-7.188877e-09 3.480707e-09 1.121112e-09 6.768427e-10 7.925149e-11 -2.276386e-10
-4.250522e-09 -1.300764e-08 1.387861e-09 -1.166304e-08 -6.299012e-10 1.752040e-10
-6.153544e-09 2.990108e-09 1.062754e-09 1.179618e-09 1.773670e-10 -1.180593e-10
-6.161030e-09 2.710565e-09 1.155169e-09 1.659288e-09 1.251679e-10 1.839349e-10
-5.948344e-09 2.990134e-09 1.064843e-09 1.061675e-09 1.448321e-10 -7.796686e-11
2.962251e-09 -2.340003e-08 3.716389e-09 -1.067399e-08 -6.533040e-10 -1.119717e-09
-5.520440e-09 2.926697e-09 7.397918e-10 4.959196e-10 1.589358e-10 -7.524453e-11
5.859257e-09 -2.634628e-08 5.833514e-09 -6.644249e-09 -1.175200e-10 -3.152062e-10
-9.197765e-10 -1.675161e-08 3.585612e-09 -8.949419e-09 1.391819e-09 4.998387e-10
-5.094266e-09 4.774857e-09 1.590046e-10 -1.584448e-10 -4.176337e-11 1.966560e-11
-7.583854e-09 -6.246233e-09 2.158867e-09 2.581274e-09 -3.695082e-09 -3.838189e-10
-3.466685e-10 -1.857812e-08 2.676918e-09 -1.036475e-08 -4.475118e-10 3.297883e-10
-2.519989e-09 -1.515749e-08 2.950964e-09 -9.903781e-09 -1.872847e-10 -3.697274e-11
-2.334660e-09 -1.463156e-08 4.068366e-09 -7.338941e-09 4.979218e-11 -4.031526e-10
-3.830662e-10 -1.701302e-08 -9.008079e-10 1.038681e-11 -2.383643e-10 1.882059e-11
-7.956501e-10 3.998023e-09 -2.729755e-08 9.665057e-09 -2.940556e-09 -1.319716e-10
-1.406840e-09 -6.967450e-09 -2.090412e-08 1.181258e-08 -4.367065e-09 2.428214e-09
-8.638143e-09 4.949559e-09 -1.672281e-08 4.188081e-09 -3.930192e-10 4.901681e-10
-8.207921e-09 6.261538e-09 -1.233486e-08 2.924756e-09 -2.796462e-09 2.912939e-09
-4.878221e-09 5.429872e-09 -1.931639e-08 8.313527e-09 -7.606829e-09 4.758923e-09
-8.221373e-09 4.911696e-09 -1.610358e-08 6.810884e-09 -8.140077e-09 7.274885e-09
9.666073e-10 -1.315259e-08 -6.633286e-09 1.052301e-08 -6.409321e-09 2.943635e-09
9.097682e-09 -4.685519e-09 -1.178679e-09 -1.836731e-09 -3.086491e-10 3.092953e-10
-7.149774e-09 -1.789023e-09 -8.619188e-09 7.082580e-09 -5.323769e-09 4.394543e-09
-3.398841e-09 3.406522e-09 1.449707e-11 -2.408121e-09 -1.586302e-10 -2.931522e-10
-3.887051e-09 3.572189e-09 1.309797e-10 -2.758883e-09 -3.086419e-10 -1.298738e-10
1.662051e-08 -4.039987e-08 -1.019786e-09 -6.451526e-09 1.190876e-09 4.119329e-10
1.159988e-08 -6.197484e-09 -1.525205e-09 7.396767e-11 -1.505706e-10 1.150895e-10
-3.771697e-09 3.825543e-09 9.215118e-11 -1.702470e-09 -1.316687e-10 -3.841358e-10
-4.066679e-09 4.062001e-09 1.297336e-10 -1.216180e-09 1.121643e-10 4.980660e-11
-5.534456e-09 5.082788e-09 1.813343e-10 -1.431646e-10 1.432854e-12 -1.821840e-10
9.863100e-09 -5.287325e-09 -1.282836e-09 2.288396e-09 1.803999e-10 -3.203580e-10
-1.952137e-09 2.194180e-09 -2.682061e-10 -3.732821e-09 -3.556113e-10 -1.082201e-11
-4.687760e-09 4.185022e-09 1.309797e-10 -2.434258e-09 -3.504383e-10 -1.032880e-10
1.479842e-08 -3.844465e-08 6.689254e-10 -7.886632e-09 2.565465e-09 -7.634716e-11
-1.471701e-09 -2.813109e-08 7.139790e-09 7.140082e-09 -4.552629e-10 -2.966543e-10
1.149152e-08 -6.504166e-09 -1.216868e-09 2.008936e-09 1.472035e-10 2.656597e-10
5.851127e-09 -2.564456e-08 -1.153616e-08 2.492459e-08 9.190370e-09 -3.580120e-09
-8.834586e-10 -2.686994e-08 8.017441e-09 2.746558e-09 1.956065e-10 -2.745149e-11
1.776542e-09 -2.910530e-08 8.899605e-09 6.540918e-10 1.592161e-10 4.268859e-10
1.307464e-08 -6.352525e-09 -1.565369e-09 5.954624e-10 -6.649097e-11 -1.750408e-10
-7.766916e-09 -2.067522e-08 5.291925e-09 1.153207e-08 2.506560e-09 -1.239496e-09
1.239728e-08 -6.493323e-09 -1.350245e-09 1.222157e-09 2.986889e-11 1.665437e-10
1.069922e-08 -5.502229e-09 -1.139318e-09 3.131170e-09 -9.817725e-13 -3.560832e-10
1.058651e-08 -5.883134e-09 -1.081969e-09 2.923639e-09 -1.616094e-10 -4.368563e-10
-2.773586e-09 -2.647342e-08 5.835886e-09 1.114502e-08 9.837622e-10 -7.656310e-11
5.376724e-10 -8.518772e-09 -2.427400e-08 3.072289e-08 1.234637e-08 -4.779847e-09
-1.040367e-08 -1.303485e-08 5.504186e-09 2.208536e-09 1.521272e-09 -8.289069e-11
-2.506966e-08 2.462643e-08 -1.139755e-08 1.903150e-08 1.179701e-08 -1.181294e-08
-1.416066e-09 -2.751445e-08 7.489056e-09 1.005854e-08 1.316197e-09 3.754297e-10
-4.719084e-09 -2.252978e-08 8.213342e-09 1.044698e-09 1.247997e-10 -1.965652e-10
2.347111e-11 -2.478912e-08 7.489056e-09 7.840400e-09 1.006927e-09 5.138384e-10
-1.239549e-09 -2.751483e-08 7.287660e-09 9.341051e-09 6.940569e-10 3.358122e-10
1.312356e-08 -1.656952e-09 -4.053762e-10 -1.539888e-08 2.984013e-11 -4.600491e-10
9.705215e-09 -2.650206e-09 -1.667974e-09 -1.189862e-08 2.518383e-11 9.764681e-10
1.943871e-09 -2.842644e-08 8.126124e-09 7.207346e-10 2.183553e-10 5.815448e-10
-1.345604e-09 -2.434135e-08 5.991524e-09 9.373712e-09 1.730845e-09 -6.291949e-10
2.426899e-09 -2.934567e-08 8.475841e-09 3.640999e-09 2.658271e-10 2.806803e-10
-7.825159e-09 -2.012091e-08 5.370052e-09 1.165739e-08 1.797165e-10 -8.496498e-10
-4.974074e-09 1.975008e-08 -5.294689e-09 2.686135e-09 7.945083e-09 -4.709861e-09
1.260536e-08 -3.181470e-09 -5.622125e-10 -1.156415e-08 -3.174639e-10 2.002888e-10
3.414859e-08 -2.905552e-09 2.273740e-08 -3.077868e-08 -6.125863e-09 9.292535e-09
6.625044e-08 -2.735160e-08 4.233671e-08 -3.713078e-08 -1.884502e-08 3.735301e-08
-5.973797e-08 -7.438120e-08 2.758455e-07 -1.766762e-08 -1.550010e-08 2.731848e-08
7.649972e-09 -1.284268e-09 -9.600081e-10 -1.408282e-08 -3.517157e-10 1.110387e-09
9.083069e-09 -2.128855e-09 -6.814465e-10 -1.245939e-08 1.799225e-10 -1.454623e-09
9.045612e-08 -2.255475e-08 1.432204e-08 -2.786319e-09 2.312134e-09 4.844046e-08
2.128478e-08 1.546628e-08 -8.286071e-09 1.073201e-08 -4.214475e-09 -2.228564e-09
4.908150e-08 -8.344601e-09 -3.983343e-10 -1.400605e-08 -2.791890e-09 4.092638e-09
6.280462e-09 -2.781815e-10 -1.358246e-09 -1.490943e-08 1.595227e-10 2.137113e-10
-3.978171e-08 -1.525479e-08 1.729110e-07 -4.846747e-08 -3.923192e-08 2.975884e-08
5.674148e-08 -2.146333e-08 1.817518e-09 -1.203590e-11 -4.940450e-10 2.740798e-09
-1.258731e-08 -9.759955e-09 3.999405e-09 2.466521e-09 1.619287e-09 -1.033109e-10
3.769351e-08 -2.950953e-09 1.271633e-08 -2.982585e-08 -4.418512e-09 9.176417e-09
1.249205e-08 -1.189436e-09 -3.766627e-10 -1.489059e-08 -8.608724e-11 -5.798864e-10
-1.569276e-08 1.900426e-08 -2.408878e-09 3.416613e-09 5.982922e-09 -1.376446e-09
3.300940e-08 1.776461e-08 -1.037367e-08 1.917139e-08 -4.249613e-10 3.843073e-11
-1.743935e-08 2.572378e-08 -6.078299e-09 -2.456812e-09 4.428655e-09 -2.677342e-09
1.669942e-09 1.461303e-08 -6.273288e-09 -5.004407e-09 1.180757e-09 -1.452319e-09
5.012579e-08 -1.155139e-08 -3.674079e-09 1.014196e-09 1.768706e-09 2.657154e-09
-1.327611e-08 2.132709e-08 -4.592111e-09 2.923119e-09 2.438424e-09 4.822793e-09
-1.262287e-08 3.300536e-08 -2.324522e-08 -2.329766e-10 -1.652000e-08 -1.321555e-08
6.654985e-08 -7.221583e-09 -1.111437e-08 7.971052e-09 2.439632e-10 1.091808e-08
-1.211538e-09 1.951686e-08 -5.291778e-09 -3.234397e-09 6.669760e-09 -1.054278e-09
-1.602248e-08 2.031678e-08 -5.436467e-09 9.588411e-10 6.946483e-09 -1.721253e-09
1.583374e-08 1.437030e-08 -5.085363e-09 -5.600995e-09 1.314066e-09 3.315142e-09
3.930871e-09 1.364409e-08 -5.837322e-09 5.162938e-10 4.748188e-09 9.648478e-10
-1.582979e-08 -9.667556e-09 8.086401e-08 2.108325e-08 -1.938144e-08 -2.066417e-08
3.670533e-08 -1.258941e-08 -7.256763e-08 -1.026691e-08 3.475096e-08 1.071989e-09
4.101251e-08 -2.738719e-08 -5.250448e-08 1.215893e-08 3.181557e-08 -3.480107e-09
6.798448e-08 -2.284550e-08 4.540242e-09 -8.664699e-09 -1.399605e-09 1.184821e-08
2.417169e-09 4.250072e-08 -7.260613e-08 -1.489348e-08 -8.760370e-09 -1.069366e-09
4.069261e-08 -1.120707e-08 -7.794166e-08 1.669434e-08 3.591083e-08 -8.822575e-09
3.754983e-08 -1.845345e-08 -7.101488e-08 -3.890422e-09 1.441786e-08 6.038033e-09
3.929325e-08 -1.461009e-08 -6.972682e-08 4.336413e-09 7.706416e-09 -9.168146e-09
3.199157e-08 1.070752e-08 -7.088968e-09 -1.364332e-08 6.328919e-11 4.090060e-09
-9.968947e-09 1.776933e-08 1.039343e-08 1.726896e-08 -3.551898e-09 -2.200656e-09
3.624191e-08 -3.771511e-08 -4.972511e-08 -1.066738e-08 3.040199e-08 3.938987e-09
3.675179e-08 -1.302502e-08 -7.482328e-08 -1.004453e-08 1.547958e-08 -7.534728e-10
-4.886660e-09 -1.156290e-08 7.741803e-08 2.331726e-08 -8.600083e-09 -5.543667e-09
-1.299847e-08 -2.803132e-08 1.150390e-07 9.876192e-09 -1.567766e-09 -2.163725e-08
2.071746e-09 -1.526164e-08 7.924663e-08 -2.493497e-08 1.468701e-08 -1.622881e-08
1.153027e-08 -2.112662e-08 7.054077e-08 1.154258e-08 -4.642733e-09 -1.935351e-08
5.988776e-09 -5.154027e-09 4.548126e-08 -3.088474e-08 1.009350e-08 -1.762093e-09
7.899701e-08 -3.933737e-08 5.489270e-08 -6.720043e-09 -3.694110e-09 5.297828e-08
-1.501049e-09 -2.328557e-08 6.700551e-08 -1.521196e-08 -2.110550e-09 -7.070223e-09
-1.012504e-08 2.360854e-08 -1.572759e-08 1.444021e-10 -6.119764e-09 -7.406937e-09
1.082944e-08 -1.368281e-09 4.828233e-08 -2.567135e-08 2.180534e-09 -2.011102e-08
-1.459419e-08 2.358650e-08 -1.364350e-08 -2.579186e-09 -1.669946e-09 8.614204e-18
-2.433242e-09 7.220457e-09 2.412332e-09 1.337131e-08 1.458514e-10 3.815792e-10
3.639864e-09 7.141748e-08 -8.766788e-08 -1.743070e-08 -3.225169e-08 -1.259620e-08
6.803122e-08 -1.274042e-08 -9.118810e-09 -7.664890e-09 -2.309545e-09 1.450939e-08
-2.386674e-09 7.218561e-09 2.660658e-09 1.337282e-08 -3.506339e-10 -1.717093e-09
-1.449539e-09 3.058747e-09 9.286544e-09 1.491351e-08 4.375195e-10 6.223565e-10
5.646394e-09 1.596888e-08 -1.446393e-08 6.761632e-09 -4.546212e-09 -6.850476e-09
5.732462e-09 2.909618e-09 7.083258e-09 1.590151e-08 -1.220434e-09 -5.227865e-09
-3.773313e-09 7.079366e-09 4.060516e-09 1.292691e-08 9.311274e-11 5.309602e-10
-1.593687e-09 6.533307e-09 6.655557e-09 1.610295e-08 -1.784705e-11 -7.514879e-10
6.981795e-08 -2.800744e-08 9.368132e-09 -2.706682e-09 1.560456e-09 1.597073e-08
2.391249e-08 2.021390e-08 -1.335605e-08 2.003715e-08 1.841975e-10 -1.895801e-09
6.069256e-09 6.642563e-09 9.584720e-09 2.015137e-08 -6.053818e-10 -9.287997e-10
1.393044e-08 3.318183e-08 -8.939718e-08 -2.126965e-08 3.850895e-08 1.303038e-08
8.870223e-09 -1.200905e-09 6.601718e-09 1.470323e-08 -8.602493e-10 -3.160791e-09
4.300593e-09 -1.578887e-09 1.357722e-08 1.670561e-08 -7.909656e-10 -1.893653e-09
-3.114057e-10 2.654113e-08 -1.054041e-08 -1.100896e-08 3.878075e-09 -9.787057e-09
1.618022e-08 -6.392601e-09 2.268993e-08 1.887585e-08 -6.608244e-09 -1.334762e-08
1.727280e-08 -5.279310e-09 1.495010e-08 1.526503e-08 -9.131778e-10 -4.809353e-09
5.837799e-09 -3.394297e-09 1.501268e-08 1.746216e-08 -1.421735e-09 -4.380094e-09
1.118481e-08 -5.023732e-09 7.528056e-09 1.384450e-08 1.329427e-10 -1.214372e-09
5.885795e-08 -2.538752e-08 9.967647e-09 -1.146719e-08 -6.214694e-10 2.238063e-09
1.625649e-08 -7.907075e-09 8.703177e-09 1.134606e-08 -6.329272e-10 -2.151680e-09
1.801785e-09 -1.968118e-08 -4.230299e-09 1.976525e-08 1.407733e-09 7.170198e-11
-3.013365e-09 -2.199874e-08 5.465125e-09 1.127390e-08 2.122766e-09 -1.453147e-10
-2.251126e-08 2.461785e-08 -1.984248e-08 1.760993e-08 1.749920e-08 -1.587124e-08
-7.451728e-11 4.292377e-09 3.928343e-09 1.302744e-08 -3.654001e-10 -1.640917e-09
1.356330e-08 -4.289404e-09 7.482569e-09 1.237639e-08 3.775252e-10 -1.437527e-09
-1.080085e-08 -1.410847e-08 6.894211e-09 2.395976e-09 1.727444e-09 -1.850490e-10
1.247728e-09 2.861995e-09 1.692095e-09 1.094029e-08 3.104516e-11 -6.988770e-10
-4.568972e-09 5.695038e-09 -1.337310e-09 -9.034230e-09 3.742184e-11 2.004836e-10
1.281964e-08 -4.138861e-08 7.260342e-09 1.291891e-09 1.219296e-10 -7.389641e-11
-4.946577e-09 7.438543e-09 2.666465e-09 1.143648e-08 -8.933428e-10 -2.517478e-09
1.716697e-08 1.595751e-08 -6.757767e-08 -1.862707e-08 -1.396641e-08 -3.139888e-09
-3.625513e-09 5.898848e-09 1.463947e-09 1.079919e-08 -4.944639e-10 1.708425e-10
5.812294e-09 -1.137861e-09 4.281570e-09 1.190572e-08 -6.422914e-10 -1.604041e-09
-7.794157e-09 8.260825e-09 5.619704e-08 3.152182e-08 -1.937054e-08 -1.511863e-08
2.375724e-09 3.247621e-09 7.502128e-10 1.147518e-08 2.410763e-10 -9.046208e-11
-5.866016e-08 2.974525e-09 1.653415e-07 -4.637508e-08 2.472449e-08 -3.449087e-08
-3.346619e-08 4.566896e-08 3.209704e-08 -4.213347e-08 1.092899e-08 -1.279512e-08
-1.092972e-08 1.057112e-08 1.040037e-09 8.660147e-09 5.180836e-10 2.985669e-10
-4.047740e-09 9.712989e-09 -4.292255e-09 -1.335439e-08 -1.937801e-09 2.336379e-09
-3.490486e-08 -1.540789e-09 1.731071e-07 -3.187665e-08 3.707966e-08 -5.037835e-08
-2.598607e-08 8.117569e-09 6.831555e-08 2.911942e-08 -2.055655e-08 -1.299129e-08
-1.313973e-08 2.985819e-08 1.205121e-07 -6.001488e-08 4.781993e-08 -4.606835e-08
-8.217544e-08 5.172796e-08 1.799490e-07 -6.538755e-08 8.389902e-08 -6.402967e-08
7.893383e-10 9.606046e-08 -1.380792e-07 -2.609459e-08 3.233479e-08 2.999222e-08
-2.640476e-08 4.635465e-08 2.099800e-08 -4.438924e-08 8.409248e-09 -7.211159e-09
-2.440971e-09 8.915237e-09 1.924570e-08 2.423743e-08 -4.839304e-09 -8.975755e-09
-1.301684e-08 4.055099e-08 1.880389e-08 -4.710921e-08 3.438831e-09 -1.085771e-08
-1.636251e-08 2.195330e-08 1.272318e-08 1.708695e-08 -7.567907e-10 2.716256e-10
-1.289218e-08 4.336249e-08 3.553647e-08 -4.407253e-08 1.035914e-08 -4.358160e-09
3.743552e-08 -3.170675e-08 7.191773e-08 5.842133e-08 3.109568e-08 5.048368e-08
1.965927e-08 -4.354440e-10 -7.895032e-08 -3.457179e-08 3.507764e-08 2.285323e-08
4.282992e-08 -4.992479e-09 -9.016147e-08 -8.145266e-09 4.509251e-08 6.572985e-10
3.755288e-08 1.720740e-09 -7.427745e-08 -6.640190e-09 3.423426e-08 1.292828e-09
1.923037e-08 -6.486076e-10 -5.962610e-08 -2.831539e-08 2.634299e-08 1.265030e-08
9.208125e-09 -3.023622e-08 3.976389e-09 -8.192014e-09 4.853756e-10 3.847704e-10
-2.941965e-09 -2.292589e-08 1.375169e-09 1.503171e-08 5.682066e-09 -1.154583e-10
1.230572e-08 -6.469187e-09 -1.361026e-09 1.294426e-09 6.088170e-11 -1.896905e-10
1.032913e-09 -9.060609e-09 1.130613e-07 2.455306e-08 -2.504683e-08 -6.089494e-08
1.261483e-08 -1.043068e-08 -4.165136e-08 3.417493e-08 1.984938e-08 -8.268349e-09
5.158561e-08 9.104685e-09 -9.739157e-09 -1.743187e-08 -3.439547e-09 1.591694e-08
5.264642e-08 2.281347e-08 -8.729921e-09 -4.847603e-08 -2.737160e-08 2.148698e-08
6.530302e-08 -2.644049e-08 2.290186e-09 -7.774963e-10 8.572515e-10 1.986072e-09
6.112756e-08 2.018915e-08 -2.959889e-08 -2.913709e-08 -8.917803e-09 1.372627e-08
7.419600e-08 -9.964763e-09 -2.042257e-08 -3.244895e-09 -1.029774e-09 1.332376e-08
6.284979e-08 -2.175541e-08 2.207188e-09 -4.195929e-09 9.462615e-11 6.474377e-09
7.985567e-09 2.766869e-08 6.779435e-09 -3.225189e-08 -1.074807e-08 4.374190e-09
3.663733e-08 -1.326426e-08 3.727227e-08 -2.994193e-08 -3.691427e-09 2.881517e-09
3.219235e-08 -2.251545e-08 -4.937083e-08 -2.595950e-08 2.434858e-08 1.070773e-08
8.996730e-09 1.399819e-09 3.442303e-08 2.838067e-08 -1.130463e-08 -1.462865e-08
3.618304e-08 2.675926e-09 -8.777789e-08 -8.560962e-09 1.120447e-08 -4.321158e-09
-1.376706e-08 6.444523e-09 -8.436185e-10 -7.549786e-09 1.043251e-09 -1.865836e-10
8.281896e-09 -1.283806e-09 7.767296e-09 1.465670e-08 -2.286591e-11 -3.141775e-09
-1.281534e-08 8.535374e-09 6.994116e-10 2.353385e-10 -2.708869e-10 -1.021131e-09
-1.410088e-08 1.251611e-08 -1.425860e-09 -2.476172e-09 1.484068e-09 1.068884e-09
-1.243681e-08 9.492146e-09 3.024390e-10 1.151202e-09 4.344485e-10 -7.718027e-11
2.603894e-08 -1.494186e-08 3.854742e-08 9.073750e-09 -3.353777e-09 -1.759743e-08
2.520208e-08 -1.642237e-08 4.145030e-08 -4.462816e-09 1.969462e-09 -2.098121e-08
-1.564226e-08 1.176389e-08 -1.848391e-09 -3.678270e-09 5.968825e-10 1.377608e-10
-1.138111e-08 9.316776e-09 6.156551e-10 1.318920e-09 3.041747e-10 -4.098839e-10
-2.569154e-09 6.760128e-09 6.821169e-09 1.715676e-08 -1.657568e-09 -4.081093e-09
1.735658e-08 -1.698144e-08 3.852453e-08 1.328216e-08 -2.654905e-09 -1.905533e-08
2.276096e-08 -2.092828e-08 4.887644e-08 1.555604e-09 -1.104897e-10 -2.148428e-08
1.886414e-08 -1.836637e-08 4.671286e-08 2.806624e-10 7.019957e-11 -1.523324e-08
3.123666e-09 2.917235e-09 6.930055e-09 1.603282e-08 -5.608045e-10 5.863907e-10
3.038229e-08 -1.724083e-08 3.814056e-08 -3.858018e-09 1.539676e-09 -2.197131e-08
-2.057300e-08 2.787601e-08 3.648155e-09 1.363052e-08 -2.282702e-09 3.852357e-09
1.501136e-08 -1.752869e-08 4.947168e-08 6.408806e-09 2.927213e-09 -1.277359e-08
2.844288e-08 -1.673608e-08 3.924654e-08 -3.897713e-09 7.924653e-10 -2.193037e-08
1.811875e-08 -1.040100e-08 2.435398e-08 -1.758071e-08 4.204106e-09 -7.039940e-09
1.229878e-08 -1.629932e-08 4.819471e-08 -1.552679e-08 9.290482e-10 -8.167295e-09
1.370364e-08 -1.716867e-08 3.523189e-08 -6.817647e-10 -5.661401e-10 -6.347376e-09
9.147649e-08 -8.150687e-10 -1.671317e-08 1.409196e-08 2.802676e-09 2.825129e-08
1.683896e-08 -1.414663e-08 2.103233e-08 -1.283973e-08 4.637290e-10 -5.475188e-09
1.719184e-08 -1.386957e-09 1.026598e-08 -2.426422e-08 1.219870e-09 -2.483720e-09
9.039427e-09 -1.457911e-09 3.228187e-10 -1.632358e-08 1.721326e-10 3.693763e-11
5.235478e-08 -2.231448e-09 -9.103139e-09 -9.841172e-09 1.684027e-09 8.591433e-09
6.257629e-08 -1.559736e-08 -1.771943e-09 8.441037e-12 1.955979e-09 1.273214e-09
1.527701e-08 -1.262527e-09 6.076371e-10 -1.881140e-08 1.359958e-09 -2.026950e-09
1.451586e-08 -4.157426e-09 5.261716e-10 -1.420191e-08 2.599481e-10 -1.938542e-09
1.211495e-08 -4.902097e-09 6.980307e-09 -1.680372e-08 7.993851e-10 -3.637799e-09
3.386037e-08 -1.638666e-09 1.127531e-09 -2.067857e-08 1.116510e-09 2.623809e-09
1.779010e-08 -5.210188e-09 1.467135e-09 -1.397444e-08 -1.137981e-10 -9.772541e-10
1.633448e-08 -5.240955e-09 -5.232597e-10 -1.253730e-08 -9.376810e-10 1.199895e-09
5.828651e-08 -2.152846e-08 4.418995e-09 -9.875987e-09 -1.791433e-09 4.447599e-09
7.624726e-08 -9.463401e-09 -6.076515e-09 1.162428e-08 6.953544e-09 1.755720e-08
1.561050e-08 -4.081860e-09 3.815634e-09 -1.818790e-08 2.167575e-09 -9.322723e-10
2.077460e-08 -4.571106e-09 2.228480e-10 -1.716424e-08 7.660860e-10 2.444060e-10
-2.283817e-09 2.492942e-09 7.265930e-10 6.660322e-09 -1.325069e-10 -9.367315e-10
8.736448e-08 -3.909824e-08 3.120033e-08 -1.422778e-08 -1.042717e-08 5.066243e-08
6.592565e-08 -2.739996e-08 4.584017e-08 -4.072593e-08 -2.771917e-08 5.112717e-08
-6.531724e-09 5.843280e-09 9.768777e-10 5.550632e-09 4.945415e-10 -2.315881e-11
-3.235359e-09 1.831388e-09 3.333822e-10 5.196179e-09 5.642950e-10 3.471692e-10
7.386953e-10 1.170392e-09 2.879927e-10 6.981163e-09 -1.326592e-10 -2.745904e-10
-5.404148e-10 1.163163e-09 4.722329e-10 6.702714e-09 -3.719508e-10 -7.416312e-10
5.518442e-08 -1.356225e-08 -2.936936e-09 -4.192563e-09 -4.739865e-10 3.109751e-09
-5.107783e-09 3.661462e-09 7.303651e-10 4.345009e-09 6.122048e-10 8.692979e-11
7.828790e-08 -3.446913e-08 3.409287e-08 -1.775935e-09 1.530652e-09 2.344453e-08
-5.874812e-10 2.516161e-09 4.653127e-10 6.928966e-09 5.205525e-11 -3.634630e-10
6.023632e-08 -3.466914e-08 4.931156e-08 -1.534609e-08 -3.310130e-09 1.785197e-08
2.299628e-08 1.273739e-08 -3.760501e-10 -2.268496e-08 -4.956743e-09 9.268677e-09
3.150780e-08 -3.041939e-09 -4.755409e-10 -9.853931e-10 6.883525e-10 1.285636e-09
6.761722e-08 -3.245748e-09 -6.384585e-09 -1.631629e-08 -6.491362e-09 1.583714e-08
6.398767e-08 -2.770778e-08 1.161663e-08 7.069936e-09 8.269844e-12 1.972853e-09
-4.031108e-09 3.239856e-09 8.169878e-10 5.984755e-09 -4.934845e-10 -6.465828e-10
5.002832e-08 -9.594309e-09 -7.425383e-09 -1.295401e-10 2.250758e-10 3.776001e-09
2.667696e-08 -1.207571e-08 8.682397e-09 2.215879e-09 -2.809640e-10 -3.426425e-09
2.447181e-08 -1.504847e-08 1.614196e-08 -2.189781e-09 7.269130e-10 -6.196274e-09
-1.614858e-08 3.536478e-08 -1.616129e-08 -2.618179e-09 1.799175e-09 -2.567196e-09
2.442070e-08 -1.564758e-08 1.893106e-08 -1.981879e-09 2.409346e-10 -6.286351e-09
6.747471e-08 -8.285867e-09 -6.292920e-09 -5.637518e-09 1.274591e-09 1.584794e-08
5.900003e-08 -1.614272e-08 1.909056e-08 -2.424640e-08 -9.817793e-09 2.520806e-08
7.638319e-08 -9.708931e-09 -3.871692e-09 -4.411416e-09 -4.632214e-09 1.913070e-08
6.965771e-08 -8.032074e-09 -1.589810e-08 -6.798648e-09 -1.781183e-09 9.428836e-09
7.153587e-08 -3.253174e-08 1.617348e-08 1.198490e-08 5.116652e-09 2.679403e-08
2.524789e-08 -1.219311e-08 7.484164e-09 1.263505e-09 2.595589e-10 -1.892097e-09
6.031706e-08 -1.342638e-08 1.385258e-09 2.622381e-08 9.176044e-09 2.140445e-08
6.153103e-08 2.076959e-08 3.130121e-08 -5.283541e-08 -2.849920e-08 4.091906e-08
2.463583e-08 -1.431783e-08 1.502361e-08 -1.317325e-09 7.967510e-10 -5.119131e-09
-5.637270e-09 2.771037e-09 7.972445e-10 9.956049e-10 1.803138e-10 -1.106126e-10
-2.720481e-09 2.181405e-09 6.741332e-10 4.299676e-09 7.288170e-11 -1.877920e-11
-4.928094e-09 2.491498e-09 9.914674e-10 2.554569e-09 2.182387e-10 -3.690497e-11
-5.188564e-09 2.125678e-09 1.196746e-09 2.957928e-09 1.925686e-10 -1.286941e-10
-7.621531e-09 2.483397e-09 1.710168e-09 6.963101e-10 1.360965e-10 -5.233509e-12
-6.218121e-09 2.705555e-09 1.229107e-09 3.011258e-09 -1.419056e-10 6.272761e-12
-5.805550e-09 3.019799e-09 9.232726e-10 1.228238e-09 5.845813e-11 -5.060929e-11
-4.425092e-09 2.555221e-09 7.048566e-10 1.796417e-09 6.245804e-11 -4.640763e-11
-6.450721e-09 1.990305e-09 1.369686e-09 1.514361e-09 3.670540e-12 -6.934178e-11
-8.006610e-09 4.995281e-09 1.126619e-09 2.931666e-09 -6.054946e-12 -5.494667e-10
-3.640935e-09 2.737022e-09 6.535987e-10 4.872543e-09 6.591579e-10 -2.745307e-10
-6.401134e-09 2.798911e-09 1.137263e-09 1.121091e-09 1.033885e-10 -1.365628e-10
-3.803238e-09 2.427535e-09 6.566592e-10 5.207881e-09 6.477894e-10 -2.886555e-10
-6.559699e-09 2.650457e-09 1.037222e-09 2.093601e-09 6.920027e-10 -2.476313e-10
-5.485756e-09 2.737069e-09 1.204294e-09 2.724500e-09 1.081470e-10 -1.363041e-10
-6.859750e-09 1.937309e-09 1.472576e-09 1.372672e-09 2.224976e-10 -3.511758e-10
-1.856837e-08 1.385067e-08 -9.264062e-09 -6.008399e-09 -5.598890e-10 -7.708065e-10
-6.074463e-09 3.112933e-09 1.460461e-09 2.622018e-09 1.479286e-10 1.050473e-10
-6.624707e-09 8.382067e-09 -2.203015e-08 -1.496607e-08 -6.967798e-09 -3.410169e-09
-1.052002e-08 4.894090e-08 -5.479228e-08 -9.034058e-09 -2.279518e-08 -2.247824e-08
-1.196255e-08 5.387304e-08 -5.132281e-08 -1.846308e-08 2.301605e-08 1.780928e-08
-8.502696e-09 -6.963397e-09 -6.686790e-09 -7.026346e-09 3.585492e-10 7.780634e-10
-2.343031e-08 6.278920e-08 1.376913e-08 1.136984e-08 -1.380864e-08 1.436201e-08
-2.266935e-09 5.951441e-08 -6.681703e-08 -6.077977e-09 5.463400e-09 5.144738e-09
7.660125e-09 4.460936e-08 -7.819033e-08 -1.935567e-08 2.705577e-08 1.245115e-08
-1.059173e-08 3.457103e-08 -3.461109e-08 -5.788787e-09 -3.926372e-09 7.990080e-10
-7.333110e-09 -2.216209e-09 -1.478805e-08 -1.305102e-08 -5.326659e-09 -3.554152e-10
-1.390679e-08 -4.076397e-09 6.212200e-10 -1.247989e-08 -9.363800e-09 -2.782712e-09
-1.105967e-08 3.370705e-08 -4.571104e-08 -2.318376e-08 7.328351e-09 8.668978e-09
-1.519383e-08 2.720770e-08 -2.336069e-08 -8.909200e-09 -1.068963e-08 -9.747529e-09
-1.648217e-08 2.600609e-08 -1.871137e-08 -4.153673e-09 -3.271536e-09 -1.988376e-09
-5.854577e-09 -2.803472e-10 -2.158686e-08 -1.887703e-08 -1.361780e-08 -5.121734e-09
-1.316910e-08 8.220342e-09 -1.553212e-08 -1.320083e-08 -1.030752e-08 -4.518065e-09
-1.586302e-08 1.838065e-08 -1.787100e-08 -6.329114e-09 -4.807205e-09 -1.232625e-09
1.009289e-07 -1.925326e-08 -9.489180e-10 3.187104e-09 1.334737e-09 4.438906e-08
-1.071870e-08 3.510694e-08 -4.222234e-08 -1.030758e-08 -6.197560e-09 -5.720243e-09
-1.227846e-08 3.418154e-08 -3.738842e-08 -4.274638e-09 -2.306677e-09 -1.420505e-09
-1.618600e-08 2.557374e-08 -1.858500e-08 -4.818045e-09 -5.181472e-09 -3.899003e-09
-1.003412e-08 3.415724e-08 -2.508560e-08 1.717182e-09 -8.958981e-09 -1.085407e-08
-3.399803e-09 3.729044e-09 -1.689271e-11 -2.252756e-09 8.674528e-11 -1.792442e-10
-1.340875e-08 2.068897e-08 -2.056256e-08 -1.003148e-08 -9.963972e-09 -7.236107e-09
-7.888315e-09 3.426987e-08 -2.131249e-08 6.401591e-09 -6.033964e-09 -7.139383e-09
-1.173543e-08 4.654069e-08 -5.705560e-08 -1.741311e-08 3.397651e-09 1.330781e-08
-6.405807e-09 3.440490e-08 -6.172385e-08 -2.716902e-08 2.053475e-08 2.072839e-08
-6.007715e-09 4.641578e-09 4.416441e-10 -2.454868e-09 1.126139e-10 1.680457e-11
-1.676585e-08 2.350586e-08 -3.440671e-08 -1.932737e-08 4.338790e-09 2.914509e-09
-2.817630e-08 3.404536e-08 -1.452698e-08 -1.059495e-08 3.749068e-09 9.021038e-09
-1.726781e-08 4.294986e-08 -3.534937e-08 -1.266929e-08 6.399113e-09 5.124911e-09
-1.876049e-08 4.491462e-08 -1.949215e-08 -2.052508e-09 1.467535e-09 9.566223e-09
-3.261940e-08 6.110559e-08 -4.431492e-08 -1.371482e-08 1.111177e-08 2.729179e-08
-2.650485e-08 4.292804e-08 -2.254522e-08 -6.691604e-09 3.007779e-09 9.335398e-09
2.688561e-09 -3.241022e-08 6.756738e-09 9.237314e-09 5.277992e-10 -3.794951e-10
3.621352e-09 -3.144416e-08 6.708057e-09 8.895238e-09 1.168975e-09 1.126151e-10
2.546618e-08 -4.039072e-08 -1.418577e-08 6.949503e-09 7.453979e-09 -1.578219e-09
-1.015105e-08 5.872151e-09 -3.118740e-09 -1.201557e-08 -2.051927e-10 2.836531e-10
3.221570e-09 -3.284111e-08 8.892288e-09 7.436155e-10 2.496872e-10 -4.216759e-11
-2.451654e-08 3.373276e-08 -1.127548e-08 1.565395e-09 1.077937e-09 5.909628e-10
8.578830e-09 -3.614712e-08 7.059771e-09 4.424519e-09 -9.141643e-10 -8.770676e-11
1.154757e-08 -4.116512e-08 4.726772e-09 6.970217e-09 5.441037e-10 -1.357431e-10
7.890411e-09 -3.597626e-08 3.819803e-09 1.095903e-08 1.873051e-09 2.600554e-10
-3.799457e-09 -1.714711e-08 1.089498e-09 1.515814e-08 1.180063e-09 8.159621e-12
4.672979e-09 -3.297694e-08 2.342080e-09 1.258838e-08 2.558302e-09 2.904614e-10
1.019737e-08 -3.900783e-08 7.292704e-09 4.959251e-09 4.547299e-10 4.541012e-10
5.300000e-09 -3.345534e-08 6.412689e-09 8.308652e-09 1.285224e-09 -5.455615e-10
8.892833e-09 -3.818984e-08 6.182600e-09 6.858860e-09 4.544529e-10 6.515201e-10
8.916218e-09 -3.957593e-08 7.380303e-09 6.090652e-09 1.078037e-09 7.874651e-11
-3.685049e-09 3.366808e-09 1.692513e-11 -2.987988e-09 -2.348102e-10 -1.811471e-10
1.477611e-08 -4.340107e-08 5.968444e-10 7.729351e-09 1.307310e-09 -3.043377e-10
1.085712e-08 -3.962120e-08 2.825234e-09 9.001551e-09 5.630296e-10 6.845434e-10
7.890411e-09 -3.667492e-08 6.369695e-09 8.792047e-09 2.307279e-10 -2.433789e-10
-2.708074e-09 4.404030e-08 -6.068602e-08 -1.232130e-08 -1.041338e-08 -1.019059e-08
-2.618646e-09 4.449157e-08 -1.865997e-08 -3.242503e-08 4.371189e-09 9.068725e-09
-7.386291e-09 4.978062e-09 6.060976e-10 -1.932016e-09 -6.385509e-11 -4.558663e-10
-5.071049e-09 4.339915e-09 2.972023e-10 -3.275988e-09 -1.044771e-10 -1.028990e-10
-1.494236e-09 -2.276996e-08 5.037348e-09 1.104701e-08 1.284727e-09 1.686498e-10
3.022605e-08 -3.875865e-08 -3.124128e-08 1.095119e-08 1.184628e-08 -2.865917e-09
-6.845103e-09 4.842787e-09 7.242056e-10 -2.531332e-09 -6.609807e-11 -1.919137e-10
-7.757992e-09 4.871754e-09 4.888014e-10 -3.920807e-09 -2.260323e-10 -1.846794e-10
1.755586e-09 1.153402e-09 -9.035261e-10 -1.033434e-08 -6.853940e-11 2.348191e-10
-6.782990e-09 4.595261e-09 3.134168e-10 -4.268972e-09 2.710809e-11 -1.022222e-10
-8.164637e-09 4.977455e-09 7.268550e-10 -1.977551e-09 -1.639602e-11 -2.251255e-10
-2.082973e-09 2.445536e-09 -2.135661e-10 -2.154557e-09 -2.722906e-10 -8.938517e-11
-4.862021e-09 4.222166e-09 2.513207e-10 -3.997848e-09 3.275347e-11 -3.296396e-11
-4.284029e-09 4.242548e-09 2.549700e-10 -1.347544e-09 5.159810e-12 1.399940e-10
-4.188381e-09 3.836199e-09 1.110463e-10 -2.766172e-09 -3.466250e-11 2.257052e-10
-7.767943e-09 4.678755e-09 7.884653e-10 -3.406284e-09 -2.848306e-10 -6.855413e-10
-5.711119e-09 4.521945e-09 5.640914e-10 -3.035101e-09 -3.444943e-10 -1.351111e-10
-7.797763e-09 4.698379e-09 9.919114e-10 -2.150505e-09 -1.055563e-10 4.864190e-11
3.570867e-08 -2.742339e-08 -5.895467e-08 -6.284594e-09 9.043592e-09 3.755772e-10
-1.221149e-08 6.332822e-09 -1.190341e-10 -4.579041e-09 1.268636e-09 7.119402e-10
-1.144475e-08 -1.467757e-09 -1.516092e-09 -1.134390e-08 1.766954e-09 3.724743e-10
-1.792261e-08 1.554123e-08 -1.322503e-09 -1.358140e-10 -1.177083e-10 -3.563172e-11
-1.450466e-08 1.611055e-08 6.443903e-10 4.421929e-09 -4.374710e-10 -6.285152e-10
-8.385609e-09 -2.485902e-08 1.023406e-09 -2.468589e-08 -1.489411e-08 -6.739761e-09
-1.493163e-08 1.375313e-08 -2.976634e-09 -5.922600e-09 2.532508e-09 1.837328e-09
-1.307637e-08 1.036077e-08 -3.926512e-10 -1.113022e-09 3.810816e-10 3.032385e-11
-1.275225e-08 8.570640e-09 -1.413607e-10 2.857957e-10 1.201258e-09 3.321199e-10
1.024930e-08 -1.703734e-08 5.835784e-08 -1.626892e-08 -2.377688e-09 -1.270946e-08
1.182976e-08 -2.229571e-08 8.450089e-08 -5.082576e-09 6.028864e-09 -2.996646e-08
1.643403e-09 -1.097069e-08 8.348063e-08 2.199606e-08 -9.323399e-09 -3.160194e-08
2.321185e-09 -1.439098e-08 -1.706185e-08 -1.483166e-08 -2.238857e-09 -6.950086e-10
-9.365766e-09 -2.693880e-10 -3.452053e-09 1.579909e-09 -1.265450e-09 5.703735e-10
-1.499516e-08 -3.855200e-09 2.316001e-09 -5.077423e-10 -8.298570e-10 -9.447447e-10
-2.645156e-08 1.088479e-07 -8.789202e-08 -1.694317e-08 -1.225183e-08 -3.112480e-08
3.764033e-09 -2.000659e-08 6.408532e-08 5.636759e-09 -1.553062e-09 -1.121842e-08
-2.536497e-08 1.189107e-08 5.839436e-08 3.241385e-08 -3.281785e-09 8.862036e-10
1.150476e-08 -6.002205e-09 -1.495756e-09 -4.448065e-10 -3.897244e-11 1.724174e-10
-2.141908e-08 1.587763e-08 9.209369e-08 3.462864e-08 -2.870022e-08 -1.997804e-08
-2.654630e-08 2.198498e-08 4.868657e-08 2.673848e-08 -2.320327e-08 1.384598e-10
-7.403401e-09 3.946451e-09 1.104348e-09 2.880272e-10 2.800860e-11 6.814549e-12
-6.437480e-09 8.571603e-09 9.121898e-08 3.608079e-08 -2.808757e-08 -3.415092e-08
-5.442575e-09 2.724599e-09 8.303216e-10 1.689283e-09 1.317098e-10 -2.307554e-10
-2.845732e-08 6.124808e-08 4.651752e-08 1.861044e-08 8.746058e-09 -9.164711e-10
-6.616650e-09 2.839546e-09 1.249095e-09 1.061599e-09 2.815703e-11 -4.783730e-12
-6.192135e-09 2.482362e-09 1.161062e-09 1.442754e-09 3.549533e-11 -1.646683e-12
-7.247372e-09 2.870180e-09 1.394935e-09 1.312695e-09 2.045447e-10 -1.961271e-10
-6.094025e-09 2.615886e-09 1.064345e-09 2.061682e-09 5.704773e-11 -3.166058e-10
-5.798140e-09 2.569424e-09 1.047754e-09 1.871139e-09 -8.187589e-11 1.291126e-10
-6.348577e-09 2.898020e-09 1.114279e-09 1.203781e-09 4.749090e-11 1.601685e-10
-5.695382e-09 2.752233e-09 1.130766e-09 1.331504e-09 -3.118749e-11 1.310808e-10
1.988458e-08 -1.570953e-08 1.306335e-08 -2.602482e-09 8.957133e-10 -1.057312e-09
2.229401e-08 -1.591319e-08 2.980602e-08 5.033983e-09 -3.985603e-10 -1.306434e-08
2.203800e-08 -1.557522e-08 2.678246e-08 7.458739e-09 2.222864e-10 -7.484775e-09
2.516461e-08 -1.339775e-08 1.359434e-08 -5.083189e-09 1.423494e-09 -1.017186e-08
2.531313e-08 -1.575961e-08 2.383118e-08 -2.805531e-09 -2.466722e-10 -2.886179e-09
1.858062e-08 -8.281190e-09 1.605825e-08 -1.908448e-08 3.678542e-09 -9.931856e-09
2.092391e-08 -4.037583e-08 -1.055642e-08 7.862227e-09 -1.641333e-08 3.556774e-09
3.437271e-08 -1.575205e-08 2.785341e-08 -7.329444e-09 4.344060e-10 -1.062972e-08
2.078799e-10 3.133611e-09 6.026872e-10 9.256514e-09 4.282168e-10 4.616942e-10
-4.851863e-09 7.107049e-09 7.226690e-10 8.442236e-09 5.843996e-10 -4.916077e-10
-1.416061e-08 -1.261834e-08 4.938757e-09 -1.042827e-08 -4.871047e-09 -1.371139e-09
-7.556253e-09 1.008996e-08 1.070465e-09 8.136094e-09 -1.500842e-10 -2.496359e-10
1.468097e-08 1.564629e-08 -6.917266e-09 -1.797244e-08 -3.265065e-09 -1.501822e-09
-5.021373e-09 4.577591e-09 1.003657e-09 5.822460e-09 9.114048e-12 -4.968905e-10
-1.073304e-08 7.089152e-09 9.860042e-10 -9.810630e-10 -4.644913e-10 -2.085269e-10
-1.039873e-08 8.107303e-09 8.142678e-10 3.271547e-09 9.077445e-10 -2.919369e-10
1.385170e-08 5.023136e-08 -1.124773e-08 2.809672e-08 1.510648e-09 -4.264436e-09
-1.136213e-08 5.120022e-09 4.904974e-10 -1.161523e-09 1.070829e-09 3.301077e-10
-1.826063e-08 8.621885e-10 2.442532e-09 -1.477359e-09 -3.552884e-09 -6.354434e-11
-1.038970e-08 8.107315e-09 7.688974e-10 3.278519e-09 -2.412359e-10 -4.809086e-11
6.170828e-08 -8.117891e-10 -1.237221e-08 1.415248e-08 2.598054e-09 8.344231e-09
8.465659e-08 -1.153758e-08 -1.970972e-09 3.293371e-08 1.462616e-08 4.096261e-08
3.814938e-08 1.091435e-09 -1.425772e-09 1.451049e-08 -5.927841e-10 -3.977366e-09
-6.254034e-09 5.650598e-09 9.299970e-10 5.584470e-09 -1.766094e-10 -4.877325e-10
4.917033e-08 -2.147172e-08 9.055972e-09 -1.059941e-08 -2.362781e-09 7.208029e-09
-6.954471e-09 3.212098e-09 1.184286e-09 1.101500e-09 6.367351e-11 -7.076767e-11
-6.559253e-09 3.204645e-09 1.072856e-09 1.145220e-09 3.445000e-11 1.456826e-10
-7.855945e-09 4.115441e-09 1.113688e-09 1.044596e-10 6.190604e-12 -2.486211e-11
-7.806380e-09 3.668392e-09 1.177210e-09 5.416528e-10 1.012493e-10 -2.745106e-10
-7.195184e-09 3.394401e-09 1.112436e-09 6.400756e-10 1.220045e-10 -4.717667e-11
-6.270570e-09 3.332664e-09 8.067067e-10 8.061578e-10 9.569767e-11 -1.401349e-10
-7.700107e-09 4.123427e-09 1.082229e-09 1.394524e-10 2.720790e-11 -3.369605e-11
-6.359675e-09 3.333056e-09 8.351424e-10 7.886358e-10 9.085577e-11 -8.913981e-11
-6.166452e-09 3.013369e-09 9.235466e-10 9.373875e-10 3.248306e-11 -3.132143e-10
-5.622351e-09 3.013252e-09 8.756267e-10 9.354894e-10 2.730513e-11 -7.266965e-11
-7.948164e-09 3.282572e-09 1.370389e-09 6.967766e-10 -4.616061e-12 3.552304e-12
-7.638615e-09 4.069505e-09 1.038221e-09 2.222021e-10 7.958059e-11 -5.038839e-11
-9.734241e-09 9.602630e-09 1.554372e-09 7.100948e-09 -3.308662e-10 -5.266144e-10
-4.804210e-09 4.836909e-08 -4.701048e-08 -1.480235e-09 -1.897103e-08 -1.367291e-08
-7.969318e-09 2.549363e-09 1.980784e-09 6.408507e-10 -9.709522e-11 -4.152103e-10
-6.781070e-09 3.418672e-09 1.087717e-09 7.262380e-10 2.277223e-11 -5.719025e-11
-7.842672e-09 4.032649e-09 1.198312e-09 1.167697e-10 1.110223e-15 7.975842e-13
-7.690263e-09 3.750508e-09 1.155043e-09 4.417504e-10 5.616477e-11 -1.186105e-10
-7.779876e-09 3.174518e-09 1.467728e-09 4.504446e-10 7.301881e-11 -2.247771e-10
-1.497247e-09 7.716087e-09 5.504761e-09 1.446159e-08 -8.888264e-10 -1.520000e-09
-6.917666e-09 3.801038e-09 9.638113e-10 1.805751e-10 2.070588e-11 1.418287e-10
-7.488268e-09 3.909073e-09 1.114223e-09 2.872302e-10 5.646927e-11 -1.197686e-11
-6.777487e-09 3.657211e-09 1.100970e-09 5.386620e-10 5.406883e-11 -1.073106e-11
-1.111492e-08 1.274440e-08 3.998772e-09 1.072875e-08 -2.201495e-09 -1.311527e-09
-1.762847e-09 6.758275e-09 5.942043e-09 1.709048e-08 -1.611357e-09 -3.359877e-09
-1.717158e-09 4.262972e-09 5.279447e-09 1.264027e-08 -5.682724e-10 -1.229206e-09
-2.239344e-08 1.283013e-08 9.196659e-08 3.975003e-08 -2.509102e-08 -2.041725e-08
-6.984775e-09 3.786674e-09 1.046232e-09 3.898144e-10 6.827716e-11 -6.169176e-11
-1.262890e-08 -1.658561e-08 9.544004e-08 1.225604e-08 -1.647431e-08 -2.694724e-08
-2.527122e-09 1.363707e-09 3.979597e-10 1.614447e-09 4.361150e-10 -7.943507e-11
-2.750039e-08 7.546205e-08 -7.681341e-08 2.781718e-08 1.087978e-08 1.390517e-08
-6.324132e-09 3.298096e-09 9.129839e-10 9.377463e-10 1.635631e-10 -1.178311e-10
-6.605024e-09 3.257945e-09 1.064843e-09 8.175863e-10 1.350471e-10 -8.677749e-11
-2.739194e-08 2.330718e-08 4.651752e-08 3.053577e-08 -5.140767e-09 -1.498034e-09
-4.713799e-08 3.419954e-08 1.054327e-07 2.594844e-08 -3.758901e-08 1.931041e-08
-7.530116e-09 4.123201e-09 9.833545e-10 -1.975820e-11 1.150116e-10 -1.629605e-11
-4.050740e-08 3.416256e-08 3.831035e-08 2.523836e-08 -3.919619e-08 -1.896027e-08
-3.821874e-09 3.414065e-09 2.783729e-11 -2.226876e-10 -2.645502e-10 -7.833734e-12
-2.333700e-08 -3.048297e-08 1.282371e-07 -9.148088e-09 6.504365e-09 -3.874509e-08
-4.336576e-08 -5.650464e-09 1.787688e-07 3.361885e-08 -3.005636e-09 -1.063666e-08
-5.337437e-08 2.574199e-08 7.725244e-08 2.432757e-08 -3.597592e-08 -1.713626e-09
-5.000734e-09 4.871390e-09 1.818048e-10 -5.993328e-10 -3.040090e-11 -1.573250e-10
6.025193e-10 5.400420e-08 -4.468393e-08 -2.757528e-08 4.639634e-09 2.711256e-09
5.583794e-09 5.989666e-08 -8.777271e-08 -1.551346e-08 -5.338162e-09 9.427767e-09
5.600479e-09 7.703786e-08 -7.811988e-08 -2.156746e-08 -1.612233e-08 1.433107e-08
-1.311189e-09 5.796504e-08 -3.276156e-08 -3.729705e-08 -1.323420e-08 5.688966e-10
-3.421560e-09 3.618121e-09 -1.849831e-11 -1.404758e-09 -9.893841e-11 -2.563041e-10
-1.352498e-08 7.568870e-08 -4.813525e-08 -3.672949e-08 7.616300e-09 -2.699838e-09
-5.221028e-09 4.916812e-09 1.419580e-10 -2.431482e-10 -1.011817e-10 -4.437384e-11
-5.591311e-09 4.895808e-09 1.432880e-10 -3.313474e-10 -1.230374e-10 -1.345237e-10
-5.152397e-09 4.776963e-09 1.795484e-10 -1.188361e-10 -2.061107e-11 -6.401424e-11
-1.034413e-08 4.633879e-08 1.359896e-08 -4.033565e-08 1.512132e-08 -6.761647e-10
-4.797232e-09 4.283034e-09 2.094491e-10 -8.662991e-10 -9.445799e-11 -1.161921e-10
-1.210237e-08 9.048274e-08 -6.482295e-08 -5.482057e-08 1.484555e-08 -1.750189e-08
-8.699459e-09 4.266351e-08 6.309713e-09 -4.396082e-08 7.715514e-09 -1.668228e-09
3.557855e-08 6.336255e-08 -1.530986e-07 -4.953699e-09 3.004834e-08 6.009377e-10
-7.256699e-09 5.165769e-09 7.442642e-10 -5.691301e-10 -5.642098e-11 -2.444149e-10
-6.505315e-09 5.202743e-09 4.439682e-10 -4.344352e-10 -9.302725e-11 -2.252233e-10
4.013320e-08 4.151720e-08 -1.197045e-07 -6.237442e-09 2.157416e-08 -8.999057e-10
1.711982e-10 -2.900876e-08 7.903134e-09 4.892255e-09 3.719398e-10 -1.604048e-10
3.471613e-08 4.004407e-08 -1.063941e-07 -1.810344e-08 1.345306e-08 6.050158e-09
2.688562e-09 -3.106193e-08 6.911006e-09 9.080190e-09 8.668504e-10 -2.250233e-10
4.765585e-08 -6.822642e-09 -1.036381e-07 -1.159192e-08 5.069750e-08 4.751680e-09
4.300610e-08 1.814967e-08 -1.087718e-07 8.339238e-09 1.292607e-08 -7.883397e-09
-1.351138e-09 -2.494514e-08 7.919044e-09 6.352456e-10 1.707846e-11 -7.487344e-11
-1.208960e-09 -2.405699e-08 8.032791e-09 1.139590e-09 -1.219017e-10 7.613365e-11
4.300345e-08 1.783022e-08 -1.197045e-07 -7.037282e-10 2.036085e-08 -1.125107e-09
1.278506e-08 -4.276743e-08 7.725410e-09 3.176482e-09 1.024529e-09 2.426741e-10
2.493929e-08 1.340415e-08 -8.443871e-08 3.614670e-08 3.740120e-08 -2.249745e-08
4.403520e-08 2.785086e-08 -1.196000e-07 2.188739e-08 5.314528e-08 -1.897558e-08
-1.066102e-08 3.579436e-09 -5.330136e-10 -1.614074e-09 -4.920944e-10 4.001641e-10
2.318276e-08 -9.002229e-09 2.802308e-09 -7.762956e-09 -1.482146e-10 -6.059961e-10
1.942379e-08 -9.304517e-09 9.642158e-10 -5.467721e-09 5.451152e-11 -1.962343e-09
1.483922e-08 -7.852531e-09 1.371433e-09 -1.057354e-08 2.469920e-10 -4.008500e-10
1.418317e-08 -4.665094e-09 1.331927e-09 -1.319450e-08 1.094931e-09 -2.894327e-09
1.536159e-08 -5.914210e-09 6.473622e-11 -1.012218e-08 1.769669e-10 -1.719533e-09
1.596286e-08 -5.922086e-09 1.017609e-09 -1.036683e-08 -1.612896e-11 -8.884242e-10
1.334435e-08 -5.108750e-09 -7.153176e-10 -1.170085e-08 2.420442e-10 1.564206e-10
1.640653e-08 -6.796358e-09 -1.959211e-10 -7.821922e-09 2.067800e-12 -1.527389e-09
-5.551310e-09 5.544339e-08 -1.495173e-08 3.084426e-08 -3.727586e-09 -3.280163e-09
8.333942e-09 -3.199467e-08 6.792923e-09 -1.801975e-09 -1.675135e-10 -7.814383e-10
6.773639e-09 -2.678151e-08 5.717617e-09 -4.241078e-09 6.721404e-10 -7.454348e-10
9.095837e-09 -3.099105e-08 6.441513e-09 -7.998086e-09 -1.390733e-09 2.131214e-10
9.252661e-09 -3.348640e-08 6.779733e-09 -5.238287e-09 -1.041853e-10 -1.081423e-09
1.020296e-08 -3.522288e-08 7.146600e-09 -3.411923e-09 -1.495560e-10 -7.239223e-10
9.084481e-09 -3.515112e-08 5.828154e-09 -4.818715e-09 2.139875e-09 -8.447399e-11
-3.163562e-09 -2.405353e-08 8.305221e-09 6.313729e-10 -7.770683e-11 1.076059e-10
-8.856275e-10 -2.836324e-08 7.628935e-09 7.784928e-09 9.275810e-10 -1.800492e-10
1.019958e-08 -3.555236e-08 6.646514e-09 -3.509326e-09 4.602090e-10 -6.700498e-10
-6.300763e-09 3.043555e-08 -2.023843e-08 5.958094e-09 -1.554632e-09 -1.122244e-09
1.101054e-08 -1.139280e-09 -2.792185e-10 -1.491587e-08 3.811771e-11 -8.213760e-11
2.369398e-08 -3.181233e-08 -2.665184e-08 -1.119758e-08 -3.427823e-09 -5.488792e-10
2.567564e-08 -1.608448e-08 2.637228e-08 -4.933828e-09 1.136127e-09 -1.572212e-08
6.554798e-10 4.432840e-08 -2.466281e-08 -3.227065e-08 -7.138866e-09 5.945814e-09
6.005874e-10 2.895090e-08 -1.590771e-08 1.590296e-08 -5.112561e-09 -6.517806e-09
-9.281166e-09 3.586143e-08 -2.546831e-08 4.188662e-10 -9.740722e-09 -9.840095e-09
8.638244e-09 4.163514e-11 1.834063e-08 2.066723e-08 -4.403115e-09 -6.531039e-09
-7.486194e-09 -1.274395e-08 7.967765e-08 -3.956810e-08 1.418549e-08 -8.407762e-10
3.478267e-09 2.895677e-08 -1.610721e-08 1.650327e-08 -4.749527e-09 -5.797910e-09
-1.134212e-10 -8.894827e-10 2.794800e-08 2.293994e-08 -2.281553e-09 -3.726094e-09
-4.481316e-09 6.181483e-08 -4.098608e-08 1.819186e-08 3.559260e-10 -5.955492e-09
-8.124273e-09 3.665478e-08 -2.609820e-08 1.153109e-08 -1.569978e-09 -3.091924e-11
-1.901912e-08 3.139543e-08 1.996351e-09 2.896321e-08 2.887898e-09 2.253408e-09
-3.868364e-09 2.893947e-08 -1.341388e-08 1.464561e-08 -2.939464e-09 -3.536761e-09
-3.230761e-09 1.737579e-09 3.764038e-10 1.756562e-09 1.876399e-10 8.483984e-12
-9.121605e-08 -4.335536e-09 2.557882e-07 -4.603653e-09 -8.178191e-10 -1.110822e-08
-3.836648e-09 2.216190e-09 6.047491e-10 2.225423e-09 -4.599238e-11 -8.114305e-11
-2.994440e-08 6.555376e-08 3.951098e-08 4.121195e-08 -4.160068e-08 9.116955e-10
-2.276185e-08 4.993846e-08 -3.973920e-08 6.105726e-09 6.240099e-09 -6.537641e-09
-4.604125e-09 2.217725e-09 6.954997e-10 2.192536e-09 1.110866e-10 -5.242029e-11
-3.377101e-09 2.038734e-09 5.450649e-10 1.018175e-09 -2.493028e-11 4.304690e-11
-4.797829e-09 2.585718e-09 6.835283e-10 1.205356e-09 5.362866e-11 1.618676e-10
-4.994869e-09 2.431892e-09 6.825589e-10 1.416533e-09 1.812709e-10 -9.282806e-11
1.162828e-08 -4.118671e-08 7.122533e-09 3.064165e-09 -1.004466e-10 1.468126e-10
1.407302e-08 -4.366031e-08 4.404185e-09 3.544564e-09 6.411779e-10 -2.747804e-10
1.267951e-08 -4.120424e-08 6.964108e-09 3.088398e-09 -3.760553e-11 3.293357e-10
1.183385e-08 -4.006778e-08 6.710514e-09 4.124192e-09 1.185426e-09 -2.149214e-10
1.159239e-08 -3.912181e-08 6.924136e-09 4.923579e-09 2.488723e-10 -1.974212e-10
1.477206e-08 -4.338301e-08 4.012266e-10 7.731094e-09 2.618624e-09 4.565247e-10
1.402437e-08 -4.322357e-08 2.348841e-09 5.629672e-09 1.160583e-10 6.375709e-10
1.189818e-08 -4.014153e-08 6.212714e-09 6.877601e-09 8.091246e-10 -8.055059e-10
2.724268e-08 -8.006511e-08 7.925126e-09 3.078804e-09 -1.850601e-08 1.733778e-09
2.786460e-08 -1.239005e-08 1.996700e-08 -1.472887e-08 4.193625e-09 -9.251238e-09
7.978765e-09 -4.591315e-09 -1.121249e-09 7.631401e-11 -8.386947e-11 1.110210e-15
2.589646e-08 -5.716009e-08 -3.756889e-09 2.700807e-09 -1.186119e-08 -2.473464e-10
-5.483141e-09 4.790412e-09 3.024372e-10 -1.015870e-09 1.147558e-10 -3.214584e-11
-4.193430e-09 4.286202e-09 1.007368e-10 -1.272621e-09 -7.025003e-11 -9.334045e-11
2.565345e-08 -5.626131e-08 -5.388991e-09 1.111204e-09 -1.033800e-08 6.461578e-10
2.566571e-08 -5.677023e-08 4.599351e-09 4.457957e-09 -9.390687e-09 9.814435e-10
2.506721e-08 -5.986822e-08 -4.605844e-09 3.945885e-10 -9.977670e-09 6.333531e-10
2.691051e-08 -5.945598e-08 5.171874e-09 -1.217982e-09 -9.312907e-09 2.514900e-10
2.786812e-08 -6.256658e-08 -9.994253e-09 5.494296e-10 -2.304232e-08 1.265713e-09
-4.489281e-09 4.432124e-09 3.985035e-10 -2.036333e-09 1.116884e-11 4.128529e-10
2.688765e-08 -6.621232e-08 -1.734097e-09 -1.478534e-09 -1.499338e-08 1.258492e-09
-1.117330e-09 7.026402e-10 1.230580e-10 2.239875e-09 4.203091e-11 -2.947259e-11
1.197463e-08 -1.590043e-08 -2.720397e-08 -1.878761e-08 -1.423552e-08 -4.007244e-09
-3.195459e-09 3.483071e-09 -4.325518e-11 -7.267252e-10 -6.725813e-11 3.720910e-10
-3.611932e-09 3.731503e-09 2.780780e-10 -3.504757e-09 -1.526077e-10 1.227921e-10
-2.668710e-09 3.288392e-09 -9.577628e-11 -3.505429e-11 3.517386e-11 -5.585632e-11
2.566836e-11 6.679537e-10 1.233889e-10 2.177555e-09 4.345857e-11 -4.899769e-11
-2.907248e-10 3.932881e-10 -2.088640e-11 3.289779e-09 1.721571e-10 1.527890e-10
-4.526607e-09 4.113200e-09 1.570433e-10 -1.046443e-10 -1.158140e-10 1.822431e-12
-1.184345e-09 7.522347e-10 2.005018e-11 2.235785e-09 1.496561e-10 1.336855e-10
-5.534405e-09 4.870639e-09 2.812812e-10 -2.483525e-11 0.000000e+00 0.000000e+00
-4.908500e-09 4.743500e-09 2.116523e-10 -9.243175e-10 -6.048939e-11 -1.262351e-10
-4.986802e-09 4.538674e-09 6.043877e-11 -1.096427e-10 -1.373861e-10 -5.798206e-11
-5.284963e-09 4.794293e-09 2.418119e-10 -2.431682e-10 1.916023e-11 6.362622e-11
-1.914489e-09 1.421739e-09 2.248921e-10 2.787100e-09 -3.696861e-14 9.101280e-12
9.313020e-09 -5.121728e-09 -1.319874e-09 -6.615345e-10 -9.650691e-11 8.371015e-11
6.784919e-10 7.558469e-10 -4.713594e-10 -2.325926e-10 -1.742446e-10 7.345014e-12
-2.090005e-09 1.129263e-09 1.361764e-10 2.319332e-09 -8.165340e-11 -4.595604e-10
-2.935206e-09 1.810866e-09 5.913414e-10 2.182815e-09 1.785909e-10 4.029690e-10
-4.108579e-09 2.093934e-09 4.848342e-10 1.791445e-09 -5.645151e-11 -4.253398e-10
1.669469e-08 -1.772897e-08 -2.849284e-08 -1.836597e-08 -1.253578e-08 -3.214903e-09
-4.952358e-09 2.362350e-09 9.026468e-10 2.290079e-09 1.127651e-10 -7.631340e-11
-3.863274e-09 2.229623e-09 6.127725e-10 2.040500e-09 4.825215e-11 -8.231238e-11
-4.583333e-09 2.233495e-09 6.375211e-10 1.971794e-09 2.342215e-10 -7.194731e-12
9.539495e-09 -3.422616e-08 6.912360e-09 -1.502535e-09 1.025664e-09 -2.119150e-11
-5.292438e-09 -2.142446e-08 7.855149e-09 1.617207e-09 2.634035e-10 -1.955205e-10
1.213959e-08 -2.859448e-08 -1.179881e-08 2.005538e-08 2.399981e-09 -6.908953e-10
-5.669147e-09 2.512341e-09 1.047754e-09 1.757172e-09 -8.012746e-11 1.369751e-10
7.267819e-09 -4.225310e-09 -9.186687e-10 1.439418e-09 2.091182e-10 4.465923e-10
5.017223e-09 -3.054383e-09 -6.771668e-10 1.820460e-09 4.119212e-10 1.206651e-10
-2.942475e-09 -2.510039e-08 8.616964e-09 6.854579e-10 -2.185589e-10 3.323620e-10
-3.683891e-09 -2.433408e-08 8.234020e-09 1.176563e-09 1.721574e-10 -1.760105e-10
7.058407e-09 -3.912145e-09 -8.356613e-10 1.275468e-09 1.267754e-10 4.106172e-10
7.743564e-09 -4.234819e-09 -1.040161e-09 1.505301e-09 1.087096e-10 2.067945e-10
5.563686e-09 -3.028842e-09 -7.290595e-10 1.673151e-09 4.411752e-10 1.128413e-10
-3.203868e-09 -2.414746e-08 8.255975e-09 7.488756e-10 1.063301e-10 1.592560e-19
7.469752e-09 -3.758028e-09 -8.646035e-10 1.718579e-09 4.164713e-11 -1.101313e-10
1.130294e-09 -2.885986e-08 8.362119e-09 1.340289e-09 -6.799558e-10 -2.466594e-10
-1.450790e-09 -2.440930e-08 7.935861e-09 1.428182e-10 -4.592059e-11 8.746948e-11
2.626969e-08 -1.053271e-08 6.078717e-09 -1.159949e-08 1.243398e-09 -1.894394e-09
-1.939152e-09 -2.664852e-08 8.984450e-09 7.187544e-10 -7.989870e-11 -3.152251e-11
1.782336e-08 -1.160721e-08 6.597020e-09 -7.496279e-09 -7.404376e-11 -1.058422e-09
1.893367e-08 -8.926349e-09 2.677877e-09 -8.724325e-09 -6.064998e-12 1.266662e-10
2.299404e-08 -1.114597e-08 4.260986e-09 2.845725e-09 1.032798e-10 -3.412667e-09
1.833686e-08 -1.124429e-08 1.973464e-09 -2.595997e-09 -1.227852e-10 -8.250079e-10
2.069337e-08 -1.041266e-08 1.612451e-09 -1.002970e-09 4.446903e-10 -2.527479e-09
1.873248e-08 -1.345867e-08 9.704014e-09 -4.101466e-09 2.425614e-10 -2.260239e-09
-1.738952e-08 -6.494769e-10 3.683109e-09 -5.629452e-10 -1.321591e-09 2.025524e-10
-1.829404e-08 6.295577e-10 1.183009e-09 -3.546984e-09 -3.972401e-09 -1.204883e-09
2.083469e-08 -1.179288e-08 4.257017e-09 5.651017e-10 3.054158e-10 -3.290048e-09
1.630660e-08 -2.303633e-08 -2.431725e-08 2.484245e-08 8.435622e-09 -4.272370e-09
-1.778477e-08 -1.413193e-09 3.100319e-09 -1.140850e-09 -2.795905e-09 -3.840601e-10
-1.723322e-08 2.520890e-09 -6.545493e-10 -2.128337e-09 6.318013e-11 -2.217586e-10
2.492548e-08 -4.268735e-08 -1.814380e-08 -3.911093e-09 -8.605465e-09 1.956752e-10
1.278822e-08 -1.384826e-08 -3.416405e-08 3.321708e-08 1.650448e-08 -1.138636e-08
1.157042e-08 6.922356e-08 -1.160410e-07 1.230146e-09 -4.296832e-08 6.388429e-09
-4.723953e-09 7.536974e-08 -6.595750e-08 2.734405e-09 -1.848422e-08 -1.531360e-08
-1.013938e-08 8.220344e-09 -2.290863e-08 -2.102023e-08 -1.431587e-08 -7.525337e-09
-1.719097e-09 -4.781103e-09 -3.094992e-08 -2.204444e-08 -1.843927e-08 -7.700790e-09
3.571274e-08 -4.100145e-08 -4.387579e-08 1.225124e-08 2.406259e-08 -7.772590e-09
3.236107e-08 -2.287638e-08 -5.788076e-08 1.431301e-08 1.046072e-08 -1.017929e-09
1.733491e-08 -7.205768e-10 -5.685411e-08 3.115310e-08 7.078645e-09 -9.472491e-09
2.664727e-08 2.231620e-08 -8.767791e-08 -1.871304e-08 -3.878154e-08 -3.764522e-09
3.012206e-08 -3.598143e-08 -4.712027e-08 1.784945e-08 3.121783e-08 -3.701359e-09
2.556744e-08 -3.595653e-08 -3.808389e-08 1.938399e-08 1.271896e-08 -8.542960e-09
-1.280279e-08 4.322726e-08 1.574178e-08 -4.400968e-08 1.249582e-08 -6.638365e-09
1.189132e-08 8.579035e-08 -9.449691e-08 -2.289509e-08 -2.828723e-08 -2.223938e-09
1.938725e-08 4.021534e-08 -1.084061e-07 -9.710796e-09 -4.946558e-08 4.187542e-09
2.848507e-08 1.308269e-08 -9.239650e-08 -1.208545e-08 -4.712662e-08 -2.089840e-09
-1.837234e-08 1.323464e-09 2.824447e-10 -2.479483e-10 4.440892e-16 0.000000e+00
3.266763e-09 7.997365e-08 -1.037268e-07 -2.445493e-08 -2.728395e-08 -1.092287e-08
-1.841359e-08 4.713385e-10 2.762982e-09 -7.079226e-10 -1.109837e-09 -1.746964e-10
-2.330177e-09 -2.460208e-08 8.714510e-09 1.186518e-10 8.838397e-11 3.770406e-11
1.391612e-09 -2.887948e-08 8.353785e-09 1.707996e-09 5.517876e-11 1.000822e-11
-2.313357e-09 -2.561000e-08 8.984450e-09 1.954756e-10 5.462297e-12 -8.922640e-12
2.102838e-09 5.660608e-10 -1.141633e-09 -1.029641e-08 -4.438911e-10 2.839273e-10
4.099473e-09 1.245589e-09 -1.231620e-09 -1.214906e-08 -2.198804e-10 -8.970029e-10
5.752801e-09 -1.173206e-09 -9.619301e-10 -1.038235e-08 1.640873e-10 -6.339476e-10
7.491822e-09 -2.272963e-09 -1.158535e-09 -9.187152e-09 -1.289952e-10 6.591894e-10
9.953136e-09 -3.869433e-09 -1.307063e-09 -6.806961e-09 3.455320e-11 -5.058074e-10
6.828943e-09 -1.758328e-09 -1.403960e-09 -1.061053e-08 -2.910851e-10 1.019561e-10
9.078159e-09 -2.999355e-09 -1.166595e-09 -8.026652e-09 2.057892e-10 -5.849765e-10
-1.674436e-08 -6.079452e-09 2.806909e-09 -5.073183e-09 -4.301838e-09 -9.993388e-10
-1.335643e-08 -3.537287e-09 -5.611349e-09 1.722371e-08 5.775174e-10 -4.813270e-10
-1.504818e-08 -3.164869e-09 -9.204683e-10 1.314643e-08 1.176212e-09 -8.515150e-10
-1.133230e-08 -8.659279e-09 -1.048500e-09 1.348695e-08 2.074585e-09 -6.417252e-10
-4.926406e-09 4.472215e-09 9.385692e-11 -4.282601e-10 -1.727640e-11 8.634626e-11
-9.059690e-09 -1.041890e-08 -6.178146e-09 2.126722e-08 4.471888e-09 -2.655460e-09
-5.678888e-09 4.919693e-09 2.812812e-10 -7.134293e-11 0.000000e+00 0.000000e+00
-7.229818e-09 -3.502929e-09 -1.448723e-08 2.279106e-08 1.884189e-09 -1.458607e-09
-9.464327e-09 -1.524754e-08 8.842556e-10 1.845277e-08 3.346494e-09 -3.039693e-10
-1.179764e-08 2.018744e-09 -1.395731e-08 2.220391e-08 5.336621e-09 -3.867246e-09
-5.572367e-09 4.954575e-09 3.351617e-10 -1.324842e-10 -1.617462e-11 5.682699e-11
-1.543464e-08 2.012889e-09 -4.563746e-09 1.423181e-08 3.586199e-09 -1.152597e-10
-1.466267e-08 2.018743e-09 -9.575108e-09 2.087427e-08 6.658140e-09 -4.648053e-09
-2.683286e-09 3.366809e-09 -1.246470e-11 -2.831156e-09 -1.235230e-10 -6.504108e-11
9.706138e-10 4.614855e-10 -6.280518e-10 -3.110468e-09 -3.814681e-10 1.427192e-10
-4.951392e-09 4.269082e-09 1.633329e-10 -5.976482e-10 9.901136e-11 6.500825e-11
-4.630305e-10 1.190729e-09 -2.769316e-10 -8.367924e-10 -1.843703e-10 9.237411e-11
-4.114516e-09 3.855773e-09 -1.124922e-11 -1.175879e-10 -2.071874e-10 -5.487044e-11
2.781201e-09 -1.826850e-10 -6.981660e-10 -4.505842e-09 1.364136e-11 -2.278072e-10
2.964143e-09 -5.984022e-10 -8.806520e-10 -4.040033e-09 -2.295896e-11 -5.001244e-10
-2.744683e-09 3.555426e-09 1.201372e-11 -8.514802e-10 -2.069920e-10 -1.171634e-10
2.103795e-09 4.625536e-10 -6.837397e-10 -3.233515e-09 7.227925e-11 -2.780232e-10
4.057717e-09 -1.241053e-09 -9.156267e-10 -3.638929e-09 -1.187835e-10 -4.821223e-10
3.301426e-09 -1.240807e-09 -7.541550e-10 -3.134907e-09 3.156974e-11 1.449396e-10
-5.001607e-09 4.506699e-09 2.329563e-10 -9.034640e-11 5.702772e-11 -2.220549e-16
4.462715e-09 -1.241052e-09 -9.380834e-10 -3.410689e-09 1.080640e-10 -2.921592e-10
2.563558e-08 -4.123425e-08 -2.694428e-08 -8.797095e-09 -1.650828e-08 -6.486316e-10
1.744967e-08 -2.584102e-08 -2.451233e-08 -1.273229e-08 -5.614500e-10 1.521188e-10
2.276534e-08 -3.737948e-08 -1.679883e-08 -9.115274e-09 -8.515722e-09 -6.983979e-11
2.563557e-08 -3.171934e-08 -3.371807e-08 -9.725597e-09 -1.782896e-08 2.742250e-10
1.744818e-08 -3.470441e-08 -2.409733e-08 -1.357100e-08 -1.583658e-08 -2.142572e-09
2.289397e-08 -2.507828e-08 -3.225309e-08 -1.498988e-08 -1.710575e-08 -2.830300e-09
2.370407e-08 -2.005211e-08 -4.623517e-08 -1.284785e-08 -7.021926e-09 1.359589e-10
2.266120e-08 1.275525e-08 4.425140e-09 2.859135e-08 2.686149e-09 5.533241e-09
1.437482e-08 1.276130e-08 1.419187e-08 3.000042e-08 1.270221e-09 4.713200e-09
6.047491e-10 2.895257e-08 -1.870739e-08 1.590649e-08 2.208880e-10 -2.730828e-09
-1.534610e-08 -3.855203e-09 1.756115e-10 -8.038796e-10 -4.870189e-10 1.828162e-10
-1.436744e-08 7.161020e-08 -6.100077e-08 -4.085942e-09 -2.040973e-08 -2.739884e-08
1.756558e-08 1.273982e-08 -3.697568e-09 2.566944e-08 1.001906e-09 -3.031339e-09
-5.843883e-09 -1.974268e-08 -5.496226e-11 1.761403e-08 2.553371e-09 -1.270758e-09
-1.423326e-08 -4.306958e-09 -2.015757e-09 -2.193665e-09 -1.031934e-09 -4.873146e-10
-8.798169e-09 -9.383037e-09 -1.264112e-09 -1.177316e-09 -7.800683e-10 -3.872114e-10
-1.303233e-08 -2.645582e-10 -2.524222e-09 -4.353466e-09 8.899881e-11 -6.052456e-10
1.438108e-08 1.276174e-08 5.163976e-09 2.999826e-08 1.937701e-09 -6.766694e-10
3.848722e-09 2.315028e-08 5.886085e-09 2.875787e-08 -6.108528e-10 2.701539e-09
-5.764230e-09 -1.524754e-08 -2.859294e-09 1.889908e-08 2.901827e-09 -2.685884e-10
7.838192e-09 -2.371326e-08 -1.946210e-08 -1.601485e-08 -1.347059e-08 -2.927047e-09
-7.159859e-09 2.815492e-09 1.407469e-09 1.337008e-09 1.233191e-10 5.446587e-12
1.744831e-08 -2.933603e-08 -1.736235e-08 -1.225627e-08 -2.407084e-09 -3.146001e-10
1.373455e-08 -1.020662e-08 -4.115308e-08 -1.600837e-08 -7.012106e-09 -7.611899e-10
-8.221333e-09 1.928740e-09 1.968528e-09 3.054610e-10 2.087618e-11 -1.446381e-10
2.226353e-08 -3.598905e-09 -5.102499e-08 -2.099773e-08 -2.242132e-08 -5.212530e-09
1.745019e-08 -2.232293e-08 -3.252217e-08 -1.427492e-08 -1.775443e-08 -1.457697e-09
-7.335974e-09 3.860402e-09 1.016657e-09 3.046745e-10 -6.399503e-11 5.208167e-11
-1.550320e-08 3.538540e-08 -2.855869e-08 1.518344e-08 1.770728e-09 -2.124129e-09
-8.134315e-09 3.471880e-09 1.528119e-09 3.015336e-10 3.316536e-11 -1.983862e-10
-7.553742e-09 3.458609e-09 1.340588e-09 7.667400e-10 4.515766e-11 -1.041589e-10
1.669469e-08 -3.129720e-08 -1.946825e-08 -1.772388e-08 -1.030538e-08 -3.854643e-09
-7.584123e-09 -1.791619e-09 3.009410e-09 3.094365e-10 3.509028e-11 -2.068674e-10
-1.910499e-08 1.230909e-10 8.851999e-10 4.570623e-09 3.367503e-09 -2.133351e-10
1.744701e-08 -2.929349e-08 -1.592087e-08 -1.225506e-08 -7.444365e-09 -1.348388e-09
-7.137563e-09 -2.830140e-09 3.251025e-09 2.894516e-10 -6.660793e-16 9.415446e-11
6.624700e-08 -2.859277e-08 9.129655e-09 1.238391e-09 -1.326074e-10 5.827471e-09
-7.988609e-09 3.804411e-09 1.311538e-09 1.949036e-10 -4.440872e-16 5.043965e-12
-7.867333e-09 4.115439e-09 1.182565e-09 9.537571e-11 1.661971e-11 -4.832113e-11
-1.047883e-09 -1.046002e-08 -1.628194e-08 2.488115e-08 8.164996e-09 -3.350922e-09
-7.669024e-09 4.223946e-09 1.026616e-09 1.149134e-10 5.159917e-11 -6.828316e-12
2.031800e-08 -4.026201e-08 -5.120909e-09 1.126472e-08 4.910640e-09 -8.336507e-10
6.294008e-08 1.806488e-08 2.146959e-08 -5.143162e-08 -3.625750e-08 3.979259e-08
-8.058105e-09 3.942420e-09 1.198248e-09 2.723786e-10 -1.067813e-10 -1.650665e-10
2.383068e-08 1.006187e-08 -1.913582e-08 -3.184830e-08 -1.502207e-08 -3.935188e-10
-7.941651e-09 4.009099e-09 1.240370e-09 1.235056e-10 4.167222e-12 -2.600808e-11
7.646448e-08 -2.247214e-08 2.029323e-08 -1.623614e-08 -8.135444e-09 3.903910e-08
6.084147e-08 -2.736477e-08 3.919767e-08 -3.620709e-08 -2.126680e-08 4.517238e-08
1.520898e-09 -1.679244e-08 1.373422e-07 -4.081617e-08 4.209108e-09 -3.170955e-08
9.740905e-10 -1.044304e-09 5.722775e-08 -2.710986e-08 1.305754e-08 -1.245393e-08
-6.099747e-09 -1.724069e-08 4.939180e-09 1.537830e-08 2.597372e-09 -1.394502e-09
-6.648218e-09 -1.903397e-08 6.785735e-09 1.889209e-09 2.636472e-10 -1.228906e-11
-8.687184e-10 -2.801002e-08 8.897618e-09 1.032460e-09 3.906658e-10 -2.195200e-10
1.545769e-09 3.960018e-08 -2.466281e-08 -3.594205e-08 -6.658839e-09 5.891561e-09
1.719827e-09 5.623996e-08 -5.008302e-08 -2.958597e-08 4.260361e-09 4.995291e-09
-2.444604e-09 3.393047e-08 -6.847543e-09 -3.219969e-08 -2.390657e-10 1.073954e-08
-7.450384e-09 2.408906e-08 2.458754e-08 -3.774457e-08 -4.392684e-10 -3.386097e-09
-1.241320e-09 2.649118e-08 3.275497e-09 -3.410955e-08 1.767114e-08 -1.279116e-09
2.829953e-08 -3.563854e-08 -3.243370e-08 -2.571861e-09 -1.617523e-08 1.634345e-09
-1.924275e-08 3.227725e-09 1.941822e-09 -1.245219e-09 -3.019735e-09 -1.882949e-12
-1.632819e-08 -1.035909e-09 3.748906e-09 -2.456372e-09 -2.748904e-09 2.451838e-10
-1.631711e-08 9.718361e-09 -5.147716e-09 -9.419004e-09 -8.464357e-09 -3.102094e-09
-1.840920e-08 8.536958e-10 2.054637e-09 -7.490550e-10 -9.799945e-10 -1.937974e-10
-8.731987e-09 9.781152e-09 -3.446465e-08 -1.927134e-08 -1.667491e-08 -8.603278e-09
-1.889310e-08 5.450804e-10 1.319958e-09 -6.742398e-10 -2.331167e-09 -9.365986e-11
8.677858e-11 1.157821e-09 -5.903411e-10 -3.803086e-09 4.480791e-13 -5.766969e-10
-7.066383e-10 1.510010e-09 -4.252261e-10 -4.442294e-09 -8.898872e-11 -5.639609e-10
1.270638e-09 4.620153e-10 -6.924372e-10 -3.421166e-09 -1.136969e-10 -6.965609e-10
1.455200e-09 8.265522e-10 -4.792069e-10 -3.966480e-09 -2.194824e-10 5.590965e-10
8.394858e-10 4.622516e-10 -7.030705e-10 -2.927533e-09 -1.018141e-10 9.896653e-11
2.693340e-09 -1.231575e-10 -6.942760e-10 -1.935265e-09 -9.074375e-11 2.586167e-10
-8.217531e-09 1.150218e-09 2.327050e-09 6.817924e-10 -1.366147e-10 -2.964118e-10
1.238137e-09 -2.647342e-08 4.601526e-09 1.267114e-08 1.357839e-09 -5.589804e-10
-7.935700e-09 2.339675e-10 2.435735e-09 2.772889e-11 5.525158e-11 -3.529130e-10
5.340222e-09 -3.533101e-08 7.316197e-09 7.162303e-09 5.934460e-10 -3.080159e-10
4.722199e-09 -3.165678e-08 7.758074e-09 5.409137e-09 -1.878475e-10 2.276688e-10
-1.416817e-09 -2.652165e-08 8.853979e-09 3.363709e-10 1.586600e-10 1.598477e-11
-7.909551e-09 1.949484e-09 1.878463e-09 -5.259290e-11 4.590306e-11 -2.580186e-10
-7.980514e-09 1.015330e-09 2.315398e-09 3.610105e-11 2.983263e-10 -1.269940e-10
-7.902551e-09 1.945606e-09 2.146908e-09 -4.527891e-11 -3.240019e-11 8.584666e-11
-7.885910e-09 1.105666e-09 2.130208e-09 3.451827e-10 -4.150613e-11 -1.905116e-10
-7.617846e-09 1.831800e-09 1.819425e-09 3.043745e-10 -7.828294e-11 -2.501110e-10
-9.036581e-09 4.849909e-09 8.083068e-10 -2.639783e-09 -1.788099e-10 4.228201e-10
-9.024465e-09 5.017802e-09 6.222427e-10 -3.902577e-09 -3.088190e-10 -2.485590e-10
-9.895266e-09 3.854217e-09 1.134401e-09 -1.588844e-09 -6.274660e-10 1.193043e-10
-1.005218e-08 3.768033e-09 7.756156e-10 -2.462262e-09 -5.995568e-10 -7.036924e-10
-5.861191e-09 4.999276e-09 3.423510e-10 -1.541771e-10 -6.717649e-11 -7.543099e-11
-9.453887e-09 5.319460e-09 -5.636513e-11 -4.227597e-09 -2.071205e-10 1.074586e-10
-9.679739e-09 4.604933e-09 -3.383516e-11 -3.866790e-09 -8.720460e-10 -1.941229e-10
-1.004834e-08 4.892631e-09 1.680416e-10 -3.365095e-09 -8.504185e-10 1.893496e-10
-1.079942e-09 2.170556e-09 -2.506055e-10 -1.764491e-10 -1.319564e-10 -4.496883e-10
-5.215260e-09 4.390875e-09 3.252869e-10 -1.792785e-09 7.426593e-11 -8.850881e-11
1.460501e-08 -4.146585e-08 5.337312e-09 -5.610355e-10 1.295069e-09 1.884135e-12
-5.730358e-09 4.952479e-09 2.612635e-10 -1.677591e-10 -5.263789e-12 -4.693779e-11
1.408301e-08 -4.109142e-08 6.596165e-09 2.490295e-09 3.291461e-10 -2.211815e-10
2.086376e-08 -4.223352e-08 -3.046047e-09 1.465721e-09 9.894823e-10 1.476965e-10
1.390197e-08 -4.153759e-08 6.546075e-09 5.826785e-10 -3.345820e-10 5.276557e-11
1.460291e-08 -4.338243e-08 4.370344e-09 -1.110547e-10 8.478855e-10 -3.522989e-10
1.482485e-08 -4.197331e-08 5.588944e-09 3.661599e-09 9.884607e-10 -7.138812e-10
1.591687e-08 -4.223406e-08 3.434401e-09 -2.472812e-09 2.648669e-09 -2.345024e-10
-1.846503e-08 -4.785349e-09 6.102143e-10 -1.048734e-08 -9.647717e-09 -2.311862e-09
-1.905573e-08 2.644848e-09 -4.873846e-10 -1.210132e-09 -2.232167e-09 -4.607281e-10
-1.917641e-08 2.086053e-09 -6.545511e-10 -8.491505e-10 -3.781193e-10 1.736415e-10
-2.507504e-09 8.287374e-08 -1.035492e-07 -2.514031e-08 -2.614426e-08 -1.245886e-08
3.050834e-08 -1.731482e-08 -5.344357e-08 -2.337713e-09 -1.228451e-08 3.076694e-11
-7.438708e-09 1.782251e-08 -8.167175e-09 -1.733958e-08 -1.128337e-09 6.975860e-09
-4.111183e-08 -4.111129e-08 2.094803e-07 -1.585877e-08 -9.657509e-10 -2.033586e-08
-1.475087e-08 6.613500e-08 -1.214025e-08 -3.622511e-08 -1.205339e-08 3.221282e-11
1.534669e-08 -4.428860e-08 2.410771e-09 1.222225e-09 -4.044995e-10 4.632545e-10
-7.142054e-09 2.814026e-09 1.236767e-09 9.457144e-10 4.834189e-11 8.857226e-11
-5.856749e-09 2.924189e-09 -2.732218e-08 2.831527e-08 1.154374e-08 -5.976578e-09
-1.892063e-08 1.498932e-08 -1.577202e-08 2.028436e-08 8.358738e-09 -7.117539e-09
-8.138079e-09 3.314711e-09 1.511926e-09 2.941141e-10 2.220529e-16 1.403855e-11
-1.529295e-08 2.012498e-09 -5.788817e-09 1.426558e-08 2.906243e-09 -1.493881e-09
-1.907374e-08 9.333670e-09 -8.269346e-09 1.450540e-08 3.785874e-09 -2.101835e-09
-5.070862e-09 2.924972e-09 7.911742e-10 1.559511e-09 2.412037e-10 -1.739134e-10
2.684670e-08 -2.856744e-08 -3.206223e-08 -1.292009e-08 -1.475337e-08 -1.191784e-09
-1.842297e-08 1.498352e-08 -1.430182e-08 1.628979e-08 4.185676e-10 1.434803e-09
-7.807392e-09 4.259448e-09 1.106921e-09 3.258038e-11 2.398748e-12 -5.065634e-11
1.986539e-08 -4.670381e-08 -1.043788e-08 9.726186e-09 7.936666e-09 -1.519555e-09
1.978828e-08 5.379611e-08 -8.290076e-08 -2.999826e-08 2.134369e-08 2.035703e-08
-1.148933e-08 9.346473e-08 -1.018481e-07 3.435814e-09 1.515273e-08 1.689339e-08
-2.322215e-09 -2.364318e-08 7.925987e-09 2.688271e-09 1.642577e-10 -1.505049e-10
-7.208154e-10 -2.674836e-08 8.511616e-09 2.872520e-10 4.650091e-11 -1.208678e-11
-3.163561e-09 -2.397699e-08 8.617110e-09 5.796750e-10 1.535101e-10 6.762180e-11
2.542073e-08 8.584317e-08 -1.530986e-07 -3.241546e-09 3.141918e-08 1.632714e-09
3.114031e-08 8.588816e-08 -1.376875e-07 -5.881504e-09 2.913823e-08 1.319182e-08
3.121743e-08 8.011215e-08 -1.469124e-07 -7.693378e-09 4.465323e-08 1.287456e-08
1.728084e-08 5.293481e-08 -1.262473e-07 -1.640776e-08 2.745734e-08 9.893855e-09
4.591301e-08 2.205545e-08 -1.349024e-07 -9.224315e-09 5.004336e-08 2.086513e-08
-2.186338e-09 -2.421373e-08 8.032990e-09 6.972738e-10 -1.513245e-10 -4.626344e-11
-2.118089e-09 2.323876e-09 -4.579905e-10 -4.561885e-09 1.133431e-10 -6.950980e-10
-3.642698e-09 2.923739e-09 -9.176992e-11 -3.677449e-09 -2.008025e-10 -1.104916e-11
-4.922946e-09 3.978467e-09 1.357376e-10 -4.717175e-09 -1.364564e-10 -4.697207e-10
-9.032758e-10 -2.467703e-08 7.135112e-09 7.672557e-09 8.459659e-10 -7.536343e-11
-5.641084e-09 4.777513e-09 2.418110e-10 -3.215970e-10 2.763656e-11 9.655121e-11
-3.559859e-09 2.842419e-09 -2.544187e-10 -5.099303e-09 -3.250662e-10 2.770251e-10
-3.760141e-09 3.200013e-09 -9.257861e-11 -5.449337e-09 -3.079676e-10 -4.037783e-10
-4.220276e-09 4.034671e-09 1.388656e-10 -2.119131e-09 -1.486602e-10 -1.807721e-10
-4.561597e-09 4.230962e-09 7.001688e-11 -1.696767e-10 3.725021e-12 -1.570899e-11
-1.975387e-09 2.846757e-09 -3.204228e-10 -5.110968e-09 -7.587605e-11 -6.814926e-11
6.267329e-09 1.306340e-09 -3.951020e-08 -1.815972e-08 -9.594286e-09 -1.495995e-09
6.250245e-09 1.419614e-08 -5.280181e-08 -1.804866e-08 -9.633619e-09 -1.986033e-09
-4.168462e-09 2.483432e-08 -4.274258e-08 -1.525235e-08 -7.945862e-09 3.217804e-10
-5.730063e-09 3.162658e-08 -5.192105e-08 -1.338105e-08 -5.394325e-09 -3.563944e-09
-5.178366e-09 2.688281e-08 -4.270087e-08 -2.082983e-08 -1.816286e-08 -1.644904e-08
3.329804e-09 8.110521e-09 -4.476975e-08 -2.116740e-08 -2.454175e-08 -7.449082e-09
-4.301604e-09 3.926724e-09 1.309797e-10 -1.941958e-09 -2.190279e-10 -1.514822e-10
-4.576616e-09 4.233337e-09 2.462801e-10 -2.141047e-09 -2.795054e-10 -1.761183e-10
-6.857928e-09 4.626047e-09 6.251859e-10 -3.030589e-09 -2.936921e-10 -7.233669e-11
-4.986806e-09 4.483121e-09 1.733376e-10 -7.212009e-11 -1.771027e-12 -4.350775e-11
4.478300e-09 -3.202191e-08 5.141422e-09 -9.182489e-09 -7.202425e-09 -4.265944e-10
1.779633e-09 -2.473075e-08 -1.420442e-09 1.846819e-08 1.575545e-09 -8.209570e-10
4.787395e-09 -2.476114e-08 -4.526353e-09 1.798372e-08 2.157005e-09 -8.279819e-10
9.437641e-09 -3.462069e-08 -8.741901e-10 1.335631e-08 1.673358e-09 4.612201e-10
9.349158e-09 -3.688108e-08 2.276019e-09 1.227095e-08 2.219437e-09 -4.682437e-10
-1.443543e-08 2.068897e-08 -1.901459e-08 -1.119141e-08 -1.874251e-08 -1.101891e-08
8.207341e-09 -3.571623e-08 4.034031e-10 1.515245e-08 4.715937e-09 -3.745926e-10
5.995688e-09 -3.010235e-08 -1.126160e-09 1.818059e-08 2.921481e-09 -1.323204e-09
6.092447e-09 -2.318707e-09 -1.035444e-09 -3.701808e-09 1.892662e-10 -2.091030e-10
-9.437706e-08 -7.444260e-08 3.890643e-07 -2.753639e-08 -2.745398e-08 8.034580e-08
2.606459e-08 1.024817e-07 -1.480097e-07 1.514091e-08 4.345542e-08 -1.829269e-08
6.943397e-09 -2.884249e-09 -1.119871e-09 -3.019544e-09 1.046833e-10 -1.766183e-10
-3.758251e-08 3.666127e-08 1.673672e-08 2.454618e-08 -1.836491e-08 1.638469e-08
-6.185237e-09 2.213666e-09 1.282532e-09 1.486935e-09 -8.610712e-11 5.028244e-11
3.296896e-09 -1.240753e-09 -9.883432e-10 -3.137991e-09 -4.690071e-11 8.301904e-11
-1.119638e-08 9.773255e-09 1.187324e-08 2.020522e-08 1.878165e-10 -1.582981e-09
-2.166681e-08 2.684160e-08 1.148804e-09 1.246051e-08 -3.955312e-09 1.743402e-09
2.148813e-08 -1.219993e-08 5.746850e-09 1.101422e-09 1.416150e-10 -4.528860e-09
5.325048e-09 -2.213720e-09 -1.016297e-09 -2.461470e-09 -3.021297e-10 -8.707352e-11
2.951740e-08 -1.865805e-08 -5.476892e-08 -8.635043e-09 -1.072599e-08 -7.446057e-11
6.113529e-09 -2.872778e-09 -1.073807e-09 -3.010700e-09 -2.360010e-10 3.525025e-10
-2.272855e-08 2.740892e-08 -2.198395e-09 4.195327e-09 1.333779e-09 3.357719e-09
-1.883350e-08 2.313429e-08 1.078808e-08 1.869373e-08 3.481921e-10 -1.980138e-09
-1.038079e-08 1.075414e-08 1.044871e-08 1.937600e-08 -3.591608e-09 -2.299487e-09
3.924636e-09 -9.546088e-10 -7.655832e-10 -4.053165e-09 -1.252023e-10 4.169455e-10
-1.793650e-08 1.774377e-08 -2.697042e-09 5.249442e-09 1.186848e-09 1.285417e-09
2.716916e-08 5.517917e-09 9.769632e-09 3.914256e-08 1.027136e-08 6.180983e-09
3.673367e-08 8.387157e-10 -4.674614e-09 1.684935e-08 -3.279731e-09 -2.399160e-09
1.793006e-08 2.762425e-08 -1.823903e-08 3.223211e-08 5.755995e-09 -5.160401e-09
4.189325e-08 -1.505899e-08 2.159358e-08 2.769339e-08 2.586072e-09 -6.540572e-09
3.902992e-08 -1.030315e-09 6.086370e-09 2.691733e-08 4.794658e-09 4.901859e-09
5.054682e-08 -1.504248e-08 3.136254e-08 3.002104e-08 7.113725e-09 2.279917e-08
-1.912146e-08 3.346982e-08 1.047729e-08 2.762993e-08 -1.414569e-08 -4.591009e-09
2.563547e-08 -3.755674e-08 -2.057989e-08 -8.220191e-09 -3.152946e-09 -1.126517e-09
2.563460e-08 -3.712331e-08 -1.824589e-08 -8.250757e-09 -8.660212e-09 -2.856615e-10
-7.290915e-09 8.425080e-08 -6.273014e-08 4.836743e-09 1.598088e-08 2.649117e-09
2.830014e-08 -3.863748e-08 -2.737029e-08 -2.084262e-09 -2.129557e-09 1.927714e-10
2.497877e-08 -4.277898e-08 -2.105092e-08 -4.122261e-09 -3.793035e-09 -3.284564e-10
2.829953e-08 -4.348933e-08 -2.570679e-08 -1.720509e-09 -1.565793e-08 7.881976e-10
2.684670e-08 -3.958830e-08 -2.480580e-08 -1.183219e-08 -1.292715e-08 -2.273033e-09
2.677705e-08 -4.257306e-08 -1.791453e-08 -3.336393e-09 -8.289287e-09 9.669343e-10
5.257781e-09 -2.078420e-08 -1.461529e-08 -1.912797e-08 -8.452095e-09 -3.560496e-09
7.958041e-09 -1.996455e-08 -1.264811e-08 -1.359413e-08 -6.506421e-09 -1.402912e-09
5.171112e-09 -1.761263e-08 -1.570749e-08 -1.281881e-08 -9.788024e-10 1.272246e-09
-4.701724e-09 -7.768646e-09 -1.096231e-08 -1.189329e-08 8.291590e-12 2.598171e-10
-2.300262e-08 3.219994e-08 -2.413487e-09 1.092908e-08 -2.272370e-09 3.221434e-09
-2.387710e-08 3.824271e-08 4.855670e-09 1.658245e-08 -2.581483e-09 9.370751e-10
2.907451e-08 3.976872e-08 -1.344609e-07 -3.444205e-08 4.724515e-08 2.502867e-08
-2.978343e-08 4.367875e-08 -1.287514e-08 3.656066e-09 -1.335495e-09 1.075236e-08
-2.208804e-08 2.583804e-08 7.807389e-09 2.041139e-08 -7.789806e-09 2.171075e-09
-9.375905e-09 5.293659e-08 -6.952330e-08 -1.993399e-08 2.821658e-08 3.321000e-08
1.038949e-08 -2.888323e-08 -1.265621e-08 -1.029038e-08 -6.827444e-09 -1.171712e-09
-2.597760e-09 -2.305689e-09 -1.744705e-08 -1.437803e-08 -4.092458e-09 -7.791719e-10
-9.492073e-10 -7.336455e-09 -2.174716e-08 -1.798961e-08 -1.168523e-08 -4.291059e-09
-7.760032e-09 -4.923820e-10 2.747893e-09 -6.304284e-10 5.643391e-10 -4.012854e-12
-4.312942e-09 1.425970e-08 2.324981e-08 2.677281e-08 3.631672e-09 3.359001e-10
-6.476189e-09 5.429343e-09 -7.743628e-10 -7.813022e-09 -1.235165e-10 -7.248158e-10
-2.313517e-08 4.490113e-08 1.331940e-09 1.665566e-08 -3.745033e-09 -4.528869e-10
-2.626980e-08 4.219661e-08 -1.779693e-08 -6.637480e-09 8.381090e-10 7.860815e-09
-7.760034e-09 -1.538099e-09 2.953237e-09 -1.001830e-09 1.479772e-10 -3.731445e-10
-7.800602e-09 -6.978416e-10 2.811471e-09 -7.928673e-10 3.723366e-10 -2.516030e-10
-2.439222e-08 2.633322e-08 -1.235385e-10 2.844869e-09 6.015130e-10 1.630123e-09
-7.934140e-09 8.382379e-10 2.495992e-09 -5.612059e-10 -1.770069e-10 2.322808e-12
-2.101085e-08 3.062632e-08 -1.459213e-08 -7.976270e-09 -3.537078e-10 1.190863e-09
-7.951823e-09 1.111950e-09 2.383054e-09 3.568317e-10 4.977385e-11 -3.277405e-10
-7.760023e-09 -8.494716e-10 2.927011e-09 -1.233235e-09 2.108580e-11 -7.097450e-11
-2.843909e-08 5.633847e-08 -5.793625e-08 -1.433659e-08 1.977450e-08 3.142765e-08
5.366984e-08 -3.654860e-08 7.427097e-08 2.048587e-08 1.407767e-10 9.747205e-09
2.099187e-08 -1.093140e-08 6.434439e-09 -1.050167e-08 6.957929e-10 -3.971542e-09
5.144290e-08 -2.153407e-08 1.861263e-08 1.918147e-08 1.657142e-10 1.239635e-08
5.951597e-08 -3.841638e-08 3.901088e-08 8.012894e-09 3.288995e-09 -3.594374e-09
5.960294e-08 -2.045819e-08 2.367292e-08 1.339956e-08 3.088852e-09 4.812919e-09
4.180306e-08 -2.330904e-10 1.116464e-09 3.980523e-08 1.431899e-08 4.903529e-09
6.918296e-08 -3.844258e-08 4.670993e-08 8.817853e-09 3.595807e-09 3.497085e-08
6.056048e-08 -2.641224e-08 1.854990e-08 1.658934e-08 3.343230e-09 7.320734e-09
1.778927e-08 7.016786e-08 -7.856807e-08 -1.721932e-08 -1.578523e-08 1.669532e-08
3.167526e-09 -5.956986e-10 -8.035781e-10 -3.601950e-09 5.938927e-11 -3.875589e-11
3.629262e-09 -1.919921e-09 -6.000080e-10 2.509976e-09 2.485035e-10 3.157852e-10
2.878643e-09 -1.158003e-09 -4.750486e-10 1.297388e-09 6.243461e-11 3.534963e-10
-1.099911e-08 -3.202959e-09 6.419854e-08 2.339900e-08 -3.893679e-09 -1.065067e-08
4.336869e-09 -1.937775e-09 -6.501177e-10 2.487278e-09 -2.258224e-11 -2.233056e-10
1.907624e-08 -2.003387e-08 5.853572e-08 8.480764e-09 -5.890972e-10 -2.542609e-08
-8.014874e-09 6.894357e-09 7.977515e-09 1.498163e-08 -1.096549e-09 -1.740181e-09
-1.842435e-09 4.636616e-09 4.529108e-09 1.295132e-08 -7.953540e-11 -1.655209e-09
1.277549e-09 -5.711180e-10 -3.071321e-10 2.559505e-09 1.888798e-10 1.261858e-10
3.088200e-09 -1.485029e-09 -5.471508e-10 2.120528e-09 2.225725e-10 -1.695860e-10
-1.178787e-08 7.492096e-09 6.540959e-10 2.246503e-09 -7.401500e-10 -5.743525e-10
-8.166382e-09 2.079144e-09 2.024050e-09 2.711249e-10 7.209078e-11 -1.796954e-10
4.207900e-09 5.802809e-09 -2.422553e-09 -1.706416e-08 -8.295987e-10 1.149837e-09
-2.412062e-10 1.267742e-09 3.183023e-10 6.960915e-09 6.539477e-10 -1.559412e-10
8.562858e-09 -9.002364e-10 1.271590e-09 1.222755e-08 1.877312e-10 -6.348233e-10
6.087042e-09 -8.186938e-10 1.365516e-09 9.872155e-09 5.457770e-10 -7.676955e-10
-1.250129e-08 1.778417e-08 -3.688326e-08 2.665076e-08 1.335515e-08 -9.761234e-09
3.658012e-09 4.457520e-09 1.613533e-09 1.420839e-08 1.833178e-10 -8.869772e-10
-1.881307e-08 1.498353e-08 -9.895400e-09 1.307954e-08 3.609217e-09 -5.880836e-10
8.922806e-09 -5.464205e-09 -1.262570e-09 6.906053e-10 1.467546e-10 2.103485e-10
1.560124e-08 -6.624580e-09 -5.746568e-10 -9.911669e-09 -3.775892e-11 1.098724e-09
-2.036775e-08 2.006418e-08 -1.251355e-08 1.114419e-08 4.238434e-09 -2.223933e-09
-1.812090e-08 2.505993e-08 -2.855869e-08 2.043115e-08 2.622010e-09 -2.497927e-09
-2.120219e-08 2.861227e-08 -2.191834e-08 1.510331e-08 8.339577e-09 -1.055948e-08
-1.717651e-08 8.174902e-09 -1.014599e-08 2.139051e-08 7.508760e-09 -3.658929e-09
-1.976132e-08 2.705795e-08 -1.936741e-08 9.799664e-09 1.357259e-09 1.083919e-09
1.273039e-09 3.159447e-09 2.124341e-09 1.106605e-08 8.211662e-10 -1.417517e-09
-5.307368e-09 -1.241124e-08 -1.604158e-09 -1.610400e-08 3.033054e-09 6.323310e-10
1.364731e-08 -4.107961e-08 6.407867e-09 -6.012037e-10 2.901131e-10 1.783365e-10
1.460425e-08 -4.129598e-08 6.430953e-09 -4.028372e-10 3.887830e-10 -1.905740e-10
2.196739e-09 1.563484e-09 5.005511e-09 1.265992e-08 -8.928203e-10 -3.469503e-09
-5.072432e-09 3.566815e-09 6.556418e-10 4.308663e-09 -1.625726e-10 -7.665071e-10
-7.366022e-09 1.755578e-09 1.743296e-09 5.013623e-10 -3.841971e-11 1.018816e-10
1.596963e-08 -4.080202e-08 4.726644e-09 -2.762227e-09 6.615159e-10 2.587911e-10
1.312198e-08 -3.848532e-08 5.234432e-09 -3.660857e-09 1.099074e-09 4.670177e-11
-4.729000e-09 9.916198e-08 -9.258630e-08 4.032851e-09 1.961684e-08 8.126508e-09
1.589099e-08 -4.155481e-08 5.149095e-09 -5.188886e-10 1.487159e-09 -6.331074e-10
1.312175e-08 -3.934899e-08 5.268157e-09 -3.556971e-09 -1.187361e-10 -4.580710e-10
-5.536283e-09 2.616918e-08 -1.436419e-09 -8.755343e-09 3.484604e-10 -5.446744e-10
-3.855065e-08 7.986676e-08 -2.285535e-10 5.338730e-09 -1.550522e-08 2.535027e-08
-1.018925e-08 2.177898e-09 9.693171e-10 -7.357415e-10 -1.000292e-09 2.524168e-10
-1.031791e-08 1.823324e-09 1.476299e-10 -8.974109e-10 -9.804848e-10 -4.880734e-10
-1.055870e-08 3.587242e-09 2.784359e-10 -2.075812e-09 -6.483095e-10 3.185332e-10
-1.929820e-09 3.427589e-09 5.896845e-10 7.091606e-09 -4.181051e-10 -6.892732e-10
-9.479224e-09 3.803464e-09 1.041182e-09 -2.314024e-09 -5.009033e-10 -2.702246e-10
-1.031879e-08 2.681862e-09 2.174776e-10 -4.553549e-10 -2.060854e-10 5.060102e-10
-6.161334e-09 5.477190e-09 9.269558e-10 5.262011e-09 8.637144e-10 -1.711406e-10
-2.783895e-09 6.574495e-09 1.397951e-09 9.844733e-09 1.972574e-10 -1.800033e-10
-4.907264e-09 2.810467e-09 8.111503e-10 9.798783e-10 1.631169e-12 9.395604e-11
-1.400370e-09 3.491268e-09 3.680358e-10 7.394561e-09 7.969599e-10 8.227463e-10
-4.883728e-09 5.728336e-09 2.370983e-09 9.461390e-09 2.216401e-10 -2.241989e-10
-6.629551e-09 3.817911e-09 7.601835e-10 3.445592e-09 1.019839e-09 -7.820523e-11
-4.929770e-09 5.464088e-09 1.169476e-09 8.223416e-09 -4.032294e-10 -1.205563e-09
-5.445461e-09 2.809940e-09 7.984491e-10 9.582633e-10 -2.925618e-12 3.506972e-12
9.996044e-10 9.203714e-10 -9.170442e-14 6.113856e-09 4.534480e-10 4.988956e-10
-7.137704e-09 4.355092e-09 1.171086e-09 3.593902e-09 -3.062842e-10 -1.291612e-10
-5.292532e-09 2.707021e-09 9.322250e-10 1.604570e-09 -2.661809e-11 3.166600e-11
-4.529095e-09 2.555221e-09 8.118120e-10 1.786288e-09 1.391141e-10 3.400834e-10
6.113654e-09 -3.002211e-09 -8.547403e-10 3.207218e-09 3.484418e-10 1.375935e-10
-4.185410e-09 2.432407e-09 5.930660e-10 1.411257e-09 -2.660769e-11 -8.082024e-11
1.620459e-08 -5.170384e-09 1.231495e-09 -1.252708e-08 4.903722e-10 -4.816078e-10
-3.377829e-09 2.062831e-09 4.278289e-10 1.019878e-09 1.193350e-10 8.210033e-11
-4.304239e-09 2.432436e-09 5.435996e-10 1.412892e-09 -2.751827e-11 -3.819833e-12
1.738713e-08 -8.206545e-09 7.420710e-09 1.045526e-08 9.187380e-11 -2.942748e-09
8.750623e-09 -4.780007e-09 -1.427686e-09 -4.271599e-09 -9.842210e-11 -4.677711e-11
1.563760e-08 -8.618102e-09 -4.801644e-10 -1.917437e-09 1.051690e-10 3.003331e-10
6.736036e-09 -2.846824e-09 -1.182419e-09 -3.264884e-09 -1.710436e-10 -3.189518e-10
5.433407e-09 -2.318435e-09 -9.732393e-10 -3.439633e-09 5.412948e-11 -9.979617e-11
2.418203e-09 -1.032837e-09 -4.014025e-10 3.532171e-09 1.540587e-10 3.356186e-10
-2.392724e-09 7.305845e-09 4.027659e-09 1.354390e-08 -6.973264e-10 -2.455237e-09
8.496959e-11 1.515732e-09 -3.668976e-10 -4.242045e-09 -3.261793e-11 -1.390432e-10
6.960535e-09 -3.921429e-09 -1.221373e-09 -2.497905e-09 -3.491984e-11 -7.476952e-11
2.278211e-08 -1.112494e-08 4.338881e-09 -5.796838e-10 -2.994417e-10 -2.170837e-09
7.984623e-09 -3.945070e-09 -1.286002e-09 -2.509888e-09 -8.784500e-11 2.247780e-10
8.600802e-09 -3.911023e-09 -1.257766e-09 -3.319995e-09 -4.938393e-11 -6.891643e-11
6.177195e-09 3.167867e-09 -1.573222e-09 -1.727800e-08 1.353508e-10 1.678275e-10
6.373782e-09 -2.619681e-09 -9.273795e-10 -3.742422e-09 -1.255420e-10 5.937730e-10
-1.872620e-09 6.584469e-08 -7.562043e-08 -9.890243e-09 -1.270202e-08 -1.027646e-09
7.462421e-09 -1.741458e-09 -1.479064e-09 -1.042859e-08 -4.183232e-10 -9.770271e-11
-1.962110e-08 2.676957e-08 -1.421299e-08 -1.916899e-09 3.947013e-09 -9.519950e-09
3.617717e-08 -3.983050e-08 -4.922505e-08 -1.022900e-08 2.538194e-08 4.410082e-09
5.894940e-09 7.275990e-08 -9.770465e-08 -1.540783e-08 -3.680766e-08 -1.496435e-08
-2.139559e-08 1.633338e-08 -1.681429e-09 5.821855e-09 8.051827e-09 -2.118844e-09
-2.471459e-08 6.718252e-08 -6.273014e-08 2.383581e-08 1.614026e-08 2.397265e-09
-1.696800e-08 4.469213e-08 -3.534937e-08 -1.087321e-08 5.883902e-09 5.080012e-09
2.182024e-08 3.997498e-08 -1.070077e-07 -1.735405e-08 -3.947259e-08 -5.828993e-09
-2.087244e-09 8.799445e-08 -9.816839e-08 -2.357631e-08 -2.728980e-08 -7.347288e-09
-1.480095e-07 -6.451957e-08 3.373344e-07 -4.373939e-08 -7.527137e-08 3.441495e-08
-9.118225e-09 1.041982e-07 -1.047200e-07 -1.267493e-08 -2.180412e-08 -1.464724e-08
2.558191e-08 -3.371116e-08 -2.245905e-08 1.196683e-08 4.870153e-09 1.496644e-10
2.212961e-08 -3.580329e-08 -2.629189e-08 1.983273e-08 1.086366e-08 -1.476764e-09
2.474097e-08 -2.806150e-08 -3.713191e-08 2.349871e-08 1.570845e-08 -6.253605e-09
3.014618e-08 -3.626341e-08 -4.142486e-08 1.373511e-08 1.377243e-08 5.380670e-09
5.102887e-08 4.441486e-08 -1.519528e-07 -6.447569e-09 6.486415e-08 3.359392e-09
-7.577958e-09 6.150117e-08 -6.090762e-08 -1.551431e-09 9.625961e-09 8.000439e-09
6.457419e-09 7.332555e-08 -1.136288e-07 1.863730e-08 2.585904e-08 -1.449442e-08
2.054595e-08 -3.349714e-08 -2.245905e-08 1.813975e-08 4.210468e-09 4.168786e-10
2.175942e-08 -4.204513e-08 -2.153307e-08 1.830355e-08 1.102391e-08 -1.292073e-09
4.584845e-08 4.320070e-08 -1.309705e-07 1.628698e-08 6.161882e-08 -1.436114e-08
-6.569311e-09 4.993580e-09 -4.273031e-10 -6.364594e-09 5.717282e-11 8.608281e-11
8.101953e-09 8.145889e-09 -5.563807e-08 3.837838e-08 2.484636e-08 -1.918453e-08
3.000542e-08 -2.249833e-08 -5.032504e-08 1.848352e-08 6.085621e-09 -3.639091e-09
-9.018977e-09 -1.898014e-08 1.411150e-09 -1.403302e-08 -7.246716e-09 -3.978090e-09
4.829880e-08 -1.723344e-08 4.180057e-08 -3.224734e-08 -1.235662e-08 2.432176e-08
4.055833e-08 -2.305254e-08 3.595525e-08 -2.936809e-08 1.853478e-09 -1.293763e-10
7.750640e-09 3.670416e-08 -7.365822e-08 -1.439227e-08 -1.221969e-08 -3.799002e-09
-2.860953e-08 6.725464e-08 -1.214025e-08 -3.899833e-08 -1.224581e-08 1.336712e-09
-2.807370e-08 9.703391e-08 4.028603e-08 2.390571e-08 -5.472923e-08 5.958810e-09
-4.328180e-09 1.509246e-08 5.632132e-08 3.773320e-08 -1.603835e-08 -1.389851e-08
-4.201298e-09 5.985961e-08 -1.927918e-08 -3.347284e-08 9.582868e-09 7.102495e-09
1.110556e-08 1.505553e-08 3.735346e-08 -4.167056e-08 -1.735978e-09 -1.499027e-09
4.665735e-09 1.916020e-08 -3.275407e-09 -2.754911e-08 3.291798e-09 2.657487e-09
-1.377702e-08 7.508104e-08 -7.988678e-08 -3.605175e-08 -2.331113e-08 3.917248e-09
7.627514e-09 4.016717e-09 1.770077e-08 -3.776204e-08 -6.095303e-09 7.245449e-09
2.548736e-08 -1.143135e-08 4.808700e-08 -3.975454e-08 -7.000271e-09 1.793151e-08
1.822081e-08 3.383766e-09 4.608133e-08 -4.663732e-08 -2.506466e-08 2.516679e-08
3.885700e-08 -2.681933e-08 5.293595e-08 -3.262127e-08 -8.850850e-09 2.798578e-08
2.806115e-08 -3.366834e-08 1.019589e-07 -3.244273e-08 -4.758898e-09 9.051754e-09
2.388760e-08 -1.403668e-08 1.182151e-08 -2.193878e-09 2.052261e-10 -7.209256e-09
2.199218e-09 1.734542e-09 -1.231995e-09 -9.772117e-09 1.707514e-10 6.732632e-10
-8.651897e-10 1.606076e-09 -7.430812e-10 -8.432506e-09 -3.352998e-10 -4.964096e-11
5.600610e-09 -6.389517e-10 -1.123083e-09 -9.438722e-09 -3.475082e-10 -1.131224e-10
3.959896e-09 8.603653e-10 -1.243428e-09 -1.133352e-08 -5.080786e-10 7.059950e-10
4.071881e-10 8.265504e-10 -5.130096e-10 -4.129065e-09 -3.814729e-10 2.004730e-11
-7.286626e-09 3.346095e-09 1.159995e-09 5.602558e-10 2.076594e-11 -1.676455e-10
-7.168770e-09 3.470719e-09 1.064843e-09 9.993570e-10 1.646607e-10 -8.497525e-11
-6.175762e-09 3.499160e-09 8.219239e-10 4.276213e-10 1.207031e-10 2.744518e-10
-7.896041e-09 4.070269e-09 1.097248e-09 2.894440e-10 1.383833e-10 -1.767398e-10
5.927534e-09 -2.318956e-09 -1.155702e-09 -3.943380e-09 -5.122936e-11 -3.515903e-10
-7.254317e-09 3.505216e-09 1.078838e-09 8.339400e-10 1.871137e-10 -2.159322e-10
-7.168989e-09 3.431560e-09 1.143830e-09 7.545817e-10 5.061152e-11 -3.852119e-11
-2.858977e-09 -2.326209e-08 6.495022e-09 8.137945e-09 -2.888401e-10 -8.374463e-11
-5.101096e-09 -2.280999e-08 6.523514e-09 5.753690e-09 -8.328397e-11 -1.866854e-10
-7.625950e-09 3.747662e-09 1.272790e-09 4.088410e-10 2.365213e-10 -3.060733e-10
-2.895579e-09 -2.327486e-08 7.181412e-09 8.109554e-09 2.020458e-10 2.875218e-10
-1.589683e-09 -2.637398e-08 7.158270e-09 7.197013e-09 -6.624405e-11 1.969786e-10
-3.101262e-09 -2.479198e-08 7.841855e-09 3.863998e-09 -2.127138e-10 3.648699e-10
-7.629644e-09 3.273483e-09 1.310744e-09 2.791472e-10 1.132028e-10 -4.111481e-11
5.338144e-09 -1.831280e-09 -1.030238e-09 -8.552878e-10 -2.059583e-10 -2.640194e-11
-5.884537e-10 -2.593118e-08 7.794343e-09 5.572650e-09 3.313199e-13 1.721868e-10
1.465887e-09 -2.693080e-08 7.063944e-09 7.421190e-09 2.821964e-10 6.866152e-11
-2.360893e-09 5.000498e-08 -2.077021e-08 -2.762912e-08 9.395617e-09 1.855603e-08
-9.422818e-09 -2.682160e-08 1.254080e-07 1.616309e-08 -6.688101e-09 -3.011177e-08
1.242807e-08 -4.083060e-08 8.116195e-09 1.286847e-09 9.196815e-11 3.984908e-10
3.191072e-09 -1.797523e-08 1.246179e-07 -3.091635e-08 1.432192e-08 -4.252233e-08
-5.797510e-08 -5.881104e-08 2.559080e-07 2.220027e-08 2.436565e-08 2.586119e-08
1.319863e-08 -4.069808e-08 8.231198e-09 1.645734e-10 -5.253223e-10 -1.413003e-11
1.346061e-08 -4.079700e-08 8.183331e-09 8.696442e-10 1.572853e-10 8.565526e-11
6.193352e-09 7.148012e-08 -8.041645e-08 -2.237232e-08 -2.929007e-08 -1.947266e-08
5.174838e-09 1.221457e-08 -5.963328e-08 1.184944e-08 -2.745320e-08 1.824657e-08
1.237284e-08 -4.045893e-08 8.174063e-09 1.070516e-09 5.078893e-10 -1.153182e-10
2.629394e-08 4.419610e-08 -1.042060e-07 -1.834418e-08 -4.403442e-08 -1.324022e-09
5.458701e-09 -2.612134e-08 1.096385e-07 -1.616514e-08 -7.758220e-09 -2.877411e-08
1.246632e-08 -3.895177e-08 7.791888e-09 6.453493e-10 1.674876e-10 -2.557095e-10
4.470484e-08 -1.278561e-09 -6.649895e-09 1.104584e-08 2.708406e-10 6.317908e-10
2.289033e-08 -2.425495e-08 -4.313792e-08 8.926963e-09 -1.096072e-08 3.700036e-09
-4.678902e-08 6.708675e-08 4.676776e-08 -1.965097e-08 -4.432215e-09 -1.638927e-09
2.638501e-08 -4.300518e-08 -1.666530e-08 2.670208e-09 -6.922669e-09 1.641555e-09
-1.662615e-08 1.007817e-07 -8.957321e-08 -2.010234e-08 -1.496805e-08 -1.556623e-08
2.830014e-08 -4.232175e-08 -2.096729e-08 -2.102240e-09 -3.519843e-09 2.106440e-10
2.554066e-08 -3.879854e-08 -2.177293e-08 5.543723e-09 -1.209611e-08 2.208531e-09
-1.912143e-08 3.221007e-08 2.929754e-08 2.762328e-08 -8.571648e-09 -4.509423e-09
2.726788e-08 -2.802806e-08 -3.720119e-08 2.501161e-09 -5.457418e-09 7.284204e-10
3.018556e-08 -4.280936e-08 -2.631560e-08 -3.093443e-09 -1.456839e-08 3.272869e-11
-8.764993e-08 2.954814e-08 2.016398e-07 9.769147e-09 7.178579e-09 -1.762346e-09
2.120337e-08 7.010033e-08 -1.112054e-07 -2.011390e-08 -2.355105e-08 -5.556322e-10
2.554097e-08 -3.768214e-08 -2.432079e-08 4.891208e-09 -3.172244e-09 8.020218e-10
-6.672312e-09 8.787612e-08 -7.916704e-08 -2.720210e-08 -1.772136e-08 -4.737219e-09
-1.341536e-08 5.463585e-08 -5.761122e-08 -1.092784e-08 1.878670e-08 2.897558e-08
2.536867e-08 5.043858e-08 -1.148437e-07 -2.179568e-08 3.187894e-08 -3.741288e-11
-8.909952e-09 -6.415237e-09 6.139488e-08 2.588923e-08 -2.664690e-10 -1.118359e-08
3.118233e-08 1.285233e-07 -1.455926e-07 -7.339181e-09 3.576495e-08 1.270106e-08
2.369865e-08 -2.147406e-08 -3.768830e-08 -1.866719e-08 4.958745e-09 5.580763e-10
3.578093e-08 1.131586e-09 -9.262448e-08 -1.351733e-08 1.567856e-08 -1.179285e-09
-8.571130e-09 3.083348e-08 -4.624898e-08 -2.274465e-08 5.339734e-09 7.509207e-09
1.483648e-08 -4.251524e-08 1.058988e-09 -1.135728e-08 -9.580977e-09 -6.071882e-10
-4.690214e-09 1.125181e-08 -4.026276e-08 -2.805894e-08 1.851088e-08 1.042753e-08
4.686910e-09 -3.284111e-08 8.792128e-09 9.898064e-10 2.238328e-10 3.577872e-10
3.370133e-08 -4.013787e-08 -4.216413e-08 -9.253897e-09 2.361723e-08 6.749991e-09
9.236653e-09 -4.252368e-08 -3.347289e-10 -1.358721e-08 -1.166072e-08 -3.968890e-09
9.170013e-09 -3.282413e-08 -2.850463e-09 -6.342725e-09 -1.474817e-08 -1.897329e-09
9.153844e-09 -4.061901e-08 4.763528e-09 -6.868172e-09 -7.399156e-09 -8.728364e-10
5.633002e-09 -1.983140e-09 -1.105736e-09 -4.854787e-09 -1.735530e-10 2.305353e-10
1.303060e-08 -4.395323e-08 4.166182e-09 -2.037358e-09 -1.227913e-09 -1.331563e-09
2.293161e-08 -3.178294e-08 -2.414333e-08 -1.383945e-08 2.864220e-09 4.482209e-10
-5.887222e-09 3.019800e-09 9.998091e-10 1.224809e-09 8.382051e-11 2.462646e-10
5.257781e-09 -9.428760e-09 -2.873219e-08 -1.990810e-08 -1.673266e-08 -3.727288e-09
-6.847026e-09 3.245286e-09 1.024091e-09 8.907855e-10 2.426670e-11 -3.252296e-10
-5.447900e-09 2.555221e-09 7.803838e-10 1.785082e-09 1.379370e-10 -1.243468e-10
-5.684180e-09 2.720449e-09 8.404140e-10 1.251331e-09 -4.576572e-11 -3.296505e-10
-5.375918e-09 1.842141e-08 -5.629506e-09 -9.111909e-10 -7.540134e-09 -5.553389e-09
-5.715131e-09 2.733743e-09 9.985079e-10 1.434228e-09 5.560635e-11 3.823963e-11
-5.541477e-09 2.763798e-09 9.557541e-10 1.601448e-09 2.611411e-11 -2.109986e-10
-7.106607e-09 3.132336e-09 1.239267e-09 9.366250e-10 9.538570e-11 -1.181402e-10
-8.528065e-09 -1.288733e-08 1.992771e-09 -1.389283e-08 -1.188297e-08 -2.179626e-09
-6.868827e-09 2.897397e-09 1.197236e-09 1.140757e-09 9.557258e-12 6.573586e-11
-1.136557e-08 -3.735081e-09 -1.027699e-08 -1.263501e-08 -1.068678e-08 -3.802156e-09
-8.016524e-09 -1.475925e-08 4.924175e-09 -1.133614e-09 3.744065e-09 -3.536693e-10
-1.134355e-08 -6.724562e-09 -3.585756e-09 -7.867995e-09 -5.361024e-09 -3.086157e-09
-1.320863e-08 2.233869e-11 -4.753349e-09 -1.546667e-08 -2.104197e-08 -8.978694e-09
-8.595485e-09 -6.311394e-09 1.309826e-09 -1.639655e-08 -9.043136e-09 -3.721785e-09
-2.024386e-08 3.529088e-08 -2.112589e-08 5.014216e-09 4.305269e-09 -7.534448e-09
-2.012178e-08 2.912548e-08 -2.862144e-08 1.557083e-08 5.765857e-09 -5.272831e-09
-1.232837e-08 2.230893e-11 -1.480031e-08 -1.645466e-08 -1.891645e-08 -7.590451e-09
-1.318828e-08 -1.203693e-08 -9.531994e-10 -1.900760e-08 -1.397369e-08 -4.468306e-09
-1.835516e-08 2.526200e-08 -1.663749e-08 8.089230e-09 4.537024e-09 -3.910246e-09
1.940135e-09 4.248102e-08 -5.739418e-08 -1.502607e-08 -1.093226e-08 -5.402203e-09
-1.906492e-08 2.312626e-08 -1.544536e-08 1.656046e-08 9.059680e-09 -6.679096e-09
-9.180945e-09 -1.758641e-08 3.951882e-09 -1.588608e-08 -9.840832e-09 -3.207610e-09
2.529892e-08 -5.815068e-08 -1.059000e-09 -9.808823e-12 -2.485684e-09 5.551422e-10
3.752222e-09 -2.812684e-08 -3.599938e-09 -1.262873e-09 -1.563368e-09 -1.282616e-09
-1.681823e-08 3.542728e-08 -1.766358e-08 -2.767163e-09 1.945545e-09 -1.541030e-09
8.186992e-09 -3.116536e-08 1.150278e-10 -7.027623e-10 -1.659470e-09 -1.584088e-09
-1.755845e-08 2.628200e-08 -1.385851e-08 4.386950e-09 3.505840e-09 -1.747112e-09
-4.295143e-09 -1.184529e-08 -6.574828e-09 -1.743835e-08 -1.214676e-08 -3.918339e-09
-1.872256e-08 3.424495e-08 -1.907590e-08 1.124162e-09 6.251971e-09 -9.956017e-09
3.128048e-09 -1.435870e-09 -5.568670e-10 3.042006e-09 -1.103053e-10 -1.389704e-10
3.048593e-09 -1.436661e-09 -4.145484e-10 2.870956e-09 -6.783174e-11 -5.605805e-11
3.962160e-09 1.997586e-09 -1.373786e-10 -1.685903e-08 3.913191e-10 -1.615895e-09
-2.820702e-10 7.455945e-08 -7.760776e-08 -1.774552e-08 -1.783943e-08 1.684067e-08
2.327287e-08 -9.439326e-09 5.012957e-09 -8.608189e-09 1.152806e-09 -3.827823e-09
6.670627e-09 -3.281141e-09 -9.046990e-10 2.328856e-09 -2.700523e-11 -2.567344e-10
-9.035121e-09 3.960308e-08 -3.054372e-08 -2.602769e-08 5.477096e-09 1.759964e-08
1.757571e-08 -2.259123e-08 6.571441e-08 -5.759427e-09 3.671653e-09 -3.502786e-08
5.705811e-09 -2.886465e-09 -8.307954e-10 2.886767e-09 -1.009252e-10 -1.168556e-10
5.196360e-09 -2.838916e-09 -7.579573e-10 2.081725e-09 2.166534e-10 -1.401654e-10
6.013924e-09 -3.295014e-09 -9.082779e-10 2.365087e-09 1.808611e-10 4.259140e-10
-5.912148e-09 4.341694e-08 2.660864e-09 -3.877736e-08 1.173222e-08 -3.650999e-09
4.973322e-09 -9.394115e-10 -9.690058e-10 -8.645195e-09 -3.490586e-10 7.298340e-10
3.738796e-09 -1.675964e-09 -4.697827e-10 3.239912e-09 1.985836e-10 5.464176e-10
6.090597e-09 1.792211e-09 -1.174289e-09 -1.319936e-08 -4.220907e-10 1.174541e-10
-7.993878e-09 7.252399e-09 9.047829e-10 5.167978e-09 8.631766e-10 3.794593e-10
1.392374e-08 -7.811238e-09 -1.063985e-09 -1.793503e-10 1.380963e-10 3.119420e-10
1.547902e-08 -8.506147e-09 2.579072e-09 -1.107082e-08 7.031367e-11 -1.665824e-09
-1.127118e-08 1.015717e-08 8.610135e-10 2.055076e-09 -3.264176e-10 -6.131769e-10
6.039180e-09 8.776173e-09 2.130214e-08 -3.313985e-08 -4.563357e-10 -3.235802e-09
1.280124e-08 -7.341453e-09 3.935836e-08 -2.148581e-08 8.570935e-09 -1.012558e-08
-1.422093e-08 1.063412e-08 -3.601346e-10 -9.538844e-10 9.680032e-10 2.066391e-10
-9.414350e-09 8.376054e-09 7.065242e-10 3.791589e-09 1.069967e-09 8.910448e-11
1.719793e-08 -9.152598e-09 -3.080993e-10 -5.027364e-09 1.588990e-10 -7.488206e-10
-9.775235e-09 8.429592e-09 9.152465e-10 3.794691e-09 -5.871459e-10 -3.836147e-10
5.442236e-09 2.285939e-10 -1.475690e-09 -1.431558e-08 4.316658e-11 -1.285885e-10
-1.387294e-08 1.326594e-08 -2.011959e-10 3.218139e-09 1.803707e-09 1.344625e-09
-1.064346e-08 1.142873e-08 2.202052e-10 6.096449e-09 8.269353e-10 5.323686e-10
2.161590e-08 -9.305784e-09 1.973465e-09 -5.916311e-09 -2.466296e-10 -4.748519e-10
2.110866e-09 2.010970e-09 -7.423773e-10 -9.805267e-09 -7.977321e-10 -1.797746e-10
1.299738e-08 -3.610424e-08 4.216438e-09 -6.071925e-09 1.196446e-09 -2.069486e-10
1.024416e-08 -3.542825e-08 5.943403e-09 -5.541854e-09 4.740387e-10 -6.919110e-11
1.433906e-08 -6.644998e-09 -1.004595e-09 -9.437287e-09 3.582657e-10 3.100625e-10
2.113420e-08 -9.629206e-09 2.821892e-09 -7.969575e-09 5.003944e-10 -1.655114e-09
1.312134e-08 -3.934502e-08 6.231360e-09 -3.319419e-09 3.689315e-10 -2.229350e-10
1.138106e-08 -4.083053e-09 1.750251e-09 -1.420448e-08 5.722192e-10 -2.471632e-09
1.154904e-08 -3.704106e-08 3.657121e-09 -6.187436e-09 -1.793752e-10 2.589773e-10
9.161268e-09 -3.629564e-09 2.689033e-09 1.169302e-08 -4.327059e-10 -2.239133e-09
1.024428e-08 -3.346315e-08 5.162111e-09 -5.757758e-09 5.481564e-10 5.869761e-11
8.638064e-09 -2.503415e-09 3.695719e-10 9.181725e-09 -3.848699e-10 -1.584903e-09
1.443578e-08 -3.890341e-08 5.256592e-09 -4.021255e-09 1.702424e-09 -6.375394e-10
2.363893e-08 -8.129075e-09 2.539859e-09 -1.311371e-08 1.331628e-11 -1.729976e-09
-3.338891e-08 5.993188e-08 -7.431746e-09 1.466069e-08 -1.322403e-08 1.419302e-08
1.261474e-08 2.614721e-08 -5.984420e-08 -2.336169e-08 1.143781e-08 1.477276e-09
1.024431e-08 -3.438781e-08 5.179092e-09 -5.802283e-09 4.617515e-10 -4.594067e-10
-1.067000e-08 4.685342e-09 -4.399333e-09 3.002977e-10 -7.871059e-10 -4.167089e-10
2.838855e-09 8.627761e-08 -1.062367e-07 -1.828699e-08 2.387108e-08 4.279998e-08
3.032042e-08 1.673097e-08 -1.154201e-07 -1.460303e-08 4.098288e-08 1.514249e-09
5.063367e-08 4.656213e-08 -1.411725e-07 -5.900480e-09 5.711039e-08 -1.650076e-09
4.094913e-08 3.206048e-09 -8.426472e-08 -6.496778e-09 1.266852e-08 6.263899e-11
2.377943e-08 -2.224211e-08 -4.571679e-08 2.120640e-08 7.993685e-09 -1.735669e-09
-9.932679e-09 3.988552e-09 -2.173327e-09 -1.049884e-09 -5.585754e-10 4.834948e-10
-9.914832e-09 -7.740131e-11 1.044200e-09 -9.057106e-10 -3.420640e-11 9.248178e-11
2.961985e-08 -3.172683e-08 -3.038408e-08 -8.267271e-09 6.414567e-09 4.285435e-10
-1.041049e-08 2.036622e-09 9.741024e-10 -6.119320e-10 -5.286864e-10 -1.322747e-10
-9.725406e-09 2.732286e-10 -1.195105e-09 1.561269e-09 -3.465623e-10 8.329532e-10
-4.376121e-09 3.859674e-09 -7.210930e-10 -8.107506e-09 -7.293481e-10 2.112727e-10
-9.725893e-09 -1.158350e-09 2.786980e-10 2.408834e-09 -6.681021e-10 3.397720e-10
-3.728487e-08 3.141442e-08 2.512927e-08 2.256536e-08 -1.213362e-09 1.465076e-08
-3.502968e-09 1.240061e-08 -6.987369e-09 -4.543089e-08 -4.281512e-08 -2.347268e-08
-9.725380e-09 -9.178737e-10 -1.111266e-09 1.489305e-09 -1.783938e-09 -1.985849e-10
-2.615982e-08 9.720383e-08 2.447717e-08 3.379075e-08 -3.972631e-08 2.228471e-09
-1.715324e-09 5.352813e-08 -5.993503e-08 -1.552892e-08 -1.404450e-08 2.142568e-08
-1.344108e-08 6.243576e-08 -2.052920e-08 -3.838001e-08 -5.836845e-09 -9.192973e-10
5.989169e-08 -1.320096e-08 -1.159550e-08 -5.554979e-09 1.646485e-09 -1.872842e-09
6.015656e-08 -1.388075e-08 -4.559405e-09 -7.223116e-09 -6.589576e-10 5.160601e-10
6.681745e-08 -2.131069e-08 2.421019e-09 1.802562e-09 2.222790e-09 5.490976e-09
-3.177897e-09 4.220343e-08 -4.230820e-08 -1.846013e-08 -3.748065e-09 1.119174e-08
5.976641e-08 -9.951251e-09 -6.749676e-09 -2.511534e-09 -1.521930e-09 1.800212e-09
6.073075e-08 -1.371619e-08 -8.566818e-09 -2.523045e-09 1.195339e-09 2.181161e-09
-5.560927e-09 2.147435e-09 1.164466e-09 2.256225e-09 1.777727e-10 -2.037130e-10
6.105012e-08 -2.107580e-08 -2.668782e-09 -5.506541e-09 -5.762509e-10 1.266352e-08
8.364690e-09 -4.452262e-09 -1.054220e-09 2.536439e-09 3.804801e-11 1.555935e-10
-5.578488e-09 2.468391e-09 8.091128e-10 2.857094e-09 -1.796953e-10 -1.828653e-10
-4.228410e-09 3.407765e-09 5.896856e-10 4.805592e-09 -1.010609e-10 -1.330405e-10
7.055049e-08 -1.203588e-08 -8.863226e-09 -9.420511e-09 -2.744429e-09 1.574749e-08
8.103872e-08 -1.371953e-08 -8.083710e-09 -4.231571e-09 -5.221268e-10 1.893453e-08
2.289019e-08 -2.422923e-08 -2.869526e-08 8.923436e-09 -1.451382e-08 4.732530e-09
2.554097e-08 -4.245873e-08 -1.919765e-08 4.596194e-09 -3.375833e-09 1.095221e-09
2.112350e-08 -3.819774e-08 -1.406579e-08 6.887256e-09 -5.692343e-09 1.829176e-09
-1.707306e-09 -2.281625e-08 7.748497e-09 2.726487e-09 1.574829e-10 2.119757e-10
-1.028267e-09 -2.751426e-08 6.911006e-09 9.127375e-09 1.622581e-09 -8.027269e-11
2.069397e-08 -2.885916e-08 -2.528294e-08 8.297550e-09 -5.278519e-09 6.280485e-10
1.897168e-08 -3.141246e-08 -1.711093e-08 8.436036e-09 -9.624538e-09 1.551815e-09
-2.459361e-09 -2.382379e-08 8.090944e-09 5.232108e-10 -3.928735e-14 -1.299134e-10
2.823778e-08 -3.969940e-08 -2.611650e-08 6.654949e-09 -1.432762e-08 2.766450e-09
1.252370e-09 -2.770052e-08 8.471116e-09 2.059322e-09 -1.273506e-10 3.197001e-10
-3.466251e-09 -2.426271e-08 7.932830e-09 1.519062e-09 1.725109e-10 -4.897715e-11
1.897166e-08 -3.091066e-08 -1.992166e-08 8.409584e-09 -4.130069e-09 1.176267e-09
2.697163e-08 7.209074e-09 3.587930e-11 -2.235586e-08 -5.280843e-09 4.211742e-09
-9.253363e-10 -2.550763e-08 7.898494e-09 2.487130e-09 5.260268e-10 -1.519685e-10
1.021159e-08 1.211295e-08 -7.114451e-10 -1.291887e-08 -1.496835e-09 1.772773e-10
1.299795e-08 -3.948598e-08 1.415345e-09 -6.296045e-09 2.203939e-09 2.173522e-11
3.176748e-10 -2.824876e-08 7.489056e-09 7.040290e-09 4.273457e-10 1.640834e-10
8.596949e-09 -3.594712e-08 7.875405e-09 1.247239e-09 -2.258371e-10 -3.799414e-10
3.185761e-09 1.798801e-08 -5.816873e-09 -1.047351e-08 -1.909189e-09 5.804008e-09
1.057563e-09 2.548293e-08 -7.993280e-09 -2.550045e-08 -2.440449e-09 -1.921482e-09
-6.015203e-09 -4.579145e-09 1.717012e-09 -9.461848e-09 4.571403e-10 3.181184e-10
-9.820225e-09 2.801285e-08 -5.874690e-09 -1.596296e-08 3.428890e-10 -4.250295e-09
1.344456e-08 -7.227311e-09 -1.024119e-09 -6.080077e-09 -6.036393e-11 -2.470246e-10
1.190505e-08 -3.942340e-09 -3.603997e-10 -1.370957e-08 -3.542987e-11 -4.169416e-10
1.064331e-08 -2.040614e-09 -3.604009e-10 -1.307841e-08 -2.420456e-10 -6.672443e-10
1.236821e-08 -7.000430e-09 -1.470538e-09 -1.450470e-09 -3.196732e-11 2.864253e-10
4.215829e-09 2.181079e-09 -9.524568e-10 -1.743317e-08 -5.311028e-10 1.748861e-09
5.113908e-09 -6.157598e-10 -1.028778e-09 -8.262921e-09 6.877521e-11 -2.697433e-10
-2.080704e-08 1.803596e-08 -1.458848e-08 1.280489e-08 4.111686e-09 -2.093706e-09
6.182536e-09 -1.514692e-09 -1.119327e-09 -7.899871e-09 -3.160522e-10 1.859469e-10
8.027317e-09 -4.292745e-09 -1.182370e-09 -1.990573e-10 8.285639e-11 2.220116e-16
-1.382442e-08 3.753896e-08 -2.119004e-08 4.350891e-10 2.756941e-09 -2.984106e-09
1.261237e-08 -3.181339e-09 -6.530665e-10 -1.156288e-08 -3.547593e-10 -3.994032e-10
1.353015e-08 -5.521516e-09 -1.024119e-09 -6.639627e-09 -2.126697e-10 -2.335625e-10
6.826576e-09 -1.370689e-10 -1.412095e-09 -1.052610e-08 -1.465114e-10 9.756041e-11
-7.559430e-09 3.121400e-08 -1.070270e-08 -1.011498e-08 7.508697e-10 -5.808114e-10
-1.551357e-08 4.055191e-08 -2.291886e-08 -5.351020e-09 1.618523e-09 -5.998674e-09
6.861347e-09 -1.174816e-09 -1.027871e-09 -1.037567e-08 1.444165e-10 -1.069462e-10
8.335829e-09 -2.148426e-09 -9.619295e-10 -1.230622e-08 8.404801e-11 -9.965451e-10
6.313187e-09 8.172141e-10 -1.518319e-09 -1.205169e-08 -6.304373e-10 -3.150655e-10
1.038399e-08 9.855161e-10 -1.475691e-09 -1.638648e-08 5.132872e-10 -1.874641e-09
-1.631201e-08 3.863511e-08 -2.101473e-08 4.465374e-09 6.876905e-09 -8.962383e-09
-4.290259e-09 3.933367e-09 1.811311e-10 -2.014765e-09 -2.389406e-10 -1.988920e-11
-3.529078e-09 -2.204443e-08 3.372293e-09 1.443057e-08 3.122312e-09 -6.979525e-10
-2.379953e-09 3.045860e-09 -1.210605e-10 -1.582259e-09 -1.957503e-10 -1.526064e-10
3.234137e-10 -2.013831e-08 -1.033253e-08 2.319684e-08 6.885854e-09 -3.823410e-10
-1.865460e-09 -2.712582e-08 6.577103e-09 1.047366e-08 1.999476e-09 -2.683077e-10
4.299668e-08 2.171013e-09 -9.086889e-08 4.790849e-09 4.510133e-08 -2.323686e-09
3.951715e-08 -1.384962e-08 -8.426472e-08 -5.186675e-10 1.060847e-08 3.784155e-10
-5.588497e-09 4.976478e-09 2.322984e-10 -3.161622e-10 -3.182665e-11 -1.181558e-10
-6.102897e-09 4.730772e-09 2.997702e-10 -1.245209e-09 -2.144238e-10 -3.191536e-10
-4.979973e-09 -1.627475e-08 -5.973195e-09 2.102144e-08 1.120561e-09 -6.291616e-10
-4.301169e-09 3.794766e-09 2.516098e-11 -2.140530e-09 -5.214762e-11 -7.780865e-11
-3.860576e-09 -2.582237e-08 6.886907e-09 1.388548e-08 2.639581e-09 -1.149439e-09
1.379756e-08 -3.446546e-08 -4.382725e-09 1.735147e-08 1.862266e-09 -1.371703e-09
-4.490316e-09 4.238614e-09 2.120386e-10 -1.940879e-09 -8.620704e-11 -8.251688e-11
-5.500349e-09 4.741836e-09 3.020157e-10 -9.488511e-10 -4.764622e-11 -1.765565e-10
2.805523e-08 -1.277994e-08 -6.543883e-08 3.137671e-08 3.120712e-08 -9.910532e-09
1.935338e-08 -1.267014e-08 -5.632648e-08 2.935739e-08 2.975586e-08 -4.704876e-09
2.902974e-08 -1.560661e-08 -4.076208e-08 1.618076e-08 1.449818e-08 -5.339987e-09
8.540169e-09 -4.841814e-09 -1.158408e-09 6.275455e-10 9.301521e-11 8.254097e-11
5.026719e-08 -1.709006e-08 2.351758e-08 -2.967143e-08 -6.621934e-09 1.950827e-08
3.739747e-08 -2.876432e-08 -5.932336e-08 1.051656e-09 2.813078e-08 4.998523e-10
3.770130e-08 2.008528e-09 -1.052672e-07 -6.368816e-09 2.347353e-08 -2.029491e-09
8.620780e-09 -4.630953e-09 -1.078450e-09 7.721335e-10 -4.324907e-11 -2.315093e-11
8.534276e-09 -4.584183e-09 -1.122943e-09 2.584825e-09 -2.364142e-11 -5.191674e-10
3.575447e-08 -1.306971e-08 -5.895467e-08 -1.491830e-08 6.724416e-09 2.231395e-10
3.573787e-08 -2.229588e-08 -5.895467e-08 -6.784534e-09 1.002205e-08 2.197748e-10
3.538724e-08 -1.540260e-08 -5.788076e-08 9.540177e-09 1.005682e-08 -7.381748e-10
3.887152e-08 -3.612918e-08 -5.150406e-08 1.662448e-08 2.992216e-08 -2.957452e-09
5.439801e-09 -2.886690e-09 -7.631528e-10 2.742888e-09 -8.252160e-11 3.097256e-11
-6.513682e-08 6.572603e-08 1.080779e-07 -1.259352e-08 5.518966e-08 2.253630e-09
9.661210e-09 -5.212399e-09 -1.225903e-09 2.127962e-09 -5.662087e-11 3.907470e-10
2.557096e-08 4.321081e-08 -1.032754e-07 -2.090782e-08 -4.297971e-08 -2.079634e-09
7.169688e-09 -4.096881e-09 -9.770051e-10 1.771349e-09 2.357341e-10 2.319061e-12
8.259019e-09 -4.452262e-09 -9.817971e-10 2.511579e-09 1.660337e-10 4.205694e-10
-9.440135e-10 -3.388715e-08 1.625839e-09 -2.068772e-08 -1.611475e-08 -3.540225e-09
8.217946e-09 -4.389933e-09 -1.039157e-09 2.366113e-09 -1.996678e-10 -1.145672e-10
1.116789e-07 -8.086650e-09 -2.014206e-08 -9.729641e-09 -1.297502e-09 3.832104e-08
-2.787938e-08 5.294015e-08 7.041641e-08 -4.020394e-08 -2.165292e-08 -7.262469e-09
-6.871559e-08 5.517766e-08 4.676776e-08 -4.234979e-08 -8.082073e-09 -1.348109e-08
6.038717e-09 -3.002211e-09 -6.664405e-10 3.075140e-09 2.326357e-10 5.328704e-10
6.027084e-09 -2.876719e-08 6.088039e-09 -4.873413e-09 4.646832e-10 1.900219e-11
5.334236e-09 -4.001736e-08 -3.360960e-09 -2.719722e-08 -2.228002e-08 -6.852712e-09
-3.855906e-08 5.905585e-08 3.688506e-08 -5.552461e-08 -1.583868e-08 -6.386781e-09
2.093187e-08 7.742078e-08 -7.817828e-08 -1.306018e-08 -1.855571e-08 3.414078e-09
-1.026819e-08 5.660622e-08 -3.276156e-08 -4.126143e-08 -1.315586e-08 9.060034e-10
8.605041e-09 -3.157235e-08 5.742034e-09 -3.312561e-09 8.046830e-10 -1.852551e-10
1.024416e-08 -3.542912e-08 6.006562e-09 -5.542361e-09 3.612328e-10 -2.015322e-10
2.466767e-08 -4.852724e-08 -9.359275e-09 1.637825e-10 -2.937078e-09 4.409942e-10
1.140610e-08 -3.661168e-08 6.167646e-09 -1.998906e-09 8.253278e-10 -3.017460e-10
1.154814e-08 -3.497854e-08 5.158773e-09 -5.936473e-09 -4.816591e-12 1.162165e-10
3.056373e-08 4.277327e-08 -9.697895e-08 -5.171345e-09 -3.806374e-08 1.246412e-08
2.072347e-08 5.285336e-08 -1.066212e-07 -1.039100e-08 -4.303586e-08 5.248416e-09
-4.037782e-08 -4.976517e-08 1.788886e-07 3.944244e-08 3.774273e-08 9.679999e-08
4.126237e-09 -2.518241e-08 4.523638e-09 -8.200394e-09 2.687189e-10 1.169932e-10
1.210926e-08 7.397903e-08 -1.044013e-07 -2.506533e-08 -1.741951e-08 1.513077e-11
6.789540e-09 -3.007759e-08 5.197258e-09 -7.829517e-09 2.595264e-10 5.219561e-10
6.179489e-09 -3.066259e-08 5.757624e-09 -5.777768e-09 2.815916e-10 -3.792469e-10
-3.880746e-09 3.572119e-09 1.388654e-10 -2.767457e-09 -2.137243e-10 -1.650835e-10
-5.017295e-09 4.370721e-09 1.050431e-10 -6.934859e-10 -2.301540e-10 -1.930565e-10
-5.014034e-09 4.703997e-09 3.024385e-10 -5.977063e-10 7.722623e-11 3.258505e-10
-5.624006e-09 4.946870e-09 2.257108e-10 -8.589218e-11 -8.533173e-13 -3.122214e-11
1.119149e-08 -3.427451e-08 4.998357e-09 -6.996586e-09 2.013140e-09 -3.585425e-10
-5.546696e-09 -8.819043e-09 -7.118999e-10 3.282214e-09 -1.066310e-09 -5.113144e-10
-7.924555e-09 -4.221069e-09 3.241913e-10 8.099012e-10 -6.327813e-10 1.036305e-11
-5.455708e-09 4.856650e-09 2.601981e-10 -9.635892e-11 -1.774891e-11 -6.550382e-11
-7.930908e-09 -4.212263e-09 -1.205197e-09 8.183476e-10 -1.662270e-11 -2.019248e-10
2.027123e-09 -6.624346e-11 -7.088845e-10 -2.137075e-09 -2.308765e-10 5.290253e-10
-9.940183e-09 -2.351487e-10 -1.853535e-10 1.059429e-09 -2.747902e-10 3.688352e-10
-7.350882e-09 5.381110e-09 -4.226833e-10 -6.535656e-09 -7.882768e-10 2.817679e-11
3.243981e-09 -2.282140e-08 -8.401964e-10 -1.477246e-08 1.583724e-09 9.648375e-10
-5.989456e-09 -7.457581e-09 -5.285025e-09 7.157737e-09 -1.934831e-09 1.110496e-09
-8.402965e-09 1.603880e-09 -2.097861e-09 2.201309e-09 6.546779e-10 -6.030808e-11
3.236802e-10 1.664065e-09 -5.687415e-10 -6.458783e-09 -6.337195e-10 -9.117818e-11
-5.623487e-09 4.373478e-09 3.536376e-10 -1.422808e-09 -1.472763e-10 -1.058924e-10
-6.840165e-09 -5.302460e-09 -1.343244e-09 4.191873e-09 -7.815280e-10 2.116157e-11
-1.031678e-08 -6.185323e-10 3.245324e-10 1.971652e-09 -1.003051e-09 1.525467e-10
-7.904715e-09 4.301954e-09 1.077791e-09 4.585488e-11 3.911316e-11 -2.621525e-11
-7.844748e-09 4.229115e-09 1.120007e-09 1.136218e-10 9.205858e-11 -6.698217e-11
-8.070749e-09 3.582535e-09 1.468622e-09 1.461263e-10 4.694284e-11 -1.002887e-10
9.329932e-09 -3.056094e-08 -1.276126e-08 9.107388e-09 -2.139983e-09 2.847240e-10
1.278968e-08 -6.610908e-09 -1.499372e-09 -8.491783e-10 1.389671e-10 5.496004e-11
8.188328e-09 -1.718546e-08 -1.699286e-08 9.086044e-09 -2.441794e-09 1.097972e-09
-7.517073e-09 3.593339e-09 1.214288e-09 6.967264e-10 -3.321343e-11 6.479357e-11
-7.834995e-09 3.845811e-09 1.217410e-09 3.947509e-10 -3.608047e-11 5.274980e-11
8.188334e-09 -2.106348e-08 -8.696936e-09 9.673112e-09 -4.687965e-09 5.144509e-10
8.366167e-09 -1.172692e-08 -1.545723e-08 7.313578e-09 -6.540994e-09 3.212338e-09
-5.478899e-09 4.998581e-09 1.952165e-10 -2.499874e-11 -4.358479e-11 -7.336198e-11
2.294788e-08 -3.941216e-08 -1.601362e-08 3.362711e-09 -3.828274e-09 8.763596e-10
-4.114517e-09 4.108201e-09 7.024248e-11 -9.093232e-11 -6.058025e-11 -4.259770e-11
1.122419e-08 -5.746137e-09 -1.402348e-09 1.095609e-09 7.278933e-12 -9.131247e-11
-5.120479e-09 4.626569e-09 2.398608e-10 -1.546905e-10 -8.881784e-12 1.024629e-10
2.069397e-08 -3.154196e-08 -2.215384e-08 8.459084e-09 -2.922031e-09 7.111227e-10
1.312533e-08 -3.051119e-08 -1.041004e-08 9.537193e-09 -4.187333e-09 1.454529e-09
-1.707072e-08 -1.723060e-09 3.709909e-09 -1.519926e-10 -1.001234e-09 -1.614728e-10
7.501098e-09 -3.775869e-09 -9.410588e-10 2.806832e-09 1.082226e-10 3.475388e-10
-1.166226e-08 -9.383037e-09 6.574741e-11 -7.677276e-10 -1.051306e-09 -4.429759e-10
1.909189e-08 -3.310534e-08 -2.108697e-08 1.087907e-08 -1.276659e-08 3.485109e-09
-1.699464e-09 -1.752347e-08 4.778249e-09 -2.458391e-09 6.748595e-10 -2.874060e-10
-1.102938e-08 -1.422361e-08 2.797366e-09 9.233031e-09 4.416400e-10 1.650892e-10
-2.942414e-09 -2.391769e-08 8.256654e-09 9.693634e-10 1.214444e-10 1.985034e-11
-1.724899e-09 -2.398194e-08 7.944200e-09 2.050600e-10 1.852929e-11 7.706558e-11
-1.252978e-09 -1.539699e-08 4.980198e-09 -3.213304e-09 1.107514e-11 -6.673832e-10
4.954703e-12 1.571208e-09 -3.478258e-10 -8.961586e-10 -1.556304e-10 -1.741967e-10
-3.333494e-09 -1.193152e-08 4.013882e-09 -5.489441e-09 3.070024e-10 -2.750051e-10
-6.903015e-09 -3.717691e-09 3.736271e-09 -2.680409e-09 -2.192426e-10 -2.641624e-11
4.353349e-09 -1.640665e-09 -8.312802e-10 -2.234366e-10 -3.194527e-10 4.107270e-12
2.631015e-09 -1.120055e-10 -5.791767e-10 -1.966565e-09 6.601120e-11 -7.413132e-10
6.366715e-09 -3.149487e-09 -9.586869e-10 -2.295656e-10 -2.159458e-10 2.605893e-11
-2.668709e-09 2.761031e-09 -7.587486e-11 -1.172458e-10 1.867173e-11 -7.620193e-11
-6.074961e-09 4.736650e-09 3.981517e-10 -1.226823e-09 -1.175859e-10 1.942166e-10
-5.268403e-09 4.630957e-09 2.357641e-10 -5.633716e-11 -9.214102e-12 -3.416878e-12
-6.236254e-09 -7.189654e-09 3.735210e-09 -3.934978e-09 4.905965e-11 1.944610e-10
-3.694037e-09 -1.100028e-08 4.532392e-09 -3.730699e-09 4.644380e-10 -6.367292e-10
-7.809131e-09 4.301758e-09 1.078214e-09 1.017100e-13 4.073037e-11 -3.385381e-11
-2.030426e-08 1.382055e-08 -5.001618e-09 -3.044979e-09 -7.701983e-09 -1.760784e-09
-2.936125e-09 -1.391334e-08 4.068870e-09 -5.234336e-09 2.150034e-10 -4.228308e-10
-1.637758e-08 4.652663e-10 -2.060783e-10 -3.146667e-10 -2.240925e-10 -6.020790e-10
-5.913754e-09 -5.909707e-09 3.262744e-09 -5.082631e-09 -3.561116e-10 -4.431033e-10
-6.281094e-09 -7.611518e-09 3.742790e-09 -4.495922e-09 -6.757852e-10 -7.725864e-10
-1.752721e-07 -5.385984e-08 3.976285e-07 -3.353513e-08 3.094319e-08 -7.624414e-08
-1.857258e-08 3.694192e-08 2.650775e-08 3.061094e-08 -1.177193e-08 -2.883713e-09
-2.877298e-08 6.058195e-08 -2.151827e-08 6.834603e-09 2.160464e-09 1.156227e-08
-9.141859e-10 6.011081e-08 -2.801698e-08 -3.249390e-08 1.322585e-08 1.559887e-08
-2.299475e-08 1.376622e-08 -3.975890e-09 2.915118e-09 7.392095e-09 -1.099007e-09
-2.264969e-08 2.585667e-08 1.331939e-09 2.233135e-08 2.437744e-09 -2.051174e-10
-2.335283e-08 2.673915e-08 5.898070e-09 2.077639e-08 -8.305468e-09 1.975309e-10
-3.188068e-09 1.060690e-07 -3.647091e-08 -3.805456e-08 3.746062e-08 7.117435e-09
-5.839149e-08 2.966775e-09 1.566965e-07 -4.623110e-08 2.567637e-08 -7.002722e-08
5.430940e-10 2.982315e-08 1.092386e-07 -5.899313e-08 4.671577e-08 -4.584916e-08
-2.767474e-08 6.243468e-08 -2.146026e-08 3.269062e-09 3.462270e-10 1.820092e-08
-1.278924e-08 9.925264e-08 -2.927016e-08 -4.693595e-08 3.265977e-08 -3.704602e-09
-3.795024e-08 5.007416e-08 -1.958770e-08 -2.987307e-09 1.564372e-09 1.092164e-08
5.994923e-09 5.370852e-08 -1.001431e-07 -2.033368e-08 2.224241e-08 1.955418e-08
-2.652434e-08 3.367266e-08 -1.127548e-08 9.661738e-09 1.088601e-09 -2.280928e-09
-4.008005e-08 5.940985e-08 7.812212e-09 1.264258e-08 -1.214741e-08 2.275971e-08
-3.804160e-09 -1.716156e-08 -4.868790e-10 1.516863e-08 2.626228e-09 -1.686555e-09
-1.546057e-08 -3.162237e-09 -2.523227e-09 1.029407e-08 -2.148763e-09 7.704623e-10
-5.879398e-09 -2.204443e-08 4.592929e-09 1.464034e-08 1.798052e-09 5.272225e-10
4.885628e-09 3.050530e-08 -6.774385e-08 2.717635e-08 9.243261e-09 -4.391847e-09
4.499457e-08 2.511172e-08 -1.303808e-07 2.180847e-08 6.145407e-08 -1.501201e-08
5.189278e-08 -3.677945e-09 -1.108401e-07 -7.083868e-09 5.579481e-08 6.192307e-09
4.291698e-08 -2.658180e-08 -7.996528e-08 -1.863192e-09 4.082733e-08 1.647500e-09
1.746536e-08 4.356522e-09 -6.128095e-08 -3.094759e-08 2.585345e-08 1.522344e-08
1.959838e-08 3.375503e-09 -8.380280e-08 -3.650221e-08 3.474103e-08 2.077178e-08
2.184129e-08 -1.711645e-08 -5.247647e-08 -2.425616e-08 2.463754e-08 4.969313e-09
-8.836253e-09 -1.738677e-08 4.080601e-09 8.044451e-09 -1.099248e-10 -2.244800e-10
-3.239807e-09 -2.563283e-08 4.444636e-09 1.342335e-08 1.314880e-09 -4.534357e-10
4.396035e-08 1.400389e-09 -8.332744e-08 -1.042456e-08 3.734417e-08 5.159060e-09
-4.905734e-09 -2.278563e-08 5.214711e-09 8.973225e-09 8.224079e-10 1.812290e-10
-8.009255e-09 -1.806166e-08 3.983439e-09 1.051779e-08 1.261101e-09 -7.395480e-10
-7.913002e-09 -1.713570e-08 2.740411e-09 1.201477e-08 1.541697e-09 -2.751577e-10
-7.867986e-09 -1.711766e-08 1.444794e-09 1.212502e-08 -3.084674e-10 -6.221757e-10
1.134173e-08 -8.154170e-10 8.367058e-10 -1.767854e-08 8.877621e-10 -1.868770e-09
-3.964449e-09 -2.310539e-08 6.235616e-09 8.641550e-09 -3.719467e-10 5.583813e-10
1.814809e-09 6.166377e-09 -4.685198e-10 -2.108332e-08 9.877777e-10 2.008136e-09
-1.387217e-09 2.443109e-09 -2.137017e-10 -1.854774e-09 -2.733805e-10 -7.034863e-11
-4.681544e-10 1.812007e-09 -4.175247e-10 -2.735805e-09 -5.400421e-11 -4.240189e-11
1.879930e-08 -6.627330e-09 6.662542e-10 -9.885128e-09 -4.829626e-11 -9.033492e-10
1.288255e-08 -2.614801e-09 -5.749359e-10 -1.255368e-08 -3.177146e-10 -2.148994e-10
1.336634e-08 -5.108543e-09 -8.355903e-10 -1.171382e-08 2.452269e-10 -4.095768e-10
8.657132e-09 5.274967e-10 3.920158e-10 -1.632620e-08 5.461740e-10 5.848839e-11
2.089391e-08 -8.116198e-09 5.721386e-09 -1.350613e-08 -7.024000e-10 -3.116788e-09
2.211428e-08 -1.327091e-08 1.616473e-08 -9.744819e-09 1.711188e-09 -6.133496e-09
-2.671605e-10 1.814723e-09 -3.912382e-10 -3.000308e-09 9.182969e-11 -1.216858e-10
1.231269e-08 -5.086741e-09 -5.921530e-10 -1.135780e-08 4.650803e-11 -3.733149e-10
-1.970230e-09 2.952543e-09 -1.048308e-10 -3.488152e-09 -5.708500e-11 -4.756040e-11
-3.280683e-09 3.142412e-09 -7.247003e-11 -2.396043e-09 -1.332832e-10 -1.685396e-10
-6.711764e-09 3.951996e-09 9.012506e-10 3.414141e-09 -5.213057e-10 -6.216283e-10
-3.158965e-09 3.333227e-09 -3.967227e-11 -1.967827e-09 -5.251732e-11 1.515914e-10
-1.245889e-08 8.398126e-09 -9.986727e-09 -9.608780e-09 -5.002807e-09 -1.927909e-09
-1.219548e-08 2.214056e-09 -8.611808e-09 -1.033607e-08 -5.564619e-09 -1.965071e-09
-9.432762e-09 -4.828012e-09 -3.691532e-09 -6.123365e-09 -2.283217e-09 2.593850e-10
-1.333885e-08 -2.300674e-09 -4.589898e-09 -7.693307e-09 -1.725239e-09 -1.394686e-09
-6.879223e-09 2.533104e-09 1.364580e-09 1.506679e-09 -2.872569e-11 -2.307798e-10
-5.512466e-09 -8.262592e-09 -9.665058e-09 -1.195199e-08 -6.315962e-09 -6.869904e-10
-2.575356e-09 -1.122433e-08 -9.374343e-09 -1.303048e-08 -5.468513e-09 -1.815631e-09
-4.155155e-09 3.424486e-09 8.054537e-10 6.175143e-09 6.886131e-10 -2.273561e-10
-2.694494e-09 1.771519e-09 5.407275e-10 4.497348e-09 4.407992e-10 -5.559635e-10
2.486028e-09 -2.112265e-08 -1.275830e-08 -1.048548e-08 -3.038966e-09 -1.217067e-10
2.095233e-09 1.303651e-09 2.014622e-09 1.048417e-08 -2.075899e-10 -2.386484e-09
-6.663972e-10 3.159281e-09 1.268712e-09 8.973583e-09 4.548417e-10 -4.498795e-10
-3.313647e-09 1.933913e-09 4.135350e-10 2.151639e-09 2.747882e-10 -4.285659e-10
-3.580859e-09 3.518893e-09 3.359091e-11 -3.483942e-09 7.954712e-11 8.279022e-11
6.357725e-10 -1.970269e-08 -1.487974e-10 -1.400487e-08 -2.685507e-10 4.674860e-10
-1.599432e-08 1.936743e-08 -6.445983e-09 -3.183211e-09 -7.722595e-09 -2.233832e-09
-3.267514e-09 3.140743e-09 -5.011636e-11 -2.391021e-09 8.824579e-11 7.709286e-11
-3.529337e-09 3.476259e-09 1.244045e-10 -2.457346e-09 -1.731826e-10 2.183467e-10
-1.398608e-09 2.544281e-09 -2.280434e-10 -3.062459e-09 1.680260e-10 -3.540013e-11
-1.972129e-08 8.628065e-09 -4.542057e-09 -2.614280e-09 -8.876420e-10 4.979626e-10
-7.387169e-09 3.961009e-09 9.823717e-10 2.132712e-10 1.706180e-10 -1.159561e-10
6.481846e-10 -1.046452e-10 -1.511749e-10 3.010152e-09 4.810204e-10 -1.985467e-11
-9.062012e-10 -1.968555e-08 2.115785e-09 4.762025e-10 -8.942419e-10 -3.115531e-10
-7.163623e-09 -9.007580e-09 -5.451781e-10 -1.362624e-08 1.354151e-09 -9.938350e-13
4.237266e-09 -6.341522e-10 -1.073112e-09 -8.579934e-09 -1.984177e-10 -6.794885e-10
-2.609937e-09 2.541601e-09 -3.000504e-10 -3.147695e-09 9.335977e-11 -6.747889e-10
4.193941e-09 -3.045070e-10 -9.021055e-10 -8.706717e-09 -1.515839e-10 2.578828e-10
-4.547342e-09 4.462841e-09 2.165621e-10 -2.540646e-09 -2.859162e-10 -2.596010e-10
-2.983731e-09 3.049470e-09 -2.384757e-10 -4.193222e-09 -2.717730e-10 -5.182352e-10
-1.644095e-09 2.848314e-09 -6.445511e-11 -5.022834e-09 -2.217087e-10 5.437676e-10
-1.178925e-09 1.589181e-09 -3.419252e-10 -3.563911e-09 -2.026701e-10 -3.751133e-11
-3.257574e-09 -2.558901e-08 5.397724e-09 1.340821e-08 4.683312e-10 4.341369e-10
5.822667e-10 4.010013e-09 -1.392218e-09 -1.145529e-08 -3.013965e-10 1.625408e-10
5.309511e-09 8.331120e-10 -1.315079e-09 -1.122460e-08 -4.555553e-10 2.663546e-10
2.606461e-09 -2.903499e-08 3.198211e-09 1.316279e-08 7.959709e-10 1.656861e-10
-1.430072e-08 -5.666578e-09 -4.645628e-09 2.161157e-08 9.821527e-09 -5.321053e-09
1.949243e-08 -4.071676e-08 -8.078919e-09 1.498152e-08 6.563161e-09 -1.740657e-09
-2.644478e-09 -2.312787e-08 4.466514e-09 1.218402e-08 1.894141e-09 -6.953242e-10
3.767955e-08 -3.972769e-08 -5.034633e-08 1.403933e-08 2.521600e-08 -4.132850e-09
-2.962679e-09 -2.647342e-08 4.804907e-09 1.112997e-08 8.583392e-10 -9.259673e-10
2.237580e-08 -3.507491e-08 -2.836737e-08 1.936181e-08 7.564397e-09 -3.395206e-10
3.341945e-08 -3.489564e-08 -3.771595e-08 1.161906e-08 1.740352e-08 -2.881739e-10
1.322534e-09 -2.893816e-08 5.823868e-09 9.702335e-09 -2.620082e-10 -1.105716e-10
2.688561e-09 -2.924691e-08 6.079081e-09 1.013124e-08 1.626085e-09 4.480898e-10
4.258952e-09 -2.991394e-08 5.517464e-09 1.094802e-08 4.109963e-10 -1.246399e-10
-2.062604e-08 9.334317e-09 -5.964348e-09 1.208172e-08 8.374638e-09 -4.497643e-09
1.067947e-08 -3.914189e-08 8.378104e-09 7.857675e-10 3.498768e-10 -7.821166e-11
-1.342709e-09 -2.562359e-08 5.869439e-09 1.007564e-08 7.400946e-10 -7.205916e-10
3.520519e-09 1.645863e-08 -1.393192e-08 1.289275e-08 -3.578420e-09 -1.291603e-08
-1.076453e-08 8.220342e-09 -1.752882e-08 -1.490844e-08 -8.271022e-09 -5.114794e-09
-3.316860e-08 1.035755e-07 -9.504730e-08 -3.341308e-08 -1.308309e-08 -1.321915e-09
-1.159496e-08 1.133839e-08 -2.168013e-08 -1.627144e-08 -7.991868e-09 -2.796244e-09
2.708641e-08 -9.964092e-09 -5.094523e-08 -1.538600e-08 -9.320194e-09 -2.378287e-09
2.226915e-08 -6.462141e-09 -6.057603e-08 -2.055722e-08 -3.252452e-08 -5.042184e-09
-3.682650e-08 9.633814e-08 -3.979861e-09 7.440585e-09 9.354783e-09 -6.127134e-09
-1.590421e-09 1.191998e-07 -1.078257e-07 -2.840826e-08 -2.267977e-08 -6.449041e-09
2.680780e-08 -6.751840e-08 -4.120461e-10 -1.815681e-08 -2.746428e-08 -4.363297e-09
2.359617e-09 -9.935618e-09 -2.189060e-08 -1.593726e-08 -6.752788e-09 -1.064216e-09
2.358337e-09 3.257687e-10 -3.284609e-08 -1.599427e-08 -6.376105e-09 -1.198728e-09
-4.761811e-09 2.573961e-09 7.270198e-10 3.690263e-09 1.664191e-10 -1.732541e-10
-1.834851e-09 2.666162e-09 -3.416683e-08 -2.246796e-08 -1.999299e-08 -8.316121e-09
-3.451359e-09 2.057005e-09 6.950227e-10 2.948788e-09 -1.127476e-10 -9.755668e-11
-9.850464e-10 9.127188e-09 -2.745152e-08 -1.775251e-08 -1.299948e-08 -4.700252e-09
-5.701063e-09 2.680564e-09 8.110157e-10 3.132978e-09 2.558380e-10 -5.522383e-10
-5.945464e-09 -2.460881e-09 -1.029711e-08 -1.270962e-08 -6.657288e-09 -1.231394e-09
-2.516320e-09 -1.586472e-09 -2.284050e-08 -1.411682e-08 -1.310866e-08 -2.792818e-09
-7.350559e-09 8.213190e-09 -2.346257e-08 -1.334630e-08 -5.605401e-09 -8.208905e-10
-2.528233e-09 -1.309513e-08 -1.421271e-08 -1.461568e-08 -1.144874e-08 -2.427434e-09
1.158713e-08 -2.518044e-08 8.277625e-08 7.759074e-09 1.173304e-09 -2.182787e-08
-1.475390e-08 1.371776e-08 3.907849e-08 3.366913e-08 -9.634019e-09 5.614874e-10
-2.532688e-08 1.761138e-08 4.415080e-08 3.304761e-08 -1.472346e-08 -1.473646e-09
1.240990e-08 -1.280988e-08 9.043632e-08 2.411645e-08 -1.012798e-08 -2.084877e-08
-2.071127e-08 2.139383e-08 4.651752e-08 2.484037e-08 -6.605699e-09 -7.100511e-10
-4.761509e-09 2.396209e-09 9.918852e-10 3.289047e-09 2.867155e-10 -4.618137e-10
-2.395783e-08 7.414155e-09 8.360766e-08 3.502265e-08 -1.422832e-08 -5.070305e-09
-5.140623e-09 2.668198e-09 7.172627e-10 3.598120e-09 4.007892e-10 2.281416e-10
1.161872e-08 -1.728425e-08 6.618337e-08 1.092858e-08 -4.840345e-09 -1.911652e-08
1.249413e-08 -2.273432e-08 5.300449e-08 -6.907114e-09 5.110822e-09 -2.078636e-08
-7.037825e-09 -2.019932e-08 5.618106e-09 6.730587e-09 5.218541e-10 1.996996e-10
-1.886754e-08 3.605094e-09 -1.468452e-09 4.209852e-09 1.125233e-09 -2.363821e-10
1.341572e-08 -1.676608e-08 4.537401e-08 9.739832e-09 4.313074e-09 -1.705561e-08
1.830871e-08 -1.781683e-08 4.877531e-08 1.141069e-08 -6.652855e-09 -1.571655e-08
-4.719082e-09 -2.123336e-08 7.732294e-09 1.197277e-09 2.932983e-10 -5.011969e-11
-1.183458e-08 -9.590701e-09 4.829733e-09 3.419831e-09 2.535338e-09 -4.867951e-11
2.183126e-08 -1.624014e-08 2.971617e-08 8.822213e-09 -6.167719e-10 -8.979388e-09
1.419223e-08 -1.591383e-08 2.383118e-08 4.783786e-09 -2.146581e-10 -6.013380e-09
-4.341655e-08 3.422209e-08 4.328749e-09 2.031106e-08 -5.893168e-09 2.634212e-08
1.727796e-08 -1.830727e-08 3.947705e-08 8.208159e-10 9.347917e-11 -2.146870e-09
1.543734e-08 -1.534757e-08 2.803272e-08 -3.315239e-09 -4.922508e-10 -9.138109e-09
-7.714657e-09 4.193227e-09 1.086978e-09 1.134293e-11 1.183698e-11 2.333800e-12
-3.562383e-08 4.433549e-08 -1.107362e-08 2.541413e-09 4.093713e-09 1.706904e-08
-3.100392e-08 5.901026e-08 -4.448133e-08 -1.409125e-08 9.084933e-09 2.866543e-08
2.724236e-08 3.835278e-08 -1.256487e-07 -3.192164e-08 4.787457e-08 2.882080e-08
-7.828837e-09 4.033502e-09 1.195287e-09 2.744465e-10 6.654211e-11 -1.749023e-11
-2.332683e-08 3.967404e-08 -2.512614e-08 -1.739990e-08 6.276606e-09 1.226076e-08
-3.093222e-08 5.083864e-08 -1.785693e-08 -6.241380e-10 2.637433e-10 6.529221e-09
-7.544795e-09 4.133277e-09 1.035472e-09 4.721468e-11 3.117484e-11 -4.377765e-11
-4.848487e-09 4.175098e-09 3.061449e-10 -2.377287e-09 -3.023733e-10 -1.187128e-10
-1.010084e-08 3.977188e-09 1.571233e-09 -9.434899e-10 -6.658581e-16 -1.461218e-10
1.599788e-09 -1.937883e-08 -3.310485e-10 2.655795e-11 -9.566447e-10 6.110968e-10
-9.058087e-09 -1.382483e-09 9.918386e-10 -7.798383e-11 -7.071943e-11 4.715828e-10
-8.552549e-09 7.824774e-09 -2.224268e-09 -8.548419e-09 -1.467876e-09 1.018582e-09
-7.781873e-09 4.083907e-09 1.147503e-09 6.067635e-11 -1.190359e-11 8.229639e-12
4.379485e-09 -6.134816e-10 -1.002874e-09 -8.236429e-09 4.873391e-11 -1.068152e-10
-3.276793e-09 3.179412e-09 -2.498872e-10 -6.417385e-09 -1.169240e-10 -6.688476e-10
2.499876e-10 2.064675e-09 -7.476859e-10 -9.154744e-09 -7.646301e-10 7.216337e-10
-7.773931e-09 4.178673e-09 1.092513e-09 5.473755e-11 -4.059197e-12 -4.440892e-16
-7.671582e-09 4.185697e-09 1.092512e-09 -3.284484e-12 4.440892e-16 -3.794742e-12
-1.022617e-08 8.176109e-10 1.271717e-09 9.952974e-11 -9.004628e-10 -9.650791e-11
5.614056e-10 1.939705e-09 -8.402199e-10 -8.717820e-09 -1.149951e-10 -5.858131e-10
2.103555e-09 4.075067e-10 -6.747012e-10 -1.038605e-08 -3.795937e-10 1.611029e-10
-9.517301e-09 4.230243e-10 1.914628e-09 -7.846286e-10 -7.718626e-10 -6.090077e-10
-8.162834e-09 4.972777e-09 7.755232e-10 -1.627163e-09 -1.605390e-10 -4.488503e-10
-9.493292e-09 -3.497908e-09 2.372216e-09 1.545372e-09 -1.458712e-09 5.319867e-10
-9.918701e-09 -1.056075e-09 1.663928e-09 1.161354e-09 -6.756477e-10 1.054756e-10
-1.010226e-08 2.770536e-09 1.814916e-09 -8.176897e-10 -1.246534e-10 -6.326435e-10
4.455818e-09 9.015102e-10 -1.043225e-09 -1.121843e-08 -3.115153e-10 1.153565e-10
-1.025040e-08 7.966712e-10 1.312096e-09 1.220697e-10 -3.920650e-10 -6.619397e-10
-7.854560e-10 2.986961e-09 -4.541829e-10 -7.885973e-09 -6.564380e-10 1.878358e-10
-5.424906e-09 6.631457e-08 -5.000592e-08 1.138793e-08 -7.612729e-09 -4.685148e-09
-9.906074e-09 4.667253e-10 1.252138e-09 -5.246572e-10 -6.060932e-10 -1.431655e-10
-9.911340e-09 4.421674e-10 1.028743e-09 -5.107428e-10 -1.020481e-10 -5.915663e-10
1.303020e-08 2.279794e-09 -6.546416e-08 -2.572669e-08 -3.676013e-08 -1.132983e-08
-1.571738e-09 -2.513688e-08 8.682784e-09 1.010844e-09 1.964587e-10 1.737696e-10
-2.056199e-09 -2.487702e-08 8.041371e-09 7.539225e-10 1.000461e-10 5.054479e-11
1.159896e-08 -3.249335e-08 -8.516042e-09 -3.769832e-09 -2.588709e-09 -1.335592e-09
2.260690e-08 -3.618348e-08 -2.454903e-08 -1.094120e-08 -1.428469e-08 -1.500199e-09
-2.268042e-09 -2.527525e-08 8.731221e-09 5.967049e-11 1.566243e-10 7.973622e-12
-1.230607e-09 -2.488495e-08 8.330111e-09 8.933016e-10 -6.905562e-10 6.642066e-10
-8.570670e-09 3.151295e-08 -3.999549e-08 -1.198852e-08 -6.413521e-09 -8.384869e-09
-1.107470e-09 -2.600280e-08 8.356441e-09 1.184913e-09 1.537308e-10 8.026002e-11
-1.813405e-09 -2.469723e-08 8.385539e-09 4.402647e-10 -2.896127e-11 2.658285e-10
-3.734631e-08 8.658090e-08 4.189753e-09 -2.685985e-11 -7.376303e-09 -4.548256e-09
-1.094155e-08 6.181217e-08 -3.386055e-08 1.755275e-08 9.460351e-10 -6.667799e-09
3.514683e-08 -2.679845e-09 -5.795265e-09 2.739815e-09 6.268104e-10 8.916131e-16
-7.812692e-09 4.258585e-09 1.064962e-09 3.035083e-11 1.485523e-11 -2.639861e-11
-7.763246e-09 4.190470e-09 1.088863e-09 3.980194e-11 5.905942e-12 3.634426e-12
9.953169e-10 6.250907e-08 -7.144363e-08 -1.529671e-08 -2.413449e-08 -1.698796e-08
-3.036810e-08 8.724900e-08 -7.562043e-08 8.589719e-09 -1.753264e-08 7.953763e-10
1.200663e-08 3.489608e-08 -7.370437e-08 -1.573358e-08 -3.491767e-08 -4.686453e-09
2.754054e-08 -4.066235e-08 -2.344215e-08 1.523311e-08 1.240480e-08 -2.512007e-09
2.328166e-08 -3.989501e-08 -2.245905e-08 7.919349e-09 2.637381e-09 -7.813667e-10
2.108008e-08 -3.787008e-08 -1.418493e-08 1.687619e-08 4.748507e-09 -7.064442e-10
2.757270e-08 -4.036483e-08 -2.070512e-08 1.776679e-08 1.470129e-08 -9.254683e-10
2.379132e-09 -3.131608e-08 7.489056e-09 9.368253e-09 7.404257e-10 3.410033e-12
-7.772119e-09 4.224786e-09 1.082489e-09 7.900347e-12 1.307665e-11 -2.044542e-11
-7.591790e-09 4.152827e-09 1.048841e-09 8.203083e-11 1.477857e-11 4.324985e-12
-7.837343e-09 4.259118e-09 1.079032e-09 5.080736e-11 8.875345e-12 -4.870138e-11
-7.716727e-09 4.118947e-09 1.084274e-09 7.422962e-11 4.299494e-11 -5.945017e-11
1.112639e-08 -3.080829e-08 -1.179881e-08 2.163844e-08 2.572659e-09 -8.543797e-10
6.085251e-09 -3.497618e-08 5.465907e-09 9.557836e-09 1.388141e-09 -6.656231e-10
1.381752e-08 -4.067531e-08 -8.155958e-09 1.639118e-08 6.426287e-09 -1.069820e-09
3.414659e-09 -4.786829e-10 -6.130210e-10 -1.782117e-09 -1.505338e-10 4.579738e-10
-5.527999e-09 4.734225e-09 2.280132e-10 -2.802543e-10 -4.853495e-11 -7.359968e-11
1.219988e-08 -3.863947e-08 5.324569e-09 -3.849453e-09 1.487537e-09 -1.546172e-10
2.761110e-08 1.231205e-08 -8.295264e-08 -8.706331e-10 -4.095094e-08 6.414566e-09
-8.640033e-10 3.936114e-08 -6.856816e-08 -2.303107e-08 -2.921997e-08 -2.038848e-08
8.898192e-09 -2.927276e-08 -6.852817e-09 -1.761592e-09 -4.405443e-16 -1.006162e-09
-5.259386e-09 4.906435e-09 2.023000e-10 -2.046463e-10 -6.979675e-11 -3.344713e-11
-5.433604e-09 4.848392e-09 2.309868e-10 -7.359891e-11 -2.326828e-11 -1.754152e-11
1.860538e-08 -4.519019e-08 -5.728444e-09 7.018104e-09 4.800487e-09 9.853943e-11
-5.648941e-09 4.918789e-09 3.195615e-10 -4.114900e-10 -6.083972e-11 -1.042896e-10
1.594037e-08 -4.311016e-08 3.033964e-10 -2.397037e-09 2.093125e-09 -6.063055e-10
-1.406852e-08 -1.205079e-08 2.694545e-09 1.450227e-08 8.531299e-09 -1.523975e-09
3.165264e-10 1.122491e-09 -3.858824e-10 -7.180092e-10 1.256506e-11 -3.387182e-10
-6.592912e-09 5.965818e-09 9.012511e-10 5.783396e-09 -3.981129e-10 -3.348806e-10
-5.194093e-09 3.634878e-09 7.861414e-10 4.310013e-09 -6.780133e-11 -7.512981e-10
-1.374117e-09 2.342981e-09 4.543521e-10 6.147469e-09 6.128129e-10 6.305612e-10
-9.907684e-09 4.685747e-09 9.152461e-10 6.761332e-10 -6.854357e-10 -5.452463e-10
-1.065120e-08 7.290756e-09 7.374448e-10 -1.265962e-09 1.292984e-09 1.392173e-10
5.115515e-09 -9.186281e-10 1.672241e-09 9.878562e-09 -3.626069e-10 -1.021996e-09
-7.432927e-09 2.249954e-09 1.544890e-09 1.261880e-09 -5.418955e-11 -5.782060e-10
-5.927198e-09 2.636656e-09 9.550072e-10 3.219329e-09 3.315348e-11 -1.262708e-10
-7.672822e-09 2.211400e-09 1.905531e-09 1.083580e-09 1.268206e-10 -2.570747e-10
-5.193552e-09 4.794236e-09 1.464511e-10 -4.670841e-10 -9.561862e-11 -1.965717e-11
-3.838526e-09 2.411959e-09 6.584893e-10 4.029534e-09 3.233413e-11 -1.290004e-10
-5.539906e-09 4.938776e-09 1.893561e-10 -5.118217e-11 -2.802358e-11 -2.774669e-11
-3.953085e-09 2.693071e-09 8.091134e-10 4.056244e-09 -1.747489e-10 -1.336549e-10
-1.725617e-08 -3.169465e-09 2.796505e-09 -1.452150e-09 -1.442687e-09 -3.008488e-10
-1.650948e-08 -4.143196e-09 4.532246e-09 -4.029076e-09 -2.307313e-09 -2.524862e-10
-1.669192e-08 8.369896e-10 -3.999843e-10 -1.985886e-09 -2.295758e-09 -9.000885e-10
-3.634748e-09 3.213686e-09 6.489524e-10 5.243006e-09 2.886695e-10 -2.753526e-10
-1.043180e-08 7.420655e-09 5.711840e-10 2.695223e-09 1.439558e-09 -1.213841e-10
-1.800566e-08 -1.197479e-09 2.054637e-09 -2.762550e-10 -5.923542e-10 -4.769165e-10
-6.909689e-09 3.613587e-09 9.911409e-10 2.740536e-09 2.873777e-10 -4.198277e-10
-1.735016e-08 -2.937545e-09 3.764197e-09 -1.343769e-09 -8.750185e-10 -2.825541e-10
-6.665478e-09 4.365357e-09 1.036810e-09 3.902211e-09 7.069741e-10 -1.987876e-10
-4.114848e-09 3.459980e-09 6.545746e-10 6.803114e-09 3.545351e-10 -9.819856e-11
7.933760e-10 7.551959e-10 -4.781433e-10 -2.464473e-10 -7.566503e-11 -3.672324e-10
3.026895e-09 -6.340715e-10 -8.367267e-10 -2.694711e-09 -3.669107e-10 -2.518176e-10
2.594462e-08 1.196922e-08 1.978551e-09 -2.311669e-08 -4.701619e-09 8.877209e-10
9.156834e-09 1.951736e-08 7.385266e-10 -2.675496e-08 -6.168829e-09 6.912803e-09
2.353358e-08 1.223226e-09 1.094190e-08 -3.051694e-08 -1.788504e-09 1.742224e-09
-6.852584e-09 2.390081e-08 -7.363291e-09 -2.145692e-08 -9.388001e-10 -5.819373e-09
-6.548618e-09 2.412452e-09 1.313301e-09 2.312702e-09 -6.747936e-11 -5.354543e-10
4.840347e-09 6.850956e-09 1.908046e-08 -3.387807e-08 -2.292551e-09 4.720660e-09
2.280938e-08 1.416452e-08 4.205340e-09 -2.767302e-08 -4.580923e-09 4.275269e-09
-1.685616e-09 3.023278e-09 9.989203e-09 1.482199e-08 -2.272394e-09 -6.222857e-09
-1.263764e-08 2.068897e-08 -3.078155e-08 -1.911081e-08 -1.271740e-08 -9.360664e-09
1.941138e-08 7.068958e-08 -1.003298e-07 -1.322626e-08 -7.089039e-09 5.525445e-09
-2.411176e-09 1.048436e-08 -3.427777e-08 -2.173978e-08 -1.735451e-08 -7.267238e-09
-1.977189e-09 9.450577e-09 -3.195508e-08 -2.204296e-08 -2.039285e-08 -1.058396e-08
-7.592322e-10 -7.269160e-09 -1.651915e-08 -1.756103e-08 -2.829753e-09 -2.170849e-09
-8.644712e-09 1.603790e-08 5.526184e-10 1.220155e-08 1.025584e-10 -3.943537e-11
-1.826331e-08 1.990303e-08 7.440318e-09 1.466823e-08 -3.093256e-09 -2.193248e-10
-5.261148e-09 9.809775e-09 1.251945e-08 1.955384e-08 -9.137114e-11 4.885964e-10
-3.131713e-09 6.138841e-08 -7.138307e-08 -7.412084e-09 -1.325369e-08 -3.720145e-09
1.173835e-08 7.931930e-08 -1.035800e-07 -3.112292e-08 -2.415185e-08 -1.424419e-08
-2.165236e-09 8.942726e-08 -8.878309e-08 -2.324489e-08 -2.369237e-08 -3.800133e-09
-7.196222e-09 1.224010e-08 7.572733e-09 1.674917e-08 -2.376424e-09 -1.937236e-09
-2.105955e-09 8.594628e-08 -7.562043e-08 -3.285928e-09 -1.780462e-08 -4.468372e-09
-8.470411e-09 1.189562e-08 3.784349e-09 1.276449e-08 -9.737678e-10 -8.316060e-10
2.096205e-09 -2.865823e-10 -6.820199e-10 -2.433268e-09 -3.772241e-10 6.282375e-11
-2.415095e-08 8.371680e-08 -7.562043e-08 -1.202556e-08 -1.901018e-08 -1.201599e-08
-2.698842e-09 7.645117e-09 1.786835e-08 2.093200e-08 -2.561777e-09 -3.239203e-09
1.857382e-08 -4.977855e-08 1.842638e-07 3.702563e-08 3.815272e-08 7.657825e-08
-1.407124e-08 1.066854e-07 -5.454580e-08 7.086678e-09 8.046300e-09 -1.096842e-08
4.225856e-08 -1.041312e-08 -9.159719e-08 8.843487e-09 4.207239e-08 -1.368784e-09
-5.870441e-09 -5.666578e-09 -1.254003e-08 2.658996e-08 7.058651e-09 -3.241188e-09
-2.965343e-09 1.702120e-08 7.430928e-09 2.620200e-08 -3.874411e-09 -2.849691e-09
6.026224e-09 -1.382142e-08 -2.722793e-08 2.919767e-08 1.449873e-08 -5.997316e-09
-2.157643e-09 9.787939e-09 1.357722e-08 1.983358e-08 -3.190536e-10 -1.385115e-09
2.696840e-08 -3.538980e-08 -3.839754e-08 2.356770e-08 2.595503e-08 -7.393314e-09
2.310529e-08 -4.344001e-08 -1.170956e-08 4.066771e-09 5.358091e-10 -4.804824e-10
1.353167e-08 -3.392792e-08 -1.044268e-08 2.147153e-08 5.468733e-09 -4.612372e-10
-1.868862e-08 2.826063e-08 2.389382e-09 1.610383e-08 -1.496144e-09 -2.289705e-09
5.604340e-09 -3.408254e-08 2.726054e-09 1.691868e-08 2.585947e-09 -1.245421e-09
1.254118e-08 -3.710415e-08 -4.529189e-09 1.506413e-08 4.040870e-09 -5.787206e-10
4.266903e-09 -1.924416e-09 -7.993819e-10 -1.243903e-09 -1.412507e-10 -9.541059e-10
2.802287e-08 -3.198639e-08 -2.975297e-08 9.493205e-09 7.069191e-09 3.386826e-10
5.320839e-09 -2.926782e-08 2.004597e-09 1.466441e-08 2.443064e-09 -1.927865e-10
1.561436e-08 8.054868e-09 -6.718815e-08 3.224868e-08 9.944730e-09 -4.539482e-09
-2.678993e-10 -2.204443e-08 1.283428e-09 1.669160e-08 2.544111e-09 -5.022041e-10
2.330712e-08 -4.054638e-08 -1.593515e-08 7.864746e-09 6.221014e-09 -1.368709e-09
-2.380903e-10 -2.902828e-08 1.924152e-09 1.474317e-08 4.325218e-09 -7.976632e-10
2.554572e-09 -2.863259e-08 1.264971e-09 1.603427e-08 3.478981e-09 -1.686395e-09
-7.262744e-09 1.228157e-08 9.404054e-09 1.674216e-08 -1.524731e-09 -3.110832e-09
-1.291885e-08 2.157147e-08 -2.179223e-08 -6.792779e-09 -1.818782e-09 -1.414570e-09
-1.696326e-08 1.566117e-08 -1.708188e-08 -8.200172e-09 -4.925033e-09 -1.699164e-09
-1.687879e-08 1.567106e-08 -1.371433e-08 -8.248979e-09 -4.741396e-09 -2.684375e-09
-1.563715e-08 1.001196e-08 -1.252031e-08 -8.458506e-09 -4.941475e-09 -1.466777e-09
1.159387e-08 -5.704480e-09 -1.363454e-09 -6.090548e-09 -7.839568e-11 3.452961e-10
6.275331e-09 -1.146634e-09 -1.073113e-09 -1.007280e-08 -7.298755e-11 1.286851e-10
2.269847e-09 -6.347960e-10 -7.401657e-10 -2.943141e-09 -2.261274e-10 -1.215745e-10
-2.672724e-09 2.832961e-09 -4.765895e-10 -7.253026e-09 -5.976918e-10 -5.509027e-11
6.441493e-09 -2.462295e-09 -1.105909e-09 -6.629303e-09 -2.053291e-10 5.695733e-10
1.027622e-09 1.155546e-09 -1.057283e-09 -1.117447e-08 -2.331602e-10 3.948215e-10
7.480130e-10 3.334325e-09 -1.102413e-09 -1.124493e-08 -6.366159e-10 5.916670e-10
-8.716209e-09 1.169277e-08 -2.787026e-08 -1.875388e-08 -1.251530e-08 -6.924716e-09
2.485240e-09 7.749795e-10 -8.201289e-10 -7.124405e-09 -7.540163e-11 1.024072e-10
-1.053218e-08 8.912406e-09 -1.936925e-08 -1.435578e-08 -3.653038e-09 -1.129534e-09
-2.068347e-09 3.171893e-09 -1.347491e-10 -5.179534e-09 -3.435720e-10 4.938050e-11
-2.408431e-09 3.540025e-09 -1.315040e-09 -9.225181e-09 -4.832955e-10 -3.278910e-11
1.017903e-09 1.735146e-09 -1.231994e-09 -9.764608e-09 1.797582e-10 3.718099e-10
-1.385521e-08 8.130745e-09 -1.149176e-08 -9.455621e-09 -2.640703e-09 -9.788525e-10
-1.334526e-08 6.638526e-09 -1.575788e-08 -9.435913e-09 5.678968e-11 -4.565239e-10
-2.027569e-09 4.147717e-09 -7.652790e-10 -9.070680e-09 -8.132599e-10 2.472045e-10
2.637410e-10 3.709147e-09 -1.330553e-09 -1.155371e-08 -1.463496e-10 -2.190934e-10
-2.319977e-09 3.569498e-09 -9.402927e-10 -9.307621e-09 -3.715115e-10 -2.618168e-10
-4.385521e-09 3.871957e-09 -7.620438e-10 -7.905203e-09 6.042989e-11 -3.002528e-10
6.409652e-09 -3.444002e-08 6.522931e-09 8.394437e-09 4.192335e-10 2.012173e-10
4.586746e-09 -3.276864e-08 7.367254e-09 4.377018e-09 -1.183041e-09 -4.897642e-10
-4.940751e-09 3.433994e-09 -4.804424e-11 -4.937484e-09 2.212013e-10 -2.645928e-10
-2.110130e-09 1.049085e-08 -3.870205e-09 -1.953773e-08 -1.838805e-10 1.505579e-09
4.662401e-09 -3.275124e-08 7.624260e-09 4.484072e-09 6.295147e-10 1.773772e-10
3.946333e-09 5.872448e-09 -2.320392e-09 -1.705081e-08 2.614253e-10 -1.574771e-10
2.432818e-09 -3.155692e-08 7.825180e-09 5.879887e-09 -1.836163e-10 3.939726e-10
2.701367e-09 -3.262989e-08 3.251168e-09 1.277650e-08 1.984993e-09 -3.009526e-10
-2.984118e-10 -2.131019e-08 1.367908e-10 1.403875e-08 1.515615e-09 -1.009915e-09
1.890374e-08 -4.237518e-08 -6.153684e-09 9.271473e-09 4.249524e-09 -1.975717e-10
2.118104e-08 -3.332705e-08 -2.035088e-08 1.764037e-08 5.438076e-09 -8.185049e-10
2.635366e-08 -3.499463e-08 -2.291186e-08 -1.026242e-08 2.778682e-09 3.722736e-10
3.152765e-08 -4.225438e-08 -2.857678e-08 7.864132e-10 1.246097e-08 -5.067906e-10
2.548691e-08 -4.828410e-08 -2.345185e-08 7.463545e-09 1.651472e-08 -1.920270e-09
1.443690e-09 -2.944408e-08 7.367098e-09 7.178409e-09 6.660770e-10 1.270293e-10
6.356428e-10 -3.029432e-08 6.919013e-09 8.153153e-09 -4.019722e-10 8.256451e-10
-6.911105e-09 4.821143e-09 4.786780e-10 -1.724401e-09 1.597000e-11 -3.228540e-11
3.112625e-08 -3.235980e-08 -4.811624e-08 -1.199631e-08 8.732175e-09 4.705938e-09
3.132510e-08 -3.716613e-08 -3.472524e-08 2.650755e-09 7.068234e-09 9.176093e-10
-6.845021e-09 4.843871e-09 7.956595e-10 -2.530975e-09 -1.790212e-10 -2.089505e-10
-5.842252e-09 4.642347e-09 5.072001e-10 -2.499108e-09 8.983458e-11 1.232463e-10
-2.843708e-09 4.433924e-08 -5.192105e-08 -7.019754e-09 -6.534138e-09 -3.960143e-09
-1.177495e-07 -8.065430e-08 3.418275e-07 -3.178937e-09 2.320198e-09 2.857657e-08
-5.248618e-09 4.272096e-09 1.665827e-10 -2.071552e-09 -1.234683e-10 -3.034766e-10
-5.753536e-09 4.761882e-09 4.263438e-10 -1.617471e-09 -4.096568e-11 1.269778e-10
-1.684000e-08 6.636295e-08 -4.558162e-08 5.052719e-09 -5.012946e-09 -3.480042e-09
-1.109978e-07 -8.857738e-08 3.006767e-07 1.026871e-08 1.864460e-08 1.069482e-07
6.942161e-09 -3.228980e-09 -1.155702e-09 -4.559414e-09 7.796386e-11 -1.020934e-10
-1.014602e-07 -3.096736e-09 2.682719e-07 2.066411e-08 3.959022e-08 2.158643e-08
4.706687e-08 -4.248253e-08 9.987157e-08 1.002300e-08 -1.125827e-09 8.685011e-08
-3.705455e-09 3.809676e-09 4.228884e-11 -3.663645e-09 -1.730456e-10 -1.525637e-10
-7.472053e-09 -1.583251e-09 3.203955e-09 -6.800846e-10 4.885394e-10 2.131663e-10
-4.850394e-09 3.940134e-09 2.484057e-10 -2.823282e-09 -2.796117e-10 -1.920152e-10
1.663650e-08 -3.577615e-08 -8.963664e-09 -1.296941e-08 3.369573e-09 2.054693e-09
-7.485817e-09 2.903345e-09 1.529116e-09 4.057912e-10 8.532380e-11 -2.563285e-10
-1.318913e-08 1.315684e-08 -8.082459e-09 -1.488050e-08 4.910862e-09 3.474816e-09
3.208870e-08 -8.091200e-09 -5.955092e-08 -2.586062e-08 2.356682e-08 9.669643e-09
3.607993e-08 -1.704061e-08 -7.675060e-08 -1.442170e-08 1.851322e-08 1.330947e-09
3.295710e-08 -1.882550e-08 -6.960425e-08 -1.698951e-08 1.928530e-08 4.508953e-09
-7.539584e-09 3.088797e-09 1.500855e-09 1.000197e-09 8.806689e-11 -2.542424e-10
-7.369760e-09 2.862615e-09 1.507400e-09 6.055845e-10 1.356781e-11 1.235601e-10
-6.344576e-09 2.791616e-09 1.256353e-09 1.106976e-09 4.841061e-11 4.662959e-11
2.677089e-08 2.589279e-08 -9.262448e-08 -2.138991e-08 1.882105e-08 -3.560071e-11
3.152202e-08 -1.404441e-08 -7.260214e-08 -2.921721e-08 3.703821e-08 1.245754e-08
-6.156597e-09 3.014096e-09 9.273640e-10 9.405242e-10 1.248854e-10 -1.220697e-10
3.282805e-08 -1.874103e-08 -6.726259e-08 -1.747056e-08 3.524734e-08 6.589312e-09
-9.997637e-08 7.417040e-08 1.920078e-07 1.256746e-08 1.131093e-07 -1.066102e-08
-5.712805e-08 1.238652e-07 2.548475e-08 -2.174693e-08 6.651622e-08 -3.000352e-08
-4.329384e-08 5.403115e-08 2.787100e-08 -4.167154e-08 -2.336951e-08 2.309612e-08
-7.362628e-09 3.354055e-09 1.369460e-09 4.921801e-10 9.084956e-13 -1.199393e-11
-7.187116e-09 3.358236e-09 1.228339e-09 5.848064e-10 1.988365e-11 -9.831913e-12
-6.731199e-09 3.297357e-09 1.280889e-09 6.615060e-10 -3.114575e-11 2.839537e-10
-5.705844e-09 4.875695e-09 2.756317e-10 -1.225260e-10 -3.489697e-11 -4.051603e-11
-2.860490e-08 3.831918e-08 7.041641e-08 -4.787817e-08 -1.727032e-08 -7.045026e-09
-1.121415e-08 4.866350e-08 1.166183e-07 -5.197612e-08 7.162531e-08 -2.872211e-08
3.055622e-08 8.685406e-08 -1.779161e-07 1.428374e-08 6.802523e-08 -1.065316e-08
-5.099716e-09 4.591111e-09 2.046976e-10 -7.135208e-10 -3.666534e-11 -2.251033e-10
-5.433918e-09 4.576591e-09 2.266900e-10 -4.910603e-10 -3.088352e-11 -4.041401e-11
-3.317010e-09 7.862612e-09 -3.340273e-09 -1.310147e-08 -7.350857e-10 6.838988e-10
-5.595378e-09 4.920537e-09 2.848060e-10 -1.932783e-10 -5.841638e-11 -5.335732e-12
-1.216664e-09 4.588794e-09 -2.264226e-09 -1.446302e-08 -9.440737e-10 1.236570e-09
-6.902988e-09 -3.756254e-09 3.473131e-09 -2.499427e-09 -2.603651e-11 -2.036966e-10
7.573652e-09 -7.976331e-11 -5.977683e-10 -1.542407e-08 -2.302494e-10 1.239340e-09
-1.749131e-09 -2.604774e-08 8.955339e-09 2.468568e-10 -5.294432e-12 1.142983e-10
-2.425232e-09 -2.665717e-08 8.713770e-09 2.244647e-09 2.647222e-10 -2.726661e-10
-1.743915e-09 -2.763794e-08 8.913071e-09 1.080658e-09 2.155610e-10 7.241984e-13
1.626179e-08 -4.959731e-09 1.750250e-09 -1.621487e-08 7.806816e-10 -1.307681e-09
1.207929e-08 -4.863373e-09 1.030195e-09 -1.386865e-08 -5.027035e-10 1.143297e-09
-9.928210e-09 5.769255e-09 8.814021e-10 -1.747360e-10 2.377427e-10 -2.522891e-10
-9.396578e-09 4.585056e-09 1.474420e-09 -1.284847e-09 7.045380e-10 -3.776802e-10
-1.619275e-09 -2.682815e-08 8.948494e-09 6.453877e-10 -2.342988e-10 8.939827e-11
-8.326713e-09 4.376622e-09 9.222685e-10 2.450653e-09 8.331012e-10 1.515942e-10
-4.959720e-09 5.470265e-09 8.765912e-10 7.680209e-09 5.058731e-10 6.285514e-10
-6.361656e-09 5.411164e-09 9.728165e-10 5.334439e-09 -4.285186e-10 -5.334264e-10
-1.881992e-08 2.605714e-09 -8.848158e-10 -8.457151e-10 -4.786095e-10 -4.912681e-11
-1.703167e-08 2.271439e-09 -2.053466e-09 -4.088012e-09 -2.143580e-09 -1.056175e-09
-1.902959e-08 1.390654e-09 -2.082262e-09 -1.586220e-09 -1.320043e-09 -1.916656e-11
-1.915733e-08 2.879675e-09 -1.235837e-09 -1.086329e-09 -1.883276e-10 2.970866e-10
-4.864020e-09 6.800280e-09 1.815819e-09 8.829325e-09 8.326008e-10 -1.975188e-11
-1.465877e-09 4.843281e-09 7.752949e-10 8.942386e-09 5.676286e-10 -1.322549e-10
-5.096258e-09 4.861885e-09 6.219101e-10 6.398863e-09 -1.786126e-10 -4.528773e-10
-2.127850e-09 1.438910e-09 6.609824e-11 2.400439e-09 1.925349e-10 -5.410056e-10
-7.846517e-09 9.164142e-09 1.105353e-09 7.390962e-09 -8.715224e-10 -1.260112e-09
-4.128133e-09 1.920647e-09 5.386287e-10 1.337499e-09 1.461105e-10 -3.974865e-11
-1.822674e-08 1.997738e-08 4.658225e-09 1.455918e-08 -2.406937e-09 -2.286485e-09
-2.401702e-08 2.677774e-08 -1.849165e-08 -1.206995e-08 3.529061e-09 5.475580e-09
-1.428523e-08 9.708278e-09 -1.014316e-09 -2.023320e-09 -4.213053e-10 -9.397481e-10
-2.182059e-09 8.342723e-09 3.536238e-09 1.302531e-08 -7.348686e-10 -2.591382e-09
1.868587e-08 -3.670394e-08 -1.580810e-08 -7.868487e-09 -7.197695e-09 -8.132158e-10
-2.734486e-09 1.908318e-09 3.925944e-10 1.484855e-09 1.706424e-10 9.713724e-11
-3.578621e-09 1.810866e-09 5.355756e-10 2.171861e-09 6.289169e-11 -1.119577e-10
3.885482e-09 -2.496199e-08 2.472889e-09 -1.176256e-08 8.346069e-10 -6.235298e-10
-1.394235e-08 4.995074e-09 -1.300061e-09 -6.242248e-09 1.635193e-09 6.313495e-10
-1.159981e-08 1.089819e-08 9.840171e-10 5.372249e-09 6.902432e-10 5.061869e-10
-8.771224e-09 4.464756e-09 1.150012e-09 8.287332e-10 8.755730e-10 1.859026e-10
-1.272247e-08 1.147035e-08 1.387335e-11 -6.526011e-11 -4.935738e-10 -3.715627e-10
-5.514663e-09 4.998579e-09 1.906217e-10 -9.278800e-12 -5.705658e-11 -5.535689e-11
1.095447e-08 -3.037880e-08 -1.295493e-08 -8.239137e-09 -1.557361e-08 -3.051001e-09
-5.641114e-09 5.021954e-09 1.906215e-10 -7.964029e-11 -5.101664e-11 -5.056178e-11
-5.867571e-09 5.062778e-09 2.924714e-10 -8.559864e-11 -6.607465e-12 -1.110287e-10
-5.643344e-09 5.005712e-09 2.716314e-10 -8.991430e-11 -5.502410e-11 -2.459477e-11
-7.403669e-09 4.044210e-09 9.784222e-10 1.754028e-10 4.650058e-11 -1.128679e-10
-8.080353e-09 -2.242308e-09 2.737668e-09 -2.274133e-09 1.343982e-10 -6.618164e-11
-9.825910e-09 1.597287e-09 1.599505e-09 -1.846975e-09 2.348675e-10 1.201421e-10
-7.904715e-09 4.298910e-09 1.063073e-09 7.284751e-11 4.979661e-11 -4.711564e-11
-9.405859e-09 4.391776e-09 7.510179e-10 8.518098e-10 1.239739e-09 -1.212501e-10
-2.446530e-08 1.978001e-08 -2.792987e-09 -9.790466e-09 2.291664e-09 5.279484e-09
-7.811030e-09 4.221853e-09 1.080112e-09 8.423173e-11 2.510209e-11 -4.184042e-11
-1.407805e-08 1.351032e-08 -2.827003e-09 -5.781389e-09 -4.170462e-10 1.267766e-10
-1.290335e-08 5.127111e-09 1.387335e-11 -3.457470e-09 -7.208432e-10 -6.084204e-10
9.512064e-09 -2.599235e-08 -8.262312e-09 -2.042471e-08 7.441948e-09 1.413571e-09
-7.774625e-09 4.301757e-09 1.063073e-09 -1.270983e-12 4.192235e-11 -4.008527e-11
-1.072154e-08 1.165878e-08 1.023933e-09 6.257573e-09 3.189990e-10 2.207224e-10
-2.944153e-08 2.934430e-08 -1.225401e-08 -5.613485e-09 6.129683e-09 1.023480e-08
-7.501512e-09 4.123200e-09 1.044762e-09 1.116351e-11 8.525391e-11 -6.196266e-11
-7.493803e-09 4.176394e-09 1.036386e-09 5.281597e-11 3.700273e-11 1.660849e-11
-1.681129e-08 -3.154618e-09 2.251691e-09 -9.975714e-10 -5.208429e-10 -5.027423e-10
-1.756303e-08 -2.336119e-09 2.437937e-09 -4.120868e-09 -4.872505e-09 -1.612986e-09
-5.386132e-09 2.363826e-09 9.660948e-10 2.528294e-09 6.038503e-11 -4.214677e-10
-1.821640e-09 1.918965e-09 4.714500e-10 5.071500e-09 4.416305e-10 2.778503e-10
6.972302e-09 -8.043921e-10 4.492713e-10 1.010830e-08 3.739365e-10 -4.209307e-10
-1.707072e-08 -1.275229e-09 3.728616e-09 -5.650831e-10 -7.926341e-10 -5.268025e-10
2.638522e-08 -4.588965e-08 -1.285358e-08 2.483602e-09 -1.895004e-08 1.760369e-09
-5.997833e-09 2.709633e-09 1.167006e-09 2.695993e-09 3.252381e-10 -2.563545e-10
-5.070992e-09 2.471616e-09 9.598979e-10 2.373517e-09 3.317319e-11 -1.255784e-10
-1.717937e-08 -3.588265e-09 3.293178e-09 -1.077057e-09 -1.322639e-09 -8.765579e-10
-6.584309e-09 3.450523e-09 8.593961e-10 2.811308e-10 1.285811e-10 -2.697803e-11
-1.878999e-08 -6.441887e-10 3.183821e-09 -5.828443e-10 -3.104357e-09 -3.697279e-10
-1.831100e-08 -6.494769e-10 3.728616e-09 -3.433591e-10 -1.144634e-09 -1.405062e-10
-2.545155e-09 3.108454e-09 -3.900045e-10 -3.998603e-09 -1.513052e-10 -4.052352e-10
-1.889368e-08 -2.887584e-10 2.205670e-09 -1.204999e-09 -2.179222e-09 -3.430352e-10
-3.961893e-09 3.088630e-09 -1.119156e-10 -4.187083e-09 -3.677740e-10 -2.068929e-10
-1.503414e-08 2.707135e-08 -1.674350e-08 -1.042541e-08 -1.488742e-08 -1.075544e-08
-1.921434e-08 9.194363e-09 -5.971454e-09 -1.807790e-08 -1.713027e-08 -1.086168e-08
-1.681331e-08 1.605844e-08 -1.330924e-08 -1.616911e-08 -1.768034e-08 -1.445818e-08
-5.170083e-09 3.862699e-09 1.494387e-10 -3.880324e-09 -1.846170e-10 2.518252e-11
-1.919217e-08 1.015555e-08 -2.235708e-09 -1.509916e-08 -1.505388e-08 -1.034514e-08
-1.552094e-08 2.808434e-08 -1.600564e-08 -5.049667e-09 -1.548499e-08 -1.524712e-08
-3.784026e-09 3.811568e-09 -7.451106e-11 -3.644793e-09 -1.982274e-10 -5.647838e-11
-1.652294e-09 2.851623e-09 -3.357226e-10 -5.033695e-09 -1.221904e-10 -1.615015e-10
-2.981349e-10 2.154214e-09 -5.703766e-10 -8.137203e-09 -2.696106e-10 2.248575e-10
-4.905228e-09 3.849045e-09 5.901768e-11 -3.940002e-09 -1.155882e-10 -2.977532e-10
3.459311e-09 9.500677e-10 -8.475890e-10 -8.328761e-09 -4.525967e-10 4.462941e-11
-8.668621e-10 3.149553e-09 -4.958702e-10 -7.747979e-09 5.545586e-11 2.089672e-10
-5.938157e-10 2.066893e-09 -6.035981e-10 -6.282865e-09 7.559242e-11 -7.511369e-11
-1.762328e-08 2.880993e-09 -1.041688e-09 -1.201145e-08 -1.162768e-08 -3.523879e-09
-7.946976e-10 2.089479e-09 -7.119221e-10 -7.979289e-09 -1.494063e-10 2.441953e-10
-3.203343e-09 -1.122003e-08 -1.460143e-09 2.799964e-09 -1.624516e-09 7.115609e-10
9.142607e-10 1.608059e-09 -6.035981e-10 -7.731826e-09 3.980236e-11 -3.184573e-10
-1.756795e-08 1.112028e-08 -4.246721e-09 -2.139046e-08 -1.828867e-08 -9.296349e-09
-1.873520e-08 6.664505e-09 -8.686136e-09 -1.500354e-08 -1.184549e-08 -8.020880e-09
-1.511528e-08 5.467283e-09 -5.579802e-09 -1.503452e-08 -1.259531e-08 -4.442018e-09
5.892865e-09 -2.906072e-08 -1.076639e-12 -1.366885e-08 -1.503706e-08 -5.951608e-09
1.525039e-08 3.384690e-09 -9.256447e-08 -3.342489e-08 -2.991570e-08 -8.014030e-09
-1.821164e-08 8.927394e-09 -1.449086e-08 -1.799881e-08 -1.773823e-08 -1.220486e-08
-1.470368e-08 1.938695e-08 -1.155348e-08 -9.593033e-09 -1.216526e-08 -8.048354e-09
-1.394590e-08 8.220342e-09 -1.213544e-08 -1.370281e-08 -1.395031e-08 -7.102613e-09
6.768628e-09 6.181672e-08 -8.867587e-08 -9.531416e-09 -1.699558e-08 -4.945846e-09
3.135549e-09 3.789246e-09 -3.626005e-08 -1.985898e-08 -1.875897e-08 -7.388736e-09
-1.698855e-08 2.618487e-08 -3.863136e-09 -6.631392e-09 -1.032260e-08 -1.081810e-08
1.324961e-08 2.613482e-08 -6.486514e-08 -2.303658e-08 -3.241135e-08 -1.096696e-08
1.669551e-08 2.512550e-08 -1.490136e-08 2.132711e-08 -4.607292e-11 -7.178256e-09
4.038340e-09 1.769873e-08 -8.459074e-09 3.244086e-09 -8.609110e-09 -6.236780e-09
-1.583955e-08 2.077913e-08 -1.466848e-08 -4.614874e-09 -1.290535e-08 -1.564089e-08
-9.173716e-09 -9.182128e-09 -2.692738e-09 -1.033371e-09 8.893435e-16 -5.637406e-10
-1.508664e-08 2.715296e-08 -9.257778e-09 -4.058499e-09 -1.953060e-08 -1.774980e-08
-1.904717e-08 2.614983e-08 -8.514001e-09 -1.007507e-08 -1.312384e-08 -1.590787e-08
-1.426827e-08 1.907434e-08 -4.375680e-09 -5.903488e-09 -1.368273e-08 -1.220770e-08
5.125174e-09 6.864222e-08 -8.536238e-08 -5.423771e-09 -1.214468e-08 -1.283742e-09
2.289458e-08 -9.445699e-09 -5.132645e-08 -1.615712e-08 -9.121373e-09 -1.111215e-09
-1.626451e-08 -1.883222e-09 2.128391e-09 -4.925779e-09 -5.049174e-09 -1.075472e-09
-3.490022e-09 -2.252514e-08 7.273964e-09 4.679152e-09 6.955341e-10 -7.412093e-11
-2.692881e-09 -2.698308e-08 8.337105e-09 3.099628e-09 -3.596855e-11 1.172180e-10
1.284252e-08 -3.860868e-08 -1.144572e-08 1.934359e-08 4.532354e-09 -1.118504e-09
-3.604902e-09 -2.535295e-08 8.521081e-09 1.105349e-09 -2.857536e-11 -2.443790e-11
-3.979553e-09 -2.253013e-08 7.559907e-09 1.021348e-09 1.057727e-10 -5.262202e-10
-1.510779e-08 9.880991e-09 -1.561923e-08 2.257413e-08 3.955051e-09 -4.609268e-09
-5.559504e-09 -2.285180e-08 7.697779e-09 2.455631e-09 1.489680e-10 1.129304e-10
-4.369558e-09 -2.400172e-08 8.190275e-09 1.591419e-09 2.909752e-10 2.944427e-10
-4.617890e-09 -2.265214e-08 7.883989e-09 1.733692e-09 -1.062568e-10 5.863969e-10
-1.630263e-08 -1.560164e-09 -4.353606e-09 -5.695050e-09 -1.305404e-09 -3.822265e-10
-1.165101e-08 -5.710588e-09 -1.883513e-09 -5.638703e-10 -2.165236e-09 -5.168974e-10
1.838604e-08 -2.160192e-08 -3.388831e-08 2.680782e-08 4.196686e-09 -6.398599e-09
1.893681e-08 -3.138702e-08 -1.920786e-08 1.848322e-08 3.806230e-09 -7.532822e-10
-9.747355e-09 -9.133600e-09 -3.829411e-09 -2.801314e-09 -2.796162e-10 7.915634e-11
-1.573236e-08 -3.994247e-09 -1.593568e-09 -2.352033e-09 -6.006927e-10 -1.837489e-10
-1.319515e-08 -5.817788e-09 -2.524223e-09 -3.007675e-09 1.424929e-10 -6.273835e-10
6.915762e-09 -2.620366e-08 -1.237606e-08 2.468452e-08 3.204736e-09 -1.703147e-09
-1.121298e-08 -7.307619e-09 -2.613100e-09 -2.188482e-09 1.290664e-09 1.328040e-10
1.753747e-08 -3.730185e-08 -9.121809e-09 1.505704e-08 1.393078e-09 -8.877488e-10
1.917441e-08 -2.978894e-08 -3.916969e-08 2.418797e-08 1.878385e-08 -1.552182e-09
1.486147e-08 -3.129103e-08 -2.416397e-08 2.837985e-08 7.168543e-09 -3.886266e-09
-1.324311e-08 -3.232200e-09 -1.949495e-09 -6.770837e-09 -7.888934e-10 -4.206968e-10
-4.958848e-09 4.713650e-09 2.062805e-10 -5.756711e-10 -1.114365e-10 -3.342298e-10
1.189818e-08 -4.139629e-08 3.192744e-09 8.995955e-09 2.203388e-09 -2.373139e-10
2.688562e-09 -3.094470e-08 3.936665e-09 1.117700e-08 3.533513e-09 -7.081848e-10
1.482485e-08 -4.505370e-08 2.556797e-09 5.317531e-09 2.647482e-09 -3.215943e-10
-3.911385e-09 3.752127e-09 5.340972e-11 -1.176760e-09 -8.891710e-11 1.685643e-10
-4.030950e-09 3.799364e-09 1.004605e-10 -1.115700e-09 -2.827649e-11 -1.335547e-10
-4.806397e-09 4.593256e-09 1.985887e-10 -9.256427e-10 -3.501732e-11 2.414513e-12
-3.674298e-09 3.884485e-09 1.577387e-10 -7.084750e-10 1.140455e-11 7.033407e-11
2.028081e-08 -9.357131e-09 9.264526e-09 -1.637379e-08 2.823061e-09 -6.786868e-09
-4.474535e-09 4.110552e-09 1.998151e-10 -9.438295e-11 -8.865086e-11 -2.752797e-10
2.159135e-08 -1.807315e-08 3.122076e-08 1.157951e-08 -2.005278e-09 -3.730074e-09
2.296732e-08 -9.337137e-09 1.243077e-08 -1.664863e-08 2.480621e-09 -3.795920e-09
-4.714376e-09 4.583475e-09 2.086082e-10 -3.701432e-10 -4.643070e-11 -3.860767e-11
-4.181306e-09 4.036458e-09 9.134427e-11 -3.894125e-10 -4.294609e-11 2.022387e-10
-2.658972e-08 2.201706e-08 3.867738e-08 2.685748e-08 -2.257500e-08 5.757783e-09
-4.372110e-09 4.280432e-09 1.633342e-10 -4.970326e-10 1.026915e-10 7.831441e-11
-1.893561e-08 2.353998e-08 -1.586140e-08 -1.823131e-08 2.747209e-09 5.219943e-09
3.186669e-09 -2.809159e-08 -8.729781e-10 -1.653678e-08 -1.026798e-08 -1.739680e-09
-3.550248e-08 -3.417646e-08 1.250291e-07 2.053470e-09 -4.937549e-09 -2.694675e-08
1.160863e-08 1.168427e-08 1.757891e-08 -3.715713e-08 1.697561e-08 -1.208665e-08
-8.385609e-09 -2.217498e-08 -9.531990e-10 -2.445610e-08 -1.522658e-08 -6.967457e-09
-7.207588e-09 3.489496e-09 1.206394e-09 4.323872e-10 1.078395e-10 -2.302409e-10
-7.632359e-09 3.546724e-09 1.277153e-09 6.929941e-10 1.190696e-10 -1.332150e-10
-1.126467e-08 2.917655e-08 -4.270855e-09 -3.808662e-08 4.378568e-08 -1.688847e-08
-7.392227e-09 3.074392e-09 1.280066e-09 9.262242e-10 9.097190e-11 -7.898549e-11
-7.083658e-09 3.131123e-09 1.278973e-09 7.880905e-10 9.451351e-11 -9.364321e-11
-5.919286e-09 4.855508e-09 3.125413e-10 -8.105776e-10 -1.596017e-10 -2.644638e-10
-7.616027e-09 2.772046e-09 1.575229e-09 1.077129e-09 1.657213e-10 -4.372411e-11
-6.946804e-09 3.180926e-09 1.064843e-09 8.726048e-10 8.409026e-11 -1.990473e-10
-7.877365e-09 1.332224e-09 2.259680e-09 2.195786e-10 4.623512e-10 -2.392072e-11
-6.816034e-09 2.418032e-09 1.407469e-09 9.348038e-10 -4.134759e-11 6.513767e-11
-6.793515e-09 2.258544e-09 1.445040e-09 1.673628e-09 -1.455325e-11 -4.448125e-10
-1.524702e-09 1.130654e-09 2.376315e-10 2.420767e-09 -1.374596e-10 -1.726708e-11
1.175753e-08 -6.500005e-09 -1.544706e-09 -2.661646e-09 7.456828e-11 -5.275450e-10
-6.558144e-09 2.826281e-09 1.016795e-09 1.547552e-09 1.285500e-10 3.775602e-11
-7.540757e-09 3.637708e-09 1.310745e-09 3.287219e-10 -7.076473e-11 1.308935e-10
-5.693728e-09 2.746241e-09 1.001772e-09 1.335112e-09 1.621956e-10 -1.381026e-10
-1.831268e-09 1.243497e-09 3.191651e-10 1.076223e-09 1.166622e-11 3.015218e-10
-9.946266e-11 3.062355e-10 1.832681e-10 1.346161e-09 -2.003038e-11 1.746079e-10
1.194833e-09 1.373250e-10 -2.929419e-10 1.477573e-09 2.133345e-10 -2.511342e-10
-5.416915e-09 2.528001e-09 1.011625e-09 1.970383e-09 1.802110e-10 -1.165623e-10
-4.519505e-09 2.099004e-09 6.567351e-10 3.232866e-09 1.081826e-10 2.328293e-10
-6.780899e-09 2.788986e-09 1.257155e-09 1.885159e-09 2.585796e-10 -3.189728e-10
1.297060e-09 -2.588414e-10 -1.808518e-10 3.112549e-09 1.563292e-10 1.122362e-09
1.955405e-09 -4.604407e-10 -4.196128e-10 2.468352e-09 -9.432065e-11 -1.235483e-10
8.279413e-10 -1.057829e-10 -1.151577e-10 2.713517e-09 -2.972200e-11 -2.118716e-10
9.856753e-09 -5.389770e-09 -1.478129e-09 -1.540170e-09 -1.423062e-11 2.062238e-10
8.562816e-09 -4.319360e-09 -1.268375e-09 -1.310454e-09 -5.540257e-11 8.830470e-11
8.876009e-09 -4.929111e-09 -1.282730e-09 -1.469854e-09 -1.712426e-10 5.913936e-12
1.016505e-08 -5.477081e-09 -1.362154e-09 -1.598278e-09 -1.236726e-10 -1.677447e-10
-7.750448e-09 -8.235527e-10 2.904520e-09 -2.983199e-09 4.708534e-10 -2.163095e-10
-1.755111e-08 3.839941e-09 -1.354636e-09 -6.180632e-09 -5.931444e-09 -2.074230e-09
6.002152e-10 -2.569103e-08 7.966397e-09 2.586307e-09 4.042261e-10 3.986299e-10
-3.320439e-09 -2.301299e-08 7.982865e-09 2.565053e-09 3.732911e-10 2.549563e-10
-1.856897e-08 3.230603e-09 1.511297e-09 -5.086428e-09 -5.285871e-09 -7.631069e-10
-6.591595e-09 3.019799e-09 1.020247e-09 1.229000e-09 8.782619e-11 -7.973378e-11
-1.800738e-08 9.992611e-10 2.053808e-09 -5.441682e-09 -4.724755e-09 -1.323826e-09
-1.927820e-08 3.083118e-10 1.804332e-09 -2.413954e-09 -5.361660e-09 -5.454316e-10
-1.726185e-08 -1.343747e-10 3.010599e-09 -1.775425e-09 -2.271934e-09 -1.901567e-10
-7.016036e-09 2.929938e-09 1.353765e-09 7.514316e-10 1.204825e-10 -1.651097e-10
-7.944136e-09 4.009099e-09 1.191271e-09 1.240705e-10 4.694245e-12 -5.358602e-11
-7.866281e-09 3.682967e-09 1.379538e-09 4.913607e-10 4.545209e-11 -9.801725e-11
-6.825241e-09 3.104781e-09 1.337221e-09 7.443979e-10 1.185910e-10 -1.926159e-10
-8.209918e-09 2.657476e-09 1.644659e-09 -2.071632e-11 -4.292455e-11 -3.253246e-10
-1.959883e-08 2.689527e-09 5.987375e-10 -1.683446e-09 -4.137702e-09 -9.392932e-10
-8.014036e-09 3.438240e-09 1.420170e-09 1.510445e-10 -3.315614e-11 -1.231171e-11
-7.818765e-09 4.115718e-09 1.099468e-09 5.693268e-11 -1.328937e-11 5.076539e-11
-2.049223e-08 9.326913e-09 -1.633203e-09 -4.368862e-09 -7.446932e-09 -1.272000e-09
-7.803919e-09 4.146742e-09 1.135851e-09 4.796785e-11 1.638378e-11 -6.776713e-11
-2.012510e-08 6.478336e-09 -4.409784e-10 -1.743510e-09 -4.345770e-09 -2.070602e-10
-1.985945e-08 5.003959e-09 2.434946e-09 -2.404396e-09 -5.002382e-09 -1.087351e-10
-1.753417e-08 -5.551453e-10 -6.884115e-10 -4.366064e-09 -6.037747e-09 -1.314542e-09
-2.050537e-08 2.584027e-09 -1.519346e-09 -4.033153e-09 -6.398364e-09 -1.355688e-09
-1.614318e-08 -2.392555e-09 2.588853e-09 -7.199091e-09 -7.395085e-09 -8.407434e-10
-1.643725e-08 -3.009790e-09 2.700749e-09 -5.466647e-09 -5.328895e-09 -9.735470e-10
1.135061e-08 -2.836121e-09 3.510519e-08 -2.729364e-08 8.473486e-09 -5.796025e-09
-2.002449e-08 4.317661e-09 1.507806e-09 -2.853774e-09 -6.012728e-09 -1.039345e-09
-3.960201e-09 2.362079e-09 8.194951e-10 3.536007e-09 -1.370846e-10 -2.269218e-10
-4.112673e-09 2.373148e-09 5.676584e-10 1.153349e-09 -1.082356e-10 2.417977e-11
-4.650653e-09 2.370316e-09 9.847256e-10 3.224833e-09 7.634560e-11 5.602474e-11
-5.080094e-09 2.246181e-09 8.194945e-10 2.324009e-09 -1.259207e-10 1.295409e-12
-7.762854e-09 2.694358e-09 1.585628e-09 3.435172e-10 -6.090239e-11 -1.811782e-10
-5.450389e-09 2.403892e-09 9.631238e-10 2.039779e-09 3.065314e-10 5.689793e-11
-5.920440e-09 2.364816e-09 1.043060e-09 2.040747e-09 -3.971256e-11 -2.895915e-10
-8.184941e-09 2.883759e-09 1.739181e-09 6.458642e-10 1.828601e-10 -7.531951e-11
-5.637243e-09 2.592572e-09 9.805747e-10 2.375217e-09 1.251085e-10 1.468903e-10
-4.897290e-09 2.468020e-09 5.936456e-10 1.295845e-09 2.841126e-10 -1.839620e-10
-3.695590e-09 1.836923e-09 5.402612e-10 4.057932e-09 -2.304103e-10 -1.322504e-10
-3.798247e-09 2.267436e-09 8.058620e-10 3.726575e-09 2.073643e-10 -5.209922e-10
-8.085676e-09 2.943271e-09 1.610592e-09 -1.937606e-11 -9.673795e-11 -6.888268e-11
-8.152306e-09 2.578834e-09 1.650365e-09 -1.376535e-10 -1.910622e-11 -3.859359e-11
-3.404810e-09 2.094045e-09 4.799214e-10 1.835696e-09 -1.295275e-11 -7.839929e-11
1.118752e-08 -5.127371e-09 -1.441645e-09 -4.019914e-09 -2.405327e-10 4.083056e-10
-8.175116e-09 2.349088e-09 1.833557e-09 5.215935e-10 2.465495e-11 1.198307e-10
-5.861090e-09 5.069078e-09 3.466378e-10 -9.707235e-11 -2.554895e-11 -7.020273e-11
-5.654871e-09 4.904831e-09 2.064537e-10 -2.471801e-10 -7.899262e-11 -7.320713e-11
2.684670e-08 -3.260373e-08 -4.118785e-08 -1.352376e-08 -2.476555e-08 -1.498257e-09
-5.893265e-09 4.996409e-09 3.382963e-10 -8.508896e-10 -5.974488e-11 -2.561139e-10
-5.963619e-09 4.933783e-09 4.216003e-10 -9.885942e-10 -5.684413e-11 -1.104706e-10
4.799585e-09 -2.016769e-08 -1.334255e-08 2.553089e-08 8.100549e-09 -2.196331e-09
7.928550e-09 -4.109395e-09 -1.021420e-09 1.673332e-09 3.118028e-11 6.868585e-11
-6.406697e-09 5.069458e-09 5.438476e-10 -3.698997e-10 7.206058e-11 -1.345153e-10
6.459205e-09 -2.086888e-09 -1.218243e-09 -6.864183e-09 -5.855305e-11 -5.068481e-10
-1.127381e-09 2.699564e-09 -2.541150e-10 -6.134644e-09 -3.093315e-10 2.487315e-10
-7.138715e-09 5.257750e-09 7.060699e-10 -3.447603e-10 -3.541944e-12 -3.254673e-10
-5.823324e-09 5.045138e-09 3.327449e-10 -1.098130e-10 1.350697e-12 -8.285439e-11
-1.010225e-08 2.558849e-09 2.017587e-09 -4.512401e-10 -1.922849e-10 -5.582348e-10
-4.612502e-09 4.029487e-09 5.690559e-11 -4.559699e-09 -2.028016e-10 2.871636e-10
-5.755464e-09 4.927777e-09 2.934248e-10 -4.481362e-10 -5.392531e-11 -1.306137e-10
-6.118348e-09 5.094998e-09 2.906362e-10 -2.453313e-10 -6.736461e-11 -2.004267e-10
-5.902033e-09 4.781397e-09 3.427758e-10 -6.474268e-10 8.088641e-12 5.094891e-11
-4.636321e-09 3.842953e-09 -3.693135e-11 -6.290896e-09 -3.587544e-10 -5.877411e-10
-4.687758e-09 3.717467e-09 2.248646e-11 -3.317749e-09 -9.391554e-11 -5.725285e-10
-5.437841e-09 4.219961e-09 2.513203e-10 -3.870789e-09 3.298784e-11 -5.965595e-11
-5.711118e-09 4.109415e-09 2.674083e-10 -3.952280e-09 -3.551113e-10 -1.882714e-10
-3.321483e-09 3.649280e-09 -4.804468e-11 -5.631121e-09 1.916500e-10 -1.194094e-10
-5.813480e-09 4.547051e-09 4.210357e-10 -3.663009e-09 -2.421419e-10 -5.820377e-11
-9.915249e-09 6.264091e-10 1.264695e-09 -1.857414e-10 -5.174980e-10 -6.883838e-10
-4.721584e-09 3.407778e-09 -6.362688e-11 -5.339621e-09 -4.846115e-10 -1.455183e-10
-7.134341e-09 4.640317e-09 7.072758e-10 -2.962665e-09 -4.608258e-10 -4.331310e-10
-9.873396e-09 2.260031e-09 1.008424e-09 -1.239774e-09 -1.944204e-09 -7.991186e-11
-5.692053e-09 5.064205e-09 1.888485e-10 -8.444889e-11 -1.586620e-11 -1.018317e-10
-5.711119e-09 4.576481e-09 3.900211e-10 -3.042714e-09 -1.819238e-10 -1.842648e-10
-6.142729e-09 5.044823e-09 3.477125e-10 -3.436613e-10 -5.255130e-12 -1.760372e-10
-5.890939e-09 4.864343e-09 2.500675e-10 -5.572542e-10 -4.319767e-11 -1.012576e-10
-5.995856e-09 5.108310e-09 2.911640e-10 -3.286384e-10 -6.380318e-11 -2.357182e-10
-9.030640e-09 3.971082e-10 -5.426856e-09 3.615285e-09 -2.701802e-09 1.133716e-09
-7.132905e-09 5.213044e-09 7.327525e-10 -5.862752e-10 1.088396e-11 -4.488772e-11
8.782823e-10 -2.767760e-08 8.182254e-09 1.120485e-09 6.370802e-10 3.279261e-10
1.206035e-09 -2.831142e-08 8.731230e-09 1.684807e-09 -1.917508e-10 5.013808e-10
-5.361223e-10 -2.654369e-08 8.037490e-09 1.296514e-09 -2.712397e-10 7.916290e-11
-6.362513e-09 2.772088e-08 -4.623953e-08 -1.935847e-08 -2.092324e-08 -1.439721e-08
-9.013856e-10 -2.720566e-08 8.470147e-09 2.639043e-09 1.062263e-10 3.259259e-11
-1.636982e-08 5.763596e-09 -7.518599e-09 -8.227718e-09 -6.678124e-09 -2.757968e-09
-2.748385e-09 1.469071e-08 -3.725330e-08 -1.640365e-08 -5.087327e-09 -2.478150e-09
-9.130937e-09 3.428330e-08 -2.841431e-08 -3.588507e-09 -5.525139e-09 -3.581335e-09
-4.033956e-08 8.048023e-09 1.349516e-07 5.219682e-08 -1.137417e-09 8.096449e-09
-1.219468e-08 3.586142e-08 -2.694177e-08 -1.342376e-09 -8.043539e-09 -7.671787e-09
-3.229292e-10 -2.756574e-08 8.490762e-09 1.936036e-09 -6.589472e-11 1.445846e-10
-2.067711e-09 -2.494073e-08 8.374180e-09 1.284281e-09 4.529018e-10 1.263545e-10
-4.245457e-10 -2.648411e-08 8.417433e-09 1.362432e-09 3.848262e-10 2.310969e-10
8.845923e-10 1.530775e-08 -6.536782e-09 3.576892e-10 -5.646907e-09 -4.233357e-09
1.403732e-09 -2.685903e-08 8.001431e-09 3.177160e-09 -1.576242e-10 1.960093e-10
2.043516e-08 1.679128e-08 -8.737070e-09 1.366289e-08 -3.102827e-09 -2.954872e-09
-1.115760e-08 1.949884e-08 -3.249492e-08 -1.385185e-08 -3.240328e-09 -1.518691e-09
-7.557839e-09 2.670635e-08 -3.806526e-08 -1.226981e-08 -1.749553e-08 -7.446454e-09
-5.854577e-09 2.433958e-09 -1.567500e-08 -1.726160e-08 -7.125814e-09 -4.298491e-09
-1.457808e-08 3.017388e-08 -1.146900e-08 2.505210e-09 -8.087155e-09 -1.660487e-08
9.290152e-09 -4.844840e-09 2.456875e-08 -2.604879e-08 6.347542e-09 -7.373576e-09
-1.842940e-09 -2.693448e-08 8.004328e-09 3.746830e-09 -1.405735e-10 1.516438e-10
3.475615e-10 -2.751925e-08 8.244170e-09 4.905967e-10 1.927464e-10 2.314716e-10
2.428866e-10 -2.695546e-08 8.204209e-09 3.360063e-10 1.116888e-10 1.665741e-10
3.749574e-08 3.132876e-08 -2.726438e-08 2.675294e-08 7.715536e-10 -1.373592e-09
-7.848914e-09 3.667713e-09 1.199187e-09 5.513543e-10 -1.674572e-11 7.112310e-12
-7.859807e-09 3.576709e-09 1.387617e-09 2.094578e-10 4.179213e-11 -2.905143e-11
-7.918890e-09 3.258024e-09 1.411294e-09 1.161569e-10 -7.937606e-11 -1.021232e-10
8.421531e-09 -3.047370e-08 -2.721515e-09 1.602282e-08 4.102091e-10 6.115589e-11
-5.988924e-09 4.162458e-10 -5.393956e-09 4.837951e-09 -2.656796e-09 1.669033e-09
5.783879e-09 -3.511920e-08 4.257208e-09 1.061304e-08 5.439666e-10 2.481369e-10
2.438367e-09 -3.128474e-08 5.576948e-09 1.253131e-08 1.969960e-10 1.500316e-10
-7.889918e-09 3.604619e-09 1.335871e-09 2.430098e-10 -9.117207e-12 -8.705747e-11
-8.012129e-09 3.149019e-09 1.550129e-09 1.832841e-10 8.442691e-11 -5.697043e-11
-7.629555e-09 3.404272e-09 1.294750e-09 4.677398e-10 5.391787e-11 -2.345550e-10
-7.366991e-09 3.368775e-09 1.382918e-09 4.630705e-10 1.514137e-11 -4.450262e-11
1.869308e-08 -4.022537e-08 -2.732084e-09 -5.698582e-09 7.418541e-10 3.111032e-10
1.259632e-08 -3.691791e-08 -8.741901e-10 1.408320e-08 1.358027e-09 1.780132e-10
9.261165e-09 -3.632176e-08 4.257207e-09 1.125146e-08 4.150697e-10 8.694868e-11
1.414246e-08 -4.200175e-08 -1.594194e-09 1.208877e-08 6.209363e-09 -1.127208e-09
1.050818e-08 -3.679763e-08 -5.763074e-10 1.408863e-08 3.539712e-09 -5.301752e-10
1.093400e-08 -3.951183e-08 8.415197e-09 1.971932e-09 4.261576e-10 6.948023e-11
-7.528721e-09 3.576131e-09 1.253254e-09 5.151108e-10 -1.116063e-11 -6.034062e-11
-4.735956e-11 -2.757294e-08 7.453185e-09 5.967547e-09 1.578084e-10 1.121035e-10
-1.002760e-08 -1.281657e-08 -1.589965e-09 -4.178673e-09 -1.422831e-09 -1.282390e-09
-2.872689e-09 -1.680514e-08 -4.444261e-09 -2.308639e-09 1.099497e-09 5.936851e-11
-2.148449e-09 -2.042610e-08 -4.488581e-09 -3.684641e-09 -4.697255e-10 -1.127213e-09
7.562787e-10 -1.726126e-08 -9.067252e-09 -8.924672e-09 7.888037e-10 9.314644e-10
-3.570636e-09 -1.705200e-08 -8.455511e-09 -1.014960e-08 -6.330461e-09 -1.565700e-09
-9.936503e-09 1.534652e-09 -1.101876e-09 2.538031e-11 -7.050180e-10 -1.628402e-10
-5.679361e-09 -1.396647e-08 -4.311648e-09 -3.968586e-09 -1.875109e-10 -4.930982e-10
-1.451742e-09 2.207517e-09 -2.280758e-10 -9.958596e-10 1.152086e-10 -2.417133e-11
-2.629345e-09 2.842110e-09 -2.475780e-10 -8.505399e-10 -1.528777e-10 -3.158115e-10
-1.400963e-09 2.442870e-09 -2.650502e-10 -1.862250e-09 -1.230908e-10 7.112799e-11
-3.630573e-09 3.885751e-09 7.999335e-11 -6.921601e-10 -1.145815e-10 -1.038527e-10
-7.760015e-09 -9.486927e-10 3.178621e-09 -1.529720e-09 -2.178258e-10 -1.763790e-11
-4.585638e-09 4.092941e-09 1.614966e-10 -1.947771e-09 -1.566200e-10 -1.833524e-10
-7.646809e-09 3.310892e-09 1.439801e-09 3.542362e-10 1.463138e-10 -3.279110e-10
-7.857091e-09 2.633418e-09 1.638427e-09 2.308220e-10 1.242315e-10 -5.835589e-10
-8.141895e-09 3.703366e-09 1.339570e-09 2.751759e-10 3.898076e-11 -1.454703e-10
-3.024510e-09 3.346195e-09 1.083222e-11 -7.114025e-10 1.724212e-10 7.808509e-11
-2.032367e-09 2.444613e-09 -2.295106e-10 -2.131456e-09 9.552514e-11 3.044845e-10
-3.656865e-09 3.552603e-09 2.815614e-11 -7.288383e-10 -2.049054e-10 7.165679e-11
-7.246799e-09 3.801265e-09 1.087011e-09 3.511040e-10 4.052558e-11 -1.977174e-11
-5.620045e-09 -2.285099e-08 7.517321e-09 2.458532e-09 1.903320e-10 -1.423790e-10
-9.224958e-10 -2.561669e-08 7.363689e-09 5.934767e-09 4.438074e-10 -2.077190e-10
-7.048985e-09 -1.975661e-08 6.766478e-09 2.540248e-09 1.183659e-09 3.674341e-10
-9.234572e-09 -1.803018e-08 5.564670e-09 4.734487e-09 3.384600e-10 3.054879e-10
-7.423088e-09 -1.721377e-08 4.710539e-09 7.251742e-09 -5.121308e-10 7.955843e-10
-5.609015e-09 -2.070425e-08 6.867094e-09 2.697333e-09 -2.128226e-10 3.337461e-10
-2.892206e-09 2.958664e-09 -1.982516e-10 -1.099615e-09 -2.590226e-10 1.050326e-10
-5.188878e-09 4.281192e-09 1.611564e-10 -1.454615e-09 -1.192983e-10 -4.689738e-11
1.103329e-09 -2.157441e-08 -6.033019e-09 -3.717189e-09 -2.380880e-09 -1.199534e-09
-7.011210e-09 3.882956e-09 9.571934e-10 1.667901e-10 1.266089e-10 -1.397997e-10
-7.210023e-09 4.020364e-09 1.036798e-09 1.936744e-10 5.620948e-11 1.731836e-12
-7.856113e-09 4.178651e-09 1.086298e-09 8.974577e-11 4.811146e-11 -6.633749e-11
-7.021063e-09 3.777574e-09 9.131491e-10 2.913554e-10 5.682199e-11 -6.351142e-12
-7.184582e-09 3.941247e-09 9.699168e-10 3.538414e-10 1.236100e-11 -1.515010e-11
-2.996863e-09 3.014464e-09 -5.189693e-11 -1.919856e-09 9.246589e-11 3.440248e-11
-8.448551e-09 2.253338e-08 -1.685691e-08 -1.736711e-08 -1.525246e-09 1.398048e-09
-7.467982e-09 4.018498e-09 1.046430e-09 1.408588e-10 6.820455e-11 5.045547e-12
-7.216587e-09 3.757300e-09 1.042466e-09 4.087388e-10 9.774909e-11 -3.053180e-11
-7.200576e-09 3.875792e-09 1.043405e-09 4.836407e-10 6.384893e-11 -3.539147e-11
-1.706901e-09 2.280744e-09 -2.725601e-10 -1.651625e-09 -1.456568e-10 2.797647e-10
-7.127301e-09 3.946105e-09 1.004002e-09 2.378470e-11 6.749728e-11 -5.311246e-11
-4.816890e-09 -1.365443e-08 -2.067710e-09 -1.795822e-09 -5.553069e-10 -9.432775e-10
-7.186848e-09 3.854344e-09 9.933194e-10 -5.816636e-11 1.029791e-10 -2.786149e-11
4.522304e-09 -2.637126e-08 -7.025578e-09 -1.214577e-08 -3.511322e-09 -2.348333e-09
-1.956879e-08 1.545581e-08 -9.055568e-09 -1.398030e-08 -1.158553e-08 -7.685297e-09
-8.016524e-09 -2.088640e-08 4.896855e-09 -8.854473e-10 -1.915417e-09 1.041810e-10
-4.353034e-09 -1.272058e-08 -7.990729e-09 -8.623701e-09 -3.245354e-09 -1.645335e-09
-7.362585e-09 -2.095524e-08 6.957503e-09 3.069106e-09 1.204926e-09 2.273025e-10
-3.864613e-09 -2.292598e-08 5.954371e-09 1.555278e-08 4.360141e-09 1.526731e-10
-5.309364e-09 -1.948012e-08 7.798935e-09 1.301705e-09 6.520833e-10 4.519007e-11
8.959220e-09 -2.979418e-08 -6.226228e-09 -6.387778e-09 -2.723507e-09 -1.121996e-09
8.046790e-09 -2.005779e-08 -2.270251e-08 -1.363075e-08 -5.122108e-09 1.812876e-10
1.089149e-08 -2.802949e-08 -1.242492e-08 -9.641320e-09 6.894693e-10 1.631225e-09
2.537694e-09 -2.118346e-08 -9.521417e-09 -1.050251e-08 -4.162444e-09 -1.599879e-09
-8.790637e-09 -1.804419e-08 6.046498e-09 5.460445e-09 1.286529e-09 7.797309e-10
-1.117425e-08 -1.319192e-08 5.578574e-09 5.061671e-09 1.129340e-09 -1.082988e-10
-1.028502e-08 -1.248975e-08 5.503722e-09 2.500631e-09 1.611237e-09 -1.449796e-11
-2.573555e-09 8.458805e-09 2.595938e-09 1.299356e-08 -4.283909e-10 -1.838497e-09
-7.942987e-09 -1.647599e-08 5.218069e-09 7.168778e-09 1.457869e-09 -1.171462e-09
-7.060686e-09 5.653726e-09 9.728169e-10 6.819209e-09 -4.112233e-10 -3.176985e-10
7.296986e-09 -2.233036e-09 2.467271e-11 7.937564e-09 3.871083e-10 -3.934549e-11
-3.549570e-10 2.098311e-09 9.388197e-10 8.517722e-09 6.870580e-10 -2.712908e-10
-3.180786e-09 3.331118e-09 6.881908e-10 6.514865e-09 -1.074094e-10 -3.857830e-10
-5.126130e-09 4.845812e-09 7.090737e-10 6.375874e-09 5.511396e-10 2.747246e-10
-1.479116e-08 -9.867476e-09 4.313226e-09 3.920813e-09 1.829694e-09 6.107132e-10
-7.149416e-09 8.458277e-09 1.652904e-09 8.298321e-09 2.018803e-10 -8.123253e-10
-6.971532e-09 -1.741783e-08 5.713270e-09 4.848977e-09 5.296683e-10 -4.747797e-10
1.367044e-08 -4.941692e-09 -7.493690e-10 -9.242575e-09 -3.790418e-10 4.359424e-10
1.626152e-09 -5.482110e-10 -2.320570e-10 4.136302e-09 3.761502e-10 2.229568e-10
-1.422492e-10 2.548982e-09 3.273266e-10 7.290099e-09 5.153012e-10 3.726171e-10
-4.767083e-09 2.006372e-09 6.535572e-10 2.580766e-09 1.884835e-10 3.815196e-11
-5.935855e-09 2.364354e-09 9.695187e-10 2.037942e-09 5.855599e-11 1.244968e-10
-1.185355e-08 -1.183459e-08 4.506149e-09 2.718101e-09 3.780294e-10 7.566265e-10
-1.003057e-08 -1.112112e-08 1.985321e-09 9.384106e-09 2.376279e-09 1.794127e-12
-5.103042e-09 2.693552e-09 6.780674e-10 3.630818e-09 1.295974e-10 -5.437429e-12
-6.983482e-09 3.697143e-09 1.013128e-09 3.314913e-10 -1.653699e-11 -1.570875e-10
-7.831639e-09 -1.551138e-08 2.835608e-09 1.121431e-08 1.959953e-09 -4.187011e-10
-3.735468e-09 1.810866e-09 4.702803e-10 2.018843e-09 2.976097e-10 -4.161771e-11
-1.304431e-09 7.641647e-10 1.488052e-10 8.997687e-10 3.600859e-10 2.210493e-11
-6.343413e-09 2.947726e-09 1.117940e-09 1.278368e-09 2.909273e-11 -1.368465e-10
-6.825239e-09 3.101333e-09 1.042433e-09 1.299037e-09 1.234141e-10 -3.784344e-10
-6.351916e-09 2.776180e-09 1.113665e-09 1.772387e-09 -2.084477e-11 -1.134990e-10
-1.923022e-09 1.419844e-09 2.697176e-10 2.696090e-09 4.823304e-11 -3.047207e-11
-1.168436e-08 -9.785197e-09 1.810895e-09 9.941313e-09 -1.321509e-09 1.021940e-09
-5.788836e-09 -1.759192e-08 5.817504e-09 8.557764e-09 1.868926e-09 2.439826e-11
-7.293560e-09 2.270679e-09 1.562079e-09 6.087476e-10 -3.366552e-11 -1.740306e-10
-6.825239e-09 3.111522e-09 1.189209e-09 9.403587e-10 4.985096e-11 8.265609e-12
3.764179e-10 7.581042e-09 1.820418e-08 -3.027524e-08 9.168363e-09 3.198296e-09
-3.160237e-09 3.518959e-09 1.107114e-11 -3.393905e-09 2.184075e-11 -3.457989e-11
-1.401965e-09 2.852552e-09 -2.374292e-10 -7.372670e-10 -1.192408e-10 3.718931e-11
-3.435847e-10 2.002733e-09 -4.579919e-10 -5.982311e-09 1.651574e-10 -2.063749e-10
7.355195e-09 2.762425e-08 -4.671392e-09 3.232647e-08 5.662751e-09 -6.800382e-09
-2.791278e-10 1.697210e-09 -3.485799e-10 -2.150306e-09 1.186832e-10 1.081797e-10
-4.198414e-09 3.833497e-09 2.113030e-10 -2.758187e-09 3.069127e-11 -1.181644e-10
-9.560193e-10 2.327657e-09 -3.527934e-10 -4.479489e-09 1.817102e-10 -5.165957e-11
-6.365095e-10 1.796245e-09 -2.803051e-10 -3.962848e-10 -3.014455e-11 1.700962e-10
-6.054412e-09 5.145735e-09 3.477885e-10 -3.642087e-10 -1.722900e-11 -2.688565e-10
-6.269745e-09 4.576300e-09 3.985035e-10 -2.323905e-09 5.870682e-11 1.259501e-10
-4.342611e-09 3.518831e-09 6.703216e-11 -3.570425e-09 -2.699173e-12 -2.624940e-10
-6.422987e-09 4.785605e-09 5.335523e-10 -1.168964e-09 -1.134614e-10 -2.089482e-10
8.565454e-09 1.251294e-08 -5.280181e-08 -1.880705e-08 -9.170042e-09 -2.359592e-09
-1.672896e-08 -3.163768e-09 1.667150e-09 5.571325e-09 1.736382e-09 -4.654999e-10
9.878698e-11 -1.209834e-08 -1.482790e-08 -1.367282e-08 -4.539331e-09 -2.314846e-09
-1.771824e-08 -1.325159e-09 -2.154175e-10 -3.614448e-09 -2.854538e-09 -1.392513e-09
5.257780e-09 -7.582181e-09 -2.346372e-08 -1.926995e-08 -1.089733e-08 -3.415032e-09
-5.944786e-09 1.765475e-08 -3.725330e-08 -1.514615e-08 -5.747829e-09 -2.017434e-09
-7.538543e-10 9.497356e-09 -3.219813e-08 -1.735377e-08 -5.985214e-09 -2.369699e-09
-1.007055e-08 1.272645e-08 -3.418642e-08 -1.898480e-08 -1.792459e-08 -9.311667e-09
3.626707e-09 -2.850868e-08 -4.526352e-09 2.007207e-08 1.552346e-09 -5.083122e-10
-1.122151e-08 -1.114666e-08 8.724754e-10 1.301883e-08 2.275435e-09 -1.224633e-09
-1.362010e-08 -1.113125e-08 2.246447e-09 1.182486e-08 3.555845e-09 -5.977013e-10
5.231731e-09 -2.903509e-08 1.968635e-09 1.301982e-08 9.227965e-10 -2.956999e-10
6.073009e-09 -3.261155e-08 3.075100e-09 1.189439e-08 6.824699e-11 6.871044e-10
-1.094743e-08 -1.356719e-08 4.098926e-10 1.152953e-08 1.318872e-09 7.011907e-10
3.088146e-09 -2.545322e-08 1.759942e-09 1.449320e-08 1.085501e-09 1.381844e-10
6.697617e-09 -3.368851e-08 2.903474e-09 1.257003e-08 2.766477e-09 -8.267629e-10
-5.583068e-09 -1.740343e-08 4.057175e-09 1.069037e-08 2.279120e-09 1.416934e-09
4.891808e-08 -1.629874e-08 2.138920e-09 7.152063e-09 -8.987114e-10 -3.470597e-09
-1.461419e-08 -6.642047e-09 1.240838e-09 3.934244e-09 1.894394e-09 2.514957e-10
2.352744e-09 -3.264780e-08 7.628931e-09 5.659661e-09 2.874009e-10 -2.907115e-10
5.287984e-09 -3.234102e-08 5.425871e-09 8.716403e-09 1.280680e-09 -1.483561e-10
-7.150689e-10 -2.674837e-08 8.899243e-09 2.749636e-10 3.780964e-11 2.639571e-10
-6.322780e-09 -2.140288e-08 4.266206e-09 1.141488e-08 2.018910e-10 1.212048e-10
1.845761e-08 -4.014338e-08 -8.515181e-09 -5.474647e-09 -4.786820e-09 -5.582139e-11
1.871958e-08 -3.674583e-08 -1.801050e-08 -7.858904e-09 -6.492646e-09 -3.854017e-10
1.525984e-08 -4.428197e-08 -1.940815e-09 1.039642e-08 4.543709e-09 -9.263807e-10
1.323705e-08 -3.356585e-08 -1.056379e-08 1.779010e-08 6.520699e-10 4.973315e-10
1.375588e-08 -3.551103e-08 -1.167573e-08 -1.125222e-08 -5.512063e-09 -2.055043e-09
1.038567e-08 -2.892969e-08 -1.741621e-08 -1.033125e-08 -2.234562e-09 -9.314614e-10
-9.154792e-09 3.424779e-08 -3.034417e-08 -3.617642e-09 -1.100753e-08 -8.279190e-09
1.161248e-08 -3.038092e-08 -7.675445e-09 -5.728520e-09 -1.492484e-09 -5.437035e-10
1.369581e-08 -3.370939e-08 -1.140651e-08 -4.217077e-09 -6.443641e-10 -1.323198e-09
7.497967e-10 7.908483e-10 -5.008225e-10 -9.973329e-10 2.554725e-10 7.104894e-11
-5.860969e-09 4.308294e-09 -1.055862e-10 -6.228265e-09 -6.469807e-10 -7.445835e-11
2.026658e-09 -8.066159e-11 -5.661374e-10 -1.744273e-09 1.362777e-10 -7.212231e-12
1.946405e-09 -5.545031e-11 -5.025100e-10 -1.505909e-09 6.581160e-11 -1.156204e-10
1.289216e-09 7.055753e-10 -8.052878e-10 -7.427121e-09 -2.374590e-11 2.463210e-10
-5.944071e-09 9.415180e-09 -2.826715e-08 -1.613156e-08 -7.205195e-09 -1.144828e-09
-4.865546e-09 -1.365443e-08 -3.652483e-09 -1.826411e-09 -5.326084e-10 1.426198e-10
-1.140404e-08 -9.602097e-12 -7.670139e-09 -9.172696e-09 -1.074663e-09 -7.572143e-10
1.526383e-09 7.704051e-10 -4.539922e-10 -2.420426e-09 -1.728073e-10 2.487986e-10
-5.943951e-09 3.069848e-09 -2.346257e-08 -1.629693e-08 -3.609546e-09 -1.225225e-09
-1.622584e-08 2.553147e-08 -2.034113e-08 -4.860571e-09 -4.157599e-09 -3.129271e-09
-1.036703e-08 1.250476e-09 -1.276814e-08 -1.492553e-08 -7.697380e-09 -3.730861e-09
-6.981171e-10 1.806759e-09 -3.008558e-10 -9.817578e-10 -2.766232e-10 1.165630e-10
7.003749e-10 1.325457e-09 -5.091785e-10 -2.196695e-09 -1.475804e-10 2.033823e-10
-4.214797e-10 1.423183e-09 -3.692238e-10 -1.655736e-09 -1.485863e-10 -1.481040e-10
-1.724457e-08 1.778598e-09 -1.687136e-09 -2.504470e-09 -8.740584e-10 -8.610783e-10
-1.110292e-08 -5.318399e-09 -7.670140e-09 -7.645870e-09 -7.087433e-10 -9.990923e-10
4.307920e-09 -2.662937e-08 -8.650148e-09 -1.264581e-08 -1.044557e-08 -3.979401e-09
-2.166172e-08 1.017642e-08 -4.867846e-09 -1.324220e-08 -1.588644e-08 -6.892747e-09
-5.854575e-09 -9.011886e-09 -7.299152e-09 -1.765013e-08 -5.597512e-09 -3.910228e-09
-1.169688e-08 4.360077e-09 -1.286398e-08 -1.288531e-08 -8.964608e-09 -3.284091e-09
5.342055e-09 -3.531914e-08 7.619181e-09 7.176212e-09 7.968653e-10 1.447879e-10
8.382097e-09 -3.798609e-08 8.091156e-09 3.543961e-09 -3.662448e-10 6.930042e-10
8.121466e-09 -3.714118e-08 8.276727e-09 2.197100e-09 3.976742e-11 1.973082e-10
6.430441e-09 -3.562871e-08 8.394213e-09 2.029338e-09 -9.496514e-11 -4.754952e-10
-6.021290e-09 4.928087e-09 4.737926e-10 -2.043400e-09 1.619546e-11 -5.032469e-11
-8.085395e-09 5.006925e-09 9.086412e-10 -1.731425e-09 -5.200507e-11 3.816372e-10
-7.884583e-09 5.118328e-09 8.303878e-10 -6.026760e-10 -3.272378e-13 -2.505022e-10
-7.483030e-09 5.160209e-09 7.573626e-10 -4.928924e-10 4.572121e-12 -1.988987e-10
-1.574413e-08 1.829880e-08 -1.379721e-08 -6.413334e-09 -5.273289e-09 -2.888202e-09
-1.356344e-08 2.469536e-08 -1.581780e-08 -1.794547e-09 -8.476495e-10 3.890106e-10
-1.492733e-08 2.429863e-08 -1.303786e-08 1.298550e-09 -5.391656e-09 -1.829020e-09
-2.377617e-10 -2.903583e-08 4.092230e-09 1.201054e-08 5.734479e-11 -4.985989e-11
-1.690899e-08 2.168847e-08 -1.399906e-08 4.007364e-11 -2.534307e-09 -1.489759e-09
-3.765244e-09 -2.130732e-08 2.950148e-09 1.408685e-08 1.411078e-09 -6.945400e-10
1.183788e-09 -3.064889e-08 8.743066e-09 3.197896e-09 -2.408531e-10 5.331610e-10
1.176060e-09 -2.567990e-08 4.092229e-09 9.813265e-09 1.118856e-09 -6.535639e-10
2.428688e-10 -2.829326e-08 8.905860e-09 6.764509e-10 1.545153e-11 1.964429e-10
1.248999e-09 -2.935670e-08 8.510246e-09 3.491709e-09 2.479480e-10 -1.925376e-10
-5.343746e-09 -2.105037e-08 7.620059e-09 1.508575e-09 3.040812e-10 2.229621e-16
1.636514e-09 -8.027216e-09 7.274968e-08 5.004609e-08 7.080359e-09 -4.879066e-09
-4.165616e-09 -2.020804e-08 5.618105e-09 9.305436e-09 5.251604e-10 2.015419e-10
-4.719084e-09 -2.123910e-08 7.423085e-09 1.191614e-09 2.358500e-10 -6.827372e-11
-3.649661e-10 -2.869752e-08 6.300825e-09 9.609048e-09 9.618812e-10 -3.570487e-10
6.610770e-09 -3.359618e-08 8.333044e-09 3.232981e-09 4.210831e-10 4.140799e-10
1.988198e-09 4.713883e-08 -2.609820e-08 2.345550e-08 -3.193217e-09 -2.808362e-09
-3.333865e-09 -2.587528e-08 6.714718e-09 8.385780e-09 2.013284e-10 -1.402389e-11
-5.131159e-09 4.640979e-09 2.173706e-10 -1.365925e-10 -1.066214e-11 -8.879941e-11
-3.410542e-09 3.496514e-09 -1.264588e-11 -1.927672e-09 -1.391325e-10 -1.524554e-10
-2.730271e-09 -2.582229e-08 8.984451e-09 6.493341e-10 -7.537748e-12 3.985967e-11
-6.327223e-10 -2.724568e-08 8.730077e-09 1.510350e-09 -1.042358e-10 2.552738e-10
-3.118778e-09 3.296156e-09 -7.008261e-11 -1.436322e-10 -1.355386e-10 -1.931844e-11
-3.143477e-10 1.366192e-09 -3.197442e-10 -2.422187e-10 1.436677e-10 -6.959803e-20
-2.376082e-09 -2.625886e-08 8.411007e-09 2.589480e-09 -5.531988e-10 3.694205e-10
-3.629678e-09 3.729275e-09 -3.018519e-11 -2.260266e-09 8.752243e-11 -1.176026e-10
7.039791e-10 -2.920597e-08 8.874837e-09 1.658630e-09 -6.642975e-10 7.856671e-11
-7.637171e-10 2.194180e-09 -1.990830e-10 -3.520241e-09 -2.073457e-10 5.181553e-10
-5.127964e-09 4.051663e-09 2.695568e-10 -2.974124e-09 -2.090387e-10 -1.810738e-10
-1.309486e-09 2.165143e-09 -2.891092e-10 -2.158225e-10 8.078516e-11 3.611111e-12
-1.938078e-09 2.564457e-09 -2.321268e-10 -3.607106e-10 -3.598477e-11 -1.504936e-10
-6.556128e-09 2.868463e-08 -3.482374e-08 -3.969031e-09 -4.019496e-09 6.630894e-09
-3.846027e-09 3.772472e-09 2.858735e-11 -1.552416e-10 9.684831e-11 -3.006991e-20
-2.420436e-09 3.013712e-09 -5.189804e-11 -1.698777e-09 9.223822e-11 3.411138e-11
-7.616157e-09 2.635099e-08 -3.649154e-08 -1.633693e-09 -1.350820e-08 1.487397e-08
-5.436149e-09 4.774442e-09 2.620788e-10 -4.223361e-10 4.054534e-11 8.574826e-12
-2.603133e-09 3.393687e-08 -4.591191e-08 -2.878355e-09 -1.664960e-08 1.660778e-08
-5.465474e-09 2.391227e-08 -1.536488e-08 -1.942186e-08 -4.754334e-11 -7.190061e-10
-5.601198e-09 4.964226e-09 2.246157e-10 -1.209137e-10 -3.970601e-12 4.272083e-12
-6.889853e-09 4.873648e-09 5.855099e-10 -1.568777e-09 -5.903211e-11 -2.430249e-10
-1.638905e-09 -2.631754e-08 8.920227e-09 1.460995e-09 3.438427e-10 3.276313e-11
-2.236916e-09 3.760167e-08 -2.692912e-08 -2.223501e-08 -4.511944e-09 2.652714e-09
-3.961497e-09 4.566672e-08 -3.121818e-08 -2.004347e-08 2.709121e-09 1.003773e-08
-4.400959e-09 3.188668e-08 -2.105471e-08 -2.152500e-08 1.931319e-11 5.775513e-09
8.162691e-09 -3.715034e-08 8.237475e-09 2.283927e-09 6.866441e-11 -2.886619e-10
-2.521162e-09 -2.702102e-08 8.852055e-09 2.253696e-09 -1.188672e-10 6.050933e-10
-4.910857e-09 -2.160315e-08 7.972089e-09 4.538118e-09 5.566346e-10 -3.729389e-10
-7.305502e-09 2.602246e-09 1.615466e-09 1.534922e-09 2.745888e-10 -3.581357e-10
-8.330036e-09 -1.827023e-09 2.777298e-09 -3.409899e-09 -2.937084e-10 -3.427075e-10
-1.036300e-08 2.175488e-08 -1.887819e-08 -7.333100e-09 -5.943457e-09 7.642121e-09
-5.296050e-09 2.174759e-09 1.170828e-09 2.365849e-09 -1.009670e-10 8.147949e-11
-6.557370e-09 3.068341e-09 1.204083e-09 2.711764e-09 1.409810e-10 -1.985231e-10
-6.162692e-09 2.342058e-09 1.234150e-09 2.144998e-09 -8.406187e-11 -3.419811e-10
-1.809044e-08 -2.176588e-10 1.562813e-09 -4.100088e-09 -4.705172e-09 -9.267247e-10
-8.734368e-09 2.548817e-08 -1.648198e-08 -1.900469e-08 -4.467023e-09 1.129110e-08
-3.398820e-09 2.582493e-08 -1.356834e-08 -2.167308e-08 -2.139471e-09 1.207911e-09
-1.935578e-08 4.393165e-09 -2.266476e-09 -1.950433e-09 -1.707620e-09 -2.667000e-10
-1.636510e-08 -8.904433e-10 -1.139218e-09 -1.067419e-09 9.672880e-10 -1.619227e-10
-2.034066e-08 1.417906e-08 -7.460876e-09 -3.432438e-09 -3.722296e-09 -9.066044e-10
-1.839971e-08 9.548535e-10 -2.991107e-10 -6.072700e-10 -4.944882e-10 -3.195109e-10
-1.683394e-08 1.919725e-08 -1.137918e-08 -5.443520e-09 -1.205932e-08 -5.816604e-09
-1.901078e-08 3.768482e-09 -2.032699e-09 -2.227424e-09 -2.765431e-09 2.605568e-10
-1.559914e-08 1.330873e-10 -2.921066e-09 -4.390628e-09 3.942953e-10 6.399872e-10
-1.996466e-08 8.745061e-09 -3.407225e-09 -2.742010e-09 -3.040626e-09 -7.074877e-10
-1.831100e-08 2.956333e-10 4.169162e-09 -5.550643e-10 -1.825113e-09 -3.647854e-11
-1.992852e-08 6.171637e-09 -3.568761e-09 -1.790370e-09 -2.280649e-09 6.160898e-10
-8.184273e-09 2.573326e-09 1.657502e-09 5.860555e-10 -4.175282e-11 -1.499854e-10
-1.741451e-08 -1.197481e-09 3.764103e-09 -5.999269e-10 -7.371875e-11 -3.824445e-10
-1.902656e-08 2.023993e-08 -1.017307e-08 -3.209139e-09 -7.317642e-09 -1.815104e-09
-8.055198e-09 1.383136e-09 1.995678e-09 -3.832314e-10 1.296554e-10 -3.370456e-11
-1.831100e-08 3.042180e-10 1.361689e-09 -5.389424e-10 -1.657548e-09 7.072434e-10
-1.711474e-08 -3.262443e-09 3.281965e-09 -4.195474e-09 -2.708561e-09 -1.131894e-09
-8.161963e-09 9.701235e-10 2.288059e-09 3.298599e-10 -2.620526e-11 6.538825e-11
-1.894638e-08 2.057925e-09 2.478256e-09 -1.575142e-09 -3.998340e-09 2.734550e-10
-1.924275e-08 3.237831e-09 -1.085696e-09 -1.222395e-09 -2.553935e-09 -7.361767e-11
-7.943615e-09 1.772269e-09 1.979173e-09 -2.809465e-11 3.320177e-11 -4.133791e-10
-7.863143e-09 2.908648e-09 1.546627e-09 3.851608e-10 7.491518e-11 -1.793192e-10
-1.799412e-08 2.159119e-08 -1.399906e-08 -5.547169e-09 -9.832997e-10 -1.339018e-09
-2.026454e-08 8.904630e-09 -3.998651e-09 -2.029605e-09 -4.619324e-09 -6.218632e-10
-2.026454e-08 7.070121e-09 -1.725514e-09 -1.819498e-09 -3.540644e-09 -1.009910e-09
-2.026454e-08 8.894416e-09 -6.915626e-10 -2.081944e-09 -4.983143e-09 -3.974863e-10
-1.067605e-08 8.220342e-09 -1.027700e-08 -1.197823e-08 -1.263788e-08 -4.637379e-09
-1.731209e-08 6.398962e-09 -8.157532e-09 -5.173384e-09 -2.182624e-09 -1.225266e-10
-1.501306e-08 2.793533e-09 -1.398178e-09 -1.498730e-08 -8.753656e-09 -5.189608e-09
8.454251e-10 -2.529805e-08 7.997820e-09 5.256150e-09 1.342367e-10 5.509759e-10
-2.602081e-09 1.394545e-09 1.942109e-10 7.754857e-10 1.845215e-10 2.395306e-10
-2.880807e-09 1.669738e-09 2.660157e-10 5.683103e-10 4.275469e-11 3.693411e-10
-1.880346e-09 -2.536048e-08 8.731221e-09 1.384497e-10 1.519526e-10 1.431966e-12
-1.761483e-09 -2.538288e-08 8.599295e-09 8.136469e-11 2.885341e-11 6.712660e-11
-4.047381e-09 2.369054e-09 5.995564e-10 7.304358e-10 -2.017850e-11 4.351183e-11
-2.047722e-09 -2.604774e-08 9.007181e-09 1.540705e-10 1.168843e-11 0.000000e+00
5.813730e-09 -3.368669e-08 8.321572e-09 2.542827e-09 -2.123907e-10 1.274403e-11
-7.853913e-09 -1.657414e-08 6.619449e-09 2.560935e-09 3.750835e-10 -5.436021e-10
1.354691e-09 -2.846349e-08 8.595071e-09 2.888870e-09 1.144028e-09 4.973518e-10
-7.403775e-10 -2.844531e-08 8.705377e-09 1.174172e-09 -2.855982e-10 1.368818e-10
-6.498447e-09 -2.029372e-08 7.615112e-09 2.278771e-09 6.816240e-10 6.789513e-10
2.944028e-09 -3.084545e-08 8.677255e-09 3.488330e-09 -8.523337e-11 -5.129675e-11
-4.325615e-09 2.384346e-09 5.509184e-10 6.796450e-10 4.354256e-11 -1.233902e-10
-1.794023e-09 1.250155e-09 1.732365e-10 1.024939e-09 1.826923e-10 8.448797e-11
3.923800e-09 -3.267493e-08 8.775182e-09 1.798744e-09 -6.899161e-10 1.025584e-10
3.226460e-09 -3.196891e-08 8.430033e-09 8.804815e-10 7.048082e-10 1.369875e-10
-1.170269e-09 1.243749e-09 1.646383e-10 1.030067e-09 3.783196e-11 -7.444712e-12
-1.144623e-09 -2.639631e-08 8.470212e-09 4.327825e-10 -1.289682e-10 2.060661e-10
-3.133630e-09 1.898245e-09 3.885097e-10 7.258249e-10 -1.358741e-10 1.674905e-10
-1.445029e-09 1.259886e-09 1.939080e-10 9.666712e-10 1.629104e-10 2.029619e-10
-1.993577e-09 1.258018e-09 2.582992e-10 4.635496e-10 9.485749e-13 3.593292e-10
-1.440061e-08 2.728716e-08 3.946848e-08 4.372210e-08 2.806794e-08 1.378001e-08
-1.584103e-09 -2.502104e-08 8.557737e-09 3.878069e-10 1.134299e-10 2.097354e-10
-2.151921e-09 -2.489267e-08 8.349542e-09 7.087490e-10 9.270019e-11 1.334042e-10
1.271727e-09 -3.102641e-08 7.780012e-09 6.517964e-09 2.903651e-10 -2.579786e-10
-5.419397e-09 4.326741e-09 3.112288e-10 -1.678342e-09 4.417355e-11 -3.487988e-11
-1.450388e-09 1.189580e-09 3.638121e-10 8.064434e-10 5.970069e-11 -2.828962e-10
-6.842559e-09 5.144063e-09 5.749377e-10 -5.192855e-10 3.155257e-13 -2.500824e-10
-1.064571e-08 8.010101e-09 -3.294518e-09 -3.478480e-09 -1.319039e-09 9.216855e-10
-1.262677e-09 7.970187e-10 7.141820e-11 7.910500e-10 -7.944125e-11 7.790257e-11
-9.163355e-10 3.182965e-10 -3.103318e-11 1.121667e-09 1.483709e-10 -1.379522e-10
-1.191221e-09 3.026930e-10 1.627853e-10 1.248919e-09 -3.623479e-11 2.068901e-11
-5.626441e-09 4.952273e-09 2.309868e-10 -6.804468e-11 -3.249490e-11 -3.061562e-11
-2.306331e-09 1.240391e-09 1.837523e-10 1.141542e-09 1.639552e-10 4.903479e-10
-5.420525e-09 4.933900e-09 3.028715e-10 -2.697899e-10 -4.285106e-11 -9.038745e-11
-5.504125e-09 4.365887e-09 2.442240e-10 -1.412124e-09 -2.416876e-10 -2.199653e-10
3.810587e-10 -5.624645e-11 -1.630140e-10 1.875251e-09 3.416341e-10 -4.883705e-10
-5.647846e-09 5.021952e-09 2.737104e-10 -9.268275e-11 -6.094791e-11 -2.422729e-11
-9.603816e-10 1.201676e-09 3.105649e-10 1.736329e-09 2.547900e-10 1.304246e-11
-1.458969e-09 1.045267e-09 1.544977e-10 2.715671e-09 1.623570e-10 2.402241e-10
-5.288760e-09 4.898489e-09 1.884106e-10 -2.199756e-10 -5.748257e-11 -1.068656e-11
-7.150179e-09 5.264972e-09 5.180669e-10 -4.017499e-10 -3.042566e-11 -4.778159e-10
-1.110725e-09 7.969909e-10 6.819389e-11 7.871694e-10 -7.827183e-11 6.253376e-11
-1.039879e-09 2.367884e-11 -4.354295e-12 2.047158e-09 8.345735e-11 -2.843580e-11
-5.122036e-11 3.223055e-10 -2.009797e-10 1.380913e-09 1.275104e-10 2.773696e-10
-5.433608e-09 4.849730e-09 1.939584e-10 -1.045619e-10 1.178581e-11 -5.954176e-11
-2.559554e-09 1.234251e-09 1.411777e-10 1.168141e-09 5.464995e-11 -1.894420e-10
1.628440e-10 3.283078e-10 -1.381966e-10 1.255794e-09 2.201033e-10 1.553704e-10
-5.654959e-09 5.021952e-09 1.946221e-10 -8.525935e-11 -4.930534e-11 -5.502043e-11
-5.999923e-09 4.794252e-09 3.813583e-10 -1.104440e-09 -1.123754e-10 -2.953100e-10
-8.111360e-09 1.268131e-09 2.290778e-09 -1.636060e-10 -5.736156e-11 -1.431117e-10
-8.095806e-09 6.096821e-10 2.471144e-09 -2.713121e-10 -1.120053e-10 -1.042006e-10
-7.894495e-09 2.882103e-10 2.434575e-09 -8.352830e-11 4.468603e-11 -3.618647e-10
-7.943367e-09 -3.987748e-10 2.435158e-09 -7.366229e-10 2.509486e-10 2.332076e-11
-7.990096e-09 4.211183e-10 2.311342e-09 -3.445844e-10 -2.587791e-11 -5.359335e-10
-7.063028e-09 4.614921e-09 6.172265e-10 -3.167313e-09 -2.932323e-10 -3.003320e-10
-5.977297e-09 4.991104e-09 3.351626e-10 -2.117657e-10 8.881965e-16 -4.256329e-11
-4.763084e-09 4.395792e-09 1.787173e-10 -4.898628e-10 -1.178822e-10 -9.275341e-11
-5.674711e-09 5.039869e-09 3.259883e-10 -2.622820e-10 6.747270e-12 -3.794909e-11
-8.049932e-09 1.739259e-09 2.074065e-09 1.673803e-10 1.374245e-10 -2.083831e-10
-7.867833e-09 5.093192e-09 9.049348e-10 -5.699099e-10 -6.319711e-11 -5.113510e-11
-5.370248e-09 4.921620e-09 2.150764e-10 -1.077023e-09 -1.164537e-10 -6.003992e-10
4.273367e-09 -1.708689e-09 -6.621441e-10 -1.418400e-09 -1.766842e-10 -3.518899e-10
4.874051e-09 -1.680507e-09 -8.879670e-10 -1.605637e-09 -2.509013e-10 2.740488e-10
3.520434e-09 -6.340786e-10 -7.973182e-10 -2.460613e-09 -1.536634e-10 -5.399459e-12
2.921988e-09 -6.802114e-11 -7.554449e-10 -2.452392e-09 7.373838e-11 1.227965e-10
-7.760969e-09 4.206086e-09 1.082489e-09 6.598278e-12 2.265022e-11 -2.720191e-11
-7.658052e-09 4.066949e-09 1.094502e-09 1.523075e-10 1.064437e-11 -4.456391e-11
-7.543239e-09 4.117682e-09 1.099468e-09 8.133710e-11 -1.680125e-11 2.029732e-11
-7.833979e-09 3.628649e-09 1.404610e-09 5.019343e-10 2.240708e-12 5.999179e-11
-7.285867e-09 3.753808e-09 1.092558e-09 4.976655e-10 4.499612e-11 1.542272e-11
2.301324e-09 -4.633947e-10 -6.256944e-10 -1.073895e-09 -1.857752e-10 3.119757e-10
-7.435430e-09 4.063263e-09 9.806593e-10 2.500529e-10 1.066213e-10 -2.186770e-10
-7.583005e-09 3.828175e-09 1.233183e-09 4.168639e-10 8.439649e-11 -1.735945e-11
-7.995689e-09 4.007424e-09 1.250949e-09 1.284453e-10 2.092992e-11 -5.343703e-11
-6.639651e-09 3.665669e-09 9.270973e-10 5.448877e-10 1.616166e-10 -1.489703e-10
3.053986e-09 -7.653327e-10 -7.088845e-10 -1.161088e-09 2.781815e-10 -1.053904e-10
-7.774627e-09 4.208010e-09 1.070567e-09 2.374101e-12 1.406528e-12 -4.039247e-11
-7.702123e-09 4.155390e-09 1.102849e-09 1.292211e-11 -4.329648e-12 -4.145040e-11
1.826922e-08 -4.108671e-08 -9.127795e-09 -3.765490e-09 -2.529375e-09 -4.136922e-10
2.178031e-08 -4.200221e-08 -1.472916e-08 -3.608448e-09 -1.669230e-09 -1.225220e-09
-7.467618e-09 4.022159e-09 9.873551e-10 2.892797e-12 1.046188e-10 -2.083489e-11
-7.033651e-09 3.852097e-09 9.812642e-10 -3.882139e-11 2.121214e-11 -1.621241e-10
-7.760054e-09 4.237194e-09 1.062786e-09 1.219025e-12 1.206812e-12 -2.273748e-11
-6.453131e-09 3.727992e-09 9.273602e-10 3.667608e-10 1.034696e-10 -2.264700e-11
-7.467619e-09 4.024349e-09 1.046931e-09 6.254552e-12 -5.639953e-14 -2.179423e-11
2.508762e-08 -4.696176e-08 -9.587226e-09 -3.054952e-09 -4.405837e-09 2.935519e-10
-7.774629e-09 4.217700e-09 1.015177e-09 2.756106e-11 3.184797e-11 -6.070344e-11
-7.639110e-09 4.116306e-09 9.906724e-10 1.069287e-10 -3.525735e-12 -8.127110e-11
-6.414225e-09 3.462604e-09 9.256516e-10 3.333405e-10 7.472467e-11 -3.579932e-10
2.502467e-08 -4.358922e-08 -1.417510e-08 -3.430518e-09 -8.171250e-10 4.973170e-10
2.271831e-08 -4.358477e-08 -1.352394e-08 -7.760901e-09 -7.371669e-09 -1.250396e-09
1.976663e-08 -3.781850e-08 -2.059147e-08 -9.465018e-09 -3.042040e-09 -6.416078e-10
-7.880308e-09 1.736137e-09 2.141994e-09 6.663028e-10 2.822826e-10 1.306256e-10
-7.573144e-09 -3.406928e-10 2.474640e-09 -1.076729e-09 8.406569e-10 -3.189327e-11
-2.268042e-09 -2.459378e-08 8.269955e-09 4.091596e-10 -4.081760e-11 3.645478e-11
-1.520643e-09 -2.502104e-08 8.184924e-09 2.561547e-10 4.339196e-12 1.107314e-11
-7.937343e-09 -4.865948e-10 2.483755e-09 3.307463e-10 -3.348134e-10 4.597217e-11
-6.786295e-09 2.750821e-09 1.403578e-09 2.073318e-09 2.151552e-10 -2.168156e-10
-6.808061e-09 1.993242e-09 1.516087e-09 1.027999e-09 -1.290856e-11 -1.195528e-10
-7.510906e-09 2.546248e-09 1.673194e-09 1.390617e-09 2.521805e-10 -1.031485e-10
-7.771028e-09 1.966304e-09 2.015779e-09 7.665241e-10 2.381253e-10 1.461493e-10
-7.849470e-09 4.224792e-09 1.067285e-09 5.085821e-11 5.115763e-11 -1.869274e-11
1.880501e-09 6.427056e-09 5.279448e-09 1.633797e-08 -4.350948e-10 -8.523295e-10
7.804654e-09 -2.675059e-08 8.096160e-08 -9.754678e-09 3.423693e-09 -9.517773e-09
3.045289e-09 6.764593e-09 4.299618e-09 1.736540e-08 -1.417414e-09 -2.292652e-09
-7.706697e-09 1.521318e-09 2.095920e-09 5.506896e-12 3.632790e-10 -3.609757e-11
5.767658e-09 2.876562e-09 4.812197e-09 1.619600e-08 -1.507215e-09 -3.432453e-09
-3.263728e-09 7.470633e-09 2.375926e-09 1.117162e-08 1.263621e-10 -3.216964e-10
2.201932e-09 8.868109e-09 1.389069e-08 2.179035e-08 -4.000646e-09 -6.137758e-09
3.175642e-08 -1.454782e-08 2.187744e-08 -1.090674e-09 1.078839e-09 -1.266867e-08
2.552131e-08 -1.106495e-08 4.850679e-09 -1.868516e-09 3.373525e-10 -3.176553e-09
-7.881143e-09 2.950635e-10 2.319628e-09 -1.325602e-10 2.309042e-11 -3.418191e-10
-7.901080e-09 -4.028908e-10 2.392733e-09 2.628451e-10 6.198237e-10 -2.738771e-10
-7.857948e-09 -5.121787e-10 2.850008e-09 -4.694143e-10 -2.384903e-11 -2.082508e-10
2.193243e-08 -1.467028e-08 2.166784e-08 8.789465e-09 -7.241357e-11 -1.119631e-08
1.215878e-08 -1.766180e-09 2.277646e-08 2.171876e-08 -4.171818e-09 -9.223216e-09
2.775299e-08 -1.174498e-08 1.059297e-08 -1.098009e-08 2.429654e-09 -5.595925e-09
2.007236e-08 -1.299319e-08 8.652394e-09 4.946643e-09 1.009005e-11 -3.984586e-09
5.379659e-09 1.641111e-09 1.920312e-09 1.341452e-08 -4.353928e-10 -2.019844e-09
2.283020e-08 -1.108404e-08 1.926785e-09 -2.134928e-09 6.608152e-10 -2.827590e-10
2.038813e-08 -9.905039e-09 8.653860e-09 1.019842e-08 7.738921e-11 -3.868262e-09
1.334165e-08 -5.248191e-09 2.468824e-09 9.821026e-09 -8.208631e-10 -1.763753e-09
1.920608e-08 -1.035345e-08 1.719138e-08 1.078225e-08 -8.036399e-10 -5.181332e-09
-1.516343e-09 7.730821e-09 4.095893e-09 1.447017e-08 -9.469127e-11 -2.089574e-09
-7.645037e-09 -1.499510e-09 2.941085e-09 -7.163363e-10 -1.642304e-10 -4.213607e-11
-7.265347e-09 -2.839974e-09 2.919883e-09 -1.124208e-09 2.886669e-10 -3.546541e-11
-1.048087e-08 1.368197e-08 3.521520e-09 1.172211e-08 8.721395e-10 -4.777553e-10
-7.676172e-09 1.239503e-08 4.878570e-09 1.358459e-08 1.439449e-11 1.013883e-10
-7.277033e-09 -3.418307e-09 3.387981e-09 -5.755714e-10 -1.466245e-10 -6.832800e-11
-8.311023e-10 4.577259e-09 3.124775e-09 1.339338e-08 -4.484653e-10 -8.632908e-10
1.903171e-09 4.352028e-09 2.750877e-09 1.378462e-08 -7.553552e-10 -1.257122e-09
-7.787333e-09 -1.614773e-09 2.841360e-09 -1.095029e-09 -7.875522e-11 -5.688194e-10
-1.862974e-09 2.868935e-09 2.750877e-09 1.001526e-08 -8.141479e-10 -1.522950e-09
-3.711217e-09 8.458290e-09 9.728156e-10 1.017801e-08 -1.176784e-09 -1.609594e-09
-7.968474e-09 -6.204817e-10 2.794643e-09 -2.561974e-10 -2.223858e-10 -2.123915e-10
-6.350847e-09 1.168743e-08 3.271004e-09 1.287747e-08 -6.468072e-10 -9.913656e-10
7.561525e-10 -1.049540e-09 -2.805223e-10 1.300662e-09 -2.344636e-11 2.194451e-10
3.279689e-09 -1.360159e-09 -4.720544e-10 7.880030e-10 2.541799e-10 4.626168e-10
1.436704e-09 1.489269e-10 -3.191047e-11 5.720180e-10 2.297169e-10 -2.714455e-10
-7.128959e-09 7.953292e-09 8.420101e-09 1.758530e-08 -2.938621e-09 -2.288204e-09
5.939761e-09 -1.192865e-09 9.231308e-09 1.435354e-08 -1.157720e-09 -2.549388e-09
-5.286064e-09 2.704225e-09 9.370948e-10 1.601805e-09 5.610251e-11 2.635506e-10
-8.596643e-10 1.804676e-10 -1.153055e-11 6.083681e-10 -3.806741e-11 -1.643796e-10
-7.101131e-09 3.848765e-09 9.920544e-10 -5.382728e-11 5.827694e-11 -4.465317e-13
-6.148341e-09 3.248196e-09 9.866676e-10 8.455427e-10 6.694201e-12 -7.746692e-11
-1.065986e-08 8.221688e-09 -4.917021e-09 -2.033152e-09 7.993017e-11 6.806533e-11
-2.781206e-09 1.810866e-09 3.364979e-10 2.194763e-09 3.528266e-11 -5.100511e-10
-4.470603e-09 2.717409e-09 5.581828e-10 -5.766054e-11 3.601561e-13 -2.367051e-11
1.099991e-09 -3.462937e-10 -2.572593e-10 9.937707e-10 -1.043511e-10 1.262501e-11
-5.552045e-09 3.050747e-09 7.998722e-10 -2.088774e-12 -8.009682e-11 4.440895e-16
-6.566006e-09 3.202850e-09 1.114337e-09 1.141728e-09 -4.413869e-11 -2.091216e-11
4.139213e-10 -1.709513e-10 -1.174261e-10 6.311751e-11 1.619516e-10 2.757696e-10
-6.118097e-09 3.115592e-09 9.139658e-10 1.011916e-09 7.626966e-11 -1.913727e-10
-6.797892e-09 3.637801e-09 8.335033e-10 -1.448885e-11 1.750553e-10 -3.945522e-11
1.950410e-09 -1.147630e-09 -3.540219e-10 1.258608e-09 1.060776e-10 -6.888401e-11
1.694693e-09 -7.459731e-10 -2.663754e-10 3.611331e-10 3.645395e-11 2.411387e-10
1.350126e-08 3.632229e-09 3.730611e-08 -4.288833e-08 3.838303e-09 -3.502879e-09
-6.338087e-09 3.225604e-09 9.658598e-10 1.040786e-09 -7.675494e-11 -1.237677e-11
2.425189e-10 -2.849318e-08 8.599699e-09 6.966352e-10 4.823555e-10 1.856799e-10
1.904746e-09 -1.333920e-09 -4.412892e-10 1.062640e-09 2.340321e-10 5.573397e-11
-7.357626e-09 5.941115e-09 -1.236704e-09 -7.225241e-09 -6.134659e-10 4.243497e-10
-1.585725e-09 -2.596805e-08 8.713447e-09 1.477342e-09 -7.383959e-11 1.540555e-10
-2.310760e-09 -2.615662e-08 8.491302e-09 2.529976e-09 5.631555e-10 -2.414363e-10
1.078288e-09 1.700871e-10 -1.703631e-10 6.550145e-10 1.804285e-11 1.404539e-10
3.080913e-10 -6.072032e-11 -1.839102e-10 2.540326e-10 1.014868e-10 -1.362175e-10
-2.330179e-09 -2.532614e-08 8.713250e-09 2.696553e-10 2.028550e-11 6.463408e-11
-1.817912e-09 -2.604774e-08 8.867049e-09 3.082878e-10 8.269718e-12 -9.324463e-11
7.077241e-09 -2.480012e-08 -2.103670e-09 -1.501713e-08 5.771536e-10 5.855702e-10
-7.301893e-09 -2.088978e-09 2.964035e-09 -4.792048e-10 8.175283e-11 -3.003098e-10
-7.008888e-09 -3.012897e-09 3.381539e-09 -8.061330e-10 -8.104317e-11 -3.819065e-10
-6.448367e-09 5.079626e-09 5.024892e-10 -4.167751e-10 -4.440327e-16 -6.775735e-11
-6.286342e-09 5.137590e-09 4.840039e-10 -4.824751e-10 -8.157200e-11 -1.138692e-10
-4.716936e-09 4.583793e-09 2.242717e-10 -3.719620e-10 -2.200859e-11 -2.299422e-11
-6.807810e-09 -3.655850e-09 3.374765e-09 -3.304654e-10 4.231262e-10 -1.085672e-10
-6.035767e-09 -6.029758e-09 3.503681e-09 -1.693657e-09 1.932310e-10 -7.999542e-11
-6.036045e-09 -6.957219e-09 4.064429e-09 -1.253447e-09 -2.291642e-10 -2.332974e-10
-1.912429e-08 8.191088e-09 -3.629816e-09 1.133797e-08 4.936389e-09 -2.408858e-09
-2.049228e-08 7.713230e-09 -1.328535e-09 4.936482e-09 1.313174e-09 -8.214367e-10
-5.945981e-09 4.981941e-09 4.626959e-10 -1.488440e-09 -2.973440e-10 -4.547751e-10
-2.128518e-08 1.041496e-08 -4.890643e-09 4.704968e-09 2.172579e-09 -1.004537e-09
-2.162605e-08 1.803598e-08 -5.789791e-09 3.517942e-09 2.523486e-09 -1.116603e-09
-2.030360e-08 1.803580e-08 -9.904946e-09 8.253826e-09 -5.074482e-10 4.690186e-10
-5.721516e-09 4.919693e-09 3.167875e-10 -6.006129e-11 9.905521e-12 1.503464e-12
-5.693130e-09 4.883875e-09 2.855085e-10 -1.349907e-10 -1.819145e-11 -7.832535e-11
-5.268404e-09 4.851774e-09 2.362013e-10 -2.421174e-11 -3.270917e-11 -9.938494e-12
-6.172288e-09 3.404879e-09 8.682837e-10 -2.904987e-11 8.839041e-11 4.790501e-12
-3.992479e-09 2.537343e-09 5.272569e-10 7.725363e-10 1.589991e-10 4.669687e-11
-6.352115e-09 3.413877e-09 8.616843e-10 3.333929e-10 -6.648771e-11 3.806805e-11
2.499422e-08 -4.748593e-08 -1.014073e-08 -2.029225e-09 -3.203796e-09 -5.334720e-12
2.574933e-08 -4.676300e-08 -1.387806e-08 -9.719044e-10 -1.535157e-09 -3.573812e-10
-7.520110e-09 4.117398e-09 1.073425e-09 5.019718e-11 2.626344e-12 3.414313e-11
2.627412e-08 -4.899366e-08 -1.043441e-08 4.965541e-11 -3.858834e-09 4.151113e-10
2.627412e-08 -4.467554e-08 -1.293056e-08 -1.721485e-10 -1.413363e-09 3.823233e-10
-7.591387e-09 3.848939e-09 1.100084e-09 4.027982e-10 3.639866e-11 -5.095924e-11
2.677954e-08 -4.750676e-08 -1.282059e-08 -2.547623e-09 -7.872790e-09 8.819279e-11
2.504827e-08 -4.037945e-08 -2.132650e-08 -5.829085e-09 -5.310032e-09 -4.381513e-10
-1.948912e-08 7.148579e-09 -3.455629e-09 -2.657003e-09 -2.701241e-09 -6.187942e-10
4.063901e-09 -1.682796e-09 -8.218590e-10 -1.690652e-09 1.096301e-11 -1.642808e-10
-1.783047e-08 -9.476802e-10 3.180855e-09 -2.781817e-09 -1.630437e-09 -7.283086e-11
-1.571764e-08 1.496924e-09 -3.911342e-09 -3.232875e-09 -3.618464e-09 -8.929750e-10
4.461670e-09 -1.833498e-09 -8.557859e-10 -1.042803e-09 -3.321494e-10 1.120655e-10
5.354067e-09 -2.386202e-09 -9.839725e-10 -1.031010e-09 2.208757e-10 7.740786e-11
7.094638e-09 -3.114872e-09 -1.088282e-09 -1.367171e-09 -1.733295e-10 2.481821e-10
-1.806140e-08 4.652669e-10 -2.154295e-10 -3.726939e-10 -1.910836e-10 -1.149427e-10
-1.881992e-08 2.144059e-09 3.082627e-10 -1.233594e-09 -1.718081e-09 1.232815e-10
6.845163e-09 -3.115953e-09 -1.085373e-09 -1.485282e-09 -2.331808e-10 1.875069e-10
5.731129e-09 -2.213608e-09 -9.495349e-10 -2.301577e-09 -1.331679e-10 1.591431e-10
4.200150e-09 -1.503513e-09 -8.388605e-10 -2.518242e-09 1.932050e-10 -4.204541e-10
-1.883890e-08 1.710349e-09 -3.399516e-10 -6.297380e-10 -6.161003e-10 -1.528762e-10
2.565867e-08 -4.939319e-08 -9.654860e-09 7.986953e-10 -3.464175e-09 6.356634e-10
2.491859e-08 -4.618178e-08 -1.245571e-08 1.106109e-09 -1.730604e-09 4.625637e-10
8.938912e-10 -4.499922e-10 -2.276082e-10 7.776338e-11 -6.452601e-12 6.809786e-11
2.294788e-08 -4.609642e-08 -9.419451e-09 2.828034e-09 -3.457096e-09 7.628773e-10
2.294789e-08 -4.069280e-08 -1.093697e-08 2.772529e-09 -1.977233e-09 2.773415e-10
2.638414e-08 -4.498299e-08 -1.192814e-08 2.999341e-09 -7.976183e-09 1.282427e-09
2.698745e-08 -4.384801e-08 -2.027885e-08 -5.717112e-10 -3.955336e-09 2.224798e-10
-2.177499e-08 1.754999e-08 -8.021983e-09 3.179595e-09 3.864701e-09 -5.395733e-10
-1.962805e-08 2.245113e-08 -1.115012e-08 1.597358e-09 3.017918e-09 -1.554409e-09
-1.802300e-08 2.523419e-08 -9.283561e-09 -1.299019e-10 3.395562e-09 -1.681051e-09
-5.654867e-09 3.109682e-09 7.884715e-10 8.739946e-10 3.393619e-10 -2.052805e-10
-1.553211e-08 2.519543e-08 -1.225399e-08 3.647949e-09 9.339911e-11 -3.083915e-10
-1.988087e-08 1.988682e-08 -9.299251e-09 9.270498e-09 6.230340e-09 -3.960069e-09
-2.082290e-08 1.808982e-08 -1.243207e-08 1.281366e-08 3.022063e-09 -2.857658e-09
6.771876e-09 -3.107723e-09 -9.784120e-10 -1.214054e-09 -6.774226e-11 -2.467240e-10
-6.004300e-09 -2.792333e-08 9.446570e-08 8.824188e-09 -3.591655e-09 -1.571938e-08
2.649402e-08 -1.590790e-08 3.406341e-08 7.068093e-09 6.620778e-10 -7.875802e-09
1.086664e-08 -2.050387e-08 5.420518e-08 6.387866e-09 2.135794e-09 -1.686002e-08
2.470929e-08 -9.848745e-09 3.300510e-09 4.857198e-09 1.105205e-10 -2.240276e-09
2.022052e-09 -1.209257e-08 5.658232e-08 -1.780990e-08 1.912259e-08 -2.779586e-08
-5.231758e-09 -3.522105e-08 1.387220e-07 -2.774211e-08 -6.101807e-09 -1.577359e-08
3.746687e-09 -2.780191e-09 2.324981e-08 2.170032e-08 -2.218776e-09 -5.790011e-09
6.623518e-09 -3.201650e-09 -1.047768e-09 -6.114813e-10 -1.544032e-11 3.373566e-10
5.664142e-09 -2.924096e-09 -1.024835e-09 -1.368669e-10 -1.222634e-10 -2.475387e-11
-2.241486e-08 1.691577e-08 6.829739e-08 3.882836e-08 -2.080828e-08 -1.369469e-08
7.220518e-09 -3.770993e-09 -1.148332e-09 -7.471013e-10 2.710582e-11 -1.287592e-11
-1.511543e-08 4.158424e-08 2.170400e-08 -2.681186e-08 -1.302098e-08 1.903517e-09
-2.160610e-08 6.663018e-08 1.996350e-09 1.894310e-08 2.328473e-10 1.965544e-09
5.323728e-08 -4.728409e-08 7.414223e-08 -2.750076e-09 5.746243e-10 4.452683e-08
-4.187148e-08 6.937665e-08 3.289840e-10 1.184280e-08 -1.712034e-08 2.710922e-08
-5.257825e-09 2.211130e-09 6.419854e-08 2.958518e-08 -2.975999e-09 -1.005646e-08
-4.212189e-08 6.526824e-08 3.865450e-08 4.541967e-08 -4.108539e-08 -4.768345e-09
-1.772187e-08 3.139718e-08 2.618878e-08 2.837017e-08 -1.355781e-09 -3.835057e-09
7.386507e-09 -3.119755e-09 -1.187944e-09 -1.509573e-09 1.589577e-11 9.648216e-11
7.387136e-09 -4.005204e-09 -1.193124e-09 -1.466826e-09 -5.773404e-11 1.016309e-10
-4.300000e-08 -3.214420e-08 2.468392e-07 -1.606833e-08 5.694730e-08 -6.311640e-08
-4.016553e-09 1.076198e-08 8.555854e-08 3.941821e-08 -3.046726e-08 -3.308972e-08
-4.193844e-08 3.398075e-08 1.105146e-07 2.140082e-08 -4.048065e-08 -4.706318e-08
-9.780731e-09 -2.512418e-08 1.293393e-07 3.316996e-09 -8.417609e-09 -1.079789e-08
7.254201e-09 -4.205672e-09 -1.221951e-09 -6.444683e-10 -1.113577e-10 1.340674e-10
-2.600509e-08 6.800194e-08 -4.681045e-08 8.614466e-09 -1.409540e-09 1.633403e-08
-3.200499e-08 4.989352e-08 -5.144057e-08 -8.862173e-09 2.049288e-08 3.348749e-08
5.952486e-09 -2.076697e-09 -1.141954e-09 -6.424043e-09 9.134449e-11 -1.448746e-10
-2.110188e-10 1.287783e-09 -4.646217e-10 -2.545955e-10 -3.390408e-10 -5.039302e-12
8.109268e-09 -4.240977e-09 -1.232107e-09 -7.049846e-10 4.965750e-11 -4.232101e-10
7.259560e-09 -3.145328e-09 -1.158109e-09 -1.141642e-09 -1.605630e-10 1.080380e-10
8.415016e-09 -4.817394e-09 -1.215806e-09 -7.941814e-10 -1.939222e-10 7.621659e-11
-7.519478e-10 2.281492e-09 -2.023861e-10 -2.517598e-09 -3.603440e-11 1.002023e-10
6.747498e-09 -3.412223e-09 -1.127484e-09 -4.410097e-10 -7.537415e-11 -1.789502e-10
6.208276e-09 -3.337404e-09 -9.101386e-10 -1.574074e-09 -2.707723e-12 -1.527124e-10
-6.890382e-09 3.579584e-09 1.075046e-09 5.506719e-10 -2.226419e-11 2.267145e-10
-7.247372e-09 2.548548e-09 1.424571e-09 7.073704e-10 -2.288614e-12 -1.210871e-10
6.280005e-09 -3.068570e-09 -1.089340e-09 -2.235984e-09 9.824808e-11 -3.402660e-10
-7.761693e-09 4.035304e-09 1.187320e-09 4.758416e-11 -1.787903e-12 -2.057177e-11
8.597102e-09 -4.321669e-09 -1.327870e-09 -1.282117e-09 9.951506e-11 1.741087e-10
8.492693e-09 -4.327414e-09 -1.202654e-09 -1.012682e-09 -1.707165e-10 1.645626e-10
-7.505489e-09 -1.698413e-08 6.203654e-09 1.334915e-09 7.909913e-10 -1.440807e-10
-9.196871e-09 -2.082233e-09 1.373619e-09 1.582617e-10 -8.210497e-10 -2.477996e-11
-9.662484e-09 -1.253840e-09 1.347544e-09 7.894996e-10 -1.548202e-10 8.069012e-11
-6.455695e-09 -2.204443e-08 3.795798e-09 1.485839e-08 3.508362e-09 -1.783735e-09
-9.914236e-09 -7.970835e-11 3.498073e-10 -9.039963e-10 2.742414e-10 -4.125881e-10
-7.919553e-09 -5.594856e-09 2.625100e-10 1.265893e-09 3.703438e-11 2.598907e-10
-7.925296e-09 -5.939929e-09 1.283470e-09 2.284876e-09 -9.898448e-10 3.036868e-10
3.606737e-09 -3.116536e-08 4.398232e-09 -2.163405e-09 -9.722754e-10 -1.629149e-09
-1.946112e-09 -1.518542e-08 -1.054953e-08 -9.957534e-09 -5.962990e-10 -1.161446e-09
-1.648074e-08 1.502031e-08 6.264145e-10 3.215669e-09 -5.704120e-10 -1.263576e-09
-9.447442e-09 1.518868e-08 3.272136e-09 1.332265e-08 -3.445426e-10 -8.638956e-10
-7.222866e-09 1.245748e-08 2.355889e-09 1.188897e-08 -1.364466e-09 -1.911623e-09
-9.058703e-09 -3.178110e-09 9.918382e-10 1.067922e-09 3.829754e-10 -1.073621e-10
5.856369e-08 -3.841603e-08 2.407271e-08 8.632454e-09 2.675681e-09 4.398950e-09
9.025350e-09 1.202245e-07 -9.505696e-08 2.722574e-09 4.332994e-09 1.694108e-08
6.485210e-08 -3.089549e-08 2.914661e-08 1.168117e-09 1.118011e-09 8.729544e-09
5.751346e-08 -2.234996e-08 5.008180e-09 4.072282e-09 1.696075e-09 2.736094e-09
6.283966e-08 -3.089582e-08 1.163513e-08 7.005606e-10 5.862432e-10 -1.424949e-10
6.383929e-08 -3.089550e-08 9.665303e-09 1.221804e-09 3.018588e-10 1.385353e-09
-4.712352e-09 7.945679e-08 -1.020342e-07 -7.029030e-09 1.725805e-08 1.984495e-08
5.959008e-08 -2.770925e-08 1.161663e-08 4.325244e-09 1.508915e-09 3.175289e-09
2.738222e-08 7.388884e-08 -1.223647e-07 -2.853379e-08 2.982575e-08 2.606218e-08
-2.995720e-08 6.205183e-08 -4.253857e-08 2.286498e-09 -3.466644e-09 1.042586e-08
-1.913443e-08 3.201381e-08 2.238740e-08 2.723835e-08 -9.986485e-09 -8.846744e-09
-2.655707e-08 4.428423e-08 -1.798747e-08 -5.944777e-09 1.419611e-09 1.421895e-08
-2.303728e-08 7.882034e-08 -3.703564e-08 1.483266e-08 -5.210277e-09 1.290384e-08
1.097997e-08 -3.385845e-08 6.621439e-09 -4.022196e-09 7.054822e-10 -3.298485e-10
8.588971e-09 -3.157427e-08 5.902442e-09 -3.319938e-09 7.845079e-10 -3.303193e-10
1.009099e-08 -3.475947e-08 6.865521e-09 -1.805178e-09 4.740943e-10 2.811871e-10
-2.770812e-08 4.465374e-08 1.996350e-09 7.347848e-09 -6.341723e-09 -1.680092e-09
-1.717160e-08 4.752510e-08 -4.924603e-08 -1.193120e-08 1.099133e-08 6.516183e-09
5.066915e-08 -4.733224e-08 5.796644e-08 -3.449284e-09 8.212779e-11 1.355955e-08
-1.548136e-08 6.059671e-08 -6.090762e-08 -6.772231e-09 9.619951e-09 7.995545e-09
3.465240e-08 1.033482e-07 -1.434297e-07 -1.238340e-08 4.052150e-08 -9.892336e-10
3.873870e-08 4.435413e-08 -1.418518e-07 1.163224e-08 4.596900e-08 2.726411e-09
4.345137e-08 7.910614e-08 -1.561292e-07 -1.008912e-08 4.798996e-08 1.505917e-08
8.557683e-09 -3.142613e-08 6.613829e-09 -2.966109e-09 3.369407e-10 -5.571910e-10
8.610327e-09 -3.240821e-08 7.139564e-09 -2.869957e-09 -4.641438e-10 -4.030953e-11
-5.619947e-09 -6.377753e-09 3.976266e-09 -1.150864e-09 -2.877141e-10 -5.280602e-10
-5.193288e-09 -8.245568e-09 4.299786e-09 -1.452898e-09 -4.215068e-10 9.216640e-11
-4.286157e-09 -1.045972e-08 4.247799e-09 -2.426535e-09 5.295095e-10 -1.112243e-10
1.905754e-08 -1.838861e-08 4.430537e-08 2.346497e-10 -2.808930e-10 -1.691018e-08
-4.289054e-09 -1.107508e-08 4.723311e-09 -2.102212e-09 -1.600267e-10 -3.140472e-10
-4.049643e-09 2.999070e-08 -5.310862e-08 9.299518e-10 -2.198097e-08 2.163648e-08
-5.679277e-09 -8.430906e-09 4.013869e-09 -2.937844e-09 -1.709243e-10 -6.776935e-10
1.761631e-08 -1.575319e-08 2.758330e-08 -3.631660e-09 -9.324907e-10 -9.744003e-09
-6.364412e-09 -4.882553e-09 3.664281e-09 -2.043405e-09 4.603013e-10 -3.673717e-11
2.289320e-08 -1.150992e-08 8.981396e-09 -8.234713e-09 4.857306e-10 -4.638248e-09
2.175456e-08 -4.641354e-08 -7.854152e-09 3.531344e-09 -3.310108e-09 1.210580e-09
4.965560e-09 -2.371116e-08 2.232595e-09 -1.176972e-08 3.467497e-10 5.767470e-10
1.283318e-08 3.725975e-09 1.298835e-08 -2.966699e-08 1.088251e-08 -5.924025e-09
-7.227310e-09 7.928546e-09 9.689070e-09 1.766394e-08 -1.292890e-09 -3.421803e-09
8.571730e-09 -1.561431e-09 9.231308e-09 1.630556e-08 -1.177688e-09 -2.325178e-09
1.969338e-08 -9.221480e-09 1.094332e-08 1.067153e-08 1.702037e-09 -4.011401e-09
2.393137e-08 -1.350298e-08 1.559436e-08 6.639147e-09 -5.618496e-10 -6.859571e-09
2.003427e-08 -4.155093e-08 -1.017584e-08 2.494147e-09 -1.133809e-09 9.024746e-10
1.853425e-08 -6.005887e-09 2.973287e-08 2.073996e-08 -3.570993e-09 -9.265769e-09
8.515733e-09 -8.214954e-09 1.489537e-08 1.275953e-08 -1.048709e-09 -5.546899e-09
1.025919e-08 -1.286029e-09 3.323313e-09 1.472856e-08 -5.265096e-10 -2.093494e-09
1.671875e-08 -3.928058e-08 -7.239549e-09 4.267464e-09 -2.270063e-09 9.871314e-10
2.288429e-08 -1.489521e-08 2.702368e-08 1.071680e-09 6.942015e-10 -9.658264e-09
1.228419e-08 -4.709823e-09 1.340949e-09 9.057369e-09 -2.773259e-10 -6.402410e-10
1.410535e-08 -5.702214e-09 -1.070840e-09 -6.488274e-09 -1.722774e-10 2.062849e-10
1.113968e-08 -5.024162e-09 7.096665e-09 1.383530e-08 -9.325580e-10 -4.001017e-09
2.571668e-08 -1.149072e-08 6.717728e-09 -1.084687e-08 1.212764e-09 -1.713841e-09
2.057280e-08 -7.900472e-09 1.750251e-09 -1.081962e-08 -6.470322e-11 2.101606e-09
1.671874e-08 -3.431083e-08 -8.385050e-09 3.916578e-09 -1.886880e-09 3.685014e-10
2.111316e-08 -3.988873e-08 -9.926659e-09 6.700182e-09 -6.702256e-09 1.939099e-09
2.352752e-08 -4.139325e-08 -1.735563e-08 4.548721e-09 -1.927704e-09 5.264178e-10
2.465690e-08 -1.150457e-08 1.158139e-08 -8.350083e-09 3.231084e-10 -2.433904e-09
9.641551e-09 -9.829436e-10 8.493679e-09 -2.313503e-08 3.793912e-09 -5.929817e-10
-1.763612e-08 2.404809e-08 -9.841573e-09 3.345800e-10 4.234420e-09 -2.151168e-09
4.626372e-09 2.530872e-09 1.358450e-08 -2.634415e-08 7.235662e-09 7.372359e-10
-1.550470e-08 2.439657e-08 -1.061823e-08 1.577453e-09 2.313959e-09 7.030365e-10
-6.108186e-09 2.580630e-08 -1.059349e-08 -6.669388e-09 1.874512e-09 -1.585632e-09
1.154221e-08 5.815005e-10 1.230425e-08 -2.400249e-08 -8.617444e-10 -1.797888e-09
1.263422e-08 -1.668553e-08 4.819471e-08 -1.523784e-08 9.111446e-10 -8.175297e-09
-6.150710e-09 2.607155e-08 -8.981813e-09 -3.957472e-09 -6.691707e-10 -8.768683e-10
2.399428e-08 -1.675972e-08 2.814936e-08 -1.118489e-08 4.105224e-10 -1.185982e-08
-1.393139e-08 2.627347e-08 -1.142608e-08 2.834707e-09 5.262775e-09 -4.872821e-09
-2.051676e-08 2.759974e-08 -1.565591e-08 7.252820e-09 2.822306e-09 -2.472374e-09
-1.313322e-07 3.351797e-08 2.474473e-07 -1.748297e-08 1.235094e-07 -5.955369e-08
8.639029e-09 -4.493994e-09 -1.287867e-09 -6.707332e-10 2.836154e-11 1.321970e-11
9.068888e-09 -5.007462e-09 -1.301061e-09 -1.689453e-10 -1.703993e-11 -3.094429e-10
-3.125937e-08 -6.044480e-09 1.293393e-07 1.932036e-08 -9.610928e-09 -1.341277e-08
-3.470780e-08 4.604910e-08 1.039904e-08 1.146752e-08 6.088945e-09 2.653340e-09
-5.825206e-08 3.470899e-08 1.640950e-07 3.668918e-08 -2.850997e-08 -1.551560e-08
8.297214e-09 -4.438612e-09 -1.221939e-09 -1.381775e-10 -8.452961e-11 2.152568e-10
2.457190e-08 1.048528e-07 -1.409479e-07 1.579127e-08 3.790849e-08 -1.667038e-08
-1.079582e-08 2.756862e-08 7.041641e-08 -3.616328e-08 -8.542293e-09 -1.836828e-09
-6.248684e-09 2.830700e-08 3.412178e-08 -4.170620e-08 2.121340e-08 1.127601e-09
8.253371e-09 -4.764825e-09 -1.251593e-09 -8.734272e-10 -5.306461e-11 2.046984e-10
1.658459e-08 -1.640832e-08 4.309638e-08 -1.422093e-08 -9.403912e-10 -8.952743e-09
-1.762711e-09 2.558019e-08 3.490659e-08 -3.381819e-08 2.148112e-08 5.059129e-09
8.877601e-09 -4.737950e-09 -1.252021e-09 -6.829510e-10 -6.313494e-11 2.956080e-11
9.613579e-09 -5.215776e-09 -1.351588e-09 -5.414841e-10 4.898886e-11 5.707612e-11
1.170566e-08 -2.302509e-08 5.660620e-08 -7.071470e-09 3.516091e-09 -1.994586e-09
-4.471507e-08 2.217764e-08 1.484774e-07 -4.193515e-08 -4.204903e-08 1.703283e-08
-2.584626e-08 -3.921140e-08 1.387220e-07 -1.496401e-08 -5.492344e-09 -1.910004e-08
-2.088234e-08 -3.254880e-08 1.682177e-07 -1.773597e-09 -1.266366e-08 -5.878538e-08
-4.196460e-09 -2.496014e-08 9.446570e-08 1.148645e-08 -4.119740e-09 -1.595939e-08
9.176336e-09 -5.294501e-09 -1.265218e-09 -1.718093e-10 -1.030607e-10 -1.533351e-11
9.140913e-09 -5.141706e-09 -1.255470e-09 -3.058682e-10 -4.685557e-11 1.696916e-10
8.342067e-09 -4.334707e-09 -1.230875e-09 -8.041204e-10 -6.698261e-11 9.871881e-11
8.811485e-09 -4.916487e-09 -1.297893e-09 -3.696208e-10 1.808742e-11 1.395635e-10
8.721499e-09 -4.793870e-09 -1.292461e-09 -2.221471e-10 -2.692491e-11 3.096834e-11
9.178534e-09 -5.246284e-09 -1.328547e-09 -4.190769e-10 4.638201e-11 1.036624e-10
8.342111e-09 -4.210968e-09 -1.201510e-09 -7.920526e-10 -8.998827e-11 9.259610e-11
1.214633e-08 -9.191811e-09 5.370562e-08 -2.546007e-08 1.748878e-08 -1.366910e-08
8.220391e-09 -4.503181e-09 -1.241835e-09 -3.055207e-10 -3.188450e-11 -8.570589e-11
2.770744e-08 -1.026238e-08 3.562068e-08 -2.034699e-08 8.936131e-09 -1.867971e-08
6.449764e-08 -2.888362e-08 7.626003e-09 3.856297e-10 1.346348e-09 1.075604e-09
6.946504e-08 -3.089453e-08 1.281654e-08 2.807604e-09 -7.666445e-10 1.533171e-08
6.105270e-08 -2.954627e-08 1.164453e-08 -2.789567e-09 -3.871976e-10 4.285452e-09
6.213339e-08 -2.805186e-08 1.014104e-08 -2.865143e-09 6.719904e-10 5.101340e-10
-2.458893e-08 4.206247e-08 9.488881e-08 -6.541104e-08 -6.963657e-08 3.981007e-08
-7.932951e-09 3.555712e-09 1.351095e-09 6.526470e-10 1.548041e-10 -1.849001e-10
2.517969e-08 -4.827886e-08 -9.545407e-09 -4.021255e-10 -1.069483e-09 1.144129e-11
-3.289955e-10 -1.855050e-08 -4.626501e-09 -1.523307e-09 2.240612e-16 -6.619016e-10
-9.490111e-10 -6.620179e-10 -2.400066e-08 -1.794249e-08 -1.226972e-08 -4.312947e-09
6.769685e-08 -2.801427e-08 1.131356e-08 -2.274031e-09 1.350318e-09 1.469911e-08
-8.682830e-09 -1.643025e-08 5.939002e-09 2.076964e-09 5.118053e-10 -4.419632e-16
8.620713e-09 -3.313904e-08 6.624736e-09 -3.043018e-09 3.143617e-10 1.694860e-11
7.016677e-09 -2.986730e-08 6.473189e-09 -2.087895e-09 7.453971e-11 3.535949e-10
7.664758e-09 -2.892999e-08 6.143048e-09 -5.066338e-09 5.352634e-10 -2.970680e-10
9.074236e-09 -3.354834e-08 6.022451e-09 -4.574638e-09 -6.010403e-10 1.947701e-10
5.372856e-09 -2.607780e-08 6.305154e-09 -3.662168e-09 -6.489589e-10 5.852700e-11
5.412735e-09 -2.678000e-08 6.509282e-09 -3.040256e-09 -6.240839e-10 -3.114919e-10
2.650309e-08 3.993342e-08 -9.262448e-08 -1.924057e-08 1.356359e-08 2.435254e-10
9.768147e-09 -3.282635e-08 3.657121e-09 -9.343727e-09 -9.315644e-10 7.636960e-11
-4.095755e-09 -1.114128e-08 -4.452350e-11 2.876486e-09 -1.249147e-09 4.753381e-10
-7.823924e-10 8.422045e-08 -9.258630e-08 3.583287e-09 1.952764e-08 8.169742e-09
-2.744452e-08 7.484210e-08 -4.550117e-08 2.788084e-08 -1.376584e-08 8.492564e-09
1.995862e-09 5.158817e-08 -7.221176e-08 -8.046085e-09 1.200252e-08 6.778495e-09
-6.885002e-09 3.944494e-08 -6.427106e-08 -2.412057e-08 2.518577e-08 2.752750e-08
-7.943803e-09 2.328289e-10 2.618794e-09 -6.565027e-11 1.862337e-10 7.183559e-11
-7.436179e-09 3.177153e-09 1.231868e-09 9.719961e-10 8.987655e-11 -1.762213e-10
-4.151048e-09 -1.242316e-08 2.294116e-10 3.162184e-09 -8.740551e-10 4.484518e-10
-8.077055e-09 3.611389e-09 1.410215e-09 1.350046e-10 -8.880674e-13 -4.365792e-11
-7.921923e-09 2.557349e-09 1.790069e-09 7.434884e-10 1.525264e-10 -3.524294e-10
-8.244003e-09 2.563742e-09 1.844148e-09 3.546914e-10 -2.220226e-16 3.105649e-11
-6.208111e-09 -8.842039e-09 -6.425971e-11 1.940442e-09 2.721583e-10 8.166157e-11
-7.547240e-09 -8.624308e-09 1.485609e-10 3.719648e-09 -6.552597e-10 2.655577e-10
-9.725899e-09 -1.160857e-09 2.118297e-10 2.410184e-09 -3.427185e-10 -9.752887e-12
-1.309486e-09 2.169073e-09 -2.456702e-10 -3.430955e-10 -1.811621e-10 1.417089e-11
-2.237385e-09 2.823630e-09 -1.702198e-10 -1.775806e-10 9.792434e-11 -2.220794e-16
-4.288725e-09 -8.742926e-09 4.115584e-09 -2.133874e-09 1.155320e-10 -2.921210e-10
-3.773923e-09 -1.076336e-08 4.818046e-09 -1.882710e-09 -1.540004e-10 -6.574318e-10
1.350533e-08 -3.972912e-08 -5.379940e-09 -5.839840e-10 -1.811671e-09 -1.534699e-09
-2.911209e-09 -1.295865e-08 4.932518e-09 -1.934760e-09 -2.055223e-10 2.421512e-10
-1.338866e-09 -1.791398e-08 5.436204e-09 -2.480102e-09 -2.824537e-10 -3.316763e-10
-3.182699e-10 -2.114825e-08 -3.003672e-09 -6.315561e-09 -6.052518e-09 -1.744675e-09
-5.712714e-09 -1.709534e-08 -6.977857e-09 -1.384246e-08 -9.889392e-09 -3.617158e-09
3.734473e-09 -2.335783e-08 -5.749893e-09 -1.557916e-09 -6.662949e-10 -9.241207e-11
-6.794286e-09 -6.465768e-09 -6.612345e-09 -1.531292e-08 -1.142127e-08 -3.463949e-09
-7.459648e-10 -1.634439e-08 5.125632e-09 -3.470861e-09 -7.916689e-10 -1.953944e-10
-5.714454e-09 -2.249101e-08 3.527613e-09 -9.605166e-09 -6.566512e-09 4.801007e-11
-3.693201e-09 -1.233317e-08 4.759488e-09 -3.715693e-09 -1.718891e-10 -6.526608e-10
-4.568677e-09 -8.808207e-09 4.158041e-09 -3.169457e-09 6.675023e-10 3.351208e-11
1.671876e-08 -3.893048e-08 -9.010137e-09 4.978560e-09 -5.693764e-09 1.168620e-09
1.499555e-08 -3.902667e-08 -5.369014e-09 4.088547e-09 -2.963666e-09 1.264441e-09
3.469439e-08 -2.485194e-08 9.225880e-08 -4.387136e-08 -3.180916e-08 4.102361e-08
1.340828e-08 -3.388976e-08 -7.487582e-09 3.566800e-09 -1.072884e-09 9.571072e-10
9.072576e-09 -2.742926e-08 -4.692154e-09 4.506774e-09 -2.756882e-09 1.421981e-10
-1.254762e-08 -9.193756e-09 3.684854e-09 2.882025e-09 6.538974e-10 -4.403201e-16
-7.617846e-09 2.396644e-09 1.743022e-09 5.510547e-10 1.904978e-10 1.562772e-11
-7.286905e-09 2.682692e-09 1.545347e-09 1.434126e-09 1.579676e-10 -1.247678e-10
-7.752594e-09 1.105191e-09 2.144418e-09 2.124702e-10 2.837698e-10 -1.751379e-10
-7.016034e-09 3.147135e-09 1.189503e-09 7.523502e-10 -1.600065e-11 -1.665681e-10
9.075860e-09 -2.419012e-08 -6.073970e-09 5.131396e-09 -2.197662e-09 -1.661526e-10
-7.594223e-09 2.769927e-09 1.565262e-09 1.092317e-09 1.783921e-10 -2.271337e-10
-1.978891e-08 2.687318e-08 7.318526e-09 1.430126e-08 -1.379143e-09 -4.614041e-09
-2.316739e-08 3.233655e-08 3.724661e-10 1.095602e-08 -4.167617e-09 8.479108e-10
1.319623e-08 -3.068613e-08 -7.019223e-09 8.935839e-09 -5.618641e-09 2.216626e-09
7.890411e-09 -3.494548e-08 4.995460e-09 9.847385e-09 3.204413e-10 7.536973e-10
1.427942e-08 -4.147567e-08 -2.723993e-09 1.042611e-08 8.395382e-10 7.580953e-10
9.719537e-09 -3.938645e-08 8.555484e-09 9.928902e-10 1.638710e-10 1.196123e-10
-1.598758e-08 1.112972e-08 -9.753674e-09 -1.232976e-08 2.770226e-09 1.729985e-09
6.271233e-09 -3.234137e-08 5.311875e-09 1.162426e-08 8.460356e-10 -7.773094e-11
-1.025718e-08 2.770534e-09 1.777725e-09 -8.285087e-10 -1.206020e-10 -5.539826e-10
1.640190e-08 -3.462561e-08 -1.409132e-08 7.119875e-09 -4.523504e-10 7.943836e-10
-5.786417e-09 2.158381e-08 -7.751139e-09 -6.558160e-09 2.220582e-09 -2.560207e-09
-6.819901e-09 4.472610e-09 4.215952e-10 -3.276811e-09 -2.274172e-10 -1.934337e-10
-5.945964e-09 4.145349e-09 9.969803e-11 -4.775823e-09 -7.478151e-11 -3.655544e-10
-7.704999e-09 -8.471854e-10 -1.666699e-09 1.991681e-09 -1.917343e-09 -2.814913e-11
1.051177e-10 2.026856e-08 -8.567232e-09 -3.477225e-09 -9.599667e-12 3.661769e-09
-1.119727e-08 3.507468e-08 -4.576155e-08 -1.070399e-08 -1.791703e-08 -1.303427e-08
-1.361614e-08 -1.198543e-08 -9.531994e-10 -2.045859e-08 -1.676954e-08 -4.879446e-09
-7.594955e-09 3.110464e-08 -3.249492e-08 -7.223330e-09 -3.777537e-09 -1.900003e-09
-1.603135e-08 7.483526e-08 -5.284261e-08 -2.078960e-08 1.283462e-08 -2.032262e-08
-1.999691e-08 6.017512e-09 1.009240e-09 -1.161519e-08 -9.109568e-09 -2.688309e-09
2.190014e-08 7.307066e-09 -8.770197e-09 1.015441e-09 -4.721897e-10 7.598316e-11
1.014766e-08 1.309155e-08 -7.225842e-09 -6.405911e-09 1.070923e-09 7.121889e-10
-2.789432e-09 7.801158e-09 1.754790e-08 2.102056e-08 -4.275856e-09 -5.854373e-09
1.022566e-08 -2.272186e-08 6.408532e-08 5.642052e-09 -1.772419e-09 -1.087961e-08
9.426808e-09 -4.260854e-09 3.497193e-08 -2.548064e-08 5.973230e-09 -1.337456e-09
1.090600e-08 -2.775557e-08 8.571182e-08 -8.026151e-09 7.552455e-09 -2.810338e-08
1.847196e-08 -1.117365e-08 2.104082e-08 -1.697651e-08 5.809103e-09 -8.426226e-09
1.573280e-08 8.760941e-09 -1.825922e-09 -1.482437e-08 6.102345e-10 -5.358630e-09
3.743062e-09 -1.750006e-08 6.158134e-08 9.447394e-09 -1.874286e-09 -7.859949e-09
-7.527800e-09 -1.698750e-08 9.891576e-08 2.071749e-08 -1.925941e-08 -3.291418e-08
1.156325e-08 -8.792880e-09 4.730214e-08 2.429443e-08 -5.617027e-09 -2.056416e-08
1.871147e-08 -1.183802e-08 1.158139e-08 -1.126649e-08 2.668211e-10 -3.357298e-09
3.226006e-09 2.158263e-08 -8.083980e-09 -3.965620e-09 2.824123e-09 -2.227208e-09
-1.356669e-08 2.952283e-08 -1.375813e-08 -2.775449e-09 1.505985e-09 -7.450637e-11
-1.529392e-09 -1.315617e-08 5.139156e-09 -1.550026e-09 1.242585e-09 -4.203787e-10
1.280656e-08 -2.374212e-09 2.836376e-08 -2.285205e-08 3.250899e-09 -1.114906e-08
1.924793e-09 -1.931900e-08 5.740640e-09 -2.991210e-09 4.955392e-10 -3.371749e-10
-4.634758e-09 -2.034829e-08 6.844144e-09 6.234150e-09 7.223945e-10 1.785434e-10
1.203531e-10 -1.845456e-08 5.727363e-09 -2.243515e-09 -2.260470e-10 2.678370e-10
-7.942449e-09 3.278300e-09 1.515533e-09 6.990697e-10 -1.510348e-10 -1.072401e-10
-3.853321e-10 2.062437e-08 -8.613706e-09 -1.596000e-08 -1.356957e-09 -4.652359e-09
-4.259702e-09 -2.232385e-08 7.028998e-09 5.049626e-09 -5.893275e-10 4.846132e-10
1.910082e-09 -1.786828e-08 5.842516e-09 -2.995661e-09 -4.710088e-10 -2.448687e-10
-1.970264e-09 2.194180e-09 -1.934399e-10 -3.689547e-09 -3.767859e-10 -8.278811e-11
5.277729e-09 -2.357875e-09 -9.647128e-10 -2.747923e-10 -2.042924e-10 4.749201e-12
4.520757e-09 -1.296604e-09 -1.141954e-09 -5.444055e-09 -2.123334e-11 -4.942962e-10
6.918307e-09 -3.236359e-09 -1.077962e-09 -1.322618e-09 -1.108507e-10 2.514837e-10
1.705562e-09 -2.104741e-08 5.930296e-09 -6.900894e-11 1.441172e-09 -7.936549e-10
1.314583e-09 7.552963e-10 -5.641367e-10 -2.582863e-10 -9.078005e-11 -2.200851e-11
2.361416e-09 -2.355280e-08 6.049314e-09 -2.244244e-09 -1.306015e-09 -1.522466e-10
2.347851e-08 -4.864085e-08 -5.950635e-09 -5.243077e-10 -2.283354e-09 -2.282938e-10
-1.908920e-09 -1.359614e-08 5.198925e-09 -2.444589e-09 -1.377551e-09 -1.107440e-09
2.531584e-08 -4.766609e-08 -9.627173e-09 -6.470780e-11 2.220411e-16 2.712985e-11
-8.125928e-09 7.222862e-10 2.458796e-09 4.512899e-10 -3.228640e-12 -1.698524e-10
-8.216497e-09 2.930538e-09 1.639603e-09 3.166212e-10 2.132305e-11 -1.383980e-10
-8.218969e-09 1.387309e-09 2.241106e-09 3.674947e-10 4.441070e-16 2.413980e-11
-2.129074e-09 -1.273937e-08 4.794941e-09 -3.153020e-09 -1.928723e-11 -3.977407e-10
-8.838548e-10 -1.641738e-08 5.575716e-09 -7.691422e-10 4.049285e-10 -1.233796e-10
1.868605e-09 -2.222816e-08 5.601773e-09 -3.467062e-09 -4.671636e-10 -5.570175e-10
-1.614956e-09 -1.756904e-08 5.665402e-09 -2.345256e-09 2.877126e-10 -5.615322e-10
2.375257e-08 1.237242e-08 -1.035166e-09 -9.373032e-09 -6.207024e-10 1.445321e-09
-6.769307e-09 -3.257292e-08 1.826116e-07 -4.074738e-08 -3.452611e-08 4.954260e-08
1.691472e-08 6.122294e-09 -2.421062e-09 -2.770364e-09 -5.912992e-11 2.837397e-09
3.688437e-08 -6.522546e-09 -2.654774e-10 -1.498263e-08 -1.088257e-10 3.426892e-09
4.029021e-08 -6.703509e-09 6.419733e-09 -1.657156e-08 7.749641e-10 -4.301843e-09
1.961398e-08 1.678185e-08 -2.652358e-09 -1.905919e-08 -1.698062e-10 2.251383e-10
1.010587e-08 1.115887e-08 -7.380255e-09 -1.253634e-08 1.594282e-09 -1.461386e-09
3.529625e-09 -2.422115e-08 -6.305938e-10 2.237079e-09 1.148567e-09 9.952472e-10
-8.184018e-09 2.819019e-09 1.866061e-09 6.443370e-10 -2.607543e-10 -3.067147e-11
3.633183e-08 6.582957e-08 -1.446193e-07 1.540807e-08 6.439721e-08 -2.602821e-08
5.568300e-09 -2.449163e-09 -7.975940e-10 -2.088892e-10 -4.109994e-10 1.070444e-10
-1.379287e-09 1.707161e-09 -2.454863e-10 -7.212115e-10 -2.408671e-10 2.834666e-11
5.609781e-09 -2.381373e-08 -4.161953e-09 3.857409e-09 -1.308440e-09 3.053820e-10
9.068620e-09 -2.694522e-08 -5.342649e-09 4.763849e-09 -2.824508e-09 4.107731e-10
1.059801e-08 -3.674914e-08 -1.401448e-09 4.244737e-09 1.132872e-09 1.575529e-09
1.001261e-08 -3.291000e-08 -9.929835e-10 3.038668e-10 -3.302196e-09 7.588660e-10
1.349694e-08 -3.434117e-08 -7.928473e-09 -1.296147e-09 -8.593429e-10 -2.606306e-10
9.061728e-09 -2.910084e-08 -5.913063e-09 6.195804e-09 -4.235514e-09 7.705676e-10
-1.680515e-08 3.246229e-08 3.620399e-08 -5.061881e-08 -2.392008e-08 6.118973e-09
-7.397751e-09 -3.997991e-09 -8.823956e-09 -1.118690e-08 -2.876905e-09 1.620939e-10
5.609780e-09 -2.511401e-08 -3.527316e-09 3.228152e-09 -2.675330e-10 1.405306e-10
2.688488e-10 -1.631045e-08 -3.425288e-09 5.044230e-09 -2.452210e-09 1.464835e-09
-1.436360e-08 -5.746945e-09 2.094365e-09 3.329672e-09 6.784788e-10 -2.114894e-10
-1.668018e-08 -8.533618e-10 5.091811e-10 3.816303e-09 1.134670e-09 -4.354287e-16
-3.887130e-09 -2.465551e-08 5.668606e-09 1.408865e-08 3.632928e-09 -6.189755e-10
-9.395225e-09 -1.524754e-08 -1.251477e-10 2.054992e-08 6.401603e-09 -2.645505e-10
-9.830897e-09 -1.709830e-08 4.571384e-09 1.120005e-08 4.563293e-09 -1.278902e-10
8.876599e-09 -2.621002e-08 -2.758807e-10 4.543931e-09 -4.227854e-09 1.089874e-09
-7.630273e-09 2.550635e-09 1.591517e-09 7.433608e-10 3.238326e-11 -1.638689e-10
4.264437e-09 -1.475211e-08 -1.725981e-08 1.006018e-08 -2.371845e-09 2.203127e-09
-7.683901e-09 1.623913e-09 1.787696e-09 -4.951996e-11 -5.942707e-11 -3.751799e-10
4.157000e-09 -2.071642e-08 -6.457947e-09 8.620641e-09 -5.664108e-09 1.561906e-09
-8.221201e-09 1.968881e-09 2.042958e-09 4.036752e-10 2.560546e-11 -1.244888e-10
-6.978299e-09 -1.613933e-08 3.134375e-10 -3.630467e-09 -3.294269e-09 -1.700695e-09
-3.739427e-09 -5.431844e-09 -1.670440e-08 9.101497e-09 -3.957907e-10 6.303346e-10
-3.680365e-09 -3.320461e-09 -1.187124e-08 7.254210e-09 -3.608726e-09 3.146034e-09
2.347305e-09 -1.027111e-08 -1.635750e-08 1.123431e-08 -6.128926e-09 1.413317e-09
3.864665e-09 -2.023268e-08 -8.160873e-09 -7.228137e-09 -3.705522e-10 -7.602265e-10
-1.464799e-09 -1.255789e-08 -6.274434e-09 -6.270147e-09 -2.084246e-09 7.017222e-11
-3.849628e-09 -6.439607e-09 -1.468716e-08 1.213898e-08 -8.435154e-09 6.602983e-09
1.640218e-09 -1.489479e-08 -8.356522e-09 6.624814e-09 -3.498338e-09 3.195163e-09
-1.242328e-09 2.669897e-09 -1.228408e-10 -3.192075e-09 -4.009535e-10 -1.268823e-10
8.545422e-10 1.113576e-09 -4.984646e-10 -2.971186e-09 9.773554e-11 -4.888672e-10
4.944562e-08 -1.049331e-08 -1.494215e-09 -1.105741e-08 -2.494049e-09 -6.293721e-09
4.731877e-10 1.167113e-09 -4.896914e-10 -3.339106e-09 -2.391207e-11 -1.295724e-10
5.347356e-08 -2.265066e-08 7.693433e-09 -5.351067e-09 1.181133e-09 -1.854512e-09
5.289292e-08 -2.826035e-08 2.568343e-08 -1.628792e-08 -5.728783e-11 1.151442e-08
-2.540414e-09 2.741922e-09 -2.007727e-11 -6.253557e-10 -1.326699e-10 -1.825118e-10
7.287376e-08 -1.715243e-08 1.151596e-09 1.071849e-09 4.056839e-09 1.535967e-08
4.794573e-08 -1.719895e-08 1.065104e-08 -8.564771e-09 -3.197280e-09 2.763076e-09
2.625522e-08 -1.638737e-09 6.360137e-09 -2.231537e-08 -3.658399e-10 2.068350e-09
-1.686829e-08 6.611762e-09 -3.568761e-09 -4.763545e-09 -3.667230e-10 -4.095746e-10
-1.212459e-08 2.018089e-08 -2.678771e-08 -1.155680e-08 -5.589352e-09 -4.872480e-09
4.124693e-09 -2.264257e-09 -5.520799e-10 6.537513e-10 7.065210e-11 -4.299935e-11
3.285605e-10 -2.158367e-08 -3.392868e-09 9.385263e-09 -7.230388e-09 3.200095e-09
-2.883542e-10 -2.901674e-08 8.852057e-09 1.597026e-09 -4.480376e-10 -5.145990e-10
2.558027e-09 -2.478068e-08 -1.534743e-09 4.523627e-09 -3.147910e-09 1.535713e-09
8.567486e-09 -3.604776e-08 7.385802e-09 4.393208e-09 9.298466e-10 1.790788e-10
-1.143735e-09 -1.650316e-08 -1.911989e-09 3.046496e-09 8.666756e-11 6.329095e-10
-6.234607e-09 -6.396419e-09 -5.369708e-09 3.947314e-09 -2.086513e-09 5.402333e-10
2.442736e-09 -2.876698e-08 6.857212e-09 6.866564e-09 -1.839550e-10 -1.790067e-10
-4.164941e-09 -1.517284e-08 -2.400692e-09 6.318730e-09 -2.250025e-09 7.968883e-10
-2.090752e-09 -9.160399e-09 -3.505125e-09 5.641128e-09 -2.399307e-09 5.359459e-10
9.825433e-09 -5.468726e-09 -1.303146e-09 -8.758261e-10 -1.324781e-10 2.299180e-10
9.591806e-09 -5.264696e-09 -1.388787e-09 -1.085913e-09 3.764555e-11 -3.070768e-10
1.114000e-08 -3.147938e-09 1.418218e-09 1.075037e-08 -6.924021e-10 -2.533458e-09
8.998520e-09 -5.155555e-09 -1.310994e-09 -5.250072e-10 -5.635536e-11 3.729683e-11
9.252474e-09 -5.315356e-09 -1.351892e-09 -2.142358e-10 3.566669e-11 -8.852941e-11
9.441447e-09 -5.416307e-09 -1.328075e-09 -6.672596e-11 -1.090501e-12 8.783979e-11
9.652167e-09 -5.449983e-09 -1.355143e-09 -1.023372e-10 -4.003181e-11 1.134604e-10
3.365705e-09 -8.954597e-10 -7.281149e-10 -2.593380e-10 -1.825098e-10 -1.227862e-11
-1.249316e-09 1.992424e-09 -2.402688e-10 -3.349049e-09 -4.052259e-10 -1.413393e-10
-1.152030e-09 2.194180e-09 -2.648224e-10 -3.454043e-09 -1.402656e-10 2.369382e-12
9.320953e-09 -5.147044e-09 -1.360590e-09 -7.269363e-10 4.060802e-11 -4.063346e-11
9.124707e-09 -5.125073e-09 -1.268844e-09 -3.448997e-10 -1.197932e-10 1.513227e-10
5.966661e-08 -2.045843e-08 1.199114e-08 1.354469e-08 1.394000e-10 4.453582e-09
1.113979e-08 -4.538284e-09 -1.343858e-09 -6.002700e-09 -2.540350e-10 2.758678e-10
1.813636e-09 -5.933032e-12 -6.224683e-10 -3.060985e-10 1.937108e-10 2.219260e-16
4.210745e-08 -6.186625e-09 -2.951963e-09 7.763461e-09 1.584164e-09 5.258282e-09
1.669469e-08 -3.416610e-08 -2.142527e-08 -1.789788e-08 -2.364651e-08 -5.460040e-09
5.527470e-08 -2.057761e-08 8.917154e-09 1.126801e-08 3.048682e-09 8.734250e-09
4.770272e-08 -1.041141e-09 -8.810236e-10 2.468719e-08 7.009911e-09 4.168302e-09
3.914810e-08 -1.506101e-08 1.334429e-08 2.598527e-08 4.782132e-09 3.757749e-09
1.369837e-08 -2.296888e-08 -2.282512e-08 -1.414548e-08 -3.084360e-09 -1.401438e-10
4.510537e-08 -1.108493e-08 2.513439e-09 8.950212e-09 2.600095e-09 6.937509e-10
3.005310e-08 -3.317520e-08 -3.869890e-08 9.034777e-10 -2.428796e-08 6.032139e-10
1.140623e-08 -3.661055e-08 5.976711e-09 -1.998420e-09 9.758781e-10 -1.962343e-10
1.235879e-08 -3.935548e-08 7.656225e-09 -3.201291e-10 -2.289688e-10 -1.734914e-10
3.050747e-08 -2.378044e-08 -4.608847e-08 -2.112419e-09 -6.750200e-09 1.285105e-10
2.115105e-08 -4.413715e-08 -9.232053e-09 -9.348540e-10 -1.176252e-09 2.115055e-10
2.115411e-08 -4.864086e-08 -5.932269e-09 -5.463858e-10 -2.283082e-09 -9.598351e-10
1.140638e-08 -3.705617e-08 7.382802e-09 -1.951610e-09 -7.478284e-11 9.314710e-12
1.311193e-08 -3.785877e-08 7.047704e-09 -2.111315e-09 8.894605e-10 -3.627885e-10
1.206221e-08 -3.823651e-08 6.138928e-09 -2.907679e-09 -1.484468e-10 2.210697e-10
-5.558997e-09 2.069596e-08 -9.472273e-09 1.304756e-09 5.268155e-10 -1.330893e-15
1.225276e-08 -3.850984e-08 7.141389e-09 -1.022723e-09 4.998251e-10 1.088976e-10
-1.013363e-08 1.475438e-09 1.638147e-09 -3.607657e-10 -4.648526e-10 -1.710148e-10
6.610898e-09 1.509577e-08 -5.219447e-09 -5.153054e-09 1.463945e-09 -4.329109e-09
-1.964305e-08 3.611178e-09 -4.328884e-10 3.143398e-09 3.451452e-09 -4.988843e-10
-9.581337e-09 2.639400e-09 1.375688e-09 -1.674334e-09 -4.139572e-12 -9.002614e-10
-1.032017e-08 1.868562e-09 1.005746e-09 3.235303e-10 -2.379134e-10 2.295993e-10
-1.029278e-08 6.950867e-10 1.490262e-09 3.616884e-10 3.615375e-10 -3.272542e-10
9.242566e-09 -5.410664e-09 -1.307422e-09 1.162219e-10 -1.513593e-11 -8.506307e-12
9.354464e-09 -5.395768e-09 -1.343536e-09 -3.606321e-11 -4.795608e-13 -4.781242e-11
-7.659316e-09 2.037622e-09 1.781698e-09 2.573941e-10 4.437939e-11 9.327694e-11
9.402772e-09 -5.398146e-09 -1.280241e-09 -6.968947e-11 8.398396e-12 1.244915e-11
-7.274411e-09 2.617416e-09 1.548154e-09 9.007512e-10 1.338600e-10 1.137204e-10
9.293771e-09 -5.402881e-09 -1.283853e-09 -1.191268e-12 1.273384e-11 -3.251421e-11
9.403239e-09 -5.390426e-09 -1.170057e-09 2.631472e-10 -4.091477e-12 1.501120e-10
8.831790e-09 -5.198026e-09 -1.172755e-09 8.038514e-12 -8.489595e-13 2.021454e-10
8.690883e-09 -5.277299e-09 -1.197884e-09 2.930280e-10 3.864928e-11 -1.696909e-10
9.771229e-09 -5.522329e-09 -1.365105e-09 -4.038820e-11 1.033127e-10 -2.070362e-10
1.076987e-09 -2.639333e-10 -1.370333e-10 1.995821e-09 9.826503e-11 -1.077571e-10
9.457932e-09 -5.410664e-09 -1.321145e-09 9.080098e-11 -8.380629e-12 -1.130140e-11
9.152064e-09 -5.234120e-09 -1.297967e-09 5.464949e-10 3.547151e-11 -1.800862e-10
-5.078427e-09 2.718708e-09 7.732126e-10 1.411850e-09 -5.768896e-11 3.484657e-11
-5.993713e-09 3.101412e-09 8.185133e-10 7.886953e-10 -6.414691e-11 6.674394e-11
9.375624e-09 -5.407457e-09 -1.319364e-09 -2.686809e-11 -3.237455e-11 3.346712e-11
-5.101184e-09 2.776099e-09 5.469953e-10 1.160124e-09 1.229025e-10 -1.912712e-10
-7.849248e-09 4.869296e-10 2.200481e-09 -3.167917e-10 -2.784908e-10 -4.068881e-10
9.037690e-09 -5.239197e-09 -1.165257e-09 1.096155e-09 3.856858e-11 1.720526e-10
-7.885186e-09 8.178436e-10 2.349946e-09 -5.017868e-10 1.812568e-10 5.413706e-11
8.006518e-09 -4.513457e-09 -1.071683e-09 1.043058e-09 -8.971767e-12 1.191545e-10
9.033357e-09 -5.071224e-09 -1.112667e-09 1.075418e-09 1.474199e-10 1.697378e-10
-8.075399e-09 1.448276e-09 2.175892e-09 4.640851e-10 7.166645e-10 -2.499073e-10
9.508039e-09 -5.225548e-09 -1.269998e-09 9.372690e-10 7.348170e-11 1.363044e-10
8.519148e-09 -4.968635e-09 -1.267492e-09 4.354504e-10 -7.806748e-11 -9.542656e-11
7.841696e-09 -4.491007e-09 -1.085540e-09 1.058967e-09 8.440731e-11 -3.121903e-10
3.163787e-09 -1.720688e-09 -5.780390e-10 8.640479e-10 -1.845144e-10 6.505929e-11
3.716130e-09 -1.485756e-09 -4.483793e-10 2.106190e-09 2.004736e-10 2.321933e-10
-1.227254e-08 9.706562e-09 -2.007106e-08 2.989908e-08 1.207466e-08 -7.620414e-09
4.671594e-08 -1.155109e-08 4.115166e-10 2.379059e-09 -1.898413e-10 3.679266e-09
-4.558367e-09 -1.012657e-08 -4.144907e-11 -1.340526e-08 1.938480e-09 1.347371e-09
-1.772271e-08 -6.520618e-09 -8.545201e-09 2.609870e-08 1.384285e-08 -6.662497e-09
2.865439e-09 -1.168502e-09 -4.480363e-10 1.299514e-09 1.513717e-10 3.075895e-10
1.297243e-09 -5.371401e-10 -2.001206e-10 2.353675e-09 1.807246e-10 1.162664e-10
4.158503e-09 -2.409783e-09 -5.256462e-10 1.316308e-09 -6.812059e-11 -2.746470e-11
4.309109e-09 -2.400935e-09 -5.136536e-10 1.237646e-09 -5.437777e-11 -7.800249e-11
7.886049e-09 -4.842100e-09 -1.190033e-09 6.524883e-10 9.858135e-11 -6.131534e-11
1.200638e-08 -1.297773e-08 -3.868070e-08 3.542296e-08 2.440718e-08 -1.068676e-08
7.151508e-09 -4.194763e-09 -1.007822e-09 6.781045e-10 -1.417676e-10 -2.181810e-10
-1.998512e-08 1.264294e-08 -8.887166e-09 2.270837e-08 1.093223e-08 -7.712885e-09
5.923573e-09 -3.677609e-09 -8.562191e-10 1.081187e-09 1.533174e-10 -1.156151e-10
7.846715e-09 -4.102237e-09 -1.030296e-09 1.668802e-09 1.215331e-10 3.235401e-10
8.659138e-09 -4.597589e-09 -1.120882e-09 8.081305e-10 1.818742e-10 1.923774e-10
4.872409e-09 -2.416146e-09 -5.992788e-10 1.342878e-09 -6.950014e-13 -7.256129e-10
3.039042e-09 -2.212702e-08 4.697236e-09 -8.264826e-09 -9.410561e-11 3.051515e-10
8.369899e-09 -4.825529e-09 -1.179392e-09 3.474865e-10 3.786624e-11 -2.010905e-10
5.264903e-09 -3.070268e-09 -7.848362e-10 8.723945e-10 -1.702185e-10 -1.256828e-10
5.168090e-09 -2.393102e-09 -7.735199e-10 1.979971e-09 -4.086020e-11 2.206303e-10
5.954082e-09 -2.834225e-09 -7.574108e-10 2.013799e-09 1.629491e-10 2.649652e-10
7.141142e-09 -3.676700e-09 -1.024256e-09 1.709074e-09 -9.710899e-11 4.352985e-11
6.994959e-09 -3.663623e-09 -8.625873e-10 1.242176e-09 4.655589e-12 3.696952e-10
1.147154e-08 -5.805957e-09 -1.529083e-09 -1.048413e-09 1.159177e-10 -4.335008e-10
1.293711e-08 -4.053101e-08 7.773056e-09 -1.094127e-10 4.010276e-10 -9.164004e-12
1.295626e-08 -4.045535e-08 7.184504e-09 -2.090776e-10 7.507626e-10 -1.501389e-10
-4.788509e-09 2.717082e-09 6.188141e-10 -8.736123e-12 6.733225e-11 -2.220278e-10
1.392098e-08 -4.032986e-08 7.253574e-09 1.404446e-10 6.489066e-10 -4.228907e-10
1.460428e-08 -4.129566e-08 6.267398e-09 -4.026031e-10 4.582012e-10 -9.007829e-11
1.987748e-08 -4.267023e-08 -7.229419e-09 4.037203e-10 -7.273819e-10 4.270537e-10
1.295843e-08 -3.991963e-08 7.499144e-09 -6.967410e-10 1.652123e-10 -2.276992e-10
1.297613e-08 -4.043979e-08 7.461718e-09 -1.904519e-11 4.166465e-10 -1.196279e-10
-1.020047e-08 1.045689e-08 -4.471077e-09 -7.181043e-09 -3.828693e-11 1.511895e-10
5.308026e-09 1.796280e-08 -1.402542e-08 7.953719e-09 -3.201449e-09 -2.709550e-09
-7.878424e-09 3.858533e-09 1.302375e-09 3.129760e-11 -3.176340e-11 2.226941e-11
2.380907e-08 2.005109e-08 -1.010492e-08 2.034818e-08 2.226980e-09 -2.033394e-09
-7.584184e-09 -1.352529e-09 2.963584e-09 4.301360e-10 5.107359e-12 -2.701419e-10
3.374940e-08 1.031218e-09 -7.433352e-09 1.319947e-08 -1.071814e-09 3.870653e-10
-7.316113e-09 1.676021e-09 1.707225e-09 5.421765e-10 -2.286615e-11 -2.794971e-10
2.726834e-08 3.780476e-09 1.021358e-09 2.224984e-08 1.911002e-10 8.010030e-09
3.341861e-08 1.143807e-09 -4.048184e-09 1.332089e-08 6.984148e-12 -2.411178e-10
1.304827e-08 -3.494886e-08 -4.908098e-09 4.666033e-10 -6.367936e-10 2.472714e-10
2.398238e-08 8.937874e-09 -8.468865e-09 9.075528e-09 5.855809e-10 -2.093796e-09
-6.113437e-09 1.195583e-08 -6.412473e-09 -1.330232e-08 -1.280115e-09 1.620243e-09
1.466372e-09 1.042057e-08 -3.742301e-09 -1.910738e-08 2.225245e-10 -2.130861e-10
-4.017974e-09 9.967701e-09 -3.983649e-09 -1.588186e-08 7.675463e-11 -8.798424e-10
2.413693e-08 -2.289176e-08 -3.720119e-08 6.045449e-09 -4.721962e-09 4.695836e-10
-2.110900e-09 1.047470e-08 -2.876209e-09 -1.953405e-08 1.380569e-09 1.249609e-09
2.678579e-08 -6.377575e-08 1.716121e-09 2.420961e-09 -2.193978e-08 1.372738e-09
-5.706970e-09 2.939361e-09 8.369954e-10 1.033763e-09 1.815500e-10 6.027955e-12
-8.986117e-09 2.806672e-08 -2.529732e-08 -1.682409e-08 -1.804011e-10 6.348057e-09
-1.040038e-08 1.652292e-08 -1.040780e-08 -1.054924e-08 -1.559081e-09 2.949527e-09
-5.606058e-09 3.104691e-09 8.185141e-10 8.664607e-10 -6.615242e-11 6.144929e-11
-1.772730e-09 1.689628e-08 -6.450289e-09 -2.052159e-08 -8.102207e-10 1.217065e-10
-2.233981e-09 1.378421e-08 -2.404301e-09 -1.954757e-08 2.507597e-11 1.356404e-09
-8.308344e-09 1.799950e-09 2.141479e-09 3.678168e-11 -1.958653e-10 -8.015344e-11
-1.943468e-08 1.809687e-08 -1.094202e-08 -1.429510e-09 -2.176932e-09 -8.352794e-10
-2.012295e-08 9.944340e-09 -5.797843e-09 -2.654541e-09 -4.203845e-09 -3.110256e-11
-1.977106e-08 1.386635e-08 -9.264062e-09 -1.672857e-09 -2.768251e-09 -4.645832e-10
-1.624030e-08 9.732862e-09 -7.556919e-09 -8.954075e-09 -5.132859e-09 -2.994072e-09
-4.859953e-09 2.716710e-09 6.497931e-10 -2.167964e-11 1.438049e-10 -4.303169e-12
-3.289838e-09 1.882890e-09 3.446683e-10 9.932458e-13 1.727966e-10 -1.297862e-11
-1.880938e-08 1.605852e-08 -1.185820e-08 -7.727753e-09 -7.458841e-09 -3.594282e-09
-5.635452e-09 3.015798e-09 6.465584e-10 5.176077e-10 1.515301e-10 -5.287393e-11
-7.510183e-09 4.123866e-09 1.047214e-09 1.515232e-11 3.016365e-11 5.426768e-13
-1.950564e-08 5.823194e-09 -1.488864e-09 -1.587996e-09 -6.531007e-10 8.902526e-16
-1.696904e-08 2.338561e-08 -1.377771e-08 -3.743902e-10 -1.502258e-09 -1.485840e-09
-1.693445e-08 -3.991172e-10 -3.568762e-09 -3.435926e-09 1.372802e-09 -4.562205e-10
-2.074660e-08 1.414554e-08 -5.811730e-09 -2.566952e-09 -4.960686e-09 -1.180820e-09
-1.692772e-08 1.702411e-08 -1.207006e-08 -5.286341e-09 -3.986626e-10 9.958078e-11
-2.067459e-09 2.605042e-08 -2.150976e-08 3.401025e-09 -7.381282e-09 -8.035107e-09
-1.730380e-08 1.535744e-08 -1.311030e-08 -7.768989e-09 -3.483214e-09 -2.032115e-09
-1.719703e-08 2.357330e-08 -1.602571e-08 -4.908133e-09 -7.809530e-09 -6.288871e-09
3.530829e-10 -2.376066e-08 2.965990e-09 -5.511925e-09 -3.363258e-09 -1.009759e-09
-1.935455e-08 1.793890e-08 -9.181944e-09 -3.149151e-09 -1.689975e-09 -2.114006e-16
-2.074659e-08 1.534157e-08 -7.604185e-09 -2.691328e-09 -5.948343e-09 -8.944482e-10
-5.428429e-09 4.953577e-09 2.461671e-10 -2.565827e-10 5.166534e-12 -4.163888e-12
-3.265523e-09 1.909515e-08 -7.806225e-09 -1.890945e-09 -6.086830e-09 -2.030155e-09
-4.598547e-09 4.597637e-09 1.978355e-10 -9.617365e-10 -2.999290e-11 -6.310907e-11
-1.657912e-08 1.306192e-09 2.351969e-09 -6.837154e-09 -5.585186e-09 -6.356107e-10
-6.933718e-09 5.143034e-09 6.415943e-10 -4.788176e-10 -5.282907e-11 -2.429906e-11
-6.584844e-09 5.132154e-09 5.030243e-10 -4.180127e-10 4.620526e-12 -1.267321e-10
-5.721994e-09 4.818823e-09 5.280338e-10 -1.470756e-09 -1.170677e-10 -6.637579e-11
-7.056476e-09 4.873975e-09 7.429626e-10 -1.545708e-09 -7.620460e-11 -2.988564e-10
-2.026113e-08 1.422428e-08 -7.120224e-09 -3.200839e-09 -2.034922e-09 -5.892393e-10
-7.895589e-09 5.156735e-09 9.006222e-10 -6.100018e-10 -2.803568e-11 -3.780731e-11
1.101902e-08 -3.872306e-08 6.059262e-09 6.786391e-09 1.876816e-10 4.681757e-10
-6.946645e-09 4.992653e-09 6.452181e-10 -1.457904e-09 -3.989520e-11 2.334946e-10
1.943983e-08 -4.623551e-08 -5.142187e-09 -3.417707e-10 3.836352e-09 6.864848e-10
-6.275569e-09 4.781977e-09 4.426330e-10 -1.681235e-09 -6.060619e-11 -4.716065e-10
7.695355e-11 -2.763881e-08 7.889815e-09 4.655750e-09 4.639659e-10 -7.773884e-10
5.479848e-09 -3.346319e-08 8.256773e-09 4.043514e-09 3.953100e-10 -1.348486e-10
-9.501224e-10 -2.811584e-08 8.701975e-09 4.577730e-09 -5.239016e-10 8.497557e-11
7.300249e-09 -3.620987e-08 8.568996e-09 1.743643e-09 -6.281487e-10 8.139422e-11
4.721056e-09 -3.456472e-08 8.519014e-09 3.709260e-09 -3.184528e-10 6.061867e-10
3.995351e-09 -3.179739e-08 7.661356e-09 5.836701e-09 8.610184e-10 -7.587471e-10
6.399245e-09 -3.494398e-08 8.394214e-09 3.816673e-09 1.534329e-13 2.191625e-11
4.844892e-09 -3.383551e-08 8.839641e-09 9.559413e-10 2.215677e-16 -2.494267e-10
4.703157e-09 -3.364804e-08 8.596262e-09 2.357333e-09 -5.109601e-11 2.501498e-10
9.740388e-09 -3.401524e-08 7.260867e-09 -1.888816e-10 2.068223e-10 -8.260447e-10
2.116027e-09 -3.016159e-08 8.507169e-09 2.274812e-09 -8.530587e-11 2.932583e-10
2.949420e-09 -3.218502e-08 8.677255e-09 1.998409e-09 -2.568514e-10 -4.333671e-10
2.376339e-09 -3.234984e-08 8.706502e-09 5.551777e-09 -3.877589e-10 3.738098e-11
-5.447802e-09 3.115565e-09 8.022623e-10 5.130228e-10 -1.035184e-11 4.476963e-11
-4.651355e-10 8.384005e-10 6.320633e-11 1.804651e-09 2.644411e-10 1.402261e-10
-4.530048e-09 2.775885e-09 6.505672e-10 1.156693e-09 1.139129e-10 2.141090e-10
-6.581961e-09 4.893705e-09 5.030234e-10 -1.215215e-09 3.517009e-11 7.759126e-11
-5.903023e-09 4.677206e-09 3.024394e-10 -7.921989e-10 5.826228e-11 1.044087e-10
-6.842503e-09 5.187877e-09 5.425527e-10 -5.174052e-10 -2.044220e-11 -2.519778e-10
-6.700681e-09 4.535124e-09 5.460858e-10 -2.699416e-09 -2.925573e-10 -2.697341e-10
-4.615210e-09 4.246903e-09 1.604950e-10 -1.036175e-09 -6.970202e-11 1.479310e-10
-7.220065e-09 3.845154e-09 1.016658e-09 1.863776e-10 -6.911405e-11 -2.978839e-11
-6.725430e-09 3.334584e-09 9.951029e-10 6.631706e-10 1.657501e-10 -1.187836e-10
-4.329510e-09 2.388335e-09 5.261906e-10 6.739316e-10 1.369231e-10 -9.372303e-11
-4.020792e-09 2.379344e-09 5.252758e-10 7.024232e-10 1.521984e-10 -4.218348e-11
-5.459121e-09 2.809180e-09 6.859562e-10 9.670813e-10 1.466459e-10 -1.195813e-10
-7.112156e-09 3.949720e-09 9.276753e-10 2.428254e-10 1.456549e-10 -3.715050e-11
-4.799450e-09 2.755884e-09 6.735235e-10 5.419788e-10 -8.840448e-11 2.876965e-11
-7.464293e-09 5.026351e-09 7.573644e-10 -1.567634e-09 2.316902e-11 9.986190e-11
-9.111415e-09 4.701816e-09 1.006987e-09 -2.509957e-09 -1.254816e-10 1.557191e-10
-9.132329e-09 4.790895e-09 1.035725e-09 -1.889445e-09 -1.855929e-10 -4.896505e-10
-1.030437e-08 2.534498e-09 1.253332e-09 -1.977507e-09 -1.349246e-10 7.830136e-11
-6.405704e-09 5.044823e-09 4.598943e-10 -3.737821e-10 -2.440476e-11 -1.714255e-10
-9.597757e-09 4.458623e-09 1.066064e-09 -2.107125e-09 -2.002849e-10 -5.651479e-10
-7.292487e-09 5.177961e-09 7.203362e-10 -5.637062e-10 -2.219588e-16 -7.612355e-11
-9.908540e-09 3.913021e-09 1.454910e-09 -2.433713e-10 -8.686152e-11 -2.275359e-10
2.178685e-09 -9.432810e-11 -6.068774e-10 -2.087230e-10 -3.550367e-10 -2.758904e-13
-9.616645e-09 4.434435e-09 1.314128e-09 -4.062075e-10 1.160576e-10 -3.879759e-10
1.382417e-08 1.798020e-08 -1.611547e-08 1.119483e-08 -6.757714e-09 -6.453248e-09
1.145019e-08 1.800446e-08 -1.206644e-08 1.047978e-08 -8.756204e-10 -9.401147e-10
4.094240e-09 2.208204e-08 -1.593124e-08 6.122819e-09 -1.157501e-09 -2.603620e-09
3.375199e-09 -8.960503e-10 -7.322911e-10 -2.174145e-10 4.297340e-11 -4.159145e-11
2.396680e-09 2.722086e-08 -1.547713e-08 1.084762e-08 -2.970518e-09 -4.995667e-09
-1.584532e-09 2.207894e-09 -1.715934e-10 -1.201827e-09 1.215240e-11 -8.752998e-13
1.171551e-08 1.799457e-08 -1.299202e-08 1.027723e-08 -2.235099e-09 -1.346865e-10
6.269258e-09 2.248789e-08 -1.371503e-08 1.455604e-08 -5.748921e-10 2.604771e-09
1.296127e-08 -4.178008e-08 6.741524e-09 1.610481e-09 3.163445e-10 -1.301966e-10
1.297263e-08 -4.073104e-08 7.713610e-09 6.453111e-10 8.770130e-11 -7.468965e-11
-2.933329e-09 3.243560e-09 -4.797074e-11 -2.013283e-09 -9.313350e-11 -1.126628e-10
1.219829e-08 -4.042817e-08 7.577751e-09 9.686614e-10 2.493330e-10 -3.744760e-10
1.262833e-08 -4.066463e-08 7.401180e-09 2.461354e-09 4.561092e-10 -3.512863e-10
1.297543e-08 -4.075610e-08 7.949791e-09 5.874095e-10 1.525085e-10 3.098732e-10
-6.750989e-09 4.954284e-09 6.022189e-10 -1.717097e-09 -1.132350e-10 -2.659783e-10
1.359675e-08 -4.171790e-08 6.490898e-09 1.890075e-09 6.999219e-10 3.335754e-11
-1.411039e-08 2.351640e-08 -1.422479e-08 6.266044e-10 -6.367182e-09 -2.463685e-09
-9.278765e-09 4.892720e-09 1.280410e-09 -9.017234e-10 8.884837e-16 -1.692810e-10
-8.331088e-09 5.143411e-09 9.874865e-10 -7.423626e-10 1.332442e-15 -1.174221e-10
-5.761528e-09 2.603264e-08 -1.632704e-08 6.196601e-09 -2.001194e-09 -1.330434e-09
-9.588956e-09 2.576950e-08 -1.753533e-08 2.397580e-09 -2.704249e-09 -1.398801e-09
-1.041183e-08 3.698712e-10 1.554900e-09 4.560653e-11 6.748860e-10 -2.853222e-10
-1.238911e-08 2.064889e-08 -2.332428e-08 -1.115077e-08 -7.117787e-09 -5.227653e-09
-5.997064e-09 2.605822e-08 -1.457986e-08 5.835540e-09 -4.405753e-09 -1.971446e-09
-1.014583e-08 2.713372e-08 -1.604406e-08 8.655572e-10 -7.552338e-09 -5.579600e-09
-7.925442e-09 3.428017e-08 -2.244966e-08 6.390011e-09 -2.421502e-09 -3.226338e-09
-6.190442e-09 5.151521e-09 3.235467e-10 -3.157989e-10 -9.363843e-12 -3.405367e-10
-4.165059e-09 4.406589e-09 5.392109e-11 -1.088993e-09 -1.470247e-10 -1.305738e-10
-8.482522e-09 4.750992e-09 9.186349e-10 -2.288195e-09 -5.316947e-11 -5.910929e-10
-1.005662e-08 4.340779e-09 1.477713e-09 -6.140550e-10 1.709752e-10 -2.014999e-10
-8.276059e-09 5.160153e-09 1.055972e-09 -6.543397e-10 -9.817280e-11 -1.684071e-10
-1.387793e-09 2.619900e-08 -1.287896e-08 7.469925e-09 -7.451102e-09 -5.552476e-09
-9.155792e-09 4.859312e-09 1.182430e-09 -5.167784e-10 -5.967749e-11 -2.470497e-10
-8.522540e-09 5.017151e-09 1.051500e-09 -5.775775e-10 5.437451e-11 -3.890532e-10
-1.551763e-09 7.904770e-10 1.200187e-10 2.222507e-09 2.177347e-10 2.119727e-11
-6.836540e-09 4.782601e-09 5.539196e-10 -2.825223e-09 -2.381961e-11 7.247144e-11
-2.731040e-09 1.450200e-09 2.376312e-10 1.486714e-09 -7.896395e-11 -3.935670e-10
-9.154362e-09 4.851421e-09 1.081266e-09 -4.964967e-10 -9.329537e-11 -1.131303e-10
-7.726049e-09 4.745597e-09 1.029306e-09 -1.782477e-09 -2.035163e-10 -4.807161e-10
1.165276e-08 -3.979385e-08 8.033423e-09 1.769287e-09 1.199394e-10 1.886170e-10
1.159323e-08 -3.912139e-08 7.111364e-09 4.925251e-09 2.896011e-10 1.171857e-10
-6.105157e-09 3.406066e-09 8.017160e-10 -1.895994e-11 4.468115e-11 -1.898082e-10
1.165578e-08 -3.979051e-08 7.944676e-09 1.812427e-09 1.157106e-10 -9.427661e-11
9.072487e-09 -3.744051e-08 8.072122e-09 2.204847e-09 -2.701375e-10 8.206102e-11
-4.098154e-09 2.334003e-09 5.012524e-10 2.717071e-11 -9.513546e-11 8.881732e-16
9.563400e-09 -3.864578e-08 7.804964e-09 1.737933e-09 2.678648e-10 -5.829414e-10
8.094978e-09 -3.575839e-08 7.262715e-09 5.512952e-09 9.489705e-10 -4.223986e-10
1.478130e-09 -2.844494e-08 7.484574e-09 7.720699e-09 8.644623e-10 -3.980230e-10
8.202848e-09 -3.732604e-08 8.674975e-09 9.828192e-10 -5.868057e-19 -2.985319e-10
1.018861e-08 -3.921494e-08 7.747528e-09 4.321957e-09 5.686085e-10 -2.005539e-10
1.163613e-08 -4.013422e-08 7.724708e-09 2.821982e-09 7.361534e-10 -1.005297e-10
-5.417522e-09 3.114706e-09 7.721133e-10 4.933086e-10 1.136251e-10 -4.641343e-11
2.691716e-09 2.024738e-08 -1.322393e-08 -3.188996e-10 -4.441697e-09 -5.116903e-10
-6.668511e-09 3.500499e-09 8.577437e-10 4.168086e-10 1.332699e-10 -4.502393e-11
-6.073933e-09 3.417001e-09 8.616845e-10 3.951515e-10 -6.702994e-11 3.676970e-11
-6.735065e-09 3.504868e-09 9.786492e-10 7.156426e-10 -2.664980e-12 -1.716183e-10
1.166800e-08 -4.063373e-08 8.271929e-09 4.772861e-10 2.995506e-10 -3.120209e-10
1.180398e-08 -4.118256e-08 5.681531e-09 4.922354e-09 1.142693e-10 5.638590e-10
9.719304e-09 -3.914189e-08 8.504115e-09 7.009837e-10 3.672278e-10 -2.878247e-10
-5.874785e-09 3.332924e-09 8.431784e-10 7.954798e-10 8.489086e-11 1.703409e-10
-6.551069e-09 3.372575e-09 9.418213e-10 6.933123e-10 1.736278e-11 -2.428102e-11
-5.836730e-09 3.130138e-09 8.031140e-10 4.731513e-10 4.448858e-11 -1.285190e-10
-5.892927e-09 4.509395e-09 5.439764e-10 -2.698915e-09 -3.834953e-10 -1.224011e-10
-2.075738e-09 -1.236016e-08 -6.762470e-09 -2.031950e-08 6.159219e-09 3.661849e-09
-5.871813e-09 4.438016e-09 2.781544e-10 -4.124035e-09 -1.102301e-10 3.218282e-10
-7.397855e-09 3.911147e-09 1.001193e-09 2.659064e-10 4.150033e-11 -2.686534e-11
-8.897018e-09 4.488385e-09 1.339437e-09 -1.386005e-09 -3.072177e-10 -6.718631e-10
-6.877012e-09 4.839825e-09 4.971139e-10 -3.699796e-09 -2.503526e-10 2.380387e-10
-7.179888e-09 5.187877e-09 6.955041e-10 -5.671347e-10 -5.507766e-11 -2.596697e-10
-7.229461e-09 3.719639e-09 1.087391e-09 4.535647e-10 2.750622e-11 -2.236100e-11
-7.444719e-09 3.865585e-09 1.174001e-09 3.067591e-10 -3.540546e-11 5.718093e-11
-7.126443e-09 3.617444e-09 1.156486e-09 5.120526e-10 1.897904e-11 8.318945e-11
-6.660287e-09 3.672958e-09 9.338610e-10 3.495961e-10 8.616885e-11 1.438560e-11
-1.048610e-08 1.896529e-08 -1.377163e-08 -9.392179e-09 -1.004571e-09 9.861225e-10
-9.724038e-09 4.550866e-09 1.425984e-09 -9.859479e-10 -2.738321e-11 -1.293941e-10
-1.257916e-09 7.929697e-10 7.399947e-11 1.844022e-10 2.038932e-10 1.928679e-12
-6.992012e-09 3.845047e-09 1.016657e-09 2.504897e-10 -2.862780e-11 4.210987e-11
2.236873e-09 -8.523489e-10 -4.223710e-10 3.176140e-09 1.472735e-10 -7.865258e-10
-1.145850e-09 1.045267e-09 1.999647e-10 2.779628e-09 6.593015e-11 -1.089029e-11
-2.935700e-09 1.883010e-09 3.620930e-10 -2.882252e-11 -3.645078e-11 -1.332090e-11
-6.702153e-09 3.695095e-09 9.633518e-10 4.850781e-10 9.644485e-11 -7.993584e-11
-1.669996e-08 7.297629e-11 -3.603156e-09 -7.590303e-09 -7.763281e-09 -2.456637e-09
-1.548057e-08 4.649849e-10 -4.092453e-09 -8.700841e-09 -7.443396e-09 -2.160498e-09
-2.078610e-08 9.540039e-09 -4.158509e-09 -2.050537e-09 -6.277918e-09 -1.186851e-09
-2.162039e-08 8.203959e-09 -4.631885e-10 -3.537291e-09 -8.736651e-09 -1.263006e-09
-2.203764e-08 9.133263e-09 9.189376e-10 -3.536810e-09 -7.297880e-09 -6.683374e-10
3.247163e-09 -8.464909e-10 -7.490790e-10 -3.515626e-09 -2.879632e-10 -1.340910e-10
-2.088482e-08 3.743557e-09 5.593406e-10 -8.168869e-09 -7.802103e-09 -3.247752e-09
-1.413723e-08 2.353298e-08 -9.238182e-09 1.179989e-09 -8.104420e-09 -2.235043e-09
-2.001276e-08 1.200142e-08 -5.805872e-09 -7.514608e-09 -9.762969e-09 -4.451406e-09
-1.239837e-07 3.343526e-08 2.629192e-07 -2.147718e-08 1.211647e-07 -4.469196e-08
-1.987751e-08 8.774709e-09 -8.371530e-09 -8.142312e-09 -1.354543e-08 -4.493813e-09
-2.019035e-08 1.202460e-08 -1.057611e-09 -7.594453e-09 -9.161971e-09 -4.307073e-09
-1.795371e-08 2.362135e-08 -1.227675e-08 -6.232965e-09 -1.105647e-08 -6.791558e-09
-3.571695e-08 2.220661e-08 9.408394e-08 6.358531e-08 5.824836e-08 1.058181e-08
1.282481e-08 1.397735e-08 -1.175068e-08 8.429706e-10 -4.748304e-10 8.873779e-16
-1.237238e-08 2.746421e-08 -1.868085e-08 -1.909946e-09 -6.408939e-09 -5.019631e-09
-2.125764e-08 1.436455e-08 -1.526615e-09 -2.873911e-09 -8.904865e-09 -1.053515e-09
-1.534054e-08 1.954266e-08 -2.069580e-08 -1.181924e-08 -9.326848e-09 -6.677383e-09
-1.922710e-08 2.024071e-08 -4.997379e-09 -3.121893e-09 -6.651574e-09 -2.233383e-09
-1.991558e-08 1.605828e-08 -6.128898e-09 -5.492689e-09 -9.496976e-09 -2.933629e-09
8.866179e-09 2.505637e-08 -9.300536e-09 2.007443e-08 -3.045779e-10 -4.975280e-09
-9.129367e-09 2.342375e-08 -1.422155e-08 -2.182204e-09 -2.156339e-09 -7.156479e-10
8.753917e-09 3.775318e-08 -2.253385e-08 2.827298e-08 2.621594e-09 -4.985533e-09
1.166793e-08 -4.066459e-08 7.941231e-09 7.716510e-10 1.775733e-10 1.994251e-10
6.580443e-09 -3.402920e-08 6.350385e-09 7.352473e-09 3.982994e-10 -8.427764e-11
4.136252e-09 2.861218e-08 -1.337258e-08 1.187515e-08 -8.421840e-09 -9.918875e-09
-5.167558e-09 2.700280e-08 -2.016675e-08 4.088825e-09 -1.108962e-08 -1.701665e-08
-5.613572e-09 4.587920e-08 -1.937211e-08 1.440715e-08 -1.045690e-08 -1.772590e-08
-2.701633e-09 1.418201e-09 1.411804e-10 4.455537e-09 -1.011090e-10 -9.391039e-10
1.185272e-09 -5.515427e-11 -8.791812e-11 5.282658e-09 -9.892890e-11 -8.541890e-10
1.166795e-08 -4.067263e-08 8.296495e-09 7.982081e-10 1.777515e-10 2.225975e-11
1.189818e-08 -4.008884e-08 4.995704e-09 8.022241e-09 2.030361e-10 2.974998e-10
-7.716032e-10 8.571547e-10 1.686162e-10 5.462887e-09 -3.183670e-10 -6.653131e-10
-3.444879e-09 3.019949e-09 7.284928e-10 5.113094e-09 4.118910e-10 1.641109e-11
-4.340161e-09 2.851321e-09 7.371586e-10 4.032278e-09 3.335625e-10 3.566924e-11
1.614450e-08 1.351973e-08 -6.598370e-08 3.023251e-08 1.328706e-08 -6.196188e-09
-3.458193e-09 2.423728e-09 5.583618e-10 5.259489e-09 8.866819e-11 1.065139e-10
-4.080825e-09 2.445758e-09 5.896856e-10 4.892698e-09 -2.913406e-10 -1.923056e-10
-6.022525e-10 1.805356e-09 1.643294e-10 5.670748e-09 1.529592e-10 -1.284999e-10
-3.901644e-09 2.383622e-09 6.452803e-10 5.724855e-09 2.328773e-10 -2.419686e-10
-2.116273e-08 2.124629e-08 -8.246761e-09 4.395820e-09 1.625127e-09 -7.166635e-10
-2.159006e-08 1.829573e-08 -7.135059e-09 4.496082e-09 1.774763e-09 1.595896e-17
-5.672143e-09 5.030634e-09 2.770566e-10 -2.599160e-10 -3.792267e-11 -4.953613e-11
-7.002770e-09 1.681742e-08 -1.999418e-08 2.378419e-09 -6.903344e-09 6.760408e-09
-6.768319e-09 5.220418e-09 4.723872e-10 -4.513918e-10 -4.319589e-11 -2.855740e-10
-5.528738e-09 4.776848e-09 3.081677e-10 -1.408897e-09 -6.829992e-11 -2.336676e-10
-6.272344e-09 5.035323e-09 4.265095e-10 -1.445423e-09 -2.736563e-10 -3.058478e-10
5.136846e-09 -3.409376e-08 8.710838e-09 1.871155e-09 6.421055e-10 6.889841e-10
-9.699609e-09 -8.262084e-10 1.591770e-09 -7.849712e-10 6.661656e-16 -2.023226e-11
5.149954e-09 -3.370717e-08 8.474874e-09 1.334786e-09 7.646291e-10 7.077937e-11
2.880059e-09 -3.062196e-08 8.794594e-09 4.468046e-09 2.201494e-10 4.439096e-10
3.919411e-09 -1.178324e-08 -1.541312e-08 1.080583e-08 -6.655003e-09 2.646012e-09
2.823778e-08 -3.817383e-08 -2.987913e-08 5.855873e-09 -1.319287e-08 3.560646e-09
3.544729e-10 -3.006914e-08 8.531023e-09 4.050490e-09 -9.337142e-10 4.286484e-10
8.579313e-09 -4.661960e-09 -1.235190e-09 -1.794367e-10 -2.913669e-12 1.814549e-11
2.866699e-09 -3.210936e-08 8.720701e-09 3.700802e-09 -4.975624e-10 3.964549e-10
4.735314e-10 8.265504e-10 -5.492442e-10 -4.210829e-09 -3.393470e-10 3.812328e-11
4.224181e-09 -3.070513e-08 8.051743e-09 3.992780e-09 8.555698e-10 -1.083245e-11
5.204474e-09 -3.319869e-08 8.450135e-09 2.888415e-09 1.479226e-10 3.038576e-10
1.815248e-09 -3.044626e-08 8.214781e-09 2.528762e-09 1.684354e-11 7.027190e-11
4.322731e-09 -3.044959e-08 8.210653e-09 2.071903e-09 2.404527e-11 1.945294e-10
5.214267e-09 -3.274328e-08 8.050090e-09 2.774459e-09 5.948905e-10 6.669357e-11
2.989740e-09 -1.717340e-09 -3.576826e-10 1.176045e-09 2.495085e-10 -4.550947e-10
4.058412e-09 -3.178666e-08 8.301302e-09 8.193819e-10 3.443347e-10 1.045094e-10
3.747018e-09 -3.069626e-08 7.961706e-09 4.818173e-09 -7.956294e-10 1.094210e-10
5.875358e-09 -2.619680e-09 -1.019905e-09 -3.981539e-09 -3.632004e-10 2.995337e-10
7.330023e-09 -3.651411e-09 -1.139048e-09 -2.725227e-10 -1.637732e-10 4.971579e-12
5.584191e-10 -3.056759e-08 8.742057e-09 4.324369e-09 2.262562e-10 8.069466e-10
9.035426e-09 -4.846103e-09 -1.257767e-09 -3.426446e-09 -1.265694e-10 -1.310541e-10
1.769191e-09 -2.941402e-08 8.589323e-09 7.048091e-10 1.436352e-09 1.472400e-10
-7.571303e-09 3.101143e-09 1.237311e-09 1.597720e-09 -1.035616e-10 -3.982041e-10
-6.721837e-09 3.787742e-09 8.992083e-10 2.291904e-10 4.124463e-11 1.442203e-10
-6.970712e-09 -4.506264e-09 3.403902e-09 -3.317433e-09 6.473533e-11 -1.657837e-10
-5.073526e-09 3.057785e-09 6.957059e-10 3.754662e-10 2.429463e-10 -1.210989e-10
8.534243e-09 -3.246977e-08 6.939068e-09 -2.716901e-10 -8.883381e-16 2.938855e-10
-5.293229e-09 3.040234e-09 7.134466e-10 2.305344e-10 5.648651e-11 -2.633707e-10
-6.285313e-09 3.366191e-09 8.698624e-10 4.608003e-10 -6.030065e-11 7.647016e-11
-6.283940e-09 3.198408e-09 8.406387e-10 4.895572e-10 5.935899e-11 3.716116e-11
-5.466993e-09 3.065173e-09 8.484315e-10 3.008286e-10 -1.253344e-10 -1.104452e-10
-3.767632e-09 2.132741e-08 -8.140856e-09 1.136245e-09 4.846798e-09 -2.708010e-10
-5.980275e-09 3.376673e-09 7.543206e-10 2.948668e-10 1.648146e-10 -2.388479e-10
5.390397e-08 -2.655086e-08 3.195763e-08 2.002878e-08 4.975747e-09 1.748741e-08
-6.279195e-09 3.510452e-09 8.704302e-10 3.604241e-10 1.450563e-10 1.533729e-11
-5.961959e-09 3.241273e-09 8.967906e-10 7.458647e-10 1.821705e-10 2.430378e-10
-6.729058e-09 3.674232e-09 9.355117e-10 5.394782e-10 1.423381e-10 -1.937755e-10
-7.021370e-09 3.769743e-09 9.740260e-10 3.562801e-10 8.593803e-11 6.474010e-11
-6.337018e-09 3.502771e-09 8.597811e-10 2.152500e-11 3.862888e-11 -5.641798e-11
-6.270376e-09 3.765448e-09 9.000514e-10 2.798948e-10 5.812084e-11 4.332534e-11
4.224145e-08 -2.330904e-10 2.460459e-08 3.864174e-08 1.251168e-08 2.637549e-08
5.507229e-08 -1.956011e-08 1.944785e-09 2.762081e-09 3.341425e-10 2.238905e-16
-1.016741e-08 2.255630e-08 -1.301435e-08 -4.050326e-10 -1.003156e-08 -7.395380e-09
-3.600594e-09 2.105382e-09 4.593645e-10 3.864602e-10 1.265277e-11 -2.667995e-10
-1.599433e-08 2.241003e-08 -9.414732e-09 -2.394782e-09 -6.322280e-09 -1.011781e-09
-1.607181e-08 3.586143e-08 -3.459971e-08 -1.068481e-08 -1.317491e-08 -1.570777e-08
2.547172e-08 7.307261e-09 -9.447064e-09 2.385634e-10 -1.465531e-09 9.633899e-10
-1.473722e-08 4.104446e-08 -2.709526e-08 6.873655e-09 -8.606147e-09 -1.659440e-08
-6.774014e-09 3.222761e-09 9.125638e-10 1.154882e-09 1.834305e-10 -1.459762e-10
-5.437078e-09 3.083925e-09 7.348957e-10 4.799481e-10 1.942230e-10 -1.150214e-10
-4.470602e-09 2.365869e-09 4.567342e-10 -1.260018e-11 1.922083e-10 -4.392918e-11
-6.269504e-09 3.319919e-09 8.577732e-10 -6.101297e-11 9.466450e-11 -7.098178e-11
-4.279119e-09 2.358212e-09 5.695147e-10 1.013170e-09 2.242957e-10 -9.020451e-11
-9.724090e-09 4.273812e-09 1.519002e-09 -7.254282e-10 -9.074785e-11 -5.102058e-10
-6.215113e-09 5.026633e-09 3.331704e-10 -5.322670e-10 -5.903122e-11 -1.462948e-10
-8.056168e-09 5.085624e-09 9.947869e-10 -6.024918e-10 5.671016e-13 -1.342331e-10
-9.733255e-09 3.522578e-10 2.060639e-09 -5.149705e-10 -1.342695e-10 -7.085277e-10
-8.726418e-09 5.024130e-09 1.134215e-09 -9.051044e-10 -4.307196e-11 -9.479817e-11
-1.041049e-08 5.487289e-09 -5.081353e-10 -3.296974e-09 -1.384797e-09 3.958982e-10
-6.024770e-09 4.832111e-09 -2.872640e-10 -6.215303e-09 -2.578138e-10 7.219748e-10
-8.189067e-09 5.152527e-09 1.043412e-09 -2.702094e-10 -5.649037e-11 -4.095316e-10
1.230641e-08 -4.090883e-08 8.156873e-09 5.809571e-10 -2.221444e-16 -8.592993e-11
-1.288893e-10 -1.761794e-08 5.332455e-09 -6.594749e-12 1.197276e-10 -1.351494e-09
-6.479271e-09 5.020785e-09 5.226988e-10 -1.382388e-09 -1.129238e-10 -2.351026e-10
-7.073532e-09 5.022509e-09 6.679617e-10 -1.390174e-09 -8.998664e-11 -2.145706e-11
-7.446358e-09 5.295131e-09 6.408580e-10 -4.695293e-10 -1.045282e-10 -4.743432e-10
-2.359205e-09 1.698973e-09 4.840626e-10 3.707884e-09 -1.143059e-10 -1.440625e-12
1.121828e-09 -2.908300e-08 8.858551e-09 1.206727e-09 -5.321489e-10 4.791465e-11
8.213331e-09 -3.755599e-08 8.772485e-09 1.692239e-09 3.631482e-10 5.586792e-10
8.443392e-09 -3.637553e-08 8.284602e-09 9.900622e-10 5.586071e-10 1.299951e-10
5.235092e-09 -3.516755e-08 8.488163e-09 4.347910e-09 -1.612925e-10 -2.805392e-10
6.937088e-09 -3.517218e-08 8.640924e-09 4.365057e-09 -1.057012e-10 7.167305e-10
5.893392e-09 -3.287666e-08 8.214052e-09 1.614347e-09 -3.580011e-10 1.870326e-10
-6.793238e-09 3.643191e-09 9.011196e-10 -8.471668e-12 -2.884959e-11 -3.929260e-10
-5.841500e-09 3.189125e-09 8.366188e-10 -4.251266e-12 1.061722e-10 3.275951e-10
-3.880666e-09 2.161521e-09 4.613456e-10 3.633289e-10 1.942961e-10 -3.000316e-10
-8.168783e-09 4.976885e-09 3.263194e-10 -4.806821e-09 -6.583925e-10 -2.340598e-10
1.099181e-08 -3.868070e-08 6.466502e-09 -4.122768e-09 1.355249e-09 -5.913625e-11
-4.877857e-09 -8.757278e-09 4.430371e-09 -1.100828e-09 -9.082152e-10 -1.482747e-10
-3.833089e-09 2.158686e-09 5.052683e-10 3.623464e-10 1.932691e-10 -2.543159e-10
-4.918139e-09 2.687633e-09 6.629719e-10 1.084540e-09 2.251483e-10 -5.809381e-12
-4.869319e-09 2.770407e-09 5.950471e-10 5.964615e-10 2.930317e-10 -5.388789e-11
-5.476729e-09 2.924891e-09 6.050083e-10 3.901079e-10 8.779233e-11 -3.076037e-10
-6.339406e-09 1.827742e-08 -8.299690e-09 -7.517348e-09 8.233473e-10 -6.458275e-09
-3.767630e-09 1.860882e-08 -5.672210e-09 5.973633e-10 3.127080e-09 -7.362668e-10
2.422267e-08 -6.113650e-09 4.390149e-08 3.646555e-08 -1.055597e-10 5.768025e-09
7.543276e-09 1.565859e-08 -3.617492e-09 -9.813663e-09 1.929738e-10 1.350356e-09
-5.035371e-09 1.827025e-08 -5.956625e-09 -7.665804e-09 -3.268249e-10 -1.672521e-09
5.438597e-09 1.772746e-08 -9.477552e-09 6.119768e-09 -6.117942e-09 -4.411940e-09
-1.171478e-08 2.216977e-08 -2.795049e-09 -2.527484e-10 5.464257e-09 -2.369188e-09
2.590590e-08 3.794748e-09 1.027565e-08 2.395935e-08 -1.524623e-09 4.013828e-09
4.572315e-08 -1.155120e-08 -1.921877e-09 2.532160e-09 5.637260e-10 9.964976e-10
4.019918e-09 1.654646e-08 -3.816605e-09 -1.909337e-09 2.189960e-09 2.429169e-09
2.522672e-08 3.866970e-08 -9.730542e-08 -1.027829e-08 -1.591542e-08 3.161823e-10
2.525650e-08 5.283970e-08 -1.033731e-07 -1.123148e-08 -1.888120e-08 9.949686e-10
-6.512153e-09 4.960066e-09 3.809570e-10 -1.311081e-09 -2.091598e-10 -4.207217e-10
1.892964e-08 3.490981e-08 -9.318742e-08 -4.351241e-09 -1.241401e-08 7.051710e-09
-1.023766e-08 1.052495e-09 1.657204e-09 -1.019203e-09 -4.122969e-11 -1.505394e-10
-6.877012e-09 4.536201e-09 3.628360e-10 -4.558289e-09 -4.559726e-10 -2.334910e-10
2.031619e-08 4.437945e-08 -8.703565e-08 -5.768044e-09 -1.551195e-08 4.420904e-09
2.014979e-10 -1.870649e-08 5.688350e-09 -4.682112e-10 1.469613e-11 2.253503e-11
1.736532e-08 -4.154494e-08 2.410769e-09 -1.767819e-09 2.676821e-10 1.825866e-10
2.175374e-08 2.940709e-08 -9.823255e-08 -6.762822e-09 -3.475629e-08 -1.280974e-09
1.736602e-08 -4.288719e-08 5.937242e-10 -1.789649e-09 2.356128e-09 1.776543e-10
2.080620e-08 7.214134e-08 -1.167352e-07 -1.169384e-08 -4.529968e-08 5.635248e-09
3.277591e-09 8.066638e-08 -8.807866e-08 -2.114542e-08 -1.691805e-08 9.099210e-09
1.261312e-08 7.612104e-08 -8.354831e-08 -2.028027e-08 -1.893544e-08 2.303658e-09
1.780810e-08 6.146416e-08 -1.061048e-07 -1.353558e-08 -4.081403e-08 1.891476e-08
1.436467e-08 -4.200601e-08 3.151154e-09 -3.034131e-09 2.713785e-11 2.383169e-10
1.895426e-08 4.074537e-08 -9.220936e-08 -6.850330e-09 -3.814997e-08 1.126158e-08
-8.950342e-09 1.928317e-08 -1.511732e-08 -1.011004e-08 -1.325818e-09 1.334016e-09
5.347587e-08 -3.477127e-08 3.782499e-08 -1.303271e-08 -1.983629e-09 3.994137e-09
1.102261e-08 -3.154978e-08 -4.383510e-09 4.457017e-09 -1.568756e-09 1.283629e-09
-5.712769e-09 3.018013e-08 -3.820751e-08 -5.503797e-09 -4.090316e-09 5.129284e-09
-1.040573e-08 2.215098e-09 1.722753e-09 -9.235888e-10 4.443542e-16 -1.434794e-10
6.125923e-08 -3.437042e-08 3.566098e-08 -1.663778e-08 -2.103592e-09 2.182801e-08
9.953914e-09 -5.846684e-09 -1.413408e-09 3.917877e-10 -1.188382e-11 -3.378415e-10
-2.304287e-08 1.406304e-08 -2.575519e-09 4.442204e-09 5.996545e-09 -1.891647e-09
1.931936e-08 -1.023017e-08 3.716263e-09 -9.097432e-09 6.619367e-10 -8.198874e-10
2.202727e-10 -2.588418e-10 -1.430513e-10 3.151352e-09 2.240179e-10 1.940121e-10
1.636061e-08 -4.061167e-09 -4.967318e-08 1.126311e-08 -8.776456e-09 8.196594e-09
-2.415554e-08 1.382306e-08 -3.313106e-09 1.071205e-08 7.565293e-09 -3.527442e-09
-2.304235e-08 1.318107e-08 -2.237334e-09 3.139998e-09 1.010000e-08 -1.395291e-09
-2.371168e-08 1.663008e-08 -1.061484e-09 4.357343e-09 7.921149e-09 -1.694791e-09
-2.167194e-08 2.296065e-08 -5.087855e-09 3.633134e-09 4.654860e-09 -1.822613e-09
3.063087e-09 -1.718479e-09 -4.381624e-10 8.973433e-11 1.756606e-10 3.909517e-11
-2.001315e-10 3.939915e-10 -5.579315e-11 3.341940e-09 -9.120824e-11 -7.385692e-11
1.994163e-09 -1.100752e-09 -4.364693e-10 1.225497e-10 3.650331e-10 -9.552803e-12
-2.207745e-08 6.430009e-09 1.796243e-09 1.080541e-08 6.804492e-09 -1.951954e-09
-1.304681e-09 7.641985e-10 2.007750e-11 9.275483e-10 3.465315e-10 3.129344e-10
6.888277e-10 -3.462843e-10 -2.567528e-10 9.961008e-10 -1.026290e-10 -1.186575e-10
2.951390e-08 -3.050292e-08 -3.403201e-08 -7.552199e-09 -1.788569e-08 1.334257e-10
-2.041033e-08 2.024181e-08 -5.498257e-09 1.610993e-09 6.565250e-09 4.203662e-11
-2.091060e-08 4.429121e-09 7.580159e-11 9.943621e-09 6.062752e-09 -2.342028e-09
2.872810e-08 -3.600242e-08 -2.814720e-08 -4.489709e-09 -3.746826e-09 -9.958343e-11
-2.113600e-08 4.437943e-09 1.773159e-09 3.244122e-09 7.827549e-09 -4.443597e-10
-2.128552e-08 7.092086e-09 1.900265e-09 4.393527e-09 6.575840e-09 -4.388617e-10
-2.276602e-08 1.571582e-08 -1.724307e-09 3.417393e-09 4.559607e-09 -6.228480e-10
-1.849809e-08 -1.407598e-09 3.919137e-09 1.094187e-08 4.173919e-09 -3.924679e-10
-2.200347e-08 4.432722e-09 1.891809e-10 5.075003e-09 5.398232e-09 -2.001139e-09
-1.730291e-08 -3.731669e-09 2.039585e-09 8.630065e-09 4.838140e-09 -2.104076e-09
-1.711347e-08 -3.790342e-09 4.300254e-09 3.467682e-09 5.117915e-09 5.639044e-11
-2.397699e-08 7.320832e-09 -1.054167e-08 -2.839139e-08 -2.539236e-08 -1.563278e-08
-1.766588e-08 2.368807e-08 -9.360737e-09 3.653649e-09 1.606841e-09 -4.323475e-16
1.614685e-08 1.018394e-08 -6.733668e-09 -6.553843e-09 3.114854e-09 1.391594e-10
-1.739816e-08 -2.091030e-09 4.116726e-09 4.100086e-09 4.460262e-09 2.889312e-10
-2.629257e-08 3.863511e-08 -3.992849e-08 1.907343e-08 1.950406e-08 -1.873729e-08
-1.966560e-08 6.363426e-09 8.343790e-10 2.926698e-09 3.807471e-09 -4.406616e-11
1.079185e-08 -3.889421e-08 8.158682e-09 9.830287e-10 5.888512e-10 -5.081224e-11
4.688112e-09 -3.278985e-08 8.703603e-09 9.807946e-10 -5.475402e-10 4.268033e-10
7.948666e-09 -3.611843e-08 8.902643e-09 9.202131e-10 -3.499880e-10 5.519290e-10
1.015240e-08 -3.843184e-08 8.631285e-09 3.469211e-09 -5.797898e-10 7.254743e-10
-7.912367e-09 -3.531024e-10 2.688635e-09 -6.810169e-10 1.001408e-10 -2.550259e-10
8.587241e-09 -3.859319e-08 8.487766e-09 3.994405e-09 -2.120121e-10 -1.549303e-10
1.394180e-08 -3.445022e-08 -4.415330e-09 -1.263534e-08 8.369871e-10 5.203986e-10
2.020306e-09 -2.137502e-08 6.027514e-09 -2.628592e-10 -1.597728e-19 3.039133e-10
9.079973e-09 -3.615413e-08 8.131959e-09 1.382341e-09 -2.125679e-10 -5.158541e-12
2.692008e-09 -1.655656e-08 -9.695440e-09 -2.043538e-08 4.084720e-09 2.930487e-09
1.102091e-08 -5.940445e-09 -1.454273e-09 -8.432815e-10 -8.998879e-11 4.567728e-10
-8.832416e-09 4.690563e-09 1.321179e-09 -1.855396e-10 -1.730907e-10 -5.974512e-10
-5.064694e-09 -7.823761e-09 4.224066e-09 2.762911e-10 -1.900469e-11 -3.651169e-10
-1.378166e-09 -1.553418e-08 5.333370e-09 -1.469609e-10 -8.882440e-16 2.231517e-10
-1.972658e-09 1.727226e-09 4.757910e-10 4.062774e-09 3.617882e-10 3.211597e-10
-7.184886e-09 5.189883e-09 6.345080e-10 -5.515681e-10 -3.838213e-11 2.847877e-11
-8.142550e-09 5.211532e-09 8.387713e-10 -6.442949e-10 -3.098261e-11 4.441223e-12
9.650757e-09 -5.486094e-09 -1.382817e-09 -3.811150e-10 -1.289341e-11 1.523679e-10
1.792205e-08 -9.089609e-09 5.829091e-10 -8.306810e-09 5.815179e-10 -1.409304e-09
7.860041e-09 -2.990005e-09 -1.218243e-09 -7.777178e-09 6.013523e-11 -1.964726e-10
1.742628e-08 -6.799663e-09 4.110392e-10 -8.300112e-09 2.153693e-11 7.410931e-11
-7.970821e-09 4.892250e-09 8.661907e-10 -1.370070e-09 -2.695232e-10 1.815932e-10
-7.041331e-09 4.995840e-09 8.298149e-10 -1.681245e-09 -1.565689e-10 -1.287388e-10
-8.493818e-09 5.197179e-09 8.984498e-10 -4.501599e-10 -8.344325e-11 -7.614758e-10
8.579315e-09 -4.661948e-09 -1.257902e-09 -2.235108e-10 -9.685097e-11 1.281819e-11
-1.068341e-08 1.368284e-08 -1.926868e-08 -1.438722e-09 -3.671245e-09 3.747846e-09
9.145747e-09 -5.300296e-09 -1.206378e-09 2.819666e-10 4.583291e-11 -1.842347e-10
1.656711e-09 2.742135e-10 -7.374332e-10 -5.665168e-09 -4.724143e-10 1.837850e-10
1.321143e-08 -5.907924e-09 -6.703296e-10 -9.940097e-09 6.164070e-11 -4.594281e-10
8.707830e-09 -5.130484e-09 -1.110583e-09 9.058290e-10 1.909333e-10 3.023376e-10
9.123761e-09 -5.293797e-09 -1.150409e-09 2.347182e-10 4.264811e-12 7.055595e-11
8.752175e-09 -5.198921e-09 -1.102636e-09 1.180040e-10 8.753576e-11 -3.628492e-11
9.666073e-10 -2.139494e-08 -8.129434e-09 1.189145e-08 -1.090320e-08 5.065341e-09
-1.123966e-08 -1.135712e-08 4.557871e-09 2.452631e-09 1.706716e-09 -9.738337e-10
-2.309711e-08 1.815253e-08 -3.210816e-10 1.364639e-08 6.737894e-09 -5.294417e-09
-1.349333e-08 -9.958977e-09 4.007887e-09 9.940248e-09 1.345247e-09 -1.097533e-09
-1.344790e-08 -3.976472e-09 2.233401e-09 1.103385e-08 5.227607e-09 -1.202295e-09
-9.928002e-09 2.587681e-08 -5.896464e-09 -2.262148e-08 -1.103263e-11 -4.481058e-09
-7.773931e-09 4.185699e-09 1.099468e-09 0.000000e+00 3.010037e-12 -4.689671e-11
-1.422185e-08 -9.810099e-09 5.803134e-09 9.501556e-09 3.030641e-09 -1.531866e-10
-1.793356e-08 -4.224343e-09 2.521088e-09 5.326011e-09 3.451359e-09 -1.688437e-09
-1.182264e-08 -1.292009e-08 5.995638e-09 7.930286e-09 1.988806e-09 -2.571777e-10
-1.254475e-08 -9.244817e-09 5.674179e-09 3.224079e-09 2.668227e-09 5.626473e-10
-6.667680e-10 -2.733181e-08 8.928511e-09 4.550915e-10 2.219317e-16 -1.240430e-10
1.705393e-09 -3.029240e-08 8.886845e-09 8.309269e-10 -4.012782e-19 -2.414642e-10
-1.575831e-08 -2.723639e-09 3.491575e-09 3.420852e-09 2.099669e-09 -2.176233e-10
5.923706e-09 -3.390689e-09 -8.087384e-10 5.713197e-10 1.866007e-10 3.899534e-10
8.533153e-09 -4.829965e-09 -1.152186e-09 6.135587e-10 4.390645e-11 1.147060e-11
7.470866e-09 -4.412135e-09 -9.146601e-10 2.975021e-10 1.509157e-10 -1.518414e-10
7.711289e-09 -4.663022e-09 -1.140462e-09 5.673496e-11 1.185663e-10 -4.784702e-10
8.104154e-09 -4.557131e-09 -1.033097e-09 6.270621e-10 2.259729e-10 7.607959e-11
9.292204e-09 -5.409980e-09 -1.312528e-09 -2.408039e-10 -2.806705e-11 4.425393e-11
-6.155172e-09 4.979653e-09 4.261289e-10 -3.491019e-10 -2.257405e-11 -3.849387e-11
-5.829145e-09 5.041485e-09 3.024390e-10 -2.988991e-10 -5.793299e-11 -2.013314e-10
8.868456e-09 -4.917081e-09 -1.239998e-09 -3.611378e-10 -9.968248e-11 1.560767e-10
9.532474e-09 -5.545465e-09 -1.213969e-09 -4.969073e-10 -1.427574e-10 4.323527e-10
9.601125e-09 -5.316745e-09 -1.325817e-09 -4.373610e-10 -2.993050e-12 3.735395e-11
-1.930947e-08 7.264521e-09 -3.380604e-09 -2.358053e-09 -1.402006e-09 -1.949900e-10
-2.024868e-08 1.145361e-08 -4.968594e-09 -2.801025e-09 -1.419209e-09 7.950478e-18
9.037796e-09 -5.242353e-09 -1.192065e-09 -2.049668e-10 -3.372574e-11 7.866435e-11
9.362349e-09 -5.398145e-09 -1.307572e-09 -6.299761e-11 -1.008771e-11 7.321410e-11
8.736926e-09 -5.152173e-09 -1.353659e-09 -6.668706e-10 3.256637e-11 5.233092e-12
-1.885141e-08 1.043726e-09 1.042872e-10 -8.364347e-10 -1.912328e-09 -9.820056e-11
7.431146e-09 -3.974662e-09 -1.087711e-09 -1.731837e-09 -3.351769e-10 3.510550e-10
7.523957e-09 -4.093370e-09 -1.150029e-09 -4.474765e-10 -1.766991e-10 2.929872e-10
2.895597e-08 -1.272539e-09 -3.925487e-10 1.271552e-08 1.641356e-09 4.684370e-10
4.302840e-08 -1.504339e-08 3.719365e-08 3.115114e-08 4.419336e-09 8.737571e-09
1.233682e-08 -6.020912e-09 -1.414113e-09 1.450645e-09 -7.309117e-11 -1.897516e-10
6.769623e-09 -3.180752e-09 -1.069674e-09 -5.005296e-10 -2.913412e-10 -1.173335e-10
5.201582e-08 1.405019e-09 -7.444944e-09 1.040330e-08 -1.990110e-09 8.140820e-09
5.182093e-08 4.784272e-09 -8.687933e-09 1.632706e-08 3.896930e-09 7.431266e-09
-2.277649e-08 1.565177e-08 -6.951144e-09 -1.429015e-08 -1.558896e-08 -8.611460e-09
5.438579e-08 -1.037417e-08 -1.144572e-08 8.998573e-09 -1.269122e-09 6.899593e-09
8.902479e-08 -3.040168e-08 1.325919e-08 -1.885194e-08 -6.156817e-09 4.704261e-08
6.258897e-09 -2.998846e-09 -9.316972e-10 -5.267118e-10 1.062017e-10 4.181633e-11
5.480560e-09 -3.080189e-09 -1.052514e-09 -1.747966e-09 -1.712929e-10 -4.676820e-11
5.392134e-09 -2.536454e-09 -8.578583e-10 -1.856714e-09 -2.700862e-10 3.977501e-10
7.017752e-09 -3.946719e-09 -1.020649e-09 -8.421158e-10 -1.840898e-10 7.118639e-12
5.582246e-09 -1.855360e-09 -9.216898e-10 -1.133535e-09 -1.995053e-10 -1.411145e-10
2.697157e-08 -4.499558e-08 1.399989e-07 1.948845e-08 1.006561e-08 4.644127e-08
4.163706e-09 -2.009647e-09 -6.385590e-10 -7.200867e-10 3.113937e-11 7.360246e-11
4.702970e-09 -2.212313e-09 -8.186190e-10 -5.324525e-10 -1.599892e-10 2.621343e-10
1.005105e-08 -5.428551e-09 -1.341012e-09 5.965992e-10 -6.868222e-11 -2.400991e-11
6.199909e-09 -3.002211e-09 -8.459256e-10 3.091910e-09 1.218912e-10 1.425909e-11
2.328627e-09 -9.744783e-10 -3.865042e-10 7.961307e-10 2.021343e-10 -7.415446e-11
5.384650e-09 -3.042168e-09 -7.410703e-10 6.631123e-11 1.654334e-10 1.102884e-11
5.648015e-09 -2.924033e-09 -1.028012e-09 -1.197681e-10 -1.872263e-10 6.275786e-12
-8.785265e-09 -3.791759e-09 1.043666e-09 6.154374e-10 9.915372e-10 -2.893797e-10
3.417282e-09 -9.967939e-10 -6.335026e-10 -2.086146e-09 -4.087145e-10 1.665340e-10
3.570403e-09 -3.658380e-10 -9.154890e-10 -1.402181e-09 -1.143596e-10 -1.422984e-11
5.124896e-09 -1.856091e-09 -9.332131e-10 -7.190054e-10 -2.601612e-10 -6.827827e-11
2.082738e-09 -1.736898e-10 -5.994749e-10 -1.061759e-09 -2.904613e-10 -2.644912e-10
2.306926e-09 -1.744094e-10 -5.448463e-10 -1.006775e-09 -1.620262e-10 5.944578e-12
2.433630e-09 -4.414993e-10 -6.123546e-10 -4.551561e-10 -2.472564e-10 1.859067e-10
1.497844e-08 -6.900952e-09 -1.367575e-09 9.977583e-10 1.733399e-10 4.062435e-10
6.378604e-09 -3.677071e-09 -8.909506e-10 1.057702e-09 1.430605e-10 -3.029776e-11
4.206189e-09 -2.383973e-09 -5.949325e-10 1.527538e-10 -1.637621e-10 -2.220946e-16
3.303787e-09 -1.532399e-09 -9.170296e-10 -2.154823e-10 -1.874619e-10 6.418821e-11
2.084115e-09 -2.695551e-08 1.678267e-09 3.421244e-09 -3.703463e-09 8.254320e-10
-2.484832e-09 -1.699226e-08 1.148541e-09 7.283202e-09 -4.457054e-09 9.868245e-10
1.012628e-08 -3.860893e-08 6.171826e-09 6.310139e-09 1.316823e-09 -3.497606e-10
1.193298e-08 -3.900383e-08 7.713238e-09 1.428526e-10 1.412326e-10 -2.730149e-10
-3.320765e-09 -1.370667e-08 3.776076e-09 2.440007e-09 -2.257458e-09 1.008808e-10
-9.061808e-10 -1.968555e-08 4.331351e-09 7.078660e-10 -4.477851e-10 2.632879e-10
1.067940e-08 -3.902942e-08 8.678225e-09 7.314163e-10 -9.611654e-11 3.339882e-10
1.263310e-08 -4.019215e-08 7.953898e-09 8.219859e-11 -1.052238e-10 4.542750e-11
1.244938e-08 -4.057687e-08 8.206284e-09 2.025108e-09 -6.145873e-10 3.408898e-10
1.120789e-08 -4.059568e-08 8.222065e-09 2.710821e-09 1.670136e-11 -2.295111e-10
1.244972e-08 -3.984077e-08 8.207788e-09 1.801713e-09 2.410137e-10 -1.775824e-10
1.105776e-08 -3.704799e-08 7.476121e-09 -1.012326e-10 4.440494e-16 1.965785e-10
1.030748e-08 -5.498125e-09 -1.314723e-09 -9.699641e-10 -8.017167e-11 1.447367e-10
1.125336e-08 -3.840517e-08 8.052908e-09 1.163775e-09 -4.139787e-11 -7.411694e-11
-7.404671e-09 -4.042203e-09 3.072292e-09 -2.835055e-09 -1.091321e-11 -3.605287e-10
1.221879e-08 -4.034414e-08 8.392278e-09 3.417667e-10 -9.182944e-11 4.582188e-11
9.239364e-09 -4.720099e-09 -1.204569e-09 2.013814e-09 8.360729e-11 2.793099e-11
-9.074221e-09 4.988977e-09 1.211814e-09 -7.067429e-10 -9.383555e-11 -1.301021e-10
2.022534e-09 4.226728e-08 -6.073200e-09 -2.689729e-08 -3.889324e-09 -9.466755e-10
-9.525229e-09 3.121601e-09 1.625785e-09 -2.627858e-10 -1.561895e-10 -3.999698e-10
-2.265234e-08 3.382673e-08 -2.126717e-08 2.772537e-09 4.811577e-09 -6.945288e-09
1.347372e-08 9.603858e-09 -4.385968e-09 -7.953996e-10 2.542493e-10 -2.224491e-16
-9.622715e-09 3.495273e-09 1.713340e-09 -2.949462e-11 -3.711060e-10 -6.277704e-10
1.705444e-08 -7.329946e-09 -1.311640e-09 -3.553613e-09 -1.862566e-10 2.489609e-10
-8.939375e-09 4.258668e-09 1.278275e-09 -1.275381e-09 -4.780508e-10 6.394573e-11
-8.204313e-09 4.301828e-09 1.227269e-09 -1.643982e-09 -1.487182e-10 -2.613665e-10
9.282346e-09 -5.340860e-09 -1.261552e-09 2.075442e-10 1.118953e-10 5.662726e-11
-9.220590e-09 4.680306e-09 1.269612e-09 -5.321779e-10 -8.040568e-11 -9.292151e-10
6.646371e-09 -3.611722e-09 -8.307954e-10 3.496874e-09 -2.695711e-11 -2.838021e-10
2.060541e-09 -1.826989e-08 5.613702e-09 -2.402346e-09 -1.447293e-09 -4.392555e-10
3.054154e-09 -2.341913e-08 6.106323e-09 -4.588427e-09 1.325217e-10 -1.158179e-09
5.699589e-09 -2.611472e-08 6.353764e-09 -1.891473e-09 1.655138e-10 -5.266711e-10
4.980637e-09 -2.494911e-08 5.878453e-09 -6.344727e-10 4.691724e-10 -9.186237e-10
1.517820e-08 -3.889747e-08 -2.674951e-10 2.918415e-09 -1.785632e-09 9.731495e-10
1.126163e-08 -3.686673e-08 8.661138e-10 1.009093e-08 -6.823196e-09 1.680193e-09
-1.525441e-09 -1.440923e-08 4.852394e-09 -1.541177e-09 1.701999e-10 -4.631293e-10
1.520976e-08 -4.608234e-08 2.083526e-09 3.125730e-09 -2.735068e-09 1.383347e-09
1.420806e-08 -4.502865e-08 3.153159e-09 2.896527e-09 -3.802125e-09 1.508105e-09
-3.987970e-09 -9.113666e-09 4.019050e-09 -5.284288e-09 -6.340248e-10 1.114522e-10
1.119149e-08 -3.665459e-08 3.823977e-09 -7.355682e-09 2.027055e-09 -5.107630e-10
1.034116e-08 -3.706821e-08 -5.425138e-11 2.428114e-09 -2.617934e-09 1.628447e-09
9.545297e-09 -1.694777e-10 -3.159724e-08 9.805862e-09 -7.800051e-09 4.716911e-09
-6.765487e-09 -1.021836e-08 1.835183e-09 4.696645e-09 -3.371274e-09 6.216625e-10
-6.974358e-09 -8.239068e-09 3.050958e-09 6.857932e-10 -3.142632e-11 -7.612333e-11
-6.688604e-09 -1.243303e-08 3.800983e-09 4.963981e-09 -1.644207e-09 -1.881288e-10
-3.262789e-09 -1.657428e-08 1.220104e-09 2.378296e-09 -3.646440e-09 5.674193e-10
-6.979468e-09 -6.724886e-09 3.271065e-09 8.024396e-10 -1.493764e-09 -3.184131e-10
-5.512373e-09 -1.156300e-08 3.686563e-09 1.913625e-10 -1.347040e-10 -3.761795e-10
-3.605234e-09 -1.113788e-08 2.564591e-09 -1.986603e-10 -7.814057e-10 3.795835e-10
-3.968824e-09 -1.224819e-08 4.182374e-09 -1.210049e-09 2.207223e-11 -8.948417e-10
1.897168e-08 -2.821679e-08 -2.351040e-08 8.245639e-09 -7.993263e-09 1.741075e-09
-2.977678e-09 -1.244732e-08 4.720387e-09 -3.507871e-09 4.243653e-10 -8.464569e-10
-4.058546e-09 -9.671590e-09 4.243105e-09 -1.046110e-09 1.349816e-10 -4.840881e-10
1.100175e-08 -4.743304e-08 -7.808810e-10 2.081943e-08 -1.902120e-08 7.690891e-09
-3.514217e-09 -1.060917e-08 4.480965e-09 -7.233501e-10 -3.714401e-10 -9.688824e-10
-8.228344e-09 2.079140e-09 1.901805e-09 2.548830e-10 2.102452e-11 -2.965430e-10
-1.515079e-09 -1.292446e-08 4.780488e-09 -1.040676e-09 -1.805764e-10 -3.773076e-10
-7.976898e-09 9.801404e-11 2.833024e-09 1.033668e-10 -8.479728e-11 -3.372064e-10
5.140135e-09 -2.388109e-08 6.360902e-09 -1.924802e-09 -2.468891e-11 -3.978812e-10
-1.084435e-09 -1.870649e-08 5.302607e-09 -5.472915e-12 2.312983e-10 -6.904711e-10
5.692585e-09 -2.898310e-08 6.440709e-09 -1.898329e-09 1.732449e-10 -7.110415e-10
3.045969e-09 1.555339e-08 -6.931436e-09 7.214272e-10 3.349286e-10 2.413159e-11
6.896192e-09 -3.110950e-08 6.769508e-09 -2.420674e-09 -3.711506e-11 -1.095437e-09
-1.949255e-08 2.644262e-08 -1.452418e-08 7.644209e-09 3.276565e-09 -1.395081e-09
5.829283e-09 -2.937423e-08 6.501814e-09 1.061595e-11 7.957768e-11 -7.005555e-10
6.896196e-09 -2.828650e-08 6.549413e-09 -2.245644e-09 -2.088079e-11 -1.045557e-09
7.863090e-09 -3.022756e-08 6.609312e-09 -4.751528e-10 5.379187e-10 -8.002826e-10
1.338655e-08 -6.526356e-09 -1.372581e-09 -3.889749e-09 -7.275114e-11 -2.235168e-10
9.855847e-09 -3.679537e-09 3.371103e-11 7.715918e-09 -2.288278e-10 -3.264831e-10
1.973510e-08 -4.693680e-08 -8.155803e-10 8.577673e-09 -9.702476e-09 2.149536e-09
9.942873e-09 -3.433328e-08 7.275509e-09 -1.006955e-10 1.366307e-10 -1.763325e-10
1.253686e-08 -4.039687e-08 8.034381e-09 2.307530e-10 2.333580e-10 -2.097961e-10
1.973768e-08 -4.810229e-08 4.421135e-09 7.881659e-09 -7.659691e-09 1.777497e-09
9.604643e-09 -3.668533e-08 3.518701e-09 1.332523e-09 -9.177243e-10 -5.220083e-10
9.942894e-09 -3.522751e-08 7.207368e-09 -4.788414e-11 8.438883e-11 -3.769088e-10
1.020268e-08 -3.418602e-08 6.791431e-09 -3.305907e-09 -8.396325e-11 -6.540173e-10
2.171929e-08 -5.452507e-08 -4.027227e-09 2.777798e-09 -8.221438e-09 8.780358e-10
-9.840784e-09 4.380869e-09 1.603865e-09 -4.491651e-10 -1.229150e-10 -4.721703e-10
2.161306e-08 -5.424300e-08 1.432779e-09 1.734097e-09 -3.495794e-09 1.485088e-09
2.057531e-08 -5.449657e-08 3.049204e-09 2.355330e-09 -4.090626e-09 1.734735e-09
-7.559796e-09 -5.531237e-09 1.073219e-09 -5.371857e-10 -4.442410e-16 1.413009e-10
-7.168959e-09 4.772771e-09 1.145573e-10 -5.429354e-09 -3.809338e-10 -1.112355e-10
1.710531e-08 -4.462420e-08 -6.079568e-10 5.994913e-10 -3.477408e-09 9.638399e-10
-9.853837e-09 -2.852811e-10 2.133792e-09 -1.991167e-10 -2.855636e-10 -7.254200e-10
9.198907e-09 -2.312280e-08 -1.800113e-08 1.330730e-08 -9.809403e-09 4.504376e-09
-9.098016e-09 -5.323932e-09 3.312816e-09 2.871526e-09 -8.872425e-10 -4.915983e-10
-9.695750e-08 -4.138433e-08 3.220317e-07 1.395510e-08 -2.888583e-09 -6.907454e-09
4.424263e-09 -2.294526e-08 -2.752162e-09 1.692240e-09 -1.655914e-09 6.154886e-10
3.789640e-08 -8.590857e-09 6.694689e-10 -2.346967e-09 -1.489547e-09 -8.811866e-16
-9.525335e-09 -1.427464e-09 2.729901e-09 -4.188888e-10 -8.450238e-10 -6.460787e-10
5.089189e-08 -3.977047e-08 4.450007e-08 -9.352300e-09 -7.609510e-10 4.029694e-09
-9.167132e-09 -2.504922e-09 2.682242e-09 1.175933e-10 8.621814e-11 -1.267287e-09
-9.593396e-09 -3.590259e-09 2.403819e-09 1.118683e-09 -2.754303e-10 -2.687688e-10
6.257628e-08 -2.369974e-08 2.062074e-09 2.142426e-09 1.557557e-09 2.849846e-09
-7.532570e-09 -4.224953e-09 2.432625e-09 -4.112400e-10 -3.615960e-10 6.071724e-12
-2.247161e-09 1.408397e-09 2.956579e-10 6.192391e-10 7.868005e-11 5.942336e-11
9.267568e-09 -5.398146e-09 -1.245777e-09 -5.500119e-11 -6.728613e-13 4.363154e-11
1.091056e-08 -3.574212e-08 7.498382e-09 -1.224073e-09 -5.992033e-10 -5.541608e-10
9.190808e-09 -5.240326e-09 -1.315704e-09 3.316419e-11 2.633749e-11 -4.328538e-12
1.778655e-08 -9.563212e-09 8.369989e-10 6.224012e-10 1.988639e-10 -3.757026e-10
1.655854e-09 1.280642e-09 6.056045e-11 7.547496e-09 5.799277e-10 4.281571e-10
9.425485e-09 -5.324526e-09 -1.332081e-09 -6.705417e-11 -1.401113e-11 -8.881765e-16
8.019516e-09 -2.972477e-08 6.522926e-09 -2.083809e-09 -1.054353e-10 -4.845156e-10
1.088618e-08 -3.656896e-08 7.190710e-09 -1.045527e-09 -3.002217e-11 -6.425294e-10
-3.463245e-08 8.856973e-08 -1.062356e-08 -1.073444e-08 1.041895e-08 -9.901345e-10
-3.316904e-09 2.047031e-08 -1.356834e-08 -2.628653e-08 -1.923553e-09 1.581883e-09
1.093832e-08 -3.637266e-08 7.520504e-09 -9.443591e-10 3.156282e-10 -4.649123e-10
1.063371e-08 -3.467184e-08 7.110917e-09 -1.933238e-10 4.109484e-10 -6.306741e-10
1.408594e-08 -5.140630e-09 1.657670e-10 -1.194826e-08 7.420206e-11 1.021144e-09
8.564202e-09 -3.426650e-08 7.074133e-09 -1.557831e-10 -1.085437e-11 -6.052443e-10
-5.691422e-09 -5.923086e-09 3.408285e-09 -7.458411e-10 -1.883493e-10 -5.263150e-10
6.993263e-09 -2.993473e-08 6.781473e-09 -9.172360e-11 6.927781e-11 -3.386368e-10
-5.527326e-09 -6.393400e-09 3.714712e-09 -3.944925e-10 -2.961052e-10 -8.216419e-10
-5.050363e-09 -8.358369e-09 4.157418e-09 -2.659563e-09 -5.258280e-10 -7.874604e-10
-1.092761e-09 -1.418008e-08 4.636098e-09 -5.787580e-10 3.847444e-10 -1.039045e-09
-5.057766e-09 -7.904180e-09 4.009240e-09 -2.702882e-09 2.042647e-12 -9.315388e-10
-5.408959e-09 -7.354094e-09 4.042378e-09 -3.936875e-09 -9.139438e-12 -3.415936e-10
-3.939877e-09 -7.948275e-09 4.108358e-09 -8.555587e-10 1.270986e-10 -8.907900e-10
-4.346588e-09 -8.226392e-09 4.104451e-09 2.153141e-10 -2.120860e-10 -6.935109e-10
2.506083e-08 -5.273990e-08 -1.023692e-09 5.820202e-10 -3.739794e-09 6.517086e-10
2.152848e-08 -4.820217e-08 -5.432415e-10 2.119965e-09 -2.670218e-09 9.007359e-10
2.358219e-08 -5.922335e-08 5.868198e-09 1.921554e-09 -8.617530e-09 8.779412e-10
5.566498e-08 -3.796807e-08 5.013270e-08 2.220210e-08 1.158607e-08 1.095470e-08
2.294324e-08 -5.179953e-08 -1.029565e-09 5.680141e-10 -4.137865e-09 7.516878e-10
7.020265e-09 4.016733e-09 2.052344e-08 -3.280783e-08 -7.288905e-09 1.460624e-09
2.366018e-08 -3.041913e-09 -3.712241e-09 8.956194e-10 -5.447843e-10 3.175376e-10
-2.178605e-08 4.471254e-09 1.012023e-09 5.558803e-09 8.387299e-09 -1.164296e-09
2.358218e-08 -5.909627e-08 2.619451e-09 2.259582e-09 -4.170771e-09 7.550532e-10
2.450888e-08 -5.971842e-08 3.033900e-09 1.788856e-09 -4.256006e-09 1.429928e-09
-9.963171e-09 1.901521e-09 2.195405e-09 -1.166334e-09 -4.612882e-10 -6.440273e-10
4.261782e-08 -6.587574e-09 1.280221e-08 -1.825291e-08 -9.141824e-10 1.440993e-10
2.991462e-08 -3.399696e-09 3.580094e-08 -3.811726e-08 -2.084283e-08 2.030540e-08
-9.906898e-09 2.117671e-09 1.687283e-09 -1.055819e-09 -7.152812e-10 -7.602803e-10
-9.834330e-09 1.370326e-09 2.093392e-09 3.000404e-10 -6.818690e-10 -7.027591e-10
2.400619e-08 3.112238e-09 -1.860446e-09 -1.581114e-09 5.236398e-10 3.505685e-10
-9.584244e-09 -2.424956e-09 2.413713e-09 9.318211e-10 -1.176831e-09 -4.743355e-10
4.787569e-09 1.555342e-08 -7.341232e-09 2.175360e-09 1.094772e-09 1.586706e-10
-7.313511e-09 -3.016376e-09 3.446301e-09 -2.874920e-10 -3.793301e-10 -3.713641e-10
-9.645695e-09 4.429805e-10 2.040812e-09 -5.678865e-10 -1.642657e-10 -3.920728e-10
2.875762e-08 6.717586e-09 -5.029803e-09 -1.807383e-08 -1.704421e-09 -2.833856e-09
-5.803992e-09 -8.843968e-09 2.031322e-10 -6.314466e-10 -1.655951e-09 2.197179e-10
6.047389e-09 -1.259659e-08 -2.656398e-08 1.166353e-08 -2.724399e-09 2.294555e-09
-9.707277e-09 -2.780602e-10 2.799927e-09 9.007906e-10 -3.182361e-10 -5.806013e-10
1.215036e-08 -3.838383e-08 7.720913e-09 -4.372223e-10 -1.823599e-10 -2.500151e-10
1.093618e-08 -3.481800e-08 7.105837e-09 -1.905121e-09 -1.976081e-10 -3.304253e-10
6.187352e-09 -2.945798e-08 -2.694201e-09 1.464578e-09 -5.239493e-10 -1.657926e-11
1.238454e-08 -3.810530e-08 7.554593e-09 -1.886916e-09 -5.987570e-10 -4.764162e-10
1.234007e-08 -3.901524e-08 7.514997e-09 -2.627690e-10 8.137694e-10 -5.185185e-10
1.237655e-08 -3.733641e-08 7.422309e-09 -1.856239e-09 7.929389e-10 -5.772090e-10
1.089435e-08 -3.549177e-08 6.859523e-09 -1.708907e-09 3.088729e-10 -4.325638e-10
-1.010432e-08 1.264641e-08 -1.095067e-08 -4.042013e-09 -1.583879e-09 1.748376e-09
1.212792e-08 -3.756589e-08 7.435509e-09 8.807267e-11 3.600186e-10 -4.916650e-10
1.107955e-08 -3.795714e-08 7.616313e-09 -5.161294e-11 -1.327673e-10 -3.879287e-10
3.826659e-09 1.314786e-08 -4.428740e-09 -2.378853e-08 -9.980875e-11 2.067343e-09
-7.201105e-09 -3.854852e-09 3.549323e-09 -1.672050e-09 4.029174e-10 -7.159176e-10
7.623642e-09 -2.842326e-09 -1.216605e-09 -5.734165e-09 2.811240e-11 -3.083094e-10
-6.690384e-09 -4.382764e-09 3.482277e-09 -1.823781e-09 -5.376382e-10 -7.152836e-10
-5.636077e-09 -5.532064e-09 3.557390e-09 -6.348128e-10 3.591039e-10 -8.313864e-10
-6.901482e-09 -3.830116e-09 2.923851e-09 -4.673717e-11 4.337118e-10 -6.874950e-10
1.884312e-08 -9.920361e-09 7.053274e-10 -9.940195e-10 -8.745855e-11 -8.809671e-10
1.339221e-08 -7.329937e-09 -1.241280e-09 -3.363813e-09 -1.579206e-10 2.114466e-10
-7.111389e-09 -2.475138e-09 2.012712e-09 -7.282691e-09 -2.620476e-10 1.866459e-10
-6.812867e-09 -2.705105e-09 2.765512e-09 -6.786077e-10 -2.015135e-10 -5.597065e-10
-6.823820e-09 -3.202151e-09 3.084139e-09 -3.220981e-10 -3.135836e-10 -7.694445e-10
-5.849463e-09 -4.749491e-09 3.528487e-09 1.959886e-10 -3.245976e-11 -5.508800e-10
5.571329e-09 -2.605755e-08 4.713595e-09 -7.419026e-09 5.003082e-10 -1.057459e-10
-4.652792e-09 3.705046e-09 1.107070e-11 -2.455393e-09 -3.702038e-11 -6.719039e-10
-4.687758e-09 3.881602e-09 2.213585e-10 -2.772133e-09 8.675993e-11 3.074696e-11
-4.459912e-09 4.170404e-09 1.480043e-10 -9.465384e-10 4.760059e-11 -2.573275e-10
-4.323903e-09 4.285386e-09 1.456852e-10 -1.888069e-09 -1.345331e-10 -2.361609e-10
-1.877780e-09 2.407862e-09 -1.603033e-10 -1.587287e-09 -2.012008e-10 -6.097343e-13
-1.327834e-09 1.813722e-09 -3.646790e-10 -3.194611e-09 -1.004457e-10 -6.370009e-10
3.629788e-09 -2.313639e-08 5.972198e-09 1.402822e-10 1.803877e-10 1.940088e-10
-2.603708e-09 2.905669e-09 -1.132081e-10 -2.927641e-09 -3.724532e-11 -2.952041e-10
-2.596061e-09 3.366810e-09 4.633627e-12 -2.803763e-09 -2.945169e-10 -3.386561e-10
-2.594937e-09 3.142305e-09 -9.279688e-11 -2.192529e-09 3.856886e-11 7.592790e-11
2.014995e-10 -1.870649e-08 5.680141e-09 -8.163232e-10 1.225775e-11 -5.634593e-10
-9.354661e-09 2.839146e-09 1.737870e-09 2.075209e-10 -2.620796e-10 -1.188488e-09
-9.017944e-09 4.609712e-09 1.303747e-09 -5.109968e-10 -1.194100e-10 -2.382818e-10
-9.840716e-09 4.300937e-09 1.553877e-09 -6.406803e-10 -5.442446e-11 -2.448901e-10
-9.722166e-09 1.629274e-09 1.977313e-09 1.288917e-10 -9.205103e-11 -1.055295e-09
-1.124971e-08 3.085383e-09 1.690545e-09 -3.748156e-10 -6.548456e-10 -7.483040e-10
-9.753876e-09 2.996190e-09 1.495558e-09 -3.781356e-10 -8.720853e-10 -4.942203e-11
1.671876e-08 -3.219130e-08 -1.248093e-08 5.254789e-09 -2.829055e-09 1.726694e-09
-9.873058e-09 3.389892e-09 1.754156e-09 -3.065412e-10 9.369062e-12 -1.099372e-09
-1.010218e-08 2.744330e-09 1.890820e-09 -7.616000e-10 -1.979663e-10 -2.919892e-10
1.900179e-08 -5.682745e-08 2.226109e-09 6.606074e-09 -1.064405e-08 2.695127e-09
-9.409821e-09 3.560205e-09 1.656399e-09 -1.429787e-09 5.527445e-11 -2.935487e-10
-4.755306e-09 -8.486297e-09 -4.446086e-09 6.237196e-09 -2.662409e-09 2.128385e-09
-5.493639e-09 -9.864872e-09 -7.409584e-11 1.260947e-09 1.323747e-09 -3.373384e-10
2.564371e-08 -5.222842e-08 -1.079203e-09 1.155963e-09 -3.989732e-09 4.754753e-10
7.353345e-09 -4.208793e-09 -1.004203e-09 4.749362e-11 1.314219e-10 8.242296e-13
2.465086e-08 -5.249931e-08 -2.057984e-09 -1.134615e-09 -4.081887e-09 -2.818755e-10
2.688509e-08 -5.805047e-08 -4.268176e-10 -1.410184e-09 -1.165676e-08 1.273099e-09
1.295952e-08 -3.984788e-08 7.800108e-09 -7.450886e-10 -9.098232e-11 8.397194e-11
1.189818e-08 -4.030862e-08 5.747953e-09 6.831407e-09 1.473069e-09 -4.553613e-10
5.328036e-09 -2.726423e-08 6.624142e-09 -3.211777e-10 4.438744e-16 3.344424e-10
2.491131e-08 -5.757598e-08 -6.473959e-09 -1.979149e-09 -1.155693e-08 1.001421e-10
2.452878e-08 -6.009139e-08 4.646934e-09 -2.779091e-09 -1.037728e-08 -8.019314e-10
2.429658e-08 -5.921408e-08 3.037383e-09 2.788527e-10 -3.741689e-09 1.052118e-09
2.529906e-08 -5.365271e-08 -1.326232e-09 1.532037e-10 -4.265544e-09 4.157550e-10
3.629811e-09 -2.417739e-08 6.325577e-09 -1.358671e-10 1.099638e-10 -4.561229e-10
-4.470741e-09 2.366034e-09 5.596124e-10 -1.327716e-11 5.232925e-11 -5.773998e-11
-1.467191e-09 1.328928e-09 2.930862e-10 6.052955e-10 2.893910e-10 -1.053091e-10
-1.983956e-09 1.327654e-09 1.652105e-10 6.727294e-10 3.054053e-10 -4.795606e-10
-2.939341e-09 1.723768e-09 4.001763e-10 1.348883e-09 2.892233e-10 -2.145718e-10
-3.097746e-09 1.327422e-09 3.464571e-10 5.556851e-10 2.911480e-10 -3.453648e-11
-3.735313e-09 2.142960e-09 4.536931e-10 2.623812e-10 1.689455e-10 1.599667e-10
6.894131e-09 1.484451e-08 -1.241616e-09 -2.845912e-08 3.054848e-10 -6.498902e-10
-7.469587e-09 -1.351951e-09 2.790802e-09 -8.536015e-10 1.576834e-10 -1.809128e-10
-7.562103e-09 -1.348102e-09 2.497373e-09 -7.871044e-10 9.861556e-11 1.905031e-11
-6.807554e-09 -3.900455e-09 3.108031e-09 -5.873443e-10 1.020548e-10 -5.112734e-10
-8.063679e-09 2.331699e-10 2.431721e-09 2.578919e-10 6.834920e-10 -1.742324e-10
-7.880105e-09 -1.837996e-10 2.355605e-09 -2.935806e-10 -8.422196e-11 -5.202743e-10
-8.015132e-09 -4.661374e-10 2.586318e-09 -1.990475e-11 -1.132131e-10 -6.666406e-10
-6.137023e-09 -6.242794e-09 -1.867462e-09 3.824200e-09 -3.142733e-09 1.322997e-09
-7.103794e-09 -1.647108e-09 2.964943e-09 2.146462e-10 -1.302428e-10 -2.822454e-10
9.174245e-09 -3.758517e-08 -1.360986e-09 -4.952829e-09 -4.561917e-09 -6.183874e-10
1.723725e-08 -4.116496e-08 -1.980238e-09 -5.255521e-10 -2.726134e-09 -5.365681e-10
2.289779e-08 -5.699172e-08 4.843228e-09 -7.420654e-09 -9.010643e-09 -9.812342e-10
2.291153e-08 -5.384870e-08 1.108756e-09 -7.711748e-09 -1.134001e-08 -4.968745e-10
2.103949e-08 -5.414365e-08 -1.070961e-09 -1.055346e-08 -1.406945e-08 -2.531749e-09
4.688355e-08 -2.550593e-08 5.370768e-08 -2.863337e-08 -1.025826e-08 2.197867e-08
5.799448e-08 -2.385651e-08 5.935206e-09 -1.783776e-09 -5.379791e-10 4.460085e-16
5.674148e-08 -1.765628e-08 2.132869e-09 6.166658e-10 -1.959382e-09 2.659488e-09
6.530301e-08 -2.698538e-08 4.165105e-09 -6.132953e-10 -4.319542e-10 2.868240e-09
7.115562e-08 -3.251917e-08 9.213351e-09 -3.279496e-10 3.711608e-10 1.723914e-08
2.782913e-08 -5.412616e-08 -2.948387e-09 2.432955e-10 -1.366430e-08 1.336665e-09
1.914095e-08 -5.234158e-08 2.226038e-09 -9.622685e-10 -2.705249e-09 9.915719e-10
2.347879e-08 -4.984939e-08 -1.944716e-09 -5.584933e-10 -3.468061e-09 -3.421123e-10
1.879262e-08 -4.482271e-08 -5.193590e-09 -5.760058e-09 -7.510147e-09 -1.243009e-09
-1.885297e-08 3.307124e-08 -1.240670e-08 -6.160197e-09 9.930259e-09 -1.277972e-08
-1.015499e-08 2.573940e-08 -1.040373e-08 -1.596235e-09 1.880983e-09 -3.771549e-09
-1.230204e-08 2.241010e-08 -8.748434e-09 -2.006524e-09 -6.711077e-09 -3.193721e-09
1.711640e-08 1.682436e-08 -1.064103e-08 6.803682e-09 -4.121603e-09 4.772809e-10
8.472057e-09 1.673541e-08 -8.328171e-09 5.037101e-09 -2.276499e-09 4.363194e-09
2.120177e-08 -1.980965e-08 5.276885e-08 1.969638e-09 9.337200e-10 -1.091881e-08
2.122846e-08 -1.320404e-08 2.103232e-08 -1.080338e-08 6.867645e-10 -4.970661e-09
2.141543e-08 -1.593157e-08 3.947705e-08 -1.228675e-08 6.107743e-10 -7.772207e-09
2.114139e-08 -1.342173e-08 1.218780e-08 -4.417425e-09 -1.020032e-10 2.239453e-10
-3.246672e-09 2.239594e-08 -1.009420e-08 5.223939e-09 -7.165456e-09 -9.736693e-09
-1.152056e-08 2.207037e-08 -7.665334e-09 1.300381e-12 -8.769646e-09 -3.984260e-09
2.532303e-08 -1.585238e-08 1.790084e-08 -2.796785e-09 2.426858e-09 -2.264936e-09
-1.053271e-08 2.245078e-08 -1.323247e-08 -2.120413e-09 -8.944287e-09 -7.107456e-09
5.257781e-09 -2.296806e-08 -1.515351e-08 -1.944361e-08 -1.850835e-08 -6.458906e-09
-2.860437e-09 3.366958e-09 -1.208230e-10 -1.194583e-09 -2.633098e-10 -5.658118e-11
-7.889497e-09 5.779954e-10 2.352717e-09 -3.857948e-10 7.769327e-11 -1.271774e-10
-7.838386e-09 -1.702269e-08 6.809548e-09 2.019057e-09 7.930375e-10 -1.414497e-10
-8.072727e-09 5.193534e-10 2.392598e-09 4.905264e-10 8.649170e-11 -2.789430e-10
-7.929090e-09 -1.047235e-09 2.486486e-09 -4.086798e-10 -2.271428e-11 -4.025403e-10
-2.237265e-08 7.735964e-09 -1.772581e-09 3.847509e-09 5.182632e-09 -6.440373e-10
-8.158615e-09 1.497282e-09 2.001010e-09 3.871709e-10 1.809390e-10 -4.714152e-10
-4.140976e-09 -2.449819e-08 7.499632e-09 4.506240e-09 3.501743e-10 2.470586e-10
-1.576382e-08 -5.737570e-09 2.962186e-09 3.219514e-09 2.098819e-09 -6.573360e-10
-8.251080e-09 3.461725e-09 1.495401e-09 3.230536e-10 6.337875e-11 -2.482159e-10
-7.868349e-09 5.771579e-10 2.451479e-09 2.966998e-10 7.403589e-11 -2.320761e-10
-7.940744e-09 1.783216e-09 1.743368e-09 -3.447887e-11 -1.643164e-10 -2.412848e-10
-8.097284e-09 1.431202e-09 2.035339e-09 4.427788e-10 7.032042e-11 -2.242687e-10
-8.269787e-09 1.242332e-09 2.141828e-09 5.495870e-11 -9.949375e-11 -5.137348e-10
-8.040067e-09 5.771603e-10 2.279857e-09 2.473670e-10 -4.421075e-12 -4.225834e-10
-7.868433e-09 4.578498e-10 2.420910e-09 2.561963e-10 6.101578e-12 -2.656673e-10
-1.142064e-09 1.610917e-09 -2.719158e-10 -1.358630e-09 5.320065e-11 -2.092768e-10
1.320204e-09 5.439837e-10 -5.394636e-10 -1.958098e-09 -2.956320e-10 3.919813e-10
-2.658943e-08 4.103803e-08 -1.040801e-08 -7.250056e-09 -2.914777e-09 6.004578e-09
2.465962e-09 -1.738818e-10 -6.918477e-10 -8.906880e-10 -3.725231e-10 -2.598783e-10
1.045583e-09 5.448584e-10 -5.068479e-10 -1.982823e-09 -3.582834e-10 8.040579e-11
1.171836e-09 4.273844e-10 -6.007832e-10 -1.656529e-09 -2.530989e-10 -2.276845e-10
-7.671585e-09 4.185615e-09 1.067427e-09 -3.257838e-12 1.326117e-11 -1.266343e-11
-7.772396e-09 4.178672e-09 1.123882e-09 5.413270e-11 8.957723e-12 -1.726286e-11
-7.457722e-09 4.009300e-09 1.054445e-09 -1.391975e-11 -4.323919e-11 1.203745e-21
3.035812e-10 1.438792e-09 -3.713199e-10 -1.300867e-09 -1.536116e-10 -3.015133e-11
2.297034e-10 1.059442e-09 -4.309137e-10 -4.600147e-10 -2.275276e-10 2.070432e-10
1.279306e-09 8.660006e-11 -5.298459e-10 -3.425686e-10 -1.654428e-10 9.752510e-11
4.378566e-09 -2.549423e-09 -5.960343e-10 2.838266e-10 1.826959e-10 9.525597e-11
3.796039e-09 -2.272430e-09 -5.357657e-10 5.974880e-10 1.116086e-10 3.528966e-10
7.159760e-09 -3.917075e-09 -9.592336e-10 8.137003e-10 6.201639e-11 -8.681555e-12
4.312316e-09 -2.258891e-09 -5.457292e-10 7.119834e-10 8.760590e-11 -3.852696e-12
-4.081319e-08 -3.942944e-08 1.724363e-07 1.202005e-08 -1.715557e-08 -1.861615e-08
-4.199401e-08 4.093569e-08 1.567390e-07 3.894409e-08 -8.964737e-08 -3.616523e-08
5.746267e-09 -3.320453e-09 -6.742569e-10 3.328724e-10 1.734988e-10 -1.738067e-10
5.895006e-09 -3.601456e-09 -9.378409e-10 6.897877e-11 1.837253e-10 -5.736809e-10
-8.805535e-08 2.178039e-08 1.698012e-07 1.643665e-08 -7.060397e-08 -4.183973e-08
-1.913028e-08 7.986349e-09 3.396178e-08 2.711498e-08 -1.542879e-08 -4.543804e-09
-2.343402e-08 2.252024e-08 2.677470e-08 2.007302e-08 -3.445186e-09 3.039883e-11
-4.310319e-10 -1.550558e-09 2.257358e-08 2.243499e-08 -4.732243e-09 -6.100714e-09
1.123462e-09 -2.240802e-08 5.610070e-09 -3.912050e-09 2.001462e-09 2.033097e-10
-1.084439e-09 -1.590373e-08 5.216279e-09 9.082769e-11 -1.531563e-09 -8.139658e-10
3.573112e-09 -2.431971e-08 5.874371e-09 -2.364720e-09 -1.460791e-10 4.265811e-10
4.949283e-09 -2.650076e-08 5.815001e-09 -2.883085e-09 5.396715e-10 -4.329804e-10
3.862704e-09 -2.263238e-08 5.753346e-09 -5.388931e-09 3.362568e-10 -7.819537e-10
3.094498e-10 -1.709687e-10 -4.657164e-11 5.106187e-11 1.036962e-10 2.985950e-11
-5.237950e-09 2.925384e-09 7.103425e-10 1.515100e-09 8.481171e-11 -4.772729e-10
1.321059e-09 -1.914810e-08 5.192180e-09 -4.878288e-09 1.242123e-10 1.149258e-10
2.006006e-09 2.664434e-08 -5.984420e-08 -2.027984e-08 1.167562e-08 4.790165e-09
-1.142198e-08 3.165458e-08 -3.784649e-08 -2.422837e-08 1.644856e-08 1.617332e-08
-2.883091e-08 3.478085e-08 -2.782370e-08 -2.284655e-08 1.205236e-08 2.020686e-08
-7.724399e-09 3.105520e-08 -3.657044e-08 -2.199321e-08 1.530308e-08 1.398773e-08
-1.756185e-08 1.037771e-08 -2.835287e-09 -5.785269e-09 1.828756e-09 1.638227e-09
-8.124203e-09 2.100049e-09 2.000821e-09 -1.426187e-10 1.648858e-10 -4.409927e-10
1.274764e-09 3.941130e-08 -7.221175e-08 -1.475964e-08 1.394387e-08 6.888396e-09
5.526485e-09 -9.949993e-09 3.087632e-08 2.147431e-08 -5.653565e-10 -6.082403e-09
-9.252385e-09 7.828923e-09 1.734704e-08 2.096218e-08 -2.586243e-09 -5.098050e-09
-8.000361e-09 9.647305e-10 2.325224e-09 6.408274e-11 2.085301e-10 -1.118401e-10
1.776900e-08 -1.341737e-08 2.110231e-08 8.646266e-09 -1.633146e-09 -5.295857e-09
-8.102419e-09 2.375609e-09 1.909025e-09 3.403917e-10 1.473281e-10 -1.949272e-10
-8.131557e-09 9.712657e-10 2.106139e-09 -1.460008e-10 -1.900013e-11 -3.534706e-10
-8.164451e-09 2.587148e-09 1.683919e-09 4.900466e-10 1.940595e-10 -3.606881e-10
-8.140068e-09 2.470488e-09 1.719884e-09 5.680533e-10 3.955547e-11 -1.216707e-10
-8.228161e-09 2.079140e-09 1.862477e-09 2.469318e-10 2.737588e-11 -2.720073e-10
-8.166499e-09 1.966555e-09 1.994880e-09 2.527746e-10 8.409940e-13 -1.980717e-10
1.994186e-09 -1.097157e-09 -2.589831e-10 9.041643e-10 1.322538e-10 -9.013679e-12
-5.592653e-09 4.772234e-09 3.615463e-10 -1.047658e-09 -9.020473e-11 -4.305656e-11
-4.687760e-09 4.433983e-09 3.492291e-10 -2.506959e-09 -2.379938e-10 -2.147491e-10
3.063885e-09 -1.690562e-09 -3.628902e-10 1.807388e-09 3.474141e-10 5.811879e-11
2.880369e-09 -1.320214e-09 -5.363150e-10 8.804821e-10 1.229505e-10 1.629428e-10
4.251554e-09 -2.271350e-09 -5.707292e-10 7.950387e-10 2.626344e-10 -7.535117e-11
2.318577e-08 9.410218e-09 -6.705187e-09 -9.867180e-09 3.128010e-09 9.760971e-10
3.336927e-09 -1.697317e-09 -4.792314e-10 1.798793e-09 2.808640e-10 3.648066e-10
6.920020e-08 -3.848240e-08 5.775424e-08 1.050029e-08 4.331083e-09 1.746666e-08
3.786580e-09 -2.226075e-09 -4.194272e-10 3.582096e-10 1.906370e-10 -1.706569e-10
3.824299e-09 -2.307509e-09 -7.077623e-10 1.295491e-10 1.831415e-10 -5.490792e-10
1.262713e-08 -6.709079e-09 -1.412384e-09 9.583335e-11 -6.818840e-11 9.719892e-11
-2.005185e-08 -9.838711e-09 -9.899867e-10 2.935842e-08 1.566946e-08 -7.184162e-09
-1.989390e-08 1.654956e-08 -9.211921e-09 -2.272982e-09 -1.210167e-09 -3.449054e-10
-2.275933e-08 1.333830e-08 -4.039891e-09 3.514137e-09 4.703055e-09 -1.127122e-09
1.185250e-08 -6.823757e-09 -1.295215e-09 7.992374e-10 -6.979639e-11 -5.370107e-10
-1.378373e-08 -1.809008e-08 2.408626e-09 2.447526e-08 1.088933e-08 -3.379136e-09
-3.537760e-09 -2.582176e-08 4.253433e-09 1.376239e-08 2.949760e-09 -1.040502e-09
-1.287139e-08 -1.605679e-08 4.259186e-09 2.193993e-08 8.223206e-09 -2.173447e-09
1.140528e-08 -6.145762e-09 -1.455851e-09 1.905514e-10 1.382426e-10 7.748291e-11
1.229386e-08 -7.018925e-09 -1.415586e-09 -2.882203e-10 5.678117e-11 3.341863e-10
1.249460e-08 -6.956081e-09 -7.842598e-10 2.712899e-09 -1.505271e-10 -6.178185e-10
1.280734e-08 -6.451717e-09 -9.513741e-10 3.129673e-09 -4.161119e-12 -4.154190e-10
1.443671e-08 -7.353352e-09 -1.203416e-09 3.975247e-10 4.947964e-11 1.732215e-11
1.389806e-08 -7.053616e-09 -1.052662e-09 1.976458e-09 8.035238e-11 -3.868044e-10
1.351959e-08 -7.724942e-09 -1.035269e-09 -3.349891e-10 -4.327266e-11 -7.385583e-10
1.436874e-08 -7.421692e-09 -1.309814e-09 -1.157495e-09 -5.673051e-11 -8.547230e-11
-1.883750e-09 1.149504e-09 1.754792e-10 3.597025e-10 2.578082e-10 1.905832e-10
-5.062706e-10 3.302505e-10 4.131140e-11 5.457559e-10 3.312084e-10 3.960670e-10
-7.645037e-09 -1.052520e-09 2.941086e-09 -1.134948e-10 -4.206058e-11 2.873959e-10
-5.375176e-09 3.901954e-08 -3.711162e-08 -1.507065e-08 -9.423173e-09 1.322837e-08
-9.499563e-09 -1.407617e-08 2.729572e-10 1.798481e-08 6.634185e-09 -3.103014e-09
-5.520425e-09 3.179651e-09 7.561254e-10 4.937288e-10 8.805376e-11 -7.466228e-11
-2.584874e-09 -2.477613e-08 6.410255e-09 1.080577e-08 2.313998e-09 -6.240137e-10
-2.280010e-08 9.207949e-09 1.574389e-09 4.519157e-09 6.931656e-09 -1.183939e-09
-5.839952e-09 -2.098242e-08 7.689701e-09 8.076712e-09 1.462833e-09 6.906790e-10
-2.961462e-09 1.592100e-09 3.703065e-10 -1.734080e-11 1.290863e-10 2.776646e-11
-1.598588e-09 1.429742e-09 1.781066e-10 1.614999e-09 4.302114e-11 -1.069356e-11
-3.516967e-10 -2.493046e-08 -6.602063e-10 -4.452871e-09 -4.568930e-09 -8.672660e-10
-7.362376e-09 2.003113e-09 1.719796e-09 1.174818e-09 -8.349277e-11 -2.615357e-10
-7.678070e-09 1.338107e-09 1.921146e-09 8.735366e-11 -1.459666e-10 -2.160853e-10
1.157866e-08 -3.280443e-09 2.718803e-09 1.076706e-08 -6.284608e-10 -1.775450e-09
9.191372e-09 -3.762135e-08 1.463922e-09 -4.365558e-09 -2.567444e-09 -1.608669e-09
1.044457e-08 -5.111343e-09 -1.430536e-09 -2.282720e-09 5.623075e-11 -2.673628e-11
9.079466e-09 -4.989225e-09 -1.333579e-09 -1.585528e-10 6.909362e-11 2.220227e-16
9.059652e-09 -5.173021e-09 -1.299298e-09 2.641323e-11 -8.419532e-12 -8.881789e-16
1.351362e-08 -6.003814e-09 3.865499e-09 9.752947e-09 -4.273482e-10 -1.194213e-09
1.305151e-08 -6.116101e-09 -1.648480e-09 -2.297482e-09 -1.865896e-10 4.864815e-10
-3.912960e-08 -3.985932e-08 1.877158e-07 1.127742e-08 -2.448010e-08 -5.165417e-08
1.787226e-08 -4.762171e-08 -2.112019e-09 -2.713118e-09 -3.767168e-09 -6.664870e-10
4.572643e-08 -4.553030e-09 -8.965323e-08 1.318164e-08 5.366858e-08 -7.847538e-09
8.172898e-09 -2.884227e-08 -1.216533e-09 -1.431602e-09 -2.468751e-09 -7.043364e-10
6.233880e-09 -3.667513e-08 3.038446e-09 -3.903330e-09 -3.793160e-09 -2.002019e-09
-1.036347e-08 3.403894e-08 -5.215306e-09 -2.933157e-08 5.980540e-10 1.276465e-08
1.677483e-09 -2.844137e-08 3.418881e-09 -2.264812e-09 -1.202781e-09 -2.310292e-10
-8.115765e-09 3.174344e-09 1.522814e-09 8.597361e-11 4.636580e-11 -5.935836e-11
9.367914e-09 -2.833593e-09 1.026598e-08 -2.073848e-08 1.398321e-09 -3.048748e-09
-8.196964e-09 2.398867e-09 1.796791e-09 4.531206e-12 9.321588e-11 -1.696112e-10
-8.124021e-09 3.076543e-09 1.616034e-09 4.522051e-10 7.715867e-11 -2.240937e-10
1.680999e-09 2.111382e-08 4.201420e-09 -2.939974e-08 -2.182593e-10 3.256130e-09
-8.245105e-09 2.947375e-09 1.674503e-09 2.824360e-10 3.886724e-12 -5.407791e-11
-8.059928e-09 2.814976e-09 1.620409e-09 1.876113e-10 5.927525e-11 -2.967838e-10
6.907893e-09 2.496556e-08 3.611862e-09 -3.871981e-08 4.905151e-09 7.049730e-10
1.543941e-08 -8.095237e-09 1.389604e-08 -2.060287e-08 2.839628e-09 -2.853905e-09
-8.347790e-09 3.343364e-09 1.514515e-09 1.585443e-10 -1.573852e-11 -2.607141e-10
-1.513170e-08 -2.961277e-09 -2.302399e-09 1.002565e-08 4.926938e-09 -6.020489e-10
-7.417066e-09 -8.027694e-10 2.476591e-09 -1.110342e-09 2.468851e-10 -7.997021e-10
-8.167510e-09 1.928737e-09 2.217910e-09 3.055124e-10 2.050760e-11 -3.555727e-10
-4.485390e-09 5.797072e-09 -1.658237e-09 -1.063655e-08 -2.036189e-10 -7.396244e-10
6.625094e-10 3.539149e-09 -1.279461e-09 -1.142921e-08 1.757927e-11 -1.901923e-11
-8.003245e-09 2.444871e-09 1.762417e-09 5.640288e-10 4.333058e-10 -2.614702e-10
5.664142e-09 -2.358155e-09 -9.923307e-10 -1.299022e-10 8.444512e-11 -2.412923e-11
-1.612020e-09 2.438906e-09 -2.417644e-10 -5.670318e-10 -1.823439e-10 2.537747e-10
-1.953099e-09 3.379043e-09 -1.231994e-09 -1.069650e-08 -1.243166e-10 9.878235e-10
-3.867820e-09 3.962015e-09 -1.592304e-11 -1.197855e-10 -2.098997e-10 -2.081990e-11
-2.061428e-09 2.928093e-09 -6.530838e-10 -1.003532e-08 -4.975118e-10 -4.500285e-10
3.575386e-09 2.099480e-09 -1.615863e-09 -1.339612e-08 -8.674627e-10 1.362805e-09
2.583452e-09 3.059467e-09 -1.928251e-09 -1.435679e-08 -4.782851e-10 1.397478e-09
1.668450e-09 1.579445e-09 -1.637996e-09 -1.239647e-08 -4.712009e-10 5.370520e-10
2.266179e-08 -5.647200e-08 -3.851092e-11 -1.091185e-08 -2.210948e-08 2.704428e-09
4.835170e-10 2.148874e-09 -1.278068e-09 -1.193263e-08 1.988369e-11 -2.032824e-11
8.170266e-09 -2.812684e-08 -4.479448e-09 -1.400110e-09 -1.521244e-09 -5.278879e-10
2.056575e-08 -8.617407e-09 -5.951715e-10 -2.109347e-09 8.376599e-11 1.105527e-10
2.322879e-09 2.091299e-09 2.890017e-10 9.451928e-09 6.263722e-10 1.482379e-10
7.720902e-09 -8.868740e-10 3.543107e-09 1.249818e-08 4.073982e-10 -1.882264e-09
7.252177e-09 -2.655720e-09 2.324981e-08 1.871677e-08 -2.561175e-09 -5.586335e-09
8.776187e-09 -5.205049e-09 -1.207408e-09 1.773974e-09 3.145693e-10 2.872471e-10
3.594141e-09 1.926110e-09 -1.231993e-09 -1.185959e-08 2.451017e-10 -1.020533e-09
1.392504e-08 -6.082749e-09 -1.474810e-09 -4.186764e-09 -2.672056e-10 4.929390e-10
4.721139e-09 -2.568815e-09 -6.834275e-10 2.431194e-09 3.013698e-10 5.048749e-10
8.754360e-09 -4.995006e-09 -1.210348e-09 5.679526e-11 1.176310e-10 1.197953e-11
-6.037039e-09 2.071281e-08 -8.688282e-09 2.907402e-09 -4.468793e-09 -7.534779e-09
3.823398e-08 2.469222e-09 -7.485457e-09 7.979802e-09 -5.611853e-10 4.339221e-09
8.290117e-09 -4.782939e-09 -1.109196e-09 2.174346e-09 1.073652e-10 9.017820e-11
3.356938e-08 2.306203e-09 -5.492349e-09 6.812089e-09 3.163161e-10 5.639847e-09
-9.010749e-09 2.159072e-08 -9.549526e-09 1.545799e-09 -6.687143e-09 1.590555e-09
1.304574e-09 1.672460e-08 -1.151712e-08 -7.596605e-10 -5.488123e-09 -3.380569e-09
-3.814890e-09 2.529916e-08 9.466075e-08 -5.982686e-08 -6.266474e-08 3.436109e-08
-2.220611e-08 2.006324e-08 -1.192902e-08 1.066126e-08 9.725488e-09 -6.064016e-09
-8.898727e-09 1.851004e-08 -6.955128e-09 2.557246e-09 -8.369182e-09 -2.437097e-09
2.300372e-08 7.242748e-09 -8.092485e-09 -2.290460e-09 -5.617273e-09 -9.534986e-10
3.347380e-08 7.582247e-08 -1.200519e-07 1.612052e-08 4.571255e-08 -3.285232e-08
1.354172e-09 4.625516e-08 -2.929174e-08 -3.430786e-08 -6.272811e-09 7.732517e-09
-5.583965e-09 2.955681e-08 -4.259103e-08 1.749269e-09 -1.434109e-08 1.711146e-08
1.578427e-08 -8.157547e-09 1.371342e-08 -2.060963e-08 3.956823e-09 -5.351727e-09
7.199784e-09 1.741660e-08 -9.476520e-09 4.865696e-09 -6.217582e-09 -5.288111e-09
2.358215e-08 -6.585089e-08 1.508166e-09 3.540126e-09 -1.409750e-08 2.476287e-09
-1.208680e-08 3.513844e-08 -3.354547e-08 -1.239129e-08 -4.432158e-09 1.736045e-08
-4.069995e-09 4.592896e-08 -5.625331e-08 -8.589374e-09 -9.449413e-09 2.276367e-08
-1.374219e-09 7.115676e-08 -6.052490e-08 -3.562994e-08 1.218082e-10 -1.104834e-09
2.449558e-08 6.038857e-09 -8.075536e-09 1.434144e-09 -3.032657e-09 1.579351e-09
-2.575156e-09 -2.420469e-08 8.041815e-09 1.878528e-09 1.502478e-10 -1.810432e-10
-2.266909e-09 -2.419903e-08 8.246192e-09 1.723733e-09 7.292302e-11 1.049598e-10
-6.725935e-09 -2.029868e-08 7.956830e-09 2.235907e-09 6.268138e-10 -1.622991e-10
-1.250612e-09 5.163550e-10 1.301312e-10 8.195727e-10 1.800870e-10 -2.346898e-11
-2.691099e-09 -2.388643e-08 7.738157e-09 4.267999e-09 -2.185802e-10 8.542332e-11
-2.092203e-09 -2.418389e-08 7.578630e-09 3.677863e-09 7.315795e-10 -2.853585e-10
-1.741803e-08 2.054827e-08 4.878569e-09 8.804328e-09 7.846506e-10 6.052124e-10
-1.717238e-08 2.485032e-08 -2.740741e-09 8.969932e-09 3.024804e-11 1.559400e-10
-1.547420e-08 1.377781e-08 -1.014317e-09 1.338131e-09 2.007681e-10 1.881594e-10
-4.872165e-09 -2.027718e-08 7.055128e-09 4.777095e-09 5.507467e-10 -4.373391e-10
-6.940071e-09 -1.893179e-08 7.050155e-09 1.790199e-09 5.763956e-10 4.256186e-10
6.144703e-09 -2.688896e-08 6.467350e-09 -1.135119e-09 -3.845199e-10 -7.972173e-10
8.178674e-09 -3.352311e-08 9.047323e-10 1.515926e-08 -2.914744e-10 -5.761113e-11
1.191424e-08 -3.829318e-08 7.354538e-09 -9.327314e-10 7.718398e-10 2.223331e-12
1.374794e-08 -3.430374e-08 -2.666456e-09 1.736200e-08 4.410237e-09 1.847121e-10
-4.050798e-09 -9.441191e-09 3.035500e-09 -5.912402e-09 -8.699419e-10 -8.547642e-10
-3.667184e-09 -2.378940e-08 8.307431e-09 7.407266e-10 2.797096e-10 -3.272996e-10
-4.466426e-09 -2.265034e-08 7.881235e-09 1.307541e-09 4.713766e-11 1.928223e-10
-9.354750e-09 3.460333e-09 1.799640e-09 -9.996201e-10 -4.616646e-10 -7.262938e-10
-3.522215e-09 3.308472e-09 2.956613e-11 -4.966834e-09 4.259037e-11 3.813196e-10
-6.819183e-09 4.473542e-09 4.471721e-10 -3.277657e-09 -1.898481e-11 -3.338023e-10
-2.160974e-09 2.720289e-09 -2.817151e-10 -6.319001e-09 6.485364e-11 1.328431e-10
-4.627368e-09 3.903678e-08 -4.492760e-08 -1.536376e-08 -5.682404e-10 9.033975e-09
-9.074276e-09 5.006900e-09 1.199426e-09 -3.350453e-10 -9.311907e-11 -4.246103e-10
-1.025710e-08 3.297478e-09 1.647064e-09 -1.032106e-09 -3.772282e-11 -1.506787e-10
-4.387146e-09 5.486958e-09 -1.950296e-09 -1.141370e-08 -1.122733e-09 6.108834e-10
-6.027808e-09 4.679210e-09 -5.044662e-10 -7.540047e-09 -4.872311e-10 -5.841925e-11
-5.967707e-09 4.527116e-09 4.801546e-10 -3.274451e-09 -4.242287e-10 -1.926694e-10
-1.799955e-08 1.901026e-08 -6.586539e-09 -7.097845e-09 -1.311522e-08 -8.852657e-09
-1.478426e-10 -2.397735e-08 1.137801e-09 -4.367169e-09 -1.082850e-09 -1.967639e-09
-6.198045e-09 2.245773e-08 -3.663022e-08 -1.284494e-08 -1.730353e-08 -8.861143e-09
-3.399125e-10 2.718852e-08 -1.723098e-08 1.143583e-08 -3.585233e-09 -2.706999e-09
2.419647e-09 4.268956e-08 -5.677003e-08 -1.462652e-08 -2.113342e-08 -1.300786e-08
-1.550390e-08 4.764864e-08 -4.857648e-08 -4.275588e-09 -1.922670e-08 -2.142381e-08
-1.326887e-08 3.412616e-08 -2.663144e-08 9.847591e-11 -7.383388e-09 -8.481877e-09
-2.154306e-09 -2.580097e-08 7.937540e-09 2.454033e-09 -7.568161e-10 -3.622946e-10
-1.277156e-08 -6.131844e-09 -6.768014e-09 -1.455810e-08 -1.102118e-08 -4.768492e-09
-2.043942e-08 2.503576e-09 1.639037e-09 -3.817613e-09 -5.343696e-09 -8.755253e-10
-2.390861e-09 -2.251347e-08 7.919164e-09 3.215498e-09 3.077639e-10 -3.068296e-11
-3.941617e-09 -2.238937e-08 8.146236e-09 9.206743e-10 2.405763e-10 9.609707e-11
-1.886699e-08 1.582162e-08 -9.018235e-09 -7.557416e-09 -5.792068e-09 -3.820679e-09
-5.309364e-09 -2.068916e-08 7.684519e-09 1.287987e-09 1.967237e-10 4.300426e-11
4.364310e-10 2.904019e-08 -2.704943e-09 -3.146454e-08 7.033806e-09 4.015894e-09
-1.630178e-08 -1.580806e-09 -3.109997e-10 -1.308572e-09 -1.523268e-09 -5.989782e-10
-1.179228e-08 -1.200105e-08 3.908795e-09 -2.404328e-09 -1.990067e-09 -1.831782e-09
-2.275933e-08 1.571628e-08 -5.443938e-09 3.543305e-09 5.036484e-09 -1.100251e-09
-3.478331e-09 -2.085530e-08 7.334459e-09 5.118060e-09 1.641978e-10 7.167740e-10
-7.933239e-09 -1.293558e-08 6.601564e-11 -5.899669e-09 -4.449324e-09 -2.813579e-09
-8.427672e-09 -2.278473e-08 4.228029e-09 1.941609e-08 6.289955e-09 -1.398137e-09
-1.571069e-08 -7.712457e-09 5.836207e-09 2.897464e-09 3.259329e-09 -2.541203e-11
7.330023e-09 -3.651542e-09 -1.141492e-09 -1.587996e-10 2.018377e-10 4.591438e-12
-4.706024e-09 4.270406e-09 8.439383e-11 -4.843053e-10 -1.753215e-10 -6.967699e-11
-1.713199e-08 2.663150e-10 1.329299e-09 -4.977915e-09 -4.853254e-09 -2.377764e-10
3.483178e-10 5.589342e-10 -4.255460e-10 -1.273132e-09 -3.816741e-10 -3.789413e-11
-4.341741e-09 3.532871e-09 1.371301e-10 -1.967894e-09 -2.518260e-10 -8.527756e-11
-1.518172e-08 -4.847216e-09 3.670249e-09 -2.096514e-09 -1.130104e-09 -5.226231e-10
2.754811e-09 -1.947580e-10 -8.585448e-10 -3.942670e-09 6.456214e-11 -1.045417e-09
-1.275538e-08 -9.280693e-09 3.078659e-09 -3.153636e-09 -1.753643e-09 -8.994750e-10
-1.214114e-08 -7.970274e-09 3.490359e-09 -6.236209e-09 -5.035635e-09 -3.771231e-10
1.485042e-08 -4.605021e-08 5.738513e-09 -1.080258e-08 -6.502227e-09 -1.952445e-09
-1.457336e-08 -8.039668e-09 1.484564e-09 -2.490072e-09 -1.281409e-09 -9.697673e-10
-1.191989e-08 -8.979734e-09 9.250063e-10 -1.298577e-09 -3.767362e-10 -9.783689e-10
1.377883e-08 -3.469072e-08 -1.240692e-08 -1.106748e-08 -1.238709e-08 -4.646515e-09
2.442601e-08 -5.815067e-08 -6.740337e-10 -2.685140e-10 -2.667133e-09 5.234636e-10
-9.241312e-09 -1.299157e-08 3.537939e-09 -6.170356e-09 -4.182946e-09 -1.472042e-09
-8.007349e-09 1.692884e-09 2.190646e-09 5.508532e-10 1.861282e-10 -4.569746e-10
-1.897627e-08 1.377257e-09 1.138913e-09 -1.401720e-09 -3.888511e-09 -3.593246e-10
-8.129492e-09 3.610594e-09 1.447638e-09 2.067240e-10 4.424605e-11 -8.684986e-11
-1.388004e-08 -6.371955e-09 3.665971e-09 -1.387535e-09 -4.460733e-10 -1.380961e-10
-6.274442e-09 -4.467105e-09 3.254153e-09 1.859307e-10 -2.799516e-11 -7.790298e-10
-1.443050e-08 -5.883166e-09 4.705236e-10 -9.231179e-09 -7.311367e-09 -2.215350e-09
-1.581534e-08 1.934410e-08 -1.536869e-08 -6.244320e-09 -5.930651e-09 -2.552232e-09
-1.670659e-08 -3.168431e-09 2.876734e-09 -5.736263e-09 -5.442532e-09 -9.461940e-10
-5.127336e-09 4.389673e-09 2.309841e-10 -5.590750e-10 -9.040591e-11 6.344147e-12
-5.793172e-09 5.166221e-09 3.764076e-10 -2.743263e-10 9.506951e-12 -1.226779e-10
-1.567572e-08 -5.122793e-09 2.515914e-09 -1.009590e-08 -6.057738e-09 -3.422259e-09
-1.034640e-08 8.339762e-09 -6.243302e-09 5.391837e-11 -2.410642e-09 2.052126e-09
3.471623e-10 -2.715330e-08 8.176632e-09 1.458745e-09 1.509318e-10 5.990891e-10
-1.177602e-08 -1.205450e-08 7.042580e-10 -2.543724e-09 -1.552516e-09 -1.069375e-09
-4.908999e-09 2.724236e-09 6.785617e-10 1.103170e-09 1.123155e-10 -7.387484e-11
-1.282160e-08 -1.109002e-08 2.826265e-09 -4.511584e-09 -3.322988e-09 -1.049385e-09
-7.099899e-09 3.780364e-09 9.512102e-10 2.903415e-10 6.741208e-11 2.785105e-12
1.723745e-08 -4.395323e-08 -4.277043e-10 -5.040004e-10 -1.745588e-09 -5.705891e-10
2.095287e-08 -5.536916e-08 1.070943e-09 -4.110674e-09 -4.671596e-09 -2.655226e-10
1.975972e-08 -3.613493e-08 -1.472916e-08 -8.236194e-09 8.146843e-10 5.342416e-10
-4.511512e-09 4.246622e-09 9.824364e-11 -3.255600e-10 -1.514249e-10 -1.127976e-11
-4.341508e-09 4.330702e-09 7.971401e-13 -6.840803e-10 -1.640396e-10 -2.667032e-10
-3.696815e-09 3.603205e-09 -2.610279e-11 -1.250101e-09 -1.794371e-10 -1.746192e-10
-2.918959e-09 2.788922e-09 -2.008934e-10 -1.141631e-09 -2.654082e-11 -7.194800e-11
2.823778e-08 -4.172831e-08 -2.427348e-08 6.828778e-09 -2.529064e-08 4.659491e-09
-5.064671e-09 -8.482235e-09 4.277759e-09 2.046683e-10 -1.280939e-11 -1.865106e-10
-3.217139e-09 3.562430e-09 -7.376544e-12 -8.541564e-10 1.377831e-11 -2.262501e-11
-4.711215e-09 4.471451e-09 1.280662e-10 -2.053442e-10 -3.541645e-11 -1.227402e-10
1.327592e-09 -2.284600e-08 5.295235e-09 -5.687523e-09 6.068810e-10 -1.284152e-09
-4.253057e-09 4.134739e-09 7.301493e-11 -2.997886e-10 -7.354117e-11 7.028122e-11
5.377278e-09 3.574349e-08 -6.241121e-08 -3.645800e-09 -2.628883e-08 1.928021e-08
-4.818096e-09 4.562001e-09 1.060112e-10 -5.170153e-10 2.376255e-11 -1.559146e-10
-2.144580e-08 2.124756e-08 -7.549056e-09 3.476504e-09 5.166235e-09 -1.292401e-09
-4.712737e-09 4.278830e-09 1.102709e-10 -9.017367e-10 -4.242318e-11 -1.345171e-10
-3.102516e-09 3.337083e-09 -1.265843e-10 -1.044713e-09 -3.477670e-10 2.246958e-11
2.588457e-08 1.096300e-08 5.900894e-09 -2.347343e-08 -3.641274e-10 3.651278e-09
-1.800334e-08 5.243928e-08 -3.477548e-08 7.909537e-09 1.104697e-08 -1.175339e-08
-1.001345e-08 -5.666577e-09 -9.127010e-09 2.171069e-08 4.581551e-09 -9.314449e-10
-3.993538e-09 4.135983e-09 4.548473e-11 -3.722092e-10 -4.468015e-11 -1.306093e-10
-4.979722e-09 4.645152e-09 1.383254e-10 -2.814460e-10 -3.241352e-11 -1.292277e-11
-3.371876e-09 4.058314e-09 -2.190603e-08 7.560263e-09 -4.621103e-09 4.536698e-09
-7.637961e-09 4.083196e-09 1.135120e-09 1.636755e-10 3.557066e-11 -1.032662e-10
-7.983888e-09 4.073793e-09 1.153703e-09 1.025948e-10 2.784406e-11 -1.675716e-10
5.416396e-09 -2.904819e-09 -1.068568e-09 -2.769627e-09 -5.139452e-12 1.766473e-10
-7.387783e-09 3.752788e-09 9.886092e-10 4.716972e-10 5.167751e-11 -3.037265e-10
-7.968899e-09 3.718020e-09 1.306360e-09 1.008109e-10 4.024514e-11 -2.225349e-11
-7.843152e-09 4.046074e-09 1.153398e-09 7.427570e-11 1.001321e-11 -5.536871e-11
1.059219e-08 -3.168077e-08 -4.988589e-09 4.159750e-09 -1.244646e-09 1.799901e-09
2.294313e-08 -5.637954e-08 -2.853633e-10 2.277720e-10 -2.562365e-09 1.048640e-09
2.294342e-08 -5.135504e-08 -4.655588e-09 5.129876e-10 -2.337921e-09 2.598536e-10
-7.986904e-09 3.894577e-09 1.234274e-09 1.945746e-10 -4.667466e-11 1.983946e-11
5.877108e-09 -2.848699e-09 -9.741825e-10 -3.542254e-09 -4.685445e-10 1.912635e-10
-7.524180e-09 3.999964e-09 1.040060e-09 9.177192e-11 5.419887e-11 -4.968381e-11
-7.691690e-09 3.888870e-09 1.230871e-09 3.873097e-10 9.322132e-11 -7.209789e-12
-7.966408e-09 3.874311e-09 1.121874e-09 7.878453e-11 -6.297829e-11 -1.868571e-10
8.803946e-09 -4.819187e-09 -1.315928e-09 -2.727611e-09 -2.831027e-10 2.864020e-10
-5.849532e-09 -4.808065e-09 3.894557e-09 2.363967e-10 6.281564e-11 -7.369796e-10
-7.617846e-09 1.822086e-09 1.727985e-09 2.977607e-10 -1.829820e-11 -1.738223e-10
-7.985789e-09 4.138030e-09 1.148805e-09 8.901812e-11 7.442824e-12 -8.323825e-11
-7.006484e-09 -2.430884e-09 3.049413e-09 -6.386725e-11 1.002796e-09 -3.200205e-10
-2.144580e-08 2.296058e-08 -7.359305e-09 3.603071e-09 4.469463e-09 -1.314287e-09
-7.791037e-09 4.050809e-09 1.211246e-09 8.838619e-11 4.861633e-11 -3.068135e-11
-1.922623e-08 2.151064e-09 -2.304285e-11 -1.143610e-08 -1.135827e-08 -3.047453e-09
-1.809412e-08 6.342546e-09 -5.495503e-09 -9.171977e-09 -9.024661e-09 -3.811246e-09
-1.892049e-08 5.133710e-09 -9.177513e-09 -1.390178e-08 -1.278349e-08 -7.570882e-09
3.958496e-08 -2.759444e-08 5.936616e-08 3.006068e-08 5.313207e-09 -5.583544e-09
-1.283254e-08 7.310680e-09 -1.485731e-08 -1.305006e-08 -1.114822e-08 -6.055950e-09
-9.166330e-09 4.497081e-08 -3.223260e-08 1.000976e-08 -2.120516e-09 -2.784636e-09
-1.805624e-08 8.750103e-09 -5.824692e-09 -8.228565e-09 -9.121271e-09 -3.516672e-09
-1.451258e-08 -2.617959e-10 6.911962e-10 -1.083477e-08 -8.524478e-09 -1.720340e-09
7.948247e-09 -3.626427e-08 8.609133e-09 9.602934e-10 3.155322e-10 1.985218e-10
1.261981e-08 -4.172950e-08 7.086019e-09 4.181762e-09 1.372326e-09 -3.208867e-10
-1.467546e-08 5.772023e-10 -5.145558e-09 -9.942533e-09 -7.997540e-09 -3.029930e-09
-1.958438e-08 1.779704e-08 -7.607698e-09 -1.770814e-09 -3.879189e-09 -1.011100e-09
3.373187e-08 -1.521972e-09 -4.787339e-09 -4.698349e-09 1.129627e-09 -1.836457e-09
-5.612736e-09 4.713681e-08 -2.211877e-08 2.332381e-08 -3.197449e-09 -1.096868e-09
-1.754035e-08 4.195762e-09 2.480257e-09 -6.113308e-09 -4.304259e-09 -1.850838e-09
2.385099e-08 4.498452e-09 -4.199014e-09 3.259601e-10 3.137177e-09 9.073236e-10
-8.726235e-09 4.987104e-09 1.140489e-09 -7.182283e-10 -6.717404e-11 -4.143748e-10
-2.271995e-09 2.803775e-08 -1.004398e-08 -1.125352e-08 5.478204e-09 -8.489885e-09
1.241608e-08 1.469718e-08 -5.394937e-09 -8.089509e-09 2.568396e-09 1.231999e-09
-7.724316e-09 4.785720e-09 7.837766e-10 -1.790915e-09 -5.985157e-11 -5.165646e-10
1.680486e-08 4.803359e-09 -2.193545e-09 -1.040168e-08 -5.189568e-12 -1.181894e-09
7.543324e-09 1.796509e-08 -5.240148e-09 -1.010152e-08 1.231088e-11 3.279240e-10
-6.677981e-09 3.600599e-09 1.008381e-09 5.481771e-10 -6.299583e-11 6.526357e-11
6.433439e-09 1.458265e-08 -6.864695e-09 -4.920606e-09 1.413094e-09 -4.527013e-09
4.200973e-08 -1.857506e-09 -2.390910e-09 -7.410315e-09 2.064685e-10 6.018294e-09
-4.449298e-09 2.366040e-09 6.058070e-10 -1.646772e-11 4.813927e-11 -2.606848e-11
1.909189e-08 -3.550441e-08 -1.977199e-08 1.124932e-08 -2.100636e-08 6.057575e-09
2.545782e-08 -3.006295e-08 -4.529039e-08 1.322047e-08 -2.494317e-08 8.270098e-09
3.399566e-08 1.189244e-09 -1.473537e-09 -1.028917e-08 -1.939451e-09 5.836414e-09
2.466777e-08 -5.135504e-08 -5.503391e-09 3.640144e-10 -2.223578e-09 1.503917e-10
4.232150e-08 -2.478646e-09 -2.332579e-09 -5.601062e-09 -1.818414e-09 5.819574e-09
9.820101e-09 -5.382660e-09 -1.289743e-09 1.559778e-09 -1.014306e-11 1.634637e-10
-1.491432e-08 1.986098e-08 -6.443604e-09 4.124591e-09 6.292894e-09 -3.689175e-09
2.859350e-08 3.379344e-09 -5.786503e-09 -6.375885e-09 7.263520e-10 6.098688e-09
8.579313e-09 -4.438606e-09 -1.203856e-09 -1.280895e-10 -9.892753e-11 6.905143e-12
2.394058e-08 4.498448e-09 -6.990138e-09 9.646144e-10 1.399579e-09 1.298396e-09
2.088250e-08 1.370139e-08 -2.740959e-09 -1.837327e-08 -4.012724e-09 5.805042e-09
2.565646e-08 1.273675e-08 -1.195878e-08 -1.211593e-08 2.155066e-09 -1.587264e-09
-1.516338e-08 2.132724e-08 -6.515227e-09 3.092128e-09 3.589286e-09 -1.728461e-09
7.692378e-08 -1.651642e-08 1.143041e-08 -1.120014e-08 -8.317159e-09 2.251870e-08
2.180406e-09 1.721917e-08 -5.354115e-08 5.753125e-09 -8.838494e-09 7.078754e-09
-1.019705e-08 2.310899e-08 -2.157992e-08 -8.584202e-09 -2.377174e-09 4.003611e-09
-1.944582e-08 2.312626e-08 -2.338559e-08 2.758778e-08 9.455510e-09 -1.010319e-08
-1.516338e-08 2.380960e-08 -8.184632e-09 3.179463e-09 4.097553e-09 -1.636761e-09
4.875763e-08 -9.594378e-09 -2.703789e-09 -7.561565e-10 2.162797e-09 4.977499e-09
8.024486e-08 -3.420985e-08 2.091759e-08 -1.022547e-09 3.287504e-09 3.096255e-08
4.363422e-08 9.982047e-09 -1.422377e-08 -1.928285e-08 -1.859953e-09 2.159546e-09
3.428522e-08 6.668406e-10 -5.939131e-09 -1.299338e-08 2.118026e-09 6.005010e-09
5.552527e-08 -8.560743e-09 -1.127190e-08 -1.476920e-08 -1.488492e-09 8.606062e-09
-6.171043e-09 3.467978e-09 7.637779e-10 4.415508e-10 2.239823e-10 -3.281192e-11
4.665802e-08 -2.145837e-09 -9.437980e-09 -8.516247e-09 1.460700e-09 2.323660e-10
1.109057e-09 -1.196067e-09 -1.773119e-10 2.085696e-09 1.934917e-10 1.255271e-10
6.469654e-08 -2.166367e-08 -1.942680e-09 -3.774326e-09 -1.032918e-11 5.369500e-09
4.042371e-08 -9.487898e-09 2.598588e-09 -1.018763e-08 -3.162604e-10 -1.939211e-09
5.259157e-08 -1.765636e-08 4.242384e-09 -1.809571e-09 2.501725e-10 3.391008e-09
4.477575e-08 -1.185686e-09 -9.480414e-09 -6.894500e-09 1.006988e-09 -1.623449e-09
8.146126e-09 9.759989e-09 -3.332524e-09 1.356454e-09 -2.595859e-09 1.283032e-08
3.016623e-08 -3.041972e-09 -5.789308e-09 -7.924192e-10 2.221461e-09 -4.379336e-09
-1.383041e-08 -6.394435e-09 1.418094e-09 1.204713e-08 3.666263e-09 -6.381229e-10
2.009427e-09 -9.360566e-10 -2.567524e-10 1.972216e-09 -5.954487e-11 -2.860959e-10
-1.794301e-08 -2.866350e-09 3.280760e-09 4.983442e-09 5.889159e-09 -4.281914e-10
-4.166722e-09 1.945854e-09 4.830365e-10 1.551865e-09 4.249041e-10 -9.716333e-11
-1.308514e-08 -9.299992e-09 4.586883e-09 2.186220e-08 6.434397e-09 -1.975921e-09
-1.166491e-08 -1.210808e-08 3.720409e-09 2.059866e-08 4.807261e-09 -3.097783e-09
-1.532386e-08 5.873664e-10 -2.476694e-09 2.124652e-08 8.213851e-09 -4.611058e-09
-2.108722e-08 4.427086e-09 3.131604e-09 1.013874e-08 4.779911e-09 -1.991136e-09
-1.049532e-08 -1.068973e-08 4.111116e-09 1.599565e-08 4.774269e-09 -1.673186e-10
-1.855080e-08 -6.418191e-10 2.146216e-09 1.576856e-08 8.669763e-09 -1.354043e-09
-7.143576e-09 -1.742904e-08 6.092059e-09 6.601780e-09 3.940480e-10 -6.972843e-10
1.451643e-09 -6.371161e-10 -2.263355e-10 2.344619e-09 2.808431e-10 -2.824710e-10
2.122732e-09 -1.183625e-09 -2.811209e-10 1.161182e-10 -1.205194e-10 2.220166e-16
-7.660121e-09 -1.839142e-08 6.887325e-09 7.673477e-09 2.102256e-09 -7.534301e-10
8.938903e-10 -4.499494e-10 -1.608740e-10 1.496071e-10 2.142591e-10 7.895962e-11
9.459278e-11 1.448948e-10 -3.679956e-11 2.482400e-09 3.071063e-10 2.411487e-10
-1.336206e-08 -1.019903e-08 4.982338e-09 1.322950e-08 6.366690e-09 -2.382388e-10
-1.204846e-08 -1.202586e-08 2.550466e-09 1.079653e-08 3.689909e-09 -2.473762e-09
-5.224594e-10 7.788081e-10 1.365354e-10 3.730885e-09 2.701898e-10 3.539149e-10
6.324718e-09 -3.644509e-09 -8.869634e-10 1.206032e-10 -1.447720e-10 -4.441241e-16
-1.142722e-08 -1.527661e-08 4.811265e-09 6.422320e-09 2.734394e-09 -6.104379e-10
-9.970220e-09 -1.135975e-08 4.469329e-09 9.311084e-09 2.309309e-09 -4.736445e-10
-1.786090e-08 -1.720371e-09 1.149139e-10 1.054477e-08 6.922609e-09 -1.722302e-09
3.237396e-09 -1.975629e-09 -4.617742e-10 1.798382e-09 1.949734e-10 8.339399e-11
4.298460e-09 -2.251679e-09 -6.403135e-10 2.113462e-09 4.671940e-10 1.590167e-10
-1.458673e-08 -1.793546e-09 -5.047607e-10 1.953321e-08 6.502145e-09 -3.572832e-09
-1.515031e-08 6.214760e-10 3.475359e-09 2.066843e-08 5.981043e-09 -3.502796e-09
-2.302797e-08 6.425196e-09 -1.190149e-09 1.778696e-08 1.343037e-08 -3.976417e-09
-4.624655e-09 3.914918e-08 -4.110318e-08 -1.540097e-08 -1.077546e-08 1.538961e-08
-7.000380e-09 -2.052050e-08 6.552266e-09 6.540267e-09 1.471066e-09 -3.284995e-10
7.664381e-09 -4.208806e-09 -1.073398e-09 -2.852109e-12 -5.990598e-11 3.280931e-12
-3.650899e-09 -2.476431e-08 8.026794e-09 4.899944e-09 3.402567e-10 -4.739521e-11
-1.951377e-09 -2.597050e-08 7.865820e-09 3.860725e-09 4.207971e-10 -2.021461e-11
-5.278380e-09 -2.307927e-08 7.942585e-09 1.898453e-09 2.943320e-10 -1.269912e-10
2.098039e-09 -1.485337e-09 -4.875944e-10 2.139724e-09 2.155402e-10 5.564282e-11
-2.745599e-09 -2.082543e-08 7.733821e-09 4.928639e-09 3.944028e-10 5.945820e-11
-4.785901e-09 -2.433446e-08 7.144563e-09 7.270378e-09 9.814944e-10 2.040871e-10
-7.653027e-09 -1.687903e-08 6.972780e-09 3.227288e-09 1.532256e-09 2.971460e-10
-5.799128e-09 -1.961236e-08 6.877367e-09 2.919726e-09 -2.941988e-10 5.989830e-11
6.302441e-09 -3.524926e-09 -9.445509e-10 2.787643e-09 3.580433e-10 1.992059e-10
-1.923986e-08 1.745120e-08 -1.133273e-08 2.022235e-08 1.129616e-08 -6.745326e-09
-2.055286e-08 1.264296e-08 -4.516518e-09 2.279401e-08 1.059146e-08 -7.133617e-09
-1.760371e-08 -6.520618e-09 -5.044798e-09 2.584305e-08 1.485947e-08 -7.339228e-09
1.188407e-08 -1.409473e-09 7.524080e-09 1.760846e-08 -1.494002e-09 -3.776910e-09
-2.690704e-08 4.498677e-09 3.476000e-09 2.910120e-08 9.163194e-09 -8.645264e-09
5.495753e-09 -3.027186e-09 -7.527613e-10 1.764827e-09 1.229966e-10 2.337700e-10
-2.290303e-08 1.315119e-08 -3.301733e-09 1.155637e-08 7.730968e-09 -3.388041e-09
-2.642870e-08 1.519155e-08 -4.234203e-09 1.817937e-08 1.593894e-08 -7.180036e-09
-1.818766e-09 1.045267e-09 1.217941e-10 2.698182e-09 2.882665e-10 -7.025936e-12
2.222785e-08 1.213980e-08 -3.537935e-09 -2.558731e-08 -4.583227e-09 1.942416e-09
-2.375816e-09 1.450033e-09 3.885097e-10 1.471217e-09 -2.478462e-11 -3.908693e-10
2.774818e-08 -8.202586e-09 -5.595275e-08 5.193653e-09 -2.815631e-08 3.350536e-09
7.846350e-10 1.254084e-08 -5.656787e-09 -7.779164e-09 4.357055e-09 -7.296475e-09
5.991589e-09 -2.834709e-09 -6.633960e-10 2.042818e-09 -6.272982e-11 1.137861e-10
3.130356e-09 -1.805895e-09 -3.780631e-10 2.180687e-10 3.072853e-11 -2.682300e-13
-6.584082e-09 3.686445e-09 8.772294e-10 1.480096e-10 1.103592e-10 5.239392e-11
9.575764e-09 1.125055e-08 -1.838006e-09 -1.255222e-08 2.629876e-09 1.703402e-10
-3.214091e-09 1.798515e-09 4.601897e-10 1.718150e-09 3.423153e-10 1.595575e-10
-2.329683e-09 1.918288e-08 -4.065476e-09 -1.671225e-08 -4.647387e-10 -5.811271e-10
-4.773926e-09 2.315626e-08 4.498723e-10 -2.149916e-08 -4.626634e-09 1.338433e-09
-1.658314e-08 2.634112e-08 -1.262839e-08 -2.121794e-10 7.094678e-09 -1.225332e-08
-2.784111e-10 3.053051e-10 2.888356e-12 1.914995e-09 4.377477e-10 6.218270e-11
-2.782700e-08 4.054080e-09 -3.601612e-09 2.780197e-08 1.811513e-08 -1.162229e-08
-2.242089e-08 6.752310e-09 -8.551072e-09 2.616992e-08 1.549711e-08 -9.886820e-09
-3.486087e-08 1.737443e-08 3.839237e-09 2.705840e-08 8.159416e-09 -1.103757e-08
-2.284819e-08 1.571056e-08 -4.373102e-10 8.819611e-09 7.046576e-09 -3.480668e-09
-1.645161e-08 2.248796e-08 -9.356285e-09 4.936246e-09 1.525576e-08 -9.677324e-09
-3.084223e-09 1.896173e-09 4.719514e-10 2.177477e-11 3.023217e-10 6.621509e-12
-1.498172e-09 1.439155e-09 3.556708e-10 2.530008e-09 3.335359e-10 -6.504286e-11
-5.398233e-10 4.033538e-10 1.006688e-10 2.952962e-10 2.270761e-10 -1.607939e-10
-1.902274e-08 7.593730e-09 -6.043461e-09 -1.904375e-08 -1.576993e-08 -1.095709e-08
-3.084222e-09 1.592092e-09 3.283602e-10 -5.642664e-11 9.256151e-11 -5.203915e-11
-5.003514e-09 2.623214e-09 7.293914e-10 1.751843e-09 3.559932e-10 -1.483586e-10
-1.795135e-08 4.201762e-09 -2.601277e-09 -6.144640e-09 -5.617905e-09 -1.260017e-09
-2.102905e-08 1.021211e-08 -2.424941e-09 -3.582116e-09 -1.088889e-08 -1.523582e-09
-2.022138e-08 1.384986e-08 -6.451044e-09 -1.546001e-08 -1.339843e-08 -7.537460e-09
-2.265042e-08 1.364705e-08 -4.655697e-09 -1.370244e-08 -1.482746e-08 -7.374484e-09
-2.072913e-08 1.466085e-08 -5.977149e-09 -6.577312e-09 -9.317920e-09 -2.864955e-09
6.005507e-10 -2.588421e-10 -1.500133e-10 3.001172e-09 3.015543e-10 1.025859e-10
3.074012e-09 -1.430352e-09 -4.566214e-10 3.204213e-09 4.902967e-10 2.403705e-11
1.586855e-09 -2.588423e-10 -1.641833e-10 3.125716e-09 5.658674e-11 2.364547e-11
-2.045710e-08 5.901833e-09 -5.972918e-09 -6.826090e-09 -1.006173e-08 -2.748935e-09
-4.127138e-09 1.940981e-09 3.998353e-10 1.362177e-09 -5.692499e-11 -3.572082e-11
-4.981473e-10 3.052791e-10 2.865486e-12 1.892130e-09 3.875654e-10 -1.098754e-11
-1.515582e-09 1.016232e-09 1.626563e-10 2.668102e-09 4.518514e-10 -3.826661e-11
-2.114143e-08 5.627082e-09 9.632919e-10 -8.363896e-09 -6.760519e-09 -3.137374e-09
-8.771019e-10 1.356989e-09 2.426364e-10 1.621004e-09 3.135559e-11 2.092188e-10
-3.480463e-09 1.876459e-09 3.938143e-10 7.528442e-10 2.980053e-10 -8.649520e-11
-1.257916e-09 7.929088e-10 1.527560e-10 -4.691523e-12 -2.304122e-10 1.907519e-11
-4.269795e-09 2.521412e-09 5.931347e-10 1.664661e-09 1.730098e-10 -1.507721e-10
-5.356897e-09 2.507026e-09 9.260739e-10 1.881980e-09 2.734835e-11 1.926225e-10
4.296419e-09 -2.400857e-09 -6.581544e-10 1.204228e-09 1.611153e-10 -2.588785e-11
4.537007e-09 -1.908873e-09 -7.359420e-10 -1.158247e-09 -1.057598e-10 1.001133e-11
-2.548360e-09 1.450392e-09 3.120637e-10 1.505950e-09 -6.024781e-11 -2.657081e-10
3.729964e-09 -1.718501e-09 -6.100764e-10 6.690230e-11 3.167635e-11 -1.273204e-12
2.611463e-09 -2.828235e-10 -7.121204e-10 -2.835598e-09 -5.646091e-10 1.510811e-10
-1.462686e-09 7.975300e-10 7.981349e-11 8.685617e-10 -2.295675e-11 1.114708e-11
1.785472e-09 -8.523422e-10 -2.796594e-10 3.170025e-09 1.704581e-10 3.356804e-11
4.112064e-09 -9.961451e-10 -8.926543e-10 -2.294429e-09 -6.453902e-11 2.356293e-10
-2.649354e-09 1.438889e-09 3.296954e-10 2.405830e-09 1.809425e-10 3.477169e-11
-1.254469e-09 1.755373e-09 -2.083227e-10 -6.373230e-10 -9.994267e-11 3.626001e-10
1.304211e-09 -1.726939e-10 -6.127547e-10 -2.764375e-09 1.754281e-10 3.986942e-10
-6.460610e-10 7.641745e-10 1.023350e-10 9.060730e-10 3.616704e-10 2.361716e-11
-4.787992e-09 2.650561e-09 5.658713e-10 5.614016e-10 2.255560e-10 -1.020403e-10
1.175788e-09 5.505725e-10 -5.425429e-10 -2.392617e-09 -1.498313e-10 8.222045e-11
1.220889e-09 -3.054844e-08 8.380895e-09 2.250145e-09 6.272229e-11 1.965428e-11
-5.762701e-09 2.925354e-09 9.143266e-10 1.509149e-09 9.503413e-11 -1.422806e-11
-4.170992e-09 2.334593e-09 4.564920e-10 1.191713e-09 2.834898e-10 -1.226130e-10
6.894612e-09 -3.524922e-08 7.926867e-09 4.881151e-09 3.985495e-11 -5.268291e-10
5.031651e-09 -3.524224e-08 7.221821e-09 8.119932e-09 3.023573e-09 -1.337898e-09
-7.094699e-09 3.761985e-09 9.268715e-10 3.832153e-10 1.176478e-10 -8.027556e-11
-5.620669e-09 3.115431e-09 7.509708e-10 1.015265e-09 3.186286e-10 -9.353823e-11
-1.579909e-08 2.679882e-08 -2.301507e-08 -7.515647e-09 -1.032742e-08 -9.320058e-09
2.199640e-09 -3.204156e-08 8.141842e-09 7.117255e-09 3.065856e-10 -1.387746e-10
1.777494e-09 -3.257225e-08 8.952309e-09 6.144025e-09 7.042254e-10 3.342468e-10
-1.677720e-08 -1.469775e-10 -4.592242e-10 -7.731083e-09 -8.223126e-09 -2.980859e-09
-1.097301e-08 4.491065e-08 -3.377425e-08 2.397776e-09 -1.158992e-08 -1.670824e-08
6.453856e-09 -3.258848e-08 7.187984e-09 6.007714e-09 2.779441e-10 -2.264522e-11
-2.203764e-08 9.143779e-09 -2.301211e-09 -3.190166e-09 -6.153884e-09 -1.153093e-09
-8.633246e-09 1.562492e-08 -1.672281e-08 -2.769487e-10 -1.355135e-09 1.294460e-09
3.481077e-09 -2.965085e-08 7.861352e-09 5.235671e-09 4.828389e-11 2.335394e-10
-7.560361e-09 4.607319e-09 2.598226e-10 -4.299250e-09 4.757039e-11 8.086587e-11
-6.877012e-09 4.670579e-09 5.605452e-10 -3.270961e-09 -2.723757e-10 -3.179292e-10
-6.167622e-09 5.144212e-09 3.241216e-10 -2.213202e-10 -4.074241e-11 -1.679507e-10
1.313861e-08 -4.192937e-08 8.449985e-09 -6.543489e-10 7.827484e-10 -5.542483e-10
-6.831189e-09 5.069131e-09 6.018070e-10 -1.907554e-09 -3.025665e-10 -7.009792e-10
-5.854198e-09 4.580483e-09 3.116809e-10 -2.724660e-09 -1.511884e-10 -6.961431e-10
1.430543e-08 -4.159685e-08 6.651319e-09 3.913809e-09 1.057601e-09 -2.565166e-10
-6.033229e-09 3.016122e-09 8.100782e-10 9.055310e-10 2.027363e-10 -1.624357e-10
-5.362711e-09 4.219914e-09 2.456644e-10 -2.038321e-09 -2.460428e-10 -4.308534e-10
-5.767193e-09 4.858506e-09 4.715699e-10 -1.511760e-09 -4.059270e-11 -1.327555e-10
-6.337014e-09 3.191888e-09 7.908063e-10 -1.038551e-10 -5.271317e-11 -7.014789e-11
-5.567820e-09 3.180914e-09 6.900294e-10 -2.273870e-11 2.770755e-10 -4.777806e-11
-4.683408e-09 2.626586e-09 6.656609e-10 1.042777e-09 7.620621e-11 -8.530671e-11
-3.214313e-09 1.455177e-09 2.628000e-10 1.650946e-09 8.190904e-11 1.073514e-10
-3.290963e-09 1.876475e-09 5.345719e-10 7.465197e-10 3.030349e-10 -2.503941e-10
-6.584253e-09 4.459976e-09 4.605454e-10 -2.022336e-09 -9.256006e-11 -2.654428e-10
-6.430554e-09 4.961217e-09 4.887810e-10 -1.145452e-09 -9.438539e-11 -4.715428e-10
9.666071e-10 -1.319714e-08 -1.238998e-08 1.051992e-08 -5.077299e-09 2.950571e-09
-6.072944e-09 -6.175633e-09 2.218650e-09 3.446935e-09 -3.616891e-09 1.069011e-09
9.404252e-09 -5.064073e-09 -1.370070e-09 -1.809647e-09 -1.668130e-10 -5.960710e-11
8.579318e-09 -5.007449e-09 -1.230155e-09 -1.043349e-10 -1.096244e-10 1.643718e-11
-6.020554e-09 4.846872e-09 3.016689e-10 -1.390570e-09 -1.979651e-10 -3.331746e-10
7.975647e-10 9.709100e-10 -3.369369e-10 -1.852137e-09 -2.792947e-10 -4.969816e-10
-1.981188e-09 2.601683e-09 -1.824967e-10 -1.237160e-09 -3.159545e-10 4.423728e-11
1.193296e-08 -3.882595e-08 7.417019e-09 1.215846e-10 -4.106685e-10 -1.352704e-10
-7.813442e-09 -1.371286e-09 2.550740e-09 -1.383670e-09 2.470779e-11 -3.104925e-10
-1.424121e-09 2.677253e-09 -2.656340e-10 -1.475172e-09 -2.490296e-10 -3.321401e-10
-7.489724e-10 9.871983e-10 -2.507807e-10 -2.469740e-09 -3.293249e-10 1.017878e-10
3.850087e-09 -2.359446e-08 6.263376e-09 -2.435995e-10 7.960732e-11 -1.309744e-09
6.197017e-08 -3.600426e-08 1.161663e-08 2.928273e-09 -2.704125e-09 8.294983e-10
1.771321e-09 5.467258e-10 -5.677101e-10 -2.206377e-09 -6.174170e-11 1.932529e-10
-9.526429e-10 1.832830e-09 -2.493650e-10 -2.040992e-09 -6.393602e-11 1.176956e-11
8.046340e-09 2.766869e-08 5.036946e-09 -3.075186e-08 -4.216897e-09 4.306394e-09
6.686621e-09 -3.074798e-08 -9.169843e-11 -1.238693e-08 -8.240100e-09 -2.022620e-09
9.162098e-09 -3.142103e-08 -3.581931e-09 -6.289673e-09 -7.596837e-09 -1.019562e-09
1.483371e-08 -5.532872e-08 1.041677e-09 -1.261225e-08 -1.337649e-08 -3.658169e-09
3.412120e-09 -3.150526e-08 8.587577e-09 9.072589e-10 1.765180e-10 2.431285e-10
1.027510e-08 -5.214148e-08 6.569246e-09 -1.918456e-08 -1.583707e-08 -1.487491e-09
7.154585e-09 -3.309217e-08 -8.563270e-10 -1.380419e-08 -9.581284e-09 -2.893338e-09
9.309397e-09 -2.962662e-08 -4.259096e-09 -1.596402e-08 -1.258592e-08 -5.005747e-09
-1.496290e-08 1.821355e-08 -8.613461e-09 -9.159507e-09 -1.355083e-08 -1.109838e-08
-1.767048e-08 1.605925e-08 -1.313912e-08 -2.068971e-08 -2.621396e-08 -1.522216e-08
-2.530681e-08 1.000578e-08 -6.707877e-09 -2.849400e-08 -2.212289e-08 -1.620119e-08
-1.611950e-08 2.042321e-08 -4.763216e-09 -3.050333e-09 -9.943348e-09 -6.958187e-09
-2.234001e-08 1.398006e-08 -6.523778e-09 -1.501371e-08 -1.434258e-08 -5.749396e-09
2.691716e-09 1.672402e-08 -1.063634e-08 -2.608651e-10 -3.552922e-09 -5.781733e-10
-7.304379e-11 2.762425e-08 1.048986e-09 3.011328e-08 4.490413e-09 -3.368212e-09
-2.056869e-08 1.927828e-08 -9.084858e-09 -1.058972e-08 -1.643591e-08 -1.138772e-08
-8.872708e-09 -4.084830e-09 1.957779e-09 -5.434905e-10 -2.811291e-10 -3.381271e-10
1.793466e-09 -3.077975e-08 -4.672471e-10 -1.178737e-08 -8.019856e-09 -3.460009e-09
-2.838261e-09 3.538403e-09 -7.513634e-11 -8.982308e-10 6.993028e-11 2.511986e-10
7.348220e-10 -2.682994e-08 -1.188777e-09 -5.701787e-09 -3.062507e-09 -1.004069e-09
-7.574195e-09 -1.158160e-08 -2.857697e-09 -1.096747e-08 -7.602053e-09 -2.146820e-09
-8.610382e-09 -9.024014e-09 2.844424e-09 -7.861031e-09 -3.044326e-09 -1.655036e-09
4.718013e-08 8.943606e-09 -8.803402e-09 -2.030696e-08 -3.570007e-09 6.598779e-09
-7.011988e-09 4.469525e-09 -1.966695e-08 6.865863e-09 -6.709265e-09 5.958048e-09
-2.053379e-09 -2.280627e-08 4.078215e-09 -5.327728e-09 -4.422503e-09 -8.207412e-10
8.727708e-09 -4.995012e-09 -1.210780e-09 1.723759e-11 -4.174077e-11 9.392486e-14
1.938530e-09 -4.702491e-10 -2.585336e-10 3.880922e-09 -1.619551e-10 -1.195459e-10
-9.235475e-10 -1.913193e-08 -2.283563e-10 -1.246206e-09 -1.904090e-09 -7.571488e-10
2.172712e-09 -1.701681e-08 -7.274492e-09 -1.489536e-08 -9.680914e-09 -4.110759e-09
2.364981e-09 -2.212067e-08 5.865336e-09 -2.126027e-09 -2.792398e-10 -1.429793e-10
-3.371743e-09 -1.715911e-08 -4.153702e-09 -1.016643e-08 -6.995769e-09 -2.973977e-09
1.001263e-08 -3.782919e-08 7.601715e-10 7.593141e-10 -1.592567e-09 2.859055e-10
1.235740e-10 -2.267333e-08 -2.830983e-09 -7.427944e-09 -5.080095e-09 -2.032116e-09
-6.177672e-09 -1.083432e-08 -1.735178e-09 -7.058681e-09 -2.657603e-09 -2.214862e-09
1.710529e-08 -4.857939e-08 5.627305e-10 4.382511e-10 -2.254547e-09 1.114434e-09
-1.255974e-08 4.498483e-08 -3.728858e-08 6.352960e-09 -1.517564e-08 -1.405460e-08
-9.840807e-09 4.273813e-09 1.614998e-09 -7.272716e-10 -9.311418e-11 -5.476650e-10
-8.546694e-09 -1.879071e-08 5.146145e-09 -1.458929e-08 -8.221209e-09 -2.334714e-09
7.890411e-09 -3.699071e-08 6.403768e-09 8.808774e-09 1.247496e-09 -3.513689e-10
-9.051874e-09 -1.255131e-08 1.033377e-09 -9.442356e-09 -7.327712e-09 -2.916029e-09
9.190394e-09 -3.884606e-08 -7.822143e-11 -4.284562e-09 -4.364297e-09 -1.420632e-09
-5.065548e-09 -2.042966e-08 3.961575e-09 -6.508861e-09 -2.550455e-09 6.420357e-10
-8.168783e-09 4.441209e-09 9.544487e-10 -3.103352e-09 -4.151344e-10 -1.988065e-10
-9.030891e-09 4.453401e-09 8.706293e-10 -3.219623e-09 -4.045444e-10 -7.279815e-10
1.233941e-08 -3.962264e-08 7.853672e-09 1.664086e-10 1.560272e-10 -8.503950e-11
1.221880e-08 -3.974220e-08 8.074461e-09 3.100245e-10 1.277993e-10 8.519852e-12
1.776447e-09 -4.699294e-10 -2.451030e-10 3.917358e-09 -1.809128e-10 -9.097834e-11
-7.169224e-09 4.771343e-09 -1.460521e-11 -5.428734e-09 -2.765703e-10 -1.612792e-10
-7.295354e-09 5.096191e-09 7.327563e-10 -1.275656e-09 -1.242858e-10 -3.439777e-10
-8.179699e-09 5.037149e-09 2.598215e-10 -4.505924e-09 -7.048406e-11 -1.502524e-11
8.702170e-08 -3.591163e-09 -8.044160e-09 9.332338e-09 1.772246e-10 3.017837e-08
-9.119680e-09 4.701750e-09 1.070641e-09 -2.509220e-09 -7.511069e-11 -4.499402e-10
5.764827e-09 -3.042189e-09 -8.237087e-10 2.047440e-11 -2.299488e-11 -2.070788e-12
6.517011e-09 -3.915608e-09 -9.742083e-10 9.100916e-10 1.336040e-10 -5.095906e-10
-3.880283e-10 4.499956e-10 7.981305e-11 1.696880e-09 5.716871e-11 -4.171514e-10
-6.877014e-09 4.655043e-09 7.948469e-10 -3.254255e-09 -3.158064e-10 -1.912974e-10
-8.872212e-09 4.617400e-09 1.012813e-09 -2.132456e-09 -3.587818e-10 7.922640e-11
-2.697494e-09 2.798284e-09 -6.605938e-11 -1.354382e-09 -5.274670e-12 5.374856e-11
6.368122e-09 -2.837891e-08 1.432148e-09 7.064312e-11 -1.303123e-09 -3.265605e-10
-7.952853e-09 4.828363e-09 1.242462e-09 -1.273430e-09 -1.686691e-10 -2.674388e-10
-3.952909e-09 4.191394e-09 -1.504286e-11 -4.493568e-10 -7.584061e-11 -1.501976e-11
5.674148e-08 -2.146336e-08 -2.115691e-09 -3.081675e-11 6.415640e-11 2.806974e-09
-3.057686e-09 3.296647e-09 4.529044e-12 -8.621988e-10 -2.369958e-10 1.368776e-10
9.267602e-09 -5.406436e-09 -1.212617e-09 -3.956141e-11 -2.679541e-11 3.404849e-11
8.939639e-09 -5.291929e-09 -1.156842e-09 2.625514e-10 1.308471e-11 3.229417e-11
-3.035238e-09 3.136075e-09 -4.713452e-11 -1.868976e-09 -9.984696e-11 -1.143891e-10
-2.056040e-09 3.058192e-09 -1.000497e-10 -6.367151e-10 -2.239120e-10 -6.356315e-11
-1.380890e-09 2.610469e-09 -2.572522e-10 -1.394732e-09 -1.298738e-10 -2.996985e-10
-2.917057e-09 -1.669803e-08 4.341088e-09 -7.485231e-09 7.086794e-10 -8.202632e-10
-3.119088e-09 2.710880e-09 -1.880680e-10 -2.058069e-09 -3.536166e-10 -2.288512e-10
-2.731517e-09 -1.034321e-08 4.588287e-09 -1.755737e-09 3.754576e-10 -1.176418e-09
9.544535e-09 -3.885562e-08 6.954088e-09 8.064073e-09 3.261832e-09 -7.366863e-10
6.599080e-09 -3.349172e-08 8.060676e-09 2.101068e-09 -2.992532e-11 8.098999e-11
1.014580e-08 -3.851322e-08 7.782055e-09 4.019658e-09 4.018628e-10 -5.580253e-10
9.420789e-09 -4.367749e-09 -1.229343e-09 -2.852744e-09 -3.398982e-10 3.703033e-10
8.544494e-09 -3.854584e-08 9.159985e-09 6.520517e-09 8.158091e-10 6.711770e-10
8.902914e-09 -3.646582e-08 7.704601e-09 6.513274e-09 8.188684e-10 -8.480541e-10
4.219146e-09 4.501864e-09 -2.254376e-09 -1.760718e-08 -3.679244e-10 1.623587e-09
-9.881576e-09 4.074636e-09 1.168093e-09 -2.469742e-09 1.567103e-11 -4.756639e-10
6.821321e-09 -3.601380e-08 8.466108e-09 6.179673e-09 4.175327e-10 7.570528e-11
6.687547e-08 -1.856514e-08 -4.254314e-09 5.114746e-10 8.520710e-10 3.469394e-09
6.680717e-08 -2.260632e-08 -1.921779e-09 -8.551160e-09 -9.135287e-10 1.510752e-08
6.687547e-08 -2.644040e-08 -2.246431e-09 1.305458e-09 -2.960842e-11 3.147637e-09
-5.965627e-09 4.533943e-09 4.896836e-10 -2.952413e-09 -4.360873e-10 -1.162227e-09
1.162437e-08 1.040626e-08 -8.464424e-09 5.707334e-09 -3.339828e-09 -1.366907e-09
6.298301e-08 -2.246631e-08 9.416459e-10 -8.512413e-09 5.852222e-11 1.151666e-08
-7.286926e-09 5.287001e-09 6.876872e-10 -4.984410e-10 -7.497825e-11 -5.703725e-10
-2.891729e-10 -1.524056e-08 5.633616e-10 -1.510718e-08 3.047271e-09 9.732368e-11
-7.968898e-09 4.851813e-09 9.399856e-10 -1.949357e-09 -3.173658e-10 -9.092076e-10
-6.947542e-09 4.591160e-09 9.101722e-10 -3.019314e-09 -4.370674e-10 -1.105787e-10
-7.195186e-09 4.639174e-09 6.591223e-10 -2.684044e-09 -2.991398e-10 -6.833349e-10
-6.579966e-09 4.703899e-09 5.566543e-10 -2.689882e-09 -1.731395e-10 -3.867168e-10
-2.329206e-09 -1.377134e-08 5.186636e-09 -1.399001e-09 -9.560249e-10 -2.042630e-10
2.444821e-08 -5.483522e-08 -4.364855e-09 -1.854281e-08 -2.838545e-08 -5.536130e-09
1.527964e-08 -4.185776e-08 3.370388e-09 8.336975e-09 2.269298e-09 -1.042391e-09
-9.265685e-09 4.380869e-09 1.355639e-09 -5.621161e-10 -4.542444e-11 -4.885361e-10
-1.034506e-08 6.506517e-09 -2.915631e-09 -4.703761e-09 -8.633457e-10 2.659442e-10
1.787944e-08 -4.886479e-08 -6.635732e-10 -2.735462e-09 -3.526995e-09 -5.557484e-10
-3.605272e-09 -1.107215e-08 9.577601e-10 -2.668045e-10 -5.932943e-10 -2.047868e-10
2.299943e-08 -6.600825e-08 7.576488e-10 -8.135574e-09 -1.561540e-08 -1.850104e-09
2.235702e-09 -1.995630e-08 4.375537e-09 -8.504886e-09 2.334211e-10 -1.678448e-10
2.446436e-08 -5.296161e-08 -1.180241e-08 -1.809723e-08 -2.581590e-08 -3.932774e-09
1.443578e-08 -3.876657e-08 4.838899e-09 -4.088951e-09 1.211869e-09 -1.248917e-10
1.814757e-08 -5.709302e-08 -1.395833e-09 -2.555764e-08 -2.575877e-08 -7.036917e-09
1.479436e-08 -4.927829e-08 -6.356810e-10 -1.508403e-08 -1.296652e-08 -2.488139e-09
5.829286e-09 -2.945352e-08 6.289721e-09 3.532885e-11 2.175378e-10 -7.582299e-10
8.564221e-09 -3.433328e-08 7.062350e-09 -1.139289e-10 1.334379e-10 -7.844162e-10
2.105028e-08 -4.569843e-08 -6.574671e-09 -1.342325e-08 -1.729296e-08 -3.984767e-09
-8.589136e-09 2.968019e-09 1.684457e-09 3.314989e-10 1.777526e-10 -3.450418e-10
7.519450e-09 -4.782887e-09 -1.137357e-09 2.230856e-09 2.971085e-10 -1.240315e-10
7.664381e-09 -4.663021e-09 -1.128614e-09 5.624434e-11 1.287198e-10 -7.928547e-12
-8.090742e-09 2.999338e-09 1.574891e-09 2.044584e-10 1.042296e-10 -1.159063e-10
-8.102659e-09 1.878469e-09 1.809206e-09 3.086630e-10 1.688105e-11 -5.487406e-10
-7.358954e-09 2.694482e-09 1.404544e-09 8.229952e-10 1.876850e-10 -3.023926e-10
6.826339e-09 -4.138301e-09 -9.271897e-10 5.637868e-11 2.557811e-10 -4.996781e-12
-8.191967e-09 3.270186e-09 1.464434e-09 4.981488e-10 1.226159e-10 -3.124871e-10
-7.841245e-09 2.824690e-09 1.660492e-09 7.801097e-10 -1.307787e-12 -2.371447e-10
5.312308e-09 -2.536672e-09 -8.529009e-10 -1.907699e-09 -5.485525e-10 1.798410e-10
5.454210e-09 -3.042179e-09 -7.776697e-10 8.178269e-11 6.557216e-11 -2.104521e-10
5.764825e-09 -3.601450e-09 -9.347376e-10 6.212508e-11 2.428396e-10 -1.497380e-11
6.259195e-08 -1.856508e-08 -7.475798e-10 -2.348575e-10 -3.513967e-11 2.399087e-09
5.622614e-08 -2.826065e-08 3.564693e-08 -1.729364e-08 5.852462e-10 2.662667e-09
1.142896e-08 -3.974219e-08 8.184121e-09 4.891282e-10 1.673223e-10 1.698291e-10
1.315245e-08 -3.686384e-08 -2.408106e-09 -1.454400e-08 5.958225e-09 4.230033e-10
1.319405e-08 -4.216272e-08 5.797854e-09 5.423660e-09 1.374283e-09 -8.511569e-11
4.639091e-09 -3.402025e-08 8.802114e-09 7.278765e-09 3.493660e-10 1.078552e-09
7.395046e-09 -3.442834e-09 -1.034300e-09 -2.471365e-09 -4.660667e-10 3.028336e-10
1.107960e-08 -3.806007e-08 7.438577e-09 -8.570166e-12 2.151830e-10 -6.676573e-10
7.869334e-09 -4.322114e-09 -1.133687e-09 -5.487634e-10 4.380216e-11 2.884093e-11
7.425516e-09 -3.106433e-09 -1.071397e-09 -2.463218e-09 -1.440376e-10 5.524026e-11
-3.703854e-09 1.306116e-08 -6.178310e-09 -1.806907e-08 -1.120829e-09 3.430223e-09
-4.375927e-09 6.160071e-09 -1.981901e-09 -1.028382e-08 -9.461760e-10 1.290537e-09
6.138817e-09 -3.294346e-09 -9.742229e-10 -1.628640e-09 -2.182215e-10 5.183803e-10
6.073657e-09 -2.536541e-09 -1.049256e-09 -2.408261e-09 -2.892650e-10 1.721159e-10
-1.041049e-08 1.829457e-09 5.268843e-10 -5.691596e-10 -1.483637e-09 2.517719e-10
8.232373e-09 -4.097831e-09 -1.232571e-09 -2.119181e-09 -3.560822e-10 -2.757239e-11
-7.591140e-09 -5.044442e-09 -7.403047e-10 3.336189e-09 -2.286533e-09 8.127114e-10
6.834375e-09 -4.012009e-09 -9.784336e-10 -1.575847e-09 -2.352097e-10 -2.101197e-10
-1.395087e-08 5.000560e-09 -5.090866e-10 -6.247770e-09 6.837950e-11 -2.990062e-10
-9.816276e-09 1.242438e-08 6.540963e-10 6.217085e-09 -1.013858e-09 -9.310874e-10
-9.912397e-09 8.458271e-09 1.973032e-09 7.617210e-09 -3.327019e-11 -8.256685e-10
-8.206463e-09 2.507274e-09 1.806670e-09 -4.890300e-11 1.531841e-10 -2.280654e-10
-1.600911e-08 1.658271e-08 -1.882540e-09 -2.601447e-09 4.232497e-10 5.002499e-10
-7.587918e-09 2.995552e-09 1.464269e-09 4.509286e-10 1.300005e-11 -5.452972e-11
-8.143034e-09 3.072853e-09 1.652541e-09 -5.338288e-12 2.931272e-11 1.060363e-11
-7.866637e-09 3.615146e-09 1.322160e-09 4.825509e-10 4.416234e-11 -1.382989e-10
-8.078520e-09 3.574134e-09 1.444034e-09 3.361054e-10 7.065648e-11 -2.516127e-10
8.564169e-09 -3.401524e-08 7.071236e-09 1.078300e-10 1.307880e-10 -3.053361e-10
-8.106016e-09 3.618458e-09 1.409123e-09 1.462013e-10 9.811835e-11 -2.158556e-10
1.082767e-08 -3.750207e-08 6.578917e-09 -1.319304e-09 1.117303e-09 -5.489998e-10
-9.904397e-10 2.216879e-09 -2.757670e-10 -2.528642e-09 -1.538728e-10 -5.061973e-11
-7.913389e-09 4.087449e-09 1.152634e-09 7.155165e-11 4.627282e-11 -2.107942e-10
-8.125508e-09 3.492120e-09 1.433832e-09 2.738374e-10 -4.081313e-11 5.887955e-12
-7.415254e-09 4.993293e-09 7.573639e-10 -1.552082e-09 3.208542e-13 8.077805e-11
-7.126487e-09 2.006525e-09 1.513194e-09 1.335923e-09 -6.817313e-11 1.198193e-10
-8.145451e-09 3.708384e-09 1.288297e-09 1.390930e-09 2.476093e-10 -7.447576e-11
-7.081247e-09 2.822310e-09 1.513194e-09 2.153131e-09 6.623591e-11 1.235935e-10
-9.386899e-09 2.524025e-09 1.520044e-09 -2.762056e-09 8.629637e-10 -1.562240e-11
-8.348104e-09 3.232422e-09 1.565915e-09 4.386228e-11 3.577378e-10 8.801605e-11
-8.510544e-09 -8.721690e-10 2.331062e-09 -2.580035e-09 -1.451516e-10 2.023505e-10
-1.627074e-08 1.535397e-08 -1.014316e-09 1.900086e-09 -1.350492e-10 3.354997e-10
-1.152807e-08 7.556389e-09 -3.769898e-10 -5.856392e-09 -4.224718e-10 -6.509729e-11
-1.469264e-08 1.536857e-08 8.583632e-10 4.038266e-09 -2.858692e-10 -6.005970e-10
1.478544e-08 -4.199517e-08 2.607919e-09 6.907322e-09 -9.450751e-10 1.449342e-10
-7.626114e-09 3.201459e-09 1.368416e-09 5.244836e-10 5.791390e-11 -1.930969e-10
-8.058105e-09 3.703366e-09 1.314759e-09 2.576126e-10 4.773770e-11 -1.414757e-10
1.963356e-09 -1.014964e-09 -3.049260e-10 2.022629e-09 4.871884e-10 6.937595e-11
-7.557612e-09 3.459915e-09 1.321160e-09 5.405559e-10 2.147560e-11 -4.364243e-11
1.860734e-08 -9.882005e-09 3.440637e-09 4.290484e-09 1.198841e-10 -1.368385e-09
-7.876147e-09 3.065484e-09 1.450863e-09 5.330647e-10 2.508949e-11 -1.025062e-10
1.502912e-08 -1.034765e-08 1.719138e-08 9.591563e-09 -8.885425e-10 -5.329620e-09
2.473114e-08 -1.289648e-08 1.306335e-08 2.345930e-09 3.086745e-10 -2.777464e-09
-8.194503e-09 3.478256e-09 1.425313e-09 4.674924e-12 8.732903e-12 -2.430047e-10
1.352215e-08 -4.795661e-09 8.972396e-10 9.256165e-09 3.312603e-10 -9.496528e-10
1.670059e-08 -5.886123e-09 3.050968e-09 1.047243e-08 1.226594e-10 -2.513899e-09
6.503572e-09 -2.230108e-09 -6.049028e-11 8.181108e-09 -1.577125e-10 -5.223293e-10
-8.146065e-09 3.672348e-09 1.367336e-09 2.531544e-10 -2.837386e-11 -2.379643e-10
1.127768e-08 -6.081288e-09 -1.442426e-09 -3.823764e-09 -2.017736e-10 3.474565e-10
1.825194e-08 -7.351077e-09 -2.274736e-10 -6.510519e-09 -2.240916e-10 -4.450300e-10
9.080341e-09 -5.486021e-09 -1.183380e-09 -2.011833e-10 -5.419953e-11 5.792761e-11
9.579376e-09 -5.509505e-09 -1.204642e-09 -9.383882e-11 -2.356633e-11 8.818080e-11
1.053411e-08 -5.544697e-09 -1.364718e-09 -6.265177e-10 -7.074261e-11 2.826122e-10
9.358631e-09 -5.359985e-09 -1.370228e-09 -5.489902e-10 -7.158507e-11 -1.939677e-10
9.172208e-09 -5.136506e-09 -1.185971e-09 -5.153717e-10 -9.136566e-11 8.749823e-11
4.310479e-08 -1.352972e-08 -9.238771e-08 1.803541e-08 4.686942e-08 -4.253896e-09
6.053296e-08 -2.724786e-08 1.127894e-08 -9.148803e-09 6.102857e-10 -1.610004e-09
2.423722e-08 1.664602e-08 -9.200013e-08 3.652864e-08 4.102792e-08 -1.912400e-08
5.908444e-09 5.964258e-08 -6.176324e-08 -7.664716e-09 -1.266019e-08 2.551580e-08
5.690199e-09 5.912847e-08 -5.064003e-08 -2.610560e-08 6.118717e-09 7.859742e-09
-2.327393e-09 1.363679e-09 3.757656e-10 1.689439e-09 4.248948e-10 -2.009254e-11
-2.709548e-10 -2.648933e-08 8.399919e-09 5.269503e-10 -2.373494e-10 3.378947e-10
1.761953e-09 -3.150526e-08 8.797289e-09 4.609712e-10 2.646732e-10 -1.247243e-10
9.041129e-09 -4.935871e-09 -1.280084e-09 -8.327476e-10 -6.634857e-11 2.169648e-10
4.679284e-09 -3.150527e-08 8.468080e-09 5.650446e-10 1.274305e-10 -8.254496e-11
-1.939206e-09 -2.457307e-08 8.270892e-09 1.758105e-09 -8.847132e-11 8.755196e-11
-2.711685e-09 -2.527124e-08 8.141897e-09 4.565713e-09 -7.041472e-10 3.476792e-10
-2.317071e-08 1.035630e-08 -2.609746e-09 -1.501246e-08 -1.285673e-08 -6.652706e-09
-2.010860e-08 4.895627e-09 1.160436e-09 -2.938323e-09 -6.153834e-09 -8.267691e-10
1.025578e-08 -5.992618e-09 -1.345191e-09 2.143007e-10 7.621637e-11 1.820993e-10
-1.629306e-08 -3.598871e-09 3.034146e-09 -2.314139e-09 -2.255983e-09 -4.063463e-13
-3.783804e-09 8.499702e-08 -1.053216e-07 1.320121e-08 3.865835e-08 -3.707856e-08
9.580549e-09 -5.519412e-09 -1.315737e-09 -1.367135e-10 5.411782e-12 9.149648e-11
-5.638976e-09 5.129031e-09 2.311800e-10 -2.979164e-10 -6.636158e-11 -1.306300e-10
-6.405074e-09 5.220420e-09 3.974057e-10 -3.177435e-10 4.217848e-11 -1.948214e-10
9.196570e-09 -5.547942e-09 -1.153589e-09 -4.671864e-10 -1.010437e-10 5.735029e-11
-7.179747e-09 5.220421e-09 6.494281e-10 -3.053355e-10 -6.294676e-11 -2.675158e-10
1.480219e-08 -4.113596e-08 4.745483e-09 6.036093e-09 5.683858e-10 -7.130216e-10
1.013892e-08 -5.579170e-09 -1.341456e-09 2.313095e-10 1.373601e-11 1.987142e-10
9.389004e-09 -5.579630e-09 -1.166464e-09 1.947827e-10 2.705314e-11 1.528475e-10
-7.454347e-09 4.036863e-09 9.659935e-10 1.007911e-10 7.232676e-11 7.352186e-11
-6.337014e-09 3.642826e-09 8.897567e-10 -4.243703e-12 -1.498473e-11 -4.334599e-11
1.036204e-08 -5.690415e-09 -1.413206e-09 -2.808576e-10 3.997710e-11 -2.945644e-11
9.489643e-09 -5.548716e-09 -1.370372e-09 -5.357826e-10 -3.454378e-11 3.254041e-11
-6.337017e-09 3.502413e-09 8.283436e-10 5.580585e-12 7.791143e-11 -5.002598e-11
-6.656236e-09 3.670958e-09 9.807923e-10 3.672808e-10 -1.230817e-11 -1.079303e-12
-7.424410e-09 4.514583e-09 7.339214e-10 -2.962351e-09 -4.945184e-10 -1.254530e-09
-6.657022e-09 5.208846e-09 4.245542e-10 -3.965286e-10 -8.761802e-11 -2.884373e-10
-8.113212e-09 5.071506e-09 9.470269e-10 -3.851281e-10 -1.228869e-10 -8.999733e-10
-9.074280e-09 4.987104e-09 1.329358e-09 -7.489604e-10 -9.318168e-11 -4.500411e-10
-9.006028e-09 4.171056e-09 1.269879e-09 -1.698813e-09 -3.442149e-10 -1.146568e-09
-8.001612e-09 4.729936e-09 1.208495e-09 -3.152749e-09 -6.889043e-10 -2.666622e-10
-7.978447e-09 4.694494e-09 9.144439e-10 -2.927248e-09 -2.716960e-10 -9.796749e-10
-5.660617e-09 2.771754e-09 7.545160e-10 1.011198e-09 6.230404e-11 -2.082562e-11
-4.449300e-09 2.684683e-09 6.720082e-10 -2.086598e-11 2.011902e-10 -2.751310e-11
1.721952e-08 -4.205868e-08 2.348842e-09 3.695876e-09 4.359983e-10 1.428701e-10
-6.443525e-09 3.476421e-09 8.779248e-10 3.818656e-10 2.622409e-10 -1.004711e-10
1.319410e-08 -4.165366e-08 7.117634e-09 5.447440e-09 2.696972e-09 2.410805e-11
1.244969e-08 -3.994528e-08 7.547362e-09 2.232049e-09 6.390351e-10 -5.853310e-10
1.013452e-08 -3.821731e-08 8.485092e-09 3.335624e-09 -1.094911e-10 8.771424e-11
1.159358e-08 -4.184479e-08 8.923445e-09 4.781826e-09 7.711511e-10 3.577341e-10
9.640665e-09 -3.648543e-08 7.922666e-09 1.648636e-09 5.837310e-11 -1.253933e-10
2.527116e-09 -2.948935e-08 8.275727e-09 1.486628e-09 -3.015789e-10 2.790534e-10
6.577952e-09 -3.499816e-08 8.433092e-09 9.810086e-10 4.349121e-11 -2.007912e-10
1.186331e-08 -4.030406e-08 7.264803e-09 4.811336e-09 1.332405e-09 -7.503989e-10
6.577899e-09 -3.499815e-08 8.348833e-09 7.622827e-10 5.835221e-11 4.192871e-10
1.019130e-08 -3.972582e-08 8.012645e-09 5.010085e-09 3.518719e-10 -7.133258e-11
2.043294e-09 -2.901833e-08 7.971662e-09 6.736523e-09 2.652201e-10 5.320676e-11
-7.542672e-09 -9.080676e-09 2.457270e-10 3.863517e-09 -2.107490e-09 1.208715e-09
-2.122687e-09 1.156844e-09 2.939893e-10 2.020534e-09 2.883069e-10 2.551765e-10
-2.501766e-09 4.141715e-09 -7.620424e-10 -8.650707e-09 -5.213230e-11 1.018750e-10
-1.452040e-08 8.810072e-08 -4.558162e-08 1.288022e-08 -9.653383e-09 -4.447938e-09
-1.765625e-08 6.181656e-08 -3.373349e-08 1.563890e-08 -1.835420e-10 -8.537297e-09
-2.715456e-09 1.933913e-09 3.998999e-10 2.223476e-09 3.683531e-10 -4.424283e-11
-2.723391e-09 1.734626e-09 3.017882e-10 1.300403e-09 1.825776e-10 2.849914e-10
2.357995e-08 -4.014316e-08 -1.165872e-08 6.796236e-09 2.250368e-09 -2.861318e-10
-4.968248e-09 -7.698252e-09 3.861410e-09 1.811291e-10 -1.462253e-11 -9.937808e-10
2.543365e-08 -4.422115e-08 -1.069459e-08 5.999388e-09 8.344673e-09 -2.224064e-09
-1.776839e-08 8.731809e-08 -5.564114e-08 -1.166287e-09 5.330887e-09 2.317843e-08
1.261837e-09 -3.180733e-10 -1.996625e-11 1.493833e-09 3.219553e-10 2.132545e-10
-3.972842e-09 2.064526e-09 4.757150e-10 1.377078e-09 1.845709e-10 7.960688e-11
-1.037430e-09 7.783125e-10 8.084111e-11 2.002754e-09 3.532930e-10 -4.295675e-11
-3.638823e-10 9.161896e-10 1.383245e-10 1.900632e-09 9.065099e-11 -8.659739e-13
-1.286958e-08 1.130875e-08 -3.880287e-10 1.422166e-11 1.478870e-09 8.143916e-10
-1.973624e-08 6.365892e-09 5.507950e-10 1.616963e-09 4.783395e-09 1.725191e-10
9.058965e-09 -5.374085e-09 -1.197549e-09 3.129653e-10 1.007845e-10 4.588739e-12
9.149907e-09 -5.126344e-09 -1.141601e-09 9.512795e-10 1.892765e-10 3.266285e-10
8.952657e-09 -5.511861e-09 -1.222760e-09 5.404663e-10 -5.631384e-12 5.450640e-11
9.659972e-09 -5.581821e-09 -1.197811e-09 1.949881e-10 1.442696e-11 2.599723e-10
-2.254957e-08 6.752309e-09 -4.940919e-09 2.672565e-08 1.765102e-08 -9.670472e-09
1.021558e-08 -5.522634e-09 -1.311840e-09 4.719158e-10 -3.693035e-11 -8.858015e-11
1.987742e-08 -4.405793e-08 -4.212563e-09 3.872611e-10 -1.750905e-09 8.965892e-10
9.671739e-09 -5.576679e-09 -1.338993e-09 2.238817e-10 1.956675e-11 1.073456e-10
-9.411849e-10 -1.889313e-08 -2.894282e-09 -1.206935e-09 -1.237619e-09 -3.173048e-10
-8.085933e-09 1.445079e-09 2.040029e-09 2.821192e-10 -9.338702e-11 -5.469691e-10
8.846335e-09 8.326409e-09 -4.935627e-08 -2.246778e-08 -2.354809e-08 -8.828170e-09
2.521294e-09 2.393220e-08 -6.049996e-08 -1.795402e-08 -2.561644e-08 -1.247264e-08
2.638443e-08 -4.486651e-08 -2.463750e-08 2.470375e-09 -1.400491e-08 1.510572e-09
-8.116856e-09 1.894004e-09 2.055354e-09 -6.261304e-11 -1.202453e-10 -1.989344e-10
3.116715e-09 -1.631658e-08 -1.458108e-08 2.346944e-08 2.678498e-09 -1.182621e-09
-1.862431e-08 1.138740e-08 -6.061047e-09 -7.651405e-09 -1.095144e-08 -2.894441e-09
6.331441e-09 -2.660515e-08 -4.289891e-09 1.927824e-08 3.979886e-09 -8.163161e-10
1.382567e-08 -2.667113e-08 -1.254651e-08 2.420417e-08 7.734377e-09 -1.045523e-09
-7.888959e-09 4.481322e-10 2.157066e-09 -3.227677e-11 -5.958467e-11 -7.010357e-10
-7.681641e-09 1.265767e-09 1.972961e-09 6.925109e-12 5.961240e-10 -6.028176e-10
-9.780527e-09 -1.095840e-08 2.834791e-09 9.627063e-09 1.956145e-09 -4.626542e-10
-7.905295e-09 1.814606e-09 2.133298e-09 7.550076e-10 3.421555e-10 -4.118969e-10
-8.075516e-09 2.542700e-09 1.817743e-09 8.018120e-10 1.752387e-10 -3.316525e-10
-3.642613e-09 2.923816e-09 6.949996e-11 -3.679942e-09 -1.972511e-10 -1.110589e-10
-1.756282e-09 1.973958e-09 -3.058516e-10 -4.968734e-09 -3.689054e-10 1.450315e-10
1.652403e-10 1.513044e-09 -4.000738e-10 -4.331578e-09 1.297680e-11 -1.259730e-10
-7.833630e-09 2.098086e-09 1.813377e-09 8.496595e-10 1.023387e-10 -3.670972e-10
6.412894e-09 -3.294018e-09 -9.402115e-10 2.458599e-09 1.337634e-10 3.551356e-10
-9.112524e-09 4.502716e-09 9.895633e-10 -2.923748e-09 -6.095180e-10 -3.215779e-10
1.097903e-08 -5.541216e-09 -1.476957e-09 -1.760363e-09 -3.738365e-11 9.013146e-11
1.747018e-08 -7.811344e-09 -1.143761e-09 -1.078225e-10 1.491948e-10 3.110685e-10
-1.001322e-08 2.249694e-09 2.037213e-09 -6.272157e-11 -3.332727e-10 -7.059863e-11
7.797047e-09 -3.616090e-09 -9.428835e-10 4.066645e-09 3.249971e-10 2.679055e-10
-9.908148e-09 4.683344e-09 1.381310e-09 -2.711261e-09 -2.764720e-10 -4.119318e-10
1.720961e-08 -4.378196e-08 4.228067e-10 4.138787e-09 2.703003e-09 -1.084723e-10
-2.067153e-08 5.021436e-09 -4.495372e-10 -3.388465e-09 -8.572860e-09 -1.125390e-09
4.302774e-08 -3.799342e-09 -6.026719e-09 1.668275e-09 -2.029068e-09 1.415367e-09
-9.578740e-09 4.706443e-09 1.412484e-09 -2.306820e-09 -6.461612e-10 -7.794053e-10
-9.182986e-09 3.719220e-09 1.456519e-09 -2.400673e-09 -8.588426e-10 -6.089368e-10
-1.599432e-08 1.936827e-08 -5.289125e-09 -3.650204e-09 -9.693070e-09 -2.096738e-09
-1.015798e-08 3.612097e-09 1.802972e-09 -1.689510e-09 -2.564473e-10 -8.679941e-10
1.589099e-08 -4.541840e-08 2.624359e-09 4.017082e-10 2.556834e-09 -1.937284e-10
-2.127194e-08 1.586054e-08 -2.018557e-09 -3.536682e-09 -8.940678e-09 -1.427188e-09
-2.065744e-08 7.338897e-09 8.894165e-10 -2.705949e-09 -6.708923e-09 -4.033901e-10
7.009313e-08 -2.238963e-08 -3.824077e-10 3.627442e-09 4.401558e-10 7.556018e-09
-2.203764e-08 1.532412e-08 -3.942322e-09 -2.273960e-09 -6.937458e-09 -7.830503e-10
6.561135e-08 -2.037851e-08 5.476540e-09 9.278328e-09 3.220897e-09 1.119011e-08
7.400637e-08 -2.492366e-08 1.067525e-09 1.486901e-09 2.659493e-09 1.383713e-08
5.895491e-08 -8.232559e-09 -6.484013e-09 1.212932e-08 2.175347e-09 1.186856e-08
1.567177e-08 -4.252825e-08 6.744346e-09 1.801258e-09 1.764688e-09 4.884862e-10
3.260529e-09 -2.922530e-08 7.926274e-09 3.632823e-09 2.578131e-10 3.276374e-10
-6.800707e-09 3.798865e-09 9.220951e-10 -6.567191e-12 1.813788e-10 -4.495371e-11
5.955140e-08 -1.412946e-08 -6.232446e-09 3.618028e-09 4.707778e-10 4.355852e-09
-6.526150e-09 3.577774e-09 9.154926e-10 5.013451e-10 3.798545e-11 9.273449e-11
5.712395e-08 -9.310202e-09 -8.582420e-09 6.920110e-09 8.663980e-10 1.356220e-09
-4.449298e-09 2.684671e-09 5.982397e-10 6.345857e-11 5.196465e-11 -6.670442e-12
-2.747515e-09 1.394748e-09 3.241523e-10 7.279871e-10 1.141418e-10 -6.978593e-10
2.454234e-08 -5.986851e-08 3.086920e-09 -1.477003e-09 -3.826964e-09 -9.309588e-10
2.497145e-08 -5.288943e-08 -1.559392e-09 -1.287381e-09 -4.125504e-09 -7.365879e-10
-5.208912e-09 4.346695e-09 2.086580e-10 -2.256181e-09 -3.174098e-10 -1.777405e-10
3.159107e-08 -5.932597e-08 -9.654188e-09 -7.260545e-09 -2.383348e-08 1.588943e-09
2.290473e-08 -9.477798e-09 1.425373e-08 -1.675460e-08 1.910178e-09 -4.492858e-09
2.682475e-08 -8.106885e-08 8.599788e-09 -6.521100e-09 -1.943861e-08 4.826209e-10
2.694340e-08 -6.855697e-08 -4.725792e-11 -6.781985e-10 -1.645374e-08 8.328299e-10
2.429324e-08 -1.134434e-08 1.447344e-08 1.204035e-08 2.909932e-10 -8.773643e-09
3.824192e-10 1.282849e-08 2.563471e-08 2.760128e-08 7.590530e-10 -4.495774e-09
2.310510e-08 -6.272976e-08 -3.799953e-10 -9.484980e-09 -1.500854e-08 -1.350104e-09
2.348390e-08 -5.700428e-08 -2.753170e-11 -7.587784e-09 -2.151439e-08 -4.832164e-09
-7.529165e-09 4.939172e-09 1.450973e-11 -5.664200e-09 -9.434230e-11 -6.424869e-10
-1.810705e-09 1.820550e-09 4.526197e-10 4.710078e-09 -9.665202e-11 9.199352e-11
3.397548e-09 1.314821e-09 1.325092e-09 1.073998e-08 3.711691e-10 3.591836e-10
1.850294e-09 1.876762e-09 4.722338e-10 9.089704e-09 -3.105978e-10 -3.646270e-10
-3.338728e-09 1.792816e-09 3.337741e-10 5.132661e-09 -3.079124e-10 -1.244705e-09
2.440071e-09 2.860533e-09 9.676144e-10 1.113394e-08 -9.251667e-11 -4.837877e-10
6.424960e-09 -3.839043e-09 -8.210689e-10 3.236324e-10 1.325597e-10 1.507497e-10
5.328109e-09 -2.707030e-09 -7.196299e-10 9.858542e-10 7.572643e-11 -8.051804e-11
-7.803565e-09 2.189167e-09 1.722399e-09 5.091611e-10 1.046266e-10 -2.229206e-10
-5.407129e-09 2.984615e-09 8.160352e-10 1.051646e-09 1.392464e-11 1.316458e-11
-3.239906e-09 1.876461e-09 3.920406e-10 7.516287e-10 2.976649e-10 -4.944534e-11
-4.390264e-09 2.384924e-09 6.243293e-10 1.347438e-09 1.812002e-10 -2.715368e-10
-3.448546e-09 2.258012e-09 5.826419e-10 1.988997e-09 1.050193e-10 2.576317e-11
-7.103772e-09 -1.289461e-09 2.930725e-09 2.327032e-10 6.584866e-11 -2.611076e-10
-5.259744e-09 2.920862e-09 6.826335e-10 7.793928e-10 1.898072e-10 -3.544328e-10
-2.744711e-09 1.727212e-09 4.933081e-10 1.313223e-09 2.156493e-10 2.447768e-10
1.335345e-08 -5.261373e-08 -6.619233e-10 -9.724977e-09 -1.606961e-08 -2.060163e-09
6.246340e-09 -3.454645e-09 -8.040917e-10 7.137737e-10 7.344336e-11 4.346840e-11
1.941565e-08 -5.833955e-08 -3.109212e-09 -2.490350e-08 -2.732016e-08 -5.592568e-09
-5.613949e-09 -5.769076e-09 3.496617e-09 -9.261352e-10 1.572802e-09 -1.844281e-10
8.672250e-09 -5.131946e-09 -1.091118e-09 8.765895e-10 1.204090e-10 2.626634e-10
-5.849422e-09 -4.467109e-09 3.512937e-09 3.123608e-10 9.439582e-11 -4.396472e-10
-7.830244e-09 -1.390283e-10 2.522017e-09 3.918967e-10 8.379808e-11 -6.656468e-10
7.523538e-09 -4.221889e-09 -9.152512e-10 1.491976e-09 3.386520e-10 1.864477e-10
7.528502e-09 -4.236796e-09 -1.030123e-09 1.556910e-09 1.218760e-10 1.957134e-10
9.119964e-09 -4.770090e-09 -1.114744e-09 1.250985e-09 -1.785583e-11 -1.008937e-11
9.139621e-09 -5.118389e-09 -1.269516e-09 9.782991e-10 3.669024e-11 8.803247e-11
1.445786e-08 -4.268305e-08 7.328503e-09 1.170508e-09 1.196722e-09 9.486978e-11
5.568294e-09 -2.924086e-09 -9.597432e-10 -4.879164e-11 -1.327476e-10 2.011258e-11
1.103883e-09 6.457990e-10 -4.710046e-10 -3.745734e-09 -5.607262e-10 -3.509570e-11
1.097999e-08 -3.994281e-08 8.639692e-09 1.131693e-09 1.957601e-10 3.674961e-10
3.162184e-09 -8.713182e-10 -6.255738e-10 -2.488013e-10 -3.425094e-10 9.673295e-11
1.050973e-09 6.406990e-10 -4.992020e-10 -3.461200e-10 -4.576317e-11 6.250689e-11
1.325471e-08 -3.942091e-08 7.204958e-09 1.230324e-10 8.132080e-10 -5.594992e-10
1.328437e-08 -4.297212e-08 7.612965e-09 5.815369e-10 1.148190e-09 8.409695e-11
1.324493e-08 -4.330285e-08 8.821960e-09 2.140215e-09 8.718860e-10 -1.083303e-10
-7.683930e-09 1.097711e-09 1.939093e-09 5.864757e-11 2.044472e-10 -3.728198e-10
1.346228e-08 -4.252944e-08 7.074746e-09 2.511806e-09 1.680835e-09 -7.581988e-10
-6.983874e-09 -2.557131e-09 3.043989e-09 3.489875e-10 9.245593e-11 -8.508130e-10
-4.346568e-09 -7.698254e-09 4.177386e-09 3.452116e-10 1.179519e-10 -5.470944e-10
3.159098e-08 -5.523249e-08 -2.513421e-08 -6.883997e-09 -2.982313e-08 1.204063e-10
2.377233e-08 -6.124957e-08 4.736489e-09 -5.768631e-11 -3.908219e-09 2.198857e-10
1.244910e-08 -4.213058e-08 7.689908e-09 3.071980e-09 2.871282e-10 -1.967075e-10
3.296074e-08 -1.979964e-08 -6.308175e-08 -5.181355e-10 -3.320690e-08 3.294289e-09
9.145577e-09 -5.654171e-09 -1.232473e-09 1.253487e-09 2.085222e-10 4.773315e-11
9.283903e-09 -5.271928e-09 -1.298369e-09 1.689270e-10 4.934244e-11 3.766010e-11
7.899283e-09 -4.673463e-09 -1.074433e-09 5.966047e-10 -4.301830e-11 -1.856398e-11
1.024907e-08 -5.811034e-09 -1.361703e-09 6.577774e-10 3.208167e-11 -7.501000e-11
9.121261e-09 -5.040673e-09 -1.236336e-09 1.485147e-09 -7.844559e-12 -1.698999e-10
1.044037e-08 -5.577097e-09 -1.191315e-09 4.572865e-10 1.255665e-10 3.271603e-10
-1.934676e-08 9.539127e-08 -7.372694e-08 -7.052451e-09 1.533898e-08 -9.219362e-09
3.162183e-09 -1.532721e-09 -7.191057e-10 -1.072454e-10 -6.027445e-11 6.487810e-11
4.729355e-09 5.557685e-08 -9.668467e-08 3.015604e-08 3.903417e-08 -2.173642e-08
-9.849608e-09 2.410015e-09 8.715766e-10 -8.731427e-10 -1.646194e-09 -6.874929e-10
-8.847274e-09 3.093631e-09 1.152891e-09 -1.783897e-09 -1.334989e-09 -3.750217e-10
-1.973625e-08 3.441789e-10 1.737908e-09 3.925501e-09 3.835892e-09 -5.516956e-10
-2.280010e-08 1.571681e-08 -2.461856e-09 2.054057e-09 5.575302e-09 -1.152422e-10
-1.014826e-08 4.055808e-09 1.132969e-09 -1.848863e-09 -1.181144e-09 -1.846090e-10
-1.001347e-08 3.103549e-09 1.189609e-09 -6.879008e-11 -7.845063e-10 -4.963133e-11
-9.985550e-09 1.254805e-09 2.250168e-09 -2.607190e-10 -3.046541e-11 -1.191663e-09
1.517702e-08 -4.119665e-08 6.444992e-09 -2.248465e-09 1.281947e-09 -2.124691e-10
5.632635e-08 -1.271805e-08 -1.526649e-09 5.517056e-09 2.329967e-09 5.798205e-09
1.237766e-08 -3.673448e-08 6.751879e-09 -1.882804e-09 8.761939e-10 -5.872451e-10
1.256631e-08 -4.006593e-08 7.128316e-09 -1.660540e-09 1.067258e-09 -1.452732e-10
-3.265519e-09 1.909563e-08 -8.151159e-09 -2.327785e-09 -7.474708e-09 -2.084438e-09
1.368137e-08 -4.177739e-08 7.360827e-09 -3.664904e-10 6.095608e-10 -8.262240e-10
1.366917e-08 -3.938663e-08 6.422411e-09 -3.564340e-09 1.016231e-09 -5.928600e-10
6.946176e-09 -3.527018e-08 8.495042e-09 4.139711e-09 -2.526542e-10 1.806635e-10
7.222171e-09 -3.519717e-08 7.330809e-09 8.569521e-09 8.187746e-10 8.959121e-11
1.229087e-08 -3.962264e-08 7.900540e-09 1.718309e-10 1.643492e-10 -1.070203e-10
8.257058e-09 -3.699606e-08 8.445607e-09 2.718717e-09 3.926741e-10 2.207853e-11
1.241178e-08 -4.021520e-08 8.346027e-09 1.702399e-10 -2.024401e-11 5.610250e-12
1.351053e-08 -4.267644e-08 6.805430e-09 -3.372215e-10 2.005391e-09 -2.561449e-10
1.322022e-08 -4.225596e-08 7.582909e-09 7.366803e-10 5.136776e-10 -2.939727e-10
1.154615e-08 -3.699786e-08 6.565769e-09 -4.270607e-09 1.708829e-09 -4.620890e-10
1.047398e-08 -3.561653e-08 6.648878e-09 -3.317932e-09 1.053060e-09 -2.861704e-10
1.147348e-08 -3.813914e-08 7.652701e-09 -3.038778e-09 7.610310e-10 -9.738498e-10
1.233943e-08 -4.016360e-08 7.981459e-09 1.227515e-10 -1.503089e-10 -1.424043e-10
1.019976e-08 -3.233413e-08 6.211681e-09 -3.446604e-09 8.113558e-10 -6.409209e-10
1.179731e-08 -3.977657e-08 6.321361e-09 -2.903496e-09 2.078488e-09 -1.951537e-10
1.151069e-09 -4.850786e-10 -2.011529e-10 1.071808e-10 3.253550e-10 -3.646528e-12
3.130357e-09 -1.805844e-09 -4.421725e-10 1.162099e-10 3.327636e-10 1.054345e-11
1.237977e-08 -3.988254e-08 7.053934e-09 -1.781126e-09 3.916366e-10 -5.265207e-10
-1.049481e-08 -8.458206e-11 2.538691e-09 9.657683e-10 -1.471245e-09 -4.951372e-10
-9.625272e-09 5.949374e-11 1.848424e-09 -5.804016e-10 -2.200128e-09 -2.519407e-13
-8.152876e-09 -4.291175e-09 2.442695e-09 1.784900e-09 -8.002339e-10 -1.157532e-09
-3.688792e-09 2.139153e-09 4.881278e-10 7.759678e-10 9.037518e-11 -6.245797e-10
-9.079378e-09 -4.908381e-09 2.695183e-09 2.497338e-09 -9.735256e-10 -8.636787e-10
-1.569276e-08 2.002342e-08 -5.437320e-09 3.534839e-09 6.585524e-09 -1.303198e-09
-9.096580e-09 -1.154569e-09 2.138121e-09 3.929383e-10 -2.170048e-09 -5.607765e-10
-9.462836e-09 8.433432e-10 2.001246e-09 -2.643884e-10 -2.261669e-09 -2.987673e-10
-9.849613e-09 2.738576e-09 1.386456e-09 -7.876038e-10 -9.592808e-10 -3.654112e-10
1.162737e-08 -2.690097e-08 -1.887418e-08 2.322302e-08 5.376100e-09 1.417009e-09
-9.441730e-09 1.887762e-09 2.242577e-09 -6.860358e-10 -5.238044e-10 -3.601881e-10
-2.280010e-08 9.205566e-09 -7.286536e-10 4.544495e-09 4.906418e-09 -1.169526e-09
-9.856274e-09 2.385065e-09 1.819926e-09 -9.582330e-10 -7.497092e-10 -7.386484e-10
-1.036924e-08 8.499617e-08 -1.076785e-07 6.603497e-09 3.964418e-08 -2.869623e-08
1.119857e-08 -6.073716e-09 -1.510673e-09 -7.347719e-10 -7.999124e-11 -8.044387e-11
2.624676e-08 -5.867222e-08 -9.357898e-10 2.999934e-09 -2.120156e-08 6.923791e-09
7.574473e-09 -3.911051e-09 -1.180288e-09 -2.855251e-09 -9.558576e-12 -3.004219e-11
9.303772e-09 -5.111386e-09 -1.430537e-09 -1.938693e-09 1.221721e-10 -1.360798e-10
1.723535e-08 -3.972912e-08 -5.252880e-09 -4.010565e-10 -1.801996e-09 -2.348814e-10
9.025870e-09 -5.115637e-09 -1.326576e-09 -1.491657e-09 -3.673512e-11 1.116419e-10
1.023198e-08 -5.858972e-09 -1.506785e-09 1.546018e-10 2.971438e-11 -1.489386e-11
2.350405e-09 -3.829577e-10 -6.354615e-10 -1.547005e-09 -2.069873e-10 -8.607288e-10
1.114406e-08 -6.227844e-09 -1.463762e-09 -1.453818e-09 1.672670e-11 1.239707e-10
-5.663531e-09 -4.426393e-09 3.598885e-09 -2.139318e-09 9.138895e-11 -1.776749e-10
-7.562765e-09 -1.155069e-09 2.386858e-09 -6.771517e-10 6.209944e-11 -4.940858e-10
-5.127458e-09 -6.626745e-09 3.899455e-09 -1.663562e-09 -5.578560e-11 -1.299338e-09
9.100638e-09 -5.007459e-09 -1.289406e-09 -1.696460e-10 -3.198519e-11 4.145084e-11
3.367852e-09 -8.957777e-10 -6.568098e-10 -2.808895e-10 -6.138356e-11 -2.465717e-11
9.828148e-09 -5.330003e-09 -1.418465e-09 -2.028545e-09 -1.501201e-10 2.217777e-10
-1.012727e-08 -3.974270e-09 2.136612e-09 4.648360e-09 -2.723234e-09 1.029192e-09
7.128580e-09 -3.628565e-09 -1.035085e-09 -1.043533e-10 -4.142486e-10 5.288847e-11
-6.683324e-09 -1.176407e-08 2.955489e-09 4.871044e-09 -1.748416e-09 -2.547433e-10
-1.012727e-08 -5.220536e-09 1.594544e-10 4.940496e-09 -5.069327e-09 1.987850e-09
-8.742930e-09 -3.194983e-09 1.629797e-09 2.751997e-09 -3.426784e-09 8.205596e-10
-3.589252e-09 -1.124243e-08 4.384088e-09 -2.586698e-09 1.915577e-10 -9.172296e-10
-9.045796e-09 -3.715837e-09 2.112126e-09 2.281502e-09 -2.074586e-09 5.282051e-10
-8.797273e-09 -1.282927e-09 2.115584e-09 1.450936e-09 -1.608107e-09 3.041871e-10
-1.084439e-09 -1.316655e-08 5.041659e-09 8.641554e-11 1.984566e-10 -8.197990e-10
-8.955565e-09 -4.336549e-10 2.116992e-09 7.229421e-10 -1.380526e-09 -1.050435e-10
3.055336e-09 -2.072864e-08 5.197325e-09 -4.571987e-09 4.852219e-10 -7.315404e-10
-1.958409e-08 2.327639e-08 -3.991000e-09 2.028397e-09 8.181982e-09 -2.966966e-09
-8.199907e-09 4.722812e-09 6.036993e-10 -3.942934e-09 -8.864309e-11 -5.663137e-10
4.283351e-09 -2.423631e-08 6.295487e-09 -8.435032e-09 -1.851192e-09 -1.951512e-10
5.396945e-09 -2.677914e-08 6.155466e-09 -6.235376e-09 -3.516780e-10 -1.314197e-09
8.335477e-09 -3.169974e-08 6.965010e-09 -1.705590e-09 2.060622e-10 -5.643674e-10
1.410590e-08 -7.355443e-09 -1.142609e-09 -6.046476e-09 1.725997e-10 1.095457e-10
4.647931e-09 -2.908703e-08 5.515083e-09 -5.116081e-09 1.948815e-09 -3.892006e-10
6.772130e-09 -2.080777e-09 -1.169916e-09 -6.596738e-09 1.860516e-10 -3.366809e-10
6.413785e-09 -2.966178e-09 -1.095816e-09 -2.807572e-10 9.705170e-11 -2.220991e-16
-2.222555e-09 2.699633e-09 -6.143175e-11 -1.989437e-09 -2.741019e-10 2.377942e-10
8.521586e-09 -3.523785e-09 -1.318496e-09 -5.169546e-09 -3.097327e-10 2.709295e-10
-6.597418e-09 6.792501e-09 -1.890740e-09 -8.733011e-09 -5.348180e-10 1.384417e-09
6.729048e-09 -2.855873e-08 5.954842e-09 -4.877663e-09 5.147705e-10 -1.016441e-09
-2.499251e-09 -2.108074e-08 3.326676e-09 8.018975e-09 -3.077889e-09 1.143405e-09
-9.193864e-09 2.064942e-09 1.851728e-09 -4.141383e-10 -3.242405e-10 -9.583366e-10
-7.424863e-09 4.592779e-09 5.997609e-10 -3.184840e-09 -6.613727e-10 -2.225220e-10
-1.023772e-08 4.837086e-10 1.987641e-09 -6.345026e-10 -1.345008e-10 -5.411826e-10
-4.467928e-09 -1.388819e-08 1.774717e-09 5.583756e-09 -6.033151e-09 -3.800982e-10
-5.601516e-09 -1.068967e-08 2.905562e-09 6.335721e-09 -5.056967e-09 6.573010e-10
4.302774e-08 -1.559700e-08 -3.614638e-09 -1.951665e-09 -2.350317e-10 2.389393e-10
-3.137204e-09 -1.804296e-08 1.960713e-09 3.643396e-09 -1.580160e-09 7.004178e-10
-5.999200e-09 -6.500425e-09 1.738439e-09 4.575070e-09 -2.644850e-09 8.066836e-10
-1.549734e-09 1.554476e-08 -7.112173e-09 -2.622677e-09 -7.660436e-09 -7.489272e-10
4.731674e-09 -2.992739e-09 -7.541909e-10 6.773093e-11 3.551343e-10 1.234512e-12
4.731675e-09 -2.307533e-09 -6.204299e-10 2.155233e-12 3.328042e-11 2.158140e-11
-6.761517e-09 -4.588461e-09 1.939360e-09 3.786133e-09 -2.329884e-09 3.406604e-10
4.646874e-09 -2.324836e-08 5.925323e-09 -5.052549e-09 -5.241127e-10 -5.374804e-10
6.077544e-10 -1.947997e-08 5.142835e-09 -7.912251e-09 6.323677e-11 -5.191748e-10
-8.579964e-09 4.357732e-09 6.866259e-10 -3.446609e-09 -1.849849e-10 -7.614372e-11
1.452890e-09 -1.906824e-08 5.460738e-09 -5.169776e-09 6.248801e-10 -1.320022e-09
4.382117e-11 -1.928762e-08 5.410246e-09 -4.170829e-09 -3.626950e-10 -1.076038e-09
1.805756e-11 -1.596428e-08 5.108411e-09 -4.458258e-09 1.789276e-10 -9.268511e-10
1.316073e-09 -2.243837e-08 5.196636e-09 -5.433654e-09 1.390908e-09 -2.738476e-10
-3.193167e-09 -1.895753e-08 3.873978e-09 1.156431e-08 1.879780e-09 -7.697932e-11
3.057637e-09 -2.250319e-08 5.603014e-09 -5.085733e-09 5.617613e-10 -9.579211e-10
-3.311790e-09 -1.557039e-08 3.157215e-09 2.498241e-09 -1.177213e-10 1.748693e-10
-3.962964e-09 -2.003358e-08 1.496970e-09 1.380391e-08 -8.326666e-09 4.862102e-09
2.371062e-09 -2.151753e-08 4.818388e-10 4.500901e-09 -3.957405e-09 6.394837e-10
-1.061294e-08 1.900426e-08 -4.077564e-09 5.492361e-09 8.881971e-09 1.573464e-09
-1.100187e-08 2.337747e-08 -5.012786e-09 -2.512940e-09 5.101245e-09 -3.233115e-09
-3.127343e-09 2.095535e-08 -3.156546e-09 -5.531600e-09 4.455640e-09 -1.691619e-09
-1.509944e-09 -2.127037e-08 3.709236e-09 1.095833e-08 -7.609892e-09 1.954478e-09
8.671543e-09 -4.727963e-09 -1.200678e-09 -1.831469e-10 -2.530753e-11 3.181222e-11
7.128579e-09 -3.628759e-09 -1.061868e-09 -2.835525e-10 1.339750e-11 5.850098e-11
4.307538e-09 -2.676495e-08 2.018080e-09 8.713251e-09 -6.524111e-09 1.385866e-09
1.002484e-08 -5.712851e-09 -1.407856e-09 -1.334749e-09 -1.882954e-10 -2.531840e-10
4.270077e-09 -2.846972e-08 2.071462e-09 1.063430e-08 -7.183109e-09 2.145872e-09
5.313083e-10 -2.269727e-08 -7.521626e-10 9.957189e-09 -7.868893e-09 3.297039e-09
1.874166e-08 1.180557e-08 -7.925492e-09 -5.538395e-09 2.792381e-09 -3.573314e-09
-2.493861e-09 -1.245074e-08 1.532364e-09 7.778188e-09 -3.062327e-09 1.191780e-09
-2.052942e-08 2.367789e-08 -1.143598e-08 8.149859e-09 6.280057e-09 -5.665048e-09
2.688005e-08 5.514632e-09 -3.987098e-10 -1.297107e-08 -1.794304e-09 6.648258e-09
5.899670e-08 -5.137446e-09 -1.332747e-08 -1.132057e-08 -1.918861e-09 8.096603e-09
3.773464e-08 1.138382e-09 -7.360801e-09 -1.026763e-08 -1.213668e-09 1.436299e-09
-1.683544e-09 -1.310714e-08 4.787931e-09 -3.907125e-09 5.508404e-10 -1.461228e-09
-1.630650e-09 -1.190523e-08 4.452215e-09 -1.656907e-09 -2.327927e-10 -9.414772e-10
6.501344e-08 -1.242661e-08 -1.056343e-08 -6.573051e-10 8.836332e-11 4.168506e-09
-1.477482e-09 -1.536317e-08 5.129792e-09 -1.792950e-09 3.422373e-10 -5.687574e-10
2.650324e-11 -1.870097e-08 5.031875e-09 -4.350366e-09 -4.844661e-10 -8.679826e-10
5.881318e-08 -1.374350e-09 -8.726471e-09 2.726180e-08 5.896743e-09 1.885568e-08
4.672148e-08 -9.594373e-09 -4.349258e-09 -8.287074e-10 2.022723e-09 2.586339e-09
3.657255e-08 1.331436e-09 -7.885590e-09 5.941859e-10 3.095008e-09 2.543239e-09
4.238454e-11 -1.768571e-08 5.406452e-09 -4.183296e-09 3.674561e-10 -1.104441e-09
-2.062721e-09 -1.134554e-08 4.991888e-09 -4.082154e-09 -6.646554e-10 -4.043415e-10
-6.037635e-09 -6.016994e-09 -1.461893e-09 4.687593e-09 -3.669000e-09 1.038535e-09
-8.184921e-09 4.213297e-09 9.346173e-10 -2.700057e-09 -7.875244e-10 -4.950468e-10
-1.052066e-08 2.009720e-09 1.615632e-09 -1.438614e-12 4.630807e-11 -1.095151e-10
-6.710378e-09 -7.223115e-09 3.058278e-09 -4.920950e-10 -5.291325e-10 -1.259903e-09
-3.605246e-09 -1.156300e-08 2.547018e-09 -5.926271e-11 -4.929634e-10 1.947765e-10
1.227665e-08 -4.195197e-08 3.131840e-09 5.586650e-09 -2.388720e-09 1.049035e-09
-2.979476e-09 -1.030920e-08 4.370748e-09 -3.362732e-09 2.287108e-10 -9.251757e-10
3.166733e-09 -2.465104e-08 1.120871e-10 1.707256e-08 -1.297615e-08 7.330704e-09
-1.509947e-09 -2.450902e-08 2.295625e-09 1.113407e-08 -5.338431e-09 1.872586e-09
-2.494738e-09 -2.002976e-08 4.702642e-09 7.496233e-09 -1.859439e-09 6.341207e-10
8.006528e-09 -3.579007e-08 3.307226e-09 1.307533e-08 -1.142962e-08 2.808303e-09
9.114026e-09 -3.210088e-08 -5.178982e-10 3.941677e-09 -1.855793e-09 8.706176e-10
8.556146e-09 -3.553785e-08 7.842207e-09 4.831782e-09 2.469230e-10 -1.647571e-10
-1.126574e-08 1.938409e-09 1.145326e-09 -6.447300e-09 4.809091e-10 -7.461641e-10
-1.227310e-08 -9.967869e-09 3.958624e-09 1.177363e-08 5.991964e-09 -1.508644e-09
4.313973e-09 -2.754812e-08 2.597463e-09 9.101087e-09 -6.486424e-09 1.027546e-09
4.266857e-09 -2.728771e-08 1.627166e-09 9.864441e-09 -6.979316e-09 2.505012e-09
7.987776e-09 -3.704385e-08 -4.184800e-09 1.270453e-08 -1.403792e-08 3.476513e-09
1.140404e-08 -3.967875e-08 -1.284777e-10 1.299513e-08 -8.593817e-09 2.894073e-09
-1.230115e-07 -1.631276e-08 3.392948e-07 1.981628e-08 -5.621696e-08 -3.168375e-08
3.591541e-08 -3.924598e-08 7.530505e-08 -2.723158e-08 1.105002e-08 9.479414e-09
5.203895e-09 -2.644626e-08 5.972673e-09 -2.330011e-09 2.611543e-10 -6.552793e-10
3.850058e-09 -2.359446e-08 5.766994e-09 -5.856929e-10 1.828873e-10 -4.876638e-10
6.286599e-08 -3.294414e-08 3.627543e-08 -5.574623e-09 -1.566725e-09 3.589749e-08
5.477827e-08 -3.977240e-08 6.864570e-08 -1.101003e-08 -1.953503e-09 6.242485e-09
6.373499e-08 -3.600325e-08 2.913440e-08 3.815374e-09 -1.695462e-09 9.561670e-09
5.101658e-09 -3.046465e-09 -6.833887e-10 1.068325e-09 2.172415e-10 -3.688680e-10
8.470477e-09 -4.663030e-09 -1.047411e-09 -4.273371e-11 -4.827971e-12 2.987588e-11
9.586030e-09 -5.344454e-09 -1.296887e-09 1.948515e-10 7.233319e-11 8.170020e-11
8.470478e-09 -5.198026e-09 -1.144670e-09 -1.980424e-11 -3.538086e-11 -1.061384e-11
6.119689e-08 -3.796807e-08 2.715189e-08 2.064803e-08 1.312968e-08 1.977565e-08
-1.577829e-09 -1.435163e-08 4.973089e-09 -1.648560e-09 1.204820e-10 -6.999792e-10
8.470477e-09 -4.986072e-09 -1.054833e-09 3.602808e-11 1.026905e-10 2.699985e-11
-4.934558e-09 -9.889008e-09 4.091546e-09 -5.055271e-09 1.535312e-09 -2.839037e-10
6.353922e-08 -1.621762e-08 -4.701635e-09 7.745000e-10 -1.294111e-09 3.694812e-09
-4.538543e-09 -7.949968e-09 3.577535e-09 -2.949614e-09 7.016325e-10 -7.504684e-10
5.424836e-08 -2.545799e-09 -3.849238e-09 1.511283e-08 4.000862e-09 7.531098e-09
-5.640782e-09 -7.034972e-09 3.689571e-09 -8.418198e-10 2.417593e-10 -7.895391e-10
-2.971705e-09 -1.289619e-08 4.347078e-09 -3.508259e-09 -3.346895e-10 -9.966207e-10
-7.484781e-08 2.966013e-08 1.420709e-07 -3.081856e-08 -4.495169e-09 3.104769e-09
7.005797e-08 -2.637573e-08 2.320917e-09 5.324764e-09 2.633561e-09 1.348201e-08
-4.254337e-09 -6.793718e-09 4.267083e-09 -2.566224e-09 -8.157239e-10 -7.158394e-10
-5.080344e-09 -6.627163e-09 3.707631e-09 -1.840776e-09 -2.544720e-11 -7.302001e-10
7.713903e-09 -3.525634e-08 3.886241e-09 5.541878e-09 -5.510160e-09 2.779656e-09
1.360926e-08 -4.027950e-08 6.546705e-10 1.756962e-08 -9.118299e-09 6.311610e-09
1.511833e-08 -5.451684e-08 5.447265e-09 1.446890e-08 -1.406022e-08 2.382392e-09
1.968590e-08 -4.752693e-08 -3.581865e-09 7.621008e-09 -7.319838e-09 2.803985e-09
-1.771606e-08 2.521646e-08 -1.118552e-08 -3.208619e-10 2.093733e-09 -8.214318e-10
-1.130687e-09 -1.702839e-08 5.172198e-09 -2.002727e-09 1.402389e-09 -9.089914e-10
1.133702e-08 -4.041466e-08 8.295871e-10 1.136971e-08 -9.497622e-09 3.597073e-09
1.644824e-08 -4.881416e-08 -6.814926e-09 1.201149e-08 -1.814282e-08 4.093443e-09
1.972420e-08 -5.411506e-08 -8.300136e-10 1.051762e-08 -1.155206e-08 3.136476e-09
5.122746e-10 -2.047977e-08 4.680453e-09 -7.498427e-09 2.311604e-10 -6.099323e-10
1.434906e-09 -9.143966e-10 -1.977248e-10 4.096150e-10 2.263785e-10 -2.388268e-10
-4.300238e-09 -8.925530e-09 3.934727e-09 -3.671805e-10 3.699293e-10 -7.403591e-10
-6.667361e-09 -5.686499e-09 3.585632e-09 -3.593341e-09 1.362498e-09 -5.368264e-10
6.447104e-09 -3.676798e-09 -1.007821e-09 1.535426e-09 9.313272e-11 4.164260e-10
-7.688292e-09 -5.687184e-11 2.325960e-09 -5.645440e-10 1.416151e-10 -9.245162e-10
-6.008199e-09 -4.436568e-09 3.484291e-09 -1.528344e-09 4.031511e-10 -1.061063e-09
-6.693932e-09 -3.822371e-09 3.264719e-09 -1.800416e-09 3.693899e-10 -5.901708e-10
-8.712686e-09 -8.957523e-10 1.898306e-09 -5.112925e-09 7.117502e-10 4.690601e-10
-4.968165e-09 -7.698253e-09 3.892714e-09 4.360767e-11 -1.903389e-11 -5.056866e-10
-5.072771e-09 -8.310371e-09 3.734077e-09 -2.472701e-09 -3.621258e-10 -1.008129e-09
-6.463917e-09 -3.373280e-09 3.556635e-09 -1.729212e-09 -4.579792e-10 -6.260430e-10
2.366018e-08 9.760098e-09 -5.906849e-09 -6.291045e-10 6.574250e-10 9.046980e-10
2.366018e-08 4.498448e-09 -4.504070e-09 -1.192300e-09 1.197837e-09 6.660462e-10
-6.694434e-09 -2.176616e-09 3.143559e-09 -1.171617e-09 2.571832e-10 -8.091410e-10
3.073210e-08 1.265359e-08 -7.026123e-09 -2.180157e-08 -6.451013e-09 3.236345e-09
-1.835235e-08 2.436900e-08 -7.294258e-09 2.392162e-09 5.419424e-09 -9.070244e-09
-7.933255e-09 -8.530199e-11 2.476255e-09 -4.103233e-10 -1.377454e-10 -6.773113e-10
1.957850e-08 -4.857939e-08 4.061111e-09 1.001381e-09 -1.643606e-09 1.182495e-09
2.294789e-08 -4.540604e-08 -1.040145e-08 2.753890e-09 -1.316479e-09 2.867504e-10
-7.889381e-09 4.487672e-10 2.420247e-09 -4.304428e-10 -1.987936e-10 -3.239129e-10
-7.520516e-09 -1.692131e-09 2.616672e-09 -7.546976e-10 -1.807986e-10 -7.900939e-10
-7.737150e-09 -7.417902e-10 2.618502e-09 1.006322e-10 5.192880e-11 -4.828775e-10
-7.688801e-09 4.221308e-10 2.472701e-09 2.191158e-10 4.110711e-10 -5.624506e-10
9.259534e-09 -5.464408e-09 -1.163477e-09 -4.342909e-11 -4.707123e-12 5.246847e-11
9.275550e-09 -5.433659e-09 -1.163397e-09 -5.666598e-11 5.362360e-11 4.288392e-11
-7.888923e-09 1.099357e-09 2.178646e-09 3.711852e-10 1.141445e-10 -5.147288e-10
5.561405e-08 -7.247665e-09 -1.251725e-08 5.822881e-09 4.543621e-11 -1.194037e-09
-7.563543e-09 8.163779e-10 2.401502e-09 1.269365e-10 -3.632808e-10 -4.504705e-10
1.048433e-08 1.461640e-08 -9.453646e-09 9.698702e-10 -5.400635e-09 -2.643613e-09
1.512332e-08 -4.594102e-08 4.913681e-09 4.510500e-09 -6.534796e-09 9.807686e-10
2.672377e-08 -5.235138e-08 -3.914573e-09 1.404053e-08 -1.348551e-08 7.397949e-09
1.056633e-07 -3.244672e-08 1.878718e-08 1.844195e-08 5.591813e-09 5.851031e-08
3.045071e-08 8.692720e-08 -1.470224e-07 1.459911e-08 1.209671e-08 -1.561920e-09
2.314745e-08 -7.137607e-08 6.134833e-09 1.030265e-08 -1.728012e-08 2.284730e-09
1.871458e-09 -1.140050e-09 -2.543330e-10 7.784617e-10 1.116927e-10 -9.575229e-12
2.506731e-08 -6.056361e-08 5.208556e-09 4.200082e-10 -9.717343e-09 5.228367e-10
1.994165e-09 -1.100832e-09 -3.346745e-10 1.237182e-10 2.554783e-11 -9.726878e-12
1.968755e-08 -5.408756e-08 1.766738e-10 9.628363e-09 -1.276081e-08 3.483884e-09
-9.136546e-09 4.426607e-09 -5.636469e-11 -3.531019e-09 1.162115e-11 1.515801e-10
2.437434e-08 -5.896062e-08 -8.964992e-09 8.001961e-09 -2.088122e-08 3.837232e-09
2.573058e-08 -6.604478e-08 -1.306905e-09 5.636699e-09 -1.347575e-08 2.344826e-09
-9.479224e-09 3.760442e-09 7.551344e-10 -2.304350e-09 -7.478382e-10 -1.651084e-10
-5.808827e-09 -5.199482e-09 3.315337e-09 -1.578851e-10 2.242915e-10 -6.330241e-10
-7.536542e-09 -2.652212e-09 2.843457e-09 -1.926774e-09 1.210742e-09 -4.378542e-10
-9.958428e-09 1.264901e-09 1.932738e-09 8.397431e-12 -5.512317e-10 -3.703421e-10
-7.035375e-09 -1.402505e-09 2.584411e-09 -6.892834e-10 4.325986e-10 -5.954569e-10
-9.645701e-09 3.522604e-10 2.379346e-09 -5.367462e-10 -2.602614e-10 -4.276910e-10
-7.488702e-09 -1.768961e-09 2.915547e-09 -1.014099e-09 -2.859880e-10 -5.112255e-10
-6.072179e-09 4.485829e-09 3.134155e-10 -4.367394e-09 6.009793e-11 1.661338e-11
-8.687495e-10 -1.546013e-08 2.944294e-09 -1.119264e-08 1.389817e-09 -6.089050e-10
-6.685930e-09 -4.597947e-09 3.158250e-09 -1.557303e-09 -2.692998e-10 -9.880508e-10
-1.571069e-08 -7.717675e-09 3.728023e-09 2.748248e-09 2.557475e-09 -2.507803e-10
-7.489611e-09 -7.938077e-10 2.848895e-09 -4.460474e-10 -2.071852e-10 -4.633376e-10
5.695405e-09 -2.818186e-08 6.283774e-09 -1.989693e-09 -2.192377e-09 -6.742318e-10
-7.524935e-09 -4.280238e-10 2.621340e-09 -1.727758e-10 1.146738e-10 -5.216560e-10
1.157264e-08 -3.720834e-08 7.648972e-09 4.894278e-12 2.021295e-10 -4.889296e-10
-9.591843e-09 -3.230729e-09 2.047157e-09 8.534002e-10 -5.061705e-10 -4.115908e-10
-1.862462e-09 -2.398194e-08 8.157706e-09 3.852989e-10 1.902193e-10 1.236149e-10
-7.181218e-09 4.874675e-09 2.889684e-10 -4.355390e-09 -1.909628e-10 4.637906e-10
-9.130749e-09 -9.708332e-10 2.326709e-09 -1.277953e-10 -6.415903e-10 -8.883646e-10
-1.740099e-09 -3.142449e-09 -1.017056e-08 7.957176e-09 -4.254943e-09 1.328451e-09
-9.678895e-09 2.558846e-09 1.749063e-09 -5.687621e-10 -7.379652e-11 -6.384862e-10
-1.450790e-09 -2.502104e-08 8.157706e-09 2.775589e-10 1.313033e-11 -7.712830e-12
2.544313e-08 1.122684e-08 -1.069257e-08 1.148976e-08 -2.306438e-09 -3.834002e-09
6.501344e-08 -1.856508e-08 -8.268534e-09 2.151120e-10 5.366260e-13 4.714560e-09
3.487559e-08 3.431573e-09 -9.276910e-09 1.038927e-08 -1.780249e-09 -1.377639e-09
-2.086491e-10 -2.558985e-08 7.947834e-09 4.724185e-10 -2.053801e-11 1.071327e-10
-1.294173e-09 -2.634131e-08 8.512181e-09 5.015619e-10 -1.775526e-10 1.601880e-10
3.259927e-09 -1.277134e-09 -4.516176e-10 1.671897e-09 2.903690e-10 6.715678e-11
8.078552e-09 -2.939215e-08 6.604162e-09 -3.168126e-09 1.123965e-09 -5.611283e-10
4.645529e-09 -3.362397e-08 8.484665e-09 2.439579e-09 -1.095492e-10 -2.425577e-10
1.832838e-09 -1.014895e-09 -3.260935e-10 2.060310e-09 5.019569e-10 1.679545e-11
2.190760e-09 -1.326301e-09 -2.606044e-10 1.109732e-09 9.993917e-11 -6.679339e-10
1.718484e-09 -6.760796e-10 -2.069072e-10 1.082411e-09 5.625966e-11 5.494938e-12
1.889982e-08 -4.107309e-08 -2.723993e-09 8.759835e-09 9.416623e-10 9.256620e-11
7.789145e-09 -3.723812e-08 7.706573e-09 7.240446e-09 1.433863e-09 -4.064148e-10
-9.476253e-11 -2.803455e-10 1.077760e-11 1.601713e-09 2.699183e-10 -1.969186e-10
1.264105e-09 -2.950378e-10 -2.004144e-10 1.478475e-09 1.254907e-10 2.225913e-10
3.415060e-09 -2.274752e-09 -5.543814e-10 7.345554e-10 2.691477e-10 1.234099e-10
7.062144e-09 -4.220877e-09 -9.057279e-10 1.481880e-09 3.417656e-10 1.606324e-10
3.752804e-09 -1.696533e-09 -5.372942e-10 1.915440e-09 1.633729e-10 1.825469e-10
-5.147196e-09 5.538395e-08 -7.815998e-08 2.156187e-08 1.716263e-08 -1.152064e-08
4.361577e-09 -2.281341e-09 -5.968941e-10 3.233545e-09 1.435752e-10 5.010706e-11
3.706136e-08 -1.050723e-08 -8.220419e-08 1.240574e-08 1.659640e-08 3.418882e-09
2.963667e-09 -2.440950e-08 -1.170687e-08 2.834231e-08 9.916970e-09 -3.142813e-09
-2.103672e-09 -1.524754e-08 -4.869689e-09 2.187419e-08 4.434578e-09 -1.276764e-09
3.921975e-09 -1.951805e-09 -5.522787e-10 2.437573e-09 2.648410e-10 -2.474629e-10
4.913369e-09 -2.281336e-09 -7.409569e-10 3.210986e-09 2.212432e-10 -8.801607e-10
-2.324427e-08 1.667430e-08 -2.696305e-09 4.182869e-09 5.460380e-09 -1.994664e-09
-2.324428e-08 1.667530e-08 -1.361986e-09 4.581952e-09 7.682335e-09 -1.874828e-09
2.956455e-08 -6.968306e-08 4.325922e-10 -6.738990e-09 -2.560130e-08 -8.261918e-10
3.125821e-09 -1.680383e-09 -4.593852e-10 2.041417e-09 2.305520e-10 1.370053e-10
-1.629647e-09 7.148794e-08 -8.354831e-08 -2.840462e-08 -1.812094e-08 3.754726e-09
5.998178e-09 3.104241e-08 -8.090914e-08 2.851849e-09 -3.320043e-08 2.546311e-08
3.014612e-08 2.144973e-08 -9.349724e-08 -1.124416e-08 -1.494793e-08 4.532099e-10
5.905664e-09 -3.045331e-09 -7.940858e-10 1.804094e-09 1.564721e-10 2.618853e-10
-1.099282e-08 2.466064e-08 -8.116988e-09 -2.386380e-09 5.914171e-09 -3.264476e-09
8.720001e-09 1.559578e-08 -5.620765e-09 -1.004952e-08 -1.687082e-10 -4.130591e-10
2.763846e-08 1.929224e-08 -8.851276e-08 -3.326651e-09 -1.289994e-08 5.181197e-09
-2.586112e-09 2.974627e-08 -1.021858e-08 -1.086386e-08 4.993185e-09 -8.245749e-09
2.864362e-08 3.400132e-09 -7.775385e-08 6.350298e-09 -3.691763e-08 1.009994e-08
3.135747e-08 -3.082143e-08 -4.143083e-08 -1.067842e-08 -2.504874e-08 -1.854862e-09
1.755002e-08 -3.814476e-08 -9.000540e-09 -1.488842e-09 -4.416528e-16 -8.182193e-10
1.722602e-08 4.136336e-08 -8.164014e-08 -2.112478e-08 -1.243102e-08 -4.915662e-09
-1.991850e-08 2.914620e-08 -1.302001e-08 -1.814841e-09 7.377318e-09 -1.403194e-08
6.098573e-10 2.946595e-08 -8.284855e-09 -1.214766e-08 1.546029e-09 -4.036988e-09
1.304822e-08 -3.590398e-08 -2.594136e-09 3.810654e-11 -1.383626e-09 1.429066e-09
-5.455916e-10 -2.572812e-08 7.985345e-09 5.436323e-09 5.067000e-10 6.059603e-11
-2.089147e-08 1.533221e-08 -4.164741e-09 -2.767570e-09 -6.472503e-09 -1.212550e-09
-1.757079e-08 2.327575e-08 -1.138078e-08 -3.047431e-09 -9.611928e-09 -5.745068e-09
-9.907376e-09 -1.411977e-08 5.604202e-09 1.744518e-09 1.099802e-09 -1.541651e-10
-7.387493e-09 2.773475e-08 -5.527229e-09 6.337502e-09 -2.857481e-09 -6.587877e-09
-2.486945e-08 1.926753e-08 -1.189732e-08 -1.446093e-08 -1.498565e-08 -1.301577e-08
3.584363e-08 -1.278331e-09 -6.114966e-09 1.109887e-08 3.062787e-10 -1.389128e-09
5.348853e-08 -7.835254e-09 -8.229245e-09 5.109887e-09 1.059406e-09 5.229089e-09
2.911150e-08 3.313446e-09 -1.001310e-08 4.491612e-09 -1.808153e-09 -2.750749e-09
-7.784180e-09 4.083548e-09 1.123152e-09 2.111378e-10 3.081679e-11 -4.989575e-11
-2.000436e-09 2.729641e-09 -1.976204e-10 -1.366973e-10 -3.057037e-10 -2.049888e-11
4.055071e-08 1.556269e-09 -9.548750e-09 1.915286e-08 1.597681e-09 3.194662e-09
2.413249e-08 1.693049e-08 -9.934309e-09 1.898047e-08 3.475524e-11 -3.329607e-09
2.758587e-08 2.467557e-09 -8.580594e-09 6.218327e-09 -1.517666e-09 -1.593528e-09
6.270751e-08 -2.007833e-08 2.842462e-09 6.838592e-09 2.233046e-09 2.986408e-09
6.743074e-08 -2.629392e-08 3.237595e-09 6.281265e-09 2.772674e-09 1.117823e-08
-8.634894e-09 -9.383037e-09 8.755783e-10 -1.262099e-09 -7.139247e-10 -1.822214e-09
5.381296e-08 -1.268480e-08 -1.297522e-09 5.902772e-09 3.331662e-09 2.952097e-09
-8.937455e-10 -2.034515e-08 9.603918e-10 -7.704193e-10 -1.473711e-09 -1.464697e-09
3.585253e-09 -3.116536e-08 4.657705e-10 -1.678635e-09 -1.778661e-09 -4.292516e-10
9.247036e-09 -4.545043e-09 -1.364076e-09 -5.522736e-09 -8.972334e-11 3.862668e-10
3.281868e-08 3.281710e-09 -5.052016e-09 1.239130e-08 1.224271e-10 4.676517e-09
4.490092e-09 -2.836157e-09 -6.993708e-10 2.060959e-09 2.375971e-10 -3.512746e-12
5.421138e-08 -5.280379e-09 -1.111328e-08 3.711666e-10 -5.989772e-10 2.652849e-09
8.793186e-09 -4.226808e-09 -1.388782e-09 -5.517142e-09 7.111045e-11 -1.163400e-10
4.930683e-08 -1.559657e-08 -7.282487e-09 6.541928e-10 -2.808042e-09 -1.004473e-09
1.104469e-08 -5.138365e-09 -3.164491e-11 6.641191e-09 3.242284e-10 1.888798e-10
3.756818e-08 -3.184292e-09 -7.275504e-09 9.476119e-09 4.743147e-10 1.727613e-09
2.242517e-09 2.016002e-10 -1.193143e-10 6.848810e-09 -9.869705e-11 -3.363005e-10
3.292074e-08 3.877578e-09 -1.029142e-08 8.261525e-09 -2.045604e-09 -3.879006e-09
-4.421265e-09 -2.088639e-08 4.801585e-09 -1.598917e-09 -1.947251e-09 -8.832570e-10
-2.194951e-09 1.430629e-09 1.886553e-10 3.281375e-11 -9.496892e-11 6.661276e-16
-4.540539e-09 2.596710e-09 5.695249e-10 3.528662e-10 4.356626e-11 2.367466e-10
-3.335357e-09 2.164304e-09 3.677927e-10 7.703840e-10 1.351159e-10 -2.523870e-11
-1.003407e-09 -7.335599e-11 2.739631e-11 2.074124e-09 3.301846e-10 7.322820e-11
-2.935700e-09 1.592098e-09 2.773906e-10 -1.595220e-11 1.228686e-10 -1.916500e-11
8.938930e-10 -1.709317e-10 -4.031908e-11 -5.753176e-13 2.291223e-10 -1.398714e-11
3.729960e-09 -2.307489e-09 -7.117125e-10 1.192870e-10 2.997154e-10 -1.537792e-11
-6.281876e-09 -5.490057e-09 -6.588084e-09 -1.422386e-08 -1.206972e-08 -3.652961e-09
4.067143e-09 3.674534e-08 -6.008617e-08 -4.149608e-09 -6.851556e-09 5.710134e-09
-1.441479e-08 1.534674e-09 -2.814487e-09 -8.660293e-09 -4.771650e-09 -2.398363e-09
-1.544058e-07 -6.295922e-08 3.985734e-07 1.990356e-08 9.063038e-08 4.233344e-08
-7.758644e-09 1.130758e-07 -9.902505e-08 8.773233e-09 -5.479934e-09 -9.281373e-09
-1.185178e-08 -1.245204e-08 1.120914e-09 -8.177330e-09 -7.222258e-09 -8.915648e-10
1.562105e-09 -2.830895e-08 -1.915837e-10 -1.873042e-08 -1.501661e-08 -3.380289e-09
-1.852307e-08 -3.365798e-08 1.797378e-07 -2.429307e-09 -2.186769e-09 -3.517108e-08
-3.825006e-08 -3.893674e-08 2.094803e-07 -1.295622e-08 -1.751626e-09 -2.192109e-08
-1.411011e-08 -8.150486e-09 1.689549e-09 -1.301744e-08 -9.188289e-09 -2.934026e-09
-1.510877e-08 -5.747876e-09 -5.972283e-09 -1.496706e-08 -1.035399e-08 -4.475080e-09
-1.906061e-08 1.792205e-08 -1.283493e-08 -1.690678e-08 -1.382226e-08 -1.151023e-08
-1.838067e-08 1.256463e-09 -4.496648e-09 -2.424776e-08 -1.609747e-08 -8.721161e-09
2.568731e-09 -8.003797e-10 -3.193517e-10 5.282772e-09 4.497174e-10 -9.856560e-12
5.685115e-09 -3.768542e-09 -8.427795e-10 1.565315e-09 6.015263e-11 3.255618e-12
-1.762732e-08 1.710094e-09 -1.511823e-09 -1.227047e-08 -1.240155e-08 -3.648155e-09
-1.903468e-08 1.601803e-08 -1.069982e-08 -8.179331e-09 -1.087326e-08 -4.380987e-09
-1.399041e-08 2.190796e-08 -6.427827e-09 -5.444168e-09 -8.101460e-09 -7.313549e-09
1.025275e-08 -5.829770e-09 -1.342005e-09 -3.405928e-10 -7.258311e-11 3.041031e-10
1.041134e-08 -5.549804e-09 -1.369486e-09 -5.821400e-10 -4.857370e-11 2.450278e-10
4.934044e-09 -2.415732e-09 -6.293912e-10 1.330484e-09 -1.924388e-11 3.470051e-10
8.705283e-09 -4.928712e-09 -1.070517e-09 8.680776e-10 6.131415e-11 3.469639e-10
3.897312e-09 -1.675964e-09 -5.456267e-10 3.256262e-09 8.919154e-11 2.180861e-11
4.609657e-09 -2.105426e-09 -6.061438e-10 4.260081e-09 3.842358e-10 1.806806e-10
3.359000e-09 -1.675964e-09 -4.546159e-10 3.296566e-09 3.216392e-10 1.021803e-10
3.816926e-09 -1.921280e-09 -6.650680e-10 2.639245e-09 1.821593e-10 3.320016e-10
1.503143e-08 -8.108821e-09 -3.118817e-10 2.105952e-09 2.166323e-10 1.499846e-10
9.846206e-09 -5.909728e-09 -1.321332e-09 6.521731e-10 1.225688e-10 3.520351e-10
8.665626e-09 3.246450e-08 3.195751e-08 -4.650940e-08 -2.478000e-08 1.354951e-08
1.099771e-08 5.938230e-08 -8.824248e-08 3.438889e-08 3.399659e-08 -3.531470e-08
-1.173180e-07 -1.029424e-07 4.228331e-07 6.497127e-10 -3.685900e-08 7.615801e-08
-1.984818e-08 1.603450e-08 -7.696645e-09 -8.628175e-09 -1.123200e-08 -4.634543e-09
-7.680345e-09 1.382595e-08 -7.680573e-09 -1.211876e-08 -3.457183e-10 2.070811e-10
-8.872654e-09 -3.075251e-09 1.280557e-09 -8.341030e-10 -9.733749e-10 1.714558e-10
1.783456e-08 4.295722e-08 -9.711752e-08 -8.365424e-09 -3.796946e-08 1.439696e-08
-1.577017e-08 1.952939e-08 -1.160580e-08 -1.198758e-08 -1.047182e-08 -7.636254e-09
5.181104e-09 3.027532e-08 -6.139166e-08 3.740626e-09 -2.290102e-08 1.945246e-08
-1.800947e-08 8.766644e-09 -1.699067e-08 -1.781914e-08 -1.838345e-08 -1.129322e-08
-7.082066e-09 5.056581e-09 8.633141e-10 -1.325506e-09 -1.715728e-10 -1.762908e-10
-5.413102e-09 4.554272e-09 3.214067e-10 -2.064204e-09 -1.643611e-10 -3.012146e-11
-6.862976e-09 4.865864e-09 8.259871e-10 -1.730034e-09 -9.825640e-11 -4.057554e-11
-5.850850e-09 4.557291e-09 4.606551e-10 -2.291962e-09 -1.020626e-10 -2.357781e-10
-6.049540e-09 2.713594e-09 9.764385e-10 1.584854e-09 1.373274e-11 -7.495338e-12
-1.888787e-08 2.397362e-08 -2.432691e-08 -1.950297e-08 8.461866e-09 8.946982e-09
-6.749200e-09 8.507368e-09 -1.743620e-08 -2.433945e-08 7.963592e-09 5.975059e-09
1.239973e-08 -2.738326e-09 -5.276850e-08 -2.588141e-08 5.548801e-09 8.476157e-10
-7.793816e-09 1.296324e-09 -3.440002e-08 -3.071431e-08 1.602102e-08 1.346751e-08
1.444829e-08 -3.698759e-08 -1.226317e-09 -9.690738e-09 -4.618274e-10 -1.088608e-09
-4.258079e-09 -1.306167e-08 1.418347e-09 -1.228940e-08 1.594639e-09 -3.315224e-10
-6.704085e-09 4.567272e-09 6.008438e-10 -2.692867e-09 -1.421303e-10 -2.945568e-10
-6.365307e-09 4.617395e-09 4.436493e-10 -2.859924e-09 -2.385376e-10 -2.465490e-10
1.045598e-08 -5.770234e-09 -1.358274e-09 -4.768471e-10 -3.606838e-11 -4.701950e-11
-7.256781e-09 4.667030e-09 7.025527e-10 -2.798559e-09 -3.565435e-10 -2.476883e-10
6.826335e-09 -3.601470e-09 -8.889707e-10 -3.696871e-11 5.653256e-11 5.567102e-12
8.499422e-09 -3.572761e-08 8.295326e-09 3.556489e-09 8.372366e-10 2.350919e-10
9.347431e-09 -5.281589e-09 -1.332833e-09 -1.083096e-10 -2.778730e-11 6.300932e-12
2.477071e-09 -3.195676e-08 8.002943e-09 6.841612e-09 2.927263e-10 2.017539e-10
-2.059763e-08 4.158905e-08 -1.585399e-08 -9.420988e-10 7.572152e-09 -1.085130e-08
1.967109e-09 -3.261651e-08 7.068857e-09 5.589005e-09 2.069048e-10 -7.556580e-10
-1.615540e-08 3.535772e-08 -1.543077e-08 -2.611233e-09 4.139046e-09 -4.775983e-09
-2.136732e-08 7.286814e-08 -4.854115e-08 1.609063e-09 1.047813e-08 -1.941607e-08
5.252182e-09 1.664131e-08 -5.903587e-08 3.743732e-08 3.136424e-08 -1.803758e-08
-9.508913e-09 -1.428804e-08 2.552181e-12 1.429861e-08 1.347061e-10 -8.269651e-11
6.063462e-09 1.233159e-08 -6.099695e-08 3.789580e-08 2.656218e-08 -1.581933e-08
8.841834e-09 -3.677721e-08 8.520574e-09 4.948814e-09 1.032046e-10 -6.282615e-11
2.103917e-08 1.042371e-08 -8.079517e-08 1.059650e-08 -3.466264e-08 1.765184e-08
4.348503e-09 -3.791243e-09 -4.080063e-08 1.470138e-08 -1.934275e-08 1.214774e-08
8.810323e-09 -3.624556e-08 7.086155e-09 6.758225e-09 1.161662e-09 1.815961e-10
1.301973e-08 -4.395323e-08 3.538783e-10 -1.433044e-09 -2.019949e-09 1.299381e-10
-1.151488e-08 -6.158771e-09 8.616174e-10 -4.384386e-09 -2.844998e-09 -4.671172e-10
2.672376e-08 -4.390380e-08 -2.205532e-08 1.427859e-08 -2.473632e-08 6.608985e-09
6.603157e-09 -3.416350e-08 7.196509e-09 7.339757e-09 9.443837e-10 -3.034071e-10
7.169280e-09 -3.581906e-08 6.714719e-09 8.149515e-09 1.859160e-09 -5.999321e-10
-9.279011e-09 -1.325206e-08 -9.531994e-10 -1.928258e-08 -1.363875e-08 -4.998029e-09
2.373445e-09 -3.260803e-08 -6.302239e-10 -1.841448e-08 -1.721575e-08 -3.975485e-09
2.025215e-08 -5.265849e-08 -4.374847e-10 -1.079245e-09 -2.060531e-09 3.708185e-10
1.783489e-08 -5.186320e-08 4.275400e-09 -4.942827e-09 -9.679243e-09 -3.085648e-10
1.600893e-10 -1.897633e-08 -4.099091e-09 -6.887844e-09 -6.587348e-09 -2.534803e-09
1.281306e-08 -4.503894e-08 -3.053828e-10 -1.451880e-08 -1.933470e-08 1.021090e-09
6.338352e-11 2.986038e-10 -1.084546e-10 6.295688e-10 4.165921e-10 -8.267176e-11
3.855124e-09 -1.462469e-08 -9.312896e-09 -1.476252e-08 -1.284712e-08 -4.527700e-09
-1.819779e-08 9.560046e-08 -5.194473e-08 9.922926e-09 4.384455e-09 -4.893181e-08
-3.173001e-08 7.879947e-08 -5.787991e-08 1.525977e-08 -6.088321e-09 2.998335e-08
-2.327836e-08 9.686419e-08 -2.714345e-08 1.406080e-08 -2.436117e-08 3.493119e-08
2.706295e-09 -2.501773e-08 -1.335238e-08 -2.181979e-08 -1.945946e-08 -8.236623e-09
-4.058692e-08 -9.619014e-09 2.288093e-07 -4.411253e-08 -9.536953e-08 7.572353e-08
-1.105221e-08 4.937022e-09 -1.569263e-08 6.017260e-09 -7.964015e-09 6.503305e-09
3.848112e-09 9.522390e-09 1.924343e-09 -2.474923e-08 4.290164e-09 -5.561391e-10
2.100162e-08 2.753461e-08 -7.944858e-08 3.586030e-09 -3.451967e-08 2.029330e-08
1.157877e-08 2.941695e-09 -1.373790e-10 -2.008532e-08 1.944216e-10 -5.689157e-10
1.802587e-08 -5.039151e-08 2.520958e-09 9.857249e-09 -1.702204e-08 2.323285e-09
6.761715e-09 1.310784e-09 1.500131e-08 -2.463886e-08 5.449185e-10 -2.731870e-09
1.575975e-08 -7.193707e-09 3.891858e-08 -2.250358e-08 1.509609e-08 -2.087492e-08
9.305919e-09 -2.753798e-08 -1.058791e-08 -1.620234e-08 -1.658125e-08 -3.895197e-09
-7.379896e-09 2.321137e-09 1.721045e-09 5.394922e-10 3.819151e-10 -5.045622e-10
-7.683628e-09 3.387548e-09 1.277535e-09 7.860334e-10 1.051702e-10 -1.273202e-10
-8.013579e-09 1.733350e-09 1.925173e-09 1.585452e-10 9.040696e-11 -3.885433e-10
-7.120926e-09 2.831551e-09 1.320261e-09 6.392793e-10 1.748047e-10 -3.116144e-10
-7.629340e-09 3.366403e-09 1.433073e-09 4.549605e-10 -3.639666e-11 -3.915601e-11
-7.557409e-09 3.137151e-09 1.479319e-09 1.011421e-09 -2.154188e-11 -2.054153e-10
1.665918e-09 7.319498e-10 6.060346e-10 8.660928e-09 -2.687852e-10 -1.048610e-09
-7.588226e-09 2.875717e-09 1.442240e-09 8.290452e-10 1.072260e-10 -1.659846e-10
-1.426282e-09 2.520721e-09 5.172049e-10 6.977832e-09 2.558864e-10 -1.337070e-10
1.049010e-08 -3.728177e-09 -1.638054e-10 7.957226e-09 4.588473e-10 -3.577187e-10
-7.839473e-09 2.918949e-09 1.622119e-09 7.640279e-10 1.972480e-10 -2.499430e-10
2.223906e-10 3.125114e-09 7.131140e-10 9.251804e-09 -1.566818e-10 -6.939179e-10
4.256092e-09 -1.979223e-09 -5.568670e-10 3.870691e-09 -6.431100e-11 -3.056229e-10
7.811604e-09 -3.674606e-09 -1.020301e-09 3.019991e-09 1.133038e-11 -1.057027e-11
-3.786669e-09 -2.164452e-08 -1.319645e-08 -2.110557e-08 -2.021681e-08 -7.152561e-09
1.753513e-10 -2.493354e-08 7.873638e-09 5.460305e-09 7.703932e-10 -1.562642e-10
-1.726927e-08 -3.618271e-09 1.223005e-09 -3.927740e-09 -4.179107e-09 -4.596397e-10
3.432115e-09 -2.964614e-08 8.079366e-09 5.254983e-09 8.453943e-12 -5.342660e-11
-1.552877e-09 8.885788e-10 1.051745e-10 3.282433e-09 -1.530349e-10 -4.826908e-10
-4.124250e-09 -8.238156e-09 4.142185e-09 -2.793763e-09 5.907626e-10 -1.240771e-09
-1.504047e-08 1.741451e-08 -1.496785e-09 2.300690e-09 8.390504e-10 7.726616e-10
3.409422e-09 -3.150526e-08 8.343561e-09 1.031496e-09 2.278300e-10 -5.283396e-11
-1.485582e-08 9.426029e-09 -1.732034e-09 -2.153687e-09 2.460475e-09 1.176332e-09
-1.752273e-08 1.880161e-08 -3.238982e-09 -1.398526e-09 1.436588e-09 2.432420e-09
5.547408e-09 -3.568832e-08 8.191641e-09 3.678900e-09 9.006856e-10 -3.961829e-10
3.223102e-10 -2.844287e-08 7.717966e-09 4.480106e-09 -1.695376e-11 2.307215e-10
-1.078665e-08 3.080298e-09 1.167904e-09 -1.746722e-09 -2.643150e-10 -3.130012e-10
-1.277681e-08 5.332924e-09 -2.166169e-10 -3.548083e-09 1.987038e-09 4.276275e-10
-1.880075e-08 9.857386e-09 -4.411099e-09 -1.037343e-08 3.561102e-09 3.188261e-09
2.732778e-09 -2.872765e-08 6.911006e-09 7.853967e-09 5.222062e-10 1.307450e-10
2.419442e-09 -2.891326e-08 7.557180e-09 6.925457e-09 3.561050e-10 -4.300744e-10
-5.133453e-09 4.777776e-09 2.497038e-10 -9.868213e-10 -8.748624e-11 -1.668519e-10
-5.171330e-09 4.478645e-09 2.483906e-10 -2.420606e-09 -2.373394e-10 -3.153950e-10
-6.176403e-09 4.497083e-09 4.160379e-10 -2.632610e-09 -3.437604e-10 -3.317168e-10
-1.525035e-08 1.647115e-08 -5.450513e-09 -4.361854e-09 -1.069127e-08 -1.932403e-09
-4.846366e-09 4.109316e-09 2.430469e-10 -2.305249e-09 -1.782560e-10 -3.723620e-10
8.641799e-09 -1.515181e-08 -2.308193e-08 1.020033e-08 -1.413097e-09 -7.309419e-10
-7.028957e-09 4.979683e-09 7.199232e-10 -1.536207e-09 -1.734983e-10 -5.480867e-10
-7.187062e-09 5.140475e-09 5.168102e-10 -1.209697e-09 -1.682688e-10 -4.885277e-10
-5.450860e-09 4.282311e-09 1.309797e-10 -2.152476e-09 -2.128163e-10 -2.591607e-10
-1.135278e-08 5.122030e-09 9.035945e-10 -1.155381e-09 -2.816737e-10 -8.752876e-10
-8.745605e-09 5.961025e-09 1.143756e-09 2.388281e-09 6.861093e-10 -2.315486e-10
-8.796413e-09 6.055580e-09 1.085744e-09 2.287699e-09 -1.957599e-10 -7.479212e-11
-5.744837e-09 4.330728e-09 3.850942e-10 -2.052621e-09 -9.647416e-11 -2.080027e-10
-6.555727e-09 3.592534e-09 1.020189e-09 2.836390e-09 2.847045e-10 -2.552500e-10
-9.688454e-09 6.801285e-09 1.191072e-09 8.352101e-10 -5.659994e-10 -5.522503e-10
8.450238e-08 -1.292831e-08 -1.826204e-08 1.777756e-08 1.014568e-08 1.968793e-08
6.515626e-08 -1.668791e-08 -1.004119e-08 5.418389e-09 -1.658404e-09 6.635918e-09
8.016086e-09 -4.475406e-09 -1.061487e-09 1.827523e-09 2.285926e-10 -3.934087e-11
8.296979e-08 -2.943762e-08 2.016214e-08 -1.180803e-08 -4.019509e-09 4.594605e-08
8.784782e-08 -2.682187e-08 2.041112e-08 -1.935785e-08 -1.168231e-08 4.913454e-08
8.720467e-09 -1.193234e-09 4.281569e-09 1.435503e-08 -6.447672e-10 -1.383547e-09
6.231783e-08 -1.206356e-08 -2.513750e-09 -1.668016e-08 -8.826170e-09 1.608559e-08
6.188009e-08 -2.154490e-08 8.118037e-09 -1.531012e-08 4.020313e-10 2.045485e-08
-9.847135e-09 -1.524754e-08 -2.944466e-09 1.862289e-08 4.652094e-09 -2.022384e-09
1.959360e-08 1.937003e-08 -9.547125e-09 -1.462728e-08 -2.419807e-11 -2.854912e-09
-2.080130e-08 6.210735e-08 1.039904e-08 2.856092e-08 5.719143e-09 2.068588e-09
-9.045641e-10 -7.380102e-09 1.021401e-07 -3.353124e-08 -1.027370e-09 -5.329402e-08
2.455113e-10 2.922422e-08 -7.758601e-09 -3.137795e-08 5.268638e-09 9.285794e-10
8.417524e-08 -1.342352e-08 -1.293188e-08 1.719436e-08 8.923137e-09 1.998101e-08
6.078891e-10 1.991093e-08 -4.392264e-09 -2.813363e-08 3.485627e-09 2.117544e-10
-1.205256e-08 7.793613e-09 -4.475247e-10 -5.893170e-09 2.257991e-09 8.327490e-10
7.736369e-08 -3.015168e-08 2.380727e-08 -9.740245e-09 -2.923171e-09 4.134495e-08
3.949751e-08 -7.259208e-10 4.901572e-09 -2.524903e-08 -9.473781e-09 1.427804e-08
-1.140698e-08 6.190738e-09 5.402230e-10 -2.033411e-09 3.352201e-10 3.426472e-10
-6.605177e-09 -4.808062e-09 3.574729e-09 2.735611e-10 3.825962e-11 -2.453144e-10
-6.605211e-09 -4.126636e-09 3.597072e-09 3.512949e-10 1.302292e-12 -3.428360e-10
-7.067557e-09 1.696039e-09 1.678528e-09 8.059318e-10 -6.272094e-11 9.373082e-11
-8.127352e-09 1.270625e-09 1.751088e-09 -4.595782e-10 -7.217560e-11 6.040346e-11
-7.104106e-09 -1.791619e-09 3.320596e-09 3.249774e-10 1.937028e-11 -6.034653e-10
9.321046e-08 -1.467240e-08 3.978106e-10 -2.857752e-08 -1.142454e-08 4.512940e-08
-7.441441e-09 4.463874e-10 2.139132e-09 1.263045e-10 3.291515e-10 -5.054293e-10
-9.468022e-09 2.718319e-10 2.016563e-09 -2.979757e-09 -1.998934e-11 3.592218e-11
1.705557e-09 -1.870649e-08 5.806815e-09 -2.578048e-10 -1.117950e-11 -5.515999e-10
-5.943105e-09 -6.108019e-09 3.943827e-09 1.818723e-10 2.220947e-16 1.378546e-10
-3.624331e-09 -2.322337e-08 7.672511e-09 1.686858e-09 -1.531064e-10 -2.365443e-10
5.200973e-09 -2.379216e-09 -6.350049e-10 3.211406e-09 -4.404371e-11 8.496343e-12
-5.309363e-09 -1.949474e-08 6.942420e-09 1.302117e-09 3.170889e-10 4.573257e-11
8.717966e-08 -2.681732e-08 2.889430e-08 -1.946632e-08 -1.131885e-08 4.864782e-08
-2.618086e-09 -2.251755e-08 7.864780e-09 6.929701e-10 -2.056031e-11 6.977113e-11
8.732909e-08 -3.745457e-08 8.489721e-09 -1.375141e-08 -1.216532e-08 5.222220e-08
1.387702e-09 2.678269e-11 -1.244311e-10 5.469659e-09 2.329863e-10 3.082543e-10
-6.704250e-09 3.365042e-09 1.050843e-09 5.985639e-10 9.632517e-11 -3.819833e-11
-8.140952e-09 3.610596e-09 1.407196e-09 2.048481e-10 3.329825e-11 -1.237489e-10
-9.005942e-10 -2.361338e-08 7.217905e-09 8.746361e-09 7.749452e-10 1.420946e-10
-8.043990e-09 4.219992e-09 1.164711e-09 1.311697e-10 5.506134e-11 -8.939816e-11
-4.690647e-10 -2.806451e-08 7.404540e-09 7.447365e-09 -1.354849e-10 4.524191e-10
-5.696581e-09 -2.223782e-08 5.842086e-09 7.947688e-09 7.174667e-10 -7.052316e-11
-1.026461e-09 -2.478479e-08 7.269208e-09 5.238800e-09 4.485378e-10 -5.403011e-10
-1.453076e-08 1.953907e-09 -2.607732e-09 -9.492603e-09 -6.038419e-09 -2.413879e-09
-1.886206e-08 2.317647e-09 2.824443e-10 -4.909033e-10 0.000000e+00 0.000000e+00
-8.354754e-09 -1.079098e-08 3.728490e-09 -8.334577e-09 -4.517799e-09 -1.150913e-09
-8.782476e-09 2.725233e-09 1.479313e-09 1.392829e-10 3.617240e-10 -3.727924e-10
-7.913916e-09 7.274785e-10 1.988028e-09 -4.554943e-10 5.534883e-11 -4.961835e-10
-7.992948e-10 -2.850617e-08 7.876845e-09 7.868412e-09 9.960519e-10 -4.147798e-10
-6.281094e-09 -4.588106e-09 3.249647e-09 -3.582720e-09 3.589804e-10 -6.259198e-10
-1.063187e-08 2.015809e-09 8.081513e-10 -3.845227e-09 1.327783e-09 -1.451555e-10
-3.129058e-09 -2.477331e-08 7.297813e-09 4.943128e-09 4.303220e-10 -1.246745e-10
-7.927912e-09 2.815787e-09 1.751584e-09 9.067548e-10 4.216627e-10 -5.041687e-10
-8.023353e-09 3.855711e-09 1.418473e-09 1.233298e-09 9.746531e-11 5.356110e-11
1.086665e-08 -3.809082e-08 3.638386e-09 1.027152e-08 -9.198282e-10 2.610482e-10
1.817439e-08 -4.334817e-08 2.453578e-09 2.887432e-09 2.963207e-09 -6.363161e-10
1.142667e-07 -3.066367e-08 2.171030e-09 7.146158e-10 -7.747050e-09 5.566314e-08
1.253683e-08 -4.085203e-08 8.053724e-09 4.428743e-10 1.462870e-10 -8.616219e-11
1.233951e-08 -4.039687e-08 7.768528e-09 2.337619e-10 2.396838e-10 -4.804224e-10
-4.139360e-09 -8.864878e-09 3.124668e-09 -8.045050e-09 -3.122789e-10 2.230738e-10
-9.482506e-09 1.352325e-08 -7.044026e-09 -1.133999e-08 -2.799812e-10 3.999839e-10
-5.875449e-09 4.366395e-09 4.416649e-10 -4.726438e-09 -4.938538e-10 4.829256e-11
8.579432e-08 -1.216949e-08 -5.679232e-09 -2.392376e-08 -8.156137e-09 3.831324e-08
8.598846e-10 -4.738077e-10 -1.069996e-10 1.039329e-09 4.360365e-10 4.065426e-11
-1.120995e-09 7.776331e-10 1.073439e-10 -2.910961e-13 5.244195e-10 1.089528e-11
-1.120993e-09 7.774874e-10 1.194758e-10 1.619029e-10 9.984658e-11 8.577583e-12
8.848223e-08 -1.261934e-08 1.334580e-08 -2.322440e-08 -5.787606e-09 4.553519e-08
-6.585150e-10 1.216947e-10 -4.376111e-11 1.034460e-09 3.731908e-10 -1.075460e-10
4.190892e-09 -2.711903e-09 -7.538588e-10 1.029665e-09 1.944584e-10 2.216670e-10
2.704276e-09 -8.522694e-10 -4.009422e-10 3.253853e-09 4.353055e-10 8.390892e-11
6.282262e-08 1.713966e-09 8.117932e-09 -3.325030e-08 -8.864333e-09 2.191502e-08
7.022028e-08 -1.381412e-08 1.158748e-08 2.463986e-08 4.762835e-09 3.483264e-08
-7.439797e-09 3.736806e-09 1.183701e-09 3.392049e-10 4.960793e-11 -5.318905e-11
-1.149520e-08 3.081677e-08 -4.255082e-08 -2.186585e-08 1.991375e-08 1.436654e-08
-7.927758e-09 3.761327e-09 1.174906e-09 5.865881e-10 7.706813e-11 -1.175828e-10
1.604548e-08 -6.493510e-09 1.219357e-09 7.856425e-09 -2.220042e-10 -1.837205e-09
-7.276032e-09 2.829577e-09 1.472162e-09 9.777352e-10 8.060019e-11 -1.587378e-10
-8.098013e-09 3.209161e-09 1.582058e-09 4.312408e-10 8.724510e-11 -1.625984e-10
4.292893e-09 -8.570148e-10 -1.958660e-10 7.281947e-09 5.343706e-10 6.449734e-10
-7.444263e-09 3.717228e-09 1.220865e-09 3.541327e-10 4.850109e-11 -3.629513e-11
-7.520179e-09 3.473053e-09 1.185158e-09 7.427250e-10 5.344392e-12 -7.903345e-11
-6.448486e-10 6.722477e-10 4.320411e-11 4.513422e-09 4.985286e-10 1.212235e-10
-2.515161e-09 3.692569e-09 -2.563312e-10 -7.134553e-09 -3.886136e-10 2.688878e-10
-5.870582e-09 4.592565e-09 8.602763e-11 -5.231762e-09 -3.994504e-10 5.037701e-10
-7.427355e-09 3.393112e-09 1.062753e-09 7.478249e-10 1.042654e-10 -8.485168e-11
-7.398755e-09 3.457621e-09 1.198194e-09 9.170251e-10 1.672110e-10 -1.724755e-10
-1.943583e-08 7.756222e-08 -8.642790e-08 -1.962541e-09 -3.280701e-08 -1.825520e-08
-8.403684e-09 -4.527849e-09 2.289938e-09 -1.506735e-10 -1.658419e-10 -7.473545e-10
-4.372877e-09 4.276362e-09 -1.676903e-10 -6.243346e-09 8.501910e-11 -5.557949e-13
-1.023764e-08 9.397567e-10 1.683188e-09 -9.914464e-10 -4.035247e-10 2.903433e-11
-7.356881e-09 4.492071e-09 4.452523e-10 -4.640365e-09 -6.595076e-10 8.781864e-11
-9.188748e-09 -1.674936e-08 3.672647e-09 1.722368e-08 7.249729e-09 -2.538365e-09
-1.546173e-08 1.072484e-07 -1.026305e-07 -8.760837e-09 -3.497015e-09 -3.403562e-08
-3.760379e-08 1.368012e-07 -1.266899e-08 -3.410130e-08 4.998081e-08 -1.551432e-08
-2.139777e-08 6.031682e-08 -2.114746e-08 2.233026e-08 -4.043304e-10 -1.605719e-08
-4.393096e-08 4.957541e-08 6.204384e-08 3.383466e-08 1.037837e-09 2.519221e-08
-2.427167e-08 7.755065e-08 -1.548504e-08 2.387777e-08 9.844465e-09 -1.413017e-08
-8.339121e-09 4.768244e-08 -3.683203e-08 -7.524497e-10 -1.127317e-08 -1.535702e-08
3.405601e-08 -3.174875e-08 7.885135e-08 4.279267e-08 3.434207e-08 3.426344e-08
-3.665147e-08 9.922616e-08 -3.715916e-08 3.419153e-09 1.143395e-08 4.692853e-09
-3.643843e-08 -5.379867e-08 2.042429e-07 2.814441e-08 5.303815e-09 1.915819e-08
-7.821359e-09 4.752110e-08 -5.095448e-08 -3.397158e-09 -4.503392e-09 8.369368e-11
-1.079339e-08 3.433722e-08 -3.054535e-08 -2.133101e-09 -4.493206e-09 -5.659553e-09
-2.188035e-08 1.308350e-07 5.990647e-10 -2.200426e-08 4.473146e-08 -3.170289e-08
-5.110800e-09 4.733448e-08 -3.738842e-08 5.834930e-09 -4.505629e-09 -3.581380e-09
1.987365e-08 -4.350790e-08 -1.975912e-09 8.361119e-09 4.674338e-09 -1.475156e-09
8.847654e-09 -3.600247e-08 5.391122e-09 8.072762e-09 4.806733e-10 -8.836654e-11
-3.058357e-08 1.031978e-07 -3.824096e-08 -3.873407e-09 1.712385e-08 -1.397750e-08
5.251485e-09 -2.283957e-09 -5.886016e-10 4.711755e-09 -4.325141e-11 -5.504832e-10
1.432378e-08 -4.006078e-08 2.825233e-09 8.436673e-09 4.305072e-10 1.049757e-10
2.503209e-08 -4.373313e-08 -1.113990e-08 -4.476639e-09 8.871850e-09 7.649120e-10
1.860638e-08 -4.351783e-08 -2.872325e-09 6.507167e-09 -8.092473e-10 -1.170198e-10
7.596976e-09 -3.080163e-08 6.779700e-09 -1.446083e-09 -8.960172e-10 -1.383878e-10
1.107952e-08 -3.720834e-08 7.499572e-09 1.419577e-10 1.361212e-10 -2.150770e-10
1.119149e-08 -3.677750e-08 4.239392e-09 -7.173032e-09 3.880176e-10 -5.338001e-10
1.736920e-08 -1.061114e-08 4.871580e-09 3.990748e-09 -4.297666e-10 -1.881726e-09
-6.792550e-08 6.095770e-08 1.393025e-07 -1.669648e-08 3.892172e-08 -1.291523e-08
5.836296e-08 -1.415768e-09 1.034582e-09 2.837692e-08 8.534243e-09 2.034026e-08
1.979585e-08 -7.875797e-09 9.040848e-10 5.922725e-09 3.972584e-10 -1.131657e-09
1.447615e-08 -5.901538e-09 3.196637e-09 9.823813e-09 9.487671e-11 -1.467784e-09
-1.385864e-08 4.215095e-09 -2.827004e-09 -9.512030e-09 -9.012193e-10 -2.756206e-10
-9.397828e-09 3.993073e-09 1.525701e-09 -2.930918e-09 1.100856e-09 2.262888e-10
3.561396e-08 -4.330315e-09 -7.499719e-09 9.276028e-09 -5.576282e-10 2.354870e-09
7.787007e-08 -2.637680e-08 1.259483e-08 5.235390e-09 4.553753e-09 2.544293e-08
3.244539e-09 -2.282111e-08 -7.613492e-10 -1.477201e-08 1.099076e-09 -1.536250e-10
-8.839009e-09 4.919455e-09 1.185318e-09 4.652662e-10 -4.388666e-11 -6.470151e-10
-1.144502e-08 -1.466669e-09 -1.132351e-09 -1.134523e-08 3.705443e-10 2.368377e-10
3.647492e-08 -5.470338e-09 -5.219214e-09 1.062305e-08 -1.059080e-10 -6.348935e-10
2.269376e-08 -3.616615e-08 -1.825281e-08 -1.233425e-08 3.509313e-09 1.519030e-09
1.958686e-09 -7.817840e-10 -2.772620e-10 1.188079e-09 2.816114e-10 -9.642132e-11
7.417313e-09 -4.208800e-09 -1.064494e-09 6.597350e-11 3.400630e-11 -1.620047e-10
3.013585e-09 -1.718175e-09 -3.654215e-10 1.010491e-09 3.563654e-10 3.139078e-11
2.197891e-09 -1.717937e-09 -3.494955e-10 1.056514e-09 3.698627e-10 -5.708778e-11
6.463158e-08 -2.252654e-08 -2.682889e-09 -2.706410e-10 -9.139097e-10 2.150403e-09
1.922344e-08 -8.108073e-09 -4.558744e-10 2.288775e-09 2.372822e-10 -1.800511e-10
4.700457e-08 -2.607988e-09 7.831111e-09 3.301250e-08 9.852673e-09 1.439531e-08
-1.467174e-09 1.804640e-09 3.200760e-10 5.810151e-09 1.863926e-10 -1.694440e-10
1.185245e-08 -4.806477e-09 9.842811e-10 8.873848e-09 3.010682e-10 -5.923821e-10
6.204834e-09 -2.536355e-09 -1.104632e-09 -2.024217e-09 -1.114473e-10 1.426947e-10
1.023587e-08 -4.366798e-09 -1.084303e-09 -9.116710e-09 1.020737e-10 -3.635762e-10
3.295696e-09 -2.124201e-10 -7.793548e-10 -6.930724e-09 -3.287937e-10 6.052350e-10
5.438285e-08 -2.749102e-09 4.719724e-09 2.990717e-08 1.173636e-08 1.500349e-08
7.526791e-08 -1.292408e-08 1.259042e-09 3.320363e-08 1.254658e-08 3.185220e-08
9.267196e-08 -3.166116e-08 5.835537e-08 1.743369e-08 1.157297e-08 6.006978e-08
1.588935e-08 -6.358329e-09 -3.074785e-10 5.854989e-09 4.005047e-10 -2.867471e-10
9.481596e-09 -3.735386e-09 -9.434231e-11 7.645268e-09 4.223139e-10 -1.553118e-10
6.526300e-08 -3.796807e-08 2.829702e-08 1.983108e-08 6.944425e-09 3.524386e-08
6.046873e-09 1.404647e-09 -2.656398e-08 9.396572e-09 -4.192295e-09 2.770061e-09
3.064706e-08 1.286556e-08 -4.418952e-10 -2.140060e-08 -5.062120e-09 7.320569e-09
3.521818e-09 -9.161035e-10 -3.217218e-10 6.581413e-09 4.421594e-10 -7.954382e-11
4.967643e-08 -8.355263e-09 8.891756e-09 -1.414404e-08 -2.990878e-09 7.081482e-09
9.104027e-09 -4.239135e-09 -1.397519e-09 -3.548642e-09 -2.321565e-10 2.818890e-10
4.463002e-09 -2.960243e-09 -3.466591e-08 3.104517e-08 5.112607e-09 -6.616673e-09
-2.324428e-08 2.296095e-08 -5.183840e-09 2.720540e-09 5.459978e-09 -1.074714e-09
3.611658e-09 -1.106977e-08 -2.043587e-08 1.104375e-08 -5.851866e-09 4.428497e-09
-5.913779e-09 5.937894e-08 -9.019968e-08 3.003825e-08 3.464714e-08 -2.748910e-08
-6.196627e-09 4.259118e-08 -5.586362e-08 3.506454e-08 2.180807e-08 -2.572367e-08
6.378271e-08 1.229585e-09 -6.490526e-09 -3.226194e-08 -1.288638e-08 2.264320e-08
4.021638e-08 8.375972e-09 1.224929e-08 -2.853150e-08 -1.220418e-08 2.416057e-08
2.824856e-08 -7.335695e-08 -2.093698e-09 1.068529e-08 -2.826550e-08 5.054457e-09
5.538442e-08 -8.323692e-09 -1.671664e-09 -1.484360e-08 -3.426019e-09 1.022605e-08
1.787514e-08 9.058374e-09 -5.824751e-08 1.269152e-08 -2.644109e-08 1.300506e-08
2.864932e-08 -1.025944e-08 -6.540022e-08 6.704091e-09 -3.283852e-08 8.349251e-09
2.378998e-08 -5.637954e-08 -2.305567e-10 4.651541e-10 -2.586789e-09 7.387509e-10
7.121860e-09 -3.380648e-09 -8.032801e-10 4.915267e-09 -6.478040e-11 -1.939728e-10
1.001076e-08 3.695720e-08 -6.437686e-08 -2.267976e-09 -8.502839e-09 4.638136e-09
2.332323e-08 2.131028e-08 -1.115441e-09 -2.424375e-08 -5.611077e-09 6.450962e-09
2.529956e-08 -5.310049e-08 -5.452794e-09 7.973977e-11 -2.624790e-09 -9.151459e-11
2.362990e-08 -4.586000e-08 -9.463802e-09 -8.016630e-10 7.121875e-19 -4.441843e-10
2.683814e-08 6.018079e-08 -1.406149e-07 2.303106e-08 6.255209e-08 -2.162623e-08
2.116109e-08 1.200180e-08 -5.006845e-09 -2.511698e-08 -3.582492e-09 -3.230175e-09
-9.999029e-08 -3.973616e-08 2.557882e-07 -2.291523e-08 -2.440969e-10 -1.089200e-08
1.907208e-08 9.454914e-09 1.253940e-08 -2.973593e-08 -1.560205e-08 1.076686e-08
-2.968993e-08 1.341343e-07 -2.110191e-08 -2.864665e-08 -6.179799e-08 -1.801205e-08
-2.050865e-08 9.332815e-09 -6.343192e-09 1.203095e-08 6.398805e-09 -2.256080e-09
-5.978064e-08 9.268754e-08 1.314493e-07 -3.271459e-08 -1.090312e-07 -2.519016e-08
-1.750597e-08 5.943480e-09 -7.275977e-09 1.412871e-08 3.439398e-09 -2.485569e-09
-1.780199e-08 -1.807582e-09 -2.384293e-09 1.222945e-08 5.148641e-09 -1.104046e-09
-1.535560e-08 -3.140798e-09 -4.168258e-09 1.410965e-08 2.174625e-09 1.044303e-10
-1.063275e-08 6.073678e-09 -4.219337e-09 -3.129543e-09 -2.916858e-09 1.988902e-09
-1.719974e-08 4.937164e-10 -5.182852e-10 5.223614e-09 1.686014e-09 5.887939e-10
-2.017498e-08 7.756716e-09 -4.579244e-09 5.055821e-09 1.614909e-09 -2.270567e-10
-1.865350e-08 2.984296e-09 -2.523227e-09 4.417495e-09 2.990124e-09 -2.376017e-10
-1.062963e-08 1.996922e-08 -1.709029e-08 -8.954897e-09 -6.486546e-09 8.683821e-09
-8.024310e-09 4.700055e-09 5.561613e-10 -3.179478e-09 -5.493436e-10 -1.166921e-09
-7.360556e-09 4.609801e-09 7.792624e-10 -2.960076e-09 -4.330385e-10 -3.792632e-10
-6.757289e-09 1.175600e-08 -5.422540e-09 -1.506459e-08 -6.366909e-10 1.889185e-09
-8.265562e-09 4.585115e-09 1.170831e-09 -1.555234e-09 -9.511847e-11 -1.675744e-10
-7.501099e-09 2.549996e-08 -1.490215e-08 -1.936748e-08 -3.893672e-09 9.809792e-09
-8.219759e-09 4.967614e-09 1.095954e-09 -1.864076e-09 -2.274581e-10 -6.390942e-10
-9.323199e-09 4.886251e-09 1.115911e-09 -1.531473e-09 -2.656107e-10 -5.816010e-10
-9.500399e-09 1.205441e-09 1.340187e-09 5.350169e-11 -1.903944e-09 -3.990576e-10
-2.031552e-09 3.522153e-09 -1.014486e-09 -9.188443e-09 -4.125304e-10 3.343164e-10
1.712986e-09 3.414298e-09 -1.595474e-09 -1.161332e-08 -7.532605e-10 4.322487e-10
-4.660506e-09 5.026373e-09 -1.004040e-09 -8.649270e-09 -3.875211e-10 9.940209e-10
-1.181249e-08 5.947446e-09 -8.509452e-09 7.135653e-10 -4.856566e-09 3.801088e-09
-7.701529e-09 4.774103e-09 8.096408e-10 -3.004770e-09 -1.118590e-10 -2.221729e-10
-4.450393e-09 5.810374e-09 -2.141220e-09 -1.130708e-08 6.168222e-11 -1.498344e-10
-1.503057e-09 6.214694e-09 -2.141221e-09 -1.247604e-08 4.451104e-12 7.480772e-11
-6.255144e-09 5.721945e-09 -1.271165e-09 -8.807627e-09 -1.101508e-09 2.125170e-10
-7.812115e-09 4.903181e-09 9.793819e-10 -3.230282e-09 -6.303003e-10 -7.050521e-11
-7.380626e-09 2.538859e-09 1.421989e-09 4.849603e-10 4.236889e-12 -2.927898e-10
2.724706e-08 -4.203747e-08 -1.666400e-08 -3.098417e-09 8.237422e-09 9.469202e-10
1.097329e-08 -3.814728e-08 1.619306e-09 1.116998e-08 8.162746e-10 -1.655654e-10
2.503167e-08 -4.182628e-08 -1.505743e-08 -4.513379e-09 7.384711e-09 7.181470e-10
2.780377e-08 -4.041485e-08 -3.011763e-08 7.620596e-09 4.651683e-09 -4.528828e-10
3.131100e-08 -3.682128e-08 -3.472524e-08 2.532495e-09 7.121437e-09 8.781832e-10
-8.332678e-09 2.038316e-09 1.816732e-09 1.167672e-09 9.922968e-11 -2.857824e-10
-7.712984e-09 1.862608e-10 2.288072e-09 8.231660e-11 1.319448e-10 -5.046851e-10
-8.096497e-09 2.034660e-09 1.972526e-09 3.248250e-10 1.218325e-10 -1.201345e-10
5.173292e-09 -2.379111e-09 -6.661374e-10 3.202916e-09 1.513080e-10 3.244833e-10
2.635709e-08 -3.392929e-08 -2.894882e-08 -1.113163e-08 7.497020e-09 8.825167e-10
2.197293e-08 -4.896720e-08 -1.079177e-08 7.402035e-10 8.975109e-09 -2.037714e-10
2.479491e-08 -4.180706e-08 -2.291186e-08 -3.516724e-09 1.814309e-09 4.910844e-10
-3.116452e-08 1.303637e-07 -6.080403e-09 -1.386507e-08 4.293136e-08 -5.687119e-09
-7.919891e-09 2.591010e-09 1.749040e-09 7.310110e-10 -5.277988e-11 -2.183768e-10
-1.769527e-08 1.067458e-07 -5.469097e-08 5.416994e-09 9.321085e-09 -9.512517e-09
-8.050800e-09 2.204795e-09 1.942844e-09 5.134029e-10 1.741284e-10 -3.524563e-10
1.100580e-08 -4.025642e-08 -1.190014e-08 -2.330568e-08 -2.464703e-08 -6.940598e-09
-2.774525e-08 4.932828e-08 2.596308e-08 2.931142e-08 -2.558997e-09 -5.132820e-10
-5.805294e-08 4.929367e-08 1.163445e-07 2.825286e-08 5.047757e-09 9.857327e-10
-3.651476e-08 7.069699e-08 1.358322e-08 3.736452e-08 1.982120e-08 -8.506593e-09
1.638941e-08 2.014929e-08 -7.585263e-09 2.154798e-08 7.463843e-10 7.871786e-10
-7.172828e-08 8.046346e-08 9.235918e-08 3.668730e-08 6.330002e-08 -3.567737e-09
4.012478e-09 -2.251689e-09 -6.488876e-10 2.020932e-09 4.227643e-10 8.142204e-11
1.601170e-08 -4.804084e-08 1.397428e-09 -1.299390e-08 -1.950456e-08 -1.501049e-09
5.880861e-09 -3.524935e-09 -8.356547e-10 2.702509e-09 1.743552e-10 9.673778e-10
2.213342e-08 -5.684782e-08 1.603269e-09 -3.210057e-09 -3.957530e-09 -1.931981e-09
1.774463e-08 -4.346521e-08 -3.914130e-09 -5.210466e-09 -8.973804e-09 -1.219593e-09
-4.642364e-10 -2.502084e-08 -1.240438e-08 -2.204603e-08 -1.938337e-08 -8.811586e-09
-1.074623e-08 5.929809e-08 -1.070115e-08 -2.111934e-08 -3.743463e-09 -6.804252e-09
1.359224e-08 -2.603700e-08 -1.250568e-08 -1.410873e-08 -1.632466e-08 -4.803232e-09
-1.419136e-08 -5.151348e-09 3.542743e-09 -5.920144e-10 -9.566536e-10 5.779231e-11
2.105335e-08 -4.381670e-08 -1.262630e-08 -1.359098e-08 -2.092299e-08 -3.267427e-09
2.095106e-08 -5.259267e-08 4.166257e-09 -5.535736e-09 -1.016093e-08 1.669564e-10
2.682424e-08 -5.020767e-08 -1.478715e-08 -2.431406e-09 -1.612103e-08 -6.311458e-10
1.262068e-08 -4.165962e-08 5.690429e-09 4.168730e-09 1.168902e-09 -3.385953e-10
1.482485e-08 -4.206733e-08 5.672073e-09 3.627333e-09 1.494213e-09 -3.424250e-10
1.482485e-08 -4.282756e-08 4.661530e-09 4.507682e-09 9.671712e-11 1.154377e-10
8.072768e-09 -4.544852e-09 -1.004517e-09 5.577113e-10 4.263055e-11 4.102252e-11
1.193298e-08 -3.806007e-08 7.631763e-09 4.946366e-11 2.356793e-10 -2.434692e-10
1.433565e-08 -3.818368e-08 3.151153e-09 -6.367907e-09 -5.492808e-10 2.358145e-10
1.236389e-08 -3.997047e-08 7.950766e-09 2.115914e-10 -6.661132e-16 4.870104e-11
8.802269e-09 -5.161210e-09 -1.198021e-09 5.305687e-10 1.262778e-10 -1.044843e-11
1.025793e-08 -5.672935e-09 -1.491431e-09 3.088389e-10 -4.582160e-11 7.909806e-11
-1.005345e-08 1.786710e-08 -2.278274e-08 3.506040e-09 -9.701213e-09 -1.141586e-08
2.547172e-08 1.885393e-09 -6.130827e-09 6.383487e-10 -6.163950e-10 5.819085e-10
-8.333688e-09 4.104446e-08 -2.148918e-08 1.537861e-08 -4.016492e-09 -9.672352e-09
-2.477643e-08 1.928440e-08 -5.393575e-09 -1.454993e-08 -1.465065e-08 -1.454448e-08
-2.786038e-11 2.896291e-08 -1.765056e-08 1.700447e-08 -8.582237e-10 -2.960758e-09
3.530321e-09 3.911587e-08 -1.691960e-08 1.860152e-08 -5.181992e-09 -1.043034e-08
-1.262964e-08 4.546279e-08 -2.385682e-08 3.280874e-09 -1.475345e-08 -1.364479e-08
2.736358e-08 1.733234e-08 -1.093767e-08 1.417028e-08 2.997203e-10 2.592810e-09
4.059860e-09 2.482737e-08 -1.545414e-08 1.409834e-08 -3.670361e-09 -1.182918e-08
9.133011e-09 -5.060667e-09 -1.203917e-09 1.151624e-09 4.705308e-11 9.694023e-11
3.618635e-08 -6.169412e-09 1.027565e-08 3.005602e-08 -1.317036e-10 1.509833e-09
-8.842453e-09 4.840349e-09 8.212568e-10 -3.125334e-09 -4.561564e-10 -5.010702e-10
-8.168783e-09 4.435916e-09 7.223080e-10 -3.111483e-09 -4.517977e-10 -2.716147e-10
-8.168783e-09 4.998010e-09 5.247607e-10 -3.685007e-09 -4.688313e-10 3.713232e-10
-9.586971e-09 2.119808e-09 8.072174e-10 -6.629758e-12 -1.208030e-09 5.580892e-11
-9.479224e-09 4.952921e-09 3.817666e-10 -3.153880e-09 -7.351914e-10 5.597083e-10
8.996140e-09 -5.062299e-09 -1.268178e-09 1.182359e-09 7.920248e-11 -7.026491e-12
-1.039990e-08 2.327461e-09 6.301568e-10 -7.851796e-10 -7.983614e-11 3.020112e-10
-8.282307e-09 -1.730860e-09 -9.261017e-09 5.061149e-09 2.747651e-10 3.740120e-11
-1.718764e-08 7.677688e-09 -1.770253e-08 -2.069803e-08 7.091349e-09 7.904094e-09
-1.072542e-08 5.747424e-09 -3.159371e-09 -1.262023e-08 3.486766e-09 1.380679e-09
-4.259064e-09 -7.529733e-09 1.452028e-09 -1.156924e-08 2.185085e-09 -2.019363e-10
7.554803e-09 -4.760252e-09 -1.095520e-09 1.135579e-09 -2.996973e-15 -2.342804e-11
-1.145049e-08 7.640388e-09 8.412657e-10 -3.220930e-09 5.618319e-11 -2.210221e-10
-1.203485e-08 -2.276294e-10 -2.989027e-10 -8.544351e-09 2.425901e-09 5.194549e-10
9.234943e-09 -5.589489e-09 -1.173587e-09 6.061350e-10 1.442938e-10 2.659595e-10
-1.720540e-08 1.243022e-08 -2.873443e-09 -7.716141e-09 1.539066e-09 8.565715e-10
7.921404e-09 -4.781188e-09 -1.063284e-09 1.284378e-09 2.431497e-10 2.652707e-10
9.435411e-09 -5.670158e-09 -1.303775e-09 2.581709e-10 8.523954e-11 1.901045e-10
9.262193e-09 -5.414319e-09 -1.319624e-09 1.840966e-11 -1.033579e-11 2.369216e-12
1.274561e-08 -6.363018e-09 -1.783631e-10 5.447095e-09 3.547154e-10 4.696733e-11
-8.285059e-08 2.495725e-09 2.009859e-07 -3.451250e-08 -2.414856e-08 -4.996558e-09
7.145364e-09 1.130457e-07 -1.518621e-07 2.060477e-09 4.535275e-08 -3.277650e-08
9.758724e-09 -5.645217e-09 -1.331606e-09 -1.342012e-10 -4.036815e-11 2.787650e-10
-9.939981e-09 2.520102e-08 -1.566694e-08 -1.604531e-09 6.508980e-09 -6.425380e-09
9.047195e-09 -5.466655e-09 -1.160548e-09 9.781893e-11 5.338959e-11 1.204929e-10
-5.580788e-09 1.301613e-08 -4.083149e-08 9.339068e-09 -1.900719e-08 1.597812e-08
9.792827e-09 -5.640999e-09 -1.314784e-09 6.837013e-10 4.004769e-11 3.751048e-10
8.393092e-09 -5.053563e-09 -1.056292e-09 4.823811e-10 1.860851e-10 4.935885e-11
8.660864e-09 -5.254087e-09 -1.120055e-09 1.470491e-10 -3.926914e-12 1.139289e-10
9.733070e-09 -5.653222e-09 -1.278014e-09 -1.550347e-10 -8.148732e-11 8.476875e-11
1.052524e-08 -5.799792e-09 -1.444523e-09 -1.868632e-10 9.362716e-11 2.835081e-10
-1.213366e-08 2.573865e-08 -3.162618e-08 -3.461144e-09 -1.209204e-08 1.633955e-08
9.402773e-09 -5.281591e-09 -1.298455e-09 -6.857970e-11 3.150408e-11 1.217770e-11
9.885769e-09 -5.330003e-09 -1.441527e-09 -2.052139e-09 -2.883382e-11 7.592002e-11
9.086202e-09 -5.274908e-09 -1.263961e-09 1.387202e-09 -1.436516e-10 -2.093250e-10
7.901981e-09 -4.239135e-09 -1.301182e-09 -3.044035e-09 -1.437607e-10 6.853251e-11
1.080908e-08 -5.663360e-09 -1.365483e-09 9.779000e-11 -1.559275e-11 4.612310e-12
1.038347e-08 -5.874925e-09 -1.432442e-09 3.974121e-10 -9.713147e-12 1.669830e-10
9.190803e-09 -5.240326e-09 -1.277042e-09 -4.885830e-12 -4.466577e-11 6.030954e-12
8.964152e-09 -4.123784e-09 -7.115748e-10 5.809435e-09 -9.388124e-11 -3.677982e-10
-1.737187e-08 2.913714e-08 -3.680811e-08 2.405643e-08 1.611231e-08 -1.090906e-08
-1.485899e-08 2.914522e-08 -3.488230e-08 2.987581e-08 1.489017e-08 -1.576860e-08
1.016233e-08 -5.874925e-09 -1.293841e-09 4.798878e-10 -1.023640e-10 2.294995e-10
-2.704643e-08 4.042324e-08 -1.708598e-08 7.802919e-09 1.078753e-08 -1.918069e-08
-2.306733e-08 3.753853e-08 -2.119004e-08 9.254484e-09 5.054418e-09 -4.188023e-09
9.059175e-09 -5.063406e-09 -1.186710e-09 1.090437e-09 5.633999e-11 5.347361e-11
-2.024886e-08 3.863511e-08 -2.174776e-08 7.609561e-09 1.788149e-08 -1.595655e-08
-2.070648e-08 2.312626e-08 -1.871478e-08 1.809600e-08 1.907345e-08 -1.228234e-08
7.346999e-09 -4.563915e-09 -9.736176e-10 5.472845e-10 2.471937e-10 1.746949e-10
1.012080e-08 -6.046784e-09 -1.379914e-09 5.721984e-11 2.209888e-11 1.039070e-10
2.116393e-08 -4.004797e-09 -5.382999e-08 7.291481e-09 -6.544601e-09 -1.963986e-09
2.554065e-08 -3.644410e-08 -2.663177e-08 5.114106e-09 -1.082181e-08 2.635536e-09
1.710535e-08 -4.405793e-08 -3.326538e-09 5.590309e-10 -1.836625e-09 7.005262e-10
2.702628e-08 -4.834025e-08 -2.091835e-08 6.468833e-09 -2.402779e-08 5.835188e-09
2.518033e-08 -5.310049e-08 -6.114295e-09 9.050871e-11 -2.531549e-09 -6.458125e-10
1.049225e-08 -5.732771e-09 -1.278218e-09 -1.075285e-10 6.566081e-12 5.102664e-10
9.818932e-09 -5.508583e-09 -1.333110e-09 -2.308499e-10 -1.274480e-12 2.612852e-10
1.199133e-08 -5.940446e-09 -1.748244e-09 -9.980585e-10 9.438394e-11 2.182919e-12
8.315741e-09 -4.634796e-09 -1.113429e-09 1.534692e-09 3.343865e-10 2.787568e-10
9.190805e-09 -5.198025e-09 -1.209051e-09 -1.023679e-11 2.196018e-11 -7.396084e-12
1.059780e-08 -5.090162e-09 -1.230270e-09 3.059170e-09 3.520036e-10 1.905263e-10
8.522621e-09 -4.901858e-09 -1.170144e-09 1.639100e-09 1.943333e-10 3.978879e-10
8.227653e-09 -4.849588e-09 -1.197668e-09 6.623203e-10 1.441286e-10 -4.040364e-10
1.027820e-08 -5.874925e-09 -1.432807e-09 3.989294e-10 6.139012e-11 2.232280e-10
1.022021e-08 -3.223402e-09 -7.908549e-10 -1.109398e-08 -5.680586e-10 1.096195e-09
-2.275529e-09 1.322177e-09 3.023266e-10 3.751866e-09 1.514170e-10 -1.004485e-11
-3.152782e-09 1.725572e-09 4.342078e-10 3.877295e-09 1.808234e-10 -2.836651e-10
-4.346595e-09 -8.482237e-09 4.693799e-09 2.358569e-10 -4.102207e-11 -7.412537e-10
8.799705e-09 -4.830224e-09 -1.190867e-09 5.570723e-10 7.264364e-11 -1.742659e-11
-3.874396e-09 -1.038329e-08 4.504848e-09 1.756695e-11 4.440977e-16 2.425702e-10
-4.288794e-09 -1.039507e-08 4.539979e-09 -2.123894e-09 -4.091580e-10 -2.952221e-10
-7.849248e-09 1.458750e-09 2.157321e-09 -2.334599e-12 2.332397e-10 -6.295276e-11
-8.248565e-09 2.930538e-09 1.821408e-09 3.189401e-10 4.159062e-11 -2.681541e-10
-7.532594e-09 -4.527852e-09 2.618142e-09 -2.497247e-10 -2.251641e-10 -2.124998e-10
6.190267e-09 -3.435859e-09 -8.441023e-10 7.887461e-10 2.851080e-10 -3.997636e-11
5.613299e-09 -1.885573e-08 -7.156179e-09 -1.928177e-08 2.865397e-09 2.029663e-10
6.032417e-09 -3.693832e-09 -8.054752e-10 1.762787e-09 3.278433e-10 3.095566e-10
1.698749e-08 -4.105376e-08 -3.927564e-09 -6.565798e-09 2.174481e-09 3.092245e-10
7.003819e-09 -4.176739e-09 -8.650120e-10 7.460899e-10 2.590223e-10 5.404827e-11
1.018546e-08 -5.711928e-09 -1.367929e-09 -8.816307e-10 -3.392875e-11 3.532560e-10
6.336114e-08 -2.859358e-08 5.145792e-09 1.187841e-09 -1.922696e-10 2.436368e-09
-4.018340e-08 3.011344e-08 7.982554e-08 4.542658e-08 2.123609e-08 -1.099477e-08
1.433326e-08 3.167068e-08 -8.895309e-09 4.355690e-08 2.254873e-08 4.288470e-09
1.368687e-08 2.220798e-08 2.480374e-08 6.409777e-08 5.787340e-08 2.675494e-08
-6.809955e-08 2.956326e-08 1.163445e-07 1.361170e-08 6.551667e-09 2.407948e-09
9.567428e-09 -5.483556e-09 -1.342257e-09 -1.031962e-09 -1.734723e-11 2.028168e-10
1.771101e-09 4.148337e-11 -1.191607e-10 5.547334e-09 2.589309e-10 4.784495e-10
1.035450e-08 -5.504931e-09 -1.374154e-09 -9.843684e-10 1.333553e-11 3.447020e-11
-7.544073e-09 3.068708e-09 1.221306e-09 1.619289e-09 4.548733e-10 -1.378570e-10
-8.349257e-09 3.233200e-09 1.745956e-09 4.485303e-11 1.656612e-10 -4.944925e-10
1.052735e-08 -5.700299e-09 -1.362828e-09 -2.479025e-10 1.964151e-12 3.298772e-10
-8.834650e-09 2.666245e-09 1.418475e-09 -1.232786e-10 -7.543277e-11 -7.636335e-12
2.015410e-09 -2.304676e-08 5.716100e-09 -3.069929e-09 -1.215424e-09 -4.820552e-10
1.344713e-09 -1.791003e-08 5.748901e-09 -5.064447e-09 -2.854288e-10 -4.005278e-10
-1.145342e-08 1.334134e-09 4.201119e-10 -5.874496e-09 1.212687e-09 1.822766e-10
-9.046502e-09 2.282592e-10 2.145895e-09 -3.064973e-09 -6.993962e-12 -2.185743e-10
1.072744e-08 -7.562514e-09 6.198557e-08 -2.409021e-08 1.328792e-08 -1.976193e-08
1.809048e-09 -2.238413e-08 5.408341e-09 -3.788038e-09 -2.929425e-10 -2.250285e-10
-2.057881e-09 -1.749283e-08 5.077407e-09 -4.657741e-09 8.008329e-10 -1.073038e-10
1.812016e-09 -2.105387e-08 5.949112e-09 -2.471986e-09 -3.896074e-10 -7.572337e-10
2.115609e-09 -2.369630e-08 6.477404e-09 -1.545306e-09 1.306314e-10 -3.100344e-10
9.792518e-10 4.242513e-09 1.168516e-09 1.085604e-08 2.587861e-10 -3.209335e-10
-8.804822e-09 -6.116731e-09 3.970633e-10 -1.148028e-08 1.910845e-09 9.097440e-11
2.045467e-09 -2.198339e-08 5.532410e-09 -3.284513e-09 1.144763e-09 -9.639880e-10
-2.064057e-09 -1.586187e-08 4.349102e-09 -4.788668e-09 4.606271e-11 -1.043997e-09
-9.618466e-09 3.198320e-09 1.325630e-09 -4.952130e-09 -3.588485e-10 -4.970612e-11
-7.583211e-09 -1.924143e-09 2.060087e-09 -7.495503e-09 1.697012e-09 -3.037328e-11
1.612673e-08 -8.349625e-09 3.813192e-09 7.424625e-09 -6.164182e-10 -2.997516e-09
-1.151168e-09 -1.769659e-08 5.617440e-09 -1.407759e-09 -8.060840e-11 -9.680080e-10
-1.161143e-09 -1.517987e-08 4.924016e-09 -1.969661e-09 -9.457989e-11 -7.228273e-10
7.175975e-10 2.093905e-09 6.331291e-10 9.105905e-09 3.203964e-10 -3.569844e-10
1.366796e-09 -1.781230e-08 5.322947e-09 -5.243201e-09 -6.242017e-11 -1.342244e-09
-1.970170e-09 -1.259393e-08 4.071675e-09 -2.997957e-09 -4.712879e-10 -7.628164e-10
1.085023e-08 -6.116094e-09 -1.588230e-09 -2.037016e-09 -1.319359e-10 3.991356e-10
7.936902e-08 -3.796807e-08 5.906602e-08 2.711307e-08 1.424582e-08 5.765927e-08
1.391852e-08 -4.318564e-08 5.378546e-09 1.305712e-09 1.129572e-09 -3.787004e-10
1.755546e-08 -4.268940e-08 2.684416e-09 -2.408832e-09 3.243429e-09 -5.285399e-10
7.650220e-09 -2.900457e-08 6.409240e-09 -5.031533e-09 -1.055253e-10 1.012130e-10
-2.408806e-09 -1.343188e-08 4.535639e-09 -5.524140e-09 -3.087117e-10 -1.144970e-09
2.471209e-09 -2.283174e-08 5.606463e-09 -4.446920e-09 6.250227e-10 -9.796903e-10
-9.902068e-09 4.614064e-09 8.688730e-10 -2.720547e-09 -6.253731e-10 -5.541644e-10
-9.645737e-09 4.837073e-10 1.879665e-09 -6.677496e-10 -1.439624e-10 -6.466603e-10
-2.537970e-09 -1.113851e-08 4.371289e-09 -3.152020e-09 1.615844e-10 -9.625053e-10
-9.230214e-09 6.244525e-10 2.069855e-09 -3.534627e-10 -1.423212e-10 -2.508920e-10
-1.764108e-09 -1.457497e-08 4.980474e-09 -5.406127e-09 -8.064716e-10 -1.398400e-09
1.314585e-09 8.781109e-11 -6.268794e-10 -3.173333e-10 -3.544386e-10 -3.062617e-11
4.283352e-09 -2.562002e-08 5.610533e-09 -8.351589e-09 5.686572e-10 -4.746852e-10
2.352505e-09 -2.269544e-08 -1.930287e-10 4.691979e-09 -3.064493e-09 4.896473e-10
2.996949e-10 -2.454684e-08 4.445466e-11 9.060574e-09 -7.629111e-09 3.003334e-09
3.375196e-09 -1.532186e-09 -8.746142e-10 -1.791634e-10 -2.720346e-10 -2.825673e-11
1.050975e-09 8.514611e-11 -4.959564e-10 -1.494345e-10 6.155210e-11 -2.260769e-11
1.050974e-09 6.421272e-10 -3.405780e-10 -2.664924e-10 -2.370080e-10 2.943396e-11
2.427914e-09 -1.775353e-08 -4.414150e-09 4.278723e-09 -2.890831e-09 1.499507e-09
3.032502e-09 -1.004867e-09 -6.056295e-10 -1.084834e-09 -3.173610e-10 -3.431305e-11
8.390087e-09 -2.718293e-08 2.257638e-09 1.069760e-08 -5.847962e-09 1.762632e-09
2.208318e-09 -2.682640e-08 1.319564e-09 3.554419e-09 -3.892399e-09 7.219904e-10
1.599784e-09 -1.941851e-08 1.941155e-09 3.995135e-12 -9.829774e-10 4.247367e-10
-1.169573e-08 -5.339636e-09 -2.103195e-09 -6.141372e-10 -1.693415e-10 -3.582113e-11
2.602768e-09 -1.562993e-08 -9.209254e-09 -1.268830e-08 -5.557210e-09 -8.767871e-10
-1.199745e-08 -6.011918e-09 -6.033199e-09 -7.473401e-09 -4.293490e-09 -6.161860e-10
-5.701588e-09 -9.125207e-09 -6.083678e-09 -6.029821e-09 -4.441774e-10 -5.660436e-10
4.183988e-10 -1.590032e-08 -4.239515e-09 5.976917e-09 -9.404222e-10 6.989973e-10
8.462171e-09 -2.665099e-08 -6.185219e-09 1.047389e-08 -9.019068e-09 2.320633e-09
8.717443e-09 -2.780704e-08 -1.289824e-09 2.863447e-09 -1.768584e-09 1.301662e-10
-4.661428e-09 4.426292e-09 2.096749e-10 -3.238225e-10 1.277956e-11 -9.550827e-11
-3.753524e-09 3.619231e-09 1.001537e-10 -1.776764e-09 -2.134141e-11 4.207343e-12
3.509180e-09 -1.376268e-09 -4.253895e-10 4.479068e-09 2.141006e-10 4.906589e-10
3.591518e-10 1.037821e-09 -4.067947e-10 -2.910544e-09 -4.005589e-10 3.618347e-10
-3.870405e-09 -2.253847e-08 8.019765e-09 1.038354e-09 2.780088e-11 4.612066e-11
-6.783830e-09 -2.145787e-08 6.559654e-09 4.540896e-09 6.545519e-10 -2.701803e-10
5.610029e-10 -1.578708e-08 -1.033416e-09 6.059131e-09 -3.531755e-09 1.107797e-09
5.845973e-10 -2.148404e-08 -3.283335e-09 1.021967e-08 -9.375492e-09 2.846990e-09
-1.249329e-08 -9.952785e-09 3.091266e-09 4.572212e-09 2.408291e-09 6.255858e-10
-7.505489e-09 -1.901392e-08 7.171039e-09 1.120851e-09 7.081558e-10 -3.008570e-10
-8.446605e-09 2.315444e-09 1.965233e-09 -1.045141e-09 3.212484e-10 -5.255101e-10
-8.594779e-09 9.101742e-10 2.391513e-09 -4.043875e-09 1.374334e-09 -2.086522e-10
4.623588e-09 -2.469124e-08 -1.178617e-08 1.593656e-08 -1.451723e-08 8.556399e-09
6.816096e-09 -3.540047e-08 7.031398e-10 1.374972e-08 -1.115884e-08 5.842867e-09
-5.106449e-10 -1.387394e-08 1.791105e-09 6.391479e-09 -6.001451e-09 2.921651e-09
1.341620e-08 5.876651e-09 -5.769543e-08 -3.074454e-08 2.821122e-08 1.499870e-08
-1.891723e-08 2.308638e-08 -4.685277e-09 -5.361861e-09 1.151889e-09 2.816480e-09
-5.495106e-09 -1.171370e-08 3.331366e-09 7.338778e-09 -4.185523e-09 9.311831e-10
1.933868e-08 -2.426392e-08 -2.705246e-08 -2.009898e-08 7.805985e-09 3.263715e-09
-6.747864e-09 1.348819e-09 -1.726870e-08 -2.435825e-08 1.033182e-08 6.017574e-09
9.223939e-09 -3.735917e-08 3.978895e-10 1.178102e-08 -1.368321e-08 8.451395e-11
3.196194e-08 -1.914424e-08 -4.899259e-08 -1.837182e-08 1.033135e-08 2.386390e-09
6.707565e-10 -1.954972e-08 4.409078e-09 -6.520966e-09 1.225140e-09 -5.080555e-10
-1.057169e-07 6.800669e-08 1.286720e-07 -6.210455e-09 -1.197721e-07 -3.169957e-08
3.653007e-09 -2.274138e-08 5.781108e-09 -2.512159e-09 -8.665906e-11 -1.278932e-09
4.643311e-09 -2.333972e-08 6.317872e-09 -5.074899e-09 -1.993781e-10 -4.037400e-10
-6.303709e-08 -3.907087e-08 2.000104e-07 1.023473e-08 -1.191839e-08 -5.678941e-09
1.818591e-09 -2.338580e-08 5.990161e-09 -2.637869e-09 8.101221e-11 -7.737503e-10
4.794401e-09 -9.146207e-10 -3.019762e-11 8.104863e-09 3.888139e-10 -2.685678e-10
-3.962960e-09 -1.133867e-08 -4.998337e-09 1.240181e-08 -9.576204e-09 5.740473e-09
-1.535041e-09 -2.008197e-08 3.149383e-09 4.599553e-09 -1.697280e-09 -5.494818e-11
-5.833611e-09 -1.045723e-08 2.540571e-09 6.061104e-09 -2.229276e-09 1.432966e-09
1.241982e-08 -5.141247e-09 -8.065653e-10 5.511591e-09 3.612290e-10 4.325740e-11
5.394501e-09 -9.115262e-10 2.622791e-12 8.243612e-09 4.091489e-10 -1.095528e-10
-1.060781e-09 -1.677851e-08 4.814744e-10 8.323813e-09 -3.666011e-09 1.219695e-09
8.013123e-09 -3.703706e-08 -5.534140e-09 1.266813e-08 -1.388039e-08 3.553823e-09
8.245026e-09 -3.688165e-08 1.783604e-09 6.241446e-09 -3.528903e-09 2.436869e-09
1.620337e-08 -4.205965e-08 -8.775453e-09 1.042732e-08 -1.177370e-08 3.883013e-09
-1.404264e-08 1.393276e-08 -5.469882e-09 -9.932581e-09 2.342154e-09 1.651846e-09
5.510289e-09 -1.522661e-09 -1.101898e-09 -7.514851e-09 -4.912193e-11 -1.146431e-10
8.195356e-09 -4.438622e-09 -1.163677e-09 -1.312680e-10 -5.727263e-11 2.056164e-11
1.620302e-08 -4.457905e-08 -1.286475e-09 1.025076e-08 -1.108425e-08 3.627468e-09
7.965578e-09 -4.353879e-09 -1.091722e-09 -1.868536e-10 -2.281835e-10 3.992512e-11
1.360928e-08 -4.608917e-08 -1.466094e-09 1.791681e-08 -2.004175e-08 7.582788e-09
1.245876e-09 5.216663e-10 -5.426499e-10 -2.393859e-09 -1.480694e-10 8.240597e-11
-1.119886e-09 1.611079e-09 -3.476535e-10 -1.188347e-09 -1.689236e-10 -1.947162e-10
8.004513e-09 -4.843339e-09 -1.107660e-09 5.989521e-10 1.063507e-10 3.252429e-10
9.553844e-09 -5.244045e-09 -1.302300e-09 9.239824e-10 -1.030531e-11 -6.251899e-11
8.109495e-10 1.160584e-09 -5.231451e-10 -3.662100e-09 1.384257e-10 -1.803067e-10
4.368020e-09 -1.978699e-09 -5.502123e-10 4.027333e-09 -1.693206e-10 -8.597434e-11
-2.066198e-09 -1.053423e-08 4.469189e-09 -4.222401e-09 8.724440e-10 -9.786235e-10
9.402839e-09 -4.683793e-09 -1.431515e-09 -3.679468e-09 -5.913781e-11 4.388194e-10
4.294440e-09 -1.621522e-09 -8.338690e-10 -3.340594e-10 1.393503e-10 1.110130e-15
-2.010987e-09 -1.223920e-08 4.909812e-09 -2.216645e-09 1.578746e-09 -3.003614e-10
-3.954516e-09 -1.166951e-08 3.819806e-09 -3.349540e-09 3.984351e-10 -7.070189e-10
2.466772e-08 -4.789047e-08 -8.968723e-09 1.422562e-10 -8.608020e-10 3.049684e-10
2.256557e-08 -4.469734e-08 -8.308926e-09 4.999182e-10 -2.215315e-16 5.132108e-10
-1.964305e-08 6.363727e-09 -2.173890e-09 2.977745e-09 3.924643e-09 -6.621483e-10
-2.288902e-09 -2.482790e-08 1.367897e-10 1.672280e-08 7.580558e-10 -3.350722e-10
-2.062699e-08 9.170104e-09 -3.448105e-09 4.494293e-09 1.506230e-09 6.796727e-16
-8.569729e-09 -3.409135e-09 -1.448723e-08 2.391121e-08 1.899259e-09 -1.089849e-09
-1.478486e-08 2.028386e-08 -2.611684e-08 2.194127e-08 1.941019e-09 8.290324e-10
-3.953057e-09 -1.231680e-08 4.435821e-09 -3.297367e-09 -7.113587e-11 -7.427790e-10
-6.328549e-09 4.628351e-09 -2.280761e-08 2.822446e-08 5.681571e-09 -2.538058e-09
-4.934554e-09 -8.742646e-09 3.756578e-09 -4.935098e-09 -1.797519e-10 -6.548315e-10
-1.990583e-08 2.098159e-08 -1.631790e-08 1.791577e-08 7.574566e-09 -5.691315e-09
-2.228057e-08 2.901360e-08 -2.318520e-08 1.647318e-08 2.976186e-09 -4.813358e-09
-1.626196e-08 3.060901e-08 -5.611493e-09 -6.564622e-09 -2.069791e-09 1.095166e-09
3.439269e-09 1.555348e-08 -6.949951e-09 1.169438e-09 2.537382e-09 9.890361e-10
2.336887e-08 -4.456045e-08 -1.146236e-08 -1.851684e-09 -1.100055e-10 1.137217e-09
2.347821e-08 -5.265849e-08 -1.101559e-09 -7.348411e-10 -1.947714e-09 -1.144429e-10
1.669469e-08 -1.980057e-08 -3.664598e-08 -1.907560e-08 -2.098217e-08 -3.580494e-09
-7.869003e-09 4.151088e-10 2.761784e-09 3.537403e-10 -1.791922e-11 -4.913657e-10
9.966589e-09 -3.561130e-08 6.694347e-09 -3.296847e-09 1.003530e-09 -9.870914e-10
-7.927505e-09 -1.689964e-10 2.676710e-09 3.544172e-10 -1.110181e-15 5.941247e-11
-7.849248e-09 4.270078e-10 2.092470e-09 -3.336704e-10 1.494361e-12 -2.524856e-10
-8.215652e-09 3.042789e-09 1.679564e-09 3.666425e-10 1.850808e-11 -8.190839e-11
-7.813443e-09 4.522231e-10 2.524714e-09 -2.879818e-10 2.055711e-10 -4.981094e-10
-7.518684e-09 -1.289459e-09 2.722310e-09 1.356275e-10 -1.169920e-11 -5.572800e-10
-7.760024e-09 -9.322922e-10 2.837194e-09 -1.548359e-09 -6.525469e-11 -3.841757e-10
9.128242e-09 -3.421269e-08 6.443164e-09 -5.037247e-09 3.148667e-10 -6.706950e-10
-6.801606e-09 -2.574226e-09 2.910513e-09 -1.826869e-10 4.949552e-11 -4.012798e-10
9.095838e-09 -3.228290e-08 6.051112e-09 -7.861629e-09 9.691591e-10 -2.738802e-10
9.081472e-09 -3.386602e-08 6.801626e-09 -4.755688e-09 7.475511e-10 -9.562827e-11
-7.451372e-09 -2.165218e-09 3.021563e-09 -1.358138e-09 -2.360643e-10 -9.629930e-10
-7.813443e-09 -7.610446e-11 2.579248e-09 -9.920058e-10 2.941789e-10 -1.248843e-10
-7.404671e-09 -1.309195e-09 2.862575e-09 -1.738961e-09 3.740743e-10 -5.559853e-10
-8.142770e-09 1.395061e-09 1.771532e-09 -3.335641e-10 3.148233e-10 -4.415978e-10
8.349338e-09 -3.072344e-08 6.900594e-09 -1.594182e-09 -5.378822e-10 -8.398924e-10
1.530449e-08 -7.000478e-09 -1.508650e-09 -1.611035e-09 -6.080164e-11 4.432298e-10
5.020937e-09 -2.773471e-08 6.157769e-09 -2.651365e-09 1.026277e-09 -2.382692e-10
5.706522e-09 -1.985884e-09 -3.464971e-10 6.516294e-09 -3.056844e-11 -1.939506e-10
-8.822722e-09 -1.111413e-09 2.170673e-09 8.033380e-10 -2.115112e-09 3.299476e-10
-9.039214e-09 -2.477881e-09 2.202292e-10 2.904923e-09 -1.482254e-09 3.711963e-10
1.705552e-09 -2.359446e-08 5.885560e-09 3.203953e-10 -7.832357e-11 -3.348644e-10
-5.643067e-09 -1.086643e-08 2.827334e-09 3.011327e-09 -1.337552e-09 -7.560661e-10
-2.323544e-09 -1.316655e-08 4.625938e-09 -7.362221e-11 1.131086e-10 -1.539969e-09
-1.145496e-08 1.337301e-09 8.982375e-10 -5.874993e-09 -5.028401e-11 -5.216206e-10
-2.596019e-09 -1.337868e-08 4.981587e-09 3.556483e-10 3.503527e-11 4.420442e-11
-2.596042e-09 -1.275353e-08 4.918732e-09 8.311740e-11 -3.435530e-12 -4.939469e-10
-9.084130e-09 -3.753404e-09 2.656619e-09 3.186563e-09 -1.336839e-09 8.431932e-10
-3.156714e-09 -1.623174e-08 9.379528e-10 3.355181e-09 -2.399641e-09 5.289934e-10
-5.815558e-09 -1.044051e-08 1.499022e-09 6.002916e-09 -2.199913e-09 8.817650e-10
-9.209030e-09 2.090396e-09 1.842695e-09 -1.513658e-09 -1.155473e-09 -5.109147e-10
-7.211627e-10 8.915695e-10 1.361773e-10 3.445324e-09 -1.194662e-10 -7.964429e-11
1.090849e-08 -5.900195e-09 -1.137918e-09 3.095290e-09 2.179190e-10 1.985044e-10
3.103700e-09 -7.971755e-10 -3.588998e-10 5.372307e-09 4.370834e-10 5.637035e-11
-6.228641e-09 3.194116e-08 -6.224485e-08 -2.845367e-08 2.175398e-08 2.162826e-08
-1.522606e-08 9.310516e-09 -1.742539e-08 -1.938348e-08 2.043952e-09 4.827341e-10
-5.722564e-09 1.553034e-08 -2.649771e-08 -2.501927e-08 4.550489e-09 4.758105e-09
-8.794767e-09 -7.514699e-10 9.614465e-11 1.414210e-09 -2.446011e-09 3.724744e-10
6.093450e-09 -1.828252e-08 -2.674284e-08 -2.829570e-08 1.480585e-08 8.353970e-09
1.010946e-08 -4.651180e-09 -8.974728e-10 4.973274e-09 2.481458e-10 4.723677e-10
-7.272613e-09 -8.680899e-09 1.829049e-09 1.294516e-09 -1.312070e-09 -2.063450e-10
2.443423e-08 -2.330904e-10 2.640004e-08 4.371444e-08 1.533622e-08 1.868247e-08
6.861243e-08 -2.507439e-08 8.338955e-09 -1.195242e-08 -6.675037e-11 2.257743e-08
3.254859e-08 2.472730e-09 -7.173986e-09 7.381422e-09 -9.070165e-10 2.996066e-09
7.996319e-09 1.853268e-08 -4.426811e-09 1.369637e-08 -3.383925e-10 -3.888206e-09
6.669684e-08 -2.655195e-08 2.019988e-09 4.627580e-10 5.551061e-10 5.291347e-09
8.334611e-09 9.077195e-09 4.746232e-08 4.334162e-08 1.219832e-08 3.833867e-09
-5.205796e-08 -2.411814e-08 2.168884e-07 3.268681e-08 9.087458e-09 1.337278e-08
-9.066299e-09 -3.712061e-09 1.945989e-09 3.128866e-09 -1.095943e-09 1.429191e-10
6.993242e-09 -2.945352e-08 6.742737e-09 -5.552797e-11 1.623594e-10 -3.181821e-11
1.487444e-08 -4.021043e-08 1.980771e-09 -6.393241e-09 2.907334e-09 9.929166e-10
1.311874e-08 -4.169900e-08 5.273439e-09 -1.593090e-09 8.976105e-10 -3.821744e-10
2.045812e-09 -2.068281e-08 5.574835e-09 -2.142834e-09 3.465396e-10 -4.947320e-10
7.043376e-09 -2.921719e-08 6.716047e-09 -1.453566e-10 2.621700e-10 -1.066018e-09
-9.470303e-09 -2.124647e-09 8.830690e-10 1.165386e-09 -1.718935e-09 1.734878e-10
-1.013606e-08 1.152882e-09 6.430243e-10 -1.167186e-10 -7.214216e-10 -4.399734e-10
-1.031656e-08 3.973774e-09 -3.200684e-10 -1.665765e-09 -3.920751e-10 -1.189263e-10
-5.512389e-09 -1.156299e-08 2.303960e-09 8.568506e-11 -4.636014e-10 -5.983253e-10
-6.114222e-09 1.195581e-08 -5.034897e-09 -1.330246e-08 -1.375553e-09 1.283053e-09
-1.059366e-08 3.774476e-09 -1.725982e-09 -1.773554e-09 -2.022528e-09 9.710341e-10
-1.018681e-08 3.929264e-09 6.274501e-10 -2.042494e-09 -7.756273e-10 -5.156494e-10
1.549996e-09 6.725503e-10 -7.912786e-10 -7.477207e-09 -4.541227e-10 4.299583e-11
1.219846e-08 -4.004994e-08 7.173873e-09 -1.576613e-09 1.004858e-09 -8.729781e-10
3.590750e-09 -9.546079e-10 -8.764172e-10 -4.390463e-09 -2.612013e-10 1.276912e-10
1.254875e-09 5.773608e-10 -5.426054e-10 -2.346471e-09 -1.500766e-10 8.163702e-11
7.485505e-09 -3.528254e-09 -1.157920e-09 -4.740832e-09 -1.147762e-10 4.794907e-10
1.172784e-08 -3.809585e-08 6.789733e-09 -3.162741e-09 2.715534e-10 -5.977045e-10
3.077955e-08 1.180548e-08 -8.991458e-08 -1.380722e-09 -4.359061e-08 8.757851e-09
2.945561e-08 -2.108921e-08 -5.347041e-08 1.321290e-09 -2.642124e-08 3.574074e-09
6.770623e-09 -2.910448e-08 6.407629e-09 -4.441524e-09 3.526292e-11 -1.217191e-09
2.115204e-08 -4.519826e-08 -9.640943e-09 -9.984477e-10 -4.194417e-09 -1.675500e-10
1.179115e-08 -3.793786e-08 7.316660e-09 -2.936933e-09 5.607366e-10 -2.092882e-10
-7.646928e-10 -1.027707e-08 -2.202550e-08 3.238179e-08 1.574223e-08 -6.462529e-09
-6.012265e-09 9.665858e-09 -3.754828e-08 3.376786e-08 1.658741e-08 -1.037277e-08
-1.185270e-08 8.174903e-09 -2.127846e-08 2.997434e-08 9.738904e-09 -6.507016e-09
1.020506e-08 -3.331997e-08 6.876279e-09 -3.358659e-09 9.408388e-10 -7.471396e-10
2.069173e-08 9.503502e-08 -1.375081e-07 8.978590e-09 3.494747e-08 7.025809e-09
8.061761e-09 -2.899710e-08 6.461127e-09 -2.324407e-09 1.323865e-10 -4.910023e-10
4.113092e-08 1.590247e-08 -1.145915e-07 -1.481311e-08 3.761188e-08 1.322961e-08
5.233794e-08 2.398294e-08 -1.157372e-07 -1.327943e-08 5.612413e-08 8.267821e-09
-4.248581e-09 -6.211985e-09 3.808267e-09 -2.645328e-09 5.320401e-10 -7.652832e-10
3.226817e-08 6.355305e-08 -1.352328e-07 1.206320e-08 2.085238e-08 -3.929238e-09
4.303547e-08 2.077218e-09 -9.787229e-08 -4.803311e-09 2.467407e-08 5.026223e-09
-6.434025e-09 -4.652890e-09 3.294824e-09 -2.661324e-09 -9.931000e-12 -6.572536e-10
-6.446757e-09 -5.162185e-09 3.670125e-09 -2.461639e-09 -2.955440e-10 -3.579034e-10
-6.667358e-09 -4.786716e-09 3.325969e-09 -3.543009e-09 -1.419149e-10 -7.093261e-10
-6.617842e-09 1.131103e-08 -4.756383e-09 -1.272484e-08 -9.244852e-10 9.695871e-10
-3.897553e-09 -9.751656e-09 4.401036e-09 -1.894016e-09 -8.843384e-10 -7.311688e-10
4.156384e-09 4.724055e-09 2.130214e-08 -2.896277e-08 -4.999004e-10 -3.224582e-09
-9.547996e-09 3.888203e-08 -2.870719e-08 -1.637152e-08 -6.390856e-09 1.717122e-08
-8.978347e-09 2.806536e-08 -2.027654e-08 -1.683000e-08 -4.109669e-09 8.765625e-09
7.811273e-09 -4.324755e-09 -1.027274e-09 3.143588e-09 1.392554e-10 -5.542211e-11
-5.369836e-09 -7.667369e-09 3.715807e-09 -1.868992e-09 -6.850663e-10 -6.253604e-10
1.287544e-08 -6.968314e-09 -8.658363e-10 2.836410e-09 2.356085e-10 2.150307e-10
1.654218e-08 -4.788153e-08 -8.666525e-09 1.235699e-08 -1.943002e-08 3.265092e-09
2.441872e-08 -4.852917e-08 -1.163525e-08 6.568623e-09 -1.360227e-08 2.311738e-09
9.301750e-09 -4.857938e-09 -1.263785e-09 -1.284919e-09 -1.576050e-11 2.807320e-10
2.447061e-08 -5.223166e-08 -2.533531e-09 6.726058e-09 -1.255832e-08 3.009221e-09
6.758615e-09 -9.186716e-10 8.576295e-10 9.862391e-09 -3.779876e-10 -7.912231e-10
1.752095e-08 -4.800198e-08 3.073596e-09 7.584566e-10 -1.928768e-09 -2.586085e-10
1.219957e-08 -6.901025e-09 -1.321717e-09 9.331963e-10 1.619055e-10 2.826065e-10
2.003943e-08 -1.286826e-08 6.597021e-09 1.573052e-09 -7.219485e-10 1.314975e-10
8.451764e-09 -4.834265e-09 -1.138730e-09 5.780058e-10 6.598383e-11 3.581140e-10
9.907890e-09 -5.732031e-09 -1.339513e-09 1.027891e-09 7.396315e-11 1.262305e-10
1.497914e-08 -3.789077e-08 -3.091415e-09 5.057811e-09 -5.836542e-09 1.644070e-09
7.958819e-09 -4.199287e-09 -1.218280e-09 -4.959883e-10 -1.391935e-10 5.545231e-11
2.180860e-08 -5.174267e-08 -4.543599e-09 4.389079e-09 -9.336887e-09 1.133761e-09
8.937153e-09 -5.043253e-09 -1.203281e-09 1.699111e-09 1.168766e-11 -7.294720e-12
1.268573e-08 -6.052007e-09 -1.465757e-09 1.599455e-09 1.848408e-10 3.751819e-10
1.131386e-08 -6.480518e-09 -1.618297e-09 -2.554702e-10 1.588983e-11 3.304848e-10
1.350324e-08 -6.480528e-09 -1.696583e-09 -3.171460e-10 9.852118e-13 4.321583e-10
8.922016e-09 -5.047872e-09 -1.230149e-09 -1.606152e-09 -1.104735e-10 2.355564e-10
9.274472e-09 -5.400022e-09 -1.233822e-09 -5.757919e-11 8.237300e-12 3.206541e-11
-1.020134e-08 4.169303e-08 5.078313e-08 -4.846962e-08 -2.217235e-08 6.519689e-09
8.558438e-09 -3.977322e-09 -1.127430e-09 -1.915153e-09 -1.004506e-10 2.744171e-10
9.274652e-09 -4.859549e-09 -1.359306e-09 -1.986176e-09 -4.477230e-11 -1.433509e-10
1.103334e-08 -5.330003e-09 -1.409446e-09 -2.422516e-09 -2.684280e-10 4.177505e-10
1.022000e-08 -5.940445e-09 -1.318579e-09 -7.486971e-10 5.632605e-12 1.190461e-10
3.625578e-09 -1.606507e-09 -8.578649e-10 -2.593929e-09 1.009587e-10 3.515193e-10
-1.210747e-10 7.790364e-10 -4.731295e-10 -2.758505e-09 -2.144337e-10 -8.268053e-12
1.075099e-08 -5.484753e-09 -1.475517e-09 -1.579754e-09 -4.676723e-11 5.035206e-11
-7.582451e-09 -6.939462e-09 2.049087e-09 -8.787356e-09 1.217641e-09 -2.616120e-10
-7.750421e-09 -3.710531e-09 2.947561e-09 -3.918483e-09 2.710610e-10 -4.123092e-10
-9.923220e-09 3.920919e-09 9.027457e-10 -1.914210e-09 -9.834750e-10 -2.123770e-10
-7.082741e-09 -3.409931e-09 3.415201e-09 -1.655766e-09 5.819898e-10 -2.988845e-10
-9.671666e-09 2.628333e-09 1.642798e-09 -1.004464e-09 -4.543605e-10 -1.323139e-09
-6.925570e-09 -3.208753e-09 3.023878e-09 -2.385801e-09 3.052756e-10 -1.089750e-09
-1.017197e-08 3.884586e-09 1.267686e-09 -2.010960e-09 -9.759715e-10 -1.352991e-10
-1.015460e-08 3.293684e-09 1.711280e-09 -1.625505e-09 -4.432882e-10 -9.026535e-10
1.315264e-08 -4.291633e-08 7.617165e-09 1.008255e-09 1.096943e-09 -6.895059e-10
1.359073e-08 -4.108731e-08 6.825592e-09 -1.036899e-09 3.986082e-10 -2.563823e-10
7.629830e-09 -4.529268e-08 -6.268800e-10 2.222500e-08 -1.789354e-08 7.056549e-09
1.176997e-08 -3.649326e-08 7.297797e-09 -1.013767e-09 -6.653620e-11 -7.301572e-10
2.107030e-08 -3.927757e-08 -2.054401e-08 7.438335e-09 -1.155093e-08 2.416770e-09
1.360689e-08 -4.072031e-08 7.815268e-09 -1.032232e-09 3.997973e-10 9.895285e-11
9.715198e-09 -2.937494e-08 -3.666116e-09 7.231872e-10 2.226669e-16 4.302740e-10
1.087650e-08 -3.449169e-08 7.277530e-09 -1.657550e-09 9.567578e-10 -4.052182e-10
9.395994e-09 -3.087446e-08 -8.306250e-09 8.207949e-09 -3.688183e-09 1.501989e-09
-2.213403e-09 -1.485498e-08 -7.508425e-10 1.927851e-09 -1.852427e-09 5.176527e-10
1.408965e-08 -2.764873e-09 -3.882334e-08 1.079599e-08 -4.060033e-09 2.573652e-09
1.001261e-08 -2.945798e-08 -1.974781e-09 4.265584e-10 -1.080114e-09 9.404747e-10
-4.231668e-09 -9.336604e-09 4.185426e-09 -3.958135e-09 -5.622630e-10 -1.274489e-09
-5.721334e-09 -4.428887e-09 3.654361e-09 -2.078639e-09 1.011118e-10 -7.782354e-10
1.241260e-08 -3.847705e-08 7.172272e-09 -2.648768e-09 1.970604e-10 -2.946510e-10
2.425613e-08 -5.812383e-08 -1.134665e-08 8.078287e-09 -2.238209e-08 2.903423e-09
2.785692e-08 -5.081238e-08 -1.283851e-08 5.578555e-10 -1.417850e-08 1.144355e-09
2.571480e-08 -6.419585e-08 -2.626882e-11 5.815125e-09 -1.536840e-08 2.309401e-09
-6.281094e-09 -5.501934e-09 3.314438e-09 -4.262784e-09 1.570779e-10 -5.408717e-10
-6.758045e-09 -7.828735e-09 3.158246e-09 -6.527109e-09 7.954208e-10 -4.061875e-10
-7.503126e-10 2.766869e-08 9.399021e-09 -3.119011e-08 -1.180339e-08 7.397725e-09
3.083855e-08 -6.523653e-08 -4.043790e-09 3.723849e-09 -2.946622e-08 3.604653e-09
1.074409e-08 -6.014109e-09 -1.466550e-09 -1.108074e-09 -1.313506e-10 2.221272e-10
1.135919e-08 7.579387e-08 -1.199436e-07 2.952235e-08 4.414910e-08 -3.202463e-08
2.172193e-08 -4.633602e-08 -6.643011e-10 3.569820e-09 -4.000356e-09 8.660606e-10
-6.460789e-09 -3.118034e-09 3.255025e-09 -1.759855e-09 1.759145e-10 -7.342550e-10
1.195435e-08 1.945082e-08 1.210218e-08 -2.915811e-08 -5.696171e-10 1.216785e-09
2.400620e-08 9.760121e-09 -5.270258e-09 -9.455096e-12 1.333223e-09 -1.578471e-10
-2.232511e-08 2.905504e-08 -2.066701e-08 1.205592e-08 7.066680e-09 -9.093236e-09
-1.620655e-08 2.935548e-08 -1.004991e-08 -5.624734e-09 5.474823e-09 -1.014229e-08
-7.609681e-09 -1.481860e-09 2.800868e-09 -1.323641e-09 -2.950504e-11 -7.162381e-10
1.181621e-08 -5.874925e-09 -1.426800e-09 3.544445e-10 5.725008e-11 3.270692e-10
-7.592631e-09 -1.208551e-09 2.969561e-09 -1.308937e-09 -2.789708e-10 -1.381160e-10
-7.536537e-09 -1.861307e-09 2.694780e-09 -1.878831e-09 -8.266498e-11 -5.973017e-10
9.585118e-09 -5.572450e-09 -1.275846e-09 -1.324843e-10 -9.851142e-11 6.521653e-11
1.163210e-08 -5.663272e-09 -1.325560e-09 2.369930e-09 1.738061e-10 3.448817e-10
5.306020e-09 -4.185137e-10 2.029390e-10 8.705257e-09 7.498977e-10 2.482845e-10
1.052221e-08 -4.522010e-09 -3.276419e-10 6.359044e-09 3.045145e-10 6.375562e-10
1.866290e-08 -8.163591e-09 1.598859e-09 5.815781e-09 -2.235793e-10 -9.065142e-10
1.303986e-08 -5.899561e-09 -1.177082e-09 3.286821e-09 2.519756e-10 2.822780e-10
2.913799e-09 -1.675964e-09 -4.577396e-10 3.356155e-09 3.140086e-10 1.428828e-10
7.081922e-09 -3.617005e-09 -9.279471e-10 3.870534e-09 2.836953e-10 2.273641e-10
-6.809384e-09 -3.237186e-09 3.057254e-09 -3.274641e-10 -8.137091e-10 -4.157441e-10
-7.042784e-09 -1.540096e-08 3.063649e-09 1.407016e-08 2.199183e-09 -8.074908e-10
-1.333698e-08 -9.843616e-09 4.742280e-09 4.395767e-09 3.974696e-09 -2.970799e-10
-7.279242e-09 -1.702130e-08 5.868380e-09 1.682476e-08 3.158224e-09 -2.204771e-11
5.976803e-09 -2.542573e-09 -6.448281e-10 5.341000e-09 3.910410e-10 1.551475e-10
2.023342e-09 -5.478617e-10 -1.367129e-10 4.154148e-09 2.853169e-10 4.599323e-10
-1.534140e-08 -2.484599e-09 4.951115e-10 1.032947e-08 3.597627e-09 -2.054974e-09
-8.807319e-09 -1.738636e-08 3.983730e-09 8.057220e-09 1.450572e-10 6.746558e-11
-1.350560e-08 -1.237651e-08 2.406504e-09 9.994731e-09 4.732965e-09 -1.143795e-09
1.063618e-08 -3.850640e-08 7.818592e-09 8.905401e-10 -2.101339e-10 -4.544044e-10
1.115351e-08 -3.920254e-08 7.243728e-09 6.820226e-09 9.471340e-10 1.908261e-11
-6.868769e-09 -1.114883e-08 2.014387e-09 1.515547e-08 3.957165e-09 -7.864917e-10
-7.983611e-09 4.787049e-09 7.728598e-10 -3.082532e-09 -4.610767e-10 -2.601066e-10
7.948018e-09 -3.499815e-08 8.324389e-09 4.494201e-10 4.951639e-11 5.801803e-12
-8.728344e-09 3.829249e-09 8.764172e-10 -2.392698e-09 -1.094344e-09 -9.442320e-10
-9.682929e-09 4.360942e-09 1.537313e-09 -9.870935e-10 -1.575449e-10 -1.096108e-10
-9.656548e-09 4.511264e-09 1.168755e-09 -1.215246e-09 -4.725959e-10 -3.257055e-10
-8.841907e-09 4.881972e-09 1.112331e-09 -3.130293e-09 -2.737046e-10 -5.181466e-10
1.185528e-08 -3.991248e-08 8.288605e-09 3.379743e-09 2.302359e-10 -2.166856e-11
1.118487e-08 -4.074499e-08 7.707301e-09 5.561700e-09 1.274820e-09 -4.647026e-10
1.167027e-08 -3.825062e-08 7.907865e-09 8.936074e-10 1.340407e-11 -2.653438e-10
9.358365e-09 -3.795361e-08 8.296352e-09 6.986531e-10 8.767154e-11 4.271339e-10
1.169778e-08 -3.999446e-08 7.966373e-09 1.446597e-09 -1.644108e-10 1.665754e-10
6.617679e-09 -3.431561e-08 7.660071e-09 3.900128e-09 1.117303e-09 -2.536258e-10
1.234864e-08 -4.094845e-08 8.085299e-09 1.386107e-09 7.193052e-10 -2.472840e-10
1.185551e-08 -3.964166e-08 7.091682e-09 3.442911e-09 1.333944e-10 8.942155e-11
1.346078e-08 -4.085879e-08 7.382786e-09 8.961464e-10 8.535199e-10 -4.979663e-10
1.346225e-08 -4.259478e-08 6.967881e-09 2.619585e-09 1.517784e-09 -2.583402e-10
1.350749e-08 -4.276116e-08 6.694038e-09 -3.659189e-10 1.797566e-09 -3.781679e-10
1.211697e-08 -4.270961e-08 7.729372e-09 3.517816e-09 9.560517e-10 -6.166114e-10
1.432117e-08 -4.269240e-08 5.972930e-09 2.182994e-09 8.959216e-10 -1.515750e-10
-8.070918e-09 1.952374e-09 1.935703e-09 -3.064062e-10 4.783951e-11 -3.777882e-10
9.545652e-09 -3.962014e-08 6.034875e-09 8.174633e-09 1.391440e-09 -2.160905e-10
1.258452e-08 -3.885907e-08 7.160915e-09 -4.103822e-10 5.991441e-10 -3.112934e-10
1.219233e-08 -3.847972e-08 7.669286e-09 -3.223126e-10 -4.035948e-11 -5.550866e-10
5.165755e-09 -3.278778e-08 8.114381e-09 1.459817e-09 -3.582972e-10 -1.275799e-10
1.281632e-08 -4.086637e-08 7.547822e-09 1.158416e-09 6.095820e-10 -2.778111e-10
1.589099e-08 -4.156205e-08 4.828099e-09 -5.918944e-10 1.537287e-09 1.009503e-11
1.358884e-08 -4.075938e-08 7.387297e-09 -1.005647e-09 8.311260e-10 -2.086348e-10
1.391531e-08 -4.328384e-08 6.668191e-09 1.287853e-09 1.570036e-09 -3.098040e-10
8.577783e-09 -3.111253e-08 6.030540e-09 -4.327226e-09 2.454158e-10 -1.233199e-09
2.635944e-08 -3.058740e-08 -3.768830e-08 -1.172891e-08 3.908951e-09 3.772401e-10
1.024611e-08 -9.534368e-09 -3.800295e-08 -2.647127e-08 7.534975e-09 4.272516e-09
-1.601198e-09 -1.581466e-08 4.859098e-09 -6.123350e-09 9.421052e-10 3.834810e-10
1.323690e-08 -3.952653e-08 7.904582e-09 -8.336510e-11 5.194032e-10 -3.689199e-10
8.154784e-09 -3.654327e-08 8.394212e-09 4.742786e-09 1.105613e-09 7.051073e-10
1.593331e-08 -2.197550e-08 -2.696637e-08 -2.120331e-08 2.328985e-09 1.550011e-10
9.328457e-09 -3.370538e-08 5.117821e-09 -5.863828e-09 1.550180e-09 -1.319172e-10
2.182710e-08 -2.860713e-08 -3.478506e-08 -2.350557e-08 2.074963e-08 7.087818e-09
2.186076e-08 -2.236539e-08 -4.207566e-08 -2.517861e-08 1.919600e-08 5.719777e-09
2.658259e-08 -4.073561e-08 -3.362151e-08 -1.395676e-08 2.114624e-08 2.975590e-09
-2.385340e-08 9.678332e-09 8.152674e-10 5.799757e-09 7.426615e-09 -2.141049e-09
1.340632e-08 2.773908e-09 -5.673063e-08 -2.876445e-08 2.951899e-08 1.278546e-08
2.360436e-08 -1.522247e-08 -5.276850e-08 -2.007495e-08 6.105399e-09 1.176163e-09
2.316320e-08 -4.314563e-08 -6.250998e-09 3.374657e-09 3.583237e-09 -1.246741e-09
5.347764e-09 -3.149696e-09 -8.010708e-10 2.458768e-09 1.537193e-10 -1.597669e-10
7.264452e-09 -3.922721e-09 -9.986961e-10 8.659073e-10 3.901479e-11 2.550253e-11
-8.551362e-09 -1.091061e-09 -3.721534e-11 1.454862e-09 -2.230798e-09 3.741388e-10
3.272312e-09 -2.116869e-09 -5.867908e-10 1.994688e-09 6.198718e-11 2.760139e-10
3.699251e-09 -2.132019e-09 -5.655989e-10 1.913952e-09 1.041894e-10 1.560432e-10
3.749285e-09 -2.110062e-09 -4.531264e-10 2.050699e-09 3.805121e-10 2.345806e-10
5.381250e-09 -3.029234e-09 -7.077803e-10 1.721734e-09 2.758611e-10 5.204411e-10
-8.142161e-09 5.279636e-09 9.157166e-10 -3.618470e-10 -1.036433e-10 -3.227938e-10
-7.938966e-09 1.796207e-09 1.933304e-09 3.932547e-10 -4.982236e-12 -3.043734e-10
-6.968916e-09 -2.087124e-09 2.756768e-09 -6.274403e-11 1.971316e-10 -6.148549e-10
-7.916049e-09 5.203464e-10 2.411331e-09 4.661776e-10 9.291756e-11 -5.374254e-10
-7.540732e-09 7.435470e-10 2.068623e-09 1.560573e-11 -2.695938e-10 -1.740077e-10
-7.994600e-09 1.716486e-09 2.200504e-09 5.227312e-10 5.822276e-11 -1.855038e-10
-7.563578e-09 1.132419e-09 2.388183e-09 1.181673e-10 3.664033e-10 -4.924929e-10
1.680166e-08 -4.546357e-08 -2.275874e-10 -1.229177e-08 -1.871545e-08 -6.146889e-09
2.538537e-08 -5.592056e-08 -4.134376e-09 3.492682e-09 -9.650089e-09 3.947762e-09
2.593356e-08 -5.373102e-08 -6.341997e-09 -5.263259e-09 -1.072409e-08 -3.173585e-10
8.963987e-09 -4.123662e-09 -6.116059e-10 5.809455e-09 3.023103e-10 1.617930e-10
-9.523837e-09 4.686603e-09 1.147431e-09 -2.815882e-09 -7.835212e-10 -3.669019e-10
2.249439e-08 -3.721802e-08 -1.522795e-08 -1.129226e-08 -1.916087e-08 -2.692702e-09
-4.130564e-09 -1.567138e-08 -1.090606e-09 6.530274e-09 -3.881497e-09 2.397700e-09
-3.325305e-09 -1.455880e-08 2.977852e-09 2.749806e-09 -7.277768e-10 3.590497e-12
2.607970e-08 -5.589728e-08 -1.319353e-08 -6.971720e-09 -2.329014e-08 -1.254536e-10
-1.024015e-08 2.513336e-09 1.901661e-09 -1.212764e-09 -9.548601e-10 -8.178269e-10
3.137375e-09 -3.260936e-08 7.484581e-09 7.369624e-09 9.174801e-10 -4.116696e-10
9.545216e-09 -3.757342e-08 7.180518e-09 7.976149e-09 8.466985e-10 -4.190297e-10
2.789771e-08 -6.207249e-08 -1.239306e-08 7.278247e-10 -2.372071e-08 6.802455e-10
2.706664e-08 -4.521959e-08 -2.049485e-08 -1.300482e-09 -2.300722e-08 3.872148e-09
9.358646e-09 -3.795361e-08 8.302608e-09 7.645897e-10 8.735768e-11 -2.312504e-10
2.604009e-08 -5.687441e-08 -8.663559e-09 -6.774965e-09 -2.156440e-08 -4.647745e-10
-8.933206e-09 4.009343e-09 1.624250e-09 -1.052922e-09 -2.541463e-10 -4.704294e-10
-5.846964e-09 4.610496e-09 3.219431e-10 -2.831984e-09 -2.086318e-10 -2.969802e-10
1.379665e-08 1.770783e-08 -6.228979e-08 5.647132e-09 -7.509000e-09 6.426374e-10
-8.491583e-09 5.006896e-09 1.075346e-09 -4.969292e-10 -3.835787e-11 -3.397582e-10
-7.732367e-09 4.748829e-09 8.873711e-10 -2.241866e-09 -1.363336e-10 -6.702862e-12
-8.857307e-09 3.657664e-09 1.255929e-09 -1.148965e-09 -6.349385e-10 -1.168583e-09
-9.888691e-09 4.220139e-09 1.236137e-09 -1.729017e-09 -2.356724e-10 -7.277751e-10
2.495538e-08 -5.806972e-08 -2.183398e-09 -1.712265e-09 -1.199345e-08 -6.023962e-10
-5.432034e-09 4.416448e-09 3.324758e-10 -2.640658e-09 -4.264915e-10 -3.713488e-10
2.546001e-08 -1.490954e-08 -4.518203e-08 1.163560e-08 -2.678906e-08 8.601198e-09
2.691027e-08 -4.368545e-08 -1.429779e-08 -4.255629e-09 -1.976636e-08 -4.219185e-10
-7.503015e-09 -6.312071e-10 2.800124e-09 -4.869485e-10 1.676722e-10 -7.046994e-10
-7.442974e-09 9.170797e-10 2.175311e-09 6.654025e-10 5.217071e-11 -5.424968e-10
-7.631318e-09 3.837748e-10 2.331968e-09 -2.529019e-10 3.981038e-12 -5.544303e-10
1.313886e-08 -6.314167e-09 -1.498212e-09 -4.610544e-10 1.723388e-11 -1.921825e-10
-7.599624e-09 -1.295374e-09 2.949944e-09 -1.257231e-09 1.580996e-10 -6.262101e-10
-4.463430e-09 -8.107688e-09 -4.397068e-09 6.291228e-09 -1.091073e-09 -7.063642e-11
1.671876e-08 -3.215258e-08 -1.273273e-08 5.258294e-09 -7.529055e-09 8.721607e-10
2.782632e-08 -5.756108e-08 -4.605754e-09 -2.489578e-09 -1.098117e-08 2.495568e-09
-7.761421e-09 3.710463e-10 2.627800e-09 -2.116458e-10 -3.423084e-11 -4.691543e-10
3.572814e-09 -9.272396e-10 -8.105787e-10 -2.528418e-09 -2.039547e-10 1.937936e-10
1.953299e-09 -2.098215e-10 -5.765408e-10 -3.225107e-09 -3.168261e-10 3.833944e-10
1.578060e-09 -1.718239e-10 -4.394582e-10 -2.483947e-09 -4.108249e-10 1.063096e-10
1.795106e-09 -1.727232e-10 -5.933873e-10 -2.289968e-09 -6.922885e-11 2.533400e-10
2.227244e-09 -6.351140e-10 -6.066957e-10 -2.961916e-09 -8.382140e-11 3.282653e-11
3.706703e-09 -1.606184e-09 -6.675469e-10 -2.366242e-09 -3.696070e-10 2.316860e-10
4.733401e-09 -2.214398e-09 -9.243120e-10 -2.752866e-09 7.677788e-11 1.258424e-10
5.303608e-09 -1.964211e-09 -1.020372e-09 -3.825850e-09 -1.904854e-10 -1.318363e-09
5.250217e-09 -2.702344e-09 -7.513967e-10 1.071366e-09 2.561684e-11 -3.060147e-11
5.413484e-09 -2.281324e-09 -7.246871e-10 3.259536e-09 4.186126e-10 1.390388e-10
-1.030544e-08 2.699073e-09 1.449105e-09 -1.378324e-09 -3.145628e-10 -6.017755e-10
-6.439143e-09 4.432305e-09 5.898171e-10 -2.922240e-09 -6.174466e-10 -3.845704e-10
1.779784e-09 -8.790346e-10 -2.294156e-10 2.571934e-09 2.858327e-10 3.441398e-10
1.882271e-09 -6.616476e-10 -2.136087e-10 1.147531e-09 1.118581e-10 8.687695e-11
3.097572e-09 -1.700696e-09 -5.711756e-10 1.606117e-09 2.445966e-10 -1.494024e-10
2.108220e-09 -1.492181e-09 -2.979990e-10 2.165636e-09 2.195955e-11 5.331069e-12
-9.222433e-09 8.991776e-10 1.402484e-09 -9.707531e-10 -1.405734e-09 -1.400498e-09
-7.796807e-09 4.698713e-09 7.855818e-10 -2.148623e-09 -1.375460e-10 -3.082904e-10
-1.695398e-09 2.424533e-09 -3.366836e-10 -1.529674e-09 -7.275491e-11 -7.126899e-11
-2.107754e-10 1.152432e-09 -3.066793e-10 -2.796484e-09 -3.725578e-10 1.021125e-10
4.884546e-09 -1.613411e-09 -8.463559e-10 -5.318992e-09 -2.007483e-10 5.173135e-10
2.108633e-09 2.707603e-10 -5.119443e-10 -5.390587e-09 -2.895402e-10 5.596271e-10
1.604096e-09 8.265513e-10 -5.878316e-10 -3.982383e-09 -9.742940e-11 -5.193346e-12
2.986487e-09 -7.653318e-10 -7.088838e-10 -1.508111e-09 4.556866e-11 -1.280140e-10
3.289408e-09 -9.546088e-10 -7.697802e-10 -4.257775e-09 -3.285627e-10 9.915779e-11
1.583905e-09 5.949277e-10 -5.903411e-10 -4.882375e-09 1.037787e-10 -1.184681e-10
5.204965e-09 -1.981688e-09 -8.905161e-10 -4.412405e-09 -4.296624e-11 4.703535e-10
1.152361e-09 9.941301e-10 -6.020899e-10 -1.758580e-09 -1.909285e-10 -2.564154e-10
-3.378751e-10 2.037376e-09 -3.457152e-10 -1.270076e-09 -1.333782e-10 -5.718975e-11
-1.289227e-10 7.798593e-10 -3.918025e-10 -2.767959e-09 -1.426441e-10 1.544735e-11
-8.686270e-09 3.193061e-09 9.987233e-10 -1.650494e-09 -1.385605e-09 -4.998164e-10
2.934509e-08 -1.272154e-09 -6.453343e-09 1.239459e-08 -7.882463e-10 1.541962e-09
4.426586e-09 2.536790e-08 -6.060547e-09 1.465704e-08 -4.966602e-11 -6.316994e-09
-9.354802e-09 3.190300e-09 1.105747e-09 -1.696686e-09 -9.382124e-10 -1.441958e-09
-7.562359e-09 4.154564e-09 7.983472e-10 -2.569178e-09 -8.949937e-10 -4.905069e-10
1.257877e-08 2.193691e-08 -1.276802e-08 1.051972e-08 -5.269906e-09 -8.583150e-09
5.664206e-08 -2.056113e-08 7.017911e-09 1.109291e-08 2.065638e-09 1.371455e-08
7.371278e-08 -1.236859e-08 8.200094e-09 2.115894e-08 7.188616e-09 2.326238e-08
2.485946e-08 1.885891e-09 -9.931333e-09 3.592255e-10 -2.732217e-09 -1.987539e-09
3.315017e-08 -1.040249e-09 -1.673149e-09 2.453980e-08 4.737264e-09 5.855859e-09
4.066365e-08 7.226496e-09 -6.446938e-09 2.077511e-08 6.583794e-09 3.277921e-09
4.429603e-09 2.448660e-08 -1.612543e-08 2.106465e-08 -7.614517e-10 -1.008384e-08
3.211322e-08 2.563043e-09 -9.390483e-09 7.487119e-09 -1.689623e-09 -1.627480e-10
-8.296819e-09 4.870158e-09 9.103687e-10 -1.527750e-09 -3.493665e-10 -3.206204e-10
-8.728380e-09 4.084301e-09 1.030404e-09 -2.273154e-09 -6.235917e-10 -5.233876e-10
-8.031509e-09 2.781621e-08 -6.189244e-09 6.220825e-09 -5.306245e-09 -1.084228e-08
1.654955e-08 2.448677e-08 -1.571461e-08 2.097069e-08 -7.730150e-10 -7.556600e-09
4.824450e-09 2.457865e-08 -1.329705e-08 2.260434e-08 -3.805552e-09 -1.119051e-08
2.942722e-08 3.352477e-08 -1.888603e-08 4.016072e-08 1.282307e-08 1.356977e-10
2.074820e-08 1.410871e-08 -4.031579e-09 2.432070e-08 7.463464e-09 4.088752e-09
-5.811817e-10 -1.696513e-08 5.105694e-09 -3.649861e-09 2.333855e-10 -9.671995e-10
-5.280295e-09 4.720691e-09 2.278078e-10 -2.816467e-10 -4.685743e-11 -7.270967e-11
-5.118715e-09 4.798912e-09 2.563121e-10 -4.952008e-10 3.491296e-11 2.171197e-11
-5.125949e-09 4.771838e-09 1.397158e-10 -1.843823e-10 -6.780954e-11 -8.333334e-11
-7.886599e-09 -5.076899e-10 2.537361e-09 -8.170470e-10 2.989856e-10 -3.419809e-10
1.823665e-09 -2.176410e-08 5.754186e-09 -3.663491e-09 2.090601e-10 -9.908710e-11
-6.281094e-09 -7.838755e-09 3.672536e-09 -4.546261e-09 1.593247e-10 -4.047153e-10
-7.750532e-09 3.253069e-10 2.623931e-09 -2.086047e-10 1.984497e-10 -5.990159e-10
-7.960786e-09 8.166641e-10 2.217011e-09 -3.771050e-10 6.414091e-11 -6.689324e-10
5.829270e-09 -2.921719e-08 6.491635e-09 1.759461e-10 1.677744e-10 -5.057447e-10
-6.269563e-09 -5.372782e-09 3.621943e-09 -2.588468e-09 -5.298722e-10 -1.116349e-09
-5.587523e-09 4.967974e-09 2.311484e-10 -1.136424e-10 -1.462164e-11 -1.319211e-11
-7.684782e-09 -3.178968e-10 2.430054e-09 -7.979750e-10 7.378984e-10 -3.860503e-10
2.421191e-08 -1.476999e-09 -6.793480e-08 4.225112e-09 -9.366028e-09 4.862937e-09
-5.690518e-09 5.055867e-09 2.372280e-10 -7.617362e-11 1.495826e-11 -9.264495e-11
-5.280858e-09 4.895923e-09 1.685048e-10 -2.386456e-10 -6.732793e-11 -3.164513e-11
-4.024923e-09 -8.612398e-09 2.878019e-09 -8.366028e-09 1.592392e-09 -6.718680e-10
-1.015042e-09 -1.644521e-08 4.743591e-09 -7.104779e-09 2.088918e-10 -1.325005e-09
4.305289e-09 -2.529021e-08 6.353834e-09 -1.735563e-09 -1.024778e-09 -2.094336e-10
-4.977394e-09 4.577479e-09 1.402618e-10 -2.866951e-10 -9.100598e-11 -5.459411e-12
-4.305269e-09 4.443127e-09 7.925172e-11 -3.756395e-10 4.054091e-12 2.051137e-11
-4.313284e-09 4.413377e-09 7.189138e-11 -3.601968e-10 -1.254639e-10 8.745316e-11
-5.606891e-09 4.913540e-09 2.352827e-10 -7.095480e-11 -1.115874e-11 -1.120126e-11
-4.844753e-09 -8.113581e-09 3.928310e-09 -3.793278e-09 -2.141272e-10 -1.015803e-09
-5.899871e-09 5.056695e-09 3.213896e-10 -1.655240e-10 9.169333e-13 -1.434152e-10
-5.249584e-09 4.588918e-09 1.344920e-10 -3.184085e-10 -9.325074e-11 -4.652602e-11
6.000559e-08 -1.128009e-08 2.940300e-08 3.511471e-08 1.957466e-08 3.339779e-08
-5.433600e-09 4.860640e-09 1.518430e-10 -6.816969e-11 -4.982062e-11 -4.745648e-11
6.642160e-08 -2.644064e-08 2.721009e-09 4.610942e-10 2.161557e-09 2.779591e-09
4.612261e-08 -2.330904e-10 1.308812e-08 3.969719e-08 1.350079e-08 2.204967e-08
-1.783060e-08 -2.886899e-09 4.212977e-09 9.869491e-09 3.726020e-09 -1.504886e-09
-5.184502e-09 4.830471e-09 2.745706e-10 -4.353362e-10 -2.639511e-11 3.219180e-11
-1.756430e-08 -5.309184e-10 6.609575e-10 -3.124830e-09 -3.902665e-09 -1.764865e-09
-1.669477e-08 -1.149044e-09 3.018450e-10 -1.876364e-09 -9.835164e-10 -1.043172e-09
-1.813594e-08 8.174903e-09 -1.264541e-08 2.235078e-08 1.479177e-08 -7.462006e-09
-1.571069e-08 -2.713568e-09 3.156562e-09 1.638945e-09 3.672160e-09 -4.889766e-11
-3.620980e-09 -2.015588e-08 -3.411706e-09 2.461346e-08 5.546061e-09 -2.036943e-09
-1.179902e-08 2.016959e-09 -1.139735e-08 2.220550e-08 2.379440e-09 -9.051994e-10
-1.571360e-08 -4.062785e-09 -1.743446e-09 -2.342640e-09 -1.097547e-09 1.473973e-10
-1.871596e-08 -3.148135e-10 2.788391e-09 -1.196456e-09 -2.071017e-09 -8.101539e-10
-2.068018e-08 1.799073e-09 2.744426e-09 4.518986e-09 5.710062e-09 -1.192718e-09
-1.824287e-08 6.621317e-10 1.386412e-09 -3.339715e-09 -2.210236e-09 -9.734738e-10
-1.709654e-08 -6.137633e-10 -6.343452e-10 -2.943213e-09 -1.704071e-09 -4.698888e-10
-1.973625e-08 3.479510e-10 4.002730e-09 3.909254e-09 5.089177e-09 -5.663954e-10
-1.915234e-08 -4.202700e-09 7.589922e-10 1.723589e-08 1.113690e-08 -2.339092e-09
-1.144154e-08 -5.666578e-09 -5.905818e-09 2.204702e-08 1.021686e-08 -4.717188e-09
-1.436242e-08 -3.201629e-09 1.271812e-09 -3.661468e-09 -1.656428e-09 -1.011545e-09
-1.536941e-08 9.341609e-09 -1.105636e-08 1.968609e-08 6.724843e-09 -3.504329e-09
-1.769852e-08 2.984295e-09 -2.523226e-09 1.013053e-08 -1.358698e-10 -4.988678e-10
-7.606155e-09 -8.469782e-09 -1.096193e-08 2.890142e-08 9.037709e-09 -4.161311e-09
-1.431631e-08 8.174902e-09 -1.611451e-08 2.282074e-08 6.087266e-09 -2.077685e-09
-1.439802e-08 -8.039365e-09 4.875025e-10 -2.323143e-09 -5.122259e-11 -3.909468e-10
-1.860173e-08 1.228585e-09 7.471215e-10 -5.407426e-10 -9.803013e-10 4.409185e-10
-1.466826e-08 -6.365566e-09 1.847472e-09 -1.788483e-09 -2.203121e-09 -1.118926e-09
-2.647994e-08 2.461571e-08 -1.120338e-08 2.069852e-08 1.891782e-08 -1.480643e-08
-1.744321e-08 -1.197481e-09 2.065146e-09 -4.973879e-10 -5.958769e-10 -1.425612e-10
-1.804285e-08 -1.225171e-10 8.673273e-10 -3.335536e-10 -1.906375e-10 -2.663511e-10
-1.783461e-08 1.873971e-08 -2.992427e-09 3.458478e-10 9.821960e-09 -4.152307e-10
-1.997483e-08 3.456500e-09 1.822182e-10 -1.613696e-09 -4.092554e-09 -5.348496e-10
-1.703018e-08 3.717215e-09 -3.471717e-09 -4.262150e-09 -3.857046e-09 -5.905458e-10
-1.990762e-08 3.598665e-09 -1.738947e-10 -1.497349e-09 -3.303247e-09 -2.531756e-10
-7.622646e-09 4.099533e-09 1.131332e-09 9.610726e-11 1.247513e-11 -1.048944e-11
-2.152232e-08 4.156635e-08 -1.779899e-08 3.304832e-09 1.156076e-08 -1.779364e-08
-7.786041e-09 3.961189e-09 1.192229e-09 1.887246e-10 4.979217e-11 -1.303195e-10
-8.000386e-09 1.398579e-10 2.830417e-09 1.617000e-10 -1.378666e-10 -4.911697e-10
-7.598935e-09 4.122139e-09 1.073674e-09 9.686518e-11 4.624776e-11 -1.198663e-11
-7.645912e-09 4.175699e-09 1.053470e-09 7.866085e-11 3.366585e-11 -2.293654e-11
-7.898699e-09 4.023909e-09 1.224057e-09 1.217353e-10 1.314185e-11 -4.872458e-11
-6.179058e-09 -4.082327e-09 3.133301e-09 -1.801653e-09 6.151846e-10 -7.975370e-10
-7.501745e-09 4.057391e-09 1.113261e-09 1.634183e-10 2.358586e-11 -1.557939e-11
-7.824401e-09 4.145015e-09 1.100217e-09 2.363110e-11 -9.598433e-12 -6.555881e-11
-6.667357e-09 -6.089025e-09 3.353261e-09 -3.653361e-09 3.549099e-10 -8.302592e-10
-7.743389e-09 3.935099e-09 1.186910e-09 8.301737e-11 -2.062550e-11 1.197842e-11
-7.708852e-09 3.931774e-09 1.193809e-09 8.007328e-11 3.249517e-11 -1.192193e-10
1.319400e-08 -4.078639e-08 6.961896e-09 5.503367e-09 1.083021e-09 -1.880798e-10
-7.766782e-09 4.140489e-09 1.115390e-09 5.340306e-11 -8.566481e-12 -4.990786e-12
1.364199e-08 -4.250047e-08 7.256606e-09 2.944771e-09 1.055430e-09 -7.357562e-10
-7.809477e-09 4.060040e-09 1.131567e-09 1.798375e-10 2.210226e-11 -5.426748e-11
1.236660e-08 -3.936417e-08 7.705393e-09 3.130347e-10 -8.589300e-11 -3.520549e-10
-7.846476e-09 4.224793e-09 1.133198e-09 4.086842e-11 3.224354e-11 1.547678e-12
-7.671584e-09 4.190606e-09 1.052164e-09 -1.552536e-12 7.083218e-14 -1.176659e-11
2.227106e-08 -2.352779e-08 -3.573569e-08 -2.045830e-08 -2.062301e-08 -5.845955e-09
2.847864e-08 1.213813e-08 -8.543720e-08 -1.305318e-08 -4.028350e-08 -2.541443e-09
2.932324e-08 -7.220996e-08 -2.660575e-09 -1.485852e-08 -3.075406e-08 -2.581382e-09
3.018556e-08 -4.523685e-08 -2.596869e-08 -2.972409e-09 -2.753708e-08 1.327572e-09
2.709326e-08 -9.870535e-09 -5.606933e-08 -1.533671e-08 -2.897814e-08 -3.843655e-09
2.947908e-08 -2.119895e-08 -5.179751e-08 1.267709e-09 -1.001053e-08 5.467226e-10
1.789597e-08 -6.350617e-09 -4.899099e-08 -1.733555e-08 -1.210589e-08 -1.693844e-09
-7.546080e-09 4.051030e-09 1.101159e-09 1.379017e-10 3.248357e-11 1.570144e-11
-8.034320e-09 1.454550e-09 2.315380e-09 5.239460e-10 -1.336338e-10 -5.518487e-10
-7.543281e-09 2.112785e-09 1.640406e-09 3.981664e-10 2.312424e-10 -4.916227e-10
-7.260194e-09 3.991765e-09 1.010638e-09 9.246648e-11 3.672362e-11 -7.141021e-11
-7.250576e-09 3.911935e-09 1.021049e-09 2.073692e-10 7.734413e-11 -3.634526e-11
-6.973275e-09 3.897808e-09 9.887540e-10 1.947570e-10 5.952839e-11 1.671841e-10
-2.711992e-09 -2.518623e-08 8.648573e-09 6.483306e-10 1.236553e-10 -2.718870e-11
-1.942150e-09 -2.564740e-08 8.655166e-09 2.824025e-10 -6.300448e-11 7.952017e-11
-1.362375e-09 -2.610091e-08 8.115847e-09 3.052591e-09 -8.723133e-10 5.334204e-10
8.229258e-09 -2.590957e-08 -1.444645e-08 -1.071682e-08 -9.517440e-10 -7.858612e-10
-2.626290e-10 -2.522756e-08 7.814250e-09 2.066575e-09 -5.592796e-10 2.546590e-10
-1.519542e-09 -2.615048e-08 8.601594e-09 6.419238e-10 -2.604272e-11 1.708900e-10
-7.097194e-09 -1.269616e-08 7.941350e-10 -4.462433e-09 -1.327501e-09 -1.722460e-09
-2.332635e-09 -2.292745e-08 8.011900e-09 3.192706e-09 -2.684957e-10 -2.931165e-10
1.100354e-08 -4.007828e-08 -1.821526e-08 -2.316317e-08 -2.436166e-08 -7.599640e-09
-2.252290e-09 -2.643561e-08 8.301341e-09 2.046896e-09 -4.998189e-11 6.349376e-11
-3.194151e-09 -2.259904e-08 7.677540e-09 2.317413e-09 1.746195e-10 2.802261e-10
-4.360366e-09 -2.426488e-08 8.258962e-09 1.317727e-09 3.522406e-11 -7.340575e-12
-4.342992e-09 -2.427530e-08 8.461997e-09 1.304407e-09 6.680358e-11 1.344353e-10
-2.929199e-09 -2.475713e-08 8.541119e-09 7.406355e-10 -9.716371e-11 1.542459e-10
-2.317003e-09 -2.546445e-08 8.273720e-09 2.394811e-09 9.212232e-10 5.215458e-10
4.349845e-09 -1.915794e-09 -9.551351e-10 -1.356459e-09 -1.809246e-10 2.485834e-10
9.532220e-09 -5.126886e-09 -1.392889e-09 -3.663857e-09 -1.657223e-10 3.511975e-10
6.531302e-09 -2.619680e-09 -1.145648e-09 -4.172305e-09 -2.658245e-10 2.552918e-10
6.985679e-09 -3.544497e-09 -1.172901e-09 -3.353805e-09 -9.669465e-11 1.178800e-10
3.583017e-09 -1.606095e-09 -6.690120e-10 -2.695682e-09 -3.639007e-10 2.750261e-10
4.026865e-09 -9.546088e-10 -9.370238e-10 -4.059554e-09 -7.658452e-11 3.924983e-11
1.904851e-09 5.976082e-10 -6.777592e-10 -5.042755e-09 1.840790e-10 -1.144391e-10
4.756284e-09 -2.214196e-09 -9.802346e-10 -2.722448e-09 -1.542035e-10 4.253575e-11
-2.268041e-09 -2.461089e-08 8.491279e-09 3.534644e-10 -1.307385e-10 9.843348e-11
-2.310507e-09 -2.533145e-08 8.668295e-09 2.638183e-10 1.995076e-12 6.623702e-11
7.569112e-09 -2.429007e-09 -1.245778e-09 -7.093241e-09 -4.195438e-10 2.965532e-10
-4.258425e-10 -2.721589e-08 8.513582e-09 3.737108e-10 2.155031e-10 9.668999e-11
-2.341753e-10 -2.676119e-08 8.583384e-09 2.359543e-09 1.352406e-10 1.375351e-10
-7.361012e-10 -2.840026e-08 9.037158e-09 1.155595e-09 -5.184980e-10 1.786135e-10
3.162182e-09 -8.723112e-10 -7.389138e-10 -3.868043e-10 -1.276023e-11 1.204553e-10
-1.469171e-09 9.163437e-10 1.475922e-10 1.897207e-09 9.224660e-11 5.651102e-11
-4.511138e-09 2.470505e-09 6.080785e-10 1.429198e-09 2.965512e-10 -8.549728e-11
2.720539e-08 -6.266404e-08 -1.029100e-09 -2.204754e-10 -2.257605e-08 -2.840207e-09
2.413684e-08 -7.387175e-09 -4.968593e-08 5.220694e-09 -6.438939e-09 2.294479e-09
-4.296170e-09 2.462818e-09 5.416003e-10 1.360211e-09 1.161659e-10 1.598353e-10
-3.175056e-09 1.966009e-09 5.412297e-10 9.414856e-10 1.025824e-10 1.496277e-10
-1.828735e-09 -5.210295e-09 -1.488363e-08 9.845147e-09 -1.114489e-09 -1.235268e-09
-7.326327e-09 3.692127e-09 1.092641e-09 5.847971e-10 5.958545e-11 -7.181034e-11
-4.661668e-09 2.463904e-09 6.376377e-10 1.275949e-09 1.834024e-10 2.414762e-10
3.526587e-08 -3.246341e-09 -3.856478e-10 -2.115962e-08 -5.823298e-09 8.353163e-09
-1.830539e-08 2.084754e-08 -6.542058e-09 5.679825e-09 5.937726e-09 -5.398990e-09
-8.227317e-09 3.035367e-09 1.598420e-09 2.335576e-10 2.658496e-11 -1.742828e-10
-7.830294e-09 2.656201e-09 1.761240e-09 1.002021e-09 2.686171e-10 -2.414293e-10
2.445250e-08 -5.127292e-08 -2.298918e-08 -1.785868e-08 -2.850345e-08 -5.151752e-09
3.003749e-08 -7.186889e-08 -9.356477e-10 4.628203e-09 -2.699059e-08 4.060371e-09
9.220863e-09 -2.673610e-08 -9.889814e-09 -1.317046e-08 -1.001201e-08 -3.824954e-09
2.686436e-08 -4.288817e-08 -2.611037e-08 -4.344873e-09 -1.470296e-08 5.791225e-10
2.178031e-08 -4.049790e-08 -1.472916e-08 -5.041296e-09 -2.173404e-09 -2.647707e-10
3.465635e-08 -1.287764e-08 -6.657113e-08 -6.910493e-09 -3.510444e-08 1.720616e-09
2.093231e-08 5.397278e-09 -6.389905e-08 -1.815520e-08 -1.048140e-08 -1.928478e-09
3.018556e-08 -3.445057e-08 -3.291198e-08 -4.167696e-09 -1.540381e-08 1.100420e-09
3.133116e-08 -1.706432e-08 -6.448397e-08 -1.159531e-08 -3.584640e-08 -1.171964e-09
2.121808e-08 3.434615e-08 -9.063935e-08 -1.981478e-08 -1.854334e-08 -1.705803e-09
2.532534e-08 -6.203256e-09 -5.979078e-08 -1.944508e-08 -3.329816e-08 -6.744518e-09
1.388603e-08 1.361189e-08 -5.495682e-09 -6.712885e-09 1.010249e-09 5.872473e-10
-1.996694e-08 3.135244e-08 -1.141978e-08 -3.061427e-09 5.204827e-09 -1.216742e-08
2.224941e-08 2.026964e-08 -6.390916e-11 -2.299650e-08 -7.446522e-09 9.994652e-09
2.684670e-08 -4.146073e-08 -2.631920e-08 -1.183083e-08 -2.698527e-08 -2.252662e-09
-1.324161e-08 4.254755e-08 -5.844197e-08 2.461455e-08 2.368548e-08 -1.786663e-08
1.773854e-09 -1.896758e-08 -1.458108e-08 2.539355e-08 2.247074e-09 -8.081020e-10
1.109253e-08 -2.162804e-08 -2.685129e-08 2.626638e-08 4.183898e-09 -1.402579e-09
3.848095e-08 -2.065328e-09 2.722073e-10 -8.485698e-09 -2.726297e-10 6.308700e-09
1.513960e-09 4.212562e-08 -1.100858e-08 -2.304304e-08 -1.385290e-09 -6.479367e-09
4.228126e-09 4.244761e-08 -8.780061e-09 -2.538899e-08 -6.946036e-09 -2.689947e-09
-1.822186e-08 2.898175e-08 -1.046543e-08 -2.426773e-09 5.495476e-09 -1.125066e-08
-5.348056e-09 2.741110e-08 -2.622503e-09 -8.252186e-09 7.358729e-10 -2.448213e-10
4.969413e-09 -1.295175e-09 -9.718546e-10 -5.218692e-09 1.925757e-10 -1.915976e-10
8.534666e-09 -3.934677e-09 -1.328551e-09 -2.714811e-09 3.483658e-11 8.690293e-11
-1.675259e-09 2.931697e-08 -7.369613e-09 -1.113938e-08 1.150714e-09 -4.347368e-09
5.215943e-09 2.227471e-08 -7.944322e-09 -1.902741e-08 1.237846e-10 -6.073167e-09
2.542823e-08 -6.368919e-08 1.283934e-09 -5.656965e-09 -2.424016e-08 6.689839e-10
1.873058e-08 -3.919904e-08 -1.303921e-08 -5.813520e-09 -5.873647e-09 -9.468349e-10
-2.760209e-09 3.039060e-09 -2.835235e-08 8.267586e-09 -1.807183e-09 1.376550e-09
-9.625612e-09 1.466600e-08 -3.005186e-08 2.827605e-08 5.921980e-09 -7.426163e-09
-3.073128e-09 2.128921e-09 3.690923e-10 7.476791e-10 1.500148e-10 -6.146161e-11
-7.793320e-09 -1.613933e-09 2.622187e-09 -1.090900e-09 -1.885001e-10 -4.897367e-10
-7.707664e-09 2.848758e-09 1.460827e-09 8.872953e-10 8.356733e-11 -2.733178e-10
-5.668047e-09 2.993378e-09 7.144743e-10 5.472445e-10 5.577833e-11 1.767808e-11
-7.618832e-09 2.101126e-09 1.737916e-09 4.384538e-10 1.035347e-10 -3.147833e-11
-8.051820e-09 2.022575e-09 1.945184e-09 4.893720e-10 -1.476212e-10 -3.598730e-10
-4.722677e-09 2.946289e-09 6.823129e-10 5.793179e-10 9.792589e-11 6.232881e-11
-4.710004e-09 2.697402e-09 5.678644e-10 1.017109e-09 2.181212e-10 -1.178451e-10
-6.003906e-09 3.048451e-09 7.938081e-10 8.478667e-10 -2.221046e-11 -1.022150e-10
-8.007362e-09 -2.006395e-10 2.446025e-09 3.538041e-10 4.147088e-11 -3.057253e-10
-7.710266e-09 -3.996685e-09 -6.117643e-09 -1.115821e-08 -2.308364e-09 -2.540155e-09
5.481860e-09 -4.084590e-08 -1.933211e-09 -2.658950e-08 -2.183444e-08 -8.174203e-09
-5.645025e-09 2.592349e-08 -9.820788e-09 -6.918034e-09 9.004312e-10 -2.057508e-10
4.223112e-09 -1.369521e-08 -1.545727e-08 -1.415573e-08 -1.056460e-08 -2.462597e-09
1.337553e-08 -4.153179e-08 4.495627e-09 -8.102233e-09 -8.106164e-09 -5.451047e-10
-1.477625e-08 -4.283516e-09 -1.346936e-10 -2.063882e-09 -1.299778e-09 -1.118133e-09
-4.547344e-09 4.255169e-09 2.943121e-10 -2.226923e-09 -1.214507e-10 -8.220268e-10
-5.967305e-09 4.598370e-09 4.867367e-10 -2.741062e-09 -3.174372e-10 -3.806806e-10
-2.019815e-08 2.373041e-08 -1.033830e-08 8.304398e-09 7.681986e-09 -3.657636e-09
8.098297e-09 1.364494e-08 -8.182358e-09 -3.816571e-09 3.747139e-09 -3.625743e-09
-8.008680e-09 5.102926e-09 8.535972e-10 -1.508625e-09 -1.621594e-10 -3.520082e-10
-7.623293e-09 5.279635e-09 8.016121e-10 -4.803273e-10 -6.240486e-11 -2.491783e-10
-2.885550e-10 2.156794e-08 -8.980771e-09 -6.306037e-09 1.742726e-09 -6.151404e-09
-8.491729e-09 5.006901e-09 9.915420e-10 -5.312956e-10 -4.255438e-11 -6.829052e-10
-2.484980e-10 2.155715e-08 -8.351195e-09 -1.771787e-09 2.486115e-09 -1.897694e-09
2.410589e-08 6.091710e-09 -2.268040e-09 -8.989305e-09 2.268720e-10 1.027049e-09
1.226528e-09 2.153565e-08 -7.390972e-09 -6.382408e-09 6.021177e-10 -4.223175e-10
2.592595e-08 1.223277e-08 -2.920659e-09 -1.113867e-08 1.464018e-09 1.041522e-09
1.310062e-08 -3.783736e-08 6.948911e-09 -2.142199e-09 8.013068e-10 -7.500467e-11
-1.875316e-08 1.777214e-08 -2.247967e-09 2.806489e-10 1.253891e-09 1.487909e-09
-1.030277e-08 2.532491e-09 1.054604e-09 -1.976088e-09 1.813162e-10 -5.059506e-10
-4.578371e-09 -1.361013e-08 -4.251529e-09 9.284793e-09 -6.853633e-09 3.715422e-09
-5.726032e-09 7.603005e-09 -1.989918e-08 -2.479584e-08 6.443624e-09 4.869080e-09
-1.537910e-08 2.686941e-08 -1.707445e-08 -1.593354e-08 3.271243e-09 1.196841e-09
-1.056555e-08 9.119150e-11 2.020995e-09 1.293455e-09 -1.487808e-09 6.891644e-11
6.612262e-10 -2.343823e-08 3.353005e-09 1.926098e-09 -2.402891e-09 6.169111e-10
-1.526454e-08 1.076127e-08 -6.364442e-09 -1.217203e-08 3.594352e-09 3.411068e-09
-1.791853e-08 2.087324e-08 -2.670333e-09 1.955351e-09 7.368202e-10 1.397040e-09
-2.319486e-08 2.573896e-08 -7.073661e-09 -4.112889e-09 -8.448896e-11 -1.581925e-09
8.671542e-09 -4.727936e-09 -1.208691e-09 -1.884836e-10 -1.840591e-10 3.167754e-11
9.063763e-09 -5.264705e-09 -1.243951e-09 -9.186690e-10 -1.310714e-10 -1.124951e-10
-1.721985e-08 1.592550e-08 -1.890302e-08 -1.979964e-08 9.534894e-09 8.670564e-09
-1.265099e-08 3.965615e-08 -5.018542e-08 2.237617e-08 1.222055e-08 -7.970392e-09
8.177429e-09 -3.403894e-08 2.568809e-09 4.786977e-09 -2.108951e-09 8.932462e-10
-2.310745e-08 2.573820e-08 -2.080394e-09 3.116260e-09 -9.207613e-10 6.723766e-10
1.211581e-08 -8.322344e-10 9.176762e-10 -1.941324e-08 9.205330e-10 -6.671779e-10
1.034893e-08 -1.751700e-09 -4.650449e-10 -1.673667e-08 6.856699e-10 3.034502e-10
1.449268e-09 5.329163e-09 2.007110e-10 -2.012879e-08 8.724848e-10 -1.418082e-09
9.638137e-09 3.563971e-09 2.522369e-09 -2.310952e-08 1.273000e-09 -4.452088e-10
1.499012e-08 -3.885081e-08 -7.000680e-09 4.625643e-09 -6.200351e-09 1.415464e-09
1.148005e-08 4.197656e-10 7.250351e-10 -1.687202e-08 3.852064e-10 -2.547284e-09
2.529040e-08 -5.919362e-08 -6.996551e-10 7.116454e-09 -2.071850e-08 -1.533821e-09
3.891663e-09 3.848596e-09 -1.379516e-09 -1.795470e-08 3.955627e-10 -6.733247e-10
8.440670e-09 9.068870e-10 -1.384770e-09 -1.693265e-08 -9.021408e-10 -5.697922e-10
3.997025e-10 6.974967e-09 -2.205360e-09 -1.718583e-08 9.020253e-11 -3.341267e-10
3.480034e-08 -1.277163e-09 -1.917836e-09 1.156020e-08 1.363722e-09 -2.115287e-09
6.439531e-08 -3.089550e-08 2.288121e-08 1.181265e-09 8.851879e-10 1.296181e-08
5.794322e-08 -2.046632e-08 5.200329e-09 9.450753e-09 6.579257e-10 -1.812740e-10
4.300095e-08 -1.278808e-09 -7.963285e-09 1.125192e-08 1.827443e-09 -5.905704e-09
5.538183e-08 -2.603478e-09 2.352925e-08 3.324854e-08 1.025312e-08 2.646733e-08
6.598046e-08 -2.628037e-08 5.515178e-09 1.384503e-08 5.381426e-09 1.423426e-08
-1.980339e-08 1.703370e-08 -1.385702e-08 -1.720668e-08 -1.781053e-08 -1.279856e-08
-2.363791e-08 3.610861e-08 -1.323840e-08 -8.390386e-09 -8.738323e-09 -1.331499e-08
2.439036e-08 -5.961710e-08 5.968555e-09 -2.139698e-09 -9.546732e-09 6.822220e-10
6.861987e-09 -3.584653e-08 3.856332e-09 1.342953e-08 -1.152962e-08 2.551024e-09
-5.804008e-09 -8.421714e-09 4.963105e-10 -6.645559e-10 -1.533512e-10 -1.299485e-11
2.074359e-08 9.656167e-09 -9.935804e-09 8.919865e-10 -3.515881e-09 -1.064529e-09
-7.094723e-09 -1.733738e-08 1.084188e-09 1.339033e-08 -8.040970e-09 3.685201e-09
1.620848e-08 2.513018e-08 -9.318833e-09 2.117449e-08 -2.571597e-10 -4.932949e-09
8.262086e-09 1.597056e-08 -1.342969e-08 6.836754e-09 -4.612195e-09 -8.724262e-09
2.592029e-08 -4.572119e-08 -1.421781e-08 -5.590977e-09 -1.406162e-08 -6.780609e-10
1.369201e-08 1.030416e-08 -7.204097e-09 5.724993e-09 -3.613825e-09 7.132646e-10
-1.921868e-08 2.312626e-08 -2.172666e-08 1.743683e-08 8.188654e-09 -3.442742e-09
-1.701051e-08 -6.389049e-10 3.566191e-09 -4.955522e-09 -3.679876e-09 -9.439976e-10
1.296178e-08 -4.122158e-08 7.273779e-09 1.514560e-09 8.659737e-10 -2.363464e-10
-1.213548e-08 2.227130e-09 -3.766180e-09 -1.030577e-08 -5.926453e-09 -2.574024e-09
-1.746603e-08 -1.011026e-09 3.108918e-09 -2.446251e-09 -2.736257e-09 -6.088442e-10
2.564621e-09 8.058800e-09 -4.462435e-08 3.073670e-08 2.066849e-08 -1.080466e-08
6.764123e-09 -3.624569e-08 7.275144e-09 5.416165e-09 3.794389e-10 -1.548992e-10
1.295637e-08 -4.022559e-08 6.258885e-09 -2.670224e-10 4.447694e-10 -2.120099e-10
-1.528249e-08 -4.754622e-09 2.232086e-09 -2.212109e-09 -1.243415e-09 -1.002813e-09
-1.914836e-08 1.372571e-09 -9.324710e-10 -1.638062e-09 -1.466284e-09 -1.745115e-10
1.177000e-08 -3.768267e-08 7.235630e-09 -7.250781e-10 -1.000635e-10 -4.906566e-10
8.036178e-09 -3.270609e-08 6.009910e-09 -1.940251e-09 1.388579e-09 -5.831934e-10
-1.753252e-08 -1.291557e-09 2.874872e-09 -4.657679e-10 -9.606272e-10 1.422267e-10
-1.256648e-08 -4.761439e-09 -6.271051e-09 -9.254794e-09 -4.394877e-09 -1.346100e-09
-9.173472e-09 -7.661905e-09 -5.441054e-09 -8.045654e-09 -4.941002e-09 -2.440053e-09
-2.127194e-08 2.023957e-08 -6.661126e-09 -1.819926e-09 -7.619266e-09 -3.541744e-10
-3.265521e-09 1.672403e-08 -9.992966e-09 -2.362159e-09 -3.603065e-09 -1.339414e-09
-1.984908e-08 1.603548e-08 -3.663884e-09 -1.016616e-08 -7.408293e-09 -5.697517e-09
-1.253037e-08 -1.046178e-09 -1.113488e-08 -1.002314e-08 -3.589617e-09 -7.126207e-11
-1.985945e-08 4.959459e-09 -3.034950e-10 -2.181820e-09 -3.930344e-09 -4.009760e-10
-2.127193e-08 1.586042e-08 -4.962291e-09 -3.547835e-09 -7.580273e-09 -1.415122e-09
7.091135e-09 -4.124960e-08 2.331386e-09 -1.268075e-08 -9.412702e-09 -2.376870e-09
-6.526907e-10 -2.853407e-08 3.881855e-09 -1.799953e-08 -1.134833e-08 -2.597359e-09
-1.952999e-08 1.612453e-08 -1.115640e-08 -1.602364e-09 -6.777462e-09 -3.949242e-10
-1.219056e-08 2.846475e-08 -1.302918e-08 2.707963e-09 -1.064820e-08 -8.258862e-09
-1.607905e-08 2.630228e-09 -5.044698e-09 -5.295546e-09 -3.080570e-09 -3.423175e-10
-7.567987e-09 3.199499e-09 1.227626e-09 1.011787e-09 2.313987e-10 -3.809875e-10
-1.255016e-08 8.148340e-09 -1.136470e-08 -9.764600e-09 -2.687989e-09 -1.387094e-10
-8.038700e-09 2.457442e-09 1.655324e-09 7.169147e-10 3.045636e-11 -3.933389e-10
-1.629976e-08 3.369914e-09 -4.435207e-09 -5.482357e-09 -2.406248e-09 -4.751406e-10
-7.779533e-09 2.695729e-09 1.502061e-09 3.407514e-10 -6.544920e-11 -1.251517e-10
-6.842700e-09 3.402568e-09 1.062753e-09 8.505874e-10 1.017314e-10 -1.314041e-10
-2.349790e-08 2.561565e-08 -1.392813e-08 -1.257997e-08 -1.553715e-08 -1.867457e-08
3.658234e-08 1.417574e-09 7.674908e-09 1.673107e-08 2.276167e-09 -8.527356e-10
-1.721208e-08 1.916491e-08 -8.373875e-09 -5.109495e-09 -1.179588e-08 -6.281891e-09
-1.785334e-08 3.494476e-09 -3.245051e-09 -5.665976e-09 -4.420500e-09 -5.007794e-10
-1.441466e-08 -1.374486e-09 -2.970157e-10 -3.933038e-09 -2.781230e-09 -1.301964e-09
-1.402073e-08 2.683849e-08 -1.221640e-08 2.678524e-09 7.995141e-09 -6.990305e-09
-2.368411e-08 2.402218e-08 -6.457537e-09 8.279526e-09 7.205524e-09 -6.004446e-09
-6.799111e-09 5.002972e-09 6.732117e-10 -1.575231e-09 -2.027034e-10 -3.190413e-10
-8.151172e-09 4.981503e-09 8.490888e-10 -1.987788e-09 -9.300723e-11 9.695583e-11
-3.767630e-09 1.860885e-08 -5.601205e-09 8.328754e-10 3.683741e-09 -7.212463e-10
2.511524e-09 -2.341380e-08 -2.826326e-09 4.132985e-09 -5.332432e-10 9.858140e-11
-1.690946e-08 2.410574e-08 -7.145151e-09 -1.531799e-10 5.003481e-09 -3.586961e-09
-9.884595e-09 4.075212e-09 1.185033e-09 -2.470379e-09 -1.339172e-10 7.063554e-11
-2.389664e-08 2.376686e-08 -8.033860e-09 8.037868e-09 8.169386e-09 -5.274892e-09
-1.598792e-08 2.409032e-08 -5.264688e-09 -1.693322e-10 4.564519e-09 -3.741505e-10
-8.756874e-09 4.533815e-09 1.168982e-09 -2.935379e-09 -5.046725e-10 -5.961585e-10
-2.830494e-08 2.461906e-08 -1.731506e-08 1.837727e-08 1.669425e-08 -1.405467e-08
-7.623314e-09 5.279637e-09 6.662684e-10 -5.709281e-10 -8.627810e-11 -5.059927e-10
-5.992182e-09 4.585279e-09 4.423408e-10 -2.702976e-09 -2.902608e-10 -4.276073e-10
-6.682091e-09 4.956308e-09 6.486061e-10 -1.998404e-09 -8.165910e-11 1.407747e-10
-6.198960e-09 5.063640e-09 4.121632e-10 -4.372051e-10 -1.633810e-11 -1.371705e-10
-6.544812e-09 2.736887e-08 -9.898995e-09 -1.231561e-08 4.147716e-10 -1.508608e-09
-7.530507e-10 3.170128e-08 -6.973806e-09 -1.283397e-08 -3.416169e-10 -2.790105e-09
-4.096203e-09 -1.222245e-08 -7.262697e-10 3.021400e-09 -3.216705e-10 -2.687208e-10
-3.133761e-09 -1.724219e-08 1.410025e-09 3.580770e-09 1.716196e-09 2.992781e-10
-7.580591e-09 1.856592e-09 1.762960e-09 6.224983e-10 2.599239e-10 -3.752724e-10
-3.240509e-09 -1.667133e-08 2.161350e-09 2.739998e-09 -2.558319e-09 7.555916e-10
-3.260684e-09 -1.619848e-08 1.978025e-09 2.898938e-09 -2.774918e-09 5.385832e-10
2.053388e-09 -1.389953e-08 -1.018124e-08 1.001877e-08 -5.215577e-09 4.648990e-09
1.387468e-08 -4.089748e-08 6.786417e-09 -1.953974e-09 1.624446e-09 -1.593866e-10
3.648623e-09 -2.142784e-08 -6.515299e-09 9.038405e-09 -9.358339e-09 4.350184e-09
1.246528e-08 -3.976239e-08 7.464202e-09 6.787833e-10 5.124652e-10 -3.156145e-10
-4.565166e-09 -1.248588e-08 -3.518143e-09 8.529786e-09 -7.786373e-09 4.483185e-09
5.432635e-09 -2.699401e-08 6.306111e-09 -3.029020e-09 -2.052580e-11 -5.184370e-10
5.176928e-09 -2.450513e-08 6.181069e-09 -2.304795e-09 1.832379e-09 -4.645001e-10
5.674685e-09 -2.450548e-08 6.498734e-09 -1.749296e-09 -3.382853e-10 -7.249936e-10
8.228751e-09 -3.677425e-08 8.284087e-09 2.679748e-09 7.230318e-10 1.156115e-10
5.674665e-09 -2.561164e-08 6.483183e-09 -1.610154e-09 -9.965466e-10 -5.610957e-10
-3.421088e-10 -1.662090e-08 5.249657e-09 -5.125281e-09 4.012394e-10 -3.178953e-10
-7.682292e-10 -1.375782e-08 4.932229e-09 -5.177867e-09 1.799071e-10 -1.581792e-10
3.132808e-09 -2.324171e-08 5.026438e-09 -6.909009e-09 -1.454505e-10 -1.061569e-09
-8.175054e-09 2.203691e-09 1.597259e-09 6.774274e-10 3.068157e-10 -7.003608e-10
2.477281e-09 -2.948741e-08 7.389691e-09 3.667140e-09 7.582863e-10 4.137802e-12
2.489585e-09 -3.021871e-08 8.125391e-09 3.356525e-09 6.932507e-11 -7.354200e-10
-7.903996e-09 2.067880e-09 1.927277e-09 3.028653e-10 1.263163e-10 6.187588e-11
3.743388e-09 -2.425200e-08 -6.233086e-09 -1.625236e-09 -3.666564e-09 -6.843588e-10
1.056449e-09 -2.712122e-08 8.450085e-09 2.232076e-09 6.207908e-11 2.329044e-10
2.187270e-08 -3.777310e-08 -1.818902e-08 -1.045214e-08 -2.045039e-08 -8.911247e-10
2.467169e-08 -5.615018e-08 -1.229363e-10 -1.695625e-09 -3.852493e-09 -5.615181e-10
-4.762662e-09 -2.230263e-08 7.005029e-09 7.002071e-09 1.056054e-09 2.358851e-10
4.525743e-09 -1.943657e-08 -1.292131e-08 -1.265276e-08 -5.410424e-09 -1.745011e-09
2.041239e-08 -7.067986e-08 8.604244e-09 -1.495031e-08 -1.799601e-08 -7.590004e-10
1.100160e-08 -3.989496e-08 -3.676341e-09 -2.362212e-08 -2.288117e-08 -8.149867e-09
-2.308797e-09 -2.211282e-08 7.056490e-09 9.532976e-09 8.230469e-10 -1.616694e-10
1.109411e-08 -3.596187e-08 7.311721e-09 -7.333136e-10 -2.178563e-10 -6.550036e-10
1.567168e-08 -4.262039e-08 5.345530e-09 1.593086e-09 1.400210e-09 -4.772556e-10
3.615918e-09 -3.157177e-08 7.395109e-09 8.826743e-09 5.738091e-10 -5.362152e-10
9.719543e-09 -3.934218e-08 8.033446e-09 9.911916e-10 5.959922e-11 1.303422e-10
-3.312159e-09 -2.580365e-08 7.339485e-09 4.451370e-09 6.100940e-10 3.449285e-11
-1.538478e-09 -2.640005e-08 7.079287e-09 7.192159e-09 1.608003e-10 -7.529688e-11
2.100981e-08 -9.961692e-09 5.883435e-09 -9.939534e-09 1.443939e-09 -2.948427e-09
-2.407311e-09 -2.524037e-08 6.965480e-09 7.315489e-09 6.347545e-10 -5.456693e-10
-1.890673e-09 -2.486314e-08 7.981700e-09 2.923388e-09 3.933464e-10 2.276369e-10
-3.293863e-09 -2.586833e-08 7.985007e-09 4.444104e-09 5.581873e-10 1.432643e-10
1.242921e-09 -2.914079e-08 7.863584e-09 3.797347e-09 -8.559566e-10 -1.613255e-10
-1.011772e-09 -2.750677e-08 8.436973e-09 4.666252e-09 -2.025286e-10 3.116336e-10
1.210910e-09 -2.902091e-08 8.308116e-09 3.753487e-09 3.763658e-10 1.542411e-10
1.037926e-08 -5.830036e-09 -1.420879e-09 2.896765e-10 8.783214e-11 1.343534e-10
6.994871e-09 -4.006221e-09 -9.290630e-10 5.968104e-10 7.524037e-12 -3.695173e-10
8.748120e-09 -4.995009e-09 -1.181289e-09 7.065192e-11 4.448592e-11 2.570039e-11
2.445392e-09 2.762425e-08 -1.380739e-08 2.240889e-08 -4.082154e-09 -1.004112e-08
-1.898964e-08 4.104446e-08 -2.563188e-08 4.917673e-09 -1.687467e-08 -1.826176e-08
2.897266e-09 2.030285e-08 -1.109596e-08 1.887449e-08 -8.756491e-10 -6.178521e-09
2.322903e-08 -4.353860e-08 -2.029458e-08 1.306926e-08 -2.312497e-08 7.606623e-09
5.428708e-09 -3.394388e-09 -8.081424e-10 7.152526e-10 3.527875e-10 9.782619e-11
1.957862e-08 -4.857939e-08 3.565788e-10 7.936835e-10 -2.207452e-09 5.003558e-10
6.522185e-09 -3.904817e-09 -9.933290e-10 8.678124e-10 1.846831e-10 1.324860e-10
7.084924e-09 -3.909064e-09 -9.550218e-10 8.427188e-10 1.284949e-10 5.460038e-10
7.535917e-09 -4.558669e-09 -9.684960e-10 4.154998e-10 9.071667e-11 2.905933e-10
5.213053e-09 -3.188713e-09 -8.476089e-10 1.407761e-09 2.567002e-10 -2.419549e-10
9.184545e-09 -4.782480e-09 -1.101851e-09 1.284183e-09 2.358351e-10 2.043029e-10
6.934030e-09 -3.661417e-09 -8.298544e-10 1.280102e-09 -2.465972e-11 -6.389360e-10
7.537945e-09 -4.109912e-09 -1.036543e-09 1.689145e-09 2.778257e-11 1.467202e-10
8.808859e-09 -4.715108e-09 -1.225126e-09 1.308249e-09 -9.019929e-11 -6.245560e-11
8.993783e-09 -4.968634e-09 -1.267492e-09 4.860029e-10 -7.855028e-11 -9.769186e-11
7.395109e-09 -4.228932e-09 -1.203048e-09 -4.477219e-10 -3.624406e-12 -3.360312e-11
8.499580e-09 -4.772881e-09 -1.232228e-09 -6.408429e-10 -1.506310e-10 6.421086e-11
9.269496e-09 -5.433659e-09 -1.180167e-09 -4.118166e-11 2.421315e-11 5.304779e-11
9.732013e-09 -5.445509e-09 -1.364792e-09 -7.646281e-10 -3.151229e-11 5.607864e-11
-7.190945e-09 -3.368358e-09 3.141921e-09 -3.888800e-10 2.107991e-10 -7.769640e-10
9.813970e-09 -4.958041e-09 -1.336972e-09 -1.546455e-09 -8.268035e-11 2.397709e-10
1.119149e-08 -3.401694e-08 4.722859e-09 -7.026103e-09 8.880654e-10 -9.711287e-11
8.179057e-09 -4.352064e-09 -1.163422e-09 -8.734158e-10 -1.547911e-10 1.091988e-10
6.896191e-09 -2.859975e-08 6.257458e-09 -2.434527e-09 -9.814204e-10 -1.082063e-09
6.633391e-09 -2.722563e-08 4.728767e-09 -8.653489e-09 3.823504e-10 6.320917e-11
8.874549e-09 -5.187426e-09 -1.219133e-09 -3.206194e-10 -3.883038e-11 -1.643455e-11
-2.427225e-09 -1.376759e-08 -1.147422e-09 -1.576327e-08 3.731564e-09 2.012950e-09
9.878823e-09 -5.138353e-09 -1.454294e-09 -8.166830e-10 6.435992e-11 -1.073190e-10
-8.807508e-09 6.806715e-10 4.563387e-10 -1.026248e-08 2.616365e-09 2.728870e-10
-1.778950e-09 1.945093e-08 1.210218e-08 -3.178844e-08 -1.874291e-09 -2.188967e-09
-1.924319e-09 -1.124943e-08 -6.443913e-09 -1.930931e-08 -6.188638e-10 -1.473773e-09
9.404620e-09 -5.732877e-09 -1.303464e-09 -5.026712e-11 3.399919e-11 2.215020e-10
9.780900e-09 -5.464297e-09 -1.238895e-09 7.244695e-10 1.586786e-10 3.935248e-10
1.209564e-08 -3.854953e-08 7.118412e-09 -3.239297e-09 2.514929e-10 -9.566915e-10
9.349864e-09 -5.001914e-09 -1.285286e-09 -1.300890e-09 -1.333756e-10 2.066904e-10
4.053410e-09 -8.503948e-09 -1.409931e-08 8.693486e-09 -1.811208e-09 9.409528e-10
-4.050798e-09 -1.292044e-08 4.411739e-09 -6.346057e-09 -1.038928e-09 -7.888572e-10
-2.917066e-09 -1.562583e-08 4.435095e-09 -7.195110e-09 2.866736e-09 3.412866e-10
-5.739007e-09 -6.652911e-09 3.501647e-09 -3.829965e-09 1.755504e-10 -1.114576e-09
2.501203e-09 -2.226177e-08 5.343220e-09 -8.033342e-09 4.749305e-10 -1.178717e-09
9.952471e-09 -3.367755e-08 1.019589e-07 -4.076673e-08 -3.010922e-09 1.095424e-08
6.077542e-10 -1.822187e-08 5.799196e-09 -7.931307e-09 -2.154560e-09 -4.549258e-10
1.030486e-08 -5.789282e-09 -1.445483e-09 -8.230641e-10 -1.310255e-10 1.073004e-10
1.024446e-08 -3.519018e-08 4.488615e-09 -6.065018e-09 1.339008e-09 -3.243113e-10
1.252509e-08 -3.773187e-08 6.450702e-09 -5.352759e-09 1.091537e-09 -3.522568e-10
5.014279e-09 -1.883679e-09 -7.600531e-10 -1.373954e-09 -1.543944e-10 8.284030e-10
5.157989e-09 -2.534546e-09 -7.939883e-10 -1.021109e-09 -1.889852e-10 3.766459e-11
-1.163260e-09 -1.675934e-08 4.317694e-09 -7.629238e-09 5.853151e-10 -4.241966e-10
6.633391e-09 -2.768276e-08 4.879999e-09 -8.617009e-09 2.102593e-09 -2.129470e-10
1.932935e-08 -2.339125e-08 -3.233617e-08 -2.163159e-08 5.146345e-09 1.920990e-09
-1.547975e-08 1.229509e-08 -6.744633e-09 -1.147505e-08 8.903236e-10 2.983199e-10
-1.486324e-08 4.031700e-09 -2.755403e-09 -9.938147e-09 3.366702e-09 1.470773e-09
3.612524e-09 -9.968213e-10 -7.096905e-10 -2.041022e-09 -3.042788e-10 3.758474e-10
1.165937e-09 -1.713891e-10 -4.392757e-10 -2.891614e-09 -4.045425e-10 1.035709e-10
5.249229e-09 -2.317817e-09 -9.734206e-10 -2.909160e-09 -3.502963e-10 5.203444e-10
5.511122e-09 -1.927391e-09 -1.047942e-09 -1.260164e-09 -9.821050e-11 -1.257217e-11
6.350476e-09 -3.099434e-09 -9.496659e-10 -9.239530e-10 -4.266154e-11 3.354328e-11
5.071735e-09 -1.921072e-09 -9.816321e-10 -2.782166e-09 -5.465476e-10 3.059725e-10
-3.229867e-09 -8.860361e-09 -2.014625e-09 2.291825e-09 -4.982530e-10 8.372015e-11
-4.803480e-09 4.243150e-09 2.460077e-10 -1.436630e-09 -3.610223e-11 7.231460e-11
-4.905266e-09 4.283971e-09 1.987637e-10 -1.308158e-09 -3.415290e-11 -7.633949e-11
-8.404809e-09 -4.370375e-09 -2.097859e-09 3.786865e-09 -8.822920e-10 7.546155e-10
-1.056555e-08 -4.832404e-10 -1.026419e-10 1.513720e-09 -2.898447e-09 9.453253e-10
-3.830481e-10 -1.937884e-08 5.822240e-10 -8.259678e-11 -1.035094e-09 5.339099e-10
-1.962184e-09 -9.086263e-09 -4.200374e-09 5.752286e-09 -2.106497e-09 1.240576e-09
-4.560406e-09 4.096526e-09 1.142986e-10 -1.937034e-09 -1.270730e-10 -4.965106e-11
-8.280969e-09 1.719143e-08 -1.098874e-08 -1.174009e-08 -3.806876e-09 4.035898e-09
-4.322845e-09 7.546128e-09 -2.812151e-09 -1.216299e-08 -7.426027e-10 1.675129e-09
2.774364e-08 6.352669e-09 -7.304254e-08 -1.052597e-10 -1.314686e-08 7.234388e-10
2.181306e-09 3.410186e-08 -5.452125e-08 -1.339091e-09 -6.801528e-09 8.133863e-09
-5.020851e-09 4.545252e-09 2.107052e-10 -1.145046e-09 -1.920464e-12 1.133467e-10
-5.426602e-09 4.798439e-09 2.278755e-10 -3.622281e-10 -5.481549e-11 -6.401876e-11
-5.045310e-09 4.388432e-09 1.786289e-10 -5.506005e-10 -1.237062e-10 -1.093506e-10
-6.145969e-09 4.993684e-09 4.047915e-10 -3.698970e-10 1.326095e-11 -1.410176e-10
-3.830554e-10 -1.749033e-08 -1.489556e-09 6.617516e-11 -1.607627e-09 3.265365e-10
-6.965319e-09 -8.176890e-09 2.285750e-09 1.630734e-09 -1.788450e-09 -1.267941e-10
-7.940927e-09 -5.721100e-09 6.306928e-10 2.220679e-09 -3.030174e-10 -2.089263e-10
1.549905e-09 -1.764676e-08 5.545570e-09 -1.948888e-09 1.081247e-11 -1.088563e-09
-7.179254e-09 -8.939084e-09 2.037306e-09 2.351138e-09 1.408419e-09 -5.032145e-11
-5.882134e-09 -8.999354e-09 -5.938647e-10 5.756381e-09 -3.078984e-09 1.566854e-09
-4.136299e-09 -9.832902e-09 -8.416735e-09 7.225517e-09 -3.466558e-10 5.544407e-10
-8.430747e-09 9.065471e-11 -6.377855e-09 3.522808e-09 -2.160158e-09 1.360208e-09
-3.702059e-09 -1.091448e-08 3.991004e-09 -5.465731e-09 3.101746e-10 -1.194109e-09
-8.658809e-09 -5.431637e-09 -1.275509e-09 5.079237e-09 -4.417397e-09 2.188136e-09
-4.056839e-09 -6.067047e-09 -2.267107e-09 4.617229e-09 -3.459951e-09 1.098499e-09
-1.950946e-09 -1.483732e-08 -3.694016e-09 6.133995e-09 -1.357959e-09 4.652557e-10
3.629803e-09 -2.397967e-08 5.874727e-09 -1.690044e-10 -4.616449e-10 -2.521792e-10
8.360483e-09 -3.090026e-08 6.838976e-09 -1.353033e-09 -6.681939e-10 -5.539914e-10
8.567105e-09 -3.262084e-08 6.760254e-09 -2.766993e-09 1.627570e-10 -4.425993e-10
7.985427e-09 -3.096533e-08 6.992538e-09 -1.784172e-09 1.317734e-09 -5.445642e-10
5.099652e-09 -2.773858e-08 6.168477e-09 -2.984903e-09 1.026456e-09 -7.782470e-10
3.038877e-09 -2.365577e-08 4.697235e-09 -7.550926e-09 -2.781892e-10 4.770586e-10
-1.683546e-09 -1.373086e-08 4.513656e-09 -4.035959e-09 8.116564e-11 -1.512277e-09
6.232147e-09 -2.832331e-08 3.425867e-09 -9.191721e-09 -1.735713e-09 -4.833978e-10
6.579239e-09 -3.009872e-08 5.593410e-09 -6.678898e-09 1.073884e-10 -8.252469e-10
5.150952e-09 -2.663373e-08 5.475190e-09 -5.579701e-09 -3.136868e-11 2.516982e-10
8.728144e-10 -1.843384e-08 4.877200e-09 -5.642066e-09 1.056657e-09 -7.373296e-10
3.280926e-09 -2.342261e-08 5.378359e-09 -5.719646e-09 2.563205e-10 -3.520807e-10
1.521375e-08 -4.520524e-08 -3.092688e-09 4.175203e-09 -6.239739e-09 1.558110e-09
1.671874e-08 -3.889549e-08 -8.015602e-09 4.152547e-09 -1.094277e-09 2.492731e-10
5.034946e-09 -2.772269e-08 5.750922e-09 -3.054973e-09 1.430294e-09 -5.612019e-10
4.644762e-09 -2.665397e-08 4.664478e-09 -6.496106e-09 1.468111e-09 -4.805917e-10
-1.163260e-09 -2.011822e-08 4.982971e-09 -7.972877e-09 2.244807e-09 -2.591475e-11
1.500786e-08 -3.778014e-08 5.339218e-11 3.687439e-09 -2.750172e-09 9.076521e-10
1.497779e-08 -3.810677e-08 -3.703524e-09 3.811448e-09 -4.206599e-09 1.676372e-09
-4.029620e-09 -6.196013e-09 -1.146589e-09 4.756747e-09 -3.916358e-09 2.290371e-09
3.976003e-10 -1.757399e-08 -5.900026e-09 6.101436e-09 -6.480625e-10 2.757176e-10
6.368120e-09 -3.131654e-08 2.582267e-09 5.922292e-10 -3.617670e-09 6.091731e-10
3.572392e-09 -1.969687e-08 -7.515258e-09 6.716268e-09 -7.402688e-09 4.927063e-09
-2.196634e-08 1.950123e-08 -9.453139e-09 1.065788e-08 5.522288e-09 -3.237724e-09
-2.249092e-08 4.044554e-08 -1.263029e-08 -3.771301e-09 9.456024e-09 -1.187458e-08
5.785018e-08 -3.843267e-08 2.420336e-08 8.523099e-09 3.664154e-09 1.144782e-08
-1.601802e-08 5.523301e-08 -5.250313e-08 1.347463e-08 7.094416e-10 -6.165507e-09
-1.227887e-08 4.044554e-08 -1.432393e-08 -1.422689e-08 -3.472947e-10 -7.990254e-09
3.530200e-09 -1.993673e-08 -1.414373e-09 2.286835e-09 -1.567852e-09 9.609520e-10
2.400620e-08 3.112237e-09 -3.183244e-09 -1.738742e-09 8.314272e-10 6.892953e-10
2.352419e-08 1.319584e-08 4.306189e-09 -2.715778e-08 4.301298e-10 6.682736e-09
-4.050798e-09 -1.311302e-08 4.230142e-09 -6.376052e-09 1.120346e-10 -4.327300e-10
9.329911e-09 -1.914630e-08 -1.792560e-08 7.717755e-09 -5.214505e-09 1.665949e-09
6.788904e-09 -2.914865e-08 5.197257e-09 -7.283097e-09 2.053724e-11 2.406652e-10
-4.078564e-09 -8.400645e-09 4.213403e-09 -1.123127e-09 1.478148e-09 -3.763429e-10
3.257195e-10 -1.455328e-08 5.183025e-09 -1.746769e-09 1.567046e-10 -1.332232e-09
-1.163260e-09 -1.964273e-08 4.297696e-09 -7.874164e-09 -2.061231e-10 -1.057172e-09
-1.163260e-09 -1.452228e-08 4.486306e-09 -7.717184e-09 8.021250e-10 -1.019352e-09
4.163021e-09 -2.285669e-08 -7.671810e-09 8.682541e-09 -2.327230e-09 1.288893e-09
-4.639515e-09 3.070482e-08 -4.362082e-08 -6.268071e-09 -5.606326e-09 7.963364e-09
1.319479e-08 -3.649053e-08 -1.590459e-08 1.539958e-08 -1.972933e-08 8.675467e-09
1.384622e-08 -3.560391e-08 -9.302752e-09 7.976636e-09 -1.542043e-08 1.407916e-09
6.187355e-09 -2.945798e-08 -1.097590e-09 4.087441e-10 -1.086487e-09 1.481767e-09
-3.243324e-09 -1.090785e-08 -2.199562e-09 2.654711e-09 -7.086110e-09 2.285069e-09
-7.939289e-09 -1.049891e-08 2.026305e-09 9.253313e-09 -4.874077e-09 2.888892e-09
9.666073e-10 -9.448852e-09 -1.198369e-08 1.092100e-08 -8.106160e-09 2.922451e-09
1.604642e-09 -1.806593e-08 5.668710e-09 -2.450495e-09 3.005939e-10 -4.501460e-10
-1.066173e-08 1.562616e-08 -1.829619e-08 2.904542e-10 -7.047540e-09 6.542306e-09
-9.810955e-09 1.688582e-08 -1.126564e-08 -1.103397e-08 -1.617693e-09 2.803492e-09
-6.067989e-09 5.877757e-09 -1.570115e-08 8.269570e-09 -9.058077e-09 6.040701e-09
1.464630e-09 3.360363e-08 3.640934e-09 -4.083708e-08 7.607088e-09 1.927264e-09
-1.288887e-10 -1.641028e-08 5.021363e-09 -2.028478e-10 -7.310891e-10 -1.042827e-09
-8.081918e-10 -1.672923e-08 4.601722e-09 -4.636667e-09 -5.291522e-11 -7.377193e-10
-3.980778e-09 -1.074718e-08 4.379692e-09 -1.220924e-09 1.062980e-09 -8.229391e-10
4.167917e-09 -2.455728e-08 5.359606e-09 -6.140158e-09 1.557700e-09 -7.672659e-10
-3.743696e-09 -1.232571e-08 4.847820e-09 -1.827729e-09 -1.424082e-09 -4.279013e-10
-2.917059e-09 -1.372202e-08 4.430304e-09 -6.917755e-09 -1.711608e-10 -5.440476e-10
1.452891e-09 -1.980282e-08 5.083743e-09 -5.073300e-09 3.406749e-11 -1.277702e-09
1.470226e-09 -2.032967e-08 5.622645e-09 -6.402043e-09 -5.714150e-10 -1.230451e-09
3.867139e-09 -2.607533e-08 5.486488e-09 -5.742074e-09 4.089769e-10 -4.588059e-10
1.321051e-09 -2.062981e-08 5.134476e-09 -4.693362e-09 8.124066e-10 -4.870410e-11
-8.028142e-10 -1.673990e-08 4.888848e-09 -4.615519e-09 -2.022726e-10 -1.061114e-10
-1.037319e-08 2.192199e-08 -4.074561e-08 3.164410e-08 2.140396e-08 -1.713366e-08
-1.980143e-09 -1.372201e-08 5.118612e-09 -4.420739e-09 -2.661871e-12 1.576260e-10
2.562403e-08 -3.399696e-09 2.868483e-08 -4.218820e-08 -1.307223e-08 2.356787e-08
8.492804e-09 -4.452262e-09 -1.112587e-09 2.590536e-09 2.445157e-10 4.709673e-10
6.370218e-09 -4.176741e-09 -8.555674e-10 7.968406e-10 2.704977e-10 3.284706e-12
7.636229e-09 -4.389952e-09 -1.039158e-09 2.228337e-09 -1.288570e-10 3.494460e-11
-4.290374e-09 -1.027619e-08 4.583863e-09 -2.377890e-09 -9.791412e-11 -4.534434e-10
-3.318323e-09 -1.041460e-08 4.151699e-09 -4.272129e-09 9.315268e-10 -3.389248e-10
7.205160e-09 -4.207432e-09 -1.159754e-09 -8.773425e-10 -9.938695e-11 9.743499e-11
1.150237e-08 -5.846673e-09 -1.413408e-09 3.609697e-10 -2.470086e-11 -1.449685e-11
9.036606e-09 -5.132742e-09 -1.303278e-09 -4.881588e-10 -1.360652e-10 -1.676175e-10
9.768939e-09 -5.724352e-09 -1.364516e-09 1.463097e-10 7.093992e-12 1.296856e-10
9.561052e-09 -5.593346e-09 -1.351891e-09 -2.226312e-10 -1.087808e-10 3.690825e-11
1.068025e-08 -5.593338e-09 -1.529084e-09 -3.101964e-10 1.219097e-10 3.745972e-10
1.025607e-08 -5.264691e-09 -1.529084e-09 -1.158253e-09 -3.303746e-11 -5.428391e-11
-4.024872e-09 -1.255051e-08 2.836910e-09 -8.598237e-09 1.081219e-09 -7.206344e-10
-8.967053e-09 4.714018e-09 9.729217e-10 -1.858135e-09 -5.353402e-10 -6.236220e-10
-8.504950e-09 4.602427e-09 1.083721e-09 -2.895780e-09 -5.181692e-10 -5.718952e-10
-8.035907e-09 4.824307e-09 9.013721e-10 -2.977899e-09 -2.709603e-10 -4.082010e-10
-1.213133e-08 3.804978e-09 -3.961999e-09 -1.470169e-08 1.696402e-09 2.981429e-10
-9.751936e-09 2.624296e-09 2.189547e-09 -2.452719e-10 -1.685844e-10 -6.170461e-10
8.895141e-09 -4.819188e-09 -1.344651e-09 -2.338270e-09 -1.112015e-10 1.038971e-10
-9.661237e-09 4.307597e-09 1.448635e-09 -1.039083e-09 -3.952614e-10 -6.063032e-10
-9.090084e-09 5.057997e-09 1.163313e-09 -2.791256e-09 -4.139173e-10 -6.604922e-10
9.760446e-09 -5.040820e-09 -1.343729e-09 -1.686787e-09 -9.514732e-14 4.978629e-10
-9.517105e-09 4.504185e-09 1.339944e-09 -2.730952e-09 -3.825946e-10 -7.764659e-10
-9.414117e-09 4.042563e-09 1.415437e-09 -2.452170e-09 -7.362464e-10 -7.687573e-10
-8.897235e-09 4.351671e-09 1.288466e-09 -2.155917e-10 -1.996366e-10 -1.011908e-09
-8.856978e-09 4.277197e-09 1.454278e-09 -2.840918e-09 -1.004218e-09 -4.771979e-10
9.394757e-09 -5.414380e-09 -1.279641e-09 2.796780e-10 4.793873e-11 1.110408e-10
7.773263e-09 -4.634651e-09 -1.110774e-09 1.418266e-09 3.044801e-10 2.143676e-10
6.955093e-09 -4.105735e-09 -1.046457e-09 1.759502e-09 1.131591e-10 -1.766453e-10
-3.380387e-09 -1.487713e-08 3.688864e-09 -1.474253e-10 -9.268313e-10 -1.013468e-09
3.166739e-09 -2.277395e-08 -1.171712e-08 1.675659e-08 -1.382270e-08 8.279050e-09
-9.647643e-09 -8.108962e-09 1.339382e-09 7.739503e-09 -5.060867e-09 1.758623e-09
3.248331e-09 -2.102677e-09 -4.531779e-10 2.078093e-09 3.814851e-10 2.485769e-10
-9.189633e-09 7.412866e-10 1.473420e-09 -2.815597e-10 -2.025224e-09 -1.847101e-10
-1.535030e-09 -1.517999e-08 3.554085e-09 4.133431e-09 -3.105773e-09 7.870376e-11
7.102358e-09 -4.566017e-09 -1.054006e-09 1.520104e-09 6.568329e-11 7.838186e-11
7.561219e-09 -3.694406e-09 -8.220926e-10 1.794887e-09 3.312531e-10 2.290643e-10
4.141417e-09 -2.237375e-09 -5.607872e-10 2.418804e-09 2.605403e-10 5.129046e-10
5.314845e-09 -3.281208e-09 -8.724323e-10 2.318774e-09 -2.384770e-11 5.198975e-11
6.294357e-09 -3.659589e-09 -8.162639e-10 1.195781e-09 -5.894089e-11 1.472311e-11
4.958445e-09 -2.813316e-09 -6.640843e-10 6.809007e-10 3.137768e-11 -4.055551e-10
6.850939e-09 -3.676676e-09 -1.039157e-09 1.752467e-09 -5.394355e-11 -1.081850e-10
-1.442243e-08 2.380951e-08 -1.031907e-08 3.625779e-09 3.440062e-09 -1.457846e-09
3.068482e-08 -2.154969e-08 6.535457e-08 -3.821470e-08 -1.856968e-08 1.819218e-08
-1.835594e-08 2.526116e-08 -1.474344e-08 8.085125e-09 4.481003e-09 -4.513606e-09
-2.469828e-08 2.007273e-08 -7.921558e-09 1.088529e-08 9.313320e-09 -5.396376e-09
-2.137231e-08 1.803595e-08 -8.630669e-09 3.425952e-09 1.931979e-09 -5.219599e-10
-2.196723e-08 1.764881e-08 -5.097806e-09 2.378053e-09 6.150362e-09 -1.446571e-09
-2.184504e-08 1.751133e-08 -5.873885e-09 2.250546e-09 5.276168e-09 -1.184963e-09
3.843176e-10 -1.524352e-08 -2.816747e-10 6.378732e-09 -4.366989e-09 1.056982e-09
-1.107434e-08 2.632992e-08 -1.069048e-08 -1.844937e-09 1.496151e-09 -3.716407e-09
-2.063329e-08 2.759972e-08 -2.119004e-08 9.200957e-09 3.937344e-10 -1.800648e-10
-5.804005e-09 -1.107215e-08 1.567973e-09 -4.839841e-10 -6.873443e-10 2.368661e-11
-7.934692e-09 -3.719071e-09 7.415035e-10 1.052303e-09 -1.097000e-09 -2.528175e-10
-6.029650e-09 -5.677236e-09 -1.020805e-09 4.540789e-09 -4.082867e-09 1.276489e-09
-7.102114e-09 -9.628160e-09 2.557208e-09 2.018915e-09 -6.431879e-10 2.147204e-10
1.058987e-08 -3.494279e-08 6.337316e-09 -6.233386e-09 7.878036e-10 -9.297448e-10
-9.589500e-09 -7.685215e-10 3.708398e-10 1.224395e-09 -1.639390e-09 4.518763e-10
-9.600222e-09 -3.080618e-09 8.107788e-10 1.865673e-09 -1.040068e-09 7.239765e-11
1.647487e-09 -1.897893e-08 2.823953e-09 -1.189984e-08 1.149573e-09 -5.225474e-10
-9.833801e-09 4.119647e-10 1.925958e-09 -9.295762e-10 -7.639634e-10 -6.694127e-10
-1.038782e-08 -5.179092e-10 -8.044787e-11 1.798187e-09 -2.760857e-09 1.011083e-09
1.053467e-08 -3.588956e-08 7.254091e-09 -9.540273e-10 -5.743994e-10 -1.443237e-10
-9.916580e-09 -1.167299e-09 1.158232e-09 -1.393117e-10 1.204512e-10 3.621708e-10
-5.109813e-09 -1.033692e-08 -2.824282e-09 4.618886e-09 -1.782869e-10 2.044780e-10
-8.569697e-09 -9.321859e-10 -2.097860e-09 8.525335e-10 -1.509989e-09 7.372608e-10
-6.208018e-09 -6.133039e-09 -6.425971e-11 1.293942e-09 -3.871921e-10 3.963195e-10
5.051112e-09 -2.565673e-08 6.042868e-09 -5.254525e-09 7.090694e-10 -1.545422e-09
6.993251e-09 -2.981414e-08 6.523044e-09 -1.294040e-10 -2.009337e-10 -1.533062e-10
1.096926e-08 -3.548745e-08 7.321325e-09 -1.042973e-09 -5.341839e-10 -3.914182e-10
1.089893e-08 -3.681202e-08 7.148639e-09 -1.615161e-09 2.489122e-10 -3.472045e-10
1.090794e-08 -3.547904e-08 7.291339e-09 -1.745281e-09 1.284462e-09 -4.977399e-10
3.054290e-09 -2.244302e-08 5.701231e-09 -4.451138e-09 1.132577e-09 -8.519567e-10
1.097473e-08 -3.856148e-08 5.178842e-09 -4.073320e-09 9.718004e-10 -5.259801e-10
-2.182100e-09 -1.366742e-08 4.649155e-09 -3.643643e-09 -8.301175e-10 -4.856645e-10
1.267254e-08 -4.085268e-08 7.810029e-09 3.505660e-10 -1.103879e-10 6.522871e-11
8.078713e-09 -3.243601e-08 6.912410e-09 -2.481411e-09 -2.539106e-09 -3.661069e-10
8.496088e-09 -3.754163e-08 -3.023622e-09 5.811618e-09 -5.680126e-09 2.117823e-09
3.290285e-09 -2.744861e-08 -1.377550e-09 3.748995e-09 -2.320117e-09 1.437858e-09
-3.962974e-09 -1.633390e-08 3.398730e-09 1.321109e-08 -1.382580e-09 2.721045e-09
6.096982e-09 -2.823378e-08 6.108825e-09 -4.361529e-09 -1.248005e-09 -5.255166e-10
-3.920555e-09 -1.925309e-08 1.107932e-09 1.232146e-08 -8.916271e-09 4.460742e-09
2.290010e-09 -2.093447e-08 1.251595e-09 -1.341120e-08 -9.251604e-10 -1.058992e-09
1.599787e-09 -1.968555e-08 2.212227e-09 -1.008515e-10 -9.295400e-10 5.534194e-10
-9.124045e-09 -4.445705e-09 2.895025e-09 3.824840e-09 -2.474108e-09 -9.849549e-12
1.064916e-08 -3.590790e-08 5.581851e-09 -5.559219e-09 9.516924e-10 -8.626286e-10
5.150863e-09 -2.685044e-08 5.475190e-09 -5.286898e-09 -4.593126e-11 2.910496e-10
-8.375850e-09 -3.449585e-09 2.552179e-09 2.613894e-09 -3.413519e-09 1.890135e-10
-9.438039e-09 -3.430779e-09 1.949658e-09 1.462029e-09 -1.048157e-09 -3.538132e-10
-1.031678e-08 -9.807404e-10 -1.694704e-10 2.065287e-09 -2.546578e-09 9.353046e-10
-6.912830e-09 -4.209555e-09 -7.744898e-10 2.268120e-11 -4.566257e-09 8.184734e-10
-7.939287e-09 -1.268072e-08 -3.535134e-09 9.549966e-09 -7.391162e-09 3.656376e-09
7.016756e-09 -3.053160e-08 6.473189e-09 -2.636326e-09 -1.070135e-10 5.381391e-11
4.283353e-09 -2.288244e-08 4.476086e-09 -8.580531e-09 5.612286e-10 -7.636884e-10
3.702290e-09 -2.283543e-08 5.605939e-09 -4.624081e-09 6.264195e-10 -9.065305e-10
9.074459e-09 -3.280482e-08 5.197260e-09 -4.771012e-09 -6.469507e-10 1.068092e-13
-2.596037e-09 -1.287015e-08 4.874075e-09 6.837028e-11 3.890457e-10 -3.954705e-10
-3.964747e-09 -1.235487e-08 4.348196e-09 -3.330294e-09 2.681013e-10 -2.272970e-10
-1.177252e-07 -8.068198e-08 4.901196e-07 -3.229646e-09 1.377082e-08 7.347888e-08
-5.661418e-09 -6.301796e-09 3.764328e-09 -8.019196e-10 6.867793e-10 -6.985688e-10
4.283042e-08 -4.192972e-08 5.647099e-08 -1.496735e-08 -4.582788e-09 2.763132e-08
-5.606353e-09 -7.103440e-09 3.959922e-09 -1.156418e-09 -8.505276e-10 -6.080613e-10
-3.943064e-09 -8.949479e-09 4.757243e-09 -1.817458e-09 -2.473486e-10 -7.668595e-10
1.987744e-08 -4.293129e-08 -7.253084e-09 4.600537e-10 -1.567441e-09 7.884556e-10
-3.896874e-09 -8.967760e-09 3.835245e-09 -1.862394e-09 -5.175904e-10 -7.373334e-10
-5.307386e-09 -6.064869e-09 3.578110e-09 -2.945484e-09 6.927313e-10 -2.697485e-10
-5.408960e-09 -7.355875e-09 4.277765e-09 -3.935866e-09 -2.603608e-10 -5.652795e-11
-1.980142e-09 -1.492582e-08 5.118611e-09 -4.343110e-09 -8.363199e-11 1.680699e-10
6.077557e-10 -1.669646e-08 4.207197e-09 -8.000940e-09 7.001662e-10 -7.336762e-10
-4.568674e-09 -8.776833e-09 4.019053e-09 -3.041883e-09 6.131717e-10 1.603069e-10
1.495244e-08 -3.861341e-08 -4.062676e-09 4.696891e-09 -4.903261e-09 2.299783e-09
1.304825e-08 -3.512410e-08 -4.778127e-09 5.383047e-10 -1.189202e-09 7.075143e-10
2.154550e-08 -5.332928e-08 3.624976e-10 1.996686e-09 -8.006363e-10 1.123814e-09
2.174968e-08 -4.631961e-08 -5.246706e-09 3.620101e-09 -4.272962e-09 1.103557e-09
2.113281e-09 -2.493403e-08 2.906738e-09 3.109674e-09 -1.343073e-09 6.313485e-10
8.259070e-09 -3.154944e-08 -5.399296e-09 7.891023e-09 -9.846000e-09 2.920221e-09
2.312074e-08 -4.513236e-08 -1.502715e-08 6.119920e-09 -2.145188e-08 1.437695e-10
1.897166e-08 -3.765658e-08 -1.581897e-08 8.446478e-09 -2.841624e-09 1.139572e-09
9.329918e-09 -2.783425e-08 -7.487581e-09 8.213967e-09 1.841744e-09 -6.220392e-10
1.337196e-08 -3.184848e-08 -5.735563e-09 9.022350e-09 -9.080995e-09 3.927827e-09
-7.269635e-09 -9.485790e-09 1.310014e-09 7.048023e-09 -5.698574e-09 2.289774e-09
1.640190e-08 -2.836061e-08 -1.792560e-08 6.943090e-09 -1.636858e-09 9.701353e-10
1.078071e-09 -1.124927e-09 -3.862288e-10 1.251883e-09 2.261306e-10 -1.237455e-10
8.230057e-10 -7.226080e-10 -1.078966e-10 9.060068e-10 1.894067e-10 9.785062e-11
5.250001e-09 -3.524929e-09 -8.343175e-10 2.733256e-09 2.995576e-10 -3.155844e-10
2.790439e-09 -2.484979e-08 -2.575946e-10 4.749839e-09 -4.046187e-09 9.261633e-10
1.524806e-09 -7.994894e-10 -2.820506e-10 3.877583e-10 1.621602e-10 1.907376e-10
3.737349e-09 -1.492151e-09 -2.855947e-10 2.134739e-09 1.993894e-11 1.538902e-10
-8.725694e-09 -5.775632e-09 -1.603260e-09 5.330894e-09 -4.049111e-09 1.830396e-09
-8.725694e-09 2.133237e-09 -6.719559e-09 2.622143e-09 -2.167264e-09 1.246520e-09
3.176742e-09 -1.937472e-09 -6.457568e-10 2.469143e-09 -1.020622e-11 9.669832e-11
-1.056555e-08 -6.019114e-10 9.344263e-10 1.535302e-09 -2.784425e-09 8.575027e-10
4.444220e-09 -2.837328e-09 -6.521081e-10 2.106471e-09 -6.399769e-11 1.459564e-10
1.029083e-08 -6.046743e-09 -1.442190e-09 6.584146e-11 4.719658e-11 3.473767e-10
4.483919e-09 -2.713127e-09 -7.225702e-10 9.971495e-10 2.010089e-10 1.186484e-10
4.400285e-09 -2.393098e-09 -7.631518e-10 1.981831e-09 -3.881140e-11 -1.289759e-10
9.878974e-09 -5.654244e-09 -1.358711e-09 1.178469e-09 1.277881e-10 3.824869e-10
8.470479e-09 -4.986076e-09 -1.075793e-09 7.099442e-11 1.586598e-12 3.062395e-11
9.384453e-09 -5.379284e-09 -1.340100e-09 -1.183945e-10 1.027461e-11 2.719558e-11
2.816718e-09 -1.633044e-09 -4.740777e-10 2.505521e-09 1.892895e-10 -2.121757e-10
9.797438e-09 -5.544998e-09 -1.330020e-09 -2.395694e-11 2.442319e-11 -4.121725e-11
5.319993e-09 -3.290362e-09 -8.033676e-10 2.319282e-09 1.228721e-10 1.557665e-10
6.548405e-09 1.613442e-08 -6.625076e-09 1.302301e-08 -7.001832e-10 -4.011948e-09
5.665179e-09 1.628316e-08 -9.438146e-09 3.805067e-09 -4.651019e-09 3.925216e-10
1.272752e-08 1.493706e-08 -8.775865e-09 8.868902e-09 -1.706424e-09 -2.565796e-09
2.022695e-08 1.530301e-08 -9.880653e-09 8.534799e-09 -3.649481e-09 -2.206405e-09
1.903263e-08 1.495391e-08 -1.206304e-08 9.195705e-09 -1.872312e-09 -6.195805e-09
1.817258e-08 1.275143e-08 -1.033742e-09 2.804430e-08 8.956347e-10 -5.597067e-09
-1.392456e-08 3.152758e-08 -1.844778e-08 1.806201e-10 -9.088479e-09 -1.906099e-08
-6.959442e-09 -8.943894e-09 2.278553e-09 1.400049e-09 -1.275245e-09 1.866214e-10
-3.962960e-09 -1.292854e-08 -6.341513e-09 1.239571e-08 -8.087545e-09 5.747274e-09
3.169080e-08 3.361005e-08 -1.198149e-08 4.353821e-08 2.105296e-08 4.313103e-09
4.136368e-09 3.171691e-08 -1.789133e-08 1.041643e-08 -8.625525e-09 -1.158546e-08
2.455789e-08 -1.030728e-09 1.173791e-09 2.660746e-08 3.497128e-09 6.013796e-09
-1.649170e-09 -2.883016e-08 -8.324069e-11 1.838883e-08 -1.247791e-08 5.985582e-09
-4.081700e-09 -1.348384e-08 2.942847e-09 9.724877e-10 -1.372126e-09 -1.786401e-10
7.755879e-09 -4.000126e-09 -1.160390e-09 -3.496401e-10 -3.132961e-11 1.475173e-10
9.008907e-09 -5.120768e-09 -1.333008e-09 -1.506894e-09 -5.372225e-11 2.368250e-11
6.571277e-09 -3.430687e-09 -1.009331e-09 -4.156191e-10 -8.969192e-11 1.540880e-10
3.798136e-09 -2.022060e-08 -5.812978e-09 6.822877e-09 -3.558136e-09 1.423317e-09
8.081699e-09 -4.715112e-09 -1.225126e-09 1.202301e-09 -1.043808e-10 -1.111267e-10
7.230614e-09 -4.348387e-09 -1.045520e-09 1.155867e-09 2.076490e-10 -1.465621e-10
8.563255e-09 -4.811396e-09 -1.126007e-09 -9.840248e-10 -1.461027e-10 -8.888457e-11
9.747397e-09 -5.446368e-09 -1.325074e-09 -7.597239e-10 4.496015e-11 1.645073e-10
6.407529e-09 -3.167522e-09 -1.025043e-09 -5.367635e-10 -2.612235e-10 -3.048943e-10
-8.725694e-09 -5.120370e-09 -1.142529e-09 5.160740e-09 -1.301533e-09 4.178677e-10
-7.178375e-09 7.541111e-09 -3.442391e-09 -8.718852e-09 -2.158455e-09 1.643116e-09
8.066924e-09 -4.401411e-09 -1.125067e-09 -8.584230e-10 -3.450379e-11 7.077794e-11
8.578802e-09 -4.345284e-09 -1.328878e-09 -2.400401e-09 -3.994065e-10 3.429055e-10
2.591520e-09 -2.105628e-08 5.674082e-09 -1.159051e-09 -4.666121e-10 -9.406654e-10
6.752518e-09 -2.892693e-08 5.721826e-09 -7.930578e-09 8.579307e-10 -1.176130e-09
8.972975e-09 -4.286346e-09 -1.257706e-09 -2.636905e-09 -1.202227e-10 5.584988e-11
7.288528e-09 -3.968375e-09 -1.188046e-09 -2.352633e-09 -8.605494e-11 2.349448e-11
7.549278e-09 -2.954239e-08 6.009649e-09 -4.500585e-09 1.069289e-09 -6.336411e-10
-1.278910e-08 4.012183e-08 -1.689195e-08 -1.503907e-08 5.591143e-10 1.553878e-09
-1.839369e-08 8.012235e-08 6.206410e-10 -3.822659e-08 -2.159233e-08 -5.136817e-09
9.135463e-09 -5.491691e-09 -1.261988e-09 -8.181859e-10 -1.392412e-10 1.676933e-10
-2.181253e-08 9.560390e-08 -5.864324e-08 1.699394e-09 5.606163e-09 -2.620322e-08
9.226175e-09 -5.148960e-09 -1.226696e-09 -4.984576e-10 -1.210185e-10 1.757196e-10
-1.033526e-09 -1.476660e-08 4.621918e-09 -4.174638e-11 4.826239e-11 -1.044870e-09
-2.067289e-08 7.410491e-09 -4.584394e-09 4.525328e-09 2.817411e-09 -4.088840e-11
-2.124313e-08 1.264372e-08 -6.809539e-09 1.124327e-08 8.144047e-09 -3.593981e-09
-2.301203e-08 1.401294e-08 -1.471258e-09 3.848816e-09 8.956932e-09 -1.504752e-09
-2.407637e-09 -1.248432e-08 4.111065e-09 -4.310277e-09 9.506931e-10 -7.610851e-10
-2.731517e-09 -1.123761e-08 3.754467e-09 -1.768716e-09 1.247750e-09 -1.161976e-09
-2.186548e-08 7.514572e-09 -2.237170e-09 3.693734e-09 4.243972e-09 1.730764e-10
5.544990e-08 -4.899076e-08 1.002376e-07 -2.436357e-09 1.097984e-08 5.687133e-08
-1.268367e-07 -3.681197e-08 2.567779e-07 -7.442371e-09 4.893507e-08 7.255450e-09
-2.289623e-08 9.493743e-09 -2.983594e-09 1.154120e-08 6.667594e-09 -3.326833e-09
-6.216322e-09 -2.500521e-08 1.699915e-07 4.461968e-08 3.239064e-08 5.855632e-08
-2.111122e-08 4.436380e-09 -1.162697e-09 3.256706e-09 6.751929e-09 -1.426488e-09
-1.813534e-08 4.137292e-09 -1.086955e-08 2.371285e-08 1.507513e-08 -8.466552e-09
-1.741209e-08 2.759979e-08 -1.115012e-08 2.714043e-09 -1.784401e-09 1.322874e-09
-6.453220e-10 -2.153086e-08 3.317112e-09 1.099217e-08 -7.263536e-09 2.153297e-09
4.937339e-09 -3.505006e-08 2.634109e-09 5.372097e-09 -6.041772e-09 4.518713e-10
-2.002730e-08 1.808981e-08 -1.733963e-08 1.579724e-08 5.669315e-11 -7.841798e-10
-2.255256e-08 1.552032e-08 -1.661356e-08 2.205114e-08 1.838761e-08 -1.260068e-08
7.921658e-09 -2.985346e-08 1.267566e-09 5.183458e-09 2.001117e-09 3.135783e-11
2.023978e-10 -2.717232e-08 3.268319e-11 2.051884e-08 -1.162713e-08 6.545912e-09
1.223056e-08 -3.871625e-08 7.535941e-09 -1.643798e-10 2.655141e-10 -3.252015e-10
1.247909e-08 -3.836458e-08 7.628020e-09 -8.029123e-10 -1.745584e-10 -2.539387e-10
1.252135e-08 -3.981006e-08 7.465138e-09 -7.275629e-10 -4.445732e-11 -3.128408e-10
1.255171e-08 -3.876905e-08 7.722365e-09 -9.110736e-10 8.933489e-10 -5.123422e-10
9.198907e-09 -2.413094e-08 -1.396412e-08 1.356790e-08 -1.519457e-08 7.382896e-09
5.524490e-09 -3.532071e-08 3.394287e-10 1.362761e-08 -1.112045e-08 5.032369e-09
3.882572e-09 -2.249965e-08 5.525276e-09 -5.450885e-09 -6.098515e-11 -4.832830e-10
-4.808120e-09 -7.568061e-09 3.784997e-09 -1.471544e-09 6.745737e-11 -1.046871e-09
3.257055e-10 -2.004482e-08 5.173967e-09 -2.503698e-09 -9.650777e-11 -1.350610e-09
-4.063826e-09 -9.815544e-09 4.119760e-09 -1.153123e-09 -9.692180e-11 -5.201507e-10
2.007374e-09 -1.993182e-08 5.487274e-09 -2.061890e-09 1.047696e-10 -6.091104e-10
-2.972025e-09 -1.331081e-08 4.929527e-09 -3.543122e-09 -3.690022e-10 -9.604085e-10
-4.124257e-09 -9.259017e-09 3.912469e-09 -3.234873e-09 1.043364e-10 -1.431141e-09
-6.206026e-08 8.042732e-08 7.618310e-08 4.029783e-08 6.555658e-08 -1.407937e-08
1.087271e-08 -3.697639e-08 6.890692e-09 -1.530141e-09 -1.606578e-09 -1.950732e-10
-9.918152e-09 -8.820491e-10 1.347765e-09 1.103299e-09 -1.390835e-10 -2.660882e-10
-8.573951e-09 7.811518e-09 -2.457153e-09 -8.481333e-09 -8.166848e-13 2.028206e-10
-8.561158e-09 5.653454e-09 -9.295494e-10 -5.540186e-09 -1.245640e-09 7.543826e-10
3.653004e-09 -2.282152e-08 5.677100e-09 -2.668743e-09 -1.311990e-09 -1.267584e-09
1.118400e-08 -5.529848e-09 -1.448015e-09 -3.901045e-09 -2.501732e-11 4.033411e-10
-8.695916e-09 1.772952e-08 -9.783496e-09 -1.690032e-08 -5.637799e-10 5.526050e-09
2.204445e-08 -6.232678e-08 -1.054883e-09 1.970212e-08 -2.435622e-08 6.692757e-09
8.628681e-09 -3.587758e-08 4.937160e-09 8.302530e-10 -2.002377e-09 3.737204e-10
1.361134e-08 -4.003102e-08 5.708334e-09 -2.902237e-09 1.422149e-09 -8.337674e-10
8.222281e-09 -3.121610e-08 5.882448e-09 -5.918989e-09 1.895238e-09 -6.587643e-10
9.073852e-09 -3.306586e-08 6.865521e-09 -4.237065e-09 -1.261190e-09 -1.477973e-10
6.776848e-09 -2.819273e-08 6.405594e-09 -4.248899e-09 1.077115e-09 -7.943307e-10
1.175268e-08 -3.999579e-08 6.578554e-09 -3.014856e-09 1.636606e-09 -5.366961e-10
9.125685e-09 -3.550035e-08 6.383150e-09 -4.975358e-09 1.611262e-09 -7.102173e-10
1.206278e-08 -3.844022e-08 5.158773e-09 -3.077614e-09 -7.432286e-10 5.302768e-11
1.252509e-08 -3.689730e-08 6.603407e-09 -5.530334e-09 -5.051047e-10 3.185721e-10
4.637616e-09 -2.303439e-08 5.965129e-09 -5.336173e-09 -3.075658e-10 -1.087336e-09
8.577778e-09 -3.258917e-08 6.907776e-09 -4.585219e-09 7.749819e-10 -1.359984e-09
1.013144e-08 -3.871121e-08 7.937483e-09 6.410085e-09 3.629598e-10 5.397406e-10
1.049265e-08 -4.047783e-08 8.048308e-09 5.025472e-09 9.971044e-10 3.370801e-10
9.770805e-09 -3.429936e-08 1.844848e-09 -9.953073e-09 7.382086e-10 6.238757e-10
6.814265e-09 -3.633296e-08 7.759080e-09 6.262447e-09 1.098994e-09 -2.048685e-10
1.937181e-08 -4.116610e-08 -2.939954e-09 -7.129140e-09 5.413679e-09 -4.486510e-11
-4.288571e-09 -1.039473e-08 4.320859e-09 -2.125488e-09 -6.709708e-10 -2.774809e-10
8.815255e-09 -3.642267e-08 7.176195e-09 5.078840e-09 1.071419e-10 2.545972e-10
1.012204e-08 -3.861971e-08 7.012031e-09 6.324781e-09 1.290800e-09 -4.332796e-10
1.145982e-08 -4.028588e-08 7.275469e-09 2.545204e-09 9.153271e-10 1.947089e-10
-1.494955e-08 2.814898e-08 -2.988796e-09 3.837028e-10 8.536368e-09 -4.461417e-09
9.038721e-09 -3.764213e-08 6.971389e-09 3.470219e-09 1.848737e-09 2.382333e-10
1.190279e-08 -3.911691e-08 8.099298e-09 2.469636e-09 7.399448e-10 1.111913e-10
-8.152879e-09 -2.229209e-09 2.631929e-09 6.243657e-10 -1.426387e-09 -8.294771e-10
-7.532626e-09 -4.084830e-09 1.610536e-09 -5.830609e-10 -2.971271e-10 -4.966518e-10
-7.316013e-09 -4.026017e-09 4.615042e-11 6.920575e-10 -4.718215e-10 -2.949486e-10
-1.032013e-08 1.868237e-09 9.850765e-10 3.252015e-10 -1.897684e-10 -2.672869e-10
-1.021947e-08 2.508195e-09 7.148062e-10 -1.126024e-09 -1.854484e-09 4.935147e-10
2.034988e-08 -6.182450e-08 -1.403903e-09 1.984123e-08 -2.427565e-08 5.923057e-09
2.672375e-08 -5.894506e-08 -2.701610e-09 1.369912e-08 -2.627743e-08 6.057710e-09
1.125691e-08 -3.756387e-08 3.971579e-09 9.887448e-09 -6.489122e-09 2.200224e-09
2.055902e-08 -4.873970e-08 -1.276206e-09 8.219017e-09 -1.849519e-08 7.286281e-09
-8.571292e-09 -4.235805e-09 9.918386e-10 2.254647e-09 -1.519126e-09 3.290307e-10
2.553904e-09 -2.315775e-08 3.563293e-09 4.043415e-09 -3.897725e-09 -3.222817e-10
1.368843e-08 -3.725431e-08 2.087535e-10 1.032226e-08 -1.388873e-08 6.004608e-09
-9.811058e-09 -1.133955e-10 2.139174e-09 2.515868e-10 -5.432530e-10 -1.299298e-09
-1.013341e-08 2.095022e-09 -1.853531e-10 -9.090482e-10 -7.718350e-10 3.451106e-10
-8.152880e-09 -3.132413e-09 1.543370e-09 4.274747e-10 -2.418382e-09 -1.039319e-09
-3.788022e-09 -1.271893e-08 4.771138e-09 -1.528523e-09 -2.298580e-10 -5.298088e-10
-7.239545e-09 -6.160164e-09 2.574508e-09 3.317119e-10 -8.840063e-10 -6.963641e-10
-7.031169e-09 -3.833135e-09 3.423526e-09 -9.416375e-10 -7.474292e-10 -4.997827e-10
4.702467e-09 -2.104361e-09 -6.122813e-10 4.352639e-09 4.039085e-10 1.762766e-10
6.452169e-09 -3.293460e-09 -1.015448e-09 2.482519e-09 1.257519e-10 -4.218219e-10
-7.039210e-09 -3.720107e-09 3.450034e-09 -2.705848e-10 1.413111e-10 -4.783944e-10
-6.809330e-09 -3.129720e-09 3.135776e-09 -5.485724e-10 4.876650e-10 -5.166841e-10
-1.030460e-08 -2.242372e-09 1.615353e-09 3.218123e-09 -3.016089e-09 4.360716e-10
9.218850e-09 -5.428546e-09 -1.341013e-09 5.482356e-10 -8.171686e-11 -1.361073e-10
-5.420495e-09 -5.483008e-09 4.056136e-09 -5.414463e-10 -6.105030e-10 -8.367240e-10
7.729608e-09 -4.226233e-09 -1.185809e-09 -4.158196e-10 -1.682071e-11 -2.346333e-10
-6.036243e-09 -5.951534e-09 3.945663e-09 -1.639657e-09 -9.279799e-11 -4.284393e-10
1.264655e-08 -5.940270e-09 -1.562776e-09 -2.310289e-09 2.815215e-11 -2.481382e-10
-7.106783e-09 -2.993204e-09 3.021557e-09 -2.008332e-09 2.946445e-10 -3.420221e-10
-4.568677e-09 -9.752886e-09 4.299786e-09 -3.166499e-09 1.076357e-09 3.051031e-11
-7.133277e-09 -1.537225e-09 3.140683e-09 -1.055886e-09 1.831223e-10 -7.220188e-10
-6.531613e-09 -5.970850e-09 3.348788e-09 -4.852631e-09 -3.467320e-10 -6.254889e-10
-1.611847e-08 -6.263069e-09 -4.864994e-09 -2.186287e-08 -1.777723e-08 -8.044167e-09
-3.787173e-09 -2.061585e-08 -2.937702e-09 -2.153546e-08 -1.677536e-08 -8.115325e-09
-2.096928e-08 1.657055e-09 7.333232e-10 -1.370168e-08 -1.139854e-08 -3.938793e-09
-6.902938e-09 -2.876672e-09 3.465730e-09 -2.063561e-09 -2.447698e-10 -4.276041e-10
-5.854577e-09 -1.161756e-08 -1.027700e-08 -1.816682e-08 -1.267673e-08 -6.604564e-09
-6.977448e-09 -6.940025e-09 2.690558e-09 1.463405e-09 -4.347831e-10 -5.033971e-10
-5.219582e-09 -9.617710e-09 8.186403e-10 -1.365657e-08 2.711167e-10 -9.916945e-10
-1.064459e-08 2.073498e-09 1.840490e-09 -1.717439e-09 -1.179372e-09 -9.788413e-10
-3.720072e-09 -1.239340e-08 4.223272e-09 -3.768538e-09 4.836421e-11 -3.869721e-10
-8.896896e-09 4.456601e-09 8.786540e-10 -2.046897e-09 -5.654477e-10 -1.297993e-09
-9.676057e-09 4.800000e-10 1.944318e-09 6.219837e-10 -1.058110e-09 2.697050e-11
2.152609e-09 -1.360957e-09 -4.194587e-10 1.056887e-09 2.411518e-10 -1.959000e-11
6.203322e-10 -1.935740e-11 -1.112022e-11 2.232915e-09 1.007239e-10 -8.299095e-11
-9.392442e-09 3.040922e-09 1.811326e-09 -1.984732e-09 -1.485992e-09 -4.603916e-10
2.307591e-09 -1.327034e-09 -3.198333e-10 4.242786e-10 2.224722e-10 2.123311e-10
2.638583e-08 -4.780376e-08 -1.270727e-08 3.083852e-09 -1.522669e-08 1.773990e-09
2.722044e-08 -7.054287e-08 -6.251161e-10 1.354662e-08 -2.609606e-08 6.364343e-09
2.314749e-08 -6.070200e-08 1.018147e-09 8.973531e-09 -1.308899e-08 2.820618e-09
3.333074e-09 -1.337506e-09 -5.359726e-10 8.283478e-10 1.141538e-10 8.221091e-11
9.290294e-09 -5.115766e-09 -1.266223e-09 1.004700e-09 4.347051e-11 1.158093e-10
1.300931e-09 -5.712436e-10 -2.602603e-10 2.440517e-09 2.505566e-10 7.492673e-11
3.828299e-09 -2.401044e-09 -6.534897e-10 1.220932e-09 1.614226e-10 -1.266134e-10
3.182555e-09 -1.718492e-09 -4.860579e-10 1.039512e-10 8.383794e-11 -3.421973e-10
1.297125e-09 -4.627425e-10 -4.688125e-10 2.342021e-09 -2.323169e-11 1.081090e-10
3.445781e-10 7.004416e-10 8.181900e-11 4.902378e-09 3.876115e-10 4.439197e-10
3.297533e-08 -7.734778e-08 -3.272416e-09 -9.430235e-10 -3.101942e-08 2.283886e-09
3.159096e-08 -6.381917e-08 -5.366299e-09 -7.782152e-09 -3.118532e-08 -2.575943e-10
3.176699e-09 -1.922529e-09 -5.288423e-10 2.470091e-09 2.205987e-10 1.302423e-10
1.907290e-09 -9.358487e-10 -4.145493e-10 2.023260e-09 2.463183e-12 -3.344689e-10
2.644629e-08 -6.188594e-08 -2.962680e-09 -2.465313e-09 -2.399184e-08 6.956671e-09
3.083858e-08 -5.935091e-08 -6.355655e-09 3.989924e-09 -1.927805e-08 4.554498e-09
2.506660e-08 -5.781986e-08 7.628664e-10 4.372119e-10 -4.218637e-09 4.446430e-10
2.627413e-08 -4.817624e-08 -1.209052e-08 2.870634e-11 -1.360217e-09 2.808101e-10
2.506352e-08 -5.735282e-08 -6.832823e-10 4.589417e-10 -1.922217e-09 7.796495e-10
2.566554e-08 -5.189965e-08 -5.977871e-09 1.071229e-09 -2.894116e-09 2.009127e-10
6.862008e-09 -3.811859e-08 1.233317e-09 1.259146e-08 -8.170709e-09 2.938969e-09
-6.812003e-09 -1.115162e-08 5.135270e-11 1.509242e-08 3.458008e-09 -6.911038e-10
-2.669338e-08 4.556434e-09 -4.571896e-09 2.881323e-08 1.752968e-08 -1.157986e-08
-5.617275e-09 -2.375509e-08 5.765221e-09 7.930864e-09 1.272840e-09 -7.177409e-11
-2.047636e-08 2.003995e-08 -1.070640e-08 9.565691e-09 1.047103e-08 -7.549574e-09
-1.817961e-08 -4.224194e-09 3.230683e-09 2.585579e-08 7.154014e-09 -5.236606e-09
2.177821e-08 -4.493010e-08 -9.847814e-09 3.877688e-09 -7.185528e-09 1.138398e-09
2.187422e-08 -4.608108e-08 -9.315578e-09 3.956752e-09 -1.019647e-08 2.268812e-09
5.141834e-09 -1.603454e-09 -1.079543e-09 -5.701608e-09 -3.800152e-10 2.356457e-10
2.971950e-08 -5.476665e-08 -1.802370e-08 -1.499830e-09 -2.582488e-08 -2.213155e-09
4.551035e-09 -1.964210e-09 -8.937404e-10 -3.828047e-09 -1.820200e-10 1.182139e-10
2.554089e-08 -4.241631e-08 -1.609183e-08 4.594429e-09 -8.575561e-09 1.625463e-09
1.640188e-08 -3.633767e-08 -1.017584e-08 5.763274e-09 6.077232e-10 -5.824736e-10
1.517087e-08 -4.408294e-08 1.134500e-09 3.142914e-09 1.598027e-10 9.602849e-10
-7.098011e-09 -1.519705e-09 3.036029e-09 -5.681228e-10 4.525687e-10 -7.849057e-10
-7.684777e-09 1.253313e-10 2.225873e-09 -7.753292e-10 -7.008766e-11 -4.712874e-10
2.352752e-08 -3.680861e-08 -2.215384e-08 4.716013e-09 -1.792203e-09 3.601721e-10
2.006767e-09 -9.360823e-10 -3.241594e-10 1.965720e-09 -5.464629e-11 -2.395684e-10
-5.713756e-09 -5.741135e-09 3.536995e-09 -4.727182e-10 5.418444e-11 -4.522844e-10
-7.098085e-09 -2.287296e-09 2.861430e-09 -1.319141e-09 8.613099e-11 -1.127767e-09
6.313610e-09 -3.143442e-09 -1.182104e-09 -2.678174e-09 -7.160828e-11 5.410558e-10
5.007397e-09 -1.847237e-09 -9.041985e-10 -9.442172e-10 -1.480136e-10 5.320187e-10
-4.205516e-09 2.348573e-09 7.967214e-10 2.350674e-09 1.997275e-10 2.112044e-10
7.491289e-09 -4.275814e-09 -1.267895e-09 -1.769154e-09 -8.032053e-11 -8.815293e-11
1.093694e-08 -3.568153e-08 7.163191e-09 -9.456022e-10 -1.007559e-10 -4.931368e-10
4.360059e-09 -1.887037e-09 -7.861600e-10 -5.645020e-10 -2.250384e-10 -2.785225e-10
1.567169e-08 -4.224011e-08 6.534605e-09 2.052634e-09 1.249932e-09 -4.583363e-10
1.493999e-08 -4.175320e-08 6.714374e-09 1.097133e-11 9.859373e-10 -4.410086e-10
-6.192108e-09 2.483050e-09 1.263270e-09 1.440726e-09 4.564971e-11 -4.836620e-11
-2.419275e-09 3.910119e-08 -2.094480e-08 1.024233e-08 -1.385218e-08 -1.895369e-08
5.415004e-09 -2.904152e-09 -9.948684e-10 -2.767734e-09 -2.641046e-11 5.220513e-11
2.625333e-08 3.358562e-08 5.379897e-10 4.472664e-08 1.873285e-08 6.742040e-09
7.969703e-09 -4.385430e-09 -1.135290e-09 -1.482334e-09 -1.752833e-10 -3.436427e-10
3.768463e-09 -9.957191e-10 -8.091553e-10 -2.535640e-09 -1.767210e-10 2.457230e-10
6.825998e-09 -3.068567e-09 -1.180288e-09 -2.450245e-09 -8.946271e-11 -1.529981e-10
-2.569332e-08 5.603718e-08 -3.498036e-08 -6.996267e-09 1.262769e-08 -1.730702e-08
-1.975577e-08 7.548334e-09 -5.887136e-09 9.647995e-09 -8.275440e-10 9.080363e-10
-1.064718e-08 1.505552e-08 3.735346e-08 -4.811745e-08 -3.830101e-10 7.835297e-10
4.350211e-09 1.255248e-08 -4.125085e-08 1.179460e-08 -1.954641e-08 1.266697e-08
2.159190e-09 -3.305275e-10 -2.511024e-08 1.233705e-08 -1.237759e-08 7.594859e-09
-1.947327e-08 2.644363e-08 -1.490564e-08 7.638036e-09 4.735737e-09 -4.081500e-09
6.471987e-09 3.501935e-09 -1.559058e-09 -1.765966e-08 6.336796e-11 2.362757e-10
-2.187084e-08 1.333639e-08 -5.760242e-09 4.807255e-09 2.732561e-09 -1.239013e-09
-1.220135e-08 1.151871e-08 -1.345411e-08 -2.128952e-09 -6.604552e-09 6.412441e-09
-1.760106e-08 -2.240143e-09 4.910159e-10 9.042057e-09 4.405466e-09 -1.393144e-09
-1.058655e-08 7.571442e-09 -1.906324e-09 -4.421859e-09 -1.988567e-09 1.523882e-09
-1.061221e-08 1.063862e-08 -4.499711e-09 -6.965493e-09 -2.550762e-09 2.677275e-09
-1.237832e-08 2.636137e-08 -2.591900e-08 -3.930502e-09 -7.415289e-09 1.238719e-08
-1.659721e-08 -3.076848e-09 -2.185017e-10 5.409456e-09 9.938391e-10 -2.643962e-10
-1.746926e-08 -3.786184e-09 1.970693e-09 3.252324e-09 4.951491e-09 -1.496554e-09
1.937309e-08 -4.542645e-08 -6.765485e-09 -7.572834e-09 7.715060e-09 1.442583e-10
2.476309e-08 -4.014644e-08 -1.177957e-08 -2.928905e-09 2.263399e-09 1.974307e-10
1.638031e-08 -4.050618e-08 1.887863e-10 -6.217406e-09 2.091690e-09 6.195284e-10
-1.818876e-08 2.530269e-10 6.201497e-10 4.119247e-09 3.197698e-09 9.399005e-10
-1.460119e-08 2.012894e-09 -8.317772e-09 1.775360e-08 8.592914e-11 1.359115e-09
-2.031617e-08 1.808984e-08 -7.420294e-09 8.258550e-09 -1.601385e-09 -1.316345e-10
-1.448424e-07 -6.407328e-08 3.392934e-07 -1.193167e-08 -7.906258e-08 2.588534e-08
-5.062280e-08 2.224633e-08 1.092402e-07 7.744595e-08 6.116260e-08 4.577770e-08
-1.831809e-08 1.343824e-09 1.991599e-09 2.495474e-08 9.644112e-09 -4.821735e-09
-1.631280e-08 5.943473e-09 -1.144275e-08 1.741151e-08 1.766339e-10 -9.823231e-10
-7.186264e-09 3.857971e-09 1.000404e-09 2.784808e-10 3.212763e-12 -6.919576e-11
-6.969937e-09 3.896337e-09 9.657461e-10 1.950480e-10 -3.212253e-11 4.633227e-11
-7.628727e-09 4.084141e-09 1.148935e-09 2.345796e-10 1.291288e-10 -2.682140e-12
1.423101e-08 1.107301e-07 -1.427948e-07 -6.149501e-09 2.655173e-08 -1.071556e-10
-1.356558e-07 -6.287767e-08 2.994902e-07 2.403561e-08 8.164994e-08 6.190920e-08
-6.495281e-09 3.382025e-09 9.391270e-10 6.405782e-10 7.080932e-11 -9.506068e-11
-6.919504e-09 3.686266e-09 1.049077e-09 4.085963e-10 8.362400e-11 -8.345855e-11
-6.701918e-09 3.811571e-09 8.959482e-10 3.390643e-10 6.016787e-11 -1.820770e-13
-6.544263e-09 3.487878e-09 9.388963e-10 7.426428e-10 9.048101e-11 -5.216266e-11
-7.744061e-09 3.749566e-09 1.257813e-09 3.496298e-10 1.564704e-11 -1.043510e-11
-7.828429e-09 3.671913e-09 1.246826e-09 5.234859e-10 3.013367e-12 -3.766865e-11
-7.324857e-09 3.735314e-09 1.180490e-09 3.426193e-10 -4.988898e-12 1.407541e-11
-7.346394e-09 3.729229e-09 1.105446e-09 3.609869e-10 1.664946e-11 -5.923218e-11
-8.772614e-09 1.438404e-08 -8.999688e-09 -1.142354e-08 -3.706349e-09 4.908021e-09
7.480173e-09 -3.092436e-09 -4.929759e-10 6.382470e-09 4.902080e-10 2.170442e-11
1.055285e-08 -5.143754e-09 -7.373693e-10 5.218191e-09 3.180655e-10 1.276108e-10
-7.390731e-09 3.674401e-09 1.065214e-09 5.380364e-10 7.607892e-11 -9.745699e-11
6.236852e-09 -2.540593e-09 -6.981193e-10 5.450076e-09 4.099343e-10 3.718559e-11
-5.310639e-09 -4.924297e-09 -1.573394e-09 -1.538490e-08 3.699228e-09 7.417303e-10
9.860902e-10 -2.026633e-08 -4.730730e-09 -1.910630e-08 4.281690e-09 1.120886e-09
6.375133e-09 -2.552186e-08 -1.004884e-09 -1.613875e-08 4.093103e-09 -2.934731e-12
-7.094688e-09 3.786457e-09 1.096992e-09 2.471947e-10 4.548942e-11 -8.623965e-11
-7.486026e-09 3.860981e-09 1.071916e-09 3.401936e-10 8.850143e-11 -1.422853e-10
-6.997958e-09 3.516734e-09 9.493046e-10 8.522860e-10 6.683926e-11 -4.659209e-11
-6.801453e-09 3.638686e-09 9.167227e-10 2.753594e-10 6.183146e-11 -3.663818e-11
-4.366403e-09 5.651515e-09 -1.235553e-09 -9.327183e-09 -1.167628e-09 4.723551e-10
-1.103865e-08 1.483332e-08 -1.636201e-08 1.085174e-09 -6.988504e-09 7.385108e-09
-1.027670e-08 1.447246e-08 -7.485186e-09 -1.106542e-08 -2.461930e-09 4.130971e-09
-3.792767e-09 7.148306e-09 -2.207178e-09 -1.249767e-08 -6.132454e-10 -1.822101e-10
-1.448634e-08 2.170338e-08 -1.138287e-08 -4.943784e-09 -9.687145e-09 -5.745945e-09
-5.268701e-09 2.489427e-08 -1.318698e-08 4.846955e-09 -3.965031e-09 -3.160999e-09
-1.217359e-08 1.426780e-08 -8.232254e-09 -1.415897e-08 2.516039e-11 6.723920e-10
-1.373669e-09 2.436359e-08 -1.168699e-08 5.812353e-09 -6.818236e-09 -2.695922e-09
9.405622e-09 -3.285604e-08 2.107761e-09 -1.201032e-08 2.786934e-09 -5.969337e-12
1.314557e-08 -3.551197e-08 -3.134523e-09 -1.326371e-08 4.065416e-09 6.595437e-10
-2.897738e-10 -1.990830e-08 3.546430e-10 -1.488557e-08 2.047000e-09 1.373399e-10
-2.377440e-09 2.475616e-08 -1.365985e-08 5.833601e-09 -5.545865e-09 -5.102285e-09
8.050678e-09 -3.089079e-09 -5.332725e-10 6.568048e-09 5.178374e-10 -6.137757e-11
9.761741e-09 -4.316078e-09 -9.372707e-10 4.766515e-09 3.920498e-10 1.638352e-10
-1.509602e-08 2.113007e-08 -4.795661e-09 -5.784300e-09 -1.382097e-08 -1.281430e-08
4.918730e-08 -1.040949e-09 -3.190056e-09 2.437141e-08 4.620475e-09 9.636743e-09
2.850159e-08 1.090625e-09 -6.048881e-09 1.447155e-08 -6.758533e-10 2.481294e-09
7.085334e-08 -1.723782e-08 -3.303473e-09 8.020697e-09 3.513856e-09 1.374445e-08
-1.071388e-08 -3.864021e-09 -2.971128e-09 -1.474614e-08 3.730022e-09 1.128455e-09
1.902437e-08 8.948249e-09 -8.468866e-09 1.128417e-08 -5.344099e-10 -8.400028e-10
2.611695e-09 -6.035467e-08 1.912237e-07 -3.344587e-08 -3.340899e-08 7.279939e-08
1.381723e-08 1.801380e-08 -9.493938e-09 1.119312e-08 -6.695251e-10 -3.989436e-09
-1.049789e-07 4.512065e-08 1.476354e-07 -4.167028e-08 4.779028e-08 -4.494880e-09
4.347209e-09 3.912264e-08 -1.710180e-08 1.652039e-08 -1.180954e-09 -1.116849e-08
1.346087e-08 -4.138636e-08 6.995510e-09 1.069520e-09 3.316767e-10 -2.407026e-10
1.224809e-08 -3.844017e-08 7.514578e-09 -3.927115e-10 -6.891064e-11 -3.938757e-10
1.267142e-08 -4.047180e-08 8.050187e-09 1.610877e-10 2.899887e-10 -2.652297e-10
1.216453e-08 -3.873588e-08 7.888909e-09 -4.319442e-10 -2.534155e-10 -2.999273e-10
1.241098e-08 -3.967393e-08 7.973010e-09 1.811119e-10 1.847522e-10 -1.164355e-11
1.264743e-08 -4.042985e-08 7.053992e-09 -2.266796e-10 7.701564e-10 -3.794598e-10
1.460428e-08 -4.204303e-08 5.409698e-09 -4.082760e-10 -4.971445e-10 -1.956308e-10
-1.314427e-08 2.465256e-10 -7.871023e-09 -1.806137e-08 5.549012e-09 3.183352e-09
-1.027201e-08 -3.208179e-10 1.598999e-09 -5.159346e-09 3.899985e-10 -3.705756e-10
1.496372e-08 -4.252854e-08 5.798575e-09 3.975567e-10 1.997503e-09 -7.803438e-10
1.025917e-08 -9.411014e-09 -3.470364e-08 -2.642897e-08 1.559301e-08 6.166771e-09
-7.539291e-08 -4.059968e-08 2.465614e-07 -4.040635e-08 -9.082276e-09 1.756154e-08
-1.049590e-08 3.167732e-08 4.081931e-08 4.658386e-08 1.946028e-08 8.864289e-09
1.206197e-08 -3.745829e-08 7.141388e-09 -2.836024e-09 -1.037185e-09 1.484806e-10
1.225244e-08 -3.982961e-08 7.141388e-09 -8.336448e-10 1.662708e-10 2.041921e-10
1.364678e-08 -4.186949e-08 5.380215e-09 -5.356216e-10 -6.198153e-10 2.438338e-10
-9.611400e-09 -2.746237e-09 2.038414e-09 1.082848e-09 8.739913e-10 -5.117336e-10
-9.700557e-09 -1.818602e-09 -8.975968e-09 6.321664e-09 -5.481481e-09 3.208242e-09
-9.222364e-09 1.219584e-10 2.160486e-09 8.152550e-10 -4.842837e-10 -1.166144e-09
-9.791143e-09 3.234233e-09 1.696166e-09 -8.563893e-11 2.805504e-10 -4.683991e-10
-6.008220e-09 -5.318517e-09 3.346913e-09 -2.174193e-09 5.295953e-11 -1.345631e-09
-9.543049e-09 3.258380e-09 1.427621e-09 -1.631056e-09 -5.531884e-10 -7.307152e-10
-9.764498e-09 3.032312e-09 1.893322e-09 -1.138017e-10 -2.344969e-10 -3.253081e-10
-7.703446e-09 -8.238458e-10 1.321232e-10 2.097667e-09 -1.712188e-09 8.570448e-10
-1.005492e-08 4.247498e-09 7.312075e-10 -1.919452e-09 -2.266116e-10 4.814043e-10
-7.188376e-09 3.860976e-09 1.100638e-09 2.932738e-10 2.618689e-11 -3.127576e-11
-9.823494e-09 3.844450e-09 9.193124e-10 -2.238062e-09 -8.994990e-10 -7.628808e-11
-1.013866e-08 -1.671303e-10 1.490262e-09 6.630590e-10 -9.743151e-10 3.499356e-10
-1.029038e-08 1.876647e-09 1.490263e-09 -1.066320e-09 6.291500e-11 3.943127e-10
8.603741e-09 -4.317727e-09 -9.066481e-10 4.566207e-09 3.562236e-10 1.417597e-10
-1.033156e-08 9.722554e-09 -6.970854e-09 -6.264498e-09 -3.787565e-09 3.411102e-09
-1.179264e-08 1.317237e-08 -8.958286e-09 -3.672983e-09 -4.263259e-09 4.587707e-09
-1.056138e-08 2.293657e-08 -1.820428e-08 -1.625062e-08 -1.894933e-09 9.513506e-09
-1.030000e-08 3.961492e-09 6.301573e-10 -2.237379e-09 -4.778338e-10 3.159772e-10
4.126520e-09 -1.708612e-09 -8.322694e-10 -1.431824e-09 -1.752808e-10 9.767731e-11
1.937241e-09 -6.613088e-11 -6.005871e-10 -1.468496e-09 -1.580631e-10 -7.976175e-11
-6.785600e-08 -8.864395e-08 3.062867e-07 4.583023e-09 1.942442e-08 8.525436e-08
-1.076422e-07 9.282572e-08 1.269838e-07 -1.807201e-08 -1.106667e-07 -3.294056e-09
-2.240629e-08 -6.039861e-08 1.774899e-07 -4.316693e-08 -3.157502e-08 1.131398e-07
9.207368e-09 -2.498747e-08 -1.577641e-08 -2.359318e-08 9.172214e-09 3.527973e-09
3.439371e-09 -1.606346e-09 -9.215876e-10 -2.262214e-09 -2.087671e-10 -5.720346e-11
-5.945937e-09 -1.074420e-08 -7.116966e-09 -2.060320e-08 5.215492e-09 1.943361e-09
7.120804e-09 -3.341779e-09 -1.156323e-09 -6.822999e-10 -1.686905e-10 8.249537e-11
2.602397e-09 -4.559727e-10 -6.787015e-10 -1.024298e-09 -1.398130e-10 5.178169e-10
-4.018432e-09 8.966396e-09 -3.742301e-09 -1.625596e-08 3.752270e-10 -5.538184e-10
-1.215473e-08 1.942698e-08 -1.427161e-08 -8.045030e-09 -4.488261e-09 7.290968e-09
6.230281e-09 -2.207482e-09 -1.050034e-09 -2.068974e-09 -3.078032e-10 1.342325e-10
2.310683e-09 -1.755087e-10 -6.428502e-10 -6.904489e-10 -1.371531e-10 -3.305141e-10
3.600837e-09 -1.240805e-09 -8.823511e-10 -3.414108e-09 -2.459259e-10 2.292375e-10
6.258705e-09 -3.068574e-09 -9.839720e-10 -1.979462e-09 -1.621228e-10 -3.813638e-10
3.538176e-09 -6.341949e-10 -6.107825e-10 -2.456914e-09 -9.222223e-11 1.428524e-10
4.411861e-09 -1.503511e-09 -9.732393e-10 -2.789227e-09 -7.612367e-11 -3.828471e-10
-1.146677e-07 -9.693906e-09 2.396247e-07 -5.373743e-08 -9.408282e-08 4.542307e-08
2.627412e-08 -4.384448e-08 -1.827944e-08 -2.874643e-10 -9.020161e-09 3.662845e-10
2.528814e-08 -5.746752e-08 -5.866410e-09 -2.294573e-09 -1.122922e-08 -3.981485e-10
2.509946e-08 -4.585524e-08 -1.268707e-08 -3.189592e-09 -1.387817e-09 1.532226e-10
2.724113e-09 -1.986388e-08 -1.291169e-08 -2.376539e-08 7.627338e-09 2.933932e-09
-5.956467e-09 -4.538507e-10 -7.155577e-09 -1.950288e-08 5.651844e-09 2.075582e-09
2.447642e-08 -5.543724e-08 -1.404848e-09 -1.850809e-09 -3.144241e-09 -4.131799e-11
1.542750e-08 -3.368177e-08 -1.146345e-08 -1.764099e-08 7.942190e-09 2.000884e-09
2.512548e-08 -5.165632e-08 -5.720167e-09 -1.886777e-09 -1.146455e-09 -9.357892e-10
9.890407e-10 -1.433616e-08 -4.587075e-09 -1.949145e-08 5.205150e-09 1.062724e-09
3.843243e-09 -2.608930e-08 5.868952e-09 -5.696083e-09 4.405194e-10 -8.031827e-10
2.563358e-08 -5.064078e-08 -1.161824e-08 7.164946e-10 -1.372064e-08 1.510830e-09
-9.748908e-09 -1.945335e-09 1.312945e-09 -6.852000e-09 1.340644e-09 -2.197772e-10
-8.687885e-10 -1.854694e-08 2.955537e-09 -1.111962e-08 1.092313e-09 -5.936604e-10
3.077226e-08 -5.486380e-08 -2.073678e-08 -9.455174e-09 -2.825134e-08 -4.269249e-09
1.913136e-10 -2.910219e-08 7.816731e-09 5.069195e-09 -1.032836e-11 -1.609363e-10
1.205076e-08 -3.772851e-08 7.629271e-09 2.849108e-10 3.264533e-10 -6.308437e-10
2.829992e-08 -4.227796e-08 -1.826403e-08 -2.101754e-09 -9.196697e-09 5.523386e-10
2.352751e-08 -4.230047e-08 -1.245572e-08 3.997404e-09 2.572920e-11 -3.313527e-11
-1.031429e-08 2.167408e-09 1.562374e-09 2.475126e-10 -9.739121e-11 -2.882248e-10
2.411826e-08 -4.672976e-08 -9.816521e-09 1.811697e-09 -1.827235e-09 1.123073e-09
2.698745e-08 -3.985737e-08 -2.654655e-08 -6.489021e-10 -2.785383e-09 2.992114e-10
-1.496051e-08 -3.362548e-09 -6.289351e-10 1.311767e-08 3.008689e-09 -1.844677e-09
-1.770597e-08 -1.809215e-09 7.544390e-10 1.228147e-08 4.303625e-09 -1.972139e-09
-1.906128e-08 3.606219e-09 -1.338424e-09 4.296551e-09 1.555975e-09 -7.009297e-10
-1.476612e-08 -3.364709e-09 8.569137e-10 1.117644e-08 3.153131e-09 -1.865120e-09
-1.425703e-08 -2.899337e-09 6.341239e-11 9.183333e-09 -9.761402e-10 -1.146632e-09
-6.461889e-10 2.599300e-08 -1.663972e-08 4.734213e-09 -1.229909e-09 -2.337055e-09
-1.520851e-08 -3.709011e-09 7.755410e-10 4.266332e-09 3.768803e-10 9.685901e-10
-1.465299e-08 2.622263e-08 -1.399906e-08 -1.276187e-09 8.190862e-10 9.704424e-10
-1.680019e-08 1.605876e-08 -2.021054e-08 -1.533121e-08 -2.109571e-08 -1.363840e-08
-1.495390e-08 -9.819132e-09 3.487515e-09 4.030437e-09 1.719955e-09 -3.030307e-10
-1.134214e-08 -8.658034e-09 3.243201e-10 1.348774e-08 1.580740e-09 4.635323e-10
-1.165409e-08 -3.132177e-09 -5.611349e-09 1.564883e-08 6.511225e-10 -1.010608e-09
-6.035944e-09 -6.417811e-09 3.749920e-09 -1.079967e-09 -4.672975e-10 -1.366045e-10
-6.605150e-09 -4.253650e-09 3.490361e-09 3.245307e-10 4.177018e-10 -1.703932e-10
-5.632894e-09 -7.774752e-09 4.088992e-09 -1.348423e-09 -2.244416e-11 -5.518997e-10
-7.953710e-09 -4.372911e-10 2.657190e-09 -4.435972e-10 4.039231e-10 -3.686572e-10
-7.853808e-09 -1.100014e-09 2.896194e-09 -5.625844e-10 -5.229330e-10 -3.816152e-10
-7.472055e-09 -1.800125e-09 3.081101e-09 -1.010379e-09 3.189586e-10 -1.151126e-10
-7.334704e-09 -7.193746e-10 2.618289e-09 -8.591937e-11 5.585796e-11 -5.477883e-10
-4.596734e-09 2.237878e-09 7.226777e-10 1.969908e-09 -3.955081e-11 -3.811045e-10
-1.159731e-07 -4.650954e-08 2.845147e-07 4.574598e-08 5.697282e-08 5.098486e-08
-6.693075e-08 -1.448538e-08 2.125105e-07 5.281405e-08 7.858186e-08 5.945719e-08
1.916714e-08 -3.795065e-08 -1.257929e-08 -1.379388e-08 8.449680e-09 1.596765e-09
9.498716e-09 -3.011092e-08 -8.487543e-09 -1.924799e-08 6.389142e-09 1.595327e-09
3.009222e-09 -4.298126e-10 -9.145381e-10 -1.205327e-09 -1.337718e-10 2.804457e-11
6.370961e-09 -2.811070e-08 -1.343901e-09 -1.521546e-08 2.919582e-09 1.651393e-10
9.285177e-10 1.184411e-09 -5.272291e-10 -9.376855e-10 -7.364787e-11 -1.059952e-11
-1.544587e-10 1.407751e-09 -4.583729e-10 -1.467737e-09 -1.914742e-10 9.718681e-11
-1.984031e-10 1.204142e-09 -4.632557e-10 -1.131998e-09 -1.879411e-10 4.429923e-11
3.177166e-08 -1.902535e-08 -4.617219e-08 -1.866998e-08 2.105480e-08 5.570429e-09
1.563698e-09 7.706458e-10 -3.961125e-10 -2.423979e-09 -1.514338e-10 1.002352e-10
1.933534e-08 -2.427991e-08 -2.270636e-08 -2.011638e-08 1.112107e-08 3.586857e-09
1.092505e-09 4.336584e-10 -5.781837e-10 -8.036745e-10 1.340750e-11 3.992924e-10
-1.237914e-07 -2.517335e-08 3.094252e-07 -1.125801e-08 -7.902063e-08 2.275336e-08
1.486040e-09 -9.485490e-11 -5.574901e-10 -1.663771e-09 -2.567246e-10 -1.719256e-10
-1.157793e-07 6.865511e-08 2.602173e-07 2.246480e-08 -1.397360e-07 -1.813556e-08
4.080062e-09 -1.503515e-09 -7.088850e-10 -2.242113e-09 -7.224920e-11 -4.303347e-10
-3.333984e-09 3.556458e-09 8.436096e-11 -1.445227e-09 3.571105e-11 -1.735323e-11
-4.122672e-09 2.335271e-09 5.289040e-10 1.328247e-09 3.577139e-10 -4.278439e-11
-3.556264e-09 2.258002e-09 6.037233e-10 2.024369e-09 2.387222e-10 -1.750731e-10
8.398224e-10 4.620118e-10 -5.115561e-10 -2.927935e-09 -1.993783e-10 1.359923e-10
1.775172e-09 -6.864354e-11 -8.035785e-10 -2.564656e-09 -3.637456e-11 -4.716583e-10
-2.594974e-08 -3.144240e-08 1.313866e-07 -1.688534e-08 1.396398e-09 -3.734583e-08
-3.487621e-09 2.161257e-09 4.602092e-10 6.516440e-10 1.292745e-10 4.281113e-10
-1.551013e-07 -3.234892e-08 2.893541e-07 -5.711782e-08 7.146613e-08 -8.827880e-08
-6.234482e-08 4.521446e-08 1.094007e-07 -4.572406e-08 5.351428e-08 -4.738799e-08
-1.319495e-07 3.331269e-08 1.875435e-07 -2.749265e-08 1.268491e-07 1.742591e-09
5.663761e-08 -2.655084e-08 2.116260e-08 1.999017e-08 4.685813e-09 2.712487e-08
3.941443e-08 -1.506188e-08 8.682520e-09 2.600889e-08 4.260903e-09 1.198831e-09
6.001759e-09 1.546417e-08 -9.461981e-09 6.810977e-09 -2.268709e-09 -4.727209e-09
5.742166e-08 -2.046407e-08 8.550316e-09 1.066776e-08 -1.135084e-11 -3.097847e-09
1.962917e-08 -4.478873e-09 6.980307e-09 -1.959548e-08 5.956736e-10 -1.260167e-09
1.211190e-08 -3.378879e-09 4.891323e-09 -1.855224e-08 1.238422e-09 2.989416e-10
-3.986551e-09 9.433216e-09 -4.063793e-09 -1.638310e-08 -9.924790e-10 2.607061e-09
6.161085e-08 -2.004399e-08 6.340881e-09 6.578555e-09 2.663724e-09 2.140660e-09
4.109358e-09 2.505156e-08 -1.663364e-08 1.963677e-08 -6.322562e-10 -1.186393e-08
3.084907e-08 3.762271e-09 -8.468866e-09 2.007308e-08 -2.047237e-09 5.157769e-09
-4.725619e-09 4.729082e-09 -4.221494e-10 -7.871835e-09 -5.582120e-10 2.836773e-10
1.846028e-08 -3.900889e-08 -1.155804e-08 -5.383035e-09 -1.600155e-09 -3.668589e-11
-6.286147e-09 9.477883e-09 -4.113197e-09 -1.250242e-08 -1.807001e-09 2.324770e-09
2.594751e-08 -5.398775e-08 -1.897981e-09 -5.345081e-09 -1.344759e-08 -3.023245e-11
2.573899e-08 -5.632183e-08 -5.081091e-11 4.228843e-09 -9.902120e-09 1.721472e-09
1.827126e-08 -4.575111e-08 -4.975264e-09 -3.567241e-09 3.226285e-10 -7.833737e-10
6.802159e-09 -3.068879e-09 -1.073598e-09 -2.846603e-09 -3.165065e-10 -1.572110e-10
7.123650e-09 -3.544495e-09 -1.201933e-09 -3.309083e-09 -2.695657e-10 -1.450362e-10
1.787542e-08 -4.470477e-08 -2.672854e-09 -5.521425e-09 -1.574576e-08 -9.278504e-11
-4.305702e-09 4.405877e-09 3.462941e-11 -5.335909e-10 -5.306822e-11 -2.303047e-10
1.829058e-08 -4.845456e-08 -1.826347e-09 -3.266023e-09 -3.059993e-09 -1.031254e-09
2.563546e-08 -3.484968e-08 -2.734653e-08 -9.134379e-09 -1.094107e-09 -2.178952e-10
2.267791e-08 -3.716736e-08 -2.295062e-08 -1.501941e-08 1.304454e-08 2.347136e-09
2.698745e-08 -4.464742e-08 -1.387806e-08 -4.024381e-10 -1.207944e-09 3.942993e-10
2.518973e-08 -4.704622e-08 -1.284616e-08 -2.897774e-09 -7.810427e-09 2.920159e-10
-1.327236e-08 7.755593e-08 -4.271300e-08 2.417254e-08 1.039837e-08 -4.777259e-09
-1.431349e-07 -6.075247e-08 4.019384e-07 -1.206611e-08 -2.909585e-08 2.738189e-09
2.504827e-08 -3.739890e-08 -2.814720e-08 -6.761503e-09 -3.359889e-09 4.885742e-10
-1.415570e-09 1.324441e-09 3.278675e-10 3.840922e-09 2.326556e-10 4.219514e-10
-1.525878e-08 -1.808588e-09 -3.484296e-09 1.442838e-08 2.974558e-09 -1.804649e-09
2.103770e-08 -5.383629e-08 -6.377581e-09 -1.057712e-08 -1.078550e-08 -3.166422e-09
1.782484e-08 -4.892005e-08 1.409490e-10 -2.931983e-09 -3.399674e-09 -9.440069e-10
1.147880e-08 -3.539484e-08 -4.515854e-09 -4.789714e-09 1.496937e-09 -1.559574e-09
1.100742e-08 -4.297293e-08 -4.051100e-09 -8.019480e-09 -9.159143e-09 -2.331542e-09
-9.023132e-09 6.524193e-09 -1.132269e-09 -6.134814e-09 -1.120818e-09 2.315311e-10
-9.696762e-09 7.925405e-09 -9.388683e-09 3.042354e-09 -5.522887e-09 3.896059e-09
-3.169752e-08 8.038712e-08 1.089573e-09 4.426668e-08 6.189219e-08 1.706287e-08
1.149479e-08 -3.950692e-08 -2.062416e-09 -5.515752e-09 -3.018310e-09 -1.323061e-09
-7.404671e-09 -2.127709e-09 2.900335e-09 -2.568434e-09 2.744807e-10 -4.521530e-10
-1.078665e-08 3.079578e-09 1.154517e-09 -1.746566e-09 4.776064e-10 -3.085990e-10
-7.705321e-09 2.096003e-09 1.981386e-09 7.595786e-10 2.849749e-10 -4.905715e-10
2.601017e-08 -4.805607e-08 -1.117296e-08 7.255327e-11 -8.934719e-10 9.517262e-10
-7.911417e-09 -1.165682e-09 2.561125e-09 -1.716946e-09 -1.217308e-10 -4.415490e-10
-9.327637e-09 3.484153e-09 1.433162e-09 -6.549498e-10 4.925238e-10 1.874535e-10
-8.437812e-09 -1.056361e-09 2.362410e-09 -2.583157e-09 -3.960410e-11 -6.605503e-10
-7.913471e-09 9.832615e-10 2.343562e-09 -6.778285e-10 2.939442e-10 -6.525229e-10
-4.250444e-09 -7.703215e-09 1.387862e-09 -1.122081e-08 -1.553753e-10 2.542854e-10
1.977123e-08 -2.941817e-08 -2.665184e-08 -1.029535e-08 -4.172202e-09 1.638632e-10
-7.278863e-09 -3.014650e-09 3.181849e-09 -2.797639e-10 -3.088857e-10 -5.722189e-11
1.891920e-09 2.703673e-08 -1.398851e-08 1.049036e-08 -7.672720e-09 -9.333198e-09
-4.602089e-09 2.738256e-08 -1.225130e-08 6.083624e-09 -5.836862e-09 -4.683697e-09
-1.168774e-08 2.125692e-08 -8.857563e-09 3.996122e-10 -9.983071e-09 -3.258874e-09
1.499055e-08 -3.909394e-09 8.048051e-09 -2.027751e-08 -2.326144e-10 -1.132610e-09
-3.997591e-09 1.806879e-08 -7.403124e-09 -1.853468e-08 -3.876888e-10 5.239433e-09
-6.209920e-09 2.706862e-08 -3.190015e-08 -8.353795e-09 -3.366925e-09 2.092572e-09
-5.019720e-09 2.008548e-08 -5.139403e-08 -2.828071e-08 1.278893e-08 1.100840e-08
7.185011e-09 -2.082489e-08 -1.180233e-08 -2.054652e-08 -1.594857e-10 -1.706562e-09
6.115084e-09 -4.417785e-09 -3.321559e-08 -2.938900e-08 1.743086e-08 8.473250e-09
-1.435182e-08 2.352301e-08 -1.152236e-08 1.283788e-09 -7.319458e-09 -3.227793e-09
-1.841638e-08 1.578553e-08 -4.966427e-09 -1.713762e-09 -1.125513e-08 -2.341720e-09
-1.163632e-07 -1.615219e-08 3.005917e-07 2.770450e-08 -4.812172e-08 -8.710020e-08
-5.383593e-08 5.654501e-08 5.617927e-08 -3.883374e-08 3.151004e-10 1.037056e-09
-1.399199e-07 -7.025576e-08 3.906086e-07 -3.565156e-09 4.583490e-09 1.023365e-08
-1.753290e-07 -8.707566e-08 3.337002e-07 -2.381536e-08 -2.336983e-08 -5.202281e-08
-1.497303e-09 5.744953e-09 -2.214426e-09 -1.393043e-08 -1.973710e-10 -7.968599e-10
-7.144357e-09 9.021203e-09 -3.665108e-09 -1.185990e-08 -1.542247e-09 2.118218e-09
-1.856232e-08 1.801787e-08 -8.115391e-09 -9.456402e-10 -9.473941e-09 -1.601351e-10
-1.752566e-08 1.732686e-08 -2.093642e-08 -1.228767e-08 -2.077985e-08 -1.542212e-08
1.074500e-08 2.248817e-08 -1.593124e-08 1.459188e-08 -5.693232e-10 3.790853e-09
1.218599e-10 2.207139e-08 -1.593124e-08 5.188478e-09 -6.902856e-10 -1.598088e-09
-1.496074e-09 4.450289e-09 -2.320391e-09 -1.423984e-08 4.252063e-10 -5.274856e-10
-8.375207e-09 2.605177e-08 -1.609922e-08 1.247517e-09 -1.624199e-09 -2.739519e-09
-9.225263e-09 3.037631e-08 -2.277982e-08 4.368292e-09 -5.170936e-12 1.606874e-09
1.931223e-08 -2.506473e-08 -2.828065e-08 -2.123142e-08 1.594060e-08 4.310451e-09
1.918199e-08 -3.926272e-08 -1.185987e-08 -1.515910e-08 1.070498e-08 1.374964e-09
-9.496403e-09 -1.654553e-09 2.395868e-09 6.507689e-10 -2.356665e-10 -9.486469e-10
-9.734523e-09 3.708863e-09 1.454457e-09 -6.395805e-11 -1.591305e-11 -1.000855e-09
-9.349419e-09 4.529341e-09 1.394490e-09 -3.299132e-10 7.619083e-11 -4.873511e-10
-1.432625e-07 -5.621003e-08 3.262424e-07 -1.314278e-08 1.637330e-08 -2.443707e-08
-1.058759e-07 -1.436539e-08 2.122850e-07 6.377251e-08 7.689623e-08 6.316927e-08
-8.532290e-08 2.955610e-08 1.515944e-07 1.178385e-08 5.524778e-09 2.666217e-08
-1.148763e-07 -3.163118e-09 2.016398e-07 -2.295396e-08 7.439509e-09 -1.394244e-09
-9.001376e-09 4.764705e-09 1.098430e-09 -1.583165e-09 -3.308888e-10 -6.871002e-10
3.313956e-09 -2.061382e-10 -9.536696e-10 -7.244169e-09 -5.019576e-10 1.698380e-10
-9.411867e-09 4.437075e-09 1.558655e-09 -2.501969e-10 -8.516543e-11 -2.943916e-10
2.533876e-08 2.275804e-08 -8.607500e-08 -1.863007e-08 -4.009780e-08 -5.763780e-09
-8.750210e-09 4.584566e-09 8.317620e-10 -2.996237e-09 -5.846594e-10 -2.956553e-10
2.807168e-08 -1.418619e-08 -5.481846e-08 -1.202783e-08 -1.387321e-08 -7.037738e-10
-1.031427e-08 2.512603e-09 1.494188e-09 -5.215696e-10 -6.163399e-10 3.914330e-10
-1.028079e-08 3.784002e-09 1.494187e-09 -1.636530e-09 2.854095e-11 3.816669e-10
1.427460e-08 -2.438404e-08 -2.497858e-08 2.701413e-08 1.211054e-08 -4.108535e-09
-4.245530e-09 -3.383729e-09 -1.913677e-08 2.790053e-08 3.914347e-09 -4.549446e-09
-9.044129e-09 4.555206e-09 1.051029e-09 -1.835262e-09 -1.584660e-10 -3.636950e-10
1.916493e-08 -1.435732e-08 2.969002e-08 8.825186e-09 -5.400914e-10 -9.258650e-09
2.840705e-08 -1.217048e-08 1.122910e-08 1.630972e-09 -3.367333e-11 -6.260771e-09
2.588384e-08 -1.285847e-08 1.010300e-08 1.240007e-09 -4.453637e-10 -4.416416e-09
1.246517e-08 -3.830468e-08 7.633644e-09 -9.221410e-11 -5.351700e-12 -4.735289e-10
1.221179e-08 -3.941612e-08 7.950346e-09 -3.575281e-11 4.439527e-10 -3.236221e-10
1.659745e-08 -9.304553e-09 9.203749e-12 -5.482599e-09 6.375789e-11 -3.129392e-10
1.187647e-08 -3.911958e-09 4.074553e-09 1.223249e-08 6.211546e-10 9.614939e-10
1.571020e-08 -7.890817e-09 1.072234e-09 5.261599e-09 3.442666e-10 -4.837350e-10
7.412034e-09 -2.902554e-09 8.987406e-10 9.861911e-09 -3.578108e-10 -1.141819e-09
1.159013e-08 -4.008319e-08 8.281869e-09 1.120996e-09 -1.265083e-10 -2.948324e-10
1.089705e-08 -3.932194e-08 8.127706e-09 2.014960e-09 6.654654e-10 -4.215162e-11
1.182210e-08 -4.016274e-08 8.402846e-09 1.007392e-09 -3.901011e-11 1.227506e-10
1.353902e-08 -4.209912e-08 6.451611e-09 4.081151e-09 2.029235e-09 -8.524279e-10
1.364913e-08 -4.027878e-08 7.461720e-09 -8.207088e-10 -6.353586e-10 4.017908e-10
7.105664e-08 2.290205e-08 -2.124582e-08 -3.888378e-08 -1.679477e-08 2.294131e-08
1.297313e-08 -4.171636e-08 7.461719e-09 6.234948e-10 9.382317e-11 2.045912e-10
1.358986e-08 -4.282073e-08 5.437231e-09 2.270704e-09 -3.780898e-10 4.085232e-10
-8.059979e-09 1.421439e-09 2.217566e-09 -3.554408e-10 -9.367396e-12 -2.185499e-10
-7.562794e-09 -1.353563e-09 2.938810e-09 -7.287150e-10 1.042944e-10 -5.697132e-10
-6.998646e-09 -4.248622e-09 3.491170e-09 -8.925582e-10 1.062601e-10 -3.364095e-10
-8.094741e-09 9.593908e-10 2.281623e-09 -2.372213e-10 -3.048495e-10 -2.825372e-10
-1.312588e-09 1.129234e-09 2.023377e-10 2.320007e-09 -8.344570e-11 -4.015832e-11
-8.128316e-09 1.331120e-09 2.203851e-09 -1.116253e-10 1.909819e-10 -3.344481e-10
1.028104e-08 -3.112477e-09 -3.870249e-08 -2.705526e-08 1.621666e-08 6.509817e-09
-7.912019e-09 8.492229e-10 2.328434e-09 -5.769216e-10 2.302491e-11 -3.210963e-10
-7.947136e-09 9.689760e-10 2.369444e-09 -2.423937e-10 1.003122e-10 -1.246051e-11
1.512476e-08 -2.645934e-08 -2.573168e-08 -2.364842e-08 1.585449e-08 4.101127e-09
-7.813443e-09 -1.334766e-09 2.729559e-09 -1.370961e-09 -2.556887e-10 -5.015248e-10
-7.067470e-09 -4.859033e-09 3.101987e-09 -1.969095e-09 -3.763898e-10 -3.073357e-10
-7.426533e-08 4.918353e-08 1.325902e-07 -5.190806e-08 6.848815e-08 -4.277988e-08
-7.968789e-09 5.834995e-10 2.666134e-09 9.862975e-11 3.113554e-10 1.406031e-10
1.324506e-08 -3.928964e-08 7.452312e-09 1.312874e-09 3.226153e-10 -4.913140e-10
7.195368e-09 4.141636e-09 1.044457e-09 -2.125771e-08 1.752510e-09 -1.043981e-09
1.212120e-08 3.235418e-09 -1.150249e-09 -2.060328e-08 3.335373e-10 3.635428e-10
1.243191e-08 -4.103735e-08 6.254443e-09 5.025828e-09 6.570753e-10 1.895899e-10
-6.252932e-09 5.098851e-09 -3.219527e-10 -6.634431e-09 -8.679844e-10 3.738768e-10
-1.115055e-08 1.856639e-09 -4.374750e-09 1.684306e-09 -3.435475e-09 1.993658e-09
-7.334636e-09 2.534094e-08 -1.600508e-08 -2.596428e-08 3.234509e-09 1.023082e-08
1.134611e-08 -4.083309e-08 8.087130e-09 2.158513e-09 7.776655e-10 -2.700293e-10
-6.757823e-09 1.175604e-08 -6.341831e-09 -1.506457e-08 -5.734813e-10 1.665165e-09
1.157710e-08 -4.017279e-08 5.896472e-09 5.715656e-09 -7.907821e-10 5.647844e-10
1.255240e-08 -4.075913e-08 7.946220e-09 7.819665e-10 3.686833e-12 -1.000444e-11
-8.558870e-09 7.369856e-09 -2.152419e-09 -6.340657e-09 -1.340664e-09 1.473728e-09
-7.448471e-09 1.158317e-08 -5.588953e-09 -1.246606e-08 -1.202577e-09 2.120559e-09
1.339443e-08 2.832031e-09 1.500131e-08 -2.785201e-08 4.673448e-10 -2.543340e-09
-1.241239e-08 1.231236e-08 -2.435857e-08 3.662745e-09 -1.153452e-08 1.125701e-08
6.457100e-08 -3.796807e-08 6.023544e-08 1.792157e-08 1.104615e-08 5.156393e-08
-1.208469e-08 4.293954e-08 1.824231e-08 4.008536e-08 1.096824e-08 -1.027409e-08
3.013513e-08 -2.284930e-08 4.390149e-08 3.684999e-08 -1.543970e-09 6.656665e-09
-9.252812e-08 -5.655992e-08 2.949773e-07 -2.077490e-08 -3.242017e-08 2.220990e-08
1.102989e-08 -3.958599e-08 6.322187e-09 6.574618e-09 2.135771e-09 -8.701493e-10
1.018152e-08 -3.922435e-08 7.049456e-09 4.342705e-09 6.499266e-10 -3.663257e-10
-1.422114e-07 -6.308788e-08 3.524356e-07 1.359515e-08 8.623025e-08 9.747734e-09
-4.831959e-08 -4.309683e-08 2.104615e-07 3.509301e-08 -2.901581e-09 1.273947e-08
8.479924e-09 -3.720642e-08 8.097447e-09 3.778161e-09 6.157568e-10 -4.239625e-10
-2.331315e-08 2.527351e-08 9.356246e-08 -6.916009e-08 -6.098709e-08 3.916995e-08
-2.378067e-09 6.031888e-08 -3.599309e-08 2.299785e-08 3.750035e-09 -1.061665e-08
1.937155e-08 -4.241102e-08 -5.196314e-09 -7.037406e-09 3.600890e-09 3.879849e-11
1.163868e-08 -4.073271e-08 7.678104e-09 2.463942e-09 -3.857856e-10 2.400492e-10
2.157949e-08 -3.922476e-08 -1.404557e-08 -1.051554e-08 8.114188e-09 2.171751e-09
1.408042e-08 -4.253472e-08 5.463305e-09 2.765336e-09 1.835271e-09 -2.510991e-10
1.906521e-08 -3.784438e-08 -8.912973e-09 -1.007002e-08 1.173693e-09 -1.866808e-09
-6.717008e-09 -7.369627e-09 -1.668408e-08 -2.567631e-08 9.009010e-09 5.392476e-09
-9.724033e-09 4.498160e-09 1.340489e-09 -9.826280e-10 -2.095798e-10 -1.071727e-10
-9.847458e-09 2.856257e-09 1.440332e-09 -1.026796e-09 -2.133200e-10 -5.311755e-10
-8.069837e-09 5.146194e-09 7.829808e-10 -1.466439e-09 -2.187290e-10 -5.287699e-10
-8.273734e-09 5.060962e-09 1.046629e-09 -5.331985e-10 -2.395811e-11 -3.423470e-10
-8.838785e-09 5.459183e-09 1.041999e-09 1.700225e-09 1.854916e-11 2.744472e-12
-8.701612e-09 4.767436e-09 1.060139e-09 -2.952396e-10 -1.856515e-11 -9.392673e-10
-8.284974e-09 5.044965e-09 1.209491e-09 -4.964535e-10 -7.678502e-11 -6.393235e-11
-9.462832e-09 -1.446414e-09 1.792820e-09 1.598718e-09 -1.524101e-09 -1.109146e-09
-9.600389e-09 4.706842e-09 1.314129e-09 -1.814792e-09 4.710321e-11 3.247371e-10
-9.195554e-09 5.001974e-09 1.171572e-09 -7.818088e-10 1.791944e-11 -2.231668e-10
-8.456132e-09 4.954443e-09 7.937178e-10 -2.985948e-09 -8.848145e-11 8.690559e-11
-7.610965e-09 -1.857711e-09 3.144971e-09 -4.159801e-10 -5.169184e-10 -1.433733e-10
-8.164202e-09 1.579755e-09 2.015245e-09 3.171864e-10 6.432010e-11 -3.411841e-10
-8.011097e-09 1.748537e-09 1.690696e-09 7.603780e-10 -2.249253e-10 8.586154e-11
-8.311650e-09 2.145683e-09 1.978566e-09 -2.221960e-10 2.562706e-11 -9.726908e-11
-8.154571e-09 2.560984e-09 1.803673e-09 -1.244485e-10 2.121459e-11 -1.112451e-10
-8.262281e-09 2.308315e-09 1.853482e-09 -1.323905e-10 -2.271352e-10 -2.475220e-10
-3.153972e-09 -2.271994e-08 8.011683e-09 1.164874e-09 2.967173e-11 2.525697e-10
-1.813229e-09 -2.539294e-08 8.330094e-09 1.260340e-09 5.279988e-10 -1.603894e-10
-3.941614e-09 -2.240811e-08 7.819948e-09 8.597580e-10 5.614067e-11 3.954692e-11
-1.109997e-09 -2.482987e-08 7.935244e-09 4.614405e-10 -1.081759e-10 6.389093e-11
-3.599990e-09 -2.536415e-08 8.552715e-09 1.106371e-09 3.889989e-11 1.624434e-11
-7.968165e-09 -3.782628e-10 2.941086e-09 -6.040981e-10 -4.242129e-10 1.816538e-10
-7.972484e-09 1.098140e-09 2.350066e-09 3.382757e-10 4.482258e-10 -1.363517e-11
-8.096335e-09 8.426877e-10 2.471145e-09 4.208769e-10 -5.371303e-11 2.421751e-10
-7.957222e-09 4.007415e-09 1.182164e-09 1.353930e-10 1.908118e-11 -4.801382e-11
-7.924880e-09 3.683638e-09 1.199199e-09 5.765517e-10 2.878875e-11 -1.087599e-10
-7.958743e-09 4.007418e-09 1.231972e-09 1.413447e-10 8.693379e-12 -6.095524e-11
-7.869328e-09 4.308275e-09 1.069394e-09 4.656986e-11 2.765310e-11 -2.699974e-11
-7.535492e-09 4.079058e-09 1.099120e-09 1.432139e-10 3.836020e-11 -6.004397e-11
-1.265045e-08 -8.135677e-09 4.702539e-09 -1.088335e-09 -2.282818e-10 -1.341915e-09
-1.372260e-08 -1.105344e-08 2.433336e-09 -6.078652e-09 -3.960727e-09 -1.620883e-09
-1.269015e-08 -8.135681e-09 1.035599e-09 -9.781513e-10 -7.709740e-10 -8.719137e-10
-1.243686e-09 1.153524e-09 1.307146e-10 7.006672e-10 1.205201e-10 -2.107547e-11
-3.230401e-09 1.741865e-09 3.290390e-10 1.851712e-09 -6.381753e-11 1.203182e-10
2.520739e-11 7.556676e-10 1.051741e-10 4.628187e-09 -1.714287e-10 -9.972512e-11
-1.462002e-09 -1.269703e-08 -4.363234e-09 -6.534622e-09 -2.029835e-09 -8.147829e-10
-4.980784e-09 4.588978e-09 1.098615e-10 -8.505108e-11 -1.418613e-10 -3.792711e-11
-5.459503e-09 4.541317e-09 3.079896e-10 -1.259722e-09 -2.479283e-11 -3.169731e-10
-4.561594e-09 4.245754e-09 1.081055e-10 -1.270695e-10 -1.360017e-10 -2.155864e-11
-1.056186e-10 2.004601e-10 4.689804e-11 1.217566e-09 1.360156e-10 -7.064083e-11
-1.831294e-09 1.236421e-09 1.315028e-10 1.081336e-09 1.363110e-10 1.255262e-10
-6.424164e-09 4.806117e-09 3.774598e-10 -1.165915e-09 -6.307133e-11 -2.228105e-10
-4.972581e-09 4.650705e-09 1.521374e-10 -4.794272e-10 -4.564649e-11 -2.226758e-10
-1.172880e-09 1.183637e-09 1.179985e-10 7.603491e-10 9.982470e-11 -9.785243e-11
4.475699e-09 -2.702104e-09 -6.205210e-10 1.082502e-09 1.834199e-11 -7.113757e-10
-2.391740e-09 1.659993e-09 4.671441e-10 3.071619e-09 2.665360e-10 3.436478e-10
4.660379e-10 1.142180e-10 -5.514300e-11 1.617732e-09 4.220145e-11 3.594339e-10
-1.733243e-09 1.185676e-09 1.948348e-10 1.489735e-09 1.216128e-10 2.403588e-11
-9.853913e-10 6.341478e-10 6.114131e-11 2.266803e-09 2.490761e-10 -1.750485e-10
2.286429e-09 -1.232947e-09 -3.837591e-10 2.461879e-09 3.697173e-10 4.243026e-10
5.176464e-09 -2.711564e-09 -7.275682e-10 9.578193e-10 1.579377e-10 6.074647e-10
-5.631300e-10 -1.200373e-12 4.575207e-11 9.509236e-10 1.454414e-10 1.665557e-11
-1.153856e-08 2.714134e-08 -1.801395e-08 -5.841704e-10 -6.049274e-09 -3.907710e-09
2.172263e-09 -1.947553e-10 -6.234779e-10 -3.874817e-09 -1.970109e-10 4.681744e-11
-9.618319e-09 2.342186e-08 -1.461534e-08 -2.689077e-09 -5.457970e-09 -2.339713e-09
-1.894946e-08 1.772638e-08 -1.278377e-08 -1.623379e-08 -1.690308e-08 -1.176739e-08
3.268716e-09 -1.947508e-10 -7.244894e-10 -4.061669e-09 -4.786745e-10 1.423472e-10
-5.484500e-09 2.151489e-08 -8.838608e-09 1.703297e-09 -7.058397e-09 -7.597864e-10
-7.641489e-09 3.183564e-09 1.172610e-09 3.653495e-10 -7.973888e-11 -3.476572e-10
-7.960036e-09 1.160483e-09 2.227416e-09 1.013544e-10 1.461903e-10 -4.766392e-10
-1.961759e-08 1.612454e-08 -6.867611e-09 -1.603702e-09 -6.771146e-09 -1.816260e-09
5.174049e-09 -1.662172e-09 -1.000003e-09 -1.892136e-09 3.314193e-11 1.769886e-10
-2.116559e-08 1.346551e-08 3.432032e-10 -7.714494e-09 -7.195527e-09 -3.397526e-09
5.690779e-09 -2.731865e-09 -1.055145e-09 -8.392163e-10 -1.166889e-11 4.008254e-10
-7.071394e-09 -2.304533e-09 3.413134e-09 -1.721576e-10 -2.572369e-10 -6.273666e-10
-1.964697e-08 1.610914e-08 -5.321985e-09 -1.774068e-09 -8.066992e-09 -1.827999e-09
-2.068955e-09 2.598534e-08 -1.928775e-08 3.375022e-09 -2.613749e-09 -4.362453e-09
-5.033778e-09 3.048498e-08 -1.753533e-08 7.273252e-09 -1.769802e-10 8.372504e-10
-1.523154e-08 2.584362e-08 -2.179223e-08 -6.262723e-09 -1.232628e-09 -9.044867e-10
-1.744229e-08 2.546244e-08 -1.397686e-08 -4.042000e-09 -5.832966e-09 -5.271611e-09
1.533117e-08 -4.902608e-08 2.469438e-09 -3.606784e-09 -4.170801e-09 -2.071011e-09
1.023640e-08 -5.598569e-09 -1.341844e-09 2.236675e-10 1.898051e-11 1.906067e-10
9.592538e-09 -5.654303e-09 -1.335918e-09 1.185705e-09 6.233765e-11 8.525924e-11
-1.963907e-10 -2.660565e-08 4.978089e-10 -4.007195e-09 -4.049253e-09 -1.606612e-09
9.824620e-09 -5.712869e-09 -1.398084e-09 -1.364593e-09 -7.068945e-11 1.405202e-10
1.866186e-08 -3.411928e-08 -1.231145e-08 -6.823425e-09 -2.349761e-09 6.239101e-10
1.022981e-08 -5.740860e-09 -1.340358e-09 1.867676e-10 3.978666e-11 1.825183e-10
1.564774e-08 -3.572842e-08 -9.876433e-09 -3.032154e-09 1.024440e-09 4.726970e-10
5.175981e-09 -1.648907e-09 -9.992824e-10 -1.898207e-09 -1.137361e-10 2.812771e-10
7.598833e-10 -2.456626e-08 -2.758213e-09 -5.156655e-09 1.588197e-09 -9.711029e-10
8.953176e-09 -2.916004e-08 -9.005786e-09 -6.242426e-09 -8.641627e-10 -1.266394e-10
9.226331e-09 -4.065739e-08 3.253504e-10 -1.356117e-08 -1.965146e-09 -3.104846e-09
8.247224e-09 -1.898234e-08 -1.444645e-08 -1.249454e-08 -1.121349e-09 -6.996738e-10
2.682395e-08 -6.445098e-08 1.724415e-09 -5.520745e-09 -1.428455e-08 7.379302e-11
4.405493e-09 -1.776876e-08 -1.176997e-08 -1.357074e-08 -7.906207e-09 -1.642524e-09
-1.303177e-08 -1.168735e-08 3.581178e-09 3.711934e-09 1.027884e-09 -3.263954e-10
-1.946909e-08 6.619026e-09 -3.131659e-09 4.760529e-09 8.897094e-10 8.072206e-10
-1.559480e-08 2.683276e-09 -2.221636e-09 2.154307e-08 9.518420e-09 -4.843927e-09
5.568296e-09 -2.449659e-09 -9.376695e-10 -2.266773e-10 1.065770e-11 1.099988e-10
3.563133e-09 -1.216349e-09 -7.242478e-10 -3.791393e-09 -5.395077e-10 5.488982e-11
-8.841146e-09 2.952287e-08 -1.280002e-08 -5.291019e-09 -1.014174e-09 2.770773e-09
-1.008337e-08 -8.652467e-09 -2.471261e-09 1.542277e-08 -3.447940e-10 1.238842e-09
-9.124204e-09 4.672772e-09 1.198132e-09 -1.708010e-09 -2.716183e-11 3.646200e-10
-8.726394e-09 5.017427e-09 1.082464e-09 -9.114165e-10 -6.888845e-11 -1.359829e-10
-8.961950e-09 4.248088e-09 1.456688e-09 -1.853280e-09 -3.081483e-10 -6.813445e-10
-7.031133e-09 4.902182e-09 5.348655e-10 -1.589613e-09 -4.939071e-11 -4.407955e-10
-2.751048e-09 5.256343e-09 -1.325414e-09 -1.058692e-08 -4.922786e-10 2.070332e-10
-8.290135e-09 5.199722e-09 7.296415e-10 -3.478928e-10 -4.471534e-12 -7.866229e-10
2.189244e-10 2.130058e-09 -1.330552e-09 -1.200348e-08 -1.369948e-11 -1.508469e-10
5.418109e-09 2.558229e-09 -1.475690e-09 -1.401967e-08 -1.794409e-10 -1.930962e-10
-4.469255e-08 9.236415e-08 -7.729187e-09 2.190818e-08 2.242537e-08 1.099102e-09
-3.053547e-08 8.672797e-08 4.189752e-09 -1.547872e-09 -7.150997e-09 -5.123772e-09
-7.257158e-09 5.196923e-09 7.140031e-10 -5.515257e-10 -6.853190e-11 -2.703337e-10
-5.671886e-08 6.648026e-08 4.676776e-08 -2.830584e-08 -1.214392e-09 2.456660e-10
2.844965e-08 3.496330e-08 -1.066668e-07 -1.344988e-08 -4.980311e-08 -5.966135e-10
-6.414290e-09 5.252462e-09 6.064138e-10 -5.039804e-10 6.214784e-11 9.155854e-11
-7.287350e-09 5.205498e-09 8.202303e-10 -5.341680e-10 -1.692690e-11 -5.036638e-11
3.459980e-08 4.502494e-09 -8.717356e-08 -7.336654e-09 -4.389102e-08 3.624840e-09
-8.512854e-09 4.723939e-09 1.051500e-09 -1.488142e-09 -3.227197e-12 2.380660e-10
-1.777012e-08 3.441188e-08 -1.470867e-08 -9.077736e-09 4.221424e-09 -4.642972e-09
-8.139015e-09 5.004379e-09 8.141068e-10 -1.809539e-09 -7.085488e-11 -4.119031e-10
-7.321804e-09 4.869788e-09 5.071987e-10 -2.776496e-09 3.967537e-11 3.262256e-10
9.030465e-09 -3.913032e-08 8.061434e-09 3.197431e-09 8.332438e-10 -2.207347e-10
5.811222e-09 -3.490995e-08 8.933322e-09 2.442385e-09 -8.628738e-10 -1.148086e-10
4.669380e-09 -1.606735e-09 -1.035643e-09 -5.572987e-09 -4.444143e-10 3.154497e-10
5.627998e-09 -1.983140e-09 -1.208485e-09 -4.854820e-09 -1.787165e-10 -3.765632e-10
2.834946e-09 5.783296e-11 -8.440346e-10 -6.488639e-09 1.042775e-10 -9.350210e-11
9.999997e-09 -6.003937e-09 -1.323458e-09 -6.075639e-10 -4.020712e-11 4.157282e-10
9.068901e-09 -3.815589e-08 8.638874e-09 2.013986e-09 -5.837190e-10 -1.841767e-10
9.017526e-09 -3.726321e-08 7.763963e-09 3.505372e-09 2.749981e-10 -2.825387e-10
9.383239e-09 -5.442750e-09 -1.167297e-09 3.184928e-10 1.003940e-12 1.559262e-10
8.915320e-09 -3.958456e-08 6.941404e-09 6.087574e-09 1.789562e-10 -1.051018e-10
1.186349e-08 -4.024092e-08 7.038891e-09 4.986574e-09 1.454378e-09 6.181444e-11
1.163532e-08 -4.118609e-08 6.593231e-09 3.060564e-09 3.781492e-10 -3.675286e-10
8.026698e-09 -3.749446e-08 6.522930e-09 6.442351e-09 -2.544016e-10 4.230663e-10
5.319073e-09 -3.582722e-08 6.711285e-09 8.278849e-09 1.841135e-09 -2.283979e-10
1.391623e-08 -4.032440e-08 6.680871e-09 1.350355e-10 9.718562e-10 -2.970197e-10
9.790339e-09 -5.693436e-09 -1.356327e-09 -3.920059e-10 -2.079914e-11 -5.889622e-11
1.295750e-08 -3.960183e-08 7.248329e-09 -4.328578e-10 -2.045477e-12 -9.352462e-11
-5.001795e-10 1.739227e-10 5.573053e-11 5.428593e-10 4.367059e-11 -3.972405e-10
-6.489573e-09 3.151360e-09 8.199588e-10 1.324664e-09 3.027188e-10 -6.659998e-10
-3.716144e-09 2.099216e-09 5.216161e-10 4.699876e-10 1.092303e-10 1.486911e-11
-4.472558e-09 2.776321e-09 7.671144e-10 1.168969e-09 7.600631e-11 1.039279e-10
1.025675e-08 -5.491733e-09 -1.212689e-09 -1.010881e-09 -2.248344e-10 4.721701e-10
-4.291008e-09 2.317557e-09 6.056891e-10 1.505337e-09 2.222256e-10 8.570833e-11
-4.798313e-09 2.969701e-09 6.240897e-10 5.655545e-10 1.328800e-10 3.868275e-10
-5.567567e-09 2.952739e-09 7.112329e-10 5.912720e-10 1.440636e-10 -8.529524e-12
-4.792369e-09 2.968728e-09 5.386207e-10 5.497638e-10 1.230266e-10 1.658611e-10
-2.572497e-09 1.739226e-09 3.002616e-10 1.735602e-09 5.544607e-12 -4.454681e-11
-3.707287e-09 1.810866e-09 4.627205e-10 2.202501e-09 1.979628e-10 -4.229583e-11
-3.249383e-09 1.739715e-09 3.784533e-10 1.855870e-09 1.351995e-10 1.144995e-11
-7.968140e-09 3.360871e-09 1.399128e-09 5.784977e-10 5.191980e-11 -1.308498e-10
-8.155458e-09 3.472536e-09 1.350126e-09 4.666200e-11 -9.582957e-11 -2.739888e-10
-8.220515e-09 1.960994e-09 1.994709e-09 3.870444e-10 5.400191e-11 -2.068978e-11
-8.136133e-09 3.279133e-09 1.526108e-09 1.720079e-11 1.081075e-10 -1.464287e-10
6.176805e-09 -3.426985e-09 -8.270138e-10 5.680885e-10 3.827036e-11 -9.209078e-12
-8.132230e-09 3.312435e-09 1.591407e-09 7.067635e-11 2.511691e-11 -1.175802e-10
-8.133673e-09 3.126422e-09 1.553091e-09 2.926332e-11 -1.301912e-10 -1.788099e-10
7.012817e-09 -4.176744e-09 -9.606813e-10 8.767642e-10 1.802181e-10 -3.130796e-10
-7.179201e-09 2.873914e-09 1.347376e-09 9.086589e-10 1.408681e-10 -2.054072e-10
5.163165e-09 -3.047319e-09 -6.153722e-10 8.772961e-10 3.004062e-10 6.750051e-11
-8.056469e-09 1.513267e-09 2.010835e-09 -1.696141e-10 2.944955e-10 1.767835e-10
-7.829072e-09 2.715981e-09 1.507400e-09 8.662917e-10 -2.566569e-11 1.999603e-10
4.408060e-09 -3.046948e-09 -6.140328e-10 9.592911e-10 3.269516e-10 -5.137590e-11
-3.227924e-09 1.739680e-09 4.276441e-10 1.848834e-09 1.283172e-10 4.702047e-11
-7.772902e-09 2.892756e-09 1.580403e-09 4.719592e-10 5.676010e-11 -2.139689e-11
1.168412e-08 -6.205281e-09 -7.056861e-10 4.056207e-09 -1.380681e-10 -6.765393e-10
-8.203589e-09 2.346773e-09 2.010834e-09 5.318647e-10 -3.279554e-11 2.091975e-10
8.823164e-10 7.900534e-10 -5.008229e-10 -1.402393e-09 5.121501e-11 1.044569e-10
-1.115248e-09 1.425927e-09 2.144338e-10 4.657084e-09 7.795681e-11 -1.366773e-10
4.351681e-09 -1.922020e-09 -9.753535e-10 -2.388712e-09 -3.640972e-10 1.455939e-10
6.308554e-09 -4.816481e-09 -3.284609e-08 -1.878738e-08 -4.632696e-09 -2.049436e-09
-1.138347e-09 2.156010e-09 -2.650280e-10 -2.506066e-09 -1.215357e-10 2.861915e-10
1.878900e-08 -3.881228e-08 -1.066050e-08 -5.570538e-09 -1.017558e-08 -1.579527e-09
-9.379253e-10 2.332373e-09 -3.000498e-10 -4.397364e-09 1.384179e-10 -1.079219e-10
4.341486e-09 -1.293882e-09 -8.806507e-10 -5.016598e-09 8.878676e-11 -1.210660e-10
2.168826e-09 -3.238849e-10 -8.032737e-10 -1.233964e-09 -1.039393e-10 4.851373e-10
1.360373e-08 -7.742470e-09 -1.187539e-09 -1.913120e-09 3.679772e-11 -8.336502e-10
-5.844893e-09 3.202015e-09 7.610923e-10 7.936287e-10 1.571230e-10 1.024139e-10
-4.843360e-10 5.717576e-08 -6.367996e-08 -2.260292e-08 -1.868738e-08 2.062050e-08
-3.920562e-09 1.557803e-08 -2.696550e-09 -2.193696e-08 1.828207e-09 5.443087e-09
1.335698e-08 -7.506095e-09 -9.537779e-10 1.376715e-09 1.456105e-10 3.716203e-10
1.191847e-08 7.025886e-08 -1.112054e-07 -2.285079e-08 -2.361382e-08 1.713218e-09
-6.777108e-09 3.336018e-09 9.084453e-10 6.837295e-10 1.124389e-11 7.381362e-11
1.715866e-08 -7.725039e-09 -1.035270e-09 -2.991572e-10 -3.757824e-11 -4.668927e-10
-6.780862e-09 3.544021e-09 1.008057e-09 6.084769e-10 1.566462e-10 -7.535317e-11
3.280029e-08 4.700251e-09 -8.445682e-08 2.167135e-08 9.929838e-09 -1.022965e-08
-4.419309e-10 -3.382759e-09 -2.780799e-08 2.805852e-08 3.784498e-09 -1.795554e-09
2.191939e-08 -2.186050e-08 -4.571679e-08 2.259547e-08 8.079809e-09 -1.055516e-09
1.419585e-08 -3.102820e-08 -2.205487e-08 2.882091e-08 1.499350e-08 -6.204894e-09
-7.964194e-09 -1.635482e-08 5.563447e-09 2.910462e-09 3.519483e-10 2.599536e-10
8.356505e-09 -3.139121e-08 6.813061e-09 -1.397919e-09 -5.565981e-13 -4.823672e-10
-1.288872e-10 -1.476660e-08 4.837771e-09 1.853709e-10 1.391880e-10 -5.942048e-10
3.257146e-10 -1.640154e-08 4.426870e-09 -2.010027e-09 1.520154e-09 -1.041279e-09
7.169056e-10 -1.696573e-08 5.105045e-09 -4.274017e-09 2.380375e-10 -9.282388e-10
3.653005e-09 -2.552726e-08 6.052821e-09 -2.624618e-09 -7.819865e-11 -1.313705e-09
-5.898999e-09 -1.954483e-08 6.928996e-09 6.215798e-09 2.587086e-10 -4.423185e-11
-1.093140e-08 -1.356943e-08 2.744280e-09 1.148253e-08 1.366795e-09 -1.282774e-10
-9.362250e-09 -1.668162e-08 5.901896e-09 2.109355e-09 6.544241e-10 6.875109e-10
-9.575078e-09 -1.713114e-08 6.643666e-09 2.322177e-09 1.240207e-09 -8.619017e-10
-8.499226e-09 -1.565953e-08 6.372787e-09 9.236886e-09 3.163666e-09 1.378125e-10
-4.934550e-09 -1.041633e-08 3.911564e-09 -5.230841e-09 4.719640e-10 -9.768104e-10
-4.808111e-09 -6.279047e-09 3.792312e-09 -1.171461e-09 2.610596e-10 -9.628104e-10
-7.754320e-09 -1.605827e-08 7.147867e-09 3.779683e-09 1.168681e-09 -5.855184e-11
-6.652913e-09 -1.790421e-08 6.849592e-09 5.083987e-09 5.848324e-10 2.012677e-10
-2.731524e-09 -1.212010e-08 4.601966e-09 -2.085304e-09 1.263830e-10 -1.277113e-09
-2.323488e-09 -1.316655e-08 4.524217e-09 -5.902302e-10 1.404166e-10 -5.777977e-10
-4.808106e-09 -6.968714e-09 3.250003e-09 -1.009821e-09 8.790282e-10 -1.128445e-09
3.257117e-10 -1.724525e-08 5.116747e-09 -2.168689e-09 1.496317e-09 -9.634936e-10
9.806814e-09 -3.574502e-08 7.336589e-09 -1.664296e-09 1.000198e-10 -9.281974e-10
9.095838e-09 -2.981680e-08 4.760467e-09 -8.196229e-09 6.857926e-10 -5.603227e-10
5.685587e-09 -2.624503e-08 6.199894e-09 -1.622760e-09 -1.123717e-10 -4.404239e-10
1.913319e-09 -1.978799e-08 5.219764e-09 -1.093892e-10 6.635570e-11 -1.523902e-09
9.806810e-09 -3.301072e-08 6.986726e-09 -1.771555e-09 -2.013977e-11 -9.621605e-10
-7.404671e-09 -3.960078e-09 3.223232e-09 -2.805578e-09 -4.736669e-10 -6.878484e-10
-3.302221e-09 -2.152113e-08 7.106954e-09 5.247455e-09 1.073072e-09 -3.177076e-10
-3.323600e-09 -2.484044e-08 7.762391e-09 4.855694e-09 5.652232e-10 4.593666e-10
1.517703e-08 -4.063697e-08 7.082753e-09 -2.525744e-09 2.578523e-10 7.069456e-10
1.252509e-08 -3.588723e-08 4.860548e-09 -5.784948e-09 9.860242e-10 -5.604514e-10
1.099002e-08 -3.387372e-08 6.476333e-09 -4.037881e-09 8.280321e-10 -5.588552e-11
-4.916728e-09 -2.465551e-08 5.994701e-09 1.370890e-08 3.833506e-09 -6.557551e-10
-1.782376e-08 -4.438515e-09 5.492436e-09 9.307096e-09 2.769293e-09 -1.224085e-09
-2.110851e-08 1.373002e-08 -7.420294e-09 3.595011e-09 3.029668e-09 -5.591201e-10
-2.796850e-09 -1.641866e-08 3.758208e-09 1.249257e-09 -3.447866e-11 -7.811419e-10
-6.972819e-09 -8.639479e-09 1.752815e-09 6.624046e-10 -2.167232e-09 -2.965711e-11
6.368119e-09 -3.587758e-08 5.005503e-09 2.626171e-10 -2.031171e-09 9.900265e-10
4.937311e-09 -3.104404e-08 3.197597e-09 6.335721e-09 -3.846639e-09 1.364888e-09
1.599792e-09 -2.264094e-08 2.105104e-09 1.042899e-08 -8.428379e-09 1.400905e-09
-3.543801e-09 -2.136897e-08 6.435357e-09 1.134647e-08 1.667542e-09 -4.073597e-10
4.937345e-09 -2.387375e-08 2.638420e-09 5.184723e-09 -1.835502e-09 4.517135e-10
9.666071e-10 -1.266520e-08 -4.617717e-09 1.061333e-08 -4.431584e-09 3.627283e-09
-7.939286e-09 -1.215385e-08 -2.471729e-09 9.506931e-09 -8.516570e-09 3.816943e-09
-4.466729e-09 -2.094425e-08 6.345704e-09 7.707488e-09 1.845050e-09 3.651334e-10
-1.098313e-08 3.424816e-08 -2.488487e-08 4.728611e-09 -8.253400e-10 -4.899014e-10
-1.904256e-08 1.729612e-08 -5.661893e-09 -1.538164e-09 -1.175572e-08 -2.278161e-09
-1.012727e-08 -5.409240e-09 -1.176148e-09 4.951694e-09 -4.507792e-09 1.939596e-09
-5.643054e-09 -8.041507e-09 3.153441e-09 2.148052e-09 -2.314539e-09 -5.132521e-10
-1.628242e-08 1.925029e-08 -1.202616e-08 -4.834057e-09 -7.485930e-09 -3.746238e-09
-2.168102e-08 1.420684e-08 -1.564208e-09 -2.569435e-09 -8.999557e-09 -8.144134e-10
1.900189e-08 -5.231243e-08 2.812741e-09 4.301203e-09 -3.070806e-09 1.108145e-09
1.360929e-08 -3.420266e-08 -1.610878e-08 1.700808e-08 -1.920524e-08 8.561981e-09
-2.061582e-08 9.568744e-09 -3.972779e-09 -1.856315e-09 -4.857144e-09 -5.305911e-10
1.227662e-08 -4.385422e-08 5.335701e-09 6.443043e-09 -5.149310e-09 7.445649e-10
1.238171e-08 -3.782919e-08 4.376765e-09 1.614628e-09 -8.328156e-10 1.025661e-09
1.238178e-08 -3.782919e-08 6.062073e-10 1.090191e-09 -1.558386e-09 -3.369495e-10
4.937350e-09 -3.074180e-08 5.105153e-09 5.016557e-09 1.065101e-09 6.461013e-10
4.206976e-10 -1.548418e-08 -1.444161e-09 5.792060e-09 -2.151106e-09 1.477666e-09
2.180989e-08 -4.557414e-08 -3.523354e-09 4.577974e-09 -1.211359e-08 1.016588e-09
2.165731e-08 -5.501288e-08 5.120535e-09 2.951833e-09 -8.305532e-09 9.396859e-10
-2.045532e-08 9.671346e-09 1.601145e-09 -3.927125e-09 -5.192037e-09 -8.509640e-10
1.900187e-08 -5.264229e-08 5.734198e-09 4.770949e-09 -6.807429e-09 9.276528e-10
-2.120099e-08 8.029117e-09 -1.882275e-09 -2.990352e-09 -6.186871e-09 -1.752457e-09
-1.571373e-08 9.977335e-10 -2.501885e-09 -8.232640e-09 -6.156249e-09 -2.018920e-09
-7.536534e-09 -2.993821e-09 2.818862e-09 -1.968529e-09 3.146054e-10 -6.564237e-10
-1.153480e-08 5.761184e-09 -1.027699e-08 -1.390652e-08 -1.173474e-08 -3.463700e-09
-7.746218e-09 5.173809e-09 8.116192e-10 -6.967353e-10 -7.312040e-12 -2.590199e-10
-5.716666e-09 4.853060e-09 3.789284e-10 -1.488730e-09 -7.331102e-11 -1.183751e-10
-6.394842e-09 -3.570195e-09 2.763241e-09 -3.849053e-10 7.079056e-10 -1.050378e-09
-8.855667e-09 4.241245e-09 1.113917e-09 -1.523076e-09 -2.181941e-10 -4.971028e-10
-6.191778e-09 5.029122e-09 3.873981e-10 -3.529658e-10 -1.135891e-11 -3.974990e-11
-9.781292e-09 3.845484e-09 1.493853e-09 -2.730651e-10 -1.282168e-10 -1.925569e-10
-3.433774e-09 1.897950e-09 3.885101e-10 6.994907e-10 -1.470051e-10 1.018876e-10
-5.153939e-09 4.725247e-09 4.088134e-10 -1.575779e-09 -1.117663e-10 -2.490981e-10
-6.744232e-09 4.947320e-09 7.698366e-10 -1.710927e-09 -1.253651e-10 -2.071989e-10
2.550472e-08 -5.134118e-08 -2.060962e-08 -1.925702e-08 -2.788700e-08 -7.885711e-09
3.083855e-08 -5.427394e-08 -2.389728e-08 4.199496e-09 -2.827998e-08 3.643696e-09
-6.285074e-09 5.071833e-09 5.375800e-10 -4.392598e-10 -5.184958e-11 -1.779861e-10
-5.899444e-09 4.679411e-09 3.094831e-10 -7.729999e-10 -1.231890e-10 -2.567481e-10
-6.956033e-09 4.927892e-09 7.181740e-10 -1.721845e-09 -3.367041e-10 -7.780423e-10
-5.675345e-09 4.963955e-09 3.342175e-10 -2.776823e-10 -3.429024e-11 -5.795076e-11
-6.899418e-09 4.822899e-09 6.248322e-10 -1.713427e-09 -1.672553e-10 -1.383902e-10
1.517702e-08 -4.003855e-08 4.765672e-09 -2.737320e-09 1.314832e-09 -2.262613e-10
1.408303e-08 -4.109143e-08 6.730100e-09 2.490284e-09 3.605426e-10 -7.940138e-11
1.177001e-08 -3.886180e-08 7.800276e-09 -6.252074e-10 2.151779e-10 -5.914836e-10
-4.743127e-09 4.332805e-09 3.394509e-10 -1.855045e-09 -1.139953e-10 -1.944944e-11
-5.258672e-09 4.243827e-09 1.708202e-10 -1.403533e-09 -2.320943e-11 -1.813780e-10
8.880850e-09 -3.190824e-08 6.940196e-09 -1.020642e-09 -2.669048e-10 -7.477756e-10
7.754023e-09 -4.549792e-09 -1.033989e-09 4.595170e-10 1.837014e-11 -5.853251e-11
-4.319958e-10 6.963422e-10 6.230039e-11 4.833772e-09 3.336658e-10 4.759015e-11
-9.849622e-09 2.502390e-09 4.191130e-10 -1.080322e-09 -1.811757e-09 2.738769e-10
-8.852905e-09 4.240185e-09 1.191006e-09 -1.524179e-09 -2.422640e-10 -5.715108e-10
-9.222409e-09 1.316382e-09 2.226776e-09 -3.569058e-10 -7.730868e-10 -8.189055e-10
2.156399e-09 -3.167386e-08 8.705410e-09 2.162326e-09 1.125231e-10 -8.676507e-11
9.088929e-09 -3.828546e-08 8.678021e-09 1.961082e-09 -7.477128e-11 3.149003e-10
2.113000e-09 -3.155605e-08 9.003710e-09 2.206629e-09 -8.835188e-10 2.371381e-10
6.776376e-09 -3.611043e-08 8.238970e-09 5.458557e-09 -1.638163e-10 -2.897227e-10
6.440846e-09 -3.565612e-08 8.205614e-09 9.289949e-10 5.853063e-10 3.093104e-11
8.723988e-08 -3.764045e-12 -1.018385e-08 1.053039e-08 4.864675e-09 3.297000e-08
5.677976e-08 2.729633e-08 -1.717894e-08 4.136633e-08 1.407900e-08 1.286022e-08
-9.287131e-10 -2.870718e-08 6.911007e-09 8.029714e-09 5.155867e-10 -3.125146e-11
8.878888e-09 -3.819234e-08 6.227254e-09 7.100294e-09 1.695680e-09 -5.222065e-10
5.886270e-09 -3.506429e-08 8.887078e-09 2.494459e-09 5.956148e-11 2.855212e-10
6.600909e-09 -3.565475e-08 7.534713e-09 6.139251e-09 -1.643491e-10 6.258185e-10
8.652723e-10 -2.907300e-08 8.170529e-09 4.820551e-09 4.545383e-10 4.695535e-10
-1.520351e-09 -2.529312e-08 8.533174e-09 1.703309e-09 1.410077e-10 1.754296e-10
3.985187e-09 -3.226066e-08 6.919014e-09 6.959936e-09 2.463498e-10 2.859091e-10
1.435749e-10 1.280599e-09 -4.450627e-10 -1.902985e-09 -1.400622e-10 4.530196e-10
-7.684774e-09 -5.088233e-10 2.315753e-09 -8.278728e-10 2.830333e-10 -5.247072e-10
-6.394896e-09 -3.980860e-09 3.161485e-09 -1.078552e-09 -4.214828e-11 -9.531143e-10
-3.703112e-09 -9.692714e-09 4.271695e-09 1.723002e-10 1.042488e-10 -1.200749e-09
-2.492474e-09 2.808134e-09 -1.644250e-10 -7.894658e-10 -1.673947e-10 1.450646e-10
-1.850953e-09 2.328425e-09 -1.671765e-10 -1.652591e-09 4.352963e-12 4.691625e-11
-7.434569e-09 -9.278427e-10 2.253986e-09 1.118709e-10 5.470142e-10 -9.378084e-10
-6.394861e-09 -2.893653e-09 3.177638e-09 -6.202989e-10 1.572915e-10 -8.062356e-10
1.359471e-08 -2.503538e-08 -2.007314e-08 -1.385383e-08 -1.213107e-08 -2.483946e-09
-1.606654e-09 2.770673e-09 -1.512190e-10 -5.678444e-10 -3.749778e-11 -2.884099e-10
2.439053e-08 -6.036405e-08 2.377194e-09 -1.003633e-09 -4.628989e-09 2.555651e-10
2.103694e-08 -4.640781e-08 -1.265426e-08 -1.051846e-08 -1.421494e-08 -3.291758e-09
-1.798087e-09 2.714111e-09 -1.592331e-10 -4.959801e-10 -1.968883e-10 2.270368e-10
-1.937418e-09 2.991453e-09 -1.633853e-10 -5.218727e-10 1.074923e-10 1.217747e-10
-4.051588e-09 3.814645e-09 7.217116e-12 -1.767612e-09 -2.397111e-10 -1.244493e-10
2.277688e-08 -5.641559e-08 3.250166e-09 9.837664e-11 -2.868836e-09 -2.307167e-10
1.167015e-08 -3.973127e-08 7.678062e-09 2.160978e-09 9.021177e-10 -2.792856e-10
1.407986e-08 -4.233788e-08 5.569663e-09 2.828834e-09 -8.052696e-10 1.099047e-10
1.310820e-08 -4.183286e-08 6.870025e-09 -1.635593e-09 1.376967e-09 -1.309326e-10
-4.088912e-09 3.475258e-09 -5.077760e-11 -1.232959e-09 4.306799e-11 -2.809464e-11
1.246527e-08 -4.015735e-08 8.048753e-09 6.167542e-10 3.911005e-10 -2.568805e-10
1.079285e-08 -3.495646e-08 7.251147e-09 7.299428e-11 2.846354e-10 -7.955930e-10
-3.292699e-09 1.921015e-09 4.538099e-10 1.441654e-09 8.575784e-11 -2.115530e-10
-8.728417e-09 3.831405e-09 6.659349e-10 -2.585759e-09 -1.075720e-09 -7.828982e-11
-9.857808e-09 2.834998e-09 1.389906e-09 -9.904739e-10 -2.952816e-10 -2.739222e-10
-2.709940e-09 3.100618e-09 -1.004505e-10 -2.529626e-09 -1.901685e-10 -2.959365e-10
-1.248424e-10 1.254288e-09 -3.624216e-10 -2.349593e-09 -3.720469e-10 5.336820e-11
-8.962359e-09 4.781969e-09 1.196581e-09 -1.907359e-09 -1.728708e-10 -6.561011e-10
-3.821873e-09 3.402396e-09 -7.352541e-11 -1.524644e-10 -3.665290e-12 -2.153491e-11
-1.895218e-08 8.085635e-09 -9.757995e-09 1.406586e-08 3.515068e-09 -5.909589e-10
-2.614653e-09 2.565079e-09 -3.425016e-11 -2.495887e-09 -2.764797e-10 7.314593e-12
-2.108454e-09 2.727006e-09 -1.830266e-10 -2.224383e-09 -3.658446e-10 -1.573361e-10
-1.002635e-08 -1.051878e-09 -4.470864e-10 -1.211392e-08 9.136194e-10 -7.818837e-10
-5.507656e-09 2.965891e-09 6.465584e-10 6.241732e-10 1.518412e-10 -5.434697e-11
-6.758105e-09 -3.769945e-09 3.100672e-09 -5.803793e-09 1.083630e-09 -2.545051e-10
-8.594443e-09 -3.478327e-09 2.343742e-09 -5.526169e-09 8.488745e-10 -4.732441e-10
1.039410e-08 -4.418592e-08 9.542953e-10 -1.564494e-08 -1.173649e-08 -3.017397e-09
-5.121009e-09 2.883771e-09 7.493099e-10 3.100815e-10 1.363509e-11 -2.209004e-10
-5.374866e-09 -8.217222e-09 -3.907203e-09 -1.204937e-08 -4.451501e-09 -2.439383e-09
-7.823080e-09 2.609079e-09 1.730919e-09 2.650649e-10 -3.774714e-11 -1.497003e-11
-7.788504e-09 2.801968e-09 1.627011e-09 1.184178e-10 8.888046e-11 -2.311810e-10
-8.335738e-09 8.987637e-10 2.175457e-09 8.163612e-10 4.630965e-11 -4.675687e-10
-7.434824e-09 -1.186458e-09 2.651603e-09 -7.090966e-10 7.417084e-11 -8.633414e-10
-3.616093e-10 -1.763993e-08 -8.370717e-09 -9.394025e-09 -6.193165e-09 -2.441050e-09
-7.434650e-09 -5.351590e-10 2.640516e-09 -1.494868e-10 1.570023e-10 -6.902260e-10
-7.959399e-09 9.339818e-10 1.915849e-09 5.066728e-10 4.179421e-10 -8.604223e-10
2.198484e-08 -5.968665e-08 4.536430e-09 -7.666676e-10 -3.978644e-09 4.805702e-10
-5.887862e-09 -3.924724e-09 -1.027700e-08 -1.316694e-08 -1.064093e-08 -3.951509e-09
2.568533e-08 -4.879619e-08 -1.180368e-08 4.041953e-10 -8.233641e-09 7.181101e-10
-1.567840e-08 1.929509e-09 -1.548070e-09 -3.102179e-09 -1.275201e-09 -1.341757e-10
2.095029e-08 -6.387035e-08 -1.192125e-10 -6.145177e-09 -1.776416e-08 -4.083412e-10
3.058424e-09 -3.018543e-08 8.369273e-09 1.945627e-09 -2.736419e-10 8.208338e-10
3.586340e-10 -1.884035e-08 -7.191783e-09 -6.643487e-09 -3.997580e-09 -1.431941e-09
-7.944003e-09 -1.467722e-08 -5.979312e-09 -1.202080e-08 -1.185998e-08 -3.622277e-09
7.848658e-09 -1.140188e-08 -2.758259e-08 -1.643696e-08 -1.555837e-08 -2.671149e-09
-2.538895e-08 1.538632e-08 -2.470564e-09 2.503348e-08 1.265738e-08 -9.842803e-09
-1.039404e-08 6.927170e-10 -1.000347e-08 -1.504831e-08 -1.565506e-09 -2.348095e-09
-8.079816e-09 3.353501e-09 1.591242e-09 6.269880e-10 2.296963e-11 -1.922179e-10
-7.924605e-09 3.226756e-09 1.467184e-09 9.188838e-11 7.427875e-11 -8.602141e-11
-8.760165e-09 -1.785232e-09 2.591960e-09 -7.453569e-10 -3.367808e-10 -1.221333e-09
-8.215412e-09 3.019486e-09 1.641085e-09 3.644254e-10 8.975376e-11 -6.614132e-11
-7.961703e-09 3.740478e-09 1.293373e-09 4.400374e-11 5.035972e-11 -9.677664e-11
-7.680823e-09 2.958174e-09 1.630354e-09 5.137979e-10 1.298446e-10 -3.336866e-10
7.299122e-09 -1.504987e-09 1.397657e-08 1.843113e-08 -2.200816e-09 -7.124189e-09
-8.180629e-09 2.353602e-09 1.885920e-09 3.028269e-10 8.480836e-11 -3.399568e-10
6.064692e-09 -3.668740e-09 -8.685884e-10 1.779189e-09 4.037400e-10 2.103449e-10
1.573142e-08 -6.967587e-09 -9.447292e-10 3.042963e-09 2.662639e-10 1.742127e-10
-8.077647e-09 3.094820e-09 1.610592e-09 5.642573e-10 -7.103407e-11 1.289231e-10
-7.140593e-09 3.399036e-09 1.275662e-09 3.894107e-10 6.567756e-11 -1.689272e-10
5.020638e-09 1.314130e-09 4.971337e-10 1.073677e-08 3.461200e-10 6.052279e-10
1.151069e-09 -4.851382e-10 -1.706038e-10 7.219891e-11 7.572898e-11 -1.505129e-12
-7.629340e-09 3.255739e-09 1.280888e-09 9.201439e-10 -1.990119e-11 1.676508e-10
-3.084224e-09 1.896064e-09 3.947755e-10 5.395595e-11 4.589618e-11 1.146550e-11
2.590769e-08 -4.286250e-09 1.209634e-08 -2.415050e-08 -5.968433e-10 4.215130e-09
-3.249378e-08 2.629911e-08 -3.398707e-09 1.540254e-08 9.407239e-09 -1.144400e-08
2.565387e-08 5.724225e-09 -3.174186e-09 -1.339108e-08 -5.293188e-10 -5.264214e-10
6.353922e-08 -1.621784e-08 -8.625321e-09 1.617969e-09 5.844960e-10 2.813919e-09
4.302774e-08 -3.799775e-09 -1.028115e-08 2.745557e-09 5.403518e-10 5.234230e-10
-8.278702e-09 2.662293e-09 1.773771e-09 3.796115e-10 6.403322e-11 -3.617610e-10
-5.048528e-09 2.754527e-09 6.735239e-10 4.819665e-10 -1.026748e-10 -1.575184e-12
1.003516e-08 1.918288e-08 -4.065476e-09 -1.675013e-08 -4.597902e-10 -1.389688e-09
4.731675e-09 -2.992776e-09 -6.199414e-10 2.167062e-10 3.028400e-11 -2.954925e-11
2.541596e-08 -1.638793e-09 1.210218e-08 -2.358438e-08 8.953722e-10 -4.032094e-10
-2.033538e-10 1.867333e-10 -2.570300e-11 4.502887e-11 3.976631e-10 -3.429612e-11
4.492135e-08 -1.731460e-08 1.892463e-08 -2.831674e-08 -9.331717e-09 2.694223e-08
8.428343e-09 -4.782901e-09 -1.182631e-09 2.183547e-09 2.446623e-10 3.585372e-10
8.886119e-09 -5.325257e-09 -1.102326e-09 -1.616887e-12 1.249252e-10 5.214729e-11
1.550866e-08 1.686622e-08 -6.151992e-09 -1.905631e-08 -2.246174e-09 -2.299387e-09
-1.588273e-09 -2.526399e-08 8.524220e-09 1.701647e-09 -4.929609e-11 -1.055562e-10
-2.330180e-09 -2.561000e-08 9.007182e-09 2.006262e-10 8.881784e-16 -1.071498e-11
-1.725196e-09 -2.745311e-08 8.843934e-09 1.021613e-09 -2.020415e-10 1.220498e-10
2.684492e-09 -2.547373e-08 4.252406e-09 4.836187e-10 -1.621586e-09 -7.405468e-10
-1.982892e-09 -2.723349e-08 8.340542e-09 4.596210e-09 -1.807165e-11 -2.031069e-10
-2.808646e-09 -2.482657e-08 8.616284e-09 4.490493e-10 2.654255e-10 -2.408602e-10
-3.221297e-09 -2.425801e-08 7.978424e-09 1.724598e-09 2.984200e-10 1.979898e-10
-1.525140e-09 -2.614442e-08 8.679149e-09 6.483098e-10 -2.081679e-12 1.815965e-10
-6.556492e-09 -8.350102e-09 3.270735e-09 6.342943e-10 7.978761e-11 -1.036096e-09
-2.803106e-09 -2.377815e-08 6.742824e-09 5.742921e-09 2.609347e-09 -8.860390e-10
-9.190569e-10 -2.572162e-08 8.313553e-09 5.928115e-09 1.272837e-10 -1.420400e-10
-2.926042e-09 -2.565217e-08 8.310381e-09 3.866176e-09 1.441258e-10 3.527833e-11
-5.680491e-09 -2.376512e-08 7.216549e-09 7.860310e-09 7.231580e-10 -2.404474e-10
-2.114192e-08 1.373001e-08 -7.420293e-09 1.023223e-08 -3.240406e-10 -5.506791e-10
-1.467832e-09 -2.842022e-08 7.588581e-09 7.234243e-09 7.802066e-10 -2.542484e-10
-3.912037e-09 3.852584e-09 3.885003e-11 -2.649866e-10 -1.113976e-10 -8.587545e-11
7.043334e-09 -2.921719e-08 6.522712e-09 -3.489588e-10 2.959275e-10 -4.829713e-10
-4.804908e-09 4.488308e-09 1.047129e-10 -1.843508e-10 -1.056591e-10 4.420242e-11
-8.086613e-09 3.376554e-09 1.413630e-09 4.346994e-10 -7.735257e-11 -1.728995e-11
2.507417e-08 -4.740029e-08 -1.106688e-08 -1.718716e-09 -1.583524e-09 -1.164395e-09
-5.435728e-09 4.575890e-09 2.170744e-10 -4.896330e-10 -5.408074e-11 -2.204247e-11
-4.595494e-09 4.243323e-09 8.633294e-11 -8.067966e-10 -1.662584e-10 -5.274659e-11
-6.274295e-09 -4.467109e-09 3.266257e-09 1.398583e-10 -2.884981e-11 -4.529097e-10
-5.500008e-09 4.671170e-09 2.752389e-10 -8.372663e-10 -9.302220e-11 -1.253167e-10
-6.691820e-09 3.646660e-09 9.396794e-10 -2.700884e-11 -4.660583e-11 2.517515e-21
-4.397490e-09 4.130805e-09 1.766960e-10 -2.012233e-09 -7.772205e-11 -1.536975e-10
-4.733834e-09 4.279097e-09 1.999210e-10 -1.163646e-09 -3.376677e-11 -1.502576e-11
-3.481983e-09 3.752173e-09 2.496869e-11 -1.846734e-09 -4.925153e-11 -1.014063e-10
1.593823e-08 -4.752485e-08 4.142042e-09 7.536640e-10 -2.678058e-09 1.628792e-10
2.378996e-08 -5.637953e-08 4.079611e-09 4.677851e-10 -2.383165e-09 7.661032e-10
-4.344657e-09 4.306713e-09 1.764588e-10 -1.874550e-09 -4.325862e-11 -7.559009e-11
-5.225563e-09 4.118788e-09 1.605329e-10 -1.872325e-09 -1.529555e-10 -1.369402e-10
-5.652997e-09 -5.734648e-09 3.622387e-09 2.749390e-10 8.387879e-11 -9.365584e-10
-7.518515e-09 -1.289461e-09 2.712020e-09 7.566525e-11 -9.558798e-12 -4.132550e-10
-8.139676e-09 2.237239e-09 1.900792e-09 9.900702e-11 1.678289e-10 -4.614198e-11
-7.276649e-09 3.094376e-09 1.253564e-09 9.379666e-10 7.843048e-11 -1.963626e-10
-7.089534e-09 2.821766e-09 1.283076e-09 9.695418e-10 -9.263479e-12 -1.779403e-10
-7.322578e-09 3.740738e-09 1.143116e-09 3.493783e-10 -7.985834e-12 2.582467e-11
-7.482185e-09 4.009250e-09 1.044218e-09 3.175042e-10 1.075690e-10 -1.710465e-10
-8.002285e-09 3.884385e-09 1.295479e-09 2.091514e-10 1.044465e-11 -1.075102e-10
-7.385443e-09 3.923118e-09 1.081179e-09 3.290150e-10 5.248735e-11 -2.115796e-11
-7.332376e-09 3.365907e-09 1.205563e-09 4.460393e-10 -5.054157e-11 -1.013589e-11
-7.890754e-09 3.579363e-09 1.310744e-09 4.768269e-10 -4.012213e-11 3.267314e-11
-7.218393e-09 3.700681e-09 1.095660e-09 3.746871e-10 2.821743e-11 -7.245327e-11
-6.724100e-09 3.417207e-09 1.071466e-09 7.120577e-10 1.354158e-10 -2.626741e-10
5.968984e-08 -4.420239e-08 4.809428e-08 -1.244405e-08 -9.408854e-09 2.692360e-08
4.734986e-08 4.830212e-09 -1.352777e-08 1.388987e-08 3.271001e-10 2.511450e-09
7.493310e-08 -1.127173e-08 -1.265157e-08 3.459004e-08 1.911908e-08 2.729010e-08
6.977770e-08 -3.293063e-08 1.366730e-08 -1.201974e-09 -1.118884e-09 1.190243e-08
-1.569276e-08 2.002351e-08 -4.116464e-09 3.367039e-09 7.107650e-09 -1.515468e-09
5.489336e-08 -2.045918e-08 4.491487e-09 1.311999e-08 5.586207e-10 1.061276e-08
-1.612944e-08 2.641998e-08 -1.377343e-08 -6.059257e-09 -1.517083e-08 -1.496194e-08
6.419337e-08 -3.600387e-08 4.450007e-08 3.269517e-09 -1.157394e-09 1.601301e-09
2.145632e-08 -5.644551e-08 4.400893e-09 4.957321e-10 -3.393656e-09 3.379414e-10
2.442662e-08 -5.815068e-08 4.241989e-09 -3.212488e-10 -2.418179e-09 1.362685e-12
5.084222e-08 -3.656820e-08 3.270773e-08 1.498195e-08 6.202766e-10 5.183993e-09
1.756056e-08 1.274128e-08 -8.407349e-09 2.566605e-08 3.251826e-09 -1.561922e-09
5.229526e-08 -2.152942e-08 3.270773e-08 2.057237e-08 -1.226223e-09 4.874047e-09
5.258426e-08 -1.368298e-08 -9.391443e-11 1.548073e-08 1.628252e-09 6.438654e-09
9.740335e-09 -3.401524e-08 7.101694e-09 -3.727176e-10 2.379608e-10 -3.561638e-10
5.442215e-09 -2.559228e-08 6.143441e-09 -1.061347e-10 1.955307e-10 -1.278292e-09
8.522234e-08 -3.661496e-08 2.956630e-08 -1.265552e-08 -8.785379e-09 4.878084e-08
7.341455e-08 -3.409840e-08 4.409506e-08 -5.227624e-09 -1.941270e-09 4.520771e-08
6.481025e-08 -2.628059e-08 8.299644e-09 1.391222e-08 5.849553e-09 1.029183e-08
-8.403684e-09 -4.527850e-09 3.039903e-09 -1.469336e-10 2.234990e-11 -7.398809e-10
5.121785e-08 -2.154352e-08 2.513437e-09 1.635371e-08 -3.052251e-09 5.169530e-09
-8.211547e-10 -2.839793e-08 8.014749e-09 4.454212e-09 1.028369e-10 1.043577e-13
3.372769e-10 -2.751925e-08 8.649837e-09 3.873073e-10 1.058157e-10 4.681457e-10
-5.782173e-09 3.406680e-09 7.324918e-10 -4.011103e-11 2.225620e-11 -1.755207e-11
1.254138e-09 -3.014662e-08 8.613216e-09 2.153500e-09 -4.533862e-11 4.430261e-12
2.174043e-10 -2.910530e-08 8.909906e-09 4.779714e-10 1.609508e-10 -8.845734e-11
-1.781522e-09 -2.487646e-08 7.499632e-09 6.609170e-09 1.721465e-10 1.517737e-10
-2.935959e-09 -2.397604e-08 8.274016e-09 9.772627e-10 1.695958e-10 -7.398473e-12
-5.697890e-10 -2.640346e-08 8.461574e-09 5.264330e-10 -1.409561e-10 2.193707e-10
-1.433441e-10 -2.706256e-08 8.852056e-09 2.613074e-09 -8.083622e-11 -1.610580e-10
-1.917178e-09 -2.071143e-08 -6.229065e-09 -3.715313e-09 -1.959646e-09 -9.715938e-11
-4.798672e-09 4.736278e-09 2.119012e-10 -9.082104e-10 -6.059231e-11 -1.199669e-10
-5.336844e-09 4.842271e-09 2.392739e-10 -5.635226e-11 -7.860823e-12 2.176037e-11
7.767063e-09 -4.687035e-09 -9.104463e-10 4.215922e-11 2.293045e-10 4.000716e-11
4.126026e-09 -2.458526e-09 -4.777672e-10 7.410894e-11 3.088488e-10 8.741230e-12
-5.870726e-09 4.861038e-09 2.870402e-10 -8.339507e-10 -1.498116e-10 -2.594634e-10
-5.381002e-09 4.818955e-09 1.956331e-10 -7.415566e-10 -9.363277e-11 -3.510817e-10
-7.127299e-09 3.948083e-09 9.226699e-10 3.930578e-12 1.130165e-10 -3.570866e-11
-7.365550e-09 3.857643e-09 1.107664e-09 3.553415e-10 3.201017e-11 3.806821e-11
-6.741471e-09 3.788465e-09 9.581371e-10 2.246199e-10 5.458656e-11 1.552056e-10
-7.437726e-09 4.055799e-09 1.083155e-09 7.224665e-11 2.450373e-11 -1.343636e-11
-6.154887e-09 3.460971e-09 8.790377e-10 3.027505e-10 4.169553e-12 -9.898016e-11
-7.355554e-09 3.685791e-09 1.073100e-09 5.966438e-10 1.878327e-10 -1.629435e-10
5.667890e-08 -7.874968e-09 -9.920709e-09 3.500199e-11 1.800326e-09 5.152861e-09
-9.733285e-09 3.522587e-10 2.531596e-09 -5.738305e-10 -5.378697e-11 -8.807205e-10
-6.602619e-09 3.495353e-09 9.521131e-10 3.821556e-10 4.757328e-11 -9.463985e-11
-5.853295e-09 3.333660e-09 8.936869e-10 8.114368e-10 -2.100268e-12 1.063388e-10
-6.999074e-09 3.587413e-09 1.008380e-09 4.734955e-10 -5.831557e-11 7.876055e-11
1.157262e-08 -3.720834e-08 7.484856e-09 -9.348078e-12 2.117260e-10 -3.671604e-10
-1.171143e-10 1.489515e-10 -1.064686e-10 5.759684e-10 2.291860e-10 7.733769e-11
8.398350e-09 -3.073350e-08 6.734018e-09 -8.223533e-11 2.763785e-10 -1.064529e-09
-6.503988e-09 3.326166e-09 1.062753e-09 6.671672e-10 1.109144e-10 -1.386833e-10
-1.671687e-08 -6.520617e-09 6.718279e-10 2.532964e-08 1.287207e-08 -4.884379e-09
-2.396740e-09 1.414324e-09 2.632186e-10 5.814576e-10 6.966640e-11 -1.734657e-11
2.025524e-08 -5.265849e-08 3.793356e-09 -1.630419e-09 -9.237811e-10 -6.580689e-10
-3.795916e-09 2.237111e-09 4.576735e-10 9.169621e-10 1.482325e-11 2.691951e-10
-6.559274e-09 3.371968e-09 9.082211e-10 6.973230e-10 1.000849e-10 -1.173679e-10
-6.136117e-09 3.530656e-09 8.887149e-10 4.695089e-10 -7.130746e-11 -1.140437e-10
-6.072766e-09 3.135618e-09 9.058621e-10 8.448686e-10 -7.098764e-13 9.887358e-11
-5.840082e-09 3.127998e-09 7.654348e-10 4.687222e-10 1.108314e-10 -9.956894e-11
-5.872285e-09 3.274738e-09 8.268009e-10 2.418634e-10 1.405231e-11 1.886069e-10
-8.039894e-09 5.771588e-10 2.237605e-09 2.409903e-10 -2.089995e-12 -3.648428e-10
-5.677198e-09 3.014146e-09 7.990479e-10 1.013687e-09 -1.732783e-11 9.735892e-12
-3.231614e-09 1.882968e-09 3.600764e-10 1.929013e-11 3.499467e-11 -2.339938e-10
-6.157599e-09 3.370495e-09 9.080094e-10 6.888916e-10 1.007489e-10 -1.072389e-10
-1.542425e-09 7.064493e-10 1.884461e-10 2.251740e-09 6.161000e-11 1.591467e-10
-1.064133e-08 -1.410041e-08 5.744041e-09 2.335983e-09 2.165602e-09 -7.692610e-10
-1.028560e-08 -1.702085e-08 5.639185e-09 2.682648e-09 9.963646e-10 4.857203e-11
-3.419254e-09 -1.894685e-08 3.981864e-09 1.164530e-08 2.599174e-09 -9.954100e-10
-9.678955e-09 2.558847e-09 1.938766e-09 -5.978991e-10 -6.266942e-11 -8.868448e-10
-5.802297e-09 -2.227629e-08 6.578903e-09 7.187548e-09 1.276512e-09 -5.199162e-10
-6.751300e-09 -1.904890e-08 6.587893e-09 1.837790e-09 -6.608948e-11 -4.237674e-10
-1.061698e-08 -1.420571e-08 4.906175e-09 3.101086e-09 1.547431e-10 5.329803e-11
-2.354396e-09 -2.210483e-08 5.553604e-09 9.447812e-09 1.199195e-09 1.086049e-10
-8.985026e-10 -2.361216e-08 6.079841e-09 8.756623e-09 8.613440e-10 8.700506e-11
6.083061e-09 -3.672562e-09 -6.902166e-10 6.488232e-11 2.918163e-10 2.968681e-11
-8.413240e-09 -1.864474e-08 4.051392e-09 1.186623e-08 2.804973e-09 -2.413014e-10
-5.160778e-09 -1.978346e-08 6.766480e-09 5.040651e-09 -5.385818e-11 -9.888268e-11
-3.908251e-10 -2.872081e-08 7.459769e-09 9.635407e-09 4.030010e-10 5.162275e-10
7.714299e-09 -4.238185e-09 -1.206620e-09 -2.428521e-09 -2.856119e-10 5.564179e-10
1.229092e-08 -3.962264e-08 7.922824e-09 2.824683e-10 1.583635e-10 -3.129690e-10
-1.620961e-09 2.795389e-09 -1.626033e-10 -1.028473e-09 -1.222539e-10 6.116174e-11
1.208731e-09 5.629881e-10 -4.085832e-10 -1.521779e-09 -1.503812e-10 -4.527451e-10
-2.786438e-09 3.075326e-09 -1.042864e-10 -5.823948e-10 -3.578315e-11 2.932334e-10
-8.846790e-10 1.679212e-09 -3.892029e-10 -4.452985e-10 -1.539615e-10 -1.914868e-10
-3.064637e-09 3.293930e-09 -2.468425e-11 -1.451803e-10 -8.717427e-11 -2.316578e-10
4.878938e-08 -5.280379e-09 -7.900993e-09 -8.853279e-10 -1.911637e-09 1.358089e-09
-4.877671e-09 4.269971e-09 8.420020e-11 -1.414868e-09 -8.887979e-11 -2.043962e-10
6.666630e-08 -1.588886e-08 -1.106525e-08 -3.583533e-10 -1.364378e-09 3.868661e-09
-6.114406e-09 5.094998e-09 3.822911e-10 -2.057328e-10 -4.771727e-11 -1.070892e-10
-9.265805e-09 4.380867e-09 1.399965e-09 -6.907412e-10 -3.716272e-11 -8.335628e-10
-4.116634e-09 3.798352e-09 5.694112e-11 -1.722453e-09 -2.184774e-10 -1.150863e-10
-4.114517e-09 3.836156e-09 1.314939e-10 -1.354192e-10 -4.668799e-11 -6.259548e-11
-9.416002e-09 1.655620e-09 2.127937e-09 -8.317769e-10 -2.479813e-10 -1.123922e-09
-4.334350e-09 3.529027e-09 1.557992e-10 -1.970654e-09 -2.140820e-10 -1.185807e-10
-8.047024e-09 -2.036454e-08 -2.506297e-09 -1.282323e-08 -1.019262e-08 -3.588005e-09
-4.441832e-09 -2.034515e-08 9.487660e-10 -1.221546e-09 -1.471267e-09 -3.820930e-10
-4.975917e-09 -1.013811e-08 -7.733604e-09 -1.939943e-08 -8.653655e-11 6.567666e-10
2.504827e-08 -4.166208e-08 -1.472916e-08 -5.106180e-09 -2.495243e-09 2.568105e-10
1.861986e-09 -1.105513e-09 -2.618732e-10 4.776179e-11 3.371455e-10 -2.159195e-11
1.122174e-08 -3.028676e-08 -1.159977e-08 -7.004084e-09 -4.816541e-09 -1.805145e-09
-1.775955e-08 3.943345e-09 -1.669093e-09 -3.755410e-09 -2.336829e-09 -1.145920e-09
1.142911e-08 -3.974219e-08 8.214099e-09 6.690973e-10 1.610707e-10 -2.615638e-10
-1.813752e-08 4.141461e-09 -2.443784e-09 -5.717072e-09 -5.531570e-09 -9.778202e-10
-1.952094e-09 -8.887758e-09 -1.054953e-08 -1.172084e-08 -6.514994e-10 -1.130442e-09
-1.328200e-08 3.941568e-09 -4.624681e-09 -8.310022e-09 -2.549945e-09 -1.337435e-09
-7.276430e-09 -5.287113e-09 -1.129608e-08 -1.329422e-08 -1.288670e-09 -8.531744e-10
-6.815917e-09 -1.045117e-08 -8.828029e-09 -9.030687e-09 -2.494995e-09 -1.208539e-10
-8.125911e-09 4.151071e-10 2.446850e-09 3.436580e-10 1.338041e-12 -1.635614e-10
-8.043038e-09 1.859185e-09 2.123904e-09 5.222407e-10 2.191731e-10 1.118667e-10
-1.102855e-08 -2.508967e-09 -1.019329e-08 -1.198710e-08 -6.661725e-09 -1.940458e-09
-1.905688e-08 1.451401e-08 -3.928602e-09 -1.673945e-08 -1.371787e-08 -9.841251e-09
-1.520090e-08 -5.015416e-09 1.379810e-09 -4.170767e-09 -3.927376e-09 -1.069067e-09
-7.664460e-09 -9.652075e-10 2.589970e-09 -2.746081e-09 -1.330247e-10 4.453994e-12
-7.849248e-09 1.706951e-09 2.127616e-09 6.686383e-10 1.938472e-10 -4.248316e-10
-6.902959e-09 -2.869531e-09 3.086096e-09 -2.062527e-09 7.328758e-10 -1.345837e-10
-7.674670e-09 1.963471e-09 1.929057e-09 4.096840e-10 1.717346e-10 1.057101e-10
-8.140347e-09 -7.733192e-11 2.275847e-09 -1.139458e-09 1.787561e-10 -2.041666e-11
-1.421645e-08 5.896357e-09 -8.157533e-09 -1.041016e-08 -1.834934e-09 -2.238742e-10
-1.863629e-08 2.076151e-08 -1.255050e-08 -3.687020e-09 -5.815857e-09 -1.090529e-09
-1.715402e-08 1.914170e-08 -1.190132e-08 -4.671738e-09 -1.258624e-08 -5.319481e-09
5.639722e-09 1.987873e-08 -1.327135e-08 5.408759e-09 -1.302310e-09 -4.828456e-09
-1.382034e-08 2.719065e-08 -2.972957e-08 -9.491776e-09 -1.007251e-08 -7.094296e-09
-6.633925e-09 5.273568e-09 4.806733e-10 -5.477898e-10 -2.092082e-11 -3.324878e-10
-2.248424e-10 1.530428e-08 -7.013416e-09 -3.645449e-09 -7.649187e-09 -1.451686e-09
2.579559e-08 7.242748e-09 -9.226670e-09 -8.822335e-10 -3.639892e-09 6.027513e-10
6.667593e-08 -2.859953e-08 6.097319e-09 1.312207e-09 -2.829360e-10 6.849491e-09
6.617653e-08 -3.260583e-08 1.705678e-08 1.176850e-08 4.786718e-09 2.683797e-08
6.590466e-08 -2.315271e-08 -5.155210e-09 2.473579e-10 -2.193970e-09 2.713538e-09
6.844874e-08 -3.089641e-08 9.131520e-09 -3.946871e-11 -1.235591e-09 3.973643e-09
6.033363e-08 -1.280451e-08 -4.622664e-09 7.771782e-09 -3.884488e-11 5.269307e-09
5.393490e-08 -1.447316e-08 -3.994045e-09 -3.905486e-09 7.702932e-10 -6.923883e-10
5.260649e-08 -1.798520e-08 2.995306e-08 -2.928883e-08 -6.999272e-09 2.373218e-08
-6.297739e-09 -3.262800e-09 3.140660e-09 -1.003785e-09 1.889870e-10 -7.744243e-10
-7.888792e-09 -2.251630e-10 2.371281e-09 -8.366936e-10 1.143641e-10 3.465184e-11
-7.911710e-09 -8.747367e-10 2.666135e-09 -1.167590e-09 -8.800249e-11 1.494904e-10
-7.442102e-09 -1.529268e-09 2.813431e-09 -9.267764e-10 -1.644401e-10 -6.734074e-10
-2.236613e-09 1.348876e-09 2.205705e-10 2.260903e-11 3.550905e-10 -2.072409e-11
-1.464968e-08 1.685385e-08 -4.549755e-09 -4.946734e-09 -9.821090e-09 -2.700130e-09
-5.626939e-09 -8.399906e-09 3.635622e-09 -2.889242e-09 5.518758e-11 -1.032514e-10
-6.557321e-09 -4.846876e-09 3.815861e-09 -7.329288e-10 -6.742218e-10 -1.630740e-10
-7.495846e-09 -1.499202e-09 3.187845e-09 -1.577416e-09 1.371160e-10 2.482929e-10
-6.364410e-09 -4.712573e-09 3.735209e-09 -1.826757e-09 5.804557e-10 1.785875e-10
-6.970634e-09 -2.850824e-09 2.919230e-09 -2.910190e-09 -4.074008e-10 -5.309242e-10
2.192679e-08 4.166867e-08 -2.444350e-11 -3.740825e-08 -1.426452e-08 8.704773e-09
-2.857864e-08 2.420551e-08 -7.477699e-09 1.773965e-08 1.341572e-08 -1.382881e-08
-2.600587e-08 1.390319e-08 -3.333966e-09 1.805232e-08 1.582680e-08 -7.820520e-09
-2.099975e-08 2.121569e-08 -1.178566e-08 1.858596e-08 1.314306e-08 -9.380775e-09
1.309023e-08 -4.163926e-08 7.520612e-09 4.221973e-09 6.884892e-10 3.810994e-10
-8.187619e-09 2.191775e-09 1.870457e-09 -1.681526e-10 3.431816e-11 -5.068561e-10
-7.380780e-09 2.194504e-09 1.607953e-09 6.142876e-10 1.474574e-10 -2.482016e-10
-3.044973e-08 2.885190e-08 -7.242627e-09 1.632931e-08 1.150632e-08 -1.457838e-08
-2.289194e-08 -4.982983e-09 -1.965930e-09 2.888660e-08 1.639445e-08 -9.023476e-09
-2.238304e-08 1.397618e-08 4.134906e-10 8.603457e-09 7.168175e-09 -4.115795e-09
1.673096e-08 -5.224482e-08 4.347831e-09 -1.365089e-09 -3.536519e-09 -7.717547e-11
1.889543e-08 -1.338975e-09 7.543395e-09 -2.517286e-08 6.550161e-09 -5.467916e-09
4.634355e-09 -3.264271e-08 2.648950e-09 -6.735857e-09 -3.242859e-09 -1.097246e-09
1.710303e-08 -8.002611e-09 1.633989e-08 -2.136255e-08 2.296925e-09 -2.361169e-10
-2.835556e-08 6.169112e-08 2.386771e-08 2.365644e-08 2.253221e-09 7.342597e-09
-6.818603e-08 4.106822e-08 1.707559e-07 4.066696e-08 -7.679800e-08 -4.631423e-08
-4.105039e-08 3.416982e-08 5.177684e-08 2.531196e-08 -4.249652e-08 -8.639514e-09
-9.716584e-09 -1.206467e-08 4.287165e-09 1.706259e-08 5.595722e-09 -1.839826e-09
-1.758260e-08 -2.908210e-09 2.517008e-09 1.493674e-08 8.083404e-09 -2.384966e-09
-1.032297e-08 -1.605678e-08 -2.854734e-09 2.150123e-08 9.929243e-09 -2.858943e-09
-9.245994e-09 3.735352e-09 1.620199e-09 -8.378436e-10 -1.765778e-10 -1.024301e-09
-8.669519e-09 4.793807e-09 1.210740e-09 -7.827652e-10 -1.388927e-10 -8.139873e-10
-1.506096e-08 -6.156910e-09 -2.486836e-09 2.137307e-08 9.451186e-09 -4.874125e-09
-1.270303e-08 -1.605679e-08 -7.735101e-11 2.216494e-08 9.080191e-09 -2.422120e-09
-1.650273e-08 -1.134372e-08 8.874932e-10 2.471483e-08 1.161832e-08 -5.442212e-09
-2.117805e-08 2.360574e-08 -1.420850e-08 -1.137662e-08 2.290758e-09 3.900542e-09
-1.879758e-08 1.517700e-08 -1.991441e-08 -2.120640e-08 8.571465e-09 7.353632e-09
-2.266175e-08 1.607900e-08 -2.876067e-08 -2.536530e-08 1.261517e-08 1.396908e-08
1.185995e-08 -3.874073e-08 8.038179e-09 5.376717e-10 4.016143e-10 -2.808718e-10
1.047397e-08 -3.789922e-08 8.212330e-09 7.362060e-10 3.699583e-10 2.508172e-11
-2.259354e-08 4.458920e-09 -6.802860e-10 1.758554e-08 1.258901e-08 -4.691768e-09
-2.121806e-08 2.124690e-08 -9.131900e-09 4.659413e-09 3.319048e-09 -9.633307e-10
-2.119114e-08 6.428755e-09 9.442145e-10 2.447752e-08 1.034537e-08 -6.714644e-09
-7.822835e-09 5.267767e-09 8.504535e-10 -6.763026e-10 -1.153875e-10 -6.013293e-10
-2.662786e-08 1.539786e-08 -1.682252e-09 2.411103e-08 1.327288e-08 -1.003049e-08
9.415827e-09 2.860542e-09 4.964159e-09 -2.373916e-08 2.618059e-09 -7.708515e-10
1.167414e-08 7.232482e-09 3.906511e-09 -2.707809e-08 2.031778e-09 3.939319e-10
9.583847e-09 1.480345e-08 5.523201e-09 -3.229019e-08 5.985673e-09 -2.321873e-09
-3.946066e-09 1.879206e-08 -7.469556e-09 -2.082396e-08 -4.772683e-10 6.269813e-09
-4.007009e-08 9.920244e-08 -8.797936e-08 1.980563e-09 -1.671648e-08 -3.256035e-09
-4.033054e-09 2.390478e-09 4.644807e-10 -1.196598e-11 2.518795e-10 -3.310707e-11
-5.824593e-08 3.472775e-08 1.708576e-07 3.670742e-08 -4.699889e-08 -1.894881e-08
-1.565862e-08 9.745748e-08 -7.395096e-08 1.414948e-08 1.232612e-08 2.734680e-08
1.590290e-08 -6.713451e-09 6.025751e-09 1.104234e-08 -1.518345e-09 -2.763362e-09
1.960300e-08 -1.127608e-08 1.488951e-08 9.989368e-09 1.102356e-10 -5.379513e-09
1.782637e-08 -8.908734e-09 1.267280e-08 1.235113e-08 -2.700670e-09 -4.685686e-09
-3.231134e-09 1.739339e-09 2.036691e-10 1.758856e-09 2.916023e-11 -4.186820e-10
-3.444640e-09 2.094267e-09 4.773586e-10 1.924569e-09 -5.899228e-11 -6.561018e-11
7.924362e-09 -3.548653e-08 8.366203e-09 8.512722e-10 3.365208e-10 1.437360e-10
-9.462524e-09 4.484187e-09 1.168455e-09 -3.278624e-09 -5.146846e-10 -7.152904e-10
-1.005853e-08 3.723610e-09 1.140551e-09 -1.070116e-09 -1.751334e-10 -3.564478e-10
-9.492973e-09 3.861682e-09 8.255761e-10 -2.089929e-09 1.501865e-11 1.924758e-10
1.654895e-08 1.800743e-08 -1.096035e-08 1.083262e-08 -1.053804e-09 -3.323680e-09
-4.649880e-09 -4.925290e-09 -1.930769e-09 -1.474445e-08 5.489964e-11 4.168923e-10
-2.071723e-08 1.381348e-08 -2.747798e-09 -4.991234e-09 -1.016248e-08 -2.280531e-09
1.683538e-08 2.310232e-08 -1.156649e-08 2.620235e-08 -1.222050e-09 -9.472676e-10
9.916853e-09 -4.039888e-08 8.048516e-09 5.439999e-09 9.282281e-10 -4.304822e-10
1.589099e-08 -4.354993e-08 4.581771e-09 9.184310e-11 2.143330e-10 -2.959099e-11
1.536074e-08 -4.131132e-08 5.437231e-09 4.425856e-10 3.361311e-11 1.329896e-10
-5.123882e-09 2.783506e-08 3.418705e-09 -3.176191e-08 2.798908e-09 7.478865e-09
-1.871550e-09 3.040169e-08 -1.512781e-08 -3.107773e-08 -1.616354e-09 1.093695e-08
4.238163e-09 2.594181e-08 -1.310973e-09 -3.322245e-08 -2.601048e-09 4.524388e-10
-8.415321e-09 2.504049e-09 1.809977e-09 1.606701e-10 -3.636391e-11 -3.717725e-10
1.269787e-08 -3.028656e-09 3.669627e-08 -2.750047e-08 6.899026e-09 -1.225224e-08
-8.107966e-09 3.053698e-09 1.442795e-09 7.012713e-10 1.997775e-10 -4.100570e-10
-8.156439e-09 3.140497e-09 1.573476e-09 -5.040990e-11 2.046463e-11 -3.865152e-10
-8.155696e-09 1.506868e-09 2.113099e-09 3.888725e-10 7.415557e-11 -5.039965e-10
4.247026e-09 1.506509e-08 5.660826e-09 -3.361928e-08 5.767124e-09 1.982801e-10
3.569383e-08 1.100463e-07 -1.671536e-07 -9.647250e-09 5.222628e-08 5.627837e-09
7.575351e-09 1.073627e-07 -1.202052e-07 6.234068e-10 1.296060e-08 4.000800e-09
1.510702e-08 9.900274e-08 -1.016712e-07 -8.738649e-09 1.416017e-08 1.906226e-08
1.089670e-08 -2.543895e-08 -1.321052e-08 -1.437502e-08 -1.571680e-08 -3.144607e-09
-7.465231e-09 9.938510e-08 -9.383149e-08 1.603440e-08 2.429327e-08 7.121002e-09
-9.529595e-09 1.515251e-07 -1.155520e-07 -5.537061e-09 -1.470766e-08 -3.824297e-09
-2.582516e-09 1.371315e-09 1.659097e-10 1.803047e-09 2.344769e-10 -9.087753e-11
-1.016689e-08 4.189358e-09 1.414868e-09 -1.822069e-09 -2.100804e-10 -6.753108e-10
-1.644702e-08 -5.637666e-09 4.520595e-09 3.458991e-09 3.746028e-09 -6.046452e-10
-8.579850e-09 4.357888e-09 5.194307e-10 -3.446748e-09 -3.522936e-10 1.151034e-10
6.361571e-10 -1.529068e-08 -1.487979e-10 -1.435631e-08 1.290816e-10 4.043555e-10
-7.654605e-10 3.775681e-08 -1.064994e-08 2.854817e-08 2.283902e-09 -6.228147e-09
1.283721e-08 -4.136929e-08 7.273220e-09 1.269442e-09 5.976191e-10 -3.109619e-10
1.662533e-08 -4.378017e-08 2.378718e-09 2.031745e-09 -7.838512e-10 -8.385144e-11
-4.965397e-10 4.502190e-10 -1.151577e-10 1.728223e-09 -6.259416e-11 -7.636780e-11
2.529337e-09 -1.050142e-09 -2.977787e-10 3.513327e-09 1.380259e-10 4.430532e-10
-9.191989e-10 4.506964e-10 -3.053202e-11 1.794686e-09 -2.127498e-11 -1.362781e-10
-1.013808e-08 4.107591e-09 1.178051e-09 -1.876405e-09 -9.489982e-10 -5.197318e-10
1.096756e-08 -4.126357e-08 3.050972e-09 -2.053321e-09 -1.590357e-09 2.202964e-10
-1.031659e-08 3.980987e-09 -1.039318e-09 -1.667055e-09 -1.454087e-09 2.747456e-10
4.400493e-09 -3.906220e-08 2.502897e-09 -1.051910e-08 -1.161296e-08 -1.411977e-09
-2.652444e-09 2.680075e-09 -1.276277e-10 -2.553090e-09 -7.098566e-11 -2.695835e-10
-8.375862e-09 -6.683873e-09 2.163878e-09 4.174911e-09 -2.224437e-09 -5.767625e-10
4.390518e-08 -1.107808e-08 2.513438e-09 1.302530e-08 3.683693e-10 1.022353e-09
1.649340e-08 -1.148159e-08 5.545649e-08 5.155327e-08 1.833710e-08 1.412024e-08
2.369078e-08 -1.030826e-09 9.211394e-09 2.676958e-08 4.723983e-09 3.260343e-09
-8.227627e-09 3.035368e-09 1.554442e-09 2.393565e-10 3.411094e-11 -1.914233e-10
1.295623e-08 -4.022322e-08 6.223173e-09 -2.666712e-10 8.182520e-10 -2.629887e-10
9.806808e-09 -3.379982e-08 6.874073e-09 -1.827773e-09 -5.495901e-10 -7.769616e-10
-2.096935e-08 1.289339e-08 -3.061245e-09 -4.498403e-09 -1.069962e-08 -1.994023e-09
-2.125030e-08 9.030896e-09 -2.896243e-10 -4.094328e-09 -8.344881e-09 -1.534774e-09
-1.601955e-08 7.029600e-09 -1.143683e-08 -7.457858e-09 -3.339982e-09 -5.637656e-10
7.296332e-09 -3.528896e-08 8.172527e-09 8.249386e-10 3.354869e-10 -2.058657e-10
-1.369991e-08 -1.112935e-08 2.011871e-09 1.186852e-08 3.895233e-09 -9.176031e-10
4.755841e-09 -3.193711e-08 8.386155e-09 8.848784e-10 3.061026e-10 3.831678e-10
-1.879882e-08 1.498386e-08 -1.079134e-08 1.307679e-08 4.270172e-09 -2.694627e-09
-1.000774e-09 -2.745096e-08 4.383465e-09 -1.620289e-09 -2.248904e-09 -2.523580e-10
1.347233e-09 -2.682547e-08 8.196831e-09 2.968022e-09 -5.704867e-11 -5.108642e-11
-9.098078e-09 4.689374e-09 1.223734e-09 -1.679801e-09 -2.335889e-10 -4.795583e-10
-6.280235e-09 5.151010e-09 5.790812e-10 -4.733004e-10 8.038681e-12 -6.169237e-11
1.340193e-08 -4.516458e-08 2.072365e-09 -6.220645e-09 -3.651912e-09 -1.108286e-09
-7.271537e-09 5.169987e-09 7.344263e-10 -5.629903e-10 1.524558e-12 -9.364709e-11
-6.460011e-09 5.114217e-09 5.027054e-10 -4.415028e-10 1.951828e-11 -6.391732e-11
-6.926816e-09 5.153310e-09 6.340737e-10 -4.893375e-10 -5.016221e-11 -2.139378e-11
-6.015029e-09 -1.006093e-08 1.721131e-09 -1.032844e-08 -2.217843e-11 1.628835e-10
-6.808299e-09 1.993202e-09 1.541448e-09 1.028607e-09 -1.475121e-11 -5.833122e-11
-7.779572e-09 1.121201e-09 2.097040e-09 3.637785e-10 -1.267986e-10 -2.370477e-10
-8.439461e-09 6.557404e-10 3.098095e-10 -9.727969e-09 -2.884241e-10 1.404023e-10
3.283932e-09 -2.320454e-08 5.361536e-09 -5.678718e-09 2.190350e-10 -3.486629e-10
9.773885e-09 -3.218842e-08 1.423375e-09 -1.066322e-08 -4.804113e-11 4.779487e-10
-8.543007e-09 3.682786e-09 -4.377022e-09 -1.560492e-08 1.930766e-09 1.435587e-09
2.235702e-09 -2.162958e-08 4.745446e-09 -9.347896e-09 1.144840e-09 -9.438009e-10
-6.906694e-09 5.159190e-09 5.847058e-10 -5.219680e-10 -1.201086e-11 -2.521320e-10
1.460231e-08 1.981373e-08 5.886086e-09 3.728529e-08 -1.469442e-10 6.698731e-11
-7.562964e-09 5.272566e-09 7.175842e-10 -5.937992e-10 -5.029577e-11 -5.670586e-10
-6.913686e-09 5.301990e-09 5.997405e-10 -6.022431e-10 -9.268808e-11 -3.494905e-10
-5.288589e-08 9.312118e-08 -2.540900e-08 -9.741081e-09 -2.077762e-08 -1.264440e-08
-9.804184e-09 7.069934e-08 -3.179893e-08 3.505340e-08 2.167506e-08 -4.175799e-09
8.433864e-09 -2.945579e-08 3.884360e-11 -1.266136e-08 -1.024587e-09 -1.011559e-09
5.571166e-09 -3.488359e-08 8.670142e-09 1.641810e-09 6.771759e-10 -1.313547e-10
1.817025e-08 -4.759276e-08 -2.632873e-09 4.198787e-09 4.825879e-09 -4.597991e-10
1.312187e-08 -4.084923e-08 4.239391e-09 -3.623968e-09 1.264072e-09 -4.239958e-10
2.197264e-08 -4.444813e-08 -2.672078e-09 4.494850e-10 5.369015e-09 -8.093205e-10
1.755534e-08 -4.620296e-08 -2.613116e-09 -2.354593e-09 4.960972e-09 -6.136268e-10
-9.619324e-09 1.885313e-09 6.316767e-10 -3.453506e-10 -1.576021e-09 -4.719214e-11
-1.039992e-08 5.610197e-09 -2.754226e-09 -2.184648e-09 -3.630478e-10 7.112688e-14
2.219289e-09 -3.123337e-08 8.801972e-09 1.443348e-09 5.661367e-10 -1.268519e-10
-1.031678e-08 4.628235e-09 -2.273435e-09 -9.486376e-10 -2.078859e-09 9.629439e-10
-1.652912e-09 2.172724e-09 -1.816316e-10 -1.074564e-10 -2.515512e-10 -4.248539e-12
-1.662011e-09 2.551943e-09 -1.943716e-10 -2.852432e-09 6.844836e-11 -1.020894e-11
-2.025698e-08 1.150479e-08 -6.567993e-09 -2.792167e-09 -2.566368e-09 -7.167746e-10
-1.732697e-08 1.106863e-08 -8.869802e-09 -6.414915e-09 -1.048885e-10 7.648082e-11
1.982855e-09 -1.756969e-10 -4.982857e-10 -7.179975e-10 -7.280375e-11 3.083822e-11
-1.152332e-09 2.669191e-09 -1.027158e-10 -3.070226e-09 -9.923862e-11 -1.150902e-11
-9.244605e-10 2.078125e-09 -4.274237e-10 -1.949278e-09 -3.239937e-10 -3.282485e-11
9.486570e-09 -5.423386e-09 -1.325615e-09 -1.962590e-09 -2.162159e-10 3.445890e-10
8.949064e-09 -5.141174e-09 -1.145733e-09 -1.246009e-10 -1.027469e-10 3.455597e-11
1.008039e-08 -5.419368e-09 -1.413436e-09 -1.299198e-09 -1.287337e-11 3.912363e-10
1.145595e-08 -4.040896e-08 8.122554e-09 1.165486e-09 4.037770e-10 -1.787162e-10
-9.044194e-09 4.555216e-09 1.182282e-09 -1.835221e-09 -1.133849e-10 9.828756e-11
-1.217533e-09 1.589200e-09 -4.232852e-10 -3.665054e-09 -4.528242e-10 -1.017038e-10
8.921610e-10 8.851551e-10 -4.827390e-10 -3.460602e-09 -2.165574e-10 -2.089073e-10
-7.165255e-09 -1.494338e-09 -8.520074e-11 -1.255450e-08 1.079260e-09 5.657470e-10
-9.253917e-09 4.674983e-09 1.292735e-09 -7.196175e-10 -1.211806e-10 -1.868057e-10
-1.028787e-08 3.096416e-09 1.494188e-09 -1.251597e-10 2.024194e-10 -3.823243e-10
-7.301352e-09 5.092416e-09 3.392624e-10 -1.828339e-09 -2.756105e-10 -1.075399e-09
8.372451e-09 -4.307938e-09 -1.188675e-09 -1.534419e-09 -1.181719e-10 2.166760e-10
4.355762e-09 -1.552082e-09 -8.679553e-10 -3.250515e-09 -3.141495e-10 -1.959848e-10
-8.229226e-09 5.014041e-09 1.045963e-09 -1.763089e-09 -1.364364e-10 -4.686001e-10
-8.184246e-09 4.894382e-09 1.005697e-09 -5.526948e-10 -8.387346e-11 -7.863514e-10
-2.394811e-08 2.412897e-08 -7.909083e-09 8.063792e-09 8.919192e-09 -4.945287e-09
-2.148135e-08 4.465938e-09 2.243269e-09 1.074172e-08 6.095383e-09 -2.623437e-09
-2.335333e-08 7.638010e-09 4.134231e-10 5.476755e-09 8.372349e-09 -2.133219e-09
3.369727e-09 -1.606462e-09 -7.417231e-10 -2.275969e-09 -6.372480e-11 3.056424e-10
1.964881e-09 1.545883e-10 -6.068434e-10 -3.213665e-09 -3.022778e-10 -3.007452e-10
-2.757350e-09 1.423452e-09 2.430607e-10 4.449871e-09 4.018452e-10 2.420572e-10
-2.023450e-08 1.773817e-10 2.883931e-09 4.304595e-09 6.077222e-09 -1.469035e-09
7.777630e-09 -4.782959e-09 -9.944756e-10 2.196995e-09 3.687501e-11 8.734190e-10
1.712924e-09 2.024722e-08 -1.287800e-08 -1.069536e-09 -3.291804e-09 1.251720e-10
-1.731375e-08 1.538717e-08 -9.264061e-09 -4.486340e-09 -1.194191e-10 -1.556988e-10
1.013923e-08 -5.919066e-09 -1.363704e-09 -1.765770e-11 -2.819114e-11 1.238269e-10
-1.882397e-08 1.930581e-08 -1.101502e-08 -2.295723e-09 -2.593807e-09 -4.901662e-10
9.474884e-09 -5.420058e-09 -1.293311e-09 1.051996e-09 1.626244e-10 3.600170e-11
9.267568e-09 -5.260321e-09 -1.225121e-09 -8.659421e-11 -6.044307e-11 5.115675e-11
9.279733e-09 -5.404730e-09 -1.323831e-09 -9.468869e-12 -7.039091e-13 -5.623280e-11
9.259532e-09 -5.433659e-09 -1.196433e-09 -5.022142e-11 1.377792e-11 4.025158e-11
9.630273e-09 -5.500080e-09 -1.212841e-09 2.521547e-10 -1.954734e-11 1.911438e-10
-1.040772e-08 2.599018e-08 -1.644809e-08 1.544687e-09 -5.557326e-09 -6.104782e-09
-7.426744e-10 2.295117e-08 -1.521192e-08 2.168669e-09 -1.971655e-09 2.095028e-09
4.437985e-09 -1.676987e-09 -9.125876e-10 -3.036307e-09 -2.076015e-10 5.242935e-10
8.068985e-09 -3.544495e-09 -1.238778e-09 -3.443664e-09 -3.870041e-10 2.463199e-10
1.859901e-08 1.193203e-08 -1.055441e-08 5.265509e-09 -2.626927e-10 3.863862e-09
7.455260e-09 -4.102712e-09 -1.129590e-09 -2.400178e-09 -8.316981e-11 3.543416e-10
1.185618e-08 -3.958082e-08 7.804965e-09 3.530906e-09 4.055632e-10 4.062477e-10
1.360650e-08 -4.108328e-08 7.577751e-09 1.356129e-09 -1.571427e-10 5.782797e-10
1.659759e-09 7.341723e-10 6.893464e-10 8.660442e-09 4.156414e-10 -4.962244e-11
1.193562e-09 -5.346840e-11 -6.005951e-11 5.286454e-09 3.570683e-10 3.518976e-10
1.253679e-08 -4.075609e-08 7.798757e-09 4.131355e-10 -1.474428e-10 1.082524e-10
4.215532e-09 -9.113904e-10 -3.142069e-10 6.718321e-09 4.641958e-10 5.748741e-13
1.090788e-08 -5.518040e-09 -1.297467e-09 -6.134909e-09 -1.314281e-12 -1.441347e-10
6.558842e-10 8.539688e-10 4.141176e-11 5.863407e-09 -2.168502e-10 -1.749862e-10
1.263336e-08 -4.065394e-08 7.107502e-09 2.469053e-09 5.746188e-10 -2.945102e-10
-2.744821e-09 1.829069e-09 4.826610e-10 4.370460e-09 7.798518e-11 2.978928e-10
1.218596e-08 -4.139974e-08 7.577753e-09 2.039061e-09 3.393730e-12 1.660113e-10
1.269524e-08 -4.087269e-08 7.903480e-09 4.375917e-10 8.829659e-11 -1.456999e-10
-8.495397e-09 5.066676e-09 1.051500e-09 -1.796116e-09 4.165246e-11 2.367733e-10
-8.228386e-09 5.081588e-09 1.006254e-09 -7.182033e-10 -2.786960e-11 -1.658060e-10
-6.278713e-09 4.929460e-09 5.030243e-10 -1.334447e-09 5.691780e-11 -3.026113e-11
-2.116982e-08 1.028008e-08 -1.172535e-10 -8.972955e-09 -8.564694e-09 -4.189672e-09
-1.973060e-08 1.009369e-08 -3.808005e-09 -3.587419e-09 -7.039898e-09 -5.689069e-10
-1.895440e-08 -6.950617e-09 -6.127823e-09 -2.646923e-08 -2.418319e-08 -1.091172e-08
1.312135e-08 -3.934402e-08 6.172255e-09 -3.319156e-09 5.174581e-10 -1.464090e-10
1.310704e-08 -3.975119e-08 6.239200e-09 -1.936836e-09 -4.988017e-10 -1.863111e-10
8.915297e-09 -3.839395e-08 8.419911e-09 1.705628e-09 7.305190e-10 -2.507652e-10
9.942870e-09 -3.506469e-08 7.140704e-09 -8.297063e-11 -4.342121e-10 -1.509831e-10
-2.252148e-09 2.324670e-09 -1.889111e-10 -2.442472e-09 -2.514045e-10 -6.687562e-11
-3.821874e-09 3.962014e-09 -5.578538e-11 -1.460938e-10 -1.847833e-10 -2.187517e-11
1.110836e-08 -4.022161e-08 7.380959e-09 2.485627e-09 4.490527e-10 -5.275583e-10
-4.371119e-09 3.861222e-09 2.019109e-10 -1.884495e-09 -1.946936e-10 -1.377992e-11
-9.656524e-10 2.168717e-09 -3.268890e-10 -1.683031e-10 -3.047029e-11 1.225398e-11
9.527975e-09 -3.860644e-08 7.804965e-09 3.327690e-09 2.779710e-10 2.338434e-10
5.592277e-09 -3.431983e-08 7.476836e-09 4.086670e-09 2.076751e-09 3.178913e-10
2.029310e-08 3.237856e-08 -8.465941e-08 -2.573651e-09 -1.149895e-08 1.598982e-09
-6.069795e-09 -6.291432e-09 -1.535426e-08 1.162682e-08 -8.605308e-09 5.335931e-09
-5.850706e-09 1.720871e-09 -2.641181e-08 1.180448e-08 -1.275032e-08 9.893993e-09
-7.071260e-09 1.420237e-08 -8.551156e-09 -1.262278e-08 -4.124567e-10 5.549349e-11
4.003057e-09 -3.296166e-08 8.677255e-09 4.988319e-09 1.201945e-09 3.253491e-10
-3.730122e-09 -2.349085e-08 5.922399e-09 8.693956e-09 9.441812e-10 -7.386778e-10
-2.232143e-08 1.469864e-08 -1.734228e-09 4.586643e-09 8.584317e-09 -1.686414e-09
-8.215828e-09 7.337975e-09 -2.964220e-09 -6.268175e-09 -1.641451e-09 1.143239e-09
-2.163496e-08 1.675604e-08 -7.238781e-09 4.012703e-09 1.182704e-09 -7.079181e-11
-5.845233e-09 1.489095e-08 -2.702864e-08 7.792048e-09 -1.221506e-08 1.061247e-08
-7.598711e-08 1.090363e-07 6.502706e-08 -5.014099e-08 -7.388254e-08 -2.175135e-08
-3.060204e-08 3.475215e-08 -8.276791e-09 1.823018e-08 1.284713e-08 -1.515826e-08
-2.387764e-08 1.351288e-07 -2.250471e-08 1.082165e-08 -6.473813e-08 -9.182012e-09
-3.069554e-08 1.090307e-07 5.167736e-08 -5.133702e-08 -7.359505e-08 1.913359e-08
-2.250382e-08 4.553539e-09 -1.724018e-09 1.744915e-08 1.450285e-08 -4.000108e-09
4.170152e-09 -2.161505e-08 -3.494492e-09 -1.697880e-08 -8.105951e-10 -1.425364e-09
1.930388e-08 -2.039191e-08 -3.373568e-08 -2.253914e-08 1.466907e-08 3.192702e-09
1.865638e-09 -1.558255e-10 2.279918e-10 6.433291e-09 4.672252e-10 5.080228e-10
1.509392e-08 -2.982658e-08 -1.912561e-08 -2.210499e-08 1.082911e-08 3.596409e-09
2.728088e-09 -1.224464e-08 -1.263183e-08 -2.407538e-08 9.266585e-09 2.892315e-09
1.952742e-08 9.534389e-08 -1.374850e-07 2.172652e-09 4.008647e-08 8.030785e-09
-1.229865e-08 -9.906039e-09 5.077976e-09 8.100271e-09 2.518765e-09 -9.279099e-10
4.791969e-08 -4.249855e-08 1.126440e-07 2.241958e-09 4.781227e-10 5.637054e-08
3.598455e-11 7.879653e-09 5.312000e-08 4.679338e-08 2.541424e-09 2.934459e-09
-8.242208e-08 4.917392e-09 1.669996e-07 3.306125e-08 2.551461e-08 -4.373871e-09
-6.976421e-09 -1.847089e-08 6.605137e-09 4.771857e-09 1.373493e-09 -3.784333e-10
2.268803e-08 -3.712140e-08 -2.578619e-08 -1.498697e-08 6.084192e-09 1.110010e-09
6.633391e-09 -2.867105e-08 2.263399e-09 -9.349145e-09 3.151721e-09 1.809642e-10
1.079842e-08 -2.465800e-08 -9.977731e-09 -1.820708e-08 1.504334e-09 8.611227e-10
-1.609010e-08 -7.524676e-09 4.696014e-09 3.099170e-09 4.160664e-09 -8.623540e-10
-1.100015e-08 -1.297977e-08 6.050906e-09 2.725675e-09 2.106705e-09 -6.099538e-10
-9.013717e-09 1.716227e-09 2.264309e-09 -2.581890e-09 6.286589e-10 -1.500318e-10
-7.794913e-09 6.171312e-10 2.141995e-09 -3.539684e-10 -3.464517e-11 1.435971e-10
-6.970747e-09 -5.920290e-09 3.469289e-09 -3.702889e-09 -3.086683e-10 -3.988168e-10
-9.613908e-09 4.036591e-09 1.314127e-09 -1.225154e-09 -2.929048e-10 3.286611e-10
-9.492963e-09 3.812543e-09 1.651414e-09 -1.423179e-09 -3.309779e-10 -5.265380e-10
-7.980968e-09 1.299325e-10 2.234474e-09 1.705276e-10 -2.587554e-10 -2.290455e-10
-8.045929e-09 -6.073772e-10 2.337790e-09 -5.554734e-09 1.571663e-10 -4.541533e-11
-1.048536e-08 1.299361e-09 1.888050e-09 3.619758e-10 5.043306e-10 -6.982339e-10
-9.387248e-09 4.830721e-09 1.250652e-09 -5.659417e-10 -9.646306e-11 -1.196374e-10
-8.113723e-09 4.999360e-09 9.983796e-10 -1.349656e-09 -1.672522e-10 -4.861566e-10
8.961689e-09 -5.272179e-09 -1.184990e-09 2.555705e-10 9.758888e-12 6.368212e-11
6.826339e-09 -4.138318e-09 -8.523215e-10 1.166274e-10 1.701961e-11 -1.444267e-11
8.642548e-09 -5.053964e-09 -1.210704e-09 5.659106e-10 9.958343e-11 -2.244975e-10
9.303710e-09 -5.654395e-09 -1.188437e-09 1.215425e-09 -3.967043e-11 5.635917e-10
-1.077568e-08 -1.225002e-08 5.250488e-09 2.366262e-09 1.399807e-09 6.028694e-10
-1.146268e-08 -1.561813e-08 3.308672e-09 1.956889e-08 7.508555e-09 -3.222240e-09
-1.402727e-10 -2.999356e-10 -1.305478e-10 1.671371e-09 1.147100e-10 -1.141157e-10
-2.642938e-09 1.238109e-09 3.685470e-10 5.983436e-10 4.174094e-11 -1.427463e-10
8.016483e-09 -4.027411e-08 4.567310e-09 -1.483116e-09 -2.827032e-09 -1.822900e-10
-1.885779e-09 1.176364e-09 1.103591e-10 2.266476e-10 4.857381e-11 -1.448077e-10
1.044418e-09 -3.469331e-10 -2.574723e-10 8.099981e-10 -5.492584e-11 2.049538e-11
4.149758e-09 -3.253183e-08 7.385632e-09 8.836690e-09 4.188358e-10 -4.435235e-10
2.379132e-09 -2.953676e-08 7.515031e-09 8.711369e-09 1.256494e-09 -3.603123e-10
9.641060e-09 -3.715763e-08 8.426015e-09 2.681847e-09 5.008473e-10 3.179885e-10
-5.270007e-11 1.482798e-09 -4.497904e-10 -1.884168e-10 -3.371986e-10 -1.026235e-11
9.929312e-09 -3.792490e-08 7.998071e-09 5.498309e-10 2.482266e-10 -3.169866e-10
-1.381681e-08 2.567534e-08 -1.753533e-08 -1.852350e-09 -5.331421e-10 -3.128693e-10
2.074359e-08 9.656325e-09 -7.899349e-09 5.792825e-10 -4.162732e-09 -5.721935e-10
-1.144524e-08 2.689930e-08 -1.629251e-08 -1.646084e-10 -1.372129e-08 -9.816053e-09
2.254482e-08 7.307405e-09 -7.232849e-09 7.503462e-10 -2.202067e-09 2.298673e-09
-1.176178e-08 2.422316e-08 -1.478449e-08 6.484182e-11 -2.309529e-09 1.155962e-09
1.296025e-08 -4.177885e-08 6.425886e-09 1.611007e-09 6.350047e-10 -3.153167e-10
1.159516e-08 -3.824247e-08 7.700119e-09 3.393217e-09 2.845871e-10 -2.841413e-10
3.509974e-09 -1.990840e-09 -5.886416e-10 6.422207e-10 -2.798273e-11 3.992997e-10
8.259882e-10 -1.045817e-10 -1.599507e-10 2.838319e-09 -9.483525e-11 -1.685652e-10
-1.159040e-08 -1.225062e-08 5.930659e-09 2.509179e-09 1.992773e-09 -2.755301e-10
1.028585e-08 -3.421875e-09 -1.124047e-09 -8.408447e-09 -4.323640e-10 2.423257e-10
1.110028e-08 -4.944358e-09 -1.183173e-09 -8.775072e-09 -1.200598e-10 3.842831e-10
7.406066e-09 -1.722121e-09 -1.446358e-09 -1.023991e-08 9.928940e-12 3.220524e-10
2.879033e-09 -1.170964e-09 -5.322356e-10 1.297136e-09 1.669715e-10 3.378944e-10
4.363528e-09 2.249801e-08 -1.156649e-08 1.509821e-08 -1.128024e-09 2.454507e-09
9.767922e-10 1.143350e-09 -1.070054e-09 -1.114941e-08 -6.550527e-10 1.359414e-09
-5.049027e-09 2.658750e-08 -8.592536e-09 4.769952e-09 -7.257313e-09 -1.133985e-08
5.208370e-09 -1.515400e-09 -1.104607e-09 -7.780498e-09 -3.808776e-10 4.405285e-10
-9.583893e-09 4.774208e-09 8.255769e-10 -2.863842e-09 -2.338796e-10 1.783281e-10
1.202551e-08 -5.206211e-09 -6.587744e-10 5.266538e-09 -1.771703e-10 -2.925524e-10
-1.005864e-08 3.723820e-09 1.235875e-09 -1.071176e-09 -2.219684e-10 1.149331e-10
2.492797e-08 4.704477e-09 -7.332369e-08 2.436671e-08 1.156299e-08 -3.362782e-09
1.842608e-08 9.460385e-08 -1.369015e-07 8.876117e-09 2.548920e-08 -7.390032e-09
2.997428e-08 4.457324e-08 -1.167396e-07 2.124010e-08 1.513303e-08 -1.331442e-08
2.856685e-08 -1.359624e-08 -6.274951e-08 3.110927e-08 3.622923e-08 -1.275140e-08
1.932641e-08 4.458005e-08 -1.036704e-07 2.383796e-08 1.672474e-08 -5.749445e-09
9.552138e-09 -7.815090e-10 -4.651748e-08 2.939374e-08 6.294103e-09 -2.474375e-09
-1.472496e-08 2.952283e-08 -1.470867e-08 -2.658910e-09 1.390155e-09 9.792833e-10
-6.379834e-09 3.546151e-09 9.048429e-10 1.909815e-10 1.326783e-11 -1.553839e-10
-7.178893e-09 3.887579e-09 1.041554e-09 1.359730e-10 1.042877e-11 -1.367360e-10
6.301216e-08 -2.895959e-08 7.691684e-09 1.722660e-09 -8.214318e-10 2.475093e-10
5.127772e-08 -1.785417e-08 2.424094e-10 6.689613e-09 8.624369e-10 3.181716e-09
3.152492e-08 -3.758340e-08 -5.119886e-08 9.887995e-09 1.210539e-08 1.320892e-09
1.837372e-08 -1.258811e-08 -4.035345e-08 2.861721e-08 1.075140e-08 -3.407622e-09
2.471978e-08 -1.292689e-08 -5.620988e-08 2.467274e-08 1.464880e-08 3.049369e-09
2.027720e-08 2.120983e-08 -8.312449e-08 -3.690867e-10 -1.337954e-08 2.851251e-09
1.860872e-08 -3.799156e-08 -1.321571e-08 -7.404075e-09 -7.843659e-09 -1.093554e-09
7.052395e-09 5.160606e-08 -6.651844e-08 -8.805165e-09 -2.393808e-08 1.840025e-08
2.015005e-08 -4.171118e-08 -1.071457e-08 -3.827003e-09 -2.804206e-09 -1.232348e-09
-1.811942e-08 -2.255263e-10 -5.271987e-10 4.881525e-09 1.700514e-09 -1.280564e-09
-1.913572e-08 9.563109e-09 -7.553447e-09 1.084165e-08 7.514170e-09 -4.857847e-09
9.816292e-10 6.499326e-08 -3.483556e-08 -3.883161e-08 8.449838e-09 1.083353e-08
1.260143e-08 5.526241e-08 -1.033731e-07 -1.281340e-08 -1.936471e-08 2.459955e-09
-2.080082e-08 1.803593e-08 -1.059915e-08 1.280744e-08 3.384618e-09 -2.978637e-09
1.931976e-08 5.566152e-08 -1.082945e-07 -1.204548e-08 -1.809458e-08 6.400642e-09
-2.193408e-08 2.245112e-08 -1.115012e-08 8.116543e-09 -2.759761e-10 -9.718359e-10
-8.733849e-09 1.059035e-07 -4.863402e-08 -1.185634e-08 1.055764e-08 -1.300480e-09
3.146939e-08 -1.502364e-08 -6.431860e-08 -4.147411e-09 -3.603450e-08 1.926004e-09
2.115857e-08 4.968024e-08 -9.823420e-08 -1.906535e-08 -2.202304e-08 -9.780451e-10
-7.637504e-09 -9.479475e-10 2.767010e-09 -2.364812e-10 4.108381e-10 -1.049898e-10
-6.726639e-09 -3.636167e-09 3.591846e-09 -5.458054e-10 -1.364815e-10 2.668852e-10
-9.053872e-09 4.001012e-09 1.375543e-09 -5.572105e-10 -1.877610e-10 -8.761956e-10
2.574933e-08 -4.578106e-08 -1.387806e-08 -1.741636e-09 -1.783239e-09 3.155550e-11
-9.897079e-09 3.741263e-09 1.434072e-09 -1.563390e-09 -2.274536e-11 4.424897e-10
-6.553064e-09 4.635829e-09 5.770131e-10 -2.720688e-09 -2.825125e-10 -5.257151e-10
-8.114092e-09 4.964414e-09 6.341070e-10 -2.047323e-09 -3.793016e-10 -1.135202e-09
1.176196e-08 -3.912252e-08 7.963193e-09 1.873673e-10 1.728627e-10 -3.729942e-10
2.094781e-08 -4.132866e-08 -1.095664e-08 7.217325e-09 -1.332675e-08 3.543726e-09
1.167019e-08 -3.949313e-08 8.302982e-09 1.837886e-09 4.595171e-10 2.684519e-11
2.499872e-08 -4.646587e-08 -1.404352e-08 -3.843761e-09 -8.726954e-09 -3.549161e-10
9.641302e-09 -3.780622e-08 7.713537e-09 3.316161e-09 1.185014e-09 -2.754813e-10
9.194877e-09 -3.769364e-08 6.641246e-09 7.158919e-09 2.917568e-10 2.261447e-10
2.491859e-08 -4.590120e-08 -1.245571e-08 1.280570e-09 -1.801487e-09 3.744149e-10
2.737363e-09 -4.624603e-10 -6.483254e-10 -9.743066e-10 2.185141e-11 -5.233283e-10
9.309547e-09 -5.408346e-09 -1.311859e-09 -3.475573e-11 -1.759981e-11 8.838985e-11
5.354474e-09 -2.386201e-09 -9.839733e-10 -1.393332e-09 3.779903e-11 7.751266e-11
8.150118e-09 -4.855939e-09 -1.241477e-09 -1.004984e-09 -2.385709e-10 -2.465116e-10
9.471636e-09 -5.466615e-09 -1.335085e-09 8.487490e-11 6.704148e-11 -3.150946e-11
8.038791e-09 -4.831742e-09 -1.019465e-09 2.373661e-10 9.483050e-11 1.290391e-10
-5.193287e-09 -7.286937e-09 4.299786e-09 -1.211211e-09 -1.795466e-10 2.141709e-10
-7.472055e-09 -2.498473e-09 2.941086e-09 -1.315827e-09 7.762839e-10 2.308753e-10
8.081183e-09 -5.053615e-09 -1.037154e-09 4.936499e-10 1.887770e-10 4.701539e-11
1.560453e-08 -7.891706e-09 8.703176e-09 1.044102e-08 -6.799651e-10 -2.168571e-09
2.255185e-08 -9.546011e-09 6.277405e-10 1.020178e-09 1.977185e-10 -1.365561e-09
1.963845e-08 -8.544902e-09 -3.845413e-10 7.733924e-11 1.070704e-10 3.544282e-10
7.759211e-09 -1.134303e-09 2.826037e-09 1.217178e-08 -4.374138e-10 -1.706730e-09
-2.414966e-08 1.394211e-08 -2.524936e-11 1.083384e-08 6.830977e-09 -3.894763e-09
1.977876e-08 -8.317087e-09 3.737066e-09 8.136202e-09 -5.783060e-10 -3.363327e-09
-2.131790e-08 1.958834e-08 -8.592782e-09 3.887243e-09 2.437276e-09 -4.741045e-10
1.104544e-08 -5.138932e-09 -5.974821e-11 6.640839e-09 -1.883548e-10 -7.991530e-10
2.955402e-08 -6.377187e-10 8.577259e-10 -7.275593e-09 1.306846e-09 -4.742954e-09
1.318574e-08 -5.697486e-09 6.561547e-10 7.171318e-09 4.963786e-10 5.939445e-10
8.679763e-09 -4.452262e-09 -1.158657e-09 2.725291e-09 7.694590e-11 3.732494e-10
-2.183253e-08 1.803604e-08 -7.907790e-09 1.076964e-08 5.537003e-09 -3.707862e-09
-1.698127e-08 2.626028e-08 -1.280001e-08 2.700427e-09 -7.061713e-11 -1.306800e-09
1.897168e-08 -3.762132e-08 -1.255577e-08 8.444674e-09 -7.117267e-09 1.556709e-09
2.553712e-08 -4.780900e-08 -1.065411e-08 -1.245944e-10 -5.271945e-10 -6.693670e-10
4.226054e-09 -9.408278e-10 1.221145e-10 7.910686e-09 -1.835490e-10 -2.892425e-10
1.851901e-08 -8.172307e-09 -8.246026e-11 2.086635e-09 -1.105660e-10 -6.067622e-10
2.003428e-08 -4.036168e-08 -1.017584e-08 3.326914e-09 -1.434251e-09 4.817158e-10
7.143920e-09 -4.005234e-09 -1.158285e-09 -5.431336e-10 -1.191573e-10 8.163575e-11
7.061660e-09 -3.123311e-09 -1.061903e-09 -1.749610e-09 -3.315436e-12 3.750004e-10
7.415927e-09 -3.770990e-09 -1.135290e-09 -1.180115e-09 -1.277513e-12 -7.200551e-11
9.098621e-09 -5.466786e-09 -1.156739e-09 1.392014e-10 3.710818e-11 1.343549e-10
4.920582e-09 -2.019717e-09 -8.883809e-10 -7.613834e-10 -3.430189e-11 -3.380650e-10
9.915453e-09 -5.262741e-09 -1.365256e-09 -1.696585e-09 -2.245714e-10 3.092089e-10
1.030685e-08 -5.712859e-09 -1.464283e-09 -1.323113e-09 -1.350488e-10 3.829524e-10
9.020420e-09 -5.466827e-09 -1.159023e-09 1.523226e-10 5.216279e-11 8.829418e-11
-5.555320e-09 -7.955885e-09 4.050511e-09 -1.041708e-09 1.547378e-10 -5.682192e-10
-1.849960e-09 1.433493e-09 2.494258e-10 4.856608e-09 1.878317e-10 -5.924150e-12
-6.036095e-09 -5.325056e-09 3.524156e-09 -1.194126e-09 3.593747e-11 -2.635111e-10
-5.416248e-09 -7.202072e-09 4.073352e-09 -6.135438e-10 5.754854e-10 -1.348985e-10
8.056622e-09 -2.445959e-09 3.220713e-10 8.900502e-09 4.579212e-10 8.582921e-10
1.362352e-08 -7.007402e-09 -1.075105e-09 1.751666e-09 2.539529e-11 2.331713e-10
-2.911209e-09 -1.178113e-08 4.932518e-09 -1.888543e-09 8.923484e-11 2.652889e-10
-1.476567e-08 3.885360e-09 -5.510236e-09 2.054439e-08 7.877895e-09 -3.424455e-09
-1.161268e-08 2.626030e-08 -1.280001e-08 -2.331226e-09 2.448434e-09 -2.650669e-09
-4.163633e-09 1.878725e-08 -6.822414e-09 -4.339554e-09 -1.400643e-09 1.201741e-09
1.149236e-08 -3.292302e-08 -5.055179e-09 3.282727e-09 -2.652359e-09 8.769127e-10
2.137728e-08 -4.340627e-08 -8.986708e-09 1.275018e-09 4.517865e-10 -3.912368e-10
1.340829e-08 -3.368164e-08 -7.487582e-09 4.327379e-09 -1.125463e-09 5.728199e-10
-1.317093e-08 1.324247e-09 -6.586750e-09 -9.299109e-09 -5.054079e-09 -1.825150e-09
-1.973998e-08 8.635597e-09 -6.202557e-09 -2.626074e-09 -2.010004e-09 -2.497222e-10
-2.375076e-08 2.300362e-08 -1.650580e-09 8.540572e-09 6.342616e-09 -5.820970e-09
-1.726029e-08 2.506016e-08 -1.733963e-08 1.138876e-08 1.046223e-09 -1.464564e-09
-1.501163e-08 6.182439e-09 -9.736339e-10 -1.535980e-08 -1.051985e-08 -5.135470e-09
2.822013e-09 2.163958e-08 -8.167304e-09 -3.735483e-09 4.849277e-09 -3.850519e-09
-1.989162e-08 2.443680e-08 -1.001128e-08 1.942364e-09 1.369973e-09 -1.568660e-09
2.294788e-08 -3.937414e-08 -1.627124e-08 3.363034e-09 -8.425068e-09 8.045193e-10
-6.197972e-09 5.053561e-09 4.335925e-10 -4.184861e-10 -4.583578e-11 -2.031086e-11
-6.848977e-09 5.134293e-09 6.137366e-10 -4.822306e-10 -2.859679e-11 -1.124337e-11
-5.860489e-09 4.999279e-09 2.494804e-10 -1.552243e-10 -6.862688e-11 -1.083977e-10
1.232017e-09 -3.013255e-08 8.781792e-09 2.112631e-09 -9.944889e-11 2.360740e-10
-2.950924e-10 1.810311e-09 2.369198e-10 6.029324e-09 3.861851e-10 3.424444e-10
3.229800e-09 -3.177952e-08 8.862740e-09 8.531300e-10 5.349299e-11 2.643081e-10
1.228893e-10 -2.925528e-08 8.852056e-09 4.208668e-09 1.321157e-09 -5.012434e-11
2.726789e-08 -3.590573e-08 -2.654655e-08 2.854333e-09 -3.757057e-09 2.593998e-10
-1.806868e-09 1.045267e-09 7.934675e-11 2.792844e-09 2.386127e-10 3.031630e-11
9.262576e-09 -5.426202e-09 -1.204250e-09 -2.955447e-11 -2.742151e-11 3.379969e-11
-3.983125e-10 3.935245e-10 -4.991829e-11 3.317901e-09 2.002736e-10 8.471446e-11
9.423966e-09 -5.486063e-09 -1.162076e-09 -3.045634e-10 -8.618273e-11 1.455083e-10
-9.880434e-10 7.518990e-10 -1.901190e-11 2.128850e-09 2.058251e-10 1.195337e-10
7.926469e-09 -4.385422e-09 -1.268604e-09 -1.758092e-09 9.745338e-11 -2.548666e-10
8.979145e-09 -4.935870e-09 -1.130301e-09 -6.943245e-10 -1.976457e-10 1.674035e-10
6.003175e-09 -3.199608e-09 -1.085041e-09 -1.010942e-09 -1.789316e-10 2.334372e-10
7.523657e-09 -3.770991e-09 -1.144575e-09 -1.016017e-09 8.295964e-11 -5.340062e-11
-1.999393e-08 3.058232e-08 -1.646528e-08 1.351759e-08 1.300012e-08 -1.271506e-08
8.804209e-09 -4.711150e-09 -1.243952e-09 -8.536935e-10 -5.314319e-12 -1.036327e-11
6.420255e-09 -2.902226e-08 6.572581e-09 -1.528286e-09 1.037286e-09 9.035658e-12
-2.198860e-08 6.752308e-09 -1.436009e-08 2.567585e-08 1.746164e-08 -1.001577e-08
7.983164e-09 -3.187813e-08 6.698998e-09 -1.845228e-09 5.350011e-10 -5.706913e-10
5.051116e-09 -2.562176e-08 5.500494e-09 -4.986448e-09 9.375403e-11 -1.428723e-09
8.784985e-09 -5.087585e-09 -1.171422e-09 -2.451759e-10 -1.082393e-10 -5.999118e-11
1.009112e-08 -3.591112e-08 6.865521e-09 -2.064435e-09 1.831117e-10 1.500968e-10
8.653816e-09 -4.850913e-09 -1.257533e-09 -1.130449e-09 -1.788680e-11 -3.819267e-11
6.035405e-08 -2.675244e-08 7.701668e-09 -2.991095e-09 -8.974888e-10 2.127175e-09
5.995678e-09 -3.270810e-09 -9.169332e-10 -8.434584e-10 -1.165886e-10 -2.065739e-10
7.665619e-09 -3.946657e-09 -1.184654e-09 -1.217086e-09 -1.145861e-10 3.024390e-10
9.039720e-09 -5.364807e-09 -1.225273e-09 2.875606e-10 1.081037e-10 3.908940e-11
7.640359e-09 -4.034042e-09 -1.059291e-09 -3.568983e-10 -1.055046e-10 -1.032631e-10
1.026428e-08 -5.940445e-09 -1.516697e-09 -7.416369e-10 -2.477468e-11 4.669692e-11
6.869299e-08 -2.826074e-08 1.520418e-08 -3.339475e-09 1.589609e-09 1.092764e-08
5.991651e-09 -1.964209e-09 -1.074631e-09 -3.883684e-09 -4.550198e-10 2.494200e-10
5.724830e-09 -2.534158e-09 -1.031941e-09 -1.459166e-09 -1.485018e-10 -4.138958e-10
5.910280e-08 -2.603038e-09 6.344107e-09 3.341763e-08 9.917179e-09 2.684714e-08
7.871344e-09 -3.946685e-09 -1.030703e-09 -1.043143e-09 -2.462621e-10 1.228888e-10
-7.886091e-08 9.269068e-08 1.233474e-07 2.487107e-08 -9.158765e-08 -1.767236e-08
-8.019246e-09 1.367342e-07 -5.016335e-08 -3.310030e-09 -2.260499e-08 -5.077964e-08
-3.722548e-08 9.175069e-08 -2.101738e-08 -1.326246e-10 -9.410526e-08 -2.564264e-09
3.406813e-09 3.364510e-08 3.454994e-09 -3.967658e-08 8.905747e-09 2.950255e-09
2.787828e-09 1.079272e-08 4.069658e-09 -2.697250e-08 2.635601e-09 1.534835e-09
-2.206956e-08 9.171665e-08 -1.365057e-08 2.265627e-08 -3.012574e-08 5.096385e-09
4.203705e-10 1.190931e-07 -1.059068e-07 -1.205634e-08 -2.380028e-09 2.918769e-08
-4.350904e-09 3.409572e-08 -2.562367e-08 -2.939731e-08 -3.056671e-09 3.231032e-09
-1.272627e-09 -1.542949e-08 5.145994e-09 -3.116517e-09 -1.307658e-10 2.141978e-10
6.000320e-09 -2.766508e-09 -8.726205e-10 -4.089511e-10 -2.952127e-11 -1.071730e-10
2.843686e-09 -6.620606e-10 -6.959892e-10 -3.037473e-09 -3.828643e-10 4.350857e-10
4.718928e-09 -2.534306e-09 -7.968335e-10 -1.291731e-09 -3.069257e-10 -6.124207e-11
3.485448e-09 -1.003052e-09 -7.355945e-10 -1.541632e-09 -1.394275e-10 -4.847914e-10
5.952034e-09 -2.785167e-09 -1.085358e-09 -3.269812e-09 -2.307834e-10 -6.381784e-11
-3.262920e-09 -1.188685e-08 4.661218e-09 -1.108066e-09 8.002738e-10 -7.852164e-11
1.203528e-10 -1.772547e-08 5.134475e-09 -2.524893e-09 7.751355e-11 1.267139e-10
3.957055e-09 1.878726e-08 -6.822415e-09 -6.385557e-09 -2.825420e-10 -1.017167e-09
-3.766408e-09 3.441220e-08 -1.470867e-08 -1.356036e-08 1.907258e-09 -1.028037e-09
-8.068653e-09 3.730570e-09 1.333297e-09 3.902700e-11 4.170231e-11 -2.442885e-10
-1.448111e-08 2.548898e-08 -1.205825e-08 6.408947e-10 3.768750e-09 -5.535028e-09
-4.412091e-09 -2.070663e-08 9.418075e-10 -1.540518e-09 -1.838740e-09 -1.044124e-09
2.153876e-08 3.193749e-09 1.127530e-09 -1.140336e-08 4.295347e-10 -4.099565e-10
5.609781e-09 -2.173328e-08 -5.374730e-09 4.004279e-09 -6.179812e-10 2.318542e-10
3.117318e-08 6.644234e-08 -1.374695e-07 -6.482854e-09 4.011895e-08 1.410614e-08
-4.005866e-08 9.912947e-08 -1.995509e-08 2.026175e-09 -3.910612e-08 -5.907134e-09
-3.748579e-09 9.915180e-08 -9.344996e-08 3.489104e-09 2.004256e-08 8.313652e-09
8.091110e-09 -4.685550e-09 -1.161250e-09 -1.550402e-09 -1.511866e-10 1.654265e-10
5.729838e-09 -2.213755e-09 -9.267440e-10 -2.306865e-09 6.870615e-11 1.834950e-10
-4.285303e-09 -2.068916e-08 7.607295e-09 1.477206e-09 4.000234e-10 5.571951e-10
8.926396e-09 -4.385420e-09 -1.337705e-09 -1.821458e-09 6.497469e-11 -6.595746e-11
7.055439e-09 -3.123731e-09 -1.173282e-09 -1.747571e-09 2.843903e-11 1.279494e-10
-2.599808e-09 3.163483e-09 -1.150291e-10 -5.147383e-10 -1.087143e-10 -2.719349e-10
1.312029e-08 -3.157299e-08 -1.598602e-08 9.434977e-09 -9.468162e-09 1.261293e-09
8.550509e-09 -2.940713e-08 -3.539985e-09 3.590973e-10 3.603706e-11 1.366822e-10
-1.143734e-09 -1.350408e-08 -1.911989e-09 3.021330e-09 -2.608993e-10 6.387382e-10
1.981494e-08 -1.017771e-08 1.759487e-09 -9.939928e-10 6.359346e-11 -6.670064e-11
4.584342e-09 4.758345e-10 5.204086e-10 9.077730e-09 1.773638e-10 -1.975395e-10
7.837280e-10 -1.832315e-08 -1.803540e-09 2.026790e-09 1.424587e-09 -2.693373e-10
-6.665630e-09 -4.200785e-09 3.306156e-09 -2.398902e-09 -2.094284e-10 -7.815635e-10
1.521343e-09 -2.043229e-08 5.792843e-09 -9.352235e-10 -4.437217e-10 -3.839645e-11
-7.504549e-09 -5.096677e-09 2.760921e-09 -7.168521e-09 -1.855711e-10 -8.018907e-10
-7.813586e-09 -1.416637e-09 2.941599e-09 -6.298213e-10 -8.389919e-11 -9.956597e-11
3.573125e-09 -2.350946e-08 5.874372e-09 -2.849308e-09 6.080247e-11 1.791177e-10
1.203528e-10 -1.861782e-08 5.547585e-09 -2.283535e-09 1.241092e-10 2.788129e-10
-7.896405e-09 9.632259e-10 2.123905e-09 -2.520027e-10 2.754686e-12 1.313466e-10
-7.974949e-09 4.189591e-10 2.199042e-09 -3.277132e-10 -5.027756e-11 -1.903455e-10
-5.137543e-10 2.324335e-08 -7.777618e-09 -1.251058e-08 3.645461e-09 -4.270771e-09
-7.682570e-09 2.759062e-08 -1.220767e-08 -4.942470e-09 5.077473e-09 -9.984342e-09
-7.508834e-09 1.194438e-09 1.915879e-09 2.223239e-10 -1.270192e-10 -2.154400e-10
-6.974778e-09 1.707754e-09 1.629963e-09 8.881555e-10 1.139588e-10 -2.882632e-10
2.568489e-08 3.193746e-09 1.127532e-09 -9.520201e-09 -6.675218e-10 -1.617644e-09
-2.061354e-08 2.526899e-08 -1.068991e-08 7.518768e-09 5.137329e-09 -5.053790e-09
-8.040642e-09 -1.117363e-09 2.571265e-09 -1.750278e-09 -7.029222e-11 1.535303e-10
-7.676918e-09 1.323298e-09 1.921117e-09 7.909387e-11 5.321951e-11 1.927833e-11
1.030297e-08 1.181148e-08 -3.234268e-09 -7.459211e-09 1.034269e-09 -1.337998e-09
-6.473654e-09 2.685626e-09 1.297376e-09 2.140938e-09 2.591118e-10 3.260039e-10
-7.924092e-09 7.805232e-10 2.015780e-09 -4.125778e-10 -4.828715e-11 1.269096e-10
-6.970807e-09 2.839555e-09 1.447731e-09 2.065524e-09 2.884764e-10 -4.386390e-10
-2.762641e-08 2.070624e-08 -6.079736e-09 1.733786e-08 1.328154e-08 -1.266065e-08
-1.040209e-08 3.825171e-09 -1.369508e-09 -1.326872e-09 -3.970691e-10 7.700946e-10
-3.709790e-09 -8.583008e-09 4.238743e-09 -3.308874e-09 3.262695e-10 -3.387260e-10
-8.665129e-09 5.685805e-09 -1.264898e-09 -5.378365e-09 -3.093614e-11 1.263709e-10
3.976234e-10 -1.326027e-08 -5.900027e-09 5.567616e-09 -1.171156e-09 4.051707e-10
-7.210981e-09 7.639104e-09 -3.472947e-09 -8.696201e-09 9.091862e-11 -3.714398e-10
-9.286491e-09 9.112862e-09 -3.980228e-09 -8.054353e-09 -8.380521e-10 8.282574e-10
-8.325458e-09 1.098655e-08 -5.221233e-09 -1.173435e-08 -1.040331e-09 1.829928e-09
-6.902989e-09 -3.716050e-09 3.441506e-09 -2.681903e-09 -2.196709e-11 -3.850573e-10
2.883804e-08 -2.330900e-10 2.176970e-08 3.934488e-08 1.477557e-08 9.210929e-10
-3.652019e-09 -8.490458e-09 4.279670e-09 -3.220761e-09 -4.635469e-11 -8.887254e-10
-6.236219e-09 -4.841289e-09 3.612495e-09 -3.239334e-09 2.344666e-10 2.655332e-10
2.294788e-08 -4.489299e-08 -1.125417e-08 3.308321e-09 -7.646483e-09 8.649298e-10
1.521814e-08 -3.836899e-08 -2.679068e-09 7.832200e-09 -9.782569e-09 1.329160e-09
1.480055e-08 -4.145203e-08 1.195520e-09 -8.676688e-09 3.509673e-09 -2.437222e-10
1.663162e-08 -4.219437e-08 4.348765e-09 1.526558e-09 9.955237e-10 -5.866500e-10
2.196125e-08 -4.138605e-08 -5.350521e-09 -5.402690e-09 4.295015e-09 1.041353e-09
2.822063e-09 -2.003494e-08 -2.796937e-09 3.095854e-09 5.180655e-12 -8.766930e-11
1.165336e-08 -3.405326e-08 -1.398844e-09 -1.172842e-08 2.270314e-09 1.416007e-09
4.100470e-09 -1.650422e-08 -9.964541e-09 5.824256e-09 -1.259525e-08 3.903612e-09
9.403847e-09 -3.165807e-08 1.699467e-09 -1.114876e-08 1.941331e-09 1.762106e-10
3.245880e-09 -1.955132e-08 -7.231309e-10 -1.545436e-08 2.203298e-09 8.423639e-10
-8.328718e-09 -1.824684e-09 2.615936e-09 -3.408124e-09 1.487367e-10 4.238749e-11
-3.317774e-09 -1.215360e-08 -7.963141e-11 -9.290285e-11 1.110152e-15 3.838065e-10
6.297447e-08 -3.390303e-08 2.183587e-08 -3.962604e-09 -8.980909e-10 9.613878e-09
-9.013733e-09 1.719540e-09 2.375938e-09 -2.582362e-09 -1.948446e-10 -1.632771e-10
4.635480e-08 -1.304832e-08 3.686605e-09 -8.385220e-09 -2.266721e-09 6.189706e-09
3.879107e-09 -1.386917e-09 -6.869652e-10 -5.247784e-10 -1.228369e-10 -1.476301e-10
2.768757e-08 -3.399696e-09 3.424788e-08 -3.724792e-08 -1.426246e-08 1.177403e-08
2.523102e-09 -1.004064e-09 -5.983948e-10 -1.286419e-09 -3.800394e-10 -1.016132e-10
8.532699e-10 1.133253e-09 -5.138117e-10 -8.630620e-10 -2.511469e-10 3.937251e-10
3.567707e-08 -6.516528e-09 3.146310e-09 -1.479084e-08 -2.550337e-10 -2.182968e-10
-2.110241e-10 1.281355e-09 -2.218177e-10 -2.444276e-10 5.877565e-11 -1.944445e-12
-8.612329e-10 1.694731e-09 -3.485789e-10 -2.394541e-09 1.213429e-10 1.113683e-10
-4.384793e-09 4.313877e-09 -7.265011e-11 -6.679357e-09 -6.855972e-10 1.840010e-10
-6.027702e-09 4.559614e-09 1.923262e-11 -5.577913e-09 -2.604540e-10 5.915066e-11
6.752987e-08 -2.954641e-08 1.164453e-08 -3.750623e-09 1.382343e-10 2.515267e-09
-9.024491e-09 5.017891e-09 4.561231e-10 -3.902618e-09 -4.731356e-10 -5.616083e-11
-6.027493e-09 4.649323e-09 -5.583782e-10 -7.542630e-09 -1.499049e-10 1.564368e-11
2.881411e-09 -2.316819e-08 5.972366e-09 -1.567174e-09 1.059109e-09 5.825214e-11
1.860751e-08 -4.538045e-08 -6.298517e-09 7.000236e-09 2.647915e-09 -4.047110e-10
1.860614e-08 -4.238708e-08 3.722365e-10 5.760319e-09 2.829172e-09 -2.961365e-11
3.954815e-09 -2.432132e-08 5.250719e-09 -7.238438e-09 -7.289128e-10 -2.665805e-10
2.531645e-09 -2.192315e-08 5.755449e-09 -2.640436e-09 4.328280e-10 -2.254101e-10
1.407312e-08 -4.366022e-08 4.552396e-09 3.544786e-09 8.183823e-10 5.177765e-10
7.670586e-09 -3.095290e-08 5.939175e-09 -5.358791e-09 -5.744880e-10 -5.970776e-10
8.559285e-09 -4.330036e-09 -1.331822e-09 -1.022416e-09 1.477902e-10 4.191358e-11
-9.224018e-09 7.168463e-08 -5.565347e-08 8.184984e-09 -9.147699e-09 -1.477297e-08
-6.352833e-09 -8.481181e-09 1.711151e-07 4.730081e-08 2.609504e-08 5.838848e-08
-4.394426e-09 6.186072e-08 -4.124138e-08 1.828334e-08 -1.049806e-08 -1.193576e-08
-4.594579e-09 4.498725e-08 -3.031682e-08 1.089387e-08 -2.973784e-09 -6.000538e-09
8.553372e-09 -4.711153e-09 -1.243951e-09 -5.338625e-10 1.484495e-10 -7.066081e-11
9.676382e-09 -5.315353e-09 -1.351892e-09 -4.027567e-10 -1.768797e-11 -2.854073e-11
1.140595e-08 -3.759240e-08 7.023088e-09 -1.752397e-09 7.108976e-10 -4.125432e-11
8.584791e-09 -3.276784e-09 -2.803273e-10 7.130562e-09 -2.307001e-10 -8.576437e-10
1.436491e-08 -3.919922e-08 5.380214e-09 -3.067979e-09 3.058043e-11 1.434447e-10
9.941507e-09 -4.228429e-09 -1.354838e-09 -5.678716e-09 1.601321e-10 -4.590639e-10
8.855345e-09 -3.009830e-09 -1.084304e-09 -8.320481e-09 -5.493205e-11 -6.389118e-10
1.097719e-08 -3.590570e-08 6.128808e-09 -4.164320e-09 -6.174890e-10 -4.723737e-10
1.780950e-08 -8.182831e-09 -6.442558e-10 -4.876501e-09 9.576121e-12 -8.412287e-10
9.103499e-09 -3.870303e-09 -1.256317e-09 -6.956495e-09 -3.201595e-10 6.615748e-10
8.610502e-09 -3.451330e-09 -1.313164e-09 -7.817178e-09 -1.538079e-10 5.359488e-10
1.627498e-08 -7.121685e-09 -1.194298e-09 -3.609069e-09 1.184850e-10 -2.620526e-10
1.312191e-08 -4.086049e-08 4.607980e-09 -3.622313e-09 -3.956207e-10 8.423798e-11
1.299734e-08 -3.737196e-08 3.409176e-09 -6.054095e-09 1.449529e-10 -1.958264e-10
2.517210e-08 2.627489e-08 -9.349724e-08 -8.652266e-09 -1.601708e-08 1.106976e-09
8.642950e-09 4.484202e-08 -8.703565e-08 -8.671592e-09 -1.558483e-08 5.464210e-09
1.140589e-08 -3.713255e-08 7.147274e-09 -1.899952e-09 1.897208e-10 -3.227130e-10
1.250580e-08 -8.704232e-09 -3.411089e-08 1.279954e-08 -1.943830e-08 8.824391e-09
1.894815e-08 4.691840e-08 -9.553994e-08 -7.537993e-09 -1.645128e-08 9.874853e-09
1.787375e-08 -1.077666e-08 -5.717917e-08 1.304443e-08 -2.766771e-08 1.295208e-08
7.938366e-09 1.635499e-08 -5.385064e-08 6.650902e-09 -9.485713e-09 8.833924e-09
3.012757e-08 8.353366e-09 -7.913606e-08 -1.036459e-08 -1.673370e-08 -1.962074e-10
1.414424e-08 -4.168523e-08 5.439094e-09 -1.222652e-09 1.357490e-09 2.275986e-10
7.596700e-08 -1.332925e-08 -6.513662e-09 1.376321e-08 5.081596e-09 1.794188e-08
2.843444e-08 2.512879e-08 -9.198927e-08 -1.393066e-08 -1.157545e-08 4.023760e-10
2.491643e-08 9.608460e-09 -9.998409e-09 9.698091e-09 -1.798524e-09 -1.537461e-09
2.773567e-08 -3.383610e-09 -6.707667e-08 7.147537e-10 -1.028918e-08 1.127521e-09
3.147757e-08 -6.331202e-09 -6.900980e-08 -5.584154e-09 -7.882374e-09 1.465035e-09
3.723956e-08 1.874838e-08 -4.113995e-09 -4.272978e-08 -1.615370e-08 1.158459e-08
-1.019126e-08 2.912328e-09 -1.898185e-08 2.434031e-08 1.954574e-09 1.637853e-09
5.156176e-08 -1.899175e-08 5.173402e-09 8.711535e-09 5.212597e-10 -6.298100e-10
-1.497913e-09 3.055914e-08 -6.653811e-08 3.563825e-08 3.318708e-08 -2.562525e-08
-1.290915e-08 3.043140e-08 -3.486575e-08 2.495463e-08 7.080172e-09 -3.454558e-09
3.170612e-08 1.333292e-08 -1.080175e-07 2.359494e-08 4.823621e-08 -1.168838e-08
1.088823e-08 -1.390214e-08 -3.614057e-08 2.832336e-08 6.744696e-09 2.040268e-09
-2.883140e-08 5.243978e-08 -3.096699e-08 1.397046e-08 9.775742e-09 -1.970018e-08
-9.967516e-09 3.597441e-09 1.429468e-09 -2.978912e-09 -9.164854e-10 -9.040391e-10
-9.592273e-09 2.110054e-09 -2.347078e-10 -4.629112e-11 -1.310082e-09 -2.956322e-10
-9.605151e-09 -3.100891e-09 9.429906e-10 1.876740e-09 -6.534223e-10 -2.300466e-10
2.361890e-08 -8.684177e-10 -7.332369e-08 2.711140e-08 1.091785e-08 -3.101524e-09
2.682235e-08 6.009287e-08 -1.254311e-07 2.307162e-08 1.379607e-08 -8.025955e-09
4.728069e-09 5.556530e-08 -8.932129e-08 3.016018e-08 1.078740e-08 -7.859475e-09
-5.643057e-09 -9.476878e-09 1.719628e-09 2.302914e-09 -3.749683e-09 -3.541174e-10
-9.392465e-09 1.834081e-09 1.547375e-09 -1.907461e-10 -9.215660e-10 -1.291306e-09
-9.472124e-09 2.604123e-09 8.740582e-10 -7.401837e-10 -2.025140e-09 1.478902e-10
2.982664e-08 -3.255750e-08 -3.301145e-08 5.372934e-10 -1.634540e-08 2.435022e-09
2.627412e-08 -4.388354e-08 -1.945635e-08 -2.871601e-10 -4.226217e-09 2.656553e-10
-1.606825e-08 2.154102e-08 -2.030426e-08 1.970466e-08 8.050749e-09 -6.274085e-09
-2.313052e-08 1.775968e-08 -2.472609e-09 1.348383e-08 1.380504e-08 -6.135165e-09
6.994012e-08 -1.280652e-08 -1.136879e-08 2.682989e-10 7.331319e-10 1.208608e-08
-1.652319e-08 9.874580e-09 -1.144275e-08 1.646004e-08 8.049543e-10 -9.240286e-10
1.511839e-08 -5.018994e-08 1.201657e-09 1.259878e-08 -1.010603e-08 3.193676e-09
1.506375e-08 -3.620351e-08 -6.634227e-09 2.040881e-09 1.059842e-09 -3.757434e-10
1.895852e-08 -4.911207e-08 -8.888756e-10 1.132646e-08 -1.808237e-08 -6.930861e-10
-6.364414e-09 -5.710833e-09 3.591846e-09 -2.237994e-09 9.163239e-10 1.607621e-10
1.274843e-09 4.617451e-10 -6.654775e-10 -3.420472e-09 -2.234478e-10 1.018578e-10
-2.783726e-09 2.839405e-09 -1.578595e-10 -5.131368e-09 -2.968552e-10 -5.759970e-11
-3.398740e-10 -1.888193e-08 5.154014e-09 -5.123232e-09 -8.640299e-11 -3.128374e-10
3.903841e-09 -8.085585e-10 -8.947687e-10 -5.991684e-09 -3.819660e-11 -1.523641e-10
-4.462795e-10 1.992314e-09 -2.996585e-10 -4.799178e-09 -2.758200e-10 4.361351e-10
3.907942e-09 -8.081899e-10 -8.114807e-10 -5.993638e-09 -1.173985e-10 5.927669e-10
-3.987985e-09 -1.180777e-08 4.019052e-09 -5.498985e-09 5.798217e-11 2.217219e-10
1.039597e-08 -5.539845e-09 -1.361005e-09 -6.606582e-10 -9.175960e-11 2.487238e-10
3.452277e-09 -8.040382e-10 -9.845582e-10 -6.213149e-09 -3.313045e-10 2.827090e-10
1.435414e-08 -2.580369e-09 -4.277467e-08 -1.949449e-08 -7.101518e-09 -3.132538e-09
2.260782e-08 -4.381979e-08 -1.540075e-08 -8.087070e-09 -1.516222e-08 -2.696252e-09
9.992716e-09 -5.478704e-09 -1.388082e-09 -1.811564e-10 3.737602e-11 1.310951e-11
8.965431e-09 -1.433203e-08 -2.658272e-08 -2.236712e-08 -1.690994e-08 -7.079919e-09
2.807725e-08 -3.175742e-09 -7.082595e-08 -1.291809e-08 -1.068503e-08 9.884813e-11
1.370073e-08 -3.232115e-08 -1.140651e-08 -6.721479e-09 -9.943306e-10 -6.085043e-11
1.010422e-08 -5.805998e-09 -1.529085e-09 -8.704837e-10 2.454119e-11 -8.225720e-11
1.789938e-08 -1.308760e-08 -4.115308e-08 -1.716115e-08 -6.130329e-09 -1.525726e-09
9.243243e-09 -5.209276e-09 -1.342181e-09 -2.368649e-10 -1.069889e-11 -9.082046e-11
9.801644e-09 -5.410663e-09 -1.356048e-09 3.846841e-11 -4.375046e-11 7.903145e-11
5.955342e-08 -3.361379e-08 2.183877e-08 -1.247080e-08 -9.517016e-10 1.252700e-08
-6.159486e-09 1.466955e-08 -4.184416e-08 2.917545e-08 5.084653e-09 -2.851957e-09
-5.643226e-09 2.044842e-08 -4.184416e-08 2.705200e-08 5.804047e-09 -2.962538e-09
-1.063768e-09 -3.018750e-09 -2.780799e-08 2.847669e-08 3.837029e-09 -1.643795e-09
4.161105e-09 -2.505328e-08 5.672186e-09 -4.016406e-09 9.540797e-10 1.742224e-10
1.283941e-08 -3.860124e-08 -9.600873e-09 1.933946e-08 6.568805e-09 -5.149640e-10
6.083669e-09 -2.951979e-08 6.010850e-09 -3.982659e-09 1.055500e-09 -1.259685e-09
-1.743611e-09 -2.655380e-08 2.219565e-09 1.930011e-08 2.728979e-09 -7.862249e-10
2.880953e-10 -2.350332e-08 -3.476898e-09 2.217085e-08 1.781221e-09 -1.464797e-10
8.414303e-09 -4.858323e-09 -1.324679e-09 -2.373142e-09 -6.876866e-11 1.155681e-10
7.431429e-09 -3.836457e-09 -1.199181e-09 -3.682343e-09 1.140856e-11 -1.207236e-10
5.351713e-09 -2.357928e-09 -9.158618e-10 -2.832037e-10 -1.494228e-10 -2.371608e-10
7.852950e-09 -3.229891e-09 -1.237379e-09 -4.791418e-09 1.972651e-10 -2.552376e-10
1.482478e-08 -6.778740e-09 -1.500652e-09 -1.737909e-09 2.833719e-11 -2.794207e-10
1.152179e-08 -6.049354e-09 -1.269142e-09 2.163331e-09 1.606318e-11 2.658076e-10
7.685688e-09 -2.842881e-09 -1.322406e-09 -6.038047e-09 -2.525361e-10 -3.369647e-10
3.012368e-08 -6.107728e-10 -7.082595e-08 -1.014420e-08 -1.131102e-08 -1.964778e-10
2.707024e-08 1.006821e-09 -6.716631e-08 -1.619824e-08 -6.263656e-09 -1.463268e-09
1.857826e-08 -4.111972e-08 -7.612066e-09 2.541058e-09 -2.203420e-09 1.147377e-09
3.018556e-08 -3.763383e-08 -4.225569e-08 -4.404613e-09 -2.536846e-08 9.794823e-10
3.133540e-08 -1.590834e-08 -5.416319e-08 -1.142541e-08 -2.557410e-08 -9.576496e-10
1.408967e-08 -1.827754e-08 -2.896582e-08 1.091806e-08 -2.737887e-09 1.816049e-10
-1.225166e-08 1.464315e-08 -2.368985e-08 2.250654e-08 2.983899e-09 -1.880264e-09
-1.265487e-08 9.882727e-09 -2.368984e-08 2.422990e-08 2.308100e-09 -1.781116e-09
-1.893409e-08 7.923657e-09 -5.688666e-09 1.403309e-08 2.135762e-09 -1.495319e-09
-2.868000e-09 4.629946e-09 -3.460713e-08 2.912439e-08 4.833749e-09 2.029707e-09
2.872938e-08 -2.734206e-08 -4.608847e-08 -5.710250e-09 -5.874427e-09 3.809300e-10
2.517964e-08 -4.917229e-08 -1.023784e-08 -3.925220e-10 -3.998772e-09 6.441115e-11
1.169610e-09 1.177444e-09 1.686158e-10 7.247331e-09 -2.834044e-10 -2.957852e-10
-1.703541e-09 2.387354e-09 5.402612e-10 5.854447e-09 -2.739666e-10 -3.899241e-10
-1.448928e-08 4.993992e-08 -3.973920e-08 -1.753985e-09 7.887149e-09 -7.404466e-09
-1.243298e-09 2.068555e-09 -3.131905e-10 -9.567818e-10 -3.764579e-10 -1.041702e-10
1.724964e-09 1.690319e-10 -4.946455e-10 -4.869825e-10 -1.823892e-10 -1.560642e-10
-5.408953e-09 -6.618804e-09 3.828688e-09 -3.543327e-09 -3.751032e-10 -4.216077e-10
1.731559e-08 -7.455311e-09 -2.054972e-10 4.175009e-09 -7.085748e-11 -1.105976e-09
1.612952e-08 -8.058687e-09 -8.635399e-10 -3.213956e-09 3.666834e-11 -3.120906e-10
-5.415518e-09 -9.562223e-09 3.567072e-09 -5.100503e-09 -6.247647e-11 -3.741784e-11
1.321067e-09 -2.021411e-08 5.203092e-09 -5.067435e-09 6.763101e-11 8.327286e-11
9.023721e-09 -3.679139e-09 3.371081e-11 7.401241e-09 -2.728215e-10 -3.845999e-10
-5.282356e-09 -8.692584e-09 -1.052738e-09 3.244174e-09 -2.225633e-09 9.022911e-10
-5.109551e-09 -5.505489e-09 -2.824282e-09 3.756369e-09 -4.636915e-10 3.063371e-10
5.583832e-08 -2.694600e-08 2.173626e-08 -1.085237e-08 -4.346483e-10 1.341788e-08
9.109097e-09 -5.206135e-09 -1.305744e-09 5.967499e-11 7.464029e-12 -2.580802e-11
9.359438e-09 -5.361726e-09 -1.317500e-09 8.835718e-13 -1.547357e-11 3.181344e-11
6.313195e-09 -3.911147e-09 -1.020574e-09 9.511220e-10 1.678433e-10 2.293009e-10
-9.540880e-09 -1.420981e-08 4.637098e-09 5.342313e-09 8.103558e-10 -2.497642e-10
-1.040367e-08 -1.305482e-08 4.801565e-09 2.855460e-09 1.879903e-10 8.790746e-11
-1.477902e-09 -2.567747e-08 5.916613e-09 1.003623e-08 -1.094995e-10 4.383964e-10
1.140587e-08 -3.613900e-08 6.957617e-09 -1.882447e-09 2.533831e-10 -3.135824e-10
-7.401237e-09 -1.419009e-08 2.797365e-09 1.252528e-08 4.785175e-10 1.854653e-10
-6.195171e-09 -2.117764e-08 7.312564e-09 2.255817e-09 5.779885e-10 -6.096307e-10
1.313860e-08 -3.840179e-08 7.079227e-09 -9.757789e-10 3.266637e-10 -7.173482e-10
-9.620388e-09 -9.211069e-09 4.150588e-09 1.765546e-08 3.802429e-09 -2.027768e-09
9.607826e-11 1.263943e-09 -4.241036e-10 -2.633350e-09 -5.032718e-10 3.955258e-11
1.944489e-08 1.249719e-08 -7.077462e-09 -2.360871e-08 -6.317266e-09 4.004083e-09
1.696081e-08 1.241215e-08 -5.095108e-09 -9.014155e-09 -7.263956e-11 -1.724967e-09
-2.623817e-09 2.886017e-09 2.510880e-12 -7.898906e-10 -4.664113e-11 -1.923974e-10
-3.371355e-09 3.581807e-09 2.219203e-11 -4.932930e-10 2.876743e-11 -2.594280e-10
6.351956e-08 -4.192972e-08 6.409951e-08 -1.584369e-08 -6.256857e-09 4.938916e-08
4.834200e-08 -1.719906e-08 1.065104e-08 -1.262730e-08 -4.753040e-10 2.630322e-09
3.593891e-09 -1.247892e-09 -7.864296e-10 -8.328565e-10 -2.105849e-11 3.852632e-10
2.074359e-08 1.885655e-09 -7.892830e-09 -5.363748e-10 -1.723630e-09 -5.736823e-10
7.962237e-09 -2.998253e-08 -1.525305e-09 6.562511e-09 -6.405839e-09 2.291669e-09
-9.724822e-09 2.053278e-09 -3.113448e-09 5.258961e-10 -2.252604e-09 7.579916e-10
-5.601529e-09 -1.438570e-08 2.194232e-09 7.251938e-09 -3.435447e-09 2.515924e-10
7.576401e-09 -4.071639e-09 -1.060155e-09 -2.041190e-09 -2.883537e-10 2.232613e-10
-7.113644e-09 -1.840590e-08 5.881307e-09 7.702785e-09 1.975304e-09 -7.517620e-10
8.882153e-09 -4.952636e-09 -1.241721e-09 -1.327444e-09 -1.416802e-10 4.068699e-11
1.349712e-08 -3.547225e-08 -8.525918e-09 -1.288084e-09 -4.598089e-09 -2.866653e-10
9.350368e-09 -5.281589e-09 -1.317301e-09 -1.082578e-10 -2.917436e-11 -3.405365e-11
1.516861e-08 -4.007454e-08 -1.719504e-08 -2.298271e-08 -2.444698e-08 -9.665338e-09
3.868858e-09 -2.391651e-08 -8.160871e-09 -4.936505e-09 3.066047e-10 -1.603333e-09
5.056536e-09 -2.590910e-09 -5.644292e-10 1.445343e-09 1.722024e-10 3.692120e-10
6.412520e-09 -2.572072e-08 -7.341610e-09 -4.112784e-09 1.852194e-09 1.925926e-10
7.566019e-10 -1.965301e-08 -5.617059e-09 -5.351267e-09 -1.220994e-09 -6.383072e-10
-7.811700e-09 -1.107801e-08 -3.744731e-09 -2.203314e-09 -1.523631e-09 -9.044383e-10
5.727013e-09 -3.305593e-09 -8.500218e-10 5.402438e-10 -4.088507e-12 3.290256e-10
1.001718e-09 -6.837126e-10 -1.771010e-10 9.946775e-10 1.809914e-10 3.785938e-11
-7.876229e-09 2.628841e-09 1.610592e-09 1.941746e-10 2.289333e-10 5.788582e-11
-7.811200e-09 4.134389e-09 1.079154e-09 3.782256e-11 -3.394018e-11 -6.645286e-11
-8.004952e-09 3.756205e-09 1.344562e-09 1.469211e-10 1.502909e-11 -1.441558e-11
-8.077350e-09 3.677396e-09 1.410993e-09 2.231979e-10 3.159006e-11 -4.044654e-11
-8.209152e-09 1.979021e-09 2.010836e-09 -1.466547e-10 -1.029470e-10 -4.937162e-11
-1.733024e-08 2.500037e-08 -1.521878e-08 -1.656121e-08 3.717774e-09 6.357004e-09
3.372184e-09 -1.720439e-09 -5.780390e-10 1.021122e-09 -1.227980e-10 1.060214e-10
-1.569989e-08 1.184739e-08 -4.182554e-09 -7.620543e-09 1.160180e-09 1.630582e-09
-1.404225e-08 1.391966e-08 -4.032817e-09 -9.932508e-09 8.717966e-10 1.405935e-09
-1.791022e-08 1.621825e-08 -2.435568e-09 4.406092e-10 -6.960297e-10 3.487909e-10
1.052871e-08 -6.052049e-09 -1.384760e-09 1.520555e-09 1.683212e-10 3.399454e-10
5.721468e-09 -2.447364e-09 -6.540657e-10 5.151831e-09 -1.417752e-10 -1.528822e-10
1.149171e-08 -6.504217e-09 -1.145321e-09 2.008873e-09 -7.270024e-11 -5.163194e-10
1.008003e-08 -4.121472e-09 -6.406538e-10 6.084675e-09 3.460308e-10 1.619658e-10
1.054350e-08 -5.382660e-09 -1.313480e-09 1.726503e-09 2.425258e-10 2.439948e-10
-1.362444e-08 3.538441e-08 -4.112380e-08 2.445237e-08 6.255325e-09 -4.283693e-09
-4.926836e-09 2.771028e-09 6.103031e-10 5.527797e-10 2.978464e-10 -1.296651e-10
-2.626934e-09 1.593472e-09 3.455094e-10 2.950054e-10 1.773627e-10 -1.646696e-10
-3.999649e-09 2.157070e-09 4.281482e-10 6.996357e-10 1.726292e-10 5.715006e-11
1.409007e-08 -1.772918e-08 -3.695601e-08 1.305706e-08 -6.947263e-09 2.099247e-09
-2.200414e-09 2.332742e-09 -2.474877e-10 -2.474347e-09 -6.669609e-11 -2.326184e-10
1.171019e-08 -2.544782e-09 -5.157587e-08 1.123803e-08 -8.748355e-09 5.220969e-09
2.289097e-08 -2.901104e-08 -2.934887e-08 7.803322e-09 -6.775701e-09 2.134922e-09
2.928441e-08 -1.971064e-08 -5.471305e-08 3.230211e-09 -2.654485e-08 5.281373e-09
-7.100225e-10 1.510085e-09 -4.858229e-10 -4.442141e-09 -2.223076e-10 9.526027e-11
3.592411e-09 -1.068593e-09 -8.131016e-10 -2.422346e-09 -1.444113e-10 1.964168e-10
-5.809984e-10 1.608785e-09 -3.221707e-10 -1.658824e-09 -4.058034e-10 -3.387179e-11
6.380631e-09 -3.662970e-09 -7.941892e-10 1.088419e-09 -3.569969e-11 -4.451606e-11
3.676721e-10 -2.353149e-10 -1.662916e-10 1.840567e-09 2.689268e-10 1.752786e-10
7.570858e-09 -4.393175e-09 -1.081783e-09 3.722952e-10 1.177736e-11 2.183702e-10
5.671545e-09 -3.070171e-09 -7.848353e-10 1.037750e-09 -8.598856e-11 -2.207612e-11
-1.028919e-08 -1.080169e-08 3.574869e-09 5.270816e-09 5.525154e-10 -1.144959e-09
8.961097e-09 -5.205208e-09 -1.293652e-09 2.603798e-10 2.188269e-11 5.434475e-11
-5.849964e-09 -1.974323e-08 1.502231e-09 1.761695e-08 1.137769e-09 3.873775e-10
-2.775285e-09 -2.204443e-08 2.429035e-09 1.481324e-08 1.625009e-09 5.497967e-11
2.300707e-08 -1.062775e-08 4.871578e-09 4.772641e-09 -4.089219e-10 -1.809251e-09
1.709951e-09 -1.373695e-08 -6.892338e-09 -1.504472e-08 -1.134741e-08 -4.501942e-09
8.867928e-09 -5.172888e-09 -1.283581e-09 1.923969e-10 3.412540e-12 1.038696e-10
7.929310e-09 -1.109252e-08 -2.459960e-08 -1.613554e-08 -4.975493e-09 -1.105641e-09
7.457109e-09 -4.194740e-09 -1.007822e-09 8.111569e-10 -7.075327e-11 -1.366169e-10
-1.211894e-09 -3.200065e-08 4.544556e-09 -9.139603e-09 -7.227791e-09 -2.381108e-09
2.576822e-09 -1.591147e-08 -1.273470e-08 -1.277782e-08 -3.441727e-09 -2.766877e-11
-4.328404e-09 3.388466e-08 -7.036435e-09 -2.983174e-08 3.487318e-09 -9.174169e-09
5.189510e-08 -1.447854e-08 2.890515e-08 -2.442768e-08 -9.912580e-09 1.461032e-08
4.964730e-08 -1.035741e-08 -2.075620e-09 -9.753602e-09 -2.069604e-09 2.623074e-09
2.627412e-08 -4.870890e-08 -1.293645e-08 -2.605928e-10 -8.759555e-09 3.364976e-10
2.806961e-08 -2.019303e-08 -4.623517e-08 -1.169418e-08 -6.983144e-09 -5.654726e-10
2.042906e-08 -5.618384e-08 1.438505e-09 -1.243409e-08 -1.368997e-08 -1.895093e-09
-1.867420e-08 5.943488e-09 -2.523226e-09 1.012130e-08 -1.103668e-09 -1.051575e-09
-5.379121e-09 -1.740940e-08 4.080907e-09 1.084075e-08 -9.994463e-11 -1.759639e-10
-1.461637e-08 -5.740120e-09 1.754358e-09 3.485120e-09 1.710819e-09 -1.062843e-09
-1.370153e-08 -8.922137e-09 2.792182e-09 3.802563e-09 1.226603e-09 -1.054999e-09
-2.334651e-09 -1.190615e-08 4.008540e-09 -7.058959e-09 2.539129e-10 -3.357108e-10
9.420749e-09 -2.215757e-08 -1.792560e-08 1.029945e-08 -2.773100e-09 1.708468e-09
-1.936035e-08 9.182424e-09 -6.251286e-09 1.121316e-08 5.507105e-09 -1.618885e-09
2.116756e-08 -9.571280e-09 1.469714e-09 3.668500e-10 -4.237372e-11 -1.028673e-09
-7.904139e-09 5.133076e-10 2.571265e-09 -2.325060e-10 3.389062e-10 1.723981e-10
9.198907e-09 -1.789077e-08 -1.902754e-08 1.247076e-08 -1.189312e-08 5.335814e-09
-1.293174e-09 -1.477685e-08 4.218178e-09 -7.348092e-09 -5.764322e-11 1.736771e-10
-7.675226e-09 -3.844979e-09 3.187845e-09 -3.686721e-09 4.871623e-10 2.635465e-10
7.675755e-09 -2.996264e-09 -4.990757e-10 6.412543e-09 -1.699319e-10 -2.150410e-10
-7.498716e-09 -3.613773e-09 3.203956e-09 -2.450832e-09 -9.427791e-12 2.094006e-10
5.591573e-09 -1.986460e-09 -3.308167e-10 6.502327e-09 3.672472e-10 -1.532647e-10
1.771075e-09 4.087231e-11 -1.302700e-10 5.546683e-09 -5.278571e-11 -1.782297e-10
-6.726639e-09 -4.469009e-09 3.591848e-09 -1.011270e-09 -3.468807e-10 3.170753e-11
-5.064663e-09 -7.962646e-09 4.249586e-09 2.393502e-10 4.266366e-10 -1.268062e-10
9.779690e-09 -5.593331e-09 -1.438589e-09 -3.879075e-10 4.594397e-11 -1.913442e-11
1.352359e-08 -6.507745e-09 1.369854e-09 7.241717e-09 3.309871e-10 1.012593e-10
9.811049e-09 -5.110001e-09 -1.329887e-09 -8.616799e-10 -4.283629e-11 2.605507e-10
1.256919e-08 -5.691715e-09 -4.619145e-10 5.484793e-09 2.841412e-10 2.709240e-10
6.533036e-09 -3.032360e-09 -7.819980e-10 4.501463e-09 1.694891e-10 4.385405e-10
1.113550e-08 -5.572636e-09 -1.452298e-09 -1.983183e-09 -8.763046e-11 1.608500e-10
9.647315e-09 -5.669451e-09 -1.328505e-09 1.127630e-10 -2.890266e-11 1.871975e-11
9.365595e-09 -5.293974e-09 -1.329409e-09 1.752739e-10 1.223138e-11 -2.892742e-12
8.868726e-09 -5.215355e-09 -1.267264e-09 9.200913e-10 6.349432e-11 8.448037e-11
-2.025126e-09 -1.564508e-08 -3.349577e-09 -1.731715e-08 1.652318e-09 1.796288e-10
-2.332928e-09 -1.100563e-08 9.336243e-10 -1.328319e-08 1.525224e-09 -2.145420e-10
-2.427911e-08 4.700179e-08 -1.836346e-08 -2.231416e-08 2.795219e-09 -4.280865e-09
-1.852206e-08 2.077808e-08 -1.142423e-08 -2.994723e-09 -2.403252e-09 -6.946529e-10
-1.264109e-08 4.044554e-08 -1.259867e-08 -1.489414e-08 3.158946e-10 -8.678163e-09
-1.902656e-08 2.075852e-08 -9.246052e-09 -3.258767e-09 -6.429104e-09 -1.953308e-09
-2.234430e-08 7.250630e-08 -4.920896e-08 2.559822e-09 1.108511e-08 -2.028087e-08
-1.185859e-08 7.325084e-09 -1.451255e-08 -1.258122e-08 -7.835930e-09 -2.535190e-09
1.312637e-08 2.314095e-08 -5.506695e-09 2.829180e-08 -5.044465e-11 3.769324e-09
-1.248680e-08 6.269138e-08 -5.936362e-08 8.262037e-09 3.486452e-09 -7.166787e-09
2.393581e-08 -1.126185e-08 6.597021e-09 -2.194289e-09 -1.168779e-10 -2.348438e-09
6.441789e-09 -3.547997e-08 8.756885e-09 8.885630e-10 9.500589e-11 2.258128e-10
-4.050798e-09 -1.096051e-08 3.955092e-09 -6.134460e-09 -2.946590e-10 -5.785498e-10
6.439839e-09 -3.626427e-08 8.749804e-09 7.826169e-10 3.413466e-10 -1.760234e-10
4.619041e-09 -3.346356e-08 8.499964e-09 4.149202e-09 4.626888e-10 -2.240763e-10
-8.046066e-09 -5.091091e-09 2.228212e-09 -7.017089e-09 5.642584e-10 -2.878545e-10
-7.747364e-09 5.165450e-09 8.545999e-10 -6.488381e-10 -2.356848e-11 -2.307561e-11
-6.488559e-09 -3.891186e-09 2.719918e-09 -5.180654e-09 -2.224521e-10 8.769548e-11
-7.745801e-09 5.202663e-09 8.224745e-10 -6.369576e-10 -3.172440e-11 -3.443623e-10
-1.406687e-09 -6.614766e-09 -1.992005e-08 1.161534e-08 -6.776025e-09 5.080817e-09
9.420727e-09 -1.565219e-08 -1.792560e-08 9.992016e-09 -1.102120e-09 1.550470e-09
-8.142133e-09 5.202664e-09 9.878187e-10 -6.836376e-10 -6.206280e-11 -3.459557e-10
-4.560333e-09 2.498701e-09 8.404131e-10 2.074191e-09 -9.095302e-11 3.416178e-11
-3.716185e-09 1.809794e-09 4.840626e-10 2.524675e-09 -9.728574e-11 -3.743519e-10
9.101216e-09 -5.524746e-09 -4.076510e-08 1.457130e-08 -2.036929e-08 1.382120e-08
-4.998989e-09 2.432470e-09 5.854428e-10 1.416034e-09 -2.007106e-11 -4.846441e-10
-4.574842e-09 2.371770e-09 5.676584e-10 1.072305e-09 -1.060951e-10 3.043610e-11
-1.912753e-09 1.420845e-09 3.977849e-10 2.786223e-09 1.588781e-10 4.365335e-10
-5.292907e-09 2.555221e-09 7.799512e-10 1.601229e-09 2.260589e-10 -1.610405e-10
-4.953369e-09 2.719921e-09 7.970700e-10 1.298499e-09 -8.504308e-13 -2.030198e-11
-3.714426e-08 5.929922e-08 -5.165004e-09 -1.596919e-08 -4.826040e-09 -1.722424e-08
-4.947799e-08 8.013808e-08 8.200571e-09 -2.672100e-08 -2.367455e-08 -2.345342e-08
-8.839849e-08 -7.745749e-08 3.154311e-07 -1.349906e-09 4.485927e-09 2.470111e-08
-2.383431e-08 1.367679e-07 -5.683410e-08 3.072071e-09 -2.327857e-08 -2.132503e-08
-1.432952e-07 -5.520624e-08 4.509618e-07 -1.354285e-08 4.277679e-08 -2.449570e-08
-1.413473e-07 2.273195e-08 3.523471e-07 3.727148e-08 -9.382417e-08 -9.102287e-08
-4.610552e-08 9.310032e-08 4.449548e-08 -2.146832e-08 -3.964912e-08 -1.566214e-08
1.909189e-08 -2.608310e-08 -2.812529e-08 1.161187e-08 -1.687858e-08 3.805195e-09
-1.801866e-07 -8.677306e-08 4.258475e-07 -9.577260e-09 -5.422361e-09 -9.915503e-09
-9.434991e-08 -7.445736e-08 2.760530e-07 -2.751189e-08 -1.399848e-08 2.930683e-08
-1.044408e-07 -8.168280e-08 3.289437e-07 -1.664656e-08 1.248753e-08 2.008967e-08
-1.293164e-09 -1.702090e-08 4.218180e-09 -7.078898e-09 -3.279521e-10 2.385336e-10
-4.911028e-08 -8.716152e-08 2.991695e-07 -1.219832e-08 2.323333e-08 9.593542e-08
9.060854e-09 -2.607018e-08 -9.025872e-09 6.143624e-09 -4.612669e-09 8.518952e-10
6.973980e-09 1.130672e-07 -9.733276e-08 2.331927e-09 -4.723069e-09 -1.731329e-08
1.227657e-08 -4.418766e-08 2.844759e-09 7.779286e-09 -6.578457e-09 2.060195e-09
-1.235577e-07 -8.164071e-08 3.399874e-07 2.696393e-11 5.879812e-09 9.883891e-09
9.446958e-09 -2.110939e-08 -2.680276e-08 1.518681e-08 -6.886078e-09 1.299009e-09
1.710710e-08 -2.486627e-08 8.546322e-08 -5.625468e-08 -2.919915e-08 5.904350e-08
-1.163446e-09 -1.403433e-08 -9.608690e-09 -2.151311e-08 3.936070e-09 2.509032e-09
4.053379e-09 -1.717373e-08 -1.409931e-08 7.902366e-09 1.209532e-10 1.293535e-09
9.915320e-09 -5.256581e-09 -1.383110e-09 -1.691447e-09 -2.534595e-10 2.832534e-10
2.291757e-08 -3.181577e-08 -2.565326e-08 -1.387868e-08 1.242557e-08 2.313683e-09
-1.789209e-08 1.857679e-08 -5.133412e-09 -6.162324e-09 -1.159926e-09 -7.370701e-10
4.254761e-09 -1.852836e-08 -1.429772e-08 -2.173037e-08 1.071957e-09 1.001223e-09
1.931054e-09 -1.378669e-08 -5.446867e-09 -1.820946e-08 6.182557e-10 6.229210e-10
4.257363e-09 -1.036796e-08 -1.429772e-08 -2.215612e-08 1.563732e-09 9.514585e-10
-6.954204e-09 -1.736666e-08 7.016961e-09 2.645299e-09 7.138602e-10 -6.731440e-10
1.050149e-08 -5.790016e-09 -1.400339e-09 -4.565895e-09 -1.092939e-10 -8.809087e-11
-2.027015e-09 -8.752078e-09 -2.973245e-09 -1.716699e-08 2.321164e-09 1.199491e-09
1.203083e-08 -5.545126e-09 -1.566575e-09 -3.173793e-09 -1.969450e-10 3.252936e-10
3.451088e-09 -6.595072e-09 -2.015591e-08 -2.561299e-08 1.052853e-08 4.366272e-09
-5.724402e-09 5.020646e-10 -1.981787e-08 -2.483977e-08 8.848917e-09 4.925240e-09
-1.159593e-09 -6.368320e-09 -1.067373e-08 -2.184042e-08 3.515341e-09 7.760224e-10
5.464087e-09 -2.576740e-08 6.487066e-09 -3.852986e-09 4.746261e-10 -9.504479e-10
1.593726e-08 -4.311687e-08 6.793055e-10 -2.392391e-09 1.013460e-09 1.565251e-12
7.675792e-09 -3.330175e-08 5.068465e-09 -5.250637e-09 8.569743e-10 -6.588690e-10
7.048279e-09 6.752238e-09 -2.117780e-09 -2.051674e-08 7.526884e-10 -2.021333e-10
9.702777e-09 7.645185e-09 -1.053001e-09 -2.460049e-08 1.855229e-09 6.673201e-10
8.885583e-09 -3.072320e-08 4.471056e-09 -7.781245e-09 9.696899e-10 1.291324e-10
1.781339e-09 1.114483e-08 -4.285276e-09 -1.952773e-08 -7.536336e-10 2.217510e-09
-1.037932e-08 5.263372e-09 -5.330145e-10 -3.166976e-09 -2.381453e-10 3.758709e-10
-8.219940e-09 1.821605e-08 -1.143806e-08 -1.719562e-08 -1.931756e-09 4.658263e-09
-8.365135e-09 8.788583e-09 -5.037764e-09 -8.040274e-09 -1.473046e-09 1.269812e-09
-4.578372e-09 -2.091997e-09 -7.460509e-09 7.561016e-09 -5.411742e-09 2.548568e-09
-1.041049e-08 4.325763e-09 -3.848335e-10 -1.391029e-09 -9.788070e-10 6.404424e-10
1.665993e-08 -7.824716e-09 1.017608e-09 -1.028127e-08 8.447466e-11 -8.318868e-10
-1.089037e-08 7.338375e-09 -2.740254e-09 -4.133908e-09 -1.547182e-09 9.684267e-10
-1.031678e-08 2.694221e-09 -2.080863e-09 9.186504e-10 -1.437426e-09 1.198460e-09
-8.649258e-09 9.220351e-09 -2.642793e-09 -8.331299e-09 -6.492117e-10 5.508020e-10
-1.083881e-08 1.200436e-08 -5.607102e-09 -5.955676e-09 -1.693415e-09 1.978349e-09
-1.070886e-08 7.452352e-09 -9.112477e-09 9.268088e-10 -7.631884e-10 -1.351795e-10
-8.877492e-09 3.790036e-10 -2.133444e-09 1.005383e-09 -2.104794e-10 -2.734365e-10
4.816644e-08 -4.729248e-08 7.124083e-08 -3.120209e-09 -7.264322e-10 2.797111e-09
-1.074974e-08 1.318301e-08 -8.941092e-09 -4.328102e-09 -4.358676e-10 5.394320e-10
6.633391e-09 -2.803623e-08 4.635102e-09 -8.848049e-09 1.803741e-09 -4.425454e-10
1.655039e-08 -3.805441e-08 -4.780688e-09 -1.097435e-08 5.344035e-09 9.793642e-10
2.919374e-08 2.228717e-08 -1.262381e-08 1.847196e-08 -3.893320e-09 -3.814494e-09
4.648301e-09 -2.963160e-08 5.855193e-09 -5.287551e-09 9.294928e-10 -1.059743e-09
-3.277624e-08 -6.168782e-08 2.128261e-07 -2.046520e-08 -3.177253e-09 2.180005e-08
7.066871e-08 -4.192972e-08 6.064761e-08 -1.769593e-08 -4.804006e-09 5.451770e-08
-3.606217e-08 -3.260543e-08 1.533269e-07 -5.024826e-08 -2.075669e-08 3.224308e-08
-3.296185e-08 -4.771464e-08 2.670515e-07 -4.858766e-08 -8.339493e-08 9.563378e-08
-2.744608e-09 -1.377617e-08 4.501465e-09 -5.047827e-09 4.590602e-10 -8.088123e-11
7.644418e-09 -3.325751e-08 6.337514e-09 -5.339591e-09 5.930596e-10 1.251604e-10
-4.116866e-08 -2.114221e-08 1.699628e-07 4.756232e-08 3.232199e-08 5.744780e-08
-2.862734e-10 -1.764856e-08 4.908023e-09 -6.825826e-09 -6.517695e-10 -6.057096e-10
1.441117e-08 8.595228e-08 -1.262473e-07 -9.535937e-09 3.154624e-08 9.269285e-09
4.089539e-08 6.353452e-08 -1.439740e-07 1.043192e-08 1.975618e-08 -8.011435e-09
1.147349e-08 -3.554070e-08 6.626311e-09 -2.950918e-09 3.626944e-10 -9.305077e-10
-1.535045e-09 -1.805313e-08 1.648320e-09 4.800096e-09 -5.485469e-09 7.313165e-10
-4.136048e-09 -1.876255e-09 -8.416736e-09 6.133720e-09 -1.304753e-09 8.172677e-10
1.302161e-09 2.226079e-08 -4.046075e-09 -3.564163e-08 -1.085383e-09 7.257024e-09
1.632951e-09 1.314480e-08 2.458754e-08 -3.081946e-08 -2.805700e-09 -4.513583e-09
-4.534284e-10 3.947527e-10 3.325784e-11 3.303400e-10 4.056888e-11 2.118377e-10
-3.835595e-09 2.213225e-09 7.013297e-10 2.222868e-09 1.552554e-10 3.036968e-10
1.424358e-08 -7.265675e-09 -1.371240e-09 -2.607224e-09 -1.037408e-10 -3.402114e-10
1.135299e-08 -5.197172e-09 -1.056906e-09 4.057927e-09 -6.607147e-11 -2.982325e-10
2.017314e-08 -9.002971e-09 6.298064e-10 -4.858582e-09 -1.398813e-10 4.232902e-10
9.530959e-09 -4.299008e-09 -9.261457e-10 4.574102e-09 -1.652561e-10 -1.767057e-10
2.680807e-09 -2.085297e-08 -1.720597e-09 3.836003e-10 2.223708e-16 4.252067e-10
-4.578371e-09 -1.300850e-08 -7.137422e-09 9.082223e-09 -4.767228e-09 2.182072e-09
8.770791e-09 -4.661121e-09 -1.068096e-09 1.875446e-09 2.280676e-11 -1.865259e-10
7.541409e-09 -3.611580e-09 -9.007617e-10 3.802524e-09 -1.402499e-10 -2.298242e-10
1.400438e-08 -6.811301e-09 -4.136540e-10 4.095647e-09 1.812499e-10 3.774732e-10
-3.164546e-09 -1.243291e-08 -1.270231e-09 3.354568e-09 -5.289109e-10 7.978681e-10
-1.067473e-08 1.427677e-09 -2.173327e-09 1.391910e-09 -1.015618e-09 5.595837e-10
-8.725694e-09 2.786316e-11 -4.041522e-09 3.379098e-09 -2.400991e-09 2.188392e-09
-6.178685e-08 4.654600e-08 1.437324e-07 2.527369e-08 4.830167e-10 3.275593e-10
6.530302e-08 -2.698545e-08 5.795648e-09 -1.088840e-09 6.096788e-10 2.496049e-09
5.444271e-08 -2.825987e-08 1.065104e-08 -1.471689e-08 1.458142e-09 4.477228e-09
1.692840e-08 -9.570056e-09 1.469715e-09 3.023643e-10 -4.732045e-11 -1.158805e-09
3.837542e-08 -1.814133e-08 1.512194e-08 -2.889623e-08 -6.469116e-09 7.894156e-09
2.621407e-08 -1.326582e-08 3.727227e-08 -3.674164e-08 -2.053994e-09 4.136635e-09
-4.724402e-09 1.053383e-08 -4.952972e-08 -2.864853e-08 9.143760e-09 9.864291e-09
1.341321e-08 -7.753867e-09 -5.670621e-08 -3.012866e-08 2.539637e-08 1.170261e-08
6.411021e-08 -2.767151e-08 5.655859e-09 3.998958e-10 2.759410e-10 2.222653e-16
-3.912651e-09 3.818788e-08 -1.326877e-09 -3.726151e-08 -4.055658e-09 -7.565038e-09
-8.083336e-09 3.355899e-09 1.524430e-09 6.307879e-10 5.308709e-11 -7.930805e-11
-8.115051e-09 6.899592e-10 2.418768e-09 -3.176892e-10 -9.792639e-12 -1.530303e-10
-8.024325e-09 1.693053e-09 2.038484e-09 -1.434000e-10 -1.614882e-10 -4.494566e-11
-7.082705e-09 -4.891430e-09 3.413073e-09 -1.933319e-09 -2.390671e-10 -6.062230e-10
7.559518e-09 2.652240e-08 1.769992e-08 -4.191357e-08 -5.876736e-09 7.254955e-09
3.407995e-10 2.438601e-08 1.531454e-09 -2.639315e-08 -3.472210e-09 -3.080904e-09
-7.583986e-09 -1.468732e-09 2.919169e-09 3.888811e-10 2.956073e-10 -6.640422e-11
-2.667014e-08 5.567401e-08 -3.564933e-08 -6.045563e-09 1.323581e-08 -1.817222e-08
-4.081448e-09 -1.050105e-08 3.485186e-09 -6.512484e-09 1.303844e-09 3.574718e-10
-1.720176e-09 1.521930e-08 -5.145768e-09 -2.342404e-08 1.276906e-09 -7.164957e-10
9.421220e-09 7.198132e-09 2.007110e-10 -2.409180e-08 7.026853e-10 -9.764646e-10
1.624195e-08 9.724970e-10 3.101001e-09 -2.309523e-08 2.710099e-09 -3.467121e-09
1.161686e-08 -1.349963e-09 2.343432e-09 -1.999224e-08 1.495258e-09 -2.575723e-10
1.392214e-08 -6.503841e-09 -1.238693e-09 2.155870e-09 1.734706e-10 4.251896e-10
1.498860e-08 -8.161902e-09 1.598860e-09 5.129995e-09 -2.841109e-10 -1.068139e-09
1.781088e-08 -8.182540e-09 -5.309335e-10 -4.877373e-09 -2.128761e-10 2.828846e-10
1.094149e-09 -1.981271e-08 3.855118e-09 -9.710081e-09 -1.137707e-09 -9.764891e-10
1.510770e-08 -6.423785e-09 3.005063e-11 5.729895e-09 -1.845169e-10 -5.155627e-10
-7.505489e-09 -1.697479e-08 6.865823e-09 1.362409e-09 1.015835e-09 -1.022771e-10
2.047371e-08 -1.113875e-08 4.350944e-09 2.506116e-09 7.629997e-11 -1.695613e-09
2.014956e-08 -9.007021e-09 1.265503e-09 -4.847949e-09 3.673556e-10 -1.435734e-09
-2.824606e-09 -1.127319e-08 4.575399e-09 -4.409297e-09 1.302595e-11 -5.257466e-10
-6.488672e-09 -7.699458e-09 3.612495e-09 -5.787260e-09 7.339151e-10 2.910050e-10
1.813983e-08 -9.050826e-09 -2.685769e-10 -4.225906e-09 9.091206e-11 -1.462134e-09
1.731713e-08 -7.454368e-09 -1.653762e-10 4.177115e-09 2.563067e-10 2.223939e-10
1.032640e-08 -4.231643e-09 -1.297466e-09 -6.003542e-09 -1.383781e-10 -2.513402e-10
9.545762e-09 -1.695634e-10 -3.096390e-08 9.805414e-09 -1.312445e-08 7.355701e-09
-3.739421e-09 5.694235e-09 -1.670440e-08 6.247896e-09 -1.563272e-09 1.229201e-09
6.704471e-09 -3.378619e-09 -9.068475e-10 3.611592e-09 1.891346e-10 4.340472e-10
2.070535e-08 -1.050441e-08 4.348630e-09 -9.166282e-10 1.172475e-10 -1.615908e-09
1.836865e-08 -8.975899e-09 3.274994e-10 1.296843e-09 2.862924e-10 -5.923648e-10
1.562604e-08 -7.351018e-09 -8.897207e-10 -6.510368e-09 -2.227161e-10 9.087014e-10
-8.872683e-09 -2.800051e-09 1.332276e-09 -8.765704e-10 -8.404144e-11 -1.020795e-10
1.486785e-08 -6.964241e-09 -1.108108e-09 -4.776635e-09 5.818617e-13 7.577761e-10
-1.025712e-08 3.198048e-09 1.548824e-09 -1.043827e-09 -3.698967e-10 -2.270180e-10
1.432839e-08 -7.322162e-09 -1.173627e-09 4.822462e-10 6.105349e-11 -1.520932e-10
1.031364e-08 -4.914625e-09 -1.179377e-09 2.965454e-09 -1.762982e-10 -1.068141e-10
-8.245537e-09 4.540686e-09 7.937184e-10 -2.676552e-09 3.526868e-11 1.222649e-10
1.262835e-08 -5.883542e-09 -1.081969e-09 3.137830e-09 -1.223152e-10 -2.504078e-10
-8.216505e-09 5.005660e-09 7.109771e-10 -1.801873e-09 -1.909686e-10 -7.827743e-10
-3.866569e-08 9.600623e-08 -6.349530e-08 -2.295869e-08 5.093932e-09 -3.401973e-08
-2.868066e-08 7.287554e-08 -4.309915e-08 1.420670e-08 8.219718e-09 -3.397129e-08
2.158576e-09 -1.470931e-08 -2.456285e-08 1.513168e-08 -1.217299e-08 7.008684e-09
1.678211e-09 3.457721e-08 -5.383685e-08 -6.730817e-09 -6.726535e-09 3.790195e-09
1.250563e-08 -2.003517e-08 -3.419494e-08 1.494887e-08 -1.804997e-08 8.373774e-09
-2.238121e-09 3.293937e-08 -2.692912e-08 -2.896696e-08 -4.381229e-09 3.030182e-09
5.368705e-10 4.506990e-08 -3.901014e-08 -2.192066e-08 -1.294402e-08 1.451710e-08
-1.720043e-08 2.363159e-08 -1.638407e-08 -5.514224e-09 -1.233503e-08 -6.325552e-09
2.672391e-08 4.761134e-09 -6.766804e-09 7.901311e-09 -1.125571e-09 -5.291736e-09
5.490036e-10 5.258259e-08 -6.386424e-08 -2.279933e-08 -1.082054e-08 5.845124e-09
5.612677e-09 5.906576e-08 -6.462102e-08 -2.600273e-08 -1.709562e-08 1.796365e-08
1.942492e-10 3.676098e-08 -2.277982e-08 1.454987e-08 -1.077202e-09 -1.210415e-09
-1.438901e-08 2.402242e-08 -1.502340e-08 1.824381e-09 -2.087964e-09 -5.176536e-10
1.251742e-08 -4.034755e-08 7.002251e-09 -5.345597e-11 -6.549844e-10 1.183018e-10
-3.029423e-09 4.975796e-09 -3.363523e-08 -2.528748e-08 4.059028e-09 1.407746e-09
-1.208604e-08 8.749518e-10 -8.232253e-09 -1.695254e-08 -5.162244e-10 4.383534e-10
-5.723988e-09 4.819707e-10 -2.480870e-08 -2.484045e-08 5.455216e-09 5.308046e-09
-4.986009e-09 -3.458656e-11 -7.733604e-09 -1.821928e-08 5.060650e-10 7.976944e-10
1.296841e-08 -4.112991e-08 7.500458e-09 1.132138e-09 -2.235096e-10 1.728546e-10
1.408062e-08 -4.092052e-08 5.681529e-09 4.049926e-09 1.926428e-10 1.815974e-10
-5.114338e-09 -7.661685e-09 -4.579758e-09 -1.727181e-08 2.873191e-09 2.331214e-09
-1.256876e-08 6.020985e-09 -1.466035e-09 -7.527841e-09 1.006736e-09 1.057214e-09
1.076704e-08 -3.948086e-08 8.136194e-09 1.343073e-09 -1.459204e-10 8.488121e-11
1.405819e-08 -7.097078e-09 -1.350434e-09 -2.493721e-09 6.907841e-11 2.170120e-10
1.092101e-08 -6.353993e-09 -1.452780e-09 5.909624e-10 6.764200e-11 3.010843e-10
1.902786e-08 -9.124520e-09 1.710059e-10 -6.022956e-10 -8.415280e-11 -9.449905e-10
1.540453e-08 -6.956733e-09 -7.842589e-10 2.929653e-09 -1.177428e-10 -3.999290e-10
1.088759e-08 -5.769522e-09 -1.498770e-09 -4.388260e-10 -9.642565e-13 9.794610e-11
8.925539e-09 -5.069973e-09 -1.108856e-09 1.157700e-09 1.641050e-10 1.683876e-10
9.605592e-10 -2.033991e-10 -1.827022e-10 1.999010e-09 2.787325e-10 1.626217e-10
6.858651e-09 -2.841879e-09 -1.261521e-09 -5.860804e-09 -2.957267e-10 4.573586e-10
-1.804977e-08 -1.363106e-09 -4.982645e-10 1.182691e-08 6.200669e-09 -1.162718e-09
-1.258731e-08 -9.752512e-09 5.133789e-09 2.455733e-09 2.085590e-09 -1.165632e-10
1.177636e-08 -6.056285e-09 -1.259262e-09 2.388487e-09 7.816675e-11 -3.103178e-10
1.532356e-08 -7.592439e-09 -4.552487e-10 2.676328e-09 -7.479179e-11 -4.642360e-10
1.884374e-08 -9.919631e-09 1.231967e-09 -9.924484e-10 1.890519e-10 -8.219696e-10
1.943764e-08 -9.049221e-09 1.493990e-09 -7.287607e-09 1.472209e-10 -2.830407e-09
-1.481845e-09 -2.277430e-08 4.923853e-09 1.106186e-08 7.026250e-10 -5.933358e-11
2.297288e-08 -1.130683e-08 2.407617e-09 -6.898164e-09 1.543511e-09 -1.552427e-09
6.796546e-09 -3.796333e-09 -9.531429e-10 2.283901e-09 2.155071e-10 3.693303e-10
6.616802e-09 -3.713497e-09 -9.465593e-10 2.296962e-09 2.389272e-10 3.756524e-10
6.918858e-09 -3.925887e-09 -9.528229e-10 1.974569e-09 2.769642e-10 4.125539e-10
6.286147e-09 -3.625550e-09 -8.806669e-10 2.031699e-09 3.150684e-10 1.515752e-10
6.331286e-09 -3.668051e-09 -8.344179e-10 1.889419e-09 4.357112e-10 3.079552e-10
7.006577e-09 -3.624894e-09 -9.284711e-10 2.137291e-09 4.189561e-10 4.860457e-10
-2.531769e-08 2.365152e-08 -8.568217e-09 -1.865749e-08 -2.162987e-08 -1.862713e-08
-2.113186e-08 1.662888e-08 -1.158649e-08 -1.757454e-08 -2.675369e-08 -1.606648e-08
-1.755942e-08 7.714471e-09 -1.163135e-08 -2.094652e-08 -2.608057e-08 -1.564188e-08
-2.600201e-08 1.648647e-08 -5.929711e-09 -2.389941e-08 -1.806119e-08 -1.977095e-08
-2.697833e-08 2.365152e-08 -8.414207e-09 -2.183263e-08 -1.884491e-08 -1.798664e-08
-2.438751e-08 7.714471e-09 -6.622676e-09 -2.759404e-08 -2.024996e-08 -1.550261e-08
-3.084616e-08 2.144607e-08 -5.500983e-09 -2.226742e-08 -1.979633e-08 -2.132147e-08
-2.763927e-08 2.147153e-08 -6.007896e-09 -2.179205e-08 -1.896327e-08 -1.831279e-08
-2.773652e-08 2.456226e-08 -9.337499e-09 -2.162511e-08 -1.823483e-08 -1.888342e-08
-2.178072e-08 1.865325e-08 -8.146233e-09 -1.196026e-08 -1.787508e-08 -1.825307e-08
-2.113952e-08 3.308224e-08 -1.633759e-08 -2.553456e-09 -1.577814e-08 -2.371651e-08
-2.115635e-08 3.409423e-08 -1.512290e-08 -2.435737e-09 -1.697481e-08 -2.377752e-08
-2.128817e-08 1.663918e-08 -6.563616e-09 -1.538949e-08 -1.458466e-08 -1.733758e-08
-2.554537e-08 3.308224e-08 -1.471956e-08 -8.305126e-09 -1.010898e-08 -2.236598e-08
-2.122665e-08 1.865325e-08 -1.004465e-08 -1.575744e-08 -1.413237e-08 -1.756311e-08
6.140851e-09 -3.502552e-09 -8.437795e-10 2.166831e-09 2.399547e-10 1.767542e-11
6.240241e-09 -3.268972e-09 -8.304077e-10 2.450994e-09 1.840421e-10 -5.210299e-11
6.015897e-09 -3.300931e-09 -8.381876e-10 2.160357e-09 2.761398e-10 -3.937629e-12
6.521393e-09 -3.520621e-09 -9.218226e-10 2.740024e-09 1.072393e-10 8.285439e-11
6.414386e-09 -3.524940e-09 -8.636829e-10 2.726283e-09 9.174206e-11 4.534689e-11
6.415167e-09 -3.598988e-09 -8.902105e-10 2.643394e-09 1.574905e-10 1.735374e-10
5.593714e-09 -2.928842e-09 -7.361292e-10 3.098541e-09 3.771281e-10 1.457381e-10
5.482523e-09 -2.696153e-09 -7.410508e-10 3.054261e-09 3.883223e-10 1.691645e-10
5.272243e-09 -2.826307e-09 -7.724850e-10 2.886549e-09 4.529165e-10 2.504930e-10
-2.416424e-08 2.013411e-08 -5.442171e-09 -2.015518e-08 -2.017852e-08 -1.827837e-08
-2.490216e-08 1.814982e-08 -8.448413e-09 -2.252914e-08 -2.181076e-08 -1.898120e-08
-2.811291e-08 1.812580e-08 -7.941881e-09 -2.300231e-08 -2.264341e-08 -2.198737e-08
7.212282e-09 -3.965677e-09 -1.023380e-09 2.600689e-09 3.249218e-10 1.861080e-10
7.448947e-09 -4.149656e-09 -9.946066e-10 2.376257e-09 3.786049e-10 1.560406e-10
7.367385e-09 -4.283163e-09 -1.018889e-09 2.502608e-09 3.212580e-10 2.139652e-10
-2.593800e-08 2.194639e-08 -6.533711e-09 -1.881101e-08 -2.177156e-08 -1.886920e-08
-2.479078e-08 2.532061e-08 -1.732921e-08 -1.740626e-08 -2.472302e-08 -2.079878e-08
-2.607316e-08 2.506064e-08 -9.630917e-09 -1.850136e-08 -2.119309e-08 -1.954094e-08
-2.106436e-08 2.546281e-08 -1.048543e-08 -1.433768e-08 -1.961989e-08 -1.820667e-08
-1.642530e-08 2.545923e-08 -2.222633e-08 -1.224188e-08 -2.789319e-08 -2.586442e-08
-1.456235e-08 3.300264e-08 -2.254880e-08 -7.898648e-09 -2.281063e-08 -2.139223e-08
6.647475e-09 -3.635421e-09 -9.287149e-10 2.478941e-09 2.127794e-10 3.296263e-10
6.693732e-09 -3.649705e-09 -9.464287e-10 2.444479e-09 1.918485e-10 3.200724e-10
6.642924e-09 -3.643121e-09 -9.401977e-10 2.459315e-09 2.030915e-10 3.123503e-10
6.852502e-09 -3.793951e-09 -9.434755e-10 2.236337e-09 2.255420e-10 3.396700e-10
6.340827e-09 -3.577822e-09 -8.778898e-10 2.226108e-09 2.671656e-10 1.183582e-10
6.358562e-09 -3.577810e-09 -8.774523e-10 2.228237e-09 2.677756e-10 1.216716e-10
6.287486e-09 -3.625218e-09 -8.657004e-10 2.084651e-09 3.304752e-10 1.776183e-10
6.858414e-09 -3.577345e-09 -9.024701e-10 2.303205e-09 3.415674e-10 3.578426e-10
-2.792377e-08 1.116852e-08 -7.568001e-09 -2.208720e-08 -2.357002e-08 -2.224036e-08
-2.797891e-08 2.036795e-08 -7.605608e-09 -2.218379e-08 -2.173289e-08 -2.210894e-08
-2.663658e-08 1.393912e-08 -9.201417e-09 -1.987030e-08 -2.499786e-08 -2.056577e-08
-2.465416e-08 9.064767e-09 -9.097710e-09 -2.175448e-08 -2.526236e-08 -2.010230e-08
-2.724248e-08 1.116852e-08 -6.244414e-09 -2.465240e-08 -2.132005e-08 -2.329366e-08
-2.765633e-08 1.637040e-08 -6.193717e-09 -2.432243e-08 -2.013197e-08 -2.290856e-08
-2.797965e-08 2.036796e-08 -7.344799e-09 -2.378424e-08 -2.032913e-08 -2.225729e-08
-2.672942e-08 9.064767e-09 -6.072603e-09 -2.623929e-08 -2.132869e-08 -2.091665e-08
-2.971223e-08 1.878910e-08 -7.308198e-09 -2.563456e-08 -2.238963e-08 -2.493111e-08
-3.091526e-08 1.908337e-08 -6.107551e-09 -2.300232e-08 -2.094361e-08 -2.408527e-08
-2.920287e-08 1.908262e-08 -5.272920e-09 -2.298944e-08 -2.096197e-08 -2.219634e-08
-2.940212e-08 2.134593e-08 -7.577588e-09 -2.313456e-08 -2.037717e-08 -2.294949e-08
-2.951419e-08 2.338092e-08 -9.622126e-09 -1.773023e-08 -2.021294e-08 -2.223424e-08
-2.794960e-08 1.814631e-08 -7.677908e-09 -1.689078e-08 -2.014776e-08 -2.042673e-08
-2.753503e-08 3.019738e-08 -1.499230e-08 -1.076104e-08 -1.801619e-08 -2.390236e-08
-2.797021e-08 2.936536e-08 -1.169877e-08 -1.163204e-08 -1.835100e-08 -2.297458e-08
-2.765107e-08 2.338092e-08 -1.016477e-08 -2.049114e-08 -1.749163e-08 -2.287717e-08
-2.560225e-08 2.000830e-08 -7.408859e-09 -2.060649e-08 -1.874142e-08 -2.034931e-08
-2.853696e-08 3.019738e-08 -1.315725e-08 -1.558773e-08 -1.325873e-08 -2.433947e-08
-2.574464e-08 1.814632e-08 -8.982838e-09 -2.008508e-08 -1.699927e-08 -2.085144e-08
6.253892e-09 -3.473961e-09 -8.879661e-10 2.300192e-09 2.271348e-10 3.009259e-11
6.263704e-09 -3.469745e-09 -8.888592e-10 2.310238e-09 2.266489e-10 2.527223e-11
6.287030e-09 -3.420273e-09 -8.698149e-10 2.376426e-09 1.819485e-10 2.781219e-12
6.141594e-09 -3.396385e-09 -8.743375e-10 2.196801e-09 2.345805e-10 3.159017e-11
6.499247e-09 -3.530072e-09 -9.190861e-10 2.730664e-09 1.733789e-10 1.735991e-10
6.523956e-09 -3.530073e-09 -9.573204e-10 2.732942e-09 1.654708e-10 1.362281e-10
6.493742e-09 -3.520620e-09 -8.896224e-10 2.731668e-09 1.362488e-10 1.262106e-10
6.493926e-09 -3.536304e-09 -9.274008e-10 2.712211e-09 1.605889e-10 1.562470e-10
5.629516e-09 -3.074934e-09 -8.082250e-10 2.909793e-09 4.102332e-10 2.282650e-10
5.681471e-09 -3.038267e-09 -7.805614e-10 2.968773e-09 3.754059e-10 1.874914e-10
5.748653e-09 -2.927615e-09 -7.925571e-10 3.061691e-09 4.266725e-10 2.108540e-10
5.413984e-09 -2.972618e-09 -7.862480e-10 2.916392e-09 4.338201e-10 2.655627e-10
-3.000897e-08 1.877725e-08 -8.908730e-09 -2.542213e-08 -2.331567e-08 -2.409397e-08
-2.718538e-08 1.887453e-08 -6.637192e-09 -2.364891e-08 -2.240728e-08 -2.107147e-08
-2.806948e-08 1.991685e-08 -7.938215e-09 -2.408194e-08 -2.213301e-08 -2.179469e-08
-2.978392e-08 1.991756e-08 -8.772219e-09 -2.409335e-08 -2.211431e-08 -2.368261e-08
6.968079e-09 -3.756161e-09 -1.011510e-09 2.726043e-09 3.183211e-10 2.020493e-10
7.008229e-09 -3.772424e-09 -1.026382e-09 2.685653e-09 2.955869e-10 1.943194e-10
7.260851e-09 -3.962968e-09 -1.015262e-09 2.546728e-09 3.361633e-10 1.610451e-10
7.096524e-09 -4.021146e-09 -1.026625e-09 2.645301e-09 3.101401e-10 2.042753e-10
-3.008719e-08 1.923597e-08 -8.854443e-09 -2.290975e-08 -2.498832e-08 -2.395353e-08
-2.896721e-08 1.931994e-08 -5.741753e-09 -2.152468e-08 -2.235681e-08 -2.206972e-08
-2.883291e-08 2.183846e-08 -1.195578e-08 -2.061377e-08 -2.516567e-08 -2.305004e-08
-2.924414e-08 2.160047e-08 -7.885561e-09 -2.156733e-08 -2.188144e-08 -2.286786e-08
-2.808253e-08 2.143781e-08 -1.172020e-08 -2.077132e-08 -2.332136e-08 -2.288052e-08
-2.698936e-08 2.143894e-08 -8.577236e-09 -1.943592e-08 -2.068923e-08 -2.100588e-08
-2.473616e-08 2.143668e-08 -1.633164e-08 -1.811252e-08 -2.591234e-08 -2.446507e-08
-2.389003e-08 2.546135e-08 -1.596023e-08 -1.605456e-08 -2.300351e-08 -2.238029e-08
-6.396265e-09 2.054205e-09 1.115963e-09 1.440072e-09 6.716871e-11 -3.474651e-10
6.711268e-08 -1.061453e-07 -7.997095e-08 -1.521935e-08 1.508389e-07 -4.660703e-09
8.332044e-08 -1.227614e-07 -8.134824e-08 -8.304311e-09 1.640836e-07 3.063911e-09
7.963209e-08 -1.612540e-07 -4.010265e-08 8.463830e-08 2.099367e-07 -2.508791e-08
6.619574e-08 -4.155613e-08 -8.801344e-08 1.039743e-08 1.459561e-07 -1.624993e-08
6.146201e-08 -1.319951e-07 -3.630354e-08 5.007278e-08 1.612642e-07 -3.046963e-08
6.226267e-08 -4.707484e-08 -7.401796e-08 4.283007e-08 1.317347e-07 -2.990199e-08
2.965885e-08 -1.074351e-08 7.903789e-10 -4.338038e-09 1.101836e-09 -8.002741e-09
3.260400e-08 -7.219308e-09 2.439175e-09 -1.307681e-08 1.826772e-09 -1.007609e-08
3.916860e-09 2.385855e-09 -1.623354e-09 -1.209429e-08 -1.051471e-09 8.351612e-10
3.586950e-08 -4.496604e-09 -5.658204e-09 -1.639275e-08 2.616698e-09 -8.657064e-09
3.428888e-08 -6.058179e-09 -6.853056e-09 -1.463951e-08 1.212076e-09 -7.243140e-09
-6.527478e-09 2.791872e-09 7.153644e-10 2.956772e-09 1.022538e-09 -4.042458e-10
3.318483e-08 -1.002064e-08 -1.694448e-09 -5.365989e-09 4.772685e-10 -7.167205e-09
3.066040e-08 -7.892339e-09 -5.163612e-09 -7.271891e-09 4.923499e-10 -3.349382e-09
-7.335975e-09 6.402567e-10 1.845231e-09 -2.732750e-11 6.107479e-10 -4.244043e-10
3.843444e-09 -3.000140e-08 -1.769777e-08 3.862441e-08 -5.106566e-08 2.521663e-08
8.558460e-09 -2.484004e-08 -4.337739e-08 3.921248e-08 -6.548597e-08 3.648422e-08
2.127447e-08 1.336463e-08 -5.609949e-08 1.627174e-08 -7.059239e-08 3.156095e-08
-6.974407e-09 1.819680e-09 1.324512e-09 9.686012e-10 3.476959e-10 -5.085545e-10
9.752619e-09 -2.214080e-08 -4.164744e-08 4.135827e-08 -6.332504e-08 3.820645e-08
4.691226e-09 -3.023788e-08 -2.333997e-08 3.396089e-08 -4.229310e-08 2.593427e-08
8.445898e-09 -9.993497e-09 -2.671657e-08 2.496696e-08 -4.780730e-08 2.729963e-08
-6.989002e-09 3.725303e-09 1.043482e-09 1.914949e-09 6.686915e-10 -6.020232e-10
2.233005e-08 -5.272543e-08 -2.758613e-09 1.175481e-08 1.442435e-08 -1.742102e-09
2.067743e-08 -5.859170e-08 -1.742237e-09 8.474520e-09 1.417412e-08 -1.450098e-09
2.439362e-08 -6.564446e-08 4.418788e-09 2.167956e-09 1.860639e-08 -6.469188e-10
2.223402e-08 -6.769373e-08 -3.230767e-09 1.552596e-08 2.141399e-08 -2.615251e-09
2.943408e-08 -7.509650e-08 -1.509032e-10 -7.044777e-10 2.518313e-08 1.157156e-09
-5.021484e-09 3.153298e-09 3.507159e-10 3.985277e-09 8.190098e-10 -8.221793e-10
2.982626e-08 -6.003417e-08 -6.365585e-09 7.801554e-09 2.220594e-08 -9.146526e-11
1.192377e-08 -4.676395e-08 4.673709e-09 2.389320e-08 1.258079e-08 -2.741703e-09
1.097230e-08 -4.625645e-08 -1.105209e-09 2.313105e-08 1.221290e-08 -3.472916e-09
1.549301e-08 -4.632908e-08 -1.303014e-09 2.261667e-08 1.236746e-08 -3.412882e-09
1.497848e-08 -5.585068e-08 2.681170e-09 2.592200e-08 1.862326e-08 -3.560256e-09
3.789798e-09 1.904321e-09 1.673985e-10 1.015213e-08 -1.304748e-10 -2.206359e-09
-6.859750e-09 1.937309e-09 1.292413e-09 1.372672e-09 -2.099276e-11 -2.665383e-10
6.637508e-09 7.038857e-10 -1.788593e-10 1.077459e-08 3.545234e-10 -1.469358e-09
7.163202e-09 2.831774e-10 6.038157e-10 1.094461e-08 -4.193494e-10 -2.579583e-09
3.601628e-09 1.404531e-09 1.934186e-11 1.002911e-08 2.787847e-10 -1.268866e-09
4.515154e-09 1.460950e-09 -1.662069e-10 9.642258e-09 2.560737e-10 -1.695017e-09
1.643873e-09 1.316069e-09 1.375207e-10 7.918127e-09 3.769907e-10 -1.741779e-09
2.375724e-09 3.247620e-09 1.046033e-09 1.147518e-08 -7.542964e-10 -2.876742e-09
7.332461e-09 7.138323e-11 6.854983e-10 1.129949e-08 -1.345830e-10 -2.461019e-09
-3.733581e-08 3.110368e-08 -4.267280e-08 -4.401756e-08 2.959395e-08 4.523792e-08
-8.034931e-09 2.985316e-09 -3.581864e-08 -5.282776e-08 3.198349e-08 3.086065e-08
-2.706547e-08 4.598138e-08 -3.101995e-08 -3.957685e-08 2.909396e-08 3.711129e-08
-2.656228e-08 -4.242393e-09 -3.124030e-08 -4.810288e-08 4.491000e-08 3.674905e-08
-1.986165e-08 2.474021e-08 -5.464813e-08 -3.861339e-08 3.832453e-08 3.807730e-08
-5.598865e-09 2.300850e-08 -4.885212e-08 -4.205717e-08 4.083684e-08 2.807951e-08
-1.500738e-08 3.021641e-08 -2.282908e-08 -9.350922e-09 -1.148707e-08 2.082645e-08
-1.800557e-08 2.861949e-08 -1.160526e-08 -1.032564e-08 -6.022231e-09 2.004737e-08
-1.892785e-08 3.386605e-08 -3.705140e-09 -1.439005e-08 -1.322313e-08 2.278446e-08
-1.840006e-08 3.720789e-08 -1.813888e-08 -1.588265e-08 -3.415007e-09 2.085350e-08
-3.071525e-08 5.593159e-08 -2.506985e-08 -1.931917e-09 -4.646016e-09 3.485518e-08
-1.869157e-08 4.245097e-08 -3.918817e-08 1.227116e-09 -3.090289e-08 4.588614e-08
-1.851379e-08 3.949123e-08 -3.826170e-08 2.468036e-09 -1.563729e-08 3.202864e-08
-1.509679e-08 5.225921e-08 -4.392685e-08 -4.650992e-09 -1.392325e-08 2.926845e-08
-1.893060e-08 2.492090e-08 3.610792e-08 3.531913e-08 -1.879995e-08 -1.684911e-08
-3.778811e-08 6.300510e-08 1.045512e-08 2.250829e-08 -2.988501e-08 4.447445e-09
8.281896e-09 -1.283806e-09 5.034824e-09 1.465670e-08 -1.222488e-09 -6.850503e-09
-1.947490e-08 2.810917e-08 3.013183e-08 3.170213e-08 -2.092031e-08 -2.030271e-08
-6.275244e-08 2.220769e-08 9.304330e-08 1.816607e-08 -3.888124e-08 -5.734583e-08
-1.510590e-08 3.023861e-08 6.242534e-08 5.049267e-08 -3.170811e-08 -3.792463e-08
-8.785016e-08 9.239473e-08 5.775052e-08 6.736057e-08 -6.887304e-08 -2.482999e-08
-2.840794e-08 6.602858e-08 2.555238e-08 4.055978e-08 -3.473272e-08 -2.239082e-08
-8.837874e-09 -4.818101e-10 1.349218e-09 -9.666508e-09 1.295833e-09 2.221586e-10
-1.122912e-08 3.982695e-09 8.276593e-10 -5.817395e-09 9.477663e-10 -4.092264e-10
-1.204310e-08 2.376149e-09 1.240812e-09 -7.307151e-09 5.694972e-10 -2.261470e-10
-1.010286e-08 -3.539075e-09 1.350362e-09 -1.203422e-08 2.089885e-09 1.135404e-09
-1.008268e-08 -2.765398e-09 -3.118390e-10 -1.179846e-08 4.247588e-09 1.163003e-09
-3.562621e-08 9.488936e-08 -8.440690e-08 -1.312995e-08 -1.767974e-08 -5.216313e-08
1.456250e-08 -4.245173e-08 3.040904e-09 -1.300028e-08 7.456383e-09 1.532349e-09
1.460502e-08 -4.297696e-08 6.616925e-09 -1.337499e-08 5.695732e-09 1.644785e-09
9.288886e-09 -3.256959e-08 5.470762e-10 -1.807530e-08 8.286433e-09 7.374023e-10
1.560444e-08 -4.649268e-08 -1.203729e-09 -1.704981e-08 1.411568e-08 2.362757e-09
1.464929e-08 -4.566585e-08 4.319417e-09 -1.373595e-08 8.825522e-09 1.711725e-09
9.208308e-09 -3.478724e-08 9.281300e-10 -1.896418e-08 1.236489e-08 8.980184e-10
-5.185258e-09 3.488374e-09 9.162235e-10 3.981134e-09 7.276486e-10 -2.626972e-10
-7.969954e-09 2.176890e-09 1.485737e-09 7.467686e-11 4.034521e-10 -1.320937e-09
-7.723588e-09 3.380948e-09 1.088609e-09 1.358798e-09 6.295732e-10 -9.787862e-10
-6.304713e-09 4.142715e-09 1.020808e-09 3.201202e-09 8.510925e-10 -1.076715e-09
-7.621273e-09 3.882978e-09 1.163869e-09 9.819835e-10 8.722289e-10 -8.260517e-10
-1.355804e-09 -1.946952e-08 4.653274e-09 -1.756464e-08 4.886341e-09 4.730349e-10
5.107600e-09 -3.082890e-08 1.375638e-09 -1.855101e-08 5.255710e-09 9.475976e-10
2.736067e-10 -2.191110e-08 1.633359e-09 -1.696257e-08 4.773139e-09 1.152664e-09
-1.388574e-09 -2.132350e-08 3.197770e-09 -1.750906e-08 3.594763e-09 9.319548e-10
1.847136e-09 -2.439932e-08 3.579737e-11 -2.185877e-08 8.275077e-09 3.563130e-09
-1.395623e-09 -1.615460e-08 2.698289e-09 -1.758302e-08 3.946852e-09 8.617712e-10
-8.782477e-09 2.725233e-09 1.523217e-09 1.392828e-10 4.607175e-10 -1.536397e-10
3.838526e-09 -2.398118e-08 -8.736683e-09 3.507532e-08 -5.041292e-08 3.122004e-08
9.534274e-09 -4.733983e-09 -1.158950e-09 4.126055e-09 3.143032e-10 1.751894e-10
1.119506e-08 -5.368600e-09 -1.452220e-09 2.537765e-09 1.823037e-10 1.261198e-10
9.446835e-09 -4.782906e-09 -1.395032e-09 2.304582e-09 2.301846e-10 4.717233e-10
9.510839e-09 -5.236499e-09 -1.450371e-09 2.264417e-09 6.606582e-11 -1.121740e-10
1.064539e-08 2.296394e-08 -9.916573e-08 -4.115563e-08 -9.030612e-08 -3.254512e-08
-8.745605e-09 5.961026e-09 1.103536e-09 2.388281e-09 4.306759e-10 -4.619666e-10
8.026055e-09 3.746825e-08 -9.904893e-08 -2.699101e-08 -6.839805e-08 -3.233991e-08
2.238156e-08 2.252964e-08 -1.105214e-07 -3.627453e-08 -9.382510e-08 -1.542016e-08
2.222796e-08 4.902401e-08 -9.824295e-08 -2.157304e-08 -7.014308e-08 -1.087491e-08
-3.246366e-09 3.046479e-09 5.835110e-11 -3.893275e-09 -2.577195e-10 -7.522019e-11
-4.966412e-08 1.150645e-07 2.372564e-08 1.446711e-08 -4.551560e-08 3.251103e-08
2.165457e-07 1.945817e-08 7.597351e-08 7.324224e-08 4.273244e-08 2.540359e-07
-2.404542e-09 3.056015e-09 -1.215499e-10 -3.889109e-09 -3.299501e-10 2.720424e-11
-7.306341e-09 1.843142e-09 1.565838e-09 2.740065e-10 4.758327e-10 -3.754214e-10
-2.747608e-09 2.669944e-09 6.276446e-11 -3.374406e-09 -4.208180e-10 4.492295e-10
-2.007359e-09 2.194180e-09 -2.648222e-10 -3.693703e-09 -1.402656e-10 -5.307310e-12
-1.012558e-09 2.073012e-09 -3.710023e-10 -4.650058e-09 -2.863202e-10 -3.854816e-10
-3.236585e-08 2.841633e-08 -1.481052e-08 4.872177e-08 3.870603e-08 -4.278129e-08
-3.067791e-08 4.556434e-09 -7.770734e-09 5.025656e-08 3.015487e-08 -2.255296e-08
1.575231e-08 -4.455737e-08 6.869741e-09 -7.445581e-09 3.299594e-09 1.413673e-09
-2.778574e-08 2.649127e-08 -2.975247e-08 3.421630e-08 2.305315e-08 -3.474169e-08
-1.217726e-08 1.093483e-08 -2.480628e-08 3.377837e-08 2.665875e-08 -2.427592e-08
-3.301254e-08 2.867503e-08 -3.321534e-08 4.841622e-08 3.995904e-08 -3.929542e-08
-7.379096e-09 1.628938e-07 -3.755217e-07 3.251485e-08 2.093223e-07 -1.576015e-07
8.996730e-09 1.399819e-09 3.108183e-08 2.838067e-08 -1.326014e-08 -2.780661e-08
1.470793e-07 -2.002138e-08 -1.779875e-07 8.337548e-08 3.676227e-07 -1.230310e-07
1.577822e-08 -5.189696e-08 -1.361419e-07 1.511823e-07 2.075076e-07 -1.350472e-07
-4.447053e-08 2.740045e-07 -5.774549e-07 3.988805e-08 3.409349e-07 -2.559884e-07
4.043296e-09 2.362012e-07 -6.183991e-07 1.077737e-07 3.855045e-07 -2.915574e-07
2.598420e-08 -5.321981e-08 -1.834048e-08 2.282650e-08 3.002339e-08 -3.282377e-09
3.460496e-08 -5.494515e-08 -2.405111e-08 2.186020e-08 5.474729e-08 -1.233328e-08
3.881594e-08 -8.664277e-08 -1.277656e-08 7.682960e-09 4.495891e-08 -3.473457e-10
2.736894e-08 -5.775761e-08 -6.720492e-09 1.146372e-08 2.441062e-08 -1.529778e-09
2.348095e-08 -5.266290e-08 -1.065419e-08 2.124911e-08 2.627417e-08 -6.163023e-09
2.463956e-08 -6.479763e-08 -1.609043e-08 2.320117e-08 3.486652e-08 -6.568503e-09
-5.226307e-09 9.988084e-09 1.484803e-09 9.402454e-09 -1.554530e-10 -2.242813e-09
-4.919698e-09 6.725696e-09 1.618953e-09 1.059166e-08 -9.482950e-10 -2.445627e-09
-5.315305e-09 6.431415e-09 -1.020410e-10 7.014864e-09 1.148619e-09 1.776731e-10
-2.842436e-09 4.149788e-09 7.413794e-10 7.485632e-09 3.086684e-10 -1.454562e-09
-3.497231e-09 6.788719e-09 1.013514e-10 8.134884e-09 7.589529e-10 -1.656209e-09
3.405601e-08 -3.174875e-08 1.329802e-07 4.279267e-08 4.293002e-08 7.748923e-08
-1.905371e-09 5.086416e-09 5.638541e-10 8.539782e-09 7.794893e-10 -6.032903e-10
2.180237e-08 -7.760145e-09 -6.662071e-10 6.714435e-09 1.462634e-10 -4.326543e-09
2.156239e-08 -5.462894e-09 -1.630414e-09 1.485252e-08 -1.761229e-09 -9.378711e-09
2.390193e-08 -3.365378e-09 -1.073320e-09 1.343222e-08 -1.325282e-09 -7.871380e-09
9.884415e-09 -3.603028e-09 -1.680351e-09 -8.557844e-09 -2.156115e-10 -2.037265e-11
9.507287e-09 -4.234721e-09 -1.650931e-09 -6.725872e-09 -4.052502e-10 -1.051694e-10
9.683934e-09 -4.061069e-09 -1.731102e-09 -8.236085e-09 -5.193389e-10 2.550201e-10
9.691099e-09 -2.150774e-09 -1.687038e-09 -9.157980e-09 -9.297330e-10 2.606358e-10
8.432402e-09 -2.565365e-09 -1.422732e-09 -8.428300e-09 -4.886606e-10 -3.787772e-10
-1.503348e-08 1.356523e-08 1.594156e-10 7.837551e-10 1.508076e-09 -2.698933e-10
-1.306281e-08 9.939094e-09 1.397101e-09 -1.257674e-09 1.455901e-10 -1.459409e-09
-1.130095e-08 1.131873e-08 -4.938878e-10 1.086400e-09 2.038266e-09 2.564089e-10
-1.546167e-08 1.145910e-08 4.687379e-10 1.885956e-09 2.062582e-09 4.722476e-10
-1.331767e-08 1.328584e-08 5.342944e-10 4.305550e-09 1.494866e-09 -6.226813e-10
4.362474e-08 -8.385838e-08 -5.808784e-08 -1.009320e-09 -1.050555e-07 7.574196e-09
3.428964e-08 -4.165430e-08 -6.965057e-08 -2.219326e-08 -7.310014e-08 -4.199031e-09
4.249470e-08 -2.352695e-08 -7.872292e-08 -1.305705e-08 -1.186444e-07 1.914321e-09
4.419286e-08 -3.028775e-08 -9.413182e-08 -5.346427e-09 -9.550142e-08 4.841407e-09
4.440052e-08 4.434912e-09 -7.489278e-08 -1.041926e-08 -6.903475e-08 2.686154e-10
-7.897934e-09 2.319860e-09 1.580969e-09 8.506872e-10 3.263413e-10 -3.539555e-10
-8.115618e-09 1.767273e-09 1.914921e-09 -2.454981e-10 6.648494e-10 -5.986096e-10
-7.738458e-09 3.510834e-09 1.255636e-09 1.787478e-09 -3.366977e-10 -1.508706e-09
-5.755716e-09 3.022411e-09 1.006650e-09 2.349901e-09 7.180513e-10 -4.132030e-10
-7.703972e-09 3.807539e-09 1.529041e-09 9.022000e-10 1.166798e-09 -4.640663e-10
-6.983336e-09 2.592887e-09 1.471130e-09 1.066256e-09 7.222969e-10 -7.051598e-10
-6.876775e-09 1.727328e-09 1.467897e-09 1.155476e-09 3.671172e-10 -6.593754e-10
8.369597e-09 -2.443677e-10 -1.573821e-09 -1.379598e-08 -5.560698e-10 9.596327e-10
1.016409e-08 -1.467016e-09 -1.662641e-09 -1.127876e-08 -3.454549e-10 -3.073180e-10
9.876596e-09 -1.369479e-09 -1.817153e-09 -1.127318e-08 -5.880254e-10 1.458183e-10
-8.177252e-09 3.969388e-09 1.457258e-09 1.357870e-09 5.568778e-10 -2.672466e-10
1.264503e-08 -2.846164e-09 -1.304166e-09 -1.100971e-08 -9.417343e-10 -6.891612e-10
9.856072e-09 -3.733242e-09 -1.511254e-09 -1.037503e-08 -5.423492e-10 2.456779e-10
-3.665978e-10 7.357741e-08 -8.342079e-08 -1.716863e-08 -4.453663e-08 -3.206082e-08
-6.008127e-08 1.076150e-07 -5.872671e-08 1.459398e-08 1.079976e-08 -4.694404e-08
-4.120685e-08 7.440707e-08 -4.359427e-08 -2.366176e-08 -2.089975e-08 -4.238017e-08
-1.374210e-09 9.986879e-08 -1.092062e-07 1.617733e-08 -4.232298e-08 -4.080220e-08
-6.430933e-09 2.602388e-09 -8.829837e-08 -5.984823e-08 -9.882705e-08 -5.887948e-08
-1.600213e-08 2.541915e-09 -8.279006e-08 -5.904392e-08 -9.902487e-08 -5.888183e-08
-8.003097e-09 3.840567e-08 -5.941354e-08 -2.258055e-08 -4.041473e-08 -3.025092e-08
3.492969e-08 8.415869e-08 1.494776e-07 -7.231272e-08 -1.130905e-07 1.403521e-07
2.698918e-08 1.985732e-08 7.635170e-08 2.840545e-08 -2.749975e-08 -9.953184e-08
8.967121e-08 -4.303326e-08 7.730406e-08 -6.516619e-09 -2.875605e-10 9.015772e-08
-1.031487e-08 9.174686e-08 2.063873e-08 -6.653499e-08 4.980272e-08 -7.005042e-08
7.941620e-09 6.681408e-08 1.957381e-07 -8.911639e-08 1.015266e-07 -1.155858e-07
-3.612938e-08 6.900268e-08 1.731802e-07 -9.343516e-08 1.085982e-07 -8.067203e-08
-5.650512e-08 1.374004e-07 -8.675411e-08 -1.392107e-08 1.269474e-08 8.404535e-09
-1.971188e-08 1.199448e-07 -9.822768e-09 -6.598322e-08 1.214908e-07 -1.161463e-07
-3.176383e-08 1.087779e-07 2.113186e-07 -7.758715e-08 1.787027e-08 -2.211422e-07
-2.909782e-08 2.264873e-08 9.141677e-08 -1.167687e-07 1.463150e-07 -6.027131e-08
-9.835504e-09 2.634901e-08 3.682500e-08 3.918446e-08 -2.031060e-08 -2.203513e-08
-1.940849e-09 2.906495e-08 5.975685e-08 4.556127e-08 -3.348087e-08 -4.481578e-08
-1.865116e-08 2.608001e-08 2.812698e-08 3.193613e-08 -2.302248e-08 -2.044389e-08
3.493526e-08 1.605124e-08 4.563208e-08 -6.681466e-08 -3.945901e-08 3.913184e-08
4.076286e-08 -4.226418e-09 8.566237e-08 3.511431e-08 -2.911802e-08 -7.833908e-08
-4.579430e-09 4.358981e-09 4.397112e-08 2.801917e-08 -1.233723e-08 -3.515880e-08
1.561439e-08 -1.281364e-09 4.655168e-08 3.401012e-08 -1.606624e-08 -3.530302e-08
-2.337636e-08 5.572585e-08 -1.128250e-08 -2.897226e-10 -6.570330e-10 -2.176079e-08
-7.381621e-09 1.425067e-09 6.522907e-08 3.094503e-08 -2.339164e-08 -3.252383e-08
4.274833e-09 3.105020e-08 1.144593e-08 3.444208e-08 -1.690606e-08 -2.517980e-08
-2.543632e-09 3.924110e-09 1.767210e-08 2.373106e-08 -1.101188e-08 -1.706389e-08
-4.701874e-10 1.866199e-08 1.789204e-08 2.379052e-08 -4.974568e-09 -1.525894e-08
1.260375e-08 -6.364168e-09 -1.560109e-09 2.635857e-10 1.061104e-10 4.965724e-10
1.150890e-08 -6.248843e-09 -1.450075e-09 -4.912560e-10 -3.053391e-12 1.988218e-10
-5.054882e-08 3.287011e-07 -9.267106e-08 -8.931059e-08 -3.411903e-07 -4.597826e-08
1.280625e-08 -6.292848e-09 -1.389485e-09 6.053310e-10 1.501295e-10 2.814464e-10
1.186941e-08 -6.046743e-09 -1.442190e-09 -1.423990e-10 4.719641e-11 3.189360e-10
1.290496e-08 -6.311375e-09 -1.537979e-09 7.008053e-10 7.191136e-11 2.043661e-10
3.345744e-07 2.392409e-08 1.329342e-07 -3.814013e-08 -2.788400e-08 3.471326e-07
5.106243e-09 2.059390e-09 1.095854e-09 1.287128e-08 -5.954939e-10 -3.182916e-09
1.241054e-08 -1.283475e-09 4.744616e-09 1.461699e-08 -1.220462e-09 -6.658146e-09
1.579537e-08 -2.341479e-09 4.104057e-09 1.312405e-08 -3.971831e-10 -5.476902e-09
9.305072e-09 -8.913542e-10 1.826216e-09 1.242294e-08 -5.327839e-10 -4.044742e-09
5.058129e-09 2.059216e-09 1.684013e-09 1.288429e-08 -5.856263e-10 -2.890568e-09
-1.673070e-07 6.510091e-07 -3.955619e-07 2.461749e-07 -3.428058e-07 -1.986841e-07
-1.728153e-07 3.037578e-07 -8.913290e-08 6.779459e-08 -1.176949e-08 4.291807e-08
-2.242129e-07 3.317428e-07 -1.232890e-07 3.080222e-08 -2.893851e-07 -1.189229e-07
-1.470999e-07 9.142898e-08 4.869250e-07 -1.099647e-07 -2.232703e-07 3.339825e-07
8.995340e-09 1.390324e-07 -6.622095e-08 -1.324598e-07 -3.143189e-07 2.109827e-07
-1.812589e-08 3.633576e-08 2.276351e-07 -7.040218e-08 -2.617460e-07 3.541325e-07
7.222172e-09 -3.637444e-08 7.330809e-09 1.078031e-08 2.385003e-09 8.959110e-11
-5.477202e-08 -2.073630e-08 4.029010e-07 -7.874546e-08 -1.966588e-07 1.270711e-07
-1.548453e-08 3.688676e-08 4.809674e-07 -7.933001e-08 -2.052094e-07 3.256907e-07
2.744182e-08 7.447492e-08 -1.303503e-07 5.230433e-08 1.225727e-07 -8.321788e-08
-3.755831e-08 8.317910e-08 -6.431612e-08 7.002629e-08 3.545536e-08 -8.697284e-08
4.331971e-08 -6.938820e-09 -1.898888e-07 1.014456e-07 1.997372e-07 -1.049092e-07
-2.825813e-08 9.558129e-08 -7.325470e-08 5.573876e-08 3.966213e-08 -1.004336e-07
2.684654e-08 1.122796e-07 -2.216820e-07 5.640089e-08 2.050945e-07 -7.417818e-08
-4.208008e-08 1.617732e-07 -6.635283e-08 -5.536824e-09 -1.491864e-08 -5.324923e-08
-3.339099e-09 1.622187e-07 -9.207468e-08 2.413413e-08 -7.968255e-09 -1.001612e-07
8.473583e-09 -4.058979e-09 -1.384957e-09 -4.168400e-09 -2.769215e-10 8.572362e-11
6.842722e-09 -3.143045e-09 -1.137890e-09 -5.249219e-09 -3.475456e-10 2.915923e-10
7.774813e-09 -3.360499e-09 -1.226582e-09 -5.040633e-09 -2.086676e-10 1.595738e-10
7.942487e-09 -3.544497e-09 -1.172901e-09 -3.849253e-09 -9.669476e-11 7.619583e-11
8.586132e-09 -4.058478e-09 -1.323839e-09 -4.021268e-09 -5.014162e-10 4.326398e-10
8.614361e-09 -3.795952e-09 -1.249955e-09 -4.123577e-09 -3.096924e-10 3.856708e-10
1.287957e-08 -3.799998e-08 3.723701e-09 -8.047522e-09 3.297128e-09 5.397915e-10
1.562176e-08 -4.398375e-08 6.546278e-09 -7.622719e-09 4.133194e-09 6.230322e-10
1.479842e-08 -3.844465e-08 3.109773e-09 -7.886633e-09 2.744387e-09 3.594854e-10
1.693901e-08 -4.127160e-08 3.151135e-09 -7.935271e-09 5.431647e-09 2.951055e-11
1.564464e-08 -4.366485e-08 3.292612e-09 -6.152506e-09 5.196175e-09 2.793337e-10
-1.981922e-08 1.599031e-08 -4.077416e-09 -2.333741e-09 -5.848459e-09 1.060438e-08
-1.908563e-08 1.752464e-08 -3.318243e-09 -3.553155e-09 -7.592302e-09 1.258571e-08
-2.762114e-08 1.785882e-08 -9.991255e-09 5.325890e-09 -1.618681e-08 2.016268e-08
-2.510321e-08 7.025909e-09 -1.287431e-08 2.012264e-08 -2.118292e-08 2.332202e-08
-1.960406e-08 1.519356e-08 -7.764651e-09 8.368917e-10 -8.283644e-09 1.335286e-08
-1.576426e-09 -1.674750e-08 5.052911e-09 -9.050366e-09 -7.771730e-11 -1.130738e-09
9.033635e-10 -2.238979e-08 3.541388e-09 -1.164392e-08 1.951064e-09 2.012991e-10
1.874340e-09 -2.299713e-08 3.164277e-09 -1.114005e-08 2.350432e-09 -8.261558e-10
2.030650e-09 -2.042562e-08 4.716695e-09 -9.549392e-09 1.543929e-09 -4.049556e-10
-8.079709e-10 -1.757827e-08 2.758386e-09 -1.310027e-08 3.145808e-09 2.174648e-10
1.893952e-09 -2.216488e-08 4.765835e-09 -1.081613e-08 8.720439e-10 -4.017583e-10
2.424129e-07 1.669132e-07 5.208338e-07 1.665598e-07 -2.086866e-07 5.493632e-07
-3.568062e-09 3.527609e-09 2.146268e-10 -5.976551e-09 -6.121327e-10 -3.878713e-10
-6.202534e-09 4.314299e-09 5.121339e-10 -4.896939e-09 -6.472911e-10 -5.064038e-10
-4.754472e-09 4.045768e-09 1.631215e-10 -4.636287e-09 -5.630502e-10 -1.685246e-10
-7.424864e-09 4.497965e-09 5.997611e-10 -4.503220e-09 -6.723562e-10 -2.225218e-10
-6.279934e-09 4.336920e-09 3.171516e-10 -4.578494e-09 -4.560206e-10 -2.185623e-10
1.684559e-08 -7.478167e-09 -1.678061e-09 -3.199845e-09 -1.831688e-10 -1.078343e-09
2.613009e-08 1.064715e-08 2.095362e-07 -9.327456e-08 -2.874206e-07 3.533779e-07
1.499506e-08 -6.398454e-09 -1.362767e-09 -4.319818e-09 -2.864469e-10 -1.563952e-10
2.579493e-08 1.282820e-08 4.508982e-08 -4.272595e-08 -2.606184e-08 3.608086e-08
1.349962e-08 -6.214998e-09 -1.447520e-09 -2.499933e-09 -2.893323e-10 3.388069e-10
1.329954e-08 -6.195412e-09 -1.580398e-09 -2.490824e-09 -1.776403e-10 -5.851095e-12
1.300159e-08 -6.488715e-09 -1.630377e-09 -3.916257e-09 -3.662581e-11 -5.961537e-10
-5.402092e-08 -2.047441e-08 1.527454e-07 -7.942908e-08 -1.884054e-07 1.284899e-07
2.679630e-08 -6.943579e-08 5.746561e-09 1.912203e-08 2.742262e-08 -3.207629e-09
2.240072e-08 -5.462844e-08 2.416129e-09 2.279989e-08 1.813487e-08 -2.817131e-09
2.012999e-08 -6.095215e-08 3.898673e-09 1.844952e-08 1.876771e-08 -1.325243e-09
3.846727e-08 -6.481510e-08 -4.754707e-08 1.178650e-08 5.426243e-08 -2.845124e-09
2.601607e-08 -5.319944e-08 -5.574501e-09 2.272661e-08 2.893428e-08 -2.504707e-09
2.463815e-08 -6.535164e-08 1.067903e-09 2.324801e-08 3.119514e-08 -6.582874e-09
1.136165e-08 -5.413397e-09 -1.231790e-09 2.169156e-09 2.908839e-10 1.910025e-10
-1.488228e-08 7.846254e-08 -1.314309e-08 -7.953943e-08 -9.840097e-08 2.283674e-08
1.151186e-08 -5.297741e-09 -1.464463e-09 2.373786e-09 1.421426e-10 1.722202e-10
9.452442e-09 -5.068905e-09 -1.202469e-09 2.385351e-09 2.707128e-10 1.847189e-11
1.131010e-08 -5.381084e-09 -1.387007e-09 2.244042e-09 3.066230e-10 4.189580e-10
-2.721984e-11 -2.165418e-08 -6.290430e-09 -2.774803e-08 1.556619e-08 5.463380e-09
4.874328e-10 -2.911940e-08 4.790643e-09 -2.477409e-08 8.767568e-09 2.117640e-09
8.618946e-09 -2.909483e-08 -3.381548e-09 -2.382061e-08 1.235282e-08 3.292250e-09
4.805455e-09 -4.633069e-08 9.174026e-10 -3.230608e-08 2.117111e-08 9.164358e-09
-4.295391e-10 2.460597e-09 -5.537613e-10 -7.309106e-09 -8.317556e-10 1.100231e-12
-3.490000e-08 3.629417e-09 -4.493181e-09 4.611305e-08 -2.562476e-08 3.269905e-08
-1.132279e-09 1.984817e-09 -4.190228e-10 -6.583341e-09 -6.318257e-10 -6.012870e-10
-3.564605e-09 3.599290e-09 -2.775040e-10 -5.947537e-09 -5.813203e-10 -3.106843e-10
-5.532255e-09 3.520648e-09 1.875038e-10 -5.630866e-09 -7.214382e-10 -2.738065e-11
-1.929977e-08 1.424078e-08 -3.200878e-08 -1.994154e-08 -3.114121e-08 -2.598454e-08
-4.364804e-09 2.638447e-08 -3.425060e-08 -9.878000e-09 -2.751384e-08 -2.490567e-08
-1.335076e-08 1.607310e-08 -1.925762e-08 -5.015871e-08 -3.466587e-08 -3.884411e-08
-3.693016e-08 4.535320e-08 -4.649397e-08 -3.224479e-08 -3.584225e-08 -4.894910e-08
-2.047004e-08 4.656609e-08 -2.649735e-08 -5.040948e-09 -1.777318e-08 -2.719424e-08
-1.285767e-08 2.243859e-08 -5.195873e-08 -3.159702e-08 -6.182565e-08 -4.205623e-08
3.385827e-09 -1.393932e-09 -5.138068e-10 4.007167e-09 6.594818e-10 3.776328e-10
-3.709221e-08 1.120668e-07 -8.945735e-08 4.395342e-08 5.192320e-08 -3.209218e-08
3.296400e-09 -1.496154e-09 -5.061265e-10 3.974703e-09 4.117035e-10 2.959961e-10
1.880508e-09 -5.293752e-10 -4.511710e-10 4.274824e-09 2.295282e-10 -7.024925e-11
9.511965e-10 -1.885473e-10 -2.614780e-10 3.788022e-09 4.980993e-10 -3.898171e-11
1.184557e-09 -4.312243e-10 -4.013612e-10 3.518104e-09 3.205372e-10 -2.967341e-10
3.048019e-09 -6.698490e-10 -5.106484e-10 4.547845e-09 3.259205e-10 -1.511935e-10
2.858947e-08 -3.068355e-08 -2.847809e-08 -2.844637e-08 -5.681332e-08 -1.256134e-08
1.785092e-08 -3.996294e-08 -3.636428e-08 -3.136718e-08 -4.454150e-08 -1.067423e-08
2.737831e-08 -2.707928e-08 -6.002885e-08 -3.249164e-08 -6.148875e-08 -2.202243e-08
2.658220e-08 -1.511455e-08 -4.348990e-08 -1.408155e-08 -4.647012e-08 -7.120935e-09
7.297253e-10 -3.916542e-08 -1.517221e-08 -5.217435e-08 -6.841878e-08 -2.523543e-08
1.969376e-09 -4.668043e-08 -2.314859e-08 -5.057363e-08 -5.530139e-08 -2.317328e-08
4.183233e-09 -1.804187e-08 -2.147295e-08 -4.240107e-08 -4.166305e-08 -2.173882e-08
4.286192e-09 1.557530e-09 -1.611711e-09 8.993318e-09 8.168581e-10 -1.234945e-09
3.047490e-09 2.122570e-09 4.740333e-10 1.043193e-08 1.606774e-10 -1.497678e-09
3.420445e-09 2.101574e-09 8.344392e-11 1.052835e-08 -7.505772e-11 -1.771768e-09
5.950945e-09 -1.900309e-10 -5.927925e-10 8.934753e-09 2.781968e-10 -1.627585e-09
6.759473e-09 2.339051e-09 -1.031791e-09 1.201659e-08 5.538564e-10 -2.309250e-09
4.996733e-09 1.211407e-09 -1.638572e-10 1.031488e-08 2.327312e-10 -1.530102e-09
3.530845e-09 2.173051e-09 4.385345e-10 1.038323e-08 2.735907e-10 -2.251271e-09
8.983529e-09 4.510244e-10 -1.252185e-09 1.064703e-08 2.726179e-10 -2.677425e-09
6.983287e-09 2.392312e-10 1.327409e-10 1.140663e-08 3.643411e-10 -2.095807e-09
-6.042292e-09 2.459911e-09 1.147799e-09 2.444555e-09 2.478022e-10 -5.063633e-10
-7.653004e-09 1.482894e-09 1.740800e-09 2.390396e-10 4.998959e-10 -4.419902e-10
-6.663527e-09 1.844107e-09 1.519687e-09 1.347368e-09 4.171536e-10 -4.562228e-10
-6.558198e-09 1.711227e-09 1.376550e-09 1.335057e-09 2.750535e-10 -4.387377e-10
-6.243875e-09 1.961035e-09 1.397638e-09 1.767775e-09 4.381326e-10 -6.017405e-10
-3.069554e-08 1.090307e-07 -4.933265e-10 -5.133702e-08 -6.682026e-08 1.208222e-09
-6.383239e-09 2.477551e-09 1.133820e-09 2.312161e-09 3.711584e-10 -4.005690e-10
-6.825128e-09 1.995228e-09 1.736078e-09 1.604127e-09 3.073660e-10 -2.583198e-10
-7.421953e-09 1.642748e-09 1.806320e-09 6.186220e-10 3.188299e-10 -6.164766e-10
-7.097234e-09 9.603047e-10 1.725040e-09 5.383249e-10 5.904451e-10 -6.791936e-10
-7.330684e-09 2.081916e-09 1.552209e-09 4.149130e-10 5.903239e-11 -5.322154e-10
1.115915e-08 2.542333e-08 3.894549e-08 -5.431093e-08 3.053596e-08 -2.342040e-08
-1.200415e-07 1.200949e-07 -1.047264e-07 1.164405e-07 8.786231e-08 -1.589211e-07
-1.781486e-08 1.213939e-08 -1.263757e-09 -9.916641e-09 3.790740e-09 3.720995e-09
-2.787626e-08 2.572070e-08 -1.046559e-08 2.874465e-08 1.762991e-08 -2.350659e-08
-1.782077e-08 1.248809e-08 -9.991722e-10 -9.677489e-09 2.251034e-09 3.718734e-09
-1.378916e-08 5.949802e-09 4.186003e-10 -9.751144e-09 5.099469e-09 1.797234e-09
-1.392733e-08 5.902360e-09 -1.154136e-09 -9.838738e-09 4.691789e-09 1.257783e-09
-1.755535e-08 4.817187e-09 -4.724559e-10 -1.572458e-08 4.243519e-09 3.779057e-09
-1.196140e-08 1.716587e-09 -1.376286e-08 1.493880e-08 -2.201566e-08 1.747949e-08
-2.189510e-08 1.674093e-08 -1.243084e-08 1.414431e-08 -1.500125e-08 1.776571e-08
-1.866475e-08 7.292959e-09 -4.731219e-09 6.724311e-09 -9.418121e-09 1.007207e-08
-1.842694e-08 -7.441572e-09 -5.209267e-09 2.488257e-08 -2.021408e-08 1.835724e-08
-2.716824e-08 1.981195e-08 -6.084757e-09 1.056040e-08 -1.328767e-08 2.561139e-08
-1.227667e-08 5.638111e-09 -7.351146e-09 1.760417e-09 -1.473716e-08 1.166784e-08
-1.458692e-08 6.659562e-09 -9.393852e-10 1.499817e-08 -1.239021e-08 1.334164e-08
-1.728539e-08 1.014050e-08 -5.146697e-10 1.233723e-08 -1.112255e-08 1.195452e-08
-1.724974e-08 -3.767324e-09 -3.106431e-09 1.850699e-08 -2.365970e-08 2.099621e-08
-2.709675e-08 1.977614e-08 -1.306295e-08 1.037436e-08 -1.386482e-08 2.416591e-08
-1.797603e-08 4.683286e-09 -1.785601e-08 1.633780e-08 -2.724554e-08 2.543492e-08
1.458429e-08 -6.770295e-09 -1.300854e-09 -7.665617e-09 -2.127511e-10 -1.173652e-09
1.307134e-08 -4.177991e-09 -1.475965e-09 -9.632582e-09 -5.931971e-10 -9.733785e-11
1.535737e-08 -6.657940e-09 -1.803833e-09 -6.591944e-09 -3.929987e-10 -7.879759e-10
1.357962e-08 -5.823599e-09 -1.164989e-09 -7.764509e-09 -1.822720e-10 -4.264304e-10
1.620139e-08 -6.523142e-09 -4.800320e-10 -7.396600e-09 6.761438e-10 -2.180015e-09
1.476730e-08 -7.357089e-09 -1.177618e-09 -5.876937e-09 -8.829742e-11 -7.222501e-10
4.160389e-10 -2.608437e-08 3.290884e-09 -2.006845e-08 5.749229e-09 1.112191e-09
1.168492e-08 -3.803656e-08 -2.909635e-08 -3.190834e-08 3.098104e-08 1.158511e-08
2.940599e-09 -1.826064e-08 -1.288619e-08 -3.388625e-08 2.351087e-08 1.107205e-08
-5.365570e-09 -1.818989e-08 -1.487051e-08 -3.599094e-08 2.012621e-08 1.230207e-08
1.110353e-08 -1.858823e-08 -3.024026e-08 -3.715285e-08 3.014942e-08 1.334357e-08
-3.622837e-08 2.040618e-08 -3.348997e-08 5.371358e-08 3.818815e-08 -3.802448e-08
-5.804101e-08 5.152987e-08 -1.529165e-08 3.459943e-08 2.372185e-08 -5.408764e-08
-4.973933e-08 2.420551e-08 -1.494452e-08 4.831969e-08 3.376828e-08 -3.551318e-08
-2.038939e-08 4.841850e-08 -3.403750e-08 2.147471e-08 2.079224e-08 -3.361334e-08
-3.327228e-08 7.228751e-08 -3.081782e-08 4.177591e-10 7.775537e-09 -3.201068e-08
-5.838950e-08 5.077374e-08 -3.674012e-08 3.326565e-08 3.084092e-08 -5.108766e-08
-4.952163e-09 2.532769e-09 8.051908e-10 3.885976e-09 5.941621e-10 -4.620281e-10
-4.212246e-09 2.146994e-09 7.266565e-10 3.113557e-09 1.835849e-10 -2.770076e-10
-3.989326e-09 2.103299e-09 5.975638e-10 3.704293e-09 2.893361e-10 -6.862548e-10
-4.735250e-09 2.406068e-09 7.801160e-10 3.537776e-09 4.726699e-10 -4.683209e-10
-5.024762e-09 3.002353e-09 1.110342e-09 3.684661e-09 6.333012e-10 -4.415829e-11
-5.648087e-09 2.463094e-09 9.620811e-10 2.802161e-09 2.423354e-10 -4.365361e-10
-4.065790e-09 2.399369e-09 7.777563e-10 3.494703e-09 3.949252e-10 1.024924e-11
1.759832e-08 -8.769171e-09 -1.563489e-09 -3.365742e-09 -2.234738e-10 -1.310923e-09
2.102662e-08 -8.540870e-09 -7.051648e-10 -4.805533e-09 4.174754e-10 -1.769021e-09
2.104105e-08 -8.528540e-09 -2.967886e-09 -4.791962e-09 6.888459e-10 -1.406051e-09
1.816573e-08 -7.689098e-09 -2.157548e-09 -4.609406e-09 4.155365e-11 -6.999803e-10
2.088591e-08 -8.301384e-09 -1.732142e-09 -4.785800e-09 -1.912079e-10 -1.213885e-09
-9.346050e-09 5.506419e-08 -2.061293e-08 -5.270941e-08 -3.982924e-08 -6.255268e-09
1.662384e-08 -5.444032e-08 3.988613e-09 1.626018e-08 1.137933e-08 -6.360779e-10
1.666070e-08 -4.805075e-08 1.114071e-09 1.548927e-08 9.895393e-09 -2.207685e-09
1.772016e-08 -5.527085e-08 -1.965563e-09 1.607162e-08 1.518878e-08 -2.611716e-09
2.265959e-08 -5.220519e-08 -2.667136e-09 1.216950e-08 1.413230e-08 -1.966279e-09
2.124347e-08 -5.236296e-08 7.285998e-10 8.705704e-09 1.135286e-08 1.925222e-10
1.165762e-08 -4.512852e-08 4.515624e-09 1.392900e-08 6.786859e-09 -1.295473e-09
1.271678e-08 -4.112819e-08 5.512120e-09 1.123208e-08 3.815485e-09 -2.508286e-10
1.476084e-08 -4.853606e-08 6.781681e-09 9.271083e-09 4.621576e-09 -5.868241e-10
1.699681e-08 -4.434962e-08 3.190012e-09 1.159652e-08 5.569124e-09 4.062107e-11
1.686237e-08 -4.517631e-08 6.777252e-09 1.193093e-08 5.445295e-09 3.578670e-11
1.113497e-08 5.187330e-08 -9.583346e-08 -3.369968e-08 -7.793683e-08 -2.767881e-08
2.354254e-08 -2.736075e-08 -5.695494e-08 -4.259581e-08 -9.416137e-08 -2.852071e-08
4.109249e-08 -8.961995e-08 -6.526426e-08 -5.202255e-08 -1.444795e-07 -2.028875e-08
1.584922e-08 2.849480e-08 -9.307008e-08 -3.165913e-08 -9.742886e-08 -3.562261e-08
2.887351e-08 2.877063e-09 -1.338151e-07 -7.139335e-08 -1.449952e-07 -5.196648e-08
3.697844e-08 -1.254165e-08 -1.487123e-07 -4.850630e-08 -1.560222e-07 -3.876289e-08
4.841991e-08 -7.744824e-08 -6.670614e-08 -2.639316e-08 -1.620246e-07 -1.942998e-08
-1.166610e-09 8.815375e-10 1.108726e-10 3.211649e-09 3.605880e-10 1.380985e-10
-9.342838e-11 -1.046452e-10 -1.511749e-10 2.866140e-09 4.810204e-10 -4.066447e-11
9.864691e-10 -1.954478e-10 -2.240157e-10 3.721174e-09 3.697815e-10 2.457355e-10
1.278462e-10 5.717866e-10 -6.286749e-11 3.783380e-09 2.723390e-10 -1.325682e-10
2.510260e-09 -4.402447e-10 -6.662551e-10 4.918450e-09 4.859614e-10 -1.070266e-11
-6.186154e-10 5.260588e-10 -2.783178e-10 4.187156e-09 3.996288e-10 -3.274644e-10
-4.303389e-08 2.070269e-08 -1.357428e-08 2.316316e-08 -1.942554e-08 3.518307e-08
-3.621843e-08 4.652392e-08 -3.169494e-08 8.478675e-09 -2.133376e-08 4.156378e-08
-4.280337e-08 2.031801e-08 -1.328344e-08 2.313010e-08 -3.357365e-08 4.498956e-08
-2.236471e-08 3.236892e-08 -5.253285e-09 2.786513e-09 -8.100435e-09 2.229018e-08
-2.747968e-08 2.666633e-08 -4.641780e-09 -2.630248e-09 -9.156109e-09 2.113110e-08
-2.536914e-08 3.112859e-08 -7.910114e-09 -1.220628e-08 -1.312212e-08 2.244728e-08
5.744629e-08 -1.179389e-08 1.035784e-07 -1.437458e-08 1.802094e-08 -1.014887e-07
-2.118463e-09 1.118500e-08 1.275602e-07 5.237476e-09 -1.308013e-08 -1.274536e-07
1.864442e-08 -1.913249e-08 1.014480e-07 1.727982e-08 -1.620755e-08 -7.304960e-08
1.748759e-08 1.335916e-08 7.410923e-08 1.745684e-08 -1.680015e-08 -6.977671e-08
9.245111e-08 3.481700e-08 1.393419e-07 7.003546e-08 -8.305571e-08 -1.691523e-07
-4.336185e-08 1.641692e-07 2.980545e-08 -1.159764e-07 -1.982378e-07 7.485246e-08
2.969074e-09 -9.654911e-09 6.644133e-08 -1.442504e-08 8.434675e-09 -5.654360e-08
6.236121e-09 -2.879458e-09 -8.588807e-10 5.931164e-09 3.954803e-10 -1.650303e-10
8.740921e-09 -3.455263e-09 -1.481544e-09 -7.255758e-09 -8.138394e-10 3.972419e-10
6.129234e-09 -2.845756e-09 -8.999197e-10 6.032638e-09 3.709938e-10 -6.207435e-10
5.331172e-09 -2.312637e-09 -5.171472e-10 4.579107e-09 3.003893e-10 -4.823130e-10
7.184678e-09 -2.818795e-09 -8.445240e-10 6.201513e-09 4.272801e-10 -2.801781e-10
3.293471e-09 -1.137138e-09 -3.156118e-10 5.833728e-09 3.245763e-10 -3.627705e-10
1.930784e-09 -3.008114e-08 2.949975e-09 2.513166e-08 5.398701e-09 -3.067832e-09
-6.106209e-09 -2.243671e-08 1.846855e-09 3.293896e-08 1.513208e-08 -5.304875e-09
-3.702573e-09 -1.994953e-08 -1.418590e-09 2.622271e-08 1.007841e-08 -4.892980e-09
5.374771e-10 -2.239426e-08 1.809781e-09 3.221357e-08 1.526068e-08 -5.935787e-09
6.446761e-08 -1.153758e-08 -1.970973e-09 1.030676e-08 1.462616e-08 5.213846e-08
-6.123470e-09 -2.264954e-08 -5.552259e-09 2.898437e-08 1.351847e-08 -8.728891e-09
-4.089489e-09 -2.119682e-08 5.120690e-09 2.453942e-08 7.527593e-09 -2.070292e-09
-4.045470e-09 3.625390e-09 2.446561e-10 -5.826449e-09 -6.890736e-10 1.025064e-10
-1.756618e-09 1.999613e-09 -5.085095e-10 -6.651491e-09 -3.433376e-10 1.838116e-10
-3.960490e-09 3.860671e-09 -2.168599e-10 -6.083550e-09 -6.637199e-10 3.764221e-10
-3.042405e-09 3.201240e-09 -2.549756e-10 -7.543922e-09 -8.621822e-10 2.364756e-10
1.174777e-07 2.820828e-08 3.600075e-08 6.505790e-08 6.534219e-08 9.752012e-08
-8.405960e-09 1.053130e-08 -3.869519e-09 -8.816055e-09 -3.440578e-09 3.089136e-09
-1.088205e-08 1.772006e-08 -5.779872e-09 -9.146105e-09 -5.718075e-09 7.581606e-09
-1.470440e-08 1.015585e-08 -4.573971e-09 -3.440820e-09 -6.220425e-09 7.188568e-09
-4.262642e-08 1.656581e-08 -3.749158e-08 -1.399052e-07 8.464681e-08 7.260610e-08
3.578881e-09 -1.125322e-07 -1.501753e-08 -8.125872e-08 9.919957e-08 4.716691e-08
4.009058e-09 -3.536597e-08 -2.129980e-08 -6.174321e-08 5.115376e-08 2.811845e-08
1.803792e-09 -3.045181e-08 -2.128798e-08 -6.959872e-08 5.026669e-08 3.101618e-08
3.614680e-09 -6.826535e-08 -1.969414e-08 -8.764941e-08 6.383173e-08 4.569910e-08
-3.947042e-08 2.931959e-10 3.462347e-09 -5.795244e-08 1.992404e-08 3.158965e-08
-7.120266e-09 2.594622e-09 1.732466e-09 1.102323e-09 6.690537e-10 -7.087906e-10
-7.598711e-08 1.090363e-07 -6.416378e-08 -5.014099e-08 -8.079106e-09 -5.089173e-08
-8.850133e-09 2.258350e-09 1.701838e-09 -1.825881e-09 7.958363e-10 -6.246221e-10
-1.009180e-08 1.977969e-09 1.579893e-09 -4.316275e-09 9.610287e-10 -2.641489e-10
8.121471e-08 -4.237946e-08 5.916446e-08 -2.341557e-09 -1.668413e-08 9.995606e-08
-8.122677e-09 2.113140e-09 1.808389e-09 -1.795840e-09 9.834480e-10 -7.823997e-10
-7.359728e-09 3.739955e-09 1.038302e-09 1.570545e-09 9.525648e-10 -4.902140e-10
-9.318961e-09 1.193162e-09 2.034229e-09 -2.479132e-09 6.420964e-10 -1.172179e-09
4.879818e-08 -1.184236e-07 9.653348e-10 1.226390e-08 7.381958e-08 -1.028534e-08
3.066664e-08 -7.705248e-08 -1.179697e-08 3.584183e-08 4.164497e-08 -1.395543e-08
4.289218e-08 -8.455962e-08 -1.621026e-08 6.878061e-09 5.806099e-08 9.077039e-10
-1.076422e-07 9.282572e-08 2.672542e-07 -1.807201e-08 -1.249680e-07 4.362693e-08
3.751199e-08 -1.075421e-07 -1.063259e-08 4.600387e-09 5.483981e-08 -2.397141e-10
3.959800e-08 -9.980878e-08 -1.585169e-09 1.269120e-08 4.591904e-08 -6.756875e-09
-9.011228e-08 1.519078e-07 -4.787823e-08 8.710937e-09 2.416622e-08 -9.707756e-08
-1.905141e-08 1.040358e-07 -9.937402e-08 3.345607e-08 3.580756e-08 -4.759717e-08
-1.691019e-08 1.147188e-07 -9.965944e-08 2.823899e-08 7.880988e-08 -7.699309e-08
-1.173459e-07 3.254469e-07 -1.661334e-07 2.992573e-08 -8.395249e-09 -1.422180e-07
-3.326965e-08 1.666914e-07 -3.656494e-08 -5.973601e-08 -6.644528e-08 -1.902540e-08
-4.657780e-08 1.381218e-07 2.018670e-08 -3.842388e-08 -9.106940e-08 -1.486789e-08
-6.456798e-08 1.091957e-07 -7.349721e-08 -1.469408e-08 -3.563610e-08 -5.603852e-08
-5.596058e-09 3.966511e-09 2.007423e-10 5.008596e-09 5.805352e-10 -1.516816e-09
-2.520880e-09 3.579070e-09 8.426460e-11 7.686884e-09 6.053289e-10 -1.199831e-09
-6.485211e-09 6.933753e-09 9.372689e-10 7.150864e-09 1.889966e-10 -9.830964e-10
-1.079355e-08 5.887206e-09 1.325072e-09 9.933787e-10 1.754552e-10 -7.235191e-10
-7.651952e-09 7.847754e-09 2.500693e-10 3.831231e-09 1.573654e-09 -7.739839e-10
-1.787382e-07 8.650776e-08 5.075310e-07 9.716421e-08 -2.561021e-07 -2.099505e-07
-2.558364e-07 -4.309763e-08 6.208605e-07 9.792578e-09 -9.894636e-09 1.109267e-08
-3.165845e-07 -8.744839e-08 6.176400e-07 -4.213373e-08 1.084078e-08 3.481425e-08
-1.747067e-08 1.732517e-08 -1.512233e-09 -7.056011e-09 2.298291e-09 1.027317e-09
-2.349672e-08 1.356249e-08 -4.824588e-09 -1.688519e-08 5.518877e-09 8.371384e-09
-2.292445e-08 1.345193e-08 -7.684006e-09 -1.886280e-08 1.217236e-08 7.841715e-09
-2.295134e-09 1.789931e-09 2.324907e-10 5.051692e-09 4.747269e-10 -2.545941e-11
-2.092849e-09 1.774616e-09 1.840534e-10 4.911885e-09 4.611469e-10 -2.749028e-10
-1.883023e-09 1.541933e-09 1.658294e-10 3.983028e-09 4.054503e-10 -1.134470e-10
-1.876211e-09 1.592656e-09 4.964225e-10 3.875964e-09 5.778011e-10 -2.408116e-10
3.090550e-08 -1.309745e-08 4.038533e-09 2.517860e-09 -3.293754e-10 -1.453091e-08
4.167902e-08 -1.386638e-08 1.437265e-08 -3.916729e-09 3.179108e-09 -2.642949e-08
4.386576e-08 -8.483897e-09 7.242167e-09 -1.466751e-08 5.156577e-09 -1.996897e-08
4.720731e-08 -8.925298e-09 -1.823486e-09 -1.335799e-08 4.474236e-09 -1.737078e-08
-3.648068e-08 1.633378e-07 -8.406485e-08 6.535343e-09 -1.904557e-09 -5.161863e-08
-2.389701e-08 1.098730e-07 -7.440799e-08 -2.864479e-08 -3.014968e-08 -3.796919e-08
-5.207582e-08 8.784363e-08 2.696355e-07 7.940974e-08 1.905485e-07 9.229347e-08
-1.238417e-08 5.686281e-08 2.704929e-08 4.925828e-08 2.554145e-08 8.717957e-09
-7.748179e-08 1.758289e-07 -1.078451e-07 6.594821e-08 4.954181e-08 -2.222772e-08
-3.242642e-08 1.071377e-07 -5.691458e-08 2.183486e-08 1.313708e-08 -3.970580e-08
5.685185e-08 -9.550937e-08 -1.004437e-07 -3.701449e-08 1.629599e-07 2.907241e-08
3.267033e-08 -4.361896e-08 -6.040952e-08 -4.559691e-08 1.019987e-07 3.568081e-08
-1.985000e-10 -6.659713e-08 -6.305805e-08 -8.365472e-08 1.334216e-07 8.094470e-08
3.591095e-09 -4.646652e-08 -9.307259e-08 -9.258969e-08 1.320571e-07 8.385352e-08
6.405807e-08 -2.528699e-08 -1.832861e-07 -8.138939e-08 2.465176e-07 5.717666e-08
-3.438684e-09 1.732482e-09 5.521104e-10 3.571555e-09 4.895502e-10 -4.353895e-11
4.271919e-08 2.037813e-08 -1.512156e-07 1.521880e-08 1.409869e-07 3.508163e-08
6.072741e-08 5.043185e-08 -1.671768e-07 -6.004098e-08 1.536711e-07 6.359426e-08
-4.295280e-09 3.888376e-09 3.216831e-10 -3.728261e-09 -3.112208e-10 1.065481e-11
-3.574111e-09 3.366809e-09 -1.246447e-11 -2.965781e-09 -1.235223e-10 -9.369544e-11
-4.687760e-09 3.717464e-09 9.257928e-12 -3.317749e-09 -1.189118e-10 -2.323309e-10
-4.847470e-09 3.837883e-09 6.436629e-11 -3.557620e-09 -3.723423e-10 -2.397517e-10
8.463662e-09 -2.970481e-09 -1.705581e-09 -9.762423e-09 -2.926258e-10 -1.183402e-10
1.270905e-08 -2.785261e-09 -2.284570e-09 -1.093367e-08 -6.686774e-10 -8.723060e-11
1.329893e-08 -4.137465e-09 -2.197629e-09 -8.470732e-09 -7.606640e-10 3.751765e-10
1.279703e-08 -4.008683e-09 -1.383814e-09 -1.101754e-08 -5.826741e-10 -6.178066e-10
3.123611e-09 3.478927e-09 8.408013e-08 -2.978038e-08 4.609765e-08 -8.186832e-08
3.550683e-09 3.286865e-08 2.629601e-07 3.951219e-08 -6.778786e-08 -1.768863e-07
-2.404088e-07 1.572770e-07 3.518420e-07 -1.478501e-07 5.600884e-08 -5.202920e-07
-1.413985e-08 1.830639e-07 -1.988847e-08 4.692033e-08 -1.479969e-07 -1.007251e-07
-1.300269e-07 2.234231e-07 -4.712803e-08 8.044667e-09 -1.354211e-07 3.780076e-08
-7.016059e-09 3.288785e-09 1.051060e-09 1.406176e-09 2.232097e-10 -1.200580e-10
-6.021343e-09 2.728342e-09 1.012979e-09 1.767582e-09 5.967027e-11 -2.968621e-10
-6.323379e-09 2.924999e-09 1.023859e-09 1.348487e-09 2.316456e-10 -1.519849e-10
-5.134768e-09 2.616167e-09 1.025832e-09 1.965526e-09 1.300011e-10 -1.043900e-10
3.004995e-09 9.066647e-09 2.465233e-07 9.210713e-08 7.308051e-08 1.561470e-07
1.472796e-07 7.747366e-08 1.660326e-07 1.682315e-07 1.085650e-07 2.302709e-07
-6.870450e-08 1.158015e-07 8.987007e-08 6.768258e-08 1.096888e-07 2.375563e-08
-3.927267e-08 2.662524e-07 5.778770e-08 1.274798e-07 2.035973e-07 1.014355e-07
-5.285398e-08 8.405394e-08 1.129059e-07 6.681654e-08 1.533101e-07 6.123747e-08
8.624934e-10 -7.060835e-11 -8.082424e-11 3.905538e-09 3.867222e-10 -1.970581e-10
8.174792e-08 2.764343e-07 -1.474416e-07 1.695822e-07 1.433800e-07 5.369556e-08
-2.438546e-09 -2.167399e-08 -6.844573e-09 3.010618e-08 1.538635e-08 -8.179397e-09
-5.887350e-09 -3.403690e-08 3.477803e-09 2.983836e-08 1.252739e-08 -4.477495e-09
-1.479838e-08 -1.422389e-08 -3.072353e-09 4.271825e-08 2.487131e-08 -1.159458e-08
-2.956369e-09 -3.802837e-08 -1.385281e-09 4.046670e-08 1.856291e-08 -8.642476e-09
-4.668737e-09 -1.417503e-08 -3.176877e-09 4.130877e-08 2.519646e-08 -1.265252e-08
-4.991481e-09 -1.417498e-08 -1.270606e-08 4.130479e-08 2.522569e-08 -1.085274e-08
-8.168909e-09 -1.809008e-08 2.628282e-09 3.235659e-08 1.325838e-08 -4.816673e-09
5.909423e-08 -5.540206e-08 -4.546750e-08 5.483851e-10 9.358100e-08 -3.338506e-09
4.779393e-08 -9.934257e-08 -4.104131e-08 3.874466e-08 8.667174e-08 -1.367496e-08
5.927942e-08 -1.113128e-07 -2.573433e-08 -4.592021e-09 8.354919e-08 -4.972805e-10
4.222238e-08 -7.672978e-08 -2.749662e-08 2.237503e-08 6.626896e-08 -8.110634e-09
6.090720e-08 -1.670560e-07 -2.896578e-08 1.494296e-09 1.218627e-07 2.596667e-09
-3.146285e-09 3.572119e-09 1.388656e-10 -2.863718e-09 -2.137243e-10 -1.507612e-10
5.298504e-08 -1.848934e-07 -1.517895e-08 3.341949e-08 1.113762e-07 -1.628450e-08
-9.009752e-08 -7.755171e-08 7.627997e-07 5.641295e-08 9.977244e-08 3.238638e-07
1.526532e-08 -8.766941e-08 1.637728e-07 6.614787e-08 5.346777e-08 1.988268e-07
-8.282825e-08 -8.839666e-08 4.477627e-07 2.612064e-08 2.962284e-08 2.077439e-07
8.008432e-09 2.735923e-12 1.074772e-07 -7.450753e-08 -1.319488e-07 1.309619e-07
-5.693385e-08 2.626706e-09 1.241309e-07 -7.045863e-08 -1.140609e-07 1.987517e-07
8.961960e-08 -5.298135e-08 1.544249e-07 7.641978e-09 2.252464e-09 2.463808e-07
1.856210e-09 -2.059680e-11 -4.737202e-10 5.208281e-09 3.875298e-10 -1.622054e-10
-1.039913e-09 -3.185878e-08 4.528456e-09 2.302095e-08 7.573511e-09 -3.091080e-09
8.338003e-10 -2.661908e-08 -1.075868e-09 2.591527e-08 1.055039e-08 -3.802114e-09
1.071707e-08 -4.189288e-08 4.893930e-11 2.349067e-08 1.446415e-08 -3.241753e-09
1.103120e-08 -3.393858e-08 -3.685128e-09 2.143864e-08 9.486765e-09 -2.168292e-09
-6.338536e-10 9.651809e-10 -1.550537e-12 5.088127e-09 5.656434e-10 -4.888133e-10
3.116395e-09 -3.315687e-08 -3.161194e-09 2.237102e-08 1.011428e-08 -2.916581e-09
2.798136e-08 -5.301431e-08 -2.823042e-08 -3.588862e-08 5.512999e-08 1.309890e-08
-4.523416e-08 -2.665603e-08 -6.027064e-08 -8.073006e-08 8.785196e-08 6.132587e-08
-2.203375e-09 -2.998738e-08 -1.049137e-08 -5.566798e-08 4.120859e-08 2.384240e-08
1.795594e-09 -4.482133e-08 -2.029865e-09 -5.467831e-08 4.524573e-08 2.414331e-08
3.466792e-08 -8.233411e-08 -2.281191e-08 -5.517802e-08 9.404886e-08 2.548118e-08
-7.584600e-09 -4.717400e-10 2.721765e-09 -1.185191e-09 -1.246131e-10 -5.801411e-10
-7.614619e-09 -5.742287e-10 2.092468e-09 -1.111089e-09 1.775888e-10 -7.201089e-10
-7.290072e-09 1.092608e-09 1.913749e-09 4.389968e-10 4.311855e-10 -5.312943e-10
-1.031605e-08 -7.126828e-08 -2.272438e-08 7.727519e-08 -7.970185e-08 4.747733e-08
-7.849096e-09 1.588193e-09 2.177095e-09 2.133657e-10 -1.055935e-12 -6.087384e-10
-7.090271e-09 8.103269e-10 1.692488e-09 5.969531e-10 -1.917868e-10 -7.211731e-10
-6.978266e-09 1.656382e-09 2.145430e-09 9.047878e-10 4.649438e-10 -4.823805e-10
-7.144357e-09 9.021203e-09 -2.580301e-09 -1.185990e-08 -1.595013e-09 1.473218e-09
-7.563735e-09 8.172885e-10 2.009228e-09 -5.259247e-10 5.032718e-10 -8.006251e-10
-4.312169e-08 5.272534e-08 -4.156879e-08 -2.364458e-08 2.953250e-08 5.815377e-08
-4.542681e-08 8.263101e-08 -7.345232e-09 -5.119806e-09 -3.090008e-09 2.030340e-08
-2.227864e-08 3.434228e-08 -2.765725e-08 -3.602826e-08 1.686067e-08 2.994391e-08
-3.987237e-08 2.182988e-08 -2.437131e-08 -2.499758e-08 3.296508e-08 2.484617e-08
4.028810e-08 -1.411144e-08 1.094692e-08 7.421078e-10 2.139790e-09 -2.552025e-08
2.978260e-08 -8.598252e-09 3.241099e-09 -1.324720e-08 4.180042e-09 -1.176858e-08
4.626073e-08 -1.399021e-08 1.168161e-08 -2.506511e-10 1.826923e-09 -2.335431e-08
4.919576e-08 3.114966e-08 -1.307006e-07 -5.117512e-09 -1.389119e-07 1.631512e-08
4.850958e-08 -7.216565e-08 -1.045212e-07 1.105645e-08 -1.841197e-07 2.511590e-08
5.701306e-08 -1.181750e-07 -3.729155e-08 6.646396e-08 -1.409903e-07 4.378252e-08
3.992568e-08 -9.101035e-08 -9.079990e-08 2.512311e-10 -1.474685e-07 7.712765e-09
7.188736e-08 -8.350409e-08 -5.512666e-08 -2.242604e-08 -1.578520e-07 -2.752735e-09
8.966388e-10 5.142115e-09 3.700418e-11 -1.624917e-08 3.413565e-10 -2.033170e-10
6.682651e-08 -2.138068e-07 -8.268626e-08 -4.813825e-08 -2.309860e-07 -1.760046e-08
6.865402e-08 -5.244153e-08 -1.545751e-07 -2.995890e-08 -2.416666e-07 -1.480218e-08
1.496004e-08 -7.384346e-09 -1.250375e-09 3.608281e-09 1.270816e-11 -9.410174e-10
2.037545e-08 -8.443653e-09 -1.320869e-09 2.258453e-10 -1.238354e-11 -1.314597e-09
2.338949e-08 -5.117484e-09 3.602204e-09 1.611942e-08 -2.269380e-09 -1.137487e-08
-3.994520e-08 1.896289e-07 -1.277544e-07 -8.650343e-08 2.519514e-08 -3.699768e-09
1.688938e-08 6.279994e-08 -9.251556e-08 -5.233798e-08 -6.543072e-08 -5.746559e-09
7.198368e-09 1.019353e-07 -2.058430e-07 -6.300730e-08 -1.692024e-07 -2.446153e-08
7.005026e-08 2.051976e-08 -1.516486e-07 1.910879e-08 -1.272959e-07 3.832840e-08
1.740019e-08 1.394803e-07 -2.295461e-07 -6.901703e-08 -1.463579e-07 -1.447567e-08
2.599034e-08 -3.805951e-09 4.006197e-08 -2.103997e-09 6.975734e-09 -5.549928e-08
3.785518e-08 -1.223427e-08 5.154726e-08 -9.630432e-09 1.492463e-08 -6.152308e-08
2.386615e-08 -1.154955e-08 3.979622e-08 -8.103040e-09 1.010287e-08 -3.681692e-08
5.186373e-08 -3.877808e-09 5.457271e-08 3.531777e-08 -2.119330e-08 -7.138495e-08
3.331328e-08 -1.713035e-09 8.216607e-08 3.563802e-08 -2.979967e-08 -8.375604e-08
3.688414e-08 -1.138285e-08 3.160928e-08 -1.084757e-08 8.774944e-09 -3.952309e-08
1.679620e-08 -1.481836e-08 4.951093e-08 -1.291613e-08 1.155966e-08 -3.509111e-08
3.313997e-08 -1.036591e-08 5.525805e-08 2.324949e-08 -1.313536e-08 -5.035419e-08
-2.333700e-08 -3.048297e-08 1.607688e-07 -9.148088e-09 -8.489748e-09 -8.604807e-08
-1.010824e-08 3.053482e-08 -2.835485e-08 1.309716e-09 -1.849910e-08 2.219549e-08
-3.164316e-08 4.068107e-08 3.117451e-07 -7.844704e-08 -1.026210e-07 -2.162411e-07
5.698122e-08 -1.418751e-08 1.213184e-07 -5.047497e-09 1.191334e-08 -1.108837e-07
6.170036e-08 -1.026022e-08 1.144908e-07 -1.550382e-08 8.385609e-09 -1.106183e-07
6.299355e-08 -7.852973e-09 1.346088e-07 -1.290395e-08 1.887179e-08 -1.483897e-07
3.117762e-08 2.011974e-07 2.272168e-07 2.214165e-08 -1.393660e-07 -2.437255e-07
2.292510e-08 -8.492197e-09 -4.509428e-10 3.502661e-09 2.693729e-10 -3.865182e-09
1.775236e-08 -7.463576e-09 -9.747070e-10 3.748479e-09 4.701724e-10 -1.943492e-09
2.191387e-08 -8.032766e-09 -2.017908e-09 2.161518e-09 -2.737118e-11 -2.654747e-09
1.902564e-08 -6.747146e-09 -7.795995e-10 6.274359e-09 2.452174e-10 -2.274552e-09
2.357675e-09 6.741921e-09 4.082474e-09 1.648618e-08 -2.001407e-09 -5.747948e-09
4.309834e-09 8.476166e-09 -1.024959e-09 1.378914e-08 1.475760e-10 -4.217073e-09
2.311557e-09 9.613788e-09 3.629411e-09 1.788151e-08 -1.864193e-09 -5.104400e-09
6.989743e-09 9.795616e-09 -3.013578e-09 1.790430e-08 -1.709704e-10 -7.401657e-09
-3.826948e-09 6.502247e-09 9.624257e-10 1.210023e-08 -8.973922e-10 -2.140957e-09
-4.268946e-09 1.180619e-08 -2.669565e-09 -1.440958e-08 -2.971566e-09 3.203534e-09
2.430606e-09 9.616991e-09 1.139860e-09 1.567079e-08 -1.302018e-09 -5.480396e-09
1.916714e-08 -3.795065e-08 -5.394596e-09 -1.379388e-08 9.611582e-09 1.881500e-09
-7.883532e-08 8.913840e-08 2.419311e-08 -1.349575e-08 -2.150157e-08 3.427534e-08
-7.127860e-08 7.597103e-08 -2.868965e-08 -1.905275e-08 1.866771e-08 7.677404e-08
-8.698972e-08 5.155554e-08 7.500828e-09 -4.740675e-08 3.100726e-08 5.105666e-08
-1.588044e-08 1.123128e-08 2.789199e-10 -4.031911e-09 -5.333971e-09 4.935017e-09
-8.627900e-08 7.937472e-08 8.830123e-09 2.380907e-08 -3.083810e-08 4.908479e-08
-7.882731e-08 9.555724e-08 3.144097e-08 -1.191451e-08 -1.464731e-08 3.612883e-08
-1.217469e-08 1.069751e-08 -2.381768e-09 -4.464575e-09 -4.322154e-09 5.008735e-09
-8.696481e-08 1.471549e-07 -7.789426e-08 -1.131772e-07 4.021536e-08 1.366555e-07
-1.033156e-08 9.722553e-09 -4.560959e-09 -6.264498e-09 -3.618952e-09 3.872043e-09
-7.627974e-08 2.206689e-08 -1.131668e-07 -1.378670e-07 1.220655e-07 1.359442e-07
-8.028598e-08 1.697169e-08 -6.414517e-09 -1.424264e-07 8.040394e-08 1.044049e-07
-6.278257e-08 1.929624e-08 -2.217834e-08 -1.358968e-07 7.277658e-08 8.882584e-08
6.341331e-09 -1.752581e-09 -1.015505e-09 -6.911389e-09 -6.088960e-10 9.062329e-11
5.501116e-09 -1.932616e-09 -1.284105e-09 -7.478256e-09 -2.205765e-10 2.028605e-10
2.403935e-09 3.062769e-10 -8.956187e-10 -7.154271e-09 -4.989132e-10 1.060353e-10
2.823144e-09 2.619668e-10 -9.022316e-10 -6.921724e-09 -3.872031e-10 1.301770e-10
2.784320e-09 2.466775e-10 -6.246424e-10 -6.965424e-09 -5.993361e-10 5.039835e-11
2.328093e-09 1.039907e-08 -2.125923e-09 -2.061134e-08 8.903804e-10 1.063659e-09
-7.627357e-09 8.479944e-09 -2.911744e-09 -1.192596e-08 -4.254967e-09 5.011089e-09
-3.729590e-09 1.468094e-08 -1.695903e-09 -1.933577e-08 2.511732e-09 2.311266e-09
5.490745e-09 4.531863e-09 3.052902e-11 -1.955637e-08 -1.221252e-09 -5.507921e-10
-5.181270e-09 8.679968e-09 -2.461720e-09 -1.212732e-08 -2.812890e-09 2.007960e-09
2.568731e-09 -8.003786e-10 -2.539009e-10 5.282771e-09 1.375339e-10 -3.186411e-10
-5.089744e-09 5.806620e-09 -7.188159e-10 -8.943053e-09 -2.239609e-09 1.615617e-09
-4.001809e-09 7.812356e-09 -2.897121e-09 -1.191202e-08 -2.543689e-09 2.327717e-09
-6.093632e-09 5.415168e-09 -1.630347e-09 -9.523142e-09 -3.062075e-09 1.211437e-09
-1.068477e-08 8.978680e-09 -2.370084e-09 -7.712288e-09 -3.259209e-09 3.145237e-09
-7.247681e-07 -7.361086e-08 8.827261e-07 -7.551503e-07 -1.218209e-07 8.003415e-07
-9.969919e-09 -3.121514e-08 -4.963477e-09 5.070329e-08 2.904331e-08 -1.428696e-08
-2.090752e-08 -2.623473e-08 -2.514871e-09 5.022513e-08 2.735607e-08 -1.502440e-08
-1.696411e-08 -9.838710e-09 -1.016027e-09 4.202334e-08 2.166274e-08 -1.190038e-08
-7.350281e-09 -6.824745e-09 -1.492094e-08 3.308232e-08 2.267216e-08 -1.423624e-08
-1.695428e-08 2.645163e-08 -2.604884e-08 3.070227e-08 1.422825e-08 -1.758132e-08
-1.614584e-08 1.733402e-09 -2.398394e-08 4.892066e-08 3.368530e-08 -2.301252e-08
9.677125e-09 -5.369727e-09 -1.245010e-09 2.172374e-09 3.144102e-10 4.016008e-10
1.099772e-08 -6.052049e-09 -1.338259e-09 1.521206e-09 2.926862e-11 -6.010581e-11
1.122011e-08 -6.406119e-09 -1.613538e-09 1.686440e-09 3.996312e-11 -2.972084e-11
1.291779e-08 -6.325798e-09 -1.596387e-09 6.580803e-10 -1.210143e-11 2.005850e-10
6.625892e-09 -3.058769e-08 5.071520e-09 -1.166152e-08 1.565135e-09 -1.742409e-10
1.886137e-09 -2.334858e-08 5.217209e-09 -1.104161e-08 1.995609e-09 -4.186701e-10
3.442438e-09 -2.313881e-08 4.345822e-09 -1.034545e-08 2.260367e-09 -4.262343e-10
2.225696e-09 -2.387562e-08 5.557064e-09 -1.011688e-08 6.333879e-10 -1.017786e-09
4.283352e-09 -2.621014e-08 5.610532e-09 -9.044424e-09 1.426414e-09 -4.746849e-10
-6.316787e-09 8.680333e-09 -2.675753e-09 -1.180623e-08 -1.791023e-09 1.383954e-09
-9.016973e-09 1.135836e-08 -2.414727e-09 -9.713357e-09 -3.685260e-09 3.461065e-09
-7.174574e-09 6.860337e-09 -2.429580e-09 -9.067582e-09 -2.429177e-09 1.250571e-09
-8.590625e-09 8.813825e-09 -1.609264e-09 -7.229270e-09 -3.225224e-09 3.384897e-09
8.965432e-09 -1.433203e-08 -3.177330e-08 -2.236712e-08 -2.998653e-08 -1.206405e-08
-5.117515e-09 5.792945e-09 -1.256682e-09 -8.915790e-09 -2.652093e-09 1.875426e-09
-5.647188e-08 4.629692e-08 -2.221652e-08 2.469418e-08 2.402145e-08 -3.847070e-08
-2.575728e-09 2.605398e-09 -9.270318e-11 -7.041158e-09 -7.567061e-10 7.089795e-11
-7.121026e-08 1.064654e-07 -1.922521e-08 -1.060353e-08 -1.918758e-08 -4.600315e-08
-2.417633e-08 7.105594e-08 -3.352252e-08 -1.091608e-08 -4.938362e-09 -2.626429e-08
-4.260378e-08 7.472978e-08 -5.124112e-08 1.371748e-08 1.829726e-08 -3.898411e-08
-1.663715e-08 -6.477487e-09 -3.138980e-09 -2.960065e-08 1.340388e-08 7.622357e-09
-1.195945e-08 -6.131337e-09 1.867857e-09 -3.180893e-08 1.329940e-08 1.137019e-08
-2.308663e-08 5.931435e-10 -2.344668e-09 -3.299832e-08 1.390670e-08 1.507221e-08
-1.720875e-08 6.014198e-09 -2.091635e-09 -2.409014e-08 9.377877e-09 6.713100e-09
-1.196207e-08 -4.166537e-09 -7.678981e-09 -3.378532e-08 1.669564e-08 1.128854e-08
-4.934550e-09 -6.969472e-09 3.911564e-09 -4.546849e-09 7.614115e-10 -9.768107e-10
-6.171156e-09 -8.610426e-09 4.005046e-09 -6.907674e-09 3.271979e-10 -7.484107e-10
-5.345114e-09 -8.687301e-09 3.991574e-09 -6.191555e-09 7.493562e-11 -9.918062e-10
-7.069878e-09 -6.095124e-09 3.983079e-09 -7.346888e-09 -1.325028e-10 -1.027667e-09
-5.264027e-09 -9.977847e-09 3.815495e-09 -6.994648e-09 8.396512e-10 -7.425658e-10
-7.608058e-09 -2.451125e-09 2.034348e-09 -8.840031e-09 2.251398e-09 -4.042767e-10
6.188429e-09 -2.846273e-09 -8.412946e-10 6.027509e-09 2.690040e-10 -1.422726e-10
-8.332209e-09 -5.362478e-09 1.308410e-09 -1.069045e-08 2.417588e-09 8.529132e-10
-9.713276e-09 -1.765530e-09 -6.352154e-10 -1.264106e-08 3.311495e-09 1.312546e-09
-6.263758e-09 -7.662985e-09 2.043428e-09 -1.233368e-08 2.375884e-09 5.643409e-10
7.463965e-09 -2.839484e-08 -7.487916e-10 -1.885851e-08 9.650235e-09 1.015064e-09
3.688781e-09 -2.350434e-08 1.780053e-09 -1.516468e-08 3.532087e-09 9.113307e-11
7.647431e-09 -3.320932e-08 4.305573e-09 -2.189785e-08 8.132845e-09 1.287443e-09
5.573483e-09 -3.179128e-08 6.058732e-09 -1.544068e-08 4.883518e-09 -3.252808e-10
4.464128e-09 -3.249887e-08 2.216460e-09 -2.027786e-08 7.439507e-09 1.150984e-09
-7.752772e-09 4.378172e-09 3.961933e-10 -4.555588e-09 -1.089275e-09 -3.332354e-10
-7.838442e-09 4.378622e-09 6.165402e-10 -4.533962e-09 -1.136136e-09 -2.957600e-10
-5.744819e-09 4.534788e-09 -1.905320e-11 -5.855683e-09 -8.290145e-10 1.663073e-10
-8.357648e-09 4.877670e-09 5.886465e-10 -4.577354e-09 -9.866490e-10 -7.009837e-11
-7.638576e-09 4.572977e-09 4.188918e-10 -4.624688e-09 -7.543697e-10 -8.450040e-11
-2.818041e-08 -1.015635e-07 -4.594207e-08 1.018005e-07 -1.175741e-07 8.265466e-08
2.079434e-08 -1.602415e-07 -7.174593e-08 1.033173e-07 -1.785646e-07 7.716199e-08
7.293794e-09 -2.742124e-09 -1.184096e-09 5.792947e-09 2.789746e-10 -3.299393e-10
9.047817e-09 -4.727313e-09 -1.421943e-09 4.355518e-09 4.695561e-10 7.069565e-10
1.154991e-08 -5.293349e-09 -1.538857e-09 3.230426e-09 1.199600e-10 -2.689398e-10
1.059288e-08 -5.305087e-09 -1.258125e-09 3.109883e-09 5.957254e-11 -4.815285e-10
1.400263e-08 -6.232826e-09 -1.662487e-09 2.526208e-09 1.660078e-10 9.638139e-10
-1.815589e-08 1.107057e-08 -2.293459e-09 -1.323957e-08 3.999216e-09 5.386972e-09
-1.260102e-08 6.361275e-09 -2.556436e-09 -1.338295e-08 3.244226e-09 1.965709e-09
-1.429853e-08 1.041869e-08 -3.220800e-09 -4.661340e-09 3.909264e-09 1.710870e-09
-1.536803e-08 8.288548e-09 -6.075185e-11 -6.483588e-09 1.744676e-09 1.243803e-09
-1.514862e-08 1.085543e-08 -2.488260e-09 -8.451095e-09 2.449187e-09 2.550175e-09
-1.504811e-08 5.962635e-09 -3.742930e-10 -1.044091e-08 3.912175e-09 8.978652e-10
-1.268316e-08 5.311438e-09 1.396397e-09 -7.658074e-09 1.242094e-09 -1.157766e-09
2.367919e-10 3.714041e-09 -5.413416e-10 8.148351e-09 9.925657e-10 -7.794011e-10
-1.312555e-09 3.671122e-09 8.173329e-11 8.744598e-09 4.817793e-10 -1.262003e-09
1.926601e-10 3.753003e-09 -1.605738e-10 9.108242e-09 7.039357e-10 -5.799397e-10
-6.075194e-09 3.730654e-09 6.267333e-10 4.670642e-09 8.547328e-10 -1.062228e-09
-3.433780e-09 1.722042e-09 5.431748e-10 3.486974e-09 6.408762e-11 -5.906597e-11
-4.660184e-09 4.807484e-09 5.868850e-10 6.166754e-09 9.754670e-10 -1.082709e-09
1.293211e-08 -6.350715e-09 -1.626979e-09 -1.062850e-09 -8.092662e-11 2.299310e-10
1.170086e-08 -6.170432e-09 -1.540450e-09 -2.484391e-09 -1.458596e-10 3.290153e-10
1.100297e-08 -5.343171e-09 -1.551484e-09 -3.402779e-09 -2.044772e-10 1.824046e-10
1.265160e-08 -6.196950e-09 -1.546104e-09 -1.710925e-09 -1.995851e-10 5.505886e-10
1.090622e-08 -5.612401e-09 -1.466159e-09 -2.055568e-09 -3.667233e-11 3.822227e-10
-1.938549e-09 1.620755e-09 2.219425e-11 4.559418e-09 3.239147e-10 -4.800709e-10
2.679014e-09 -8.172731e-10 -8.686363e-10 -5.627936e-09 -2.320126e-10 1.774830e-10
2.257811e-09 6.095144e-10 -6.969492e-10 -5.289619e-09 -2.682302e-10 8.530865e-11
7.846526e-09 -2.004265e-09 -7.232039e-10 7.528293e-09 2.539259e-11 -9.344062e-10
1.589301e-09 3.916556e-10 -5.261038e-10 -4.604487e-09 -4.419186e-10 2.668341e-10
2.616543e-09 -7.689840e-10 -8.265624e-10 -5.684177e-09 -5.113291e-10 5.404699e-11
2.949945e-09 -3.247206e-10 -7.178631e-10 -4.695069e-09 -4.519145e-10 3.297718e-10
1.332973e-10 -2.407516e-08 -5.400825e-09 -2.900601e-08 1.638368e-08 6.862358e-09
-5.925183e-09 -8.242307e-09 -3.947394e-09 -2.664225e-08 1.040343e-08 3.941108e-09
-1.197325e-08 -6.106722e-09 -7.075552e-09 -3.503509e-08 1.540519e-08 1.153451e-08
-1.663022e-08 -6.218203e-09 -6.642912e-09 -2.964317e-08 1.064548e-08 8.112747e-09
-2.278746e-08 3.199969e-09 -9.584963e-09 -3.362848e-08 1.754884e-08 1.539365e-08
-1.704514e-08 1.297306e-08 -1.335719e-08 -2.551417e-08 1.089691e-08 1.112571e-08
-2.011523e-08 3.580045e-09 -1.694709e-08 -3.252640e-08 1.666632e-08 1.505406e-08
6.155632e-09 -2.721807e-09 -8.170149e-10 3.242208e-09 3.510658e-10 -9.387802e-11
9.072458e-09 -4.098868e-09 -1.182306e-09 3.395517e-09 3.664697e-10 3.049021e-10
6.388431e-09 -3.617071e-09 -8.847516e-10 3.855575e-09 9.038215e-11 1.168310e-11
7.528675e-09 -3.740194e-09 -1.033063e-09 4.346019e-09 2.320721e-10 -3.391403e-10
-3.922809e-08 4.353886e-08 1.286535e-08 2.742452e-09 -1.273755e-08 -5.021459e-09
-7.421544e-09 3.006291e-08 3.800326e-09 2.238412e-08 -1.072581e-08 -1.067192e-08
-7.884669e-09 2.420516e-08 5.106321e-09 2.741529e-08 -1.104307e-08 -1.265884e-08
-4.037081e-09 2.532044e-08 4.467585e-09 2.238915e-08 -6.580660e-09 -1.412144e-08
2.039498e-08 -8.414009e-09 -1.220517e-09 2.762564e-10 1.804342e-10 -7.103346e-10
2.563921e-08 -9.969199e-09 -1.262036e-09 -1.238551e-09 4.407987e-10 -3.978374e-09
2.484869e-08 -9.333085e-09 -2.864158e-09 1.594690e-09 1.695611e-10 -3.487792e-09
1.964178e-08 -7.817385e-09 -7.967005e-10 6.287181e-09 8.483196e-11 -2.207257e-09
2.263714e-08 -9.560918e-09 2.339799e-09 2.974526e-09 -2.356254e-10 -4.541872e-09
1.884927e-08 -8.505147e-09 -9.102008e-10 5.991078e-10 9.172799e-11 -1.287735e-09
1.936849e-08 -9.329137e-09 -5.940899e-10 -8.467629e-10 2.996097e-10 -1.039206e-09
2.103791e-08 -9.987966e-09 -1.711182e-10 -5.597317e-10 2.982038e-10 -1.881771e-09
2.097475e-08 -8.242160e-09 -3.560731e-10 1.685159e-09 1.966572e-10 -2.025052e-09
1.943794e-08 -8.007619e-08 -9.838276e-09 5.185254e-08 -7.762290e-08 2.663993e-08
1.543754e-09 -2.996493e-08 -2.412512e-08 3.402768e-08 -4.217040e-08 2.433377e-08
1.558763e-08 -4.351652e-08 -1.455302e-08 2.959878e-08 -4.468084e-08 1.310636e-08
4.422354e-10 2.429077e-09 4.237943e-11 7.289291e-09 8.054492e-10 -2.516861e-10
1.885965e-08 -8.202241e-08 -1.957185e-08 5.008678e-08 -8.319607e-08 1.905893e-08
2.554662e-08 -5.917222e-08 -3.110464e-08 2.676764e-08 -6.751152e-08 1.976152e-08
6.736451e-08 -1.051796e-07 -1.744969e-07 2.443028e-08 2.463862e-07 -4.003487e-08
3.665365e-08 1.093633e-08 -1.218387e-07 5.222886e-08 1.083143e-07 -4.633192e-08
1.615430e-08 5.913578e-08 -1.952768e-07 -4.683410e-09 1.329189e-07 -2.035422e-08
4.648579e-08 9.075895e-09 -1.533975e-07 6.386607e-09 1.321351e-07 -1.754950e-08
1.256961e-08 3.607575e-08 -9.442120e-08 1.627003e-08 -9.926825e-08 5.609389e-08
-4.489847e-11 4.887730e-08 -9.108940e-08 1.030573e-08 -5.447306e-08 5.199586e-08
-7.552994e-09 1.667118e-08 -6.320343e-08 2.226474e-08 -5.263616e-08 4.187138e-08
-3.071492e-09 2.699352e-09 3.029652e-10 4.917472e-09 9.702328e-10 9.963685e-11
-1.465490e-08 2.914243e-08 -6.925863e-08 5.873598e-08 -7.731388e-08 6.393919e-08
1.066301e-08 2.341684e-08 -8.893092e-08 2.118295e-08 -1.047462e-07 5.824734e-08
1.702948e-08 7.143936e-09 -9.393341e-08 5.090057e-08 -1.129264e-07 7.915016e-08
-7.287717e-09 1.676701e-08 -4.806688e-08 2.198982e-08 -5.387723e-08 4.613294e-08
2.289715e-08 -4.882952e-08 -4.477504e-09 3.107500e-09 1.018502e-08 -1.000844e-09
2.203460e-08 -4.950622e-08 -4.059487e-09 1.034566e-08 1.180909e-08 -1.070658e-09
1.987163e-08 -5.024432e-08 -3.752766e-09 8.704655e-09 1.166643e-08 -6.831393e-10
1.277756e-08 -6.453187e-09 -1.515304e-09 1.563335e-09 2.834094e-10 3.888732e-10
2.288583e-08 -4.634505e-08 -5.234411e-09 3.370511e-09 1.019492e-08 -1.171957e-09
2.547968e-08 -5.398843e-08 -1.411934e-08 7.209262e-09 1.971933e-08 -2.228068e-09
-2.700018e-11 8.661823e-10 -2.513679e-10 6.636038e-09 7.224377e-10 2.322832e-10
2.755647e-10 -2.588332e-08 3.471741e-09 1.608659e-08 2.197112e-09 -1.940059e-10
1.209987e-08 -6.799001e-09 -1.603849e-09 -9.247051e-10 -2.071610e-11 4.673681e-10
7.244865e-10 -2.582176e-08 4.253434e-09 1.494434e-08 2.949760e-09 -9.425692e-10
1.148774e-09 -3.173938e-08 5.845564e-09 1.317716e-08 3.033212e-09 -3.482634e-10
4.530148e-09 -1.114898e-09 -3.801524e-10 6.769267e-09 7.393832e-10 -6.086900e-10
2.927929e-09 4.581240e-10 -6.926151e-10 8.501251e-09 5.979976e-10 -1.141966e-09
3.072689e-09 1.496228e-09 -4.668332e-11 8.954008e-09 4.712924e-10 -5.784970e-10
3.333495e-09 1.494626e-09 -1.389082e-10 8.989287e-09 4.464478e-10 -5.828482e-10
4.911258e-09 -6.283243e-10 -7.385479e-10 7.887936e-09 8.124612e-10 4.588854e-10
-2.183210e-08 3.911587e-08 -1.691960e-08 5.783101e-09 -5.181992e-09 -2.345635e-08
-2.240798e-08 8.603491e-08 -4.195599e-08 -6.107647e-09 -1.646738e-08 -3.506037e-08
-1.585115e-08 2.321531e-08 -2.503697e-08 6.373595e-10 -1.927737e-08 -2.223227e-08
-1.457971e-08 6.206681e-08 -3.687999e-08 9.286146e-09 -8.644029e-09 -2.503600e-08
-5.132427e-08 2.852071e-08 1.438265e-08 -1.666336e-08 1.744152e-08 -5.539204e-09
-1.509533e-09 2.519570e-09 3.241143e-10 5.570572e-09 1.059084e-09 -7.290811e-10
-2.193421e-08 8.937592e-08 -7.986762e-08 4.197934e-09 -6.319035e-08 4.249311e-08
-1.370085e-08 6.256879e-08 -1.914861e-08 -2.548487e-08 6.367150e-09 2.378685e-08
9.288947e-09 9.073670e-08 -6.213701e-08 -2.731853e-08 -7.367156e-09 2.998690e-09
-9.017491e-10 1.035258e-07 -8.799675e-08 -3.173663e-08 -1.428755e-08 2.401396e-08
-1.087632e-08 9.988446e-08 -2.845403e-08 -3.762928e-08 1.857252e-08 1.594188e-08
-5.854577e-09 -2.803463e-10 -1.027699e-08 -1.887703e-08 -1.400081e-08 -6.604565e-09
3.953625e-08 -4.921500e-08 -6.787089e-08 -2.036811e-08 7.668233e-08 1.519188e-08
4.586869e-08 -5.778235e-08 -5.785543e-08 -1.074062e-08 6.518830e-08 6.818134e-09
5.775840e-08 -6.122030e-08 -6.359457e-08 -1.412305e-09 1.077360e-07 5.217759e-10
4.003776e-08 -2.258066e-08 -7.548606e-08 -2.624059e-08 7.738231e-08 1.257673e-08
5.154524e-08 -5.027263e-08 -9.983187e-08 -2.117586e-08 1.068066e-07 1.647498e-08
-6.229095e-09 3.719619e-09 9.448384e-10 3.399434e-09 4.865661e-10 -4.856630e-10
4.189180e-08 9.112963e-09 -1.754426e-07 5.203688e-09 -1.791253e-07 3.285197e-08
-1.935139e-09 1.601248e-09 2.839542e-10 4.558016e-09 7.404990e-10 -6.294232e-10
2.074764e-08 3.883820e-08 -2.226671e-07 2.627242e-08 -2.375107e-07 1.294965e-07
7.266326e-08 -3.702249e-08 -1.912887e-07 1.212991e-08 -2.521722e-07 5.147401e-08
1.752337e-08 5.840597e-09 -9.680976e-08 4.521110e-08 -1.655588e-07 8.126630e-08
4.776467e-09 -1.762668e-07 -1.107692e-07 9.403462e-08 -2.640576e-07 1.113455e-07
8.903700e-08 -1.501997e-07 -4.783625e-07 -1.153261e-07 4.657620e-07 1.646174e-07
1.226743e-07 7.807536e-08 -7.318187e-07 2.413401e-08 6.530139e-07 -6.002089e-08
9.861310e-08 -8.295618e-08 -1.614539e-07 -1.039436e-07 3.027209e-07 7.723749e-08
3.176808e-07 1.941807e-07 -6.121640e-07 -3.139580e-07 4.728822e-07 1.093077e-07
1.715517e-07 -7.440836e-08 -1.439195e-07 -1.817529e-07 3.519843e-07 4.019655e-08
2.592998e-09 1.613550e-09 -1.231318e-09 -8.988336e-09 -8.078749e-10 5.767846e-10
5.052935e-09 -1.088084e-09 -8.921823e-10 -9.171576e-09 -1.096789e-09 4.427730e-10
3.327933e-09 3.847804e-10 -1.227743e-09 -1.075949e-08 -4.615295e-10 -5.636844e-10
5.125044e-09 -1.081884e-09 -1.378409e-09 -9.244367e-09 -3.962338e-10 1.122789e-10
-4.197540e-10 1.873680e-09 -1.221403e-09 -8.892118e-09 -7.362342e-10 4.303097e-10
3.942736e-09 -3.016010e-10 -1.189298e-09 -8.580332e-09 -7.823004e-10 -2.739798e-10
-5.727758e-09 3.824857e-09 7.940346e-10 4.333531e-09 6.719082e-10 -6.671965e-10
-4.801040e-09 2.733195e-09 9.374235e-10 4.085403e-09 5.180185e-10 -4.122108e-10
-4.393627e-09 4.452163e-09 6.257332e-10 4.986338e-09 1.014006e-09 -5.301723e-10
-7.035969e-09 3.446449e-09 1.021862e-09 2.632355e-09 5.909974e-10 -5.893308e-10
-6.629551e-09 3.817912e-09 8.033734e-10 3.445592e-09 5.693208e-10 -1.482576e-10
-4.414391e-09 3.150371e-09 8.018568e-10 4.627590e-09 6.999195e-10 8.560430e-11
-3.338539e-09 3.302815e-09 4.175615e-10 5.876859e-09 2.304798e-11 -5.510012e-10
-3.338759e-09 3.335296e-09 7.936840e-10 5.871972e-09 6.414909e-10 -7.484320e-10
5.628152e-09 3.301210e-09 -1.437907e-09 -1.488037e-08 -6.944440e-10 -5.372180e-10
6.216524e-09 5.199561e-10 -1.304633e-09 -1.400814e-08 -5.674696e-10 -2.308203e-10
2.638904e-09 2.934688e-09 -1.783728e-09 -1.399492e-08 -8.906993e-10 6.690858e-10
5.480878e-09 8.237928e-10 -1.544334e-09 -1.140433e-08 -1.263459e-09 -1.328879e-10
2.249693e-09 2.343382e-09 -1.123583e-09 -1.278820e-08 -1.694342e-09 4.029780e-10
-3.740642e-08 1.524395e-07 1.327912e-08 1.021287e-08 -1.112586e-07 2.477906e-08
8.051904e-08 1.671081e-07 -2.565737e-07 -1.068909e-07 1.831326e-07 1.409224e-07
6.167937e-09 1.713891e-07 -1.435354e-07 7.085037e-09 2.296726e-08 3.725061e-08
-1.304258e-08 1.512037e-07 -2.244523e-08 3.825682e-08 -9.590593e-08 -3.583649e-09
-8.764434e-09 1.468061e-07 -1.777814e-07 -7.103379e-08 6.162528e-08 8.139835e-08
-9.008803e-09 5.565193e-10 1.781304e-09 -5.460614e-09 2.305820e-09 3.241798e-10
-8.159256e-09 8.513817e-10 1.818992e-09 -4.117553e-09 8.817944e-10 -9.440121e-10
-1.077694e-08 3.659997e-09 7.724548e-10 -6.340819e-09 2.299706e-09 5.081752e-10
-1.029695e-08 -1.196485e-09 8.057413e-10 -8.304480e-09 2.383661e-09 3.317550e-10
-9.216330e-09 -1.652207e-09 1.359916e-09 -6.469657e-09 1.355399e-09 -2.792057e-10
-9.748908e-09 -1.945336e-09 1.858878e-09 -6.852000e-09 5.627529e-10 -4.407172e-10
-9.251353e-09 2.348619e-09 1.526602e-09 -3.496576e-09 9.672882e-10 -2.244787e-11
1.576340e-09 2.178304e-09 -1.635601e-10 7.883325e-09 9.724595e-10 -7.965633e-10
-4.751126e-08 2.315098e-07 5.090724e-08 -8.414180e-08 -2.413158e-07 4.335515e-08
-8.302328e-08 3.251837e-07 -2.085484e-07 2.842376e-08 -1.313535e-08 -1.263466e-07
-8.418727e-08 1.419181e-07 3.749460e-08 -2.641837e-08 -9.988197e-08 -5.816459e-08
-1.430397e-07 1.701763e-07 2.723849e-07 -4.890104e-08 -3.816597e-07 6.799043e-08
-8.082469e-08 2.605426e-07 2.435232e-07 -1.030407e-08 -4.012233e-07 -1.174946e-07
-4.874047e-09 -1.779011e-08 -9.719210e-09 -4.562101e-08 3.199921e-08 1.880459e-08
-1.726733e-08 1.520451e-08 -1.345869e-08 -2.340172e-08 1.028244e-08 9.768441e-09
-2.132445e-08 1.816535e-08 -2.925694e-09 -3.043162e-08 1.386239e-08 1.199955e-08
-1.831559e-08 -1.809243e-08 -1.144613e-08 -5.049066e-08 2.938137e-08 1.944735e-08
-2.078039e-09 -1.262144e-08 -1.477452e-08 -4.175769e-08 2.514807e-08 1.482184e-08
-7.260747e-09 -4.128730e-09 -9.309463e-09 -3.301402e-08 1.719320e-08 1.193959e-08
5.571760e-09 -1.192529e-09 -8.950094e-10 6.919391e-09 5.189092e-10 -5.469933e-10
9.114638e-09 -2.653413e-09 -1.312663e-09 7.129896e-09 5.684909e-10 -4.760264e-10
3.711765e-09 8.334267e-10 -3.589031e-10 8.238857e-09 4.351920e-10 -6.132609e-10
3.619230e-09 7.904735e-10 -1.090417e-09 8.143859e-09 6.383386e-10 -3.281480e-10
8.145078e-09 -2.640588e-09 -1.506350e-09 7.293592e-09 6.460295e-10 -9.098842e-10
8.007223e-09 -2.763228e-09 -9.099432e-10 7.467412e-09 4.724363e-10 -1.011151e-09
1.088076e-08 -3.530573e-09 -1.486801e-09 -8.941766e-09 -5.761930e-10 -2.147553e-10
6.504171e-09 -1.811477e-09 -1.245298e-09 -9.142795e-09 -3.895482e-10 -2.863572e-10
1.275835e-08 -4.264737e-09 -6.562262e-10 -1.205350e-08 2.828105e-11 -8.693610e-10
2.080258e-08 -8.999072e-09 2.228297e-09 -8.907275e-09 7.158814e-10 -4.613197e-09
1.962180e-08 -8.708174e-09 -1.737628e-10 -7.036903e-09 4.293084e-10 -6.369465e-10
1.782027e-08 -8.614288e-09 -1.032521e-09 -6.722226e-09 1.028545e-10 -2.344283e-09
1.432074e-08 -3.971046e-09 -8.206036e-10 -1.149793e-08 1.373890e-10 -2.166188e-09
1.655541e-08 -6.531214e-09 -1.296840e-09 -9.066895e-09 -4.012318e-10 -6.819708e-10
1.669235e-08 -5.075433e-09 -1.623985e-09 -9.522914e-09 -8.061549e-10 -6.060926e-10
-1.937728e-08 3.733200e-08 1.712173e-07 1.081911e-07 1.568961e-07 1.221545e-07
-1.493026e-09 2.092212e-09 9.108980e-11 6.080695e-09 3.243288e-10 -5.965919e-10
-1.084151e-09 1.174110e-09 1.930327e-10 4.554154e-09 2.884419e-10 -3.410294e-10
-1.911564e-09 1.406012e-09 1.112088e-11 5.168137e-09 2.126303e-10 -4.503826e-10
-2.463500e-09 1.676321e-09 3.682441e-10 4.708695e-09 5.248269e-10 -3.954275e-10
-2.347067e-09 1.788277e-09 4.155787e-10 5.067903e-09 6.273237e-10 -2.860632e-10
3.504215e-08 -1.353646e-08 2.187192e-08 -1.317279e-08 2.522939e-09 -2.357700e-08
3.036832e-08 -6.691991e-09 -6.277964e-10 -2.020144e-08 5.954980e-09 -5.264602e-09
2.934713e-08 -1.077418e-08 9.606531e-09 -9.736016e-09 5.934236e-10 -1.263512e-08
3.088451e-08 -6.702619e-09 4.363252e-09 -2.018072e-08 6.832955e-09 -1.354461e-08
6.288798e-08 -1.651646e-08 2.430781e-08 5.054531e-09 5.222491e-09 -5.376950e-08
2.178197e-08 -1.158028e-08 4.688635e-08 -3.679447e-09 1.042431e-08 -5.245352e-08
3.114709e-08 -1.512861e-08 4.671858e-08 -5.220295e-09 7.592812e-09 -5.075196e-08
1.330817e-08 -4.191896e-08 -1.025215e-08 2.395233e-08 1.594252e-08 -4.743518e-09
1.655273e-08 -4.666291e-08 6.830900e-10 1.490247e-08 1.041387e-08 -1.955276e-09
1.667794e-08 -4.804557e-08 -2.829745e-09 1.547867e-08 1.017107e-08 -3.058022e-09
1.645598e-08 -4.243925e-08 -1.036865e-09 2.351568e-08 1.412063e-08 -2.881066e-09
1.639204e-08 -4.194863e-08 -9.854611e-09 2.364263e-08 1.583930e-08 -3.634780e-09
-6.012961e-09 2.310501e-09 1.244297e-09 1.908779e-09 2.635255e-10 -2.982593e-10
-5.621441e-09 2.482208e-09 9.955270e-10 1.829135e-09 1.325162e-10 -2.800755e-10
-5.340045e-09 2.605649e-09 8.209364e-10 2.517608e-09 2.881633e-10 -4.000043e-10
-5.229290e-09 2.463750e-09 7.662666e-10 2.336919e-09 1.224248e-10 -3.934562e-10
1.206174e-08 -5.773513e-09 -1.745526e-09 2.048456e-09 2.934294e-10 -2.606751e-10
3.832819e-08 -2.414490e-08 5.179490e-08 -1.172705e-08 9.208656e-09 -6.411622e-08
2.652150e-08 -1.136866e-08 5.037168e-08 -7.254349e-09 8.340849e-09 -4.804025e-08
4.209948e-08 3.396854e-09 5.752693e-08 -4.773439e-08 3.494183e-08 -5.341212e-08
6.292336e-08 4.027322e-09 4.013449e-08 -3.949299e-08 2.613343e-08 -5.807095e-08
9.543568e-09 -5.231645e-09 -1.371411e-09 -3.331715e-09 -3.801201e-10 3.946536e-10
9.339045e-09 -4.367749e-09 -1.229344e-09 -3.224853e-09 -3.398987e-10 2.891392e-10
9.344584e-09 -5.001814e-09 -1.309133e-09 -4.027074e-09 -1.712779e-10 2.513589e-10
1.074950e-08 -5.126796e-09 -1.366969e-09 -3.597137e-09 -8.417744e-11 4.261591e-11
1.071634e-08 -5.784123e-09 -1.537195e-09 -2.247718e-09 -1.866060e-10 3.383760e-10
1.101630e-08 -5.326278e-09 -1.381531e-09 -3.418537e-09 -1.439573e-10 1.339567e-10
4.269189e-09 -1.592686e-09 -6.840036e-10 5.638681e-09 3.814756e-10 -9.861112e-11
3.933144e-09 -1.147665e-09 -5.366463e-10 5.817715e-09 3.709383e-10 -4.658666e-10
8.669038e-09 -2.816237e-09 -8.373462e-10 6.322841e-09 5.143379e-10 6.905701e-10
6.082850e-09 -1.800095e-09 -8.177389e-10 5.621791e-09 6.062207e-10 -2.244488e-10
6.025478e-09 -1.858815e-09 -6.885503e-10 5.542900e-09 2.900598e-10 -3.508070e-10
7.422323e-09 -2.831490e-09 -1.413792e-09 5.961721e-09 4.303968e-10 -5.062741e-10
5.394007e-09 -1.360832e-09 -5.598007e-10 7.340286e-09 4.917262e-10 -4.244574e-10
1.450652e-07 -3.775401e-08 5.929416e-08 1.595329e-08 1.904765e-08 1.928281e-07
1.144061e-07 2.415608e-08 2.432951e-09 -3.658309e-08 -3.909341e-08 7.546351e-08
3.819692e-08 7.432499e-09 2.900993e-09 -6.963386e-08 -5.867657e-08 3.213979e-08
8.018068e-08 -4.527365e-08 1.007089e-07 -4.090271e-10 -7.821564e-09 9.823454e-08
-2.934239e-09 3.434488e-09 2.477312e-10 6.369211e-09 5.251757e-10 -1.190437e-10
1.314622e-07 -2.725630e-08 2.425768e-08 -3.625213e-08 -3.015208e-08 9.537634e-08
7.932394e-08 -4.250579e-08 7.698177e-08 -1.260164e-09 4.817434e-10 8.830568e-08
-5.554695e-09 2.500839e-09 9.569439e-10 1.801223e-09 3.441113e-10 -1.672584e-10
-6.442353e-09 2.582898e-09 1.403208e-09 1.227224e-09 1.754352e-10 -4.805636e-11
-6.521012e-09 2.772371e-09 1.184911e-09 1.876912e-09 1.023436e-10 -2.977778e-10
-6.315222e-09 3.042034e-09 1.031869e-09 1.070095e-09 1.634841e-10 -1.338079e-10
-6.825239e-09 3.101333e-09 1.156794e-09 1.299037e-09 4.042155e-11 -1.824765e-10
-6.398895e-09 2.661068e-09 1.054095e-09 1.141032e-09 1.875038e-10 -1.959164e-10
6.460261e-09 -3.555741e-08 5.953375e-09 1.402081e-08 4.166439e-09 -1.836489e-10
6.555269e-09 -3.428867e-08 7.238627e-09 1.546881e-08 4.014608e-09 -9.468088e-10
5.904940e-09 -3.593488e-08 6.771490e-09 1.292284e-08 2.515578e-09 -1.547173e-09
3.677942e-09 -3.316313e-08 6.690070e-09 1.636020e-08 3.182235e-09 4.363727e-10
2.379132e-09 -3.234036e-08 7.489056e-09 1.120730e-08 2.020414e-09 3.409145e-12
2.379131e-09 -2.712582e-08 7.298586e-09 1.070811e-08 -6.313104e-10 5.284451e-10
7.077273e-10 -2.751407e-08 5.691715e-09 1.230388e-08 1.928798e-09 -6.444481e-10
-3.289307e-09 3.572174e-09 4.287259e-11 -2.898320e-09 -2.898384e-10 -3.296932e-10
-4.547343e-09 3.726830e-09 1.388656e-10 -3.435267e-09 -3.388056e-10 -2.846655e-10
-1.741398e-09 2.744207e-09 -2.198451e-10 -4.269358e-09 -2.014111e-10 -5.455083e-10
-4.547345e-09 3.458664e-09 1.266933e-10 -2.834893e-09 -4.967667e-10 3.986882e-10
-3.260048e-09 2.851004e-09 1.228462e-11 -4.353221e-09 -4.485219e-10 -4.863004e-11
-1.106253e-08 2.230849e-11 -1.480031e-08 -2.822639e-08 -1.891645e-08 -1.312359e-08
-3.786668e-09 -1.374870e-08 -1.319645e-08 -2.423575e-08 -2.180471e-08 -7.152562e-09
8.068984e-10 -7.610637e-09 -2.198605e-08 -3.122278e-08 -3.821369e-08 -1.300325e-08
8.232013e-10 -2.409748e-08 -2.210173e-08 -3.131161e-08 -3.681474e-08 -1.300283e-08
1.626151e-09 -5.482108e-10 -1.731389e-10 4.136302e-09 1.169460e-10 6.167544e-11
-8.979045e-09 7.899184e-09 -2.548974e-08 -2.414611e-08 -2.636834e-08 -1.558034e-08
-1.389696e-08 8.773949e-09 2.382401e-09 -1.886987e-09 7.849778e-11 -6.063983e-10
-1.153570e-08 4.712672e-09 1.893196e-09 -2.974872e-09 -1.726056e-10 -9.367176e-10
-1.164571e-08 4.931979e-09 1.601167e-09 -2.948448e-09 5.781767e-11 -6.630638e-10
-6.107608e-09 5.686356e-09 9.392656e-10 3.934551e-09 9.124473e-10 -9.933867e-10
1.979590e-08 -7.068129e-09 -1.262512e-09 -8.873459e-09 -1.679341e-10 -1.436241e-09
2.055535e-08 -4.995014e-09 -3.016163e-09 -1.355454e-08 -4.959439e-10 -3.336937e-10
1.707562e-08 -6.560192e-09 -2.127345e-09 -8.990789e-09 -2.391713e-10 -1.341306e-09
1.454308e-08 -7.417638e-08 -4.325354e-08 -1.070872e-07 1.388256e-07 7.364051e-08
3.569512e-09 3.866504e-09 -6.578958e-08 -6.479402e-08 8.873581e-08 6.267665e-08
-1.577769e-08 -3.234801e-08 -1.655625e-07 -1.121527e-07 1.826995e-07 1.404876e-07
3.574412e-08 8.550813e-09 1.097647e-08 2.244475e-08 -5.569681e-09 -4.591907e-08
-1.361087e-08 2.493713e-08 2.998933e-08 3.083890e-08 -2.310086e-08 -1.714551e-08
-1.890738e-08 2.265287e-08 3.544540e-08 3.624684e-08 -2.059154e-08 -1.666683e-08
-6.523381e-09 2.642342e-08 7.358218e-08 3.760818e-08 -3.820444e-08 -7.980381e-08
-4.621871e-08 6.435302e-08 4.643049e-09 2.169924e-08 -3.159982e-08 -2.965614e-09
2.590540e-08 -5.714257e-09 1.266441e-08 2.634865e-08 -5.370307e-09 -3.084134e-08
1.539595e-08 1.079515e-09 4.411226e-08 2.733280e-08 -1.199146e-08 -3.697669e-08
2.685099e-08 -3.371585e-09 8.906351e-08 3.247716e-08 -2.697716e-08 -7.836920e-08
6.311275e-08 -6.988651e-08 -2.934279e-08 -8.077304e-08 1.532650e-07 4.372329e-08
-7.016035e-09 3.166327e-09 1.189503e-09 1.381737e-09 1.433026e-10 -1.665681e-10
5.752384e-08 -5.284144e-08 -5.939807e-08 -2.624070e-08 1.008816e-07 1.062876e-08
5.679758e-08 -2.898451e-08 -8.653544e-08 -3.976403e-08 9.409007e-08 2.881463e-08
2.735745e-08 -6.944063e-08 -4.082504e-08 -5.094971e-08 6.264701e-08 2.936733e-08
5.331307e-08 -4.473609e-08 -5.968877e-08 -2.882616e-08 8.526642e-08 3.242548e-09
3.251406e-08 -3.536736e-08 -5.985827e-08 -2.479979e-08 6.431279e-08 1.408789e-08
4.742441e-08 9.815618e-09 -1.178959e-07 -2.063466e-08 -1.079668e-07 1.539369e-08
9.041617e-08 -7.886201e-08 -1.089370e-07 1.743115e-08 -1.829445e-07 3.524608e-08
4.065586e-08 1.316839e-08 -8.886756e-08 3.271495e-08 -1.034694e-07 4.378942e-08
-1.558256e-08 2.212609e-08 -8.950523e-09 -1.040524e-08 -8.330775e-09 1.431791e-08
-2.619770e-09 1.511311e-08 -4.197774e-09 -1.887729e-08 -1.410262e-09 3.656074e-09
-2.317359e-09 1.323529e-08 5.447847e-09 -2.435103e-08 3.973217e-09 -3.773437e-10
-2.138022e-09 1.432739e-08 -2.841141e-09 -1.934739e-08 -2.866324e-09 3.188180e-09
-1.448448e-08 2.399770e-08 -7.691771e-09 -1.206720e-08 -6.150811e-09 1.168669e-08
-1.704076e-09 1.522238e-08 -6.208334e-09 -1.924049e-08 -2.086150e-09 4.559107e-09
-7.286901e-09 2.407980e-09 1.449425e-09 1.318576e-09 6.470443e-10 -6.215386e-10
-7.880922e-09 3.637315e-09 1.169816e-09 1.240651e-09 9.162976e-10 -8.857229e-10
-5.879143e-09 3.063725e-09 9.399943e-10 3.382468e-09 5.556797e-10 -1.032625e-09
-7.235040e-09 4.918964e-09 7.682022e-10 3.032769e-09 4.634664e-10 -4.878997e-10
-7.363503e-09 4.513336e-09 1.059610e-09 2.421809e-09 8.055018e-10 -5.871046e-10
-7.144263e-09 3.785457e-09 8.441037e-10 1.586963e-09 1.389459e-09 -3.879536e-10
-6.506861e-09 3.445687e-09 9.355792e-10 2.652762e-09 6.315921e-10 -1.820165e-10
8.864683e-09 -3.604208e-09 -1.327532e-09 -8.293531e-09 -2.509999e-10 -6.510295e-10
1.709513e-08 -5.519183e-09 -2.113666e-09 -8.180745e-09 3.496182e-11 -1.272680e-09
1.559116e-08 -5.588387e-09 -1.233929e-09 -8.893245e-09 -6.648499e-10 -5.354328e-10
1.305070e-08 -3.871483e-09 -1.635527e-09 -9.736643e-09 -3.371861e-10 -3.288135e-10
1.280195e-08 -4.338669e-09 -2.392948e-10 -1.228925e-08 -1.863271e-10 -2.463143e-09
8.672893e-09 -1.997168e-09 -1.591406e-09 -8.275114e-09 -6.872309e-10 2.196117e-10
7.015747e-09 -2.406006e-09 -1.290230e-09 -7.447319e-09 -4.936749e-10 -2.585221e-10
1.406845e-08 -4.017286e-09 -4.861169e-10 -1.132165e-08 -1.813305e-11 -9.733757e-10
9.676926e-09 -3.940099e-09 -1.688093e-09 -8.166873e-09 -7.220348e-10 2.566286e-10
3.521818e-09 -9.161034e-10 -3.808944e-10 6.581413e-09 1.868969e-11 -6.491154e-10
-4.456575e-08 1.115060e-08 -7.670661e-09 -3.758103e-08 1.909259e-08 2.725796e-08
-3.221342e-08 3.252627e-08 -1.557351e-08 -2.012049e-08 1.050104e-08 1.843253e-08
-1.811444e-08 2.183719e-08 -1.992637e-08 -2.601529e-08 1.535332e-08 1.359203e-08
-9.059899e-09 1.474982e-08 -1.827116e-08 -2.754334e-08 1.848121e-08 1.522989e-08
-4.050772e-08 1.671558e-08 1.111813e-08 -6.081680e-08 8.064863e-09 3.247670e-08
-2.177277e-08 2.839983e-09 6.742643e-10 -2.781032e-08 8.819067e-09 1.284677e-08
-2.245522e-08 2.025881e-08 -1.667520e-08 -2.950507e-08 1.546781e-08 1.716195e-08
-2.848506e-08 1.282100e-08 -6.883658e-09 -4.504406e-08 2.100925e-08 2.363218e-08
-2.800276e-08 1.665522e-08 -5.840824e-09 -2.295181e-08 9.850583e-09 1.153249e-08
1.795000e-08 -8.588598e-09 -2.238682e-09 -1.687904e-09 4.797493e-10 -7.309160e-10
1.763145e-08 -7.615698e-09 -2.155592e-09 -4.460552e-09 -4.637207e-11 -5.842959e-10
1.704829e-08 -7.082526e-09 -1.649107e-09 -2.456425e-09 8.940037e-11 -1.306604e-10
1.673038e-08 -8.328062e-09 -1.442887e-09 -2.984643e-09 2.351538e-10 -4.711997e-10
1.534373e-08 -7.636583e-09 -2.213257e-09 -3.679142e-09 -2.570494e-10 -1.717993e-10
1.836479e-08 -7.583875e-09 -1.362327e-09 -3.251179e-09 2.335959e-11 7.580004e-11
1.654391e-08 -8.627367e-09 -1.106299e-09 -3.263391e-09 5.094536e-11 -8.241670e-10
1.832589e-08 -7.872367e-09 -1.932826e-09 -4.693346e-09 -3.587419e-10 -4.161190e-10
1.876345e-08 -7.073881e-09 3.739099e-09 -1.458447e-08 3.011533e-09 -5.802021e-09
1.846661e-08 9.673707e-10 -1.832036e-09 -1.852469e-08 2.183224e-09 -4.276845e-09
1.920754e-08 -1.707133e-10 -9.357021e-10 -1.877045e-08 3.613630e-10 -2.930331e-09
8.702681e-09 1.702205e-08 6.836778e-09 -3.495071e-08 1.680894e-08 -8.279120e-09
1.756413e-08 7.758736e-09 -1.321910e-09 -2.588186e-08 4.977689e-09 -6.043325e-09
1.879962e-08 6.753558e-09 -3.146685e-10 -2.424584e-08 1.954741e-09 -7.397445e-09
9.905916e-09 1.275353e-08 -5.352455e-09 -2.749560e-08 1.022744e-08 -3.948458e-09
8.083807e-09 -2.641808e-09 -5.226545e-10 7.302416e-09 7.046453e-10 -1.235129e-09
2.555308e-08 2.473493e-10 1.208376e-08 -2.783057e-08 1.397288e-08 -2.131047e-08
6.449664e-09 2.136250e-09 3.821323e-09 1.582674e-08 -7.981442e-10 -5.103692e-09
5.654717e-09 1.277569e-09 6.651000e-09 1.771057e-08 -4.144858e-09 -1.141126e-08
4.387049e-09 9.955455e-09 4.617789e-09 2.076774e-08 -3.480392e-09 -9.823191e-09
-6.054268e-10 2.786305e-09 -9.084002e-10 -8.968219e-09 -8.437893e-10 3.137357e-11
-3.278784e-10 1.696068e-09 -5.088530e-10 -8.587852e-09 -9.411210e-10 1.855319e-11
2.245462e-08 -3.519783e-08 -2.589368e-08 3.606695e-08 4.573345e-08 -1.295866e-08
-1.332149e-09 2.632153e-09 -5.184331e-10 -9.018987e-09 -1.082314e-09 4.671331e-10
-1.351955e-09 2.799825e-09 -9.646084e-10 -9.969946e-09 -6.049528e-10 8.857846e-10
1.806322e-09 2.038176e-09 -1.722044e-09 -1.020550e-08 -9.450827e-10 1.312750e-09
2.029563e-09 1.215786e-09 -1.365866e-09 -1.073777e-08 -1.290688e-09 5.555124e-10
-2.983205e-10 2.477851e-09 -8.320531e-10 -9.431649e-09 -1.335559e-09 -6.771155e-10
-7.034008e-08 2.568710e-07 3.002384e-10 -9.986214e-08 1.190156e-07 -1.263403e-08
2.371632e-10 1.567031e-09 -1.636158e-10 6.067730e-09 4.914993e-10 -2.680052e-10
-2.311395e-08 2.004069e-08 1.156383e-09 3.399758e-09 -4.828560e-10 2.630426e-09
-7.247371e-09 2.959178e-09 1.424572e-09 1.085544e-09 1.084257e-10 -1.210874e-10
-1.026548e-08 1.757692e-08 3.159756e-09 1.619476e-08 -4.310978e-09 -3.463126e-09
-6.448500e-10 6.722473e-10 -2.351142e-10 4.513422e-09 7.597700e-11 -2.162466e-10
-9.885244e-09 1.920145e-08 9.415265e-09 1.935693e-08 -7.505264e-09 -9.298105e-09
-2.007880e-08 2.269994e-08 1.544840e-09 1.259816e-08 -5.180947e-09 -4.121045e-09
-2.056425e-08 2.120384e-08 2.367354e-09 1.439627e-08 -5.133919e-09 -3.002534e-09
-2.223710e-08 2.337973e-08 -3.244787e-09 1.376332e-09 2.070292e-09 2.573011e-09
-5.293448e-09 9.953921e-09 -3.626026e-10 9.529641e-09 -4.088776e-10 -1.184374e-09
-5.364872e-09 9.593396e-09 -9.415824e-11 8.251256e-09 3.916486e-10 -1.367096e-09
-1.081166e-10 5.115973e-09 -9.191536e-13 1.096428e-08 -1.888012e-10 -1.387440e-09
-7.119571e-09 8.931607e-09 2.139422e-10 7.403168e-09 1.009344e-09 1.203928e-10
9.573708e-10 6.644748e-09 1.190580e-09 1.352731e-08 -1.259227e-09 -3.202188e-09
-3.809272e-09 6.592306e-09 2.459776e-09 1.231297e-08 -1.274588e-09 -3.231967e-09
-3.274207e-09 7.056073e-09 1.897504e-09 1.166189e-08 -1.090096e-09 -3.000158e-09
1.734000e-08 -7.377717e-09 -8.193495e-10 3.447075e-09 1.132706e-10 -2.088121e-09
-1.517126e-08 3.102914e-08 -2.290751e-08 -7.936507e-09 -1.109356e-08 2.067097e-08
-2.189553e-08 2.137794e-08 -2.000178e-08 -9.449574e-10 -1.063227e-08 2.000953e-08
-1.754328e-08 3.406690e-09 -2.464569e-08 1.692560e-08 -3.430129e-08 3.673132e-08
2.232585e-08 -1.072219e-08 1.770190e-09 -4.933753e-09 1.132863e-09 -3.708203e-09
1.611385e-08 -7.259972e-09 -2.371891e-09 6.244681e-10 3.227609e-10 6.472156e-10
2.863584e-08 -1.074231e-08 2.887978e-09 4.730136e-09 -3.569709e-10 -1.070229e-08
3.336845e-08 -1.075508e-08 -1.339799e-09 -5.220851e-09 4.130816e-11 -6.720174e-09
3.277037e-08 -9.559370e-09 -1.764968e-09 -1.388269e-11 1.397877e-09 -7.345168e-09
2.352853e-08 -9.579583e-09 -2.278963e-09 3.137645e-09 -5.309030e-10 -1.612253e-09
3.426261e-09 2.014239e-09 -1.222234e-09 -1.041934e-08 -7.349796e-10 3.130975e-10
2.025796e-09 1.123125e-09 -1.343732e-09 -1.068851e-08 -9.016698e-10 1.560494e-10
2.303327e-09 -1.113941e-10 -9.518342e-10 -8.915975e-09 -6.369477e-10 4.835915e-10
2.652119e-09 1.043358e-10 -1.228095e-09 -9.273678e-09 -9.673811e-10 5.942791e-10
6.586578e-09 -8.454309e-11 -1.274298e-09 -9.966086e-09 -1.309116e-09 -1.121677e-10
-8.192250e-09 9.469262e-09 -1.047496e-09 -1.203440e-08 -2.177217e-09 3.582680e-09
1.721071e-08 1.879805e-08 7.977243e-09 -4.305979e-08 -1.983713e-08 1.636496e-08
-4.908747e-09 8.193360e-09 -1.877725e-09 -1.619179e-08 -7.367878e-10 2.792789e-09
-9.196094e-09 9.173860e-09 -2.747959e-09 -1.033913e-08 -2.822278e-09 3.707253e-09
3.421562e-09 6.350613e-09 -2.327322e-09 -1.878923e-08 2.917913e-10 9.579651e-10
-5.375268e-09 1.438041e-08 -5.987490e-09 -1.730555e-08 -2.183534e-09 5.207173e-09
1.824550e-09 9.721346e-09 -2.461621e-09 -2.156252e-08 -8.733152e-11 6.367590e-10
-9.916486e-09 1.319017e-08 -6.205269e-09 -1.006011e-08 -3.407083e-09 5.085153e-09
-5.492865e-09 1.440025e-08 -4.282036e-09 -1.729306e-08 -1.673296e-09 4.331645e-09
-1.507830e-09 1.427785e-08 4.071091e-09 -2.629740e-08 6.548675e-09 1.594390e-09
-4.138215e-09 1.255900e-08 -2.443790e-09 -1.558991e-08 -8.416076e-10 2.917070e-09
-1.872408e-08 1.780764e-08 -4.057993e-09 -3.879722e-09 -6.377733e-09 1.088246e-08
-2.452859e-09 1.529533e-08 -1.694054e-09 -2.087217e-08 -8.269302e-11 3.119680e-09
2.507908e-08 -2.476816e-09 8.331812e-09 1.865329e-08 -2.290155e-09 -1.855018e-08
2.630911e-08 1.105451e-08 6.072073e-09 2.655509e-08 -1.059660e-08 -2.506718e-08
3.249173e-08 -3.531409e-09 1.466149e-08 2.179314e-08 -7.469832e-09 -2.620449e-08
1.779648e-08 -2.012474e-09 1.466393e-08 2.555314e-08 -9.584249e-09 -1.782179e-08
1.908314e-08 1.018494e-08 2.736634e-08 3.548830e-08 -2.171779e-08 -3.519506e-08
-1.051944e-08 2.287069e-08 2.711214e-08 2.949099e-08 -2.776890e-08 -2.570824e-08
3.915258e-08 -1.147447e-08 2.104287e-08 1.381840e-08 -3.513972e-09 -4.038293e-08
1.336260e-08 -1.025464e-08 2.865402e-08 2.074359e-08 -7.830955e-09 -2.522343e-08
3.510503e-08 -3.165682e-09 1.463497e-08 2.337474e-08 -9.713952e-09 -4.354532e-08
2.365156e-08 1.885181e-08 2.356238e-08 5.834735e-08 -3.252033e-08 -4.518814e-08
4.768449e-08 -1.198029e-08 2.220647e-08 1.278550e-08 -4.602232e-09 -3.649808e-08
-2.778798e-09 3.180174e-09 1.784570e-08 2.728809e-08 -7.437474e-09 -1.210453e-08
-3.193623e-09 -2.052759e-09 1.705475e-07 -6.921287e-08 -1.431414e-07 1.771746e-07
-1.254299e-07 -7.313843e-08 7.767734e-07 5.695618e-08 8.561726e-08 3.554759e-07
1.176350e-07 -6.630079e-08 5.315077e-07 1.132671e-07 1.596978e-07 4.173999e-07
1.777683e-08 -8.021242e-09 -4.981655e-10 3.513623e-09 3.651844e-10 -8.225303e-10
-2.260830e-08 -1.023248e-07 3.169498e-07 3.926080e-08 4.991982e-08 1.414320e-07
-2.283297e-07 -5.322306e-08 7.007664e-07 3.036031e-08 5.637644e-08 2.662159e-07
1.500210e-08 -3.810741e-08 4.456629e-07 -3.895130e-08 -1.529565e-07 2.899658e-07
-3.039305e-07 -5.252079e-08 5.802823e-07 1.157149e-07 1.147830e-07 1.525808e-07
3.160151e-07 -1.203644e-07 6.429710e-07 -7.556350e-09 -1.637966e-07 7.286733e-07
-5.929137e-08 1.694367e-09 1.544364e-07 -4.037126e-08 -1.217808e-07 1.457742e-07
-8.498121e-08 4.538034e-08 7.470311e-07 -1.209450e-07 -3.246435e-08 6.402880e-07
-1.648994e-08 6.216384e-08 -5.970207e-08 -2.367068e-08 -2.456599e-08 5.102221e-08
-1.600355e-08 9.271093e-08 -7.962857e-08 9.840777e-09 -2.798711e-08 6.637862e-08
-1.053231e-08 1.536055e-07 1.182294e-07 -4.572320e-08 8.670456e-08 -9.007611e-08
-7.438034e-09 7.649590e-08 1.267649e-08 -5.166342e-08 2.472699e-08 -1.052623e-08
8.795703e-10 6.057306e-08 -6.416262e-09 -3.701824e-08 1.000882e-08 -6.949674e-10
-8.701266e-09 1.290087e-07 -7.073697e-08 -2.882332e-08 -7.637879e-09 6.013994e-08
4.089042e-08 -1.136583e-08 3.101980e-09 -3.025946e-09 5.063186e-10 -1.398115e-08
-8.731987e-09 9.781148e-09 -2.149469e-08 -1.927134e-08 -2.172230e-08 -9.694535e-09
2.756540e-08 -1.118399e-08 3.810233e-09 4.039927e-09 -6.386889e-10 -1.123731e-08
-2.320031e-08 3.352477e-08 -1.888603e-08 8.547419e-09 1.282307e-08 -1.247599e-08
1.135985e-07 -4.895387e-07 -4.129645e-07 1.566056e-07 7.088189e-07 -1.572106e-07
2.956450e-08 -1.127373e-08 1.912742e-09 -4.104449e-09 1.661591e-09 -8.128258e-09
4.109274e-08 -1.163323e-08 -5.060680e-09 -2.873677e-09 -1.134232e-09 -1.230543e-08
3.147656e-08 -1.137293e-08 -1.823176e-09 -3.844811e-09 9.982488e-10 -7.738840e-09
-3.855065e-08 7.986676e-08 -6.720175e-08 5.338730e-09 1.135765e-08 4.364557e-08
-2.085172e-08 1.108182e-07 -3.481315e-08 3.397936e-08 -1.893592e-08 1.768446e-08
-5.884547e-08 6.649075e-08 4.390793e-08 -7.421521e-09 -3.375047e-08 4.177674e-08
-6.051414e-08 9.730420e-08 -6.895013e-09 -2.942821e-09 -2.961215e-09 6.000722e-08
2.912993e-08 2.126984e-08 -6.709846e-09 -3.706354e-08 2.107702e-08 -2.519983e-08
1.269858e-08 -6.737575e-09 -1.577303e-09 -1.905236e-09 -1.085196e-10 -6.112777e-11
7.398455e-08 -1.109246e-08 7.671863e-08 -4.088826e-09 7.117529e-09 -9.899385e-08
1.456302e-08 -7.329947e-09 -1.401692e-09 -3.585439e-09 -9.264833e-11 -3.235024e-10
-5.292561e-08 5.716107e-08 6.538747e-10 -9.155352e-11 -3.601832e-09 9.264395e-09
-2.577516e-08 6.084688e-08 3.952621e-08 1.969361e-08 -2.071367e-08 -2.595701e-08
-4.391310e-08 5.964865e-08 -2.304040e-09 -9.121600e-09 -2.074116e-09 1.712724e-08
-1.520722e-08 4.348018e-09 -1.719426e-09 -1.673606e-08 5.568911e-09 3.025373e-09
-7.299446e-08 4.545069e-08 -1.686265e-08 -5.420475e-08 1.756891e-08 4.670019e-08
-5.432862e-08 3.256191e-08 9.494470e-09 -2.629763e-08 -1.126212e-09 2.210576e-08
-2.618786e-08 2.480681e-08 3.305364e-09 -4.851499e-09 4.987095e-09 5.143392e-10
-3.443853e-08 3.927049e-08 1.150076e-08 1.045264e-08 -1.511986e-08 9.056593e-10
-2.497855e-09 5.161176e-09 1.035008e-09 1.002537e-08 2.172570e-11 -1.880245e-09
-2.664113e-09 4.155866e-09 1.289315e-10 7.426515e-09 3.015763e-10 -8.893219e-10
-7.876009e-09 7.244043e-09 6.596692e-10 3.382034e-09 3.801532e-10 -1.109682e-09
-3.580391e-09 6.199608e-09 2.134848e-11 8.356400e-09 8.706176e-12 -1.384880e-09
-4.193824e-10 6.044029e-09 -9.796233e-10 1.088493e-08 -2.022345e-10 -1.600747e-09
2.510693e-09 5.007097e-09 -5.584242e-10 1.128157e-08 -3.675046e-10 -2.711935e-09
-9.023620e-09 6.493954e-09 6.375722e-10 4.541013e-09 6.119534e-10 -1.646330e-09
3.923320e-08 2.156119e-08 1.279471e-08 -7.319687e-08 -6.214703e-08 8.517822e-08
1.702326e-07 2.369601e-08 -4.526150e-08 -4.464987e-08 -3.435570e-08 1.732216e-07
-8.995848e-08 -7.914676e-08 3.334161e-07 4.843146e-08 7.334847e-08 1.733328e-07
1.154079e-07 -4.932082e-08 1.811860e-07 -3.010142e-09 1.503408e-08 1.995384e-07
6.900260e-08 -4.986977e-08 7.989337e-08 -8.070134e-09 7.575328e-09 1.308973e-07
4.716256e-08 -6.039856e-08 1.017975e-07 1.506119e-08 6.816386e-09 1.073389e-07
1.394507e-08 -7.209539e-09 -1.971819e-09 -2.898170e-09 -1.969750e-10 -1.171854e-10
1.357221e-08 -7.472378e-09 -1.819914e-09 6.900572e-10 9.054284e-11 8.956783e-11
1.477780e-08 -7.464793e-09 -1.312820e-09 6.612225e-10 3.108216e-10 3.802532e-10
1.366065e-08 -6.681132e-09 -1.523340e-09 -2.364153e-09 -8.448464e-11 2.257645e-10
1.492406e-08 -6.854041e-09 -1.811628e-09 -6.229025e-10 -4.867039e-11 2.032067e-10
1.426354e-08 -7.000432e-09 -1.491783e-09 -1.459381e-09 2.416367e-11 -5.479364e-10
1.457596e-08 -7.154427e-09 -1.726462e-09 -2.094198e-09 -1.982263e-10 -5.587943e-10
1.425735e-08 -6.858741e-09 -1.584244e-09 -5.638667e-10 -1.228251e-11 -5.867107e-11
1.447015e-08 -6.775925e-09 -1.564394e-09 -3.440141e-10 4.778744e-11 1.945842e-10
1.374158e-08 -6.806624e-09 -1.814663e-09 -9.699257e-10 -8.120143e-11 8.255001e-10
4.886097e-08 -1.252417e-08 -1.034052e-07 1.665654e-08 -1.245770e-07 2.751698e-08
3.778054e-08 -1.269584e-08 -1.024675e-07 1.396178e-08 -1.224186e-07 3.179217e-08
2.149313e-08 2.282970e-08 -1.119288e-07 -1.716872e-08 -9.645047e-08 7.810501e-09
6.791818e-08 1.792639e-08 -1.337664e-07 -2.683353e-08 -1.441795e-07 5.552113e-09
4.385422e-08 1.010107e-08 -1.083980e-07 -2.002886e-08 -9.648929e-08 -1.210567e-09
4.261273e-08 -2.834866e-08 -7.847232e-08 -9.156909e-09 -1.168357e-07 2.195050e-09
2.627556e-08 -1.153491e-08 8.772012e-09 9.354227e-09 -1.920415e-09 -2.070734e-08
3.071053e-08 -1.420424e-08 1.435875e-08 -2.151924e-09 8.616868e-10 -1.647480e-08
2.450769e-08 -1.073010e-08 1.529701e-09 -4.939399e-09 1.081406e-09 -3.291285e-09
3.340178e-08 -1.196270e-08 5.055282e-09 4.345694e-09 1.327494e-09 -9.438369e-09
1.977814e-08 -5.949688e-09 9.350338e-09 1.126400e-08 1.384353e-09 -9.403028e-09
3.310902e-08 -1.204952e-08 7.437153e-09 -7.302268e-09 2.450958e-09 -1.593478e-08
2.878065e-08 -1.294244e-08 1.343662e-08 1.464412e-09 2.610426e-09 -1.189115e-08
2.609323e-08 -1.116344e-08 6.229420e-09 3.960368e-09 1.860786e-10 -7.039659e-09
-6.084100e-09 2.544569e-09 1.316425e-09 2.431793e-09 5.377262e-10 -2.496474e-10
2.139781e-08 -5.292439e-09 5.472263e-09 1.502866e-08 -2.875978e-09 -1.078566e-08
3.056793e-08 -5.017731e-09 8.874344e-09 1.734245e-08 -3.440268e-09 -1.759312e-08
2.157898e-08 -8.505529e-09 1.123959e-08 1.309820e-08 -2.075572e-09 -1.144653e-08
-1.337921e-08 -4.101463e-09 2.915711e-09 -1.728262e-08 4.082957e-09 1.892444e-09
-3.646072e-09 1.923686e-09 7.013354e-10 3.228764e-09 3.166908e-10 1.902407e-10
-3.296285e-09 1.867771e-09 4.037892e-10 3.226094e-09 1.713298e-10 1.562017e-11
-3.164185e-09 1.707884e-09 4.514937e-10 3.532491e-09 5.368288e-10 -4.895518e-10
-2.815889e-09 1.581779e-09 4.261309e-10 4.037553e-09 1.924085e-10 -5.939600e-10
-4.748405e-09 2.284998e-09 9.380670e-10 2.958681e-09 4.573958e-10 -9.890045e-11
-1.905835e-09 1.934023e-09 1.769518e-10 4.307016e-09 2.930622e-10 -1.280338e-10
-2.323760e-09 1.525618e-09 1.508924e-10 3.748908e-09 3.272661e-10 -2.106841e-10
2.405910e-09 -3.196351e-08 5.166293e-09 2.618027e-08 8.661767e-09 -1.997772e-09
4.680478e-10 -3.775112e-08 3.241549e-09 2.954181e-08 1.354610e-08 -5.013610e-09
-2.453419e-09 -1.524754e-08 -1.251474e-10 1.878454e-08 6.401603e-09 -1.436895e-09
-4.115809e-09 -2.241673e-08 -2.125375e-09 2.302663e-08 1.032085e-08 -4.103335e-09
-1.881284e-07 -2.369857e-08 3.527054e-07 -5.823198e-08 -1.820673e-07 8.180222e-08
1.785826e-07 -3.916757e-08 3.624007e-07 5.025009e-08 5.959583e-08 4.354449e-07
-1.136630e-07 9.721313e-08 2.965777e-07 8.634320e-08 1.733588e-07 6.206430e-08
-1.918659e-07 5.262328e-08 1.260577e-06 2.177203e-07 3.979586e-07 5.900913e-07
-1.334541e-07 7.693362e-08 1.820184e-07 6.097594e-08 1.226150e-07 4.561201e-08
-1.497802e-07 1.634601e-07 3.650117e-07 8.774431e-08 3.330642e-07 1.724152e-07
-1.692595e-07 7.215374e-08 2.773094e-07 3.689009e-08 1.963676e-07 9.240804e-08
-9.500623e-09 4.501328e-09 9.522638e-10 -4.779865e-09 1.855069e-09 -4.913957e-10
-1.055214e-08 -7.723945e-10 2.641162e-09 -6.912641e-09 9.866799e-10 -1.405317e-09
-7.753938e-09 -4.153596e-09 2.336625e-09 -1.062202e-08 2.922930e-09 -2.381829e-10
-9.200579e-09 -7.024966e-09 3.843902e-09 -1.388923e-08 1.922254e-09 6.762345e-10
-9.168118e-09 -6.887547e-09 4.745853e-10 -1.376588e-08 3.902673e-09 8.735885e-10
-9.401719e-09 6.606503e-10 1.083067e-10 -1.122070e-08 4.184893e-09 2.555792e-10
-2.052450e-08 1.942512e-08 -1.014388e-08 2.915831e-08 -3.544360e-08 3.653460e-08
-4.540463e-08 4.370779e-08 -3.901832e-08 1.668885e-08 -5.546272e-08 6.281954e-08
-3.073135e-08 5.611126e-08 2.365392e-09 -2.097343e-09 -2.021837e-09 3.108456e-08
-7.800548e-09 -1.821744e-09 -2.169628e-08 -3.333854e-08 2.231533e-08 1.717268e-08
-2.228172e-08 3.240780e-08 -1.565407e-08 2.301107e-09 -1.629811e-08 2.268799e-08
-3.207361e-08 4.213783e-08 -1.983766e-08 1.901821e-08 -1.871683e-08 5.495514e-08
-2.872084e-08 8.210886e-09 -3.350230e-08 4.213673e-08 -8.050292e-08 5.792834e-08
-2.995072e-08 2.810053e-08 -1.804563e-08 3.310403e-08 -5.670927e-08 5.545063e-08
1.307731e-08 8.722530e-08 -1.257035e-07 -2.905578e-08 -6.441125e-08 3.811469e-08
9.837055e-09 6.073723e-08 -1.146418e-08 -3.620658e-08 3.636874e-09 -6.933980e-09
-1.512287e-08 1.207968e-07 -1.110963e-07 -2.774212e-08 -1.825849e-08 2.665751e-08
6.979190e-08 -4.566557e-10 -1.142608e-07 2.375529e-08 -1.796535e-07 4.625557e-08
6.991180e-08 1.805467e-08 -1.902023e-07 2.104215e-08 -1.741907e-07 4.081374e-08
4.107237e-08 7.888219e-08 -1.303799e-07 -2.908808e-08 -7.321553e-08 2.601895e-08
9.090260e-10 4.094437e-08 -8.489346e-08 8.935344e-09 -5.440151e-08 5.472447e-08
1.781899e-08 4.047608e-08 -9.117081e-08 -1.142429e-08 -6.678681e-08 2.533845e-08
-3.171665e-09 7.707196e-09 -6.360566e-08 4.996644e-08 -6.937567e-08 6.780871e-08
-8.973462e-09 2.536216e-09 -3.457165e-08 -5.045892e-08 4.227639e-08 2.891965e-08
-3.854583e-09 4.726232e-09 -6.100971e-10 6.884654e-09 2.050813e-09 -8.586198e-10
-1.882246e-08 3.663968e-08 -1.815931e-08 -1.532898e-08 -3.231607e-09 2.060741e-08
-2.112981e-08 4.821978e-08 -1.321475e-08 -3.330935e-08 1.539015e-08 1.332503e-08
-7.894656e-09 4.120561e-08 3.240997e-09 -3.128096e-08 1.639066e-08 8.160196e-09
-4.390931e-08 5.989358e-08 1.314037e-08 2.231372e-08 -2.435433e-08 3.002102e-09
-1.467217e-08 4.539334e-08 -2.715669e-08 -2.318710e-08 9.764884e-10 2.256826e-08
-2.657102e-08 2.795362e-09 1.334738e-10 -2.725705e-08 9.011118e-09 1.123313e-08
2.870111e-08 -3.226347e-08 -5.952894e-08 1.027679e-08 -6.409999e-08 1.485801e-08
3.864238e-08 -3.697729e-08 -7.169134e-08 1.353634e-08 -1.035859e-07 2.026905e-08
3.880364e-08 -3.260528e-08 -6.861328e-08 1.262776e-08 -6.679235e-08 1.552960e-08
3.736515e-08 -5.534187e-09 -8.452865e-08 1.483772e-08 -7.745839e-08 2.722695e-08
3.790142e-08 -1.689165e-09 -1.029266e-07 1.241818e-08 -1.274379e-07 3.300864e-08
3.454570e-09 -1.518952e-09 -6.866050e-10 3.898206e-09 3.192705e-10 -2.699808e-10
4.422760e-09 -1.860626e-09 -6.886003e-10 5.161848e-09 2.904580e-10 -2.129024e-10
3.797741e-09 -1.508439e-09 -5.099838e-10 4.058454e-09 3.152057e-10 5.460776e-11
6.801218e-09 -3.681898e-09 -1.204546e-09 4.486773e-09 3.248461e-10 -1.719112e-10
6.837715e-09 5.952248e-09 -2.140238e-09 -1.782897e-08 5.050956e-10 -2.451806e-10
-3.168614e-09 1.494425e-08 -1.606962e-09 -2.010964e-08 -3.395723e-11 3.310924e-09
6.239439e-09 5.353974e-09 -4.203957e-09 -2.054298e-08 1.547600e-09 5.834366e-10
-1.402903e-08 4.165895e-08 -7.014576e-09 -2.506123e-08 1.895455e-09 1.183839e-08
4.703936e-09 1.463517e-08 -4.086011e-09 -2.448848e-08 3.734663e-09 2.195758e-10
1.796424e-08 5.055184e-09 8.829640e-10 -2.258080e-08 3.477001e-09 -7.460878e-09
1.889543e-08 -1.338976e-09 1.081768e-08 -2.517286e-08 7.314243e-09 -1.113618e-08
1.892804e-08 -4.330714e-09 1.439327e-08 -2.575477e-08 1.075350e-08 -1.151494e-08
1.133017e-09 1.429658e-08 -6.459261e-09 -2.652846e-08 6.251051e-09 3.479755e-09
-7.569525e-09 1.921844e-08 -4.694741e-08 -3.388804e-08 -6.127774e-08 -3.572386e-08
-6.790250e-09 1.536241e-08 -5.324476e-08 -3.390323e-08 -6.884516e-08 -3.317179e-08
-6.204320e-09 4.004796e-08 -6.342645e-08 -2.018773e-08 -6.427109e-08 -4.068706e-08
1.803308e-08 -8.357104e-09 -9.207812e-10 2.171812e-10 2.374678e-11 1.725288e-11
-1.031322e-09 4.323968e-09 -1.893876e-10 8.816110e-09 3.316756e-10 -2.297879e-09
1.435421e-08 -7.088272e-09 -1.837949e-09 8.527846e-10 1.034087e-10 -2.825474e-10
1.523241e-08 -6.605053e-09 -1.536197e-09 4.067383e-09 1.278109e-10 -7.048315e-10
1.864068e-08 -7.763610e-09 -2.286337e-09 4.330084e-10 -4.746725e-11 -4.220799e-10
1.782895e-08 -8.465806e-09 3.387157e-11 3.384597e-09 3.126213e-10 -1.057351e-09
1.666093e-08 -7.474431e-09 -1.289768e-09 7.860616e-10 1.397625e-10 -5.100566e-10
-1.335754e-08 1.081973e-08 -3.118209e-08 -5.074446e-08 -5.575990e-08 -4.325997e-08
-1.669660e-08 2.621122e-08 -2.568786e-08 -2.489059e-08 -3.869729e-08 -2.448814e-08
-1.125258e-08 3.490667e-08 -3.189978e-08 -2.700209e-08 -2.269193e-08 -3.064651e-08
-5.653778e-09 1.623734e-08 -3.974243e-08 -2.882375e-08 -3.634361e-08 -2.846267e-08
-1.283786e-08 3.943512e-08 -3.040033e-08 -1.469199e-08 -1.818779e-08 -2.105630e-08
-1.659073e-08 1.524970e-08 -3.425754e-08 -2.441656e-08 -2.827852e-08 -2.534916e-08
1.221114e-08 -1.628220e-09 -2.408788e-09 -1.822350e-08 2.358147e-09 -8.300089e-10
1.699189e-08 -5.028916e-09 1.971002e-09 -1.549793e-08 1.220041e-09 -4.388554e-09
2.945453e-08 -1.180525e-08 6.982227e-09 -9.623636e-09 3.297315e-09 -1.464479e-08
3.777353e-08 -1.208972e-08 5.048220e-09 -7.768992e-09 2.005802e-09 -1.604175e-08
3.382265e-08 -8.596495e-09 -5.718056e-09 -1.349117e-08 4.220241e-09 -9.853429e-09
2.608081e-08 -1.206829e-08 5.377001e-09 -7.254856e-09 2.020758e-09 -7.138377e-09
2.602779e-08 -1.011769e-08 2.965636e-09 -8.249635e-09 5.144744e-10 -7.125912e-09
2.999612e-08 -7.312766e-08 -8.399813e-09 -3.110636e-09 3.314644e-08 1.848082e-09
3.741072e-08 -7.092359e-08 8.513091e-10 3.762452e-09 3.420226e-08 9.943932e-11
-8.807508e-09 6.806706e-10 7.896357e-10 -1.026248e-08 1.014963e-09 9.379240e-11
1.636027e-08 -7.140095e-09 -2.039908e-09 -3.140832e-09 -4.742011e-10 5.887704e-10
3.968560e-08 -8.831426e-08 -1.353016e-08 1.106540e-08 5.960662e-08 1.386885e-09
-1.405806e-08 6.431058e-09 -4.484498e-09 -2.265325e-08 1.256274e-08 7.917172e-09
3.814803e-08 -9.056313e-08 -4.961780e-09 -2.445925e-08 5.638249e-08 5.517984e-09
-3.271885e-08 8.200650e-08 -6.612600e-09 -2.941191e-08 1.884004e-08 2.309536e-08
-4.227220e-08 6.582079e-08 -3.277042e-08 -1.302412e-08 -2.074220e-09 4.630355e-08
-9.963268e-09 5.782915e-08 -6.016325e-08 -1.907809e-08 -2.600751e-08 5.300486e-08
-1.085608e-07 1.472706e-07 -9.122217e-08 5.708792e-08 -5.017013e-08 1.048851e-07
-4.697633e-08 3.181495e-08 -5.411564e-08 8.678088e-08 -7.597051e-08 9.098661e-08
-4.303926e-08 8.926762e-08 -4.767149e-08 -5.795565e-09 -4.299136e-09 5.234591e-08
2.815400e-09 5.078968e-08 -5.003815e-08 -3.010042e-08 -1.308873e-08 2.094209e-08
-1.471025e-08 8.829885e-08 -1.109894e-07 5.700258e-09 -7.248251e-08 7.683287e-08
-1.486314e-08 7.699741e-08 2.538023e-10 -5.332115e-08 3.665173e-08 1.185753e-08
3.539202e-09 6.632173e-09 -2.613475e-09 -1.859480e-08 6.013982e-10 1.069708e-09
8.287408e-09 2.190151e-09 5.303695e-10 -1.859475e-08 9.263879e-10 -2.866819e-09
1.349131e-09 7.352352e-09 -3.034585e-09 -1.658577e-08 -1.402191e-09 2.245903e-09
8.260134e-09 9.159801e-10 -1.797979e-09 -1.501701e-08 -2.257466e-10 -4.850260e-10
8.901794e-09 2.626722e-10 -7.946410e-10 -1.558180e-08 1.970818e-10 -1.320701e-09
5.915123e-09 3.230259e-09 -1.593147e-09 -1.487531e-08 -1.065519e-09 2.054901e-10
3.199361e-08 5.934143e-08 -1.754450e-07 -8.032057e-08 -1.645167e-07 -4.773520e-08
2.953809e-08 3.057846e-09 -1.391693e-07 -7.032433e-08 -1.437114e-07 -5.342260e-08
-3.820305e-09 9.599459e-08 -8.930951e-08 -1.683453e-08 -4.586177e-08 -3.020916e-08
2.450596e-09 7.425331e-08 -1.112957e-07 -2.310139e-08 -7.207164e-08 -4.476920e-08
1.845060e-08 1.017020e-09 -8.049820e-08 -4.440778e-08 -9.792574e-08 -4.620408e-08
3.899174e-08 -1.713065e-07 -1.035973e-07 -8.437595e-08 -2.084774e-07 -7.600630e-08
3.051713e-08 3.263295e-08 -2.050997e-07 -6.442532e-08 -2.209827e-07 -4.457555e-08
3.822712e-09 8.771135e-08 -1.434419e-07 -5.761486e-08 -1.570643e-07 -5.523926e-08
-5.218280e-09 2.339522e-09 1.008499e-09 2.449431e-09 3.097269e-10 -5.701523e-11
-5.243819e-09 2.223085e-09 1.086381e-09 2.238304e-09 3.255350e-10 -1.974420e-10
-4.375676e-09 2.086290e-09 7.358123e-10 2.214655e-09 1.962177e-10 6.099953e-12
-4.090356e-09 2.125421e-09 4.740568e-10 2.578631e-09 3.060616e-10 -3.016265e-10
-4.408666e-09 2.083491e-09 6.001326e-10 2.225133e-09 2.769729e-10 -1.793528e-10
-1.495847e-08 -4.535312e-09 1.091551e-09 -2.600524e-08 8.626458e-09 5.592216e-09
-6.067225e-09 2.227990e-09 1.359521e-09 1.841779e-09 1.900915e-10 -3.629420e-10
1.883522e-08 -4.668840e-08 -1.844108e-08 -5.930027e-08 -7.442625e-08 -2.476235e-08
3.306130e-08 -5.105286e-08 -2.276589e-08 -4.476304e-08 -8.845495e-08 -2.146846e-08
1.653652e-08 -3.837391e-08 -1.646839e-08 -5.554123e-08 -7.905387e-08 -2.530192e-08
5.187735e-09 -2.824153e-08 -2.511682e-08 -4.131216e-08 -5.028771e-08 -2.284034e-08
2.901088e-09 -3.241064e-08 -1.945415e-08 -4.585487e-08 -6.108814e-08 -2.514322e-08
1.484813e-08 -1.112631e-07 -2.371012e-08 -6.664737e-08 -1.072389e-07 -2.971520e-08
1.587915e-08 -1.472402e-08 -2.645153e-08 -6.933494e-08 -9.497588e-08 -3.954193e-08
2.272695e-08 -5.689078e-08 -4.267337e-09 -7.573248e-09 1.830546e-08 1.684840e-09
2.078565e-08 -5.964864e-08 -2.054534e-09 -8.696282e-09 1.736940e-08 1.086467e-09
1.699323e-08 -4.789775e-08 2.369914e-09 -8.538291e-09 9.376771e-09 1.529023e-10
1.937191e-08 -4.708719e-08 -2.995085e-09 -7.159402e-09 9.745447e-09 8.915217e-10
2.278174e-08 -4.720712e-08 6.697198e-10 -6.445529e-09 1.113348e-08 1.577556e-09
2.278741e-08 -4.728942e-08 -4.052067e-09 -6.502915e-09 1.027760e-08 5.439520e-10
1.996598e-08 8.802633e-09 1.106331e-07 9.067426e-08 6.650678e-08 9.425093e-08
-3.798208e-08 -9.452542e-10 4.552433e-07 -1.310553e-07 -2.412161e-07 2.967608e-07
6.755126e-08 -4.520505e-08 1.026658e-07 1.534046e-08 1.997261e-08 2.116209e-07
2.588131e-08 1.459880e-08 4.139861e-07 -9.650027e-08 -2.499153e-07 3.018661e-07
1.694418e-07 7.342337e-09 5.064001e-08 9.875072e-08 5.449025e-08 1.982361e-07
1.780276e-07 -4.124337e-08 6.559868e-08 5.159978e-08 2.674610e-08 4.652866e-07
-6.254966e-08 3.055414e-08 2.404414e-07 1.693576e-07 2.518715e-07 2.732493e-07
2.667200e-07 -4.234046e-08 1.965948e-07 4.295098e-08 2.896046e-08 3.369658e-07
1.685823e-07 2.687269e-08 4.151315e-08 9.467317e-08 4.830316e-08 2.038830e-07
-1.016103e-08 -6.520618e-09 -8.545201e-09 3.026821e-08 1.384285e-08 -7.063396e-09
7.452052e-10 -7.668904e-09 -3.458114e-08 4.388141e-08 3.154203e-08 -1.759892e-08
-3.741658e-09 -2.205056e-08 -1.212903e-08 4.079642e-08 2.486019e-08 -1.174919e-08
-1.215631e-08 -1.391657e-08 -1.136687e-08 3.519433e-08 1.974026e-08 -1.326344e-08
-8.910769e-09 -3.121786e-08 -6.130593e-09 4.987411e-08 3.473542e-08 -1.783337e-08
4.275928e-09 -2.801699e-08 -1.052473e-08 4.126461e-08 3.336625e-08 -1.458644e-08
2.796648e-10 -3.701211e-08 -3.013034e-10 4.438216e-08 2.625907e-08 -8.372729e-09
1.412158e-08 -3.560572e-08 -1.326665e-08 4.431360e-08 3.715277e-08 -1.438202e-08
1.323613e-08 -5.367442e-08 3.518597e-09 5.406628e-08 4.333700e-08 -1.633084e-08
1.129626e-08 -3.952196e-08 -1.609549e-09 3.610872e-08 2.897806e-08 -7.327659e-09
-7.734684e-09 -3.693670e-08 -8.900485e-09 6.096703e-08 4.687564e-08 -1.853490e-08
-3.755076e-09 -1.148709e-08 -7.287972e-09 2.689084e-08 7.345376e-09 -4.265747e-09
6.216985e-10 -2.208950e-08 -5.317156e-09 3.186436e-08 1.609079e-08 -5.164787e-09
1.552522e-08 -4.633111e-08 2.394232e-09 2.262246e-08 1.249168e-08 -3.025186e-09
5.513168e-10 -3.239817e-08 -5.327386e-09 2.882660e-08 1.724396e-08 -5.137955e-09
-3.620980e-09 -2.015588e-08 -9.658743e-09 2.461346e-08 1.190570e-08 -2.923877e-09
6.232654e-09 -2.184519e-08 -1.947541e-08 3.483335e-08 1.983658e-08 -8.082231e-09
6.422289e-09 -2.196876e-08 -1.651401e-08 3.460686e-08 2.873430e-08 -1.150331e-08
7.224108e-09 -3.758917e-08 -4.448671e-09 3.113675e-08 2.002492e-08 -7.353774e-09
-8.782221e-09 4.608736e-09 1.042048e-09 -7.751911e-10 1.891344e-09 -7.213681e-10
5.773018e-09 -2.451616e-08 -1.705824e-08 3.365387e-08 1.780896e-08 -9.469752e-09
1.004735e-08 -4.862122e-08 -4.762607e-09 3.224298e-08 2.083694e-08 -7.837305e-09
9.983914e-09 -4.816801e-08 5.206083e-09 3.217794e-08 1.761127e-08 -6.402120e-09
9.189361e-09 -4.063917e-08 -5.731618e-09 3.191402e-08 2.323736e-08 -6.040713e-09
5.378367e-08 4.653506e-08 1.675059e-07 -1.256652e-07 -1.405922e-07 1.689832e-07
-8.142769e-09 1.395062e-09 2.067014e-09 -3.335628e-10 4.176810e-10 -2.474080e-10
1.130081e-08 -3.951589e-08 -9.874512e-09 3.612028e-08 2.596962e-08 -7.940100e-09
6.989341e-09 -3.689179e-08 -7.586360e-09 3.129016e-08 1.641801e-08 -5.728201e-09
8.359413e-09 -3.783831e-08 5.524365e-09 2.106316e-08 8.476807e-09 -1.852372e-09
4.757601e-09 -3.372376e-08 5.781608e-09 2.240690e-08 6.452855e-09 -7.861104e-10
1.069306e-08 -3.768229e-08 -1.419143e-10 2.489419e-08 1.372725e-08 -3.090769e-09
-4.987944e-09 2.532057e-09 5.897283e-10 3.894279e-09 3.989475e-10 1.070366e-11
-3.964579e-09 2.324193e-09 6.183449e-10 3.353645e-09 6.896842e-10 -2.614572e-10
-1.818769e-08 1.108145e-08 -3.011948e-09 -1.329858e-08 3.968059e-09 5.022866e-09
-6.193053e-09 1.866912e-09 1.110103e-09 1.789983e-09 2.145812e-10 -4.321729e-10
2.756796e-08 -9.832379e-09 -5.640359e-10 1.932800e-09 -3.678381e-10 -5.054550e-09
2.703570e-08 -9.557896e-09 -2.075214e-09 2.017330e-09 -5.182764e-10 -5.131859e-09
-1.001908e-08 1.288079e-08 7.716641e-10 4.646324e-09 -1.162283e-10 -8.127639e-10
-1.086381e-08 7.131341e-09 -1.552465e-09 -2.796335e-09 4.268586e-09 1.277903e-09
-1.303830e-08 7.950591e-09 6.578196e-10 3.387430e-10 7.252082e-10 4.233355e-10
-8.339121e-09 4.768244e-08 -5.759791e-08 -7.524497e-10 -3.280511e-08 -2.935510e-08
1.577694e-08 -3.793014e-08 -1.176859e-08 2.505222e-08 1.957901e-08 -2.603300e-09
1.048531e-08 -3.785122e-08 -7.220238e-09 3.441763e-08 2.307961e-08 -7.442257e-09
-8.121079e-09 -1.645863e-08 -6.774263e-09 3.165603e-08 1.692990e-08 -9.261619e-09
2.070645e-08 -4.904687e-08 -1.181254e-08 3.085797e-08 3.225815e-08 -9.741442e-09
1.123385e-08 -5.503726e-08 2.436609e-09 3.432458e-08 2.218200e-08 -7.107884e-09
1.408655e-08 -5.591241e-08 -8.954121e-09 4.297813e-08 3.147272e-08 -1.419738e-08
2.451971e-08 -6.803117e-08 -2.088284e-08 2.962238e-08 4.538093e-08 -8.941421e-09
1.471877e-08 -5.572684e-08 -5.847783e-09 2.672105e-08 2.366245e-08 -5.055083e-09
1.146645e-08 -5.279304e-08 7.348846e-09 2.753979e-08 1.470301e-08 -4.382990e-09
4.215975e-08 -1.146307e-07 -1.334165e-08 3.181585e-08 -6.483670e-08 1.703286e-08
2.165252e-08 -6.771642e-08 -5.151368e-10 2.691300e-08 2.804150e-08 -4.353587e-09
2.610833e-08 -5.892556e-08 -1.534391e-08 2.676042e-08 3.754429e-08 -5.517091e-09
2.245943e-08 -5.360173e-08 -1.136256e-08 2.253827e-08 2.516943e-08 -5.311577e-09
-8.042455e-09 -5.547717e-10 2.147060e-09 -2.680622e-09 7.334602e-10 -1.233132e-09
1.407888e-08 -5.616386e-08 -1.107988e-08 4.303518e-08 4.865349e-08 -1.560902e-08
2.437209e-08 -7.829103e-08 -2.888599e-09 1.625430e-08 4.314302e-08 -2.068832e-09
-1.072542e-08 5.747423e-09 -9.126364e-10 -1.262023e-08 2.362775e-09 1.296933e-09
9.368684e-10 1.130683e-09 -5.284508e-10 -4.879529e-09 -2.611135e-10 1.203765e-11
4.735305e-10 8.265504e-10 -5.726992e-10 -4.210829e-09 -3.028127e-10 2.386962e-10
9.501495e-10 6.163510e-10 -6.999290e-10 -4.852747e-09 -2.696718e-10 -3.167521e-10
6.061263e-09 -2.833158e-09 -1.077421e-09 -5.890540e-09 -5.861553e-10 -1.578671e-11
8.466550e-10 1.053722e-09 -4.409866e-10 -5.006545e-09 -6.248057e-10 -1.237890e-10
1.127768e-08 -6.081289e-09 -1.524932e-09 -3.823764e-09 -2.025937e-10 8.654455e-11
3.295697e-09 -2.124185e-10 -7.917416e-10 -6.930725e-09 -2.515148e-10 -2.708629e-10
2.745723e-09 -8.010209e-11 -6.201746e-10 -5.401506e-09 -6.688863e-10 4.874412e-11
4.049105e-09 -7.729967e-10 -8.926675e-10 -6.182085e-09 -4.639438e-10 3.486167e-10
5.145599e-09 -1.936600e-09 -9.966221e-10 -5.063060e-09 -7.076112e-10 2.180300e-10
4.679816e-09 -1.385631e-09 -8.285755e-10 -4.823338e-09 -3.953041e-10 4.254593e-10
-1.357318e-08 2.676589e-08 -2.445601e-08 5.280715e-09 -2.523237e-08 2.719994e-08
-1.501103e-08 4.014116e-09 -2.600307e-08 1.605536e-08 -2.480967e-08 2.361669e-08
-1.350277e-08 1.735533e-08 -4.214134e-08 1.452829e-08 -3.232569e-08 3.077566e-08
-3.410396e-09 5.219883e-09 -2.844436e-08 2.025919e-08 -2.465287e-08 1.907931e-08
-1.286242e-08 5.264960e-09 -2.905546e-08 1.815305e-08 -2.441983e-08 2.218577e-08
-1.417935e-07 2.718785e-07 6.107203e-08 2.749411e-08 2.095134e-07 -7.799648e-08
-7.428395e-09 1.508346e-07 -8.687517e-08 -8.835312e-09 5.675991e-08 -4.315005e-08
-2.758036e-08 8.046599e-08 5.086779e-09 3.632241e-08 3.768420e-08 2.520754e-08
-2.307153e-08 1.456953e-07 -1.914692e-07 2.004589e-08 -2.407270e-08 -2.499212e-08
-5.298946e-08 1.675919e-07 6.935044e-09 -4.105257e-08 7.388617e-08 -8.978610e-08
-1.202504e-08 -4.511491e-09 -3.727622e-09 -1.657016e-08 5.095658e-09 3.249184e-09
-6.257802e-08 3.492744e-07 -2.314337e-07 -3.822940e-08 5.000840e-09 -6.961480e-08
1.311956e-08 2.643547e-09 -6.122535e-08 -6.621796e-08 8.789119e-08 5.409757e-08
-1.770067e-08 4.855846e-09 8.855912e-10 -1.579178e-08 4.786492e-09 4.117048e-09
-8.691887e-08 4.936963e-08 4.322424e-09 -4.612563e-08 5.596119e-09 4.990920e-08
-3.337144e-08 3.067249e-08 -2.077265e-08 -2.739178e-08 1.568238e-08 2.452828e-08
-8.692413e-08 5.140619e-08 -1.744806e-09 -4.522436e-08 4.410774e-09 5.103712e-08
-8.201700e-09 2.680573e-08 -5.041361e-08 -4.355965e-08 4.191050e-08 3.009666e-08
-3.664252e-08 3.131166e-08 -2.172580e-08 -4.442143e-08 3.253097e-08 4.090106e-08
7.639842e-08 1.749649e-09 -1.319282e-07 5.550446e-08 1.719539e-07 -5.169187e-08
1.229057e-07 -9.655223e-08 -1.521473e-07 -1.603264e-10 2.275294e-07 -2.854878e-09
7.474632e-08 -1.295875e-07 -9.157185e-08 8.192595e-08 2.691969e-07 -8.303305e-08
6.346838e-09 1.327418e-09 -2.114541e-09 1.032122e-08 1.131774e-09 8.030969e-10
2.723022e-09 1.112766e-09 -8.592838e-10 7.753158e-09 7.012574e-10 -8.196303e-10
6.395304e-09 1.339420e-09 -1.547323e-09 1.034610e-08 1.161678e-10 -1.819614e-09
4.460986e-09 9.210648e-10 -9.471397e-10 9.368979e-09 4.423891e-10 -1.602922e-09
5.240095e-10 1.573645e-09 5.090239e-11 8.265512e-09 7.401636e-10 -2.768223e-10
5.642731e-09 3.945162e-10 7.611334e-11 8.684184e-09 9.295652e-10 -1.752985e-09
3.264654e-09 2.167889e-09 9.348491e-10 1.052112e-08 2.893212e-10 -1.307765e-09
-6.443529e-09 6.925273e-09 7.299183e-10 7.064141e-09 1.252920e-10 -1.132752e-09
-2.251332e-09 4.228460e-09 6.061862e-10 8.077150e-09 1.148315e-10 -1.374735e-09
-2.584383e-08 1.501653e-08 -4.597627e-09 -1.420222e-08 6.132070e-09 9.983308e-09
-7.543181e-09 6.342585e-09 7.097785e-10 6.056825e-09 2.751624e-11 -1.872074e-09
-8.440914e-09 5.578320e-09 7.457157e-10 5.106092e-09 8.313150e-10 -3.710204e-10
-6.231652e-10 5.209137e-09 4.170762e-10 1.060264e-08 2.412542e-11 -1.851031e-09
1.311080e-08 -1.094902e-08 -3.078627e-08 -3.296023e-08 3.179552e-08 1.476138e-08
-6.694844e-10 -1.641937e-08 -1.432411e-08 -4.221588e-08 3.224915e-08 2.016125e-08
-3.920664e-08 5.664292e-08 -8.024773e-09 -1.943959e-08 -2.232788e-10 3.694714e-08
-2.195203e-08 2.302661e-08 -5.358104e-09 -2.916584e-08 7.865043e-09 1.350557e-08
1.037155e-08 -4.037903e-08 -2.185803e-08 -4.185544e-08 3.925226e-08 1.705709e-08
-1.675060e-08 9.163405e-09 2.801852e-09 -7.351950e-09 2.329530e-09 -4.132734e-10
-1.725741e-08 2.331019e-09 5.052959e-10 -1.378132e-08 6.035207e-09 2.426272e-09
-1.867051e-08 2.096330e-08 9.885001e-10 5.199699e-09 -1.616323e-09 -1.642167e-09
-2.094466e-08 1.611768e-08 -1.376804e-09 -9.304566e-09 2.840135e-09 2.555946e-09
-2.352816e-08 2.186297e-08 3.716348e-10 -3.703868e-09 4.010995e-09 2.055616e-09
2.199029e-08 -4.378265e-09 1.945677e-09 1.450400e-08 -1.492959e-09 -9.580800e-09
3.083722e-08 -1.890457e-10 1.245724e-09 2.263477e-08 -2.705442e-09 -1.637713e-08
1.626058e-08 6.032298e-09 2.702356e-09 2.048438e-08 -4.240486e-09 -1.367912e-08
2.069200e-08 -3.074114e-09 3.378028e-09 1.381547e-08 -1.508830e-09 -8.759045e-09
1.328800e-08 2.180405e-09 2.194299e-09 1.776527e-08 -2.984953e-09 -9.354577e-09
1.033979e-08 1.109491e-08 1.091004e-08 2.782104e-08 -1.024384e-08 -1.596075e-08
3.675301e-08 -5.127124e-09 3.331351e-10 1.726826e-08 -3.024978e-09 -1.599793e-08
1.724366e-08 3.287017e-10 8.261606e-09 1.969898e-08 -5.157067e-09 -1.426097e-08
3.018223e-08 -9.834459e-09 1.371315e-09 6.397937e-09 8.111198e-10 -1.073983e-08
2.426748e-08 -7.421645e-09 2.105697e-09 9.339365e-09 -6.816810e-11 -4.990185e-09
9.239215e-09 2.074812e-09 1.230710e-09 1.541389e-08 -1.400849e-09 -4.854648e-09
2.967860e-09 8.633212e-09 3.968787e-09 1.967558e-08 -4.354620e-09 -9.232102e-09
1.575741e-08 -4.811405e-09 7.818399e-10 1.270066e-08 -1.540207e-09 -5.347504e-09
2.828179e-09 7.455760e-09 7.530745e-09 2.033195e-08 -4.736337e-09 -9.932400e-09
5.664116e-09 1.998391e-09 3.752912e-09 1.620996e-08 -1.075678e-09 -4.702550e-09
-9.161270e-09 2.495315e-09 7.523420e-10 -3.635120e-09 1.329095e-09 -6.247857e-10
-1.880075e-08 9.857387e-09 -1.978465e-09 -1.037343e-08 2.572898e-09 2.625599e-09
-1.039174e-08 6.521232e-09 5.600169e-10 1.520651e-09 9.824988e-10 -3.087812e-10
-1.191587e-08 3.575870e-09 1.261131e-09 -4.145346e-09 1.393428e-09 -4.460359e-10
-2.353138e-07 8.560354e-09 6.538931e-07 -8.484151e-08 6.381854e-08 -4.640221e-07
-2.882493e-08 7.847724e-08 2.232837e-07 -1.105134e-07 -6.079808e-08 -9.998149e-08
-1.908206e-08 4.341968e-08 1.733293e-07 -7.040681e-08 2.034176e-08 -1.052427e-07
-3.588277e-08 1.228915e-07 9.759835e-08 -1.111737e-07 7.007238e-08 -7.874628e-08
-1.652959e-08 1.451039e-07 -8.654058e-08 -3.013387e-08 -1.656954e-08 4.058959e-08
7.980786e-09 2.144570e-08 5.916226e-08 -4.650229e-08 1.236155e-08 -2.191969e-08
-5.286799e-08 -1.746447e-08 1.607785e-07 -2.160583e-08 6.735019e-10 -1.188312e-07
-3.416516e-08 4.420058e-08 -3.980988e-08 2.122081e-08 -5.080505e-08 6.872037e-08
1.724915e-09 3.974523e-08 2.211432e-08 -4.003090e-08 2.054295e-08 -3.495897e-09
-1.981312e-09 5.983841e-08 -2.703287e-08 -3.637303e-08 8.359111e-10 2.847148e-08
-1.838610e-08 1.842495e-08 -8.431803e-09 2.901059e-08 -3.608599e-08 3.858210e-08
-2.049339e-08 1.922510e-08 -1.047048e-08 -1.611726e-09 -1.056648e-08 1.963099e-08
-3.182785e-08 3.971391e-08 -5.011836e-08 2.401932e-08 -3.677173e-08 5.902784e-08
-1.335769e-08 3.826438e-08 -2.370277e-09 -2.307899e-08 5.147235e-09 1.370657e-08
-1.180979e-08 3.334316e-08 -2.308003e-08 -1.091306e-08 -1.058624e-08 1.965426e-08
-1.423822e-08 5.255806e-08 -3.661810e-08 -5.598430e-09 -1.542592e-08 3.476030e-08
-2.053678e-08 2.968759e-08 -7.744969e-09 -1.150684e-08 -5.088233e-09 1.287299e-08
-1.315671e-08 2.009293e-09 -5.880150e-09 -1.717277e-08 5.509120e-09 3.208390e-09
1.108095e-08 -5.985019e-09 -1.433391e-09 9.659493e-10 2.421193e-10 1.575444e-10
1.178174e-08 -6.252642e-09 -1.531811e-09 3.114594e-09 1.611679e-10 -3.105163e-10
1.164558e-08 -5.899941e-09 -1.288768e-09 3.171808e-09 5.152683e-12 -1.780502e-10
1.153774e-08 -5.239924e-09 -1.148900e-09 3.239955e-09 3.136823e-10 -1.685641e-10
-1.064158e-08 2.286565e-09 8.747840e-10 -2.545121e-09 1.545762e-09 -5.467246e-10
-1.090242e-08 4.634655e-09 1.190603e-09 -5.699743e-09 1.532723e-09 -3.148033e-10
-8.168465e-09 8.570066e-10 2.306488e-09 -4.118711e-09 7.510436e-10 -7.618791e-10
-1.028828e-08 -2.206154e-09 1.883334e-09 -8.277247e-09 2.140075e-09 2.349599e-10
-9.361772e-09 5.774022e-10 1.262039e-09 -3.601732e-09 1.975623e-09 -1.060656e-10
-9.317836e-09 6.510170e-11 1.321795e-09 -9.581682e-09 1.528999e-09 8.240074e-12
-1.294091e-08 5.857613e-09 -8.997736e-10 -7.812106e-09 2.984982e-09 1.743280e-09
-7.704316e-09 -7.385135e-09 2.424260e-09 -1.057576e-08 1.597139e-09 -2.289468e-10
-3.769747e-09 2.032329e-09 4.630532e-10 2.872978e-09 3.689718e-10 -3.019772e-10
-3.143705e-09 1.765052e-09 4.412875e-10 2.601322e-09 3.826818e-10 1.447794e-10
-1.362323e-09 9.353709e-10 4.488254e-11 3.119390e-09 2.411398e-10 -3.071327e-10
-1.065177e-09 7.484680e-10 -3.271050e-11 3.442905e-09 4.870722e-10 -1.036662e-10
-3.149990e-09 1.666923e-09 4.120453e-10 3.033916e-09 1.568352e-10 -5.366818e-11
-1.556169e-09 1.437188e-09 2.002007e-10 3.261402e-09 3.280034e-10 -2.154112e-10
-3.997591e-09 1.806879e-08 -1.741300e-08 -1.853468e-08 -7.779703e-09 1.059531e-08
-3.735468e-09 1.810866e-09 5.170706e-10 2.018843e-09 1.014315e-10 -4.410979e-10
-4.384326e-09 2.278503e-09 6.041914e-10 2.545993e-09 3.069257e-10 -1.465787e-10
5.741073e-08 -1.545217e-08 -1.486438e-07 -3.223502e-08 1.347270e-07 2.566682e-08
6.778771e-08 -1.530317e-07 -1.266020e-07 -8.720609e-08 2.694698e-07 5.095253e-08
1.953415e-08 -3.754015e-08 -8.011781e-08 -3.888744e-08 8.770109e-08 2.855074e-08
6.867487e-09 5.875283e-08 -8.406191e-08 -4.960074e-08 6.342470e-08 4.701837e-08
3.153836e-08 -8.366702e-08 -4.113429e-08 -5.239220e-08 8.889063e-08 3.416086e-08
2.540269e-09 -3.911416e-08 -5.861573e-08 -8.398070e-08 1.215479e-07 5.391683e-08
5.570260e-08 -1.730470e-07 -3.310222e-08 -5.152533e-08 1.255333e-07 2.274893e-08
3.786547e-09 -6.699005e-08 -1.030457e-08 -8.693752e-08 8.259831e-08 4.841850e-08
-4.858693e-09 4.312248e-09 -9.058221e-11 -7.251393e-09 -1.420638e-09 1.620852e-10
-6.178607e-09 4.878032e-09 -9.901702e-10 -8.224536e-09 -1.660895e-09 2.306958e-09
-2.788298e-09 4.690889e-09 -5.424692e-10 -8.511867e-09 -1.163851e-09 4.675234e-10
-4.427082e-09 4.124113e-09 -8.861463e-10 -9.229661e-09 -1.892337e-09 2.579715e-10
-5.394104e-09 4.180723e-09 2.060085e-11 -7.322959e-09 -8.615309e-10 -4.921155e-10
-6.192439e-09 4.407999e-09 -1.040084e-10 -6.948754e-09 -1.340100e-09 -1.451881e-11
-4.385688e-09 3.380940e-09 -1.513216e-10 -7.996546e-09 -1.451798e-09 -1.079791e-10
1.368184e-08 -5.536140e-09 -1.806898e-09 -5.899807e-09 -8.387214e-10 5.078732e-10
-5.701062e-09 2.680564e-09 8.097545e-10 3.132979e-09 2.034497e-10 -1.980435e-10
1.947121e-08 -4.646149e-08 -9.711530e-09 1.860266e-08 1.610525e-08 -2.162016e-09
1.671461e-08 -3.749623e-08 -1.109431e-08 2.484318e-08 1.685142e-08 -3.402853e-09
7.300162e-10 -3.400987e-08 3.576373e-09 3.096380e-08 1.232942e-08 -5.345868e-09
2.024637e-08 -3.282953e-08 -2.876331e-08 3.459144e-08 3.039381e-08 -1.140286e-08
2.511011e-08 -7.126607e-09 -3.472853e-09 -1.388171e-08 2.799634e-09 -5.116454e-09
2.591559e-08 -1.207027e-08 1.766010e-09 -7.651355e-09 1.777127e-09 -8.761338e-09
3.930050e-08 -1.483630e-08 1.127096e-08 -3.974781e-09 2.518998e-09 -2.151893e-08
3.269267e-08 -7.268114e-09 6.465759e-09 -1.766423e-08 6.533229e-09 -1.677886e-08
2.084758e-08 -6.734127e-09 8.328790e-09 -2.096029e-08 5.405905e-09 -6.980260e-09
2.929976e-08 -1.194278e-08 1.193529e-08 -9.416312e-09 2.731397e-09 -1.271982e-08
8.550393e-09 -1.503527e-10 -1.438802e-09 -1.350938e-08 -9.706341e-10 -4.721334e-10
6.000098e-09 1.778826e-09 -1.549187e-09 -1.396593e-08 -9.996003e-10 -2.353773e-10
1.198961e-08 1.152596e-09 3.557901e-10 -1.722187e-08 3.823704e-10 -1.365488e-09
1.334693e-08 -4.874363e-10 -1.003312e-09 -1.567461e-08 -1.985689e-10 -1.378843e-09
5.882851e-09 9.618586e-10 -1.868292e-09 -1.528772e-08 -1.235130e-10 5.030442e-10
-1.660215e-08 4.410215e-08 -1.196753e-08 -3.572036e-09 -1.291404e-08 -1.939620e-08
-2.255224e-08 4.012743e-08 -2.321045e-08 1.830561e-08 -5.851779e-09 -2.420778e-08
7.695282e-09 6.416292e-08 -7.513099e-08 -1.689426e-08 -3.917216e-08 -2.264820e-08
1.608866e-08 -7.399417e-09 -2.163165e-09 -2.845666e-09 -1.415627e-10 3.498926e-10
-1.386203e-08 4.364427e-08 -2.610039e-08 1.277717e-08 -8.878305e-09 -1.940017e-08
-2.248051e-08 6.029530e-08 -3.468824e-08 1.553459e-08 -1.093283e-08 -2.549516e-08
-1.527377e-08 5.765910e-08 -3.796181e-08 1.753199e-08 -1.378919e-08 -2.392778e-08
-3.382019e-08 7.285683e-08 -4.573641e-08 4.330222e-08 1.281680e-08 -3.082821e-08
-3.249905e-08 1.416118e-07 -7.275152e-08 1.417869e-08 2.009121e-09 -2.797166e-08
1.585424e-08 1.133994e-07 6.406385e-09 9.162221e-08 1.178282e-07 5.538044e-08
2.485084e-08 7.888186e-08 -3.662274e-08 6.265827e-08 2.055761e-08 -4.251092e-09
-2.013636e-08 3.910119e-08 -2.094480e-08 6.741258e-09 -1.385218e-08 -3.085183e-08
-7.012178e-08 2.060322e-07 -7.415778e-08 -5.165508e-08 1.500684e-08 -7.384283e-08
-3.273016e-08 1.237151e-07 -9.082481e-08 2.589100e-08 -3.891202e-08 -6.843440e-08
1.814927e-08 -6.461818e-09 -2.909237e-09 -8.641288e-09 3.555667e-10 -6.592263e-10
2.275435e-08 -8.393216e-09 -2.824865e-09 -4.300106e-09 3.778622e-10 -2.330098e-09
-1.398134e-08 -6.105336e-09 -1.068586e-08 1.024986e-08 -7.954270e-09 -2.021960e-08
-2.337618e-08 1.156258e-08 -2.294825e-08 3.432980e-08 2.742498e-08 -2.035842e-08
-2.487906e-08 1.554659e-08 -3.731728e-08 5.442667e-08 5.075213e-08 -3.703007e-08
-2.064959e-08 4.265070e-08 -6.635260e-08 4.929754e-08 4.977445e-08 -4.601670e-08
-1.034791e-08 1.325573e-08 -3.714968e-08 4.834168e-08 5.631714e-08 -4.076213e-08
-8.954114e-09 1.350616e-08 -3.776980e-08 4.733025e-08 5.305739e-08 -3.836039e-08
-8.099617e-09 9.921427e-09 -3.325587e-08 3.012022e-08 2.976909e-08 -1.740192e-08
-5.927329e-08 1.912625e-08 -3.441079e-08 9.754513e-08 7.434245e-08 -6.298536e-08
-2.304758e-09 -1.619321e-08 -2.000844e-08 6.362345e-08 6.960703e-08 -3.978500e-08
-2.878931e-08 -1.406453e-08 -1.708039e-08 8.389480e-08 6.101722e-08 -3.811966e-08
2.036068e-08 -7.909354e-09 -1.535984e-09 -4.575194e-09 -4.691516e-10 -1.387167e-09
2.418834e-08 -6.358353e-09 -2.394269e-09 -1.140344e-08 8.367382e-10 -2.782533e-09
1.268092e-08 -4.242556e-09 -3.584115e-10 -1.192606e-08 -1.013428e-10 -1.004040e-09
1.778270e-08 -6.620574e-09 -1.585700e-10 -1.002620e-08 5.075707e-10 -2.609924e-09
2.363570e-08 -8.651988e-09 -8.826988e-10 -4.710547e-09 -1.107662e-11 -3.344306e-09
2.402668e-08 -8.573789e-09 -9.106580e-10 -7.275139e-09 3.011766e-10 -3.984157e-09
3.891432e-08 -1.153305e-08 7.472538e-09 9.511768e-09 -1.898193e-09 -1.774592e-08
2.748803e-08 -1.227972e-08 8.305478e-09 1.030991e-08 -2.524442e-09 -1.969386e-08
4.038241e-08 -1.416196e-08 2.340318e-08 7.398068e-10 2.733317e-09 -2.413880e-08
3.094192e-08 -8.454272e-09 9.200209e-09 1.466853e-08 -3.278609e-09 -2.217401e-08
2.894306e-08 -1.373205e-08 1.409533e-08 1.179526e-09 9.035982e-10 -1.358081e-08
3.560776e-08 -9.714397e-09 7.003688e-09 7.468540e-09 -2.392580e-10 -1.627746e-08
3.178357e-08 -8.450153e-09 1.099645e-08 1.433350e-08 -3.501015e-09 -2.050668e-08
2.258104e-08 -1.011014e-08 9.911049e-09 1.285932e-08 -3.556898e-09 -1.186812e-08
1.573886e-08 -4.822257e-09 4.873961e-09 1.274330e-08 -6.053104e-10 -5.469956e-09
5.188047e-08 -1.546535e-08 1.888513e-08 -3.566219e-09 2.919943e-09 -3.448703e-08
4.106926e-08 -1.285865e-08 1.732884e-08 3.280787e-09 8.877752e-10 -3.031512e-08
-1.407124e-08 1.066854e-07 -1.133196e-07 7.086678e-09 -4.132346e-08 -2.058003e-08
-6.635098e-09 2.444831e-09 1.261730e-09 1.032905e-09 2.423265e-10 -3.758046e-10
1.915342e-08 3.641565e-09 1.875197e-09 2.159753e-08 -5.082231e-09 -1.395300e-08
8.485850e-09 1.543564e-09 2.242339e-09 1.385304e-08 -8.943752e-10 -5.759836e-09
8.689469e-09 -1.987503e-09 -1.330926e-09 -8.290279e-09 -5.190208e-10 9.444454e-11
-5.168852e-08 3.562611e-08 4.984157e-09 -4.743397e-08 1.313609e-08 2.753239e-08
2.934199e-08 -7.659848e-09 3.835785e-09 8.777691e-09 -3.305055e-10 -9.251563e-09
2.058902e-08 -3.139341e-09 -1.090633e-09 1.390889e-08 -5.793434e-10 -9.570107e-09
-7.554720e-09 -2.386841e-09 2.689163e-09 -2.584657e-09 6.827816e-11 -7.707788e-10
2.369954e-08 -7.125009e-09 -8.431371e-10 7.819516e-09 3.337777e-10 -4.077364e-09
2.022593e-08 -7.686843e-09 -1.454397e-10 6.745508e-09 -2.359607e-10 -2.958739e-09
1.684732e-08 -7.633580e-09 3.403424e-10 8.062705e-09 -4.918263e-10 -4.116243e-09
-4.851864e-09 7.107050e-09 1.008919e-09 8.442236e-09 -4.184558e-10 -1.404887e-09
2.093210e-08 -7.588167e-09 1.303274e-09 8.498272e-09 -7.239155e-10 -6.486311e-09
-1.041049e-08 5.487290e-09 5.268839e-10 -3.296974e-09 -1.254162e-09 2.517718e-10
-6.483534e-09 6.126101e-09 9.450847e-10 7.174320e-09 -1.102416e-10 -9.911335e-10
2.340921e-08 -1.021405e-08 2.321859e-09 3.490282e-09 8.073270e-13 -4.446118e-09
3.029032e-08 -5.105590e-09 6.472146e-10 1.757166e-08 -2.574590e-09 -1.954032e-08
-2.446530e-08 1.978001e-08 -1.111130e-08 -9.790466e-09 8.962522e-09 7.894232e-09
-1.030129e-08 5.684530e-08 -1.943158e-08 -1.846532e-08 4.742778e-09 2.724127e-08
1.430020e-08 -4.429963e-09 -2.622607e-09 -8.803727e-09 -3.613290e-10 3.886044e-10
1.568956e-08 -6.504155e-09 -2.042823e-09 -6.950564e-09 -2.744126e-10 -5.538153e-10
-6.378788e-09 3.448325e-08 1.907283e-08 -3.939380e-08 2.161133e-08 -9.658473e-09
-7.219299e-09 -1.186752e-09 2.587780e-09 -2.227222e-09 9.109496e-10 -1.120205e-09
-1.330045e-08 4.134372e-08 -1.863001e-08 -3.087580e-08 8.766645e-09 2.180014e-08
-1.360252e-08 4.116133e-08 3.902853e-09 -3.063231e-08 1.609738e-08 9.312991e-09
1.633892e-08 -6.281055e-09 -2.180101e-09 -7.416882e-09 -4.527020e-10 -7.350344e-10
-5.900477e-09 4.407692e-08 -2.520389e-09 -3.535456e-08 1.841328e-08 3.138491e-09
-7.305502e-09 2.602247e-09 1.379330e-09 1.534921e-09 1.820966e-10 -2.277857e-10
-6.839699e-09 1.675120e-09 1.227947e-09 3.771507e-10 9.648154e-10 -9.622107e-10
-4.537201e-08 7.332192e-08 -1.519774e-08 9.519329e-12 7.512812e-09 2.706032e-08
3.217202e-08 -7.706517e-09 5.047853e-08 -3.646510e-08 4.413075e-08 -6.365483e-08
9.734686e-09 7.807869e-09 2.715063e-08 -2.724697e-08 9.485912e-09 -1.651031e-08
-9.421648e-09 -3.015218e-09 3.764313e-08 -2.412736e-08 1.848873e-08 -2.034820e-08
2.025920e-08 -8.652024e-09 -1.802573e-09 -1.911897e-09 4.576833e-11 -7.711200e-10
-5.416915e-09 2.528001e-09 9.003367e-10 1.970383e-09 -9.055201e-11 -1.454967e-10
-6.857589e-09 4.384983e-08 1.902059e-08 -3.481914e-08 2.170815e-08 -9.231145e-09
-1.255214e-09 2.939381e-08 -7.130498e-09 -3.578225e-08 3.146433e-09 1.050196e-08
-1.572875e-08 4.666600e-08 -1.739881e-08 -3.401520e-08 1.794480e-08 1.478950e-08
-1.982710e-08 3.965131e-09 -1.548023e-08 3.655473e-08 2.205907e-08 -1.990264e-08
-1.900071e-08 6.752308e-09 -1.436009e-08 3.426162e-08 1.746164e-08 -1.425399e-08
1.110028e-08 -4.944358e-09 -1.556317e-09 -8.775073e-09 -1.924456e-10 -1.689715e-10
-1.485607e-08 -4.377119e-10 -1.649478e-08 3.506210e-08 2.174635e-08 -1.339965e-08
-7.260048e-09 1.216968e-08 -5.022246e-08 4.935615e-08 4.135885e-08 -3.071303e-08
-7.369683e-10 -1.533738e-08 -2.484543e-08 4.731045e-08 4.431457e-08 -2.460365e-08
1.092478e-09 -7.958249e-09 -2.725578e-08 4.361775e-08 3.953030e-08 -2.189040e-08
-2.556064e-09 -1.727965e-08 -3.614783e-08 6.423189e-08 6.036512e-08 -3.152183e-08
-9.565165e-09 -9.429798e-09 -6.212101e-09 3.155851e-08 1.492981e-08 -9.334289e-09
-1.700111e-09 -3.825996e-08 -3.053685e-09 6.355342e-08 4.685351e-08 -2.654423e-08
1.105008e-08 2.621250e-10 -2.057702e-09 -1.477239e-08 -5.570624e-10 2.260255e-10
-1.086252e-08 -3.936471e-10 -3.171507e-08 -2.840147e-08 -4.994368e-08 -2.340623e-08
-8.385608e-09 -1.198543e-08 5.839075e-10 -2.503514e-08 -1.770054e-08 -7.770947e-09
-6.987580e-09 -1.896480e-08 -3.325264e-09 -3.621836e-08 -3.237534e-08 -1.576830e-08
2.356857e-08 -8.621082e-09 -2.103424e-10 -1.581368e-09 -2.246413e-10 -3.246513e-09
-2.212119e-08 3.038405e-08 -4.905271e-08 -4.244466e-08 -5.309564e-08 -4.128818e-08
-1.725615e-08 8.972127e-09 -2.551304e-08 -4.103077e-08 -4.134121e-08 -2.986950e-08
-8.475981e-09 1.579766e-08 -1.893322e-08 -2.124694e-08 -1.775031e-08 -1.115326e-08
-1.424111e-08 -1.861764e-08 -8.331698e-09 -3.668116e-08 -2.931091e-08 -1.607802e-08
1.416436e-08 -6.083255e-09 -2.175990e-09 -6.027119e-09 -3.610400e-10 4.622931e-10
-2.872766e-08 -6.647934e-10 -2.100320e-08 -5.042718e-08 -5.049168e-08 -3.408802e-08
-1.944275e-08 1.605925e-08 -1.313912e-08 -3.326068e-08 -2.621396e-08 -2.427658e-08
9.372723e-09 3.733433e-09 -3.649781e-08 -1.625296e-08 -3.553428e-08 -9.095640e-09
1.141728e-09 -6.530730e-09 -2.502027e-08 -2.848145e-08 -3.123054e-08 -1.314314e-08
-4.762070e-09 -1.380999e-08 -3.796552e-09 -5.164462e-08 -5.058558e-08 -2.739694e-08
-3.063434e-08 1.983913e-08 -2.706293e-08 7.741987e-08 8.259224e-08 -7.783966e-08
5.416915e-09 -1.937729e-09 -9.956367e-10 -5.360583e-09 -6.643732e-10 1.949374e-10
1.367044e-08 -4.941692e-09 -9.217509e-10 -9.242575e-09 -2.891380e-10 -7.173934e-10
-5.227266e-08 7.467258e-08 -3.071568e-08 1.167665e-08 1.886151e-08 -5.944204e-08
-5.559257e-08 7.429971e-08 -4.360603e-08 9.421461e-09 1.576190e-08 -5.501894e-08
-4.392427e-08 7.470173e-08 -1.551092e-08 1.650789e-08 6.938548e-09 -4.066313e-08
-2.619179e-08 5.567762e-08 -9.910054e-10 -7.393020e-10 -5.350741e-10 -1.680549e-08
-1.539199e-08 1.384862e-09 -9.046073e-09 4.875488e-08 3.479996e-08 -2.640753e-08
-1.800334e-08 5.243928e-08 -4.437403e-08 7.909537e-09 2.840272e-08 -2.785448e-08
-2.799676e-08 2.462813e-08 -2.436942e-08 2.459253e-08 2.436247e-08 -2.481585e-08
-4.323256e-08 4.158905e-08 -1.585399e-08 1.662995e-08 7.572153e-09 -2.933510e-08
-3.463105e-08 9.645356e-09 -5.450726e-08 8.367713e-08 6.591001e-08 -6.247487e-08
-6.362512e-09 2.772088e-08 -3.969124e-08 -1.935847e-08 -3.039396e-08 -1.828075e-08
-1.520077e-08 -3.813029e-08 -3.903613e-09 7.681734e-08 5.919521e-08 -5.564675e-08
-8.133842e-08 7.725692e-08 -4.354188e-08 7.524594e-08 5.764986e-08 -7.304771e-08
1.525034e-09 7.088783e-08 -1.310236e-07 -2.512621e-08 -8.860796e-08 -5.896146e-08
-1.787875e-08 2.980144e-08 -3.416680e-08 2.541488e-08 -3.655946e-08 3.977901e-08
2.031906e-08 -6.205022e-08 4.711861e-09 -1.948703e-08 2.250272e-08 2.785700e-09
2.331043e-08 -4.564396e-08 -1.123997e-08 -1.624020e-08 1.782342e-08 2.834932e-09
2.271322e-08 -6.275266e-08 -9.924195e-09 -1.942091e-08 2.851514e-08 5.803526e-09
-1.493163e-08 1.375313e-08 -1.784137e-09 -5.922600e-09 1.011083e-09 1.157133e-09
1.279310e-08 -4.337265e-08 6.839849e-09 8.963600e-09 2.591018e-09 3.485688e-11
-7.968167e-09 1.349910e-09 2.140387e-09 -1.224840e-10 -1.747412e-10 -6.286752e-10
2.787535e-08 -5.914825e-08 5.564723e-09 -6.345726e-09 1.583533e-08 2.458303e-09
2.273983e-08 -5.681349e-08 -1.051578e-08 -7.502751e-09 1.789326e-08 6.497482e-10
-9.968947e-09 1.776933e-08 5.098365e-09 1.726896e-08 -4.913707e-10 -5.025964e-09
2.789201e-08 -5.759000e-08 -5.049140e-09 -6.477758e-09 1.910297e-08 1.373220e-09
2.318183e-08 -4.193670e-08 -1.588330e-08 -1.629781e-08 1.708462e-08 2.058773e-09
2.801095e-08 -7.392130e-08 1.601037e-09 -5.931755e-09 3.032548e-08 9.930577e-10
-8.144839e-09 -2.907145e-08 -8.284743e-09 -5.945353e-08 -4.134847e-08 -2.349259e-08
5.166414e-09 -3.297970e-08 -2.230818e-09 2.225257e-08 8.900785e-09 -3.020772e-09
2.032475e-08 -6.227701e-08 -1.102953e-08 -1.949838e-08 2.871661e-08 4.079886e-09
2.297523e-08 -5.451566e-08 -1.969051e-08 -1.799032e-08 2.732437e-08 3.745898e-09
4.746709e-08 -4.247754e-08 -7.044037e-08 -1.732861e-09 6.835408e-08 1.679289e-09
9.344236e-09 -4.412750e-08 5.881958e-09 -2.415930e-08 1.009853e-08 3.718079e-09
4.582380e-08 -3.496875e-08 -5.170025e-08 -4.325368e-09 5.128627e-08 4.978297e-09
2.990311e-08 -6.843559e-08 -2.299827e-08 -3.223089e-09 3.317119e-08 6.654712e-10
3.463546e-08 -4.933494e-08 -2.315120e-08 3.418875e-09 2.794422e-08 -2.271187e-09
3.700759e-08 -8.071295e-08 -2.049846e-08 2.937969e-08 4.957313e-08 -1.222029e-08
1.949243e-08 -4.071676e-08 -1.136207e-08 1.498152e-08 1.185909e-08 -2.239168e-09
2.778084e-08 -4.294138e-08 -3.297501e-08 1.639680e-08 3.441577e-08 3.181938e-11
3.622494e-08 -3.484253e-08 -4.433331e-08 2.916764e-08 4.548515e-08 -1.192104e-08
1.653827e-08 -5.311974e-08 2.626178e-09 1.394731e-08 9.701556e-09 -1.554265e-09
-4.341655e-08 3.422209e-08 7.655902e-08 2.031106e-08 -3.747937e-08 1.266962e-09
8.262274e-09 -3.888418e-08 3.266801e-09 1.811783e-08 6.203959e-09 -1.424906e-09
1.087291e-08 -4.338879e-08 6.694843e-09 1.471167e-08 4.174846e-09 -5.379698e-10
1.772799e-08 -5.523905e-08 6.119311e-09 1.597214e-08 1.114106e-08 -2.352887e-09
8.361200e-09 -4.021002e-08 4.632856e-09 1.781719e-08 6.633487e-09 -2.824377e-09
6.530043e-09 -3.485011e-08 3.723450e-09 1.431948e-08 3.287417e-09 -9.874779e-10
2.638493e-10 -2.292599e-08 5.742763e-09 1.913359e-08 4.148888e-09 -1.405160e-09
-2.172931e-08 2.125286e-08 -1.256711e-08 -1.056002e-09 -1.277065e-08 2.152424e-08
8.290186e-09 -4.006180e-08 4.604881e-09 1.771390e-08 6.104586e-09 -1.932430e-09
2.180271e-09 -3.226961e-08 7.725172e-09 1.619780e-08 4.187600e-09 6.367463e-10
4.645494e-09 -2.988618e-08 2.045505e-09 1.944398e-08 4.693969e-09 -1.497562e-09
5.919957e-09 -2.648262e-08 -5.015178e-09 2.474999e-08 1.090870e-08 -1.989455e-09
1.500278e-08 -7.386124e-09 -1.044276e-09 3.599723e-09 1.446598e-10 -1.222013e-09
8.181512e-09 -4.063617e-09 -1.343790e-09 -3.962123e-09 -2.314890e-10 1.432244e-10
-3.170893e-09 -2.916889e-08 5.250471e-09 2.291858e-08 9.148189e-09 -2.497881e-09
9.055159e-09 -4.666105e-08 4.100388e-09 2.401237e-08 1.255355e-08 -4.094409e-09
-1.227254e-08 9.706562e-09 -3.449917e-08 2.989908e-08 2.720077e-08 -1.421129e-08
1.054460e-08 -4.177643e-08 -9.264403e-09 2.423901e-08 1.641283e-08 -5.170229e-09
5.387618e-09 -3.339068e-08 -3.815844e-09 2.233352e-08 9.722040e-09 -3.067213e-09
2.118500e-08 -8.162813e-09 -3.238810e-09 -2.319677e-09 1.787938e-10 -7.406005e-10
1.007582e-08 -3.284623e-08 -1.846462e-09 2.087275e-08 8.031369e-09 -1.060217e-09
8.006225e-09 -3.531618e-08 1.854775e-09 1.566448e-08 3.782370e-09 9.370997e-10
6.192135e-09 -2.766097e-09 -1.014496e-09 -5.028536e-09 -5.863352e-10 1.608458e-10
5.886007e-09 -3.564287e-08 4.788937e-09 1.650050e-08 4.360693e-09 -2.673590e-10
2.720810e-08 1.269923e-07 1.567084e-07 1.093364e-07 -1.607226e-07 -1.711814e-07
6.472864e-09 -8.384409e-10 4.156386e-10 9.572044e-09 2.709770e-10 -1.250892e-09
-2.718740e-08 2.582185e-07 -5.965801e-08 -1.992873e-07 -3.454385e-07 2.391589e-07
1.220654e-08 -2.360447e-09 -1.462781e-10 1.110432e-08 -3.537721e-10 -2.591589e-09
1.885890e-08 -2.685482e-09 -2.121244e-09 -1.256196e-08 -1.056042e-09 -1.926060e-09
1.078406e-08 -2.080475e-08 1.116100e-07 1.364678e-08 -1.448757e-08 -6.993614e-08
1.009178e-08 -2.493380e-09 1.225260e-09 1.142899e-08 -2.541395e-10 -1.342414e-09
2.824454e-08 8.472315e-08 -1.292628e-07 1.649796e-09 -7.613351e-08 1.837504e-08
6.912814e-08 -2.188957e-07 -6.286949e-09 3.268547e-08 -1.227101e-07 2.154713e-08
4.666288e-09 1.540987e-08 -4.343363e-09 -2.464013e-08 3.395668e-09 4.512178e-10
6.281538e-09 8.770588e-08 -4.130083e-08 9.749241e-08 1.155884e-07 4.700369e-08
4.195290e-08 1.048048e-08 1.465170e-08 6.861728e-08 5.708792e-08 4.720658e-08
1.350309e-08 3.545876e-08 1.328373e-08 4.321302e-08 8.717086e-09 1.580154e-08
1.633961e-08 1.351165e-07 -3.832241e-08 9.719616e-08 9.026996e-08 3.962770e-08
1.575975e-08 -7.193707e-09 5.238689e-08 -2.250358e-08 1.636217e-08 -3.973339e-08
8.051426e-10 3.749719e-09 -1.550760e-09 -1.130330e-08 -1.214995e-09 9.345017e-10
-5.420692e-10 2.678695e-07 2.845349e-08 1.356146e-07 2.001550e-07 7.515711e-08
-4.384792e-09 4.313876e-09 -1.687117e-10 -6.679357e-09 -4.648741e-10 1.063268e-10
1.200220e-08 -5.850966e-09 -1.330463e-09 -6.272531e-09 -1.487465e-10 -4.952379e-10
-6.907723e-09 8.191296e-08 -3.947166e-08 1.398957e-07 7.951132e-08 5.162562e-08
1.433326e-08 3.167068e-08 1.858017e-08 4.355690e-08 1.404323e-08 1.199946e-08
-3.050961e-08 7.148444e-08 -1.461508e-08 4.079242e-08 1.520675e-08 -9.761553e-09
2.992253e-08 -1.127041e-08 5.273391e-08 -1.070441e-08 1.277270e-08 -6.319740e-08
9.107736e-09 2.480714e-08 6.916473e-08 5.161658e-08 -4.241821e-08 -7.328485e-08
4.668146e-08 -1.195220e-08 2.266799e-08 4.870337e-09 -2.563161e-10 -4.200626e-08
-3.564075e-08 -4.935284e-09 -1.858326e-09 3.449743e-08 -2.641535e-08 2.525098e-08
6.601962e-08 -1.749219e-07 -1.834086e-08 -3.830283e-08 1.143697e-07 9.756610e-09
-4.610440e-08 7.759788e-08 8.143888e-08 3.130209e-08 -6.208322e-08 -1.534449e-08
-9.439042e-09 2.166319e-09 5.839694e-08 3.010833e-08 -2.313593e-08 -2.825463e-08
6.978571e-08 -6.088046e-09 2.809424e-08 4.434739e-08 -2.289248e-08 -7.034406e-08
1.161744e-08 -6.441156e-09 -1.573571e-09 -3.875538e-09 -1.802844e-10 1.239131e-11
1.215687e-08 -4.563192e-09 -1.259525e-09 -9.815372e-09 -5.304184e-10 -2.270604e-10
1.498988e-08 -6.403767e-09 -1.973397e-09 -4.342643e-09 -2.158613e-10 -2.746486e-11
-1.844374e-09 2.707481e-09 -1.052878e-10 6.377434e-09 1.454214e-09 -7.858214e-10
1.353189e-08 -6.994390e-09 -1.796379e-09 -2.207340e-09 2.512868e-11 -6.173073e-11
1.166246e-08 -6.119972e-09 -1.594770e-09 -2.394731e-09 -1.603787e-10 1.956735e-10
1.288235e-08 -6.349706e-09 -1.599040e-09 -1.062755e-09 -8.955667e-11 1.813627e-10
-6.411271e-09 -1.198543e-08 -9.531996e-10 -2.389132e-08 -1.676954e-08 -7.911704e-09
1.265820e-08 -6.248830e-09 -1.508867e-09 -2.676440e-09 -2.206726e-10 6.182979e-10
2.218552e-07 -3.492004e-07 -2.940334e-07 -1.657225e-07 5.551657e-07 2.587843e-08
-6.122776e-09 2.990135e-09 1.064843e-09 9.833742e-10 1.448321e-10 -7.090523e-11
1.224100e-08 -6.116094e-09 -1.439509e-09 -2.033795e-09 -3.615597e-11 -3.395906e-11
1.643891e-08 -8.348740e-09 -1.114361e-09 3.237535e-10 1.369266e-10 -5.742851e-10
1.321304e-08 -6.889044e-09 -1.551901e-09 -6.864319e-10 9.786999e-11 4.910845e-10
1.314200e-08 -6.161518e-09 -1.607240e-09 -2.728190e-09 -1.886588e-10 3.066115e-10
1.206892e-08 -6.166823e-09 -1.635754e-09 -2.594885e-09 -1.337196e-10 -1.133036e-10
1.284667e-08 -6.760546e-09 -1.657769e-09 -2.632638e-10 -9.814397e-14 -9.064083e-12
1.208489e-08 -6.761385e-09 -1.587920e-09 -2.466372e-10 3.983905e-11 4.323086e-10
1.655084e-08 -7.422732e-09 -9.557732e-10 3.625314e-09 3.434349e-10 -8.657288e-12
1.658008e-08 -7.893980e-09 -1.788869e-09 -7.397190e-10 -1.113653e-11 1.074016e-09
1.747018e-08 -7.811344e-09 -1.079871e-09 -1.078225e-10 -7.527179e-11 4.421856e-10
1.373425e-08 -7.074405e-09 -1.759287e-09 9.610924e-10 3.460736e-10 3.118934e-10
1.225787e-08 -6.292721e-09 -1.293070e-09 3.457678e-09 1.499939e-10 -4.841867e-10
-6.784460e-09 2.477176e-09 1.501690e-09 1.083292e-09 1.706515e-10 -3.193377e-10
1.579894e-08 -7.811441e-09 -1.314878e-09 -4.078201e-11 2.700651e-11 -9.200178e-10
1.384331e-08 -6.900940e-09 -1.434177e-09 1.008990e-09 6.216568e-11 -4.687239e-10
-6.633351e-09 2.023857e-09 1.613395e-09 1.414107e-09 2.364833e-10 -1.114553e-10
1.118280e-08 -5.773990e-09 -1.483622e-09 1.955109e-09 2.885040e-10 3.326197e-10
1.121981e-08 -6.269743e-09 -1.428282e-09 1.972729e-09 2.043037e-10 3.088145e-10
1.239231e-08 -6.245372e-09 -1.704652e-09 2.161976e-09 1.908912e-10 -8.566403e-11
-5.902393e-09 2.575599e-09 1.095785e-09 2.281451e-09 3.525504e-10 -1.899947e-10
1.492223e-08 -6.893837e-09 -1.457283e-09 -6.048548e-10 8.670220e-11 6.985713e-11
1.097373e-08 -5.773303e-09 -1.428439e-09 2.087737e-09 2.424833e-10 2.886159e-10
1.324246e-08 -6.539289e-09 -1.958206e-09 1.584991e-09 2.654073e-10 5.762005e-10
-6.220097e-09 3.019799e-09 9.232726e-10 1.032912e-09 5.845791e-11 -6.255063e-11
5.989575e-08 -4.968409e-09 -1.087007e-07 2.261596e-08 9.733699e-08 -1.685064e-08
-6.246385e-09 2.990107e-09 1.062753e-09 9.427182e-10 1.773677e-10 -2.146061e-10
3.985483e-08 -1.365804e-08 -7.577226e-08 4.322318e-08 7.041901e-08 -2.317690e-08
5.813631e-08 -1.431644e-07 -6.549321e-08 9.950264e-09 1.365922e-07 -7.718358e-09
-2.634921e-09 2.452910e-09 -3.144760e-10 -5.623416e-09 -4.056103e-10 -8.621437e-12
4.351472e-08 -2.934462e-08 -8.528933e-08 4.018797e-08 1.216249e-07 -3.303289e-08
2.369664e-09 -7.971129e-11 -6.155624e-10 -5.161773e-09 -6.483457e-10 5.962536e-11
1.329629e-08 -2.387843e-09 1.669753e-09 1.241401e-08 9.442790e-11 -2.771883e-09
1.909673e-08 -3.196836e-09 3.883840e-10 1.324518e-08 -8.613620e-10 -4.104337e-09
2.481985e-08 -9.318109e-09 3.274039e-10 1.503155e-09 3.882588e-10 -4.859081e-09
1.582609e-08 -2.341341e-09 3.792264e-10 1.314438e-08 -5.323207e-10 -5.302455e-09
8.794245e-10 1.747142e-09 -1.947035e-09 -1.039820e-08 -2.284991e-09 1.709310e-09
1.586414e-08 -6.101843e-09 5.218317e-10 7.869323e-09 1.714511e-10 -3.873597e-09
1.672788e-08 -6.567515e-09 3.831597e-10 8.122248e-09 2.588960e-10 -1.428151e-09
1.693652e-08 -3.418671e-09 -1.256933e-09 1.016196e-08 -1.760328e-10 -4.065075e-09
1.643851e-08 -6.773869e-09 -1.199736e-09 5.995483e-09 3.641559e-10 -8.453851e-10
2.954893e-08 -1.066365e-08 5.694834e-09 -4.317795e-09 4.576595e-10 -7.982826e-09
-1.714903e-09 2.172332e-09 -3.160423e-10 -4.875786e-09 -3.309644e-10 -6.016887e-11
1.578061e-08 -3.219279e-09 9.219698e-10 1.290787e-08 -8.749763e-10 -5.283717e-09
7.185870e-09 1.680928e-09 1.425388e-09 1.424875e-08 -8.357346e-10 -4.157612e-09
1.863546e-08 -6.793067e-09 4.632503e-09 1.197693e-08 -1.623375e-09 -6.819091e-09
1.897053e-08 -3.167072e-09 -2.071135e-09 1.329538e-08 -1.124628e-09 -5.553175e-09
-3.543162e-09 3.572190e-09 1.309792e-10 -2.885967e-09 -3.086420e-10 -1.668929e-10
2.053295e-08 -4.766864e-09 3.373950e-09 1.328605e-08 -1.956761e-09 -8.871796e-09
1.720140e-08 -7.572732e-09 1.518312e-09 8.209970e-09 2.569402e-10 -2.167036e-09
3.692175e-08 -5.652588e-08 -1.732648e-08 6.026692e-09 3.467297e-08 -3.782559e-09
2.847311e-08 -6.980693e-08 -1.608247e-08 1.718210e-08 3.528420e-08 -5.378566e-09
-3.622560e-09 3.867404e-09 9.457812e-11 -4.147187e-09 -4.301762e-10 -2.098677e-11
3.875854e-08 -7.150928e-08 -3.825953e-08 4.689793e-09 5.300198e-08 4.446148e-09
4.660791e-08 -2.735160e-08 4.233671e-08 -3.429063e-08 -1.884502e-08 5.004182e-08
5.045309e-09 -3.214397e-08 5.356076e-09 2.165344e-08 6.964248e-09 -8.242270e-10
2.754054e-08 -4.066236e-08 -2.890487e-08 1.523311e-08 2.789319e-08 -4.319229e-09
2.271691e-08 -5.115791e-08 -7.247209e-09 2.106815e-08 2.302052e-08 -7.460059e-09
3.011571e-08 -5.279712e-08 -7.470880e-09 -1.533295e-09 2.246666e-08 1.133889e-09
2.396943e-08 -5.169644e-08 -1.206065e-08 1.042195e-08 1.663796e-08 -3.007226e-09
2.727930e-08 -5.761265e-08 -1.046298e-08 1.153329e-08 2.071868e-08 1.664609e-10
2.398350e-08 -6.030273e-08 5.357950e-09 -8.465689e-09 1.472027e-08 4.403424e-10
2.224007e-08 -6.772545e-08 4.998209e-09 1.553803e-08 2.120303e-08 -2.855173e-09
2.976816e-08 -6.016632e-08 -7.952364e-09 7.995966e-09 3.296189e-08 -1.802643e-09
2.649298e-08 -6.036493e-08 -4.944109e-09 6.103726e-09 2.096294e-08 -7.456875e-10
1.443578e-08 -4.317446e-08 4.838899e-09 -3.721516e-09 2.843428e-09 -1.248912e-10
2.354729e-08 -6.491168e-08 2.541316e-09 3.009121e-09 1.719898e-08 6.184163e-10
1.609857e-08 -4.174515e-08 -1.766145e-09 1.286984e-08 6.106093e-09 2.337525e-10
-1.638825e-08 2.104626e-08 2.847531e-09 1.151912e-09 1.079404e-09 -2.149920e-09
1.352422e-08 -3.832318e-08 -1.083951e-08 2.273509e-08 1.570454e-08 -4.319130e-09
3.375375e-08 -7.253360e-08 1.699638e-09 -3.054889e-09 2.932754e-08 -7.056688e-10
2.623338e-08 -7.492318e-08 3.786211e-09 1.819088e-08 2.421725e-08 -3.466201e-09
7.890411e-09 -3.597626e-08 6.403768e-09 1.095903e-08 1.846612e-09 -3.513687e-10
-3.301405e-09 3.687155e-09 3.887912e-11 -4.232687e-09 -2.980457e-10 -2.159523e-11
2.688561e-09 -3.094470e-08 6.911006e-09 1.117700e-08 1.109655e-09 -2.250233e-10
-3.207198e-09 2.746782e-09 -1.057736e-10 -4.296597e-09 -3.362074e-10 -1.254324e-10
-5.967009e-09 3.984024e-09 8.038925e-11 -4.163846e-09 -4.738360e-10 -5.181028e-10
-4.751411e-09 3.989065e-09 1.390881e-10 -4.660528e-09 -7.109647e-10 -1.620627e-10
-1.898842e-09 2.760325e-09 -3.271881e-10 -5.149851e-09 -5.940093e-10 5.040847e-11
3.617907e-09 -3.154593e-08 5.685039e-09 1.181368e-08 2.310819e-09 -3.019117e-10
-4.443147e-09 3.611253e-09 1.310867e-10 -5.722670e-09 -6.161084e-10 -1.236363e-10
3.138845e-11 -2.935300e-08 3.762591e-09 1.859688e-08 6.116664e-09 -3.221012e-10
-2.068347e-09 3.171891e-09 3.184164e-11 -5.179533e-09 -2.036959e-10 3.019451e-11
-1.582860e-09 2.585724e-09 -1.883640e-10 -5.496865e-09 -5.423040e-10 -2.776910e-10
-5.967707e-09 3.977173e-09 4.801548e-10 -4.050884e-09 -4.143830e-10 -1.926690e-10
1.238135e-09 -2.647342e-08 5.835886e-09 1.267114e-08 9.837627e-10 -4.522125e-10
-1.905678e-09 2.731659e-09 1.141045e-10 -5.164325e-09 -4.089796e-10 1.715227e-10
-4.771080e-09 3.964095e-09 2.662637e-10 -4.773194e-09 -9.461522e-10 -2.844633e-10
-2.110331e-09 2.717751e-09 3.922773e-11 -5.107075e-09 -3.739948e-10 7.326139e-12
9.875084e-08 -2.739996e-08 4.584017e-08 -4.102823e-08 -2.771917e-08 8.366616e-08
-3.959381e-09 3.907576e-09 -9.294721e-11 -4.244412e-09 -6.385902e-10 4.021128e-11
-5.967303e-09 3.920702e-09 4.867364e-10 -4.208017e-09 -4.399847e-10 -3.806810e-10
4.572643e-08 -4.553030e-09 -9.591429e-08 1.318164e-08 9.158714e-08 -9.794233e-09
1.185941e-07 -2.311467e-08 -2.812656e-07 2.943653e-08 2.924915e-07 -7.839557e-08
-1.844674e-07 4.358669e-07 -5.238195e-08 2.649933e-10 1.250308e-07 2.887974e-09
5.001357e-09 -4.973566e-08 2.074425e-07 4.500742e-08 4.568865e-08 1.541351e-07
-4.883639e-07 7.834261e-07 2.398905e-07 1.995051e-07 4.799709e-07 3.502994e-08
4.096778e-07 -1.986615e-09 6.067648e-07 1.845491e-07 1.028356e-07 8.504669e-07
1.418515e-08 -6.449671e-09 -1.730366e-09 1.533190e-09 1.999622e-10 1.585126e-10
-1.324161e-08 4.254755e-08 -4.762195e-08 2.461455e-08 3.524990e-08 -2.794870e-08
1.150548e-08 -6.139661e-09 -1.451136e-09 -2.491725e-09 -1.959966e-11 2.817158e-10
1.444647e-08 -6.759108e-09 -1.881886e-09 -3.505923e-10 -5.488317e-11 3.922238e-10
1.221591e-08 -6.827610e-09 -1.595532e-09 -4.638199e-10 -8.884120e-12 1.182273e-10
7.066872e-08 -4.192972e-08 6.409951e-08 -1.769593e-08 -6.256857e-09 7.315037e-08
2.056575e-08 -8.617407e-09 -9.658085e-10 -2.109346e-09 1.954764e-11 -1.251194e-09
1.195058e-08 -6.753961e-09 -1.595013e-09 -2.696671e-10 -3.013610e-11 2.790185e-10
1.092418e-08 -6.367223e-09 -1.509211e-09 1.340862e-10 8.280028e-11 4.420304e-10
-4.488005e-08 1.191831e-07 -1.247300e-07 -4.550555e-08 -1.522958e-08 -1.418692e-08
1.080486e-08 -6.295169e-09 -1.406903e-09 6.734885e-10 1.434641e-10 4.763453e-10
1.128746e-08 -6.421463e-09 -1.414480e-09 1.640195e-09 2.068287e-10 -1.720103e-10
-8.252798e-09 5.230843e-09 -2.883294e-11 -5.063879e-09 -1.065022e-09 2.369950e-10
2.306974e-08 4.138257e-09 -6.760749e-10 -1.922680e-08 1.880424e-09 -6.226559e-09
-6.417964e-09 4.259223e-09 3.996310e-10 -4.786584e-09 -5.556365e-10 -7.051428e-10
-3.889885e-09 3.685963e-09 -2.205702e-10 -5.982769e-09 -6.558134e-10 -3.294776e-10
-2.817387e-09 3.569192e-09 -1.023519e-10 -7.266763e-09 -1.153201e-09 -2.610614e-10
-2.869081e-09 3.646141e-09 -1.196092e-10 -7.260798e-09 -8.917433e-10 -2.345429e-11
2.724235e-08 3.835278e-08 -1.234767e-07 -3.192164e-08 9.694747e-08 4.100257e-08
-4.345640e-09 3.655042e-09 1.135114e-10 -5.656840e-09 -4.217375e-10 1.327209e-10
-2.631284e-09 2.457104e-09 -3.190046e-10 -5.605829e-09 -8.628884e-10 -5.643774e-11
-1.296669e-10 1.919398e-09 -6.485239e-10 -6.858830e-09 -4.493166e-10 -9.198831e-11
6.284773e-08 4.658226e-09 2.999720e-08 -3.967418e-08 3.052346e-08 -6.161079e-08
-9.671669e-09 1.688665e-08 6.664960e-09 1.648393e-08 -3.666778e-09 -4.929525e-09
-3.820336e-09 3.345027e-09 -2.132967e-10 -5.580868e-09 -2.974614e-10 -4.541230e-10
-6.131906e-09 3.863624e-09 3.765916e-10 -6.102719e-09 -1.020702e-09 -8.476607e-10
6.311785e-09 1.838311e-07 6.790456e-08 8.170774e-08 -8.212859e-08 -1.198547e-07
-6.074131e-09 4.242893e-09 4.595391e-10 -4.612876e-09 -6.782645e-10 -4.295426e-10
-2.166681e-08 2.684160e-08 7.921427e-09 1.246051e-08 -5.560887e-09 -2.711591e-09
-2.637157e-09 2.633022e-09 -5.950804e-10 -6.995767e-09 -1.039093e-09 2.858319e-10
-1.801991e-09 2.471903e-09 -2.235974e-10 -5.815716e-09 -7.104737e-10 -4.387384e-10
7.911191e-08 3.910826e-08 6.640922e-08 6.207785e-08 -5.341609e-08 -1.123270e-07
-1.079700e-08 7.070397e-08 -3.282653e-08 3.050419e-08 4.204367e-09 -8.975514e-09
1.159229e-07 -3.909824e-08 3.120033e-08 -2.241212e-08 -1.042717e-08 7.875489e-08
-4.512248e-10 2.463175e-09 -3.032856e-10 -7.316092e-09 -8.944865e-10 3.988008e-10
8.070980e-08 -3.339054e-08 1.011546e-07 2.515898e-09 -1.184951e-08 9.682419e-08
2.612134e-08 2.076959e-08 3.130121e-08 -4.535563e-08 -2.849920e-08 3.970104e-08
-2.323146e-07 4.543955e-08 2.705000e-07 1.999556e-07 2.274094e-07 2.715408e-07
1.735658e-08 -1.698144e-08 4.266013e-08 1.328216e-08 -2.714198e-09 -3.436731e-08
1.215878e-08 -1.766180e-09 2.678263e-08 2.171876e-08 -5.633163e-09 -2.146047e-08
2.921666e-09 6.172467e-09 -1.300809e-09 1.279541e-08 1.055530e-09 -2.827518e-09
-1.651935e-08 2.942380e-08 5.373532e-10 1.075816e-08 -3.964844e-09 -1.301452e-09
6.126475e-08 2.895335e-08 2.249567e-07 1.357362e-07 2.628287e-07 2.811308e-07
-1.740879e-07 -2.386952e-08 8.219473e-07 -5.887272e-08 -1.770742e-07 2.010815e-07
-2.569154e-09 6.760128e-09 6.197620e-09 1.715676e-08 -9.056694e-10 -6.541467e-09
1.349689e-07 4.618251e-08 3.541683e-08 -1.172302e-07 -1.355764e-07 1.820301e-07
1.579473e-08 2.920020e-08 1.171280e-07 9.712849e-08 1.228380e-07 1.425100e-07
1.716682e-07 8.466383e-08 1.606885e-07 1.148869e-07 1.315280e-07 2.308456e-07
-1.434487e-09 9.482708e-09 3.822381e-08 8.104499e-08 6.101734e-08 3.628745e-08
1.867151e-08 -3.991139e-08 -2.693361e-08 -3.815546e-08 -5.668213e-08 -1.310153e-08
2.442815e-08 -5.627665e-08 -3.113856e-08 -2.127723e-08 -5.515293e-08 -7.618196e-09
3.092832e-08 -5.615046e-08 -3.039280e-08 -1.928705e-08 -5.586896e-08 -9.824896e-09
3.107279e-08 -3.796910e-08 -2.983427e-08 -2.103104e-08 -5.995669e-08 -9.342088e-09
-1.842435e-09 4.636617e-09 3.061519e-09 1.295132e-08 -1.251792e-09 -3.769061e-09
3.283572e-08 -5.087659e-09 2.904435e-08 -2.707045e-08 1.821832e-08 -3.745738e-08
3.038229e-08 -1.724083e-08 2.169882e-08 -3.858018e-09 2.671680e-09 -2.299340e-08
2.245209e-08 -2.354818e-08 -6.136576e-08 -3.517426e-08 -6.010792e-08 -1.945607e-08
-5.869224e-09 2.690377e-09 9.985905e-10 2.218784e-09 1.613878e-10 -9.092044e-11
5.203921e-09 1.027719e-08 1.583246e-09 1.737898e-08 -1.912004e-09 -7.503524e-09
-1.135817e-08 1.126843e-08 1.160770e-09 1.021858e-09 -9.915215e-12 -8.964010e-10
-1.547100e-08 1.131182e-08 5.163576e-10 1.816012e-09 5.007780e-10 3.604360e-10
-6.480010e-09 1.456197e-08 2.602962e-10 1.163136e-08 -8.537335e-10 -7.048990e-10
1.030885e-08 -5.144716e-09 -9.406893e-10 5.106739e-09 9.194744e-12 -3.142167e-10
1.205323e-08 -5.157565e-09 -9.455534e-10 5.973417e-09 1.821825e-11 -1.220649e-09
9.622683e-09 -4.413354e-09 -1.119365e-09 5.079007e-09 1.754268e-10 2.094852e-11
6.162766e-09 -3.395529e-08 4.003471e-09 1.601291e-08 5.261860e-09 -1.558017e-09
-6.825239e-09 3.108285e-09 1.062753e-09 1.382525e-09 -5.786038e-12 -1.031839e-10
-5.691669e-09 2.726335e-09 9.602823e-10 1.709928e-09 1.048235e-10 -7.096479e-11
-6.401136e-09 2.798910e-09 1.187886e-09 1.121090e-09 -9.302470e-11 -4.286793e-11
-6.238558e-09 2.990159e-09 1.012634e-09 9.688259e-10 1.114904e-10 -2.145555e-10
-9.323260e-10 -2.893568e-08 2.047575e-09 1.801438e-08 4.758457e-09 -1.728011e-09
1.434452e-08 -4.335616e-08 3.073941e-09 1.456233e-08 7.472420e-09 -9.412554e-10
-1.374117e-09 2.342980e-09 4.403988e-11 6.147468e-09 4.764871e-10 -8.750378e-11
1.134536e-08 -4.093600e-08 -2.983342e-10 1.703449e-08 7.955841e-09 -3.228290e-09
-4.023227e-09 2.260814e-09 6.094294e-10 2.550780e-09 2.458195e-10 1.499528e-10
-1.743611e-09 -2.655380e-08 2.045029e-10 1.930011e-08 5.355773e-09 -1.879055e-09
1.309505e-08 -4.468505e-08 2.433201e-09 1.285597e-08 6.533991e-09 -2.290012e-09
-7.486497e-09 2.686521e-09 1.800394e-09 1.228089e-09 4.615393e-10 -4.149363e-10
-5.436407e-09 2.412897e-09 9.452208e-10 3.010607e-09 6.657005e-10 -4.715244e-10
-6.558144e-09 2.826278e-09 1.181240e-09 1.547551e-09 -7.351414e-11 -1.127818e-10
9.545984e-09 -3.914238e-08 5.632599e-09 1.041966e-08 3.326284e-09 -6.171794e-11
3.327204e-09 -3.247740e-08 5.920650e-09 1.245975e-08 2.897196e-09 -1.017164e-09
3.721892e-08 -6.477063e-08 -3.320121e-08 -6.910117e-09 -6.316322e-08 -8.259385e-10
4.986617e-09 -3.314017e-08 4.758779e-09 1.340986e-08 1.950473e-09 -4.185663e-10
7.506976e-10 -1.466734e-08 -7.690550e-09 -2.353165e-08 9.700681e-09 3.786910e-09
8.800700e-10 -2.458667e-08 -1.024413e-10 -2.234556e-08 8.063991e-09 2.842481e-09
-1.013938e-08 8.220342e-09 -1.027699e-08 -2.102023e-08 -1.263788e-08 -7.975023e-09
3.831179e-09 -2.249114e-08 -1.147454e-08 -3.437354e-08 1.840835e-08 1.120475e-08
1.127634e-10 -1.852178e-08 -1.651875e-08 -3.023854e-08 1.828369e-08 8.956999e-09
-9.224016e-09 7.168463e-08 -4.825024e-08 8.184983e-09 -1.587562e-08 -2.391604e-08
2.714616e-09 -1.551670e-08 -8.196018e-09 -2.310409e-08 9.036267e-09 3.945022e-09
-2.147100e-08 -3.091133e-08 -4.441326e-09 -4.926820e-08 -3.766536e-08 -2.190547e-08
1.846750e-08 -8.561206e-09 -2.230132e-09 -1.479743e-09 2.357469e-10 -1.067161e-09
5.334236e-09 -3.917168e-08 -3.360960e-09 -2.913788e-08 -2.631966e-08 -6.852712e-09
1.132430e-08 -3.540129e-08 -1.407161e-09 -2.480625e-08 1.333522e-08 6.112508e-09
1.158087e-08 -4.219908e-08 -7.080908e-09 -2.504395e-08 2.088700e-08 5.528432e-09
1.433923e-08 1.804268e-07 -2.677670e-07 -8.801245e-09 -4.763009e-08 1.359875e-08
-1.112298e-08 -5.147553e-09 -1.839253e-08 -2.546940e-08 -2.326420e-08 -1.110576e-08
-9.869541e-08 1.791192e-07 6.155439e-08 -5.322981e-08 1.200323e-07 -3.966065e-09
-1.778861e-08 5.174307e-08 8.189942e-08 -6.842844e-08 4.007350e-08 -8.071435e-08
-1.466810e-07 9.893030e-08 9.529328e-08 -2.178861e-08 1.096983e-07 -1.079205e-07
2.377977e-08 -6.828197e-09 -5.551040e-10 -1.061424e-08 1.038993e-09 -4.451355e-09
-3.204603e-09 3.458665e-09 -8.243406e-12 -2.948346e-09 -3.761431e-10 -2.516549e-10
-1.249620e-07 9.703664e-08 3.973402e-07 6.135497e-09 2.403536e-07 -2.188556e-08
-1.833380e-07 7.416446e-08 2.985683e-07 1.498556e-08 2.034371e-07 -1.475563e-08
-1.567646e-07 3.239939e-08 1.351282e-07 -4.999717e-08 7.215262e-08 -4.063211e-08
-3.021041e-07 4.748655e-07 5.258213e-08 -1.407019e-07 2.140599e-07 -2.159373e-07
3.411954e-09 -5.694904e-10 -9.576866e-10 -6.681169e-09 -7.902082e-10 -8.369805e-11
-4.846365e-09 3.740608e-09 2.430478e-10 -3.501294e-09 -2.974785e-10 -3.723619e-10
-3.784027e-09 3.811567e-09 1.765788e-11 -3.644793e-09 -1.582914e-10 -1.388479e-10
1.951132e-08 -6.962994e-09 -1.982374e-09 -9.851274e-09 3.922979e-10 -1.080434e-09
-3.685049e-09 3.366810e-09 8.105516e-12 -2.987989e-09 -1.509632e-10 -1.539133e-10
-2.944971e-07 2.462971e-07 2.374930e-07 -1.812905e-07 1.223791e-07 -2.895257e-07
-1.533362e-09 2.054745e-09 -2.720149e-10 -4.750176e-09 -1.802096e-10 5.479994e-11
-4.687760e-09 3.828029e-09 1.309792e-10 -3.438768e-09 -2.349358e-10 -1.032880e-10
-1.683419e-08 1.683871e-07 -1.725046e-08 -5.025805e-08 8.249620e-08 -5.944432e-08
5.624036e-10 -2.751426e-08 6.911006e-09 1.181385e-08 1.622582e-09 2.850862e-10
-1.889532e-07 2.243944e-07 4.953202e-07 -2.960114e-08 3.493305e-07 -7.318767e-08
-6.438351e-08 4.001553e-08 -1.144224e-08 6.637038e-08 4.509855e-08 -8.257883e-08
-6.159882e-09 9.164341e-09 -5.542242e-08 5.279738e-08 7.933158e-08 -6.757921e-08
-5.206257e-08 5.712900e-08 -8.002189e-08 8.178920e-08 8.269023e-08 -8.660451e-08
4.672980e-09 -3.297694e-08 6.642161e-09 1.258838e-08 6.517152e-10 -1.309643e-11
4.247181e-10 -2.751445e-08 7.489056e-09 1.256100e-08 1.316198e-09 -6.838832e-10
-1.071189e-07 1.152582e-07 -1.157409e-07 1.334118e-07 9.930173e-08 -1.398485e-07
-1.183847e-07 1.243329e-07 -4.817753e-08 1.136677e-07 1.241445e-07 -1.889825e-07
1.667790e-08 -4.832687e-08 7.234614e-09 -2.791704e-09 3.329752e-09 -3.394186e-10
2.370660e-09 9.343762e-08 -1.201624e-07 7.148019e-08 1.077891e-07 -9.045548e-08
-1.853452e-08 5.442068e-08 -5.671190e-08 -1.433364e-08 3.276549e-08 4.861368e-08
5.320837e-09 -2.926782e-08 3.696536e-09 1.466441e-08 2.623750e-09 9.141038e-11
-9.801788e-09 1.144442e-07 -1.110493e-07 -3.866299e-08 -3.296695e-08 7.202936e-08
7.510626e-08 -4.414859e-09 -1.710315e-07 -9.772598e-08 2.044442e-07 7.650366e-08
1.334330e-10 -3.009810e-08 5.717922e-09 1.593872e-08 4.883993e-09 -1.599147e-09
3.615918e-09 -3.219325e-08 7.395110e-09 1.170726e-08 1.936862e-09 -5.362152e-10
-9.594325e-09 1.186067e-07 -1.191216e-07 -4.492051e-08 8.417221e-08 7.813525e-08
6.271612e-08 -3.871950e-08 -1.827125e-07 -7.708507e-08 2.275992e-07 6.223090e-08
6.851659e-08 6.756306e-08 -1.814904e-07 -4.630793e-08 1.109005e-07 4.962735e-08
1.074039e-08 1.766760e-07 -3.232521e-07 -1.134496e-07 1.839549e-07 6.994730e-08
9.529970e-08 -7.770690e-08 -1.762934e-07 -1.013815e-07 2.508444e-07 1.009839e-07
-4.566475e-09 1.147814e-07 -1.494848e-07 -6.784388e-08 5.511357e-08 7.048159e-08
-5.907081e-09 -2.142202e-09 -2.849135e-08 -2.982146e-08 -3.180358e-08 -1.811067e-08
-7.269442e-08 9.584126e-08 -5.772383e-08 -1.943678e-08 2.303000e-08 7.015630e-08
-1.485359e-08 -1.733459e-08 -3.669922e-09 -3.678244e-08 -3.290176e-08 -1.762298e-08
-1.699375e-07 1.771023e-07 -2.042768e-08 -1.377901e-07 3.706711e-08 1.339456e-07
-3.952245e-08 3.443346e-08 -4.261314e-08 -3.127114e-08 3.004248e-08 4.675774e-08
-5.190686e-08 2.975126e-08 -3.426337e-08 -2.130803e-08 2.172164e-08 5.449360e-08
-7.101196e-08 -6.404609e-08 -3.380817e-08 -1.537644e-07 1.452823e-07 1.298166e-07
3.183003e-08 -6.324328e-08 -8.506964e-08 -2.264127e-07 2.041410e-07 1.058709e-07
-1.058134e-07 5.605613e-08 -1.023742e-07 -1.844526e-07 1.450427e-07 2.006388e-07
-7.427845e-08 1.637461e-07 -1.994225e-07 -7.978363e-08 1.611618e-07 1.327477e-07
-2.392614e-09 2.714570e-09 -1.369415e-10 -5.044976e-09 -4.104882e-10 -1.122687e-10
1.142805e-07 -3.541761e-07 -3.536595e-07 -1.311611e-07 5.327016e-07 1.075021e-07
-1.281023e-08 2.572217e-09 -2.919017e-08 -4.013146e-08 -4.619764e-08 -2.789398e-08
-3.651598e-08 1.372401e-07 -4.604159e-08 1.337546e-08 -7.084130e-08 2.500447e-08
7.552091e-10 -1.467124e-08 -4.885976e-10 -2.352918e-08 8.224902e-09 2.867831e-09
1.280124e-08 -7.341452e-09 2.198247e-08 -2.148581e-08 9.666919e-09 -1.364486e-08
-1.002352e-08 2.995570e-09 -7.964310e-09 -2.172278e-08 7.383959e-09 4.602091e-09
-2.411176e-09 1.048436e-08 -2.158151e-08 -2.173978e-08 -2.148331e-08 -9.905855e-09
-4.886398e-08 -2.950973e-08 -2.520182e-08 7.651074e-08 -6.667331e-08 5.752511e-08
-1.135057e-08 -5.963672e-09 -5.558287e-09 -2.678018e-08 1.179823e-08 7.516247e-09
-8.286352e-09 -1.328584e-08 -6.367684e-10 -2.421305e-08 7.919996e-09 4.439289e-09
2.378707e-09 8.710605e-09 -6.895958e-08 6.113180e-08 1.009813e-07 -5.932580e-08
-8.536175e-09 5.940455e-08 -1.098059e-07 6.315688e-08 8.074886e-08 -6.322048e-08
1.419155e-07 -4.991270e-07 -3.744054e-07 2.114141e-07 6.764016e-07 -1.968809e-07
-2.102451e-08 1.164707e-08 -6.257900e-08 8.445457e-08 8.618478e-08 -6.064279e-08
-3.109497e-08 1.976844e-08 -5.311089e-08 7.768042e-08 7.073453e-08 -6.545394e-08
-3.563740e-08 2.039130e-08 -1.470333e-08 5.393099e-08 3.688695e-08 -4.136157e-08
-2.627546e-08 2.641650e-08 -2.693318e-08 2.726400e-08 2.212252e-08 -2.467121e-08
1.907624e-08 -2.003387e-08 8.407141e-08 8.480764e-09 -5.721199e-09 -5.513129e-08
-2.488199e-08 2.915738e-08 -3.228122e-08 3.861908e-08 2.657741e-08 -3.452417e-08
4.400251e-09 -2.656616e-08 2.815717e-10 1.945674e-08 5.340999e-09 -8.141876e-10
-2.253220e-08 6.157252e-08 -9.415691e-08 4.972971e-08 6.274245e-08 -6.575957e-08
-2.342746e-08 4.974162e-08 -3.780636e-08 1.787104e-08 2.307716e-08 -2.987877e-08
2.042571e-10 1.005748e-09 -7.324555e-10 -7.348534e-09 -1.053095e-09 5.102707e-11
-1.952137e-09 2.194180e-09 -1.305813e-10 -3.732822e-09 -1.758034e-10 9.365994e-11
2.126452e-08 -4.587797e-08 -6.103719e-08 7.907655e-08 1.006618e-07 -4.958030e-08
-3.196242e-09 3.054037e-09 -1.225473e-10 -3.778399e-09 -3.259619e-10 -3.913254e-10
-1.920535e-08 -4.793453e-08 -3.770211e-08 1.291467e-07 1.193022e-07 -6.511955e-08
-1.342184e-08 3.409018e-08 -2.406404e-08 -1.774950e-08 -9.905464e-09 2.002052e-08
-5.875127e-09 2.924974e-09 7.911742e-10 1.333698e-09 2.412037e-10 -1.075171e-10
1.437258e-08 -6.357002e-09 -9.972565e-10 3.434697e-09 2.885586e-10 -3.819935e-10
2.797099e-08 1.561864e-08 1.280126e-08 -3.513210e-08 1.580384e-08 -2.202831e-08
-2.647989e-09 1.739350e-09 3.424268e-10 3.010237e-09 4.481120e-10 -2.076993e-10
1.090659e-08 1.396939e-08 -5.718877e-09 -2.927499e-08 8.858459e-09 -3.693988e-09
-7.838986e-10 1.475362e-08 -5.433134e-09 -2.170420e-08 1.498410e-10 4.382674e-09
6.523445e-08 -3.933737e-08 5.489270e-08 -1.371786e-08 -3.694110e-09 6.544391e-08
6.907058e-08 2.493214e-08 -1.356638e-07 -9.718927e-08 2.471570e-07 6.455652e-08
1.251814e-07 1.267280e-07 -3.227887e-07 -1.187619e-08 1.924339e-07 -2.799808e-08
-3.064377e-08 2.676529e-07 -3.262996e-07 -1.665260e-07 1.953081e-09 5.803354e-08
-2.363433e-07 4.833050e-07 -8.774241e-07 -2.200168e-07 2.138776e-07 -1.536226e-08
-6.102824e-08 2.635060e-07 -3.763814e-07 2.057306e-08 5.967016e-08 -2.898893e-08
-2.678993e-10 -2.204443e-08 3.372294e-09 1.669159e-08 3.122312e-09 -5.020346e-10
4.799585e-09 -2.016769e-08 -1.028779e-08 2.553089e-08 1.141793e-08 -4.469398e-09
-1.038564e-08 -8.226823e-09 -1.483668e-07 1.137610e-07 1.846818e-07 -1.104090e-07
1.082334e-07 -2.743936e-07 -9.146199e-08 5.624481e-08 2.956317e-07 -9.204739e-08
-2.410058e-07 2.400826e-07 6.720066e-07 -5.461237e-09 -5.885989e-07 -8.137879e-07
2.396878e-08 -5.007347e-08 -1.410558e-08 2.292565e-08 2.212502e-08 -6.661116e-09
1.858686e-08 2.182959e-07 -3.607642e-07 -1.316100e-08 1.190987e-07 -8.375271e-08
7.325192e-08 2.189095e-07 -3.928290e-07 -2.623105e-08 1.313351e-07 -9.586078e-08
2.574526e-08 4.404966e-08 6.304433e-08 4.354481e-08 -4.523529e-08 -9.771579e-08
1.961931e-08 -1.103125e-08 4.522489e-10 -2.202595e-09 5.945038e-10 -2.324410e-09
-1.027195e-08 1.828171e-08 5.893272e-08 3.471867e-08 -1.911322e-08 -2.810772e-08
-6.468323e-08 2.596029e-07 -1.820360e-07 -7.669306e-09 -1.297464e-07 -3.992422e-08
3.307136e-08 -6.689240e-09 5.174875e-09 -2.004108e-08 6.045659e-09 -1.805061e-08
5.985254e-08 1.039281e-07 -3.830419e-07 -3.592595e-09 2.544871e-07 1.572342e-08
5.102887e-08 4.441486e-08 -2.018146e-07 -6.447569e-09 1.478570e-07 5.025728e-09
-3.722548e-08 9.175069e-08 3.032671e-09 -1.326244e-10 -8.987184e-08 -3.662217e-09
2.562403e-08 -3.399696e-09 3.580094e-08 -4.218820e-08 -2.084283e-08 3.174807e-08
1.165767e-07 -1.209478e-07 -2.413735e-07 4.862850e-09 4.725949e-07 -5.723789e-08
3.887152e-08 -3.612918e-08 -5.914898e-08 1.662448e-08 5.693997e-08 -4.602464e-09
-1.657045e-08 1.227025e-08 -1.592925e-09 -8.809108e-09 4.245034e-09 3.608791e-09
-5.619260e-08 1.519411e-07 -3.100681e-07 -3.259483e-07 2.400776e-07 3.128866e-07
-4.283810e-08 7.475503e-08 -4.643400e-08 1.111214e-08 2.007092e-08 -4.247125e-08
-1.176775e-10 2.149239e-09 1.896412e-10 6.526945e-09 6.346527e-10 -4.810597e-10
3.256333e-09 3.417170e-09 2.403420e-09 1.350862e-08 -1.632151e-09 -3.798280e-09
2.724113e-09 -1.986388e-08 -7.490512e-09 -2.376539e-08 8.919794e-09 4.206618e-09
-1.493556e-08 5.929918e-08 -1.414339e-08 -1.615375e-08 4.090057e-09 -4.790920e-09
1.933164e-08 -1.043684e-08 4.041731e-08 1.894058e-08 -5.266479e-09 -3.360345e-08
-1.074623e-08 5.929809e-08 -1.765662e-08 -2.111934e-08 3.278531e-09 -1.521374e-08
-6.878943e-08 1.107996e-07 -1.717462e-08 -5.433036e-08 -3.782161e-08 -3.253082e-08
-4.261784e-08 5.128616e-08 9.429008e-09 -4.730070e-08 -2.260802e-08 -1.749146e-08
-2.032847e-08 5.825773e-08 -1.500378e-08 -2.971663e-08 -1.721327e-09 -1.603506e-08
-3.410740e-08 1.056844e-07 -2.758162e-08 -3.548724e-08 -4.840181e-08 -2.812038e-08
-1.038079e-08 1.075414e-08 1.475602e-08 1.937600e-08 -4.679107e-09 -9.503153e-09
-1.526110e-08 4.760391e-08 1.540864e-08 -2.877681e-08 -8.033799e-09 5.002854e-09
-2.978343e-08 4.367875e-08 -4.396978e-09 3.656066e-09 -3.792250e-09 8.813987e-09
-4.620341e-08 1.458410e-07 -9.687770e-08 1.837097e-08 6.879670e-09 -6.565716e-08
-8.942919e-08 9.896597e-08 7.132370e-08 -2.218805e-08 -2.074179e-08 -2.888579e-08
1.159400e-08 -6.410018e-09 -1.418388e-09 -3.870557e-09 -2.785316e-10 -6.458289e-11
-7.742011e-08 7.691461e-08 -6.341523e-08 6.544335e-08 5.646542e-08 -9.149931e-08
-2.373941e-08 9.562439e-08 1.019226e-08 -1.083142e-08 -3.542595e-08 2.199529e-09
-6.946805e-09 3.004774e-09 1.064843e-09 1.472638e-09 2.988947e-10 -1.990473e-10
-2.880078e-10 8.906670e-10 5.837553e-12 5.686763e-09 1.796374e-10 -3.480798e-10
-2.493589e-08 6.403944e-08 -6.409075e-08 2.950054e-08 2.988644e-08 -4.149417e-08
6.030145e-10 4.962567e-10 -1.663412e-10 5.619314e-09 1.688826e-11 -6.498795e-10
2.232237e-08 -1.038411e-08 -6.223768e-10 3.796620e-09 -1.228841e-10 -5.651898e-09
2.177067e-08 2.882490e-10 -1.149989e-09 -2.304837e-08 5.482354e-09 -5.786210e-09
-3.525988e-10 1.371640e-09 -4.729994e-11 4.991634e-09 3.769247e-10 -2.662480e-10
2.585915e-08 -1.208218e-08 5.663371e-09 -7.488354e-09 1.884424e-09 -6.977350e-09
2.820234e-08 -1.429529e-08 1.420935e-08 2.409708e-09 1.128567e-09 -1.344226e-08
1.699099e-08 -4.773460e-08 -1.465684e-08 2.721717e-08 -3.686127e-08 1.123250e-08
2.705896e-08 -7.771180e-08 1.744473e-09 2.524079e-08 -3.356398e-08 1.083844e-08
4.692002e-08 -1.425137e-07 -1.947804e-08 1.166242e-08 -8.075190e-08 1.307750e-08
-4.171596e-09 2.406374e-09 5.299663e-10 4.238163e-09 8.670314e-10 -4.933159e-10
-1.883613e-09 2.049188e-09 1.620357e-10 6.244731e-09 7.687424e-10 -4.136830e-10
-1.887831e-09 1.761828e-09 2.305904e-10 5.680463e-09 5.624506e-10 -4.755025e-10
-1.347025e-08 1.019285e-08 -4.537164e-10 -1.097572e-09 2.428916e-09 4.115002e-10
2.701997e-08 -5.561314e-08 -3.919491e-09 2.569270e-08 -3.978156e-08 1.011336e-08
2.672385e-08 -5.622173e-08 -2.555685e-08 1.471452e-08 -5.744808e-08 1.161784e-08
-6.059897e-09 1.580869e-09 1.256660e-09 1.509681e-09 7.408940e-10 -5.858525e-10
3.199039e-08 -5.616841e-08 -2.575738e-08 1.418458e-08 -5.757908e-08 1.291811e-08
4.409088e-09 -2.281341e-09 -7.705991e-10 3.345401e-09 1.411677e-10 -2.685659e-10
-6.766294e-10 5.845121e-10 -3.418021e-11 4.263375e-09 7.807534e-10 8.707990e-11
3.881600e-08 -7.690846e-08 -3.193570e-08 1.013360e-08 -7.143432e-08 1.505351e-08
4.225998e-08 -8.301334e-08 -1.259801e-08 1.407942e-08 -5.788937e-08 1.099572e-08
4.195697e-08 -7.672804e-08 -3.591318e-08 1.484696e-08 -6.784157e-08 1.371763e-08
1.462920e-08 -3.396320e-09 -1.721089e-09 1.033358e-08 -2.737713e-10 -3.017786e-09
2.327338e-08 -8.488566e-09 -6.204903e-11 3.542008e-09 3.765430e-10 -2.238501e-09
-5.292908e-09 2.555221e-09 7.048568e-10 1.601230e-09 6.245759e-11 -6.912493e-11
-1.309026e-09 1.404037e-09 4.609737e-10 4.626334e-09 5.021961e-10 -7.904630e-10
-1.926026e-09 1.237742e-09 1.345868e-10 4.674567e-09 3.027520e-10 -1.362136e-10
1.808573e-08 -5.947532e-09 -1.349398e-09 7.258868e-09 2.107222e-10 -3.425827e-09
-5.000655e-09 2.289566e-09 7.772643e-10 1.732834e-09 5.254575e-11 -2.255043e-10
6.087840e-08 1.228413e-08 2.104543e-08 3.982048e-08 -2.496896e-08 -6.915543e-08
-5.665351e-09 2.623214e-09 7.293914e-10 1.551952e-09 3.559926e-10 -2.401602e-10
2.341379e-08 -9.928974e-09 -1.299234e-10 -1.124616e-09 1.631947e-10 -3.351529e-09
2.315880e-08 -9.779394e-09 4.362127e-09 6.126265e-09 1.743454e-09 -5.975407e-09
1.099499e-08 1.874834e-09 -1.120577e-09 1.519045e-08 -1.146672e-09 -4.835823e-09
3.541321e-09 1.122547e-09 4.081393e-10 1.067608e-08 4.533964e-10 -2.307319e-09
6.383709e-09 8.439830e-09 -3.948758e-09 -1.818586e-08 -1.464615e-09 1.341881e-09
2.512602e-08 -9.948602e-09 2.664928e-09 -1.289969e-09 7.559798e-10 -5.523306e-09
9.048440e-09 2.032671e-09 3.583654e-09 1.580804e-08 -1.144868e-09 -4.531843e-09
2.401045e-08 -8.013903e-09 -2.584242e-09 -5.334609e-10 4.621412e-10 -1.307660e-09
2.201932e-09 8.868109e-09 1.339362e-08 2.179035e-08 -3.061667e-09 -1.095142e-08
3.094239e-08 -8.502161e-09 9.246478e-09 1.456501e-08 -1.803458e-09 -1.579150e-08
1.309749e-08 3.803831e-09 -1.183060e-10 1.802661e-08 -2.883782e-09 -7.690160e-09
-6.340700e-09 -8.102696e-09 3.549276e-09 -7.990135e-09 1.508467e-09 -7.286794e-10
-4.775341e-09 2.751802e-08 1.742526e-07 4.863428e-08 -7.421058e-08 -1.316828e-07
1.982283e-08 -7.048195e-12 2.253383e-09 1.903095e-08 -6.585568e-09 -1.658179e-08
-1.111492e-08 1.274440e-08 2.901698e-09 1.072875e-08 -1.748408e-09 -1.548414e-09
-3.798993e-09 6.600624e-09 1.224565e-10 6.389628e-09 1.254431e-09 -1.354836e-09
-2.054128e-08 -3.059067e-08 1.602324e-07 -9.364798e-08 4.414016e-08 -1.365293e-07
6.902793e-08 1.077267e-08 1.672116e-07 -3.275531e-08 2.212200e-08 -1.683533e-07
-1.319515e-07 1.450228e-07 -1.491307e-07 1.003083e-07 -4.730179e-08 -7.155615e-08
-1.851924e-08 1.563196e-08 -1.535455e-08 -2.442867e-08 1.428093e-08 1.380137e-08
-6.554029e-08 1.406602e-07 2.342748e-07 7.182640e-08 -2.058292e-07 -8.056512e-08
-1.319099e-07 1.377204e-07 1.578991e-07 1.012757e-07 -1.655653e-07 -7.531030e-08
-9.409858e-09 5.612785e-09 1.086605e-09 2.236633e-09 2.393427e-10 -1.047526e-09
-6.203078e-08 1.825643e-08 5.145360e-09 -6.084549e-08 1.597291e-08 2.963242e-08
-1.916476e-08 3.609499e-09 1.715240e-09 -1.406482e-08 4.786144e-09 2.560255e-09
-1.794633e-08 2.222748e-08 -4.536538e-11 7.043836e-09 -1.316297e-09 -3.486485e-10
-2.157239e-08 2.936865e-08 7.821503e-09 1.451442e-08 -5.838343e-09 -2.483939e-09
-2.147856e-08 2.212713e-08 -3.270553e-09 5.926767e-09 3.803231e-09 2.798498e-09
-2.243294e-07 2.075857e-08 2.320033e-07 -8.084845e-09 -9.430577e-08 -4.267688e-08
-1.485900e-08 2.914522e-08 -4.759990e-08 2.987581e-08 3.286735e-08 -2.746020e-08
5.998178e-09 3.104241e-08 -6.716913e-08 2.851848e-09 -4.849138e-08 3.077276e-08
1.109224e-08 1.876106e-08 -8.704397e-08 2.157248e-08 -7.059072e-08 4.459200e-08
-2.883140e-08 5.243978e-08 -3.569981e-08 1.397046e-08 2.550783e-08 -3.435097e-08
3.465240e-08 1.033482e-07 -2.045432e-07 -1.238340e-08 1.101837e-07 8.609069e-09
-1.262173e-08 8.175231e-09 9.496053e-10 8.857942e-10 4.127507e-10 -6.991952e-10
-1.729690e-08 1.501161e-08 -7.856687e-09 -2.326534e-08 1.153466e-08 7.925075e-09
-7.708723e-09 -8.566079e-09 1.322771e-09 -2.123833e-08 8.553287e-09 1.128968e-09
5.844981e-09 -4.378175e-08 -3.351754e-08 5.102442e-08 -1.041819e-07 5.126352e-08
1.636570e-08 -4.640902e-09 -9.517476e-10 -1.289211e-08 3.720912e-10 -4.230627e-10
1.825194e-08 -7.351077e-09 -7.073480e-10 -6.510520e-09 -9.779843e-11 -9.774468e-10
2.463694e-08 -5.648162e-08 -5.046706e-08 2.576611e-08 -6.356365e-08 2.397187e-08
1.656712e-09 2.742140e-10 -8.078103e-10 -5.665169e-09 -2.853784e-10 -5.752998e-11
8.562859e-09 -9.002364e-10 6.467713e-10 1.222755e-08 -4.205209e-10 -2.497980e-09
8.610502e-09 -3.451331e-09 -1.345384e-09 -7.817178e-09 -1.726302e-10 -8.988232e-11
9.272479e-09 -2.498061e-08 -1.861123e-08 4.259489e-08 -5.339753e-08 3.571907e-08
-1.636912e-09 -1.560577e-09 -4.684269e-08 2.575008e-08 -4.271767e-08 3.026569e-08
2.055393e-08 4.748917e-10 -6.749126e-08 1.932766e-08 -5.842944e-08 2.869574e-08
1.616731e-09 -2.267180e-08 -2.406043e-08 3.510428e-08 -4.303806e-08 2.426324e-08
-1.455190e-09 2.711912e-09 -1.008780e-10 -4.383823e-09 -5.235525e-10 -1.688467e-10
-1.560702e-09 -7.415418e-09 -1.784851e-08 5.699656e-08 -8.023468e-08 5.611318e-08
-9.138472e-10 -8.366234e-08 -2.963856e-08 6.843866e-08 -9.314509e-08 4.886504e-08
3.774517e-08 4.654115e-09 -1.369052e-07 5.254016e-08 1.666422e-07 -6.732169e-08
2.528955e-09 -4.253664e-10 -2.314684e-10 4.982264e-09 5.750519e-10 2.534321e-10
1.133324e-08 -6.105040e-09 -1.625943e-09 -3.276750e-09 -1.652676e-10 4.629623e-10
2.299119e-08 1.213391e-08 -9.496141e-08 3.047599e-08 8.564872e-08 -3.275761e-08
-8.115763e-09 8.784129e-09 -1.025807e-07 1.047579e-07 1.169159e-07 -1.009845e-07
-7.738886e-08 7.696215e-08 -2.440463e-08 6.539385e-08 6.101394e-08 -9.906978e-08
1.055408e-08 5.286758e-09 -1.108677e-09 1.542050e-08 1.941760e-10 -4.272654e-09
-3.827371e-08 1.005214e-07 -1.494225e-07 6.632452e-08 1.079638e-07 -1.266277e-07
-2.263471e-08 1.627635e-07 -2.435701e-07 3.931492e-08 1.195329e-07 -1.026314e-07
4.427214e-08 -2.524551e-08 -2.789124e-07 5.376381e-08 2.972214e-07 -8.126462e-08
-2.461201e-08 6.222879e-08 -8.131410e-08 5.085596e-08 9.941799e-08 -9.322257e-08
-3.100392e-08 5.901026e-08 -2.450919e-08 -1.409125e-08 7.824666e-09 2.859700e-08
-3.174574e-08 9.559562e-08 -7.533784e-08 2.148525e-08 4.038556e-08 -5.176303e-08
-4.707507e-08 3.208314e-07 -7.560243e-07 -5.519342e-08 4.778619e-07 -1.744367e-07
4.737270e-08 2.283527e-08 -2.333637e-07 1.156931e-07 3.879745e-07 -1.849810e-07
-1.777520e-08 1.724822e-08 -2.877342e-09 -1.144266e-08 2.491966e-09 4.399893e-09
1.076345e-07 -2.748570e-07 -2.382849e-08 -8.212495e-08 2.075359e-07 1.401591e-08
-3.562383e-08 4.433549e-08 -9.760019e-09 2.541413e-09 -1.262180e-09 1.532883e-08
-4.306362e-08 -3.450341e-08 -1.765339e-07 2.957990e-07 2.977181e-07 -2.089455e-07
2.002600e-08 -1.000839e-07 -7.429654e-08 1.806205e-07 2.243287e-07 -9.117331e-08
6.914813e-08 -8.162702e-08 -1.093812e-07 8.141330e-08 1.680615e-07 -5.474842e-08
-1.209730e-09 2.457421e-09 -3.311111e-10 -5.706273e-09 -4.065648e-10 -3.135342e-11
-8.341488e-10 1.862734e-09 -4.089804e-10 -5.543455e-09 -3.507075e-10 -4.397611e-10
-1.619651e-10 1.004821e-09 -7.007483e-10 -7.041623e-09 -7.126348e-10 -1.346212e-10
-5.677095e-09 -3.194542e-07 -9.811298e-08 -3.363825e-07 3.389816e-07 2.036693e-07
-1.351443e-09 2.514301e-09 -3.819214e-10 -7.232486e-09 -9.317580e-10 -1.981948e-11
-4.655867e-09 2.350003e-09 6.227712e-10 2.999885e-09 1.977138e-10 -3.707152e-10
-1.341536e-08 5.463585e-08 -5.698075e-08 -1.092784e-08 3.276195e-08 4.493541e-08
2.696840e-08 -3.538980e-08 -3.834403e-08 2.356770e-08 4.319615e-08 -7.998547e-09
-3.706576e-09 1.963204e-09 6.276331e-10 2.834976e-09 2.825931e-10 1.167023e-10
-5.517165e-09 2.533056e-09 9.241607e-10 1.750411e-09 1.270063e-10 -7.730430e-11
1.971693e-08 3.338525e-10 -3.686086e-09 -1.927743e-08 9.202954e-10 -3.495807e-09
1.212120e-08 3.235418e-09 1.177252e-10 -2.060328e-08 5.145740e-10 -1.953965e-09
-4.414208e-09 2.431099e-09 6.573617e-10 2.390148e-09 3.340528e-10 -3.414570e-10
7.584129e-09 1.345004e-09 -2.101763e-09 -1.270609e-08 -1.538354e-09 5.477016e-10
7.760320e-09 2.413206e-09 -1.412651e-09 1.164370e-08 3.209090e-10 -2.124148e-09
-4.702517e-09 2.258012e-09 5.826417e-10 1.786492e-09 1.050189e-10 -5.681966e-11
1.712987e-09 3.414299e-09 -1.437121e-09 -1.161332e-08 -6.572764e-10 6.346742e-10
4.973324e-09 -9.394111e-10 -1.389193e-09 -8.645196e-09 -2.633584e-10 -1.053251e-10
-3.060011e-09 3.630685e-09 1.021516e-11 -3.651041e-09 -5.042952e-10 -9.339418e-11
6.683240e-09 -1.746268e-09 -1.293390e-09 -1.009863e-08 -5.394264e-10 -2.166306e-10
1.663186e-08 -7.475271e-09 -1.641752e-09 7.442096e-10 7.624898e-11 -6.495398e-10
2.337016e-08 -8.753724e-09 -2.842717e-09 -1.227331e-09 -1.245037e-11 -1.774728e-09
2.100563e-08 -8.345743e-09 -2.357732e-09 1.589439e-09 -5.417755e-10 -3.331389e-09
1.628015e-08 -6.319819e-09 -1.705673e-09 -5.945948e-09 -1.552708e-10 -1.872172e-10
1.775430e-08 -8.467277e-09 -1.015780e-09 3.364066e-09 2.658856e-10 -2.013046e-09
7.462420e-09 -1.741458e-09 -1.257853e-09 -1.042859e-08 -5.624471e-10 5.950682e-10
1.640067e-08 -7.145863e-09 -1.318110e-10 6.080314e-09 -2.988993e-10 -2.137204e-09
-1.345363e-08 1.836109e-08 3.149501e-09 -1.502319e-08 3.916946e-09 5.349337e-09
-2.299965e-09 4.841965e-09 -2.768902e-09 -1.123151e-08 -3.332557e-09 3.256591e-09
-4.366402e-09 5.651513e-09 -1.086393e-09 -9.327183e-09 -1.210241e-09 4.359891e-10
1.717419e-08 -7.959096e-09 -1.063783e-09 -3.951066e-09 -2.793705e-10 -5.809143e-10
3.524388e-09 5.935152e-09 -2.586342e-09 -1.493968e-08 -2.005052e-09 1.860812e-09
1.847266e-08 -6.766974e-09 -1.335086e-09 5.816737e-09 1.871775e-10 2.552709e-10
1.442643e-08 -5.631507e-09 -5.888032e-10 6.901160e-09 3.732868e-10 -1.772917e-10
1.903520e-08 -8.020985e-09 -1.247650e-09 1.859743e-09 1.639808e-10 -6.862375e-10
2.842058e-08 -1.221075e-08 6.758387e-09 1.079908e-09 -1.738681e-10 -1.061609e-08
1.897193e-08 -8.646497e-09 -4.885448e-10 1.915385e-09 -1.759918e-10 -1.796652e-09
1.660645e-08 -7.469611e-09 -1.135116e-09 7.794210e-10 2.818983e-10 -1.990729e-10
1.547976e-08 4.945958e-08 -7.996457e-08 -9.256549e-09 -7.101548e-08 4.761979e-08
5.275364e-08 -1.763177e-07 -9.038094e-09 1.029338e-09 -8.501729e-08 8.829992e-09
-1.480095e-07 -6.451957e-08 6.014859e-07 -4.373939e-08 -5.416823e-08 7.472075e-08
-2.120835e-08 3.111330e-08 -1.057663e-08 -3.922438e-09 6.513828e-09 -1.671068e-08
-1.977189e-09 9.450576e-09 -4.016921e-08 -2.204296e-08 -3.586858e-08 -1.672795e-08
1.650513e-08 -4.086274e-08 -5.120805e-08 -5.524140e-08 -8.535846e-08 -3.253559e-08
1.777447e-08 -7.462624e-09 -8.654233e-10 3.731749e-09 4.411840e-10 -9.746577e-10
1.956934e-08 -9.801372e-09 1.982228e-10 -8.500803e-10 3.568249e-11 -1.475561e-09
2.196925e-08 -8.535523e-09 3.551421e-10 -4.412097e-09 5.357865e-10 -2.326091e-09
-2.647536e-09 -3.285219e-08 -2.648050e-09 3.178417e-08 -2.437505e-08 1.238795e-08
2.943484e-09 -9.811654e-09 -1.650462e-08 -1.891518e-08 -2.064597e-08 -4.290793e-09
-1.417723e-08 2.681395e-08 -2.921186e-08 5.665199e-09 -1.607661e-08 2.022082e-08
1.099779e-08 -3.384290e-08 -2.161604e-08 -2.606803e-08 -3.820723e-08 -9.270659e-09
5.096957e-09 4.359775e-08 -7.166047e-08 -2.810483e-08 -4.772510e-08 -2.727508e-08
-2.453261e-08 -9.225620e-08 -3.076513e-08 1.076294e-07 -1.298401e-07 7.492124e-08
7.179439e-09 -1.203410e-08 -4.547538e-08 -3.668945e-08 -4.852472e-08 -1.945924e-08
1.167331e-09 -2.070323e-08 -2.507493e-08 -2.849782e-08 -3.031793e-08 -1.315234e-08
3.641742e-08 -5.513102e-09 2.601059e-08 -2.811556e-08 1.937358e-08 -3.541631e-08
1.777931e-08 -3.858590e-08 -2.141509e-08 -2.778405e-08 -3.933427e-08 -1.154119e-08
-8.718273e-08 7.447940e-08 1.402712e-07 2.187455e-08 9.300058e-08 3.336813e-08
-2.395847e-08 -1.549607e-08 -2.056902e-08 6.122481e-08 3.515209e-08 -2.591698e-08
1.083052e-08 -1.860739e-08 -3.939494e-08 -3.428409e-08 -6.849816e-08 -2.718843e-08
3.077954e-08 1.180549e-08 -7.910516e-08 -1.380722e-09 -6.792890e-08 1.204703e-08
1.266954e-08 -9.512862e-09 -5.450334e-08 -2.941589e-08 -6.309253e-08 -1.787439e-08
-3.324784e-09 -4.817482e-08 -1.503645e-08 -5.720922e-08 -5.255701e-08 -2.319827e-08
4.366229e-08 -1.192031e-07 -1.378604e-08 5.769139e-09 -7.675718e-08 5.700362e-09
-6.838347e-08 2.600286e-07 -8.109613e-08 -3.390439e-08 -1.447740e-07 5.187738e-08
-1.912146e-08 3.346982e-08 1.348278e-08 2.762993e-08 -9.653813e-09 -1.009118e-08
-9.245097e-09 1.447125e-08 -4.579287e-08 -2.586148e-08 -4.031760e-08 -2.379277e-08
1.153800e-08 -5.680166e-08 -7.878842e-09 -4.408987e-08 -4.124281e-08 -1.257455e-08
2.388760e-08 -1.403668e-08 7.467084e-09 -2.193878e-09 8.405994e-10 -9.605716e-09
2.031719e-08 -7.851379e-09 -2.363550e-09 -4.538505e-09 -2.847974e-10 -9.633968e-10
7.418070e-09 -5.782009e-08 -5.392480e-09 -4.203964e-08 -4.113324e-08 -1.293144e-08
1.048924e-08 2.683801e-09 -3.035939e-09 -1.710150e-08 -8.198103e-10 7.889614e-10
-8.844997e-09 9.608685e-09 -2.453118e-08 -3.315927e-08 -2.498160e-08 -2.008413e-08
6.606130e-09 -1.672662e-08 -1.861536e-08 2.206769e-08 -3.396571e-08 1.709832e-08
2.199804e-08 -4.328849e-08 -1.314156e-08 3.085817e-08 -4.381965e-08 1.686081e-08
1.860734e-08 -9.882005e-09 1.818913e-09 4.290484e-09 1.538933e-11 -4.133893e-09
1.989186e-08 -4.746619e-08 -1.194657e-08 2.629032e-08 -3.840261e-08 1.791151e-08
9.195301e-09 -1.720654e-09 -1.055006e-09 -1.179476e-08 -4.434172e-10 -7.352390e-10
1.005950e-08 -2.953955e-09 -1.400461e-09 7.321468e-09 3.047051e-10 -6.994872e-10
1.281252e-08 -7.725662e-09 -3.215270e-08 1.373576e-08 -3.005641e-08 1.277698e-08
2.486291e-08 -3.298947e-08 -4.454706e-08 2.154327e-08 -5.014158e-08 2.059369e-08
4.556496e-08 -9.755844e-08 -5.169266e-08 -1.401652e-08 -1.021581e-07 3.180579e-10
1.032391e-09 -2.166088e-08 -1.790198e-08 3.630396e-08 -5.075233e-08 2.539642e-08
1.086664e-08 -2.050387e-08 4.322306e-08 6.387866e-09 -1.402267e-10 -3.346659e-08
4.302372e-09 -3.186078e-08 -2.540350e-08 3.296648e-08 -4.412311e-08 2.481461e-08
-7.099282e-09 3.358814e-09 1.351031e-09 1.520947e-09 4.554634e-10 -1.128954e-09
-6.057137e-09 2.188510e-09 9.315042e-10 1.946081e-09 1.005085e-09 -5.428815e-10
2.577882e-08 -3.541573e-08 -2.547872e-08 2.256305e-08 -5.412167e-08 1.640000e-08
6.556601e-09 -1.646253e-08 -2.310311e-08 2.205427e-08 -2.602592e-08 1.320041e-08
3.237147e-08 -3.241504e-08 -5.078161e-08 6.737434e-09 -6.589686e-08 2.382837e-08
-2.920399e-09 1.879744e-09 4.117893e-10 3.884920e-09 6.312741e-10 -8.641377e-11
-5.282087e-09 2.233227e-09 1.020313e-09 2.420013e-09 5.627076e-10 -2.798918e-10
-3.640935e-09 2.737023e-09 6.077299e-10 4.872543e-09 1.893492e-10 -2.450773e-10
-5.764918e-09 5.463184e-09 5.734713e-10 5.343460e-09 6.043991e-10 -5.303391e-10
6.654099e-09 -3.167831e-08 -1.839671e-08 2.331166e-08 -3.346634e-08 1.686797e-08
-7.619501e-09 1.838373e-09 1.914269e-09 -7.142334e-10 6.852504e-10 -1.258430e-09
-8.215055e-09 8.376691e-09 6.980310e-10 4.155655e-09 6.755727e-10 -3.920374e-10
-7.602366e-09 -1.160582e-09 2.592546e-09 -2.146253e-09 8.399703e-10 -9.949159e-10
1.248403e-08 -5.826988e-08 -7.462034e-09 3.524576e-08 -3.626059e-08 1.418775e-08
1.767818e-08 -8.240170e-08 -4.083073e-08 9.258249e-08 1.516826e-07 -7.120393e-08
7.389336e-08 -2.126616e-07 -2.936202e-08 -1.216353e-08 -1.526288e-07 -3.402493e-09
-2.171860e-08 1.151940e-08 -2.505449e-08 -3.853882e-08 2.431374e-08 2.871153e-08
1.488062e-07 2.243705e-07 2.384707e-07 -1.941397e-07 -2.914403e-07 2.801646e-07
6.914970e-08 8.088064e-08 -2.279519e-07 5.879091e-09 2.206934e-07 -3.555636e-08
-1.012905e-08 -1.254635e-08 -7.304740e-08 1.127648e-07 1.617093e-07 -1.255083e-07
3.834279e-08 2.481368e-08 -1.227148e-07 5.695252e-08 1.010013e-07 -4.414895e-08
3.601752e-08 2.088499e-09 -1.338109e-07 5.473000e-08 1.701866e-07 -6.928376e-08
-1.092387e-08 7.676856e-09 -6.972442e-08 1.076300e-07 1.736007e-07 -1.313025e-07
1.870199e-08 -8.043121e-08 -5.433661e-08 9.079835e-08 1.113242e-07 -5.695594e-08
-2.205723e-08 6.597780e-08 -6.122953e-08 1.795514e-08 3.577883e-08 -4.509971e-08
-8.230360e-08 1.068070e-07 -7.309435e-08 -1.915853e-09 2.543233e-09 -8.446198e-08
1.018603e-07 -2.531636e-07 -3.728124e-08 1.622372e-08 1.953286e-07 -3.886563e-08
3.997092e-08 -1.304412e-07 -7.034951e-09 5.870371e-08 9.781397e-08 -3.548858e-08
-5.697385e-08 -3.475928e-09 -4.281852e-08 1.058121e-07 -7.336374e-08 9.132713e-08
6.205238e-08 -1.482768e-07 -3.673321e-08 4.627621e-08 1.735020e-07 -3.121316e-08
5.889082e-08 -1.633542e-08 5.310620e-08 6.859743e-08 6.136849e-08 6.508988e-08
2.792619e-08 -9.491532e-08 -8.025435e-09 6.380745e-08 9.735969e-08 -3.198585e-08
-2.327836e-08 9.686419e-08 -1.234212e-07 1.406080e-08 1.147882e-08 5.196876e-08
6.744347e-08 1.045701e-07 -1.850559e-07 1.104114e-08 9.866983e-08 -1.963207e-08
5.604340e-09 -3.408254e-08 -8.290932e-10 1.691868e-08 4.226735e-09 -1.844874e-09
-3.734555e-08 2.863869e-07 -1.259206e-07 2.128163e-08 -4.836736e-08 -1.665769e-07
-4.753295e-08 1.506007e-07 -7.046192e-08 -2.015539e-08 -3.510273e-08 -4.309507e-08
-3.558187e-08 4.241469e-07 -2.267686e-07 -1.058417e-07 -7.136288e-08 -7.096598e-08
-4.344775e-08 2.035621e-07 1.360473e-07 -1.677384e-07 -2.706672e-07 1.271997e-07
-1.692625e-08 2.230741e-07 -6.430507e-08 1.557817e-08 -8.704969e-08 -5.573808e-08
4.442266e-08 -1.246751e-07 -7.522787e-09 1.762400e-08 6.568248e-08 -3.989179e-09
5.560341e-09 -5.596851e-08 -4.283890e-08 -9.148548e-08 1.352547e-07 7.310765e-08
1.090849e-08 -5.900195e-09 -1.408992e-09 3.095291e-09 3.653887e-11 1.196721e-10
9.996035e-10 9.203714e-10 -2.146803e-10 6.113856e-09 -1.911072e-11 -4.568719e-10
1.183199e-07 -8.413884e-09 -2.136679e-07 3.092934e-08 3.969354e-07 -8.473668e-08
-1.947414e-09 1.619716e-09 3.958092e-10 4.749509e-09 6.040535e-10 -3.320814e-10
-1.497484e-08 3.031570e-08 -1.478157e-08 -9.457481e-09 -1.257033e-08 2.143356e-08
2.347765e-08 -7.424813e-09 -2.369954e-09 -5.421058e-09 -2.893459e-10 -1.610175e-09
-2.249879e-08 4.646176e-08 -6.222530e-08 2.371345e-09 -5.465408e-08 5.658901e-08
1.352215e-08 -4.795661e-09 1.975173e-09 9.256165e-09 -2.152403e-11 -3.181789e-09
-8.960251e-09 4.122604e-08 -1.785482e-08 -3.093912e-08 8.841667e-09 1.994311e-08
-1.881094e-08 5.032504e-08 -4.128479e-08 -1.827349e-09 -2.643738e-08 4.169679e-08
3.045289e-09 6.764594e-09 4.245654e-09 1.736540e-08 -3.117923e-09 -6.250416e-09
-1.321210e-08 -5.695105e-10 8.802206e-10 -1.094524e-08 3.624270e-09 1.200627e-09
-7.684772e-09 9.980790e-10 2.038871e-09 3.553813e-10 9.151867e-10 -5.584577e-10
-2.182058e-09 8.342723e-09 1.949474e-09 1.302531e-08 3.150183e-10 -2.234233e-09
1.273039e-09 3.159448e-09 1.398839e-09 1.106605e-08 -4.728572e-10 -2.251055e-09
-5.917110e-09 2.521495e-09 1.147811e-09 2.035818e-09 4.619911e-10 -1.376690e-10
-7.070622e-09 2.480753e-09 1.843810e-09 1.685624e-09 6.205434e-10 -4.999952e-10
-7.037144e-09 2.678262e-09 1.319926e-09 1.601666e-09 6.033753e-10 -5.267816e-10
-6.927111e-09 1.397380e-09 1.755507e-09 5.782160e-10 1.562461e-10 -7.548471e-10
-7.267885e-09 2.106876e-09 1.693680e-09 1.251718e-09 2.426350e-10 -4.065577e-10
-2.411585e-08 2.884623e-08 -2.179687e-09 -5.407444e-09 8.766303e-11 6.509589e-09
2.464581e-08 -8.863046e-08 -4.028167e-09 -2.260578e-08 3.803824e-08 3.343837e-09
-1.002391e-08 2.241462e-09 1.686016e-09 -4.216114e-09 1.187214e-09 -2.616541e-10
-7.299052e-09 2.421450e-09 1.334028e-09 1.313486e-09 3.007314e-10 -2.600216e-10
-3.457753e-09 1.770647e-09 4.348966e-10 3.576639e-09 2.207626e-10 -2.785687e-10
-7.544486e-09 -7.106132e-11 2.155589e-09 -3.278509e-09 8.027928e-10 -1.337260e-09
-9.638451e-09 1.002009e-08 5.149077e-10 1.424975e-09 1.006190e-09 -1.378862e-09
-1.167513e-09 7.762422e-10 1.412983e-10 3.580845e-09 8.212670e-11 -1.957323e-12
-1.465877e-09 4.843282e-09 2.958793e-10 8.942385e-09 3.487806e-10 -6.300653e-10
-5.785700e-09 3.263099e-09 1.053770e-09 2.204013e-09 1.125787e-09 -1.350084e-09
-6.128145e-09 6.201494e-09 5.575340e-10 6.018391e-09 2.063662e-10 -4.188478e-10
5.394502e-09 -9.115265e-10 -3.479852e-10 8.243612e-09 -6.334623e-11 -1.030130e-09
1.230532e-08 -4.998764e-09 -1.319084e-09 6.314194e-09 3.965667e-10 -5.342209e-10
1.052485e-08 -2.420549e-09 1.525997e-10 9.886650e-09 -6.613646e-11 -2.970178e-09
-8.428450e-09 2.561542e-09 1.467869e-09 -1.459987e-09 7.985627e-10 -6.895349e-10
2.671884e-08 -1.102273e-07 -1.403659e-08 6.812790e-08 8.512069e-08 -2.832229e-08
4.033158e-09 -2.555891e-08 3.684847e-09 -1.186893e-08 4.054379e-09 -6.447635e-10
-5.278560e-08 2.396298e-07 -1.604526e-07 -1.865597e-08 8.764202e-08 1.034432e-07
3.152766e-08 -4.225438e-08 -1.659045e-08 7.864128e-10 1.963821e-08 -7.897550e-10
2.798242e-09 1.091755e-08 -7.847936e-08 6.015864e-08 7.129787e-08 -4.425758e-08
-4.259065e-09 -7.529733e-09 5.322929e-10 -1.156924e-08 2.625601e-09 4.597477e-10
-9.551499e-09 -4.493158e-08 -1.544107e-08 7.999101e-08 7.733731e-08 -4.790160e-08
-2.829283e-09 -1.581010e-08 -3.258536e-08 6.403250e-08 5.614431e-08 -3.255242e-08
-2.699939e-08 1.539856e-09 -1.039883e-08 5.266461e-08 3.391342e-08 -2.216079e-08
-2.438479e-07 -3.703461e-08 1.164155e-06 1.808560e-08 -1.822680e-07 -2.136108e-07
1.965927e-08 -4.354445e-10 -6.025447e-08 -3.457179e-08 5.826772e-08 2.627327e-08
-2.883091e-08 3.478085e-08 -2.138306e-08 -2.284655e-08 1.783518e-08 2.598891e-08
-5.622017e-07 -1.037781e-07 8.628694e-07 -1.544299e-07 2.581193e-08 1.137102e-07
-1.715330e-08 -1.370968e-08 -8.052937e-10 -8.020413e-08 4.153848e-08 3.000096e-08
-2.118966e-07 4.444167e-07 -1.870239e-07 -2.014236e-07 7.147958e-08 -5.150160e-08
-2.718125e-09 -8.806038e-08 -8.216134e-09 -6.871341e-08 6.380060e-08 3.043915e-08
-1.364522e-07 6.633743e-08 7.711191e-08 -1.216323e-07 -8.793193e-08 8.217400e-08
6.170118e-08 -1.406416e-07 -2.077506e-08 -3.559320e-08 1.455202e-07 3.259579e-08
-2.807370e-08 9.703391e-08 -3.920645e-08 2.390571e-08 -2.675889e-08 1.188675e-08
2.805523e-08 -1.277994e-08 -6.477129e-08 3.137671e-08 5.680607e-08 -1.586736e-08
6.517410e-08 -3.910310e-08 -1.224695e-07 1.165150e-08 1.197427e-07 -6.780434e-09
7.603873e-08 -1.408647e-07 -7.250810e-09 1.607317e-08 1.311078e-07 -7.982844e-09
5.298295e-08 -9.806208e-08 -4.406753e-08 3.253525e-08 1.590584e-07 -1.755169e-08
5.309398e-08 -9.588092e-08 -5.045035e-08 4.253408e-08 1.072134e-07 -1.722575e-08
8.701581e-10 -2.712582e-08 6.577102e-09 1.314927e-08 1.999476e-09 -6.193879e-10
6.131771e-08 -1.186430e-07 -5.610549e-08 5.114802e-08 1.209972e-07 -2.800183e-08
2.189091e-08 -4.401264e-09 3.622860e-09 1.445257e-08 -9.011571e-10 -7.743212e-09
4.730749e-08 -7.154210e-08 -4.469237e-08 3.791440e-08 9.528459e-08 -1.572961e-08
4.184540e-08 -9.030325e-08 -3.209544e-08 -2.506772e-08 6.706948e-08 1.225181e-08
5.854818e-08 -1.260151e-07 -8.480578e-08 -1.978979e-08 1.682588e-07 1.232801e-08
8.654350e-08 -1.342362e-07 -8.183796e-08 -6.680487e-09 1.712128e-07 5.743244e-09
-6.095912e-08 8.039316e-10 -3.492103e-08 1.092469e-07 -8.320544e-08 8.930858e-08
6.235912e-08 -1.436183e-07 -2.052276e-08 9.811312e-09 1.372509e-07 6.479484e-09
1.787513e-08 9.058375e-09 -6.301458e-08 1.269152e-08 -5.212096e-08 2.270148e-08
6.220177e-08 -1.490297e-07 -1.082428e-07 4.555432e-08 1.917948e-07 -3.138958e-08
1.427179e-08 -6.630628e-09 -8.846488e-10 4.303127e-09 4.982155e-10 -8.647436e-10
5.303496e-08 -4.939145e-08 -8.825624e-08 -2.886430e-08 1.005122e-07 2.459819e-08
-8.314744e-09 5.165384e-09 -1.264451e-10 -5.819651e-09 -2.128617e-09 1.299666e-09
2.443423e-08 -2.330904e-10 2.460459e-08 4.371444e-08 1.251168e-08 2.707265e-08
-8.560016e-09 5.082000e-09 -1.448285e-09 -5.938675e-09 -2.046263e-09 4.389231e-10
-9.555814e-09 3.886603e-09 1.609597e-10 -2.000867e-09 -2.181698e-09 8.338241e-10
-9.849623e-09 5.348043e-09 4.191125e-10 -3.670228e-09 -1.710919e-09 2.738773e-10
-7.983974e-09 4.735228e-09 -2.370041e-10 -3.528482e-09 -2.202369e-09 8.033592e-11
-1.165723e-08 2.006559e-09 5.232645e-10 7.099340e-10 -4.012390e-09 1.759581e-09
6.727063e-12 2.783882e-09 -1.470009e-09 -1.205308e-08 -1.262505e-09 5.994023e-10
-1.090772e-08 5.446404e-09 -2.158488e-09 -3.183447e-09 -3.361089e-09 2.432043e-09
-8.681789e-09 4.725916e-09 2.420506e-10 -4.237102e-09 -1.257126e-09 1.781566e-10
5.374537e-09 1.886533e-10 -1.895019e-09 -1.149688e-08 -5.896487e-10 7.402408e-10
6.313187e-09 8.172141e-10 -1.432921e-09 -1.205169e-08 -4.817915e-10 -7.817813e-11
9.299945e-10 2.897385e-09 -1.133761e-09 -9.732597e-09 -1.983475e-09 5.200655e-10
-1.401189e-07 1.008522e-07 -2.338163e-08 -9.863720e-09 -3.544712e-08 8.519637e-08
-4.506044e-08 8.991332e-08 6.558513e-08 3.602949e-08 -6.346781e-08 -1.236337e-08
5.242387e-09 2.223753e-09 -1.814559e-09 -1.220497e-08 -2.024563e-09 8.783718e-10
-7.468696e-08 1.170806e-07 -6.265652e-08 5.670478e-08 -4.104191e-08 -2.148624e-10
-8.153393e-09 1.116051e-07 6.085606e-08 8.931481e-08 -1.051303e-07 -4.636306e-08
-1.210681e-07 1.259212e-07 -3.135407e-08 1.424808e-08 -5.884041e-08 5.158818e-08
-5.553731e-08 1.171134e-07 1.096759e-07 6.459686e-08 -1.243130e-07 -1.363958e-08
-2.387764e-08 1.351288e-07 -1.162219e-10 1.082165e-08 -3.501181e-08 -1.157877e-08
5.233794e-08 2.398294e-08 -1.332104e-07 -1.327943e-08 1.089926e-07 9.169589e-09
-1.305403e-08 1.198735e-07 -2.766046e-08 -3.795191e-08 -5.425058e-08 6.884790e-08
1.084926e-08 -5.224088e-09 -1.297512e-09 3.238739e-09 3.202835e-10 1.537694e-10
4.649856e-09 -1.115202e-09 -5.743388e-10 5.999474e-09 5.036869e-10 -1.405851e-10
6.063461e-09 1.233159e-08 -5.944514e-08 3.789580e-08 4.710071e-08 -2.503759e-08
-3.794686e-08 5.350008e-08 -9.625016e-09 -2.890987e-09 -2.733782e-09 3.594758e-08
-3.972509e-08 4.048957e-08 -4.330720e-08 4.927052e-08 4.684249e-08 -4.772908e-08
-3.462262e-08 4.607901e-08 -1.155210e-08 4.064930e-09 -7.066499e-09 2.556014e-08
-1.120265e-08 1.362410e-08 -4.801157e-08 4.891653e-08 4.345560e-08 -3.244826e-08
5.555505e-09 1.369794e-09 -1.292092e-09 -1.162989e-08 -7.888065e-10 -2.744243e-10
1.792205e-08 -9.089609e-09 -1.482157e-10 -8.306811e-09 2.175199e-10 -1.943619e-09
1.288255e-08 -2.614800e-09 -1.199383e-09 -1.255368e-08 -1.050999e-10 -8.183499e-10
-5.464031e-08 1.069126e-07 -3.905443e-08 -2.346057e-08 -1.578485e-08 -5.267923e-08
-3.193239e-08 2.461906e-08 -1.731506e-08 3.183630e-08 1.669425e-08 -2.367361e-08
-5.546203e-08 7.471966e-08 -2.656236e-08 9.098328e-09 2.077758e-08 -6.112805e-08
7.103758e-10 7.974502e-10 -8.593370e-11 5.440789e-09 8.282953e-10 -2.153182e-10
-4.581265e-08 1.460980e-07 -4.898783e-08 1.794590e-08 1.043295e-08 -7.215401e-08
3.837171e-09 2.192948e-09 4.941123e-10 1.066923e-08 2.178085e-10 -1.288461e-09
-2.643157e-08 -4.197755e-09 -4.860677e-09 2.619430e-08 -1.914741e-08 1.892446e-08
-1.455641e-09 3.578801e-09 -1.455491e-10 7.477398e-09 7.347466e-10 -8.535567e-10
-1.401407e-09 1.037278e-09 1.098881e-10 4.953396e-09 7.241918e-10 -2.933556e-10
-1.043180e-08 7.420655e-09 9.126433e-10 2.695222e-09 1.271187e-10 -1.143168e-09
-1.633190e-08 1.068536e-08 -1.271095e-09 -4.756619e-09 -4.362688e-09 5.922867e-09
-1.494514e-08 1.621137e-08 -7.508924e-09 -5.706196e-09 -1.031345e-08 1.243696e-08
1.206961e-08 -5.849381e-09 -1.717264e-09 -5.008910e-09 -1.780448e-10 -2.683668e-11
-9.405859e-09 4.391776e-09 1.094709e-09 8.518097e-10 5.527666e-10 -3.186320e-10
-9.561111e-09 1.588233e-08 -3.274617e-09 -1.166188e-08 -5.142250e-09 5.095340e-09
-4.827278e-09 3.097302e-09 9.229284e-10 3.796832e-09 9.078440e-10 -5.213778e-10
5.844027e-09 -1.613631e-08 -1.877204e-08 2.235556e-08 -3.354440e-08 1.666130e-08
-1.279631e-08 9.492971e-09 1.141250e-09 -6.095927e-09 2.185801e-09 2.367854e-10
-8.656126e-09 1.774542e-09 1.837171e-09 -9.220028e-10 3.869462e-10 -5.695310e-10
-4.291846e-09 2.115608e-09 6.419012e-10 2.574698e-09 2.275476e-10 -8.771001e-11
-1.282047e-08 7.811248e-09 6.315277e-10 -1.869528e-09 4.350532e-10 -1.004699e-09
9.875597e-10 -3.184956e-08 -1.316817e-08 2.846534e-08 -2.824958e-08 1.648786e-08
-1.400371e-09 3.491268e-09 9.615952e-11 7.394561e-09 8.860632e-11 -2.840621e-10
2.396640e-08 -5.181468e-08 -2.410912e-08 1.709744e-08 -5.345815e-08 1.673454e-08
2.313171e-08 -4.168487e-08 -3.312484e-08 1.814106e-08 -3.900966e-08 1.293990e-08
-8.207860e-09 3.027026e-09 1.588750e-09 -8.154867e-10 9.082556e-10 -1.369741e-09
3.295037e-08 -4.451850e-08 -3.979644e-08 5.879049e-08 -1.071822e-07 5.745027e-08
1.188790e-08 -1.588187e-08 -2.832738e-08 2.291654e-08 -5.090722e-08 2.592376e-08
1.360931e-08 -3.832220e-08 -1.295753e-08 1.825836e-08 -3.104304e-08 1.044789e-08
-6.717008e-09 -7.369626e-09 -9.474676e-09 -2.567631e-08 1.081846e-08 7.228626e-09
-1.966216e-08 -1.169029e-08 -1.989087e-08 3.945009e-08 -3.775436e-08 3.367023e-08
-2.274764e-09 -1.325468e-08 -2.122784e-08 2.264017e-08 -3.338385e-08 2.115823e-08
-2.820856e-09 -1.173568e-08 -2.717260e-08 2.365009e-08 -2.687363e-08 1.938426e-08
-1.319357e-08 -3.647981e-10 -3.179959e-09 2.728933e-08 -2.539738e-08 2.258629e-08
-2.360892e-09 5.000498e-08 -6.330107e-08 -2.762913e-08 -2.294735e-08 3.501124e-08
-8.217544e-08 5.172796e-08 1.679583e-07 -6.538755e-08 3.596007e-08 -6.548926e-08
1.204247e-08 -2.501570e-08 -5.496005e-08 3.896653e-08 -6.700464e-08 3.192465e-08
-1.159777e-08 -1.948012e-08 -1.460948e-08 3.056018e-08 -2.822696e-08 1.973411e-08
-9.165670e-10 6.109401e-08 -3.098960e-08 -3.778937e-08 3.106741e-09 2.798290e-08
-5.508539e-09 2.485124e-09 8.672216e-10 2.064129e-09 4.207464e-10 -3.752942e-10
-2.380596e-09 -1.298845e-08 -2.860914e-08 2.269514e-08 -2.827093e-08 1.869659e-08
-7.639037e-09 -4.634026e-10 2.570524e-09 -1.582925e-09 1.705334e-10 -9.639970e-10
-6.251818e-09 3.151357e-09 9.589782e-10 1.096744e-09 1.970852e-10 -1.942744e-10
-6.331622e-09 2.925233e-09 1.026180e-09 1.384054e-09 1.418283e-10 -1.420415e-10
2.659559e-09 -2.711746e-08 -7.568186e-10 2.526253e-08 -2.925887e-08 1.575467e-08
1.268766e-08 -4.383850e-08 3.002878e-09 1.225061e-08 5.576994e-09 -9.496343e-10
1.159392e-08 -4.543204e-08 6.747478e-09 1.333640e-08 5.565860e-09 -8.846905e-10
-7.397930e-09 1.563736e-09 1.979473e-09 6.633014e-10 1.308715e-10 -2.621494e-10
1.952041e-08 -5.198136e-08 5.162157e-09 7.318517e-09 1.029256e-08 1.091760e-10
1.445447e-08 -4.324645e-08 3.579025e-09 1.445174e-08 6.262032e-09 4.186184e-10
-6.405045e-09 2.666418e-09 1.475099e-09 2.301234e-09 6.825167e-10 -4.807101e-10
-7.247371e-09 2.870180e-09 1.289530e-09 1.312696e-09 -4.930721e-12 9.464851e-11
1.906047e-08 -5.058115e-08 3.909120e-09 5.965224e-09 7.784420e-09 4.540908e-10
1.814708e-08 -4.825524e-08 2.816331e-09 8.261718e-09 7.605983e-09 1.206505e-10
1.962740e-08 -5.197240e-08 4.668137e-10 7.365147e-09 1.031488e-08 -5.781931e-10
-5.143907e-09 2.438751e-09 9.514847e-10 2.995511e-09 3.801279e-10 -2.294798e-10
-7.120925e-09 2.875709e-09 1.320261e-09 1.048205e-09 1.871651e-10 -3.116144e-10
-5.424232e-09 2.428222e-09 8.654120e-10 1.988937e-09 4.337795e-10 -3.727679e-10
2.168427e-08 -4.743042e-08 -9.749864e-09 9.583700e-09 1.168419e-08 8.698636e-10
-5.966758e-09 2.801492e-09 1.148008e-09 2.157586e-09 2.268600e-10 -2.173722e-10
-3.801756e-09 2.350559e-09 5.890448e-10 4.188881e-09 5.676091e-10 -3.768654e-10
2.552131e-08 -1.106495e-08 2.608075e-09 -1.868516e-09 4.111238e-10 -5.547164e-09
2.039986e-08 -5.765545e-08 4.559223e-09 1.650593e-08 1.308307e-08 -2.738796e-09
1.869240e-08 -5.219210e-08 7.423571e-09 9.807246e-09 7.995515e-09 -6.875518e-10
1.803379e-08 -6.083268e-09 -2.182900e-09 -6.069960e-09 -3.908278e-10 9.335246e-11
1.933162e-08 -7.617714e-09 -2.154616e-09 -3.657946e-09 -3.504053e-11 -5.377504e-10
5.330791e-09 2.798917e-09 2.390350e-09 1.333935e-08 1.525092e-10 -2.421635e-09
1.645729e-08 -4.465118e-08 2.469261e-09 5.894216e-09 4.716781e-09 -5.833976e-10
1.894651e-08 -4.623680e-08 2.019783e-09 5.700298e-09 6.052771e-09 -1.966404e-11
1.704927e-08 -7.482729e-09 -2.278194e-09 -4.665423e-09 -2.542125e-11 -2.803619e-10
7.720902e-09 -8.868739e-10 2.808675e-09 1.249818e-08 -4.563433e-10 -3.718103e-09
-1.006176e-07 -6.229210e-09 4.432323e-07 -1.119093e-07 -1.551594e-07 3.220240e-07
-3.571603e-07 3.307591e-07 2.321042e-07 -2.119164e-08 -3.513920e-07 1.489219e-07
-2.691427e-07 -5.183125e-08 1.149225e-06 1.210622e-07 1.769888e-07 4.514372e-07
2.054849e-09 -3.781314e-10 -4.033690e-10 5.784860e-09 7.962706e-10 -4.369889e-10
-1.952027e-07 -7.341902e-08 8.508000e-07 3.369852e-08 1.604293e-08 1.847591e-07
-2.685517e-07 -4.119414e-08 8.383344e-07 1.566605e-08 1.571220e-08 1.526887e-07
1.922344e-08 -8.108073e-09 -1.065287e-09 2.288775e-09 5.538597e-12 -1.739615e-09
2.528109e-08 2.726506e-08 1.472534e-07 1.123395e-07 1.229000e-07 2.043758e-07
-2.390284e-10 1.563815e-09 7.192691e-11 6.009026e-09 6.253120e-10 -2.172660e-10
-1.851264e-07 7.217259e-08 7.716672e-07 9.923551e-09 3.103465e-07 -5.350682e-09
2.254295e-08 -9.143486e-09 3.336305e-10 -5.266162e-09 2.788072e-10 -2.404592e-09
1.418317e-08 -4.665094e-09 -1.046671e-09 -1.319450e-08 4.422369e-10 8.698487e-10
1.719793e-08 -9.152597e-09 -6.893344e-10 -5.027364e-09 7.404867e-11 -1.043112e-09
-1.372372e-07 2.977367e-07 -6.800005e-08 2.385526e-08 1.904938e-07 -3.639378e-08
-1.487876e-07 3.152162e-07 2.996237e-08 2.782911e-08 2.025465e-07 -6.303366e-08
6.972405e-09 -1.790024e-09 -1.680192e-09 -9.696040e-09 -8.168191e-10 4.089915e-10
1.422636e-08 -4.978129e-09 -2.538750e-09 -8.583450e-09 -5.385874e-10 4.143093e-10
4.310479e-08 -1.352972e-08 -9.685282e-08 1.803541e-08 8.549164e-08 -6.593565e-09
5.010378e-08 -9.582750e-08 -4.792036e-08 3.170534e-08 9.701025e-08 -1.729010e-08
-7.552928e-09 1.718812e-10 2.034306e-09 -6.928114e-10 6.697404e-10 -5.481988e-10
9.167469e-08 6.390430e-07 2.042084e-07 -4.956638e-08 -6.768059e-07 2.122715e-07
-4.722528e-07 -3.039574e-08 2.114410e-06 2.383873e-07 3.481424e-07 8.057348e-07
4.345137e-08 7.910614e-08 -2.136926e-07 -1.008912e-08 1.345356e-07 1.805436e-08
-1.863296e-07 4.250059e-07 -1.372575e-07 3.171356e-07 -4.347233e-08 -3.388535e-07
4.123569e-09 -2.823112e-10 -9.885928e-10 -8.228629e-09 -5.493683e-10 -6.153367e-11
2.525381e-08 -8.813104e-08 -7.742161e-09 -6.974117e-08 6.413639e-08 2.589811e-08
2.182710e-08 -2.860713e-08 -2.811392e-08 -2.350557e-08 2.809268e-08 6.358179e-09
2.901223e-09 1.615296e-09 -1.172919e-09 -9.049863e-09 -5.620351e-10 -6.933237e-11
2.894146e-09 1.819670e-09 -1.124783e-09 -1.074242e-08 -1.125765e-09 -2.736551e-10
3.767955e-08 -3.972769e-08 -2.839181e-08 1.403933e-08 3.207699e-08 -5.515063e-09
4.249575e-09 -1.160962e-09 -1.014652e-09 -5.996504e-09 -2.045801e-10 1.026166e-10
-2.775361e-08 -1.103310e-07 -1.086684e-07 2.603800e-07 1.934407e-07 -2.168148e-07
9.613625e-10 1.156588e-09 -6.190097e-10 -7.682782e-09 -4.820768e-10 -2.807479e-10
8.899628e-10 1.227240e-09 -7.933052e-10 -7.626044e-09 -8.552391e-10 5.383964e-10
-9.728751e-11 1.501145e-09 -6.572831e-10 -8.125814e-09 -6.280139e-10 3.105916e-10
-4.340048e-09 4.978026e-09 -8.801475e-10 -8.955886e-09 -1.499218e-09 3.954097e-10
-3.814892e-09 2.529916e-08 5.526419e-08 -5.982686e-08 -6.389634e-08 4.007712e-08
-2.843909e-08 5.633847e-08 -5.622235e-08 -1.433659e-08 3.004243e-08 4.152942e-08
-6.772658e-09 4.901492e-09 -3.438263e-10 -8.160244e-09 -8.820103e-10 3.467665e-11
-3.604819e-09 1.910509e-08 -4.529179e-08 1.878157e-08 -3.226119e-08 2.975354e-08
-1.715324e-09 5.352813e-08 -6.879141e-08 -1.552892e-08 -3.940188e-08 3.653901e-08
-6.943058e-09 4.331877e-09 4.855119e-10 -4.718293e-09 -7.516723e-10 -3.784329e-10
-6.295763e-09 4.506121e-09 1.911893e-10 -5.721454e-09 -9.034621e-10 -8.454082e-11
-6.311940e-09 4.738635e-09 1.250746e-10 -5.706613e-09 -5.850382e-10 2.851636e-11
2.138206e-08 -5.207871e-09 -1.615982e-09 -1.252453e-08 1.063576e-09 -4.368961e-09
-6.246369e-09 5.843280e-09 -8.907173e-10 -7.545350e-09 -1.570950e-09 6.826661e-11
-8.742714e-09 -3.634991e-09 3.198679e-09 -6.127553e-09 5.386587e-10 -4.809274e-10
-2.618646e-09 4.449157e-08 -2.963030e-08 -3.242503e-08 -1.149350e-09 1.662152e-08
4.207294e-08 -1.817989e-08 -9.464084e-08 -1.376611e-08 -9.515843e-08 6.636809e-09
-7.893912e-09 5.427824e-09 -3.394667e-10 -6.379962e-09 -2.099548e-09 8.281189e-10
-6.254403e-09 4.388158e-09 -7.541385e-10 -8.080913e-09 -1.361441e-09 -3.218470e-11
-8.003082e-09 4.054879e-09 6.992549e-10 -5.331129e-09 -1.491327e-09 -8.217015e-10
-9.709323e-08 2.197615e-07 -1.655723e-08 -3.533813e-08 1.137761e-07 -5.637658e-08
-6.791915e-09 3.728040e-09 6.225758e-10 -4.164810e-09 -1.739738e-09 1.684728e-10
3.778327e-08 -1.364845e-07 -1.514740e-08 1.341391e-08 -8.588559e-08 1.221150e-08
4.088150e-08 -1.646351e-07 -2.549051e-08 4.078378e-08 -1.222836e-07 2.547334e-08
7.009663e-08 -1.548997e-07 -2.469563e-08 2.251161e-08 -1.188091e-07 1.744848e-08
-6.023113e-09 3.455868e-09 3.479177e-10 -4.748039e-09 -1.148394e-09 -1.950671e-10
-5.748761e-09 4.375166e-09 3.737317e-10 -5.822201e-09 -1.025563e-09 2.517542e-10
-7.543281e-09 2.461468e-09 1.640406e-09 1.283154e-09 3.701156e-10 -4.916221e-10
-7.978762e-09 4.084943e-09 9.191721e-10 -3.521549e-09 -1.284950e-09 1.843547e-10
-1.288377e-08 5.483899e-09 -1.282688e-09 -7.630925e-09 3.383439e-09 1.628067e-09
-9.088655e-09 6.890789e-09 1.923643e-10 4.738320e-09 4.176898e-10 -1.446029e-09
6.896333e-08 -3.403022e-08 -1.418484e-07 1.043723e-09 2.064434e-07 -1.753505e-08
6.703296e-08 4.227885e-08 -1.720634e-07 3.321162e-08 1.295811e-07 -2.985146e-08
7.367486e-08 -1.262675e-07 -1.627692e-07 8.208828e-08 2.354407e-07 -6.353379e-08
-6.940414e-08 8.589083e-09 -7.291110e-08 1.700478e-07 1.495488e-07 -1.159156e-07
1.049010e-08 -3.728178e-09 -2.119016e-11 7.957226e-09 1.168355e-10 -1.745694e-09
5.391892e-08 -7.891647e-09 -1.566612e-07 1.088312e-07 1.863860e-07 -1.236792e-07
6.789286e-08 -2.010382e-08 -1.225318e-07 4.358107e-09 1.205206e-07 -7.166417e-09
1.446263e-07 -4.075929e-07 -1.166431e-07 -5.903774e-08 3.712646e-07 4.627935e-09
4.020854e-08 -2.625823e-07 -1.564254e-08 1.442256e-07 1.493134e-07 -5.656348e-08
6.218936e-09 -3.075442e-09 -8.912407e-10 3.277503e-09 1.823189e-10 -5.652401e-11
1.090273e-07 -1.413630e-07 -7.605812e-08 -2.455030e-08 1.787316e-07 -5.780092e-09
-4.762593e-09 3.014614e-09 9.087926e-10 4.724361e-09 9.909384e-11 -3.791900e-10
-1.473189e-08 1.227553e-08 -8.090543e-09 -3.943903e-09 -5.714068e-09 6.932406e-09
-2.027568e-09 4.147718e-09 -1.143253e-09 -9.070681e-09 -1.186575e-09 -1.484192e-10
8.779220e-08 -2.680647e-07 -4.925643e-08 -3.397627e-08 2.129225e-07 1.134909e-08
-4.462768e-10 1.992314e-09 -5.483259e-10 -4.799178e-09 -1.141691e-10 5.696166e-11
1.535624e-09 6.472970e-10 -6.805219e-10 -6.278687e-09 -7.540640e-10 7.061790e-11
-1.056555e-08 2.330914e-09 2.020995e-09 -1.113505e-09 -1.997163e-09 6.891667e-11
2.935657e-09 6.941218e-10 -6.985249e-10 -6.551204e-09 -7.196263e-10 -2.195955e-10
-8.313942e-09 6.033293e-09 -3.376469e-09 -6.588424e-09 -6.565618e-09 4.625485e-09
-7.739450e-08 3.577418e-08 -2.665316e-08 5.003003e-08 -3.276876e-08 5.749855e-08
-3.879025e-08 3.264061e-08 2.640156e-10 -3.648088e-09 7.794704e-09 1.254192e-08
-3.225995e-09 3.066160e-09 -1.095947e-10 -3.927138e-09 -3.092403e-10 1.205522e-10
-7.382315e-09 1.045222e-08 -1.535761e-09 -1.026184e-08 -3.748086e-09 2.105015e-09
-3.254120e-09 3.833251e-09 9.151035e-11 -4.129403e-09 -5.158552e-10 -2.592601e-10
-5.238755e-09 4.188655e-09 4.323963e-10 -4.455365e-09 -4.505942e-10 -7.432766e-11
-1.251632e-09 2.462075e-09 -2.436513e-10 -5.720113e-09 -6.655409e-10 -3.519767e-10
-2.617583e-09 2.762869e-09 -1.067935e-10 -4.180700e-09 -3.380867e-10 -1.215333e-10
-1.550857e-08 9.685976e-09 -8.630993e-09 4.100622e-10 -6.598294e-09 7.312007e-09
-1.321570e-08 1.086431e-08 -2.669831e-09 -4.695176e-09 -4.205685e-09 5.556449e-09
-1.353727e-08 6.972956e-09 4.084094e-10 -1.786763e-09 -6.631009e-09 4.258701e-09
-2.374142e-09 2.714161e-09 -1.929799e-10 -5.074232e-09 -4.056931e-10 2.555175e-10
3.828090e-09 -2.793942e-10 -1.175650e-09 -8.559731e-09 -6.881298e-10 4.051298e-11
7.406066e-09 -1.722120e-09 -1.468853e-09 -1.023991e-08 -1.683660e-10 1.109814e-10
-5.311464e-09 3.831760e-09 2.500133e-11 -5.893092e-09 -9.322597e-10 1.419058e-10
-1.818916e-09 2.054089e-09 -1.441132e-10 -4.764884e-09 -3.103456e-10 -8.024620e-11
8.824408e-11 1.307966e-09 -4.550589e-10 -4.642197e-09 -3.897549e-10 -3.127356e-10
-2.603705e-09 5.620132e-09 -1.432884e-09 -1.241552e-08 -8.657049e-10 3.276703e-10
-9.192709e-10 1.589181e-09 -3.419254e-10 -3.937681e-09 -2.026703e-10 -2.126566e-11
-4.388845e-10 1.712920e-09 -3.063754e-10 -5.391975e-09 -6.690920e-10 4.050379e-10
1.644049e-09 2.267858e-10 -8.468630e-10 -6.120767e-09 -4.474825e-10 -1.424494e-10
-3.871436e-09 3.845089e-09 1.279208e-10 -4.319499e-09 -4.508889e-10 -4.193952e-10
6.372703e-09 -8.092894e-10 -1.465579e-09 -9.195126e-09 -1.808138e-10 -1.091206e-10
3.341230e-10 1.653806e-09 -3.320909e-10 -6.363098e-09 -4.260801e-10 -4.269832e-10
-8.651896e-10 1.606077e-09 -7.145596e-10 -8.432506e-09 -3.672919e-10 1.121308e-10
-4.984422e-10 1.681415e-09 -5.338443e-10 -6.599130e-09 -3.110048e-10 -1.712541e-11
7.587523e-09 -3.563194e-11 -3.237641e-10 -1.547444e-08 1.495979e-10 -1.069822e-09
9.312747e-09 -1.860738e-09 -2.069438e-09 -1.102222e-08 -8.976226e-10 1.006417e-09
5.617428e-09 1.675194e-09 -2.109249e-09 -1.344022e-08 -1.506449e-09 6.717997e-10
-4.744187e-10 1.589195e-09 -3.374181e-10 -4.004282e-09 -3.743654e-10 5.531964e-10
6.298695e-11 1.144770e-09 -5.225911e-10 -5.099889e-09 -2.791261e-10 2.140277e-11
6.540723e-08 -1.601156e-07 -3.339917e-08 -1.503045e-08 -1.388595e-07 3.974893e-09
6.728978e-09 -2.119382e-09 -1.217031e-09 6.559377e-09 8.079503e-10 -1.255297e-10
2.557096e-08 4.321081e-08 -1.093043e-07 -2.090782e-08 -8.036394e-08 -4.844953e-09
1.404496e-08 3.667449e-08 -8.079871e-08 1.429320e-08 -5.918233e-08 3.988268e-08
3.272658e-09 1.254375e-09 -6.969645e-10 8.200166e-09 1.174039e-09 -1.491185e-09
2.797609e-09 1.219053e-10 -4.609841e-10 7.313936e-09 4.771270e-10 -9.016397e-10
8.309335e-10 8.333237e-10 -1.193821e-10 6.621341e-09 2.973209e-10 -4.695435e-10
1.252359e-09 1.553931e-10 -5.695004e-10 6.072070e-09 8.789989e-10 2.077362e-10
2.682230e-08 -1.094192e-07 -1.370225e-08 3.016216e-08 -6.282709e-08 1.215112e-08
1.173794e-09 1.248447e-10 -4.172052e-10 6.023008e-09 4.125802e-10 -5.003420e-10
3.579957e-08 3.332369e-08 1.759621e-07 9.803466e-08 1.026740e-07 2.220865e-07
3.639866e-09 7.141748e-08 -1.151960e-07 -1.743070e-08 -7.482315e-08 -2.306308e-08
-5.712805e-08 1.238652e-07 -9.451586e-08 -2.174693e-08 4.478802e-09 -9.490706e-09
5.908176e-08 -9.351878e-08 -8.840171e-08 4.821919e-09 -1.428558e-07 1.660068e-08
4.076965e-08 -2.860123e-08 -8.899576e-08 9.309647e-09 -8.804528e-08 2.332845e-08
3.272760e-09 -6.385081e-11 -5.574292e-10 6.726127e-09 6.469480e-10 -1.116291e-10
6.315765e-08 -2.015286e-07 -7.565260e-08 -1.074347e-07 -2.210362e-07 -4.837436e-08
7.252482e-09 -2.845319e-09 -8.790542e-10 6.119834e-09 3.674232e-10 -3.538351e-10
8.524647e-09 -2.661711e-09 -1.041949e-09 6.648041e-09 5.439043e-10 3.353494e-10
2.866567e-09 1.213870e-09 -1.872273e-10 8.578732e-09 8.082111e-11 -1.356442e-09
2.826154e-08 -5.504723e-08 -3.076061e-08 6.892807e-08 6.137097e-08 -3.003665e-08
-7.143386e-09 3.697088e-09 1.315521e-09 2.249132e-09 4.154810e-10 -3.531302e-10
-7.140688e-11 8.353985e-10 -2.487908e-10 6.586671e-09 2.970009e-10 -9.021821e-10
2.183588e-09 9.314177e-10 -2.068663e-10 7.260280e-09 4.903171e-10 -1.756369e-10
6.717284e-09 -2.053259e-09 -6.961525e-10 7.425698e-09 7.179492e-10 1.261751e-10
9.792377e-08 5.275739e-08 -2.762310e-07 2.207122e-08 2.576232e-07 -5.968036e-08
5.266647e-09 -9.185382e-10 -1.461955e-10 7.936246e-09 8.961786e-11 -1.197050e-09
2.018656e-09 -2.446914e-08 -2.922779e-09 2.421620e-08 8.362698e-09 -2.875183e-09
7.372322e-08 -1.361232e-07 -8.423028e-09 -1.894960e-08 1.343910e-07 1.884521e-08
-1.876326e-09 -3.038994e-08 -1.273072e-07 -7.835243e-08 1.255138e-07 6.706162e-08
4.648549e-09 -3.535328e-08 -1.735265e-08 3.983728e-08 2.682768e-08 -1.191600e-08
1.462837e-08 -5.226674e-08 5.344332e-09 1.097433e-08 6.937581e-09 -1.660769e-09
2.757270e-08 -4.036483e-08 -2.719066e-08 1.776679e-08 3.015516e-08 -3.320347e-09
5.045510e-09 -9.093294e-10 -5.413154e-10 6.782935e-09 1.606506e-10 -1.702054e-10
1.194669e-08 -3.655285e-08 3.159550e-09 -9.028896e-09 5.056121e-09 4.388105e-10
-2.271816e-08 1.727284e-08 -1.087490e-10 -4.715014e-09 1.373096e-09 2.508687e-09
3.274313e-08 -8.329399e-08 -5.210007e-09 3.673970e-08 4.829290e-08 -6.576223e-09
1.145158e-08 -4.230292e-08 5.186865e-09 -1.074801e-08 4.844085e-09 5.713374e-10
1.582588e-08 -4.138567e-08 5.256978e-09 -8.660873e-09 4.504396e-09 -5.713158e-11
1.172681e-08 -3.436501e-08 3.784626e-09 -1.312653e-08 3.616204e-09 -4.037521e-10
1.091866e-08 -4.258371e-08 3.533468e-09 -1.355325e-08 6.683445e-09 5.202161e-10
1.175159e-08 -3.464760e-08 -1.191011e-09 -1.313399e-08 6.931476e-09 6.044065e-10
-2.383431e-08 1.367679e-07 -1.428759e-07 3.072071e-09 3.769245e-08 -4.444123e-08
2.589983e-08 6.502691e-08 -1.523963e-07 1.462961e-08 -9.320999e-08 6.950513e-08
1.461234e-08 -4.298834e-08 3.020853e-09 -1.338579e-08 7.229202e-09 1.211408e-09
1.314762e-08 -3.628233e-08 -9.392844e-10 -1.364506e-08 6.268687e-09 1.297041e-09
-9.194696e-10 -1.613200e-08 1.938969e-09 -1.326478e-08 3.987986e-09 -7.129747e-10
-8.997690e-10 -1.640234e-08 4.750539e-09 -1.337504e-08 2.188979e-09 -4.689369e-10
2.669705e-08 -1.058567e-07 -1.941913e-09 2.162485e-08 4.415935e-08 -4.371682e-09
1.844900e-08 -7.627417e-08 -1.067984e-08 -4.632310e-08 4.853955e-08 1.254210e-08
5.878721e-09 -2.890979e-08 1.825541e-09 -1.335829e-08 5.080713e-09 1.171322e-09
3.684013e-09 -2.466073e-08 3.517578e-09 -1.546690e-08 3.085490e-09 3.509145e-10
4.196041e-09 -2.458054e-08 4.245301e-09 -1.218222e-08 1.697086e-09 -5.357038e-10
-5.100491e-09 2.526095e-09 8.420855e-10 2.010660e-09 2.607929e-10 -1.511864e-10
-7.381182e-09 2.658270e-09 1.438538e-09 1.374499e-09 1.599823e-10 -1.316005e-10
-6.748333e-09 2.866336e-09 1.020623e-09 1.292787e-09 3.255570e-10 -5.445916e-10
-8.976728e-10 -2.010573e-08 4.723407e-09 -1.328651e-08 1.484959e-09 -4.309075e-10
-1.753290e-07 -8.707566e-08 6.694105e-07 -2.381536e-08 3.658184e-09 -6.174389e-08
-5.978064e-08 9.268754e-08 -1.584756e-08 -3.271459e-08 -6.538180e-08 -3.548350e-08
1.876413e-09 -2.211890e-08 4.985512e-09 -1.096005e-08 9.943135e-10 -1.006637e-09
8.521934e-08 -2.314993e-07 -1.711190e-07 5.511604e-08 -3.396547e-07 5.380133e-08
-8.533843e-08 5.031424e-08 -2.751008e-08 1.031147e-07 9.472668e-08 -1.597396e-07
-1.809141e-08 1.621963e-07 -7.314478e-08 2.927110e-08 -4.599885e-08 -6.019706e-08
-3.143084e-08 2.051057e-07 -6.731833e-09 -3.819527e-08 1.166249e-07 -8.203763e-08
-3.188068e-09 1.060690e-07 -1.310643e-07 -3.805456e-08 -3.541011e-08 1.429903e-08
8.111411e-08 -1.903984e-07 -4.504717e-08 5.166627e-08 -1.709401e-07 4.889560e-08
-6.841076e-07 8.144506e-07 1.323831e-06 -1.713722e-07 9.304183e-07 -4.319647e-07
-1.145381e-07 9.850783e-08 1.218258e-07 8.298664e-08 1.419550e-07 4.877655e-08
2.022051e-09 -1.209257e-08 9.565635e-08 -1.780990e-08 1.695777e-08 -5.356216e-08
-5.259096e-08 1.519780e-07 -7.690044e-08 1.761112e-09 4.004869e-08 -1.475717e-08
-2.818919e-07 -6.012313e-08 6.243986e-07 7.163811e-08 1.235253e-07 8.064271e-08
-4.201299e-09 5.985960e-08 -5.524587e-08 -3.347284e-08 -1.596975e-08 1.489715e-08
-9.141859e-10 6.011081e-08 -5.829120e-08 -3.249390e-08 -1.223238e-08 2.389811e-08
-2.518813e-07 9.837405e-08 4.158507e-07 -1.403375e-08 2.488698e-07 -2.622941e-08
-6.387502e-12 -5.542379e-08 -6.183075e-09 -5.930437e-08 3.859120e-08 2.131104e-08
2.379812e-08 -6.799893e-08 -1.739237e-08 -4.626549e-08 4.920737e-08 1.528821e-08
-1.233029e-08 -3.143528e-09 -2.188232e-09 -3.011137e-08 1.107608e-08 7.345559e-09
-1.249709e-07 2.804484e-07 -3.124596e-08 1.374496e-07 1.675971e-07 -2.237069e-08
4.101251e-08 -2.738719e-08 -5.981835e-08 1.215893e-08 5.793911e-08 -4.781520e-09
-1.530118e-07 -7.359163e-08 3.318886e-07 5.323104e-08 6.841906e-08 1.889885e-07
-1.774190e-07 4.115886e-07 5.327670e-08 2.877196e-08 3.954646e-07 4.079881e-08
4.042027e-08 -1.296185e-07 -1.090614e-08 -2.859381e-08 7.272158e-08 8.801773e-09
2.429713e-08 -1.108735e-07 -1.272791e-08 -6.452769e-08 7.108701e-08 2.485733e-08
5.189278e-08 -3.677946e-09 -1.314162e-07 -7.083868e-09 1.124564e-07 6.944668e-09
1.038205e-08 -4.033444e-08 6.139806e-09 -1.407265e-08 4.318557e-09 7.406070e-10
1.520933e-08 -4.774372e-08 1.035484e-09 -3.363786e-08 2.968092e-08 6.713726e-09
-3.590838e-08 1.662608e-07 -1.387721e-07 6.113296e-08 7.180282e-08 -4.132303e-08
-1.749015e-08 1.424588e-08 -9.548861e-10 -4.702844e-09 2.594845e-09 2.552536e-09
-1.656206e-07 6.900694e-08 6.695419e-07 4.698681e-08 2.907258e-07 1.303737e-07
-1.411072e-07 -3.276174e-08 3.938750e-07 2.807432e-08 1.803264e-07 1.497015e-07
-3.070683e-08 1.044488e-07 -2.247158e-08 -4.971617e-09 1.680454e-08 -4.593993e-08
8.777192e-09 1.680597e-09 -3.249618e-09 -1.406368e-08 -4.197265e-10 6.010741e-10
-1.911458e-09 5.649394e-09 -1.243786e-09 -1.294352e-08 -1.095540e-09 5.131135e-10
1.764853e-08 -4.254237e-09 -2.129781e-09 -1.151045e-08 -3.413589e-10 -1.106418e-09
-1.373982e-09 6.414516e-09 -2.826315e-09 -1.493696e-08 -1.185533e-09 2.078001e-09
1.433906e-08 -6.644998e-09 -9.057036e-10 -9.437287e-09 2.317070e-10 -1.005876e-09
-1.928274e-07 4.119815e-07 1.295546e-07 2.703829e-08 4.061188e-07 -7.622103e-08
-1.487769e-09 -6.817510e-09 -2.123165e-08 3.278168e-08 2.272255e-08 -9.683478e-09
-1.483094e-07 3.455404e-07 -2.303801e-07 2.908610e-08 7.075210e-09 -1.568925e-07
2.327287e-08 -9.439326e-09 1.478481e-09 -8.608189e-09 1.292307e-09 -4.890356e-09
2.077460e-08 -4.571107e-09 1.420075e-09 -1.716424e-08 1.291886e-09 -3.517332e-09
6.435789e-09 -5.029522e-10 -1.892634e-09 -1.238076e-08 -3.069281e-10 -1.847060e-10
1.882887e-08 -4.921814e-09 -2.483571e-09 -9.096778e-09 -4.506874e-10 -4.661541e-10
8.194455e-09 2.990263e-09 -2.851426e-09 -1.565172e-08 -1.854123e-09 4.164863e-10
-1.048582e-07 2.696397e-07 1.397287e-08 2.382750e-07 1.766217e-07 1.185615e-07
-1.728676e-07 -5.533751e-08 5.115216e-07 5.789598e-09 2.669053e-08 2.194572e-08
-5.104637e-09 -1.034218e-08 3.667457e-09 -1.148303e-08 3.186300e-10 -9.391464e-10
-4.309994e-09 -8.887367e-09 3.039638e-09 -1.018333e-08 1.630267e-09 -5.818956e-10
-3.602804e-09 -1.498954e-08 3.512600e-09 -1.161973e-08 1.887482e-09 -1.417853e-10
-5.878722e-09 -6.944943e-09 2.473406e-09 -1.170228e-08 1.365275e-09 8.663260e-11
-7.028505e-09 -3.718355e-09 2.726420e-09 -6.813517e-09 6.616402e-10 -8.646550e-10
-2.917059e-09 -1.049081e-08 3.434897e-09 -6.638330e-09 1.159043e-09 -5.559725e-10
-2.144316e-08 4.175335e-09 -6.678003e-09 3.650186e-08 2.053626e-08 -1.761364e-08
-6.909688e-09 3.613587e-09 1.291261e-09 2.740537e-09 -8.840573e-11 -3.886693e-10
-3.968031e-09 2.001508e-09 9.733814e-10 3.387250e-09 7.103134e-10 -2.677615e-10
-6.017611e-09 3.090627e-09 1.250195e-09 2.965907e-09 8.194062e-10 -6.299999e-10
-4.674786e-09 2.136940e-09 9.710894e-10 2.279781e-09 3.153893e-10 2.790190e-11
-3.574581e-09 2.135365e-09 6.898526e-10 3.720318e-09 6.819682e-10 -1.918675e-10
-3.031110e-09 -1.098961e-08 3.053173e-09 -1.013965e-08 1.580839e-09 -4.062614e-10
6.150577e-09 -1.379656e-09 -8.553603e-10 7.266280e-09 5.663379e-10 -1.170086e-10
-1.821640e-09 1.918966e-09 3.958012e-10 5.071500e-09 2.756606e-10 -5.898726e-12
-5.239166e-09 1.976287e-09 1.218423e-09 2.269009e-09 5.506802e-10 -4.486978e-10
-7.086110e-09 -3.752795e-09 2.437838e-09 -6.874396e-09 1.376617e-09 -4.539493e-10
-7.197516e-09 -5.745520e-09 2.911270e-09 -7.641987e-09 1.084465e-09 -2.580527e-10
-2.694494e-09 1.771518e-09 3.817135e-10 4.497348e-09 2.212102e-10 -1.273449e-10
2.241443e-09 -6.803065e-10 -4.653862e-10 4.642974e-09 3.489169e-10 -2.853673e-10
-7.039230e-09 1.685461e-09 1.810660e-09 1.062465e-09 3.651210e-10 -5.407501e-10
7.864507e-09 -1.968558e-09 -1.316880e-09 7.355971e-09 1.257873e-09 -5.025313e-10
3.378805e-10 -3.706990e-08 -2.275467e-09 -4.420817e-08 2.621151e-08 1.190709e-08
-1.193049e-08 -2.738073e-09 -3.735249e-10 -3.341593e-08 1.322604e-08 1.012351e-08
1.332574e-09 1.249635e-09 -4.079941e-10 6.493850e-09 8.034931e-10 -3.645482e-10
-1.095378e-08 -2.243353e-09 -3.254292e-08 -5.602154e-08 4.598581e-08 3.793288e-08
-8.778609e-09 1.645255e-09 -1.713854e-08 -3.107934e-08 1.762371e-08 1.621036e-08
1.846361e-08 -7.402267e-09 -2.140347e-09 -3.569002e-09 1.363268e-10 -1.347229e-10
1.649626e-08 -8.358353e-09 -1.196373e-09 2.650203e-10 7.796669e-11 -1.275656e-09
-4.155154e-09 3.424486e-09 5.469365e-10 6.175143e-09 4.047724e-10 -3.458398e-10
2.702281e-08 -9.104727e-09 -2.245550e-09 -5.677190e-09 9.539294e-10 -4.943327e-09
2.160832e-08 -8.492842e-09 3.802225e-09 1.311750e-08 -2.403078e-09 -1.192091e-08
3.375754e-08 -8.594943e-09 1.220573e-09 -1.351176e-08 4.324321e-09 -1.135547e-08
-7.854561e-10 2.986962e-09 -6.969291e-10 -7.885973e-09 -5.579566e-10 7.113074e-11
2.204323e-08 -8.712248e-09 -1.027403e-09 -5.023439e-09 1.714554e-10 -2.281890e-09
1.148005e-08 4.197651e-10 -6.108403e-10 -1.687202e-08 1.037284e-10 -5.889524e-10
1.668450e-09 1.579445e-09 -1.185810e-09 -1.239648e-08 -4.606114e-10 -2.772045e-10
-1.777349e-08 1.433355e-08 -8.073004e-10 -4.863459e-09 1.647049e-09 1.873760e-09
-1.593744e-08 9.408862e-09 7.076906e-10 -2.536315e-09 1.193223e-09 5.300739e-10
2.328310e-09 -9.516526e-11 -1.060505e-09 -8.941613e-09 -5.144207e-10 1.633756e-10
1.696939e-09 1.004983e-09 -9.545496e-10 -8.813418e-09 -1.311813e-09 1.189290e-10
-1.346849e-09 3.249683e-09 -1.125237e-09 -9.614889e-09 -1.924313e-09 5.970004e-10
1.254505e-07 -2.172919e-07 -1.629870e-07 -1.039303e-08 -3.075078e-07 3.563474e-08
-1.462057e-07 2.874568e-07 -2.666398e-07 7.229166e-08 -5.033137e-08 -1.108872e-08
5.937162e-08 -2.485856e-08 7.841203e-08 -4.958545e-08 -4.289438e-08 7.295179e-08
-1.498191e-08 1.060520e-08 -2.580933e-09 -7.739838e-09 4.412278e-09 2.828412e-09
-1.313071e-08 4.981347e-09 4.454082e-11 -9.915438e-09 4.497549e-09 1.689292e-09
-1.360209e-08 7.510735e-09 1.640482e-09 -1.992512e-09 1.081962e-09 -3.930896e-10
3.455356e-09 -4.588613e-08 2.721231e-09 2.754610e-08 1.383236e-08 -5.484731e-09
-1.590344e-08 6.139788e-08 -9.954655e-08 -2.360941e-08 -4.319783e-08 -4.049985e-08
-4.803973e-09 1.023660e-07 -5.117367e-08 1.347210e-08 6.773573e-09 -1.802600e-08
-2.458346e-09 -2.292589e-08 1.375170e-09 2.017007e-08 5.682066e-09 -1.926922e-09
-7.320061e-09 2.859930e-09 -4.098100e-08 -6.092462e-08 -9.016577e-08 -5.882357e-08
1.944848e-08 -4.635447e-08 -2.106796e-09 1.858843e-08 1.703427e-08 -2.391964e-09
2.039073e-08 -5.259677e-08 -1.198532e-09 -1.727058e-08 1.489945e-08 3.775688e-09
2.227106e-08 -2.352779e-08 -4.041862e-08 -2.045830e-08 -3.904016e-08 -7.945094e-09
2.533876e-08 2.275804e-08 -7.308687e-08 -1.863007e-08 -6.169041e-08 -9.902568e-09
1.525352e-08 -6.122449e-08 -2.393835e-08 4.794797e-08 5.374226e-08 -1.639379e-08
1.321013e-08 2.838121e-08 -7.901895e-08 -2.108423e-08 -6.074009e-08 -2.411726e-08
2.664727e-08 2.231620e-08 -1.090718e-07 -1.871304e-08 -8.869825e-08 -6.125496e-09
9.218931e-09 6.270988e-08 -9.725989e-08 -1.686607e-08 -5.999941e-08 -3.066929e-08
-6.427590e-08 1.175954e-07 -8.680710e-08 1.100651e-08 -4.091928e-08 -6.865010e-08
2.226915e-08 -6.462141e-09 -4.054644e-08 -2.055722e-08 -4.017538e-08 -7.960964e-09
7.252304e-09 -6.121683e-08 -5.193254e-09 -4.650029e-08 -4.452519e-08 -1.286763e-08
-8.587428e-09 1.065639e-07 -7.311985e-08 -2.548768e-08 -2.031884e-08 -7.098514e-08
1.311724e-10 8.265504e-10 -5.878311e-10 -4.059785e-09 -9.742895e-11 3.704813e-13
-2.400795e-08 1.418071e-07 -3.409317e-08 1.807341e-08 3.961328e-08 1.609801e-08
2.957416e-09 -3.227089e-10 -8.422512e-10 -4.787871e-09 -3.308314e-10 3.723189e-10
-2.247813e-08 9.198043e-08 -7.697236e-08 -4.703747e-08 -3.515388e-08 -7.442410e-08
-2.941788e-09 2.746448e-09 -1.014338e-10 -4.269358e-09 -4.767528e-10 -3.592453e-10
1.034029e-09 6.506575e-08 -7.334793e-08 -2.687227e-08 -3.788006e-08 -3.970966e-08
-2.964481e-09 2.756119e-09 -1.338929e-13 -4.387990e-09 -3.781809e-10 8.781775e-11
2.926656e-09 1.008122e-09 -1.100959e-09 -9.118402e-09 -1.383093e-09 -3.586032e-11
5.161808e-09 1.490203e-07 -2.202832e-07 -5.154509e-08 -1.557732e-07 -3.058326e-08
-1.052000e-08 5.809852e-08 -8.354779e-08 -3.769140e-08 -5.940915e-08 -3.054601e-08
-1.034753e-08 6.072538e-08 -7.906174e-08 -4.255867e-09 -3.541586e-08 -3.423550e-08
-1.756282e-09 1.973959e-09 -5.470879e-10 -4.968734e-09 -1.134255e-10 4.579825e-11
8.964575e-09 -4.721905e-09 -1.087363e-09 2.894472e-09 1.447153e-10 -2.512768e-11
8.916835e-09 -3.690220e-09 -1.206139e-09 4.712154e-09 3.724306e-10 3.045753e-11
8.410542e-09 -3.759935e-09 -1.069193e-09 4.558644e-09 3.882885e-10 -7.065859e-11
-9.028094e-09 4.402463e-09 -1.616471e-10 -3.860185e-09 -8.507923e-10 -1.957472e-10
1.635994e-09 4.775593e-10 -6.427650e-10 -5.626372e-09 -4.722185e-10 -7.952661e-11
-1.464873e-10 1.489036e-09 -1.771762e-10 -4.783011e-09 -6.199650e-10 -2.050842e-10
9.493935e-09 -5.222262e-09 -1.353660e-09 3.055978e-09 2.325269e-10 1.255622e-10
-4.581170e-09 4.128847e-09 4.274203e-11 -4.338540e-09 -2.979299e-10 -3.769574e-10
-1.298114e-09 2.151751e-09 -3.620240e-10 -6.873186e-09 -6.529085e-10 2.395499e-10
9.092503e-09 -5.090430e-09 -1.095122e-09 2.899118e-09 5.413481e-11 1.909917e-11
8.930711e-09 -4.317796e-09 -1.036085e-09 4.558622e-09 1.079443e-10 -3.011797e-10
2.110866e-09 2.010969e-09 -1.160690e-09 -9.805267e-09 -5.376843e-10 -1.497891e-10
4.584845e-08 4.320070e-08 -1.469084e-07 1.628698e-08 1.164733e-07 -2.052719e-08
3.006794e-08 -5.077867e-08 -2.250850e-08 6.305392e-09 2.438047e-08 1.483265e-09
1.435306e-08 -6.238172e-09 -1.872513e-09 2.498318e-09 8.572568e-11 -1.578018e-10
4.765585e-08 -6.822641e-09 -7.750617e-08 -1.159192e-08 7.347668e-08 4.712126e-09
4.291698e-08 -2.658180e-08 -5.593441e-08 -1.863192e-09 5.315201e-08 1.418106e-09
9.596945e-09 -4.349866e-09 -1.012350e-09 3.372206e-09 3.334972e-10 1.919203e-10
6.453288e-09 -2.793478e-09 -8.075820e-10 3.655307e-09 2.467164e-10 3.729110e-10
9.063656e-09 -3.696272e-09 -1.177662e-09 4.606208e-09 4.489084e-10 5.091057e-10
-1.725857e-08 1.402547e-08 -7.516379e-09 -1.862135e-08 5.681344e-09 6.896915e-09
-1.313241e-07 2.655905e-07 -2.709180e-07 1.231174e-08 6.096691e-08 8.387943e-08
4.770839e-09 -2.201778e-11 -7.833010e-10 7.649273e-09 8.813782e-10 -3.469190e-10
-4.471846e-09 9.693388e-09 -1.254301e-10 7.345106e-09 9.958994e-10 -1.581964e-09
3.658012e-09 4.457520e-09 2.946433e-09 1.420839e-08 -8.335631e-10 -3.191623e-09
-8.779905e-09 6.377048e-09 2.859422e-10 2.604991e-09 1.990328e-09 -1.483688e-09
-5.198566e-09 3.682964e-09 6.701462e-10 4.183291e-09 3.544379e-10 -3.680355e-10
8.770501e-09 -3.762198e-09 -8.269017e-10 4.548878e-09 2.994709e-10 1.836016e-10
-7.841742e-09 -2.358153e-09 2.944192e-09 -4.249280e-09 2.084002e-10 -1.061559e-09
-6.665100e-09 2.321761e-09 1.495464e-09 1.084470e-09 -3.379544e-11 -7.422374e-11
-1.894729e-09 3.313167e-09 -4.073355e-10 -7.903748e-09 -8.770693e-10 2.468554e-10
1.036040e-09 6.001376e-10 -7.092682e-10 -6.131003e-09 -4.663052e-10 -2.180374e-10
2.925416e-09 6.927537e-10 -7.360866e-10 -6.557001e-09 -5.018783e-10 -1.168177e-12
-5.560926e-09 2.147436e-09 1.056790e-09 2.256225e-09 1.647396e-10 -2.281718e-10
2.857719e-09 -2.116600e-10 -9.489416e-10 -6.966407e-09 -2.119407e-10 3.606182e-11
-5.997832e-09 2.709633e-09 1.056812e-09 2.695993e-09 1.684637e-10 -2.238441e-10
-1.807976e-08 1.196270e-08 -9.195821e-10 -5.807067e-09 7.598677e-09 3.046780e-09
1.025480e-09 5.061143e-10 -6.132004e-10 -5.644795e-09 -5.438279e-10 2.722553e-10
-2.933245e-10 2.117142e-09 -5.791829e-10 -6.998010e-09 -7.138422e-10 -1.786331e-10
-4.896533e-09 2.159639e-09 6.820868e-10 2.413122e-09 6.415932e-10 -3.356181e-10
-2.974253e-09 1.548674e-09 4.230918e-10 3.408559e-09 5.658434e-10 2.446848e-11
2.770140e-10 1.901299e-09 -5.099499e-10 -6.199640e-09 -3.234146e-10 1.955602e-10
-3.617177e-09 1.715265e-09 3.671743e-10 2.656510e-09 5.024916e-10 -1.986216e-10
-6.184597e-09 2.151515e-09 1.388287e-09 1.583766e-09 2.299714e-10 -1.072202e-10
-5.740359e-09 2.591719e-09 1.084241e-09 1.869354e-09 2.373076e-10 -2.809047e-10
-6.769141e-09 2.676269e-09 1.249963e-09 1.816037e-09 3.572301e-10 -4.246918e-10
-1.784714e-09 2.081029e-09 -2.701270e-10 -4.733868e-09 -1.714951e-10 4.402079e-11
-1.753393e-09 2.033599e-09 -3.262464e-10 -6.640814e-09 -5.871252e-10 1.213694e-10
2.870236e-09 -1.016144e-09 -9.946078e-10 -7.187849e-09 -7.022952e-10 7.814016e-11
2.103556e-09 4.075054e-10 -1.134897e-09 -1.038605e-08 -4.136486e-10 -2.009511e-11
4.855423e-09 1.000126e-09 -1.566430e-09 -1.117675e-08 -1.013356e-09 -3.986326e-10
2.883432e-09 2.723471e-10 -9.692878e-10 -6.962470e-09 -3.756644e-10 1.740990e-10
-1.681713e-10 1.004688e-09 -5.654783e-10 -7.042594e-09 -6.827058e-10 6.960706e-12
7.000570e-09 -1.410796e-09 -1.603041e-09 -9.286987e-09 -1.579142e-09 6.353836e-10
-5.577355e-09 4.920018e-09 -4.309371e-10 -6.461604e-09 -9.195105e-10 8.185420e-10
2.850058e-09 -1.004667e-09 -1.063416e-09 -7.184317e-09 -4.335767e-10 5.285588e-10
3.695068e-09 -6.524072e-10 -7.854106e-10 -5.297157e-09 -6.260241e-10 -2.051030e-10
-1.056138e-08 2.293657e-08 -1.368337e-08 -1.625062e-08 -3.332525e-09 1.108678e-08
4.669680e-09 -1.113769e-09 -9.026622e-10 -5.977905e-09 -5.975233e-10 3.232850e-10
3.577938e-11 1.068799e-09 -4.443028e-10 -5.158617e-09 -6.177275e-10 -7.041609e-11
-2.038890e-09 6.075254e-09 -2.260977e-09 -1.367342e-08 -2.564175e-09 2.796012e-09
1.066429e-08 2.736341e-09 -1.636779e-09 -1.633339e-08 9.449425e-10 -1.660239e-09
5.893075e-09 -4.356441e-08 -4.164717e-08 5.091117e-08 -6.658252e-08 4.010429e-08
9.708491e-09 -4.400896e-09 -1.587440e-09 -6.195933e-09 -2.472886e-10 -2.258850e-10
5.244308e-09 -1.110724e-09 -1.189531e-09 -7.930698e-09 -5.982783e-10 -8.712553e-11
3.081153e-10 1.236440e-09 -4.213876e-10 -6.223632e-09 -9.279012e-10 -2.867773e-11
2.988144e-08 -5.932941e-09 -1.245123e-07 4.574535e-08 -1.884262e-07 6.791863e-08
-6.707193e-09 5.258634e-08 -6.233671e-08 1.051162e-08 -3.240093e-08 4.087142e-08
1.032636e-08 -3.753908e-09 -1.908391e-09 -7.781648e-09 -4.233098e-10 5.533659e-10
-2.055280e-09 2.336361e-09 -2.155972e-10 -6.877053e-09 -9.525775e-10 -1.042721e-11
3.313956e-09 -2.061382e-10 -9.643035e-10 -7.244168e-09 -2.272742e-10 -7.757817e-11
-2.199774e-08 5.008839e-08 -3.816567e-08 9.803103e-10 -1.749318e-08 3.893089e-08
-2.453345e-08 3.065411e-08 -9.070202e-09 -1.270923e-08 -3.716314e-09 1.649154e-08
-2.780729e-08 4.801945e-08 -1.214547e-08 -4.516959e-09 -1.286479e-08 2.758193e-08
-7.457846e-08 3.134168e-08 -1.879880e-08 4.946242e-08 -3.261904e-08 6.228256e-08
3.383996e-09 3.464835e-08 -5.264477e-08 7.195643e-09 -3.883159e-08 3.056601e-08
1.889497e-10 1.901036e-09 -6.446239e-10 -6.208898e-09 -3.295910e-10 -7.607887e-11
5.687151e-09 -9.091834e-10 -1.100519e-09 -7.780650e-09 -8.236747e-10 2.580434e-10
-2.706533e-08 9.212786e-09 -3.254281e-08 3.916052e-08 -4.348033e-08 4.706347e-08
2.474627e-08 1.501234e-07 -1.622047e-07 1.243364e-08 -9.715550e-08 6.133189e-08
4.063045e-08 -2.656168e-08 -7.126622e-08 8.954771e-09 -1.056914e-07 2.119147e-08
-7.000193e-09 1.153968e-08 -5.085700e-09 -1.263901e-08 -3.104925e-09 4.474063e-09
1.228184e-08 2.986444e-09 7.155228e-09 1.908525e-08 -3.440580e-09 -9.532425e-09
9.169380e-10 3.281055e-08 4.376692e-09 1.515070e-08 -5.022666e-09 -1.470674e-08
6.823772e-09 4.336485e-09 -1.473959e-10 1.578421e-08 -1.965653e-09 -6.522919e-09
-5.584888e-11 1.240342e-08 8.497110e-08 4.446971e-08 -3.949253e-08 -4.693666e-08
6.707150e-09 7.165054e-08 -6.322968e-08 -1.022688e-08 -6.108355e-09 4.287441e-08
-1.877130e-08 5.932938e-09 -1.938957e-09 1.388573e-08 -1.074283e-08 1.058779e-08
-3.054664e-08 4.412410e-09 -2.127236e-09 1.345848e-08 -1.417954e-08 1.491481e-08
-9.879474e-09 1.581256e-08 9.229864e-09 1.983672e-08 -8.677836e-09 -9.004673e-09
3.464968e-09 8.621079e-09 4.391763e-09 1.965053e-08 -4.495748e-09 -1.058799e-08
-1.796906e-08 2.351571e-08 1.564038e-09 1.395819e-08 -2.882638e-09 -1.298288e-09
8.860046e-08 1.243301e-07 -4.866970e-07 -3.878917e-08 3.224092e-07 8.209093e-08
-2.671166e-08 1.125705e-08 -1.902303e-09 2.047998e-08 -1.248054e-08 1.747185e-08
-1.783471e-08 1.721312e-08 -1.343363e-09 -7.259857e-09 3.802607e-09 3.391998e-09
-4.352365e-08 9.648076e-08 -1.101363e-07 -8.314102e-09 6.575166e-10 6.053643e-08
-1.103642e-08 2.233869e-11 -4.753349e-09 -2.825571e-08 -2.104197e-08 -1.210746e-08
-1.305887e-07 2.585036e-07 -4.256412e-08 1.360992e-08 -9.796769e-08 5.224088e-08
-1.208981e-07 1.195424e-07 1.776101e-07 9.585482e-09 -1.387011e-07 -4.164667e-08
1.869761e-08 -3.448146e-08 -7.700772e-09 -3.912416e-08 -4.635870e-08 -1.518370e-08
-1.101436e-07 1.205422e-07 2.751015e-08 -1.185275e-08 -3.714829e-08 4.531460e-08
-1.401610e-07 1.220898e-07 4.188044e-08 -1.804495e-08 -2.192181e-08 7.053737e-08
1.462418e-09 2.049502e-08 -4.992390e-08 -3.791214e-08 -4.196618e-08 -2.833069e-08
4.516925e-08 -1.416983e-07 -4.832804e-08 -9.123204e-08 -1.469857e-07 -4.708358e-08
-3.278595e-08 6.114452e-08 2.553016e-08 3.036683e-08 -3.513119e-08 -2.363941e-08
1.212185e-08 8.374846e-08 9.252223e-08 5.004324e-08 -8.331518e-08 -9.377419e-08
5.953152e-10 -1.899925e-08 -5.282908e-09 -3.597626e-08 -3.265116e-08 -1.535558e-08
1.371726e-08 4.569287e-08 -1.196311e-07 -2.472292e-08 -8.771454e-08 -2.480914e-08
-2.555360e-07 9.845606e-08 7.732791e-07 -1.721778e-08 3.378761e-07 1.798739e-08
-1.158894e-07 2.089894e-07 1.296985e-07 7.115745e-08 -1.237481e-07 1.205299e-08
2.965684e-08 2.223973e-08 9.697467e-08 7.519755e-08 5.850694e-08 9.122344e-08
-1.546173e-08 1.072484e-07 -1.093953e-07 -8.760836e-09 -3.964966e-08 -4.599968e-08
-2.188035e-08 1.308350e-07 -1.270129e-07 -2.200426e-08 -3.070045e-08 -4.203334e-08
-7.411748e-09 7.538752e-10 2.384787e-09 -5.109636e-10 5.771471e-10 -1.085989e-09
-7.217523e-09 1.982048e-09 1.654062e-09 1.141507e-09 2.206052e-10 -5.145608e-10
-5.181994e-09 2.197503e-09 8.449410e-10 2.496026e-09 1.557794e-10 6.578959e-12
-5.851191e-09 2.446787e-09 1.005909e-09 1.734047e-09 2.212466e-10 -1.189268e-10
-1.050578e-07 1.195375e-07 -1.001885e-09 -1.175646e-08 -2.909814e-08 3.100234e-08
7.243100e-09 1.164752e-07 -2.821486e-07 -9.232299e-08 -8.108056e-08 -1.226463e-08
-7.672343e-09 2.160648e-07 -1.830826e-07 9.389919e-08 -1.409611e-07 1.061008e-07
-7.339260e-09 1.054797e-09 2.030766e-09 2.985010e-10 1.985359e-10 -7.796513e-10
-5.967872e-09 2.616176e-09 1.215554e-09 2.664179e-09 5.291129e-10 -4.028688e-10
-6.006717e-09 2.607812e-09 1.083909e-09 2.333622e-09 3.803422e-10 -2.737713e-10
-5.146733e-09 2.452056e-09 7.279151e-10 2.994248e-09 8.202824e-11 -5.858061e-11
-7.296562e-09 1.455348e-09 1.627152e-09 7.179458e-10 -8.104228e-11 -4.455389e-10
-6.085755e-09 2.633601e-09 1.010759e-09 2.402578e-09 7.776304e-10 -2.249178e-10
-3.251416e-09 2.669191e-09 -1.027156e-10 -3.227474e-09 -9.923824e-11 -1.420251e-10
3.291165e-08 6.753691e-08 -1.253802e-07 9.307336e-09 -8.385353e-08 4.386902e-08
2.081637e-08 -5.936853e-08 5.988820e-09 -8.494735e-09 1.394960e-08 5.887327e-10
2.003639e-08 -5.235215e-08 8.676857e-10 -1.582273e-09 1.071165e-08 1.320101e-09
2.074250e-08 -4.863436e-08 1.861490e-09 -8.241664e-09 1.017613e-08 1.009581e-09
3.591395e-08 -5.563206e-08 -2.439764e-08 5.865437e-09 3.518674e-08 -1.111500e-09
2.968640e-08 -7.645139e-08 -6.331079e-09 1.005384e-08 2.899495e-08 -3.295529e-10
2.788575e-08 -5.922702e-08 -3.354826e-09 -6.342787e-09 1.880854e-08 1.305230e-09
2.065523e-08 -5.852066e-08 6.601146e-09 8.700118e-09 1.149391e-08 -1.683447e-09
-3.353320e-08 -2.756457e-08 -1.356599e-08 5.338155e-08 -4.367666e-08 3.485486e-08
2.439029e-08 -6.561870e-08 -1.909609e-09 2.170581e-09 1.791680e-08 -1.015862e-09
2.378428e-08 -5.641662e-08 -1.232745e-09 3.700458e-09 1.685162e-08 2.152218e-10
-1.102005e-08 1.222324e-08 -4.014051e-09 -1.115505e-08 -3.819800e-09 6.518268e-09
2.064752e-08 -4.910700e-08 1.652841e-09 -7.806550e-09 9.839455e-09 1.417146e-09
1.478897e-09 8.906229e-10 -1.118226e-09 -8.989278e-09 -1.449338e-09 -8.309897e-11
1.169091e-10 2.278298e-09 -7.243943e-10 -7.423931e-09 -1.236501e-09 2.082023e-11
1.412879e-10 2.886590e-09 -1.601914e-09 -1.193078e-08 -8.151596e-10 9.803918e-10
2.060310e-08 -5.848498e-08 3.803600e-09 -7.589120e-09 1.311478e-08 1.575565e-09
-2.271357e-09 3.042799e-09 -2.025706e-10 -5.715858e-09 -1.049577e-09 -1.449227e-10
1.694454e-09 1.468613e-09 -1.064406e-09 -8.412841e-09 -4.109442e-10 2.237139e-10
7.872316e-10 1.227719e-09 -4.318227e-10 -6.174011e-09 -9.183399e-10 -7.696532e-11
1.896630e-08 -5.439334e-08 7.369848e-09 -9.932879e-10 8.085128e-09 -4.056175e-10
2.074698e-08 -5.495479e-08 6.228205e-09 -1.865780e-10 9.146423e-09 -3.363363e-10
2.108635e-09 2.707601e-10 -8.569776e-10 -5.390587e-09 -1.860371e-10 -4.514722e-11
-2.672724e-09 2.832963e-09 -2.206686e-10 -7.253027e-09 -3.310743e-10 -7.014878e-11
-1.061608e-08 1.439594e-09 2.340758e-09 -4.850398e-09 9.725412e-10 -1.873010e-10
-8.133808e-09 -3.384455e-09 2.281647e-09 -9.908966e-09 1.168088e-09 -6.197924e-10
-1.154222e-09 1.496783e-09 -1.817939e-10 -4.772970e-09 -6.170342e-10 -1.248387e-10
-1.946080e-09 2.764687e-09 -5.261542e-10 -7.371929e-09 -4.810974e-10 -1.812019e-10
-4.062297e-10 1.685366e-09 -5.739207e-10 -6.638550e-09 -3.104498e-10 -1.326348e-10
1.909630e-09 9.403874e-10 -9.788428e-10 -7.660296e-09 -8.927340e-10 -2.623557e-10
-9.027716e-09 4.764720e-09 1.275413e-09 -8.522205e-10 1.588457e-09 -2.546323e-10
1.203230e-08 -6.706688e-08 -1.559274e-08 -8.806391e-08 -7.893995e-08 -4.051390e-08
3.392031e-09 -1.327109e-07 -4.366237e-08 -1.147786e-07 -1.400427e-07 -5.677590e-08
-1.399219e-08 4.232699e-08 -1.420100e-08 1.143642e-08 -3.988581e-09 -2.051396e-08
-2.596766e-08 2.341032e-08 6.742155e-08 -7.951969e-08 -8.200079e-08 3.574296e-08
-9.169172e-09 5.230509e-09 5.698153e-10 6.473875e-11 1.000078e-09 -1.193765e-10
-1.740783e-08 7.153971e-08 -8.085929e-08 -1.570494e-08 -3.836623e-08 -4.511182e-08
-9.607148e-09 4.893037e-09 1.003121e-09 -8.991818e-12 7.180088e-10 -5.073103e-10
7.475901e-09 -2.839238e-08 -4.577583e-09 -1.886400e-08 9.494208e-09 1.427675e-09
7.364563e-09 -2.856244e-08 -1.596968e-09 -1.850833e-08 7.122873e-09 1.612193e-09
9.218928e-09 -3.491227e-08 -3.093543e-09 -2.481733e-08 1.358363e-08 4.153274e-09
9.911926e-09 -3.082710e-08 1.710101e-09 -1.661743e-08 5.655237e-09 -1.690944e-10
1.324961e-08 2.613482e-08 -7.811089e-08 -2.303658e-08 -5.914047e-08 -2.084171e-08
4.159852e-08 -1.292987e-07 -2.595996e-08 -7.813560e-08 -1.136212e-07 -3.432404e-08
4.553458e-08 -9.756497e-08 -2.486691e-08 -1.398872e-08 -1.028254e-07 2.678329e-10
1.715605e-08 -1.153262e-07 -2.651268e-08 -7.015983e-08 -1.023583e-07 -2.954004e-08
7.265339e-09 -3.263206e-08 -9.737857e-10 -1.787170e-08 6.251411e-09 1.765749e-09
1.169452e-07 1.755227e-08 -1.918105e-08 8.835390e-08 2.849696e-08 3.819370e-07
9.953165e-10 6.250907e-08 -9.794679e-08 -1.529671e-08 -6.047607e-08 -2.560384e-08
-2.703892e-09 1.482311e-08 -3.393592e-09 -2.159176e-08 1.740201e-09 3.847857e-09
5.865021e-09 -3.551025e-08 5.716623e-09 1.324989e-08 2.733937e-09 -7.954014e-10
-3.835475e-09 3.027617e-08 -5.563378e-09 -2.579355e-08 4.937368e-09 5.443614e-09
1.099771e-08 5.938230e-08 -1.249539e-07 3.438889e-08 9.432193e-08 -5.176353e-08
1.228608e-08 -6.504050e-08 2.179129e-09 3.065212e-08 2.481674e-08 -4.689298e-09
-9.582707e-09 1.614484e-08 -1.802796e-09 -1.152524e-08 -2.427546e-09 4.937883e-09
2.548691e-08 -4.828410e-08 -1.642393e-08 7.463546e-09 2.030858e-08 -2.103256e-09
-6.465089e-09 1.715415e-08 -7.111384e-09 -1.674800e-08 -1.444556e-09 6.130918e-09
-2.519394e-08 1.923895e-08 -2.276621e-09 -4.162057e-09 -8.039726e-09 1.879426e-08
8.947987e-09 -3.950120e-08 -1.677103e-09 1.807674e-08 7.627468e-09 -1.325244e-09
-7.675399e-09 3.737748e-09 1.322238e-09 1.426520e-09 7.971803e-10 -9.418622e-11
-7.481548e-09 2.495750e-09 1.606666e-09 8.434839e-10 5.605420e-10 -1.004457e-09
-8.933760e-09 2.404565e-09 1.939895e-09 -1.320207e-09 5.774387e-10 -1.882464e-10
2.798467e-08 -7.349287e-08 -9.591235e-09 -5.821736e-09 3.047533e-08 2.484684e-10
1.048887e-08 -2.378510e-09 2.202960e-08 -3.185973e-08 1.839650e-08 -1.989694e-08
1.495613e-08 2.377209e-08 7.457899e-08 -2.350569e-08 1.988931e-08 -6.748286e-08
-6.581748e-09 3.694302e-08 2.064783e-09 -3.917950e-08 3.603528e-08 -1.314683e-08
1.785508e-08 -4.183860e-08 -1.972298e-08 -3.141257e-08 -4.771563e-08 -1.109136e-08
-2.126832e-08 6.238873e-08 -1.712029e-08 -2.917933e-08 2.198602e-08 1.065993e-08
-5.563255e-09 2.591436e-08 -5.931896e-09 -2.175527e-08 3.665831e-09 6.686664e-09
2.126369e-08 1.755433e-08 1.762408e-08 -3.760836e-08 1.983310e-08 -2.125002e-08
-8.640033e-10 3.936113e-08 -6.668601e-08 -2.303107e-08 -4.722022e-08 -2.864183e-08
1.432488e-08 -3.281421e-08 -4.011818e-09 2.045965e-08 8.202426e-09 -1.443051e-09
-7.646919e-10 -1.027707e-08 -1.929595e-08 3.238179e-08 2.164149e-08 -1.113094e-08
1.381752e-08 -4.067531e-08 -3.863556e-09 1.639118e-08 8.958240e-09 -1.646108e-09
-4.951532e-08 5.987308e-08 -2.175547e-08 -7.866936e-09 -1.989979e-09 2.122352e-08
3.607346e-08 2.734011e-08 -1.197044e-09 -4.717535e-08 2.005755e-08 -2.472492e-08
5.130260e-09 -4.558301e-08 4.930271e-09 -3.177649e-08 1.514142e-08 6.391616e-09
2.785565e-08 -7.688962e-08 -1.580036e-09 -5.153862e-09 2.709542e-08 1.712223e-09
4.836254e-08 -9.997380e-08 -7.437133e-09 3.899328e-08 8.572666e-08 -1.813402e-08
1.163863e-08 -3.287243e-08 -1.231894e-08 -2.573067e-08 1.485511e-08 5.476325e-09
2.655308e-08 -5.152666e-08 -2.320043e-08 -1.298747e-08 3.116906e-08 3.813162e-09
1.214060e-08 -4.002009e-08 6.238817e-09 -1.328822e-08 4.025683e-09 -1.761687e-10
-3.151544e-08 4.003758e-08 -1.189809e-08 -1.569640e-08 6.308279e-09 1.580026e-08
1.136704e-08 -3.549860e-08 -9.283414e-09 -2.484569e-08 1.486800e-08 5.756308e-09
1.557238e-08 -4.424836e-08 -7.552229e-09 -1.685401e-08 1.450963e-08 1.601938e-09
2.123406e-08 -7.701192e-08 2.808456e-09 -6.865097e-08 7.629779e-08 3.045969e-08
2.184129e-08 -1.711645e-08 -3.395501e-08 -2.425616e-08 3.656556e-08 9.037065e-09
-1.635810e-08 1.139260e-07 -1.005153e-07 -2.310317e-08 -4.694850e-08 -6.285116e-08
-1.550390e-08 4.764864e-08 -5.268203e-08 -4.275588e-09 -3.116177e-08 -3.281593e-08
1.102811e-07 4.575818e-08 1.544320e-07 -1.204866e-07 -1.342788e-07 1.858887e-07
1.031521e-07 -7.191071e-08 -1.075294e-07 2.576461e-08 -1.804919e-07 2.554663e-08
1.583455e-08 -4.828134e-08 2.365804e-09 -8.586531e-09 9.123119e-09 -1.507208e-10
1.571020e-08 -7.890817e-09 3.795679e-10 5.261599e-09 -1.476200e-10 -2.307794e-09
2.037337e-08 -6.296364e-08 1.425282e-09 -1.792250e-08 1.995543e-08 3.918227e-09
6.419020e-08 8.545614e-08 -3.847159e-07 -5.573466e-08 2.602378e-07 3.615558e-08
9.061307e-09 -4.276060e-08 4.383531e-09 -2.355629e-08 1.116052e-08 3.057200e-09
2.039008e-08 -5.235352e-08 5.942982e-09 -1.725781e-08 1.284421e-08 3.551438e-09
-1.209542e-08 5.763969e-09 1.459659e-09 -3.240844e-09 2.134948e-09 -6.840745e-10
-1.354955e-08 1.196558e-08 5.398038e-11 9.861547e-10 9.828008e-10 1.147088e-10
1.480766e-08 -4.635030e-08 6.448074e-09 -1.496084e-08 9.570564e-09 4.164712e-10
-4.917054e-08 9.159278e-08 -2.403395e-08 4.608363e-09 1.530826e-08 3.678628e-08
6.820006e-09 -3.943570e-08 5.091263e-09 1.780292e-08 7.401323e-09 -2.155108e-09
1.092150e-08 -3.826725e-08 1.278181e-09 2.074017e-08 7.823240e-09 -2.307045e-09
5.475820e-09 -4.311807e-08 4.421305e-09 3.021882e-08 1.603265e-08 -3.194693e-09
-2.907927e-10 2.330417e-09 -1.148726e-11 7.516788e-09 5.739495e-10 -1.402565e-09
-1.107277e-08 1.353105e-08 2.443614e-09 7.912757e-09 -2.343150e-09 -2.081779e-09
-3.989309e-09 3.208414e-09 8.056924e-10 5.503569e-09 6.949129e-10 -7.135661e-10
-1.332060e-08 1.317776e-08 5.221672e-10 4.275746e-09 -1.475716e-11 -7.054320e-10
1.847196e-08 -1.117365e-08 2.704526e-08 -1.697651e-08 7.750432e-09 -1.994844e-08
1.866806e-08 -5.515127e-08 -2.491218e-09 1.561788e-08 1.509938e-08 -2.949606e-09
1.715204e-08 -5.411720e-08 -1.046077e-08 2.419247e-08 2.469572e-08 -3.828783e-09
-4.220892e-09 4.923799e-09 -1.035153e-09 -9.534145e-09 -2.714198e-09 1.233829e-09
6.109965e-09 2.121637e-09 -1.453717e-09 -1.413790e-08 -4.995464e-10 4.061993e-10
6.789257e-09 -3.739990e-09 -7.968328e-10 4.370540e-09 2.407827e-10 1.621246e-12
-4.718779e-09 1.229703e-08 -3.264030e-09 -1.369135e-08 -3.404169e-09 3.612292e-09
-1.796847e-08 2.410143e-08 -1.325020e-08 -1.602256e-08 -1.088144e-09 1.608769e-08
6.425728e-09 -2.867046e-09 -7.865579e-10 3.812481e-09 3.402104e-10 -3.445755e-11
-1.429807e-08 1.099151e-08 -9.796533e-09 2.703541e-09 -7.277536e-09 8.187859e-09
1.781339e-09 1.114483e-08 -5.565151e-09 -1.952773e-08 -1.491524e-09 2.269585e-09
-3.057709e-09 1.439032e-09 4.472973e-10 2.254069e-09 2.627658e-10 -4.792692e-10
5.781438e-09 -2.833591e-09 -8.216690e-10 3.738045e-09 3.007576e-10 3.104643e-10
4.212147e-09 -1.909111e-09 -5.213290e-10 5.060607e-09 5.935943e-10 4.604427e-10
-6.063920e-09 2.299531e-09 1.440376e-09 2.001105e-09 2.539506e-10 -4.184832e-10
5.352988e-09 -2.305464e-09 -7.768408e-10 4.540093e-09 2.663263e-10 -1.331928e-10
-1.916937e-09 1.103532e-09 1.601062e-10 4.532073e-09 4.569253e-10 -1.634390e-10
-6.445351e-10 8.183498e-10 -4.477529e-12 3.830444e-09 1.476773e-10 -9.615908e-11
6.067391e-09 -2.019706e-09 -1.068954e-09 5.281758e-09 5.456591e-10 -4.525563e-11
-6.138623e-09 2.638756e-09 9.888685e-10 2.583986e-09 1.679704e-10 -3.688702e-10
-3.798247e-09 2.267434e-09 5.427292e-10 3.726575e-09 1.016660e-10 -4.804823e-12
-5.195200e-09 2.429101e-09 6.567051e-10 2.111504e-09 3.204773e-10 -3.672596e-10
4.557147e-09 -1.845458e-09 -6.584160e-10 5.209304e-09 6.246023e-10 5.518607e-10
5.802824e-09 -2.543070e-09 -6.700369e-10 5.313182e-09 1.067947e-10 -3.115852e-11
5.939114e-09 -2.310083e-09 -7.647554e-10 4.770801e-09 8.292299e-11 -3.710627e-10
1.711957e-08 -1.560673e-08 -5.604189e-08 4.772376e-08 5.179320e-08 -2.244321e-08
1.699572e-08 -1.601923e-08 -4.155937e-08 4.795410e-08 6.677963e-08 -2.917958e-08
2.243302e-08 -3.518632e-08 -3.519242e-08 3.609398e-08 3.678030e-08 -9.626049e-09
3.165319e-09 -3.617819e-08 2.140143e-09 2.257789e-08 9.464375e-09 -3.457966e-09
-5.296751e-10 -3.221793e-08 3.693414e-10 4.492172e-08 2.442893e-08 -8.422633e-09
-1.149473e-09 -1.704701e-08 -2.339846e-08 4.645670e-08 4.115220e-08 -2.650066e-08
-8.214766e-09 -4.671960e-08 -1.106949e-08 -5.749476e-08 -4.999667e-08 -2.206979e-08
-9.474017e-09 2.705364e-08 -3.755865e-08 -1.461265e-08 -2.961638e-08 -1.760556e-08
-1.142119e-09 2.796828e-08 -3.643227e-08 -2.126452e-08 -2.848990e-08 -2.256521e-08
3.158207e-08 -6.989234e-08 -9.158733e-09 5.411678e-08 5.862277e-08 -1.933604e-08
4.364310e-10 2.904019e-08 -3.659611e-09 -3.146454e-08 7.072923e-09 3.353500e-09
2.291034e-08 -5.489895e-08 -1.287459e-08 -1.817276e-08 3.039434e-08 6.037171e-09
3.089195e-08 -6.193863e-08 1.431375e-09 -1.655381e-08 2.818031e-08 4.796844e-09
-6.517788e-09 6.303968e-08 -2.776246e-08 2.592467e-08 -3.979840e-09 -1.821180e-08
3.287125e-08 -3.857312e-08 -2.549496e-08 -1.039042e-08 3.543116e-08 3.070912e-09
2.430392e-08 -3.851444e-08 -1.346328e-08 -2.648210e-08 3.143457e-08 6.868539e-09
-1.263764e-08 2.068897e-08 -1.901459e-08 -1.911081e-08 -1.874251e-08 -1.278655e-08
2.189460e-08 -3.513324e-08 -3.264641e-08 -2.676254e-08 3.431412e-08 7.924398e-09
3.696359e-08 -5.892822e-08 -4.106018e-08 -1.340041e-08 4.833312e-08 3.418940e-09
2.625328e-08 -6.358297e-08 -2.436181e-08 -3.773766e-08 4.807815e-08 1.537150e-08
2.275180e-08 -3.257645e-08 -5.817261e-08 -4.489624e-08 -9.047015e-08 -2.633389e-08
1.562844e-08 -5.904359e-08 9.123221e-10 -3.178115e-08 2.641095e-08 8.023086e-09
2.281659e-08 -4.893096e-08 4.092342e-09 3.226097e-09 8.341418e-09 -4.089586e-10
-2.761038e-09 4.604473e-08 -7.462138e-08 -3.255428e-08 -7.954698e-08 -4.575822e-08
2.720090e-08 -6.575401e-09 -2.687255e-09 -9.096939e-09 -2.347106e-10 -2.639375e-09
2.036947e-08 -4.639750e-08 -3.228251e-09 -1.780658e-08 1.710098e-08 3.149351e-09
9.571117e-09 1.543751e-08 -6.261037e-09 -2.501024e-08 3.411430e-09 5.560533e-10
1.729865e-08 -5.172921e-08 4.577136e-09 -1.773156e-08 1.286017e-08 1.367950e-09
1.250789e-08 -2.355238e-08 -1.360725e-08 -2.546900e-08 1.591821e-08 5.486840e-09
2.775299e-08 -1.174498e-08 6.436085e-09 -1.098009e-08 2.986674e-09 -9.587322e-09
2.838855e-09 8.627761e-08 -1.753789e-07 -1.828699e-08 8.226229e-08 6.125771e-08
1.972936e-08 4.130451e-08 -1.233030e-07 -3.199181e-08 9.188350e-08 3.312421e-08
3.133067e-08 -5.444197e-08 -2.346123e-08 -1.541859e-08 3.319045e-08 2.712629e-09
3.090244e-08 -8.381706e-08 -5.103830e-09 -1.698261e-08 4.014741e-08 5.017248e-09
-6.248684e-09 2.830700e-08 -9.734404e-09 -4.170620e-08 1.055647e-08 5.721221e-09
2.387950e-08 -5.640319e-08 -1.084402e-08 3.612555e-09 1.834216e-08 -3.733986e-10
3.375353e-08 -7.511536e-08 -1.249775e-09 -1.912271e-09 2.620352e-08 2.891873e-11
-1.762711e-09 2.558019e-08 -1.058069e-08 -3.381819e-08 9.000564e-09 9.157446e-09
2.502685e-08 -5.476939e-08 -1.105446e-08 -5.030397e-09 1.935458e-08 1.361960e-09
3.490649e-09 8.407139e-10 -8.295972e-10 7.793489e-09 8.196590e-10 -5.865268e-10
-1.913118e-08 1.382254e-08 -5.642395e-09 -1.379422e-08 4.920752e-09 4.672621e-09
1.643844e-08 -3.482772e-08 -2.731796e-08 2.935786e-08 3.209137e-08 -5.700763e-09
2.313251e-08 -5.110897e-08 -1.422265e-08 2.122218e-08 2.380091e-08 -6.163008e-09
-7.601941e-09 -4.293568e-09 2.901620e-09 -4.345413e-09 7.362945e-10 -8.289369e-10
-9.414350e-09 8.376054e-09 7.603185e-10 3.791588e-09 6.250851e-10 -2.522472e-10
3.466863e-08 -5.597761e-08 -3.933537e-08 2.190623e-08 4.540389e-08 -9.783122e-09
4.172825e-08 -6.802539e-08 -4.451480e-08 3.090648e-08 8.677100e-08 -1.874783e-08
9.753913e-09 -2.480870e-09 -4.819114e-10 8.975434e-09 3.042140e-10 -3.694065e-10
-5.840356e-09 -4.400055e-09 3.050099e-09 -4.732492e-09 8.967921e-10 -1.357720e-09
1.063902e-08 -2.948267e-09 -7.918599e-10 8.810090e-09 6.448725e-10 -1.495358e-09
1.553810e-08 -5.871823e-09 -1.011976e-09 7.422013e-09 -1.465171e-10 -2.218568e-09
1.209737e-08 -3.030072e-09 -1.025895e-09 9.061412e-09 7.832834e-10 -1.938850e-09
3.616002e-08 -5.638770e-08 -3.012590e-08 -2.084154e-08 -5.783774e-08 -6.724875e-09
1.283518e-08 -3.569883e-09 -1.416818e-10 1.055203e-08 1.681207e-10 -1.903354e-09
1.462985e-08 -3.464454e-09 -2.065636e-09 1.011274e-08 -7.876293e-12 -1.451277e-09
1.220613e-08 -2.428698e-09 -2.304201e-11 1.095689e-08 -4.939309e-11 -1.247820e-09
1.584975e-08 -6.142213e-09 3.589999e-10 7.661107e-09 3.777126e-10 -1.838124e-09
2.001093e-08 -4.088575e-08 -1.107981e-08 1.816368e-08 1.637869e-08 -1.772013e-09
1.104138e-08 1.768077e-08 2.188881e-08 -3.664433e-08 1.876856e-08 -2.028055e-08
1.652298e-08 -7.964006e-09 -2.461442e-09 1.518349e-09 1.760659e-10 -1.104366e-09
1.264204e-08 -6.724521e-09 -1.808495e-09 -1.948463e-09 -4.559919e-11 5.720669e-11
5.141835e-09 -1.603453e-09 -1.090696e-09 -5.701608e-09 -2.669474e-10 -1.177602e-11
-2.469345e-08 -1.366514e-08 -4.317439e-08 -7.794110e-08 -9.247930e-08 -5.553393e-08
2.922457e-08 -1.150139e-07 -6.944135e-09 -3.841826e-08 -6.106143e-08 -1.002295e-08
1.066858e-08 -5.105200e-09 -1.391077e-09 -4.460571e-09 -4.315218e-10 5.020269e-10
4.733478e-08 -6.188265e-08 -7.593222e-08 -3.173543e-08 -1.270166e-07 -1.098521e-08
1.445535e-08 -6.859060e-09 -1.485714e-09 -2.306381e-09 -1.224855e-10 4.310019e-10
4.366591e-08 -2.438679e-08 -5.778837e-08 -1.942388e-08 -8.962270e-08 -1.085863e-08
3.162715e-08 1.002465e-07 -1.341762e-07 -5.122740e-08 -8.658829e-08 -3.530329e-08
1.191674e-08 -5.134816e-09 -1.584700e-09 -4.521550e-09 -2.783721e-10 8.021256e-11
1.003934e-08 -5.007283e-09 -1.539145e-09 -4.011807e-09 -1.329370e-10 -2.473644e-11
-1.210237e-08 9.048274e-08 -1.609645e-08 -5.482057e-08 -1.020244e-08 -1.755714e-08
1.116796e-08 -5.335335e-09 -1.552948e-09 -3.438759e-09 -2.804443e-10 5.194100e-10
1.154463e-08 -6.081702e-09 -1.545450e-09 -3.927181e-09 -1.358120e-10 1.655032e-11
2.640739e-08 5.571673e-08 -1.118974e-07 -7.612316e-09 -6.146694e-08 1.778910e-08
4.028967e-09 -3.400535e-08 5.407393e-09 3.116564e-08 1.251669e-08 -2.803393e-09
1.209625e-08 -5.837495e-09 -1.623749e-09 -5.033211e-09 -2.983813e-10 3.801688e-10
1.501747e-08 -6.988818e-09 -1.823064e-09 -2.372618e-09 1.801403e-11 4.989125e-10
1.170156e-08 -4.935820e-09 -1.736306e-09 -5.005169e-09 -3.241818e-10 9.751333e-11
2.678635e-08 -7.376907e-08 3.116257e-09 1.938115e-08 2.396415e-08 -3.027660e-09
1.191918e-08 -5.134406e-09 -1.512272e-09 -4.522850e-09 -3.276387e-10 1.374552e-10
1.007484e-08 -4.967996e-09 -1.588050e-09 -4.617107e-09 -1.729536e-10 -1.067949e-10
3.811976e-08 3.394234e-08 -4.190935e-08 -5.059829e-08 -2.795452e-09 1.567589e-08
5.085913e-08 2.371524e-08 2.761442e-08 -7.185002e-08 -5.784426e-08 6.942848e-08
-4.526737e-08 5.569513e-08 6.423707e-08 -4.890209e-08 -5.161691e-08 1.401207e-08
1.962247e-10 2.226481e-08 1.075403e-08 -7.661010e-08 -6.251037e-08 7.676491e-08
4.660402e-09 -3.393659e-08 2.484997e-09 1.732010e-08 5.299305e-09 -1.953520e-09
-7.165509e-10 -2.465551e-08 5.668606e-09 1.778111e-08 3.632928e-09 -1.318047e-09
-1.233189e-10 2.306408e-08 1.353668e-07 -7.749507e-08 -7.271105e-08 9.075061e-08
1.987365e-08 -4.350790e-08 -9.891059e-10 8.361119e-09 6.319019e-09 -5.619376e-10
1.589099e-08 -4.541840e-08 4.828100e-09 4.017077e-10 3.079647e-09 1.009526e-11
1.867073e-09 -6.051160e-08 -3.056185e-09 6.577913e-08 5.072796e-08 -2.852777e-08
-2.800980e-09 -3.206086e-08 4.010188e-09 2.178687e-08 8.579027e-09 -2.039947e-09
2.623508e-08 -2.966470e-08 -3.878996e-08 2.324763e-08 3.569480e-08 -4.800975e-09
-3.797934e-08 5.635329e-08 7.897651e-10 -6.204337e-08 -3.341160e-08 -2.086771e-08
1.413878e-08 2.529681e-08 1.274060e-07 -6.066742e-08 -6.464438e-08 8.692008e-08
4.365740e-09 1.340930e-08 -2.567276e-09 -2.543306e-08 3.885892e-09 -4.378647e-10
-1.235295e-07 1.493928e-07 -2.612332e-08 -3.580336e-08 -3.232171e-08 -8.725436e-08
6.331441e-09 -2.660515e-08 -5.901462e-10 1.927824e-08 5.639905e-09 -1.421110e-09
-5.808907e-09 1.240428e-08 -3.251732e-08 3.281414e-08 2.839833e-08 -1.878185e-08
-4.977199e-09 1.716567e-07 -6.113553e-08 -1.025291e-07 -1.334223e-07 4.325586e-08
1.800600e-07 1.912106e-07 2.046149e-07 -2.634745e-07 -2.383798e-07 2.962619e-07
8.082607e-09 6.224366e-08 1.502976e-07 -1.074704e-07 -1.201655e-07 1.385801e-07
-4.702749e-08 6.930606e-08 -6.451289e-09 -9.948659e-09 -3.529746e-09 1.977580e-08
1.896042e-08 -4.180862e-08 -1.154132e-08 1.611171e-08 1.825731e-08 -1.031479e-09
1.323254e-08 -4.276059e-08 4.070942e-09 9.700897e-09 4.042708e-09 -1.825707e-09
2.197293e-08 -4.896720e-08 -6.112021e-09 7.402039e-10 1.186476e-08 -6.310897e-11
-3.987711e-08 2.990457e-08 -1.873458e-08 -2.501512e-08 1.524559e-08 2.448610e-08
-4.832520e-08 1.899692e-08 2.000865e-08 -6.634865e-08 1.225562e-08 4.709641e-08
-5.547948e-08 3.179833e-08 1.603066e-08 -2.766612e-08 -2.895564e-09 2.265569e-08
2.354031e-08 -5.639796e-08 -2.760898e-09 3.174770e-09 1.549588e-08 -3.956333e-10
-2.220378e-08 -1.295015e-08 -5.770023e-08 -1.015470e-07 7.955024e-08 6.934058e-08
4.126990e-08 -8.485718e-08 -2.375551e-09 1.775575e-08 5.121653e-08 -4.621353e-09
-2.225538e-08 1.491565e-08 -4.688882e-09 -7.025516e-09 5.410188e-09 5.242869e-09
-4.406373e-08 -1.830216e-08 -3.419079e-09 -7.749151e-08 4.732350e-08 4.906212e-08
5.993561e-11 4.752351e-10 -1.624132e-10 5.507766e-09 5.214857e-10 1.640758e-10
1.922441e-09 1.128975e-11 -2.653060e-10 5.594861e-09 2.387186e-10 -1.440652e-10
-6.653118e-10 9.719027e-10 1.756479e-10 4.436664e-09 4.337637e-10 -3.335722e-10
5.731788e-10 5.721521e-10 -5.626222e-11 4.297488e-09 5.352175e-10 -2.088796e-11
1.088374e-10 5.041426e-10 -2.424003e-10 5.548712e-09 3.084857e-12 -8.622656e-10
9.836738e-10 -2.582488e-08 5.935413e-09 1.425850e-08 1.346084e-09 -2.798848e-10
1.862857e-08 -6.377650e-08 5.503839e-09 1.085814e-08 1.294807e-08 -1.057936e-09
1.274602e-08 -5.703568e-08 7.743755e-09 1.995728e-08 9.701985e-09 -8.390258e-10
2.963668e-09 -2.440950e-08 -9.712522e-09 2.834231e-08 1.368272e-08 -5.749125e-09
1.549364e-08 -4.215571e-08 -7.684475e-11 2.337712e-08 1.465330e-08 -2.936681e-09
2.027308e-08 -7.139339e-08 4.078610e-09 1.986615e-08 2.236876e-08 -2.504295e-09
3.342778e-09 -3.258258e-10 -3.328302e-10 5.593204e-09 4.212552e-10 6.772772e-11
-3.109725e-09 1.754720e-09 5.772389e-10 3.478238e-09 2.931259e-10 -1.093965e-10
2.205108e-08 -4.951640e-08 1.758260e-11 1.035246e-08 1.138460e-08 -1.103488e-10
2.003909e-08 -5.633060e-08 3.039455e-09 1.750586e-08 1.272237e-08 -1.667616e-09
4.041704e-08 -4.714310e-08 -4.807307e-08 2.863660e-08 7.821257e-08 -1.449968e-08
8.950618e-10 5.943354e-10 1.253775e-10 4.618680e-09 2.889684e-10 -3.766010e-10
-2.738613e-09 1.367032e-09 4.542839e-10 4.282378e-09 5.288155e-10 -3.946653e-10
-2.700248e-09 1.617700e-09 2.482596e-10 3.506580e-09 2.624709e-10 -5.078085e-10
-2.771910e-09 1.438889e-09 3.296960e-10 2.231780e-09 1.809422e-10 1.831762e-11
-1.877032e-09 1.643782e-09 3.875700e-10 3.892209e-09 2.989433e-10 -4.281673e-10
2.344281e-08 -5.648838e-08 -2.561816e-08 4.081427e-08 5.794170e-08 -1.900300e-08
3.375361e-08 -1.136421e-07 -1.044875e-08 -2.322185e-09 5.168390e-08 -1.092855e-09
3.128428e-08 -8.613076e-08 -6.447103e-09 3.452034e-08 5.065576e-08 -5.178013e-09
-1.087034e-09 1.110149e-09 2.398992e-10 3.469151e-09 4.637263e-10 -1.531903e-10
-1.494807e-09 -3.854055e-08 -2.899842e-08 6.337258e-08 5.313038e-08 -2.856865e-08
3.818171e-08 -9.113902e-08 -1.154440e-08 3.530715e-08 8.390199e-08 -1.012369e-08
-7.425607e-10 5.527134e-10 1.472331e-10 3.913457e-09 2.357518e-10 4.845840e-11
4.253019e-08 -2.890876e-08 -8.398684e-08 4.168297e-08 8.206974e-08 -2.060674e-08
-8.424960e-08 1.072554e-07 -1.380227e-08 -3.625581e-09 1.687064e-08 -8.101088e-08
3.134386e-08 -1.209675e-07 -2.030132e-09 4.699414e-08 5.593515e-08 -1.122231e-08
5.080169e-08 -3.744359e-08 -1.118415e-07 7.047916e-09 1.146962e-07 -4.097863e-09
3.624191e-08 -3.771511e-08 -5.021939e-08 -1.066738e-08 5.093384e-08 6.944215e-09
4.145626e-08 -9.223189e-08 1.127138e-10 -2.286198e-08 5.889328e-08 9.658354e-09
3.764373e-08 -9.492202e-08 -1.201568e-08 -2.251546e-08 4.920491e-08 7.404426e-09
-1.787466e-09 1.139544e-09 2.437179e-10 3.394577e-09 4.432091e-10 -4.482859e-12
-3.182730e-09 1.663958e-09 5.970549e-10 3.047160e-09 3.587557e-10 -3.488572e-10
-2.391740e-09 1.659993e-09 5.132681e-10 3.071619e-09 6.468759e-11 2.676337e-11
3.719205e-08 -8.162566e-08 -4.279934e-09 2.922770e-08 5.383034e-08 -8.760380e-09
2.456169e-10 -1.046456e-10 -6.312062e-11 2.967941e-09 3.990777e-10 -2.318167e-10
-2.238865e-09 1.620331e-09 9.983769e-11 3.926715e-09 5.170370e-10 -2.573615e-10
-2.306515e-09 1.483712e-09 2.887486e-10 3.038693e-09 2.636390e-10 6.260975e-11
-2.680481e-09 1.572695e-09 3.299767e-10 3.498978e-09 4.255138e-10 9.555812e-11
-1.862252e-09 1.578198e-09 1.348732e-10 3.651545e-09 4.436440e-10 -1.416583e-10
-8.101626e-10 5.700975e-10 -6.488698e-11 3.840174e-09 2.891814e-10 -2.973526e-10
1.379220e-08 -8.526525e-08 8.585130e-09 4.613746e-08 2.940983e-08 -1.048741e-08
1.419585e-08 -3.102820e-08 -2.125556e-08 2.882091e-08 2.489865e-08 -8.869201e-09
3.113685e-08 -6.191222e-08 -1.071005e-08 -1.645623e-08 2.864493e-08 4.980975e-09
1.160428e-07 -4.282501e-07 -4.233054e-08 1.126382e-07 2.939545e-07 -6.591966e-08
3.174615e-08 -2.817985e-08 -7.113734e-08 2.940870e-08 7.279098e-08 -1.566230e-08
2.409130e-08 -3.834663e-08 -3.271220e-08 -2.665411e-08 3.310375e-08 8.891731e-09
3.785572e-08 -1.097823e-07 -4.288698e-09 5.573560e-08 7.478636e-08 -1.783145e-08
1.529272e-08 -4.054485e-08 -2.943711e-09 -1.525538e-08 9.196100e-09 2.532170e-09
-9.492646e-08 4.150547e-08 -1.054478e-07 2.797694e-07 2.172881e-07 -2.198158e-07
1.770190e-08 -4.942263e-08 6.467474e-09 -8.759862e-09 6.555181e-09 -2.046196e-10
1.701723e-08 -4.832139e-08 2.022319e-09 -8.226135e-09 8.992624e-09 4.222691e-10
-4.816333e-08 2.284107e-08 -1.482825e-08 2.267199e-08 -2.443757e-08 3.583791e-08
-1.660774e-07 9.482826e-08 6.978816e-07 -2.367640e-09 -3.015572e-07 7.247365e-08
-1.121415e-08 4.866350e-08 -2.453855e-08 -5.197612e-08 1.974069e-08 -2.334339e-08
3.597614e-09 7.045628e-08 -1.279643e-07 -2.115584e-08 -8.892460e-08 -4.477632e-08
2.513390e-08 2.538269e-08 -1.530060e-07 -2.917516e-08 -1.488654e-07 -2.404813e-08
-1.058759e-07 -1.436539e-08 3.360799e-07 6.377251e-08 1.012416e-07 1.126019e-07
5.181105e-09 3.027532e-08 -6.417971e-08 3.740626e-09 -4.615647e-08 2.660204e-08
-1.917427e-08 4.839480e-08 -4.326444e-08 -3.163848e-09 -3.636508e-08 4.814917e-08
-5.062280e-08 2.224633e-08 1.374441e-07 7.744595e-08 5.747840e-08 5.925559e-08
3.215522e-08 -2.039851e-07 -4.256126e-08 9.318366e-08 -1.694194e-07 5.863387e-08
4.969881e-09 5.552528e-08 -7.610216e-08 2.546090e-08 -4.939963e-08 4.394950e-08
1.201164e-08 6.286573e-08 -6.812039e-09 3.701516e-08 2.350595e-08 1.732444e-08
-1.774900e-08 1.784744e-08 -2.596585e-08 1.384998e-08 -3.030415e-08 3.443476e-08
-1.122726e-08 -3.764848e-08 -2.091177e-08 7.587224e-08 -6.333117e-08 4.923806e-08
7.982653e-09 3.321243e-08 -4.530763e-08 4.153142e-08 -1.732130e-08 -1.214049e-08
3.087423e-08 -2.899606e-08 -9.891097e-08 -6.823428e-11 -9.730983e-08 1.342224e-08
5.818723e-08 8.644459e-08 9.717395e-09 1.058633e-07 5.010323e-08 4.041917e-08
2.212674e-09 7.381592e-09 5.522041e-10 1.450417e-08 -2.149046e-09 -5.035983e-09
-7.285875e-09 -1.343418e-09 2.999569e-09 -3.342503e-09 -8.005142e-11 -1.401617e-09
-7.840684e-09 -5.020184e-10 2.332852e-09 -4.066010e-09 1.100487e-09 -7.632202e-10
-9.212724e-09 3.643315e-08 -3.234501e-09 -2.505955e-08 5.069269e-09 5.607145e-09
-4.938044e-09 2.417850e-09 7.221888e-10 2.006814e-09 3.041427e-10 -2.424483e-11
-1.286094e-09 7.453398e-10 1.122966e-10 3.369334e-09 5.400230e-10 -1.120113e-10
-8.458391e-09 -3.807434e-10 2.479051e-09 -4.349997e-09 9.668774e-10 -4.145460e-10
-8.690639e-09 -3.041592e-09 2.482303e-09 -5.944591e-09 9.955179e-10 -5.527770e-10
-9.133896e-09 1.301667e-09 2.884146e-09 -5.448641e-09 -3.116727e-10 -7.247420e-10
-1.330669e-09 2.771593e-09 -2.712630e-10 -4.967922e-09 -6.063044e-10 -8.224454e-10
-1.216409e-08 -2.992225e-09 7.291390e-10 5.253130e-09 -6.001350e-09 2.539787e-09
-5.711118e-09 4.109415e-09 3.900213e-10 -3.952280e-09 -1.858240e-10 -1.842646e-10
-9.161547e-09 4.561415e-09 1.478729e-09 -1.332678e-09 9.954850e-10 -2.360629e-11
-4.376120e-09 3.859672e-09 -1.393219e-10 -8.107505e-09 -4.627771e-10 -2.507778e-10
1.575188e-08 4.297475e-09 -2.420937e-09 -1.978623e-08 1.814748e-09 -1.939954e-09
-6.729070e-09 3.177575e-09 1.227623e-09 1.993228e-09 1.251518e-09 6.132449e-11
-8.843067e-09 -3.598425e-09 2.439908e-09 -6.288976e-09 1.330074e-09 -4.123325e-10
-8.594632e-09 -7.226859e-10 2.651260e-09 -4.691098e-09 2.939657e-10 -6.662404e-10
1.357781e-08 -4.146698e-09 -2.321234e-09 -8.245093e-09 -8.701251e-10 4.422127e-10
9.705215e-09 -2.650206e-09 -1.104677e-09 -1.189862e-08 -6.318389e-11 -4.577911e-10
2.099187e-08 -1.093140e-08 8.201574e-09 -1.050167e-08 1.389945e-09 -7.422113e-09
-8.432378e-09 -7.858686e-11 2.167006e-09 -2.444518e-09 3.808847e-10 -1.058322e-09
-8.431723e-09 2.491564e-09 1.862652e-09 -1.444321e-09 5.361225e-10 -6.487546e-10
-5.757582e-09 2.907617e-09 1.042523e-09 1.622825e-09 3.566438e-10 -3.459403e-10
-9.497247e-09 3.866355e-09 1.753319e-09 -1.298147e-10 4.989368e-10 -8.476000e-10
-6.946806e-09 3.151358e-09 1.197211e-09 1.125700e-09 1.570700e-10 1.997182e-10
-8.863141e-09 -3.433883e-09 2.693354e-09 -6.303497e-09 6.461275e-10 -5.871353e-10
-7.812889e-09 7.269831e-09 -1.386473e-09 -8.835174e-09 -2.070385e-09 1.214456e-09
-7.942635e-09 7.767143e-09 -1.538096e-09 -8.429847e-09 -1.536783e-09 1.707006e-09
-9.749747e-09 5.024958e-09 -5.367662e-10 -4.032941e-09 -3.537139e-09 2.340758e-09
-1.090828e-08 5.419725e-09 -3.320579e-10 -3.208223e-09 -3.259534e-09 2.749210e-09
-8.054718e-09 5.062026e-09 -6.506951e-10 -6.744246e-09 -2.438478e-09 3.858761e-10
-6.268507e-09 2.925354e-09 9.143266e-10 1.363432e-09 9.503420e-11 -9.449200e-11
-1.014848e-08 6.719828e-09 -8.063299e-10 -5.468326e-09 -2.953411e-09 9.747746e-10
-6.785541e-09 2.679104e-09 1.256302e-09 1.087724e-09 8.720577e-11 -3.393370e-10
-5.442574e-09 2.724599e-09 6.697358e-10 1.689282e-09 6.450218e-11 1.481637e-11
-1.067916e-08 9.006550e-09 -1.160149e-09 -7.734844e-09 -2.930346e-09 2.695376e-09
-4.346420e-09 9.395878e-09 -2.149199e-09 -1.132182e-08 -2.339772e-09 2.543472e-09
-9.990058e-09 4.283178e-09 5.388756e-11 -5.188998e-09 -3.681904e-09 1.442457e-09
-6.596870e-09 6.491910e-09 -7.799882e-10 -9.323843e-09 -1.947813e-09 8.889600e-10
3.319628e-09 -1.040144e-08 8.136394e-08 -1.294769e-08 9.118286e-09 -5.076141e-08
8.721658e-09 -3.664935e-08 -2.092406e-08 3.993708e-08 -6.015358e-08 3.388489e-08
1.012514e-09 -2.334570e-08 -1.305946e-08 2.909379e-08 -2.956268e-08 1.634586e-08
2.702400e-09 -1.430352e-09 -4.710956e-10 3.213439e-09 3.930685e-10 -1.580698e-10
6.639254e-09 -2.081307e-09 -9.479014e-10 6.398315e-09 6.741957e-10 4.685103e-11
-5.538257e-09 -4.551434e-09 -1.095730e-08 1.649271e-08 -2.051833e-08 1.093317e-08
-4.198533e-09 2.161541e-09 6.023908e-10 2.469582e-09 1.925105e-10 -1.062798e-10
-7.143003e-09 -8.117849e-09 -7.650405e-09 1.991453e-08 -1.814620e-08 1.152046e-08
1.626482e-09 -3.860174e-10 -4.505976e-10 4.023901e-09 5.427175e-10 -8.207807e-11
1.149686e-09 -3.373997e-08 -1.190788e-09 2.863792e-08 -2.723016e-08 1.490202e-08
-7.124867e-09 -1.865128e-08 -7.652167e-09 2.178018e-08 -1.793038e-08 1.145179e-08
2.457190e-08 1.048528e-07 -1.781152e-07 1.579127e-08 1.030332e-07 -3.240222e-08
3.166748e-09 -2.123479e-08 -8.769935e-09 1.777711e-08 -2.141664e-08 9.560571e-09
-9.849612e-09 4.178725e-09 1.386456e-09 -3.719813e-09 -1.247803e-09 -3.654115e-10
1.370868e-07 4.066920e-07 -3.864023e-07 -7.595748e-08 -5.932528e-08 -5.778207e-08
-8.275025e-09 5.049386e-09 -1.385736e-10 -4.999502e-09 -1.407070e-09 3.402476e-10
-7.234600e-09 5.720604e-09 -4.607648e-10 -6.353088e-09 -1.398039e-09 1.059914e-09
3.709128e-08 -1.130274e-07 -1.274403e-08 7.188371e-08 -9.136482e-08 4.417709e-08
-9.547996e-09 3.888203e-08 -2.422294e-08 -1.637152e-08 -1.686640e-08 2.076772e-08
-9.943994e-09 3.934043e-09 -6.564269e-10 -2.224527e-09 -2.609534e-09 9.108595e-10
-4.069996e-09 4.592896e-08 -4.813787e-08 -8.589375e-09 -2.418251e-08 3.007315e-08
8.513231e-10 -4.005497e-08 1.064890e-09 -4.488130e-08 2.741854e-08 1.415504e-08
-1.547406e-08 2.026640e-08 -2.386342e-08 2.246522e-09 -1.410318e-08 1.954788e-08
-6.008321e-09 -1.432639e-08 3.590627e-09 -2.735782e-08 7.753933e-09 5.264368e-09
-7.972288e-09 -2.296475e-08 1.779357e-09 2.975387e-08 1.265700e-08 -6.089771e-09
-5.969066e-09 -1.425062e-08 -4.081005e-09 -2.742699e-08 1.130092e-08 4.063488e-09
-1.444109e-08 -1.392614e-08 -2.656119e-09 3.558162e-08 1.862052e-08 -1.120048e-08
-6.123081e-09 -8.988975e-09 -7.835169e-09 -2.702668e-08 1.663278e-08 7.112109e-09
1.190039e-08 -6.775639e-08 -3.623376e-09 4.998933e-08 3.873091e-08 -1.529495e-08
-1.201512e-08 -1.910368e-08 3.228205e-10 -3.632480e-08 1.778115e-08 1.285915e-08
3.089513e-09 -3.114771e-08 4.785583e-09 -3.079251e-08 1.347417e-08 8.146049e-09
-2.910952e-08 -7.253668e-08 -1.568747e-07 3.475327e-08 3.232603e-07 -1.755877e-07
1.111601e-08 -1.829078e-08 -1.199064e-08 -3.773972e-08 2.149560e-08 1.406287e-08
-1.564646e-07 3.185279e-07 -1.942496e-07 -2.833940e-08 -6.128202e-09 -7.610049e-08
-3.312160e-08 -1.046358e-07 -3.684822e-07 2.265969e-07 4.552171e-07 -3.494052e-07
8.103809e-09 2.951603e-09 -1.203254e-09 -1.559113e-08 -1.330052e-09 -2.107722e-10
9.471533e-09 1.377028e-09 -1.806252e-09 -1.661873e-08 -2.074754e-10 9.691632e-10
-4.836465e-10 5.737474e-09 -5.294229e-10 1.067847e-08 3.234806e-10 -9.287592e-10
1.207929e-08 -4.863373e-09 -6.174586e-10 -1.386865e-08 3.005383e-10 -7.414021e-10
-1.023246e-09 1.942006e-09 -8.100731e-11 5.997223e-09 1.136685e-09 -7.056717e-10
4.801003e-09 -1.117281e-09 -1.016006e-09 6.869183e-09 4.361894e-10 -9.046512e-10
-1.570347e-09 1.673811e-09 -2.219507e-10 5.799886e-09 1.152215e-09 1.214941e-10
2.839856e-09 2.726497e-11 -7.486809e-10 6.442850e-09 8.024080e-10 -1.143990e-10
2.250117e-09 1.297786e-09 -6.722312e-11 8.092844e-09 3.120755e-10 -1.363456e-09
4.203705e-10 1.190931e-07 -1.220832e-07 -1.205634e-08 2.480634e-08 4.312764e-08
9.932159e-09 -2.171211e-08 8.736700e-08 1.251493e-08 -6.728092e-09 -5.417978e-08
3.078593e-09 -6.226564e-11 -4.784236e-10 6.726789e-09 6.354879e-10 -1.437371e-10
-2.597313e-09 2.813589e-09 5.616152e-10 6.257034e-09 -1.593250e-11 -1.045296e-09
6.714250e-08 7.364846e-09 -1.768151e-07 1.750604e-08 1.424921e-07 -2.444701e-08
4.033608e-09 -3.350327e-10 -4.561129e-11 8.616893e-09 4.937224e-10 -5.372471e-10
-2.211899e-07 7.033608e-07 3.056763e-07 -1.828455e-07 -5.959589e-07 3.514383e-08
-4.930278e-10 2.409338e-09 -1.190457e-10 7.107027e-09 7.489316e-10 -7.561998e-10
-3.399956e-10 1.269550e-09 1.030465e-10 7.041062e-09 3.227605e-10 -3.420745e-10
3.159095e-08 -6.550590e-08 -3.315430e-08 -9.222712e-09 -6.310132e-08 -3.383553e-10
4.488552e-08 -7.652964e-08 -2.563722e-08 -1.254625e-08 -9.586126e-08 2.262194e-09
-4.703825e-09 2.202951e-09 5.767964e-10 3.579616e-09 5.149956e-10 -4.916042e-10
4.167419e-08 -6.155503e-08 -3.660733e-08 1.063604e-09 -7.257889e-08 4.208367e-09
4.001598e-08 -6.676064e-08 -4.541317e-08 -1.468779e-08 -7.232688e-08 -5.091533e-09
-6.572506e-09 2.510562e-09 1.184532e-09 2.121863e-09 4.333731e-10 -7.026556e-10
-7.285833e-09 9.545662e-10 1.802349e-09 7.486865e-10 4.903655e-10 -3.784614e-10
-1.286958e-08 1.130876e-08 -6.799867e-10 1.422216e-11 8.867584e-10 4.456932e-10
-1.297870e-08 5.387793e-09 5.846906e-10 -1.747973e-08 6.759977e-09 1.683987e-09
3.994763e-08 -8.814536e-08 -4.858858e-09 -1.608840e-08 -4.973363e-08 2.254654e-09
-1.898731e-08 -4.785434e-09 1.150392e-09 -2.667715e-08 9.424808e-09 5.800532e-09
3.159098e-08 -4.967755e-08 -2.513421e-08 -9.059468e-09 -3.935161e-08 1.204064e-10
-2.300776e-08 1.352132e-08 1.142887e-09 -2.069485e-08 4.752739e-09 8.073217e-09
3.135958e-08 -6.174490e-08 -5.124003e-08 -3.914039e-08 -8.733953e-08 -1.825516e-08
3.777032e-08 -5.028735e-08 -7.106389e-08 -1.084694e-08 -7.664319e-08 -4.083755e-10
3.759549e-08 -1.628448e-08 -4.960083e-08 -9.150835e-09 -4.791580e-08 1.877985e-09
3.080405e-08 -4.500026e-08 -3.727772e-08 -2.310126e-08 -4.401859e-08 -1.272831e-08
-1.758902e-08 -6.950616e-09 -6.127823e-09 -3.945387e-08 -2.418319e-08 -1.774328e-08
4.367688e-09 -1.126783e-09 -1.039007e-09 -6.063027e-09 -5.232534e-10 5.384233e-10
-9.889604e-09 7.108332e-09 -7.652783e-10 -5.228055e-09 -2.930605e-09 1.522160e-09
-3.606811e-09 3.173849e-09 -3.602495e-10 -7.493378e-09 -1.638466e-09 6.173737e-11
4.327239e-09 -1.116876e-09 -9.414856e-10 -6.107213e-09 -3.965269e-10 -2.911927e-10
6.102729e-09 -2.806000e-09 -1.243525e-09 -5.856843e-09 -1.465077e-10 4.796338e-10
-5.012159e-09 3.730571e-09 2.534897e-10 -5.879742e-09 -1.158387e-09 -6.575500e-10
5.548128e-09 -1.604286e-09 -1.089138e-09 -6.562618e-09 -4.005619e-10 -3.043839e-10
-3.230534e-09 2.678993e-09 5.507168e-10 5.105423e-09 4.710397e-10 -4.743344e-10
7.717747e-09 -3.144961e-09 -1.370835e-09 -5.415651e-09 -1.833486e-10 -1.162270e-11
4.676470e-09 -1.447058e-09 -9.942576e-10 -5.187119e-09 -2.499294e-10 -2.443308e-10
5.778440e-09 -1.964209e-09 -1.074631e-09 -4.253546e-09 -4.550200e-10 1.776469e-10
5.572488e-09 -2.700629e-08 1.933486e-09 -1.380445e-08 5.876618e-09 6.808475e-10
3.135470e-10 -1.701901e-08 1.365540e-09 -1.749354e-08 5.041676e-09 1.052818e-09
-1.888234e-08 -6.070135e-08 -1.791115e-09 7.933672e-08 4.431258e-08 -2.491234e-08
2.498245e-09 -3.342088e-08 6.525471e-09 1.397515e-08 2.194172e-09 9.900602e-12
9.882241e-10 -2.021033e-08 -1.274389e-09 -1.937644e-08 4.844616e-09 1.779473e-09
5.104839e-09 -2.979412e-08 3.358094e-09 -1.809487e-08 7.321309e-09 1.197551e-09
1.279523e-09 -2.214333e-08 -2.581939e-10 -2.232960e-08 7.044689e-09 3.018296e-09
3.795423e-08 -8.481272e-08 -5.154697e-10 8.311132e-09 -5.312818e-08 7.547397e-09
1.981246e-08 -3.408941e-09 -3.862356e-08 2.000454e-08 -3.578545e-08 1.753270e-08
-6.514520e-09 2.819643e-09 9.471317e-10 1.853749e-09 2.845453e-10 -3.194823e-10
-6.993535e-09 2.385228e-09 1.448087e-09 1.188467e-09 2.186265e-10 -4.104459e-10
3.133116e-08 -1.706432e-08 -4.981274e-08 -1.159531e-08 -4.859535e-08 -9.811988e-10
4.141926e-08 -1.401972e-07 -5.959849e-09 -1.319347e-08 -6.914467e-08 2.329890e-11
-4.448577e-08 2.819735e-08 -1.800349e-08 5.409550e-08 3.727988e-08 -3.480035e-08
-5.952193e-09 2.664080e-09 1.031519e-09 1.802721e-09 2.459932e-10 -4.761081e-11
-6.632974e-09 2.216140e-09 1.512256e-09 1.106708e-09 4.018391e-10 -4.181955e-10
-6.760684e-09 2.423682e-09 1.347969e-09 1.628646e-09 2.334895e-10 -3.635424e-10
-6.767746e-09 2.625298e-09 1.097887e-09 1.676632e-09 2.607445e-10 -2.885684e-10
-1.913153e-09 -2.680599e-08 1.696602e-09 1.951149e-08 6.115804e-09 -2.346280e-09
-7.480417e-09 2.653965e-09 1.612252e-09 1.229816e-09 9.695513e-11 -2.405500e-10
-6.780899e-09 2.788987e-09 1.125585e-09 1.885159e-09 2.445030e-10 2.791145e-10
-7.617846e-09 2.555680e-09 1.727985e-09 1.082515e-09 9.118284e-11 -1.738221e-10
7.569112e-09 -2.429008e-09 -1.325069e-09 -7.093241e-09 -3.310438e-10 -1.209608e-10
-3.619190e-09 3.042632e-09 5.209122e-11 -3.854507e-09 -2.513495e-10 -1.306490e-10
-2.545155e-09 3.108454e-09 5.982992e-12 -3.998603e-09 -2.474286e-10 -1.157455e-10
-2.944153e-08 2.934430e-08 -3.510297e-09 -5.613485e-09 3.550170e-09 8.135435e-09
1.170140e-09 -4.058055e-08 1.151791e-09 -4.537739e-08 2.750840e-08 1.452357e-08
-4.107552e-09 3.717637e-09 1.531455e-10 -3.724859e-09 -3.791499e-10 -4.028253e-10
-6.786492e-09 2.559068e-09 1.413430e-09 1.225965e-09 1.640406e-10 -1.816856e-10
-4.144196e-08 3.575074e-08 2.095540e-09 -8.859861e-09 1.415431e-09 8.125139e-09
-3.733997e-09 3.119656e-09 5.540413e-11 -4.316985e-09 -2.120672e-10 -3.912499e-10
-4.512990e-08 4.060003e-08 7.775328e-09 3.608617e-09 -7.652238e-09 1.279492e-08
-4.415796e-08 5.958356e-08 -9.640382e-09 -9.548345e-09 -1.288527e-09 2.461756e-08
-4.320435e-08 6.178770e-08 -2.167065e-08 -1.415296e-08 4.972616e-09 2.761168e-08
-6.628836e-08 1.053861e-07 8.558442e-09 1.000649e-09 -3.085727e-08 4.905155e-08
-6.375623e-08 5.571382e-08 2.261748e-08 5.567170e-09 -1.835221e-08 2.598176e-08
-8.331220e-10 1.992424e-09 -2.402691e-10 -3.658133e-09 -4.052262e-10 -1.585599e-10
-4.248868e-08 6.655997e-08 -3.055066e-09 1.342476e-08 -1.378834e-08 1.410055e-08
-1.170092e-09 1.992423e-09 -1.115941e-10 -3.654550e-09 -4.094283e-10 -1.569622e-11
-3.214342e-08 8.288698e-08 -4.368926e-08 -5.576187e-08 4.953496e-08 7.172265e-08
1.258580e-10 1.589201e-09 -4.232859e-10 -3.966357e-09 -4.528246e-10 -4.739775e-11
-3.222000e-09 2.742690e-09 1.003810e-10 -4.304921e-09 -4.532023e-10 -2.766123e-10
-7.433928e-08 9.272936e-08 6.293311e-08 3.943612e-08 -5.986748e-08 7.558607e-09
-5.158997e-08 6.473343e-08 -2.804686e-08 -2.448193e-08 4.240612e-08 5.880015e-08
-7.892396e-09 1.577723e-08 -2.333595e-08 -2.884644e-08 1.782949e-08 1.442604e-08
-3.675777e-09 -1.457319e-08 1.806358e-09 -1.167730e-08 3.708032e-09 4.909917e-10
-9.035121e-09 3.960308e-08 -3.145314e-08 -2.602769e-08 -5.080181e-09 2.338307e-08
-1.196858e-08 -2.059442e-08 5.321411e-09 -3.162019e-08 8.974814e-09 5.836371e-09
1.879877e-08 -4.746323e-08 7.642751e-09 -1.385083e-09 3.933785e-09 6.937534e-10
1.567172e-08 -4.987856e-08 8.236573e-09 3.147401e-09 3.230556e-09 -5.904279e-11
2.050582e-08 -4.947995e-08 3.753430e-09 2.091537e-09 7.766212e-09 -1.692308e-09
1.984028e-08 -4.613416e-08 7.399952e-10 -1.654135e-09 4.735847e-09 -2.673353e-10
1.484727e-08 -4.561134e-08 6.247041e-09 7.139669e-09 4.123899e-09 -5.585332e-10
-2.916067e-10 5.063496e-10 8.893886e-11 4.210801e-09 4.469914e-10 -1.001399e-11
4.791479e-09 -1.984162e-09 -9.713319e-10 5.113744e-09 7.170807e-10 3.729965e-10
1.028585e-08 -3.421875e-09 -1.550922e-09 -8.408447e-09 -5.526353e-10 3.723479e-10
6.810550e-09 -2.453749e-09 -1.217234e-09 -6.749913e-09 -1.600335e-10 -2.209746e-10
1.897794e-08 -5.185244e-08 -4.522257e-09 7.502397e-09 1.055374e-08 -1.513563e-09
1.070320e-08 -2.884752e-09 -1.981210e-09 -1.020231e-08 -2.150035e-10 -5.946746e-10
-2.569982e-09 5.669943e-09 -1.677083e-09 -1.245652e-08 -1.388118e-09 7.464044e-10
9.716137e-09 -3.460459e-09 -1.481279e-09 -7.408251e-09 -8.132752e-10 3.716270e-10
1.973473e-08 -5.329610e-08 1.555977e-09 -2.569229e-09 1.050337e-08 3.700890e-10
1.159387e-08 -5.704480e-09 -1.608311e-09 -6.090549e-09 -1.398599e-10 -6.483924e-11
1.659274e-08 -4.564759e-08 3.917227e-09 5.291580e-09 4.298269e-09 -1.737491e-09
1.567168e-08 -4.724834e-08 5.345530e-09 3.169045e-09 3.981585e-09 -4.772560e-10
6.146992e-09 -2.925656e-09 -1.119065e-09 -5.122355e-09 -4.145855e-10 2.902044e-10
1.096835e-08 -4.149630e-09 -1.758191e-09 -8.146172e-09 -5.735158e-10 -3.511768e-11
1.563760e-08 -8.618102e-09 -7.374852e-10 -1.917437e-09 6.292200e-11 -1.350409e-09
2.271592e-08 -5.207744e-08 2.419399e-09 1.208175e-08 1.561931e-08 -2.768383e-09
1.662770e-10 -3.230962e-08 4.053003e-09 1.717941e-08 4.970399e-09 -1.645251e-09
1.649238e-08 -7.950388e-09 -8.940009e-10 1.484188e-09 3.221677e-10 -1.467547e-09
3.164484e-08 -7.845258e-08 1.833589e-09 -1.933051e-08 4.721638e-08 2.746823e-09
3.609103e-09 -5.120645e-10 -5.907471e-10 6.176482e-09 7.066325e-10 -1.990088e-12
1.995561e-08 -4.585998e-08 3.189238e-09 -1.286983e-09 5.630169e-09 -4.515068e-10
1.880430e-08 -5.150179e-08 4.771538e-09 -9.149741e-10 7.358707e-09 2.502743e-10
4.360486e-08 -4.734284e-08 -7.888746e-08 4.513533e-08 1.329081e-07 -4.055488e-08
4.140443e-08 -6.814223e-08 -4.983953e-08 3.169350e-08 6.484622e-08 -1.407361e-08
-1.020060e-08 -2.629675e-08 -3.075821e-09 6.181785e-08 3.817813e-08 -2.103489e-08
1.655854e-09 1.280643e-09 1.941891e-11 7.547496e-09 1.068067e-10 -6.839445e-10
-2.412075e-10 1.267743e-09 8.662138e-11 6.960915e-09 2.528773e-10 -3.088643e-10
7.429288e-09 1.651817e-08 -8.088972e-08 6.050274e-08 6.831229e-08 -4.228101e-08
-3.702058e-09 -8.919017e-09 3.991004e-09 -5.062689e-09 5.642805e-10 -1.194109e-09
-8.220764e-09 -1.109573e-08 -8.639865e-09 3.019204e-08 1.483874e-08 -7.533742e-09
1.253401e-08 -1.426233e-08 -4.332820e-08 3.548830e-08 4.275640e-08 -1.482217e-08
-1.302785e-08 -8.041720e-09 9.526064e-10 -2.040526e-08 8.178990e-09 2.591893e-09
-1.095884e-10 -2.405870e-08 -1.464498e-08 -2.909941e-08 1.645835e-08 9.160140e-09
-7.645091e-09 -1.840348e-08 1.974839e-09 -2.304255e-08 7.775256e-09 2.482308e-09
3.121624e-08 -7.021221e-08 -3.620885e-08 5.462673e-08 7.141185e-08 -2.500928e-08
-1.019715e-08 -2.046699e-09 1.976683e-09 -7.773992e-09 2.115673e-09 -1.203161e-09
3.201318e-08 -4.531460e-08 -4.629656e-08 2.464933e-08 5.267915e-08 -6.639950e-09
1.261482e-08 -1.043068e-08 -4.198017e-08 3.417493e-08 3.511231e-08 -1.357743e-08
-1.791551e-10 -1.914281e-08 2.345441e-09 -1.443972e-08 4.976883e-09 -3.418763e-10
8.653119e-08 -1.369038e-07 -6.969799e-08 -1.286022e-08 2.507582e-07 5.351714e-09
4.192225e-10 -2.325827e-08 1.815875e-09 -2.027768e-08 8.930764e-09 7.665360e-10
3.705569e-08 -9.496848e-08 -2.596229e-08 1.044539e-07 1.315929e-07 -3.879393e-08
-1.318913e-08 1.315684e-08 -8.551841e-09 -1.488050e-08 6.520710e-09 4.596312e-09
1.667084e-08 -1.362493e-08 -5.324112e-08 4.792632e-08 4.850168e-08 -2.389836e-08
-6.997029e-09 2.452393e-09 1.469421e-09 1.597445e-09 5.013956e-10 -5.216920e-10
-7.177674e-09 9.631586e-10 1.882698e-09 -3.712474e-11 5.150547e-10 -1.165154e-09
1.527585e-08 -6.122321e-08 -7.350313e-09 4.795371e-08 5.424713e-08 -1.334818e-08
-1.015042e-09 -1.460316e-08 4.743591e-09 -7.059148e-09 5.941151e-10 -1.325005e-09
2.883206e-08 -6.024533e-08 -4.956763e-09 6.353795e-08 6.507978e-08 -1.422712e-08
-2.161463e-07 4.030850e-07 1.604753e-07 -3.899470e-08 1.520946e-07 -4.037044e-07
7.332374e-09 -2.843856e-09 -1.059870e-09 5.913585e-09 4.621041e-10 -1.769445e-10
1.318816e-08 -5.390205e-09 -8.697589e-10 6.112197e-09 4.259379e-10 -4.828351e-10
6.303015e-09 -2.747564e-09 -1.146389e-09 5.867453e-09 2.477794e-10 1.713199e-11
1.680981e-08 -7.081501e-09 -1.570193e-09 1.013002e-09 3.293837e-10 -4.542768e-10
3.529886e-09 -1.111825e-09 -5.985359e-10 5.965786e-09 2.625685e-10 -2.847706e-10
-1.913028e-08 7.986349e-09 6.708221e-08 2.711498e-08 -2.167416e-08 -2.913959e-08
-2.208804e-08 2.583804e-08 1.536325e-08 2.041139e-08 -7.883200e-09 -5.442090e-09
5.274633e-08 -1.275801e-07 -1.450243e-08 1.061634e-09 -8.306369e-08 9.032843e-09
8.716005e-09 -3.759857e-09 -8.861853e-10 4.548457e-09 3.971755e-10 -3.092197e-10
2.824856e-08 -9.182157e-08 -2.093699e-09 1.385810e-08 -3.985210e-08 5.054457e-09
2.532534e-08 -6.203256e-09 -7.296463e-08 -1.944508e-08 -6.239322e-08 -9.885935e-09
-4.571972e-08 -1.396481e-08 -5.063362e-09 -7.647590e-08 3.960060e-08 4.185417e-08
-6.405807e-09 3.440490e-08 -4.071456e-08 -2.716902e-08 2.671351e-08 2.428933e-08
8.811831e-09 -3.089618e-09 -7.910357e-10 6.542145e-09 1.115646e-10 -8.326925e-10
-1.852461e-08 -2.937511e-08 -5.245476e-09 -4.883595e-08 2.662308e-08 1.937087e-08
2.614703e-08 -3.073278e-08 -4.915632e-08 -3.687796e-08 5.205967e-08 1.709092e-08
1.132859e-08 -5.021228e-09 -1.002739e-09 5.642638e-09 3.866817e-10 -8.257126e-10
9.306096e-09 -4.359659e-09 -1.134715e-09 4.900121e-09 1.809172e-10 -5.959267e-10
-2.332683e-08 3.967404e-08 -1.552867e-08 -1.739990e-08 8.101355e-09 1.502060e-08
-3.601523e-08 4.031165e-08 -3.007201e-09 2.942340e-09 -5.920846e-10 7.991350e-09
-1.008632e-08 1.605597e-08 1.550790e-09 9.665551e-09 -1.111240e-11 -1.786612e-09
-3.388847e-08 2.916574e-08 -2.281530e-09 -1.525311e-08 6.111172e-09 1.183683e-08
-3.821022e-09 7.417733e-09 1.402718e-10 1.008075e-08 1.642051e-10 -2.174697e-09
-2.664127e-08 1.639885e-08 -3.052121e-09 -2.249258e-08 5.623012e-09 1.191241e-08
-2.468416e-08 3.193124e-08 -3.154033e-09 -2.040634e-09 1.591418e-09 6.520115e-09
1.010295e-08 -4.410863e-09 -1.055233e-09 5.036565e-09 3.031207e-10 -2.653031e-10
7.757563e-09 1.741739e-09 -4.082399e-10 1.262446e-08 2.165446e-10 -2.264465e-09
9.040531e-09 1.899129e-09 1.540417e-10 1.591537e-08 -1.845451e-09 -3.830025e-09
9.256405e-09 -2.387380e-09 -7.943366e-10 8.795524e-09 2.951893e-10 -1.385496e-09
8.942073e-10 -2.582237e-08 6.886907e-09 1.371653e-08 2.639581e-09 -3.726277e-10
-3.445938e-09 8.839117e-09 -5.516326e-10 1.091877e-08 6.831953e-10 -2.192573e-09
6.067805e-10 -2.918547e-08 4.904445e-09 1.398506e-08 2.727099e-09 -1.328198e-09
-2.380894e-10 -2.902828e-08 4.014753e-09 1.474318e-08 2.340154e-09 -3.147942e-10
7.098188e-09 1.292077e-08 -6.396886e-10 1.732022e-08 -3.336430e-09 -6.785594e-09
4.778735e-09 5.816785e-09 -1.789531e-09 1.166561e-08 1.547744e-09 -2.287737e-09
9.055252e-09 -4.782939e-09 -1.109196e-09 2.249341e-09 1.073654e-10 1.000589e-10
5.383910e-09 -2.015531e-09 -1.007298e-09 5.283612e-09 5.282165e-10 -1.406036e-10
3.344735e-09 -3.026059e-10 -5.806462e-10 5.606945e-09 1.180092e-10 -2.729315e-10
9.223822e-10 -6.599774e-10 -3.108449e-10 4.444696e-09 5.405956e-10 1.638041e-10
4.609658e-09 -2.105426e-09 -6.430825e-10 4.260082e-09 5.767209e-11 -1.377076e-11
1.004015e-10 6.114079e-10 -2.298635e-10 4.597115e-09 5.223454e-10 -3.521861e-10
3.679218e-09 -1.742033e-09 -7.322170e-10 4.068509e-09 5.014422e-10 -1.433501e-10
3.904827e-09 -1.742371e-09 -6.424510e-10 4.069809e-09 5.004784e-10 6.426526e-12
2.635245e-09 -5.337290e-10 -5.068439e-10 4.894700e-09 4.005525e-10 1.439767e-10
1.147900e-09 -3.841038e-10 -2.243740e-10 3.887526e-09 5.921875e-10 -1.753650e-10
4.701211e-09 -1.925585e-09 -8.114462e-10 4.790586e-09 3.799425e-10 2.666306e-10
2.788389e-09 -6.736935e-10 -3.775762e-10 4.595266e-09 2.981059e-10 -1.378726e-10
-4.224933e-09 2.149891e-09 7.659706e-10 2.489153e-09 4.418437e-10 -3.364852e-10
4.068005e-09 -1.815319e-09 -6.054069e-10 3.872733e-09 1.815255e-10 -3.060029e-10
-2.668254e-08 2.259464e-08 -2.777240e-09 -1.012635e-08 2.139330e-09 8.332867e-09
-2.165535e-08 1.928620e-08 -4.904367e-09 -9.369021e-09 3.503234e-09 5.436072e-09
-6.763168e-10 7.551622e-10 -4.831668e-11 3.599415e-09 5.165156e-10 -1.041582e-10
-1.942794e-08 3.996392e-08 -3.020878e-08 -3.094287e-08 1.907139e-08 2.949728e-08
-8.516868e-09 7.732921e-09 -1.545384e-09 -8.383114e-09 -3.408547e-09 2.837093e-09
-3.880151e-08 3.612970e-08 -2.445179e-08 -5.051698e-08 3.691167e-08 4.349661e-08
-8.595762e-10 -7.268862e-09 -1.714450e-08 -2.890019e-08 2.106085e-08 9.233474e-09
1.296304e-09 -3.896369e-08 -1.904720e-08 -4.480789e-08 3.594924e-08 1.530962e-08
2.063418e-08 -4.868041e-08 -1.734365e-08 3.090430e-08 2.784321e-08 -8.157632e-09
-2.868288e-08 1.392673e-08 -2.659703e-09 -2.480995e-08 1.378827e-08 1.193637e-08
-2.421044e-08 2.906724e-08 -4.102398e-09 -1.421745e-08 4.381521e-09 6.426729e-09
-1.845795e-08 2.369140e-08 -3.235406e-09 -1.120535e-09 1.828482e-09 2.871151e-09
-7.120926e-09 2.884319e-09 1.001786e-09 1.437578e-09 3.207576e-10 -7.591542e-10
-8.487095e-09 -1.359994e-09 2.714264e-09 -3.095450e-09 5.437418e-10 -5.797090e-10
-6.675689e-09 2.186605e-09 1.417603e-09 1.377134e-09 2.747174e-10 -3.941987e-10
-6.064646e-09 2.129088e-09 1.388840e-09 1.637900e-09 3.311713e-10 -5.924727e-10
-7.369290e-09 1.763121e-09 1.798109e-09 7.513878e-10 2.373370e-10 -4.605702e-10
-1.396675e-08 6.687530e-09 -4.231759e-09 -2.249803e-08 9.757826e-09 6.502260e-09
-2.531942e-08 1.380757e-08 -7.127346e-10 -2.339254e-08 6.970396e-09 1.015133e-08
-2.172448e-08 1.439127e-08 -1.316660e-09 -2.342515e-08 7.541028e-09 8.434351e-09
1.366778e-08 -4.575611e-08 5.722757e-09 1.594619e-08 5.777498e-09 -7.506658e-10
-3.309237e-08 -1.535477e-08 -1.954395e-08 -5.957195e-08 4.921569e-08 3.147394e-08
-2.753648e-08 8.913525e-09 -2.337562e-09 -2.715377e-08 9.973224e-09 1.284196e-08
-1.720052e-08 -4.754677e-10 -3.132065e-09 2.661441e-08 -2.561333e-08 2.104311e-08
-2.540207e-08 1.505390e-08 1.221445e-09 1.749224e-08 -1.636064e-08 1.958898e-08
9.260495e-09 -5.090523e-09 -1.091462e-09 2.843726e-09 7.363271e-11 -1.564127e-11
-4.887800e-09 -6.020846e-08 -3.348940e-09 5.686430e-08 3.606656e-08 -1.429687e-08
-1.093176e-08 5.287767e-09 -1.204646e-08 1.194685e-08 -1.880390e-08 1.347288e-08
2.255185e-08 -9.546011e-09 -1.611067e-11 1.020179e-09 1.727485e-11 -3.198148e-09
6.005498e-10 -2.588418e-10 -1.641836e-10 3.001172e-09 5.658651e-11 4.232215e-11
-4.005479e-09 -8.972297e-10 -3.744863e-08 2.549396e-08 -5.544897e-08 3.823835e-08
1.419551e-08 -6.782802e-09 -1.271572e-09 -7.821602e-09 2.240394e-10 -6.036924e-10
-1.885363e-08 1.645433e-08 -1.826558e-08 1.347945e-08 -1.639161e-08 1.658310e-08
-2.898648e-08 5.965773e-08 -2.258661e-08 -1.086907e-08 -1.149369e-08 3.717046e-08
1.334766e-08 -8.445589e-10 7.287725e-09 1.899333e-08 -4.686804e-09 -1.029010e-08
-3.354496e-09 6.141055e-09 -2.208128e-08 1.999114e-08 -3.163820e-08 2.212677e-08
1.660625e-08 3.327362e-09 1.514535e-08 2.525378e-08 -6.451527e-09 -1.671786e-08
2.100162e-08 2.753461e-08 -9.888648e-08 3.586030e-09 -7.619001e-08 3.274158e-08
1.085457e-08 1.107073e-08 3.113908e-09 2.772251e-08 -1.079169e-08 -1.613645e-08
-4.853344e-10 1.134616e-09 1.103979e-10 4.757627e-09 5.008721e-10 4.011013e-12
5.838593e-09 4.162621e-09 1.184992e-08 1.878946e-08 -2.718712e-10 -9.954717e-09
2.148813e-08 -1.219993e-08 2.700631e-09 1.101422e-09 -1.574764e-10 -5.247101e-09
3.098647e-09 -6.224543e-11 -9.642958e-10 6.734227e-09 6.275914e-10 6.494296e-11
-6.468277e-08 2.597583e-07 -1.454775e-07 -7.681429e-09 -1.232809e-07 -4.009196e-08
1.787022e-08 -7.986413e-09 -2.562495e-09 -1.015742e-10 2.291758e-10 5.597414e-11
-1.755583e-07 3.364109e-07 5.360591e-08 -8.319906e-08 -1.669217e-07 2.535264e-08
1.957692e-08 -9.788074e-09 -1.286725e-09 -8.286676e-10 6.822998e-11 -1.217982e-09
3.204092e-08 4.245134e-07 -3.889339e-07 -6.607175e-08 1.337854e-07 1.342444e-07
-5.179928e-07 1.366823e-06 -1.589048e-07 -6.580399e-08 -7.922858e-07 7.122094e-08
-6.818603e-08 4.106822e-08 -7.914816e-10 4.066696e-08 -4.390022e-08 -3.222393e-08
-3.992183e-08 1.194338e-07 -5.641064e-08 -8.678418e-09 -4.072908e-08 3.116149e-08
-6.287433e-08 2.434338e-07 3.005221e-08 -1.763113e-07 -2.247270e-07 5.601108e-08
-8.185622e-09 8.461663e-08 -1.353922e-07 -4.627321e-08 5.854811e-08 7.922636e-08
-3.548451e-07 1.352937e-06 -2.666124e-07 -2.006241e-08 -8.448386e-07 7.517177e-08
-6.399603e-08 6.253202e-07 -3.198338e-08 1.691714e-07 -2.492288e-07 -5.690911e-08
-1.213366e-08 2.573865e-08 -2.428769e-08 -3.461144e-09 -1.688669e-08 2.025845e-08
-4.380451e-08 1.750305e-08 -1.929903e-08 2.758773e-08 -2.934970e-08 3.969863e-08
-2.621843e-08 -5.135925e-09 -5.448076e-09 2.529630e-08 -2.063669e-08 1.887948e-08
-9.672413e-09 6.701921e-08 5.928351e-09 -4.250667e-08 3.608098e-08 -6.855958e-09
-1.121393e-08 7.560806e-09 -2.359243e-09 -1.995217e-09 -3.165359e-09 2.664870e-09
-1.407398e-08 4.631436e-09 -2.290061e-09 1.948192e-09 -5.463494e-09 4.385003e-09
-1.155647e-08 -1.542075e-09 -2.466892e-09 5.980490e-09 -7.050695e-09 4.615746e-09
1.184910e-09 1.725538e-08 1.369835e-08 -4.087097e-08 2.392473e-08 -1.696423e-09
-1.390553e-08 1.186489e-08 -1.601284e-08 2.607295e-08 -2.380031e-08 2.154671e-08
-1.271637e-08 5.711525e-09 -2.237562e-09 3.336304e-09 -5.770393e-09 4.112224e-09
-1.142947e-08 6.253275e-09 -2.509796e-09 3.377929e-09 -6.407174e-09 4.667814e-09
-1.175753e-08 -2.271127e-09 8.467937e-10 5.992269e-09 -5.449889e-09 2.778319e-09
-1.142683e-08 2.511070e-09 1.234799e-09 6.478281e-10 -4.411907e-09 2.109877e-09
1.984666e-10 7.845060e-09 -5.262172e-09 -1.365618e-08 -4.508144e-09 4.006740e-09
1.846935e-08 -6.634378e-09 -2.379236e-09 -8.312101e-09 2.736178e-10 -1.140901e-09
-1.130087e-08 2.513695e-09 -3.977754e-09 5.682795e-10 -7.950214e-09 4.891943e-09
-1.012727e-08 7.335005e-10 2.136612e-09 2.055635e-09 -3.179486e-09 1.029192e-09
1.211191e-08 -3.378879e-09 2.760578e-10 -1.855224e-08 6.277380e-10 -1.672128e-09
1.334434e-08 -5.384062e-10 -2.696720e-09 -1.569934e-08 2.696335e-10 -9.950865e-10
-1.316792e-08 2.414526e-09 -9.722489e-11 2.281010e-09 -3.058338e-09 2.293939e-09
1.879930e-08 -6.627330e-09 -2.241700e-10 -9.885128e-09 6.077449e-10 -2.329867e-09
7.092093e-09 -2.956228e-07 -4.331887e-08 2.511117e-07 2.170767e-07 -1.271437e-07
-9.951163e-09 -4.447402e-08 -3.178088e-08 8.021515e-08 6.646930e-08 -4.140013e-08
4.989468e-09 3.286693e-08 -1.179154e-07 1.155170e-08 9.050193e-08 -5.005810e-08
1.879358e-08 -4.589661e-08 1.781331e-09 -1.493734e-09 5.872183e-09 8.835783e-10
1.200638e-08 -1.297773e-08 -4.079791e-08 3.542296e-08 3.990060e-08 -1.610077e-08
1.667416e-08 -4.447494e-08 6.071311e-09 -2.618713e-09 4.250082e-09 -1.718927e-10
-3.680355e-09 2.281347e-08 -8.729921e-09 -1.433212e-08 -2.737160e-08 1.403369e-08
-3.549229e-08 -6.714298e-09 -1.180115e-08 8.009417e-08 5.208307e-08 -4.045487e-08
-1.111910e-08 -6.520618e-09 6.718275e-10 3.058246e-08 1.287207e-08 -7.075379e-09
-1.167963e-08 -1.049271e-08 -1.621438e-08 3.714312e-08 1.981698e-08 -1.146840e-08
1.564824e-08 -4.327168e-08 2.072866e-09 -6.075793e-09 4.553909e-09 3.145740e-10
-2.868066e-08 7.287554e-08 -5.552276e-08 1.420670e-08 4.219035e-08 -5.006356e-08
2.423722e-08 1.664602e-08 -9.750447e-08 3.652864e-08 8.027397e-08 -2.992043e-08
1.704104e-08 -4.117634e-08 2.319565e-09 -7.828447e-09 5.272909e-09 -2.880250e-10
1.897454e-08 -5.442683e-08 5.176932e-09 -9.808677e-10 8.807288e-09 -2.588567e-10
-6.109945e-09 2.440221e-09 1.087592e-09 2.397752e-09 2.126902e-10 -5.795910e-10
-1.048087e-08 1.368197e-08 3.130938e-09 1.172211e-08 -2.222703e-09 -2.117821e-09
-6.788503e-09 4.696153e-09 4.189171e-10 3.559791e-09 8.803936e-10 -9.248219e-10
-1.457099e-09 1.771407e-09 1.153948e-10 5.076714e-09 5.274605e-10 -2.663397e-10
1.581258e-08 -4.840793e-08 7.130893e-09 -8.406032e-09 5.672427e-09 -5.373279e-11
2.059839e-08 -4.917021e-08 7.467721e-09 -7.630541e-09 7.094509e-09 1.635670e-09
-3.586642e-09 4.106258e-08 -6.793413e-08 -1.290875e-08 -4.813206e-08 -2.361103e-08
1.100142e-08 -4.256735e-08 4.177535e-09 -1.351586e-08 6.935178e-09 1.003049e-09
-1.607180e-08 3.586143e-08 -2.687730e-08 -1.068480e-08 -2.042726e-08 -2.103594e-08
-5.860969e-09 4.308297e-09 -2.049723e-10 -6.228264e-09 -4.261345e-10 -1.719944e-10
1.564880e-08 -4.594132e-08 5.349199e-09 -7.854951e-09 5.837090e-09 7.002216e-10
9.911957e-09 -4.544105e-09 -1.452542e-09 -5.590819e-09 -1.374637e-10 -2.844760e-10
-3.694484e-09 3.333306e-09 2.374785e-10 -5.899558e-09 -1.336329e-09 -3.766175e-10
-3.233609e-09 -4.224208e-09 -1.526413e-08 1.717898e-08 -1.608322e-08 1.018340e-08
-7.562359e-09 4.499517e-09 7.983474e-10 -4.625956e-09 -1.004436e-09 -4.905063e-10
-3.963951e-09 3.084465e-09 -1.164467e-10 -5.232877e-09 -8.408588e-10 -3.787230e-10
8.951869e-09 -4.400959e-09 -1.441195e-09 -6.176227e-09 -2.435929e-10 2.006195e-11
1.204922e-08 -4.142056e-08 6.090940e-09 1.076970e-08 3.161666e-09 -9.242456e-10
1.017803e-08 -3.800843e-08 2.010943e-09 1.175226e-08 2.769347e-09 -1.481245e-09
8.641099e-09 -4.057730e-09 -1.376597e-09 -4.187107e-09 -3.401460e-10 4.330007e-10
9.664705e-09 -4.819186e-09 -1.315928e-09 -3.003463e-09 -2.831027e-10 3.249718e-10
9.049682e-09 -4.285471e-08 7.210222e-09 1.477853e-08 4.762398e-09 2.542717e-11
1.097143e-08 -6.357692e-09 -1.401679e-09 -1.023908e-09 -2.195205e-11 4.333277e-10
8.268755e-09 -3.177427e-09 -1.434939e-09 -5.779679e-09 -3.533086e-10 3.843063e-11
7.002747e-09 -3.149489e-09 -1.210018e-09 -4.429941e-09 -2.686436e-10 -4.901679e-11
7.994982e-09 -3.544495e-09 -1.238778e-09 -3.901518e-09 -3.870042e-10 2.160624e-10
4.714837e-09 -1.107866e-09 -1.444943e-09 -7.842026e-09 -1.129382e-09 5.904776e-10
6.754047e-09 -9.973194e-11 -1.583379e-09 -9.904930e-09 -8.374063e-10 4.242619e-10
7.711328e-09 -2.709855e-09 -1.079516e-09 -5.394910e-09 -5.894800e-10 -5.648537e-11
9.060495e-09 -4.257853e-09 -1.475400e-09 -6.621243e-09 -3.765662e-10 2.542776e-10
6.053924e-09 -2.033909e-09 -1.082042e-09 -5.849568e-09 -5.699286e-10 5.344376e-10
1.120783e-08 -4.246546e-08 1.105086e-09 1.944181e-08 -2.498724e-08 9.733910e-09
-3.285128e-09 1.439155e-09 3.556708e-10 2.218755e-09 3.335363e-10 -2.295549e-10
1.206885e-09 -3.850200e-10 -4.407197e-10 3.953314e-09 5.311686e-10 -8.367870e-11
6.660536e-09 -2.677287e-09 -1.143157e-09 -6.145749e-09 -8.021555e-10 2.976455e-10
5.145650e-08 -6.309024e-08 -3.185008e-08 -4.299694e-08 6.965581e-08 1.051640e-08
6.715287e-08 -4.799686e-08 -8.065680e-08 -9.289486e-08 1.358449e-07 4.737429e-08
2.610090e-08 -2.920034e-08 -3.800457e-08 -3.718572e-08 6.374970e-08 1.764517e-08
7.462976e-09 -2.756468e-09 -1.309839e-09 -6.299261e-09 -6.308332e-10 6.703401e-10
-4.701773e-08 6.877101e-08 8.516129e-09 -9.966100e-09 -1.324082e-08 1.805391e-08
-4.778577e-08 6.942399e-08 7.803244e-09 -7.405969e-08 3.346679e-08 4.752922e-08
-8.604369e-09 8.884816e-08 -1.224745e-07 -6.323752e-08 7.409501e-08 7.278671e-08
-2.634890e-08 4.937738e-09 -6.761801e-09 -4.705904e-08 2.119134e-08 2.310060e-08
1.518134e-09 -3.931335e-10 -1.771200e-10 4.768819e-09 4.453513e-10 -6.263062e-10
-2.258812e-08 -4.860775e-09 -1.922470e-07 -8.635972e-08 1.988327e-07 1.221413e-07
-8.248153e-08 1.086661e-07 -1.537333e-09 -1.940408e-08 -2.795854e-08 4.853412e-08
-2.458545e-08 3.202991e-08 -2.143577e-08 -4.022237e-08 2.730883e-08 3.206598e-08
-3.876448e-08 6.006899e-08 1.389502e-08 -7.561706e-09 -4.736548e-09 6.594256e-09
9.342550e-09 -4.416409e-08 8.448848e-10 -2.413985e-08 1.053396e-08 3.451171e-09
-5.450389e-09 2.403891e-09 8.977636e-10 2.039779e-09 -3.950709e-11 -1.641316e-10
-4.041988e-09 2.249276e-09 8.235208e-10 3.069984e-09 4.545386e-11 -5.900858e-11
9.220100e-10 -1.868630e-08 -6.514430e-09 -2.326939e-08 1.004323e-08 4.241121e-09
-1.194302e-08 -1.863217e-08 1.690704e-09 -3.613131e-08 1.284573e-08 1.022791e-08
1.816425e-08 -6.206140e-08 -4.423036e-09 -4.240891e-08 3.910824e-08 9.991729e-09
2.327720e-09 -8.523423e-10 -2.796603e-10 3.149285e-09 1.704579e-10 -2.211520e-11
4.771923e-09 -2.281341e-09 -5.968948e-10 3.347178e-09 1.435752e-10 4.210043e-11
1.172393e-08 -2.521749e-08 -1.338250e-08 -2.663393e-08 1.543383e-08 5.254501e-09
3.528285e-09 -1.110011e-09 -5.098633e-10 5.965803e-09 3.965886e-10 -4.088167e-10
5.778171e-10 5.246970e-10 1.128266e-10 4.341935e-09 4.684233e-10 1.520054e-10
6.236851e-09 -2.540593e-09 -6.746499e-10 5.450076e-09 1.998106e-10 1.151785e-10
-5.398086e-09 -1.835544e-08 -1.268522e-08 -3.618505e-08 2.445704e-08 1.263364e-08
1.154713e-08 -4.558962e-08 3.637615e-09 -3.005524e-08 1.974951e-08 4.872035e-09
-1.842039e-09 1.133365e-09 2.077991e-10 3.317995e-09 1.760033e-10 -1.061013e-10
-4.328148e-09 2.279860e-09 5.281735e-10 2.335054e-09 1.537699e-10 -3.117555e-10
-1.390153e-09 -1.951662e-08 -9.102736e-10 -1.767810e-08 7.494991e-09 9.954211e-10
1.663015e-09 -2.681687e-08 3.482325e-09 -2.274285e-08 8.248790e-09 2.597212e-09
6.831087e-10 -3.119750e-08 1.613713e-09 -2.879276e-08 1.260814e-08 3.955510e-09
-2.271943e-10 4.338692e-10 7.852385e-12 2.875731e-09 4.091530e-10 -7.013412e-11
-1.962043e-09 1.016232e-09 1.626561e-10 2.562233e-09 4.518518e-10 -1.032329e-10
-1.535074e-07 -3.462007e-08 3.879938e-07 1.042152e-08 -1.393642e-07 -1.363311e-07
-1.809338e-07 2.518807e-07 2.407728e-07 -8.570610e-08 1.179828e-07 -3.481498e-07
-4.941274e-09 2.542818e-09 9.322876e-10 1.949802e-09 1.360970e-10 7.396358e-11
-3.927046e-09 1.933913e-09 3.999001e-10 1.993300e-09 3.683525e-10 -1.594950e-10
-3.506714e-09 1.658764e-09 5.124279e-10 2.730963e-09 9.294618e-11 7.818079e-11
-4.811279e-07 -6.643616e-08 2.436261e-06 2.465629e-08 3.716756e-07 2.938125e-07
-1.980336e-10 4.336469e-10 2.885026e-11 2.805257e-09 1.686113e-10 -1.730951e-11
-2.410162e-09 1.447615e-09 2.349276e-10 2.865878e-09 2.705273e-10 -2.819636e-10
-2.454363e-07 1.076560e-07 2.041218e-07 -1.646127e-07 1.732457e-07 -2.193867e-07
-4.623575e-07 -6.516196e-08 7.735998e-07 3.437290e-08 9.191182e-08 2.867383e-08
-3.248805e-09 1.810866e-09 5.355756e-10 1.990319e-09 6.289169e-11 -1.054780e-10
-1.084470e-09 1.147364e-09 2.070295e-10 3.457379e-09 1.777688e-10 -1.135346e-10
-2.832360e-08 -3.053122e-08 2.137567e-07 -9.689370e-09 -1.109954e-08 -1.298337e-07
-1.033029e-08 2.670030e-09 8.225476e-10 -2.985422e-09 2.134507e-09 -7.700857e-10
-1.724174e-07 4.963893e-09 9.746355e-07 -7.690557e-08 5.797300e-08 -2.881689e-07
-2.080942e-07 -7.318358e-08 4.704265e-07 3.283102e-08 -3.807492e-09 7.611867e-08
-1.673639e-07 9.885588e-08 3.152601e-07 6.230185e-09 -3.092480e-07 -3.227992e-08
-2.291534e-07 -2.088478e-08 1.133840e-06 -2.601053e-08 -1.901523e-07 -1.319877e-07
-4.199401e-08 4.093569e-08 9.546382e-08 3.894409e-08 -8.966895e-08 -4.419329e-08
-8.805535e-08 2.178038e-08 2.521462e-07 1.643665e-08 -1.086672e-07 -1.006771e-07
1.569078e-08 7.603909e-08 -1.232719e-07 -1.581437e-08 -7.334098e-08 1.047133e-08
-4.046170e-08 4.156635e-08 -1.779899e-08 1.550766e-08 1.156076e-08 -3.391828e-08
-4.300000e-08 -3.214420e-08 2.384915e-07 -1.606833e-08 4.125991e-08 -8.648708e-08
2.357022e-08 -4.062547e-08 1.393778e-07 -3.493719e-08 2.165956e-08 -9.699260e-08
-2.894254e-08 4.629692e-08 -1.080394e-08 -7.827484e-09 1.712349e-10 -2.059521e-08
-6.736295e-08 2.041242e-07 -6.042369e-08 -1.348219e-09 5.817455e-08 -4.156615e-08
-1.583342e-07 2.669828e-07 5.688752e-08 -6.191627e-08 1.770947e-07 -6.246596e-08
-1.436131e-07 9.894199e-08 1.171675e-07 -2.419398e-08 2.151970e-07 -1.755529e-07
6.740734e-08 6.472994e-08 -2.031676e-07 1.224977e-08 1.328878e-07 -2.059213e-08
-6.749199e-09 8.507366e-09 -1.701886e-08 -2.433945e-08 1.500192e-08 8.957168e-09
-5.397599e-07 7.932356e-07 1.248795e-06 5.836077e-09 -8.274838e-07 -9.088088e-08
-1.791022e-08 1.621825e-08 -5.132135e-10 4.406096e-10 1.795349e-09 1.830665e-10
-8.383493e-09 -3.758440e-09 2.650620e-09 -6.403902e-09 1.391536e-09 -9.519599e-10
-1.485582e-08 9.426028e-09 -5.312724e-10 -2.153687e-09 1.079226e-09 9.603782e-10
-1.068817e-08 2.049053e-08 -1.130619e-09 8.768580e-09 7.175335e-10 -3.003400e-09
-1.122032e-08 8.025659e-09 5.838052e-10 -1.728811e-09 7.276324e-10 -1.451449e-10
-4.595991e-07 3.531170e-07 -1.231933e-07 8.376540e-08 8.355329e-08 -3.246574e-08
-1.064346e-08 1.142873e-08 6.255738e-10 6.096450e-09 -5.512662e-10 -6.030353e-10
1.061352e-09 6.930287e-09 1.038177e-09 1.371206e-08 -1.160891e-09 -3.192397e-09
-2.524644e-07 -3.328955e-08 4.014936e-07 1.681628e-08 -1.351159e-07 -1.188207e-07
2.672374e-08 -6.510840e-08 -8.773042e-09 1.677940e-08 -4.690699e-08 5.420400e-09
-7.027433e-09 -1.393734e-08 -1.545540e-09 -2.012549e-08 7.225513e-09 3.199418e-09
7.299122e-09 -1.504987e-09 1.217362e-08 1.843113e-08 -2.960909e-09 -1.166499e-08
-3.455075e-09 4.166867e-08 -2.444384e-11 -2.010371e-08 -1.426452e-08 9.230683e-09
4.717013e-08 -1.119076e-08 2.205371e-08 1.213037e-08 -4.200565e-09 -3.744604e-08
1.731480e-08 -5.215876e-09 -2.419441e-09 -1.229145e-08 9.811128e-10 -2.321698e-09
-7.100074e-09 -1.407147e-08 3.954576e-09 -1.937619e-08 3.895111e-09 1.154374e-09
-2.275040e-08 2.152969e-10 -9.040606e-09 -3.331785e-08 1.589099e-08 1.524733e-08
-1.001878e-08 3.088743e-09 -1.736167e-09 -2.176268e-08 5.703819e-09 4.776279e-09
7.827216e-09 -4.410690e-09 -9.438139e-10 3.007450e-09 3.917544e-10 3.133929e-10
2.010962e-08 -8.995131e-09 1.506812e-09 5.900222e-09 -1.791928e-10 -3.777405e-09
1.185245e-08 -4.806477e-09 -1.309602e-10 8.873848e-09 -2.416979e-10 -1.583114e-09
-7.023916e-09 -8.651478e-09 -1.680721e-09 -2.028849e-08 8.138466e-09 3.150236e-09
1.410535e-08 -5.702214e-09 -1.596915e-09 -6.488273e-09 -3.690002e-10 2.911520e-10
1.858831e-08 -4.931249e-09 -6.342241e-10 -1.365707e-08 3.112222e-10 -1.766535e-09
-7.101930e-09 -6.328268e-09 3.401269e-09 -1.935941e-08 5.035008e-09 1.193786e-09
7.484083e-09 -3.272168e-08 1.107393e-09 -1.862051e-08 8.393449e-09 8.125944e-10
1.747312e-08 -8.683815e-09 -2.494063e-10 -6.888461e-09 4.099685e-10 -1.281900e-09
2.689722e-10 -1.775851e-08 -1.819012e-11 -1.713401e-08 4.650372e-09 9.355254e-10
-8.226177e-09 -1.330548e-08 -8.238602e-09 -2.418859e-08 9.766458e-09 6.018585e-09
3.617780e-08 -7.374914e-08 -3.376268e-08 3.937967e-08 -7.385502e-08 2.673587e-08
-1.452441e-08 5.857960e-09 -9.030225e-09 1.457845e-08 -1.547070e-08 1.275718e-08
-6.137296e-09 -1.313391e-08 2.559351e-09 -1.806188e-08 3.937933e-09 1.681401e-09
-6.134154e-09 -1.157773e-08 1.521795e-09 -1.762378e-08 3.961282e-09 1.334776e-09
-1.110057e-08 2.348911e-09 -1.580276e-09 1.245086e-09 -3.865092e-09 2.594352e-09
-7.295795e-09 -1.415053e-09 -4.781598e-09 7.364835e-09 -6.410763e-09 2.511170e-09
3.737601e-08 9.127535e-09 -1.218813e-07 5.218368e-08 1.044329e-07 -4.398044e-08
-6.087161e-09 -5.295728e-09 -3.512237e-09 -1.750739e-08 5.542901e-09 1.961495e-09
-5.950736e-09 -8.770046e-09 -3.219269e-09 -2.009536e-08 4.748072e-09 2.359425e-09
2.317149e-08 -1.034304e-07 -2.346367e-08 8.980815e-08 1.291331e-07 -8.978144e-08
-4.637214e-09 1.884091e-08 -4.533501e-08 1.964527e-08 -4.956824e-08 4.127001e-08
5.298276e-09 1.273818e-08 -7.961674e-08 5.756467e-08 6.771965e-08 -4.228502e-08
6.008912e-08 -1.197426e-07 -1.088221e-07 -1.009882e-07 2.045128e-07 4.544494e-08
-1.006304e-07 3.894068e-08 -5.690532e-08 1.530673e-07 1.174888e-07 -1.249482e-07
1.786823e-08 -6.257672e-09 -4.373659e-08 1.436008e-08 -4.953387e-08 2.056287e-08
-1.860154e-08 1.854009e-08 -3.188986e-08 2.910382e-08 -4.007793e-08 4.221203e-08
6.681523e-09 -6.809323e-09 -4.006086e-08 2.600858e-08 -4.469457e-08 2.244448e-08
2.546001e-08 -1.490954e-08 -4.874853e-08 1.163560e-08 -4.749590e-08 1.360645e-08
1.065616e-09 -3.125152e-08 -1.765202e-08 3.546732e-08 -5.114481e-08 2.553027e-08
3.932059e-08 -5.080160e-08 -2.129824e-08 5.953556e-08 -1.111038e-07 4.628430e-08
2.786460e-08 -1.239005e-08 1.416623e-08 -1.472887e-08 5.006338e-09 -1.592248e-08
1.159233e-08 2.471610e-09 -1.301189e-09 -1.484033e-08 -1.645185e-09 -1.507637e-09
2.396379e-08 -4.928532e-09 -1.698354e-09 -1.407608e-08 1.617945e-10 -3.610973e-09
2.202946e-08 -6.238463e-08 -2.424302e-08 3.230980e-08 -5.860431e-08 1.820590e-08
3.168499e-10 -1.699675e-08 -1.829506e-09 -1.747756e-08 5.586394e-09 1.076460e-09
-5.875448e-09 4.366393e-09 2.303258e-10 -4.726438e-09 -3.937155e-10 -2.594780e-10
1.100354e-08 -3.508290e-08 4.706711e-09 -1.227859e-08 3.616824e-09 1.020697e-10
-2.061429e-09 2.928093e-09 -1.447692e-09 -1.003532e-08 -5.689590e-10 2.621834e-10
1.889679e-08 -7.350658e-09 -1.244128e-09 -6.555597e-09 -1.244296e-10 -1.174155e-09
1.129149e-08 -3.504077e-08 5.137232e-09 -1.190813e-08 3.946328e-09 4.747138e-10
3.652957e-09 -2.771320e-08 6.509802e-09 -1.467603e-08 1.405383e-09 1.072284e-10
7.397205e-09 -3.241637e-08 5.121645e-09 -1.236449e-08 3.961529e-09 -1.075951e-09
1.588935e-08 -6.358330e-09 -7.333822e-10 5.854990e-09 -1.061232e-10 -1.581174e-09
9.635929e-09 -4.143797e-09 -1.455708e-09 3.462161e-09 2.199627e-10 1.543372e-10
-7.045063e-10 -6.758355e-09 -1.583040e-08 -2.847233e-08 1.496094e-08 7.937691e-09
-1.008095e-08 3.403003e-10 1.153233e-09 -1.263580e-08 4.124334e-09 2.757589e-10
-8.801616e-09 5.553143e-09 1.152169e-09 -3.034188e-10 6.016713e-10 -1.128601e-09
-1.668407e-08 1.232619e-08 -2.095174e-09 -8.964262e-09 4.620566e-09 3.849597e-09
5.497233e-09 -2.699995e-08 4.962750e-10 -1.387789e-08 5.019831e-09 1.871113e-10
1.010798e-08 -3.453432e-08 4.254588e-09 -8.871124e-09 1.543029e-09 -8.451746e-10
-5.977779e-09 5.538007e-09 9.088290e-10 4.636897e-09 9.277005e-10 -8.797850e-10
9.095838e-09 -3.393348e-08 4.760467e-09 -8.415030e-09 2.102104e-09 -5.603227e-10
3.647849e-09 -2.907365e-08 5.225258e-09 -1.496576e-08 2.729392e-09 3.741388e-10
1.132104e-08 -3.438655e-08 1.297890e-09 -1.280115e-08 5.349298e-09 1.050898e-09
2.197303e-08 -5.048430e-08 -5.371972e-09 8.330667e-10 1.176293e-08 8.822919e-12
1.358342e-08 -4.182908e-08 4.620147e-09 -1.205342e-08 6.205774e-09 -1.459076e-10
1.548519e-08 -3.976121e-08 -3.611539e-09 -1.643364e-08 9.076809e-09 1.670734e-09
1.986539e-08 -4.670380e-08 -6.237041e-09 9.726186e-09 1.002514e-08 -1.684170e-10
5.107744e-09 -2.898430e-08 2.695380e-09 -1.861699e-08 7.386522e-09 1.627644e-09
1.877809e-08 -5.099064e-08 5.340079e-09 8.673144e-09 6.758586e-09 -1.338210e-09
-3.173001e-08 7.879947e-08 -7.520759e-08 1.525977e-08 1.852426e-08 4.006139e-08
5.616065e-09 -2.552004e-08 2.714647e-09 -1.317852e-08 3.023782e-09 -4.394789e-10
6.131209e-08 4.633798e-08 -1.564414e-07 -6.039878e-08 1.157525e-07 4.534897e-08
3.012308e-08 -2.909317e-08 1.455178e-07 -4.832949e-08 -4.095213e-10 -2.078391e-07
-3.650334e-09 2.915246e-09 6.618635e-10 5.261460e-09 6.825994e-10 -1.931276e-10
-1.955066e-09 1.871971e-09 1.625255e-10 5.193360e-09 4.010476e-10 -1.950613e-10
-5.660086e-09 2.737457e-09 7.164824e-10 2.501021e-09 3.960751e-10 -6.431657e-10
2.834328e-08 -6.899268e-08 -2.069588e-08 2.910700e-08 4.501139e-08 -7.978140e-09
-3.171990e-09 -2.475006e-08 -1.405423e-09 2.563613e-08 1.085655e-08 -5.087545e-09
-3.013029e-11 -3.194129e-08 5.700740e-09 1.749496e-08 3.532130e-09 -1.516451e-09
-6.156851e-09 2.655874e-09 1.099656e-09 2.551051e-09 5.718194e-10 -2.693074e-10
1.303020e-08 2.279794e-09 -4.851781e-08 -2.572669e-08 -4.840679e-08 -1.640454e-08
-2.881610e-09 2.716224e-09 3.651754e-10 4.826072e-09 4.395235e-10 -7.065810e-10
-5.031769e-09 2.831434e-09 9.853403e-10 3.600243e-09 1.727003e-10 -4.684287e-10
1.941565e-08 -7.269270e-08 -3.109212e-09 -2.929233e-08 -3.599986e-08 -5.592568e-09
1.669469e-08 -1.980057e-08 -2.142527e-08 -1.907560e-08 -2.692434e-08 -5.460040e-09
-5.894501e-09 2.807232e-09 1.053781e-09 3.213848e-09 4.443343e-10 -3.166214e-10
1.613473e-08 -4.720319e-08 -9.104048e-09 -3.190404e-08 -5.146586e-08 -1.328169e-08
2.334150e-08 -1.616449e-08 -9.664854e-08 -3.986388e-08 -1.007500e-07 -2.397987e-08
-7.075709e-10 2.057140e-09 -1.870191e-10 -4.624044e-09 -2.903270e-10 -1.253240e-10
2.956695e-09 -5.474713e-10 -7.350148e-10 -4.794704e-09 -4.000531e-10 -2.391510e-10
3.236806e-10 1.664065e-09 -6.204276e-10 -6.458783e-09 -2.862506e-10 -3.236393e-10
-3.624340e-09 2.487342e-09 5.285083e-10 4.511541e-09 5.671073e-10 1.709077e-11
-1.980611e-09 2.669898e-09 -1.228420e-10 -3.385023e-09 -4.009528e-10 -1.621565e-10
-3.611680e-10 2.119935e-09 -6.317498e-10 -7.002744e-09 -7.549570e-10 1.144196e-10
-4.454705e-09 2.760519e-09 7.494265e-10 4.627522e-09 3.045951e-10 -2.523253e-10
-1.118558e-08 -3.370837e-09 -1.739751e-08 1.531853e-08 -1.748161e-08 1.358764e-08
-7.122463e-09 -2.026197e-08 4.782882e-10 2.198230e-08 -1.722609e-08 1.087934e-08
-1.065120e-08 7.290756e-09 5.112355e-11 -1.265962e-09 1.649685e-09 7.068095e-12
-9.490604e-09 -8.023140e-09 -5.520720e-09 1.251301e-08 -1.256582e-08 8.357124e-09
-4.049644e-09 2.999070e-08 -4.796707e-08 9.299513e-10 -3.759427e-08 2.999833e-08
2.288667e-08 -6.159413e-08 -1.788748e-08 3.337936e-08 -5.435940e-08 2.706351e-08
-9.502617e-09 3.201956e-09 -5.602032e-09 9.947993e-09 -1.162219e-08 8.451470e-09
-6.759901e-09 5.255714e-09 -1.130335e-08 7.530464e-09 -1.020118e-08 7.376573e-09
-3.962958e-09 -9.605826e-09 -4.636406e-09 1.246074e-08 -1.270705e-08 6.125492e-09
3.308302e-09 1.176954e-09 8.398988e-10 1.077455e-08 6.722710e-10 -1.481557e-09
-3.962964e-09 -1.243594e-08 1.496971e-09 1.292593e-08 -9.993051e-09 4.862102e-09
1.998573e-08 -1.161740e-08 1.450047e-08 -1.395770e-08 3.201784e-09 -1.193052e-08
2.411644e-08 -6.572720e-09 7.404176e-09 -1.710320e-08 4.368940e-09 -1.291392e-08
-8.177530e-09 -2.059294e-08 -1.504040e-08 3.011233e-08 -2.931879e-08 2.081310e-08
-8.524929e-09 -9.954961e-09 1.101409e-09 1.811890e-08 -1.623043e-08 1.015911e-08
2.470929e-08 -9.848745e-09 2.146252e-09 4.857198e-09 -9.329357e-11 -5.671371e-09
-7.828484e-09 -2.068705e-08 -1.738671e-09 2.254015e-08 -1.572903e-08 9.196953e-09
-8.723511e-11 2.153947e-09 2.461613e-10 6.540045e-09 7.869848e-10 1.139844e-10
-3.966313e-09 3.167768e-09 4.451632e-10 5.486455e-09 1.319196e-10 -4.766467e-10
2.518992e-08 -8.002197e-09 -2.915979e-09 -6.475328e-09 6.053392e-10 -3.319163e-09
1.187039e-08 -5.159363e-09 -1.360239e-09 5.954133e-09 1.610990e-10 -2.006277e-10
1.209522e-08 -2.932156e-09 -8.910894e-10 9.013408e-09 4.186950e-11 -1.950520e-09
1.074100e-08 -1.481927e-09 -1.717820e-09 9.472494e-09 5.682712e-10 -5.484690e-10
-2.271638e-09 1.596511e-09 1.005240e-10 4.554496e-09 3.157818e-10 -4.291050e-10
-7.724197e-09 4.103936e-09 8.961785e-10 3.053312e-09 1.122763e-09 -6.587725e-10
-5.129082e-09 3.487734e-09 1.002641e-09 3.982536e-09 7.403782e-10 -4.322178e-10
1.113979e-08 -4.538284e-09 -1.587071e-09 -6.002700e-09 -3.266119e-10 -1.420890e-10
9.247034e-09 -4.545044e-09 -1.294868e-09 -5.522736e-09 -1.918544e-10 -9.994961e-11
6.441493e-09 -2.462295e-09 -1.083704e-09 -6.629304e-09 -2.588834e-10 -1.306047e-10
8.968720e-09 -4.400872e-09 -1.299251e-09 -6.177607e-09 -2.859753e-10 3.720828e-10
7.308956e-09 -2.680809e-09 -1.183990e-09 -6.404355e-09 -7.163268e-10 2.538129e-10
-6.619680e-09 3.481071e-09 1.137950e-09 3.121197e-09 1.554552e-10 -8.411538e-10
1.410590e-08 -7.355443e-09 -1.487481e-09 -6.046476e-09 3.515399e-11 -2.687072e-10
-4.101268e-10 1.564986e-09 -5.029481e-10 6.027312e-09 5.294520e-10 2.469195e-10
-1.587243e-09 2.072339e-09 5.500098e-10 6.036411e-09 4.987002e-10 -1.137703e-10
-1.930021e-08 8.787034e-08 7.219922e-09 6.949144e-08 4.605765e-08 2.508465e-08
-4.319120e-09 3.435489e-09 3.980387e-10 4.559786e-09 9.461343e-10 -4.951942e-10
1.802647e-10 3.694879e-09 -9.078738e-10 9.135585e-09 3.987326e-10 -4.563581e-10
-1.152044e-08 -2.622804e-08 -5.676992e-10 4.895958e-08 2.768625e-08 -2.003536e-08
-2.596624e-09 -3.817840e-08 -3.558144e-10 3.996373e-08 2.193097e-08 -9.873168e-09
-2.188096e-08 2.082024e-08 -2.966689e-08 4.178402e-08 4.135238e-08 -4.730561e-08
-1.346526e-08 2.524639e-10 -4.221379e-09 8.331853e-09 -9.690324e-09 7.795255e-09
1.493425e-08 -2.940968e-08 -4.293772e-08 5.361152e-08 7.692543e-08 -3.490638e-08
-5.913779e-09 5.937894e-08 -7.599694e-08 3.003825e-08 5.601513e-08 -3.961334e-08
-1.340545e-08 1.539181e-09 -1.050365e-08 7.359263e-09 -1.068182e-08 8.578845e-09
-7.142376e-09 -8.101611e-09 7.940605e-10 1.991113e-08 -1.509843e-08 1.066206e-08
-6.207544e-09 -5.061727e-08 -8.265010e-09 4.829357e-08 -4.319750e-08 2.618935e-08
-2.244198e-08 1.125763e-07 -9.673293e-08 2.168348e-08 -4.888734e-08 7.689069e-08
-9.700937e-09 7.019363e-09 -6.361413e-09 2.252901e-09 -5.907427e-09 4.264978e-09
5.725354e-08 -2.763171e-08 -6.854053e-08 4.603094e-09 -1.044159e-07 1.430691e-08
-7.939287e-09 -1.573885e-09 -2.226022e-09 6.914056e-09 -7.223912e-09 3.639182e-09
1.923546e-08 -8.818600e-09 -6.867674e-08 2.307372e-08 -6.528442e-08 3.059789e-08
5.814654e-08 -8.615309e-08 -3.572560e-08 1.886102e-09 -1.346133e-07 8.791590e-09
1.118752e-08 -5.127371e-09 -1.520400e-09 -4.019914e-09 -3.584962e-10 6.632073e-11
7.507063e-09 -3.626842e-09 -1.226892e-09 -4.432477e-09 -4.575700e-10 3.989019e-10
-1.154394e-08 -9.337108e-10 -4.399472e-09 5.774797e-09 -6.594843e-09 4.101523e-09
-1.206747e-08 2.341373e-09 1.796661e-09 1.056326e-08 -7.564984e-09 6.219274e-09
1.092572e-08 -4.597159e-09 -1.732355e-09 -5.462971e-09 -5.823912e-10 6.852437e-10
1.705444e-08 -7.329946e-09 -1.521323e-09 -3.553613e-09 -8.001107e-11 2.128720e-11
1.392504e-08 -6.082748e-09 -1.645037e-09 -4.186764e-09 -2.583089e-10 4.654748e-10
1.530449e-08 -7.000478e-09 -1.436517e-09 -1.611035e-09 -1.301977e-10 8.733352e-12
-1.220974e-08 5.698825e-10 9.643384e-10 8.862637e-09 -9.353477e-09 5.706730e-09
1.388371e-08 -6.148757e-09 -1.918569e-09 -3.471179e-09 -3.802465e-10 6.050903e-10
1.160704e-08 -5.497323e-09 -1.695632e-09 -5.663970e-09 -4.160926e-10 5.010629e-10
1.618226e-08 -6.820156e-09 -2.075637e-09 -7.015686e-09 -1.667783e-10 -4.875063e-10
-1.818766e-09 1.045267e-09 1.999640e-10 2.698183e-09 6.593059e-11 -7.430190e-11
-1.124716e-08 -9.023177e-09 -1.531915e-10 1.391025e-08 -9.329724e-09 5.975307e-09
4.499457e-08 2.511172e-08 -1.470273e-07 2.180847e-08 1.183725e-07 -2.136554e-08
1.135919e-08 7.579387e-08 -1.256291e-07 2.952235e-08 8.804345e-08 -4.807742e-08
3.347380e-08 7.582247e-08 -1.890663e-07 1.612052e-08 1.265863e-07 -4.119313e-08
-7.939289e-09 -3.444189e-09 2.026305e-09 7.187800e-09 -5.436460e-09 2.888893e-09
-5.517200e-09 -1.467182e-08 4.933608e-09 -1.448369e-08 1.620715e-09 3.236020e-11
7.116867e-08 -8.514672e-08 -9.268457e-08 7.796580e-08 2.654363e-07 -8.032637e-08
-4.292273e-09 -8.837381e-09 4.147028e-09 -1.015319e-08 1.158181e-09 -8.276732e-10
8.903174e-08 2.729633e-08 -1.717894e-08 4.207429e-08 1.407900e-08 4.703792e-08
2.864362e-08 3.400133e-09 -7.740263e-08 6.350298e-09 -6.952927e-08 1.848220e-08
1.909189e-08 -2.608310e-08 -1.977199e-08 1.161187e-08 -2.449197e-08 6.057574e-09
2.105236e-08 -4.305579e-09 -8.291070e-08 1.304858e-08 -7.603459e-08 2.593231e-08
2.270527e-08 3.246645e-08 4.276180e-08 -4.289170e-08 -2.396251e-08 3.887202e-08
6.145906e-09 5.676882e-08 4.528336e-08 -5.800875e-08 -5.101788e-08 3.125019e-08
-4.257422e-09 -1.417685e-08 1.377109e-09 -1.276985e-08 2.105950e-09 -7.395864e-11
-6.551206e-09 1.507270e-09 1.735191e-09 9.497218e-10 3.956744e-10 -7.730200e-10
-6.970406e-09 2.537348e-09 1.566607e-09 2.184326e-09 2.111771e-10 -2.176441e-10
2.458207e-10 -2.173536e-08 5.790532e-10 -1.677918e-08 4.256759e-09 1.044225e-09
-5.311061e-09 -1.067250e-08 3.083742e-10 -1.528461e-08 1.919889e-09 8.912835e-10
1.160863e-08 1.168427e-08 2.712809e-08 -3.715713e-08 2.042324e-08 -2.441980e-08
-1.126467e-08 2.917655e-08 3.709309e-08 -3.808662e-08 3.056355e-08 -3.639587e-08
-8.168451e-10 -1.455170e-08 3.528303e-09 -1.275396e-08 2.005986e-09 -3.988362e-10
-1.000058e-08 1.325664e-09 -5.773164e-10 -1.110099e-08 3.054202e-09 8.092721e-10
2.347551e-09 -8.522689e-10 -4.009415e-10 3.242205e-09 4.353056e-10 -1.512546e-11
-6.138866e-09 -5.306416e-09 1.252702e-09 -1.754473e-08 4.600249e-09 1.299152e-09
-5.553296e-09 -9.328845e-09 1.678074e-09 -1.390353e-08 4.462964e-09 3.116910e-10
9.221601e-10 5.527303e-10 -2.375258e-10 4.406800e-09 4.331910e-10 -3.146416e-11
3.270924e-08 -1.516356e-08 1.205344e-08 -7.018217e-09 4.426463e-09 -2.366778e-08
-9.591233e-09 4.851589e-09 1.391720e-09 2.380350e-13 9.970926e-10 -7.713270e-10
-6.078290e-09 4.926416e-09 1.001861e-09 4.788230e-09 8.019677e-11 -1.293210e-09
6.113655e-09 -3.002211e-09 -8.459251e-10 3.207219e-09 1.218914e-10 -2.655454e-11
-9.240955e-09 4.207116e-10 2.283821e-09 -3.433457e-09 6.488814e-10 -6.036008e-10
-9.182348e-09 4.242612e-09 1.415908e-09 -3.142316e-10 1.248917e-09 -3.705321e-10
-6.030338e-09 5.142636e-09 8.001813e-10 4.407834e-09 3.279281e-10 -9.738588e-10
1.084538e-08 -5.740817e-09 -1.461024e-09 -2.141149e-09 -1.368022e-10 1.691367e-10
1.339221e-08 -7.329937e-09 -1.513397e-09 -3.363814e-09 -2.377905e-10 1.451468e-10
5.350764e-09 -2.308904e-09 -8.426682e-10 4.563528e-09 2.819412e-10 -2.676975e-10
-1.020764e-08 3.090719e-09 9.908221e-10 -3.377566e-09 1.807097e-09 -6.098723e-10
-6.262151e-09 5.088103e-09 6.652701e-11 3.519078e-09 1.893970e-09 -6.261190e-10
-1.031307e-08 7.487920e-09 5.235030e-10 -1.251420e-09 1.309144e-09 2.085326e-10
-6.356442e-09 5.004189e-09 8.740493e-10 4.841232e-09 1.163289e-10 -1.055413e-09
-6.817396e-09 2.045237e-09 1.819271e-09 1.624897e-09 4.017140e-10 -2.283494e-10
-7.132511e-09 3.480913e-10 1.884876e-09 -2.228573e-10 7.952954e-10 -7.995423e-10
-7.656542e-09 5.609471e-09 9.188492e-10 2.330263e-09 6.959213e-10 -2.879544e-10
-8.759759e-09 4.166014e-09 1.450239e-09 1.522660e-09 3.569465e-11 -1.070614e-09
-6.914857e-09 1.962486e-09 1.543186e-09 1.143175e-09 7.225768e-10 -3.934524e-10
-6.175789e-09 3.325219e-09 1.151374e-09 3.037476e-09 2.356576e-10 -8.900713e-10
-8.972663e-09 4.111532e-09 1.023203e-09 -3.756994e-10 9.079269e-10 -1.870599e-10
-1.522501e-07 -8.810500e-08 5.031455e-07 4.564793e-08 3.482981e-08 1.371424e-07
2.738222e-08 7.388884e-08 -1.695053e-07 -2.853379e-08 1.000301e-07 4.377702e-08
3.085157e-07 -1.963987e-08 -6.410793e-07 -2.538441e-07 5.520106e-07 8.874800e-08
-9.452134e-09 6.251703e-09 1.056393e-09 8.177971e-12 1.218339e-09 -1.564451e-09
-6.289626e-09 3.875407e-09 4.422576e-10 2.902394e-09 1.059004e-09 -5.291871e-10
-1.053630e-07 1.690259e-07 1.003044e-08 -1.192015e-07 -1.438209e-07 -4.697348e-08
-4.947799e-08 8.013808e-08 1.846805e-08 -2.672100e-08 -5.530099e-09 -3.294743e-08
1.252509e-08 -4.101805e-08 6.450702e-09 -5.695338e-09 2.695437e-09 -3.522568e-10
1.479203e-08 -4.667431e-08 9.923662e-11 -1.509576e-08 1.207667e-08 2.187109e-09
-1.740430e-07 1.599510e-07 -7.865026e-08 8.556817e-08 4.068809e-08 -1.456564e-07
-8.356528e-08 4.866590e-08 -7.010906e-08 1.361267e-07 8.069891e-08 -1.044084e-07
-7.939287e-09 -1.179345e-09 -3.535135e-09 6.920605e-09 -6.954895e-09 3.656376e-09
-8.750641e-09 4.521463e-09 4.492895e-11 -4.621471e-09 -3.498831e-09 2.008086e-09
-1.804425e-08 -3.320218e-09 -6.155449e-09 2.915289e-08 -2.252354e-08 1.897352e-08
1.140399e-08 -3.777338e-08 6.298924e-09 -1.154713e-08 2.203800e-09 1.308309e-09
1.925150e-08 -8.260454e-09 -5.667841e-08 2.297193e-08 -7.461880e-08 3.290359e-08
1.479985e-08 -4.128826e-08 2.222613e-09 -8.418109e-09 5.388112e-09 4.557603e-10
4.564957e-08 1.030618e-08 -7.845704e-08 -4.516234e-09 -6.778619e-08 1.611093e-08
8.521310e-10 7.041320e-10 -2.219473e-10 4.960501e-09 1.886409e-10 8.203063e-12
1.700308e-08 -7.517535e-09 -2.145296e-09 -4.269176e-09 -3.949955e-10 1.694864e-10
1.561045e-08 -5.989295e-09 1.689018e-10 7.336463e-09 3.128410e-10 -1.250889e-09
2.322879e-09 2.091299e-09 1.837153e-10 9.451928e-09 -5.551118e-11 -1.543934e-09
1.136793e-08 -3.979552e-08 7.057685e-09 -8.556795e-09 1.771078e-09 1.583726e-11
7.081922e-09 -3.617005e-09 -9.055385e-10 3.870534e-09 8.752821e-11 -1.162476e-11
-2.385221e-10 2.096907e-09 2.968377e-10 8.705482e-09 2.686940e-10 -1.123314e-09
1.701102e-08 -4.789785e-08 -2.446571e-09 -8.542831e-09 9.421537e-09 3.376803e-10
5.731892e-09 9.227439e-10 -1.134710e-09 9.277845e-09 4.601584e-10 -1.392383e-09
6.087042e-09 -8.186944e-10 4.830469e-10 9.872155e-09 4.006715e-10 -1.249672e-09
3.727981e-08 -5.529670e-08 -4.503293e-08 -5.640952e-09 -5.217617e-08 2.283526e-09
9.358166e-09 -4.122591e-08 2.732357e-09 -1.820165e-08 1.010158e-08 1.956248e-09
3.095369e-08 -3.752245e-08 -4.313996e-08 -2.106746e-08 -5.098656e-08 -5.214090e-09
-5.000155e-09 2.258002e-09 6.037237e-10 1.734757e-09 2.387224e-10 -2.129571e-10
7.309662e-09 3.242911e-10 -7.270091e-10 1.104359e-08 -1.856327e-10 -1.522730e-09
7.221286e-09 -1.523930e-10 -5.001155e-10 9.269574e-09 3.854916e-10 -1.276567e-09
-3.593999e-09 2.055725e-09 5.980763e-10 2.795246e-09 1.692007e-10 1.745437e-12
-1.809672e-09 1.410249e-09 4.149197e-10 3.344923e-09 2.231695e-10 5.135869e-11
3.163027e-10 -3.821313e-08 -3.131748e-09 -4.332549e-08 2.771991e-08 1.160752e-08
-2.231536e-08 8.357924e-09 -9.754901e-09 -4.321644e-08 1.790808e-08 2.073207e-08
9.283634e-09 -2.374299e-09 2.451506e-10 8.828516e-09 6.566033e-10 -1.181642e-09
6.133893e-09 -1.814645e-08 -2.000183e-08 -3.020276e-08 2.315619e-08 1.048789e-08
-1.733024e-08 2.500037e-08 -1.108254e-08 -1.656121e-08 7.949270e-09 8.682598e-09
-7.339576e-09 1.793551e-09 1.737190e-09 9.088010e-10 4.526931e-10 -8.673748e-10
-7.308025e-09 2.472027e-09 1.425079e-09 1.299026e-09 1.635495e-10 -4.047616e-10
-6.782646e-09 2.187547e-09 1.440541e-09 1.458121e-09 2.302191e-10 -3.491474e-10
8.551776e-09 -2.551643e-09 -2.479585e-10 9.269576e-09 3.561274e-10 -5.107466e-10
1.079806e-08 -3.735144e-09 -2.692686e-10 7.663287e-09 -1.324504e-10 -1.765015e-09
1.343140e-08 -6.408122e-09 -1.591329e-09 1.548746e-09 7.230888e-11 -3.277883e-10
9.723365e-09 -2.490152e-09 -1.292204e-09 8.957759e-09 1.042490e-10 -6.459058e-10
-4.419894e-09 4.816436e-09 7.776890e-11 6.044279e-09 9.465715e-10 2.424058e-10
8.593402e-10 3.159788e-09 1.361988e-09 1.104030e-08 -4.785441e-10 -2.378901e-09
-1.205031e-08 -8.022466e-09 -4.263376e-09 1.410189e-08 -1.085202e-08 7.559960e-09
-6.142543e-09 -3.790861e-08 -7.876190e-09 4.932359e-08 -3.899771e-08 2.639385e-08
-1.218368e-08 1.301872e-08 -1.476190e-08 2.985672e-09 -1.029210e-08 1.165526e-08
-1.259474e-08 -7.179904e-09 -8.670279e-09 1.864173e-08 -1.736265e-08 1.392426e-08
-4.704226e-08 -2.955272e-08 -2.301267e-08 7.687119e-08 -6.625150e-08 5.952483e-08
-6.337108e-09 -3.897222e-09 2.651549e-09 -6.814542e-09 1.534515e-09 -1.224204e-09
-7.012099e-09 -5.012297e-09 2.955889e-09 -4.801961e-09 1.718715e-10 -7.220329e-10
-1.672690e-08 1.303386e-08 -6.274625e-11 -1.801455e-09 1.994193e-09 1.635357e-09
-1.320755e-08 -2.697653e-10 -1.722980e-08 2.730974e-08 -3.115601e-08 2.393087e-08
-1.011649e-08 -7.916709e-09 1.836692e-09 -1.483802e-08 4.137305e-09 5.180654e-10
-1.521340e-08 -6.342789e-09 -9.240073e-10 1.829828e-08 -1.681328e-08 1.389777e-08
3.596778e-08 -1.119109e-08 -6.447382e-10 -2.907330e-09 3.926338e-10 -1.032560e-08
-2.383194e-09 -7.713778e-09 -8.661060e-09 1.145799e-08 -1.068999e-08 3.707825e-09
1.989410e-09 -1.839496e-10 -1.968716e-08 1.241512e-08 -1.755441e-08 1.052026e-08
6.479457e-09 8.462024e-09 -2.636221e-09 -1.946249e-08 -8.434801e-10 -5.583198e-11
-6.977762e-09 1.250065e-08 -1.824551e-08 5.393000e-09 -1.665061e-08 1.404750e-08
-5.876837e-09 4.839646e-08 -6.278881e-08 1.121102e-08 -5.616712e-08 5.611916e-08
-1.810653e-08 -8.232779e-09 -2.598385e-09 2.077094e-08 -1.487693e-08 1.168971e-08
3.315303e-08 -1.601213e-08 2.360496e-08 -6.766158e-09 4.498595e-09 -2.359519e-08
1.503143e-08 -8.108821e-09 -9.978618e-10 2.105953e-09 -3.475889e-12 -1.272896e-09
3.359001e-09 -1.675964e-09 -5.456264e-10 3.296565e-09 8.919177e-11 1.000444e-11
2.054874e-09 8.249590e-11 -4.179757e-10 5.460876e-09 4.735951e-10 6.427592e-11
-1.205663e-08 2.127241e-09 -4.318446e-09 1.061458e-08 -1.029809e-08 7.690177e-09
6.903596e-09 -3.524926e-09 -9.445507e-10 3.019824e-09 3.580433e-10 1.573934e-10
-1.187764e-08 7.880791e-09 -2.366269e-09 -1.885928e-09 -5.870797e-09 4.536055e-09
2.008557e-08 -7.853423e-09 -1.030053e-09 -3.125003e-10 -1.866515e-10 -8.020677e-10
8.521585e-09 -3.523785e-09 -1.293042e-09 -5.169546e-09 -2.855883e-10 -5.657565e-11
-1.361838e-08 8.784202e-09 -2.325600e-09 -1.681454e-09 -4.721890e-09 3.557595e-09
-1.136190e-08 1.958290e-09 8.770329e-10 7.529686e-10 -3.924889e-09 2.095068e-09
-1.530474e-08 6.312019e-10 -3.703450e-09 8.205185e-09 -9.231261e-09 7.372586e-09
7.221872e-09 -4.238900e-10 -9.593513e-10 9.271150e-09 1.960594e-11 -1.278928e-09
-7.854251e-10 1.853762e-09 -8.258882e-10 -8.988347e-09 -7.491475e-10 1.677036e-10
-1.643368e-08 1.187355e-08 -4.920080e-09 4.141682e-09 -7.495679e-09 8.709044e-09
1.892739e-08 -9.908760e-08 -1.381074e-08 5.965457e-08 -8.656189e-08 3.109609e-08
3.018556e-08 -3.763383e-08 -2.596869e-08 -4.404614e-09 -3.338702e-08 1.327573e-09
-1.193740e-08 8.553630e-09 -9.671200e-09 -2.166315e-09 -8.315102e-09 7.245286e-09
-1.428829e-08 1.138484e-08 -6.892956e-09 2.634405e-09 -9.202834e-09 8.650779e-09
-1.386178e-08 3.089785e-09 -9.490367e-09 8.426492e-09 -9.211098e-09 8.916916e-09
-1.339675e-08 5.164751e-09 -4.878741e-09 1.847496e-09 -5.321019e-09 5.133293e-09
-1.091305e-08 1.232324e-08 -5.420705e-09 -4.161869e-09 -4.146106e-09 4.930851e-09
3.123684e-09 -2.313314e-08 3.559200e-09 -1.039598e-08 2.248387e-09 4.703018e-10
-8.261601e-10 -1.645838e-08 2.893898e-09 -1.395670e-08 3.536178e-09 -1.005646e-10
2.464928e-10 -2.177833e-08 3.382037e-09 -1.679468e-08 3.660112e-09 1.092531e-09
-1.792557e-10 -1.788324e-08 4.115992e-09 -1.440127e-08 3.436982e-09 -3.769321e-10
-7.983164e-10 -1.694695e-08 2.846678e-09 -1.246248e-08 2.404854e-09 -1.158284e-10
5.573023e-09 -3.022899e-08 5.110983e-09 -1.537940e-08 3.534825e-09 -3.004135e-10
-9.285979e-10 -1.730874e-08 3.547454e-09 -1.181123e-08 1.368948e-09 6.158961e-12
1.688834e-08 -7.145277e-09 -2.235629e-09 -2.345711e-09 -1.627684e-10 1.913495e-10
-3.993470e-09 1.941637e-07 -2.077598e-07 -2.419759e-08 1.340486e-07 1.073877e-07
-2.968993e-08 1.341343e-07 -2.056204e-07 -2.864665e-08 1.242834e-08 -7.535527e-09
-1.313322e-07 3.351797e-08 1.536486e-07 -1.748298e-08 8.362236e-08 -9.873786e-08
-9.473660e-09 1.225328e-08 -1.828946e-09 -1.251893e-08 -3.066480e-09 4.943762e-09
1.624179e-08 4.827169e-10 5.715520e-09 -2.448635e-08 6.069416e-09 -7.441564e-09
2.479738e-08 -1.105601e-08 2.630134e-09 -1.893609e-09 4.292544e-10 -5.706333e-09
-4.525110e-09 8.649303e-09 -4.541862e-09 -1.553945e-08 -1.766471e-09 2.975681e-09
-2.420273e-08 1.878936e-08 1.031780e-09 -5.055828e-09 -8.517640e-10 9.104051e-09
9.641551e-09 -9.829434e-10 4.857910e-09 -2.313503e-08 4.783683e-09 -3.239551e-09
2.122571e-08 -9.186442e-09 4.417595e-10 1.972452e-09 5.132858e-10 -2.817826e-09
-2.383662e-09 4.782786e-09 -1.139688e-11 6.660074e-09 1.001751e-09 -8.998651e-10
2.376090e-08 -8.648272e-09 -3.437121e-09 -4.680557e-09 -1.821987e-11 -2.854184e-09
6.313080e-09 -2.030018e-09 -1.182305e-09 6.193123e-09 1.012188e-09 -5.251639e-11
8.521588e-09 -2.061906e-09 -1.196075e-09 7.685352e-09 8.416496e-10 -1.163085e-10
2.180827e-07 2.762711e-08 7.553587e-08 7.707789e-08 3.029617e-08 2.459351e-07
1.830327e-08 -6.125636e-09 -2.773837e-09 -8.249434e-09 1.404867e-10 -8.841048e-10
-4.804361e-09 2.289340e-09 7.368479e-10 3.342448e-09 3.483203e-10 -5.806107e-10
-1.486324e-08 4.031700e-09 -8.884333e-10 -9.938147e-09 2.345981e-09 1.359767e-09
-8.415770e-09 4.199291e-10 1.923679e-09 -2.681119e-09 1.195174e-09 -1.549717e-09
1.773093e-08 -5.555984e-08 -1.137293e-08 2.900029e-08 -4.648668e-08 1.575502e-08
-3.206046e-09 -1.515004e-09 -4.602912e-08 2.510794e-08 -4.238639e-08 2.971237e-08
3.260624e-08 -5.006387e-08 -5.200239e-08 -4.488220e-08 -8.451619e-08 -1.735087e-08
3.986525e-08 -9.365406e-08 -9.353973e-09 -1.584756e-08 -7.039122e-08 -1.062616e-08
3.033285e-08 -7.844504e-08 -7.910278e-09 -3.589365e-08 -4.907515e-08 -7.894102e-09
2.534343e-08 -6.805031e-08 -1.541825e-09 -2.364770e-08 -3.885106e-08 -8.644743e-09
-1.509603e-08 1.917156e-09 -3.082379e-09 -1.672041e-08 5.570449e-09 3.801350e-09
-1.891723e-08 2.308638e-08 -1.817883e-09 -5.361861e-09 -6.415461e-10 2.526024e-09
-1.504047e-08 1.741451e-08 -8.061285e-11 2.300690e-09 7.500231e-10 3.020961e-10
-1.782635e-08 1.747631e-08 -4.710146e-09 -1.155109e-08 3.075136e-09 3.538376e-09
-1.829544e-08 1.107227e-08 -4.466725e-09 -1.334563e-08 4.100156e-09 5.942735e-09
-9.439501e-09 3.075603e-10 2.658789e-09 -1.135988e-08 2.290794e-09 -2.508485e-11
3.784138e-08 -9.195227e-08 -6.909253e-09 1.143013e-08 -4.629995e-08 4.977736e-09
1.732876e-08 -2.644640e-08 -5.111593e-08 -5.125694e-08 -8.385895e-08 -3.225428e-08
2.694905e-08 8.036023e-08 -1.356297e-07 4.537910e-08 9.112488e-08 -6.963709e-08
-2.197577e-08 2.140090e-07 -3.955866e-07 2.842730e-08 1.432051e-07 -1.126188e-07
3.159096e-08 -8.238430e-08 -5.366299e-09 -9.252370e-09 -4.600120e-08 -2.575950e-10
2.684670e-08 -3.260373e-08 -2.631920e-08 -1.352376e-08 -3.227178e-08 -2.252662e-09
4.460122e-08 -5.715873e-08 -7.854344e-08 6.339474e-09 8.199138e-08 1.747474e-09
3.376814e-08 -6.313982e-08 -3.818504e-08 -3.945719e-08 6.870406e-08 2.550286e-08
5.568184e-08 -5.581787e-08 -5.932547e-08 1.876157e-09 9.117898e-08 4.210559e-09
1.211253e-07 -3.961544e-08 -1.525782e-07 1.256189e-08 2.210557e-07 -1.978703e-09
6.128171e-08 -1.632336e-08 -1.146236e-07 -3.344376e-08 1.375037e-07 4.494183e-08
3.297532e-08 -1.038926e-07 -3.272417e-09 6.444989e-11 -4.393725e-08 2.283885e-09
5.738102e-08 3.462077e-08 -1.158114e-07 -3.083038e-08 9.394811e-08 2.436139e-08
9.545652e-09 -3.909671e-08 6.034875e-09 1.046182e-08 3.187758e-09 -2.160903e-10
1.093231e-08 -4.076245e-08 6.640221e-09 1.107867e-08 3.763869e-09 -6.887931e-10
-7.684773e-09 1.384860e-09 2.315753e-09 3.426254e-10 3.516923e-10 -5.247076e-10
9.100857e-09 -3.924709e-08 6.968211e-09 1.226865e-08 2.244707e-09 -6.373127e-11
-7.750448e-09 -8.235527e-10 3.065669e-09 -2.983199e-09 6.208112e-11 -2.757599e-10
-7.346297e-09 -3.872912e-09 3.502862e-09 -3.894535e-09 3.275160e-12 -8.370220e-10
4.257626e-09 -3.739272e-08 5.172551e-09 1.931475e-08 5.720769e-09 -1.210202e-09
-1.154513e-09 1.386323e-09 6.325229e-11 4.571004e-09 6.780300e-10 -6.395407e-11
1.300867e-08 -4.112292e-08 2.925763e-09 1.130988e-08 3.964965e-09 -4.621818e-10
-1.668887e-09 2.335575e-09 3.522702e-10 6.240589e-09 4.530198e-10 -3.713811e-10
-7.308216e-09 2.952912e-09 1.397458e-09 1.155079e-09 8.100844e-10 -4.487621e-10
-4.816067e-09 4.475526e-09 5.506191e-10 4.885301e-09 9.925392e-10 -1.518246e-10
6.566827e-09 -3.432232e-08 5.120683e-09 1.544987e-08 4.312122e-09 -8.860929e-10
1.176387e-08 -3.961844e-08 4.658284e-09 1.064511e-08 2.285817e-09 7.464553e-10
-1.313562e-08 2.494590e-09 1.218431e-09 2.230154e-09 -3.387755e-09 2.502885e-09
-7.980615e-09 1.828331e-09 1.876795e-09 -1.425316e-10 4.750624e-10 -7.793168e-10
9.967316e-09 -5.205049e-09 -1.207408e-09 1.839797e-09 3.145694e-10 3.517595e-10
1.067098e-08 -5.777877e-09 -1.576234e-09 -2.272474e-09 -1.781734e-10 2.198975e-10
1.337810e-08 -6.273797e-09 -1.165732e-09 2.784907e-09 2.657461e-10 -1.119331e-09
-1.122472e-08 4.527144e-09 -5.370926e-10 -1.296822e-09 -2.331341e-09 3.343158e-10
1.670059e-08 -5.886123e-09 1.693064e-09 1.047243e-08 -7.166266e-10 -4.195290e-09
-1.129129e-08 7.177350e-09 -1.201783e-09 -2.021268e-09 -3.767515e-09 2.116752e-09
7.117958e-09 1.174258e-09 -1.338749e-09 1.145965e-08 -4.806124e-11 -3.890447e-09
-1.057169e-07 6.800669e-08 1.975251e-07 -6.210456e-09 -1.560435e-07 -3.576328e-08
-1.047134e-07 4.789328e-07 -3.644183e-07 -3.434428e-07 2.344999e-08 -1.952558e-07
6.830816e-08 -1.391493e-07 -1.214954e-07 -7.783434e-08 2.781874e-07 5.537629e-08
-1.059366e-08 3.774478e-09 -9.984853e-10 -1.773553e-09 -1.703374e-09 4.905116e-10
-1.040547e-08 1.009705e-08 -2.243333e-09 -6.395071e-09 -2.849961e-09 3.798324e-09
9.025350e-09 1.202245e-07 -1.849965e-07 2.722574e-09 9.150511e-08 4.098943e-08
4.626372e-09 2.530872e-09 2.832290e-08 -2.634415e-08 1.044419e-08 -1.023725e-08
-7.758896e-09 2.640288e-08 2.547198e-08 -8.107631e-08 5.666167e-08 -1.548059e-08
-8.158698e-09 3.915103e-09 1.301196e-09 -3.701836e-09 -1.438122e-09 -5.539990e-11
-1.121075e-08 7.199217e-09 -3.963385e-09 -2.063810e-09 -4.080580e-09 2.598633e-09
-1.063255e-08 5.373575e-09 -3.427558e-09 -3.164848e-09 -3.801789e-09 1.919123e-09
-7.910308e-09 5.504841e-09 -5.961960e-10 -6.757721e-09 -2.174176e-09 4.098966e-10
-1.205256e-08 7.793613e-09 6.935872e-10 -5.893170e-09 1.085765e-09 3.837368e-10
-1.162859e-08 7.872184e-09 -6.660703e-10 -1.975780e-09 -4.652642e-09 3.282541e-09
-1.086834e-08 4.688389e-09 -1.090386e-09 -4.647436e-09 -4.012876e-09 1.492067e-09
-5.103162e-09 -1.024804e-08 4.034348e-09 -7.398116e-09 7.290811e-11 -5.354845e-10
-1.277681e-08 5.332925e-09 6.963241e-10 -3.548082e-09 1.219081e-09 1.340210e-10
-7.913916e-09 7.274794e-10 1.931018e-09 -4.554941e-10 6.057821e-11 -3.206517e-10
-7.417066e-09 2.986180e-10 2.476592e-09 -1.000746e-10 2.794798e-10 -7.997023e-10
-6.958414e-09 1.346001e-09 1.850549e-09 7.569121e-10 1.006564e-10 -2.588729e-10
-7.794978e-10 -1.453079e-08 1.380546e-09 -1.272481e-08 2.083235e-09 -2.016670e-10
-1.460491e-08 3.621517e-09 6.123613e-11 -1.141287e-08 3.466584e-09 1.376633e-09
6.370961e-09 -2.811070e-08 3.241004e-09 -1.521546e-08 1.792000e-09 2.108021e-10
6.352765e-10 -2.054989e-08 4.277994e-09 -9.820256e-09 7.429678e-10 -6.532535e-10
-6.987203e-09 1.649915e-09 1.507512e-09 7.434411e-10 4.204304e-10 -4.017072e-10
-7.635887e-09 1.756401e-09 2.041356e-09 8.327121e-10 3.799940e-10 -6.547706e-10
4.221788e-10 -2.110696e-08 3.425896e-09 -2.047005e-08 7.069425e-09 9.305004e-10
-7.257667e-09 2.657204e-09 1.739976e-09 1.481865e-09 5.415225e-10 -3.519490e-10
-7.705321e-09 2.096003e-09 1.925649e-09 7.595786e-10 -8.476953e-11 -3.163989e-10
6.077555e-10 -1.849465e-08 4.207197e-09 -8.343829e-09 1.404404e-09 -7.336762e-10
-4.218244e-09 -1.066656e-08 3.824443e-09 -1.130038e-08 2.286009e-09 -6.642395e-10
-3.373227e-09 -1.216339e-08 3.132851e-09 -1.081243e-08 2.165799e-09 -4.183276e-11
-1.275210e-08 -9.884220e-09 -4.680504e-10 1.273028e-08 -1.012555e-08 5.101857e-09
-7.402954e-09 -6.616940e-09 2.122759e-09 -9.769166e-09 2.408325e-09 -1.720651e-10
-2.917058e-09 -1.042189e-08 3.775578e-09 -6.572585e-09 9.736361e-10 -8.324239e-10
-5.271905e-09 -9.981369e-09 3.552502e-09 -7.009541e-09 8.767371e-10 -6.695666e-10
-2.970666e-09 -1.575648e-08 3.461635e-09 -1.050633e-08 1.658007e-09 -4.129274e-10
-7.913470e-09 9.832615e-10 2.521195e-09 -6.778284e-10 -3.886380e-11 -2.441879e-10
-3.070531e-09 -1.582595e-08 4.553737e-09 -1.041512e-08 1.538171e-09 -9.489254e-11
-7.230049e-09 2.267650e-09 1.784801e-09 1.188528e-09 4.194800e-10 -3.001810e-10
-8.154754e-09 1.864499e-09 1.750270e-09 2.564568e-10 3.752724e-10 -7.922114e-10
-9.384238e-09 1.577569e-10 2.152510e-09 -3.165222e-09 3.344608e-10 -2.297963e-10
-6.559699e-09 2.650457e-09 1.278542e-09 2.093601e-09 1.436347e-10 -4.228911e-10
-7.345022e-09 -8.774224e-09 3.100250e-09 -9.849356e-09 1.522799e-09 -4.907844e-10
-7.927912e-09 2.815789e-09 1.930122e-09 9.067547e-10 9.346811e-11 -3.349222e-10
-8.795384e-10 -2.021118e-08 3.647716e-09 -1.173028e-08 2.435130e-09 1.353030e-10
-1.203485e-08 -2.276290e-10 1.246234e-09 -8.544351e-09 1.380045e-09 5.509654e-10
-8.628214e-09 2.713836e-09 1.118293e-09 -1.351995e-09 1.283027e-09 -6.073855e-10
-7.729160e-09 -4.150835e-10 2.112065e-09 -1.543303e-09 3.011944e-11 -7.531866e-10
-7.706482e-09 1.266177e-09 1.904228e-09 3.239205e-11 3.178419e-10 -5.319483e-10
-9.202906e-09 -4.740385e-10 2.416876e-10 -1.244430e-08 4.577407e-09 1.318120e-09
-8.686270e-09 4.456219e-09 9.987229e-10 -4.038790e-09 -1.488782e-09 -4.998161e-10
-8.906296e-10 -1.626760e-08 4.130847e-09 -8.842278e-09 1.903874e-09 -2.947724e-10
-1.241239e-08 1.231236e-08 -1.422749e-08 3.662745e-09 -1.013531e-08 1.199409e-08
-8.168783e-09 4.976887e-09 7.223080e-10 -4.806821e-09 -4.035090e-10 -2.716143e-10
-8.728418e-09 4.913437e-09 6.659349e-10 -4.480811e-09 -1.053206e-09 -7.829004e-11
-4.692451e-09 2.888903e-09 4.866245e-10 4.231236e-09 3.725796e-11 -1.095233e-09
-6.166767e-09 -6.642256e-09 1.088716e-09 -1.178690e-08 1.539803e-09 -5.044032e-10
-4.134178e-09 -1.192207e-08 4.642224e-09 -9.625700e-09 1.151046e-10 -1.108143e-09
-6.877012e-09 4.536201e-09 5.605452e-10 -4.558289e-09 -2.246729e-10 -3.179292e-10
-4.597681e-09 4.749654e-09 -6.592902e-10 -9.831140e-09 -2.526073e-09 9.627999e-10
-7.574647e-09 1.719155e-09 1.754968e-09 1.050370e-09 1.720437e-10 -4.753546e-10
8.547099e-09 -3.452406e-09 -1.388421e-09 -7.795567e-09 -1.889806e-10 -3.742140e-11
9.056375e-09 -4.256218e-09 -1.450836e-09 -6.617179e-09 -4.113696e-10 6.688862e-11
9.016967e-09 -2.803154e-09 -1.480968e-09 -6.675168e-09 -4.647053e-10 1.056075e-10
6.339466e-09 -1.708799e-09 -1.283395e-09 -6.901992e-09 -2.557787e-10 5.641457e-11
2.001705e-08 -5.236132e-08 -4.017107e-09 -1.646383e-09 1.049760e-08 4.405252e-11
6.588381e-09 -1.991077e-09 -1.351765e-09 -7.719539e-09 -5.319666e-10 6.386811e-10
8.703073e-09 -3.292300e-08 6.274780e-09 -1.020662e-08 1.318037e-09 -1.302896e-10
1.817439e-08 -4.334817e-08 -1.149112e-09 2.887431e-09 5.564265e-09 -7.435150e-10
1.430543e-08 -4.745703e-08 6.651319e-09 5.292769e-09 3.557121e-09 -2.565166e-10
1.526279e-08 -4.665935e-08 2.501377e-09 1.009636e-08 7.089468e-09 -9.373764e-10
-9.335301e-09 -5.239953e-09 2.301834e-09 -1.209764e-08 1.541207e-09 1.828349e-10
-1.116748e-08 4.411718e-09 1.523307e-09 -5.316525e-09 2.224043e-09 -7.999223e-11
-7.351280e-09 -8.724502e-09 4.078299e-09 -9.849216e-09 1.093400e-09 -3.612943e-10
5.041265e-09 -3.449255e-08 6.774870e-09 1.296689e-08 3.141172e-09 -1.046619e-09
-9.267989e-09 -1.423603e-09 1.718791e-09 -6.479057e-09 4.695364e-10 -6.427634e-10
-3.136080e-08 -1.084719e-07 1.337467e-08 -1.224350e-07 6.190025e-08 4.832665e-08
-1.139153e-08 4.127060e-09 1.379008e-09 -5.679990e-09 1.408734e-09 5.490290e-10
-7.019962e-09 -4.968943e-09 3.434743e-09 -7.003399e-09 3.101970e-10 -1.091693e-09
-5.774115e-09 1.175487e-08 -3.836937e-08 -3.129941e-08 3.257066e-08 2.304541e-08
1.341620e-08 5.876652e-09 -5.830553e-08 -3.074454e-08 5.356319e-08 1.976870e-08
5.097208e-09 -2.314061e-09 -7.685226e-10 4.637639e-09 2.558432e-10 -2.262959e-10
-8.637761e-09 1.407967e-09 1.931213e-09 -1.877430e-09 9.650252e-10 -1.395864e-10
4.232530e-09 -2.281324e-09 -7.246868e-10 3.267128e-09 4.186121e-10 3.782591e-11
4.215531e-09 -9.113904e-10 -6.761024e-10 6.718321e-09 1.931674e-10 1.767159e-10
-2.054167e-09 1.815349e-09 1.528329e-10 5.105761e-09 2.991609e-10 -2.731636e-10
6.681198e-10 -6.096007e-11 -4.201994e-11 5.156445e-09 5.306628e-10 -1.488423e-10
3.103700e-09 -7.971752e-10 -6.574177e-10 5.372307e-09 1.633951e-10 1.275855e-10
2.337088e-09 -1.430352e-09 -4.566216e-10 3.107415e-09 4.902966e-10 1.541656e-12
-1.274191e-09 5.991221e-09 -1.916777e-09 -1.276155e-08 -1.266715e-09 9.182765e-10
-8.749878e-09 -3.581241e-10 1.981662e-09 -5.725788e-09 1.017505e-09 -2.388277e-10
6.531300e-09 -2.619681e-09 -1.209816e-09 -4.172305e-09 -1.545173e-10 1.271010e-10
-1.054101e-08 1.461596e-09 1.813000e-09 -4.891276e-09 1.116063e-09 -4.181105e-10
9.396362e-09 -4.577572e-09 -1.405408e-09 -5.143388e-09 -4.595452e-10 4.757096e-10
1.236821e-08 -7.000429e-09 -1.605678e-09 -1.450470e-09 2.032075e-11 -1.015987e-11
1.209165e-08 -4.359851e-09 -1.404905e-09 -6.664661e-09 -4.931378e-10 -9.065282e-11
-8.969478e-09 -5.986864e-10 8.551901e-10 -9.840041e-09 2.033222e-09 5.930233e-10
-6.092511e-09 -4.155730e-09 2.643129e-09 -6.060632e-09 9.678430e-10 -7.972976e-10
5.752834e-09 -2.400133e-09 -1.146452e-09 -8.010847e-09 -5.612443e-10 3.036945e-10
-6.340440e-09 -6.635568e-09 3.015168e-09 -7.904308e-09 1.915033e-09 -6.494021e-10
6.069218e-09 -2.664178e-09 -1.256179e-09 -4.957309e-09 -2.227798e-10 -1.005349e-10
2.500537e-08 -4.104431e-08 -5.978376e-08 1.968756e-08 -9.183401e-08 3.718721e-08
1.778927e-08 7.016786e-08 -1.247476e-07 -1.721932e-08 -5.896445e-08 3.024342e-08
3.687759e-08 -1.853572e-08 -1.178205e-07 1.635397e-08 -1.129259e-07 2.782641e-08
1.783456e-08 4.295722e-08 -9.942723e-08 -8.365423e-09 -7.344330e-08 2.703529e-08
-7.582843e-09 -4.925350e-09 2.750538e-09 -8.120332e-09 3.525329e-10 -5.428760e-10
-2.067108e-09 7.924147e-08 -1.054576e-07 -1.896184e-08 -8.207149e-08 7.878858e-09
-5.729877e-09 -8.106742e-09 4.873728e-10 -1.365517e-08 4.496916e-09 -2.015704e-10
-9.941344e-09 1.195344e-09 1.392325e-09 -1.111682e-08 2.558379e-09 1.234639e-09
-8.545254e-09 -4.032489e-10 1.801821e-09 -5.168121e-09 1.427917e-09 -8.292956e-11
-1.546483e-08 8.138527e-09 -8.558808e-08 -1.246611e-07 -1.542584e-07 -8.489391e-08
-7.850729e-09 1.594241e-09 2.300531e-09 2.114462e-10 5.728544e-10 -4.417995e-10
-7.725614e-09 3.539715e-10 2.328420e-09 -9.396781e-10 3.626373e-10 -6.750539e-10
-7.536535e-09 -4.054979e-10 2.320630e-09 -7.731519e-10 5.946482e-10 -6.506158e-10
-7.883223e-09 7.331258e-10 1.948428e-09 -1.388728e-09 5.323975e-10 -7.554910e-10
-2.139777e-08 6.031682e-08 -3.534025e-08 2.233026e-08 -1.692244e-08 -2.560263e-08
-7.738745e-09 -2.364051e-09 2.400153e-09 -2.644418e-09 1.572653e-10 -5.384345e-10
-1.523311e-09 2.421786e-09 -5.249180e-10 -7.700867e-09 -1.057030e-09 -5.587424e-10
-7.809349e-09 -4.989781e-11 2.792474e-09 -1.535408e-09 5.659209e-10 -4.564820e-10
-7.764586e-09 -2.669973e-09 2.866621e-09 -2.542472e-09 6.596900e-10 -6.033868e-10
-7.640432e-09 -2.539902e-10 2.500230e-09 -8.494129e-10 3.182100e-10 -2.993215e-10
-8.552549e-09 7.824774e-09 -1.943754e-09 -8.548419e-09 -1.599745e-09 1.200061e-09
-7.899886e-09 1.366397e-09 2.086026e-09 -1.939420e-10 5.392065e-11 -6.770964e-10
-7.542029e-09 -9.650191e-10 2.639154e-09 -1.432766e-09 2.564183e-10 -8.809406e-10
2.277151e-08 -4.562692e-08 -5.862336e-09 -6.804055e-09 9.765229e-09 2.644178e-10
-7.536537e-09 -8.726486e-10 2.694780e-09 -7.513885e-10 9.854917e-11 -5.973020e-10
1.058987e-08 -3.738058e-08 6.337317e-09 -6.735977e-09 2.291972e-09 -9.297447e-10
1.392374e-08 -7.811238e-09 -1.480937e-09 -1.793496e-10 6.048942e-11 -3.501388e-10
-8.401333e-09 -5.685980e-10 2.137032e-09 -5.874943e-09 2.123489e-09 -5.623663e-10
-7.639065e-09 -2.714271e-09 3.038911e-09 -4.087289e-09 1.161060e-10 -8.385011e-10
-6.655889e-09 -5.045850e-09 3.213758e-09 -4.817799e-09 1.079747e-10 -3.806594e-10
1.131569e-08 -5.241993e-09 -1.643171e-09 -3.536375e-09 -3.012674e-10 5.646841e-10
-7.218468e-09 -1.807694e-09 2.809355e-09 -3.404159e-09 3.836003e-10 -1.011068e-09
1.241982e-08 -5.141248e-09 -8.918752e-10 5.511591e-09 2.697617e-10 4.099539e-10
-7.723396e-09 -3.778284e-10 2.101203e-09 -1.523074e-09 1.084168e-09 -5.755165e-10
3.300560e-08 8.488843e-11 -1.366265e-08 -2.265456e-08 -1.425624e-10 -5.897780e-09
1.979585e-08 -7.875797e-09 4.054275e-10 5.922724e-09 -1.673305e-10 -3.188854e-09
-7.774317e-09 1.466883e-09 1.747874e-09 2.899651e-10 4.580293e-10 -2.399662e-10
-7.527661e-09 -3.993385e-09 2.870742e-09 -4.638969e-09 3.177290e-10 -7.812269e-10
-6.281094e-09 -4.588107e-09 3.672536e-09 -3.582721e-09 1.980696e-10 -4.047154e-10
-2.571305e-09 -1.453822e-08 4.289810e-09 -9.770672e-09 5.029415e-10 -1.000973e-09
-4.495948e-09 -1.082007e-08 4.325355e-09 -6.916763e-09 4.692707e-12 -1.028364e-09
-7.617846e-09 2.525451e-09 1.495465e-09 1.158975e-09 -4.391243e-11 -1.000611e-10
-6.165222e-09 -6.036211e-09 3.079089e-09 -6.684520e-09 8.862659e-10 -5.814328e-10
-6.086324e-09 -6.002081e-09 3.817151e-09 -6.150758e-09 4.835311e-11 -1.000649e-09
-7.849248e-09 1.706951e-09 2.092470e-09 6.686382e-10 3.399947e-12 -2.524856e-10
-7.718286e-09 -6.457590e-11 2.174564e-09 -7.689077e-10 1.111934e-10 -4.817019e-10
-8.283482e-09 -1.875166e-10 2.276558e-09 -2.133030e-09 2.383785e-10 -8.818324e-10
-1.071455e-08 5.612351e-09 6.522582e-10 9.818342e-10 6.834625e-10 -8.476199e-10
-1.347421e-08 1.542916e-09 -5.631964e-09 7.303486e-09 -1.053838e-08 7.194231e-09
-8.456672e-09 1.907643e-09 1.939910e-09 -4.174458e-09 1.560034e-09 -1.580105e-09
-7.488507e-09 -6.953408e-09 -8.004989e-09 1.260958e-08 -1.065233e-08 8.327142e-09
-1.683543e-08 1.227341e-08 -2.674996e-08 1.268380e-08 -2.579673e-08 2.235585e-08
-7.735235e-09 -1.517328e-09 1.996720e-09 -8.928920e-09 2.227471e-09 -1.432697e-09
-2.469604e-08 6.659305e-09 -3.114619e-09 2.141015e-08 -2.379642e-08 2.067111e-08
1.055285e-08 -5.143755e-09 -1.213771e-09 5.218191e-09 -4.696750e-11 -1.129550e-10
-1.322447e-08 1.257967e-08 -7.357819e-09 1.502355e-09 -1.038072e-08 9.886025e-09
-1.868726e-08 7.996358e-09 -1.527602e-09 6.833093e-09 -1.336571e-08 1.032492e-08
3.887150e-09 -1.216350e-09 -7.242482e-10 -4.191749e-09 -5.395085e-10 1.288952e-10
-1.645793e-08 1.024300e-08 -4.974165e-09 3.878802e-09 -8.367187e-09 8.482142e-09
-1.205625e-08 -9.319992e-09 1.371939e-09 1.444450e-08 -1.011772e-08 6.650908e-09
1.366333e-08 -6.941132e-09 -1.827704e-09 -3.028510e-09 -2.599497e-10 4.836809e-10
-1.333812e-08 -1.560097e-08 -2.872902e-08 3.783077e-08 -4.374080e-08 3.270112e-08
-1.528831e-08 -6.326863e-09 -8.328807e-09 1.827794e-08 -1.658085e-08 1.255723e-08
-1.343866e-08 1.259099e-08 -1.477249e-08 1.527301e-09 -1.078215e-08 1.141542e-08
1.406695e-08 -4.223199e-09 -2.091350e-09 -9.273120e-09 -1.267188e-10 2.157614e-10
-9.700557e-09 -1.818602e-09 -5.880889e-09 6.321664e-09 -5.675481e-09 4.146987e-09
-1.031758e-08 7.307664e-09 -5.108651e-10 -1.627052e-09 -3.461220e-09 2.963659e-09
6.086074e-09 1.005559e-08 8.772460e-08 -3.469328e-08 2.601344e-08 -6.047600e-08
-5.349120e-09 -1.570404e-08 2.823016e-09 -1.621573e-08 3.682220e-09 8.188702e-11
-7.757651e-09 -8.462887e-09 2.916902e-09 -1.096862e-08 2.335435e-09 -4.117587e-10
-7.353009e-09 4.771140e-09 2.742278e-10 -5.863822e-09 -8.664559e-10 -2.777136e-10
1.280395e-08 1.207832e-08 7.368066e-08 -2.031407e-08 4.287381e-08 -8.834859e-08
1.324128e-08 1.030681e-08 7.446405e-08 -3.941928e-08 2.870426e-08 -7.103166e-08
-3.070359e-08 8.765831e-08 -2.545244e-08 -3.298678e-08 1.634962e-08 2.466406e-08
-5.432033e-09 3.898089e-09 3.324754e-10 -3.722138e-09 -5.594835e-10 -3.713485e-10
-5.060057e-09 3.957400e-09 3.350746e-10 -4.445161e-09 -4.910435e-10 -4.238723e-10
-6.252932e-09 5.098851e-09 -4.499885e-10 -6.634431e-09 -8.461654e-10 5.645315e-10
1.043887e-08 -2.216896e-09 3.474461e-08 -3.184951e-08 2.049972e-08 -1.890250e-08
-9.752607e-09 3.054567e-08 1.373248e-07 4.977944e-08 -6.993202e-08 -9.195691e-08
-2.229983e-07 1.571550e-07 2.842740e-07 -1.441138e-07 1.043229e-07 -4.145139e-07
9.544578e-09 -4.974348e-09 -1.376598e-09 -4.461588e-09 -2.926804e-10 -1.959322e-11
9.104026e-09 -4.239135e-09 -1.301182e-09 -3.548641e-09 -1.437609e-10 6.854939e-11
-1.436622e-08 6.421755e-08 -2.477588e-08 -5.413046e-08 1.066680e-08 2.300936e-08
8.356528e-09 -3.631290e-09 -1.243908e-09 -4.736720e-09 -5.238716e-10 4.505351e-10
8.506994e-09 -3.631182e-09 -1.401563e-09 -4.728742e-09 -5.293773e-10 4.825412e-10
-2.599282e-08 4.044554e-08 -1.263029e-08 -2.471514e-09 9.456024e-09 -2.011799e-08
-6.834987e-08 3.989368e-08 -3.180559e-08 7.619816e-08 4.093948e-08 -5.681125e-08
2.174498e-09 1.071529e-08 8.184071e-08 1.108470e-08 -1.771976e-08 -7.259354e-08
-4.232680e-08 6.512317e-08 1.067133e-09 -1.277286e-08 6.853187e-09 4.539386e-08
3.931568e-08 4.926893e-08 1.713453e-07 7.454457e-08 -5.992684e-08 -1.784699e-07
3.410934e-08 -7.169973e-09 5.098860e-08 -2.807907e-08 1.756386e-08 -3.851509e-08
-6.196627e-09 4.259118e-08 -7.505940e-08 3.506454e-08 5.695899e-08 -4.099618e-08
-9.501110e-09 -6.219627e-09 -8.758390e-09 1.203091e-08 -1.080026e-08 7.053212e-09
-2.879059e-08 3.918793e-08 -5.743590e-08 4.457382e-08 -5.316648e-08 7.263228e-08
8.341213e-09 -2.730168e-08 -2.099429e-08 2.244353e-08 -2.621639e-08 1.491952e-08
3.238682e-08 -4.704205e-08 -1.083180e-07 3.363925e-08 -1.437372e-07 6.124933e-08
4.061645e-08 9.452894e-09 -9.150669e-08 7.740417e-08 -1.349332e-07 9.516753e-08
-2.058630e-08 7.151404e-08 -1.100045e-07 2.022386e-08 -9.258354e-08 1.071742e-07
2.864932e-08 -1.025944e-08 -4.919222e-08 6.704091e-09 -4.805723e-08 1.318015e-08
-6.465802e-09 6.942887e-09 -1.933166e-09 -8.813917e-09 -2.221109e-09 1.845422e-09
3.296074e-08 -1.979964e-08 -5.318287e-08 -5.181353e-10 -4.907703e-08 5.754963e-09
2.906941e-08 -4.447632e-08 -3.134238e-08 1.094908e-08 -3.904836e-08 1.183175e-08
8.166015e-09 6.362632e-08 -1.182871e-07 -1.066997e-08 -8.672786e-08 7.188617e-08
5.245905e-08 -7.388439e-08 -1.039048e-07 7.918723e-09 -1.778027e-07 2.146085e-08
4.148432e-08 -9.429697e-08 -3.031691e-09 -1.095760e-08 -5.323573e-08 4.615117e-10
9.486323e-08 -1.128009e-08 2.940300e-08 3.525716e-08 1.957466e-08 8.013977e-08
-7.886091e-08 9.269068e-08 2.174408e-07 2.487108e-08 -1.225441e-07 -1.129464e-08
-8.421034e-09 3.016400e-08 2.851140e-08 -3.451001e-08 2.026134e-08 -3.945397e-08
-4.058692e-08 -9.619014e-09 1.609938e-07 -4.411253e-08 -9.319184e-08 8.301018e-08
-7.918482e-08 -1.868437e-08 3.897118e-07 -8.179344e-08 -1.957026e-07 1.455152e-07
-3.452120e-08 8.527725e-08 -1.109542e-07 -9.856839e-08 -2.401232e-08 -3.498518e-08
-2.911700e-08 4.351655e-08 -7.105044e-08 4.457061e-08 -1.076793e-07 8.778977e-08
1.933380e-10 4.254402e-08 -8.700208e-08 1.033354e-08 -8.921572e-08 5.896038e-08
-1.627949e-08 9.460146e-09 -1.727043e-09 1.021378e-08 -1.321863e-08 1.174017e-08
-1.237832e-08 2.636137e-08 -1.830041e-08 -3.930502e-09 -7.720405e-09 1.496275e-08
-7.501099e-09 2.549996e-08 -1.367223e-08 -1.936748e-08 -3.013627e-09 1.084331e-08
-1.860393e-08 -9.491995e-09 -3.026204e-09 1.947954e-08 -1.609603e-08 1.122830e-08
-3.066373e-08 4.313721e-08 -3.602370e-08 4.063212e-08 5.176845e-08 -5.780290e-08
-4.259965e-08 -3.844424e-08 -1.143453e-08 9.552936e-08 5.178386e-08 -4.069430e-08
-7.334636e-09 2.534094e-08 -4.582836e-09 -2.596428e-08 3.534507e-09 9.615539e-09
-1.208680e-08 3.513844e-08 -2.356118e-08 -1.239129e-08 -8.469430e-09 1.984227e-08
-2.467576e-08 2.660315e-08 -7.101768e-09 -2.335155e-09 -8.705223e-09 1.724486e-08
-7.719977e-09 -3.490968e-10 2.298430e-09 -7.451368e-10 4.793619e-10 -5.257933e-10
-1.251568e-08 -8.160224e-09 -2.499024e-08 4.982227e-08 3.726977e-08 -2.229738e-08
-2.539143e-08 -3.897090e-08 -2.712628e-08 1.266526e-07 1.006586e-07 -7.386122e-08
-4.165673e-08 -3.129240e-09 -1.654563e-07 9.754032e-08 1.755168e-07 -1.339929e-07
8.419785e-09 1.002398e-09 -2.554543e-09 -1.514394e-08 -1.524406e-09 6.855637e-10
1.771660e-08 -4.426970e-08 -4.011279e-08 5.175642e-08 7.868945e-08 -3.771028e-08
-9.029888e-10 2.625173e-09 -7.154813e-10 -8.933282e-09 -1.044159e-09 1.295160e-10
-6.013169e-09 3.511829e-09 6.478711e-10 -5.219367e-09 -1.801070e-09 -2.557725e-10
3.815543e-08 -1.227253e-07 -1.060702e-08 3.308886e-08 6.997301e-08 -1.014434e-08
3.820871e-08 -9.045095e-08 -1.628993e-08 3.426075e-08 5.536918e-08 -9.840104e-09
-1.161704e-08 7.370951e-09 -4.120139e-10 -3.051472e-09 -4.736312e-09 2.314413e-09
4.715830e-08 -1.318988e-07 -2.453267e-08 1.008981e-07 1.341345e-07 -4.264304e-08
-2.022604e-08 -1.193871e-08 -1.317009e-08 4.004077e-08 -5.258521e-08 4.154917e-08
-5.807761e-09 4.666415e-09 -1.395464e-10 -7.435568e-09 -2.180841e-09 3.921427e-10
6.373645e-09 -2.953352e-08 8.421677e-10 -1.580595e-08 3.768601e-09 7.378805e-10
2.695211e-08 -1.031049e-08 -6.092040e-08 -3.353547e-08 -6.599486e-08 -2.072573e-08
3.562581e-08 -1.927093e-08 -5.752313e-08 -2.069574e-08 -8.796620e-08 -9.765269e-09
2.197264e-08 -4.444813e-08 4.551688e-10 4.494835e-10 5.736127e-09 3.231546e-10
3.765732e-08 -5.319109e-08 -3.384647e-08 -1.013723e-08 -6.762820e-08 -6.261324e-10
1.768343e-08 -4.683373e-08 4.833294e-09 -8.021663e-09 6.571047e-09 4.116067e-10
1.703320e-08 -4.129789e-08 5.893461e-10 -7.908071e-09 4.059808e-09 -4.044787e-10
2.776922e-08 4.283671e-09 -9.343800e-08 -3.572227e-08 -8.450983e-08 -1.905875e-08
4.496062e-08 -7.660472e-08 -4.581011e-08 -1.274370e-08 -9.048677e-08 1.676295e-09
7.623796e-09 -3.814527e-08 5.283431e-09 -2.060269e-08 6.566338e-09 2.381431e-09
3.565134e-08 -4.007683e-08 -5.746565e-08 -1.985685e-08 -8.793800e-08 -9.824833e-09
1.932621e-08 -5.398944e-08 4.173763e-09 6.281650e-09 8.811579e-09 -4.672970e-10
-2.657505e-08 7.839975e-08 -7.005220e-08 -1.360832e-08 -3.406296e-08 -4.603175e-08
4.219918e-08 2.244725e-08 1.803553e-09 -7.031376e-08 -5.865026e-08 8.394513e-08
-5.007755e-09 8.027551e-08 -2.902241e-08 4.661963e-08 2.535402e-08 -1.574630e-08
1.006029e-08 -2.943453e-09 -8.440757e-10 7.326675e-09 5.529315e-10 -4.790028e-10
-5.792246e-09 2.727926e-09 8.763386e-10 1.702825e-09 1.823316e-10 -2.700005e-10
-3.651476e-08 7.069699e-08 -2.169128e-08 3.736452e-08 8.643263e-10 -1.410315e-08
-2.249072e-08 7.296169e-08 -1.322860e-08 4.576268e-08 1.833343e-08 -5.989455e-09
3.743552e-08 -3.170675e-08 1.206223e-07 5.842133e-08 3.712652e-08 9.343296e-08
-1.436744e-08 7.161020e-08 -8.464438e-08 -4.085943e-09 -4.296389e-08 -4.094964e-08
-2.450236e-08 7.533317e-08 -6.050935e-08 -9.782253e-09 -2.349147e-08 -4.679972e-08
-1.795202e-10 -2.154234e-08 4.085843e-09 -1.429583e-08 2.716910e-09 -3.385904e-10
-8.728122e-09 -3.663658e-09 2.748032e-09 -6.116932e-09 7.377069e-10 -6.860400e-10
-1.545884e-09 4.028470e-08 -5.563683e-08 -2.869338e-08 -3.775017e-08 -3.876505e-08
-2.904305e-08 3.300536e-08 -2.324522e-08 -1.807679e-08 -1.652000e-08 -2.964075e-08
-7.266578e-09 5.801001e-08 -5.708903e-08 -1.447394e-08 -3.365842e-08 -2.735552e-08
-1.573756e-08 3.436284e-08 -3.258217e-08 -1.087095e-08 -3.126615e-08 -2.549099e-08
2.212893e-09 -1.176351e-08 -1.930377e-08 -3.184944e-08 -4.030055e-08 -1.568426e-08
-8.057203e-09 -1.031775e-09 2.451764e-09 -2.678259e-09 3.918768e-10 -4.399489e-10
-2.897739e-10 -1.990830e-08 3.535604e-09 -1.488557e-08 1.134262e-09 5.979101e-10
2.192825e-09 1.682748e-08 -5.128169e-08 -3.761402e-08 -6.712966e-08 -3.765467e-08
5.103394e-09 2.050383e-08 -7.886810e-08 -3.214875e-08 -9.440533e-08 -3.963937e-08
-1.419753e-08 1.181760e-08 -2.573546e-08 -2.321358e-08 -2.760113e-08 -1.773032e-08
-7.354187e-09 -6.278634e-09 -4.278676e-08 -6.345088e-08 -9.437045e-08 -6.027844e-08
-6.919790e-09 -4.457924e-09 3.104009e-09 -4.570306e-09 4.724661e-10 -5.882508e-10
-9.986974e-09 -1.646295e-09 1.869325e-09 -7.042272e-09 8.651728e-10 -3.074338e-10
1.441430e-08 -4.131004e-08 4.152357e-09 -5.315443e-09 2.493076e-09 -8.458637e-10
-1.027382e-08 -2.171973e-09 3.080543e-09 -8.255011e-09 1.118494e-09 -4.377994e-10
1.241759e-08 -4.961920e-09 -1.212596e-09 5.178383e-09 4.117742e-10 -2.730377e-10
-7.285221e-09 -1.596132e-09 2.467886e-09 -3.396444e-09 1.940839e-09 -5.341889e-10
-3.270822e-09 -1.431115e-08 3.501810e-09 -1.103227e-08 1.126701e-09 -5.375281e-10
-9.915058e-09 7.059511e-09 -1.144064e-09 -4.683261e-09 -2.212863e-09 1.611235e-09
-8.021734e-09 -1.097477e-09 2.262894e-09 -2.642346e-09 6.515196e-10 -7.966455e-10
-6.930941e-09 -4.559179e-09 3.345582e-09 -4.531041e-09 7.660058e-10 -7.688029e-10
-7.356881e-09 4.492069e-09 3.254363e-10 -4.640367e-09 -6.594191e-10 -1.376501e-10
9.860904e-10 -2.026633e-08 5.448748e-10 -1.910630e-08 3.503671e-09 1.604195e-09
-6.354834e-09 -6.749395e-09 3.597064e-09 -6.239204e-09 3.195217e-10 -1.166993e-09
-5.663006e-09 -5.674303e-09 3.537991e-09 -4.140801e-09 3.399012e-11 -1.058181e-09
-1.503688e-08 1.865600e-09 -2.140303e-09 -1.681683e-08 7.031809e-09 3.349231e-09
-5.352595e-09 -9.187428e-09 1.866540e-09 -1.489180e-08 4.616672e-09 -4.637246e-10
2.792956e-10 -4.423906e-08 -1.836276e-09 -4.178660e-08 2.466528e-08 1.319536e-08
2.198327e-08 -8.607729e-09 -1.836636e-09 -4.364738e-09 1.083681e-11 -1.711151e-09
-8.461797e-09 -5.972369e-10 2.374346e-09 -5.060458e-09 9.876133e-10 -4.565331e-10
-9.752574e-09 3.081596e-09 1.775467e-09 -5.020731e-09 8.021239e-10 -1.013332e-10
-8.480797e-09 -1.971005e-10 2.246416e-09 -4.294457e-09 3.737306e-10 -8.841499e-10
-4.217649e-09 -9.659820e-09 2.889714e-09 -1.083120e-08 2.684377e-09 -9.666434e-10
-1.718764e-08 7.677687e-09 -9.062849e-09 -2.069803e-08 8.951022e-09 8.288038e-09
-1.024443e-08 1.804094e-09 7.818941e-10 -6.268592e-09 2.150952e-09 6.566990e-10
-7.823482e-09 -2.424099e-09 2.917425e-09 -4.390546e-09 9.368710e-10 -1.263404e-10
-8.744926e-09 -1.002181e-08 -4.367413e-10 -2.356454e-08 6.156572e-09 3.423985e-09
-6.083973e-09 -4.106541e-09 3.248625e-09 -6.039275e-09 6.209653e-10 -9.111292e-10
1.755534e-08 -4.620296e-08 1.251074e-09 -2.354594e-09 4.574385e-09 1.656996e-10
1.567170e-08 -4.803332e-08 2.046165e-09 3.097387e-09 5.768742e-09 -2.430615e-10
-1.250975e-08 6.997002e-09 -3.534711e-10 -1.374998e-09 -7.587161e-09 4.659332e-09
-2.024328e-08 2.847188e-09 -1.078653e-09 1.056269e-08 -1.025771e-08 9.705591e-09
1.482485e-08 -4.505370e-08 5.672073e-09 5.317531e-09 2.975073e-09 -3.424259e-10
1.274561e-08 -6.363018e-09 -8.591601e-10 5.447094e-09 -5.540622e-11 -8.669390e-10
-1.626333e-08 9.865616e-09 1.019975e-09 3.857498e-09 -6.120459e-09 6.661477e-09
-1.293640e-08 -4.293466e-09 -1.275591e-08 1.755305e-08 -2.614874e-08 2.006733e-08
-1.275325e-08 -2.880734e-10 -1.901473e-10 9.767429e-09 -8.338423e-09 4.774355e-09
-7.094723e-09 -1.195525e-08 1.084189e-09 1.257157e-08 -8.885065e-09 3.685201e-09
-1.095089e-08 -1.896319e-09 -1.694055e-08 1.640830e-08 -1.629800e-08 1.393189e-08
-1.818214e-08 1.622887e-08 -1.140267e-08 -3.048308e-09 -7.136038e-09 1.298787e-08
-1.217168e-08 1.409361e-08 -1.047146e-08 1.165073e-10 -8.069376e-09 8.683063e-09
-1.016771e-08 1.770798e-08 -7.942056e-09 -8.955309e-09 -4.477456e-09 6.901351e-09
-1.196876e-08 -4.592502e-09 1.249764e-09 -1.658518e-08 4.158201e-09 2.108446e-09
-2.430525e-08 6.435032e-08 -4.289251e-08 2.901765e-08 4.083786e-08 -5.190593e-08
9.761739e-09 -4.316078e-09 -9.734080e-10 4.766515e-09 2.149933e-10 -2.543632e-11
9.743882e-09 -3.196811e-08 6.141335e-09 -1.614175e-08 4.468161e-09 7.399202e-10
9.503890e-09 -2.971689e-08 -3.864097e-09 -1.970069e-08 8.897590e-09 2.635436e-09
1.059780e-08 -5.090162e-09 -1.225582e-09 3.059171e-09 2.189697e-10 3.377743e-10
-1.319971e-08 1.060645e-09 -6.286474e-10 -9.404095e-09 2.621376e-09 1.338869e-09
2.545782e-08 -3.006295e-08 -2.362250e-08 1.322047e-08 -2.846286e-08 8.546748e-09
-5.787884e-09 -8.114844e-09 3.818906e-09 -1.388173e-08 2.481956e-09 -2.739973e-10
1.250563e-08 -2.003517e-08 -3.322462e-08 1.494887e-08 -3.005938e-08 1.175193e-08
-2.629257e-08 3.863511e-08 -2.174776e-08 1.907343e-08 1.788149e-08 -2.184098e-08
8.178154e-10 -2.097789e-08 -2.618707e-10 -2.274410e-08 7.295159e-09 2.742055e-09
-3.502931e-08 4.226728e-08 -6.073199e-09 -1.306558e-08 -3.889324e-09 -1.871059e-08
-7.518107e-09 -6.019485e-09 3.697634e-09 -8.905335e-09 5.624078e-10 -1.037085e-09
-1.737187e-08 2.913714e-08 -2.790999e-08 2.405643e-08 2.450189e-08 -1.872644e-08
2.364650e-08 2.500149e-08 -9.663623e-08 3.484598e-08 8.458372e-08 -3.191053e-08
-5.470228e-09 -1.443446e-08 1.875264e-09 -1.423555e-08 3.772327e-09 9.238043e-11
-1.071784e-08 -2.071215e-09 -3.936946e-10 -1.401402e-08 2.039644e-09 8.701581e-10
-6.092528e-09 -7.713293e-09 -2.408288e-09 -1.802357e-08 5.721697e-09 2.341907e-09
1.977752e-08 -7.876007e-09 -1.913851e-09 -2.243620e-10 -1.348719e-11 -1.604188e-09
-5.878293e-09 -7.039725e-09 2.268330e-09 -1.167826e-08 1.694377e-09 8.139381e-11
-1.216437e-08 -2.751478e-09 1.350183e-09 -1.522608e-08 3.338220e-09 9.396610e-10
1.399721e-08 -6.968069e-09 -1.022411e-09 2.906081e-09 -1.414258e-12 -7.288149e-10
1.516731e-08 -6.539264e-09 -1.881775e-09 1.652887e-09 2.364194e-10 7.512791e-11
-7.078986e-09 -6.223094e-09 -1.917050e-09 -1.931021e-08 7.253209e-09 2.292506e-09
-1.549738e-09 1.238902e-09 2.307834e-10 4.618242e-09 3.403506e-10 -3.347401e-10
-6.749140e-09 7.307598e-09 -1.264223e-09 -8.452632e-09 -2.001183e-09 1.802265e-09
-4.934554e-09 -6.703764e-09 3.756578e-09 -4.605542e-09 4.676105e-11 -6.548316e-10
-5.630391e-09 2.621589e-09 1.018857e-09 3.284061e-09 4.092910e-10 -6.288335e-10
1.068944e-08 -2.890505e-09 -1.681311e-09 8.752203e-09 2.191706e-10 -8.938610e-10
-7.813443e-09 4.522231e-10 2.550740e-09 -2.879821e-10 -5.424105e-12 -3.104925e-10
-7.218513e-09 -3.751110e-09 3.213697e-09 -3.339572e-09 -1.690134e-10 -9.583541e-10
1.245627e-08 -3.325204e-09 -1.800197e-09 9.137201e-09 6.398471e-10 -2.154932e-09
-7.219301e-09 -6.609850e-10 2.766857e-09 -2.224232e-09 5.525435e-10 -1.123361e-09
1.084925e-08 1.923473e-09 6.014238e-10 1.521090e-08 -7.581339e-10 -4.210651e-09
-9.747975e-11 6.728813e-09 4.486121e-09 1.596457e-08 -1.917310e-09 -6.556191e-09
2.425910e-08 -7.432431e-09 4.195710e-10 9.319885e-09 -2.573813e-10 -5.541117e-09
1.495106e-08 -3.487267e-09 -1.654572e-09 1.055357e-08 5.575949e-11 -5.077745e-09
6.982807e-09 2.168407e-10 -1.541358e-09 1.141282e-08 -6.846747e-11 -1.885361e-09
-3.641969e-09 -9.537914e-09 3.775700e-09 -7.457273e-09 1.234131e-09 -1.525572e-09
7.480694e-09 2.012590e-09 4.199521e-10 1.315183e-08 -3.066367e-10 -2.795494e-09
-9.479224e-09 5.314018e-09 7.551346e-10 -4.502990e-09 -7.028258e-10 -1.651084e-10
-5.874607e-10 1.174019e-08 -1.302848e-09 -1.682686e-08 2.751413e-10 4.442535e-10
-3.254764e-09 2.779660e-09 4.853691e-10 5.087370e-09 1.582047e-10 -5.870445e-10
-9.500398e-09 3.444541e-09 1.340187e-09 -2.407566e-09 -2.066157e-09 -3.990578e-10
9.155361e-10 -6.275976e-10 -2.821956e-10 4.487421e-09 5.652772e-11 -1.149987e-09
-2.966653e-09 3.200429e-09 -2.332523e-10 -7.568419e-09 -5.503795e-10 -2.347826e-10
-6.255144e-09 5.721944e-09 -1.105596e-09 -8.807626e-09 -1.140244e-09 2.396889e-10
3.489200e-10 8.576625e-10 -2.636313e-11 5.996133e-09 2.940435e-10 -4.065971e-10
-1.216497e-08 3.954455e-09 8.240388e-10 2.256285e-09 -4.932294e-09 2.378710e-09
4.529248e-10 4.390454e-10 -2.178908e-10 5.526091e-09 5.663370e-10 1.479696e-10
2.976899e-10 9.078575e-10 1.313341e-10 5.930981e-09 1.314906e-10 -3.183948e-10
4.032848e-09 -2.390756e-08 5.084862e-09 -1.157784e-08 2.533795e-09 -9.156575e-10
-2.917057e-09 -1.028967e-08 4.341088e-09 -6.320149e-09 5.300222e-10 -8.202632e-10
-3.389864e-09 1.680708e-09 5.550285e-10 3.708176e-09 4.322577e-10 -2.192718e-10
5.577513e-09 -3.191989e-08 5.035586e-09 -1.600181e-08 5.555569e-09 1.365099e-10
-1.414883e-09 1.966112e-09 1.441296e-10 6.018844e-09 2.903696e-10 -1.264986e-10
-7.304468e-11 2.762425e-08 -1.380739e-08 3.011329e-08 -4.082155e-09 -8.358351e-09
-3.826089e-09 6.827828e-08 -2.393715e-08 4.548965e-08 1.681394e-08 -2.034287e-08
-2.610093e-09 1.624779e-09 1.625620e-10 4.563197e-09 4.061161e-10 -1.706016e-10
-8.005919e-09 6.854605e-08 -1.194462e-07 -2.757660e-08 -3.723431e-08 -3.172721e-08
-1.835306e-07 4.406110e-07 -8.062140e-09 -2.622346e-08 1.449074e-07 -1.837558e-07
3.321860e-08 3.468126e-08 -1.003011e-07 2.441226e-08 -1.047724e-07 5.536080e-08
4.201257e-08 2.320365e-08 -1.739347e-07 -1.347309e-08 -1.557768e-07 3.076194e-08
7.037015e-08 -2.592814e-07 -1.705350e-07 3.478893e-08 -3.325664e-07 5.875103e-08
-8.437811e-09 -1.056358e-09 3.061661e-09 -2.583157e-09 1.552538e-10 -4.346657e-10
-1.063187e-08 2.015809e-09 1.499020e-09 -3.845227e-09 9.704392e-10 8.875193e-11
7.020324e-09 8.819296e-08 -1.618560e-07 -2.070632e-08 -6.631949e-08 7.748333e-08
-9.389873e-09 1.124786e-09 1.956951e-09 -2.304929e-09 1.417420e-10 -8.259553e-10
-9.778329e-09 3.600685e-09 1.085102e-09 -1.772062e-09 1.097277e-09 -2.075345e-10
-8.594443e-09 -3.478327e-09 3.026110e-09 -5.526169e-09 2.177201e-10 -3.803709e-10
1.990992e-08 2.374503e-07 1.513943e-08 -2.974091e-08 9.253389e-08 -4.929656e-08
8.951340e-08 -1.713308e-08 -1.718894e-07 3.064051e-08 -2.322384e-07 6.955857e-08
-4.247946e-09 6.130333e-09 -1.045799e-09 -8.893114e-09 -2.289715e-09 1.701877e-09
2.277118e-09 4.028497e-09 -1.834551e-09 -1.294420e-08 -2.081794e-09 7.104209e-10
-1.462747e-09 4.130408e-09 -6.472956e-10 -9.801583e-09 -1.279849e-09 4.561844e-10
-5.839850e-09 -7.481255e-09 3.385298e-09 -5.735269e-09 1.254933e-09 -8.902072e-10
-7.410696e-09 -1.174426e-09 2.404266e-09 -1.563075e-09 5.774677e-10 -9.799753e-10
-2.951960e-09 4.170203e-09 -9.466534e-10 -1.020247e-08 -1.910246e-09 -1.247182e-10
2.455524e-08 -6.555093e-08 2.973857e-09 -2.182997e-08 2.532533e-08 2.907923e-09
1.755546e-08 -4.268940e-08 4.720289e-09 -2.408832e-09 2.031713e-09 2.971330e-10
1.497614e-08 -7.876131e-09 -2.302013e-09 -5.272000e-10 7.207735e-11 -2.389839e-10
-8.166956e-10 5.347064e-09 -1.702916e-09 -1.160030e-08 -1.520664e-09 1.437004e-09
-7.612289e-09 5.721530e-10 2.469081e-09 -1.316873e-09 8.849230e-10 -7.482022e-10
-8.468728e-09 -1.406439e-09 2.337676e-09 -3.105908e-09 1.113874e-09 -8.217551e-10
-8.438968e-09 -3.824220e-10 2.240941e-09 -2.381231e-09 3.170810e-10 -6.163957e-10
-2.917059e-09 -1.100249e-08 4.430304e-09 -6.471837e-09 2.570320e-10 -5.440473e-10
4.355385e-09 -1.097711e-09 -1.100364e-09 -7.244222e-09 -5.148124e-10 2.472154e-10
9.031575e-10 1.035768e-09 -6.995711e-10 -6.733461e-09 -6.888280e-10 4.666815e-10
1.494925e-09 9.378739e-10 -7.726937e-10 -7.692699e-09 -8.832798e-10 -1.684779e-10
2.844394e-09 3.548478e-10 -1.055501e-09 -7.563864e-09 -4.366147e-10 3.739141e-10
3.574288e-09 -1.103616e-09 -8.651546e-10 -5.635714e-09 -4.688643e-10 1.745253e-10
9.498716e-09 -3.011092e-08 -1.389003e-09 -1.924799e-08 6.393160e-09 2.435245e-09
-2.333361e-08 7.542834e-08 -6.268295e-08 -8.504758e-09 -3.626845e-08 -5.264268e-08
2.159190e-09 -3.305266e-10 -1.980139e-08 1.233705e-08 -1.769908e-08 1.052090e-08
5.494150e-09 -1.078519e-09 -1.003008e-09 -6.597767e-09 -6.783860e-10 -2.273496e-10
3.871685e-09 -2.487103e-10 -8.749801e-10 -8.384622e-09 -4.546047e-10 -1.142152e-10
5.549480e-09 -1.048474e-09 -1.068021e-09 -6.552601e-09 -4.193647e-10 3.319558e-10
9.666076e-10 -9.448853e-09 -8.129433e-09 1.092100e-08 -1.109121e-08 5.065341e-09
6.236409e-09 -2.795069e-09 -8.790773e-10 5.924512e-09 3.678498e-10 -1.602253e-10
7.480173e-09 -3.092435e-09 -9.832513e-10 6.382471e-09 2.214767e-10 -2.257237e-10
8.012407e-09 -2.081139e-09 -1.443552e-09 7.793790e-09 9.154268e-10 -4.720126e-10
4.715777e-08 3.139156e-08 -3.859533e-10 -4.536884e-08 2.378752e-08 -3.019437e-08
5.296746e-09 -2.095221e-09 -6.126283e-10 7.069664e-09 4.960813e-10 -3.382189e-10
1.051096e-08 -5.084698e-09 -8.571113e-10 5.921454e-09 3.846036e-10 -5.730260e-10
5.011519e-08 5.913733e-09 1.089577e-09 -2.845998e-08 6.373443e-09 -2.308243e-08
1.238482e-08 -2.165195e-09 8.334471e-10 -1.739990e-08 1.686291e-09 -1.215203e-09
5.319786e-09 -2.062190e-09 -7.220869e-10 7.098613e-09 5.546600e-11 -6.062087e-10
-3.549565e-10 2.098310e-09 4.282941e-10 8.517722e-09 1.165219e-10 -1.088992e-09
4.127421e-09 -1.535076e-09 -7.982472e-10 5.693797e-09 6.921683e-10 -3.297680e-10
1.378823e-08 -6.688303e-09 -1.778271e-09 -2.249715e-09 -1.323368e-10 6.347412e-10
1.284510e-08 -7.077972e-09 -1.627010e-09 8.539387e-10 2.333324e-10 -1.406003e-10
1.666589e-08 -7.085478e-09 -2.372121e-09 1.049235e-09 2.625309e-10 3.999472e-10
1.318966e-08 -6.008622e-09 -1.951005e-09 -5.287724e-09 -3.891569e-10 -1.940081e-10
1.241271e-08 -5.821277e-09 -1.825936e-09 -4.910608e-09 -2.058007e-10 -1.139467e-10
-4.218533e-09 -1.413534e-08 4.058534e-09 -1.152895e-08 1.993664e-09 -7.453282e-10
-6.365131e-09 -7.545783e-09 -1.850200e-10 -1.222731e-08 3.020950e-09 8.035332e-11
-7.583211e-09 -1.924143e-09 1.879021e-09 -7.495503e-09 8.891945e-10 -7.588741e-11
-7.533444e-09 -4.201883e-10 2.713274e-09 -4.178252e-09 5.754659e-10 -6.408668e-10
1.704688e-08 -7.533904e-09 -1.489700e-09 -2.409416e-09 3.180893e-10 -3.365928e-10
-2.914457e-07 2.100226e-07 5.785664e-07 -1.826004e-07 3.881562e-07 -1.957218e-07
-1.855415e-07 6.407204e-08 3.399873e-07 9.054122e-09 1.903763e-07 -3.108015e-08
-8.127934e-08 9.108393e-08 -9.384667e-08 -1.357151e-08 -3.283619e-08 -5.742005e-08
-8.127432e-08 2.843659e-10 1.951399e-07 -7.631430e-08 -1.269223e-07 8.434174e-08
1.262916e-08 -8.753941e-08 2.516783e-07 6.430295e-08 5.772853e-08 1.769743e-07
-9.804184e-09 7.069934e-08 -3.545146e-08 3.505340e-08 6.332776e-09 -1.155070e-08
1.354200e-09 4.820235e-08 -7.367852e-08 -4.058357e-08 -7.299200e-08 -4.804295e-08
-2.499408e-08 6.359378e-08 -4.926691e-08 -1.477461e-08 -3.299230e-08 -4.602911e-08
-7.800742e-08 1.118112e-07 7.250395e-08 7.698480e-08 1.180249e-07 5.097211e-09
-7.911417e-09 -1.165681e-09 2.521196e-09 -1.716945e-09 -1.661038e-10 -3.673728e-10
-1.380740e-07 1.052713e-07 5.151999e-07 -1.191000e-07 -3.367358e-07 2.062890e-08
-4.639425e-07 4.325208e-07 6.078234e-07 1.104813e-07 -5.589996e-07 -4.574012e-09
-3.641714e-09 -1.255149e-08 4.206589e-09 -8.143045e-09 1.180913e-09 -1.277876e-09
-1.939750e-07 -6.405346e-08 5.652835e-07 -1.069198e-08 -8.120164e-08 1.156464e-07
1.645553e-08 9.120703e-10 1.570432e-08 -2.742853e-08 1.662845e-08 -2.233894e-08
-5.583965e-09 2.955681e-08 -3.217391e-08 1.749269e-09 -2.064282e-08 2.112073e-08
1.992240e-08 -4.550710e-08 1.184705e-09 -1.355213e-09 5.318461e-09 -6.597433e-11
1.556449e-08 -4.434028e-08 -1.501730e-09 -1.691318e-08 1.520635e-08 2.635365e-09
-1.270876e-08 3.867078e-08 -5.485398e-08 -9.705398e-12 -3.129752e-08 3.786019e-08
6.495160e-10 -2.658933e-08 8.446386e-10 -2.807412e-08 1.272774e-08 3.638786e-09
-3.435958e-08 5.724809e-09 -5.604932e-08 6.016453e-08 -1.102547e-07 9.310555e-08
1.025088e-08 1.096392e-08 9.296777e-09 2.778361e-08 -1.113814e-08 -1.969495e-08
1.676739e-08 3.245945e-09 1.518502e-08 2.506716e-08 -9.625307e-09 -2.139784e-08
-2.070529e-09 1.937604e-08 4.072898e-09 2.075126e-08 -6.765781e-09 -8.697304e-09
-1.104763e-08 1.873490e-08 8.577392e-09 2.159965e-08 -4.444027e-09 -6.616807e-09
-7.749750e-09 1.506780e-09 1.918715e-09 2.498887e-10 3.815308e-10 -2.919254e-10
1.876417e-08 3.008149e-08 3.035802e-09 4.685889e-08 2.195939e-08 1.197511e-08
6.457100e-08 -3.796807e-08 5.906602e-08 1.792157e-08 1.424582e-08 7.071932e-08
1.333071e-07 6.781926e-07 1.283175e-07 4.056934e-07 5.014637e-07 4.160468e-07
-7.488009e-09 1.514706e-09 2.122440e-09 -5.738595e-10 1.745813e-10 -6.702160e-10
-6.815583e-09 1.974971e-09 1.416464e-09 1.376494e-09 4.538419e-10 -6.874755e-10
-8.091016e-09 2.131835e-09 1.897247e-09 3.644388e-10 3.734668e-11 -6.028913e-10
-8.029763e-09 1.788113e-09 1.483901e-09 -3.099002e-10 7.385346e-10 -5.465660e-10
-8.018486e-09 2.081804e-09 1.969895e-09 2.721481e-10 6.393888e-10 -3.148383e-10
-9.023132e-09 6.524191e-09 -3.563791e-10 -6.134812e-09 -8.245402e-10 4.650852e-10
4.689846e-08 -6.035324e-08 2.998257e-07 -3.308019e-08 -5.383830e-08 2.179028e-07
-6.667357e-09 -2.789787e-09 3.353261e-09 -2.558213e-09 4.977828e-10 -8.302588e-10
8.910032e-08 -1.262425e-08 -3.457507e-08 3.055132e-08 -4.829954e-09 5.842686e-08
-8.095871e-09 2.589557e-09 1.532778e-09 3.606426e-10 5.291022e-10 -5.409194e-10
-6.970808e-09 2.839553e-09 1.218702e-09 2.065523e-09 2.707938e-10 -3.712435e-10
-8.003674e-09 7.416636e-10 2.305127e-09 -4.419860e-10 1.909422e-10 -4.873009e-10
-7.549679e-09 1.319043e-10 1.906991e-09 -7.117125e-10 3.429801e-11 -5.000231e-10
8.705503e-09 -3.609780e-08 4.393845e-09 -1.096476e-08 5.704225e-09 -1.192621e-09
9.480636e-10 9.858265e-10 -5.339476e-10 -5.704885e-09 -5.312835e-10 4.554565e-10
2.010267e-08 2.252732e-07 -2.323071e-07 -2.796475e-08 -4.374528e-08 -6.956732e-08
-1.683412e-07 1.735588e-07 3.935808e-07 8.332272e-08 -3.608103e-07 -2.522682e-07
3.589980e-09 -1.130902e-09 -1.016996e-09 -5.703400e-09 -2.721547e-10 1.803219e-10
-2.407080e-07 2.600299e-07 1.464300e-06 2.121947e-08 -4.190209e-07 -4.353770e-07
-1.216664e-09 4.588795e-09 -1.494894e-09 -1.446302e-08 -4.639589e-10 1.068038e-09
-3.202992e-07 3.301096e-07 1.211636e-07 -1.732959e-08 -3.910981e-07 1.275449e-08
6.549589e-08 1.230949e-07 -2.736020e-07 7.411388e-09 1.773166e-07 -1.693241e-08
5.303101e-08 4.381042e-09 1.848657e-07 -2.025105e-08 3.651459e-08 -1.759233e-07
3.252208e-08 1.085606e-07 -1.700666e-07 -1.232380e-08 9.197981e-08 1.627557e-08
-8.702344e-09 4.365292e-09 7.831185e-10 -4.124883e-09 -1.323141e-09 -2.678921e-10
-7.157499e-08 9.301215e-08 1.398447e-07 3.362142e-08 -1.186938e-07 -7.550144e-08
-7.628121e-08 6.671273e-08 6.104086e-08 -6.338110e-08 -1.122025e-07 4.464723e-08
-7.350883e-09 5.381108e-09 -4.686438e-10 -6.535655e-09 -7.229473e-10 3.212148e-10
-1.629058e-08 4.578017e-08 -9.581773e-09 -3.311639e-08 9.945021e-09 1.761178e-08
1.065944e-08 8.435038e-09 -4.392902e-09 -2.326183e-08 6.927511e-09 -4.845146e-09
-4.239409e-09 -8.315727e-09 3.674744e-09 -5.446289e-09 6.287466e-10 -7.326422e-10
-6.758104e-09 -3.769944e-09 3.032743e-09 -5.803792e-09 2.423546e-10 -4.922094e-10
1.344853e-08 1.291410e-09 1.130191e-08 -2.578155e-08 1.462752e-08 -1.564083e-08
2.315018e-08 -1.397047e-09 1.739772e-08 -2.583848e-08 9.497132e-09 -1.631521e-08
-3.708129e-09 1.375912e-08 4.193325e-09 -2.476928e-08 6.467654e-09 2.390236e-09
2.891696e-08 -8.029790e-09 6.017110e-08 -3.800871e-09 2.406906e-09 -4.782725e-08
2.672380e-08 -4.902365e-08 -3.540613e-08 1.401191e-08 -4.337692e-08 8.643118e-09
-1.221198e-08 3.580349e-09 -5.728943e-09 9.372325e-09 -1.135046e-08 6.963538e-09
-1.270673e-08 5.655968e-09 1.984471e-09 3.345440e-09 -3.808872e-09 2.884741e-09
-3.251952e-09 -4.601921e-09 -1.007992e-08 1.730066e-08 -2.024959e-08 1.255842e-08
3.273686e-08 -4.450856e-08 -8.279074e-08 5.813710e-08 -1.154973e-07 5.440252e-08
4.348504e-09 -3.791244e-09 -3.567038e-08 1.470138e-08 -3.072964e-08 1.823400e-08
1.423930e-09 3.553734e-08 1.023038e-08 -4.256805e-08 3.043689e-08 -2.418172e-08
1.052974e-08 1.754920e-08 3.165251e-09 -3.629939e-08 1.570339e-08 -7.696008e-09
2.591740e-08 1.941943e-09 2.221889e-09 -2.964051e-08 2.128299e-08 -2.817521e-08
5.723038e-08 -1.073617e-08 1.631181e-08 -1.858203e-08 7.924551e-09 -3.877586e-08
5.160311e-08 -1.670109e-08 2.998963e-08 -2.114843e-09 1.837993e-09 -5.011932e-08
2.958000e-09 4.730245e-08 4.538371e-08 -4.375064e-08 4.704386e-08 -2.439781e-08
1.892961e-08 -6.645879e-09 -1.710928e-09 -8.540029e-09 -4.361527e-10 -8.119927e-10
-6.925570e-09 -1.547216e-09 3.023878e-09 -1.370744e-09 6.041988e-10 -1.089750e-09
1.839924e-08 -6.467328e-09 -1.215757e-09 -8.615748e-09 4.401643e-10 -2.101247e-09
1.427460e-08 -2.438403e-08 -2.239183e-08 2.701413e-08 2.128705e-08 -6.756267e-09
-7.750421e-09 -3.710531e-09 3.096017e-09 -3.918484e-09 -4.849976e-11 -4.139553e-10
-8.446605e-09 2.315444e-09 2.059860e-09 -1.045141e-09 2.574232e-10 -2.965349e-10
-8.842977e-09 2.409131e-09 1.736494e-09 -1.343299e-09 6.431817e-10 -6.936064e-10
-7.587017e-09 4.140155e-11 2.334932e-09 -1.188675e-09 4.534785e-10 -6.343909e-10
-1.319872e-08 8.250779e-10 1.502705e-09 -9.399609e-09 2.283921e-09 1.292173e-09
-4.037782e-08 -4.976517e-08 3.116503e-07 3.944244e-08 5.161256e-08 1.316838e-07
1.319405e-08 -4.498745e-08 5.797854e-09 7.422803e-09 3.782327e-09 -8.511569e-11
-8.594779e-09 9.101733e-10 2.154093e-09 -4.043876e-09 3.704113e-10 -2.774196e-10
-5.739007e-09 -4.461878e-09 3.501648e-09 -3.127948e-09 5.010413e-10 -1.114576e-09
1.362357e-08 -3.978512e-08 7.021384e-09 -7.883655e-09 1.780168e-09 -7.477867e-10
2.059191e-08 -5.216256e-08 -7.223214e-09 2.255707e-08 2.250959e-08 -6.550645e-09
1.573545e-08 -4.565833e-08 9.084826e-10 6.806666e-09 7.638445e-09 -2.379018e-09
1.529692e-08 -4.052914e-08 1.771967e-09 -1.522114e-08 8.923934e-09 1.928642e-09
1.242566e-08 -4.579151e-08 3.706023e-09 2.460307e-08 1.274614e-08 -2.493557e-09
1.814892e-08 -4.670437e-08 2.749773e-09 8.007955e-09 5.854630e-09 1.223841e-10
8.347759e-09 -3.760027e-08 2.760434e-09 2.101477e-08 8.824524e-09 -1.657878e-09
-6.700972e-09 -6.848676e-09 -1.260084e-08 -2.638980e-08 1.365436e-08 7.568673e-09
2.397066e-08 -5.174458e-08 -1.324963e-09 1.041833e-08 1.571700e-08 -3.282747e-09
1.362805e-08 -4.588707e-08 4.769322e-09 -8.400077e-09 5.688538e-09 -5.270545e-10
8.705428e-09 -3.134622e-08 5.221493e-09 -1.094517e-08 1.327459e-09 -7.362852e-10
1.619687e-08 -4.957007e-08 4.727284e-09 1.364113e-08 8.781736e-09 -1.253851e-09
9.094516e-09 -4.376554e-09 -1.052893e-09 4.977426e-09 1.071354e-10 -1.128044e-11
9.444000e-09 -5.239753e-09 -1.175660e-09 3.000946e-09 1.907445e-10 -1.909010e-10
1.205113e-08 -6.291554e-09 -1.726391e-09 3.466667e-09 6.685056e-11 1.999718e-10
2.193090e-08 -6.168779e-08 4.797012e-09 8.082666e-09 1.411067e-08 -1.880140e-09
4.794401e-09 -9.146211e-10 -5.599543e-11 8.104863e-09 1.843295e-10 -1.243893e-09
8.050678e-09 -3.089080e-09 -7.808565e-10 6.568047e-09 1.307385e-10 -1.072194e-09
-9.676387e-09 2.993135e-09 5.978278e-10 -3.732668e-09 -2.639994e-09 -3.499895e-10
2.491954e-08 -8.470065e-08 8.288724e-09 9.045504e-09 1.933537e-08 -9.438958e-10
1.748535e-08 -3.926967e-08 -1.311575e-08 2.686539e-08 2.786503e-08 -3.960133e-09
6.279184e-10 -3.236865e-08 1.235429e-09 -2.751662e-08 1.184276e-08 5.192972e-09
-1.936102e-08 8.590431e-09 -6.698549e-09 -2.135494e-08 8.284857e-09 1.030078e-08
-5.307368e-09 -1.241124e-08 1.376581e-09 -1.610400e-08 1.930159e-09 1.541453e-09
-1.179264e-08 1.317237e-08 -6.084310e-09 -3.672983e-09 -3.507690e-09 4.146119e-09
3.966953e-08 -7.205149e-08 -1.757410e-08 4.005534e-09 5.304338e-08 -1.560654e-09
8.747547e-09 -3.235763e-08 -5.668783e-09 2.813670e-08 1.725853e-08 -6.494294e-09
3.653451e-09 -2.350222e-08 5.210157e-09 -1.516830e-08 3.675759e-09 3.573336e-10
1.657510e-08 -1.264105e-09 1.146090e-08 -2.526204e-08 9.530115e-09 -8.827272e-09
4.265851e-08 -1.067521e-08 1.259912e-08 -1.827520e-08 8.395063e-09 -2.552785e-08
-2.461192e-08 1.841599e-08 -1.043999e-08 -4.337108e-09 -1.069055e-08 1.871243e-08
1.067507e-08 -6.193939e-09 -1.498421e-09 -1.686315e-09 -1.858322e-10 4.813880e-10
1.091508e-08 -4.597028e-09 -1.540328e-09 -5.460852e-09 -5.877199e-10 5.643512e-10
2.823778e-08 -3.889255e-08 -2.427348e-08 6.367045e-09 -3.246858e-08 4.659491e-09
-1.640724e-08 5.463605e-09 -2.068713e-08 -4.120935e-08 -5.223137e-08 -3.618075e-08
7.214571e-09 -1.126248e-08 -4.457587e-08 -3.798781e-08 -4.748574e-08 -2.017131e-08
1.770175e-08 -3.991116e-08 -3.632140e-08 -2.740584e-08 -4.417279e-08 -1.044985e-08
-7.670437e-11 2.515025e-08 -7.150081e-08 -2.589242e-08 -5.630359e-08 -3.163325e-08
2.711240e-10 -3.418849e-08 -5.744845e-08 -5.145939e-08 -8.513002e-08 -4.312174e-08
4.266279e-08 -6.309741e-08 -3.793631e-08 -1.780176e-08 -7.878949e-08 3.712498e-10
3.064418e-08 -6.508780e-08 -2.358400e-08 -3.614397e-08 -8.453137e-08 -2.298262e-08
4.000841e-08 -7.012537e-08 -3.835215e-08 -7.575084e-08 -1.196873e-07 -3.925301e-08
1.950191e-08 2.106604e-08 -8.033553e-08 -3.904154e-08 -9.481773e-08 -4.572272e-08
4.014515e-08 -3.047457e-08 -5.170673e-08 -3.272866e-08 -8.722818e-08 -1.902309e-08
1.654537e-08 -4.135313e-08 -3.555059e-08 -5.559162e-08 -1.105663e-07 -3.102481e-08
1.716835e-08 -2.033492e-08 -2.336814e-08 -1.868119e-08 -2.824658e-08 -3.475912e-09
8.548534e-10 -5.484982e-08 3.850230e-09 4.011290e-08 1.974621e-08 -6.702346e-09
1.891789e-08 -8.259188e-08 -1.808318e-08 -6.140512e-08 -6.975361e-08 -2.493458e-08
-1.031629e-08 1.083433e-08 -3.869558e-09 -7.599797e-09 -2.722452e-09 2.571588e-09
1.430963e-08 -6.357209e-09 -1.374856e-09 3.427096e-09 2.975608e-10 2.290204e-12
1.339692e-08 -6.344114e-09 -1.228520e-09 3.469037e-09 2.649409e-10 9.635515e-11
1.493831e-08 -7.910297e-09 -1.651888e-09 -5.666148e-10 1.711334e-10 -2.092850e-10
-1.944582e-08 2.312626e-08 -1.871478e-08 2.758778e-08 1.907345e-08 -1.551800e-08
3.415111e-09 -2.166550e-08 -1.219856e-08 2.951919e-08 1.563666e-08 -4.456463e-09
1.363432e-08 -7.464764e-09 -1.539037e-09 6.656539e-10 3.164988e-10 -3.129432e-10
1.537769e-08 -6.652499e-09 -1.330310e-09 4.213426e-09 3.445794e-10 -5.285345e-10
1.846323e-08 -7.259648e-09 -1.978956e-09 5.550790e-10 3.463020e-10 -3.344326e-10
1.540865e-08 -7.620192e-09 -1.681801e-09 -3.838974e-09 -1.086684e-10 -5.175564e-10
1.807843e-08 -8.610257e-09 -1.113698e-09 -1.774537e-09 2.163115e-10 -3.507006e-10
9.348365e-09 -4.359649e-09 -1.175768e-09 4.896532e-09 1.804165e-10 -1.196647e-10
-6.712065e-09 -5.627457e-09 3.631832e-09 -4.405651e-09 -1.179321e-10 -1.207050e-09
2.151557e-08 -8.914724e-09 -5.892322e-10 2.209807e-09 5.928245e-10 -2.347877e-09
1.029576e-08 -2.414519e-09 -7.772019e-10 8.740786e-09 3.093745e-10 -1.188885e-09
7.869942e-09 -2.043673e-09 -3.519265e-10 7.533504e-09 6.604146e-10 -5.127809e-10
-7.684777e-09 2.970468e-10 2.225873e-09 3.892222e-10 4.780149e-11 -4.712874e-10
5.788707e-09 -2.400687e-09 -1.438459e-09 -8.017788e-09 -4.458709e-10 4.164047e-11
-7.707337e-09 4.835510e-10 1.923004e-09 -3.457490e-10 -1.635254e-10 -3.402441e-10
2.967199e-08 -7.556519e-08 9.038627e-10 1.010087e-08 3.521662e-08 -7.843189e-10
9.015312e-09 -2.830920e-09 -1.399739e-09 -6.665623e-09 -7.126785e-10 2.519488e-10
1.319710e-08 -5.566145e-09 -1.842786e-09 -6.149127e-09 -6.719533e-10 7.044917e-10
1.393222e-08 -6.299568e-09 -1.567836e-09 3.339560e-09 1.114092e-10 -3.516357e-10
1.107022e-08 -4.930576e-09 -1.494462e-09 -5.020249e-09 -4.320925e-10 6.847873e-10
1.171265e-08 -4.931076e-09 -1.642101e-09 -5.014885e-09 -4.440103e-10 5.038337e-10
1.153017e-08 -5.712870e-09 -1.398085e-09 -1.674848e-09 -7.068960e-11 1.055549e-10
9.834254e-09 -4.979242e-09 -1.391820e-09 -4.456121e-09 -2.080808e-10 5.401780e-10
-1.071388e-08 -3.864021e-09 -3.136778e-10 -1.474614e-08 2.658144e-09 1.420864e-09
-5.350245e-09 -1.016038e-08 2.553865e-09 -1.578955e-08 4.593867e-09 2.711417e-10
7.797047e-09 -3.616090e-09 -8.674781e-10 4.066645e-09 2.172463e-10 4.524949e-10
3.429188e-09 -1.398677e-09 -6.052665e-10 4.098084e-09 5.855936e-10 4.182663e-10
6.345602e-09 -1.362151e-09 -8.869159e-10 7.328466e-09 3.023284e-10 -7.325323e-10
1.117727e-08 -5.235995e-09 -1.424630e-09 -3.407530e-09 -4.051507e-10 4.764375e-10
8.640942e-09 -4.353372e-09 -1.273419e-09 -3.938565e-09 -3.297580e-10 2.762033e-10
3.445777e-10 7.004416e-10 -1.652656e-10 4.902377e-09 2.286675e-10 1.912013e-10
1.778655e-08 -9.563212e-09 1.745493e-10 6.224014e-10 2.103587e-11 -2.189793e-09
1.667279e-08 -5.263544e-08 5.000864e-09 -2.508591e-09 6.635125e-09 -4.927913e-10
1.216178e-08 -4.586253e-08 3.614222e-09 -1.463979e-08 8.380177e-09 3.758982e-10
2.543365e-08 -4.422115e-08 -6.146504e-09 5.999388e-09 1.076357e-08 -1.335012e-09
1.817025e-08 -4.759276e-08 4.202714e-10 4.198786e-09 6.317509e-09 -1.498385e-10
1.204657e-08 -5.828986e-09 -1.703744e-09 -6.309255e-09 -2.915121e-10 -1.080696e-10
1.184258e-08 -5.704512e-09 -1.481532e-09 -6.085320e-09 -1.441424e-10 -2.437417e-10
1.344052e-08 -6.011878e-09 -2.016338e-09 -5.307312e-09 -3.309043e-10 7.564997e-10
1.408329e-08 -6.367345e-09 -1.495781e-09 -4.244684e-09 -3.681075e-10 2.626224e-10
-2.818830e-09 3.093958e-09 -4.492431e-10 -7.382998e-09 -7.353387e-10 -1.353264e-10
1.034674e-08 -4.359945e-09 -1.437575e-09 -6.619721e-09 -4.949221e-10 6.056848e-10
-9.647643e-09 -3.149071e-09 1.339383e-09 5.848377e-09 -5.394522e-09 1.758623e-09
1.153885e-08 -5.712859e-09 -1.464283e-09 -1.675996e-09 -1.350488e-10 3.523618e-10
1.341321e-08 -7.753867e-09 -3.262007e-08 -3.012866e-08 3.265572e-08 1.338869e-08
-1.523136e-08 -5.326270e-09 -8.097340e-10 -2.666514e-08 1.047444e-08 6.314896e-09
3.634681e-11 -5.303133e-08 -2.457256e-08 -8.181453e-08 7.230312e-08 3.354560e-08
3.219235e-08 -2.251545e-08 -5.280104e-08 -2.595950e-08 5.132175e-08 1.365084e-08
1.342654e-08 -6.154627e-09 -1.805195e-09 -3.527378e-09 -3.419823e-10 8.001321e-10
2.022053e-09 8.074461e-09 2.858297e-09 1.701595e-08 -3.223423e-09 -5.577804e-09
1.014613e-09 6.450211e-09 2.243275e-09 1.353860e-08 -8.593671e-10 -2.895939e-09
-2.490793e-09 5.506743e-09 -4.478924e-10 9.927927e-09 2.422743e-10 -1.411587e-09
-1.429155e-09 5.691296e-09 1.133054e-09 1.084954e-08 4.101763e-10 -1.077155e-09
-1.105202e-08 1.400363e-08 1.890430e-09 9.982445e-09 -1.675457e-09 -2.212368e-09
-7.404671e-09 -1.309196e-09 3.072291e-09 -1.738960e-09 -2.932809e-11 -3.605286e-10
1.480055e-08 -4.145203e-08 4.571890e-10 -8.676689e-09 4.203736e-09 2.533517e-10
1.641617e-08 3.358562e-08 5.379899e-10 4.839365e-08 1.873285e-08 1.462601e-08
2.454349e-08 3.227144e-09 1.887036e-09 2.302007e-08 -4.304198e-09 -2.051303e-08
2.328022e-09 9.530721e-09 3.707508e-09 1.552967e-08 -1.661276e-09 -8.823176e-09
-1.232459e-08 1.707610e-08 2.661096e-09 1.564600e-08 -3.895003e-09 -3.855110e-09
2.099876e-08 -1.564897e-09 3.483810e-09 -1.967781e-08 3.087578e-09 -6.668643e-09
3.828170e-08 -1.663302e-08 2.164107e-08 -5.556914e-09 5.805827e-09 -3.885890e-08
-8.128785e-09 -1.217115e-08 2.306366e-09 1.305434e-08 -9.521531e-09 4.733110e-09
1.758585e-08 5.037003e-09 -3.591279e-09 -2.461061e-08 2.358182e-09 -4.426174e-09
1.480104e-08 5.002745e-09 7.366810e-09 -2.428846e-08 2.800665e-09 -6.568389e-09
2.276901e-08 2.614944e-08 1.129752e-08 -4.045187e-08 2.360113e-08 -2.089738e-08
9.334543e-09 4.972286e-09 -2.944054e-09 -2.329482e-08 2.361484e-09 -1.032512e-09
1.404734e-08 -5.674925e-09 1.846368e-08 -1.957300e-08 9.155935e-09 -1.609936e-08
3.339917e-08 -6.641625e-09 5.694694e-09 -1.836852e-08 6.480977e-09 -1.697724e-08
2.043169e-08 -3.815371e-09 -3.192977e-09 -1.416987e-08 1.967539e-10 -1.312862e-09
2.531722e-08 -7.201715e-09 3.230658e-10 -1.374098e-08 2.305641e-09 -6.012053e-09
-1.032774e-08 -1.809008e-08 2.408627e-09 2.966931e-08 1.088933e-08 -5.892840e-09
-6.012264e-09 9.665858e-09 -3.321775e-08 3.376786e-08 2.523377e-08 -1.706263e-08
-1.406597e-08 -1.441765e-09 -1.466205e-08 3.466370e-08 2.447225e-08 -1.527690e-08
1.419258e-08 4.052317e-09 -5.675608e-09 -1.803307e-08 -2.818622e-10 3.604145e-10
2.750764e-08 -6.596569e-09 -2.706089e-09 -1.228265e-08 2.056592e-09 -6.541394e-09
3.565508e-08 -1.179455e-08 1.193882e-08 -1.040496e-08 3.576364e-09 -2.320177e-08
9.722037e-09 5.010447e-09 2.864953e-09 -2.500169e-08 3.512486e-09 -1.779069e-09
2.308295e-08 8.431396e-10 -4.014406e-09 -1.850264e-08 5.374967e-09 -7.246294e-09
-1.041457e-08 -2.099134e-08 -1.121369e-09 2.153523e-08 -1.579407e-08 8.302104e-09
1.953648e-08 -2.760412e-09 4.955053e-09 -2.108894e-08 2.773021e-09 -7.602110e-09
3.636574e-08 6.387866e-09 -6.129902e-09 -3.023325e-08 7.017704e-09 -1.264727e-08
3.347745e-08 -6.660045e-09 6.423047e-09 -1.962657e-08 6.536579e-09 -1.727657e-08
3.424209e-08 2.364490e-10 3.306560e-09 -2.316992e-08 5.247338e-09 -1.473130e-08
1.497844e-08 -6.900953e-09 -1.203987e-09 9.977580e-10 5.043982e-11 2.232079e-10
-6.569396e-10 -1.698507e-08 -1.400498e-08 1.791510e-08 -1.775806e-08 1.158150e-08
1.787375e-08 -1.077666e-08 -3.582639e-08 1.304443e-08 -3.409663e-08 1.528578e-08
1.303986e-08 -5.899561e-09 -1.234936e-09 3.286820e-09 8.588242e-11 3.538934e-10
1.360928e-08 -4.261708e-08 -1.466094e-09 1.912050e-08 -2.563505e-08 7.582788e-09
3.166733e-09 -2.608871e-08 1.120873e-10 1.859322e-08 -1.641049e-08 7.330705e-09
3.166739e-09 -1.839673e-08 -1.171712e-08 1.730038e-08 -1.815046e-08 8.279050e-09
1.397626e-08 -7.240668e-09 -1.807201e-09 5.145768e-10 1.445255e-10 -6.643280e-11
-5.850706e-09 1.720872e-09 -2.100920e-08 1.180448e-08 -1.769212e-08 1.383607e-08
-2.710588e-09 -3.765739e-08 -2.516064e-09 3.014166e-08 -2.394503e-08 1.224346e-08
-1.117969e-08 -3.548733e-09 -1.190510e-08 1.534121e-08 -1.973747e-08 1.332809e-08
-9.198304e-09 9.149356e-09 -4.260266e-09 -1.032519e-08 -2.463610e-09 3.649426e-09
1.199133e-08 -5.940445e-09 -1.516697e-09 -9.980596e-10 -2.477474e-11 7.997825e-11
-1.181249e-08 5.947445e-09 -6.521073e-09 7.135654e-10 -5.386169e-09 4.917150e-09
-1.245049e-08 -1.532410e-09 -2.310411e-09 6.254667e-09 -6.749633e-09 4.213794e-09
-1.392955e-08 4.946497e-09 -2.369925e-09 1.499399e-09 -5.762700e-09 4.386788e-09
-1.397685e-08 4.958794e-09 -4.761736e-09 1.484655e-09 -5.422907e-09 4.854298e-09
1.131386e-08 -6.480518e-09 -1.462275e-09 -2.554708e-10 5.793043e-11 1.236000e-10
-1.011895e-08 7.959389e-09 -1.612801e-10 -4.737921e-09 -2.038413e-09 1.624267e-09
-1.081457e-08 9.478354e-09 -3.625444e-09 -7.153471e-09 -3.452707e-09 3.338271e-09
8.679761e-09 -4.452262e-09 -1.054221e-09 2.725291e-09 3.804812e-11 1.012943e-10
-1.279445e-08 6.340533e-09 -2.294393e-09 2.878211e-09 -6.267806e-09 4.043969e-09
1.398868e-08 -6.577838e-09 -1.762275e-09 -2.820166e-09 -1.688727e-10 6.550871e-11
-6.726087e-09 4.295124e-09 8.894396e-11 -7.559196e-09 -2.111063e-09 -4.530082e-11
1.085023e-08 -6.116095e-09 -1.468425e-09 -2.037015e-09 -3.571893e-11 1.669556e-10
1.305151e-08 -6.116101e-09 -1.508369e-09 -2.297481e-09 -2.816790e-10 3.063958e-10
1.285484e-07 -2.870257e-07 -1.496832e-07 1.699726e-07 3.629036e-07 -1.379700e-07
-8.514903e-08 1.435325e-07 -6.253098e-08 -1.104035e-07 8.599768e-08 1.499741e-07
1.092567e-07 -2.574639e-07 -4.066596e-08 7.400547e-08 2.399309e-07 -3.822464e-08
-5.922525e-08 2.580933e-07 -1.759405e-09 5.496666e-09 -1.740920e-07 -2.933153e-09
1.268573e-08 -6.052007e-09 -1.419248e-09 1.599457e-09 7.781078e-11 4.001155e-10
7.246994e-08 -1.848320e-07 -8.438202e-09 3.129667e-08 1.098671e-07 -4.558547e-09
6.077546e-10 -1.892611e-08 5.142835e-09 -8.294235e-09 5.794506e-10 -5.191750e-10
6.579224e-08 -1.438774e-07 -1.162652e-07 2.484087e-08 1.999089e-07 -2.329827e-08
2.630620e-08 3.632940e-08 -1.298748e-07 -3.489155e-08 1.016480e-07 4.396779e-08
-7.721493e-09 1.413943e-07 -9.728889e-08 -3.827769e-08 9.970681e-09 7.087278e-08
5.153143e-08 2.708058e-08 -1.002117e-07 -4.308904e-08 1.684702e-07 2.850234e-08
-9.729945e-09 3.529320e-09 1.381660e-09 -1.784227e-09 1.377357e-09 -4.251697e-10
-7.582451e-09 -6.939462e-09 3.319433e-09 -8.787356e-09 2.043463e-10 -2.337540e-10
-7.015305e-09 -5.218741e-09 3.353817e-09 -4.775677e-09 6.519885e-10 -7.977483e-10
5.206033e-08 -1.637430e-08 -1.498318e-07 -2.867312e-08 1.365173e-07 2.313739e-08
1.265014e-07 -1.162875e-07 -2.578923e-07 -6.307507e-09 4.485636e-07 -4.828200e-08
-6.758045e-09 -7.828733e-09 3.703623e-09 -6.527108e-09 1.247205e-10 -3.411321e-10
2.985285e-07 -4.393862e-07 -2.904323e-07 -1.443271e-07 5.287779e-07 1.715639e-09
2.334108e-08 -5.536469e-08 -8.728307e-10 1.244502e-09 1.332739e-08 4.721546e-10
-4.050798e-09 -9.441191e-09 4.230141e-09 -5.912403e-09 2.443106e-10 -4.327300e-10
-4.024872e-09 -1.255051e-08 4.589262e-09 -8.598237e-09 -2.596017e-10 -8.270624e-10
8.302447e-09 1.369363e-07 -1.733929e-07 3.516719e-08 4.567447e-08 -1.004449e-07
1.360929e-08 -3.432278e-08 -1.610878e-08 1.758404e-08 -2.601397e-08 8.561981e-09
-1.043726e-08 -1.141769e-08 -9.463795e-10 1.993586e-08 -1.446898e-08 8.130129e-09
-2.273967e-08 3.496633e-07 -1.673245e-07 -1.063856e-07 -4.221728e-08 -1.601531e-08
1.087320e-09 -2.341066e-08 -9.035512e-10 2.897686e-08 -2.549730e-08 1.494292e-08
1.250580e-08 -8.704233e-09 -3.316105e-08 1.279954e-08 -3.115833e-08 1.209277e-08
6.712777e-09 -1.722628e-08 -1.528328e-08 1.426586e-08 -1.859376e-08 5.411425e-09
1.110834e-07 -1.494964e-07 -7.034474e-08 -3.592369e-08 2.543464e-07 1.789639e-09
-4.024839e-09 -1.154702e-08 3.815223e-09 -8.746103e-09 -2.105425e-10 -7.043218e-10
-5.808076e-10 -1.866079e-08 4.608675e-09 -1.038779e-08 1.074237e-09 -1.019286e-09
-5.808033e-10 -1.598652e-08 4.742286e-09 -1.039789e-08 1.690090e-09 -1.021084e-09
-6.667358e-09 -4.861326e-09 3.325969e-09 -2.512146e-09 2.289022e-10 -7.093264e-10
-7.197359e-09 -6.572187e-09 3.453313e-09 -7.599781e-09 1.126493e-09 -2.247286e-10
2.967408e-08 6.563695e-08 -1.356389e-07 5.176581e-08 9.149580e-08 -6.976422e-08
2.546750e-09 -4.592912e-10 -2.675901e-10 4.883586e-09 4.571865e-10 1.472165e-10
3.765307e-09 -1.550707e-09 -5.194067e-10 3.931978e-09 2.873080e-10 2.690559e-11
-7.822115e-09 -7.391733e-09 2.282469e-09 -1.060961e-08 1.639725e-09 7.578323e-11
-6.758105e-09 -5.138129e-09 3.608410e-09 -5.795637e-09 9.862311e-11 -4.860305e-10
-3.414048e-09 -1.508720e-08 3.509403e-09 -1.138644e-08 2.314445e-09 -1.788002e-10
8.906607e-09 -2.811237e-09 -5.605401e-10 6.363278e-09 3.738043e-10 -1.019442e-09
8.146515e-10 -2.097508e-10 -2.268090e-10 5.287395e-09 3.548479e-10 -7.163270e-11
4.127228e-09 -1.614108e-09 -9.401360e-10 5.697896e-09 4.568404e-10 -3.209267e-10
6.587317e-10 -6.818096e-11 -6.445916e-10 5.075552e-09 6.110343e-10 2.398193e-10
2.275367e-09 1.145095e-11 -5.795390e-10 5.439925e-09 5.379026e-10 -8.447620e-11
2.646345e-09 -4.803024e-10 -5.604226e-10 6.123685e-09 6.048966e-10 -3.900814e-10
-2.136732e-08 7.286814e-08 -3.837822e-08 1.609062e-09 1.754517e-08 -2.983618e-08
-5.208456e-08 3.334893e-08 -4.905101e-09 4.164231e-08 2.065845e-08 -4.317024e-08
5.882565e-09 -6.080053e-08 -1.085529e-08 8.629705e-08 6.863136e-08 -3.126013e-08
8.603740e-09 -4.317727e-09 -1.214056e-09 4.566206e-09 1.034462e-10 -5.607514e-11
2.247925e-09 8.990811e-10 -1.611355e-10 7.266699e-09 -2.941827e-11 -8.148285e-10
7.421885e-11 8.873534e-10 1.258706e-10 5.648422e-09 1.425922e-10 -1.206088e-10
2.147394e-09 9.252309e-10 -3.120346e-10 7.228104e-09 4.585776e-10 -2.537486e-10
1.052871e-08 -6.052049e-09 -1.374817e-09 1.520555e-09 2.938692e-11 1.006836e-10
1.054350e-08 -5.382660e-09 -1.289742e-09 1.726504e-09 -1.014306e-11 1.511085e-10
-1.009742e-08 -1.522023e-09 1.144151e-09 -1.364831e-08 4.841989e-09 1.043865e-09
-1.264276e-08 4.075292e-09 1.838131e-09 -7.284210e-09 5.172603e-10 -5.738304e-10
1.181621e-08 -5.874925e-09 -1.432442e-09 3.544452e-10 -9.713119e-12 1.162859e-10
4.370002e-08 5.108002e-08 -2.108717e-07 -1.236481e-10 -2.251507e-07 9.802657e-08
-7.831994e-09 8.534350e-09 5.760925e-10 3.909771e-09 7.643279e-10 -5.220304e-10
-1.376888e-08 7.028192e-10 2.493038e-09 -1.003494e-08 1.958939e-09 8.367093e-10
-1.260254e-08 6.353214e-09 -9.519829e-12 -1.337910e-08 3.188529e-09 1.961543e-09
1.899171e-08 -4.535501e-08 3.771428e-10 6.448080e-09 4.823274e-09 -4.277325e-10
-7.648793e-09 -9.620402e-09 1.269533e-09 -2.300679e-08 9.006969e-09 2.545447e-09
1.189818e-08 -4.139629e-08 5.747954e-09 8.995955e-09 2.452228e-09 -4.553613e-10
-1.434772e-08 1.194066e-08 -1.636900e-09 -4.501513e-09 2.337549e-09 1.494976e-09
1.527963e-08 -4.185775e-08 3.140788e-09 8.336975e-09 3.425310e-09 -7.584049e-10
-1.268067e-08 9.884502e-09 -4.814638e-10 1.198677e-09 1.690405e-09 6.522225e-10
-7.838720e-09 5.817871e-10 2.367025e-09 -3.926575e-10 5.171352e-11 -5.081417e-10
-7.417066e-09 6.478453e-10 2.002525e-09 -1.113157e-11 2.903953e-10 -9.005875e-10
9.532220e-09 -5.126886e-09 -1.366326e-09 -3.663857e-09 -7.341255e-11 1.394659e-10
1.103334e-08 -5.330003e-09 -1.441527e-09 -2.422516e-09 -2.883371e-11 8.869416e-11
3.590751e-09 -9.546097e-10 -9.370238e-10 -4.390463e-09 -7.658452e-11 1.308986e-10
2.022198e-09 -1.947553e-10 -6.234779e-10 -4.161179e-09 -1.970113e-10 2.029210e-11
7.485506e-09 -3.528254e-09 -1.216881e-09 -4.740831e-09 -8.409473e-11 -2.217768e-10
8.275478e-09 -3.180914e-09 -1.286788e-09 -5.771641e-09 -4.161228e-10 3.630914e-10
4.884547e-09 -1.613411e-09 -1.045994e-09 -5.318991e-09 -1.163318e-10 -6.631585e-12
-9.830112e-09 9.105610e-09 2.292160e-10 2.504803e-10 1.619828e-09 -1.832991e-10
-8.728380e-09 5.096754e-09 1.030405e-09 -4.570747e-09 -5.626737e-10 -5.233878e-10
-1.356678e-08 4.155224e-09 -1.777523e-09 -1.663354e-08 5.245026e-09 4.105214e-09
-1.050281e-08 4.973558e-09 2.117702e-10 -2.268709e-09 -3.385190e-09 2.269847e-10
-1.014724e-08 5.190346e-09 9.312462e-10 -5.171687e-09 2.735946e-09 6.376752e-12
-5.861811e-09 4.191159e-09 2.286089e-10 -6.140659e-09 -5.620502e-10 -2.659009e-10
-8.603037e-09 4.971645e-09 6.775742e-10 -4.717416e-09 -2.066579e-09 -5.848861e-10
-7.424757e-09 4.573515e-09 7.444547e-10 -4.534254e-09 -3.666050e-10 -4.656284e-10
-1.487689e-08 5.614853e-09 -1.329353e-09 -9.135131e-09 1.916085e-09 6.572025e-10
-1.358057e-08 6.218449e-10 -2.109856e-09 -1.633366e-08 6.695408e-09 3.926727e-09
4.714078e-10 1.562736e-09 -1.013650e-09 -8.362877e-09 -4.815661e-10 2.390528e-10
-6.439143e-09 4.218064e-09 5.898171e-10 -4.482433e-09 -7.487324e-10 -3.845700e-10
-4.721582e-09 3.407777e-09 3.388245e-11 -5.339622e-09 -1.714755e-10 -7.241233e-11
-1.092438e-08 5.916748e-10 2.257804e-09 1.703985e-09 -3.246992e-09 9.688895e-10
3.858528e-09 -3.117185e-10 -1.202613e-09 -8.353583e-09 -7.534686e-10 8.119327e-11
5.823119e-09 -1.121141e-09 -1.270943e-09 -8.264279e-09 -9.124034e-10 1.373270e-10
1.088940e-08 -4.015218e-09 -1.780287e-09 -7.288081e-09 -5.507305e-10 7.732330e-10
1.209473e-08 -4.360131e-09 -1.757368e-09 -6.661550e-09 -3.795005e-10 -4.070455e-11
-7.843753e-09 9.585506e-10 2.066418e-09 -1.654968e-10 1.361213e-10 -7.439604e-10
-7.316113e-09 1.676018e-09 1.501160e-09 5.421761e-10 1.784839e-10 -1.574691e-10
8.092861e-09 -2.677068e-09 -1.475904e-09 -7.009281e-09 -5.610310e-10 7.129829e-10
5.050725e-09 1.863846e-08 4.267727e-09 -3.780364e-08 1.323229e-08 1.550027e-09
7.009515e-09 -3.041892e-09 -1.429885e-09 -5.928604e-09 -4.536120e-10 -5.900614e-11
-7.920686e-09 5.494114e-09 1.606493e-11 -6.740018e-09 -1.598891e-09 2.303674e-10
7.209763e-09 -3.030831e-09 -1.155124e-09 -4.355140e-09 -2.499180e-10 4.125152e-10
-3.034143e-09 4.964467e-09 -8.608592e-10 -9.294499e-09 -1.556817e-09 5.622566e-10
-6.913777e-09 5.071574e-09 -5.515144e-10 -6.443302e-09 -2.404458e-09 1.029362e-09
-2.642735e-08 5.023136e-08 -1.124773e-08 1.157901e-08 1.510648e-09 -1.481443e-08
-1.834761e-08 5.182342e-08 -3.590081e-08 8.394550e-10 -9.978236e-09 -2.805615e-08
-8.651706e-09 6.738439e-09 -2.678333e-10 -5.074560e-09 -2.868398e-09 1.645640e-09
1.764970e-07 -3.764378e-12 -1.588356e-08 1.104263e-08 1.990796e-09 9.738818e-08
-3.136981e-10 1.540715e-07 -1.767133e-07 -2.337723e-09 -9.528118e-09 -8.358401e-08
-1.014375e-08 6.719735e-09 -4.034735e-10 -5.470222e-09 -2.924196e-09 9.257035e-10
-4.116459e-09 3.898270e-09 2.621205e-10 -4.182782e-09 -5.151444e-10 -7.000312e-11
-1.321060e-09 2.961681e-09 -6.393395e-10 -1.034202e-08 -1.754322e-09 -4.347925e-11
-4.848487e-09 3.835040e-09 3.061449e-10 -3.465101e-09 -2.821952e-10 -1.187124e-10
-3.961894e-09 3.088629e-09 7.100764e-12 -4.187083e-09 -2.521731e-10 -1.899276e-10
1.032926e-09 5.374798e-10 -6.834577e-10 -5.586873e-09 -2.213965e-10 2.872977e-10
-9.899418e-09 3.783770e-09 -3.729830e-10 -2.400911e-09 -2.762267e-09 3.993655e-10
-8.721435e-09 3.310190e-09 9.071817e-10 -3.182402e-09 -2.309027e-09 2.259909e-10
-8.561158e-09 5.653456e-09 -7.555367e-10 -5.540186e-09 -1.414704e-09 8.410981e-10
-2.911117e-09 3.120675e-09 1.695377e-11 -5.584145e-09 -9.187242e-10 9.350526e-11
-5.075809e-09 3.850429e-09 2.940315e-10 -4.587062e-09 -1.086904e-09 -5.769085e-11
-2.878260e-09 3.554242e-09 -2.143694e-10 -6.046552e-09 -4.016530e-10 -1.514688e-10
-4.313334e-09 4.132304e-09 -5.509095e-10 -7.429880e-09 -1.714597e-09 -2.493321e-10
-1.443053e-09 4.063545e-09 -8.304295e-10 -9.820872e-09 -1.957382e-09 6.715549e-10
-6.292049e-09 8.757978e-09 -1.834026e-09 -1.000709e-08 -3.639614e-09 2.858814e-09
-1.577851e-09 3.687688e-09 -9.155388e-10 -8.942760e-09 -1.617641e-09 1.147205e-09
-5.611670e-09 5.367284e-09 -1.201445e-09 -8.952037e-09 -1.487785e-09 5.127339e-10
-4.370379e-09 4.947320e-09 -1.501875e-09 -9.728791e-09 -1.751436e-09 1.173568e-10
-7.824774e-09 7.272531e-09 -1.928433e-09 -8.839202e-09 -1.976247e-09 1.335633e-09
-6.632849e-09 1.930902e-09 1.391413e-09 1.154758e-09 -4.490852e-12 -2.883935e-10
-3.852766e-09 2.312622e-09 7.360588e-10 2.648528e-09 9.221512e-11 -7.209863e-11
-4.205514e-09 2.348573e-09 8.814545e-10 2.350674e-09 1.625328e-10 1.697860e-10
7.654371e-09 -3.865772e-08 7.611648e-09 1.232212e-08 1.620194e-09 -2.834588e-10
3.621353e-09 -3.117608e-08 6.708057e-09 1.115190e-08 1.375261e-09 1.126148e-10
4.576233e-09 -2.995828e-08 3.851743e-09 1.953409e-08 5.310607e-09 -1.714258e-09
5.976231e-09 -3.567195e-08 4.098788e-09 1.666517e-08 4.502491e-09 -1.106910e-09
-4.360241e-09 2.027494e-09 7.779939e-10 2.653043e-09 4.663869e-10 -3.315882e-10
-3.341609e-09 1.845486e-09 5.892939e-10 3.258194e-09 3.581647e-10 -2.935295e-10
-5.043264e-09 2.636664e-09 8.127437e-10 1.918265e-09 2.258915e-10 -2.179759e-10
-7.076530e-09 2.092315e-09 1.577254e-09 1.099556e-09 1.770005e-10 -4.422882e-10
-6.809457e-09 2.842063e-09 1.333630e-09 1.606689e-09 2.784022e-10 -2.875234e-10
-7.680522e-09 2.307738e-09 1.487648e-09 8.909291e-10 2.514213e-10 -7.139291e-10
-7.380626e-09 2.636167e-09 1.421990e-09 1.314915e-09 1.270481e-10 -2.927899e-10
1.895100e-08 -4.766699e-08 7.687881e-09 5.734847e-09 4.072874e-09 -1.834393e-10
9.545216e-09 -3.980425e-08 7.180518e-09 1.024888e-08 2.996683e-09 -4.190295e-10
1.898398e-08 -5.185916e-08 2.413042e-09 7.504416e-09 9.648308e-09 -3.168449e-10
1.409055e-08 -3.904355e-08 -5.329134e-09 1.468084e-08 8.105902e-09 -2.456765e-09
1.050818e-08 -3.679763e-08 2.841224e-09 1.408863e-08 4.351008e-09 -7.015855e-10
1.525984e-08 -4.428197e-08 -9.897927e-10 1.039642e-08 6.362197e-09 -6.398302e-10
-6.391068e-09 2.054287e-09 1.405030e-09 1.291310e-09 2.630216e-10 -4.606857e-10
-5.805939e-09 2.512404e-09 1.010725e-09 2.726574e-09 1.782836e-10 -1.260295e-10
-6.513651e-09 2.810688e-09 1.066151e-09 1.651972e-09 2.338425e-10 -1.030110e-10
-3.066762e-09 1.627298e-09 2.339697e-10 3.097973e-09 2.271386e-10 -3.092655e-10
-4.633129e-09 2.185166e-09 9.000276e-10 2.582596e-09 3.789316e-10 8.571987e-11
-1.230668e-08 8.409013e-09 -1.657056e-09 -2.157140e-09 -5.181726e-09 4.510581e-09
4.671085e-08 -8.916014e-08 -1.161539e-08 9.520282e-09 6.580401e-08 -1.323783e-08
1.753462e-08 -3.803624e-08 -1.387580e-08 2.658721e-08 2.093048e-08 -3.127972e-09
-3.787173e-09 -1.371953e-08 -2.937701e-09 -2.424765e-08 -2.058715e-08 -8.115325e-09
6.637554e-09 -3.974062e-08 4.663768e-09 2.783511e-08 1.230907e-08 -1.984796e-09
5.257781e-09 -9.428760e-09 -1.515351e-08 -1.990811e-08 -1.954453e-08 -6.458906e-09
-8.967139e-09 -3.209135e-08 -5.863194e-09 -3.608819e-08 -2.946609e-08 -1.268786e-08
-1.719098e-09 -4.781103e-09 -2.083657e-08 -2.204444e-08 -2.153276e-08 -9.185596e-09
2.824430e-08 -9.435466e-08 -3.284871e-08 6.314686e-08 8.169361e-08 -2.811809e-08
-8.385607e-09 -9.844663e-09 -9.531996e-10 -2.411136e-08 -1.765316e-08 -6.967457e-09
-7.588269e-09 -7.295284e-09 -1.844263e-08 -2.597430e-08 -2.258872e-08 -1.171709e-08
4.626177e-08 -1.193447e-07 -2.703360e-08 7.296363e-09 8.029473e-08 4.021601e-09
4.015123e-08 -4.651486e-08 -5.381133e-08 2.919458e-08 5.662636e-08 -9.816074e-09
2.106142e-08 -4.869392e-08 -2.407479e-08 4.101092e-08 5.295025e-08 -1.714277e-08
2.028946e-08 -4.759992e-08 -4.647584e-08 8.073810e-08 1.404294e-07 -6.374341e-08
2.856685e-08 -1.359624e-08 -6.384983e-08 3.110927e-08 6.189851e-08 -1.862491e-08
3.103900e-08 -5.563577e-08 -1.459287e-08 -1.733773e-08 3.154977e-08 5.649403e-09
2.838514e-09 -1.154547e-09 -4.540386e-10 3.607555e-09 3.082880e-10 1.223605e-10
1.469929e-08 -6.012066e-08 -3.223013e-09 5.461291e-08 3.649685e-08 -1.663381e-08
5.803623e-09 -4.211902e-08 4.134694e-09 2.454474e-08 1.070966e-08 -2.772041e-09
-1.473723e-08 4.104446e-08 -2.563188e-08 6.873655e-09 -1.687467e-08 -2.238212e-08
-1.024157e-08 -1.667454e-08 -3.247236e-08 -4.634363e-08 -5.637184e-08 -3.427412e-08
-1.879173e-08 2.560830e-08 -1.365283e-08 -3.047026e-08 -2.488675e-08 -2.422753e-08
2.819297e-08 -6.861063e-08 1.401019e-10 2.935759e-08 3.580432e-08 -6.063343e-09
-2.973182e-09 -2.381784e-08 -3.042867e-09 2.518956e-08 8.657035e-09 -3.712659e-09
4.837182e-09 -3.535198e-08 -1.023589e-08 3.961061e-08 3.398777e-08 -1.501113e-08
8.185812e-09 -3.780991e-08 4.346359e-09 1.225627e-08 3.834676e-09 -2.102775e-09
1.494806e-08 -4.413294e-08 4.724698e-09 6.185282e-09 3.125356e-09 6.208329e-10
1.115351e-08 -4.280039e-08 7.243728e-09 8.953642e-09 3.071793e-09 1.908273e-11
-5.041818e-09 2.223463e-09 8.582686e-10 2.294461e-09 6.981826e-11 -4.617802e-10
9.674950e-09 -4.410651e-09 -8.004113e-10 5.064151e-09 3.301228e-10 -3.285336e-10
-4.849416e-10 4.865208e-10 -9.197731e-11 4.315986e-09 3.552562e-10 1.786460e-10
1.296792e-09 -2.131074e-10 -1.332583e-10 3.803771e-09 2.887923e-10 5.710432e-11
6.093492e-10 6.132367e-10 -2.532974e-10 4.629474e-09 5.319167e-10 -2.512418e-10
8.348593e-10 -1.828550e-10 -2.491953e-10 3.760108e-09 5.249736e-10 -4.225508e-13
3.454952e-09 -1.175034e-09 -5.309166e-10 4.647521e-09 4.284288e-10 -1.864768e-10
3.258513e-09 -7.982419e-10 -3.736467e-10 5.345671e-09 1.810199e-10 -1.189436e-10
5.760408e-09 -2.329931e-09 -8.180872e-10 4.689163e-09 3.094144e-10 -7.003997e-11
1.854895e-09 -8.996798e-11 -6.944045e-11 5.196837e-09 5.012815e-10 -1.618523e-10
-2.378069e-09 6.031888e-08 -3.318583e-08 2.299785e-08 -1.018349e-08 -1.691252e-08
-1.840789e-08 6.470164e-08 -3.821186e-08 3.665772e-09 -1.321551e-08 -3.022492e-08
2.023342e-09 -5.478617e-10 -1.585954e-10 4.154149e-09 1.227171e-10 1.525962e-10
-3.329323e-08 1.021887e-07 -1.029580e-07 -8.002224e-09 -3.849926e-08 -7.673427e-08
2.855796e-10 9.714274e-11 -3.225797e-11 3.187891e-09 2.914223e-10 6.806600e-11
-5.224585e-10 7.788081e-10 1.369933e-10 3.730886e-09 1.279684e-10 9.169177e-11
1.100354e-08 -2.471560e-08 -1.821526e-08 -2.522957e-08 -2.811327e-08 -7.599641e-09
-1.359564e-09 8.412124e-10 1.554581e-10 3.032000e-09 1.620144e-10 -2.587117e-10
1.199822e-09 -4.796296e-10 -1.742703e-10 3.458296e-09 1.261908e-10 -2.371605e-10
6.806132e-10 -2.635944e-08 -5.325714e-09 -3.338560e-08 -3.184756e-08 -1.542676e-08
-1.030460e-08 1.294794e-09 1.615353e-09 9.023284e-10 -3.163904e-09 4.360717e-10
-6.735459e-09 4.377219e-09 6.615957e-10 -5.809984e-09 -1.526175e-09 -7.311779e-10
-1.017613e-08 4.160520e-09 -2.810499e-10 -2.226505e-09 -2.290986e-09 1.037969e-09
6.290328e-10 -3.914160e-10 -2.583889e-10 4.784745e-09 4.520059e-10 -2.314595e-10
-9.849617e-09 5.008697e-09 -2.344290e-10 -3.802345e-09 -2.309852e-09 -1.033820e-10
1.499758e-08 -4.999200e-09 -7.683828e-10 6.964254e-09 2.960705e-10 -2.515276e-09
9.519765e-10 1.331183e-09 -3.689726e-10 6.341638e-09 6.635601e-10 -4.689674e-10
-4.207469e-09 7.284117e-09 -3.009536e-10 6.670806e-09 1.072118e-09 -9.324242e-10
-1.317654e-08 1.554395e-07 -1.095932e-07 -5.314631e-08 -1.418828e-08 -2.896723e-08
-1.059254e-08 2.406611e-08 -1.241094e-08 -1.292567e-08 -4.658486e-09 8.853867e-09
-6.901939e-09 5.089020e-09 5.500067e-11 -6.464137e-09 -1.824839e-09 8.303966e-10
-4.403205e-09 3.820669e-09 7.696481e-10 4.898706e-09 4.889497e-10 -6.417578e-10
-7.559887e-09 4.580778e-09 7.939551e-10 3.389541e-09 4.040563e-10 -8.718314e-10
-1.027878e-08 3.922774e-09 8.993801e-10 -2.215583e-09 -1.994742e-09 2.510714e-10
-1.053028e-08 7.062370e-10 1.615270e-09 3.303892e-10 -2.924378e-09 4.895240e-10
-6.161334e-09 5.477192e-09 7.655250e-10 5.262011e-09 6.987404e-10 -4.578382e-10
-8.685043e-09 3.614655e-09 1.447345e-09 1.424754e-09 6.255013e-10 -4.752017e-10
-8.755660e-10 4.213508e-09 2.871738e-10 8.244823e-09 2.746450e-10 -1.040127e-09
-6.665478e-09 4.365358e-09 8.260010e-10 3.902211e-09 3.443049e-10 -1.653047e-10
-4.739665e-09 3.146956e-09 6.381706e-10 3.693805e-09 6.797217e-10 -4.581040e-10
-8.808714e-10 4.227552e-09 1.213940e-10 8.240984e-09 2.087229e-10 -9.671551e-10
-2.631529e-08 1.685800e-08 1.883845e-09 -2.208312e-08 -7.764328e-10 8.022095e-09
-2.631504e-08 2.406233e-08 1.254937e-09 -9.171324e-09 -1.478780e-09 7.092559e-09
-1.042328e-08 1.377418e-08 1.588950e-09 7.083872e-09 -1.576430e-09 -2.026945e-09
-2.234964e-08 4.071786e-08 -2.628857e-08 1.505726e-08 2.441672e-08 -2.493320e-08
-7.380780e-09 2.464246e-09 1.607952e-09 1.441124e-09 2.801345e-10 -2.482007e-10
-1.595742e-08 1.608755e-08 -6.127558e-10 9.071089e-10 1.661239e-09 1.032890e-09
-1.863773e-08 1.764290e-08 -2.218840e-09 -6.166901e-10 1.485722e-09 2.050219e-09
-1.569833e-08 1.789218e-08 -9.254436e-10 5.213921e-10 1.329818e-09 -1.895563e-10
-6.440732e-09 2.754632e-09 1.178042e-09 1.433940e-09 1.758196e-10 -2.835235e-10
-7.016036e-09 3.199670e-09 1.353765e-09 1.435473e-09 1.930631e-10 -1.651106e-10
9.095838e-09 -3.594555e-08 6.051112e-09 -7.606068e-09 2.731596e-09 -2.738801e-10
3.603887e-08 -4.074553e-08 -4.054389e-08 7.854474e-09 -7.662807e-08 1.015387e-08
1.652345e-08 -5.315893e-08 6.465140e-09 1.399036e-08 9.946348e-09 -2.240613e-09
1.847317e-08 -4.647074e-08 2.485983e-09 1.879349e-10 4.899985e-09 1.835219e-09
1.493999e-08 -4.764736e-08 6.714374e-09 7.217914e-10 3.273769e-09 -4.410086e-10
3.083872e-08 -6.065539e-08 -1.608084e-08 5.470142e-09 -4.877143e-08 9.400462e-09
2.063570e-09 5.461103e-10 -6.420287e-10 -5.436911e-09 -4.649951e-10 -5.801626e-11
2.140353e-09 -8.000883e-11 -7.521801e-10 -5.345532e-09 -7.213529e-10 4.021710e-10
3.883551e-09 -7.086904e-10 -8.635594e-10 -5.208556e-09 -2.556437e-10 9.145590e-11
3.709023e-09 -5.685585e-10 -7.452423e-10 -6.507741e-09 -7.505160e-10 1.388744e-10
3.621544e-08 -8.397475e-08 -3.162584e-08 -2.281143e-08 -7.337613e-08 -6.641957e-09
5.179317e-08 -7.275403e-08 -8.643325e-08 1.529590e-08 -1.364598e-07 1.968329e-08
4.719651e-08 -5.980901e-08 -8.058563e-08 1.820878e-09 -1.233134e-07 1.781968e-08
4.041858e-08 -7.978147e-08 -2.507963e-09 -1.033672e-08 -5.452695e-08 1.332453e-10
5.110935e-09 -1.964211e-09 -8.937404e-10 -4.196083e-09 -1.820197e-10 7.194495e-11
2.047252e-09 -1.947509e-10 -7.244891e-10 -4.231253e-09 -4.786744e-10 5.808221e-11
7.170534e-09 -9.035340e-10 -4.882511e-08 -3.635430e-08 -5.517098e-08 -2.003222e-08
3.619439e-08 -7.498920e-08 -1.922193e-08 3.850217e-08 -8.712966e-08 2.733568e-08
5.344488e-08 -1.242589e-07 -2.924135e-08 -3.669625e-08 -1.250817e-07 9.853780e-10
2.445250e-08 -4.060611e-08 -2.298918e-08 -2.015246e-08 -3.486795e-08 -5.151752e-09
4.318320e-08 -1.059431e-07 -1.585047e-08 -4.273217e-08 -8.478365e-08 -6.584664e-09
-1.748316e-08 1.606052e-08 -2.541745e-08 -2.813344e-08 -3.957885e-08 -2.447558e-08
3.518137e-08 -1.729195e-08 -4.750322e-08 2.327985e-09 -4.528629e-08 9.831278e-09
2.965514e-09 -2.088039e-08 -2.369948e-08 -2.928873e-08 -2.944113e-08 -1.475661e-08
1.849453e-08 -4.423636e-08 -7.699715e-09 -3.378707e-08 -4.658926e-08 -1.519052e-08
3.746053e-08 -4.985277e-08 -3.780870e-08 -1.293840e-08 -4.558043e-08 -9.271635e-09
6.580967e-09 -3.901497e-08 -2.918688e-10 -2.859657e-08 -2.826826e-08 -9.952491e-09
8.846336e-09 8.326408e-09 -3.176923e-08 -2.246778e-08 -2.967512e-08 -1.207037e-08
2.932324e-08 -9.801746e-08 -2.660575e-09 -1.769624e-08 -4.363261e-08 -2.581382e-09
3.083855e-08 -5.262625e-08 -2.389728e-08 3.377843e-09 -3.914727e-08 3.643695e-09
3.284184e-08 -2.213676e-08 -5.359177e-08 -7.561499e-09 -5.304446e-08 3.319866e-09
3.471429e-08 -3.779752e-08 -7.185308e-08 -6.607481e-09 -6.970097e-08 6.487266e-09
3.044815e-08 -4.952205e-08 -4.330654e-08 -1.835556e-08 -4.945215e-08 -5.504464e-09
-1.985829e-09 -2.292597e-08 5.954371e-09 1.886201e-08 4.360141e-09 -6.663185e-10
-2.103673e-09 -1.524754e-08 2.927654e-10 2.187419e-08 3.227183e-09 -1.819942e-09
-4.288744e-10 -2.292600e-08 3.182696e-09 1.916511e-08 4.023492e-09 2.953620e-10
1.470853e-09 -1.111439e-08 -3.264422e-08 4.348380e-08 3.045028e-08 -1.905204e-08
4.230609e-09 2.386732e-09 -1.341433e-09 -1.215066e-08 -7.485499e-10 -5.216291e-11
-1.367255e-09 6.372417e-09 -2.037383e-09 -1.491954e-08 -5.195400e-10 1.405145e-09
3.622571e-08 -8.402316e-08 -1.232418e-08 -2.302416e-08 -6.664734e-08 -7.109306e-09
4.660507e-08 -1.163451e-07 -1.294025e-08 -3.492996e-08 -8.898135e-08 -9.970589e-09
4.336864e-08 -3.852411e-08 -7.152606e-08 -4.187327e-08 -1.149038e-07 -1.228166e-08
4.234537e-09 1.342372e-09 -1.669388e-09 -1.210949e-08 -1.535001e-09 -5.946549e-11
3.188252e-08 -4.178482e-08 -3.257849e-08 -1.273365e-09 -3.907597e-08 7.813892e-09
3.465635e-08 -1.287765e-08 -5.342164e-08 -6.910494e-09 -4.786927e-08 6.014887e-09
-6.058550e-09 7.079024e-09 -2.517871e-09 -1.038899e-08 -3.598232e-09 3.184912e-09
-2.343798e-09 5.508109e-09 -1.846379e-09 -1.152355e-08 -1.554252e-09 1.620329e-09
3.083855e-08 -8.521411e-08 -4.043790e-09 6.957352e-09 -4.169268e-08 3.604653e-09
2.918874e-09 4.671563e-09 -2.628187e-09 -1.483478e-08 -1.524938e-09 1.577814e-09
-7.683903e-09 2.135809e-09 1.787696e-09 1.018847e-09 7.723086e-11 -3.751797e-10
3.560559e-08 -8.562575e-08 -4.094430e-09 -5.303552e-09 -4.773133e-08 -2.551517e-09
1.749819e-08 -3.448613e-08 -3.064679e-08 -3.094136e-08 -3.856395e-08 -1.466343e-08
-7.322887e-09 2.424009e-09 1.466407e-09 1.302039e-09 3.303922e-10 -5.185102e-10
-7.486887e-09 1.335473e-09 1.982772e-09 4.531388e-10 2.233895e-10 -2.250173e-10
-6.805781e-09 2.834075e-09 1.272731e-09 1.607141e-09 1.378745e-10 -1.851002e-10
-5.852540e-09 2.613158e-09 1.068041e-09 2.388960e-09 2.478917e-10 -3.775564e-10
1.423423e-08 -4.222528e-08 5.810431e-09 -5.856266e-09 3.584023e-09 -7.941259e-11
-6.069761e-09 2.615856e-09 1.239666e-09 2.363879e-09 2.263144e-10 -1.574417e-10
-6.030572e-09 2.317579e-09 1.325856e-09 1.999648e-09 4.071290e-10 -1.981226e-10
1.517702e-08 -4.321004e-08 6.444992e-09 -1.977545e-09 3.507874e-09 -2.124690e-10
9.033034e-09 -3.913734e-08 3.657030e-09 1.833724e-08 5.886175e-09 -2.020292e-09
-3.411242e-09 -2.878033e-08 3.033438e-09 2.334382e-08 6.795314e-09 -1.664125e-09
-4.372602e-09 -1.605678e-08 -2.854733e-09 2.469686e-08 9.929243e-09 -3.482310e-09
-6.721985e-09 2.381323e-09 1.390955e-09 1.483820e-09 1.205347e-10 -2.138774e-10
-7.606156e-09 -8.469782e-09 -1.950660e-08 2.890142e-08 1.904355e-08 -7.586212e-09
-7.122555e-09 1.387800e-09 1.976240e-09 6.705933e-10 1.913543e-10 -6.021976e-10
-7.907765e-09 1.421378e-09 2.315133e-09 -1.596266e-10 5.829457e-10 -7.242882e-10
-4.925373e-09 2.258013e-09 7.394800e-10 1.780710e-09 8.805556e-11 -3.562610e-10
-5.995715e-09 2.123510e-09 1.445649e-09 2.223466e-09 4.577881e-10 -8.146928e-11
-6.052335e-09 2.616198e-09 1.255890e-09 2.374400e-09 2.724635e-10 -4.415011e-10
1.274192e-08 -4.657219e-09 -1.944725e-09 -7.663295e-09 -2.270189e-10 -3.004177e-10
-6.249080e-07 1.116984e-06 5.945216e-07 2.418625e-07 9.297013e-07 2.811543e-07
-3.179781e-09 -2.278473e-08 4.228029e-09 2.423003e-08 6.289955e-09 -2.047222e-09
9.071864e-09 -3.576744e-10 -1.884809e-09 -1.333897e-08 1.279473e-10 -8.697029e-10
1.005496e-08 -1.782930e-09 -2.359286e-09 -1.142512e-08 -1.157717e-09 1.104955e-09
1.463762e-08 -2.535345e-09 -3.154323e-09 -1.294763e-08 -6.863460e-10 3.068814e-10
-1.185270e-08 8.174903e-09 -1.264541e-08 2.997434e-08 1.479177e-08 -9.352744e-09
-5.870441e-09 -5.666578e-09 -5.905819e-09 2.658996e-08 1.021686e-08 -4.685165e-09
9.574890e-09 -2.921473e-09 -1.439079e-09 -1.049132e-08 -1.091111e-09 6.226055e-10
-7.016630e-09 4.312320e-09 5.075607e-10 -4.659883e-09 -7.580689e-10 -3.099809e-10
-9.539557e-09 3.708283e-09 1.091222e-09 -2.001257e-09 -2.015177e-09 7.013233e-10
-4.595721e-09 4.035310e-09 2.311853e-10 -4.676814e-09 -4.605164e-10 -3.533844e-10
1.100160e-08 -4.119668e-08 -3.676341e-09 -2.644267e-08 -3.103837e-08 -8.149867e-09
1.111595e-08 -3.449125e-09 -1.164286e-09 -1.094880e-08 -4.371242e-10 5.282119e-10
2.961672e-08 -8.112310e-08 -5.855330e-09 -3.324592e-08 -4.969197e-08 -9.328250e-09
9.060467e-09 -2.276398e-10 -1.269894e-09 -1.338107e-08 -1.019760e-09 -1.015210e-11
-7.213708e-09 3.485489e-09 1.539768e-09 2.412923e-09 6.271357e-10 -3.600698e-10
-7.850190e-09 1.057310e-09 2.022780e-09 -1.608840e-10 3.907655e-10 -8.602176e-10
1.695987e-08 -5.546496e-08 3.963173e-09 4.330710e-09 8.031687e-09 -1.291139e-09
-2.262246e-09 1.618856e-09 5.509002e-10 4.537973e-09 4.335878e-10 -5.381779e-10
-6.021104e-10 1.514230e-09 3.840639e-11 5.746949e-09 5.296202e-10 -3.299827e-10
2.075060e-08 -5.146334e-08 3.907855e-09 -3.147020e-10 7.568566e-09 -3.357872e-10
-4.810198e-09 3.977845e-09 1.856333e-10 -4.148421e-09 -3.617474e-10 -2.546794e-10
-6.920352e-09 2.244258e-09 1.332668e-09 1.498331e-09 3.813517e-10 -5.454330e-10
-6.842934e-09 4.598546e-09 5.491991e-10 -4.783345e-09 -6.671441e-10 -1.366551e-10
-2.051439e-09 2.781297e-09 -2.485274e-10 -5.227374e-09 -5.422325e-10 5.965006e-12
-6.497841e-09 4.073327e-09 1.635032e-10 -4.634702e-09 -1.117693e-09 8.434919e-12
-6.211478e-09 2.325078e-09 1.272654e-09 1.792102e-09 7.419649e-10 -5.202597e-10
-5.763801e-09 2.789670e-09 1.228047e-09 2.961300e-09 6.731207e-10 -3.237411e-10
1.366917e-08 -4.457476e-08 6.422411e-09 -3.584053e-09 2.943043e-09 -5.928601e-10
-4.459835e-09 2.327983e-09 6.965866e-10 3.319312e-09 7.087902e-10 -5.553692e-10
-6.075270e-09 2.769892e-09 1.143671e-09 2.593596e-09 5.720186e-10 -7.394942e-10
2.774741e-08 -3.382360e-08 -2.945277e-08 -1.267076e-08 -3.460869e-08 7.995529e-10
2.444821e-08 -6.943875e-08 -4.364855e-09 -2.188438e-08 -4.089750e-08 -5.536129e-09
3.616469e-08 -6.149410e-08 -1.039019e-08 -2.100385e-08 -5.439024e-08 -7.080982e-09
3.135747e-08 -3.082143e-08 -5.080908e-08 -1.067842e-08 -4.422864e-08 -1.087655e-09
-6.808619e-08 9.649122e-08 8.031139e-08 4.450928e-08 1.133742e-07 3.617015e-08
-6.747852e-09 2.205683e-09 1.209603e-09 1.413262e-09 7.744748e-11 -3.112777e-10
-1.573285e-08 1.605876e-08 -2.021054e-08 -2.328532e-08 -2.109571e-08 -2.045629e-08
-9.516322e-09 -2.098169e-08 -5.856807e-09 -3.857563e-08 -2.987925e-08 -1.249570e-08
4.858009e-09 3.027298e-08 -7.549674e-08 -3.142283e-08 -5.583248e-08 -3.009639e-08
-1.736609e-08 -9.220248e-10 -3.033531e-09 -3.776087e-08 -2.852452e-08 -1.905233e-08
-6.829703e-09 3.150746e-09 1.311881e-09 2.401630e-09 3.421041e-10 -4.451453e-10
1.319400e-08 -4.498629e-08 6.961895e-09 7.422833e-09 3.327374e-09 -1.880798e-10
3.315450e-08 -5.601498e-08 -2.491483e-08 4.833592e-09 3.563287e-08 8.329498e-11
1.422272e-08 -4.849112e-08 8.063470e-09 9.173476e-09 3.962918e-09 -1.662170e-09
1.479401e-08 -4.382781e-08 6.280269e-09 8.767787e-09 3.245769e-09 -5.762750e-10
-6.464776e-09 6.944138e-09 -1.315404e-09 -8.812773e-09 -2.296845e-09 1.785400e-09
5.455989e-08 -7.940799e-08 -1.758295e-08 -4.046584e-08 8.735188e-08 1.858672e-08
-8.266499e-09 5.127428e-09 -9.757888e-10 -5.798349e-09 -1.828663e-09 8.287009e-10
2.754832e-08 1.284469e-08 -7.213743e-08 -4.671611e-08 6.310810e-08 2.847240e-08
2.382425e-08 -6.780081e-08 -4.349519e-09 -4.617518e-08 5.314253e-08 1.807162e-08
9.580461e-10 6.457990e-10 -4.710043e-10 -4.117755e-09 -5.607262e-10 1.304312e-11
2.568017e-08 -4.989148e-08 -2.796533e-08 -3.291793e-08 5.287609e-08 1.359705e-08
-1.181975e-08 2.144410e-09 -1.269379e-09 1.092850e-09 -4.388188e-09 2.388937e-09
3.694304e-08 -6.952347e-08 -6.526719e-09 2.893579e-09 3.016046e-08 -1.771457e-09
3.144603e-08 -5.905971e-08 -2.352894e-08 -1.199819e-08 5.034815e-08 2.793058e-09
4.570083e-08 -6.837984e-08 -5.955548e-08 -9.327153e-09 8.929587e-08 2.554658e-09
2.385109e-08 -7.703682e-08 -3.932404e-09 -4.451596e-08 5.153822e-08 1.883529e-08
2.517240e-08 -1.036108e-07 -1.334087e-08 -6.705159e-08 7.368971e-08 2.389964e-08
-3.726797e-08 1.918499e-07 3.612683e-08 -2.439789e-08 1.234442e-07 1.385770e-08
2.469689e-08 -3.014291e-08 -4.651880e-08 -3.473798e-08 4.993410e-08 1.618183e-08
2.388337e-08 -6.189674e-08 -2.003394e-08 -4.019025e-08 4.488241e-08 1.681597e-08
-8.775174e-09 1.143343e-09 1.830061e-09 -1.934684e-09 5.253511e-10 -5.589973e-10
2.501203e-09 -2.190729e-08 5.343219e-09 -8.362088e-09 1.292057e-09 -1.178717e-09
-1.943670e-08 1.996759e-08 1.798560e-09 6.260349e-09 -2.353835e-09 -1.542786e-10
2.374944e-09 9.493893e-09 -9.577422e-11 1.555655e-08 -9.118928e-10 -5.124545e-09
6.148641e-09 1.494353e-09 9.736656e-10 1.204035e-08 -3.054160e-10 -3.556018e-09
-9.696762e-09 7.925404e-09 -6.059691e-09 3.042354e-09 -5.136744e-09 4.444650e-09
-8.725694e-09 2.133237e-09 -1.603260e-09 2.622143e-09 -3.638890e-09 1.830396e-09
1.727690e-08 -7.662750e-09 -1.367304e-09 -3.662391e-09 -1.634206e-10 -2.184168e-10
-1.142685e-08 6.313904e-09 -4.637557e-09 3.356334e-09 -5.952690e-09 4.338368e-09
1.072155e-08 6.232042e-09 -2.704777e-09 1.853447e-08 -8.310657e-11 -4.431750e-09
-1.649170e-09 -2.612145e-08 -8.324103e-11 1.954772e-08 -1.447882e-08 5.985582e-09
1.371491e-08 -2.666317e-09 1.017378e-09 1.222826e-08 -3.697940e-10 -5.426638e-09
-1.535378e-08 -1.484014e-09 -1.399165e-09 7.973865e-09 -9.232829e-09 5.639418e-09
5.897838e-09 -6.265288e-10 4.627747e-10 8.774775e-09 3.758833e-10 -1.514624e-09
-2.413914e-09 5.143248e-09 4.267267e-10 1.001203e-08 1.370399e-10 -1.682526e-09
-2.950094e-09 3.087835e-09 4.591882e-10 6.293177e-09 1.838670e-10 -1.662459e-09
-1.056555e-08 4.627715e-09 -1.026419e-10 -1.826666e-09 -2.615313e-09 9.453255e-10
-1.047864e-08 -3.624307e-09 2.048574e-09 6.505341e-09 -5.613954e-09 2.312088e-09
1.189007e-08 -3.551943e-08 3.018126e-09 -8.959998e-09 2.694001e-09 -3.010455e-10
6.752518e-09 -3.009719e-08 5.721827e-09 -8.381933e-09 2.108356e-09 -1.176130e-09
6.356387e-09 5.405724e-10 -6.595802e-10 1.062404e-08 6.007516e-12 -3.336754e-09
4.273246e-09 1.487869e-09 -1.370286e-09 9.405024e-09 1.133866e-09 -1.089625e-09
1.278795e-08 -6.586539e-10 -2.309996e-09 1.261747e-08 5.896500e-10 -3.022505e-09
7.285175e-09 -3.266510e-08 2.134589e-09 -1.788771e-08 6.543432e-09 2.303511e-09
-4.946576e-09 7.438543e-09 1.698162e-09 1.143648e-08 -7.083132e-10 -2.201536e-09
-3.879491e-09 7.579342e-09 -3.085772e-10 1.011348e-08 -4.767729e-10 -2.745814e-09
-6.142741e-09 1.467755e-08 3.543879e-10 1.184891e-08 -1.644147e-09 -2.811902e-09
4.032593e-09 -2.593559e-08 4.916638e-09 -1.133738e-08 1.904771e-09 -8.686326e-10
1.624686e-08 6.366745e-10 -2.186633e-09 1.663795e-08 -3.198914e-10 -6.730552e-09
1.024588e-08 -2.417416e-09 -1.327864e-10 1.147551e-08 -1.597170e-10 -3.300257e-09
4.283353e-09 -2.604573e-08 4.476085e-09 -9.116941e-09 1.611693e-09 -7.636886e-10
1.511495e-08 -6.614601e-09 -2.310316e-09 4.117384e-09 3.336688e-11 -5.827851e-11
1.627423e-08 -6.333962e-09 -2.342151e-09 -5.907426e-09 -3.042564e-10 5.223910e-10
1.375868e-08 -7.170454e-09 -1.393315e-09 -2.840822e-09 -9.306280e-12 4.536207e-10
1.145529e-08 -6.168390e-09 -1.555896e-09 -2.504902e-09 -1.993445e-10 6.649903e-11
1.077257e-08 -6.311500e-09 -1.535314e-09 6.215320e-10 5.477341e-11 -2.257875e-11
1.110406e-08 -5.978518e-09 -1.388236e-09 1.001073e-09 2.667419e-11 3.243963e-10
-2.331315e-08 2.527351e-08 1.702584e-07 -6.916009e-08 -5.956186e-08 6.291326e-08
1.555046e-08 -6.809883e-09 -1.741355e-09 -9.638222e-10 -6.658121e-11 2.952862e-10
1.292378e-08 -6.201844e-09 -1.620339e-09 -1.792882e-09 -1.367595e-10 5.052686e-10
3.886284e-09 -2.411759e-08 3.478638e-09 -1.245545e-08 1.749940e-09 -1.871800e-10
-1.423334e-09 -1.801252e-08 4.203834e-09 -1.142206e-08 1.258380e-09 -2.376475e-10
1.171297e-08 -6.003937e-09 -1.567661e-09 -7.279354e-10 1.150718e-12 3.251085e-10
-5.808545e-10 -1.667462e-08 3.991181e-09 -1.027803e-08 2.426082e-09 -1.121866e-09
-2.562127e-09 -1.262643e-08 4.387144e-09 -8.380215e-09 1.212487e-09 -5.823209e-10
-4.024923e-09 -8.612399e-09 3.256351e-09 -8.366028e-09 5.359161e-10 -4.154998e-10
-2.671633e-09 -1.450769e-08 4.639821e-09 -9.596892e-09 6.063272e-10 -4.234829e-10
1.267130e-08 -6.365936e-09 -1.392268e-09 -1.134672e-09 -6.079942e-12 2.896139e-10
-1.100545e-07 3.863387e-08 5.456721e-08 8.856221e-10 -6.302515e-08 8.876569e-09
6.365370e-08 9.670878e-08 -1.571786e-07 -4.689140e-08 6.732268e-08 3.638947e-08
-7.942126e-08 2.230450e-07 1.539584e-07 9.557934e-08 -1.992995e-07 -1.340911e-07
1.000059e-08 1.677683e-07 -2.278666e-07 -1.185731e-07 1.292980e-07 6.934383e-08
-3.804121e-08 1.004232e-07 -9.730996e-08 -2.589540e-09 1.184406e-08 6.946350e-08
2.235702e-09 -2.162958e-08 4.375537e-09 -9.347896e-09 1.132336e-09 -1.678448e-10
-1.163260e-09 -1.452228e-08 4.317695e-09 -7.717184e-09 7.225458e-10 -4.241966e-10
-1.966169e-08 1.255423e-08 -4.089614e-10 3.041983e-09 -6.006728e-09 7.822054e-09
1.602494e-07 -4.039714e-07 -1.069579e-07 -8.945574e-08 3.514256e-07 1.716521e-08
-9.629405e-09 9.390325e-08 -2.896906e-08 -7.952579e-08 3.612181e-08 9.385087e-08
6.930885e-08 -8.412523e-08 -2.003645e-07 -7.728930e-08 2.729374e-07 7.592959e-08
9.198907e-09 -1.809930e-08 -1.396412e-08 1.422718e-08 -1.816257e-08 7.382896e-09
1.500584e-08 -2.919363e-08 -5.381060e-08 5.348238e-08 6.060964e-08 -2.779247e-08
5.833761e-08 -1.642479e-07 -3.201704e-08 -1.153425e-07 1.223391e-07 4.006595e-08
6.559739e-09 -2.619443e-08 -2.269816e-08 2.205817e-08 -2.678198e-08 1.316256e-08
-9.622650e-09 2.766869e-08 5.036946e-09 -2.927881e-08 -4.216897e-09 -1.273213e-09
4.754591e-08 -7.369858e-08 -7.735500e-08 4.288097e-08 1.347326e-07 -4.301743e-08
8.304737e-08 -1.301911e-07 -2.039263e-08 -6.878373e-09 1.358800e-07 8.159933e-09
1.083383e-07 -1.524659e-07 -6.990226e-08 -2.905095e-08 2.594433e-07 9.916031e-10
8.167960e-08 -2.756399e-07 -2.616710e-08 4.747143e-08 1.825049e-07 -1.697939e-08
-3.327110e-09 3.419205e-08 6.557101e-09 -2.207872e-08 -2.045728e-08 4.836492e-09
-3.714427e-08 5.929922e-08 9.344826e-09 -1.596919e-08 3.996338e-09 -2.330143e-08
3.882759e-09 7.587915e-08 -8.898373e-09 -7.177837e-08 -5.253899e-08 6.623487e-09
1.937875e-08 1.735232e-07 -4.980815e-08 -7.385809e-08 -1.171373e-07 3.947841e-08
-2.252528e-07 4.242611e-07 -6.483119e-08 -4.970444e-08 -1.076435e-07 -1.359383e-07
4.733891e-08 1.224692e-08 2.967408e-08 -6.234622e-08 -4.380258e-08 4.863494e-08
-8.547807e-11 -1.626163e-08 3.585699e-09 -8.913388e-09 1.885722e-09 8.050629e-11
-8.445163e-08 9.818605e-08 -2.864085e-08 -2.199964e-08 -1.022360e-08 -4.593185e-08
-3.632283e-08 1.065373e-07 -4.331879e-08 1.473250e-08 1.003025e-08 -4.191740e-08
6.383663e-09 -2.798727e-08 4.990455e-09 -1.016309e-08 2.566408e-09 -3.155425e-10
-8.687885e-10 -1.854694e-08 3.386561e-09 -1.111962e-08 4.425172e-10 -3.334110e-10
9.328287e-08 -1.766908e-07 -1.556149e-07 1.817562e-07 3.504131e-07 -1.229243e-07
-8.804822e-09 -6.116732e-09 8.921894e-10 -1.148028e-08 1.692920e-09 4.091192e-10
6.633391e-09 -2.867105e-08 4.728767e-09 -9.349143e-09 1.202175e-09 6.320922e-11
6.692141e-09 -3.071728e-08 3.108620e-09 -1.230740e-08 3.030651e-09 2.017215e-10
-8.853727e-08 3.113323e-07 -1.196814e-07 3.869973e-08 -1.345536e-08 -1.398016e-07
8.578728e-09 1.297340e-07 -4.856431e-07 -4.928088e-08 3.860349e-07 -1.210834e-07
5.014060e-09 -2.757440e-08 4.308453e-09 -9.829476e-09 1.000809e-09 -7.633095e-10
-6.579829e-08 2.940003e-07 -2.645428e-07 -4.651029e-08 4.512523e-08 1.049186e-07
-2.181253e-08 9.560390e-08 -6.131579e-08 1.699393e-09 2.360638e-08 -3.928361e-08
-2.345698e-08 5.248112e-08 -8.467557e-09 -2.513258e-08 -6.348239e-09 -1.007969e-08
-1.650930e-08 8.357126e-08 1.710077e-08 -8.182762e-08 -1.244413e-07 5.098621e-08
1.785166e-08 -3.422848e-08 -4.352095e-08 1.835667e-08 -5.040265e-08 2.105378e-08
-8.642418e-08 1.654737e-07 2.721339e-08 -1.097214e-07 -1.157891e-07 -1.908925e-08
2.034988e-08 -7.421173e-08 -1.403903e-09 2.366089e-08 -3.339726e-08 5.923057e-09
-6.948573e-09 -4.830081e-08 -9.855548e-09 5.020950e-08 -4.137458e-08 2.504465e-08
-3.160767e-10 -3.724498e-08 -4.050836e-09 3.118266e-08 -2.406097e-08 1.255537e-08
7.629830e-09 -4.710346e-08 -6.268795e-10 2.468863e-08 -2.197195e-08 7.056549e-09
-6.205305e-09 1.714204e-07 -2.638213e-08 -1.035579e-07 -1.341413e-07 5.108472e-08
-6.264105e-08 7.877552e-08 2.257246e-08 -6.944850e-08 -8.796897e-08 -1.387666e-08
-6.111412e-08 1.091738e-07 -7.365996e-08 -1.954499e-08 -3.552347e-08 -5.228058e-08
7.886805e-09 7.483156e-08 1.371358e-07 7.919872e-08 -9.833620e-08 -1.244666e-07
-3.596317e-08 7.534799e-08 -1.009317e-08 -9.947504e-09 4.079277e-10 3.545419e-08
-6.670910e-10 -2.574965e-08 1.681420e-09 1.894080e-08 -1.568104e-08 8.083790e-09
-5.164271e-08 6.178918e-08 -3.466013e-08 -2.488192e-08 1.901076e-08 5.508623e-08
-5.551053e-08 1.166988e-07 4.261994e-08 6.460019e-08 -1.033854e-07 -1.895761e-08
-8.754429e-08 6.717891e-08 1.589023e-09 1.953189e-08 -4.072670e-08 4.518975e-08
-1.027163e-08 1.523771e-08 6.510184e-09 1.472136e-08 -3.032562e-09 -4.589959e-09
3.469440e-08 -2.485194e-08 6.006151e-08 -4.387136e-08 -3.408207e-08 4.798488e-08
-1.597193e-07 9.559316e-08 2.487700e-07 -5.483059e-08 -1.531765e-07 -1.648146e-08
1.350324e-08 -6.480527e-09 -1.527275e-09 -3.171462e-10 -4.150794e-11 3.334633e-10
1.219957e-08 -6.901025e-09 -1.563581e-09 9.331964e-10 8.262034e-11 -7.163601e-12
1.241047e-09 1.702411e-08 -2.870615e-09 1.731120e-08 -1.531546e-10 -8.402280e-09
9.590540e-09 -4.782901e-09 -1.182631e-09 2.295861e-09 2.446622e-10 2.884224e-10
-2.278191e-08 2.559324e-08 1.587003e-08 2.084203e-08 -7.729908e-09 -5.515802e-09
-1.205859e-08 2.695802e-09 -2.847790e-08 -3.833370e-08 2.990691e-08 2.749550e-08
-2.581782e-08 4.294933e-08 8.914919e-09 1.604808e-08 -9.494766e-09 -7.324470e-10
-2.169194e-08 3.089081e-08 5.428988e-09 1.330818e-08 -5.676076e-09 -2.024657e-09
-2.212960e-08 2.420970e-08 1.323501e-08 2.091648e-08 -1.052402e-08 -5.120952e-09
-2.194874e-08 2.537435e-08 1.051479e-08 2.029820e-08 -8.310506e-09 -7.322599e-09
4.922487e-09 -2.409140e-09 -7.857850e-10 4.074717e-09 3.133963e-10 3.181797e-10
-1.839644e-08 2.707081e-08 -2.287847e-09 2.016598e-09 9.771266e-10 1.145062e-09
9.749519e-09 -5.170303e-09 -1.193600e-09 2.353015e-09 1.564344e-10 3.405222e-10
-4.383432e-08 4.282757e-08 1.351442e-08 5.469091e-09 -7.732232e-09 8.040732e-09
-3.422627e-08 2.630539e-08 2.486090e-09 2.475992e-09 -2.609732e-09 5.596893e-09
-1.262025e-09 2.159468e-08 -8.076380e-10 1.879228e-08 -3.381184e-09 -8.644012e-09
1.694004e-09 3.833755e-08 -1.168659e-09 3.107048e-08 -1.306977e-08 -1.917036e-08
2.757335e-08 -5.610257e-08 -3.936692e-08 -4.693971e-08 7.996091e-08 3.001195e-08
3.152202e-08 -1.404441e-08 -6.892113e-08 -2.921721e-08 6.747703e-08 9.168547e-09
-9.898158e-09 2.759771e-09 -3.305920e-08 -3.962913e-08 2.915431e-08 2.475193e-08
6.302715e-08 -8.471999e-08 -7.455568e-08 -7.882562e-08 1.271769e-07 4.748555e-08
3.102512e-08 -1.671207e-07 -2.607780e-08 -9.359386e-08 1.402419e-07 3.156730e-08
-1.764462e-08 9.346842e-09 -1.522879e-09 -4.479057e-09 -6.098550e-09 1.096679e-08
-1.012727e-08 2.611521e-09 -1.176147e-09 1.751154e-09 -4.201178e-09 1.939596e-09
-1.536394e-08 8.056707e-09 -1.436000e-09 3.336463e-09 -6.901334e-09 5.678110e-09
7.371947e-09 1.481595e-08 1.009745e-09 -2.118217e-08 -8.164593e-10 -3.388664e-09
1.201777e-08 1.111682e-09 -1.197067e-09 -1.720936e-08 2.283506e-11 -1.028887e-09
1.121799e-08 -9.634231e-10 -1.694574e-09 -1.622670e-08 -4.144400e-10 -4.490007e-10
1.136672e-08 2.997361e-09 -1.460970e-09 -1.787537e-08 -4.588551e-11 -1.297035e-09
2.395746e-09 6.670808e-09 -2.688207e-09 -1.598619e-08 -2.010340e-09 1.597943e-09
-9.154518e-09 1.030635e-08 -2.700250e-09 -1.276686e-08 -3.624153e-09 4.610139e-09
-3.135571e-09 9.522671e-09 -2.522098e-09 -1.338629e-08 -2.571557e-09 2.254446e-09
-5.192543e-09 1.036063e-08 -1.625488e-09 -1.589511e-08 -2.178321e-09 3.074227e-09
-3.187265e-08 -2.579182e-08 -1.188521e-08 5.561480e-08 -4.104486e-08 3.656825e-08
1.110185e-08 -6.508332e-08 -6.162246e-09 3.979545e-08 -4.045638e-08 1.603506e-08
-1.093668e-08 1.697041e-09 -1.699747e-08 1.210198e-08 -1.441823e-08 1.325650e-08
-1.630322e-10 6.331887e-09 -9.923486e-10 -1.601787e-08 -1.004903e-09 1.214181e-09
-4.578372e-09 -2.091997e-09 -4.251529e-09 7.561016e-09 -6.373747e-09 3.715422e-09
2.098184e-08 -8.860582e-08 -2.085065e-08 -5.718842e-08 -7.384663e-08 -2.176248e-08
4.166390e-08 -1.565987e-08 -9.668775e-08 -2.479216e-08 -9.704120e-08 -2.178012e-08
-1.119290e-08 3.803045e-08 -8.645742e-09 -2.334721e-08 3.650189e-09 9.131576e-09
8.284736e-10 6.520098e-08 -9.599145e-08 -3.033964e-09 -4.938404e-08 -1.368906e-08
-3.962960e-09 -8.031589e-09 -6.341513e-09 1.231839e-08 -1.093656e-08 5.747274e-09
2.158575e-09 -1.470931e-08 -1.946032e-08 1.513168e-08 -1.806318e-08 1.015572e-08
4.330493e-08 1.576880e-08 -1.336655e-07 -1.953856e-08 -1.458494e-07 1.093018e-08
-3.178462e-09 -1.861530e-08 -1.004387e-08 1.865674e-08 -2.131746e-08 1.250671e-08
-9.510226e-09 3.316208e-09 -9.074922e-09 9.922926e-09 -9.531040e-09 7.252896e-09
3.601702e-09 -2.696684e-08 3.470456e-09 -1.466194e-08 2.589343e-09 6.329308e-10
3.885482e-09 -2.496199e-08 2.888130e-09 -1.176256e-08 9.536683e-10 1.644646e-10
1.813432e-08 5.492860e-08 -8.497911e-08 -3.187015e-08 -5.688567e-08 -3.994699e-08
9.095839e-09 -3.426978e-08 4.989606e-09 -8.339087e-09 2.779190e-09 -8.784724e-10
1.119149e-08 -3.665459e-08 4.722859e-09 -7.355682e-09 2.137245e-09 -9.711298e-11
8.707317e-09 -3.222265e-08 4.666886e-09 -1.153587e-08 3.779609e-09 -6.718322e-10
-5.845233e-09 1.489095e-08 -2.064499e-08 7.792047e-09 -1.527631e-08 1.340997e-08
-6.067989e-09 5.877759e-09 -1.164525e-08 8.269570e-09 -9.871114e-09 7.458403e-09
-6.069795e-09 -6.291431e-09 -1.148893e-08 1.162682e-08 -1.012062e-08 7.140933e-09
4.781977e-08 -1.003527e-07 -5.553094e-08 -7.148922e-08 -1.655451e-07 -4.568568e-08
4.206538e-08 4.264834e-08 -1.071554e-07 -1.813191e-08 -8.038250e-08 3.303014e-09
-1.233491e-08 4.239584e-09 1.089502e-09 2.051664e-09 -5.222758e-09 2.488969e-09
1.060767e-08 -5.702072e-09 -1.346448e-09 1.689945e-09 1.307052e-10 1.480127e-10
1.162003e-08 -6.228114e-09 -1.456892e-09 8.257501e-11 1.111995e-10 2.242520e-10
1.126010e-08 -6.293721e-09 -1.512030e-09 1.982285e-09 1.530373e-10 3.630112e-10
-6.235519e-08 2.024522e-07 -8.076833e-09 1.183435e-09 1.133986e-07 3.613761e-09
-1.678694e-08 1.658652e-07 -1.476218e-08 -4.092869e-08 6.953633e-08 -1.121339e-07
1.320838e-08 -6.366811e-09 -1.608914e-09 1.647867e-10 1.932021e-10 2.701630e-10
3.821092e-08 5.223174e-08 -1.060857e-07 5.789173e-09 -7.772249e-08 2.375791e-08
5.125004e-08 -6.961556e-08 -1.359656e-07 2.213156e-09 -1.883584e-07 1.290083e-08
8.665627e-09 3.246450e-08 9.187144e-09 -4.650940e-08 -2.705891e-08 1.323399e-08
-8.362579e-09 -1.872532e-09 2.699690e-09 -4.937247e-09 4.567091e-10 -9.978619e-10
7.432206e-09 7.159666e-08 -7.584182e-08 -1.108511e-07 -4.932173e-08 7.518155e-08
-9.396578e-09 4.585056e-09 1.462606e-09 -1.284847e-09 9.897820e-10 -1.113395e-10
-8.445250e-09 1.482698e-09 2.176880e-09 -1.651287e-09 9.811951e-10 -5.445997e-10
2.853358e-08 2.483518e-08 4.162235e-08 -4.050953e-08 -1.728202e-08 4.474128e-08
-4.093403e-08 7.097548e-08 -2.149486e-08 -1.587922e-08 -2.699035e-09 -3.481815e-08
-1.860006e-08 9.029256e-08 -1.899012e-08 -2.006287e-08 -1.369399e-08 -1.503377e-08
-1.058655e-08 7.571440e-09 -1.242362e-09 -4.421859e-09 -1.809319e-09 1.238336e-09
-1.114417e-08 8.197799e-09 -2.890940e-09 -1.418231e-09 -2.860939e-09 2.386827e-09
-1.034311e-08 -1.382191e-09 -4.070871e-09 6.129981e-09 -6.584327e-09 4.791331e-09
-1.030063e-08 2.370960e-09 -1.952930e-09 2.375815e-09 -3.749485e-09 1.088182e-09
-1.240937e-08 -2.858615e-09 1.714606e-09 6.612626e-09 -5.720874e-09 3.121043e-09
-7.102845e-09 2.299014e-09 1.525149e-09 1.494418e-09 2.025645e-10 -6.102474e-10
-1.136323e-07 9.196867e-08 -3.428609e-08 5.080401e-08 3.464409e-08 -7.896142e-08
-7.199695e-09 3.214164e-09 1.155444e-09 1.656882e-09 2.773110e-10 -9.360154e-10
-3.436891e-08 9.411717e-09 -2.857000e-08 8.366980e-08 7.754038e-08 -7.470782e-08
-2.371248e-08 3.781450e-08 -2.374999e-08 2.107079e-08 1.608126e-08 -2.126570e-08
-3.381960e-08 5.267914e-08 -1.953739e-08 6.011119e-09 8.867494e-09 -2.887427e-08
2.672376e-08 -3.239824e-08 -2.205532e-08 1.156087e-08 -2.843460e-08 6.608985e-09
2.027866e-08 -3.176396e-08 -2.459431e-08 7.034224e-09 -2.975406e-08 1.314606e-09
2.545435e-08 -4.695958e-08 -3.716519e-08 1.571989e-08 -4.363240e-08 1.062351e-08
5.914505e-08 -9.930322e-08 -9.777338e-08 5.452422e-09 -2.063362e-07 1.399446e-08
-8.646194e-09 1.935840e-09 1.532438e-09 -9.623054e-10 1.030493e-09 -7.102672e-10
-7.868856e-09 -1.142479e-09 2.938312e-09 -1.749326e-09 -1.787925e-11 -6.115263e-10
-1.525796e-08 6.331772e-10 5.787943e-10 8.194882e-09 -9.132771e-09 6.792792e-09
-5.208825e-09 4.929859e-09 -5.581628e-10 -8.012329e-09 -1.086111e-09 2.532072e-10
-1.056555e-08 4.459364e-09 -3.951327e-10 -1.992541e-09 -2.885673e-09 5.267670e-10
2.156872e-08 5.644445e-09 3.094650e-09 -3.187723e-08 1.222350e-08 -1.028334e-08
4.791969e-08 -4.249855e-08 5.661508e-08 2.241958e-09 3.492238e-09 6.296241e-08
4.023444e-08 1.063725e-08 2.955892e-08 6.972629e-08 6.330093e-08 4.412297e-08
-7.128364e-09 2.351779e-09 1.887273e-09 1.132967e-09 9.112507e-10 -7.838424e-10
2.611694e-09 -6.035467e-08 1.905423e-07 -3.344586e-08 -5.423398e-08 1.136567e-07
-6.192263e-09 -5.986853e-09 3.579261e-09 -4.768537e-09 8.352126e-10 -3.287723e-10
-7.797228e-09 1.865166e-10 2.267422e-09 -1.719957e-09 6.683404e-10 -5.717884e-10
-7.256968e-09 -2.561235e-09 3.009646e-09 -2.780675e-09 5.284242e-10 -3.306357e-10
-6.947125e-09 3.276026e-09 1.010259e-09 2.384000e-09 7.813948e-10 -5.255403e-10
-6.667358e-09 -2.894727e-09 2.923882e-09 -2.573084e-09 7.928307e-10 -7.594213e-10
8.328070e-09 -3.187114e-08 3.468401e-09 -1.164338e-08 3.292058e-09 9.708378e-10
-8.799824e-09 1.227109e-09 2.308496e-09 -1.956276e-09 1.188464e-09 -3.502381e-10
-7.493692e-09 1.503878e-09 2.054426e-09 -5.644811e-10 7.632974e-10 -9.009908e-10
6.375133e-09 -2.552186e-08 4.322100e-10 -1.613875e-08 4.398150e-09 5.703756e-10
1.028160e-08 -5.234477e-09 -1.379577e-09 -3.045946e-09 -1.119108e-10 4.080561e-10
1.145439e-08 -6.060477e-09 -1.471286e-09 -1.497730e-09 -3.286033e-11 3.126195e-10
-6.869397e-09 2.964114e-09 1.469671e-09 2.586875e-09 3.202664e-10 -7.147724e-10
1.094430e-08 -5.423386e-09 -1.325615e-09 -2.142474e-09 -2.162160e-10 4.722854e-10
1.350319e-08 -6.161595e-09 -1.794936e-09 -2.721724e-09 -1.972930e-10 1.914706e-10
8.050978e-08 -7.078258e-08 -8.796260e-08 -5.761392e-08 -1.889834e-07 -1.498328e-08
-8.694208e-09 -4.752265e-11 -4.428905e-08 -6.521695e-08 -6.391373e-08 -5.227440e-08
7.916046e-09 -3.953825e-09 -9.735883e-10 3.244086e-09 2.390713e-10 2.865226e-10
-1.400311e-08 -6.652603e-08 -1.170774e-08 -7.690219e-08 -7.587955e-08 -3.603938e-08
3.715787e-10 1.265401e-07 -1.260341e-07 -5.072498e-09 -3.750243e-09 -9.411419e-09
4.702466e-09 -2.104361e-09 -6.571523e-10 4.352639e-09 1.028720e-10 -5.338396e-12
1.252509e-08 -4.108083e-08 4.860548e-09 -5.656233e-09 3.011887e-09 -5.604517e-10
9.403848e-09 -3.165807e-08 2.450388e-09 -1.114876e-08 2.961909e-09 5.371900e-10
1.466572e-08 -4.096524e-08 5.475677e-09 -7.110536e-09 3.563415e-09 -5.821409e-10
3.436915e-08 -4.975217e-08 -5.824491e-08 -6.602588e-08 -1.443823e-07 -3.065803e-08
-1.819779e-08 9.560046e-08 -1.347544e-07 9.922926e-09 8.055848e-08 -7.048264e-08
-1.115055e-08 1.856639e-09 -2.729185e-09 1.684306e-09 -3.106873e-09 1.998307e-09
-1.031678e-08 4.628236e-09 -1.694704e-10 -9.486387e-10 -2.069581e-09 9.353047e-10
-2.486766e-08 2.412815e-07 1.057109e-09 -1.325810e-07 -2.054611e-07 6.424508e-08
-1.052013e-08 3.999262e-09 3.974703e-10 -6.342185e-10 -3.555173e-09 1.278171e-09
-1.056555e-08 4.021938e-09 1.190172e-09 -2.079052e-09 -2.204393e-09 8.742959e-10
-1.347402e-07 1.925917e-07 -1.851753e-07 -6.528641e-08 5.339372e-09 -5.458412e-08
2.672375e-08 -8.867722e-08 -2.701610e-09 1.601623e-08 -4.070330e-08 6.057710e-09
1.104368e-08 -5.870066e-08 -4.368330e-09 3.445703e-08 -3.585822e-08 1.481011e-08
5.377333e-09 -3.043737e-08 -3.996785e-08 3.157547e-08 -4.355576e-08 2.220925e-08
-1.998581e-09 2.259664e-07 -1.696781e-07 -3.438531e-08 -5.045676e-08 6.431579e-09
4.095206e-09 -2.030592e-08 2.117214e-09 -3.416383e-08 1.742474e-08 7.336116e-09
-1.301082e-08 1.114553e-09 -3.721347e-10 -1.937252e-08 8.972200e-09 3.053638e-09
1.313982e-09 -2.213314e-08 4.879484e-09 -2.229626e-08 5.608183e-09 2.156062e-09
-1.333790e-08 -5.273632e-09 3.230566e-09 -1.810698e-08 4.348838e-09 2.562127e-09
1.572184e-08 -4.634082e-08 5.023161e-09 -3.059692e-08 1.918136e-08 7.341096e-09
-3.727681e-09 -3.096048e-08 -6.724870e-09 -3.858696e-08 -2.913294e-08 -1.290383e-08
-1.502502e-08 -4.734894e-09 -4.157259e-09 -2.612059e-08 1.048229e-08 6.627554e-09
-7.553195e-09 4.522589e-09 7.338883e-10 -4.648885e-09 -9.756083e-10 -5.561519e-10
-5.310639e-09 -4.924297e-09 -2.532161e-10 -1.538490e-08 2.751078e-09 8.466919e-10
-6.139973e-09 4.021201e-09 4.468828e-10 -4.608094e-09 -1.385461e-09 -2.619900e-10
-1.714204e-09 3.253469e-09 -7.360097e-10 -7.812726e-09 -1.018202e-09 4.221630e-10
-1.708795e-08 7.006185e-09 -1.250104e-08 3.327499e-08 1.903171e-08 -1.647165e-08
-9.528015e-09 4.054015e-09 -1.511269e-08 3.081853e-08 1.149489e-08 -9.329644e-09
2.538118e-08 2.480109e-08 1.345631e-09 -3.370474e-08 9.947528e-09 -2.208821e-08
-8.484280e-09 -5.207903e-09 -9.650266e-09 -2.432900e-08 1.138324e-08 6.662783e-09
-1.220301e-08 -3.225043e-08 2.185215e-10 3.996265e-08 1.995032e-08 -8.607881e-09
-1.337229e-08 -5.068137e-09 -1.705756e-09 -1.813661e-08 6.373834e-09 3.251079e-09
5.376724e-10 -8.518772e-09 -2.002229e-08 3.072289e-08 1.806309e-08 -9.205471e-09
4.455299e-09 -3.263908e-08 4.625371e-09 -2.022356e-08 7.431882e-09 1.325376e-09
1.517702e-08 -4.195180e-08 4.765671e-09 -2.434174e-09 2.370332e-09 -2.262610e-10
1.701121e-08 -4.572684e-08 6.362355e-09 2.989553e-09 4.121858e-09 -5.953685e-10
1.755522e-08 -4.566701e-08 1.703575e-09 -2.299537e-09 5.081370e-09 2.052708e-10
-1.349530e-08 4.152714e-09 1.474051e-09 -1.655241e-08 5.182609e-09 2.525416e-09
-7.587702e-09 -2.437438e-09 3.103843e-09 -8.810750e-09 1.282661e-09 -7.873083e-10
-1.615795e-08 1.950615e-08 -1.873162e-08 8.820120e-09 -1.729880e-08 1.616529e-08
-7.393557e-09 2.464965e-08 -4.092682e-09 -2.362459e-08 3.501554e-09 7.761144e-09
-1.992936e-08 1.582131e-08 -3.318020e-09 -2.189230e-09 -7.582877e-09 1.258644e-08
-1.009833e-08 5.251334e-09 1.926967e-10 -3.416216e-09 -1.551623e-09 -2.183520e-11
-7.866466e-09 4.039877e-09 -9.821743e-11 -4.343875e-09 -1.748695e-09 2.013819e-10
-1.832711e-08 1.593093e-08 -8.083514e-09 -2.670635e-09 -1.199902e-08 1.389860e-08
-2.186911e-08 1.297569e-08 -1.068349e-08 1.499402e-08 -1.715819e-08 1.905844e-08
-1.773719e-08 1.783761e-08 -3.874620e-08 1.376678e-08 -3.066040e-08 3.172444e-08
-8.661740e-09 2.892687e-09 4.337974e-10 -2.646228e-09 -2.878056e-09 6.060221e-10
8.606522e-09 -4.001648e-09 -1.257242e-09 -3.909606e-09 -2.481984e-10 2.728854e-10
5.830244e-09 -2.219297e-09 -1.118652e-09 -4.668506e-09 -3.463135e-10 3.954135e-10
5.649725e-09 -2.456946e-09 -1.036409e-09 -4.773522e-09 -4.522767e-10 -1.625439e-10
-5.556627e-09 2.572088e-09 8.384817e-10 2.497135e-09 3.652333e-10 -5.315168e-10
-4.201063e-09 2.274620e-09 5.782899e-10 2.972826e-09 4.271756e-10 -3.684567e-10
7.840399e-09 -3.178680e-09 -1.159664e-09 -5.648323e-09 -5.227373e-10 4.719394e-10
-7.536535e-09 -2.982552e-10 2.818862e-09 -7.710827e-10 3.554048e-10 -6.564239e-10
-1.972658e-09 1.727226e-09 1.432756e-10 4.062773e-09 1.623190e-10 1.095450e-10
-7.846073e-09 7.356471e-10 2.397007e-09 -1.434549e-09 1.661451e-10 -5.778341e-10
-7.115083e-09 -1.269560e-09 2.673052e-09 -1.562586e-09 5.104124e-10 -6.739657e-10
-2.162113e-09 1.726515e-09 4.629099e-10 3.983754e-09 2.508025e-10 7.603462e-11
-1.922519e-09 1.284678e-09 -3.251288e-11 4.621482e-09 3.619568e-10 -3.200864e-10
-2.371490e-08 1.768742e-08 2.092641e-10 -2.048257e-09 5.059024e-11 2.916569e-09
3.296828e-08 -3.329800e-08 -5.367219e-08 1.657446e-10 -4.627310e-08 5.550232e-09
5.807053e-08 -8.537195e-08 -5.934150e-08 1.417939e-09 -1.064825e-07 1.115890e-08
3.083853e-08 -6.185743e-08 -9.760383e-09 7.572220e-09 -4.802030e-08 3.091101e-09
1.058294e-08 -5.553294e-09 8.338476e-08 -4.245041e-08 2.922846e-08 -7.107534e-08
1.517701e-08 -4.738915e-08 7.694386e-09 -2.062519e-09 2.529773e-09 -2.828793e-10
-2.189489e-08 1.881938e-08 -2.653108e-09 2.972482e-09 1.705462e-09 3.005433e-09
1.517701e-08 -4.518327e-08 1.766805e-09 -2.095222e-09 5.515825e-09 -5.088932e-10
1.567169e-08 -4.565129e-08 6.534605e-09 2.671086e-09 3.986579e-09 -4.583360e-10
1.700040e-08 -4.989010e-08 7.996657e-09 3.293788e-09 3.288505e-09 -3.910289e-10
-8.297540e-09 1.751350e-08 -3.595394e-09 1.126418e-08 -1.978825e-09 -1.251566e-09
-9.925982e-09 1.295847e-08 1.651852e-10 8.604793e-09 -1.030679e-09 -1.917851e-09
3.004698e-08 -4.402520e-08 -1.498765e-08 -1.228196e-09 1.886023e-08 -4.188035e-10
3.438376e-09 8.281258e-09 1.384102e-09 2.003382e-08 -3.447433e-09 -1.146741e-08
2.234831e-08 -1.025287e-08 5.484329e-09 3.875230e-09 7.980198e-10 -5.013707e-09
4.599424e-09 8.758487e-09 6.447041e-09 2.215921e-08 -4.681856e-09 -1.078325e-08
-5.024846e-10 9.242255e-09 3.783473e-09 1.679855e-08 -2.039964e-09 -5.901837e-09
1.040807e-09 -2.066172e-10 -1.028126e-10 3.711178e-09 2.682232e-10 1.164851e-10
-4.258079e-09 -1.306167e-08 3.438683e-09 -1.228940e-08 5.100005e-10 -5.466327e-10
-5.732993e-09 -1.310129e-08 4.051987e-09 -1.415793e-08 1.449124e-09 -5.083373e-10
2.562204e-08 -6.259315e-11 9.498173e-09 -2.207620e-08 1.106815e-10 -1.825562e-08
-1.350013e-09 -2.133689e-08 5.774190e-09 -1.745935e-08 2.356063e-09 4.177355e-10
2.763909e-08 -9.963171e-09 4.525594e-09 5.757466e-09 7.822355e-10 -9.457006e-09
-9.596978e-09 1.393111e-08 5.861555e-09 1.678114e-08 -5.280669e-09 -4.676993e-09
2.541862e-09 3.271002e-08 -7.407811e-08 3.800615e-08 -7.114009e-08 6.893970e-08
-1.267031e-08 1.696273e-08 1.528370e-10 1.283107e-08 -9.690376e-10 -3.434853e-09
-2.905489e-08 6.710410e-08 -3.079325e-08 -6.489805e-09 -1.511373e-09 -2.943114e-08
5.290105e-09 1.185161e-08 -7.018868e-08 5.779780e-08 9.763731e-08 -5.750983e-08
-2.961344e-08 1.067662e-07 -5.918342e-08 -2.004589e-08 -1.770340e-08 -3.083878e-08
-2.431351e-08 8.014345e-08 -1.071608e-10 -2.277741e-08 -6.893558e-09 -1.091082e-08
-2.260104e-08 2.394741e-08 1.306339e-08 2.130077e-08 -1.029140e-08 -5.405401e-09
-1.839369e-08 8.012235e-08 -7.652709e-09 -3.822659e-08 -1.779992e-08 -1.416898e-08
-8.772614e-09 1.438404e-08 -6.948394e-09 -1.142354e-08 -4.221580e-09 5.282755e-09
-1.322459e-08 4.045696e-09 -7.626115e-10 3.396771e-10 -5.917532e-09 3.876412e-09
-1.063275e-08 6.073679e-09 -1.689565e-09 -3.129544e-09 -2.627866e-09 1.956990e-09
-7.718613e-09 8.753656e-09 -2.065709e-09 -1.106752e-08 -2.688262e-09 2.530113e-09
-2.558242e-08 3.039418e-08 -5.311092e-09 -3.576566e-09 3.414565e-09 8.283210e-09
2.820273e-08 -1.109220e-09 3.376330e-09 2.090305e-08 -5.386669e-09 -2.391499e-08
-1.980227e-09 4.157236e-09 -1.101326e-09 -9.587164e-09 -3.096011e-09 1.734964e-09
-7.367570e-09 1.047765e-08 -1.208312e-09 -1.022689e-08 -2.525381e-09 2.390502e-09
2.215604e-08 9.676671e-10 -1.351129e-09 1.491416e-08 2.938731e-10 -8.963430e-09
-1.227992e-08 2.804091e-09 -4.357997e-09 -1.560711e-08 5.810044e-09 3.860155e-09
7.644487e-09 -3.991947e-08 2.115855e-09 -2.170822e-08 1.268027e-08 1.205346e-09
1.936526e-08 2.282393e-08 1.869828e-09 3.178142e-08 -8.911015e-09 -1.790238e-08
1.225991e-08 1.398226e-09 7.083822e-09 1.877807e-08 -3.788980e-09 -9.586091e-09
1.343667e-08 -2.990039e-08 -4.688047e-08 -3.479083e-08 5.043108e-08 1.704944e-08
-2.891731e-10 -1.524056e-08 1.586967e-09 -1.510718e-08 1.844404e-09 5.022714e-10
-8.826012e-10 -1.901532e-08 5.610486e-09 -1.342996e-08 5.014082e-10 -3.009481e-10
-1.236636e-08 -2.658757e-10 -1.707363e-10 -3.000721e-08 7.970872e-09 7.463650e-09
1.162404e-08 -2.620252e-08 -1.889166e-08 -2.704057e-08 2.447898e-08 6.692449e-09
-8.687495e-10 -1.546013e-08 3.364556e-09 -1.119264e-08 1.050396e-09 -3.632551e-10
1.038053e-08 -3.261580e-08 -3.968998e-08 -4.090292e-08 4.622548e-08 1.969317e-08
3.062129e-07 6.738508e-08 1.036724e-06 3.035063e-07 4.358104e-07 8.221236e-07
1.440585e-08 -3.890642e-08 -2.899202e-08 -6.274489e-08 5.659375e-08 2.698961e-08
4.269355e-09 1.369435e-08 -3.528666e-09 -2.591665e-08 4.113203e-09 2.000205e-10
2.886633e-08 -3.059868e-08 -8.419722e-08 -4.737041e-08 9.215985e-08 2.578208e-08
1.000406e-08 -3.292101e-08 -2.064835e-08 -4.124195e-08 4.540395e-08 1.883401e-08
-1.574186e-08 -2.466632e-08 -5.531438e-09 3.607712e-08 -2.641027e-08 1.853259e-08
-5.005707e-08 6.939693e-08 -4.638569e-08 -7.477376e-08 4.272316e-08 6.469158e-08
-3.198438e-09 -1.504785e-08 -1.483868e-08 1.776229e-08 -1.745480e-08 1.005754e-08
3.783845e-09 -2.062679e-08 -1.367681e-08 -3.454028e-08 2.194818e-08 1.014287e-08
4.619207e-08 -9.134076e-08 -8.129040e-08 -3.758188e-08 -1.397558e-07 -1.346196e-08
9.461847e-09 -4.727809e-09 -1.481230e-09 4.255113e-09 3.114789e-10 1.062897e-09
5.976801e-09 -2.542573e-09 -8.715264e-10 5.341000e-09 8.848095e-11 4.473955e-11
1.543979e-08 -4.653385e-08 -1.512574e-08 -3.310538e-08 3.562690e-08 9.750992e-09
3.085656e-08 -7.696734e-08 -1.688104e-08 -4.928799e-08 8.602013e-08 2.457395e-08
7.975160e-09 -4.123060e-09 -1.468775e-09 3.245295e-09 2.115115e-10 -1.196665e-11
-6.079996e-09 -1.310493e-08 -2.002048e-09 -1.801189e-08 5.039257e-09 2.422038e-09
-1.671363e-08 1.306200e-08 -2.763547e-09 -1.781346e-09 2.222303e-09 1.727400e-09
-6.188719e-09 2.603858e-08 -3.406634e-08 -4.286273e-08 4.677083e-08 3.684988e-08
1.068953e-10 -2.223515e-08 -8.103391e-09 -2.906756e-08 1.978586e-08 6.242627e-09
-9.430208e-09 -5.211858e-09 3.237367e-09 -1.243944e-08 1.598171e-09 -5.435789e-10
1.857382e-08 -4.977855e-08 1.201942e-07 3.702563e-08 3.992007e-08 9.658394e-08
7.336499e-08 -2.487031e-08 9.558576e-08 -5.972605e-08 -4.420733e-08 1.383947e-07
1.512476e-08 -2.645934e-08 -1.735334e-08 -2.364842e-08 1.974976e-08 5.300729e-09
-1.087695e-07 3.429566e-08 1.602002e-07 1.345184e-07 1.119108e-07 1.728653e-07
-2.982962e-08 1.655239e-07 -1.980623e-07 5.003164e-08 -8.287507e-08 -8.338515e-08
-7.240028e-09 1.354338e-07 -8.226048e-08 2.302289e-08 -3.025709e-08 -9.279635e-08
-1.938691e-08 1.827517e-09 -2.909863e-09 9.817382e-09 -1.196967e-08 9.663192e-09
-3.812231e-07 6.929470e-07 4.378233e-07 3.340305e-08 -4.647669e-07 9.105632e-08
-1.103865e-08 1.483332e-08 -1.145868e-08 1.085174e-09 -7.786687e-09 8.668058e-09
-1.161071e-08 -1.950495e-08 -3.195950e-09 3.057810e-08 -3.098675e-08 2.168346e-08
-1.105221e-08 4.937020e-09 -1.163024e-08 6.017260e-09 -9.878389e-09 8.897288e-09
6.796394e-08 7.853560e-10 -1.434175e-07 1.641091e-08 1.875429e-07 -3.547246e-08
9.377561e-08 4.623169e-07 -7.543322e-07 -2.170247e-07 2.030278e-07 -2.200713e-07
1.314557e-08 -3.551197e-08 2.940834e-10 -1.326371e-08 4.194105e-09 1.181533e-09
6.063593e-09 -2.694616e-08 3.106089e-09 -1.213042e-08 3.476327e-09 3.513863e-11
-3.402243e-07 3.418414e-07 1.450990e-06 -2.677165e-08 -6.082021e-07 -8.450764e-08
-3.806458e-08 -6.241267e-09 -7.904988e-07 -2.961429e-07 5.792300e-07 3.163258e-07
1.517701e-08 -4.520399e-08 3.286002e-09 -2.112523e-09 5.353526e-09 -4.436257e-10
-1.761272e-08 -2.584082e-08 -5.018504e-09 3.447110e-08 -2.705283e-08 1.818418e-08
-5.021725e-08 4.347997e-07 -6.093445e-07 -7.140117e-08 2.540851e-07 -1.026827e-07
-6.447663e-08 7.630585e-08 2.100331e-08 -9.001471e-08 -1.046270e-07 -1.558888e-08
4.350211e-09 1.255248e-08 -3.591910e-08 1.179460e-08 -3.027897e-08 1.852067e-08
-8.019247e-09 1.367342e-07 -2.237075e-07 -3.310031e-09 7.641728e-08 -6.238435e-08
-5.580788e-09 1.301613e-08 -3.286980e-08 9.339068e-09 -2.703003e-08 2.156724e-08
7.443712e-09 2.005434e-09 1.133496e-09 1.317123e-08 -3.529885e-10 -2.795703e-09
4.696159e-09 -1.116444e-09 -1.392686e-10 6.005429e-09 2.611291e-10 -8.692355e-10
5.706925e-08 1.051967e-07 -1.760728e-07 -1.883921e-08 9.904392e-08 1.184371e-08
9.481596e-09 -3.735385e-09 -8.625118e-10 7.645269e-09 -1.202304e-10 -8.796743e-10
-9.350443e-09 1.638272e-07 -2.963428e-07 1.096387e-07 1.375998e-07 -1.994165e-07
-1.146677e-07 -9.693906e-09 2.675577e-07 -5.373743e-08 -8.830366e-08 6.487941e-08
8.045906e-08 -2.740423e-08 8.027927e-08 -4.051305e-08 -2.845635e-08 8.838586e-08
2.547605e-08 -1.087224e-07 -5.521733e-08 1.820972e-07 1.982872e-07 -1.103114e-07
-4.347236e-08 2.161928e-08 -2.473501e-07 2.920580e-07 1.821550e-07 -2.765953e-07
-8.605404e-08 6.544760e-07 1.083204e-07 -2.155133e-07 -5.718236e-07 1.244899e-07
-1.875797e-07 9.476098e-08 4.094079e-07 -3.324424e-08 -2.820296e-07 -8.471472e-08
-1.759285e-07 9.319518e-08 1.450517e-07 2.121725e-08 -1.065001e-07 -9.933259e-08
1.329147e-08 -4.943281e-09 -1.287592e-09 -8.965716e-09 -6.762767e-11 -1.097701e-09
1.578384e-08 -4.670802e-08 -1.032066e-08 -3.049610e-08 2.493722e-08 8.351975e-09
1.512637e-08 -3.883378e-09 -2.124064e-09 -1.187702e-08 -3.957975e-10 -1.133589e-09
-1.062963e-08 1.996922e-08 -1.933432e-08 -8.954897e-09 -1.033418e-08 1.246249e-08
-1.473047e-08 1.219455e-08 -3.808880e-09 -3.920555e-09 -4.845957e-09 7.014966e-09
2.087690e-08 -7.347051e-09 4.075225e-10 -1.086916e-08 8.099744e-10 -3.206058e-09
-4.598328e-08 4.650876e-08 -2.618941e-08 1.653693e-08 -2.111985e-08 4.547794e-08
-1.220135e-08 1.151871e-08 -8.851478e-09 -2.128952e-09 -7.003966e-09 7.618600e-09
-1.314427e-08 2.465256e-10 -4.200627e-09 -1.806137e-08 5.139555e-09 3.921478e-09
1.908340e-08 -6.687052e-09 -3.072929e-10 -8.709459e-09 3.995662e-10 -1.326464e-09
-5.956467e-09 -4.538511e-10 -3.991237e-09 -1.950289e-08 5.562415e-09 2.619513e-09
-7.060577e-09 -1.356328e-08 5.304378e-09 -2.010868e-08 2.880732e-09 1.788236e-09
-2.897695e-10 -1.838431e-08 1.990867e-09 -1.488824e-08 1.603682e-09 5.976972e-10
1.131706e-08 -7.125683e-11 -6.591616e-10 -1.451791e-08 -1.253248e-10 -9.363776e-10
1.209683e-08 -4.333628e-09 -2.188900e-09 -1.331822e-08 3.005476e-10 -2.538010e-10
-9.853544e-09 7.057853e-09 -1.734588e-09 -5.213685e-09 -2.485965e-09 1.051604e-09
-1.012727e-08 2.309002e-09 -1.122433e-09 1.728877e-09 -4.601996e-09 1.879108e-09
1.261964e-08 -5.619805e-09 -2.362667e-09 -7.371128e-09 -2.606794e-10 -1.788488e-11
7.363264e-09 -2.023425e-09 -1.441394e-09 -8.789735e-09 -7.413517e-10 6.740255e-10
-6.194646e-09 4.540563e-09 -1.025964e-10 -6.965599e-09 -1.008479e-09 -1.166624e-10
1.395367e-08 -3.985260e-09 -1.715503e-09 -9.019551e-09 -4.577418e-10 -3.172150e-10
9.405622e-09 -3.285604e-08 2.824866e-09 -1.201032e-08 3.817935e-09 3.700164e-10
1.605442e-08 -6.746799e-09 -1.092761e-09 -8.089641e-09 8.386652e-11 2.159908e-10
2.073162e-08 -6.706471e-08 2.979057e-09 3.315638e-10 1.542761e-08 -5.973530e-10
1.315245e-08 -3.686384e-08 -8.539565e-10 -1.454400e-08 6.129397e-09 6.748793e-10
-1.620388e-08 1.066855e-08 -3.279150e-09 -4.805392e-09 -5.098982e-09 6.641590e-09
-1.476299e-08 9.132924e-09 -8.593519e-10 2.244409e-09 -7.909884e-09 6.269196e-09
-1.336405e-08 4.206660e-09 -2.931079e-10 4.449848e-10 -5.642036e-09 4.077159e-09
5.498040e-09 -1.964209e-09 -1.026209e-09 -4.270794e-09 -4.003040e-10 6.147992e-10
8.784027e-09 -3.587499e-09 -1.666304e-09 -8.370740e-09 -3.293506e-10 2.668034e-10
1.003256e-07 3.299775e-09 -9.049876e-09 -1.797675e-08 -1.327448e-08 5.961170e-08
6.436141e-08 -4.251977e-08 8.844034e-08 -8.061647e-09 -3.780260e-10 1.303636e-07
6.116382e-09 -8.658994e-10 -1.186960e-09 -9.858100e-09 -8.409297e-10 4.418177e-10
6.783478e-09 -1.698836e-09 -1.397310e-09 -1.002685e-08 -3.324923e-10 2.799967e-10
-2.240629e-08 -6.039861e-08 3.581089e-07 -4.316693e-08 -4.844022e-08 1.841515e-07
-6.785600e-08 -8.864395e-08 3.572789e-07 4.583023e-09 1.421179e-08 1.480405e-07
5.552777e-09 1.353532e-10 -1.228431e-09 -9.930565e-09 -9.811963e-10 6.195227e-10
-5.179556e-09 8.604696e-09 -2.655718e-09 -1.211232e-08 -1.910317e-09 1.604494e-09
1.237414e-08 -5.370216e-09 -9.896470e-10 6.243159e-09 1.609550e-10 -7.779289e-10
8.972336e-09 -3.697141e-09 -8.845018e-10 4.638672e-09 4.508887e-10 -1.425395e-10
1.918199e-08 -3.926272e-08 -1.440703e-08 -1.515910e-08 1.507210e-08 1.616859e-09
2.497932e-08 -6.111426e-08 4.622683e-09 6.711629e-09 1.397092e-08 -1.327580e-09
8.581302e-09 -2.904341e-08 -7.066778e-10 -2.383368e-08 1.458116e-08 4.686882e-09
6.939834e-09 -3.051195e-08 1.128209e-09 -1.703906e-08 5.957757e-09 1.182465e-09
1.150112e-08 -5.009749e-08 9.427914e-10 -2.870714e-08 1.625760e-08 5.856216e-09
-9.748610e-09 5.023940e-09 -1.534710e-10 -4.032104e-09 -3.525401e-09 2.300345e-09
9.890410e-10 -1.433616e-08 -2.012811e-09 -1.949145e-08 5.189532e-09 1.739728e-09
-1.081950e-08 1.068237e-08 -3.052640e-09 -6.985799e-09 -2.573157e-09 3.505163e-09
8.759680e-10 -2.458862e-08 -4.923430e-09 -2.234840e-08 8.929946e-09 3.995433e-09
-5.945937e-09 -1.074420e-08 -2.062523e-09 -2.060320e-08 4.742486e-09 2.753797e-09
-1.363239e-08 8.757079e-09 6.939707e-10 -1.654461e-09 -3.511229e-09 3.209130e-09
-1.760746e-07 2.288315e-07 8.681285e-08 -8.602335e-08 2.998932e-07 -2.666917e-07
-7.019556e-08 9.056839e-08 -2.118482e-09 -8.611609e-09 -1.707664e-08 -4.157913e-08
-1.110583e-08 1.243288e-08 -4.650602e-09 -1.121924e-08 -2.544670e-09 5.187117e-09
-5.698208e-08 9.723656e-10 3.553176e-07 -6.994140e-08 -1.160670e-07 2.045278e-07
-4.176617e-08 9.697569e-08 -9.037080e-09 -1.747989e-08 -4.910447e-09 4.852866e-08
-1.183166e-08 2.624630e-09 -1.776797e-09 1.031231e-09 -3.867493e-09 2.176343e-09
-1.061221e-08 1.063862e-08 -4.301095e-09 -6.965492e-09 -2.970938e-09 2.973409e-09
-1.237468e-07 7.122763e-08 -3.848566e-08 9.107215e-08 -4.798842e-08 1.036031e-07
-3.237875e-08 8.123620e-08 -2.139402e-08 -2.872086e-08 1.422984e-08 2.372432e-08
-1.215473e-08 1.942698e-08 -7.780115e-09 -8.045030e-09 -3.510788e-09 6.442500e-09
-1.179376e-08 1.692245e-08 -4.863406e-09 -1.010746e-08 -5.501014e-09 7.352338e-09
-1.368893e-08 3.600110e-08 -2.371735e-08 -1.211261e-08 -8.029718e-09 1.918213e-08
-5.696249e-09 6.804647e-08 1.078827e-09 -4.738972e-08 3.469492e-08 -1.163641e-08
-6.623744e-09 -2.348311e-08 -5.093854e-10 -2.974115e-08 1.395804e-08 6.856623e-09
-5.640004e-09 -2.659421e-08 -9.997435e-09 -4.941051e-08 3.869942e-08 2.373077e-08
-1.351956e-09 -2.239721e-08 4.214003e-09 -1.751253e-08 3.739286e-09 5.004107e-10
1.560161e-08 -3.831642e-08 -9.915310e-09 -3.102658e-08 2.875829e-08 7.573824e-09
8.374271e-09 1.206291e-08 4.121240e-08 -2.865548e-08 2.859994e-08 -2.456810e-08
-4.510921e-08 1.883974e-08 -1.463778e-08 5.936876e-08 -3.645221e-08 5.120806e-08
-1.413473e-07 2.273195e-08 1.455987e-07 3.727148e-08 -6.995499e-08 -9.226838e-08
-2.273316e-07 -8.644239e-08 5.992479e-07 1.723369e-07 1.780220e-07 2.000531e-07
-7.030553e-09 2.541021e-08 4.538161e-09 2.104553e-08 -8.250879e-09 -8.075404e-09
3.401733e-09 -3.108419e-10 -1.343157e-09 -8.967102e-09 -7.999108e-10 -1.905668e-10
-1.983816e-09 2.875126e-09 -3.362512e-10 -7.632470e-09 -1.777581e-09 3.840654e-10
1.960300e-08 -1.127608e-08 1.678977e-08 9.989368e-09 -1.705866e-09 -1.364564e-08
3.175642e-08 -1.454782e-08 1.448013e-08 -1.090674e-09 1.223807e-09 -1.611850e-08
2.581293e-08 -8.315087e-09 2.108883e-08 9.766562e-09 2.863497e-09 -1.970267e-08
2.840705e-08 -1.217048e-08 7.458124e-09 1.630972e-09 1.883693e-10 -1.005565e-08
2.567564e-08 -1.608448e-08 1.426397e-08 -4.933827e-09 1.842930e-09 -1.491290e-08
2.086133e-08 -3.022697e-09 5.312855e-09 -2.118637e-08 2.884345e-09 -6.818267e-09
2.768045e-08 -6.814984e-09 -1.117542e-10 -1.475972e-08 3.167532e-09 -7.413690e-09
3.459980e-08 4.502495e-09 -7.887312e-08 -7.336654e-09 -7.014411e-08 7.439648e-09
-8.603828e-09 6.376519e-09 -1.893077e-10 -6.348346e-09 -2.943815e-09 7.267508e-10
-7.178375e-09 7.541110e-09 -2.057631e-09 -8.718853e-09 -1.908331e-09 1.586961e-09
3.572644e-08 -5.607176e-09 1.403252e-08 2.751126e-08 -8.246922e-09 -4.748999e-08
-1.448424e-07 -6.407328e-08 5.214025e-07 -1.193167e-08 -8.243273e-08 1.028927e-07
3.532206e-09 1.001426e-07 -6.262865e-08 -4.607871e-08 -9.292463e-08 6.599300e-08
5.230454e-08 -1.838674e-10 3.152100e-08 3.267129e-08 -1.839379e-08 -7.944314e-08
3.357836e-10 3.412436e-07 -2.837330e-07 -1.178908e-07 5.935862e-08 9.757636e-08
1.159940e-08 -5.687862e-08 -3.140568e-10 -3.144235e-08 2.646328e-08 5.792678e-09
9.512064e-09 -2.599235e-08 -6.876260e-09 -2.042471e-08 8.546825e-09 2.068241e-09
1.770190e-08 -5.879574e-08 2.872669e-09 -8.702673e-09 1.257356e-08 -2.511071e-10
2.741643e-08 -1.222755e-08 2.332948e-08 1.031368e-08 -1.885424e-10 -2.206230e-08
1.898740e-08 -9.837462e-09 2.096871e-08 1.841224e-08 -4.766829e-09 -3.805511e-08
-1.027670e-08 1.447246e-08 -5.001146e-09 -1.106542e-08 -2.161743e-09 4.030644e-09
-4.669395e-09 1.994413e-09 1.077940e-09 2.714489e-09 4.562528e-10 -2.992488e-10
4.215829e-09 2.181078e-09 -1.650796e-09 -1.743317e-08 1.801527e-10 1.394429e-10
-1.622154e-08 1.198604e-08 -5.809758e-09 -5.574135e-09 -9.897572e-09 1.029087e-08
-8.695917e-09 1.772952e-08 -6.794446e-09 -1.690031e-08 -8.441099e-10 5.133336e-09
4.266734e-10 -2.904092e-08 -3.353487e-09 -2.481024e-08 1.231374e-08 4.094623e-09
2.387729e-08 -6.237271e-08 2.095422e-09 -4.024906e-08 4.211851e-08 1.626181e-08
-3.802615e-09 2.378690e-09 5.225758e-10 4.177753e-09 3.960980e-10 -2.325246e-10
-5.940739e-09 2.542091e-09 1.077809e-09 2.245606e-09 3.075645e-10 -2.378430e-10
-5.789008e-09 2.299934e-09 1.091579e-09 2.036860e-09 3.099829e-10 -3.033995e-10
2.273850e-08 -5.876844e-08 -2.545385e-09 -7.350986e-09 1.817121e-08 1.956749e-09
-7.793815e-09 1.296324e-09 -2.593758e-08 -3.071431e-08 2.396783e-08 1.520680e-08
-5.763439e-07 7.088850e-07 1.073579e-06 2.917186e-07 -9.803716e-07 1.190650e-07
-9.669759e-08 -5.872716e-08 -4.014554e-08 -1.875514e-07 1.102239e-07 1.136575e-07
-5.640090e-09 3.163397e-09 6.864427e-10 3.315091e-09 6.482425e-10 -6.860281e-10
-7.417398e-09 1.882803e-09 1.916804e-09 1.872615e-10 7.062266e-10 -3.343566e-10
-4.642408e-09 2.525782e-09 8.040999e-10 3.420620e-09 2.420946e-10 -3.496324e-10
-3.551224e-08 -3.035015e-08 1.966259e-07 -8.469787e-09 -1.088356e-08 -1.447445e-07
-4.211803e-09 2.143438e-09 9.510277e-10 3.115797e-09 3.961424e-10 -2.560981e-10
-1.544058e-07 -6.295922e-08 5.925256e-07 1.990356e-08 1.053007e-07 7.580414e-08
-7.683930e-09 2.236742e-09 1.939093e-09 6.938068e-10 1.833366e-10 -3.728196e-10
-6.756141e-09 2.326147e-09 1.532235e-09 1.681625e-09 4.493612e-10 -2.112994e-10
2.839212e-08 -3.971954e-09 -1.697561e-09 -1.386055e-08 3.993428e-10 -5.594371e-09
1.215138e-08 -4.535151e-09 -2.366241e-09 -9.798456e-09 -2.693718e-10 -3.051774e-10
4.618042e-09 8.317607e-09 -1.287772e-09 -1.809266e-08 3.456005e-10 -1.992039e-10
-6.974778e-09 1.707754e-09 1.534943e-09 8.881560e-10 4.419087e-11 -4.157861e-10
-3.986551e-09 9.433216e-09 -2.742028e-09 -1.638310e-08 -5.604294e-10 1.821104e-09
4.323618e-08 -4.349185e-08 -8.129136e-08 4.507543e-08 9.483405e-08 -2.812967e-08
-4.035616e-08 -1.073772e-07 -2.463883e-08 1.595723e-07 9.902943e-08 -7.456606e-08
5.252181e-09 1.664131e-08 -5.828296e-08 3.743732e-08 5.170315e-08 -2.732378e-08
8.810326e-09 -2.984016e-08 -9.046747e-09 2.757559e-08 1.459097e-08 -5.278085e-09
-2.131693e-09 9.600218e-08 -1.032140e-07 -3.384719e-08 -4.819181e-08 -2.014782e-08
-4.665506e-09 2.041254e-09 8.228369e-10 2.728200e-09 2.454819e-10 -3.732070e-10
-4.682680e-09 2.235827e-09 4.766605e-10 3.529029e-09 2.311398e-10 -4.351312e-10
1.883732e-08 -8.682505e-09 -9.959149e-10 -3.542866e-09 6.441880e-11 -1.064610e-10
-9.740940e-09 1.398726e-08 -4.960161e-08 4.782787e-08 4.026151e-08 -3.018644e-08
-4.501024e-09 -1.324109e-07 5.068979e-09 1.161923e-07 7.167955e-08 -3.833459e-08
1.969359e-08 -7.327076e-09 -3.189869e-09 -5.328954e-09 -2.547059e-10 2.172647e-10
2.595787e-08 -9.646766e-09 -4.964227e-10 -4.901915e-09 1.200979e-09 -5.010704e-09
9.516578e-09 4.901491e-09 2.294964e-09 -2.342280e-08 4.280582e-09 -2.428563e-09
-8.337961e-09 1.060690e-08 -3.041408e-09 -8.887760e-09 -4.389955e-09 4.002521e-09
-4.220670e-09 1.186756e-08 -4.512444e-09 -1.446527e-08 -2.622145e-09 2.793596e-09
2.712776e-08 -7.259435e-09 -2.754176e-09 -1.274184e-08 2.064574e-09 -3.308986e-09
-4.318711e-09 3.927520e-09 -2.031525e-10 -7.160942e-09 -2.475863e-09 7.954295e-10
2.709681e-08 -9.379308e-09 -3.090861e-12 -1.238000e-08 3.247513e-09 -7.062935e-09
2.448552e-08 -6.453961e-09 -3.944963e-09 -9.406305e-09 3.538466e-11 -7.757806e-10
-9.997637e-08 7.417040e-08 1.444381e-07 1.256746e-08 9.288892e-08 -3.545280e-09
-4.429868e-07 1.989111e-07 1.491111e-06 1.564608e-07 -6.195058e-08 9.547404e-07
1.301061e-07 2.742145e-08 1.439299e-08 8.269835e-08 4.874530e-08 1.034770e-07
1.267891e-08 -5.588385e-09 -1.827290e-09 -7.324609e-09 -5.473085e-10 -3.009535e-10
1.223572e-08 -4.006072e-08 5.822471e-09 -6.129728e-09 3.000681e-09 -1.084872e-09
1.509392e-08 -2.982657e-08 -1.634741e-08 -2.210499e-08 1.624977e-08 5.132386e-09
1.917651e-08 -4.301860e-08 -8.968333e-09 -1.464372e-08 1.530093e-08 2.181895e-09
2.054431e-08 -4.771665e-09 3.366276e-10 -1.422263e-08 8.362916e-10 -3.818614e-09
1.715084e-08 -6.912023e-09 -7.515055e-11 -1.081078e-08 1.178164e-09 -1.434501e-09
1.726478e-08 -5.002436e-08 2.103651e-09 -1.663185e-08 1.231078e-08 2.417120e-09
1.141614e-08 -4.216433e-08 2.963613e-09 -1.074077e-08 4.486409e-09 2.169758e-10
5.100794e-09 4.701768e-10 -7.562749e-10 8.694228e-09 6.374890e-10 -9.304033e-10
2.409660e-08 -8.696507e-09 1.690794e-09 -7.265461e-09 5.771809e-10 -3.528693e-09
3.616187e-09 -3.178158e-10 -1.350458e-10 8.247705e-09 3.084733e-10 -7.310632e-10
-4.517005e-09 1.155474e-08 -6.782547e-10 6.974790e-09 1.526468e-09 -1.398269e-09
-3.834186e-09 1.015832e-08 1.138747e-10 9.488557e-09 -6.389789e-10 -2.149195e-09
-1.481552e-09 3.620975e-09 1.112836e-10 7.368906e-09 9.337251e-10 -1.821514e-09
1.275847e-08 -7.088201e-09 -1.911652e-09 8.846754e-10 1.005554e-10 1.675424e-10
1.019883e-08 -5.774533e-09 -1.432294e-09 1.848967e-09 2.658284e-10 3.419461e-10
1.616310e-08 -4.586030e-09 -1.798266e-09 -1.079770e-08 8.256375e-11 -1.817374e-09
1.025919e-08 -1.286029e-09 3.369583e-09 1.472856e-08 -1.304622e-09 -4.932748e-09
2.260254e-08 -1.076841e-08 -1.989739e-09 -5.031569e-09 1.580436e-09 -2.234256e-09
1.447615e-08 -5.901538e-09 1.612755e-09 9.823813e-09 -6.802522e-10 -3.036824e-09
1.738713e-08 -8.206545e-09 6.996036e-09 1.045526e-08 -1.063178e-09 -7.219952e-09
1.188407e-08 -1.409473e-09 1.236331e-08 1.760846e-08 -3.133647e-09 -1.073113e-08
-4.212189e-08 6.526824e-08 -3.907788e-08 4.541967e-08 -2.672618e-08 1.212384e-08
-2.892676e-08 2.930153e-07 -1.462713e-07 2.896760e-08 -9.976934e-10 -9.834171e-08
1.032912e-09 -9.060610e-09 7.688877e-08 2.455306e-08 -3.081470e-08 -7.615849e-08
-1.354172e-07 2.179807e-07 -8.755117e-08 -6.049978e-08 -1.568928e-07 -1.236812e-07
-1.776839e-08 8.731809e-08 -7.868007e-08 -1.166287e-09 2.883625e-08 3.698801e-08
-4.027338e-08 9.960954e-08 -6.045783e-08 7.891925e-10 2.674920e-08 6.803579e-08
2.079232e-08 -9.137245e-09 2.309370e-10 -5.355021e-09 2.420935e-10 -2.862187e-09
3.087538e-08 -8.206180e-09 -3.846531e-09 -2.785925e-09 5.690427e-10 -3.079354e-09
3.956065e-08 -7.904262e-09 -2.246953e-09 -7.717744e-09 7.340525e-10 -8.449210e-09
2.699497e-08 -9.779756e-09 -7.271472e-10 1.837038e-09 -3.941429e-10 -4.643760e-09
7.110958e-09 -1.677416e-09 -1.692134e-09 -1.035828e-08 -4.700155e-10 3.003509e-11
3.847985e-09 5.928262e-09 -3.080065e-09 -1.509725e-08 -2.093127e-09 1.422209e-09
6.598819e-09 5.190405e-09 -1.915263e-10 -2.064462e-08 2.983766e-09 -1.174322e-09
1.814809e-09 6.166376e-09 -2.141779e-09 -2.108332e-08 4.473202e-10 4.165155e-10
4.665735e-09 1.916020e-08 -9.718491e-09 -2.754911e-08 -2.224376e-09 6.449023e-09
-3.920562e-09 1.557803e-08 -3.692393e-09 -2.193696e-08 1.407524e-09 4.782420e-09
-1.551013e-07 -3.234892e-08 6.314258e-07 -5.711782e-08 9.138905e-08 -1.125383e-07
1.024118e-08 -3.527403e-09 -1.699557e-09 -8.927700e-09 -5.899776e-10 1.616127e-10
-1.356558e-07 -6.287767e-08 5.872396e-07 2.403561e-08 1.048600e-07 9.170438e-08
-4.302963e-09 1.398725e-07 3.700002e-07 -1.129339e-07 -2.437864e-07 2.495687e-07
-4.507887e-10 2.014105e-09 -1.177136e-09 -1.068269e-08 -9.019052e-10 5.145551e-11
4.955134e-09 -2.034917e-10 -1.230190e-09 -9.476108e-09 -6.744598e-10 6.280674e-10
2.130999e-08 -3.269830e-08 -2.215506e-08 -2.713763e-08 2.522375e-08 8.456569e-09
5.636236e-09 -9.021121e-10 -1.109489e-09 -7.775125e-09 -7.227820e-10 6.196652e-10
2.728088e-09 -1.224464e-08 -7.857263e-09 -2.407538e-08 1.037397e-08 3.308755e-09
6.115085e-09 -4.417785e-09 -2.603486e-08 -2.938900e-08 2.621586e-08 1.134022e-08
1.283220e-09 1.470888e-09 -9.909111e-10 -8.228580e-09 -1.144901e-09 6.273394e-10
6.073786e-08 -2.139565e-07 -3.296958e-08 -2.423176e-09 -1.565001e-07 3.834661e-09
2.140181e-08 -2.242996e-08 -8.356759e-08 6.423219e-08 -1.086058e-07 5.013131e-08
-3.075737e-08 1.994615e-08 -4.428485e-09 -2.538456e-09 -3.381589e-09 1.998770e-08
5.146996e-09 6.063140e-09 -2.176296e-09 -2.020256e-08 3.494164e-10 2.047188e-09
4.467101e-09 6.487803e-09 -2.261606e-09 -1.958475e-08 1.618720e-10 1.259134e-09
-2.363230e-08 3.409072e-08 -1.810675e-08 2.859717e-09 -1.841151e-08 2.478718e-08
-4.047740e-09 9.712989e-09 -2.678490e-09 -1.335439e-08 -2.097662e-09 1.773856e-09
-5.411044e-10 6.039721e-09 -4.881667e-09 -1.253892e-08 -3.338681e-09 4.331166e-09
-2.377974e-09 7.695139e-09 -2.774322e-09 -1.150466e-08 -2.567959e-09 3.035384e-09
-6.266560e-09 5.742789e-09 -4.524470e-11 -7.500251e-09 -1.068410e-09 -1.442622e-10
4.566644e-08 -9.959493e-08 -1.702946e-08 1.695589e-08 -9.282138e-08 1.293153e-08
6.093451e-09 -1.828252e-08 -1.656579e-08 -2.829570e-08 1.830970e-08 9.867109e-09
1.512420e-08 -1.879030e-07 -1.034267e-07 1.508621e-07 -2.201089e-07 1.200926e-07
-2.339335e-09 6.777852e-09 -7.976842e-08 4.870117e-08 -1.266232e-07 8.457082e-08
2.652116e-08 -3.824231e-08 -1.595164e-08 -1.214873e-08 1.995289e-08 3.539192e-09
1.171616e-08 -3.816106e-08 -1.504960e-08 -3.196072e-08 2.943717e-08 1.226545e-08
1.731585e-08 -6.215687e-08 -1.891993e-10 -1.821748e-08 2.004819e-08 1.616229e-09
1.152490e-08 -3.813667e-08 1.499838e-09 -1.527687e-08 7.990002e-09 4.004033e-10
1.802269e-08 -7.105871e-08 -4.988285e-09 -4.018786e-08 3.556456e-08 1.144768e-08
-2.820706e-10 7.455945e-08 -1.241202e-07 -1.774552e-08 -6.067122e-08 2.964114e-08
-1.801866e-07 -8.677306e-08 5.538808e-07 -9.577260e-09 2.887136e-08 2.014821e-08
-1.536308e-09 4.151968e-09 -7.450171e-08 1.889774e-08 -9.909001e-08 6.281201e-08
-1.210015e-07 2.367405e-07 4.388940e-08 1.979320e-08 -2.085027e-07 -4.704595e-08
5.908444e-09 5.964258e-08 -7.167283e-08 -7.664717e-09 -3.866116e-08 4.021214e-08
-7.172828e-08 8.046346e-08 3.692585e-08 3.668730e-08 3.779441e-08 -8.121236e-09
5.932275e-09 5.805608e-08 -6.999285e-08 -4.859060e-09 -3.846679e-08 3.695391e-08
-7.341564e-09 3.332265e-09 -3.978463e-08 2.455072e-08 -5.550509e-08 4.836228e-08
4.786828e-09 -8.992272e-10 -1.018018e-09 -7.664568e-09 -7.943131e-10 5.043597e-10
-1.927875e-09 2.439473e-09 -4.412133e-10 -7.507326e-09 -9.546531e-10 -1.179776e-10
6.642770e-09 -1.733222e-09 -1.485855e-09 -9.983561e-09 -7.117536e-10 -1.224287e-10
6.929632e-09 -1.440367e-09 -1.481328e-09 -9.874619e-09 -1.089886e-09 5.923598e-10
3.718514e-08 -8.971340e-08 -3.676138e-08 3.814793e-08 -1.358216e-07 3.421251e-08
1.718741e-08 -4.252898e-08 -6.562991e-09 1.734344e-08 1.123055e-08 -3.389730e-09
1.531639e-08 -5.497697e-08 2.039473e-09 3.624586e-08 2.412839e-08 -5.193323e-09
-5.340630e-09 -2.156835e-08 -8.096889e-09 3.167679e-08 1.313477e-08 -5.699986e-09
2.103917e-08 1.042371e-08 -7.631934e-08 1.059651e-08 -6.531623e-08 2.486152e-08
4.955675e-08 -7.637886e-08 -6.899955e-08 -2.465020e-08 -1.510829e-07 -1.554886e-08
3.655349e-08 -9.058837e-08 -6.206345e-08 4.014849e-08 -1.057902e-07 2.850815e-08
4.611906e-08 -1.782828e-07 -1.461421e-08 -4.055122e-08 -1.057762e-07 -1.123106e-08
3.300788e-08 -4.842903e-08 -3.580493e-08 1.085243e-08 -4.337589e-08 1.068430e-08
4.563424e-08 -9.942832e-08 -3.610451e-08 1.688768e-08 -8.253058e-08 1.499245e-08
2.503209e-08 -4.373312e-08 -6.138640e-09 -4.476639e-09 1.118402e-08 1.111853e-09
1.937309e-08 -4.542645e-08 -4.914456e-09 -7.572834e-09 9.228397e-09 5.601756e-10
4.239513e-08 -8.590996e-08 -8.218440e-09 2.920741e-08 -8.059343e-08 1.839074e-08
2.328079e-08 -4.565030e-08 -4.696589e-09 -1.630346e-08 1.768736e-08 3.863269e-09
1.937181e-08 -4.116610e-08 1.164947e-09 -7.129141e-09 4.359361e-09 8.776833e-10
2.643261e-08 -6.091827e-08 -7.105774e-09 9.740758e-09 2.306132e-08 -2.241774e-09
2.022968e-08 -8.208931e-09 6.841435e-09 1.142488e-08 -1.021563e-09 -9.074748e-09
1.008197e-08 -2.466636e-09 1.743258e-09 1.137790e-08 1.746604e-10 -2.987953e-09
8.489582e-08 -7.804841e-08 -1.108761e-07 2.398087e-08 -1.902366e-07 3.915122e-08
6.041370e-09 1.416369e-08 -7.194835e-08 7.907148e-09 -6.137106e-08 3.743435e-08
-1.094966e-08 1.220497e-08 -3.739380e-08 5.616989e-08 -8.031243e-08 6.968825e-08
3.401695e-08 -5.641466e-08 -1.229203e-07 5.603459e-08 -1.993407e-07 6.518035e-08
1.638888e-08 -9.281853e-08 -4.491419e-08 1.272157e-07 -1.357833e-07 9.433659e-08
-3.257679e-08 4.212562e-08 -1.100858e-08 -1.342179e-08 -1.385290e-09 -2.388907e-08
1.348355e-08 -5.336242e-09 -1.507973e-09 -7.988621e-09 -8.042681e-10 3.353806e-10
1.258717e-08 -4.065883e-09 -1.699421e-09 -7.510435e-09 -6.022136e-10 -4.944028e-11
-1.049590e-08 3.167732e-08 1.943753e-08 4.658386e-08 1.316064e-08 1.411700e-08
2.437857e-09 1.099292e-09 -8.695973e-10 -8.192991e-09 -9.665474e-10 3.339603e-10
1.690800e-08 -5.420674e-09 -2.017822e-09 -8.227891e-09 -7.374628e-10 2.149985e-10
9.165286e-08 -5.932218e-08 2.355822e-07 4.142134e-09 -5.207522e-09 2.233797e-07
1.388375e-08 -5.934928e-09 -1.856039e-09 -5.101453e-09 -4.571903e-10 4.896996e-10
1.468005e-08 -6.453759e-09 -1.947716e-09 -5.371142e-09 -2.143688e-10 -4.903662e-10
2.394614e-08 -5.942468e-08 3.312550e-09 -7.416460e-09 1.379802e-08 1.311013e-09
1.563740e-08 -6.083268e-09 -2.369712e-09 -6.072152e-09 -3.900602e-10 7.847211e-10
1.278524e-08 -5.818031e-09 -1.813522e-09 -6.482827e-09 -1.325858e-10 -4.219632e-10
9.621961e-09 -2.117933e-09 -1.468050e-09 -9.189416e-09 -7.955343e-10 3.129638e-10
2.569114e-08 -5.122605e-08 -4.064809e-08 -3.265311e-08 4.595228e-08 1.375600e-08
1.260474e-08 -4.100684e-09 -1.846836e-09 -7.481662e-09 -3.331182e-10 1.085354e-11
1.449901e-08 -5.746818e-09 -1.430436e-09 -6.844191e-09 -3.031579e-10 -1.068416e-10
-5.870592e-09 5.073914e-09 -5.555267e-11 -6.775511e-09 -1.967043e-09 9.170392e-10
-6.610528e-09 6.487990e-09 -1.359780e-09 -9.309635e-09 -2.379510e-09 1.120633e-09
8.403003e-09 -4.063593e-09 -1.190263e-09 -3.965434e-09 -2.289587e-10 -4.256351e-11
-8.515499e-07 9.354690e-07 1.985464e-06 -4.484098e-07 -1.389398e-06 8.682413e-08
-8.226562e-10 2.714794e-09 -6.012670e-10 -8.824663e-09 -8.697670e-10 2.333962e-10
-1.319495e-07 3.331269e-08 1.200109e-07 -2.749265e-08 8.722200e-08 -4.309859e-08
5.344234e-09 1.466524e-09 -1.472475e-09 -1.167794e-08 -1.333055e-09 8.691493e-10
8.007444e-10 2.487169e-09 -1.546419e-09 -1.227757e-08 -1.118922e-09 1.920558e-10
2.110320e-08 -4.836784e-08 -3.345317e-08 4.089411e-08 4.413819e-08 -1.386909e-08
3.142837e-08 -7.898663e-08 -1.711423e-08 -1.889162e-08 4.395840e-08 5.058506e-09
3.617717e-08 -3.983050e-08 -3.054407e-08 -1.022900e-08 3.284896e-08 2.483557e-09
-1.555959e-08 -2.713499e-10 -6.796829e-10 8.990823e-09 -8.052390e-09 5.954973e-09
4.207900e-09 5.802809e-09 -1.549881e-09 -1.706416e-08 -6.451664e-10 1.183451e-10
-3.003308e-09 4.956832e-09 -1.102983e-09 -9.263090e-09 -1.621221e-09 1.046757e-09
-2.711608e-09 5.468843e-09 -1.659128e-09 -1.096845e-08 -1.057252e-09 1.687061e-09
1.573142e-08 -6.967587e-09 -9.375056e-10 3.042963e-09 1.786757e-10 4.565697e-10
1.287544e-08 -6.968314e-09 -1.178825e-09 2.836410e-09 1.758853e-11 -2.872996e-10
1.065235e-09 2.254702e-09 -9.695307e-10 -9.849749e-09 -8.613281e-10 4.106944e-10
-1.708115e-09 3.823430e-09 -5.745890e-10 -8.910233e-09 -8.493120e-10 2.902705e-10
9.684113e-09 -5.363999e-09 -1.381622e-09 2.165789e-09 2.956853e-10 4.123816e-10
-4.761510e-09 2.396208e-09 9.061756e-10 3.289046e-09 1.925091e-10 -3.580887e-10
-6.067999e-09 4.527631e-09 -1.354898e-10 -5.360708e-09 -1.384304e-09 3.997036e-10
-3.161691e-09 -3.224428e-08 3.650625e-10 4.091179e-08 1.973419e-08 -9.966879e-09
-3.803239e-09 2.427536e-09 6.010286e-10 5.207881e-09 1.437923e-10 -1.945998e-10
-1.370845e-09 5.531842e-10 1.766458e-10 3.937819e-09 2.521803e-10 -1.150247e-10
-3.332643e-08 2.699351e-08 2.070663e-09 1.413127e-09 -2.641951e-09 5.090512e-09
-3.338891e-08 5.993188e-08 -1.324777e-08 1.466069e-08 -5.467038e-09 1.408935e-08
-1.642792e-07 1.250462e-07 -1.453651e-08 -1.531440e-07 1.168775e-08 1.401004e-07
4.064906e-09 1.455611e-09 -1.593258e-09 -1.194142e-08 -6.854224e-10 6.013556e-10
4.036868e-09 -4.489524e-10 -1.187116e-09 -1.242672e-08 -7.027696e-10 3.998347e-10
6.504552e-09 -4.705650e-10 -1.288304e-09 -1.232726e-08 -6.766658e-10 -5.291948e-10
3.094000e-09 4.743794e-08 1.774714e-08 -4.389062e-08 3.338094e-08 -1.376295e-08
-7.302084e-08 1.576248e-07 1.301014e-07 -1.269464e-07 1.059320e-07 -1.091799e-07
1.181422e-08 -6.046784e-09 -1.379915e-09 -1.453385e-10 2.209861e-11 6.842521e-11
1.551027e-08 -3.860958e-09 -2.374796e-09 -1.186572e-08 -1.628552e-10 -8.579184e-10
4.573926e-08 -5.887258e-08 -3.814790e-08 -7.247916e-09 5.419534e-08 3.386316e-09
-7.269905e-10 3.703541e-09 -1.721193e-09 -1.187295e-08 -2.141473e-09 1.163203e-09
2.442451e-08 -6.715804e-08 -1.981472e-10 -2.005569e-08 2.269886e-08 4.376437e-09
3.154319e-08 -5.103284e-08 -2.393156e-08 9.209906e-10 2.929687e-08 -6.973349e-10
2.502898e-08 -4.643315e-08 -1.549394e-08 -4.795582e-09 2.043037e-08 1.535570e-09
5.840826e-09 9.621175e-10 -1.545810e-09 -1.529271e-08 -1.568067e-10 4.048804e-10
4.266242e-09 3.209444e-09 -1.885382e-09 -1.384697e-08 -1.200393e-09 1.521487e-09
1.138369e-09 1.672361e-09 -9.056986e-10 -9.216963e-09 -4.385365e-10 -4.407825e-10
5.507829e-09 -1.962596e-09 -9.719159e-10 -7.444509e-09 -6.507467e-10 1.486838e-10
1.387925e-09 1.585277e-09 -1.038920e-09 -8.795610e-09 -1.114765e-09 1.190993e-10
1.178121e-08 -6.539289e-09 -1.599310e-09 1.584585e-09 2.652611e-10 3.152993e-10
1.661379e-09 2.397307e-09 -1.167157e-09 -1.250451e-08 -9.537397e-10 -1.349481e-10
1.017814e-08 -3.558186e-09 -1.619137e-09 -1.061294e-08 -2.058679e-10 -2.424956e-10
1.533424e-08 -5.748348e-09 -1.150503e-09 -6.852480e-09 -3.021314e-10 -5.982559e-10
4.214997e-09 -3.635178e-10 -1.474743e-09 -1.229706e-08 -1.126632e-09 -3.236542e-11
-8.117167e-10 1.974480e-09 -1.301083e-09 -1.055529e-08 -1.133220e-09 5.507816e-10
3.546871e-09 1.146356e-09 -1.658624e-09 -1.024578e-08 -9.452265e-10 9.820815e-10
1.128342e-08 -5.654303e-09 -1.335918e-09 1.227379e-09 6.233789e-11 1.438996e-11
9.596712e-09 -4.819188e-09 -1.344651e-09 -2.970413e-09 -1.112015e-10 1.453888e-10
1.531839e-08 -5.775928e-09 -1.923959e-09 -6.815178e-09 -1.085305e-10 -7.177482e-10
2.360635e-08 -8.614707e-09 -2.832359e-09 -1.562946e-09 4.508566e-11 -2.001520e-09
1.112108e-08 1.946753e-10 -2.501630e-09 -1.460803e-08 -8.934425e-10 2.830420e-10
6.697695e-09 -2.848699e-09 -9.741821e-10 -3.973538e-09 -4.685446e-10 2.813811e-10
2.464417e-09 1.103856e-09 -9.906915e-10 -8.204078e-09 -8.240167e-10 2.964434e-11
6.050687e-09 -9.189832e-10 -1.460519e-09 -9.752125e-09 -3.647447e-10 2.548486e-10
1.418775e-09 1.332854e-09 -6.390175e-10 -8.354073e-09 -7.193177e-10 -2.408540e-11
-4.387146e-09 5.486958e-09 -1.931992e-09 -1.141370e-08 -1.105297e-09 6.204346e-10
2.072347e-08 5.285336e-08 -1.126757e-07 -1.039100e-08 -8.431103e-08 1.415722e-08
2.336358e-08 -5.512378e-08 7.349964e-09 1.170153e-09 9.880738e-09 1.401002e-09
7.054165e-09 -1.420365e-09 -1.509429e-09 -9.476190e-09 -8.365682e-10 6.102265e-10
3.004960e-08 -5.242357e-08 -1.085584e-08 -1.591008e-09 1.825659e-08 -1.684867e-10
2.398389e-08 -7.925638e-08 -6.471985e-10 -8.309249e-09 2.543989e-08 3.420270e-10
2.658259e-08 -4.073561e-08 -2.961492e-08 -1.395676e-08 3.236043e-08 3.092366e-09
6.193354e-09 7.148012e-08 -1.175946e-07 -2.237232e-08 -7.575106e-08 -2.893296e-08
-2.346403e-09 5.576134e-09 -2.671634e-09 -1.153852e-08 -2.322213e-09 2.026008e-09
-5.469385e-09 8.901031e-09 -2.389199e-09 -1.147665e-08 -1.625273e-09 2.328503e-09
-8.022546e-10 3.711808e-09 -1.332257e-09 -1.182450e-08 -1.153282e-09 4.514616e-10
-3.956726e-09 7.827944e-09 -1.685408e-09 -1.188373e-08 -2.770301e-09 1.802658e-09
-4.851821e-09 3.502696e-09 -1.347985e-10 -6.036416e-09 -8.427808e-10 -5.549596e-10
2.920250e-09 -5.693543e-10 -7.606669e-10 -6.656529e-09 -8.091663e-10 -3.700780e-11
1.060898e-08 -4.823099e-09 -1.303074e-09 3.953946e-09 4.656233e-10 6.900037e-11
9.119208e-09 -4.367749e-09 -1.382420e-09 -3.222181e-09 -3.418570e-10 4.741216e-10
-1.264855e-11 1.498453e-09 -5.935910e-10 -8.100836e-09 -6.114897e-10 -7.150391e-11
1.080841e-08 -5.818652e-09 -1.381788e-09 -2.194944e-09 -1.688035e-10 1.425583e-10
7.792127e-09 -2.619442e-09 -1.240160e-09 -5.280157e-09 -2.558048e-10 6.656065e-11
1.005748e-08 -5.429333e-09 -1.393007e-09 -2.931262e-09 -2.972758e-10 9.498280e-11
-3.647283e-09 3.998156e-09 -2.630718e-10 -6.767939e-09 -1.348035e-09 3.764636e-10
-4.348452e-09 4.090173e-09 -6.133676e-10 -9.092073e-09 -1.216686e-09 4.741909e-10
2.403779e-09 2.893900e-10 -5.948309e-10 -7.152617e-09 -6.404439e-10 1.223444e-10
1.061898e-09 2.691216e-09 -1.023017e-09 -8.888055e-09 -9.486153e-10 1.601966e-10
9.636087e-08 -2.176716e-07 -8.980661e-08 -3.093801e-08 -2.109920e-07 -5.501634e-09
-4.132383e-09 4.210993e-09 -9.335599e-11 -7.286339e-09 -1.188206e-09 2.130630e-10
-3.866433e-07 7.168619e-07 1.607888e-07 2.388352e-07 5.536301e-07 -2.584113e-08
6.950743e-08 -2.754291e-07 -3.947670e-08 -7.624890e-08 2.040388e-07 3.865085e-08
-6.390777e-08 5.577388e-08 5.541611e-09 6.763266e-09 -2.135941e-08 2.948718e-08
5.623446e-08 -1.687371e-07 -7.709389e-09 2.355950e-08 1.032927e-07 -7.646675e-09
1.466675e-08 -5.317633e-08 -8.525206e-08 -2.105505e-07 2.027620e-07 1.076545e-07
4.402602e-09 -7.826041e-10 -1.103399e-09 -8.138471e-09 -5.168568e-10 -4.011951e-10
2.163831e-09 -2.202498e-08 -4.549474e-08 -8.752129e-08 6.705742e-08 5.185365e-08
8.308385e-08 -2.656936e-07 -2.483926e-08 -5.931562e-08 1.901262e-07 2.333232e-08
3.587217e-08 -1.096039e-07 -1.715591e-08 -1.123439e-07 1.175716e-07 3.908855e-08
4.988197e-09 1.538514e-08 -5.080085e-08 -6.074260e-08 4.781783e-08 4.919141e-08
-6.693075e-08 -1.448538e-08 3.359814e-07 5.281405e-08 1.004993e-07 1.131628e-07
-7.217471e-08 9.164525e-08 -2.323421e-07 -3.590450e-07 2.222809e-07 3.165825e-07
-3.971293e-08 4.392427e-07 -3.426649e-07 -2.086070e-07 7.739357e-08 1.838183e-07
-4.532398e-09 3.697884e-09 -5.969356e-10 -7.929048e-09 -7.393588e-10 2.946302e-11
-3.418882e-08 3.132968e-08 -8.062485e-09 -2.343208e-08 2.757190e-09 1.735568e-08
1.298369e-07 -4.440021e-08 6.862199e-08 2.610376e-08 1.269412e-08 2.045863e-07
-1.959677e-10 1.756921e-09 -9.168535e-10 -8.496617e-09 -9.373284e-10 6.882006e-11
-6.885003e-09 3.944494e-08 -5.599106e-08 -2.412057e-08 4.426056e-08 4.171684e-08
-8.179391e-09 1.068070e-08 2.309853e-09 8.663568e-09 -1.466262e-09 -3.662858e-09
1.601414e-09 7.500591e-09 -6.431364e-10 1.177489e-08 7.138405e-10 -1.751363e-09
-1.081261e-09 1.881025e-09 1.412510e-10 6.057430e-09 6.591097e-10 -3.094192e-10
1.281612e-09 6.007969e-10 -5.729810e-10 -6.163475e-09 -4.506958e-10 -4.248740e-10
1.143381e-08 -1.533269e-09 -2.387052e-09 9.919649e-09 8.125358e-10 -1.172203e-09
6.972302e-09 -8.043919e-10 -1.702591e-10 1.010830e-08 -1.167578e-10 -1.053443e-09
-3.998566e-09 2.158952e-09 4.449445e-10 2.839538e-09 2.833701e-10 -4.069558e-10
-5.725566e-09 2.496676e-09 1.008602e-09 2.789405e-09 7.071665e-10 -5.749917e-10
4.009893e-08 -1.864079e-08 3.666172e-08 -7.189118e-09 6.076594e-09 -3.514236e-08
1.193179e-08 8.194327e-10 -2.776089e-09 -1.735598e-08 1.646828e-09 -1.682553e-09
-2.294487e-08 1.526251e-08 -1.397268e-09 -7.492434e-09 2.466854e-09 3.858896e-09
-8.617038e-10 1.107633e-08 1.246153e-08 2.842973e-08 -1.051458e-08 -1.402264e-08
-1.315586e-08 1.091398e-08 1.378750e-09 4.234371e-09 -7.345222e-10 -1.142421e-09
-1.250415e-08 9.269288e-09 -5.436198e-10 -2.188836e-09 2.604240e-09 6.802065e-10
3.858305e-08 -1.862474e-07 -7.794299e-10 7.700349e-08 9.322516e-08 -3.022959e-08
2.942455e-08 7.574417e-08 -1.641502e-07 5.278182e-08 1.073488e-07 -6.383811e-08
-1.440092e-08 1.064045e-08 -6.402501e-11 -4.794756e-09 1.709362e-09 1.187880e-09
-1.158432e-08 1.311865e-08 -6.433694e-10 1.398549e-09 2.604207e-09 6.869842e-10
5.759138e-08 -6.603172e-08 -7.146794e-08 -3.175682e-09 9.319498e-08 -6.496492e-10
1.774967e-08 -3.110342e-08 -6.327553e-08 8.205889e-08 9.978191e-08 -4.668698e-08
4.579337e-08 -8.574099e-08 -5.262189e-08 -7.472198e-09 8.418092e-08 4.667661e-09
3.476676e-08 -5.896723e-08 -3.180689e-08 -1.296388e-08 4.926233e-08 2.206171e-09
-1.498810e-08 1.279689e-08 4.191880e-10 1.061459e-09 -7.114110e-10 -6.987426e-10
-3.339629e-08 2.686104e-08 -2.307375e-09 3.170551e-09 5.230883e-10 8.586634e-09
-9.165766e-09 3.291128e-08 2.962853e-08 3.392488e-08 -2.272364e-08 -2.337370e-08
1.646727e-09 1.449017e-08 -3.295516e-08 1.269962e-08 -2.785579e-08 1.919700e-08
-1.619016e-08 2.992876e-08 3.291595e-10 9.579613e-09 -3.932420e-09 -2.090691e-09
5.174838e-09 1.221457e-08 -6.421304e-08 1.184944e-08 -5.208024e-08 2.662722e-08
5.243694e-10 2.243683e-08 1.103532e-08 2.843922e-08 -8.533175e-09 -1.269129e-08
-9.765602e-08 7.275455e-08 2.281860e-08 -3.188268e-08 -1.606216e-08 2.785430e-08
1.124347e-08 -6.003937e-09 -1.323459e-09 -6.738486e-10 -4.020728e-11 3.449362e-10
9.072257e-09 -4.512215e-09 -1.326314e-09 -3.442351e-09 -2.310205e-10 9.737500e-11
2.520208e-08 -1.642237e-08 2.410943e-08 -4.462817e-09 4.295266e-09 -2.418994e-08
2.429324e-08 -1.134434e-08 1.559382e-08 1.204035e-08 -1.294461e-09 -1.678088e-08
-2.656743e-09 8.552815e-09 2.345690e-09 1.383298e-08 -1.578246e-10 -2.505675e-09
-2.019642e-08 3.447867e-08 3.459967e-08 4.102287e-08 -2.039233e-08 -2.417687e-08
-3.718093e-08 4.291000e-08 1.369660e-09 2.938098e-09 -4.146698e-09 7.244510e-09
2.874381e-08 -4.901952e-09 -1.048182e-09 -1.404896e-08 3.753669e-09 -8.151574e-09
1.665469e-08 -4.248606e-09 -2.250019e-09 -1.116804e-08 -3.474059e-10 1.886203e-10
-2.965343e-09 1.702120e-08 1.573752e-08 2.620200e-08 -7.662251e-09 -1.284448e-08
1.310413e-08 3.156820e-09 3.456253e-09 1.816423e-08 -3.094073e-09 -8.007109e-09
-1.101980e-09 -1.516382e-08 -3.311892e-08 4.761914e-08 3.661092e-08 -2.041369e-08
-5.487617e-08 7.893327e-08 2.069266e-08 2.821067e-08 -3.501444e-08 2.853393e-08
9.249082e-09 1.581785e-09 -1.275263e-11 1.363278e-08 -4.009704e-10 -6.513995e-09
-3.657968e-08 2.546944e-08 3.839532e-09 -1.842894e-08 -1.133710e-09 1.115790e-08
1.525358e-08 2.365710e-08 2.765506e-08 4.773616e-08 -2.779164e-08 -5.140584e-08
-4.498681e-08 4.043108e-08 -5.093472e-10 3.074935e-09 7.505177e-11 1.207986e-08
-2.040053e-08 2.308528e-08 2.703548e-08 2.905823e-08 -2.826908e-08 -2.835493e-08
-2.639175e-08 4.293296e-08 9.550698e-09 1.589631e-08 -1.098568e-08 -3.893672e-09
-1.843907e-08 2.287950e-08 -5.504794e-09 -9.314633e-10 3.992225e-09 2.836325e-09
-6.989965e-09 2.958881e-08 3.277423e-09 2.225907e-08 -8.075017e-09 -7.395472e-09
-5.722194e-08 7.938154e-08 1.407007e-08 2.252721e-08 -3.924921e-08 2.332403e-08
1.636756e-08 8.975818e-08 -2.688452e-08 7.266803e-08 -4.645792e-08 -2.747610e-08
-2.160006e-08 2.295136e-08 -1.467292e-09 6.494905e-09 1.180974e-09 -2.524926e-10
-9.015364e-09 1.530098e-08 2.141348e-09 5.078468e-09 -4.437827e-10 -4.108731e-09
-1.016982e-08 1.056737e-08 1.324807e-11 5.549416e-09 2.358320e-10 -3.994428e-10
1.602207e-09 1.196809e-08 4.748140e-10 1.419808e-08 -1.450570e-10 -4.394327e-09
-2.611457e-08 2.415834e-08 1.694499e-09 -4.610548e-09 9.441127e-11 4.729849e-09
-3.264007e-08 4.137019e-08 1.262469e-08 5.938882e-09 -1.346082e-08 -3.876403e-09
8.762260e-09 -1.104391e-07 -1.327663e-08 7.414093e-08 8.243411e-08 -2.499946e-08
3.191072e-09 -1.797523e-08 9.780012e-08 -3.091635e-08 1.478427e-08 -6.786488e-08
1.135606e-07 -9.753818e-08 -1.496425e-07 9.836819e-09 2.522339e-07 -1.419825e-08
-3.540946e-10 3.672269e-09 1.930404e-08 2.600438e-08 -5.954008e-09 -1.430560e-08
-1.043147e-09 2.043590e-08 1.141079e-08 2.623643e-08 -1.281223e-08 -1.454390e-08
-1.313973e-08 2.985819e-08 -4.574059e-08 -6.001488e-08 -8.870338e-09 -4.138180e-08
1.072744e-08 -7.562513e-09 2.247171e-08 -2.409021e-08 1.018159e-08 -1.998446e-08
-1.391847e-07 1.643931e-07 -2.613129e-08 -2.155565e-09 -3.167632e-08 8.560137e-08
-1.099352e-08 1.248801e-08 -6.592331e-08 5.619779e-08 -7.570065e-08 6.794466e-08
-2.294418e-07 -2.032634e-08 4.802343e-07 -2.591237e-08 -1.854647e-07 -1.166098e-07
-2.363306e-07 6.447410e-07 6.889131e-07 -3.503996e-08 5.478264e-07 -4.656825e-07
-1.641113e-08 2.916407e-08 2.214034e-09 8.584432e-09 -6.256837e-09 -2.015037e-09
-2.406809e-08 2.924346e-08 -6.692627e-09 -5.111909e-09 2.149991e-09 6.425412e-09
-2.972078e-08 3.458163e-08 -2.890533e-09 -1.754606e-08 5.231675e-09 1.261005e-08
-2.804653e-10 2.023037e-08 5.752149e-10 1.771599e-08 -5.778124e-09 -7.385230e-09
-1.220432e-08 1.976159e-08 -2.713197e-09 7.115210e-09 1.929447e-09 7.281405e-10
-1.785153e-08 3.003393e-08 3.625230e-09 1.249568e-08 -7.348868e-09 -1.014586e-09
4.603154e-08 -7.833165e-08 -5.844530e-08 -7.018479e-10 -1.033100e-07 7.603392e-09
-4.438099e-08 5.833241e-08 1.055572e-08 2.136131e-08 -2.955268e-08 -1.438103e-09
-3.296387e-08 3.654063e-08 -3.099250e-09 -1.184654e-08 1.597489e-09 1.127615e-08
7.463559e-09 6.352475e-09 1.223958e-08 2.367794e-08 -1.676237e-08 -2.761930e-08
1.487763e-08 -3.577142e-09 7.103043e-10 1.034314e-08 2.099312e-10 -3.666841e-09
-2.381730e-08 1.709493e-08 -3.679845e-11 -1.791084e-09 9.571018e-10 2.420470e-09
1.424685e-08 -6.463640e-09 -1.346279e-09 1.537044e-09 2.891999e-10 -1.108084e-10
3.301265e-08 -5.121486e-09 4.881053e-08 -2.712938e-08 1.804205e-08 -4.016934e-08
1.283318e-08 3.725975e-09 2.327953e-08 -2.966699e-08 1.373144e-08 -1.556455e-08
-1.448245e-08 4.027296e-08 -4.718734e-09 -2.972053e-08 2.068243e-08 5.523858e-09
-1.287028e-08 1.007901e-08 -8.298424e-10 -1.048489e-09 3.407688e-09 3.499857e-10
-1.266364e-08 1.493957e-08 3.250398e-09 1.478897e-08 -4.825993e-09 -4.159965e-09
2.770744e-08 -1.026238e-08 2.539982e-08 -2.034699e-08 1.143339e-08 -2.626245e-08
2.895488e-08 -1.372633e-08 6.932160e-09 1.192697e-09 8.249250e-10 -1.415263e-08
4.232021e-08 -1.178826e-08 1.157177e-08 -1.012029e-08 3.643864e-09 -2.275187e-08
1.537829e-08 -5.650786e-09 -7.290402e-10 7.513427e-09 1.070445e-10 -2.074099e-09
1.056105e-08 -1.338239e-09 -1.816495e-09 9.201971e-09 1.336532e-09 -1.385203e-09
-1.581347e-08 1.786113e-08 -3.158040e-09 3.698084e-10 1.595633e-09 1.271803e-09
-1.921052e-09 1.421914e-09 7.069278e-11 5.167746e-09 8.055175e-10 -7.378864e-12
-3.510982e-08 3.088909e-08 -3.589408e-09 4.490345e-09 2.862671e-09 1.229732e-08
3.380267e-10 1.982326e-08 4.703525e-10 1.953600e-08 -3.466249e-09 -7.042504e-09
-2.053789e-08 1.706098e-08 -1.477436e-09 -4.727073e-09 2.201892e-09 2.982507e-09
8.275890e-09 -2.305488e-08 -2.211791e-07 1.591596e-07 4.119807e-07 -2.005556e-07
2.399398e-08 -5.444494e-08 -3.447611e-08 -2.201596e-07 1.777389e-07 1.058584e-07
-1.046396e-08 1.296090e-08 1.782699e-09 8.555502e-09 -9.471614e-10 -2.225038e-09
2.619777e-08 -2.635110e-07 4.497630e-08 -1.732966e-07 1.153287e-07 6.818719e-08
5.599924e-08 -5.477900e-08 -7.969449e-08 -2.021579e-10 7.965450e-08 3.408095e-09
5.961900e-08 -1.644038e-07 -2.077503e-08 -3.315119e-08 1.091120e-07 1.390272e-08
2.879787e-08 -6.611226e-08 -5.293625e-08 -3.468487e-08 -9.006167e-08 -1.544710e-08
4.863465e-08 -1.170099e-07 -8.852499e-09 -1.837322e-08 8.010954e-08 1.438996e-08
2.822619e-08 2.477081e-08 -7.091436e-08 -2.134458e-08 -5.959874e-08 -1.275329e-08
-1.942411e-09 3.810685e-09 4.777423e-10 6.286731e-09 7.638158e-10 -1.556946e-09
1.786882e-09 4.190497e-09 -6.799998e-10 9.365499e-09 9.094441e-10 -1.480427e-09
-1.940296e-08 6.752307e-09 -4.940919e-09 3.419918e-08 1.765102e-08 -1.519666e-08
2.423696e-08 -2.906182e-08 -5.175644e-08 -4.224982e-08 -8.926505e-08 -3.335774e-08
2.580348e-09 2.299615e-10 -1.742178e-10 6.967890e-09 7.209652e-10 -1.091568e-09
1.154527e-08 2.839311e-08 -7.663982e-08 -1.761089e-08 -5.747334e-08 -2.363319e-08
1.125860e-08 -5.654244e-09 -1.358711e-09 1.225417e-09 1.277883e-10 3.955106e-10
4.241825e-08 4.962094e-08 -9.412890e-08 -1.353218e-08 -7.297010e-08 -2.036746e-08
1.136957e-08 -5.909728e-09 -1.321332e-09 6.429519e-10 1.225688e-10 3.783282e-10
2.857865e-08 2.464412e-09 -9.485556e-08 -7.174228e-08 -1.695015e-07 -7.323685e-08
3.485293e-08 -5.784899e-08 -5.974002e-08 -6.576538e-08 -1.309363e-07 -2.788850e-08
-1.252319e-08 2.299300e-08 -1.192204e-08 -9.812192e-09 -1.162308e-08 1.377659e-08
1.015172e-08 -5.473945e-09 -1.336928e-09 1.904520e-09 9.627435e-11 3.066371e-10
1.094638e-08 -6.343744e-09 -1.331012e-09 -1.015867e-09 -1.194239e-10 2.425185e-10
-1.784325e-08 1.516573e-08 -1.543851e-08 -2.711358e-09 -9.379513e-09 1.314099e-08
-1.128433e-08 1.358999e-08 -8.837196e-09 -1.252512e-08 -3.753399e-09 8.270638e-09
1.221644e-08 -6.896248e-09 -1.457876e-09 -5.744283e-10 1.817280e-10 8.007883e-11
1.146575e-08 -6.350457e-09 -1.564834e-09 -1.042703e-09 -7.513317e-11 2.282575e-10
1.117434e-08 -6.266963e-09 -1.394992e-09 3.729803e-10 -4.087768e-11 2.579481e-10
1.251120e-08 -6.480512e-09 -1.437522e-09 -2.103871e-10 5.292555e-11 -5.437739e-11
-3.719738e-08 2.222169e-08 -1.659240e-08 -3.720104e-08 2.573149e-08 3.902593e-08
-2.994440e-08 6.555376e-08 5.991639e-08 4.121195e-08 -5.656683e-08 -1.511319e-08
-5.386559e-08 2.214621e-07 8.483204e-08 1.033961e-07 -1.654565e-07 -5.563985e-08
-1.582979e-08 -9.667556e-09 1.119508e-07 2.108325e-08 -3.041642e-08 -5.395103e-08
-5.732452e-07 1.167787e-06 7.521967e-07 3.568041e-08 1.029297e-06 -2.948134e-07
3.418631e-08 -1.730389e-08 -6.931432e-08 -2.225750e-08 -7.596554e-08 -4.201285e-09
-1.582751e-08 3.336999e-08 -9.745247e-09 -1.154864e-08 -6.828233e-09 1.334743e-08
-2.713886e-07 7.545762e-07 -5.449449e-07 -3.748082e-07 1.263969e-07 3.637963e-07
-9.632530e-08 1.776209e-08 -7.522526e-07 -4.026887e-07 5.237024e-07 3.439002e-07
9.719065e-09 6.322914e-09 -4.116504e-09 -2.252491e-08 2.847133e-09 -1.026263e-09
-9.342331e-08 9.733748e-08 1.104849e-08 -1.996247e-08 -2.474215e-08 1.885424e-08
2.750584e-09 2.972402e-09 -2.108699e-09 -1.406069e-08 -1.832626e-09 2.043637e-09
-2.348252e-07 3.700909e-07 6.198271e-08 -2.398392e-07 -2.361728e-07 2.250866e-08
2.044593e-08 -3.687163e-09 -2.459450e-09 -1.495214e-08 6.487124e-10 -2.401583e-09
2.254942e-09 4.050516e-09 -1.366693e-09 -1.291613e-08 -1.179388e-09 4.059634e-10
-3.214207e-08 7.288268e-08 -5.791142e-08 2.635726e-08 3.757148e-08 -4.626419e-08
-2.798255e-08 -6.690246e-09 -3.786373e-09 5.607602e-08 3.125139e-08 -3.257774e-08
3.134093e-09 1.370035e-08 -5.676249e-08 3.475690e-08 5.063516e-08 -2.750979e-08
1.238274e-08 1.644166e-09 -3.708451e-10 1.412263e-08 -3.820511e-10 -5.856114e-09
2.235170e-08 4.240188e-10 -4.997995e-09 -2.239289e-08 6.947940e-09 -5.838963e-09
2.081484e-08 -8.010882e-09 2.379442e-09 -1.594851e-08 4.202700e-09 -3.277908e-09
1.459744e-08 -5.829520e-10 -1.886888e-09 1.219977e-08 3.221781e-10 -2.055091e-09
5.696293e-09 5.880155e-10 1.323963e-10 1.064726e-08 3.463197e-10 -2.117826e-09
4.004300e-09 2.842628e-09 -1.014458e-09 1.004862e-08 6.742114e-10 -2.434020e-09
1.237063e-08 -5.420143e-09 -4.632099e-10 6.282190e-09 5.382496e-10 -7.708725e-10
3.388179e-10 2.282234e-09 -9.490364e-11 7.140147e-09 -4.603896e-12 -1.530713e-09
1.971384e-08 -4.012010e-09 -3.879318e-09 -1.320992e-08 8.552249e-10 -2.072467e-09
1.209174e-08 -1.409842e-09 5.720762e-10 -1.788884e-08 1.450978e-09 -1.514558e-09
2.490705e-08 -1.043153e-08 -7.839791e-10 -3.992827e-09 4.870156e-10 -4.154856e-09
1.307847e-08 -2.687011e-09 -2.453050e-09 -1.221389e-08 -2.227147e-10 1.174767e-10
1.452825e-08 -4.802142e-09 6.167262e-10 9.041744e-09 -3.130112e-10 -3.069109e-09
1.480545e-08 -4.201372e-09 -7.754681e-10 -1.261107e-08 -2.874150e-10 -2.262927e-09
1.208553e-08 -1.832777e-09 -2.280310e-09 -1.130124e-08 -1.276260e-09 4.809085e-10
-1.536978e-08 8.227632e-09 -6.465006e-10 -6.466284e-09 2.054674e-09 1.211771e-09
-4.738048e-09 -1.605679e-08 4.259186e-09 2.495627e-08 8.223207e-09 -2.821405e-09
-1.442508e-08 3.698916e-09 2.977456e-10 -1.121717e-08 4.769407e-09 2.056773e-09
-6.722954e-09 6.324622e-09 7.814860e-11 4.166917e-09 1.611207e-09 -9.802823e-10
-3.825092e-09 1.022388e-08 -1.497826e-10 9.463415e-09 8.486018e-11 -2.359445e-09
-1.031988e-08 8.961178e-09 7.993264e-10 6.209038e-09 8.231590e-10 -2.928865e-10
-7.746993e-08 3.324130e-08 -2.570098e-08 8.575639e-08 5.805761e-08 -6.619581e-08
-3.237104e-08 9.690282e-08 -9.537523e-09 -1.897155e-08 -1.165516e-08 1.792625e-08
1.203868e-07 2.290205e-08 -2.124582e-08 -4.173224e-08 -1.679477e-08 5.329688e-08
-2.974146e-08 1.068687e-07 -3.783033e-08 -2.006878e-08 -1.391196e-08 -3.566403e-08
-1.033537e-08 8.819180e-09 8.739929e-10 6.137152e-09 2.819453e-10 -7.782413e-10
-1.680516e-08 3.246229e-08 6.667396e-08 -5.061881e-08 -2.086651e-08 1.707019e-08
-9.964990e-09 1.296599e-08 -1.923333e-10 4.723005e-09 7.463627e-10 -4.168896e-10
-4.340722e-09 7.763835e-09 2.191261e-10 1.059065e-08 -1.006597e-10 -2.409666e-09
-1.084912e-08 2.766377e-09 1.715176e-09 -4.216785e-09 2.438729e-09 -7.047669e-10
-1.704856e-09 1.039814e-08 -3.542555e-09 -1.552463e-08 -2.200470e-09 3.429668e-09
9.702777e-09 7.645185e-09 -2.304256e-09 -2.460049e-08 1.460649e-09 -1.354121e-09
1.913775e-08 9.512847e-09 -5.034570e-09 -3.206261e-08 1.162091e-08 -5.775269e-09
-4.328180e-09 1.509246e-08 6.288589e-08 3.773320e-08 -2.290839e-08 -3.315021e-08
4.239162e-08 1.743567e-08 2.970376e-08 2.916187e-08 -1.748754e-08 -7.517628e-08
-1.865539e-08 2.175170e-08 1.693095e-09 7.649162e-09 -1.442764e-09 1.412987e-10
-1.482640e-08 1.485385e-08 1.919394e-10 4.174029e-10 1.313302e-09 7.989895e-10
-7.614204e-09 5.375731e-09 9.317827e-10 3.058906e-09 9.979549e-10 -8.766138e-10
4.350178e-08 -3.874969e-08 -4.223778e-08 -1.939153e-09 -7.827600e-08 7.104823e-09
-1.242770e-08 8.418554e-09 5.947377e-08 3.374445e-08 -2.043763e-08 -2.735435e-08
-4.310322e-10 -1.550558e-09 2.769494e-08 2.243499e-08 -6.297359e-09 -1.954728e-08
-1.072154e-08 1.165878e-08 -4.626077e-12 6.257573e-09 9.996592e-10 -6.512505e-10
2.001736e-08 8.615508e-09 1.457756e-09 2.369412e-08 -3.607053e-09 -1.346127e-08
-4.976767e-09 8.194361e-09 -6.620974e-10 8.242612e-09 2.388471e-09 -1.657113e-09
2.193243e-08 -1.467028e-08 1.501613e-08 8.789465e-09 2.485625e-10 -1.560861e-08
-8.877045e-09 7.597008e-09 3.617431e-10 5.126582e-09 1.377307e-09 -9.642260e-10
4.825743e-08 -4.819184e-09 -1.354195e-09 -1.545230e-08 2.380784e-09 -1.619903e-08
1.710710e-08 -2.486627e-08 1.911007e-07 -5.625468e-08 -4.730656e-08 1.088434e-07
3.114743e-09 2.072853e-09 -1.117997e-07 1.109412e-07 1.409059e-07 -8.709372e-08
-3.116452e-08 1.303637e-07 -1.273014e-07 -1.386507e-08 -3.149401e-08 -1.660145e-08
4.706687e-08 -4.248253e-08 1.315739e-07 1.002300e-08 -1.631986e-08 1.134540e-07
1.815718e-08 9.933961e-08 -1.305256e-07 -3.373928e-08 -9.093699e-08 -4.051371e-08
-6.672312e-09 8.787612e-08 -1.388743e-07 -2.720210e-08 -7.716055e-08 -4.230626e-09
2.093187e-08 7.742078e-08 -1.379033e-07 -1.306018e-08 -7.801726e-08 3.903639e-09
1.368687e-08 2.220798e-08 2.646720e-08 6.409777e-08 5.011503e-08 3.827123e-08
-5.977949e-08 2.766165e-07 -1.307803e-07 -1.181749e-07 1.078224e-07 4.182779e-08
-1.109978e-07 -8.857738e-08 4.978885e-07 1.026871e-08 3.785432e-08 1.688194e-07
-3.169752e-08 8.038712e-08 -1.282869e-08 4.426668e-08 4.414471e-08 1.245004e-08
-5.475304e-08 -9.630855e-09 1.864278e-07 -4.563907e-08 -9.428977e-08 9.390539e-08
-2.994943e-08 7.393386e-08 4.978409e-08 -4.204614e-08 2.732335e-08 -4.351089e-08
-9.178628e-07 7.837890e-07 8.143132e-07 -3.371618e-07 6.593308e-07 -7.794354e-07
-1.157793e-07 6.865511e-08 -1.207020e-08 2.246480e-08 -7.158792e-08 -4.073638e-08
4.050676e-09 6.002313e-09 -3.555334e-10 1.270599e-08 -9.562514e-10 -4.200446e-09
1.515531e-08 -3.917832e-10 -1.589213e-09 1.139334e-08 1.233730e-09 -4.331431e-09
-2.462006e-08 3.103322e-08 -4.783496e-09 -4.329004e-09 1.132924e-10 4.929960e-09
-1.395504e-07 1.659459e-07 -4.073312e-08 -1.541249e-08 -1.097019e-07 4.923974e-08
3.296986e-08 -1.218894e-08 1.248157e-08 -7.104045e-09 1.901195e-09 -1.413886e-08
-2.214850e-07 2.535764e-07 6.938272e-07 -1.313762e-09 -5.977641e-08 5.166349e-07
3.821759e-07 9.115428e-08 4.295125e-07 -2.071833e-07 -3.439735e-07 6.869292e-07
-2.555076e-08 4.989148e-07 -4.700113e-07 -1.333776e-07 -7.349340e-08 -1.885862e-07
1.438544e-08 1.087525e-08 -2.809911e-10 2.154363e-08 -2.809390e-09 -1.068725e-08
1.043301e-08 6.735867e-08 6.925396e-08 7.304666e-08 -6.421289e-08 -7.050441e-08
-3.158643e-08 2.461571e-08 -1.120338e-08 3.142210e-08 1.891782e-08 -2.517123e-08
-1.948962e-08 9.904204e-09 -2.690961e-08 3.798838e-08 2.331714e-08 -1.991603e-08
-6.704962e-08 2.235292e-07 9.556328e-08 9.830109e-08 -1.701726e-07 -4.316033e-08
-3.130005e-08 4.278344e-08 -5.942532e-08 4.113234e-08 4.160921e-08 -4.780171e-08
-2.199089e-08 -1.577904e-08 -1.012711e-08 5.982583e-08 4.091280e-08 -3.112115e-08
3.276121e-08 -1.516696e-08 2.259317e-08 -7.023708e-09 4.418913e-09 -2.287854e-08
3.357740e-08 -1.190862e-08 3.173334e-09 4.499486e-09 4.020712e-10 -1.422284e-08
-3.469726e-07 3.182872e-07 -1.286549e-07 -1.315381e-07 -4.828598e-08 1.557344e-07
9.423878e-09 1.356499e-08 1.182148e-07 4.571916e-08 -4.900591e-08 -8.459986e-08
6.828176e-09 3.961711e-08 9.091193e-08 6.399146e-08 -5.718930e-08 -1.098939e-07
4.363406e-08 -8.597179e-09 -4.779945e-10 -1.445399e-08 3.134296e-09 -1.835867e-08
2.440735e-09 1.224732e-08 -1.294429e-09 1.637420e-08 -1.890516e-09 -6.995262e-09
3.563504e-08 -1.177779e-08 2.254439e-08 -1.036044e-08 4.136155e-09 -2.277268e-08
-5.718814e-10 5.169918e-09 1.042285e-09 1.060653e-08 1.673880e-10 -1.621634e-09
3.307972e-08 -7.371498e-09 1.608176e-09 -1.765018e-08 5.098062e-09 -1.900463e-08
2.603894e-08 -1.494186e-08 2.505855e-08 9.073750e-09 -1.286353e-09 -2.552301e-08
2.703390e-08 1.464455e-08 -1.056128e-08 -3.408731e-08 9.101737e-09 -1.279649e-08
3.279018e-08 3.616811e-09 -3.137283e-10 2.089103e-08 -2.802560e-09 -2.351718e-08
2.083694e-08 -7.021170e-09 -5.664171e-10 -1.150383e-08 9.890665e-10 -4.724610e-09
-8.001308e-09 2.505103e-08 7.654427e-09 2.585801e-08 -9.252105e-09 -1.402958e-08
3.446325e-09 8.512583e-09 9.039577e-09 2.272932e-08 -5.032276e-09 -1.069295e-08
3.102987e-08 3.421716e-09 -3.451033e-09 2.181618e-08 -3.851486e-09 -1.082838e-08
-1.700293e-08 -9.838711e-09 -9.899861e-10 3.501946e-08 1.566946e-08 -1.190178e-08
3.299323e-08 -6.675401e-09 1.346395e-08 -2.001377e-08 4.844812e-09 -1.686173e-08
1.892266e-08 -8.330998e-10 -2.539330e-10 -1.938844e-08 3.728814e-09 -5.125488e-09
-6.051009e-09 6.972779e-09 -2.401515e-09 -1.038885e-08 -2.529575e-09 2.897184e-09
-3.391629e-08 2.420551e-08 -7.477699e-09 2.324419e-08 1.341572e-08 -2.449202e-08
5.471455e-09 2.757121e-09 -2.359142e-09 -1.302327e-08 -1.329822e-09 1.032229e-09
6.280463e-09 -2.781833e-10 -9.455816e-10 -1.490943e-08 -2.933834e-10 3.343965e-12
9.122642e-09 -1.464363e-09 -1.648365e-09 -1.282523e-08 -7.794687e-10 -9.810192e-10
-1.081361e-08 9.481960e-09 -3.346740e-09 -7.151447e-09 -3.800582e-09 3.066296e-09
1.189707e-09 5.901862e-09 -1.808802e-09 -1.492627e-08 -6.151936e-10 6.074002e-10
1.469810e-09 4.628286e-09 -1.228059e-09 -1.524770e-08 -3.430960e-10 -1.802067e-10
1.344964e-08 3.295209e-09 1.796900e-09 1.846384e-08 -3.282963e-09 -9.178388e-09
2.658078e-08 -1.193781e-08 1.197743e-08 -9.133660e-09 2.808311e-09 -1.299081e-08
-1.269674e-09 5.710159e-09 -1.305966e-09 -1.289370e-08 -1.078960e-09 7.850314e-10
3.647272e-08 -1.486532e-08 1.055039e-08 -3.424646e-09 2.706551e-09 -2.314134e-08
-1.186405e-08 2.378316e-08 -9.546271e-09 -1.071074e-08 -2.321532e-09 9.431947e-09
1.696455e-08 2.936540e-09 1.569665e-08 2.510944e-08 -9.551983e-09 -2.108021e-08
-1.086722e-08 1.777193e-08 -8.197613e-09 -9.178653e-09 -4.565672e-09 6.462347e-09
2.900641e-08 -1.479474e-08 2.552860e-08 9.790840e-09 -9.270022e-10 -2.423533e-08
5.447415e-08 -1.417041e-07 -3.084598e-08 4.374493e-09 -1.223371e-07 1.761826e-09
-5.950844e-09 3.628192e-08 -2.311508e-09 2.210709e-08 -6.953359e-09 -5.867021e-09
1.993297e-08 9.730158e-09 3.278290e-08 3.729872e-08 -1.732771e-08 -3.304801e-08
-6.997120e-09 1.999270e-08 -3.779568e-09 -1.549555e-08 -4.083030e-09 5.680017e-09
-1.799962e-08 3.667226e-08 -1.661480e-08 -1.564387e-08 -5.515074e-09 2.391683e-08
6.957432e-09 1.241830e-09 -2.623093e-10 1.165016e-08 2.547308e-10 -2.594446e-09
-3.459007e-09 1.385103e-08 -6.075451e-09 -1.758566e-08 -2.777949e-09 5.986424e-09
3.992521e-08 -1.141102e-08 2.261051e-08 1.404500e-08 -1.517872e-09 -3.175581e-08
4.823378e-08 6.081843e-09 4.836374e-09 3.225317e-08 -1.070464e-08 -3.264098e-08
5.030209e-08 -1.558449e-09 9.765865e-09 3.162588e-08 -1.055704e-08 -3.586237e-08
-1.931050e-08 1.478998e-08 8.100944e-10 9.034992e-10 -8.628008e-09 8.556850e-09
-1.624088e-08 1.564985e-08 -5.805360e-09 -5.064023e-09 -8.862106e-09 1.027365e-08
-1.462190e-08 1.837954e-09 8.336224e-08 2.879882e-08 -3.085371e-08 -5.618004e-08
-1.246898e-08 6.929844e-09 -2.799174e-09 -1.354037e-09 -6.811345e-09 4.972496e-09
-3.047582e-08 3.814417e-08 -4.892623e-09 8.911945e-09 -3.278658e-10 8.205753e-09
-1.969414e-07 6.006796e-08 -9.691203e-08 -1.992482e-07 1.337898e-07 1.804725e-07
2.846863e-08 5.555343e-09 7.314611e-10 -2.556373e-08 1.067303e-08 -1.267714e-08
5.011942e-08 6.267524e-09 2.749215e-09 3.134969e-08 -1.037753e-08 -3.681845e-08
2.101637e-08 7.750935e-10 -2.346934e-09 1.577782e-08 -7.165059e-10 -5.129704e-09
-3.025576e-07 2.565138e-07 -6.266940e-08 -1.243000e-07 -1.707710e-09 2.179258e-07
5.001112e-08 -1.608937e-08 2.199721e-08 -8.277310e-09 5.297481e-09 -3.678897e-08
6.646007e-08 1.118686e-08 2.204875e-08 4.424292e-08 -2.447169e-08 -6.579698e-08
2.629058e-08 4.381034e-08 2.133261e-08 4.983352e-08 -2.557667e-08 -4.650620e-08
3.930756e-08 -1.140611e-08 1.442112e-08 4.763041e-09 7.928390e-10 -3.350085e-08
3.901394e-08 -1.695340e-08 3.645415e-08 7.944128e-09 1.193302e-09 -3.815501e-08
2.281309e-09 6.747347e-09 1.305308e-09 1.279468e-08 -1.232981e-09 -4.865442e-09
-1.002534e-08 1.553349e-08 8.688997e-09 1.953264e-08 -7.079707e-09 -5.999659e-09
-1.117418e-08 1.690215e-08 2.798388e-09 1.538443e-08 -3.612751e-09 -2.472087e-09
-2.266175e-08 1.607900e-08 -1.331551e-08 -2.536530e-08 1.539962e-08 1.361209e-08
-2.284618e-07 6.502910e-07 6.538779e-08 7.131032e-08 -3.129889e-07 3.610520e-09
-6.437480e-09 8.571604e-09 5.539562e-08 3.608079e-08 -1.998680e-08 -3.313820e-08
1.234020e-07 3.439651e-07 -3.992109e-07 -1.095228e-07 -9.248276e-08 -8.001661e-08
2.985873e-08 -1.450052e-08 3.743833e-08 -6.149619e-09 2.220084e-09 -3.067306e-08
-8.258749e-08 2.018630e-07 4.254902e-08 7.253240e-09 -8.538287e-08 -8.374553e-08
-8.448773e-09 2.599572e-08 1.621863e-07 4.859328e-08 -7.331656e-08 -8.619362e-08
-4.241023e-08 9.269429e-08 5.036402e-08 6.343290e-08 -6.695598e-08 -3.905384e-08
3.842025e-08 -1.664079e-08 3.570364e-08 -5.573906e-09 5.911217e-09 -3.697852e-08
2.259392e-08 -1.573708e-08 2.302128e-08 -4.510093e-09 4.168859e-09 -2.247755e-08
5.561653e-09 1.732902e-08 -3.863947e-09 -3.492719e-08 1.824413e-08 -7.719086e-10
2.517297e-08 -3.852182e-09 8.808820e-08 -3.696238e-08 3.208849e-08 -6.242052e-08
4.275798e-08 -1.063183e-08 3.274366e-09 -1.834397e-08 8.751522e-09 -2.575040e-08
1.293647e-08 1.783630e-08 6.013048e-09 3.308772e-08 -1.656539e-08 -2.372442e-08
3.048278e-08 -8.134046e-09 6.993887e-08 -3.091668e-08 2.318597e-08 -5.115161e-08
-7.200520e-08 1.178753e-07 1.276735e-07 5.860805e-08 -1.233885e-07 -9.156816e-08
-6.402581e-08 1.423182e-07 8.410746e-08 7.345721e-08 -1.754292e-07 -5.862501e-08
-1.457606e-08 6.348440e-08 1.255944e-09 -5.303532e-08 1.947318e-08 -3.855296e-09
2.482713e-08 -1.842610e-08 7.230869e-08 1.181106e-08 -4.178784e-09 -5.583438e-08
3.764179e-10 7.581042e-09 4.363267e-08 -3.027524e-08 1.468090e-08 -1.203049e-08
5.191233e-08 2.251473e-08 2.505388e-08 4.763188e-08 -3.171627e-08 -7.173966e-08
6.166911e-08 -1.655615e-08 2.635096e-08 5.312577e-09 7.936436e-09 -8.069541e-08
-3.085572e-08 4.842203e-08 3.085208e-08 2.817908e-08 -3.189099e-08 -1.931686e-08
-2.478456e-08 3.552593e-08 9.538578e-09 1.537753e-08 -1.427754e-08 -2.580034e-09
-5.626093e-08 2.820413e-08 -3.037230e-08 -1.281651e-07 6.123626e-08 8.090246e-08
3.554014e-08 -4.074720e-08 -6.788220e-08 7.214537e-09 -6.719979e-08 1.475658e-08
-2.980277e-08 4.996512e-08 1.580056e-08 2.664911e-08 -2.454700e-08 -2.178154e-08
-3.783317e-08 6.330211e-08 2.555163e-08 2.148026e-08 -2.667330e-08 1.741915e-09
3.066731e-08 -1.152856e-08 5.768365e-08 -1.407840e-08 1.058359e-08 -5.933732e-08
3.308529e-08 -5.294106e-09 -7.805226e-08 8.034306e-10 -7.760122e-08 1.282364e-08
-5.543048e-08 2.015786e-07 4.437347e-08 9.982997e-08 -9.507771e-08 -3.264233e-08
-7.794157e-09 8.260825e-09 6.476354e-08 3.152182e-08 -1.929488e-08 -3.333879e-08
-2.130531e-07 4.631385e-07 -9.495616e-08 -8.640553e-08 -2.230989e-07 -9.904797e-07
6.840851e-08 -7.345543e-08 -1.344444e-07 -3.403706e-08 -1.830555e-07 6.584333e-09
-1.726449e-07 5.483322e-09 3.350118e-07 -7.684316e-08 6.391417e-08 -2.745603e-07
1.496993e-08 1.818750e-08 7.606681e-08 -2.440423e-08 2.166904e-08 -6.776700e-08
3.686918e-08 -1.563927e-07 -3.197342e-08 4.440245e-08 -1.222573e-07 3.151077e-08
-2.297785e-07 2.574918e-07 1.271194e-07 2.164713e-08 -3.596701e-07 -4.217727e-07
4.262250e-08 -3.881511e-08 -7.311075e-08 -1.647583e-09 -7.664065e-08 1.866866e-09
-5.001204e-08 5.154497e-08 -2.304729e-08 3.188101e-08 2.436086e-08 -3.970410e-08
-3.232069e-08 -6.689166e-09 -7.915934e-09 5.499938e-08 3.149315e-08 -2.304648e-08
5.185437e-08 -7.674876e-08 -9.976093e-08 1.768233e-08 -2.067864e-07 1.902256e-08
3.646706e-08 -3.565725e-08 -5.961652e-08 3.603661e-08 -8.787180e-08 2.832428e-08
4.055129e-08 -1.345131e-08 1.267935e-07 -3.932782e-09 8.735815e-09 -1.279130e-07
2.449099e-08 -7.243614e-09 5.625517e-08 -5.107490e-09 4.007029e-09 -5.736577e-08
5.674792e-08 -1.282877e-07 -1.891215e-08 3.713681e-08 -1.007943e-07 1.563913e-08
-2.744595e-07 7.043105e-07 6.677850e-07 -3.881934e-08 5.504982e-07 -4.372993e-07
-5.737806e-09 -7.700427e-09 5.079213e-08 2.220424e-08 -1.557901e-08 -3.316413e-08
3.989229e-09 1.441411e-07 1.455008e-07 1.033765e-07 -1.796366e-07 -1.930865e-07
1.903309e-08 2.681963e-08 1.362194e-07 5.362505e-08 -7.967639e-08 -1.094202e-07
-1.202953e-08 8.111785e-08 2.272289e-07 -6.220827e-08 1.372454e-07 -1.122151e-07
3.518618e-08 -1.999069e-08 6.947354e-08 1.130590e-08 -6.655854e-09 -6.001540e-08
3.286895e-08 -1.055156e-08 1.141055e-07 -2.149613e-08 1.269524e-08 -9.932617e-08
2.528194e-08 1.141009e-09 1.274047e-08 -2.889020e-08 1.684985e-08 -2.248484e-08
5.280851e-09 9.594212e-09 1.146953e-07 4.133285e-08 -5.287617e-08 -8.845379e-08
-7.509115e-08 4.207354e-07 7.540028e-08 9.277047e-08 -3.041758e-07 -1.082205e-07
-1.405582e-07 -1.016884e-08 2.522666e-07 -3.991800e-08 -3.054153e-08 -1.154648e-07
-7.446081e-08 1.179382e-07 1.446955e-08 5.612824e-08 -7.867539e-08 9.142300e-09
-3.853241e-08 3.255309e-07 -6.561224e-08 -7.993531e-08 -2.029371e-07 3.576559e-08
-1.739507e-07 -3.250410e-08 3.583378e-07 -8.815280e-08 6.218215e-08 -2.681300e-07
-1.222539e-07 8.714454e-08 4.100839e-08 -2.339891e-08 -1.117356e-08 6.543287e-08
-2.266982e-08 1.341834e-07 1.636252e-07 1.087967e-07 -1.754253e-07 -1.188368e-07
-6.467378e-08 3.631743e-08 1.000747e-07 3.232697e-08 -5.357425e-08 -4.652849e-08
-6.897798e-09 1.349859e-08 1.199922e-07 4.699733e-08 -4.933359e-08 -8.359472e-08
-3.236975e-08 -1.029017e-08 1.156637e-07 1.757167e-08 -2.949111e-08 -5.280841e-08
7.913376e-09 1.244974e-08 7.585034e-08 4.375829e-08 -3.825268e-08 -5.479418e-08
-1.314036e-08 6.761777e-08 -4.606403e-08 -1.569628e-08 -9.668885e-10 3.603584e-08
-1.266569e-07 1.048742e-07 2.229180e-08 1.586009e-08 -3.513222e-08 1.436755e-08
-8.652960e-09 4.188544e-08 4.811107e-08 5.107462e-08 -6.450482e-08 -1.061689e-07
6.709583e-08 8.777080e-08 1.345250e-08 -1.049211e-07 -5.791450e-08 6.602093e-08
-3.200172e-07 1.389840e-06 -7.104196e-07 -1.707258e-07 -8.556088e-07 -3.901300e-07
2.019569e-08 3.486100e-08 -1.220037e-07 2.356349e-08 -1.064427e-07 3.806949e-08
7.154225e-08 -8.192006e-08 -8.204910e-08 -2.199899e-08 -1.365345e-07 -9.023417e-09
5.199076e-08 1.442127e-07 -9.348680e-08 -1.031582e-07 -9.825103e-08 -8.816965e-08
4.899834e-08 3.259174e-08 -1.996859e-07 -6.049429e-08 -2.216343e-07 -6.105775e-08
-6.416460e-08 8.532090e-08 9.296432e-08 4.808231e-08 -8.741463e-08 -1.210283e-08
-1.590094e-07 2.030949e-07 -2.988018e-08 -5.255037e-08 9.218524e-08 -5.428424e-08
-5.233704e-09 1.233215e-08 9.592572e-08 4.521065e-08 -3.947740e-08 -5.235458e-08
-7.420245e-08 1.949366e-07 8.665215e-08 3.731342e-08 -1.057327e-07 -1.155314e-07
-2.535987e-08 4.556434e-09 -4.571897e-09 3.359559e-08 1.752968e-08 -1.842734e-08
2.818240e-10 9.202784e-08 -9.140125e-08 -1.677961e-08 -9.005573e-09 4.420164e-08
-3.889702e-08 3.336137e-08 -1.334279e-08 3.653644e-08 2.191385e-08 -2.796522e-08
-1.432869e-08 1.289320e-07 -7.783556e-08 -2.802669e-08 -6.009519e-09 3.468407e-08
-3.156325e-08 3.972020e-08 -5.633733e-09 5.351198e-09 -2.904169e-09 7.845050e-09
3.056373e-08 4.277327e-08 -1.136088e-07 -5.171345e-09 -8.738663e-08 1.600614e-08
-4.768724e-08 4.225171e-08 2.131666e-09 -2.027896e-09 -4.757372e-09 1.204767e-08
-3.692999e-08 -1.887858e-08 -8.506952e-08 1.792348e-07 -1.643324e-07 1.277945e-07
8.143280e-08 -1.731566e-07 -1.076900e-07 7.481692e-08 -2.588213e-07 9.452929e-08
-1.810124e-07 4.251047e-07 -5.837617e-08 -2.152838e-08 3.553186e-07 -1.423428e-07
3.963066e-08 -1.405214e-07 -3.460119e-08 -6.858162e-08 -1.234693e-07 -2.587936e-08
1.852436e-08 -4.010448e-08 -2.869383e-08 -3.440686e-08 -4.880238e-08 -1.367511e-08
4.429514e-08 8.753316e-08 1.982160e-08 7.765826e-08 7.638212e-08 4.136472e-08
1.159780e-07 -3.745457e-08 8.489721e-09 -2.322614e-08 -1.216532e-08 7.669238e-08
5.513648e-08 8.997273e-08 3.272961e-08 -8.388664e-08 -8.231339e-08 6.414550e-08
-4.445429e-08 1.020925e-07 -1.344728e-07 -5.921542e-08 -1.111509e-07 -7.204096e-08
-7.020776e-08 2.902891e-07 -2.105431e-07 -2.619576e-09 -6.522861e-08 -1.193298e-07
-7.288410e-08 3.161127e-07 -1.619634e-07 -2.986847e-08 -1.040600e-07 -9.591580e-08
-2.467623e-08 7.915028e-08 -1.382764e-07 -7.218121e-08 -1.214796e-07 -7.308846e-08
-1.492606e-08 2.974100e-08 -1.731109e-07 -3.545682e-08 -1.889825e-07 -6.902431e-08
-2.386398e-08 7.201830e-08 -1.780589e-07 -3.092388e-08 -1.673402e-07 -5.441409e-08
8.595769e-09 -4.135437e-09 -1.192525e-09 3.473194e-09 3.115488e-10 -4.451350e-11
8.908817e-09 -4.139441e-09 -1.095311e-09 3.183573e-09 2.935516e-10 5.997209e-10
9.083783e-09 -4.128022e-09 -1.051572e-09 3.381780e-09 2.710874e-10 1.711878e-10
7.681107e-09 -4.093486e-09 -1.142244e-09 3.342956e-09 2.533831e-10 -6.406609e-11
7.422980e-09 -4.113543e-09 -1.040335e-09 3.214812e-09 2.515008e-10 1.631302e-10
6.726894e-09 -3.675181e-09 -1.025549e-09 3.143565e-09 3.351528e-10 1.206576e-10
7.594887e-09 -3.965678e-09 -1.023380e-09 2.747036e-09 3.249219e-10 1.884488e-10
7.490282e-09 -4.283163e-09 -1.018889e-09 2.527953e-09 3.212580e-10 2.004521e-10
8.634231e-09 -4.412337e-09 -1.038589e-09 2.881529e-09 2.707870e-10 3.321052e-10
2.094843e-08 -5.841830e-09 -1.964060e-09 8.247707e-09 -3.446446e-10 -3.257006e-09
2.111510e-08 -5.932074e-09 -2.249278e-09 8.365194e-09 -7.763310e-11 -4.006321e-09
2.032647e-08 -3.957860e-09 -2.213839e-09 1.019504e-08 -7.818235e-10 -3.926863e-09
2.219480e-08 -7.315823e-09 -4.442668e-10 6.715077e-09 2.863821e-10 -4.855513e-09
2.198156e-08 -7.643986e-09 -5.603527e-10 6.424238e-09 1.650756e-11 -5.026054e-09
2.172087e-08 -7.758934e-09 -8.023813e-10 6.699853e-09 1.908042e-10 -5.538353e-09
1.779584e-08 3.150244e-08 8.202465e-08 -4.584060e-08 4.376960e-08 -9.152567e-08
2.122249e-08 2.552828e-08 4.759130e-08 -3.014267e-08 2.940190e-08 -5.609363e-08
2.953549e-08 2.637169e-08 5.000154e-08 -4.025093e-08 2.405394e-08 -5.161669e-08
3.841866e-08 3.499038e-08 4.725598e-08 -5.421659e-08 4.992149e-08 -6.385820e-08
4.181895e-08 4.241427e-08 3.978388e-08 -4.867550e-08 4.286126e-08 -6.589767e-08
3.111709e-08 3.528285e-08 5.599023e-08 -6.048745e-08 4.164213e-08 -5.585557e-08
5.731508e-08 -2.803057e-09 1.256489e-07 -2.659944e-08 4.493268e-08 -1.390477e-07
1.106732e-07 7.410614e-10 1.238417e-07 -5.143624e-08 3.482470e-08 -1.290199e-07
9.473163e-08 -3.614563e-08 1.242016e-07 -2.573602e-08 3.796100e-08 -1.300955e-07
-1.595094e-08 1.067446e-07 7.206875e-08 -5.328225e-08 2.789105e-08 -4.756763e-08
-7.873929e-09 9.618944e-08 7.190150e-08 -4.710201e-08 3.227184e-08 -5.452686e-08
1.187667e-08 1.275786e-07 1.825354e-07 -2.212748e-08 -2.671102e-08 -1.013011e-07
4.884978e-08 3.184615e-08 8.510847e-08 -4.146533e-08 4.102998e-08 -1.049033e-07
1.621424e-08 3.314602e-08 4.935495e-08 -3.508769e-08 3.875631e-08 -6.566200e-08
2.587070e-08 2.213831e-08 4.746026e-08 -3.465268e-08 2.873390e-08 -5.690251e-08
4.890329e-08 2.712204e-08 3.072722e-08 -3.438333e-08 2.348377e-08 -6.830473e-08
2.380581e-08 2.692854e-08 3.719144e-08 -3.215129e-08 2.373372e-08 -7.328727e-08
5.958919e-08 2.600802e-08 7.397790e-08 -3.688530e-08 2.540888e-08 -1.136135e-07
-4.858648e-08 4.572694e-07 -2.470542e-07 -1.346280e-07 -1.371375e-08 -2.252699e-09
-4.277792e-08 2.866144e-07 -8.768853e-08 -1.772519e-07 1.036683e-07 -3.579021e-08
-1.205445e-07 2.205341e-07 1.083636e-07 -7.310010e-08 6.649845e-08 -1.141121e-07
8.694344e-09 -4.830937e-09 -1.066887e-09 3.067030e-09 3.114408e-10 2.014748e-10
8.591564e-09 -4.615884e-09 -1.139605e-09 2.938917e-09 4.332232e-10 2.882232e-10
8.871766e-09 -4.781082e-09 -1.143743e-09 2.970616e-09 4.014367e-10 3.181166e-10
4.192604e-08 -1.013921e-08 -2.383850e-09 1.900431e-09 1.363057e-09 -1.415423e-08
3.880450e-08 -1.246986e-08 -1.656600e-09 -1.577696e-09 1.091339e-09 -1.581282e-08
3.986341e-08 -1.329267e-08 -7.616161e-10 -1.221900e-09 2.503936e-09 -1.441703e-08
-6.463844e-08 1.270363e-07 -1.010144e-07 -2.138542e-08 -5.455987e-08 -1.185059e-07
-6.749732e-08 1.323694e-07 -8.630496e-08 -3.258624e-08 -6.378815e-08 -9.336006e-08
-3.636275e-08 5.252903e-08 -3.424163e-08 8.995762e-10 -3.977056e-08 -5.167829e-08
9.093603e-08 2.426325e-08 -2.994003e-07 -7.568981e-08 -3.146890e-07 -2.478663e-08
5.093420e-08 2.277911e-08 -3.064198e-07 -8.393983e-08 -3.185965e-07 -5.088315e-08
1.174407e-07 -9.946885e-08 -2.037425e-07 3.880066e-08 -2.806056e-07 5.835780e-08
6.597054e-08 2.437611e-08 -2.785330e-07 -7.568136e-08 -3.162298e-07 -2.694764e-08
6.511551e-08 -1.480891e-08 -2.073743e-07 -6.946586e-08 -2.395415e-07 -4.449279e-08
2.150535e-08 5.178345e-09 -2.070333e-07 -3.194514e-08 -2.517004e-07 -3.895122e-08
1.526542e-09 2.059815e-07 -4.307376e-07 -8.090982e-08 -2.016245e-07 -1.058700e-07
1.042281e-09 2.788106e-07 -3.419423e-07 -8.427343e-08 -1.188075e-07 -1.078400e-07
-4.775075e-09 2.464459e-07 -2.968667e-07 -3.199238e-08 -1.237777e-07 -3.977308e-08
1.193038e-08 -5.516169e-09 -1.765667e-09 3.935453e-09 2.222530e-10 1.389340e-10
1.243125e-08 -5.730398e-09 -1.798159e-09 3.608945e-09 3.058396e-10 2.553253e-10
1.282406e-08 -6.171671e-09 -1.820435e-09 2.779416e-09 1.708489e-10 -1.911304e-10
1.078728e-08 -4.875372e-09 -1.543569e-09 3.941964e-09 2.080895e-10 2.086658e-10
1.072223e-08 -4.802515e-09 -1.478404e-09 3.918565e-09 3.691336e-10 3.022044e-10
1.059863e-08 -4.796931e-09 -1.202111e-09 3.922990e-09 3.298539e-10 2.702402e-10
6.532069e-09 -3.520622e-09 -9.218222e-10 2.829377e-09 1.072397e-10 2.565814e-11
6.697626e-09 -3.623369e-09 -9.636378e-10 2.838929e-09 2.000909e-10 1.007315e-10
6.788621e-09 -3.524940e-09 -8.636829e-10 2.946559e-09 9.174206e-11 -4.045542e-11
-9.421949e-08 3.642096e-07 -3.428497e-07 -1.174065e-07 -7.576418e-08 -1.640190e-07
-4.379795e-08 1.984780e-07 -1.418643e-07 -2.763825e-08 2.753393e-08 -2.860064e-08
-5.244205e-08 2.071347e-07 -9.716972e-08 -1.944973e-08 7.640376e-09 -4.332536e-08
6.972905e-08 -2.849634e-10 2.057244e-08 -3.637844e-08 2.704967e-08 -6.449506e-08
6.855179e-08 5.795143e-09 1.321966e-08 -3.557227e-08 2.030776e-08 -6.102527e-08
6.910617e-08 -4.337741e-09 3.010176e-08 -4.216089e-08 2.566314e-08 -6.730924e-08
6.265774e-08 -8.492302e-09 4.637727e-09 -4.732057e-09 3.128950e-09 -4.379494e-08
5.107439e-08 -8.315675e-09 1.172269e-08 -2.029708e-09 1.622410e-09 -4.937643e-08
4.974244e-08 -1.176099e-08 2.017833e-08 3.836729e-09 1.411140e-09 -5.757898e-08
3.463807e-08 1.447008e-07 -2.481470e-07 -7.215503e-08 -1.623743e-07 -9.461964e-08
7.664356e-08 3.459456e-07 -3.547376e-07 2.388964e-08 -8.533505e-08 -3.501650e-08
1.663319e-08 3.577553e-07 -3.204666e-07 1.256512e-08 -1.165384e-07 -6.352528e-08
8.963511e-08 1.799142e-07 -3.605866e-07 -7.613594e-08 -1.614983e-07 -1.509079e-08
-8.033929e-09 1.795311e-07 -3.212767e-07 -5.834350e-08 -1.652505e-07 -7.624843e-08
1.470380e-08 1.892673e-07 -3.839045e-07 -7.466550e-08 -1.530648e-07 -7.769823e-08
7.922545e-09 8.834440e-08 -1.729883e-07 -1.109293e-07 -2.109366e-07 -7.313541e-08
1.866425e-08 -1.317369e-07 -1.509460e-07 -2.802386e-07 -2.090085e-07 -1.274210e-07
-3.811778e-08 -4.063183e-08 -1.521908e-07 -1.311464e-07 -1.964744e-07 -7.702488e-08
-4.463154e-08 1.623431e-07 -7.532999e-08 -1.090889e-08 1.245082e-08 4.268837e-08
-6.174196e-08 1.273603e-07 -5.438981e-08 -3.584627e-08 -1.693895e-08 2.725113e-08
-6.931034e-08 1.818282e-07 -6.914954e-08 -3.775356e-08 9.915132e-09 4.093203e-08
-2.302192e-08 7.498522e-08 -1.655735e-07 7.316954e-08 -1.445387e-07 1.167036e-07
4.978373e-08 1.036677e-07 -4.710949e-08 -4.974124e-08 -5.361853e-08 4.660600e-09
-2.928226e-08 -5.907293e-08 -1.159516e-07 7.346478e-08 -1.607469e-07 9.064737e-08
-5.089908e-08 8.715863e-08 1.971828e-08 -1.301775e-08 2.853853e-08 2.205478e-08
-5.508937e-08 8.267224e-08 -1.176004e-08 7.172647e-09 -6.713091e-09 3.482575e-08
2.398492e-08 6.259571e-08 6.190591e-08 -1.210046e-08 7.036258e-09 -4.201309e-08
5.279545e-08 -1.155828e-08 -1.095748e-09 -8.469352e-09 3.750928e-09 -2.130009e-08
3.863435e-08 -9.275304e-09 1.006159e-09 -3.368498e-09 4.581262e-10 -2.043151e-08
4.349276e-08 -5.125800e-09 -9.430158e-10 -1.469515e-08 3.281879e-09 -1.809599e-08
4.536461e-08 -1.164683e-08 5.195417e-09 8.670590e-09 -7.410307e-10 -2.470490e-08
4.181828e-08 -1.174725e-08 5.356312e-09 1.001647e-08 -1.110245e-09 -2.444737e-08
4.503894e-08 -1.116596e-08 9.558605e-09 8.278579e-09 4.686096e-10 -2.875536e-08
2.836373e-08 -8.393410e-09 -2.018522e-09 6.693666e-09 -3.316495e-10 -8.110433e-09
2.810222e-08 -8.283616e-09 -2.525691e-09 6.832494e-09 -2.820235e-10 -7.566581e-09
2.764065e-08 -1.004289e-08 -5.351088e-10 5.816266e-09 -2.663870e-10 -8.057255e-09
3.079253e-08 -7.981194e-09 -4.730490e-09 5.131754e-09 2.900398e-10 -6.030298e-09
3.147400e-08 -8.128228e-09 -4.463529e-09 1.542804e-09 9.423518e-10 -6.813095e-09
3.155665e-08 -9.547666e-09 -2.178931e-09 1.391086e-09 1.070242e-09 -6.322964e-09
9.615182e-08 -1.049289e-08 6.158278e-08 -3.179606e-08 3.084078e-08 -1.236221e-07
5.324735e-08 -1.275804e-08 1.205838e-07 -1.418664e-08 2.087776e-08 -1.444772e-07
8.952540e-08 -1.286874e-08 1.035700e-07 -1.422856e-08 1.949797e-08 -1.475891e-07
5.991156e-09 -3.061609e-09 -9.242376e-10 3.490853e-09 3.512897e-10 2.326697e-10
5.951842e-09 -2.774481e-09 -8.753009e-10 3.846598e-09 2.318932e-10 6.624923e-11
5.746573e-09 -2.815217e-09 -8.217700e-10 3.738620e-09 2.768170e-10 2.766747e-10
5.356306e-09 -2.793119e-09 -7.662468e-10 3.478311e-09 3.653804e-10 3.622089e-11
4.697675e-09 -2.696153e-09 -7.410508e-10 3.074999e-09 3.883225e-10 1.975913e-10
4.801759e-09 -2.928843e-09 -7.361289e-10 3.123195e-09 3.771286e-10 1.749527e-10
2.047134e-08 8.349230e-08 -1.798720e-07 -6.957524e-08 -2.217443e-07 -6.023275e-08
1.623290e-08 3.653307e-08 -1.938908e-07 -3.915035e-08 -2.505571e-07 -3.403937e-08
1.397090e-08 -1.951443e-07 -2.013740e-07 2.011242e-08 -2.924240e-07 -2.229760e-08
-4.871603e-09 2.273906e-07 -3.491925e-07 -8.758130e-08 -1.400417e-07 -1.535277e-07
-6.263671e-09 1.900625e-07 -2.612921e-07 -8.191846e-09 -1.277282e-07 -5.562176e-08
-1.215659e-07 4.928062e-07 -3.057339e-07 -4.041444e-08 -2.047394e-08 -1.659726e-07
1.480053e-08 -6.071794e-09 -1.612837e-09 4.060879e-09 7.070279e-10 -6.085085e-10
1.536190e-08 -6.186416e-09 -1.601500e-09 3.981165e-09 5.904827e-10 -4.065674e-10
1.507976e-08 -6.153604e-09 -1.836679e-09 3.799879e-09 5.508028e-10 -7.902560e-10
3.808318e-08 -5.341909e-09 -3.820768e-09 1.052288e-08 -6.733078e-10 -1.686337e-08
3.838606e-08 -6.102606e-09 -2.710704e-09 9.403467e-09 -6.767242e-10 -1.539706e-08
3.405015e-08 -6.131217e-09 -4.227900e-10 1.027068e-08 -1.003524e-09 -1.698736e-08
4.224569e-08 -1.049634e-08 -4.246355e-09 2.021770e-09 2.525092e-09 -1.538111e-08
4.394231e-08 -8.577805e-09 -4.264733e-09 -2.850226e-09 2.434206e-09 -1.564241e-08
4.363468e-08 -1.106105e-08 -2.943131e-09 -4.491863e-09 1.391597e-09 -1.516200e-08
6.066311e-08 -9.494315e-09 -7.850884e-10 7.189712e-09 -9.492208e-10 -3.471919e-08
5.938870e-08 -1.123792e-08 4.914453e-09 9.377832e-09 -1.170176e-09 -3.734507e-08
5.032500e-08 -1.112259e-08 9.619905e-09 9.671176e-09 -1.914444e-09 -4.021749e-08
2.356396e-08 -7.616796e-09 -1.505214e-09 7.222735e-09 5.178004e-10 -6.329167e-09
2.438183e-08 -7.931521e-09 -2.084217e-10 7.229550e-09 2.706943e-10 -7.428129e-09
2.463632e-08 -7.701534e-09 4.970326e-10 6.984711e-09 -1.321948e-10 -6.997813e-09
5.491204e-08 -1.029390e-08 3.571518e-09 1.122557e-08 -1.544796e-09 -3.460386e-08
5.479598e-08 -1.153949e-08 6.785497e-09 1.172540e-08 -2.044910e-09 -3.386597e-08
4.721369e-08 -1.155562e-08 1.023018e-08 1.208773e-08 -1.949544e-09 -3.749955e-08
3.566240e-08 -8.127140e-09 -4.380599e-09 1.325066e-09 9.525191e-10 -8.157303e-09
3.517452e-08 -9.399301e-09 -2.590490e-09 5.274791e-10 1.189067e-09 -7.859615e-09
3.557079e-08 -9.764612e-09 -2.358216e-09 4.941984e-10 1.964870e-09 -8.655326e-09
3.940554e-08 -8.292608e-09 -1.985493e-09 8.603533e-09 -4.339164e-10 -1.630162e-08
3.893715e-08 -9.756796e-09 8.314921e-10 7.522449e-09 -6.745031e-10 -1.744991e-08
3.524498e-08 -9.717171e-09 3.216536e-09 7.286893e-09 -3.583336e-10 -2.016681e-08
-4.524677e-08 5.353269e-08 -7.254605e-08 -5.642236e-08 -5.630032e-08 -7.891028e-08
-4.907500e-08 5.145288e-08 -6.108310e-08 -5.304670e-08 -5.800515e-08 -8.075066e-08
-4.410897e-08 6.342450e-08 -7.680359e-08 -6.829032e-08 -7.045037e-08 -8.524934e-08
5.774010e-08 -1.351708e-09 2.332238e-08 -3.058967e-08 2.561536e-08 -6.624454e-08
5.599434e-08 -2.676470e-09 3.029327e-08 -3.284251e-08 2.284581e-08 -6.579577e-08
2.683096e-08 -1.102553e-08 8.243290e-08 -1.097467e-08 2.031706e-08 -9.773834e-08
1.320204e-08 -6.157950e-09 -2.051118e-09 3.903672e-09 5.146109e-10 -1.545338e-10
1.334083e-08 -6.180649e-09 -1.741064e-09 4.029722e-09 5.808698e-10 1.273610e-10
1.401702e-08 -6.263134e-09 -2.009321e-09 3.350811e-09 3.923225e-10 -4.148860e-10
9.472817e-08 -8.738408e-09 -5.624578e-10 4.134075e-09 8.965129e-10 -5.882417e-08
9.703035e-08 -1.115974e-08 1.770235e-09 1.485337e-08 -3.133611e-09 -6.219185e-08
9.339154e-08 -1.404110e-08 1.487541e-08 1.958418e-08 -5.044817e-09 -6.675707e-08
3.440357e-08 -9.110807e-09 1.501039e-09 6.554402e-09 5.320414e-10 -1.310698e-08
3.263263e-08 -1.005234e-08 1.229010e-09 5.831215e-09 -1.466642e-10 -1.230313e-08
3.253898e-08 -8.618053e-09 -1.560391e-09 6.766106e-09 1.341959e-10 -1.070595e-08
6.548646e-08 -8.873374e-09 6.116995e-09 -1.645338e-08 1.191980e-08 -3.715720e-08
6.325746e-08 -6.240824e-09 3.723019e-09 -1.660533e-08 8.553069e-09 -3.309089e-08
6.511052e-08 -5.290618e-09 -7.798347e-10 -1.496944e-08 7.767223e-09 -3.221587e-08
5.908702e-08 1.620618e-08 -8.255787e-09 -3.848325e-08 2.416230e-08 -4.676000e-08
5.287421e-08 4.586304e-08 1.031929e-08 -6.892944e-08 5.006600e-08 -6.103374e-08
4.569563e-08 3.016185e-08 1.052954e-08 -5.743113e-08 3.487347e-08 -4.560480e-08
-3.509501e-08 -3.185828e-09 -1.571836e-08 -5.555441e-08 -5.142505e-08 -4.118200e-08
-2.926352e-08 1.430680e-08 -1.422695e-08 -4.536979e-08 -4.040787e-08 -3.549906e-08
-2.997596e-08 9.872602e-09 -1.400839e-08 -4.243459e-08 -4.007775e-08 -3.517060e-08
-9.832914e-09 2.729901e-07 -2.824723e-07 -5.283885e-08 -1.117232e-07 -3.886068e-08
-5.818401e-08 2.767199e-07 -2.699753e-07 -4.494615e-08 -1.045469e-07 -1.444191e-08
2.066054e-08 2.225776e-07 -2.887512e-07 -4.581509e-08 -4.867589e-08 4.182568e-08
-1.459974e-09 2.185104e-07 -2.316754e-07 -6.236427e-08 -9.151385e-08 1.912021e-08
-1.124330e-07 2.438609e-07 -2.230656e-07 -9.107806e-08 -1.354531e-07 -2.956405e-08
-7.178918e-08 1.452682e-07 -3.940587e-08 -1.195577e-07 -5.191833e-08 -1.169438e-07
6.705902e-09 -3.206672e-09 -1.030691e-09 4.324136e-09 3.601994e-10 4.709710e-11
6.663885e-09 -3.060979e-09 -1.075185e-09 4.087948e-09 4.083346e-10 1.292593e-10
6.635538e-09 -3.249874e-09 -9.753456e-10 4.161890e-09 4.970290e-10 1.037312e-10
4.834411e-08 -1.273081e-08 8.434397e-10 -9.380432e-10 1.149779e-09 -2.123951e-08
4.669574e-08 -1.331090e-08 2.386972e-09 4.531659e-10 2.081952e-09 -2.120919e-08
4.885132e-08 -1.246940e-08 3.206503e-09 -1.194614e-09 2.971968e-09 -2.259079e-08
2.635860e-08 -7.964496e-09 -2.780026e-09 3.288407e-09 6.447236e-10 -4.134720e-09
2.645238e-08 -8.025909e-09 -1.865692e-09 3.328669e-09 8.629055e-10 -3.827171e-09
2.548292e-08 -7.658123e-09 -1.884188e-09 3.512064e-09 1.347315e-09 -4.420187e-09
3.970151e-08 -1.128870e-08 1.876512e-09 7.946476e-09 -8.625444e-10 -1.836831e-08
3.926703e-08 -1.131072e-08 2.221406e-09 7.819524e-09 -1.057464e-09 -1.870734e-08
3.945666e-08 -1.158574e-08 4.426853e-09 1.006057e-08 -1.494857e-09 -2.245948e-08
4.859581e-08 -1.151152e-08 3.809429e-09 -7.743393e-10 1.932757e-09 -2.352711e-08
3.889801e-08 -1.435887e-08 1.984013e-09 -3.853295e-09 2.906269e-09 -1.938050e-08
5.078737e-08 -1.481920e-08 4.965627e-09 -3.688610e-09 2.671886e-09 -2.538360e-08
1.840080e-08 -6.702681e-09 -1.431624e-09 5.750674e-09 8.620829e-11 -2.174188e-09
1.713752e-08 -6.732317e-09 -1.257292e-09 6.073495e-09 3.232307e-11 -2.370525e-09
1.774300e-08 -6.558740e-09 -8.755920e-10 5.749156e-09 2.898230e-10 -2.852094e-09
7.326509e-08 -7.632206e-09 2.492000e-08 -6.102351e-09 7.495469e-10 -6.687610e-08
7.544113e-08 -6.019417e-09 2.313121e-08 -7.977902e-09 1.411399e-09 -6.754355e-08
9.428647e-08 -1.090208e-08 2.958558e-08 3.038126e-09 4.850048e-09 -9.499625e-08
2.606933e-08 -5.092096e-09 -3.233997e-09 9.805705e-09 -7.414286e-10 -7.152593e-09
2.592085e-08 -5.585869e-09 -2.084522e-09 1.007968e-08 -6.781758e-10 -7.251711e-09
2.713659e-08 -5.577638e-09 -2.849837e-09 9.978146e-09 -7.133150e-10 -7.002031e-09
2.170513e-08 -4.892656e-09 -3.025780e-09 1.078630e-08 -4.003852e-10 -4.330982e-09
2.175348e-08 -5.324913e-09 -2.421957e-09 1.065987e-08 -1.482921e-10 -4.510367e-09
2.410910e-08 -6.399274e-09 -2.024029e-09 9.860288e-09 -2.370390e-11 -5.520730e-09
1.534528e-08 -6.329892e-09 -2.222086e-09 4.798842e-09 5.854341e-10 -6.344661e-10
1.448825e-08 -6.634520e-09 -2.055425e-09 4.232299e-09 3.346857e-10 -1.371633e-09
1.408739e-08 -6.637294e-09 -1.694071e-09 4.268020e-09 3.475152e-10 -1.694449e-09
-2.304335e-08 2.545924e-08 -2.222633e-08 -2.169832e-08 -2.789319e-08 -3.647167e-08
-2.739562e-08 2.518754e-08 -1.884978e-08 -1.977955e-08 -2.685580e-08 -3.558247e-08
-2.526689e-08 3.300264e-08 -2.254880e-08 -1.552209e-08 -2.281063e-08 -3.442960e-08
1.603408e-08 -5.519505e-09 -2.333656e-09 6.261203e-09 5.246344e-10 -2.683022e-10
1.523686e-08 -5.302257e-09 -1.901052e-09 6.702224e-09 2.109188e-10 -1.091041e-09
1.525012e-08 -4.969770e-09 -2.267648e-09 6.778133e-09 2.635322e-10 -1.118123e-09
-2.116687e-08 2.814840e-08 -2.073032e-08 -1.944993e-08 -2.542683e-08 -3.446049e-08
-2.512339e-08 2.746654e-08 -1.820315e-08 -1.747189e-08 -2.500004e-08 -3.346734e-08
-3.685056e-08 3.528846e-08 -3.214012e-08 -3.693803e-08 -3.904731e-08 -4.705307e-08
1.782198e-08 -6.735009e-09 -2.129000e-09 5.606161e-09 2.377341e-10 -1.467468e-09
1.846683e-08 -6.757842e-09 -1.574187e-09 6.009235e-09 1.317159e-10 -2.443662e-09
1.839562e-08 -6.734483e-09 -1.966388e-09 5.827056e-09 2.037013e-10 -2.047918e-09
1.467024e-07 5.342250e-08 -2.036246e-07 1.099094e-08 -2.060581e-07 1.516803e-08
1.080075e-07 -2.561925e-07 -2.011848e-07 1.237436e-07 -3.360983e-07 7.414457e-08
9.869123e-08 -2.726665e-07 -2.013356e-07 7.817764e-08 -3.394970e-07 7.275854e-08
-7.686363e-08 7.450007e-07 -7.682312e-07 -7.561814e-08 -3.596545e-08 -3.322009e-07
-1.359514e-07 3.625266e-07 6.470395e-08 -2.565687e-07 2.133662e-07 -3.767240e-07
9.234462e-09 7.980647e-08 -2.754207e-07 -4.871911e-08 -1.000208e-07 -9.983073e-08
-1.850791e-08 2.717793e-07 -3.227440e-07 -5.878665e-08 -1.244177e-07 -1.354499e-07
2.381673e-08 1.639280e-07 -3.088818e-07 -4.148551e-08 -1.603535e-07 -6.860804e-08
-1.645721e-08 2.515380e-07 -3.678261e-07 -1.280871e-07 -1.477912e-07 -1.684705e-07
-1.839485e-08 2.723280e-07 -3.353639e-07 -6.721119e-08 -1.159919e-07 -1.293469e-07
2.159649e-08 2.066382e-07 -3.080472e-07 -4.711016e-08 -1.539640e-07 -7.004869e-08
-6.859667e-09 2.181370e-07 -2.575382e-07 -5.898200e-08 -1.290306e-07 -1.078225e-07
-8.158049e-09 1.448914e-07 -2.615836e-07 -7.698076e-08 -1.681414e-07 -1.246867e-07
-1.765801e-08 2.595667e-07 -3.714338e-07 -8.209564e-08 -1.550599e-07 -1.581814e-07
5.714539e-08 2.273079e-07 -3.093088e-07 -5.373964e-08 -1.484013e-07 -5.281299e-08
7.225080e-09 2.189005e-07 -3.215097e-07 -2.021290e-08 -1.593280e-07 3.703708e-09
1.648612e-08 2.018323e-07 -3.533504e-07 -1.803698e-08 -1.846428e-07 1.430782e-08
-3.602330e-08 3.082531e-08 -3.797136e-08 -6.546561e-08 -7.247717e-08 -7.875865e-08
-6.688205e-09 -2.106388e-08 -3.887498e-08 -5.396366e-08 -8.200499e-08 -7.145339e-08
-6.440837e-10 -4.769434e-08 -3.514047e-08 -6.119778e-08 -9.721207e-08 -6.561131e-08
-1.225065e-08 7.245368e-08 -9.653962e-08 -1.002789e-07 -9.596947e-08 -1.006009e-07
3.714206e-09 -1.262094e-08 -1.095190e-07 -1.065598e-07 -1.370957e-07 -1.142854e-07
-9.858713e-09 -5.297027e-09 -1.058034e-07 -1.176424e-07 -1.430201e-07 -9.960460e-08
9.398980e-09 -4.775347e-09 -1.674397e-09 4.371759e-09 4.536687e-10 -3.069600e-10
9.400305e-09 -4.732907e-09 -1.333857e-09 4.433149e-09 3.298077e-10 -4.433243e-10
8.929895e-09 -4.748760e-09 -1.227184e-09 4.288046e-09 3.453823e-10 2.267219e-11
1.149993e-08 -4.896802e-09 -1.668592e-09 4.563070e-09 4.258058e-10 -4.342455e-10
1.095165e-08 -4.919272e-09 -1.322312e-09 4.742664e-09 4.155456e-10 -9.102354e-10
1.052100e-08 -4.980008e-09 -1.177176e-09 4.915517e-09 3.889050e-10 -7.363886e-10
6.798315e-09 -3.483458e-09 -1.040792e-09 4.303036e-09 2.456503e-10 9.758350e-11
6.845093e-09 -3.552778e-09 -9.984100e-10 4.374287e-09 4.133001e-10 1.571034e-10
7.232856e-09 -3.681700e-09 -1.046252e-09 4.394201e-09 3.309067e-10 2.132183e-10
1.146136e-07 -7.229831e-08 -2.617495e-07 -1.013335e-07 -3.262704e-07 -6.236204e-08
1.336665e-07 -3.759554e-07 -1.190075e-07 -5.244814e-08 -2.850588e-07 -5.801588e-09
1.363831e-07 -1.860325e-07 -1.513540e-07 -2.947877e-08 -2.289729e-07 -7.499655e-10
-3.810460e-08 9.064896e-08 -2.131197e-08 -2.418726e-08 -5.890275e-08 -6.493990e-09
-3.063384e-08 7.527485e-08 6.174917e-08 -4.466173e-08 2.659790e-09 -4.595600e-08
-4.981837e-08 9.793763e-08 -1.327762e-08 -5.590532e-08 -3.998721e-09 1.008820e-09
-7.471657e-08 2.050186e-07 -7.500305e-08 -8.663529e-08 -1.151096e-07 -1.097813e-07
-3.157720e-08 7.169176e-07 -1.114135e-07 -2.352468e-07 2.869563e-07 -2.252290e-07
-3.214591e-08 1.508602e-07 2.665656e-07 -1.471844e-07 1.241533e-07 -2.745888e-07
-3.955241e-08 5.998196e-08 -3.232592e-08 -2.176844e-08 -2.304893e-08 -4.201790e-08
-3.675772e-08 3.518298e-08 -2.985936e-08 -2.015832e-08 -2.635109e-08 -3.890075e-08
-3.669821e-08 8.951123e-08 -4.636322e-08 7.310847e-10 -1.781752e-08 -4.754702e-08
1.055776e-07 -6.368536e-08 -2.778710e-07 -1.220165e-07 -3.502238e-07 -7.453320e-08
7.521147e-08 -1.660191e-07 -2.463026e-07 -1.209701e-07 -3.328167e-07 -7.724648e-08
6.783928e-08 3.232765e-08 -2.147216e-07 -3.301411e-08 -2.407717e-07 -5.915239e-08
6.937444e-09 -3.558018e-09 -9.558780e-10 4.295675e-09 4.624700e-10 9.423867e-11
6.895282e-09 -3.680194e-09 -1.049282e-09 4.465494e-09 3.035159e-10 2.329797e-10
6.697761e-09 -3.677808e-09 -1.097523e-09 4.472884e-09 2.769940e-10 4.258039e-10
9.218459e-09 -4.067422e-09 -1.325779e-09 5.083401e-09 5.263978e-10 -4.910509e-11
9.141959e-09 -3.577798e-09 -1.478368e-09 5.091308e-09 4.854990e-10 5.957024e-11
9.107267e-09 -3.574032e-09 -1.227672e-09 5.073540e-09 4.095888e-10 2.830858e-11
2.728977e-08 -8.148870e-09 -1.906242e-09 4.365135e-09 4.632116e-10 -5.156488e-09
2.777794e-08 -8.805657e-09 -1.893629e-09 3.930587e-09 -4.269156e-10 -4.773027e-09
2.717040e-08 -8.084561e-09 -1.317413e-09 1.545734e-09 5.474806e-10 -5.487602e-09
1.770786e-08 -6.850049e-09 -2.458001e-09 4.807694e-09 4.761401e-10 -7.592942e-10
1.790872e-08 -6.833265e-09 -2.455473e-09 4.659290e-09 4.883829e-10 -7.831928e-10
1.736991e-08 -6.666743e-09 -2.443046e-09 3.472006e-09 4.426991e-10 -4.266320e-10
1.861606e-08 -5.475688e-09 -2.491041e-09 7.058637e-09 6.193460e-10 -1.927241e-09
1.745113e-08 -5.675863e-09 -2.175526e-09 7.636794e-09 3.837120e-10 -1.793819e-09
1.610399e-08 -4.700863e-09 -2.196577e-09 8.863761e-09 5.205642e-10 -1.962775e-09
1.415916e-08 -4.863715e-09 -1.853294e-09 7.232492e-09 4.367011e-10 -4.749352e-10
1.390137e-08 -4.216123e-09 -2.007525e-09 7.719227e-09 7.702209e-10 -6.751466e-10
1.373906e-08 -4.299485e-09 -1.905509e-09 7.424484e-09 7.814824e-10 -3.335101e-10
3.128719e-08 6.916604e-08 -1.707428e-07 -1.356599e-07 -1.722224e-07 -1.088492e-07
7.038586e-08 -5.977486e-08 -2.073466e-07 -8.583635e-08 -2.620971e-07 -1.131019e-07
9.144076e-08 -1.678735e-07 -2.692540e-07 -1.130506e-07 -3.788160e-07 -1.001860e-07
-3.676699e-08 3.556324e-08 -1.023399e-07 -6.486273e-08 -1.145482e-07 -8.857233e-08
-1.286170e-07 1.037530e-07 -9.092585e-08 -1.098674e-07 -7.731492e-08 -1.460671e-07
-1.028502e-07 1.305338e-07 -1.479189e-07 -8.217762e-08 -8.824276e-08 -1.706297e-07
5.567270e-08 7.377167e-08 5.892137e-08 -7.193238e-08 3.553393e-08 -1.125496e-07
8.362076e-08 2.239160e-07 -1.037171e-07 -1.437990e-07 1.126620e-07 -1.133455e-07
8.000810e-08 -1.053257e-08 1.003712e-07 -9.352604e-08 1.422735e-07 -1.582903e-07
1.329825e-08 -5.648186e-09 -1.506371e-09 4.154565e-09 2.202862e-10 1.669976e-11
1.255413e-08 -5.592265e-09 -1.932948e-09 3.986302e-09 4.906432e-10 6.755484e-10
1.309795e-08 -6.270050e-09 -1.907115e-09 2.800263e-09 3.355208e-10 3.293373e-12
1.090773e-08 -3.871222e-09 -1.739055e-09 6.159414e-09 5.311720e-10 -3.673810e-10
1.095631e-08 -4.054393e-09 -1.583221e-09 5.977657e-09 6.719088e-10 1.809645e-11
1.039290e-08 -4.127309e-09 -1.395261e-09 6.276684e-09 6.041101e-10 -1.117723e-10
5.235496e-09 -2.797999e-09 -6.790334e-10 3.453431e-09 3.720281e-10 4.597045e-11
5.149170e-09 -2.712624e-09 -6.361129e-10 3.525091e-09 4.336240e-10 1.125958e-10
5.077587e-09 -2.696153e-09 -6.490710e-10 3.047831e-09 4.153919e-10 -3.783197e-11
2.233379e-08 4.663975e-07 -1.197362e-07 -1.797018e-07 2.056409e-08 -1.569324e-07
-1.167941e-07 2.502622e-07 1.702335e-07 -1.184731e-07 1.552447e-07 -3.648911e-07
-5.550456e-08 6.501084e-07 -3.010792e-07 -2.760617e-07 9.551882e-08 -3.611934e-07
7.174376e-08 8.831302e-07 -6.253012e-07 -4.248501e-07 8.290856e-08 -2.166123e-07
-5.807248e-08 4.598721e-07 2.674912e-08 -9.268615e-08 2.364732e-07 -3.279536e-08
-2.934297e-07 7.705970e-07 -1.399018e-07 -2.132308e-07 2.969192e-07 -2.805961e-07
-4.296718e-08 2.092729e-07 -2.186768e-07 -8.049896e-08 -1.857632e-07 -8.035526e-08
-1.497314e-07 7.300076e-07 -2.290167e-07 -1.306124e-07 2.250761e-07 -2.432913e-07
-2.523169e-08 5.047434e-08 -2.361240e-07 -1.046254e-07 -1.215811e-07 -8.408621e-08
6.355598e-09 -3.187409e-09 -9.924035e-10 3.757308e-09 5.072316e-10 1.596466e-10
5.655593e-09 -3.023349e-09 -9.920392e-10 3.836949e-09 4.896073e-10 1.846923e-10
5.978489e-09 -3.058099e-09 -9.098069e-10 4.086455e-09 4.833158e-10 -1.899986e-10
-2.199831e-08 -3.237193e-08 -7.165447e-08 -1.172132e-07 -1.468581e-07 -9.538466e-08
-8.495121e-09 -4.617119e-08 -7.210170e-08 -1.294086e-07 -1.441375e-07 -9.150882e-08
-7.286171e-09 -3.807576e-08 -8.007323e-08 -1.236677e-07 -1.573015e-07 -9.167429e-08
1.365790e-08 -4.873984e-09 -1.288449e-09 6.186626e-09 3.180159e-10 -1.417429e-09
1.388529e-08 -5.093464e-09 -1.414014e-09 6.309595e-09 8.937339e-11 -1.106656e-09
1.334207e-08 -5.576788e-09 -1.262245e-09 5.655276e-09 7.099299e-11 -9.029931e-10
1.243532e-08 -4.942012e-09 -1.745658e-09 5.399844e-09 2.855687e-10 -1.513905e-10
1.240364e-08 -4.945409e-09 -1.902538e-09 5.197636e-09 2.452106e-10 -1.735406e-10
1.254679e-08 -5.102538e-09 -1.538191e-09 5.314649e-09 1.734411e-10 -4.225066e-10
6.987484e-09 -3.670289e-09 -1.042487e-09 3.083680e-09 2.532435e-10 -8.343726e-11
7.941567e-09 -4.128170e-09 -1.077554e-09 3.231748e-09 2.130370e-10 2.218137e-11
7.310682e-09 -3.680805e-09 -1.060333e-09 3.176153e-09 3.046302e-10 -2.045963e-11
5.960938e-09 -3.067723e-09 -8.626611e-10 3.522097e-09 3.394121e-10 1.886851e-10
5.440511e-09 -2.791404e-09 -8.219587e-10 3.735506e-09 2.470901e-10 1.435811e-10
5.703569e-09 -2.784657e-09 -8.294819e-10 3.793700e-09 2.377192e-10 1.327943e-10
1.161189e-08 -5.152669e-09 -1.599513e-09 3.837419e-09 4.692289e-10 9.619739e-11
1.234043e-08 -5.273251e-09 -1.657776e-09 3.694073e-09 5.595745e-10 2.956653e-10
1.208731e-08 -5.398810e-09 -1.562219e-09 3.462955e-09 4.746567e-10 -2.300093e-11
-2.691461e-08 3.248531e-08 -4.506337e-08 -7.099509e-08 -7.465396e-08 -6.188471e-08
-2.885750e-08 -4.216790e-08 -3.693374e-08 -9.615509e-08 -8.971757e-08 -5.841699e-08
-3.048396e-08 -4.159001e-08 -2.559400e-08 -9.986126e-08 -8.433785e-08 -6.155234e-08
-2.202892e-08 4.484193e-09 -8.630114e-09 -2.624485e-08 -2.562887e-08 -2.648059e-08
-1.703400e-08 7.714471e-09 -1.163135e-08 -2.623032e-08 -2.608057e-08 -2.635382e-08
-2.123522e-08 1.662888e-08 -1.158649e-08 -2.314012e-08 -2.675369e-08 -2.676443e-08
-4.835826e-08 3.885893e-08 -4.001659e-08 -4.543954e-08 -4.336149e-08 -7.361217e-08
-7.760594e-08 9.170588e-08 -4.041445e-08 -6.603396e-08 -3.052605e-08 -6.716738e-08
-7.432596e-08 9.563638e-08 -4.367787e-08 -6.228889e-08 -3.206735e-08 -6.969218e-08
1.188162e-08 -4.115369e-09 -1.511441e-09 7.414879e-09 5.171104e-10 -5.515129e-10
1.144923e-08 -4.219928e-09 -1.458991e-09 7.075942e-09 5.529049e-10 -2.278472e-10
1.227147e-08 -4.688577e-09 -1.638617e-09 7.209820e-09 2.621479e-10 -1.191456e-10
8.777370e-08 -2.284510e-09 5.133472e-08 -2.594437e-08 1.929285e-08 -9.669243e-08
6.668039e-08 -1.078235e-08 8.504192e-08 -3.428861e-09 1.512539e-08 -1.235251e-07
4.138335e-08 -1.067140e-08 9.792138e-08 -2.357053e-09 1.640583e-08 -1.193800e-07
2.309414e-08 7.191967e-08 -1.271674e-09 -5.932656e-08 3.577752e-08 -3.227616e-08
-4.468667e-08 1.119847e-07 4.777423e-11 -4.912520e-08 5.503258e-08 -3.742694e-09
-4.802734e-08 9.809142e-08 9.506646e-09 -6.659572e-08 5.069296e-08 4.993691e-09
-2.740797e-08 7.689574e-08 -3.151924e-08 -7.867181e-10 -4.465173e-09 1.567341e-08
-2.126822e-08 7.769593e-08 6.979697e-08 -2.547402e-08 1.961498e-08 -4.099932e-08
-5.707097e-08 1.040293e-07 1.536563e-08 -1.102808e-08 3.329662e-08 -1.236541e-08
4.151315e-08 1.562175e-07 -2.054395e-07 -1.927024e-08 -1.664383e-07 6.712836e-08
1.552691e-08 -1.732527e-07 -2.433968e-07 9.086787e-08 -3.351729e-07 1.405233e-07
3.951317e-08 9.127758e-08 -2.294005e-07 -5.785748e-09 -2.131511e-07 7.405091e-08
1.340424e-08 -6.157393e-09 -1.917910e-09 3.890921e-09 5.038828e-10 9.902419e-12
1.357565e-08 -6.254654e-09 -1.952086e-09 3.229737e-09 2.811753e-10 -5.706943e-10
1.287314e-08 -5.920812e-09 -1.910299e-09 3.875361e-09 4.520079e-10 5.806167e-11
-4.252845e-08 6.693036e-08 -2.628086e-08 -2.834210e-08 -1.612902e-08 -5.135450e-08
-7.154421e-09 8.211294e-08 -4.830655e-08 -2.753248e-09 -2.176186e-08 -4.717397e-08
-1.675706e-08 8.520215e-08 -2.997307e-08 -5.320371e-09 -1.383941e-08 -4.893204e-08
3.253717e-08 9.499942e-08 -1.705120e-07 -1.179972e-07 -1.696967e-07 -1.067043e-07
6.329189e-08 -6.070346e-08 -2.089146e-07 -9.085720e-08 -2.646304e-07 -1.164481e-07
4.888017e-08 8.689616e-08 -1.892758e-07 -6.840470e-08 -1.662323e-07 -7.285632e-08
-5.205747e-08 4.711927e-08 -3.161236e-08 -4.253949e-08 -3.376460e-08 -6.140616e-08
-4.098490e-08 2.898817e-08 -4.421370e-08 -4.446290e-08 -5.062814e-08 -6.909160e-08
-3.570368e-08 4.434078e-08 -3.623629e-08 -3.337589e-08 -3.791605e-08 -5.727612e-08
-2.821307e-08 4.479671e-08 -3.911068e-08 -2.755847e-08 -3.832429e-08 -4.522734e-08
-2.705642e-08 4.181476e-08 -4.526023e-08 -2.830667e-08 -4.269843e-08 -4.692372e-08
-1.171931e-08 3.794726e-08 -3.427438e-08 -3.351445e-09 -3.155349e-08 -3.164998e-08
8.865472e-09 -4.071063e-09 -1.334102e-09 5.045575e-09 5.374210e-10 9.702084e-11
8.369895e-09 -3.390681e-09 -1.335634e-09 5.464615e-09 6.011245e-10 6.109169e-11
8.253628e-09 -3.526419e-09 -1.381734e-09 4.864888e-09 6.849958e-10 3.112429e-10
1.005575e-08 -4.398143e-09 -1.309972e-09 5.766329e-09 4.863263e-10 -8.909184e-11
9.201345e-09 -4.014050e-09 -1.302623e-09 5.848710e-09 5.427594e-10 -1.056670e-10
9.465792e-09 -3.839696e-09 -1.411498e-09 6.099955e-09 4.235174e-10 -4.138185e-10
7.344328e-09 -3.632352e-09 -1.058056e-09 4.668220e-09 3.016034e-10 -1.133020e-10
7.454403e-09 -3.680473e-09 -1.158212e-09 4.649686e-09 3.949893e-10 2.014744e-11
7.641857e-09 -3.532663e-09 -1.202392e-09 4.926797e-09 2.451930e-10 -5.160974e-10
9.146810e-09 -4.472711e-09 -1.155173e-09 3.630155e-09 4.550984e-10 2.486050e-10
8.833659e-09 -4.831845e-09 -1.156516e-09 3.124027e-09 4.322406e-10 2.230811e-10
9.796839e-09 -4.832886e-09 -1.354104e-09 3.186191e-09 3.232501e-10 -5.091467e-10
1.603196e-08 8.278406e-07 -6.081138e-07 -1.621101e-07 1.050894e-07 -1.456190e-07
7.770839e-08 4.752915e-07 1.564127e-08 -2.494112e-07 2.497127e-07 -3.483374e-07
-8.734407e-09 2.087133e-07 -1.893462e-07 -5.033036e-08 -3.531912e-08 -5.667735e-08
-1.546272e-08 1.207021e-07 -1.699508e-07 9.389204e-08 -1.556682e-07 1.152638e-07
-3.595878e-08 9.016702e-08 -1.734865e-07 1.235634e-07 -1.708628e-07 1.242360e-07
-2.554318e-08 -2.034155e-08 -1.854460e-07 1.668895e-07 -2.369371e-07 1.226667e-07
-2.884950e-08 -1.275575e-09 -2.437786e-08 -8.506281e-08 -7.725694e-08 -5.927662e-08
-2.756769e-08 -1.288233e-09 -3.007396e-08 -7.778929e-08 -8.029097e-08 -5.270179e-08
-2.376250e-08 -4.679630e-09 -3.844396e-08 -8.104256e-08 -8.562432e-08 -5.816397e-08
-5.756443e-08 8.638177e-08 -5.098179e-08 -3.923312e-08 9.265534e-09 -5.522644e-08
-6.813084e-08 4.939554e-08 -5.368176e-08 -7.034684e-08 -4.210006e-08 -8.469244e-08
-2.172301e-08 1.263819e-07 -1.549314e-07 -1.051960e-08 -6.422344e-08 -9.886359e-08
-1.933726e-08 4.700389e-08 -5.632108e-08 -3.201207e-08 -5.669935e-09 -4.889944e-08
-7.050903e-08 6.287434e-08 -8.291015e-08 -7.066108e-08 -4.878436e-08 -7.572567e-08
-6.466587e-08 1.281265e-07 -8.859840e-08 -4.050364e-08 -1.959021e-09 -7.191821e-08
-2.157649e-08 6.826428e-08 -4.250137e-08 -1.615351e-08 -2.302363e-08 -5.964030e-08
-5.793890e-08 1.010050e-07 -4.257787e-08 -4.844325e-08 -9.207845e-09 -5.319437e-08
5.596250e-08 3.338228e-08 2.149030e-08 -5.282707e-08 4.240412e-08 -6.800908e-08
4.547226e-08 2.625326e-08 1.934001e-08 -4.397864e-08 3.138633e-08 -5.704027e-08
3.524285e-08 4.130349e-08 1.746754e-08 -4.561654e-08 4.452726e-08 -7.025614e-08
5.206692e-08 4.773936e-09 4.877965e-10 -2.974941e-08 2.023619e-08 -4.396676e-08
5.364196e-08 9.375115e-10 2.404769e-09 -3.019393e-08 1.740777e-08 -4.174304e-08
4.665111e-08 -6.160338e-10 -6.111898e-09 -1.893424e-08 1.229055e-08 -2.959913e-08
5.760749e-08 -1.063271e-08 5.600518e-09 -2.241402e-08 1.024156e-08 -3.918861e-08
5.512476e-08 -8.760372e-09 3.557134e-09 -2.319500e-08 7.852865e-09 -3.441104e-08
5.437642e-08 -1.082689e-08 1.096154e-08 -2.191249e-08 1.089849e-08 -3.554875e-08
8.215409e-09 -4.308723e-09 -1.097836e-09 2.907411e-09 3.122680e-10 3.477886e-10
8.604854e-09 -4.412664e-09 -1.104953e-09 2.876158e-09 2.763036e-10 3.830694e-10
8.051440e-09 -4.283163e-09 -1.055487e-09 2.479676e-09 3.657429e-10 -3.822109e-11
1.949210e-08 -6.899464e-09 -1.850730e-09 4.818804e-09 5.312253e-10 -1.864720e-09
1.919413e-08 -6.687041e-09 -1.810611e-09 3.565815e-09 4.250038e-10 -1.554284e-09
1.971725e-08 -6.655569e-09 -2.364228e-09 3.309880e-09 7.670056e-10 -1.756035e-09
1.520234e-08 -6.125524e-09 -2.043246e-09 4.483148e-09 2.569507e-10 -5.962664e-10
1.560061e-08 -6.342296e-09 -2.114657e-09 4.087779e-09 9.010723e-11 -6.479650e-10
1.560078e-08 -6.589949e-09 -1.824555e-09 4.007526e-09 1.890142e-10 -7.088043e-10
1.624734e-08 -6.586881e-09 -2.293975e-09 4.441496e-09 3.043207e-10 -8.597395e-10
1.596499e-08 -6.644331e-09 -1.976623e-09 3.348333e-09 3.081938e-10 -5.278458e-10
1.622474e-08 -6.895927e-09 -2.057491e-09 4.334284e-09 4.661632e-10 -8.720704e-10
1.078857e-08 -5.401754e-09 -1.605565e-09 3.582665e-09 4.621761e-10 2.997871e-10
1.052681e-08 -5.275250e-09 -1.573165e-09 3.587756e-09 5.909627e-10 4.757779e-10
1.052482e-08 -5.310451e-09 -1.680689e-09 3.598060e-09 5.293518e-10 4.932461e-10
8.984708e-09 -4.713664e-09 -1.220386e-09 3.118717e-09 4.883489e-10 2.334839e-10
8.465669e-09 -4.569689e-09 -1.182722e-09 3.319388e-09 4.503014e-10 2.213891e-10
8.582411e-09 -4.584760e-09 -1.245626e-09 3.357632e-09 4.952778e-10 -1.624389e-11
9.193647e-09 -4.553949e-09 -1.212842e-09 3.536876e-09 5.333620e-10 2.838421e-10
9.254567e-09 -4.472271e-09 -1.182372e-09 3.622731e-09 4.572379e-10 2.382752e-10
9.019445e-09 -4.832010e-09 -1.185080e-09 3.133762e-09 4.257901e-10 1.913776e-10
8.962044e-09 -4.833616e-09 -1.185341e-09 3.235761e-09 4.214967e-10 1.956875e-10
8.936873e-09 -4.682575e-09 -1.207584e-09 3.122884e-09 5.125923e-10 2.195542e-10
-3.205368e-08 8.951439e-09 -1.360209e-08 -4.389934e-08 -3.849856e-08 -3.354423e-08
-3.120345e-08 1.552960e-08 -1.400908e-08 -4.644399e-08 -3.798101e-08 -3.398949e-08
-3.161502e-08 7.714471e-09 -1.662066e-08 -4.992028e-08 -4.394138e-08 -3.515925e-08
1.104536e-08 -4.827871e-09 -1.745390e-09 5.763297e-09 2.799335e-10 -1.641180e-10
1.052308e-08 -4.990280e-09 -1.527889e-09 5.879358e-09 8.883722e-11 -3.381506e-10
1.053919e-08 -4.831597e-09 -1.421072e-09 5.807757e-09 3.196792e-10 -5.032252e-10
-5.222413e-08 5.216936e-08 -1.097427e-07 -7.259399e-08 -1.317674e-07 -9.256847e-08
-3.869232e-08 9.328424e-08 -1.003745e-07 -4.373319e-08 -9.012917e-08 -7.819465e-08
-4.227065e-08 7.623102e-08 -7.900276e-08 -2.414062e-08 -7.256560e-08 -7.104112e-08
6.851576e-09 -3.052453e-09 -1.040859e-09 4.014070e-09 4.559378e-10 4.039119e-11
6.595898e-09 -2.989680e-09 -1.010326e-09 4.028691e-09 4.780864e-10 1.771496e-10
6.854583e-09 -3.235422e-09 -9.159999e-10 4.040229e-09 5.774007e-10 -1.421016e-11
2.936601e-08 -7.291418e-09 -1.175796e-09 8.598717e-09 -1.565272e-10 -9.046891e-09
2.931552e-08 -7.648524e-09 -2.268376e-09 8.775255e-09 -7.217248e-10 -8.439613e-09
2.948929e-08 -7.747615e-09 -1.815368e-09 8.672045e-09 -7.458280e-10 -8.823977e-09
3.523001e-08 4.047698e-08 3.981235e-08 -6.054669e-08 5.981460e-08 -6.028998e-08
2.929328e-08 3.227263e-08 3.504953e-08 -5.299599e-08 4.747855e-08 -5.267258e-08
2.857901e-08 3.315080e-08 3.728007e-08 -4.853650e-08 4.927299e-08 -4.935233e-08
-1.488466e-08 8.499268e-08 -1.098030e-07 -3.931206e-08 -9.813896e-08 -9.768892e-08
-2.816650e-08 1.580433e-08 -8.474575e-08 -5.792115e-08 -8.987816e-08 -8.772981e-08
-4.599179e-08 6.380248e-08 -1.063086e-07 -8.372011e-08 -1.214893e-07 -1.073881e-07
-2.621254e-08 9.548005e-08 -1.039662e-07 -4.897670e-08 -8.317789e-08 -9.376301e-08
-2.634690e-08 8.093795e-08 -8.591407e-08 -4.343956e-08 -8.758645e-08 -8.589787e-08
-1.510308e-08 7.104733e-08 -8.315647e-08 -4.160928e-08 -8.462684e-08 -9.294152e-08
-2.396294e-08 1.429607e-08 -8.358209e-08 -6.601179e-08 -8.982426e-08 -9.488958e-08
-2.013925e-08 6.561768e-08 -1.062127e-07 -5.199618e-08 -1.210120e-07 -1.030046e-07
1.093122e-08 -3.860813e-09 -1.766031e-09 6.111742e-09 5.687998e-10 -3.615017e-10
1.083455e-08 -4.155723e-09 -1.564776e-09 6.345248e-09 5.101143e-10 -1.779761e-10
1.002253e-08 -3.626332e-09 -1.380112e-09 6.294174e-09 8.246854e-10 -2.512686e-10
5.582545e-08 -1.150789e-08 3.524104e-09 -1.241963e-09 3.702672e-09 -3.041827e-08
5.029134e-08 -1.189652e-08 6.290607e-09 -3.339837e-09 4.149554e-09 -3.236423e-08
4.080903e-08 -1.253161e-08 1.209396e-08 2.588062e-09 2.359086e-09 -3.795693e-08
7.510454e-08 -1.088422e-08 2.734800e-10 -2.085010e-08 1.148010e-08 -4.230551e-08
5.763910e-08 -1.039979e-08 4.491265e-09 -1.906837e-08 1.196761e-08 -4.040375e-08
6.387696e-08 -1.151905e-08 1.022211e-08 -2.840557e-08 1.430219e-08 -5.079143e-08
2.188484e-10 -1.392175e-07 -1.042162e-07 -1.570397e-07 -2.077780e-07 -1.129089e-07
2.356881e-08 -5.325728e-08 -6.937606e-08 -1.098092e-07 -1.338907e-07 -8.094673e-08
-7.159840e-09 -4.891990e-08 -7.007666e-08 -1.082003e-07 -1.355263e-07 -8.797737e-08
2.010935e-08 -5.730217e-09 -1.760984e-09 7.669114e-09 3.879092e-10 -2.850251e-09
1.875197e-08 -4.472549e-09 -1.794156e-09 8.936922e-09 5.709011e-10 -3.062761e-09
1.865465e-08 -4.644777e-09 -1.835108e-09 8.476830e-09 6.659723e-10 -2.923011e-09
2.362745e-08 -7.965537e-09 -3.600838e-09 3.426097e-09 5.608898e-10 -2.627929e-09
2.353006e-08 -8.037829e-09 -2.511969e-09 3.586039e-09 7.577219e-10 -2.417871e-09
2.283688e-08 -7.951599e-09 -2.764170e-09 3.841864e-09 6.756675e-10 -1.968762e-09
-7.029655e-08 2.186037e-07 -3.041538e-07 -9.461160e-08 -1.804286e-07 -1.101289e-08
2.552365e-09 2.431018e-07 -3.348640e-07 -1.240142e-07 -1.674984e-07 -3.609843e-08
2.056463e-08 2.457126e-07 -3.092222e-07 -1.425168e-07 -1.471100e-07 -5.766942e-08
-2.926324e-08 2.185112e-07 -3.534885e-07 -9.557650e-08 -1.840284e-07 1.953249e-08
-6.116855e-08 2.624760e-07 -3.298093e-07 -9.199095e-08 -1.826104e-07 -3.305198e-08
-6.546809e-08 2.357531e-07 -3.238761e-07 -1.038715e-07 -1.655590e-07 -2.140703e-08
8.226204e-08 2.197550e-07 -3.485615e-07 -6.965494e-08 -1.869002e-07 -1.329444e-08
-6.140812e-08 2.201959e-07 -3.280715e-07 -8.852212e-08 -1.812507e-07 -3.288029e-08
-3.073959e-08 -4.166921e-09 -1.450815e-08 -4.423582e-08 -5.421215e-08 -4.412307e-08
-2.013098e-08 1.200135e-08 -1.341883e-08 -3.931970e-08 -4.310440e-08 -3.837705e-08
-2.503141e-08 -1.465758e-09 -1.924012e-08 -4.931478e-08 -5.387989e-08 -4.902987e-08
-3.925463e-08 5.807976e-08 -3.375137e-08 -2.227046e-08 -2.866773e-08 -4.605579e-08
-1.618201e-08 4.202628e-08 -2.692506e-08 1.684758e-09 -2.298631e-08 -3.173495e-08
-2.258459e-08 8.146296e-08 -2.912348e-08 5.917445e-09 -2.045279e-08 -3.548675e-08
2.228478e-08 -7.939063e-09 -2.200006e-09 3.354537e-09 3.551803e-10 -2.622781e-09
2.057902e-08 -7.724895e-09 -1.841285e-09 3.815066e-09 2.103281e-10 -1.643574e-09
2.067754e-08 -7.447589e-09 -2.598517e-09 3.634579e-09 2.846589e-10 -1.813277e-09
8.125627e-08 6.495325e-09 -3.625162e-09 -3.975884e-08 1.546618e-08 -3.865395e-08
4.632166e-08 -5.600315e-10 -4.440169e-10 -2.275586e-08 9.539899e-09 -2.573562e-08
4.740092e-08 2.369741e-09 -7.000327e-09 -2.462064e-08 7.133594e-09 -2.516252e-08
-2.412140e-08 1.754350e-08 -1.699147e-08 -1.273501e-08 -2.258450e-08 -3.384391e-08
-3.775941e-08 3.409423e-08 -1.512290e-08 -2.127098e-08 -1.697481e-08 -3.596821e-08
-3.772058e-08 3.308224e-08 -1.633759e-08 -2.158064e-08 -1.577814e-08 -3.576564e-08
3.196965e-08 4.479115e-07 -2.911350e-07 -9.692118e-08 1.085222e-08 -3.235580e-08
3.281037e-08 2.740087e-07 -1.602181e-07 -1.600920e-07 1.346051e-07 -5.957612e-08
-4.330271e-08 1.478870e-07 -3.133189e-08 -6.209296e-08 6.831521e-08 -5.704901e-09
3.092543e-08 2.168146e-07 -2.214077e-07 -6.553694e-08 -9.430804e-08 -9.980335e-09
-1.038072e-08 1.443074e-07 -3.114776e-08 -5.078496e-08 -3.680808e-08 -9.147028e-08
4.657407e-08 1.482107e-07 -1.313378e-07 -7.453542e-08 -2.541107e-08 -5.271402e-08
1.408538e-08 -3.990052e-09 -2.146025e-09 7.637463e-09 5.567934e-10 -1.404368e-09
1.405473e-08 -4.162902e-09 -1.804043e-09 7.486019e-09 9.335818e-10 -8.822734e-10
1.393849e-08 -4.784568e-09 -1.479334e-09 6.913635e-09 6.854751e-10 -6.935106e-10
1.582617e-08 -4.632169e-09 -1.882959e-09 8.593463e-09 7.092249e-11 -2.093660e-09
1.703845e-08 -4.688054e-09 -1.449456e-09 8.754325e-09 4.098963e-10 -1.027124e-09
1.632647e-08 -5.400867e-09 -1.422938e-09 7.022102e-09 3.337018e-10 -1.560473e-09
4.160021e-08 -1.483722e-07 -1.147637e-07 -1.174131e-07 -2.334663e-07 -1.161759e-07
4.392072e-08 -5.448673e-08 -6.246897e-08 -1.144445e-07 -1.343723e-07 -9.914581e-08
6.821421e-08 -1.545170e-07 -5.854234e-08 -1.232600e-07 -2.280025e-07 -1.553096e-07
1.981171e-08 -6.398934e-09 -2.555884e-09 6.335458e-09 2.779812e-10 -2.523494e-09
1.969701e-08 -6.731549e-09 -2.048685e-09 6.124784e-09 8.484178e-12 -2.810793e-09
1.908296e-08 -6.752838e-09 -1.653535e-09 6.339889e-09 3.160745e-10 -3.171643e-09
3.790272e-08 -9.955166e-09 -1.143211e-09 1.199819e-09 1.011104e-09 -1.056538e-08
3.721795e-08 -9.537326e-09 -1.077420e-09 1.887209e-09 -7.286720e-10 -9.817413e-09
3.601294e-08 -8.348008e-09 -4.466845e-10 -3.583363e-09 1.447742e-09 -1.042693e-08
3.105149e-08 -5.673789e-09 -1.884398e-09 1.296608e-08 -1.880819e-09 -9.869351e-09
3.097707e-08 -5.726985e-09 -1.536917e-09 1.319777e-08 -1.653357e-09 -9.749245e-09
3.099707e-08 -6.455525e-09 -1.550373e-09 1.025871e-08 -2.036162e-09 -9.800537e-09
2.020023e-08 -7.685256e-09 -1.478133e-09 6.742165e-09 -1.862130e-10 -3.371170e-09
2.095070e-08 -7.277908e-09 -1.820408e-09 6.812774e-09 -2.596747e-10 -3.540374e-09
2.133491e-08 -7.688461e-09 -1.612278e-09 6.359805e-09 -9.148462e-11 -3.849671e-09
2.040324e-08 -7.640961e-09 -2.087275e-09 6.530635e-09 -9.493102e-11 -3.004896e-09
2.039773e-08 -7.171010e-09 -2.034029e-09 6.514488e-09 -2.571315e-10 -3.003397e-09
2.024547e-08 -7.533713e-09 -1.732258e-09 6.830594e-09 -9.325716e-11 -3.361422e-09
2.084359e-08 -7.418899e-09 -1.736311e-09 7.110173e-09 -1.610785e-10 -3.466182e-09
2.044329e-08 -7.716979e-09 -1.588996e-09 6.762625e-09 -3.144587e-10 -3.611642e-09
2.654959e-08 -4.945550e-09 -2.641001e-09 1.018513e-08 -4.218811e-10 -6.553535e-09
2.665336e-08 -4.934514e-09 -2.761894e-09 1.066947e-08 -1.560923e-10 -6.634395e-09
2.647403e-08 -5.370119e-09 -1.760775e-09 1.096852e-08 -1.245093e-10 -6.817480e-09
2.077499e-08 -8.230209e-09 -1.552340e-07 -8.307233e-08 -7.133556e-08 -1.165078e-07
-1.244687e-07 2.059036e-07 -1.404223e-07 -1.471722e-07 3.405085e-08 -2.261119e-07
-9.046298e-08 3.585426e-07 -3.499081e-07 -6.815159e-08 -6.921791e-08 -2.356607e-07
-1.116335e-07 5.436730e-07 -2.438442e-07 -5.794894e-08 2.454454e-07 -7.205561e-08
-5.046335e-08 2.952007e-07 -3.866369e-07 -1.855048e-07 -1.223134e-07 -1.732165e-07
4.033381e-08 3.625930e-07 -1.580985e-07 -8.528204e-09 1.071517e-07 -2.528144e-08
-1.114827e-07 4.490693e-07 -1.740387e-07 -4.948327e-08 8.629314e-08 -7.532428e-08
2.917770e-09 7.231309e-07 -7.318040e-07 4.556026e-08 -6.012114e-08 1.937696e-08
-6.422778e-09 3.781464e-07 -1.287202e-07 -1.230000e-08 1.781619e-07 7.605042e-08
-9.864232e-08 2.421199e-07 -4.522286e-07 -1.162661e-07 -1.855301e-07 -1.109696e-07
-1.052493e-07 7.509916e-07 -3.653758e-07 -1.085269e-07 1.362588e-07 -7.806990e-08
4.079157e-08 -6.542995e-09 -2.334972e-09 1.303420e-08 -4.011734e-10 -1.420497e-08
3.949629e-08 -6.206013e-09 -1.591714e-09 1.154093e-08 -8.857521e-10 -1.514651e-08
3.988981e-08 -6.195033e-09 -3.731854e-09 1.143299e-08 -9.387749e-10 -1.588995e-08
4.103562e-08 -6.572352e-09 -2.282893e-09 1.107225e-08 -5.497033e-10 -1.385723e-08
3.627812e-08 -6.864881e-09 -1.686433e-09 9.886316e-09 -5.287204e-10 -1.394569e-08
3.914846e-08 -5.908314e-09 -1.719566e-09 1.349463e-08 -1.117875e-09 -1.410572e-08
3.746741e-08 -5.949501e-09 -2.739982e-09 1.376898e-08 -1.368507e-09 -1.270810e-08
4.123288e-08 -5.997889e-09 -2.976535e-09 1.241618e-08 -5.460312e-10 -1.362075e-08
5.752563e-08 -1.188462e-08 -2.680401e-09 -8.149703e-09 4.985022e-09 -2.645163e-08
4.913863e-08 -6.197526e-09 -2.751776e-09 -9.670376e-09 4.683190e-09 -2.549427e-08
4.542337e-08 -7.269434e-09 -7.717970e-10 -1.169188e-08 5.463309e-09 -2.352574e-08
4.758726e-08 -7.938846e-09 -6.140303e-10 1.600808e-08 -2.896021e-09 -2.254892e-08
4.419523e-08 -8.021449e-09 2.104800e-09 1.656143e-08 -2.757260e-09 -2.251447e-08
4.285894e-08 -1.080334e-08 1.889174e-09 1.297621e-08 -3.535126e-09 -2.343840e-08
6.804737e-08 -9.647294e-09 8.454255e-09 -6.641387e-09 3.397260e-09 -3.759392e-08
6.347252e-08 -1.332495e-08 2.130095e-08 4.189841e-09 2.223458e-09 -5.314398e-08
5.753072e-08 -1.169721e-08 1.037566e-08 -1.920988e-09 3.180052e-09 -3.792240e-08
5.436172e-08 -1.169246e-08 3.972920e-09 -5.075180e-10 2.719526e-09 -2.938608e-08
5.633998e-08 -1.491919e-08 4.853641e-09 -3.288823e-09 3.135129e-09 -3.104971e-08
5.167888e-08 -1.489977e-08 6.146465e-09 -3.236187e-09 3.317997e-09 -3.198944e-08
1.278105e-07 -1.028764e-08 4.697217e-08 -1.017136e-08 1.299356e-08 -1.279628e-07
1.328555e-07 -1.375730e-08 5.571963e-08 1.343632e-08 3.493629e-09 -1.392096e-07
1.303665e-07 -1.499030e-08 7.309748e-08 1.650799e-08 -3.286198e-09 -1.391186e-07
9.809327e-08 -1.111931e-08 2.313355e-08 3.779752e-09 6.034040e-09 -9.894936e-08
7.749780e-08 -6.227851e-09 1.724492e-08 -6.924569e-09 2.535803e-09 -7.207537e-08
6.785852e-08 -1.359911e-08 3.710461e-08 1.017043e-08 -7.198919e-10 -8.980472e-08
6.601236e-08 -1.030434e-08 3.587932e-09 1.590372e-08 -3.644889e-10 -3.337228e-08
5.966210e-08 -9.199868e-09 3.780887e-09 1.300343e-08 -2.083617e-09 -3.280710e-08
6.865650e-08 -9.202698e-09 -3.859872e-09 1.272354e-08 -2.450323e-09 -3.083232e-08
6.611323e-08 -1.007701e-08 3.369036e-09 1.423690e-08 -1.363932e-09 -3.352154e-08
5.929366e-08 -1.110031e-08 4.510839e-09 1.151682e-08 -1.503610e-09 -3.320224e-08
6.245980e-08 -8.216453e-09 4.186718e-09 1.634931e-08 -1.835866e-09 -3.242213e-08
5.559861e-08 -8.364732e-09 9.486830e-10 1.738725e-08 -2.782989e-09 -2.685851e-08
6.842125e-08 -8.548902e-09 1.494669e-09 1.280461e-08 -5.672080e-10 -3.046840e-08
6.970778e-08 -1.037883e-08 6.929964e-09 1.300410e-08 -5.805598e-09 -4.462767e-08
6.268273e-08 -1.403051e-08 1.304698e-08 1.430933e-08 -4.813034e-09 -4.676488e-08
6.515726e-08 -1.380489e-08 2.491021e-09 8.653218e-09 -1.653402e-09 -3.859415e-08
7.843711e-08 -1.099941e-08 2.010601e-08 -5.815892e-09 5.152505e-09 -6.503665e-08
7.931699e-08 -9.958529e-09 1.659100e-08 -6.791559e-09 7.184009e-09 -6.643169e-08
7.544561e-08 -1.485217e-08 2.780769e-08 1.127588e-10 5.844604e-09 -7.278762e-08
4.868109e-08 -8.505279e-09 -4.667242e-09 -3.448257e-09 2.551347e-09 -1.627085e-08
4.860075e-08 -1.109250e-08 -3.105485e-09 -4.432029e-09 1.285838e-09 -1.595169e-08
5.045906e-08 -1.077881e-08 -4.568915e-09 -5.358121e-09 2.221789e-09 -1.678426e-08
2.190185e-08 4.045316e-08 4.152470e-08 -5.766950e-08 5.936227e-08 -6.433006e-08
2.340401e-08 4.216959e-08 3.682801e-08 -5.545837e-08 4.383663e-08 -5.143359e-08
2.695715e-08 3.223816e-08 4.814782e-08 -5.998402e-08 5.219571e-08 -5.777697e-08
5.020359e-08 -9.488538e-09 -4.511834e-09 -4.547161e-09 1.608194e-09 -1.759371e-08
4.914339e-08 -9.271233e-09 -2.385600e-09 -3.400621e-09 -5.876306e-10 -1.723638e-08
4.694285e-08 -5.330003e-09 -2.112975e-09 -1.385756e-08 4.320352e-09 -1.703499e-08
8.873455e-08 2.712755e-08 7.202752e-08 -2.302755e-08 7.734139e-09 -1.230534e-07
6.431307e-08 2.737734e-08 9.027652e-08 -2.276291e-08 5.580379e-09 -1.225183e-07
6.296153e-08 2.008519e-08 8.546823e-08 -3.912473e-08 3.110340e-08 -1.199208e-07
-8.096896e-08 1.540499e-07 -4.602228e-08 2.952148e-08 2.649783e-08 6.660196e-08
-7.243021e-08 1.477453e-07 -6.105837e-08 1.611724e-08 8.894656e-09 6.835588e-08
-7.133195e-08 1.810174e-07 -4.565729e-08 7.520850e-09 3.516256e-08 6.401704e-08
7.784308e-08 -1.645956e-09 1.810344e-08 -3.403173e-08 2.464321e-08 -6.500605e-08
7.346099e-08 1.465786e-09 1.413690e-08 -3.368017e-08 1.990055e-08 -5.850612e-08
7.211446e-08 5.278384e-09 1.181665e-08 -3.326196e-08 2.262678e-08 -6.064533e-08
7.642335e-08 2.676995e-08 9.682173e-08 -3.871391e-10 2.029631e-08 -1.466161e-07
1.100236e-07 1.372288e-08 8.323242e-08 2.980068e-09 1.553574e-08 -1.509774e-07
6.243146e-08 1.840564e-08 9.637313e-08 1.719933e-08 -1.068416e-09 -1.369658e-07
8.524250e-08 3.171019e-07 -2.077857e-07 -1.085356e-07 9.705134e-08 -1.546169e-07
1.015844e-07 1.307505e-07 4.156348e-08 -4.133369e-08 -1.702643e-08 -2.272818e-07
1.069623e-07 9.660075e-08 1.201748e-08 -3.978387e-08 2.588066e-08 -2.177077e-07
-4.264820e-08 2.367054e-07 -2.535887e-08 -1.609218e-08 9.784585e-09 -8.536215e-09
-1.041851e-07 1.077993e-07 -8.770908e-08 8.344752e-08 -8.228393e-08 6.978492e-08
-8.857326e-08 1.378445e-07 -1.122070e-07 1.051081e-07 -5.794793e-08 8.690934e-08
-4.531268e-09 8.594544e-08 1.747377e-08 -5.699970e-08 4.512766e-08 -2.793598e-08
-6.999851e-09 1.155104e-07 -6.721922e-09 -6.771962e-08 5.066745e-08 -7.833237e-09
-1.336444e-09 6.265254e-08 1.316256e-08 -4.236965e-08 3.509273e-08 -2.124783e-08
8.363407e-08 6.783664e-08 -1.775987e-07 -4.515600e-08 -2.218078e-07 2.507478e-08
1.390985e-07 -2.559712e-07 -2.016256e-07 -4.415321e-09 -3.438415e-07 7.138211e-08
1.345872e-07 8.534375e-08 -2.040308e-07 -7.533071e-08 -2.102784e-07 1.119445e-08
6.154725e-09 2.405325e-07 -2.035244e-07 -1.975347e-08 -1.332505e-07 4.708339e-08
3.774876e-09 -1.520694e-08 -1.909217e-07 1.406416e-07 -2.388267e-07 1.577642e-07
6.926768e-08 1.288163e-07 -1.701262e-07 3.503038e-08 -1.517214e-07 1.134116e-07
-3.937197e-08 1.963225e-08 -2.389256e-08 -2.731546e-08 -3.606522e-08 -4.051136e-08
-3.248587e-08 9.442286e-08 -3.016839e-08 8.478239e-09 -1.110926e-08 -4.079881e-08
-3.015228e-08 8.932826e-08 -2.547868e-08 7.006792e-09 -8.139777e-09 -3.573264e-08
-4.030694e-08 1.268217e-07 -1.836789e-07 -1.581927e-07 -1.973468e-07 -1.013002e-07
-4.352869e-08 8.626754e-08 -1.642605e-07 -1.299296e-07 -1.691548e-07 -9.559405e-08
-6.175401e-08 2.048322e-07 -1.710956e-07 -1.054778e-07 -1.797044e-07 -1.112188e-07
-6.208904e-08 2.297541e-07 -1.865030e-07 -1.145687e-07 -1.815274e-07 -1.030211e-07
-2.933482e-08 8.781083e-08 -1.899169e-07 -1.523453e-07 -2.165801e-07 -1.046175e-07
-3.059214e-08 7.745365e-08 -1.638085e-07 -1.355413e-07 -1.717278e-07 -1.016891e-07
-2.074626e-08 6.362749e-08 -1.966350e-07 -1.101494e-07 -2.225590e-07 -1.016141e-07
-2.291307e-08 8.385703e-08 -2.111724e-07 -9.962100e-08 -2.093709e-07 -8.145017e-08
8.419165e-09 -4.141643e-09 -1.150168e-09 3.630357e-09 3.766502e-10 3.087243e-10
8.447338e-09 -4.147209e-09 -1.140409e-09 3.602818e-09 3.624460e-10 1.514728e-10
8.549213e-09 -4.166909e-09 -1.210302e-09 3.565038e-09 4.078099e-10 3.160896e-10
8.435292e-09 -4.131192e-09 -1.125096e-09 3.499952e-09 3.485818e-10 4.790248e-10
7.236743e-09 -3.865084e-09 -1.025008e-09 3.416038e-09 3.853918e-10 1.226095e-10
7.745463e-09 -4.149847e-09 -1.058148e-09 3.553778e-09 3.667098e-10 1.505662e-10
7.489895e-09 -3.876862e-09 -1.062253e-09 3.412795e-09 4.096984e-10 1.865867e-10
7.694645e-09 -4.135700e-09 -1.061039e-09 3.491385e-09 4.101838e-10 1.697691e-10
7.540915e-09 -3.895947e-09 -9.246932e-10 3.434971e-09 4.270031e-10 5.798950e-11
7.600697e-09 -4.113795e-09 -9.708119e-10 3.431169e-09 2.382783e-10 1.385101e-10
7.678846e-09 -4.168142e-09 -1.073737e-09 3.462026e-09 3.221063e-10 4.067557e-11
6.781811e-09 -3.583399e-09 -9.996182e-10 3.205368e-09 3.813810e-10 1.112506e-10
6.558047e-09 -3.700223e-09 -9.233012e-10 2.901521e-09 3.612970e-10 1.420757e-10
6.621406e-09 -3.576700e-09 -9.283960e-10 3.206281e-09 3.582489e-10 1.453677e-10
7.035730e-09 -3.689389e-09 -9.277569e-10 2.986724e-09 3.621988e-10 1.786695e-10
7.027151e-09 -3.701981e-09 -9.668790e-10 3.007638e-09 3.351315e-10 2.459359e-10
6.858940e-09 -3.668348e-09 -9.471335e-10 3.074555e-09 3.037099e-10 1.296137e-10
6.714496e-09 -3.583214e-09 -9.145964e-10 3.177050e-09 3.687890e-10 2.758565e-10
7.141475e-09 -3.871316e-09 -1.007022e-09 3.391149e-09 3.964047e-10 1.541864e-10
7.137801e-09 -3.897878e-09 -9.463177e-10 3.404203e-09 4.348556e-10 1.531484e-10
7.305273e-09 -3.895563e-09 -9.584231e-10 3.283366e-09 4.342711e-10 -9.057355e-11
7.697944e-09 -4.091738e-09 -1.007308e-09 3.351154e-09 2.799314e-10 1.364907e-10
6.976027e-09 -3.593231e-09 -1.007017e-09 3.221266e-09 3.981684e-10 1.525036e-10
6.952281e-09 -3.631380e-09 -9.458185e-10 3.251699e-09 4.637000e-10 1.098937e-10
6.660706e-09 -3.599314e-09 -9.032610e-10 3.259502e-09 3.887485e-10 2.889404e-10
6.726914e-09 -3.675264e-09 -9.359953e-10 3.143503e-09 3.255346e-10 1.228329e-10
7.056268e-09 -3.756161e-09 -1.011510e-09 2.841985e-09 3.183214e-10 2.076841e-10
7.102567e-09 -3.772421e-09 -1.026382e-09 2.802164e-09 2.955871e-10 2.013274e-10
7.104529e-09 -4.021146e-09 -1.026625e-09 2.706455e-09 3.101392e-10 2.117821e-10
7.512089e-09 -3.947067e-09 -1.038988e-09 2.932582e-09 3.078107e-10 2.639657e-10
2.120035e-08 -6.034739e-09 -3.023018e-09 7.026488e-09 3.066668e-10 -2.702969e-09
2.089722e-08 -6.320500e-09 -2.407135e-09 7.508677e-09 7.943762e-11 -2.957244e-09
2.159772e-08 -6.448839e-09 -2.756621e-09 7.477588e-09 3.508934e-10 -3.290337e-09
2.103908e-08 -5.549460e-09 -2.658145e-09 8.072802e-09 8.930024e-12 -3.343301e-09
2.156610e-08 -6.863332e-09 -2.982240e-09 6.731486e-09 2.890335e-10 -2.848438e-09
2.173882e-08 -6.821792e-09 -1.906022e-09 6.576925e-09 5.005922e-10 -3.657731e-09
2.192967e-08 -7.110841e-09 -2.181179e-09 6.581258e-09 2.030556e-10 -3.576196e-09
2.214148e-08 -7.244812e-09 -2.476135e-09 6.845191e-09 4.261313e-10 -3.779090e-09
4.810001e-08 4.181763e-08 5.655153e-08 -6.612587e-08 5.100708e-08 -8.154472e-08
3.085047e-08 3.782492e-08 6.900915e-08 -5.608462e-08 4.934137e-08 -8.761533e-08
3.009074e-08 3.805303e-08 5.402000e-08 -5.141367e-08 4.675399e-08 -7.521807e-08
3.861942e-08 4.104510e-08 5.533257e-08 -6.250648e-08 4.106891e-08 -7.172878e-08
3.937653e-08 4.129796e-08 5.625301e-08 -6.026771e-08 5.240181e-08 -8.321614e-08
3.976191e-08 4.262020e-08 5.025542e-08 -5.926594e-08 5.412938e-08 -8.015114e-08
4.466640e-08 4.111794e-08 4.775437e-08 -4.862754e-08 5.013627e-08 -7.738807e-08
3.625342e-08 3.335119e-08 5.524367e-08 -5.795694e-08 4.854691e-08 -7.462497e-08
7.060951e-08 1.391071e-08 7.378172e-08 -4.350849e-08 5.908575e-08 -1.163621e-07
5.761764e-08 1.278259e-08 9.180215e-08 -3.589519e-08 5.504847e-08 -1.244203e-07
7.879003e-08 1.547342e-08 9.402095e-08 -5.131835e-08 4.539890e-08 -1.157725e-07
9.454744e-08 -5.138489e-09 8.283272e-08 -4.480585e-08 6.092895e-08 -1.237021e-07
-2.051132e-08 1.011490e-07 7.397914e-08 -3.614551e-08 6.836452e-08 -5.904162e-08
-3.092050e-08 1.160829e-07 5.802814e-08 -1.125635e-08 5.760009e-08 -4.844999e-08
-1.103361e-08 1.023429e-07 6.921923e-08 -4.201799e-08 6.528826e-08 -5.960138e-08
-1.994377e-08 9.558910e-08 8.351079e-08 -1.129540e-08 4.609488e-08 -6.719669e-08
-1.611675e-08 1.292834e-07 8.485458e-08 -2.309405e-08 2.813897e-08 -6.249164e-08
-4.437912e-09 9.037245e-08 7.930650e-08 -2.941159e-08 6.854621e-08 -7.743954e-08
-1.640395e-08 1.022324e-07 8.271714e-08 -3.363374e-08 5.937907e-08 -6.714036e-08
4.996535e-09 8.379087e-08 4.418283e-08 -5.716521e-08 6.716105e-08 -6.192808e-08
3.037136e-08 5.888531e-08 4.033657e-08 -5.442714e-08 5.739576e-08 -7.804205e-08
3.761829e-08 5.666346e-08 7.289084e-08 -4.488870e-08 5.661256e-08 -9.254639e-08
1.689030e-08 5.800092e-08 5.494441e-08 -4.971620e-08 5.889568e-08 -7.191853e-08
2.008315e-08 9.508616e-08 5.166068e-08 -6.075532e-08 3.357485e-08 -6.299694e-08
3.662380e-08 7.519241e-08 4.037706e-08 -5.480413e-08 4.898283e-08 -7.105730e-08
4.381597e-08 6.489489e-08 6.228265e-08 -5.368123e-08 5.560229e-08 -8.561226e-08
5.291128e-09 7.713055e-08 1.022690e-07 -2.737518e-08 4.954166e-08 -8.750120e-08
3.895612e-09 8.871287e-08 1.006494e-07 -2.838638e-08 4.328017e-08 -8.967959e-08
9.350043e-09 6.515596e-08 9.309988e-08 -2.926770e-08 5.881140e-08 -9.294078e-08
1.391352e-08 5.512440e-08 1.339423e-07 -8.285565e-09 3.298781e-08 -1.110359e-07
-1.005307e-08 8.324555e-08 5.937798e-08 -5.388404e-08 6.715015e-08 -5.341793e-08
-1.229997e-08 1.037824e-07 6.941488e-08 -5.514707e-08 5.035356e-08 -5.531791e-08
-1.694424e-09 6.428338e-08 9.305161e-08 -4.840221e-08 5.428467e-08 -7.279705e-08
-1.647460e-08 7.481932e-08 6.483527e-08 -4.881908e-08 4.987056e-08 -5.153041e-08
4.241604e-08 4.069994e-08 5.558348e-08 -6.127259e-08 5.233234e-08 -8.425215e-08
5.499722e-08 3.834010e-08 7.232129e-08 -5.252108e-08 4.721289e-08 -1.006783e-07
3.252977e-08 4.090140e-08 4.350951e-08 -5.276589e-08 4.940481e-08 -7.461633e-08
3.068618e-08 3.623392e-08 5.385566e-08 -5.595410e-08 4.731139e-08 -7.410432e-08
6.312711e-08 3.848760e-08 3.749760e-08 -4.667608e-08 3.954222e-08 -9.436831e-08
5.250096e-08 4.602037e-08 3.225711e-08 -5.385984e-08 5.199790e-08 -8.710004e-08
5.623843e-08 4.072504e-08 4.190373e-08 -4.763973e-08 4.321888e-08 -9.249561e-08
7.110026e-08 3.604634e-08 4.512060e-08 -4.655042e-08 4.664260e-08 -1.025930e-07
6.796309e-08 3.785538e-08 7.015537e-08 -4.663765e-08 3.761178e-08 -1.100933e-07
4.449185e-08 4.103527e-08 3.466084e-08 -4.507649e-08 3.813958e-08 -8.046703e-08
5.321685e-08 4.055857e-08 2.883234e-08 -4.693049e-08 4.052051e-08 -8.103670e-08
7.007511e-08 2.621848e-08 3.019967e-08 -3.712526e-08 2.877269e-08 -9.034825e-08
8.286335e-08 1.150044e-08 2.608940e-08 -3.213830e-08 2.408781e-08 -8.894215e-08
7.469858e-08 1.799765e-08 3.452476e-08 -3.643200e-08 3.132943e-08 -9.546005e-08
7.286826e-08 1.925033e-08 3.036823e-08 -3.829335e-08 3.062667e-08 -8.984244e-08
7.182797e-08 1.903710e-08 2.815751e-08 -3.775996e-08 2.079268e-08 -7.676159e-08
5.837253e-08 1.787131e-08 3.032858e-08 -3.379934e-08 2.320473e-08 -8.499608e-08
7.401907e-08 1.816201e-08 4.753763e-08 -3.658784e-08 2.564060e-08 -1.023998e-07
7.069190e-08 3.569511e-08 4.764140e-08 -4.789055e-08 4.226541e-08 -1.033617e-07
7.321310e-08 3.397277e-08 3.457615e-08 -4.617105e-08 3.670001e-08 -9.324010e-08
5.818773e-08 3.113186e-08 4.898027e-08 -3.802098e-08 3.263881e-08 -9.458414e-08
6.271512e-08 2.747331e-08 5.655491e-08 -3.457184e-08 3.490169e-08 -1.050729e-07
5.056329e-08 3.662251e-08 3.481160e-08 -4.628426e-08 3.960823e-08 -8.632220e-08
5.321272e-08 3.481882e-08 3.090668e-08 -4.594757e-08 3.445835e-08 -7.994886e-08
6.366241e-08 2.918777e-08 5.555618e-08 -3.901242e-08 3.523905e-08 -1.025938e-07
4.777457e-08 2.868964e-08 3.726356e-08 -3.562191e-08 3.211186e-08 -8.441181e-08
2.807791e-08 1.707716e-07 -2.233935e-07 -7.593027e-08 -1.612350e-07 -5.135218e-09
-1.417311e-08 3.601346e-07 -2.924686e-07 -1.170687e-07 -1.554870e-07 5.315393e-08
2.170585e-08 1.885194e-07 -1.259157e-07 -1.167889e-07 -2.221702e-08 -4.549643e-08
-1.042959e-08 2.600359e-07 -1.372082e-07 -1.322269e-07 -5.520005e-08 -6.903668e-08
8.209348e-09 -4.408102e-09 -1.088831e-09 3.413316e-09 3.669034e-10 3.272991e-10
8.351718e-09 -4.617594e-09 -1.067820e-09 3.300860e-09 3.081395e-10 2.085618e-10
8.260717e-09 -4.499507e-09 -1.098875e-09 3.241968e-09 3.911952e-10 2.709188e-10
8.521537e-09 -4.557486e-09 -1.092453e-09 3.199235e-09 3.674130e-10 3.221535e-10
4.212190e-08 -9.285967e-09 -5.508776e-09 4.206243e-09 1.351002e-09 -1.298037e-08
4.195185e-08 -9.519001e-09 -4.697918e-09 4.408028e-09 1.287108e-09 -1.298733e-08
4.082602e-08 -1.008139e-08 -4.330074e-09 2.269717e-09 1.271285e-09 -1.465363e-08
4.178935e-08 -9.972709e-09 -4.651657e-09 1.929587e-09 1.019939e-09 -1.356484e-08
-6.056243e-08 2.468880e-08 -4.395698e-08 -8.866805e-08 -8.001043e-08 -9.109502e-08
-6.622931e-08 7.706217e-08 -7.560104e-08 -6.891502e-08 -7.165320e-08 -1.087412e-07
-7.002618e-08 7.500807e-08 -6.339467e-08 -7.448902e-08 -7.215913e-08 -9.829485e-08
-6.090627e-08 4.387013e-08 -3.945218e-08 -6.146425e-08 -5.928164e-08 -8.303243e-08
9.486243e-08 -7.171285e-08 -3.083062e-07 -1.140902e-07 -3.926997e-07 -7.710527e-08
9.489570e-08 -4.636647e-08 -3.100139e-07 -1.179014e-07 -3.833229e-07 -7.684357e-08
5.471497e-08 -4.652057e-08 -3.099740e-07 -1.283616e-07 -3.834692e-07 -7.583099e-08
1.102695e-07 -1.323660e-07 -2.995837e-07 -8.653388e-08 -3.754320e-07 -5.065875e-08
9.339165e-08 -6.729684e-08 -2.847500e-07 -9.921274e-08 -3.743623e-07 -6.741550e-08
9.337445e-08 -4.518026e-08 -2.866977e-07 -1.063443e-07 -3.709773e-07 -6.611687e-08
9.068397e-08 -3.989858e-08 -2.583542e-07 -1.117366e-07 -3.090399e-07 -5.371770e-08
8.060187e-08 -4.033574e-08 -2.646692e-07 -7.303914e-08 -3.201252e-07 -4.120379e-08
8.987539e-09 1.321170e-07 -2.866758e-07 -1.026054e-07 -3.108700e-07 -1.215097e-07
8.744967e-09 1.374134e-07 -3.372427e-07 -1.041796e-07 -3.034752e-07 -1.302848e-07
1.145512e-08 2.414471e-07 -3.122913e-07 -1.210702e-07 -2.227402e-07 -1.444938e-07
1.780991e-09 2.062217e-07 -2.865795e-07 -8.042748e-08 -2.229253e-07 -1.133449e-07
1.238945e-08 -5.348278e-09 -1.734133e-09 4.581243e-09 3.375305e-10 8.630875e-11
1.218142e-08 -5.352831e-09 -1.747897e-09 4.613291e-09 3.293138e-10 1.398242e-10
1.262609e-08 -5.404175e-09 -1.721930e-09 4.395167e-09 2.737705e-10 2.473823e-10
1.284722e-08 -5.586053e-09 -1.743633e-09 4.043525e-09 1.957200e-10 -6.591609e-12
1.004764e-08 -4.684530e-09 -1.450792e-09 4.156746e-09 4.691776e-10 4.087029e-10
1.048337e-08 -4.822239e-09 -1.526137e-09 4.079326e-09 3.467475e-10 2.131642e-10
1.038729e-08 -4.758080e-09 -1.506812e-09 4.113310e-09 4.405494e-10 3.787812e-10
1.005081e-08 -4.753837e-09 -1.266749e-09 4.130228e-09 3.922046e-10 5.403305e-10
6.726751e-09 -3.530071e-09 -9.190861e-10 2.812965e-09 1.733789e-10 1.807169e-10
6.708483e-09 -3.530073e-09 -9.573196e-10 2.811280e-09 1.654717e-10 1.337723e-10
6.601077e-09 -3.569330e-09 -1.045164e-09 2.877948e-09 2.242253e-10 3.328338e-11
6.581693e-09 -3.520621e-09 -8.896233e-10 2.844375e-09 1.362488e-10 8.197765e-11
-2.737259e-08 2.764653e-08 -1.339639e-07 -1.841029e-07 -2.058978e-07 -7.200500e-08
-5.671331e-08 5.325061e-08 -1.314389e-07 -1.554960e-07 -2.154946e-07 -9.083415e-08
-5.013614e-08 1.489031e-07 -2.522256e-07 -1.223624e-07 -1.470297e-07 -9.596274e-08
-3.625548e-08 9.414488e-08 -1.242027e-07 -1.267259e-07 -1.267429e-07 -5.043147e-08
9.256015e-08 -1.927691e-09 2.438622e-08 -4.221358e-08 3.012125e-08 -8.023835e-08
8.538377e-08 -1.965257e-09 2.057924e-08 -4.073205e-08 2.944447e-08 -7.427880e-08
8.223108e-08 1.159716e-09 1.239319e-08 -3.883733e-08 2.480110e-08 -6.903868e-08
8.438887e-08 2.723031e-09 2.587122e-08 -4.455189e-08 3.114517e-08 -7.707063e-08
7.234129e-08 -7.566145e-09 3.840898e-09 -9.900433e-09 3.549118e-09 -4.728251e-08
7.158597e-08 -7.279477e-09 3.438929e-09 -9.642330e-09 4.316905e-09 -4.503299e-08
6.635492e-08 -7.224025e-09 5.517478e-09 -9.048058e-09 3.972944e-09 -4.792065e-08
6.424504e-08 -8.478166e-09 1.134901e-08 -5.042897e-09 3.473556e-09 -5.435137e-08
4.523901e-08 6.583986e-08 -3.483272e-07 -9.441125e-08 -3.660083e-07 -1.227717e-07
4.746646e-08 2.964578e-08 -3.032310e-07 -9.441072e-08 -2.781902e-07 -9.879248e-08
8.302815e-08 2.139035e-07 -3.708978e-07 -7.987909e-10 -3.182335e-07 -8.886666e-08
3.523984e-08 1.763359e-07 -3.458744e-07 -6.651738e-08 -2.976284e-07 -1.022193e-07
8.521894e-08 4.373151e-08 -3.741278e-07 -8.575334e-08 -3.926652e-07 -7.159214e-08
9.485222e-08 -9.756898e-09 -3.222222e-07 -1.256871e-07 -4.133519e-07 -8.330271e-08
9.079317e-08 6.153570e-08 -3.819217e-07 -7.321222e-08 -3.885762e-07 -7.404731e-08
7.567301e-08 8.630952e-08 -3.752007e-07 -9.859832e-08 -4.053301e-07 -4.311019e-08
6.539735e-08 7.144211e-08 -3.614757e-07 -8.426049e-08 -3.305958e-07 -7.799486e-08
4.056702e-08 8.195573e-08 -3.040556e-07 -9.362056e-08 -3.030042e-07 -8.026255e-08
8.825286e-08 6.722602e-08 -3.403722e-07 -8.923216e-08 -2.775501e-07 -6.846083e-08
1.126636e-07 9.660643e-08 -4.457128e-07 -6.202274e-08 -4.089417e-07 -4.796349e-08
1.200011e-07 1.727937e-07 -4.758673e-07 -5.368951e-08 -3.343638e-07 -3.011887e-08
1.007846e-07 9.268923e-08 -4.903230e-07 -6.936177e-08 -3.852984e-07 -1.721409e-08
1.199436e-07 8.601288e-08 -4.969592e-07 -6.200393e-08 -3.773724e-07 -3.464563e-08
1.192599e-07 1.041248e-07 -3.927918e-07 -6.812570e-08 -2.123502e-07 -2.835598e-08
7.708539e-08 1.267142e-07 -4.034724e-07 -1.034003e-07 -2.619513e-07 -5.874994e-08
1.034926e-07 1.024976e-07 -4.468480e-07 -7.507728e-08 -3.002676e-07 -4.598202e-08
4.078601e-08 8.376537e-08 -4.239231e-07 -6.811133e-08 -4.080936e-07 -2.444573e-08
4.036633e-08 1.297240e-07 -3.465080e-07 -6.604497e-08 -2.556518e-07 -3.240723e-08
2.122051e-08 1.939532e-07 -3.420462e-07 -7.539947e-08 -3.051532e-07 -5.148268e-08
1.830518e-08 1.879169e-07 -4.224298e-07 -7.970560e-08 -2.795571e-07 -3.532235e-08
1.066064e-07 7.773905e-08 -4.240649e-07 -7.435307e-08 -4.027827e-07 -3.705797e-08
1.064467e-07 1.216556e-07 -3.518519e-07 -6.772895e-08 -2.487447e-07 -3.711376e-08
1.179202e-07 1.477656e-07 -4.242495e-07 -4.595424e-08 -2.658791e-07 -2.775557e-08
8.849333e-08 1.784467e-07 -3.742250e-07 -7.776858e-08 -2.194750e-07 -4.040080e-08
4.801814e-08 -1.270508e-07 -2.877071e-07 -1.112606e-07 -4.416866e-07 -7.532404e-08
4.738173e-08 3.242509e-08 -2.208222e-07 -1.215495e-07 -3.115326e-07 -7.656937e-08
6.269446e-08 -1.531862e-07 -2.268968e-07 -2.292849e-07 -3.534085e-07 -1.170798e-07
1.166194e-08 -7.030085e-08 -2.131970e-07 -1.143440e-07 -3.176915e-07 -8.641485e-08
-6.177388e-08 1.160613e-07 -3.619843e-08 -1.728286e-08 2.282109e-08 2.830807e-08
-5.318370e-08 1.309994e-07 -3.399516e-08 -5.776802e-09 2.855811e-08 3.273090e-08
-5.264987e-08 1.063265e-07 -4.478354e-08 -1.686794e-08 9.070550e-10 3.086025e-08
-5.828752e-08 1.569677e-07 -6.710722e-08 -2.301598e-08 1.866726e-08 4.220518e-08
-4.521637e-08 7.757577e-08 -1.967672e-07 1.010454e-07 -2.129480e-07 1.476738e-07
-3.291720e-08 1.253292e-07 -1.811245e-07 7.172262e-08 -1.578817e-07 1.303859e-07
2.138347e-08 1.378911e-07 -1.267476e-07 8.876643e-09 -1.095344e-07 7.359374e-08
-3.464248e-08 4.122648e-08 -1.736946e-07 9.910346e-08 -1.798320e-07 1.283597e-07
-1.983347e-08 8.994508e-08 5.007612e-08 3.394295e-08 1.232135e-08 -9.986321e-09
-5.306291e-08 9.468718e-08 1.366031e-08 1.387584e-08 2.422212e-08 2.814641e-08
-6.202086e-08 9.407725e-08 -9.360379e-09 1.633173e-08 2.003254e-08 4.270094e-08
-1.262587e-08 8.076680e-08 5.278217e-08 1.176188e-08 1.473859e-08 -1.633845e-08
5.436498e-08 -9.478544e-09 -4.377794e-09 -2.230306e-09 2.379595e-09 -1.991235e-08
5.545799e-08 -1.044449e-08 -3.191796e-09 -3.396999e-09 2.932810e-09 -2.118332e-08
4.809295e-08 -9.778843e-09 -1.793864e-09 -8.849733e-10 7.647443e-10 -1.959772e-08
5.139185e-08 -8.644851e-09 -2.552491e-09 -6.833091e-09 3.469361e-09 -1.960173e-08
5.094360e-08 -1.023769e-08 -3.899896e-09 4.489626e-09 4.625597e-10 -1.896144e-08
5.437635e-08 -8.853051e-09 -2.086228e-09 3.844013e-09 -3.746737e-10 -2.086540e-08
5.371098e-08 -1.070941e-08 -4.111673e-09 4.869735e-09 -1.070074e-10 -1.971197e-08
5.515933e-08 -9.629260e-09 -3.533867e-09 3.611256e-09 6.904570e-10 -2.065509e-08
5.333730e-08 -1.000094e-08 2.197491e-09 5.273101e-09 7.934951e-10 -2.679949e-08
4.990005e-08 -1.063696e-08 1.376911e-09 7.086256e-09 -2.133788e-10 -2.277188e-08
5.270239e-08 -1.093921e-08 1.520274e-09 5.735918e-09 -4.553330e-10 -2.212718e-08
4.655347e-08 -1.006710e-08 -4.707672e-09 6.332615e-09 2.112223e-10 -1.667036e-08
4.289631e-08 -9.623791e-09 -4.777921e-09 7.042866e-09 5.726033e-10 -1.493141e-08
4.654906e-08 -1.025940e-08 -4.765428e-09 6.211974e-09 3.827821e-10 -1.664515e-08
4.456125e-08 -9.718554e-09 -4.993433e-09 6.605852e-09 4.232461e-10 -1.589075e-08
4.502544e-08 -9.606921e-09 -1.562892e-09 6.892238e-09 -4.080219e-10 -1.888728e-08
4.322804e-08 -1.131905e-08 -8.239448e-10 8.646640e-09 -8.227563e-11 -1.920509e-08
4.581119e-08 -1.067358e-08 8.923984e-11 7.321554e-09 8.463109e-10 -2.135216e-08
5.259770e-08 -1.066535e-08 -2.722159e-09 5.322440e-09 2.874682e-10 -2.064358e-08
5.189855e-08 -1.064308e-08 6.169476e-11 5.429841e-09 7.051733e-12 -2.104219e-08
4.915266e-08 -1.039070e-08 -3.486622e-11 6.993084e-09 1.227768e-10 -2.168908e-08
4.956101e-08 -1.115178e-08 2.875311e-11 7.138212e-09 1.134644e-09 -2.266582e-08
4.750589e-08 -1.045771e-08 -4.606286e-09 6.183768e-09 -1.886781e-10 -1.754070e-08
4.729868e-08 -1.045299e-08 -2.350823e-09 6.216689e-09 -3.328212e-10 -1.757777e-08
4.889627e-08 -1.103137e-08 -9.752971e-10 7.311014e-09 2.286144e-10 -2.129420e-08
4.714285e-08 -1.164640e-08 -1.642233e-09 8.424053e-09 -6.007321e-10 -1.945014e-08
2.888285e-08 -7.581491e-09 -3.675820e-09 6.758183e-09 -3.415868e-10 -6.320021e-09
2.867439e-08 -7.690979e-09 -3.304397e-09 6.933103e-09 -3.992707e-11 -7.094140e-09
2.860512e-08 -7.842318e-09 -2.784198e-09 7.039672e-09 -1.600970e-10 -7.069122e-09
2.842045e-08 -8.390777e-09 -2.901302e-09 6.681428e-09 -5.024710e-10 -7.361799e-09
3.102074e-08 -7.886373e-09 -3.914683e-09 5.652766e-09 6.348805e-10 -6.992987e-09
3.062944e-08 -7.751368e-09 -4.141011e-09 5.816866e-09 5.689023e-10 -6.682343e-09
3.085999e-08 -8.021876e-09 -3.907446e-09 4.075144e-09 8.287777e-10 -7.360784e-09
3.157785e-08 -8.364918e-09 -4.456826e-09 4.789215e-09 3.941091e-10 -6.511323e-09
9.577433e-08 -2.075010e-09 4.056020e-08 -3.927923e-08 2.949895e-08 -1.032953e-07
1.031253e-07 -4.005852e-09 3.652384e-08 -4.220670e-08 3.577325e-08 -1.076671e-07
8.087714e-08 -4.468736e-09 6.894638e-08 -3.315062e-08 2.915895e-08 -1.184979e-07
9.472757e-08 -4.852282e-09 6.307193e-08 -3.360643e-08 2.763865e-08 -1.217825e-07
6.049444e-09 -3.266645e-09 -8.546426e-10 3.065620e-09 3.108578e-10 2.306075e-10
6.234117e-09 -3.391166e-09 -8.685346e-10 3.075987e-09 4.087553e-10 3.306302e-10
6.088296e-09 -3.043792e-09 -8.483014e-10 3.466129e-09 3.239915e-10 2.192373e-10
6.042303e-09 -3.035034e-09 -8.331420e-10 3.453659e-09 3.019975e-10 3.011040e-10
5.956199e-09 -3.074936e-09 -8.082246e-10 2.993503e-09 4.102332e-10 2.179874e-10
5.749897e-09 -3.074113e-09 -7.649099e-10 3.228529e-09 3.717040e-10 1.017719e-10
5.465246e-09 -2.927615e-09 -7.925571e-10 3.139420e-09 4.266734e-10 2.301688e-10
5.425257e-09 -3.038268e-09 -7.805614e-10 3.058295e-09 3.754068e-10 2.189777e-10
3.057393e-08 -1.145984e-07 -2.696767e-07 -1.692754e-07 -4.234200e-07 -1.102074e-07
3.400400e-08 2.935596e-08 -2.118273e-07 -1.108006e-07 -3.122721e-07 -8.889968e-08
2.000885e-08 -7.202398e-09 -2.377374e-07 -8.809529e-08 -3.455314e-07 -6.756330e-08
1.913185e-08 -1.791646e-07 -2.499258e-07 -1.040299e-07 -3.933719e-07 -7.117653e-08
4.274322e-08 1.738905e-07 -2.965697e-07 -1.403506e-07 -3.110955e-07 -1.231659e-07
4.030042e-08 1.773689e-07 -3.455295e-07 -1.397973e-07 -2.972200e-07 -1.372067e-07
1.820117e-08 1.275348e-07 -2.982960e-07 -5.246001e-08 -2.545601e-07 -1.072398e-07
-3.879518e-08 3.759180e-07 -3.537876e-07 -1.340550e-07 -2.391736e-07 -1.810701e-07
1.394905e-08 -5.563418e-09 -1.940399e-09 4.898211e-09 5.895183e-10 -1.982191e-11
1.310606e-08 -5.455637e-09 -2.014592e-09 4.778924e-09 6.731162e-10 1.876992e-10
1.328813e-08 -5.564459e-09 -2.023432e-09 4.926060e-09 5.800645e-10 2.177698e-10
1.336788e-08 -5.564108e-09 -2.084742e-09 4.918668e-09 5.750038e-10 2.234595e-10
1.391156e-08 -5.797413e-09 -1.949651e-09 4.360041e-09 5.639184e-10 -3.081932e-10
1.416770e-08 -5.661622e-09 -1.959283e-09 4.585051e-09 6.951428e-10 3.543655e-11
1.332220e-08 -5.487164e-09 -1.968034e-09 4.837971e-09 6.468737e-10 1.291495e-10
1.487558e-08 -5.698818e-09 -2.309862e-09 5.023125e-09 4.589909e-10 -6.861199e-11
1.579758e-08 -5.671901e-09 -2.097368e-09 5.104847e-09 4.346623e-10 -4.810254e-10
1.497461e-08 -5.671042e-09 -2.322419e-09 5.101094e-09 4.476923e-10 -5.498933e-11
1.500602e-08 -5.670647e-09 -2.328929e-09 5.093617e-09 4.431190e-10 -4.934762e-11
1.511347e-08 -5.833910e-09 -2.026166e-09 4.756442e-09 4.934747e-10 -4.511558e-10
1.570212e-08 -5.914420e-09 -2.033409e-09 4.577953e-09 4.693261e-10 -5.037415e-10
1.557112e-08 -5.919245e-09 -2.167076e-09 4.486463e-09 4.260910e-10 -6.856149e-10
1.417986e-08 -5.697389e-09 -2.078022e-09 5.007409e-09 4.491418e-10 3.958613e-11
1.413616e-08 -5.598161e-09 -2.118212e-09 5.034395e-09 4.855623e-10 1.017770e-10
1.449885e-08 -5.952070e-09 -2.114143e-09 4.705870e-09 4.559270e-10 8.135283e-12
1.443577e-08 -5.917456e-09 -2.012732e-09 4.470516e-09 5.456479e-10 -1.348498e-10
1.443725e-08 -5.698187e-09 -2.294750e-09 5.018023e-09 4.645056e-10 1.274915e-11
1.439343e-08 -5.599767e-09 -2.301694e-09 5.023397e-09 5.079007e-10 4.903590e-11
1.423864e-08 -5.912162e-09 -2.208041e-09 4.378916e-09 4.813828e-10 -3.413341e-10
1.447231e-08 -5.879298e-09 -2.090942e-09 4.554531e-09 5.437006e-10 -3.583843e-11
4.161812e-08 -7.299459e-09 -5.029419e-09 6.798750e-09 -2.341541e-10 -1.455432e-08
4.045806e-08 -7.002026e-09 -4.787022e-09 7.842176e-09 -6.449167e-10 -1.474389e-08
4.023864e-08 -7.420508e-09 -2.958247e-09 8.366428e-09 -1.102824e-09 -1.517966e-08
3.922981e-08 -7.525544e-09 -3.428151e-09 8.695852e-09 -8.313746e-10 -1.595592e-08
4.212337e-08 -9.114211e-09 -5.835916e-09 4.086787e-09 1.561654e-09 -1.334547e-08
4.176042e-08 -9.574786e-09 -5.443794e-09 4.514526e-09 1.661865e-09 -1.355767e-08
4.348711e-08 -9.171527e-09 -5.319520e-09 1.629238e-09 2.024837e-09 -1.419780e-08
4.320735e-08 -9.806786e-09 -5.253985e-09 1.203824e-09 1.610205e-09 -1.443394e-08
6.303990e-08 -9.198947e-09 -3.450918e-09 3.565227e-09 -1.423617e-09 -2.894341e-08
6.312773e-08 -9.776641e-09 -4.012361e-09 3.708794e-09 -7.034468e-10 -2.932619e-08
6.099016e-08 -1.099755e-08 1.776335e-09 6.924958e-09 -1.569490e-09 -3.341353e-08
6.181530e-08 -1.092917e-08 7.026355e-10 6.663003e-09 -1.698447e-09 -3.340419e-08
2.337782e-08 -6.845609e-09 -2.955492e-09 6.845545e-09 1.778664e-10 -3.597281e-09
2.185734e-08 -6.860747e-09 -3.091877e-09 6.802288e-09 3.090721e-10 -2.960397e-09
2.299308e-08 -6.854173e-09 -3.207212e-09 6.757841e-09 2.463087e-10 -3.285717e-09
2.234343e-08 -6.901858e-09 -3.248136e-09 6.995181e-09 1.254696e-10 -3.059829e-09
2.246430e-08 -6.991796e-09 -2.081062e-09 6.833621e-09 5.112154e-11 -3.904045e-09
2.263361e-08 -7.183570e-09 -2.489490e-09 7.027316e-09 3.629695e-10 -4.029252e-09
2.270018e-08 -6.821787e-09 -2.747393e-09 6.775204e-09 5.460109e-10 -3.961242e-09
2.503867e-08 -7.167550e-09 -3.110626e-09 6.980951e-09 1.384230e-10 -4.249819e-09
2.668145e-08 -7.163879e-09 -2.604930e-09 6.848478e-09 6.310396e-11 -4.970677e-09
2.572839e-08 -7.200471e-09 -3.292290e-09 7.007999e-09 6.101187e-11 -4.202290e-09
2.634141e-08 -7.176999e-09 -3.111286e-09 6.741769e-09 2.272954e-10 -4.539332e-09
2.520934e-08 -7.247520e-09 -1.421981e-09 7.328937e-09 9.428938e-11 -6.131657e-09
2.513406e-08 -7.357947e-09 -1.331870e-09 7.432438e-09 -1.139338e-10 -6.038893e-09
2.593710e-08 -7.206178e-09 -1.522734e-09 6.993944e-09 -9.461663e-11 -5.795251e-09
2.400351e-08 -6.955146e-09 -3.293577e-09 6.810783e-09 -1.697075e-11 -3.585630e-09
2.419717e-08 -7.010299e-09 -2.684742e-09 6.816982e-09 3.886935e-10 -4.466852e-09
2.396526e-08 -7.570606e-09 -2.631124e-09 7.177460e-09 6.666725e-11 -4.258438e-09
2.388210e-08 -7.685110e-09 -2.455586e-09 7.078374e-09 -3.601327e-11 -4.320998e-09
2.406303e-08 -7.135211e-09 -3.232111e-09 6.946899e-09 1.117792e-10 -3.840862e-09
2.440629e-08 -7.147334e-09 -2.547830e-09 6.877454e-09 5.220308e-10 -4.776443e-09
2.444115e-08 -7.301556e-09 -2.278115e-09 6.608462e-09 2.251054e-10 -4.643121e-09
2.395336e-08 -7.536275e-09 -2.240406e-09 6.948648e-09 3.084795e-10 -4.782770e-09
5.669114e-08 -8.269347e-09 -5.231556e-09 5.170276e-09 -1.183098e-09 -2.442849e-08
5.741299e-08 -8.961532e-09 1.303144e-09 7.404275e-09 -1.115272e-09 -3.185058e-08
5.630554e-08 -9.770903e-09 1.581012e-10 9.451133e-09 -2.235080e-09 -2.773607e-08
5.461860e-08 -9.776900e-09 -5.666578e-10 9.717894e-09 -1.823552e-09 -2.930613e-08
3.685237e-08 -7.678224e-09 -4.269487e-09 4.626033e-09 4.242266e-10 -8.137474e-09
4.013233e-08 -7.969650e-09 -3.320926e-09 4.018459e-09 7.095400e-10 -1.047254e-08
3.644696e-08 -7.976340e-09 -4.300261e-09 4.238317e-09 5.272447e-10 -8.025330e-09
3.731452e-08 -7.977872e-09 -4.881441e-09 4.201875e-09 5.859809e-10 -8.330569e-09
3.770898e-08 -8.774256e-09 -2.765472e-09 2.956765e-09 1.444266e-09 -9.656878e-09
3.767379e-08 -8.325218e-09 -3.163985e-09 2.724137e-09 7.574078e-10 -8.826016e-09
3.764930e-08 -7.883369e-09 -3.984442e-09 2.867364e-09 7.885184e-10 -9.057450e-09
3.408562e-08 -7.838015e-09 -5.129341e-09 4.917016e-09 5.871849e-10 -6.940775e-09
3.161805e-08 -7.828091e-09 -4.771041e-09 5.335124e-09 7.643774e-10 -6.559794e-09
3.325629e-08 -7.835141e-09 -4.950015e-09 4.944901e-09 6.099222e-10 -6.745286e-09
3.148433e-08 -7.873981e-09 -4.735163e-09 5.226246e-09 6.301829e-10 -6.647163e-09
3.282396e-08 -7.974973e-09 -4.293403e-09 3.744305e-09 9.557819e-10 -7.737226e-09
3.402527e-08 -8.335821e-09 -4.741460e-09 4.442320e-09 5.531852e-10 -7.011847e-09
3.405798e-08 -8.456248e-09 -4.742359e-09 4.561038e-09 6.397192e-10 -7.192942e-09
3.546880e-08 -7.655034e-09 -5.273510e-09 4.581852e-09 4.540247e-10 -6.957374e-09
3.599838e-08 -7.890193e-09 -4.991593e-09 2.984728e-09 6.982206e-10 -7.767115e-09
3.600052e-08 -8.358805e-09 -3.865998e-09 2.979458e-09 5.752835e-10 -7.717993e-09
3.464840e-08 -8.128279e-09 -4.623011e-09 3.505385e-09 4.139430e-10 -6.596093e-09
3.384190e-08 -7.683532e-09 -5.047911e-09 4.804853e-09 4.690444e-10 -6.908845e-09
3.532424e-08 -7.925721e-09 -4.826681e-09 3.194072e-09 7.341049e-10 -7.643110e-09
3.358496e-08 -8.134145e-09 -4.768100e-09 3.967242e-09 6.505096e-10 -7.010545e-09
3.324623e-08 -8.028007e-09 -4.748949e-09 4.016406e-09 5.219966e-10 -6.847973e-09
3.995116e-08 -7.451568e-09 -4.927333e-09 7.674263e-09 -3.018809e-10 -1.349668e-08
4.089474e-08 -7.546126e-09 -2.191688e-09 7.978167e-09 -2.299111e-10 -1.604282e-08
4.092644e-08 -8.501091e-09 -2.227361e-09 8.467376e-09 -1.032010e-09 -1.520751e-08
3.948270e-08 -8.313838e-09 -1.958774e-09 8.615385e-09 -3.229362e-10 -1.658907e-08
-5.800975e-08 3.717023e-08 -5.092453e-08 -9.283896e-08 -7.251040e-08 -8.403392e-08
-5.771497e-08 2.618801e-08 -5.651850e-08 -1.054868e-07 -8.665752e-08 -9.780245e-08
-4.830724e-08 4.206206e-08 -5.237406e-08 -8.590181e-08 -7.056004e-08 -8.181671e-08
-5.082502e-08 4.651814e-08 -5.801648e-08 -9.202881e-08 -6.911316e-08 -9.198428e-08
-4.872898e-08 4.274000e-08 -6.450429e-08 -9.081176e-08 -8.027523e-08 -9.650699e-08
-5.424299e-08 4.065959e-08 -5.452210e-08 -8.650002e-08 -8.001413e-08 -9.119378e-08
-5.058333e-08 4.090101e-08 -5.807735e-08 -8.763745e-08 -8.050738e-08 -9.165434e-08
-5.707406e-08 4.037322e-08 -3.816920e-08 -8.278092e-08 -5.736931e-08 -7.542558e-08
-5.673041e-08 4.104598e-08 -2.817972e-08 -6.914291e-08 -5.096789e-08 -5.998495e-08
-4.554717e-08 5.352219e-08 -3.227247e-08 -6.892341e-08 -4.499680e-08 -6.659111e-08
-4.788699e-08 4.624400e-08 -3.400239e-08 -6.232477e-08 -5.050621e-08 -5.861443e-08
-4.974905e-08 4.877230e-08 -5.429470e-08 -6.351032e-08 -6.508444e-08 -6.766304e-08
-5.272562e-08 5.045471e-08 -4.385443e-08 -6.400719e-08 -6.068362e-08 -6.713352e-08
-4.554964e-08 5.401205e-08 -5.450582e-08 -6.908996e-08 -6.157732e-08 -6.682587e-08
-5.355887e-08 5.074702e-08 -4.542797e-08 -8.195380e-08 -5.630242e-08 -7.873577e-08
-5.097223e-08 5.474646e-08 -5.901371e-08 -7.873341e-08 -7.427906e-08 -9.243002e-08
-5.368888e-08 5.499967e-08 -5.486571e-08 -7.760236e-08 -7.295283e-08 -9.116858e-08
-4.564170e-08 6.401569e-08 -5.466306e-08 -6.908450e-08 -5.785972e-08 -7.687454e-08
-5.282245e-08 4.732192e-08 -4.156402e-08 -7.623247e-08 -5.652742e-08 -7.204129e-08
-4.945152e-08 5.138436e-08 -5.875031e-08 -7.241615e-08 -7.595710e-08 -8.543754e-08
-3.680214e-08 5.783737e-08 -6.053284e-08 -6.329468e-08 -6.388784e-08 -7.081529e-08
-4.300765e-08 5.416978e-08 -5.056478e-08 -5.761901e-08 -6.271078e-08 -6.747266e-08
8.496894e-08 -1.692207e-09 2.441515e-08 -4.033768e-08 3.003000e-08 -8.134611e-08
8.211709e-08 -1.707225e-09 1.969161e-08 -4.001307e-08 2.976243e-08 -7.598951e-08
7.815183e-08 -5.837061e-10 2.543535e-08 -3.994071e-08 3.288061e-08 -7.918778e-08
6.449283e-08 -7.059401e-10 4.642165e-08 -3.410233e-08 2.962012e-08 -9.266019e-08
1.325259e-08 -5.466044e-09 -1.990906e-09 4.962372e-09 6.202433e-10 1.256888e-10
1.280042e-08 -5.801977e-09 -1.980922e-09 4.456968e-09 5.387286e-10 -9.272693e-11
1.306487e-08 -5.672760e-09 -2.000236e-09 4.700646e-09 6.621541e-10 3.036412e-10
1.355901e-08 -5.830902e-09 -2.125195e-09 4.310850e-09 5.215772e-10 -4.035393e-11
9.293085e-08 -9.407680e-09 -1.057355e-10 -5.455314e-09 3.283454e-09 -5.465641e-08
9.354378e-08 -9.813043e-09 -2.051841e-09 -6.054060e-09 5.743617e-09 -5.543192e-08
9.558718e-08 -1.041838e-08 2.980586e-09 3.542244e-09 -6.523278e-10 -5.984291e-08
9.683677e-08 -1.164539e-08 -6.189037e-10 2.410670e-09 1.454108e-09 -5.809598e-08
3.304102e-08 -8.054615e-09 -4.145601e-09 6.138348e-09 9.352984e-11 -7.667198e-09
3.021644e-08 -7.742208e-09 -4.053605e-09 6.890042e-09 -6.936050e-11 -6.889953e-09
3.169000e-08 -8.045464e-09 -4.332959e-09 6.013754e-09 8.678413e-11 -6.809801e-09
3.204637e-08 -7.774739e-09 -4.214387e-09 6.995402e-09 -1.672106e-10 -7.111516e-09
3.165117e-08 -8.136845e-09 -3.499295e-09 5.874926e-09 -2.190965e-10 -7.839881e-09
3.201735e-08 -8.560541e-09 -2.562952e-09 6.785246e-09 -1.914652e-10 -9.375191e-09
3.218764e-08 -7.942529e-09 -2.846873e-09 7.316867e-09 9.715769e-11 -8.780250e-09
3.570116e-08 -8.315162e-09 -4.142019e-09 6.060650e-09 5.916507e-10 -9.111801e-09
3.828684e-08 -8.244131e-09 -3.022872e-09 6.152079e-09 2.173681e-10 -1.081823e-08
3.689977e-08 -8.575378e-09 -4.266541e-09 6.218985e-09 2.726921e-10 -9.505115e-09
3.750402e-08 -8.360693e-09 -4.020968e-09 5.845092e-09 5.585452e-10 -9.923363e-09
3.667684e-08 -8.390045e-09 -1.285663e-09 6.008255e-09 8.889629e-10 -1.247778e-08
3.596014e-08 -9.108583e-09 -1.043221e-09 6.730148e-09 1.698059e-10 -1.184601e-08
3.705865e-08 -8.695914e-09 -9.323839e-10 6.051246e-09 -1.039558e-10 -1.135957e-08
3.418110e-08 -8.088118e-09 -4.156200e-09 6.294306e-09 -4.161295e-11 -8.036848e-09
3.399594e-08 -8.315839e-09 -2.894993e-09 6.087738e-09 -6.081911e-10 -8.627698e-09
3.283495e-08 -8.622857e-09 -2.653071e-09 6.734645e-09 -2.976986e-10 -9.181946e-09
3.340143e-08 -8.327989e-09 -3.649268e-09 5.979066e-09 -3.885009e-10 -7.764906e-09
3.573816e-08 -8.291423e-09 -3.451586e-09 6.097333e-09 4.512125e-10 -9.381374e-09
3.559035e-08 -8.563609e-09 -1.816645e-09 5.877913e-09 -1.134572e-10 -1.012225e-08
3.484328e-08 -9.065740e-09 -1.964012e-09 6.550335e-09 2.808891e-10 -1.080812e-08
3.491744e-08 -9.109597e-09 -1.639816e-09 6.529266e-09 4.131158e-10 -1.099142e-08
7.012777e-08 -8.973536e-09 -3.444546e-09 -5.065045e-09 3.097340e-09 -3.083464e-08
6.498215e-08 -9.581160e-09 -5.374816e-09 -2.257668e-09 2.716265e-09 -2.636731e-08
6.246508e-08 -9.002715e-09 -5.749578e-09 -4.533812e-09 2.797763e-09 -2.662484e-08
6.212169e-08 -9.090162e-09 -5.316527e-09 -4.083243e-09 3.024251e-09 -2.637159e-08
6.419293e-08 -8.849986e-09 -2.982294e-09 -6.462750e-09 4.632815e-09 -2.883720e-08
6.458558e-08 -9.445166e-09 -3.159763e-09 -6.400768e-09 4.101162e-09 -2.843729e-08
6.376138e-08 -9.289250e-09 -3.147072e-09 -6.233248e-09 4.259396e-09 -2.865266e-08
7.619923e-08 -9.764094e-09 -1.102081e-09 -8.134539e-09 4.244252e-09 -3.633418e-08
8.129529e-08 -9.948591e-09 1.913185e-09 -1.131220e-08 6.547475e-09 -4.440708e-08
7.065313e-08 -9.702891e-09 1.398528e-10 -1.199246e-08 6.239692e-09 -3.612798e-08
7.299642e-08 -9.785824e-09 -2.737580e-09 -1.169983e-08 6.730321e-09 -3.815047e-08
7.436802e-08 -9.692030e-09 2.449605e-09 -1.437082e-08 9.422623e-09 -4.143893e-08
7.064263e-08 -9.144801e-09 1.257608e-09 -1.340167e-08 7.012186e-09 -3.769133e-08
7.143356e-08 -9.394398e-09 4.787675e-10 -1.293757e-08 6.569621e-09 -3.696705e-08
6.631573e-08 -9.692838e-09 -2.834318e-09 -7.988825e-09 3.889526e-09 -3.107420e-08
6.484487e-08 -9.836614e-09 -3.099505e-09 -6.305016e-09 3.673283e-09 -2.958852e-08
6.509235e-08 -1.052077e-08 -3.119017e-09 -6.430644e-09 2.950618e-09 -2.927261e-08
6.382756e-08 -9.381436e-09 -8.930437e-10 -1.261798e-08 6.273359e-09 -3.118485e-08
6.899429e-08 -9.711425e-09 -4.430864e-09 -8.031907e-09 4.069515e-09 -3.129489e-08
6.765632e-08 -9.876087e-09 -4.472519e-09 -6.494876e-09 3.974642e-09 -2.999794e-08
6.362903e-08 -9.374944e-09 -2.222143e-09 -1.264013e-08 6.366189e-09 -3.235477e-08
6.326642e-08 -9.114138e-09 -2.138909e-09 -1.275130e-08 6.598629e-09 -3.267926e-08
8.341429e-08 7.198565e-09 1.325584e-08 -4.535992e-08 3.274062e-08 -7.011589e-08
7.708481e-08 1.053056e-08 4.100611e-09 -3.909559e-08 2.565459e-08 -6.249444e-08
7.383768e-08 1.858852e-08 1.897849e-08 -5.537077e-08 4.082554e-08 -7.090363e-08
6.782570e-08 1.281096e-08 1.600617e-09 -4.740378e-08 3.078289e-08 -5.643064e-08
-3.489380e-08 2.202310e-08 -1.079567e-08 -4.023109e-08 -3.241095e-08 -3.455735e-08
-2.908063e-08 1.875936e-08 -1.057462e-08 -3.588781e-08 -2.849876e-08 -2.826871e-08
-3.672601e-08 1.934243e-08 -1.075550e-08 -4.250593e-08 -3.332945e-08 -3.515006e-08
-3.046838e-08 1.886311e-08 -8.533116e-09 -3.706492e-08 -2.795295e-08 -3.096347e-08
-2.956584e-08 8.692833e-09 -1.159454e-08 -3.701219e-08 -3.381827e-08 -3.147154e-08
-3.163907e-08 1.659806e-08 -1.176188e-08 -4.135667e-08 -3.453444e-08 -3.209573e-08
-3.423291e-08 1.412236e-08 -1.351760e-08 -4.414367e-08 -3.718598e-08 -3.584834e-08
-4.086514e-08 2.630653e-08 -1.317324e-08 -4.885953e-08 -3.757643e-08 -3.995987e-08
-4.627492e-08 2.852012e-08 -1.632584e-08 -5.750026e-08 -4.626816e-08 -4.625568e-08
-3.909166e-08 2.620948e-08 -1.250519e-08 -4.776879e-08 -3.804081e-08 -4.110896e-08
-4.632493e-08 2.710275e-08 -1.641052e-08 -5.800403e-08 -4.668383e-08 -4.647274e-08
-4.138127e-08 8.880210e-09 -1.996483e-08 -5.949924e-08 -5.496424e-08 -4.612477e-08
-3.689701e-08 2.509016e-08 -1.316872e-08 -5.076111e-08 -4.175329e-08 -3.995079e-08
-3.724471e-08 2.235489e-08 -1.367643e-08 -4.867703e-08 -4.055525e-08 -4.071829e-08
-3.517126e-08 2.199301e-08 -8.821650e-09 -3.987519e-08 -3.254434e-08 -3.615583e-08
-3.369642e-08 1.405672e-08 -1.175215e-08 -4.339167e-08 -3.756998e-08 -3.750842e-08
-3.260427e-08 1.666596e-08 -1.077679e-08 -4.108962e-08 -3.481139e-08 -3.372463e-08
-3.021610e-08 1.691229e-08 -9.569283e-09 -4.221821e-08 -3.401657e-08 -3.542293e-08
-4.169970e-08 2.292748e-08 -1.241519e-08 -5.060479e-08 -3.913723e-08 -4.108048e-08
-3.790530e-08 1.489724e-08 -1.424964e-08 -5.307831e-08 -4.352561e-08 -4.082956e-08
-3.900123e-08 1.472347e-08 -1.336278e-08 -5.257451e-08 -4.297262e-08 -4.145033e-08
-3.981055e-08 1.860327e-08 -1.327503e-08 -5.510934e-08 -4.406721e-08 -4.147343e-08
4.584936e-08 2.461989e-07 -3.806946e-07 1.510183e-08 -2.394530e-07 1.041065e-07
-3.253430e-09 3.126592e-07 -3.395733e-07 4.189532e-08 -1.653252e-07 1.126798e-07
1.786377e-08 2.270771e-07 -3.724961e-07 -9.462186e-09 -2.320281e-07 1.073552e-07
4.759454e-09 2.041284e-07 -3.710613e-07 2.788712e-08 -2.255938e-07 1.093106e-07
1.221397e-08 2.178449e-07 -2.805228e-07 7.453330e-09 -8.440276e-08 7.596619e-08
1.587517e-09 2.547157e-07 -3.237934e-07 -4.798785e-08 -1.316000e-07 4.821500e-08
1.197882e-08 2.251832e-07 -3.754938e-07 -5.140480e-09 -1.853235e-07 6.836933e-08
7.602275e-08 2.074008e-07 -4.155248e-07 5.579346e-09 -2.918487e-07 8.965159e-08
1.062505e-07 2.247402e-07 -4.179966e-07 -2.529151e-08 -2.910993e-07 4.307964e-08
5.741736e-08 1.944307e-07 -4.230159e-07 -1.400717e-08 -3.100138e-07 7.625410e-08
6.258951e-08 2.447212e-07 -4.188319e-07 -5.548387e-08 -2.929113e-07 5.526489e-08
5.995958e-08 2.430724e-07 -3.643229e-07 -5.320027e-08 -2.088021e-07 -1.310604e-08
1.569893e-08 2.608392e-07 -3.765579e-07 -5.317360e-08 -1.909708e-07 2.343949e-08
5.669657e-08 1.917095e-07 -3.498275e-07 -1.111869e-08 -1.574092e-07 5.654450e-08
4.916109e-08 2.111331e-07 -4.113856e-07 -2.184896e-08 -2.923542e-07 9.391526e-08
5.437383e-08 1.889962e-07 -3.784438e-07 -2.807995e-08 -1.959819e-07 6.489579e-08
3.966620e-08 2.464646e-07 -3.045041e-07 -2.599243e-08 -1.259292e-07 8.045261e-08
2.076920e-08 2.398158e-07 -3.329715e-07 -4.064371e-08 -1.404265e-07 4.201994e-08
5.091565e-09 2.092538e-07 -4.088870e-07 -7.764738e-09 -2.961180e-07 9.728161e-08
1.144697e-08 1.931263e-07 -3.801479e-07 -2.106819e-08 -1.988348e-07 7.424712e-08
2.130285e-09 2.059615e-07 -3.510984e-07 -6.855872e-09 -1.666403e-07 7.390440e-08
-2.161680e-08 2.891615e-07 -3.815141e-07 -5.224912e-08 -2.080413e-07 4.674301e-08
-1.507469e-08 2.065026e-07 -2.662568e-07 -3.327198e-09 -1.584547e-07 9.217502e-08
-1.357048e-08 2.282104e-07 -2.563466e-07 -9.126665e-09 -1.068447e-07 7.612963e-08
-2.726990e-08 2.624358e-07 -3.016576e-07 -6.476156e-08 -1.530606e-07 4.534347e-08
-8.433818e-09 2.111775e-07 -2.039495e-07 -6.962244e-08 -1.087176e-07 -1.693307e-09
7.409319e-09 -3.768903e-09 -1.059210e-09 3.866797e-09 3.751139e-10 2.861268e-12
7.110753e-09 -3.572492e-09 -1.056524e-09 4.156307e-09 4.128502e-10 1.160090e-10
7.075247e-09 -3.414935e-09 -1.052233e-09 3.958209e-09 3.868473e-10 1.493123e-10
6.978293e-09 -3.443169e-09 -1.025942e-09 4.072823e-09 3.954699e-10 1.110045e-11
5.258159e-08 -1.009600e-08 -3.865742e-09 2.618587e-09 3.508160e-10 -1.860169e-08
5.600015e-08 -1.125180e-08 -2.080394e-09 2.554452e-09 -6.722223e-10 -2.134007e-08
5.227284e-08 -1.144605e-08 -3.912907e-09 1.804368e-09 -3.178523e-11 -1.893812e-08
5.420910e-08 -1.183296e-08 -4.218621e-09 1.527812e-09 4.488605e-10 -1.938308e-08
5.345012e-08 -1.160005e-08 1.035479e-09 8.038869e-10 1.614162e-09 -2.168840e-08
5.191936e-08 -1.241203e-08 -1.973026e-10 1.986765e-09 5.279199e-10 -2.031191e-08
5.283350e-08 -1.218720e-08 -1.957709e-09 1.291672e-09 -1.589176e-10 -2.037128e-08
4.906420e-08 -9.835472e-09 -4.823915e-09 3.461452e-09 1.050682e-09 -1.685426e-08
4.543101e-08 -9.327998e-09 -5.334044e-09 4.130507e-09 1.554356e-09 -1.461196e-08
4.644613e-08 -9.974421e-09 -5.512366e-09 2.836950e-09 1.502075e-09 -1.520866e-08
4.470440e-08 -1.000578e-08 -5.280887e-09 3.424430e-09 1.224541e-09 -1.499926e-08
4.643318e-08 -1.030624e-08 -3.043452e-09 2.278974e-09 1.559226e-09 -1.771220e-08
4.760382e-08 -1.022183e-08 -3.270584e-09 1.963738e-09 1.351777e-09 -1.686746e-08
4.713425e-08 -1.043201e-08 -3.179639e-09 2.281623e-09 1.480202e-09 -1.701811e-08
5.201685e-08 -1.026470e-08 -4.747661e-09 2.126006e-09 8.742844e-10 -1.787853e-08
5.236557e-08 -1.198899e-08 -3.216090e-09 1.426345e-09 5.478905e-11 -1.931345e-08
5.185227e-08 -1.244019e-08 -1.445244e-09 1.942832e-09 8.586577e-10 -1.973404e-08
4.988199e-08 -1.241133e-08 -3.390548e-09 1.783384e-09 1.445617e-09 -1.668552e-08
4.869432e-08 -1.032169e-08 -4.731572e-09 2.993647e-09 6.439906e-10 -1.743181e-08
4.874213e-08 -1.191883e-08 -2.971711e-09 2.000260e-09 -1.735421e-10 -1.914448e-08
4.695223e-08 -1.167337e-08 -3.365035e-09 1.494056e-09 8.662324e-10 -1.760146e-08
4.740631e-08 -1.153869e-08 -3.481566e-09 1.215285e-09 6.768511e-10 -1.742641e-08
2.634920e-08 -7.027817e-09 -3.386749e-09 5.478097e-09 4.335750e-10 -3.768947e-09
2.805597e-08 -7.084920e-09 -2.606406e-09 5.287280e-09 4.435650e-10 -5.137110e-09
2.627140e-08 -7.090488e-09 -3.411241e-09 5.402473e-09 3.850894e-10 -3.814217e-09
2.616196e-08 -7.087340e-09 -3.444371e-09 5.391528e-09 3.772142e-10 -3.875111e-09
2.644060e-08 -7.339552e-09 -2.471771e-09 4.760707e-09 7.724750e-10 -4.605659e-09
2.731264e-08 -7.382224e-09 -2.525862e-09 4.373411e-09 6.785643e-10 -4.639827e-09
2.725300e-08 -7.328743e-09 -2.942216e-09 4.353163e-09 5.973381e-10 -4.799675e-09
2.457902e-08 -6.812497e-09 -3.325909e-09 5.489208e-09 5.503702e-10 -3.110213e-09
2.297856e-08 -6.793734e-09 -3.659738e-09 5.528220e-09 6.642498e-10 -2.189351e-09
2.303427e-08 -6.817396e-09 -3.722973e-09 5.589329e-09 4.983812e-10 -2.326185e-09
2.309292e-08 -6.819180e-09 -3.709295e-09 5.595693e-09 5.049217e-10 -2.294167e-09
2.411294e-08 -7.329491e-09 -3.193580e-09 4.563796e-09 6.738452e-10 -3.285195e-09
2.463650e-08 -7.256040e-09 -3.157766e-09 4.943286e-09 7.501824e-10 -2.640699e-09
2.320472e-08 -7.106102e-09 -3.143147e-09 5.318748e-09 6.994774e-10 -2.690226e-09
2.505324e-08 -7.020844e-09 -3.670829e-09 5.504904e-09 4.180882e-10 -3.160986e-09
2.488586e-08 -7.239236e-09 -3.555048e-09 5.712303e-09 3.985328e-10 -3.083448e-09
2.427404e-08 -7.326195e-09 -3.374116e-09 4.484340e-09 5.555232e-10 -3.653644e-09
2.463036e-08 -7.376336e-09 -3.183087e-09 4.716268e-09 5.711001e-10 -3.196615e-09
2.481150e-08 -7.030164e-09 -3.381489e-09 5.564704e-09 4.400179e-10 -3.081679e-09
2.468214e-08 -7.247723e-09 -3.261391e-09 5.758408e-09 3.994788e-10 -2.971405e-09
2.523471e-08 -7.602689e-09 -3.251313e-09 5.216879e-09 3.235015e-10 -2.896749e-09
2.508510e-08 -7.352816e-09 -3.038648e-09 4.582410e-09 6.418587e-10 -3.122264e-09
3.973088e-08 -9.548712e-09 -4.943232e-09 6.992473e-09 3.712895e-10 -1.329436e-08
4.008081e-08 -9.494655e-09 -2.918432e-09 7.133086e-09 -1.752452e-11 -1.441629e-08
3.925852e-08 -9.454532e-09 -3.236926e-09 6.910170e-09 -6.407161e-10 -1.549305e-08
3.918438e-08 -1.157143e-08 -2.180584e-09 7.560792e-09 5.271295e-10 -1.631457e-08
5.239556e-08 -1.038017e-08 -1.061355e-09 1.325799e-09 3.749621e-10 -2.168669e-08
5.252366e-08 -1.027182e-08 9.471829e-10 1.205275e-09 1.115960e-09 -2.237590e-08
4.777173e-08 -1.169183e-08 -2.355888e-11 4.825030e-11 1.089427e-09 -2.025075e-08
5.398987e-08 -1.187992e-08 1.970713e-09 -3.206531e-10 1.439654e-09 -2.384993e-08
1.910124e-08 -6.554857e-09 -2.514835e-09 5.793307e-09 6.965530e-10 -1.684274e-09
2.028916e-08 -6.590877e-09 -2.466677e-09 6.007929e-09 4.206418e-10 -2.386649e-09
1.938064e-08 -6.690494e-09 -2.686046e-09 5.878282e-09 4.905899e-10 -1.772224e-09
1.952426e-08 -6.626902e-09 -2.697726e-09 5.772983e-09 5.123746e-10 -1.832550e-09
1.926112e-08 -6.616366e-09 -1.948267e-09 5.871405e-09 4.226314e-10 -2.537820e-09
1.924202e-08 -6.692934e-09 -1.935414e-09 5.978531e-09 3.454993e-10 -2.538733e-09
1.932247e-08 -6.665043e-09 -1.877819e-09 5.930325e-09 3.020391e-10 -2.469010e-09
1.777807e-08 -6.260103e-09 -2.440864e-09 5.817660e-09 5.993999e-10 -1.282767e-09
1.683853e-08 -6.272034e-09 -2.198933e-09 5.582303e-09 6.498240e-10 -9.562631e-10
1.745202e-08 -6.290013e-09 -2.458053e-09 5.547259e-09 6.220796e-10 -1.074344e-09
1.724191e-08 -6.382160e-09 -2.432615e-09 5.686416e-09 4.860431e-10 -8.718897e-10
1.775699e-08 -6.482582e-09 -2.109748e-09 5.524499e-09 4.430049e-10 -1.455981e-09
1.745065e-08 -6.498867e-09 -1.872416e-09 5.617318e-09 4.435425e-10 -1.688974e-09
1.751747e-08 -6.281161e-09 -1.544155e-09 5.447223e-09 7.136374e-10 -1.921246e-09
1.912493e-08 -6.374873e-09 -2.460783e-09 5.874188e-09 5.440308e-10 -1.721977e-09
1.896839e-08 -6.411727e-09 -2.270448e-09 5.798190e-09 3.727139e-10 -2.088236e-09
1.876339e-08 -6.504793e-09 -2.166012e-09 5.937181e-09 4.313505e-10 -2.194868e-09
1.857235e-08 -6.596218e-09 -2.367102e-09 5.713458e-09 6.034047e-10 -1.564715e-09
1.785607e-08 -6.331204e-09 -2.535895e-09 5.879403e-09 4.862644e-10 -1.290287e-09
1.787652e-08 -6.383365e-09 -2.358165e-09 5.830140e-09 3.154407e-10 -1.673824e-09
1.778669e-08 -6.460743e-09 -2.065845e-09 5.745221e-09 3.995039e-10 -1.545692e-09
1.804917e-08 -6.591564e-09 -2.211707e-09 5.798851e-09 2.608768e-10 -1.471664e-09
9.438899e-08 -2.680171e-09 5.303034e-09 -2.495958e-08 1.421102e-08 -6.752991e-08
9.706233e-08 2.988343e-09 4.478466e-09 -3.247306e-08 1.949701e-08 -7.576997e-08
8.851070e-08 -3.151413e-09 2.810302e-09 -2.254898e-08 1.569500e-08 -7.137005e-08
1.098820e-07 -2.679307e-09 8.242796e-09 -2.584209e-08 1.769302e-08 -8.310802e-08
1.017638e-07 -3.766202e-09 2.727398e-08 -1.648318e-08 9.844235e-09 -8.959584e-08
9.043935e-08 -1.680441e-10 1.216968e-08 -2.285866e-08 9.194617e-09 -6.988876e-08
8.848960e-08 -1.118413e-09 9.443477e-09 -2.143740e-08 1.197420e-08 -7.307118e-08
8.954963e-08 -6.283593e-09 1.272589e-09 -1.689479e-08 1.086701e-08 -5.979786e-08
8.434990e-08 -9.337344e-09 3.015422e-09 -1.126302e-08 7.697962e-09 -5.386480e-08
9.712478e-08 -9.152987e-09 5.048618e-09 -1.280020e-08 1.008060e-08 -6.599407e-08
8.008200e-08 -9.537242e-09 6.191311e-10 -1.013982e-08 8.607020e-09 -5.708837e-08
7.987796e-08 -8.407157e-09 1.276584e-08 -9.318208e-09 4.220697e-09 -5.830015e-08
8.452885e-08 -8.151387e-09 8.420307e-09 -1.157160e-08 6.353891e-09 -5.874942e-08
9.251892e-08 -1.104959e-08 1.145885e-08 -7.205517e-09 9.418254e-09 -7.292948e-08
1.046742e-07 -5.961132e-09 1.095893e-08 -1.917398e-08 1.388379e-08 -7.774839e-08
1.059416e-07 -4.510412e-09 9.362560e-09 -2.092034e-08 1.309849e-08 -7.550405e-08
1.028855e-07 -7.041037e-09 1.356278e-08 -1.692489e-08 1.003077e-08 -7.573535e-08
1.046875e-07 -1.087901e-08 1.557932e-08 -8.647533e-09 1.067957e-08 -8.359900e-08
8.296268e-08 -6.433286e-09 9.212408e-10 -1.586137e-08 1.133798e-08 -6.226262e-08
8.047005e-08 -6.326679e-09 5.235507e-09 -1.367470e-08 9.891088e-09 -6.500596e-08
8.661008e-08 -1.112879e-08 1.147390e-08 -6.521280e-09 9.650394e-09 -7.489355e-08
7.430573e-08 -8.348686e-09 8.742687e-09 -1.010283e-08 6.927155e-09 -6.182814e-08
2.928845e-08 -6.679955e-09 -4.069300e-09 7.155284e-09 1.359916e-10 -6.184860e-09
2.801644e-08 -5.986543e-09 -3.929205e-09 7.973552e-09 -1.855558e-10 -6.422292e-09
2.773657e-08 -6.346263e-09 -3.060466e-09 8.363079e-09 -1.290040e-10 -6.836473e-09
2.849960e-08 -6.376329e-09 -3.653384e-09 8.369007e-09 1.309861e-11 -6.619255e-09
2.292512e-08 -6.181491e-09 -3.138731e-09 7.206096e-09 2.966991e-10 -3.168611e-09
2.139243e-08 -6.062372e-09 -3.122782e-09 7.146664e-09 3.733518e-10 -2.783897e-09
2.269217e-08 -6.067230e-09 -3.327487e-09 7.090099e-09 5.020738e-10 -2.934768e-09
2.296624e-08 -6.086799e-09 -3.171207e-09 7.156378e-09 4.283127e-10 -3.150267e-09
2.255190e-08 -6.514441e-09 -2.809654e-09 7.943532e-09 4.099242e-10 -3.728686e-09
2.131584e-08 -6.050227e-09 -2.906154e-09 8.076147e-09 3.649156e-10 -3.383082e-09
2.152949e-08 -5.761077e-09 -2.856093e-09 8.327656e-09 5.616285e-11 -3.689476e-09
2.489338e-08 -6.446488e-09 -3.375723e-09 6.983600e-09 2.744753e-10 -4.043770e-09
2.661883e-08 -6.668150e-09 -3.444194e-09 6.808442e-09 1.557368e-10 -4.740658e-09
2.631423e-08 -6.461436e-09 -3.553140e-09 6.962403e-09 3.365197e-10 -4.296724e-09
2.669671e-08 -6.460939e-09 -3.511189e-09 6.937633e-09 3.413333e-10 -4.600038e-09
2.524026e-08 -5.862814e-09 -3.393214e-09 8.440112e-09 -3.337170e-10 -4.460545e-09
2.537572e-08 -6.196770e-09 -2.960214e-09 8.409018e-09 -1.095011e-10 -4.723810e-09
2.509783e-08 -6.745411e-09 -3.102270e-09 8.839261e-09 -4.517114e-10 -4.520631e-09
2.379819e-08 -6.175613e-09 -3.435803e-09 7.129547e-09 3.462623e-10 -3.516598e-09
2.359989e-08 -5.756806e-09 -3.345996e-09 8.186904e-09 1.449393e-10 -4.166259e-09
2.363181e-08 -6.039865e-09 -2.701425e-09 8.236369e-09 2.850012e-10 -4.360924e-09
2.425343e-08 -6.244244e-09 -2.707237e-09 8.075898e-09 3.614397e-10 -4.170416e-09
2.492572e-08 -6.184910e-09 -3.382695e-09 7.101913e-09 3.183498e-10 -4.006510e-09
2.434258e-08 -5.943841e-09 -3.291281e-09 8.058402e-09 4.379963e-10 -4.134537e-09
2.413802e-08 -6.046872e-09 -3.272581e-09 7.955791e-09 1.110064e-10 -4.183651e-09
2.420788e-08 -5.698908e-09 -3.414604e-09 7.799877e-09 2.069112e-10 -4.227316e-09
2.427041e-08 -5.744454e-09 -3.489484e-09 8.095064e-09 3.833034e-10 -4.274304e-09
2.428096e-08 -5.993053e-09 -3.250371e-09 8.193773e-09 1.574171e-10 -4.105701e-09
2.431318e-08 -5.527688e-09 -3.277949e-09 7.934415e-09 3.614864e-10 -4.104764e-09
2.437323e-08 -5.780805e-09 -3.504596e-09 8.242263e-09 5.127570e-11 -4.382026e-09
2.445536e-08 -6.172951e-09 -3.285820e-09 8.204645e-09 2.696330e-10 -4.190251e-09
1.606761e-08 -6.114644e-09 -2.401487e-09 5.243040e-09 5.858122e-10 -5.859622e-10
1.607387e-08 -6.114690e-09 -2.322446e-09 5.253565e-09 4.917207e-10 -6.183796e-10
1.538855e-08 -6.292852e-09 -2.239761e-09 4.755881e-09 4.044092e-10 -1.159677e-09
1.540693e-08 -6.328949e-09 -2.150584e-09 4.806543e-09 5.163781e-10 -1.119192e-09
-3.004989e-08 2.143781e-08 -1.172020e-08 -2.890470e-08 -2.332136e-08 -2.942370e-08
-2.728522e-08 2.143669e-08 -1.633164e-08 -2.784128e-08 -2.591234e-08 -3.184157e-08
-2.929152e-08 1.946323e-08 -1.360001e-08 -2.573068e-08 -2.628184e-08 -3.228479e-08
-2.873686e-08 2.546135e-08 -1.596023e-08 -2.388473e-08 -2.300351e-08 -3.151208e-08
1.615562e-08 -5.525139e-09 -2.424267e-09 6.122396e-09 4.223624e-10 -5.411033e-10
1.620240e-08 -5.593765e-09 -2.260732e-09 6.088542e-09 2.783398e-10 -7.841027e-10
1.608822e-08 -5.694837e-09 -2.226010e-09 6.198086e-09 3.802877e-10 -9.196124e-10
1.609554e-08 -5.545041e-09 -2.265028e-09 6.234822e-09 2.995405e-10 -9.275862e-10
-4.265341e-08 2.628632e-08 -1.766052e-08 -4.684677e-08 -3.493773e-08 -4.284404e-08
-4.848733e-08 2.455216e-08 -2.147098e-08 -5.413235e-08 -4.141552e-08 -4.966026e-08
-3.578601e-08 3.174805e-08 -2.084681e-08 -3.861934e-08 -4.049904e-08 -4.422852e-08
-4.469113e-08 4.083941e-08 -2.108376e-08 -4.588867e-08 -3.887382e-08 -4.831427e-08
-4.455050e-08 4.048646e-08 -2.528919e-08 -4.598488e-08 -4.116913e-08 -5.027740e-08
-3.943878e-08 3.421674e-08 -2.121183e-08 -3.945053e-08 -3.377690e-08 -4.563185e-08
-3.568477e-08 3.269456e-08 -2.418305e-08 -3.901697e-08 -3.590611e-08 -4.485958e-08
-3.554844e-08 1.766757e-08 -1.462270e-08 -3.852631e-08 -2.829564e-08 -3.614029e-08
-3.057901e-08 1.082806e-08 -1.174288e-08 -3.243948e-08 -2.538501e-08 -2.961565e-08
-3.046693e-08 2.330631e-08 -1.340912e-08 -3.287804e-08 -2.558486e-08 -3.365218e-08
-2.695667e-08 1.623603e-08 -1.345949e-08 -2.770736e-08 -2.753426e-08 -3.034189e-08
-2.632184e-08 1.684110e-08 -1.593999e-08 -2.834500e-08 -2.628268e-08 -3.122692e-08
-2.811481e-08 1.554319e-08 -1.341690e-08 -2.674166e-08 -2.638156e-08 -3.179393e-08
-2.979412e-08 2.109730e-08 -1.751036e-08 -3.173126e-08 -3.176236e-08 -3.453259e-08
-3.963115e-08 3.328213e-08 -1.767301e-08 -3.972274e-08 -3.328801e-08 -4.246769e-08
-3.854862e-08 3.436341e-08 -1.760254e-08 -3.863546e-08 -3.116230e-08 -4.011979e-08
-3.246666e-08 3.548054e-08 -2.430085e-08 -3.561260e-08 -3.541477e-08 -4.469801e-08
-3.656188e-08 3.810458e-08 -2.116420e-08 -3.602405e-08 -3.252883e-08 -4.475655e-08
-2.958146e-08 2.236605e-08 -1.856880e-08 -2.882852e-08 -3.670303e-08 -3.715928e-08
-2.953416e-08 2.448000e-08 -1.765218e-08 -2.787102e-08 -3.346260e-08 -3.444053e-08
-2.840971e-08 1.769328e-08 -1.273731e-08 -2.518967e-08 -2.799954e-08 -3.208930e-08
-2.079822e-08 1.969650e-08 -2.332698e-08 -1.897471e-08 -3.764357e-08 -3.621391e-08
1.706628e-08 -6.293379e-09 -2.331778e-09 5.640276e-09 5.836558e-10 -9.433991e-10
1.690413e-08 -6.480620e-09 -2.231655e-09 5.464036e-09 4.923549e-10 -1.052558e-09
1.776537e-08 -6.465894e-09 -2.110524e-09 5.723433e-09 4.738136e-10 -1.507136e-09
1.759437e-08 -6.403960e-09 -2.169632e-09 5.784541e-09 3.732685e-10 -1.833111e-09
1.630222e-07 -1.144350e-07 -3.700939e-07 1.751640e-08 -3.894520e-07 1.965656e-08
1.558995e-07 7.426691e-08 -3.065075e-07 -1.720578e-08 -2.702685e-07 1.029382e-08
1.487161e-07 -1.939440e-07 -3.178402e-07 5.130883e-08 -3.661972e-07 5.019682e-08
1.506244e-07 -1.866140e-07 -3.198787e-07 6.084810e-08 -3.731391e-07 5.067517e-08
1.375890e-07 1.592622e-07 -3.995321e-07 -1.039625e-07 -3.440215e-07 -8.327206e-08
1.511622e-07 1.998402e-07 -4.629532e-07 -9.470506e-08 -3.056790e-07 -5.030743e-08
1.177421e-07 2.013654e-07 -4.323312e-07 -1.019344e-07 -3.308718e-07 -5.550802e-08
1.212961e-07 2.047997e-07 -4.572969e-07 -1.216688e-07 -3.140864e-07 -4.354535e-08
1.105245e-07 8.008450e-08 -4.166279e-07 -8.418472e-08 -2.733565e-07 -6.095312e-08
8.478807e-08 2.905795e-07 -4.087790e-07 -2.033008e-07 -1.571172e-07 -1.991724e-07
8.703144e-08 4.843266e-07 -6.763388e-07 -1.304370e-07 -2.818485e-07 -1.525299e-07
1.066201e-07 9.082667e-08 -3.475853e-07 -1.202713e-07 -3.495842e-07 -9.608560e-08
1.174607e-07 -2.786220e-08 -2.515101e-07 -1.470463e-07 -3.651871e-07 -1.239802e-07
9.061256e-08 9.238276e-08 -3.303255e-07 -1.284404e-07 -3.547667e-07 -6.900998e-08
9.437925e-08 9.070803e-08 -2.942869e-07 -1.190581e-07 -3.634587e-07 -8.792524e-08
6.008116e-08 2.761649e-07 -5.962182e-07 -1.218261e-07 -2.969826e-07 -1.946831e-07
4.951035e-08 1.089102e-07 -1.873371e-07 -1.905889e-07 -1.836502e-07 -2.408047e-07
6.853291e-08 -1.070799e-08 -3.149400e-07 -8.051579e-08 -3.111496e-07 -9.188429e-08
7.644726e-08 1.631910e-07 -3.886914e-07 -1.236791e-07 -3.507572e-07 -6.010961e-08
3.513464e-08 7.986036e-08 -3.373197e-07 -6.468287e-08 -3.499461e-07 -6.552131e-08
3.329960e-08 4.726332e-07 -6.326043e-07 -6.141772e-08 -2.795686e-07 -4.099140e-08
3.383154e-08 2.618884e-07 -3.195077e-07 -1.156745e-07 -1.490541e-07 -8.296850e-08
6.912593e-08 1.624865e-07 -3.807398e-07 -1.193417e-07 -3.542584e-07 -6.072115e-08
4.007111e-08 7.872917e-08 -3.124659e-07 -6.806700e-08 -3.464233e-07 -7.821027e-08
2.991782e-08 3.467247e-07 -3.363059e-07 -1.163243e-07 -1.763941e-07 -1.586455e-07
2.454616e-08 4.850160e-07 -3.970786e-07 -1.316269e-07 -1.881037e-07 -1.364605e-07
7.099952e-08 6.185849e-08 -3.099526e-07 -8.008853e-08 -3.668562e-07 -6.513415e-08
1.881771e-08 1.799782e-07 -3.426936e-07 -5.388074e-08 -2.732068e-07 -9.125036e-08
6.994946e-08 3.961514e-08 -3.124981e-07 -8.507600e-08 -3.082622e-07 -5.521475e-08
3.327362e-08 1.744770e-07 -3.637356e-07 -1.395633e-07 -3.079820e-07 -1.101656e-07
1.138070e-08 1.876458e-07 -3.298654e-07 -6.125858e-08 -2.570967e-07 -8.927173e-08
4.709133e-08 1.155851e-07 -3.067408e-07 -7.331606e-08 -2.840952e-07 -5.837622e-08
2.174538e-08 1.316445e-07 -2.785251e-07 -7.159189e-08 -2.622563e-07 -6.218416e-08
3.418405e-08 3.925729e-08 -2.900119e-07 -1.279020e-07 -2.953745e-07 -8.661362e-08
4.251812e-08 1.651405e-07 -3.708156e-07 -9.548786e-08 -3.188631e-07 -9.368701e-08
7.468807e-08 2.046272e-07 -4.756948e-07 -5.646497e-08 -3.289778e-07 -5.131185e-10
7.425650e-08 2.014440e-07 -4.254631e-07 -5.524559e-08 -2.597084e-07 -1.960832e-08
4.741305e-08 2.372143e-07 -4.076803e-07 -5.492022e-08 -2.210350e-07 6.142367e-09
5.651347e-08 2.316157e-07 -4.225129e-07 -5.495705e-08 -2.310036e-07 1.122901e-08
-4.131390e-08 -7.604358e-09 -4.852342e-08 -9.302442e-08 -1.038460e-07 -8.993113e-08
-4.173375e-08 1.025842e-08 -4.842060e-08 -9.038164e-08 -9.189035e-08 -8.563146e-08
-3.276276e-08 -3.932469e-08 -4.692254e-08 -7.312108e-08 -9.780745e-08 -8.931776e-08
-3.328462e-08 -2.640596e-08 -5.149098e-08 -7.711478e-08 -1.056874e-07 -9.093969e-08
-2.400643e-08 3.076555e-08 -1.259176e-07 -1.728731e-07 -1.631987e-07 -1.272876e-07
-1.276681e-08 4.443611e-08 -1.577352e-07 -1.853384e-07 -1.873586e-07 -1.288772e-07
-9.187682e-09 2.585211e-08 -1.388046e-07 -1.563203e-07 -1.764221e-07 -1.227681e-07
-7.439069e-09 5.765670e-08 -1.446311e-07 -1.484347e-07 -1.611373e-07 -1.173290e-07
-6.276697e-09 3.643644e-08 -1.163239e-07 -1.507358e-07 -1.437411e-07 -1.071934e-07
-2.809466e-09 7.343391e-08 -1.590001e-07 -1.392726e-07 -1.628375e-07 -1.152168e-07
-7.237401e-09 6.022340e-08 -1.502767e-07 -1.476015e-07 -1.656502e-07 -1.197605e-07
-3.260303e-08 -1.087116e-08 -9.147513e-08 -1.423264e-07 -1.382409e-07 -1.188303e-07
-4.363404e-08 5.514046e-09 -8.279465e-08 -1.210424e-07 -1.232261e-07 -1.045010e-07
-1.955548e-08 7.990678e-10 -8.154057e-08 -1.215688e-07 -1.229656e-07 -1.071574e-07
-3.280999e-08 5.538467e-09 -8.167888e-08 -1.196751e-07 -1.234607e-07 -1.089869e-07
-2.902573e-08 5.362528e-09 -8.443665e-08 -1.189274e-07 -1.200072e-07 -1.023861e-07
-2.317183e-08 -2.488494e-09 -9.014819e-08 -1.182478e-07 -1.271436e-07 -1.039093e-07
-1.992260e-08 -8.896677e-10 -9.293119e-08 -1.205617e-07 -1.279073e-07 -1.033639e-07
-1.875929e-08 3.958109e-08 -1.085431e-07 -1.274714e-07 -1.310267e-07 -1.128117e-07
-2.009678e-08 3.959154e-08 -1.139058e-07 -1.267272e-07 -1.314741e-07 -1.081736e-07
-1.963734e-08 1.561618e-08 -8.593345e-08 -1.220183e-07 -1.123859e-07 -1.041921e-07
-1.188762e-08 7.704168e-08 -1.459753e-07 -9.852141e-08 -1.404550e-07 -1.054297e-07
-1.631988e-08 -1.114302e-08 -9.671958e-08 -1.295363e-07 -1.464871e-07 -1.199007e-07
-1.727302e-08 -8.832299e-09 -9.283374e-08 -1.296233e-07 -1.408081e-07 -1.170110e-07
-9.287503e-09 -9.244475e-10 -8.941158e-08 -1.200104e-07 -1.283226e-07 -1.095972e-07
-1.095656e-08 -2.494569e-09 -8.473583e-08 -1.182489e-07 -1.270979e-07 -1.122861e-07
9.730018e-09 -4.747223e-09 -1.556417e-09 4.297940e-09 5.519835e-10 2.233963e-10
9.723124e-09 -4.762798e-09 -1.563892e-09 4.287458e-09 4.987435e-10 1.822366e-10
9.646958e-09 -4.793492e-09 -1.428402e-09 4.397065e-09 5.093146e-10 -6.494533e-11
9.341203e-09 -4.777981e-09 -1.339174e-09 4.399877e-09 4.370303e-10 1.973515e-10
1.137365e-08 -4.972091e-09 -1.660352e-09 4.848428e-09 4.896108e-10 -4.094857e-11
1.186424e-08 -4.945755e-09 -1.680637e-09 5.204165e-09 3.827930e-10 -1.642899e-10
1.178057e-08 -4.995460e-09 -1.760471e-09 4.909393e-09 4.412395e-10 8.639135e-11
1.132137e-08 -4.970310e-09 -1.759655e-09 5.040899e-09 4.363565e-10 4.858026e-11
1.126415e-08 -4.980112e-09 -1.434980e-09 5.109671e-09 4.064178e-10 -1.620516e-10
1.152342e-08 -5.019795e-09 -1.456222e-09 5.102951e-09 3.567285e-10 -2.737632e-10
1.185843e-08 -4.990972e-09 -1.617495e-09 4.930256e-09 3.837435e-10 -7.428746e-11
1.075624e-08 -4.810866e-09 -1.552459e-09 4.624697e-09 5.350078e-10 -1.876143e-11
1.028563e-08 -4.772195e-09 -1.553777e-09 4.389033e-09 5.664229e-10 7.193846e-11
1.034378e-08 -4.802720e-09 -1.600198e-09 4.544378e-09 5.435905e-10 1.581229e-10
1.062623e-08 -4.815092e-09 -1.569727e-09 4.457151e-09 5.228478e-10 2.538623e-10
1.066089e-08 -4.813552e-09 -1.551547e-09 4.424949e-09 5.327627e-10 -1.245190e-10
1.051209e-08 -4.828153e-09 -1.437988e-09 4.482365e-09 5.346881e-10 -2.256972e-10
1.039857e-08 -4.791817e-09 -1.308168e-09 4.500467e-09 6.128757e-10 -2.553586e-10
1.106135e-08 -4.937895e-09 -1.695486e-09 4.851099e-09 4.509680e-10 1.129604e-10
1.104358e-08 -4.944239e-09 -1.614583e-09 4.838677e-09 4.222190e-10 1.943024e-11
1.086588e-08 -4.956319e-09 -1.496423e-09 4.952282e-09 3.918215e-10 -1.110786e-10
1.069521e-08 -4.985839e-09 -1.564250e-09 4.859630e-09 4.443064e-10 1.089757e-10
1.121882e-08 -4.863056e-09 -1.697805e-09 4.735413e-09 4.465486e-10 1.123646e-10
1.121770e-08 -4.875700e-09 -1.622339e-09 4.723820e-09 4.063511e-10 3.153542e-11
1.105298e-08 -4.890359e-09 -1.624279e-09 4.674076e-09 4.344226e-10 1.413378e-10
1.139816e-08 -4.898989e-09 -1.687266e-09 4.586846e-09 3.973103e-10 1.104907e-10
7.856919e-09 -3.699830e-09 -1.099937e-09 4.229137e-09 3.927119e-10 3.514908e-10
7.195140e-09 -3.665715e-09 -1.104108e-09 4.189617e-09 3.408991e-10 1.693752e-10
7.140770e-09 -3.659478e-09 -1.034304e-09 4.194769e-09 3.180183e-10 1.216947e-10
7.726538e-09 -3.557630e-09 -1.140632e-09 4.439019e-09 3.883486e-10 2.895195e-10
1.046366e-07 -1.243681e-07 -2.793984e-07 -1.269483e-07 -4.142308e-07 -1.044314e-07
1.045842e-07 -1.033530e-07 -2.822994e-07 -1.317116e-07 -4.049425e-07 -1.037205e-07
1.216682e-07 -2.406150e-07 -2.637463e-07 -1.188472e-07 -3.962801e-07 -8.584199e-08
1.271138e-07 -1.834475e-07 -2.581122e-07 -8.946275e-08 -3.783284e-07 -7.644328e-08
-4.687944e-08 9.242812e-08 5.488746e-08 -1.102541e-09 -2.562235e-09 -9.755102e-09
-3.904207e-08 8.904706e-08 4.434515e-10 -6.471464e-09 -3.511218e-08 3.647172e-09
-4.141876e-08 8.842598e-08 6.308354e-08 -1.720880e-08 -3.717579e-09 -1.529265e-08
-4.868910e-08 9.754860e-08 -2.724028e-08 -2.870047e-08 5.031732e-09 2.001826e-08
4.777565e-08 1.757896e-07 -2.197734e-07 -1.397615e-09 -1.662556e-07 3.742112e-08
1.144084e-08 2.050097e-07 -2.507760e-07 -3.565303e-08 -1.818129e-07 8.406625e-10
5.879184e-08 3.937907e-07 -3.094423e-07 -1.302419e-07 -6.447965e-08 -6.032284e-08
4.374596e-08 1.664784e-07 -8.635614e-08 -6.202073e-08 -8.522573e-08 -8.904429e-08
-4.799383e-08 5.823771e-08 -3.228235e-08 -4.241347e-08 -3.838058e-08 -4.742040e-08
-4.875040e-08 5.619544e-08 -3.100223e-08 -3.944561e-08 -3.492308e-08 -4.740807e-08
-4.742005e-08 4.482299e-08 -2.867841e-08 -3.709922e-08 -3.555700e-08 -4.520832e-08
-4.892137e-08 7.379720e-08 -4.204295e-08 -2.931481e-08 -3.447249e-08 -5.185676e-08
1.058831e-07 -1.258404e-07 -2.727614e-07 -1.200459e-07 -4.041573e-07 -1.012663e-07
1.058951e-07 -1.049202e-07 -2.746390e-07 -1.279158e-07 -4.003734e-07 -9.994125e-08
1.263258e-07 -1.824898e-07 -2.764351e-07 -9.395368e-08 -3.836247e-07 -8.385961e-08
1.279243e-07 -8.168862e-09 -2.662805e-07 -7.679111e-08 -3.387902e-07 -7.979984e-08
7.453123e-09 -3.709826e-09 -1.102164e-09 4.058924e-09 5.243975e-10 5.148785e-10
7.275067e-09 -3.654971e-09 -1.031961e-09 4.100746e-09 3.591351e-10 8.922063e-11
6.962903e-09 -3.539668e-09 -1.116834e-09 4.206732e-09 4.218602e-10 6.100733e-10
7.115529e-09 -3.554444e-09 -1.205025e-09 4.194167e-09 4.849894e-10 4.915783e-10
9.632983e-09 -4.147710e-09 -1.557490e-09 4.689186e-09 5.121823e-10 2.336075e-10
9.588387e-09 -4.297182e-09 -1.472896e-09 4.799572e-09 5.711440e-10 1.269584e-10
9.622852e-09 -3.943873e-09 -1.528231e-09 4.928889e-09 4.718475e-10 1.233436e-10
9.258827e-09 -4.109350e-09 -1.392179e-09 4.670656e-09 5.800706e-10 3.819900e-10
2.799047e-08 -7.723971e-09 -2.704362e-09 5.005718e-09 1.915005e-10 -5.257434e-09
2.793761e-08 -7.759473e-09 -2.480559e-09 5.075436e-09 2.760641e-10 -5.234447e-09
2.824778e-08 -8.019054e-09 -2.646009e-09 4.765808e-09 -1.165095e-10 -5.163266e-09
2.794017e-08 -7.884099e-09 -2.249692e-09 3.543903e-09 3.501916e-10 -5.667888e-09
1.706579e-08 -6.175414e-09 -2.549692e-09 5.441438e-09 6.341924e-10 -7.450167e-10
1.688416e-08 -6.414219e-09 -2.457740e-09 5.220535e-09 5.916498e-10 -8.319163e-10
1.747994e-08 -6.546070e-09 -2.451029e-09 4.808280e-09 5.927172e-10 -9.411174e-10
1.740511e-08 -6.498502e-09 -2.455659e-09 4.714726e-09 6.110318e-10 -9.221521e-10
1.962640e-08 -5.765013e-09 -2.834195e-09 6.852643e-09 5.703380e-10 -2.222768e-09
1.961323e-08 -5.778825e-09 -2.515207e-09 6.837575e-09 4.286702e-10 -2.301323e-09
1.915639e-08 -5.976599e-09 -2.446416e-09 7.139994e-09 4.771570e-10 -2.396704e-09
1.905551e-08 -5.433981e-09 -2.597413e-09 7.739051e-09 6.496963e-10 -2.602346e-09
1.567598e-08 -5.273506e-09 -2.218335e-09 6.371111e-09 6.708879e-10 -4.647926e-10
1.523877e-08 -5.315180e-09 -2.123854e-09 6.669753e-09 5.877673e-10 -5.348770e-10
1.512545e-08 -4.804745e-09 -2.194573e-09 6.935932e-09 6.499098e-10 -6.429661e-10
1.499210e-08 -4.946337e-09 -2.046413e-09 6.720342e-09 6.823134e-10 -4.194818e-10
7.513054e-08 -1.326524e-07 -2.484254e-07 -1.552912e-07 -3.587392e-07 -1.137834e-07
8.496556e-08 -1.180444e-07 -2.683719e-07 -1.558387e-07 -3.977098e-07 -1.035355e-07
6.142793e-08 -1.410041e-07 -2.648711e-07 -1.150393e-07 -3.924457e-07 -9.816984e-08
1.005791e-07 -1.337323e-07 -2.691621e-07 -1.515247e-07 -4.024505e-07 -9.894674e-08
1.024794e-07 -1.713796e-07 -3.083073e-07 -1.452779e-07 -4.444641e-07 -9.674351e-08
8.831974e-08 -7.044298e-08 -2.431177e-07 -1.162474e-07 -3.197795e-07 -1.055985e-07
6.549168e-08 -2.760902e-08 -2.226909e-07 -1.405410e-07 -2.876251e-07 -1.121803e-07
5.087093e-08 -7.505607e-08 -2.265946e-07 -1.664578e-07 -3.273711e-07 -1.277979e-07
1.552533e-08 -4.618892e-08 -2.109091e-07 -1.547891e-07 -2.827352e-07 -1.112490e-07
5.687550e-08 -4.725171e-08 -2.154267e-07 -1.519431e-07 -3.092845e-07 -1.193253e-07
3.271361e-08 -5.003546e-08 -2.141774e-07 -1.374915e-07 -3.056694e-07 -1.207053e-07
3.158687e-08 2.080732e-08 -2.053329e-07 -1.389131e-07 -2.400955e-07 -1.142814e-07
4.992768e-08 -5.051058e-08 -2.193829e-07 -1.097310e-07 -2.930005e-07 -1.202556e-07
5.630512e-08 -1.252656e-07 -2.415847e-07 -1.339356e-07 -3.811011e-07 -1.147183e-07
7.495233e-08 -8.174575e-08 -2.575341e-07 -1.360680e-07 -3.419278e-07 -1.178770e-07
7.699226e-08 -3.750567e-08 -2.220759e-07 -1.482073e-07 -2.941134e-07 -1.264211e-07
8.700966e-08 -1.285562e-07 -2.595214e-07 -1.391879e-07 -3.529677e-07 -1.231441e-07
9.120949e-08 -1.282595e-07 -2.336827e-07 -1.216095e-07 -3.385538e-07 -1.055488e-07
4.068160e-08 -7.990408e-08 -2.442165e-07 -1.429743e-07 -3.476763e-07 -1.130026e-07
3.812450e-08 -2.993484e-08 -2.217103e-07 -1.523301e-07 -2.994015e-07 -1.118442e-07
4.016626e-08 -1.174727e-07 -2.341986e-07 -1.699664e-07 -3.497839e-07 -1.123839e-07
3.331437e-08 -4.016513e-08 -2.137458e-07 -1.282572e-07 -2.672541e-07 -1.124209e-07
-4.496903e-08 2.209642e-08 -8.646447e-08 -1.357782e-07 -1.217180e-07 -1.222339e-07
-5.159019e-08 2.628166e-08 -6.455607e-08 -1.167307e-07 -1.036749e-07 -9.922485e-08
-3.069997e-08 2.071971e-08 -7.054683e-08 -1.118376e-07 -1.088795e-07 -1.038176e-07
-5.254710e-08 2.115834e-08 -6.433461e-08 -1.192185e-07 -1.021946e-07 -9.810228e-08
-7.382418e-08 7.931239e-08 -1.068740e-07 -1.082699e-07 -1.050477e-07 -1.302000e-07
-8.258614e-08 6.222438e-08 -8.227396e-08 -1.205071e-07 -9.487941e-08 -1.227089e-07
-2.847264e-08 1.803132e-08 -7.612530e-08 -1.155698e-07 -1.048239e-07 -1.001866e-07
-3.790240e-08 4.756831e-08 -1.286507e-07 -1.610082e-07 -1.640831e-07 -1.200435e-07
-2.508442e-08 5.319167e-08 -1.611217e-07 -1.734546e-07 -1.883980e-07 -1.202956e-07
-3.852187e-08 5.242008e-08 -1.412846e-07 -1.597313e-07 -1.499028e-07 -1.091227e-07
-2.284769e-08 5.089225e-08 -1.494069e-07 -1.331605e-07 -1.680244e-07 -1.083100e-07
-2.329037e-08 5.816328e-08 -1.546592e-07 -1.335836e-07 -1.700953e-07 -1.098418e-07
-8.027851e-08 9.834606e-08 -1.550183e-07 -1.562210e-07 -1.687825e-07 -1.158766e-07
-6.320065e-08 1.016487e-07 -1.469030e-07 -1.429756e-07 -1.740579e-07 -1.403832e-07
-4.933173e-08 4.583639e-08 -9.051097e-08 -1.304717e-07 -1.245490e-07 -1.179345e-07
-4.196493e-08 3.860283e-09 -6.983139e-08 -1.294003e-07 -1.093684e-07 -1.044115e-07
-7.359608e-08 7.485830e-08 -8.285085e-08 -1.096831e-07 -9.664524e-08 -1.247049e-07
-7.359303e-08 9.967220e-08 -8.907007e-08 -1.081637e-07 -1.011642e-07 -1.241855e-07
-3.648869e-08 4.486795e-08 -1.115257e-07 -1.136709e-07 -1.358103e-07 -1.054747e-07
-2.908235e-08 7.210702e-09 -9.604372e-08 -1.117730e-07 -1.217246e-07 -9.370779e-08
-1.866825e-08 9.749512e-08 -1.326378e-07 -7.076629e-08 -1.302851e-07 -1.151212e-07
-3.406996e-08 1.004888e-07 -1.427302e-07 -8.084233e-08 -1.305076e-07 -9.204482e-08
4.072185e-08 4.342599e-08 3.743334e-08 -1.619282e-08 6.704110e-08 -7.498132e-08
4.228462e-08 6.880858e-08 3.948807e-08 -3.945033e-08 2.947484e-08 -7.307713e-08
6.529051e-08 1.177041e-07 -6.334008e-08 -7.917990e-08 6.190754e-08 -6.546851e-08
5.692782e-08 1.656725e-08 8.781693e-08 -4.134155e-08 8.257294e-08 -1.032040e-07
1.304562e-08 -5.385335e-09 -1.890776e-09 4.743122e-09 5.282163e-10 3.135870e-10
1.304232e-08 -5.385461e-09 -1.925843e-09 4.741863e-09 5.132474e-10 2.911823e-10
1.282116e-08 -5.380482e-09 -1.987718e-09 4.736177e-09 5.394773e-10 4.746261e-10
1.328899e-08 -5.660727e-09 -2.049340e-09 4.142096e-09 4.049272e-10 1.176974e-10
1.154171e-08 -4.638326e-09 -1.916267e-09 5.450030e-09 5.868883e-10 -1.133610e-10
1.146091e-08 -4.247571e-09 -1.910120e-09 5.703960e-09 4.775809e-10 -2.618906e-10
1.140235e-08 -4.383251e-09 -1.716368e-09 5.571268e-09 5.710126e-10 -3.494570e-11
1.103294e-08 -4.445965e-09 -1.563714e-09 5.767180e-09 5.267573e-10 -1.079031e-10
5.891877e-09 -3.074934e-09 -7.958523e-10 3.046109e-09 3.707887e-10 2.338503e-10
5.673074e-09 -3.067042e-09 -7.538574e-10 3.276789e-09 3.298819e-10 1.261575e-10
5.586731e-09 -2.999913e-09 -7.022081e-10 3.352756e-09 3.958451e-10 1.531730e-10
5.555097e-09 -2.927615e-09 -6.979155e-10 3.144269e-09 4.226841e-10 1.356845e-10
1.570496e-08 1.604818e-07 -2.384981e-07 -2.886877e-08 -1.864667e-07 1.286150e-08
4.146600e-08 4.493842e-07 -2.953917e-07 -1.216547e-07 -3.609949e-08 -5.879525e-08
3.188247e-08 3.712368e-07 -1.999228e-07 -1.696603e-07 -1.199463e-07 -4.954666e-08
-2.099206e-08 2.455033e-07 -9.193626e-08 -8.187016e-08 -6.997956e-08 -1.172491e-07
9.841591e-08 8.602598e-08 -4.183026e-07 -1.724254e-07 -3.604119e-07 -9.368643e-09
5.584015e-08 3.909580e-07 -4.937323e-07 -1.859941e-07 -2.312854e-07 -9.006825e-08
3.179108e-08 4.281514e-07 -5.007788e-07 -2.816502e-07 -2.279798e-07 -5.404626e-08
-3.141044e-09 2.732547e-07 -2.775030e-07 -2.075532e-07 -1.735832e-07 -9.122132e-08
8.929770e-08 1.950538e-07 -4.441918e-07 -1.384705e-07 -3.153627e-07 -2.494276e-08
1.844843e-08 1.484890e-07 -4.099421e-07 -8.100619e-08 -3.026802e-07 -3.901966e-08
1.658179e-08 5.373354e-07 -4.938017e-07 -1.587502e-07 -1.543179e-07 -1.181352e-07
1.821892e-08 3.364899e-07 -3.527586e-07 -1.693927e-07 -1.717858e-07 -1.013467e-07
7.053075e-09 -3.664965e-09 -9.392922e-10 3.577757e-09 5.186548e-10 2.611591e-10
7.465758e-09 -3.758336e-09 -9.817510e-10 3.780736e-09 5.492969e-10 3.164165e-10
7.236789e-09 -3.666504e-09 -9.936549e-10 3.584271e-09 5.317676e-10 3.157203e-10
7.167259e-09 -3.664351e-09 -9.814081e-10 3.569268e-09 5.436182e-10 3.291701e-10
6.830110e-09 -3.405452e-09 -9.742993e-10 3.890253e-09 4.640204e-10 1.174980e-10
6.779331e-09 -3.497631e-09 -9.143271e-10 3.820731e-09 5.023893e-10 1.576463e-10
7.217202e-09 -3.695715e-09 -9.081775e-10 3.717701e-09 4.924230e-10 2.096317e-10
6.606051e-09 -3.502343e-09 -9.152967e-10 3.384705e-09 4.640950e-10 2.871974e-10
6.220766e-09 -3.394236e-09 -9.284302e-10 3.212190e-09 4.013852e-10 1.004574e-10
6.396089e-09 -3.399338e-09 -9.146148e-10 3.247397e-09 4.555734e-10 3.014988e-10
6.651369e-09 -3.404201e-09 -9.179701e-10 3.278174e-09 4.146851e-10 1.688374e-10
6.679092e-09 -3.451096e-09 -8.900694e-10 3.177601e-09 4.272089e-10 2.829001e-10
5.870213e-09 -3.276722e-09 -8.964176e-10 3.495425e-09 4.477947e-10 2.100289e-10
6.024361e-09 -3.243164e-09 -9.653816e-10 3.630085e-09 4.331531e-10 -1.932055e-11
6.767355e-09 -3.504544e-09 -9.330812e-10 3.397198e-09 4.867609e-10 3.050125e-10
6.694989e-09 -3.582315e-09 -9.054535e-10 3.495771e-09 5.196084e-10 2.166585e-10
6.479773e-09 -3.236069e-09 -9.120225e-10 3.660391e-09 5.503233e-10 1.790359e-10
6.468103e-09 -3.238217e-09 -9.114691e-10 3.576706e-09 5.499512e-10 2.093478e-10
6.740468e-09 -3.505408e-09 -9.306254e-10 3.404922e-09 4.801186e-10 3.168892e-10
6.602885e-09 -3.600280e-09 -9.076118e-10 3.536683e-09 5.088672e-10 2.389988e-10
6.636064e-09 -3.253406e-09 -9.408274e-10 3.692615e-09 4.829385e-10 1.913216e-10
6.447380e-09 -3.263238e-09 -8.884082e-10 3.604414e-09 4.756201e-10 3.124208e-10
-3.286223e-08 -3.976263e-09 -7.330890e-08 -1.170079e-07 -1.289491e-07 -9.658354e-08
-3.141255e-08 -1.531894e-08 -6.521225e-08 -1.161343e-07 -1.293277e-07 -1.000617e-07
-2.343793e-08 -2.083288e-08 -6.377611e-08 -1.239200e-07 -1.325438e-07 -9.667685e-08
-2.242979e-08 -1.997473e-08 -6.846115e-08 -1.194701e-07 -1.405155e-07 -9.633083e-08
1.322620e-08 -5.107079e-09 -1.918200e-09 5.608404e-09 4.874701e-10 -1.448876e-10
1.250789e-08 -5.001421e-09 -2.009034e-09 5.349563e-09 5.276926e-10 -2.272014e-10
1.265928e-08 -5.037573e-09 -2.076561e-09 5.657884e-09 4.915367e-10 1.670331e-10
1.317989e-08 -4.988750e-09 -2.060627e-09 5.443050e-09 5.589674e-10 5.139046e-11
1.320862e-08 -4.987233e-09 -1.996881e-09 5.436227e-09 5.884126e-10 -1.128579e-10
1.208713e-08 -4.935653e-09 -1.780588e-09 5.805535e-09 4.666713e-10 -4.672680e-10
1.218916e-08 -4.996544e-09 -1.817162e-09 5.821448e-09 3.773565e-10 -5.440663e-10
1.421752e-08 -5.343645e-09 -2.140903e-09 5.683086e-09 1.780576e-10 -2.738552e-10
1.525459e-08 -5.663067e-09 -1.987605e-09 5.712673e-09 2.547947e-10 -5.890222e-10
1.456479e-08 -5.387152e-09 -2.197746e-09 5.803507e-09 2.840095e-10 -1.970859e-10
1.454329e-08 -5.659933e-09 -2.197346e-09 5.715247e-09 2.555388e-10 -2.014242e-10
1.460800e-08 -5.388261e-09 -1.626081e-09 5.798620e-09 2.165930e-10 -1.043183e-09
1.465870e-08 -5.576498e-09 -1.661059e-09 5.814046e-09 5.543896e-11 -9.568195e-10
1.445962e-08 -5.710441e-09 -1.788565e-09 5.589312e-09 1.879806e-10 -7.089481e-10
1.333008e-08 -5.108684e-09 -1.877388e-09 5.612966e-09 4.926309e-10 -7.765465e-11
1.348112e-08 -5.002252e-09 -1.969306e-09 5.785380e-09 3.444554e-10 -5.132515e-10
1.356632e-08 -4.935737e-09 -2.013271e-09 5.889585e-09 4.436902e-10 -2.353592e-10
1.353210e-08 -4.946325e-09 -1.833302e-09 5.969473e-09 5.742220e-10 -2.116574e-10
1.346747e-08 -5.329813e-09 -2.156209e-09 5.695276e-09 1.917120e-10 -1.138343e-10
1.346935e-08 -5.329708e-09 -2.005969e-09 5.694106e-09 2.034406e-10 -3.563145e-10
1.342047e-08 -5.564566e-09 -1.845460e-09 5.694700e-09 1.626292e-10 -3.585461e-10
1.343096e-08 -5.349953e-09 -1.850683e-09 5.767011e-09 3.211001e-10 -3.463245e-10
1.231908e-08 -4.941423e-09 -1.924123e-09 5.266335e-09 4.270178e-10 -8.097833e-11
1.230949e-08 -4.953370e-09 -1.661562e-09 5.277065e-09 4.164087e-10 -7.549105e-11
1.242603e-08 -4.959628e-09 -1.923393e-09 5.365890e-09 3.610258e-10 8.445301e-11
1.225268e-08 -4.917624e-09 -1.904678e-09 5.363305e-09 4.135047e-10 1.713911e-10
6.774496e-09 -3.704846e-09 -1.032507e-09 2.939137e-09 3.207455e-10 1.131203e-10
6.751756e-09 -3.709735e-09 -1.063720e-09 2.923782e-09 3.083822e-10 7.304690e-11
7.322445e-09 -3.704874e-09 -1.070271e-09 3.027149e-09 3.085552e-10 1.800662e-10
7.142461e-09 -3.671394e-09 -1.050485e-09 3.092424e-09 2.781238e-10 7.154455e-11
6.032085e-09 -3.273869e-09 -8.213306e-10 3.097438e-09 2.877067e-10 2.176761e-10
6.252023e-09 -3.400367e-09 -8.323049e-10 3.120312e-09 3.712626e-10 3.020957e-10
5.803219e-09 -3.028239e-09 -7.999823e-10 3.518483e-09 2.889615e-10 1.765259e-10
6.136968e-09 -3.044432e-09 -8.083845e-10 3.517026e-09 2.772984e-10 1.751586e-10
1.103968e-08 -4.939036e-09 -1.505892e-09 4.334912e-09 5.651373e-10 2.737579e-10
1.040917e-08 -4.788012e-09 -1.563005e-09 4.253820e-09 5.809809e-10 2.694443e-10
1.066293e-08 -4.939001e-09 -1.535784e-09 4.336070e-09 5.646501e-10 3.810086e-10
1.056043e-08 -4.938464e-09 -1.578263e-09 4.316481e-09 5.330181e-10 2.870366e-10
1.092720e-08 -5.043245e-09 -1.576648e-09 3.927925e-09 5.264149e-10 2.019607e-10
1.097773e-08 -4.978961e-09 -1.539534e-09 3.987191e-09 5.990116e-10 2.824567e-10
1.076592e-08 -4.929267e-09 -1.528567e-09 4.064906e-09 5.735581e-10 2.163716e-10
1.167872e-08 -5.139602e-09 -1.624701e-09 4.543127e-09 5.558486e-10 3.106009e-10
1.239860e-08 -5.158791e-09 -1.683237e-09 4.651491e-09 4.362060e-10 1.200165e-10
1.184492e-08 -5.158942e-09 -1.648311e-09 4.660819e-09 5.049038e-10 3.082377e-10
1.180713e-08 -5.157502e-09 -1.714049e-09 4.606746e-09 4.441950e-10 2.577618e-10
1.195936e-08 -5.284382e-09 -1.629031e-09 4.451388e-09 4.512795e-10 9.541058e-11
1.248254e-08 -5.322644e-09 -1.578118e-09 4.315203e-09 4.158298e-10 2.597842e-10
1.228569e-08 -5.261405e-09 -1.665785e-09 4.188638e-09 4.553949e-10 -4.981481e-11
1.133014e-08 -5.138009e-09 -1.550495e-09 4.485319e-09 4.696705e-10 3.238805e-10
1.141069e-08 -5.104712e-09 -1.600852e-09 4.387442e-09 4.428897e-10 2.805611e-10
1.150374e-08 -5.203671e-09 -1.599749e-09 4.304976e-09 4.599763e-10 3.204086e-10
1.146646e-08 -5.259686e-09 -1.613760e-09 4.129208e-09 4.292147e-10 2.623883e-10
1.148208e-08 -5.139863e-09 -1.640901e-09 4.554314e-09 5.511824e-10 3.727170e-10
1.148705e-08 -5.215443e-09 -1.632078e-09 4.157390e-09 4.239320e-10 3.133887e-10
1.163378e-08 -5.250551e-09 -1.659189e-09 4.388148e-09 4.988134e-10 2.430785e-10
1.162630e-08 -5.216961e-09 -1.576663e-09 4.380530e-09 4.175129e-10 2.290812e-10
1.143350e-08 -5.148844e-09 -1.624334e-09 4.331598e-09 4.612821e-10 3.290864e-10
1.142043e-08 -5.261735e-09 -1.685329e-09 4.206842e-09 4.495199e-10 1.657483e-10
1.149822e-08 -5.322360e-09 -1.572609e-09 4.211054e-09 4.243586e-10 2.655702e-10
1.130073e-08 -5.109161e-09 -1.613056e-09 4.357276e-09 4.101073e-10 2.055680e-10
1.144657e-08 -5.259042e-09 -1.606146e-09 4.105062e-09 3.986275e-10 2.529044e-10
-4.930933e-08 1.036308e-08 -3.830325e-08 -9.664204e-08 -7.816635e-08 -7.353825e-08
-4.659514e-08 -4.805317e-09 -4.899316e-08 -1.110750e-07 -1.025489e-07 -8.688085e-08
-4.424221e-08 1.143938e-08 -3.931114e-08 -1.038551e-07 -7.913422e-08 -7.606722e-08
-3.773979e-08 2.564648e-08 -4.112447e-08 -9.424351e-08 -7.909697e-08 -7.605488e-08
-3.716313e-08 -2.221231e-08 -5.359652e-08 -1.043136e-07 -1.021685e-07 -7.962087e-08
-3.354825e-08 -2.238807e-08 -5.353803e-08 -1.033061e-07 -1.034804e-07 -8.171840e-08
-3.096459e-08 1.049429e-08 -5.021909e-08 -9.208359e-08 -9.253985e-08 -7.861721e-08
-4.770768e-08 1.550557e-08 -1.600490e-08 -8.776365e-08 -6.284155e-08 -6.095898e-08
-4.656448e-08 2.148246e-08 -2.225970e-08 -7.620431e-08 -5.974483e-08 -5.195753e-08
-4.697712e-08 2.279753e-08 -1.840859e-08 -8.476431e-08 -6.281470e-08 -6.204768e-08
-4.185470e-08 2.215408e-08 -1.809618e-08 -8.076461e-08 -5.777777e-08 -5.883727e-08
-4.277263e-08 1.022602e-08 -2.077894e-08 -7.630081e-08 -6.420252e-08 -5.566790e-08
-3.316375e-08 1.743225e-09 -1.925792e-08 -7.759473e-08 -6.660818e-08 -5.138667e-08
-4.058466e-08 -5.683830e-09 -2.309993e-08 -8.560279e-08 -7.439337e-08 -6.207020e-08
-4.418462e-08 3.474697e-08 -2.995221e-08 -8.462297e-08 -6.032358e-08 -6.668307e-08
-3.108649e-08 2.001479e-08 -3.584888e-08 -8.557522e-08 -6.986617e-08 -6.923455e-08
-3.051134e-08 3.987075e-08 -4.166005e-08 -7.157905e-08 -6.939585e-08 -6.118720e-08
-2.727729e-08 1.300849e-08 -4.243366e-08 -8.257881e-08 -8.189632e-08 -7.255326e-08
-5.009113e-08 1.664534e-08 -1.840054e-08 -9.510490e-08 -6.321133e-08 -6.975521e-08
-4.089219e-08 -3.816069e-09 -2.238764e-08 -1.008805e-07 -7.233482e-08 -7.139415e-08
-4.024195e-08 -3.892924e-09 -2.529687e-08 -9.729477e-08 -7.540733e-08 -6.996139e-08
-4.774409e-08 1.670989e-08 -1.094479e-08 -9.345621e-08 -5.506184e-08 -5.930334e-08
-2.641426e-08 1.116852e-08 -7.568002e-09 -2.876540e-08 -2.357002e-08 -2.553117e-08
-2.529939e-08 6.487355e-09 -6.886482e-09 -2.690108e-08 -2.369584e-08 -2.660893e-08
-2.208666e-08 9.064767e-09 -9.097710e-09 -2.806450e-08 -2.526236e-08 -2.600337e-08
-2.529649e-08 1.393912e-08 -9.201417e-09 -2.672232e-08 -2.499786e-08 -2.658061e-08
-5.554043e-08 4.046710e-08 -4.112108e-08 -8.452411e-08 -5.942666e-08 -7.571082e-08
-5.457759e-08 4.783661e-08 -3.105812e-08 -7.307226e-08 -4.756473e-08 -6.269851e-08
-4.695954e-08 4.018949e-08 -3.252040e-08 -6.833149e-08 -5.230251e-08 -6.412165e-08
-5.557122e-08 4.032747e-08 -3.147839e-08 -7.636117e-08 -4.247357e-08 -5.930473e-08
-6.627860e-08 7.535834e-08 -3.319432e-08 -7.213496e-08 -4.030386e-08 -6.359878e-08
-6.484539e-08 8.183335e-08 -3.821657e-08 -6.887635e-08 -4.369199e-08 -6.411871e-08
-4.971529e-08 6.185608e-08 -3.844808e-08 -6.419507e-08 -5.062732e-08 -6.843600e-08
-5.959368e-08 4.109074e-08 -4.667642e-08 -9.193294e-08 -6.842407e-08 -8.323042e-08
-5.999130e-08 2.804815e-08 -5.509053e-08 -1.033445e-07 -8.502401e-08 -9.609719e-08
-5.748767e-08 2.790326e-08 -4.517877e-08 -9.488530e-08 -6.437565e-08 -7.957039e-08
-4.792211e-08 2.771923e-08 -4.417680e-08 -8.416640e-08 -7.245195e-08 -8.382985e-08
-5.620145e-08 4.066745e-08 -4.776663e-08 -7.987362e-08 -7.243933e-08 -8.972741e-08
-7.271904e-08 5.865630e-08 -4.666646e-08 -9.036662e-08 -6.765734e-08 -9.054908e-08
-7.026684e-08 6.076520e-08 -5.405753e-08 -8.784959e-08 -6.663386e-08 -9.141408e-08
-5.092039e-08 4.090290e-08 -4.199251e-08 -8.098806e-08 -5.172343e-08 -7.064063e-08
-5.225792e-08 3.304088e-08 -3.848905e-08 -7.773580e-08 -5.271176e-08 -7.006323e-08
-6.164000e-08 6.136549e-08 -3.847577e-08 -7.350502e-08 -4.641495e-08 -6.539642e-08
-6.074878e-08 6.045413e-08 -4.179347e-08 -6.970425e-08 -3.072786e-08 -6.399671e-08
-5.311924e-08 4.078119e-08 -3.686267e-08 -7.386312e-08 -5.652931e-08 -7.366536e-08
-4.641799e-08 5.342445e-08 -3.475595e-08 -5.093444e-08 -5.258436e-08 -7.041006e-08
-6.055999e-08 6.024438e-08 -4.199006e-08 -6.896509e-08 -5.764410e-08 -8.065601e-08
-5.809179e-08 5.776712e-08 -5.202495e-08 -6.729109e-08 -6.833206e-08 -8.482912e-08
-4.270677e-08 4.803580e-08 -3.751840e-08 -5.858284e-08 -6.172087e-08 -6.976119e-08
-5.215359e-08 6.032242e-08 -4.037027e-08 -6.204109e-08 -4.961780e-08 -7.507267e-08
-5.206225e-08 6.932190e-08 -3.919334e-08 -5.739862e-08 -5.562919e-08 -7.561664e-08
-3.771281e-08 4.539364e-08 -5.005591e-08 -5.698778e-08 -6.859541e-08 -7.125589e-08
-4.456842e-08 6.006875e-08 -4.212628e-08 -4.724263e-08 -5.281023e-08 -7.175555e-08
1.313254e-08 -5.155270e-09 -1.943639e-09 5.724314e-09 4.469651e-10 -7.539514e-12
1.230389e-08 -5.000850e-09 -2.001300e-09 5.578533e-09 5.324777e-10 -3.415178e-11
1.281994e-08 -5.003884e-09 -1.804259e-09 5.560669e-09 6.255500e-10 -1.378075e-11
1.266702e-08 -5.018271e-09 -1.934282e-09 5.630329e-09 5.685351e-10 1.292930e-10
1.205389e-08 -4.873389e-09 -1.849966e-09 6.264141e-09 4.271245e-10 -6.290656e-11
1.190379e-08 -4.788741e-09 -1.747118e-09 6.244901e-09 5.378305e-10 -1.685581e-10
1.207142e-08 -4.803177e-09 -1.784379e-09 6.356586e-09 5.612704e-10 -3.212346e-10
1.401076e-08 -5.198474e-09 -1.871536e-09 5.882948e-09 3.994979e-10 -1.505618e-10
1.481886e-08 -5.196604e-09 -1.894534e-09 6.098171e-09 4.891965e-10 -2.587596e-10
1.431527e-08 -5.231254e-09 -1.948831e-09 6.002904e-09 5.051003e-10 -9.489519e-11
1.451194e-08 -5.205114e-09 -1.878948e-09 5.881152e-09 5.794362e-10 -2.121789e-10
1.376499e-08 -4.708000e-09 -1.835344e-09 6.609319e-09 4.281446e-10 -5.003120e-10
1.351649e-08 -4.832389e-09 -1.690809e-09 6.391464e-09 4.405686e-10 -3.392921e-10
1.373897e-08 -5.154168e-09 -1.786761e-09 6.565024e-09 2.531745e-10 -1.736720e-10
1.315833e-08 -5.159696e-09 -1.898567e-09 5.741422e-09 4.575257e-10 3.200929e-11
1.271439e-08 -4.788634e-09 -1.987269e-09 6.257172e-09 5.308700e-10 -2.121574e-10
1.270649e-08 -4.799217e-09 -1.850791e-09 6.209481e-09 5.006964e-10 -1.335187e-10
1.319022e-08 -5.047330e-09 -1.771009e-09 6.268819e-09 5.466521e-10 6.516677e-11
1.367406e-08 -5.149042e-09 -1.786369e-09 5.665941e-09 4.922898e-10 -2.191316e-10
1.315270e-08 -4.838894e-09 -1.579126e-09 6.148492e-09 7.388814e-10 -1.952172e-10
1.326069e-08 -5.011871e-09 -1.784985e-09 6.099634e-09 4.692378e-10 -3.587011e-10
1.313542e-08 -4.704128e-09 -1.693301e-09 6.171799e-09 6.654983e-10 -2.436824e-10
1.313289e-08 -4.770388e-09 -1.668129e-09 6.155494e-09 7.453629e-10 -2.374465e-10
1.355210e-08 -4.942431e-09 -1.626647e-09 6.294802e-09 6.114569e-10 -1.438611e-10
1.315107e-08 -4.674573e-09 -1.578187e-09 6.193305e-09 7.258229e-10 -1.999507e-10
1.341612e-08 -4.804681e-09 -1.969868e-09 6.283082e-09 5.103977e-10 -3.589911e-10
1.344753e-08 -5.086896e-09 -1.617268e-09 6.169544e-09 6.306685e-10 -1.341522e-10
8.571541e-08 8.670954e-10 3.014700e-08 -3.341477e-08 2.619255e-08 -9.235641e-08
8.551771e-08 7.955439e-10 4.488936e-08 -3.378230e-08 2.695587e-08 -9.465482e-08
8.549859e-08 -7.178717e-10 5.203657e-08 -2.758875e-08 2.465453e-08 -1.107232e-07
7.054389e-08 -3.350283e-10 5.864315e-08 -2.759100e-08 2.632490e-08 -1.075409e-07
2.680617e-08 7.625628e-08 3.055593e-08 -8.397454e-08 6.157480e-08 -6.106251e-08
3.461804e-08 7.056976e-08 1.640332e-08 -6.739635e-08 4.971994e-08 -5.085222e-08
-7.082333e-09 8.678889e-08 2.470407e-08 -7.504347e-08 6.449648e-08 -4.252710e-08
2.835558e-09 7.780077e-08 2.325653e-08 -8.206435e-08 5.676116e-08 -3.961177e-08
-1.133405e-08 9.007906e-08 4.207113e-08 -4.022551e-08 5.340786e-08 -5.431505e-08
2.029342e-08 6.808137e-08 4.643827e-08 -4.515661e-08 4.523170e-08 -7.637596e-08
1.931669e-08 9.386065e-08 5.320342e-08 -5.965034e-08 6.577829e-08 -7.282665e-08
-3.260205e-09 9.253671e-08 6.481167e-08 -5.222037e-08 6.912069e-08 -7.200642e-08
-1.759580e-08 7.794683e-08 3.317457e-08 -3.287332e-08 4.583818e-08 -4.903509e-08
-1.246081e-08 5.849434e-08 3.442358e-08 -3.651692e-08 2.715548e-08 -4.196800e-08
1.792973e-08 5.917412e-08 4.966286e-08 -5.161147e-08 4.262478e-08 -6.507890e-08
-3.929397e-08 1.063115e-07 5.602234e-08 -1.620150e-08 4.279123e-08 -4.010534e-08
-5.593218e-08 1.124864e-07 4.754905e-08 1.763286e-08 1.744389e-08 -2.698974e-08
-3.781771e-08 9.821478e-08 5.686846e-08 -1.816831e-08 3.830381e-08 -3.864333e-08
-4.120089e-08 1.188105e-07 4.812805e-08 -1.291197e-08 3.758413e-08 -3.239160e-08
-2.714163e-08 9.812285e-08 7.198857e-08 -2.355253e-08 4.163540e-08 -5.397550e-08
-3.038972e-08 1.067801e-07 4.516802e-08 -3.979238e-10 2.433098e-08 -3.699258e-08
-6.073859e-08 1.044397e-07 -1.671530e-08 1.222839e-08 3.268902e-09 7.197612e-09
-3.357749e-08 1.127986e-07 6.579807e-08 -4.703416e-08 7.722152e-08 -5.597853e-08
-3.436436e-08 9.830613e-08 6.289578e-08 -4.292426e-08 6.588132e-08 -5.426625e-08
-4.462743e-08 1.193519e-07 4.816097e-08 -3.608373e-08 5.607046e-08 -4.192793e-08
-4.298590e-08 1.129648e-07 4.603813e-08 -2.883507e-08 5.217801e-08 -3.594184e-08
-1.062933e-08 1.146034e-07 6.035221e-08 -5.674695e-08 7.270540e-08 -5.383398e-08
-1.009013e-08 9.518705e-08 7.209875e-08 -5.826268e-08 5.979508e-08 -5.849806e-08
-1.468223e-08 1.042216e-07 6.175309e-08 -5.951799e-08 6.004160e-08 -5.150771e-08
-1.890427e-08 1.151216e-07 3.995411e-08 -4.026424e-08 4.785593e-08 -3.623237e-08
8.206454e-08 2.653700e-08 -3.955768e-07 1.374239e-08 -3.637887e-07 6.840946e-08
6.229723e-08 1.626489e-07 -3.247647e-07 -3.265564e-08 -2.493139e-07 5.948924e-08
6.853489e-08 -5.169538e-08 -3.648898e-07 4.853247e-08 -3.510995e-07 1.123811e-07
6.155309e-08 1.401787e-07 -3.375314e-07 -2.301922e-08 -2.680533e-07 6.441194e-08
1.267528e-08 -5.454198e-09 -1.820110e-09 4.759330e-09 4.358592e-10 -2.329669e-11
1.308701e-08 -5.799973e-09 -1.826722e-09 4.417232e-09 5.054956e-10 1.201623e-10
1.309176e-08 -5.821572e-09 -1.855293e-09 4.132803e-09 3.586912e-10 -8.595391e-11
1.278101e-08 -5.677807e-09 -1.825129e-09 4.419339e-09 4.434017e-10 2.148546e-10
-5.369632e-08 6.134983e-08 -2.614075e-08 -4.685093e-08 -3.368364e-08 -5.749326e-08
-5.384809e-08 6.068832e-08 -2.503472e-08 -4.629202e-08 -2.957521e-08 -5.804370e-08
-4.025590e-08 7.433562e-08 -4.105145e-08 -3.200875e-08 -3.246211e-08 -5.631559e-08
-4.233349e-08 7.125617e-08 -3.540248e-08 -2.740237e-08 -3.741574e-08 -5.700130e-08
1.369620e-08 6.340126e-08 -1.922722e-07 -1.143570e-07 -2.272453e-07 -1.033630e-07
2.074425e-08 6.574862e-08 -1.972174e-07 -1.197494e-07 -2.209458e-07 -1.070328e-07
3.968028e-08 -3.292796e-09 -2.075213e-07 -9.853509e-08 -2.690334e-07 -1.165525e-07
2.934693e-08 6.785668e-08 -2.093327e-07 -9.590368e-08 -2.132280e-07 -9.268372e-08
-5.507014e-08 4.716486e-08 -2.936820e-08 -5.277594e-08 -4.432192e-08 -5.964970e-08
-5.521791e-08 4.589046e-08 -2.843133e-08 -5.221450e-08 -4.035803e-08 -6.024671e-08
-5.372393e-08 3.586941e-08 -2.644671e-08 -4.755525e-08 -4.807625e-08 -6.204546e-08
-5.206155e-08 4.807470e-08 -2.874487e-08 -4.258503e-08 -4.051395e-08 -6.055507e-08
-4.179209e-08 4.667800e-08 -3.458118e-08 -4.128201e-08 -4.720197e-08 -4.966962e-08
-4.158603e-08 4.539659e-08 -3.311632e-08 -4.204214e-08 -4.277086e-08 -5.036207e-08
-4.101605e-08 4.778931e-08 -3.528436e-08 -4.086714e-08 -4.190208e-08 -5.006752e-08
-3.137243e-08 4.446653e-08 -2.907408e-08 -2.902869e-08 -3.471131e-08 -4.209748e-08
9.432803e-09 -4.153232e-09 -1.520690e-09 4.727648e-09 5.008287e-10 2.488765e-10
9.354112e-09 -4.302636e-09 -1.440990e-09 4.850385e-09 5.487006e-10 1.636826e-10
9.083227e-09 -3.927477e-09 -1.456856e-09 5.078724e-09 5.569047e-10 8.757928e-11
9.032560e-09 -3.917820e-09 -1.454738e-09 4.820758e-09 5.523730e-10 2.160376e-10
1.102723e-08 -4.599148e-09 -1.667606e-09 5.154448e-09 5.537203e-10 1.161564e-10
1.163786e-08 -4.625403e-09 -1.690408e-09 5.387074e-09 5.273738e-10 7.580265e-11
1.130606e-08 -4.605092e-09 -1.730672e-09 5.165263e-09 5.745248e-10 1.322729e-10
1.128114e-08 -4.598843e-09 -1.684058e-09 5.138836e-09 6.012450e-10 1.154259e-10
1.076106e-08 -4.224277e-09 -1.552682e-09 5.639508e-09 3.741087e-10 -2.751586e-10
1.053547e-08 -4.388557e-09 -1.497172e-09 5.419800e-09 5.113812e-10 1.621948e-11
1.124129e-08 -4.645222e-09 -1.501848e-09 5.328978e-09 4.766760e-10 5.180354e-13
1.036988e-08 -4.516140e-09 -1.599425e-09 4.992977e-09 5.613826e-10 2.185479e-10
9.781235e-09 -4.436887e-09 -1.553291e-09 4.880839e-09 5.984839e-10 1.751794e-10
1.012573e-08 -4.433289e-09 -1.633092e-09 4.845486e-09 5.922192e-10 3.148974e-10
1.017754e-08 -4.433684e-09 -1.610159e-09 4.844327e-09 5.925134e-10 2.800080e-10
1.010176e-08 -4.552062e-09 -1.437891e-09 5.063018e-09 5.591887e-10 9.739032e-11
9.524044e-09 -4.361417e-09 -1.448000e-09 5.246526e-09 5.667027e-10 1.602985e-11
9.626687e-09 -4.239588e-09 -1.610200e-09 5.362808e-09 5.066214e-10 -8.131517e-11
1.073023e-08 -4.515331e-09 -1.708159e-09 4.969144e-09 5.640977e-10 2.651570e-10
1.061069e-08 -4.615623e-09 -1.537986e-09 5.125723e-09 5.395378e-10 1.551537e-10
1.031722e-08 -4.138189e-09 -1.536808e-09 5.349013e-09 6.126983e-10 1.261868e-10
1.030013e-08 -4.222334e-09 -1.572995e-09 5.248163e-09 6.723961e-10 1.724390e-10
1.083074e-08 -4.514374e-09 -1.676042e-09 4.959236e-09 5.698624e-10 2.032961e-10
1.063364e-08 -4.619189e-09 -1.544996e-09 5.134663e-09 5.303691e-10 1.507223e-10
1.071310e-08 -4.257111e-09 -1.657124e-09 5.379857e-09 5.429681e-10 6.052759e-11
1.049072e-08 -4.402199e-09 -1.529069e-09 5.171799e-09 6.328712e-10 3.076184e-10
8.726467e-09 -4.086433e-09 -1.235899e-09 4.448927e-09 4.852713e-10 1.613811e-10
9.232480e-09 -4.131639e-09 -1.422503e-09 4.624235e-09 4.438865e-10 1.887961e-10
9.045014e-09 -4.083072e-09 -1.411940e-09 4.416124e-09 4.724154e-10 2.675047e-10
8.940450e-09 -4.082633e-09 -1.477297e-09 4.418829e-09 4.654459e-10 3.706637e-10
8.607222e-09 -3.900909e-09 -1.373200e-09 4.752595e-09 3.032423e-10 -1.234697e-10
8.472634e-09 -4.008528e-09 -1.133705e-09 4.615030e-09 3.487564e-10 3.804623e-11
9.026026e-09 -4.146081e-09 -1.205201e-09 4.472834e-09 4.513745e-10 2.036746e-10
8.200111e-09 -3.959633e-09 -1.211798e-09 4.264997e-09 5.012941e-10 2.786620e-10
7.806293e-09 -3.934187e-09 -1.136157e-09 4.113505e-09 5.042400e-10 3.961076e-10
7.922630e-09 -3.969284e-09 -1.150258e-09 4.051305e-09 4.646026e-10 4.125091e-10
7.950156e-09 -3.930073e-09 -1.128968e-09 4.085113e-09 4.935874e-10 4.370335e-10
7.870380e-09 -4.013295e-09 -1.198789e-09 4.103321e-09 5.151022e-10 3.435072e-10
7.978812e-09 -3.785048e-09 -1.203282e-09 4.489770e-09 5.092548e-10 2.832641e-10
7.590907e-09 -3.774662e-09 -1.155215e-09 4.453964e-09 4.157732e-10 -3.138867e-11
8.411954e-09 -3.959133e-09 -1.298691e-09 4.252264e-09 4.930989e-10 3.470830e-10
8.444403e-09 -4.008151e-09 -1.280861e-09 4.226739e-09 5.315002e-10 4.138938e-10
8.170439e-09 -3.739144e-09 -1.224498e-09 4.474525e-09 3.947185e-10 2.065244e-10
8.158819e-09 -3.769329e-09 -1.273640e-09 4.398928e-09 4.350951e-10 2.782297e-10
8.412389e-09 -3.957983e-09 -1.269800e-09 4.246228e-09 4.988685e-10 3.155187e-10
8.467655e-09 -4.008594e-09 -1.268239e-09 4.225078e-09 5.388654e-10 3.783378e-10
7.917247e-09 -3.763435e-09 -1.228958e-09 4.379625e-09 4.515222e-10 2.427383e-10
8.418965e-09 -4.014253e-09 -1.208278e-09 4.130362e-09 5.119558e-10 4.653087e-10
8.804058e-09 -4.454154e-09 -1.215623e-09 3.696834e-09 4.420677e-10 2.746949e-10
8.373988e-09 -4.410777e-09 -1.153628e-09 3.582065e-09 4.072747e-10 3.391842e-10
8.411256e-09 -4.454373e-09 -1.151977e-09 3.712227e-09 4.324093e-10 3.726366e-10
8.558072e-09 -4.454363e-09 -1.101025e-09 3.711047e-09 4.317065e-10 4.605505e-10
8.828334e-09 -4.619890e-09 -1.175849e-09 3.444385e-09 2.808189e-10 7.954748e-12
8.993897e-09 -4.488288e-09 -1.238760e-09 3.615365e-09 4.023621e-10 2.654139e-10
8.440598e-09 -4.403787e-09 -1.206768e-09 3.661521e-09 4.548482e-10 3.128700e-10
9.295920e-09 -4.547943e-09 -1.234738e-09 3.912159e-09 5.033174e-10 2.295530e-10
9.835674e-09 -4.541567e-09 -1.436679e-09 4.038081e-09 5.214107e-10 3.260632e-10
9.516045e-09 -4.547179e-09 -1.383180e-09 4.083411e-09 4.414797e-10 3.932099e-10
9.520765e-09 -4.542344e-09 -1.466996e-09 4.088638e-09 4.997805e-10 4.292549e-10
9.674814e-09 -4.538960e-09 -1.207121e-09 4.005165e-09 4.935603e-10 1.977938e-10
9.782198e-09 -4.697089e-09 -1.206594e-09 3.650542e-09 4.508737e-10 -2.210674e-12
9.916345e-09 -4.697545e-09 -1.500373e-09 3.678946e-09 4.044973e-10 -1.489320e-11
8.993723e-09 -4.421287e-09 -1.262181e-09 3.854749e-09 4.294405e-10 3.850644e-10
8.968957e-09 -4.378398e-09 -1.263895e-09 3.877262e-09 4.634124e-10 4.352525e-10
8.844125e-09 -4.383972e-09 -1.212988e-09 3.903891e-09 4.575063e-10 4.751541e-10
9.120120e-09 -4.578621e-09 -1.289511e-09 3.684346e-09 3.345522e-10 3.120166e-10
9.148797e-09 -4.548284e-09 -1.290809e-09 3.934356e-09 4.923306e-10 3.229432e-10
9.101779e-09 -4.532169e-09 -1.277641e-09 3.983570e-09 5.099556e-10 4.114706e-10
9.317958e-09 -4.738257e-09 -1.323328e-09 3.786672e-09 4.082041e-10 2.713640e-10
9.302898e-09 -4.698012e-09 -1.311258e-09 3.710871e-09 4.305210e-10 2.362757e-10
6.437878e-08 1.744935e-07 -3.180970e-07 1.025557e-08 -2.206031e-07 6.968955e-08
3.241059e-08 2.507420e-07 -3.200496e-07 1.562763e-08 -1.486673e-07 8.622603e-08
1.499813e-08 2.531069e-07 -3.198306e-07 5.442890e-09 -2.297539e-07 8.204092e-08
3.304268e-08 2.668145e-07 -3.259310e-07 -5.992201e-08 -1.725576e-07 7.739050e-08
2.107132e-08 2.069817e-07 -3.408717e-07 -3.002689e-08 -1.314236e-07 5.054888e-08
9.819879e-08 3.069209e-07 -2.992906e-07 -1.352550e-07 -3.893577e-08 -8.532794e-08
4.806107e-08 5.202601e-07 -6.380971e-07 -9.115953e-08 -1.992754e-07 4.650140e-08
1.000737e-07 1.650918e-07 -3.539743e-07 -1.201174e-08 -2.733617e-07 5.060592e-08
1.245281e-07 5.052938e-08 -4.317256e-07 -7.035660e-09 -3.967892e-07 2.225806e-08
7.452098e-08 1.767947e-07 -3.693269e-07 -6.563784e-08 -2.982595e-07 2.855262e-08
7.207162e-08 1.631639e-07 -4.618845e-07 -1.463785e-09 -3.943857e-07 6.228992e-08
8.362148e-08 3.810131e-07 -5.249832e-07 -6.293083e-08 -2.780168e-07 2.517686e-09
1.184570e-07 1.924324e-07 -2.822416e-07 -1.083717e-07 -1.444934e-07 -8.957596e-08
3.619663e-08 -6.716305e-09 -3.538904e-07 2.386916e-08 -2.778602e-07 8.886629e-09
2.744401e-08 1.846508e-07 -3.238109e-07 -3.550242e-08 -2.512862e-07 5.325880e-08
3.959562e-08 5.269589e-07 -5.698808e-07 -1.221832e-07 -2.253795e-07 9.599583e-08
5.170870e-08 3.134562e-07 -2.859016e-07 -1.124240e-07 -2.488730e-08 9.817699e-09
-1.023149e-09 3.615624e-07 -2.641253e-07 -1.186514e-07 -6.110913e-08 -2.648738e-09
6.692598e-08 1.826416e-07 -3.525783e-07 -2.816313e-08 -2.602665e-07 5.860709e-08
3.126781e-09 4.144170e-07 -3.120681e-07 -5.558336e-08 -1.350176e-07 -4.166541e-09
7.929956e-08 3.763718e-07 -4.518037e-07 -8.518601e-08 -2.033546e-07 1.924167e-08
6.707497e-08 3.839244e-07 -4.129250e-07 -7.313891e-08 -1.774425e-07 2.091591e-08
5.183397e-08 5.297521e-07 -4.322073e-07 -1.359577e-07 -1.598821e-07 4.343670e-08
-3.159520e-08 4.338311e-07 -4.020521e-07 -3.400159e-08 -1.497899e-07 7.230082e-08
1.699073e-09 4.774902e-07 -3.507514e-07 -8.336675e-08 -1.010387e-07 8.773152e-09
6.931038e-09 5.208697e-07 -6.040131e-07 -9.183496e-08 -2.487229e-07 1.313153e-07
4.571309e-09 3.844940e-07 -3.273701e-07 -3.858236e-08 -1.602341e-07 1.828722e-08
-4.792050e-08 1.034406e-07 -2.174349e-07 1.086720e-07 -2.133632e-07 1.576706e-07
-3.903711e-08 1.789960e-07 -1.997447e-07 8.181390e-08 -1.597133e-07 1.422803e-07
-4.933739e-08 1.007192e-07 -2.045463e-07 1.108603e-07 -1.812512e-07 1.510056e-07
-4.095257e-08 1.533995e-08 -2.131775e-07 1.459286e-07 -2.261381e-07 1.509737e-07
-4.628880e-08 2.986760e-08 -2.995746e-08 -7.317401e-08 -6.415391e-08 -5.641580e-08
-4.769833e-08 2.250955e-08 -2.133451e-08 -6.994545e-08 -6.260822e-08 -5.734565e-08
-3.986679e-08 1.776821e-08 -2.026235e-08 -7.716691e-08 -6.748020e-08 -5.406756e-08
-3.965397e-08 1.032026e-08 -2.372691e-08 -7.628732e-08 -7.380374e-08 -5.409734e-08
-5.553367e-08 2.538695e-08 -4.889392e-08 -1.009835e-07 -7.400056e-08 -8.744357e-08
-6.314204e-08 5.828481e-08 -5.553925e-08 -7.793821e-08 -4.242441e-08 -8.274419e-08
-6.534308e-08 3.331363e-08 -5.507217e-08 -9.169686e-08 -6.922690e-08 -9.553675e-08
-4.980787e-08 7.685746e-08 -9.260166e-08 -6.555911e-08 -7.393892e-08 -9.594239e-08
-4.897439e-08 3.928391e-08 -5.604737e-08 -7.255996e-08 -4.619762e-08 -7.973096e-08
-6.729857e-08 4.315171e-08 -6.764459e-08 -9.167886e-08 -7.203382e-08 -9.042801e-08
-6.514574e-08 7.769282e-08 -7.193247e-08 -7.999049e-08 -4.819659e-08 -8.847551e-08
-5.112065e-08 4.785917e-08 -4.761689e-08 -6.961066e-08 -5.539561e-08 -8.502444e-08
-6.309824e-08 6.133582e-08 -4.867052e-08 -8.239895e-08 -5.336044e-08 -8.122709e-08
7.664681e-08 2.263876e-08 2.554409e-08 -4.370850e-08 3.495288e-08 -8.958150e-08
8.878375e-08 5.536010e-09 1.468485e-08 -3.745926e-08 3.418687e-08 -8.772709e-08
7.913196e-08 2.392736e-08 2.133880e-08 -5.017005e-08 3.790411e-08 -8.626920e-08
7.058711e-08 2.272721e-08 2.104689e-08 -4.383519e-08 4.464943e-08 -9.127197e-08
6.743931e-08 1.525076e-08 2.046935e-08 -3.863579e-08 4.201258e-08 -8.903206e-08
7.508986e-08 6.029868e-09 1.819266e-08 -3.667536e-08 3.206412e-08 -7.865717e-08
7.224324e-08 9.622695e-09 1.855377e-08 -3.724465e-08 3.081622e-08 -7.799857e-08
6.852666e-08 3.924212e-08 3.030701e-08 -5.290784e-08 4.412167e-08 -9.204441e-08
5.379284e-08 4.970951e-08 3.209016e-08 -5.613190e-08 5.192116e-08 -8.691821e-08
5.010218e-08 5.083253e-08 3.566716e-08 -6.146539e-08 5.667607e-08 -8.703638e-08
5.730548e-08 5.137184e-08 3.130192e-08 -6.448315e-08 5.460569e-08 -8.637050e-08
5.471550e-08 4.948360e-08 2.476351e-08 -5.936886e-08 5.083500e-08 -7.949909e-08
4.527627e-08 4.433033e-08 2.400280e-08 -5.238776e-08 4.619321e-08 -7.296263e-08
4.394546e-08 4.468069e-08 1.832952e-08 -5.318180e-08 4.535909e-08 -7.596874e-08
5.372541e-08 3.950933e-08 3.150443e-08 -5.346888e-08 5.001626e-08 -8.366898e-08
4.875425e-08 4.277271e-08 2.556991e-08 -4.861265e-08 4.746989e-08 -7.762852e-08
4.809790e-08 3.283219e-08 2.557599e-08 -4.566265e-08 4.731464e-08 -7.753926e-08
4.538403e-08 4.563987e-08 3.375166e-08 -5.797062e-08 5.867134e-08 -8.320425e-08
6.461776e-08 4.036967e-08 2.428299e-08 -5.825248e-08 4.819249e-08 -8.672446e-08
5.913438e-08 4.336299e-08 2.362169e-08 -6.515988e-08 4.826494e-08 -7.922729e-08
6.392227e-08 4.051688e-08 2.378784e-08 -5.673474e-08 4.799430e-08 -8.523890e-08
6.419659e-08 4.130911e-08 2.918136e-08 -5.816300e-08 4.361513e-08 -8.392282e-08
5.624564e-08 4.230169e-08 1.858371e-08 -5.633080e-08 4.163366e-08 -7.473784e-08
5.270939e-08 4.651520e-08 2.600812e-08 -6.264653e-08 5.308899e-08 -8.426841e-08
5.854940e-08 4.147932e-08 2.644640e-08 -6.396053e-08 4.828676e-08 -7.995155e-08
4.758192e-08 4.033988e-08 2.547387e-08 -5.218037e-08 4.381484e-08 -7.830854e-08
5.661904e-08 4.715730e-08 2.660119e-08 -6.600212e-08 5.238481e-08 -8.215099e-08
8.122297e-08 -8.175167e-09 -3.115901e-09 -1.599884e-08 9.508860e-09 -4.697986e-08
7.185517e-08 -4.885669e-09 4.661351e-10 -2.180610e-08 1.481515e-08 -4.646529e-08
7.338064e-08 -5.887704e-09 -2.059281e-09 -2.119312e-08 1.318929e-08 -4.500803e-08
7.322460e-08 -7.258638e-09 -4.609753e-09 -2.067307e-08 1.116540e-08 -4.410599e-08
7.381835e-08 -9.189507e-09 3.911250e-09 -1.627144e-08 9.111714e-09 -4.485813e-08
6.792730e-08 -9.117063e-09 2.469956e-09 -1.689701e-08 9.531122e-09 -4.186942e-08
6.577939e-08 -8.445319e-09 1.268640e-09 -1.655378e-08 7.106728e-09 -3.829990e-08
6.912724e-08 -1.064563e-08 6.480903e-09 -2.104552e-08 9.411892e-09 -4.336515e-08
7.048925e-09 -3.832154e-09 -1.005477e-09 2.960768e-09 4.363102e-10 2.216742e-10
6.675254e-09 -3.756160e-09 -8.714443e-10 2.782340e-09 3.746563e-10 3.134768e-10
7.026131e-09 -3.832151e-09 -9.606458e-10 2.949557e-09 4.449289e-10 2.012746e-10
6.898958e-09 -3.832152e-09 -9.232100e-10 2.935125e-09 4.380238e-10 2.099447e-10
7.182020e-09 -4.021146e-09 -9.563765e-10 2.659316e-09 3.546614e-10 1.380016e-10
7.415458e-09 -3.949495e-09 -9.840475e-10 2.866505e-09 3.671017e-10 2.784106e-10
7.035136e-09 -3.848434e-09 -9.804699e-10 3.004042e-09 4.225558e-10 2.304379e-10
7.474025e-09 -3.984146e-09 -1.050222e-09 3.176069e-09 4.460265e-10 3.087166e-10
7.947449e-09 -4.077559e-09 -1.092643e-09 3.310846e-09 3.474062e-10 3.715108e-10
7.687611e-09 -4.077559e-09 -1.049840e-09 3.315350e-09 4.467928e-10 2.947962e-10
7.989250e-09 -4.077559e-09 -1.090419e-09 3.243136e-09 4.029224e-10 3.530203e-10
8.046754e-09 -4.206575e-09 -1.098550e-09 3.198142e-09 3.537024e-10 3.079368e-10
8.334311e-09 -4.249378e-09 -1.093132e-09 3.148694e-09 3.308240e-10 3.594987e-10
8.036569e-09 -4.159628e-09 -1.087129e-09 2.941733e-09 3.914180e-10 5.530310e-11
7.365056e-09 -3.984146e-09 -1.002230e-09 3.162568e-09 4.386380e-10 2.623708e-10
7.434549e-09 -3.910005e-09 -1.014034e-09 3.068007e-09 4.680856e-10 1.901632e-10
7.586152e-09 -4.125559e-09 -1.000368e-09 2.945741e-09 4.230154e-10 2.360285e-10
7.590883e-09 -4.159628e-09 -9.946257e-10 2.969392e-09 4.538903e-10 2.412965e-10
7.526580e-09 -3.984147e-09 -1.027437e-09 3.176936e-09 4.454512e-10 2.741087e-10
7.652126e-09 -3.910704e-09 -1.034083e-09 3.063538e-09 4.718661e-10 2.050453e-10
7.575427e-09 -4.159628e-09 -1.042945e-09 2.892285e-09 4.242948e-10 1.753873e-10
8.025658e-09 -4.241941e-09 -1.043585e-09 3.099579e-09 3.783777e-10 4.468448e-10
1.820733e-08 -6.309135e-09 -2.514033e-09 5.346510e-09 6.955242e-10 -1.114997e-09
1.702913e-08 -6.162387e-09 -2.328497e-09 5.343843e-09 7.211880e-10 -8.711876e-10
1.721987e-08 -6.313316e-09 -2.694277e-09 5.410776e-09 6.656186e-10 -6.577783e-10
1.735048e-08 -6.302378e-09 -2.507170e-09 5.500324e-09 5.466430e-10 -8.151200e-10
1.797642e-08 -6.485799e-09 -2.471154e-09 4.599553e-09 6.838373e-10 -1.586433e-09
1.741782e-08 -6.488659e-09 -2.266357e-09 4.639656e-09 6.544516e-10 -1.217962e-09
1.782053e-08 -6.422345e-09 -2.239045e-09 5.350264e-09 4.913518e-10 -1.323733e-09
1.950212e-08 -6.511540e-09 -2.614208e-09 5.333464e-09 7.179072e-10 -1.209230e-09
2.088911e-08 -6.613818e-09 -2.828200e-09 5.339282e-09 5.929524e-10 -1.693020e-09
1.970738e-08 -6.620127e-09 -2.673456e-09 5.426085e-09 6.016687e-10 -1.246198e-09
1.981763e-08 -6.616189e-09 -2.968050e-09 5.392579e-09 5.742163e-10 -1.304090e-09
2.050607e-08 -6.831957e-09 -2.564793e-09 4.696917e-09 8.824961e-10 -1.882804e-09
2.057512e-08 -6.776580e-09 -2.338814e-09 4.634739e-09 6.120819e-10 -1.550244e-09
2.046393e-08 -6.695224e-09 -2.614498e-09 4.593187e-09 6.320369e-10 -1.753177e-09
1.852711e-08 -6.354462e-09 -2.675992e-09 5.538183e-09 5.725701e-10 -1.035431e-09
1.903727e-08 -6.601506e-09 -2.505842e-09 5.294914e-09 5.128460e-10 -1.466246e-09
1.848740e-08 -6.568541e-09 -2.599463e-09 5.288199e-09 3.988300e-10 -8.952583e-10
1.903262e-08 -6.567277e-09 -2.814813e-09 5.258721e-09 4.285799e-10 -1.228266e-09
1.823189e-08 -6.500219e-09 -2.783578e-09 5.289474e-09 7.182884e-10 -7.166445e-10
1.885916e-08 -6.692829e-09 -2.848125e-09 4.627922e-09 6.067704e-10 -1.092658e-09
1.864073e-08 -6.785688e-09 -2.472943e-09 4.770415e-09 5.769720e-10 -1.037492e-09
1.840654e-08 -6.711620e-09 -2.695867e-09 4.794307e-09 4.675165e-10 -7.677572e-10
1.567602e-08 -5.854877e-09 -2.218399e-09 4.954796e-09 2.762608e-10 -6.060343e-10
1.567958e-08 -5.875350e-09 -2.188651e-09 4.988228e-09 2.511542e-10 -6.243672e-10
1.594397e-08 -6.030555e-09 -2.251341e-09 4.701223e-09 1.270276e-10 -6.833543e-10
1.590766e-08 -6.152638e-09 -2.064556e-09 4.442648e-09 2.130837e-10 -8.568017e-10
1.604465e-08 -6.127008e-09 -2.336050e-09 5.107974e-09 4.559866e-10 -7.290188e-10
1.631583e-08 -6.352119e-09 -2.388828e-09 4.838574e-09 3.383380e-10 -7.979206e-10
1.621685e-08 -6.458400e-09 -2.225679e-09 4.449754e-09 4.622214e-10 -9.120509e-10
1.624586e-08 -6.498872e-09 -2.215329e-09 4.559073e-09 4.416128e-10 -9.386005e-10
1.011379e-08 -4.785884e-09 -1.544521e-09 4.175522e-09 5.725098e-10 3.611123e-10
1.038953e-08 -5.043417e-09 -1.553130e-09 3.937974e-09 5.252224e-10 3.114451e-10
1.031697e-08 -4.970178e-09 -1.572915e-09 3.991027e-09 5.857153e-10 4.649280e-10
1.038425e-08 -5.035594e-09 -1.599149e-09 3.933665e-09 5.185090e-10 3.350484e-10
8.380294e-09 -4.409862e-09 -1.165058e-09 3.524042e-09 4.532685e-10 3.438814e-10
8.354843e-09 -4.618482e-09 -1.131901e-09 3.357062e-09 3.518519e-10 1.682418e-10
8.505193e-09 -4.528564e-09 -1.210715e-09 3.438262e-09 4.559935e-10 3.313932e-10
8.348127e-09 -4.520355e-09 -1.164100e-09 3.377844e-09 4.769122e-10 2.408807e-10
-3.019483e-08 1.116852e-08 -1.248448e-08 -3.922976e-08 -3.233094e-08 -3.004995e-08
-2.955393e-08 5.810293e-09 -1.122947e-08 -3.841588e-08 -3.378694e-08 -3.095217e-08
-3.094832e-08 1.807242e-08 -1.130522e-08 -4.034667e-08 -3.346367e-08 -3.138139e-08
-3.144223e-08 9.064767e-09 -1.489051e-08 -4.450660e-08 -3.945064e-08 -3.339644e-08
1.158142e-08 -4.957963e-09 -1.928568e-09 5.491936e-09 4.391740e-10 -1.442943e-10
1.157502e-08 -4.957753e-09 -1.666079e-09 5.486411e-09 4.613549e-10 -1.659963e-10
1.180560e-08 -4.950371e-09 -1.861140e-09 5.528482e-09 4.933720e-10 7.187363e-11
1.104569e-08 -4.841587e-09 -1.573170e-09 5.761458e-09 3.091334e-10 -1.486589e-10
-5.440278e-08 3.365284e-08 -5.981452e-08 -9.649661e-08 -8.488319e-08 -9.037980e-08
-5.333452e-08 2.915189e-08 -7.172264e-08 -8.929460e-08 -1.068642e-07 -8.987470e-08
-5.125822e-08 5.206904e-08 -7.169877e-08 -7.986298e-08 -8.067412e-08 -8.644393e-08
-5.452949e-08 5.182509e-08 -6.319801e-08 -7.846382e-08 -8.277277e-08 -8.564242e-08
7.100607e-09 -3.749823e-09 -1.057680e-09 3.724285e-09 5.203206e-10 1.492820e-10
7.144568e-09 -3.404589e-09 -1.052929e-09 3.873500e-09 4.655458e-10 1.166147e-10
6.805895e-09 -3.482471e-09 -1.020257e-09 3.788688e-09 4.963556e-10 1.036199e-10
7.115942e-09 -3.399911e-09 -1.022561e-09 3.966922e-09 4.524270e-10 -3.501532e-11
2.908786e-08 -7.064312e-09 -3.559951e-09 7.435558e-09 3.327972e-11 -6.155099e-09
2.872420e-08 -7.118620e-09 -2.249305e-09 8.026200e-09 -1.112743e-10 -7.788313e-09
2.931184e-08 -7.169470e-09 -2.748550e-09 8.332196e-09 -3.396985e-10 -7.561904e-09
2.904216e-08 -6.989585e-09 -3.305424e-09 8.314480e-09 -5.389141e-11 -7.066210e-09
5.471570e-08 4.348470e-08 4.817340e-08 -5.774296e-08 5.625583e-08 -8.073739e-08
4.499676e-08 4.622495e-08 4.016014e-08 -6.504924e-08 5.810795e-08 -6.922766e-08
4.052345e-08 3.657401e-08 3.909519e-08 -5.847871e-08 5.486567e-08 -6.701939e-08
3.969918e-08 3.669769e-08 4.232555e-08 -5.479351e-08 5.663934e-08 -6.373456e-08
-4.166121e-08 1.365851e-08 -6.004265e-08 -8.358472e-08 -8.259819e-08 -9.268957e-08
-4.163347e-08 1.694510e-08 -7.374704e-08 -8.299228e-08 -1.018688e-07 -9.299865e-08
-2.719734e-08 1.447038e-08 -7.856340e-08 -5.579654e-08 -9.959556e-08 -9.055729e-08
-4.190669e-08 5.098052e-08 -7.316153e-08 -8.211715e-08 -7.759339e-08 -9.015031e-08
1.192612e-08 -4.641802e-09 -2.012859e-09 5.443930e-09 5.684929e-10 -1.282536e-10
1.125743e-08 -4.360134e-09 -1.711848e-09 5.843930e-09 5.399510e-10 -2.149831e-10
1.154741e-08 -4.445340e-09 -1.966303e-09 5.837943e-09 4.678216e-10 -2.534755e-10
1.135340e-08 -4.263365e-09 -2.080339e-09 5.780338e-09 4.218443e-10 -7.561062e-11
1.133893e-08 -4.428206e-09 -1.752902e-09 5.850536e-09 4.775069e-10 -1.724185e-10
1.140072e-08 -4.463172e-09 -1.828424e-09 6.010930e-09 5.226934e-10 -1.004012e-10
1.133860e-08 -4.251140e-09 -1.829248e-09 5.726720e-09 5.292735e-10 -1.305933e-10
1.150812e-08 -4.421700e-09 -1.825518e-09 5.918812e-09 5.322822e-10 -1.380966e-10
1.126234e-08 -4.366377e-09 -1.727472e-09 5.949174e-09 6.292143e-10 -2.221556e-10
5.800644e-08 -1.031944e-08 -2.961542e-09 5.875073e-10 1.777614e-09 -2.650882e-08
5.810037e-08 -1.020316e-08 -1.002012e-09 4.820952e-10 2.497902e-09 -2.709775e-08
5.414914e-08 -1.057614e-08 1.032587e-09 -1.093698e-09 2.448035e-09 -2.965884e-08
5.570427e-08 -1.138026e-08 -1.059025e-09 -1.089951e-09 3.805268e-09 -2.910859e-08
8.033761e-08 -9.139548e-09 -2.457247e-09 -1.703391e-08 9.788603e-09 -4.627111e-08
8.029776e-08 -9.311516e-09 -1.820261e-09 -1.722822e-08 1.059269e-08 -4.447359e-08
7.558062e-08 -1.074486e-08 5.235834e-10 -2.050528e-08 1.018081e-08 -4.763535e-08
7.551296e-08 -9.764619e-09 2.245265e-09 -2.064636e-08 1.168883e-08 -4.808179e-08
-2.589657e-08 -2.964275e-08 -6.607171e-08 -1.456790e-07 -1.391130e-07 -1.053525e-07
-3.410194e-08 -2.411926e-08 -6.393899e-08 -1.251504e-07 -1.262065e-07 -9.100376e-08
-2.306006e-08 -2.088527e-08 -6.619990e-08 -1.405509e-07 -1.378787e-07 -1.044055e-07
-1.727982e-08 -2.375756e-08 -6.058311e-08 -1.277245e-07 -1.251020e-07 -9.870733e-08
-1.837113e-08 -2.595095e-08 -6.457524e-08 -1.243226e-07 -1.284663e-07 -9.570031e-08
-1.070945e-08 -3.720837e-08 -6.399517e-08 -1.210451e-07 -1.277818e-07 -9.358520e-08
-1.814214e-08 -6.503211e-08 -7.228533e-08 -1.362461e-07 -1.549998e-07 -1.044564e-07
-1.886074e-08 -2.112750e-08 -9.663300e-08 -1.670997e-07 -1.615471e-07 -1.144405e-07
-5.467001e-09 -3.620628e-09 -1.265276e-07 -1.828381e-07 -1.906805e-07 -1.134212e-07
-3.927757e-09 -2.507941e-08 -1.107643e-07 -1.498335e-07 -1.754950e-07 -1.098187e-07
-4.737058e-09 -1.691578e-08 -1.297157e-07 -1.871423e-07 -2.036899e-07 -1.221341e-07
-3.586930e-09 -6.944238e-08 -1.382989e-07 -1.767407e-07 -2.255244e-07 -1.190684e-07
5.413414e-09 9.720683e-09 -9.571138e-08 -1.418870e-07 -1.503831e-07 -9.948842e-08
-9.113369e-09 2.408345e-08 -9.692245e-08 -1.448107e-07 -1.484365e-07 -1.046073e-07
-4.482636e-09 -3.319931e-08 -7.343085e-08 -1.305758e-07 -1.480252e-07 -1.032972e-07
-8.241476e-09 -2.441486e-08 -7.102427e-08 -1.308431e-07 -1.433713e-07 -1.029672e-07
-9.611180e-09 -6.455439e-08 -7.384252e-08 -1.388981e-07 -1.540820e-07 -1.050175e-07
5.389712e-10 -3.775358e-08 -6.646299e-08 -1.199337e-07 -1.291728e-07 -9.457215e-08
-1.506721e-08 -2.533127e-08 -9.839054e-08 -1.659981e-07 -1.743619e-07 -1.234231e-07
-1.784461e-08 -9.931059e-09 -9.267623e-08 -1.663074e-07 -1.645230e-07 -1.223593e-07
-8.110768e-09 -4.226999e-08 -8.948178e-08 -1.700395e-07 -1.718192e-07 -1.161869e-07
-7.241794e-09 -5.852287e-08 -8.864697e-08 -1.666251e-07 -1.717337e-07 -1.150538e-07
2.076091e-08 -5.774449e-09 -2.854816e-09 6.824155e-09 6.178756e-10 -2.596080e-09
2.045732e-08 -5.992555e-09 -2.316892e-09 7.217455e-09 4.468110e-10 -2.809738e-09
2.013564e-08 -5.504689e-09 -2.423672e-09 7.476186e-09 6.388234e-10 -2.997183e-09
2.015056e-08 -5.404573e-09 -2.483227e-09 7.550675e-09 7.092953e-10 -3.011247e-09
2.218119e-08 -6.787309e-09 -3.936893e-09 5.533701e-09 6.564256e-10 -1.716510e-09
2.276738e-08 -7.317330e-09 -3.709387e-09 4.566232e-09 6.598437e-10 -2.441833e-09
2.251074e-08 -7.241075e-09 -3.609496e-09 4.916626e-09 7.656215e-10 -1.660067e-09
2.244048e-08 -7.241755e-09 -3.635296e-09 4.945554e-09 7.523428e-10 -1.615698e-09
8.521399e-08 1.832762e-07 -4.762613e-07 -1.281444e-07 -3.356467e-07 -3.385268e-09
2.442819e-09 2.485175e-07 -4.170534e-07 -1.245697e-07 -2.708302e-07 -7.007554e-09
8.825547e-08 1.782381e-07 -4.221737e-07 -1.317888e-07 -2.610072e-07 -3.054417e-08
7.302476e-08 1.897069e-07 -4.272814e-07 -9.865429e-08 -2.846798e-07 -2.155136e-08
3.450681e-08 2.417266e-07 -4.219287e-07 -1.027477e-07 -2.344406e-07 1.544172e-08
2.286970e-08 1.979199e-07 -4.188793e-07 -1.208146e-07 -2.690925e-07 -3.644182e-08
1.600833e-08 2.331749e-07 -4.269327e-07 -1.259919e-07 -2.890393e-07 -2.137199e-08
1.000953e-07 2.364577e-07 -4.204863e-07 -9.093360e-08 -2.337994e-07 2.172093e-09
1.718245e-08 2.336403e-07 -4.142155e-07 -1.169009e-07 -2.556266e-07 -3.337789e-08
-4.132936e-08 2.791323e-08 -1.678765e-08 -5.054714e-08 -4.777991e-08 -4.565496e-08
-4.463382e-08 2.306097e-08 -1.193181e-08 -4.645524e-08 -4.361273e-08 -5.027975e-08
-4.445786e-08 8.362034e-09 -1.739632e-08 -5.340564e-08 -5.594794e-08 -5.199890e-08
-4.059701e-08 2.426966e-08 -9.874841e-09 -4.551735e-08 -4.256903e-08 -4.579988e-08
-4.823954e-08 5.929102e-08 -3.270615e-08 -4.224451e-08 -4.233822e-08 -5.009783e-08
-4.858361e-08 5.270254e-08 -3.160308e-08 -4.051982e-08 -3.937119e-08 -5.036269e-08
-3.394649e-08 4.092151e-08 -2.734552e-08 -2.587823e-08 -3.379696e-08 -4.224414e-08
-3.924151e-08 6.783552e-08 -2.878275e-08 -2.328826e-08 -3.564050e-08 -4.536577e-08
2.123280e-08 -6.772499e-09 -2.839272e-09 5.503223e-09 5.246846e-10 -1.719378e-09
2.205339e-08 -7.308295e-09 -2.654320e-09 4.554203e-09 5.621695e-10 -2.337981e-09
2.081469e-08 -7.216338e-09 -2.669622e-09 4.960232e-09 5.934596e-10 -1.919362e-09
2.102784e-08 -7.104027e-09 -2.472557e-09 4.805394e-09 3.576210e-10 -1.603819e-09
7.447157e-08 -8.214016e-09 2.524270e-09 -1.546586e-08 9.203347e-09 -4.491206e-08
8.135662e-08 -4.535135e-09 -1.116705e-09 -2.402367e-08 1.379296e-08 -4.454418e-08
6.737722e-08 -7.004891e-09 1.845887e-09 -2.115470e-08 9.866902e-09 -4.051064e-08
6.337129e-08 -5.155772e-09 -4.181673e-09 -1.706278e-08 7.766475e-09 -3.467596e-08
-3.903994e-08 2.504362e-08 -1.368607e-08 -3.624731e-08 -2.555123e-08 -3.588774e-08
-3.388314e-08 2.338093e-08 -9.622127e-09 -3.152334e-08 -2.021294e-08 -2.942414e-08
-2.898164e-08 2.504361e-08 -1.193277e-08 -2.618922e-08 -2.360544e-08 -3.038328e-08
-3.278381e-08 2.504361e-08 -1.048521e-08 -3.014567e-08 -2.003627e-08 -2.947060e-08
-3.636879e-08 3.019738e-08 -1.499231e-08 -2.726696e-08 -1.801619e-08 -3.358789e-08
-3.737325e-08 2.936536e-08 -1.169877e-08 -2.829577e-08 -1.835100e-08 -3.304396e-08
-2.908361e-08 2.232018e-08 -1.319237e-08 -2.545861e-08 -2.164934e-08 -3.102495e-08
-4.638436e-08 3.583491e-08 -1.688951e-08 -4.478249e-08 -3.220449e-08 -4.203521e-08
-5.288947e-08 3.918623e-08 -2.118043e-08 -5.244642e-08 -3.831093e-08 -5.060330e-08
-4.452972e-08 3.918622e-08 -2.040242e-08 -4.227548e-08 -3.066926e-08 -4.118276e-08
-3.717665e-08 3.918622e-08 -2.038346e-08 -3.502517e-08 -3.707223e-08 -4.444035e-08
-3.723426e-08 3.085186e-08 -2.267614e-08 -3.430939e-08 -3.164000e-08 -4.483738e-08
-4.609731e-08 4.091183e-08 -2.267090e-08 -3.742001e-08 -3.136402e-08 -4.507423e-08
-4.712574e-08 3.811970e-08 -2.211654e-08 -3.912269e-08 -2.911690e-08 -4.385675e-08
-3.592995e-08 3.583491e-08 -1.748204e-08 -3.031263e-08 -2.752737e-08 -3.617491e-08
-3.271326e-08 1.723611e-08 -1.089561e-08 -2.978466e-08 -2.127734e-08 -3.105399e-08
-3.701579e-08 3.003962e-08 -1.173241e-08 -2.780309e-08 -1.853366e-08 -3.319196e-08
-3.632527e-08 3.811970e-08 -1.612087e-08 -2.426901e-08 -1.751904e-08 -3.471339e-08
-3.503287e-08 3.583491e-08 -1.628070e-08 -2.673409e-08 -3.095930e-08 -3.723140e-08
-2.972348e-08 1.645093e-08 -1.135154e-08 -2.349264e-08 -2.684799e-08 -3.209266e-08
-2.661118e-08 3.811970e-08 -2.117094e-08 -1.338136e-08 -2.734097e-08 -3.629601e-08
-2.599033e-08 3.908442e-08 -2.088990e-08 -1.260677e-08 -2.825137e-08 -3.705196e-08
-3.801728e-08 2.078882e-07 -6.374958e-08 -4.423726e-09 1.513102e-08 4.094550e-08
-2.209871e-08 1.891661e-07 -9.787668e-08 -5.617465e-09 1.005919e-08 2.098763e-08
-2.728507e-08 1.888864e-07 -2.634048e-08 -4.069108e-09 -2.826663e-09 1.711499e-08
-4.627312e-08 1.909199e-07 -4.878633e-08 -1.218087e-08 3.313578e-10 4.199188e-08
-4.685979e-08 1.712369e-07 -6.349155e-08 -3.966428e-09 2.280547e-08 2.703309e-08
2.313053e-08 2.273826e-07 -1.379230e-07 -6.773175e-08 4.245385e-08 -9.334365e-09
1.262184e-09 2.917936e-07 -2.191998e-07 -5.903682e-08 -2.172666e-08 3.984946e-08
-1.184719e-08 2.086209e-07 -9.622026e-08 -7.011487e-09 -4.511068e-08 4.749825e-08
1.019177e-08 1.473577e-07 -1.421998e-07 3.058651e-08 -1.152539e-07 6.858623e-08
8.464533e-09 2.181483e-07 -1.107659e-07 -5.107743e-08 -7.222844e-08 4.318192e-08
-3.124684e-08 2.023183e-07 -1.407162e-07 2.246981e-08 -1.277639e-07 7.805943e-08
7.700900e-09 3.456910e-07 -2.627715e-07 -5.318603e-08 -1.249393e-07 8.747936e-08
6.508245e-08 1.825753e-07 -1.100944e-07 -7.384003e-08 -4.679839e-09 -1.762453e-08
-1.477041e-08 1.194166e-07 -9.924916e-08 -2.292926e-09 -3.176696e-08 1.824500e-08
-4.327888e-08 2.190551e-07 -7.640893e-08 -5.446054e-08 -2.598755e-08 3.116016e-08
-4.443885e-08 2.961117e-07 -1.541387e-07 -7.596340e-08 -4.228116e-08 5.981599e-08
-3.674280e-08 2.271238e-07 -9.416642e-08 -7.534948e-08 4.005312e-08 2.417416e-08
-4.679434e-08 2.378043e-07 -7.546820e-08 -7.478681e-08 2.518198e-08 1.889177e-08
-1.039826e-08 2.079571e-07 -9.345185e-08 -6.266567e-09 -4.987942e-08 4.365176e-08
1.486497e-08 2.672554e-07 -9.881879e-08 -3.749567e-08 -1.636007e-08 -1.499605e-09
3.262411e-09 2.707095e-07 -1.551115e-07 -3.557732e-08 -4.849454e-08 4.436487e-08
2.062322e-08 2.991960e-07 -1.294038e-07 -6.141534e-08 -1.434487e-08 2.300933e-08
2.283583e-08 2.898507e-07 -1.026661e-07 -5.147713e-08 -3.639036e-08 1.472906e-08
-6.122023e-08 2.781918e-07 -1.285682e-07 -8.482404e-09 -2.990988e-08 5.518549e-08
1.310711e-08 3.138459e-07 -1.327822e-07 -6.117167e-08 -9.087296e-09 1.680430e-08
-6.976481e-09 2.870789e-07 -1.588851e-07 -3.733112e-08 -6.056118e-08 5.715073e-08
-1.650246e-08 2.468310e-07 -8.945691e-08 -1.216246e-08 -2.903396e-08 1.325299e-08
4.224088e-08 2.023463e-07 -2.323054e-07 -2.768440e-08 -1.533685e-07 3.233036e-08
4.335945e-08 2.218815e-07 -2.409417e-07 -3.236230e-08 -1.086229e-07 2.203880e-08
3.316448e-08 2.106887e-07 -1.909303e-07 -6.824547e-08 -1.125416e-07 -3.510813e-08
5.391612e-08 1.759873e-07 -1.654706e-07 -3.360833e-08 -6.561430e-08 -1.180953e-08
1.557829e-08 -5.246730e-09 -2.214054e-09 6.264163e-09 7.509515e-10 -4.332887e-10
1.500437e-08 -4.802846e-09 -2.320652e-09 6.825828e-09 6.431273e-10 -9.827505e-10
1.499116e-08 -4.762673e-09 -2.086933e-09 6.766745e-09 7.742040e-10 -6.829530e-10
1.492869e-08 -5.216524e-09 -1.976816e-09 6.452684e-09 7.638118e-10 -5.594187e-10
1.710294e-08 -5.575520e-09 -2.522912e-09 6.423450e-09 6.908824e-10 -8.639040e-10
1.597234e-08 -5.598517e-09 -2.191735e-09 6.405111e-09 7.959041e-10 -5.637410e-10
1.681530e-08 -5.566967e-09 -2.533425e-09 6.229834e-09 6.928855e-10 -6.827847e-10
1.681626e-08 -5.568655e-09 -2.376445e-09 6.229875e-09 7.730849e-10 -6.229230e-10
1.638729e-08 -5.685175e-09 -2.058742e-09 6.794914e-09 4.046297e-10 -9.409791e-10
1.659422e-08 -5.383973e-09 -1.949529e-09 7.288688e-09 6.953170e-10 -7.857359e-10
1.588726e-08 -5.358947e-09 -2.146540e-09 7.226473e-09 5.449698e-10 -1.385612e-09
1.815234e-08 -5.703832e-09 -2.562716e-09 6.669490e-09 6.631023e-10 -1.416951e-09
1.949228e-08 -5.729183e-09 -2.532511e-09 6.711019e-09 4.324931e-10 -2.076229e-09
1.918544e-08 -5.682423e-09 -2.624819e-09 6.518236e-09 6.680326e-10 -1.499190e-09
1.896856e-08 -5.750240e-09 -2.726443e-09 6.345109e-09 5.403749e-10 -1.648409e-09
1.827108e-08 -5.359064e-09 -2.082338e-09 7.473089e-09 2.440874e-10 -2.974266e-09
1.931997e-08 -5.395509e-09 -2.133814e-09 7.562531e-09 5.143719e-10 -2.063679e-09
1.862410e-08 -5.809852e-09 -2.119414e-09 6.645748e-09 4.240679e-10 -2.050370e-09
1.773212e-08 -5.585025e-09 -2.479491e-09 6.425491e-09 7.268085e-10 -1.207537e-09
1.724304e-08 -5.096318e-09 -2.453940e-09 6.865946e-09 5.353977e-10 -1.589304e-09
1.729441e-08 -5.349879e-09 -2.398057e-09 7.104378e-09 6.937949e-10 -1.142035e-09
1.715495e-08 -5.523408e-09 -2.400553e-09 6.413057e-09 6.722837e-10 -1.248852e-09
1.794146e-08 -5.654278e-09 -2.562915e-09 6.543367e-09 6.255561e-10 -1.197951e-09
1.713164e-08 -5.360776e-09 -2.530229e-09 6.693086e-09 3.929102e-10 -1.683313e-09
1.738335e-08 -5.477668e-09 -2.436615e-09 6.516688e-09 7.319988e-10 -1.086554e-09
1.734336e-08 -5.450391e-09 -2.309109e-09 6.769584e-09 6.615494e-10 -1.379395e-09
1.578310e-08 -1.281296e-08 -1.200409e-07 -1.419392e-07 -2.051224e-07 -1.261667e-07
1.637434e-08 -8.016615e-08 -1.421796e-07 -1.287643e-07 -2.440797e-07 -1.174287e-07
3.150221e-08 5.127666e-09 -6.991822e-08 -1.368325e-07 -1.503526e-07 -1.280946e-07
4.279969e-08 -9.252818e-08 -1.106888e-07 -1.303849e-07 -2.478242e-07 -1.473994e-07
2.051300e-08 -6.551223e-09 -2.802426e-09 6.179504e-09 5.437302e-10 -2.464167e-09
2.063463e-08 -6.522676e-09 -2.414841e-09 6.239024e-09 4.299106e-10 -2.688723e-09
2.078243e-08 -6.616735e-09 -2.840110e-09 6.375123e-09 2.298323e-10 -2.388572e-09
2.010052e-08 -6.590208e-09 -2.346615e-09 6.415334e-09 4.192600e-10 -2.900359e-09
3.923847e-08 -8.879145e-09 -3.282231e-09 3.072215e-09 7.820815e-10 -1.046055e-08
3.914328e-08 -9.364568e-09 -2.542642e-09 3.287188e-09 8.413339e-10 -1.048472e-08
3.893776e-08 -8.846545e-09 -2.914325e-09 3.407228e-09 -5.074250e-10 -9.845362e-09
3.830676e-08 -8.890965e-09 -1.777860e-09 5.062526e-10 1.023493e-09 -1.074796e-08
3.230722e-08 -6.991398e-09 -4.315373e-09 6.725732e-09 1.381154e-10 -7.216364e-09
2.975174e-08 -7.176347e-09 -4.009868e-09 7.285941e-09 2.239837e-10 -6.401258e-09
3.217842e-08 -7.073793e-09 -4.258848e-09 6.608076e-09 1.437581e-10 -7.161067e-09
3.254280e-08 -7.110522e-09 -3.954921e-09 6.841361e-09 2.841256e-10 -6.807058e-09
3.056108e-08 -7.706490e-09 -3.634072e-09 8.133608e-09 -2.378644e-10 -7.568330e-09
3.058055e-08 -6.896528e-09 -3.566643e-09 9.498479e-09 6.692951e-11 -7.383036e-09
3.035020e-08 -6.833356e-09 -3.604765e-09 9.241993e-09 -2.324771e-10 -7.528700e-09
3.507175e-08 -7.117239e-09 -4.627481e-09 6.500814e-09 3.136670e-10 -8.554319e-09
3.805640e-08 -7.560892e-09 -4.609003e-09 6.258774e-09 7.373600e-11 -1.020867e-08
3.762803e-08 -7.119430e-09 -4.292543e-09 6.360638e-09 4.359362e-10 -9.814393e-09
3.800246e-08 -7.129430e-09 -5.051298e-09 6.381464e-09 3.378234e-10 -9.901967e-09
3.592986e-08 -6.520534e-09 -4.638103e-09 8.573491e-09 -5.845174e-10 -1.009127e-08
3.643657e-08 -7.011128e-09 -2.611817e-09 8.735703e-09 -4.298055e-10 -1.122075e-08
3.739412e-08 -7.722361e-09 -2.370688e-09 8.441476e-09 -2.995266e-10 -1.170164e-08
3.528452e-08 -7.021519e-09 -3.942044e-09 6.680279e-09 2.449512e-10 -8.568851e-09
3.440984e-08 -6.508283e-09 -3.840155e-09 7.548311e-09 6.066069e-12 -9.120482e-09
3.474042e-08 -6.857134e-09 -3.581695e-09 9.086774e-09 2.301313e-10 -8.774464e-09
3.437198e-08 -7.574743e-09 -3.571374e-09 7.313397e-09 2.187538e-10 -9.007891e-09
3.510032e-08 -7.057522e-09 -4.063238e-09 6.542205e-09 3.534838e-11 -8.756635e-09
3.410762e-08 -7.511711e-09 -3.986791e-09 7.429911e-09 1.620218e-10 -9.292267e-09
3.411718e-08 -5.753435e-09 -3.965879e-09 7.628628e-09 -9.386663e-11 -9.335699e-09
3.409963e-08 -7.310811e-09 -3.890309e-09 7.455399e-09 3.773440e-10 -9.302646e-09
2.171648e-08 -6.818695e-09 -3.023726e-09 6.649528e-09 1.605671e-10 -2.606216e-09
2.091120e-08 -7.181897e-09 -2.374275e-09 6.898837e-09 7.084262e-11 -2.799887e-09
2.176241e-08 -6.860528e-09 -2.668811e-09 6.615734e-09 7.412796e-11 -2.873719e-09
2.186502e-08 -7.138141e-09 -2.610575e-09 6.455981e-09 1.684924e-10 -2.951967e-09
2.103976e-08 -7.120744e-09 -2.891152e-09 6.738037e-09 7.308138e-11 -2.415755e-09
2.096612e-08 -6.807220e-09 -2.905409e-09 6.390452e-09 1.176868e-10 -2.367959e-09
2.081272e-08 -7.064425e-09 -2.395172e-09 6.818634e-09 1.660184e-10 -2.987418e-09
2.100100e-08 -7.011481e-09 -2.405143e-09 6.955306e-09 1.395232e-10 -2.993990e-09
2.107790e-08 -7.226806e-09 -2.417316e-09 6.897740e-09 -1.344990e-11 -2.940516e-09
2.915491e-08 -6.757788e-09 -3.311389e-09 7.036105e-09 2.991549e-10 -6.167091e-09
2.810737e-08 -5.962204e-09 -3.269456e-09 8.044132e-09 3.304700e-11 -6.173448e-09
2.821007e-08 -5.924674e-09 -3.225895e-09 8.524919e-09 -1.425442e-10 -6.252227e-09
2.810654e-08 -6.300019e-09 -2.761160e-09 8.724961e-09 3.557074e-11 -6.388282e-09
1.879847e-08 2.141612e-08 -1.789466e-07 -1.519159e-07 -2.460964e-07 -1.422582e-07
-3.218699e-09 2.356776e-08 -1.310352e-07 -1.492680e-07 -2.044714e-07 -1.173914e-07
2.122989e-08 1.694386e-08 -1.628989e-07 -1.130302e-07 -2.351890e-07 -1.165817e-07
1.005013e-08 2.023770e-08 -1.368060e-07 -1.414003e-07 -1.989894e-07 -1.201622e-07
-3.690725e-08 1.482631e-07 -2.459449e-07 -1.171666e-07 -1.416724e-07 -1.926685e-07
-5.799994e-08 9.992932e-08 -1.485876e-07 -1.492570e-07 -1.135671e-07 -1.789324e-07
2.129541e-08 -6.442554e-08 -1.721322e-07 -1.039558e-07 -1.946861e-07 -1.176672e-07
4.024911e-08 5.707971e-08 -2.102737e-07 -1.583559e-07 -2.480213e-07 -1.459722e-07
4.907584e-08 9.817071e-08 -2.492809e-07 -1.636665e-07 -2.890448e-07 -1.433155e-07
2.590343e-08 9.708758e-08 -2.220475e-07 -1.535669e-07 -2.561246e-07 -1.327951e-07
4.172303e-08 9.409726e-08 -2.392808e-07 -1.279737e-07 -2.784436e-07 -1.290622e-07
3.418313e-08 -1.471693e-08 -2.293846e-07 -9.808316e-08 -2.056674e-07 -1.427852e-07
-3.989130e-08 1.422460e-07 -2.325815e-07 -2.201373e-07 -1.661884e-07 -2.205814e-07
-1.595637e-08 2.904975e-07 -4.313254e-07 -1.496133e-07 -3.039645e-07 -2.300722e-07
2.246513e-08 5.471478e-08 -2.168446e-07 -1.372458e-07 -2.248296e-07 -1.208904e-07
-1.004387e-08 2.909031e-07 -3.785198e-07 -1.533165e-07 -2.463598e-07 -1.935783e-07
4.516782e-08 1.045841e-07 -2.534739e-07 -3.432565e-08 -1.861882e-07 -9.432498e-08
-4.167559e-08 2.236323e-07 -2.136224e-07 -9.290776e-08 -1.131818e-07 -1.541056e-07
1.596276e-08 5.348997e-08 -1.909484e-07 -1.263904e-07 -2.328615e-07 -1.336570e-07
4.631093e-09 2.857461e-07 -3.950797e-07 -1.088175e-07 -2.844889e-07 -1.898113e-07
4.342308e-09 1.686421e-07 -2.335949e-07 -1.222000e-07 -1.579384e-07 -1.561141e-07
2.077612e-08 9.686782e-08 -1.650659e-07 -8.347766e-08 -1.311958e-07 -1.164149e-07
3.644555e-08 -1.552405e-08 -2.253713e-07 -2.138320e-07 -3.958321e-07 -1.068135e-07
-3.122093e-08 2.306217e-07 -2.942251e-07 -1.954260e-07 -1.602003e-07 -1.302450e-07
2.330737e-08 6.612854e-08 -3.750642e-07 -2.148225e-07 -3.566510e-07 -1.543603e-07
5.113228e-08 1.352780e-07 -2.458882e-07 -1.309119e-07 -1.998749e-07 -9.351372e-08
-3.108021e-08 2.247319e-07 -2.641391e-07 -1.839832e-07 -2.347667e-07 -1.330003e-07
3.206297e-08 2.746043e-07 -4.838619e-07 -1.117006e-07 -3.059682e-07 -5.775223e-08
2.425740e-08 1.172506e-07 -2.220106e-07 -1.529312e-07 -1.676283e-07 -5.540977e-08
-1.223309e-08 1.660723e-07 -3.767093e-07 -1.925017e-07 -3.238351e-07 -1.245965e-07
-2.160350e-08 2.940435e-07 -3.312302e-07 -2.201675e-07 -1.976507e-07 -1.170638e-07
4.241210e-08 -7.827278e-09 -3.358805e-09 7.142345e-09 1.203753e-10 -1.339140e-08
4.135518e-08 -7.511283e-09 -3.171798e-09 8.262536e-09 -3.014903e-10 -1.351158e-08
4.157390e-08 -6.774163e-09 -3.156247e-09 9.327179e-09 -4.671702e-10 -1.392001e-08
4.138359e-08 -7.544146e-09 -2.094803e-09 9.712429e-09 -6.048751e-11 -1.417937e-08
5.820228e-08 -9.523151e-09 -5.994158e-09 -2.202937e-09 2.846475e-09 -2.374891e-08
5.902757e-08 -1.046994e-08 -4.952494e-09 -3.346737e-09 3.263619e-09 -2.488956e-08
5.467112e-08 -8.915855e-09 -4.797130e-09 -5.655931e-09 4.282177e-09 -2.440581e-08
5.572424e-08 -9.465122e-09 -4.967026e-09 -5.792522e-09 3.883539e-09 -2.414463e-08
4.705966e-08 -8.507207e-09 -5.390632e-09 5.416902e-09 3.988456e-10 -1.692927e-08
4.280301e-08 -8.942651e-09 -5.326769e-09 6.996017e-09 4.674807e-10 -1.469063e-08
4.703779e-08 -8.748648e-09 -5.420075e-09 5.313042e-09 5.225893e-10 -1.690388e-08
4.855509e-08 -8.858829e-09 -5.197913e-09 6.300995e-09 6.186645e-10 -1.598367e-08
4.280681e-08 -1.087211e-08 -3.854539e-09 1.093378e-08 -1.698552e-09 -1.745921e-08
4.277244e-08 -9.315946e-09 -3.439121e-09 1.080865e-08 -3.453037e-10 -1.738409e-08
4.514647e-08 -9.208525e-09 -4.223820e-09 1.020678e-08 -7.400311e-10 -1.666614e-08
5.122994e-08 -9.125865e-09 -4.477674e-09 3.920558e-09 4.434494e-10 -1.900505e-08
5.526015e-08 -9.024600e-09 -3.816595e-09 2.889684e-09 -1.053521e-09 -2.220874e-08
5.497102e-08 -8.969807e-09 -3.606862e-09 3.029301e-09 8.135144e-10 -2.102320e-08
5.612338e-08 -9.083217e-09 -4.649299e-09 3.453259e-09 -1.151469e-10 -2.178971e-08
5.351240e-08 -8.485620e-09 -4.413214e-09 6.252398e-09 -1.161793e-09 -2.168132e-08
5.575170e-08 -9.820041e-09 5.830929e-10 7.278333e-09 -5.901861e-10 -2.610457e-08
5.425252e-08 -1.022514e-08 2.777948e-10 8.310705e-09 -9.479834e-10 -2.530291e-08
5.310857e-08 -8.582820e-09 -3.378821e-09 5.394367e-09 5.124703e-10 -2.053089e-08
5.249664e-08 -7.646693e-09 -3.417074e-09 5.873184e-09 4.438650e-10 -2.075856e-08
5.335425e-08 -9.228485e-09 -2.438077e-09 9.818741e-09 1.201598e-10 -2.169399e-08
5.292533e-08 -1.045433e-08 -2.344270e-09 7.738108e-09 2.963750e-10 -2.200288e-08
5.284291e-08 -9.646803e-09 -3.405085e-09 4.821898e-09 2.890594e-10 -2.062153e-08
4.908179e-08 -9.627103e-09 -2.758023e-09 6.949117e-09 -3.347937e-10 -2.119368e-08
4.932292e-08 -8.235608e-09 -2.946068e-09 3.504511e-09 1.015270e-09 -2.101273e-08
4.985526e-08 -1.069917e-08 -1.422448e-09 6.484312e-09 4.750363e-10 -2.296555e-08
6.670296e-08 -1.079757e-08 -1.980878e-09 -8.128607e-10 1.895036e-09 -3.185776e-08
6.171947e-08 -1.009565e-08 -3.911999e-09 1.520916e-09 1.564052e-09 -2.785558e-08
6.621926e-08 -1.049138e-08 -3.272252e-09 -7.722090e-10 2.078894e-09 -3.100534e-08
5.896278e-08 -1.024803e-08 -4.032507e-09 6.860931e-10 1.428450e-09 -2.858103e-08
5.941893e-08 -1.025409e-08 1.825580e-09 2.244310e-10 1.723070e-09 -3.295025e-08
6.184029e-08 -1.091671e-08 4.263006e-10 5.965664e-10 2.706470e-09 -3.310463e-08
6.482635e-08 -1.047924e-08 4.711905e-10 -6.124176e-10 3.125761e-09 -3.461938e-08
7.165315e-08 -1.026032e-08 2.512268e-10 -2.918744e-09 2.118628e-09 -3.692276e-08
7.825503e-08 -7.804245e-09 4.252843e-09 -8.375302e-09 3.582998e-09 -4.494296e-08
7.425934e-08 -1.028888e-08 -2.106203e-09 -3.345272e-09 1.802531e-09 -3.844310e-08
7.039500e-08 -8.111721e-09 -1.616457e-09 -9.931423e-09 4.931151e-09 -3.814541e-08
7.484912e-08 -1.021686e-08 8.652018e-09 -1.904160e-09 5.686339e-10 -4.600866e-08
7.285025e-08 -8.987955e-09 1.360036e-08 -5.073166e-09 3.254769e-09 -4.987153e-08
6.971284e-08 -8.118871e-09 5.419733e-09 -1.096916e-08 5.931486e-09 -4.141295e-08
6.491980e-08 -1.115892e-08 -2.327971e-09 -1.630159e-09 1.538684e-09 -3.268061e-08
6.520789e-08 -1.137389e-08 -7.022533e-11 -1.268336e-09 2.226429e-09 -3.583796e-08
6.403240e-08 -1.190606e-08 1.718499e-10 7.005132e-11 1.977943e-09 -3.432734e-08
5.774646e-08 -1.154945e-08 4.506172e-09 -2.201464e-09 3.289071e-09 -3.950201e-08
6.966827e-08 -1.056190e-08 -1.670081e-09 -3.741300e-09 2.882273e-09 -3.489645e-08
6.945634e-08 -1.089559e-08 1.281149e-09 -3.060183e-09 3.505925e-09 -3.837199e-08
6.718998e-08 -9.412271e-09 5.886762e-09 -6.832004e-09 5.243092e-09 -4.324660e-08
6.745281e-08 -1.089361e-08 1.689102e-09 -4.142188e-09 2.749248e-09 -3.877969e-08
5.658226e-08 -1.043952e-08 -3.001283e-09 1.223857e-09 1.055784e-09 -2.557761e-08
5.668399e-08 -1.033971e-08 -5.586047e-10 1.123027e-09 1.801792e-09 -2.635138e-08
5.774905e-08 -1.190478e-08 9.930112e-11 -3.152630e-10 1.807807e-09 -2.759900e-08
5.431390e-08 -1.186933e-08 1.247674e-09 -4.113854e-10 2.024877e-09 -2.900484e-08
1.146630e-07 1.122711e-09 2.820562e-08 -2.524769e-08 1.721117e-08 -1.067893e-07
1.195689e-07 -1.642966e-09 2.660434e-08 -3.014608e-08 2.585894e-08 -1.100605e-07
1.244581e-07 -6.135316e-09 4.173818e-08 -7.327377e-09 7.179290e-09 -1.210579e-07
1.205544e-07 -4.531596e-09 4.922067e-08 -3.296827e-09 2.986285e-09 -1.246073e-07
8.684291e-08 3.118514e-09 5.998653e-09 -3.246726e-08 1.901413e-08 -7.745596e-08
1.062968e-07 -3.616721e-09 1.995032e-08 -1.739918e-08 1.016980e-08 -9.453635e-08
9.040239e-08 -1.335720e-10 5.463218e-09 -2.297757e-08 9.841837e-09 -7.502538e-08
8.045879e-08 -3.086559e-09 2.071820e-08 -9.850707e-09 5.072950e-09 -8.716248e-08
6.368116e-08 -9.378636e-09 -1.513691e-09 3.934383e-09 -9.179336e-10 -2.781358e-08
6.374847e-08 -1.008655e-08 -1.679907e-09 4.016067e-09 -1.652451e-10 -2.812102e-08
6.448103e-08 -8.926053e-09 -1.340985e-09 7.523565e-09 -9.459080e-10 -2.912485e-08
6.298898e-08 -1.054242e-08 2.713942e-09 9.560753e-09 -5.745727e-10 -3.170305e-08
6.686049e-08 -9.949789e-09 -2.243614e-09 -1.178506e-09 1.850806e-09 -3.183207e-08
6.116252e-08 -9.781096e-09 -5.462146e-09 2.076355e-09 4.986548e-10 -2.692036e-08
6.650312e-08 -9.574164e-09 -3.301388e-09 -1.282782e-09 2.355754e-09 -3.115319e-08
7.052772e-08 -9.745766e-09 -5.453832e-09 1.386180e-09 8.663685e-10 -3.013834e-08
6.193529e-08 -1.089711e-08 -9.096361e-10 1.930237e-09 1.716796e-09 -3.255725e-08
6.163180e-08 -1.083127e-08 -5.951442e-10 6.534946e-09 -8.221328e-10 -3.275915e-08
6.676937e-08 -1.073663e-08 -3.217922e-09 5.827452e-09 -1.121938e-09 -3.125306e-08
7.297999e-08 -1.000703e-08 3.786342e-10 -4.465200e-09 2.300844e-09 -3.820799e-08
7.767332e-08 -8.736702e-09 1.891735e-09 -7.514453e-09 1.707800e-09 -4.375982e-08
7.590631e-08 -9.891115e-09 -1.423688e-09 -5.139143e-09 2.381812e-09 -4.003672e-08
8.269456e-08 -1.010147e-08 2.104740e-09 -4.608297e-09 1.657689e-09 -4.520500e-08
7.763224e-08 -9.593212e-09 5.568228e-09 9.636436e-10 -2.676884e-09 -4.564859e-08
7.629774e-08 -1.040411e-08 3.895927e-09 -2.409240e-10 -1.493335e-09 -4.373204e-08
7.210987e-08 -9.671118e-09 3.034222e-09 6.278373e-10 -1.802399e-09 -4.182328e-08
6.910402e-08 -9.808227e-09 -2.995378e-09 -1.925458e-09 1.965301e-09 -3.363351e-08
6.821661e-08 -1.118140e-08 -8.161420e-10 1.071477e-09 1.338786e-09 -3.599925e-08
6.706221e-08 -8.754794e-09 -8.083842e-10 5.323908e-10 1.201577e-09 -3.596784e-08
6.643016e-08 -1.030533e-08 -5.989766e-10 3.962158e-09 -4.508403e-10 -3.601451e-08
7.687810e-08 -9.940037e-09 6.216644e-10 -1.794240e-09 1.657263e-09 -3.918195e-08
7.341065e-08 -8.799510e-09 2.360639e-09 1.845874e-09 -1.741904e-10 -4.076907e-08
7.578421e-08 -1.018907e-08 2.998870e-09 -5.103444e-10 6.829560e-10 -4.204186e-08
7.694827e-08 -1.066608e-08 4.343852e-09 4.936847e-09 -1.764051e-09 -4.377461e-08
8.624421e-08 -9.955292e-09 6.915492e-09 -1.020246e-08 6.519875e-09 -5.662091e-08
8.171189e-08 -1.003367e-08 1.035007e-08 -9.406947e-09 6.242979e-09 -5.776405e-08
8.565749e-08 -1.012611e-08 4.945482e-09 -1.153051e-08 9.085370e-09 -5.822085e-08
8.088737e-08 -1.167889e-08 1.600250e-08 -5.736672e-09 6.823128e-09 -6.533041e-08
5.367868e-08 -8.704815e-09 -5.878965e-09 1.076840e-09 3.820552e-10 -1.752656e-08
5.840104e-08 -9.130513e-09 -5.074879e-09 -6.140226e-10 1.101143e-10 -1.974183e-08
5.179822e-08 -9.110290e-09 -5.899995e-09 -3.795540e-10 4.816691e-10 -1.727617e-08
5.331198e-08 -9.017851e-09 -6.411927e-09 -9.126205e-10 6.886131e-11 -1.681269e-08
5.392364e-08 -1.048902e-08 -5.443116e-09 -1.600955e-09 4.462208e-10 -1.763361e-08
5.434211e-08 -1.004692e-08 -5.353896e-09 -2.093433e-09 2.119032e-10 -1.744005e-08
5.339512e-08 -8.688984e-09 -5.083758e-09 -2.266693e-09 1.446933e-09 -1.850689e-08
4.947752e-08 -9.174729e-09 -5.659248e-09 2.850198e-09 1.000310e-09 -1.645033e-08
4.572979e-08 -9.080952e-09 -6.025217e-09 3.739968e-09 1.644644e-09 -1.427436e-08
4.510754e-08 -9.097538e-09 -6.532018e-09 2.690339e-09 1.139085e-09 -1.444082e-08
4.494760e-08 -9.190110e-09 -5.893011e-09 3.155507e-09 1.511772e-09 -1.415517e-08
4.682998e-08 -9.081906e-09 -5.479107e-09 1.017473e-09 2.277936e-09 -1.507199e-08
4.677097e-08 -9.793349e-09 -5.380937e-09 7.212169e-10 1.815623e-09 -1.510434e-08
4.756481e-08 -9.794722e-09 -6.052369e-09 4.762040e-10 2.210122e-09 -1.552984e-08
5.024692e-08 -8.616707e-09 -6.896030e-09 8.155646e-10 5.343103e-10 -1.565748e-08
5.159499e-08 -8.650033e-09 -6.259969e-09 -2.367868e-09 1.448665e-09 -1.695363e-08
5.161044e-08 -1.001957e-08 -5.946730e-09 -1.875047e-09 1.890395e-10 -1.596768e-08
4.860080e-08 -9.015308e-09 -6.633127e-09 -1.437889e-09 8.934342e-11 -1.451840e-08
4.754503e-08 -8.758446e-09 -5.700150e-09 1.652209e-09 9.370316e-10 -1.574687e-08
5.045321e-08 -8.792598e-09 -5.379027e-09 -1.606139e-09 1.877044e-09 -1.672281e-08
4.650709e-08 -8.691136e-09 -5.772250e-09 -2.439365e-10 1.635395e-09 -1.532602e-08
4.549638e-08 -8.791380e-09 -5.123380e-09 1.919161e-10 1.270677e-09 -1.506212e-08
4.017431e-08 4.490708e-08 5.562167e-08 -5.621110e-08 5.300091e-08 -8.420079e-08
3.349084e-08 4.459085e-08 3.958593e-08 -6.071166e-08 5.981093e-08 -7.384511e-08
2.372261e-08 3.941736e-08 4.542597e-08 -5.467002e-08 5.344636e-08 -6.709828e-08
3.209566e-08 4.043040e-08 4.873272e-08 -6.364457e-08 5.689444e-08 -7.315797e-08
5.488771e-08 -9.303213e-09 -4.204427e-09 -3.125323e-09 1.441482e-09 -1.955156e-08
5.350180e-08 -9.765141e-09 -5.637410e-09 -1.461042e-09 1.502711e-10 -1.806702e-08
5.377432e-08 -8.696829e-09 -5.508162e-09 -2.005143e-09 -2.223635e-10 -1.787906e-08
5.263732e-08 -8.522082e-09 -3.585434e-09 -7.504179e-09 2.812177e-09 -1.932995e-08
8.096951e-08 1.805000e-08 4.351126e-08 -4.754145e-08 3.514025e-08 -1.032485e-07
9.036559e-08 7.112180e-09 3.404518e-08 -3.958656e-08 2.846761e-08 -9.726646e-08
8.532820e-08 1.009396e-08 4.745356e-08 -4.749669e-08 3.829681e-08 -1.080247e-07
1.033636e-07 6.280020e-09 4.008370e-08 -3.662119e-08 2.856237e-08 -1.095436e-07
7.930494e-08 1.930418e-08 5.363545e-08 -4.319904e-08 3.011263e-08 -1.088846e-07
8.153004e-08 1.041623e-08 5.420171e-08 -3.637356e-08 2.516424e-08 -1.100644e-07
1.029611e-07 1.030019e-08 4.115678e-08 -3.706412e-08 2.648494e-08 -1.093287e-07
7.159881e-08 2.176409e-08 5.090208e-08 -5.246707e-08 4.662617e-08 -1.050255e-07
5.930145e-08 3.834438e-08 5.675404e-08 -5.978813e-08 5.769490e-08 -1.007795e-07
7.152150e-08 2.108047e-08 5.091087e-08 -4.942577e-08 4.677357e-08 -1.049424e-07
8.150361e-08 2.129437e-08 7.304653e-08 -5.093777e-08 4.906015e-08 -1.198294e-07
7.355967e-08 1.950929e-08 8.693704e-08 -4.161920e-08 4.107921e-08 -1.230854e-07
6.961403e-08 2.501114e-08 7.220249e-08 -4.228419e-08 3.577296e-08 -1.135039e-07
6.755214e-08 2.948113e-08 6.860144e-08 -4.419364e-08 3.391880e-08 -1.091657e-07
9.294701e-08 1.619636e-08 5.581909e-08 -3.998075e-08 3.286554e-08 -1.193966e-07
8.904997e-08 1.058144e-08 5.839471e-08 -3.435434e-08 3.211361e-08 -1.208016e-07
9.172970e-08 7.033024e-09 6.241628e-08 -2.191783e-08 2.238054e-08 -1.256657e-07
8.989644e-08 9.846129e-09 6.172794e-08 -3.040546e-08 3.049044e-08 -1.244348e-07
7.848438e-08 1.785065e-08 6.127292e-08 -4.921754e-08 4.416135e-08 -1.136686e-07
7.072425e-08 1.994444e-08 7.078077e-08 -4.677698e-08 3.832867e-08 -1.120127e-07
7.105280e-08 7.476384e-09 6.615028e-08 -4.774504e-08 4.750589e-08 -1.122262e-07
7.232323e-08 7.621124e-09 7.738495e-08 -4.042664e-08 4.115313e-08 -1.193046e-07
-5.012913e-08 1.079097e-07 -2.817091e-08 1.990493e-08 4.117221e-08 3.916878e-08
-5.683606e-08 1.246690e-07 -2.924655e-08 2.378649e-08 4.296677e-08 3.647913e-08
-7.095328e-08 1.440891e-07 -4.589556e-08 2.039483e-08 3.397378e-08 6.318309e-08
-6.857738e-08 1.377348e-07 -4.515510e-08 1.911204e-08 3.073104e-08 6.001621e-08
9.205340e-08 -4.884944e-09 8.990371e-10 -2.001793e-08 1.268449e-08 -6.035952e-08
8.680418e-08 -8.597800e-09 1.248104e-09 -1.418386e-08 8.981225e-09 -5.291041e-08
8.211295e-08 -5.021611e-09 -2.034366e-09 -1.883902e-08 1.201889e-08 -5.488359e-08
7.925710e-08 -5.116216e-09 3.080601e-09 -1.822583e-08 1.211238e-08 -5.307602e-08
8.086746e-08 -5.344716e-09 7.169056e-09 -1.998342e-08 1.445106e-08 -5.567846e-08
8.228861e-08 -6.357907e-09 4.652463e-09 -1.934996e-08 1.281416e-08 -5.417279e-08
8.228059e-08 -6.210099e-09 5.217168e-09 -1.943000e-08 1.448402e-08 -5.604660e-08
9.790731e-08 -1.042859e-09 4.892005e-09 -2.927521e-08 1.793765e-08 -6.899365e-08
1.003148e-07 1.094850e-09 8.195587e-09 -3.570419e-08 2.450546e-08 -7.941837e-08
8.568606e-08 1.490412e-09 1.141060e-08 -3.692888e-08 2.363915e-08 -7.128116e-08
9.263108e-08 1.249763e-09 5.068699e-09 -3.608528e-08 2.488934e-08 -7.443324e-08
9.306976e-08 -8.672122e-10 1.154863e-08 -3.650740e-08 2.493484e-08 -7.626496e-08
8.626458e-08 9.184031e-10 7.302665e-09 -3.609898e-08 2.174475e-08 -6.871163e-08
8.543003e-08 1.210617e-09 7.107921e-09 -3.657906e-08 2.207749e-08 -7.022328e-08
8.047131e-08 -1.351230e-09 6.632239e-09 -2.686685e-08 1.800187e-08 -6.315693e-08
7.582706e-08 -4.255082e-09 6.074928e-09 -2.100483e-08 1.587227e-08 -5.617059e-08
7.681329e-08 -3.701274e-09 4.926213e-09 -2.223567e-08 1.368617e-08 -5.544780e-08
7.424962e-08 9.443744e-10 1.295589e-08 -3.469497e-08 2.140277e-08 -6.301832e-08
9.294825e-08 -1.066164e-09 -1.168463e-10 -2.890967e-08 1.755954e-08 -6.399673e-08
7.788936e-08 4.119735e-10 6.471027e-09 -3.472280e-08 2.096952e-08 -6.561076e-08
9.314288e-08 -1.746419e-09 4.023641e-09 -2.917713e-08 1.846979e-08 -6.490628e-08
8.970744e-08 -2.650556e-09 7.833725e-09 -2.606628e-08 1.845379e-08 -7.011372e-08
7.646740e-08 -3.568489e-09 2.157289e-09 -2.237420e-08 1.594809e-08 -5.866671e-08
7.979719e-08 1.118954e-09 6.676920e-09 -3.584052e-08 2.162922e-08 -6.735971e-08
7.959022e-08 1.023395e-09 7.076277e-09 -3.598186e-08 2.163733e-08 -6.731867e-08
7.447646e-08 -4.227104e-09 2.411481e-09 -2.105401e-08 1.610555e-08 -5.941967e-08
7.669172e-08 1.033938e-09 6.675981e-09 -3.526229e-08 2.159078e-08 -6.698163e-08
7.167835e-08 3.279917e-08 4.548895e-08 -3.585033e-08 6.645460e-08 -1.213406e-07
9.283652e-08 1.236890e-08 7.622715e-08 -1.563121e-08 3.880398e-08 -1.372161e-07
6.312965e-08 3.471572e-08 6.374280e-08 -2.666845e-08 5.426330e-08 -1.239327e-07
5.785336e-08 2.727826e-08 8.466934e-08 -3.387505e-08 4.575881e-08 -1.249407e-07
9.485953e-08 2.060918e-08 6.416122e-08 -3.514683e-08 5.820717e-08 -1.326466e-07
8.628337e-08 1.456266e-08 7.682065e-08 -2.036008e-08 4.890823e-08 -1.413452e-07
8.492725e-08 2.700329e-08 8.045340e-08 -1.940592e-08 3.057901e-08 -1.369712e-07
8.083242e-08 2.277730e-08 9.623119e-08 -4.390972e-08 6.766165e-08 -1.495795e-07
8.808222e-08 1.226750e-08 8.258714e-08 -1.026513e-08 3.688427e-08 -1.448210e-07
1.905742e-08 1.140770e-07 1.039122e-08 -5.071541e-09 6.793539e-08 -1.000091e-07
4.547009e-08 2.147063e-07 -9.490494e-08 -5.714188e-08 6.754053e-08 -9.232751e-08
5.222194e-08 1.299264e-07 2.418668e-08 -2.978926e-08 3.573882e-08 -1.272432e-07
4.568190e-08 8.263402e-08 -7.211918e-09 -1.191972e-08 9.459371e-08 -1.465032e-07
-9.291673e-08 1.331081e-07 -6.017711e-08 7.387648e-08 -5.456467e-08 7.083800e-08
-7.952113e-08 9.534988e-08 -1.381453e-08 7.975381e-08 -3.538879e-08 1.598090e-08
-5.095544e-08 1.399214e-07 -2.701221e-08 4.000800e-08 -3.314877e-08 3.008119e-08
-9.389587e-08 1.311421e-07 3.991932e-09 8.304939e-08 -2.681152e-09 3.230966e-08
-1.105560e-07 1.073430e-07 -4.898288e-08 1.070570e-07 -4.142043e-08 6.265854e-08
-1.110774e-07 8.727053e-08 -5.917733e-08 9.934992e-08 -6.488826e-08 6.013122e-08
-5.015332e-08 1.594497e-07 -3.925532e-08 3.210347e-08 -2.452459e-08 2.038687e-08
-7.545769e-08 1.282257e-07 -1.283456e-07 8.232140e-08 -1.261461e-07 9.550884e-08
-5.038871e-08 1.058334e-07 -2.186452e-07 1.078634e-07 -2.054813e-07 1.367238e-07
-3.840937e-08 1.073931e-07 -1.399151e-07 9.998219e-08 -1.427041e-07 1.186430e-07
-4.474873e-08 1.158757e-07 -1.642221e-07 6.097279e-08 -1.667641e-07 9.817922e-08
-3.646670e-08 2.069573e-07 -1.336315e-07 2.458668e-08 -8.106055e-08 4.624921e-08
-7.255624e-08 1.020272e-07 -1.947145e-07 9.548945e-08 -1.627705e-07 9.597671e-08
-4.470478e-08 9.140451e-08 -2.104415e-07 1.106114e-07 -1.788998e-07 1.397395e-07
-8.177881e-08 1.288192e-07 -5.302546e-08 7.990882e-08 -5.315692e-08 8.108090e-08
-6.307763e-08 1.814179e-07 -2.164774e-08 4.719781e-08 -2.876232e-09 4.457747e-08
-9.883831e-08 8.830912e-08 -4.571757e-08 1.080851e-07 -5.120254e-08 7.415288e-08
-9.550591e-08 8.916676e-08 -6.448811e-08 1.237300e-07 -6.241326e-08 8.558396e-08
-7.836399e-08 1.407659e-07 -9.479596e-08 2.430365e-08 -9.673099e-08 5.749068e-08
-5.571234e-08 2.145316e-07 -5.136901e-08 -1.665669e-08 -2.851655e-08 1.826336e-08
4.118126e-10 1.131477e-07 -1.444129e-07 7.312968e-09 -1.269219e-07 5.388422e-08
-4.662731e-08 1.505580e-07 -8.113504e-08 8.552412e-09 -6.938297e-08 2.133227e-08
1.957180e-08 7.361638e-08 3.653445e-08 -7.116661e-08 7.027402e-08 -5.965409e-08
1.186714e-08 7.760156e-08 3.232658e-08 -6.347673e-08 5.936163e-08 -5.298961e-08
9.841594e-09 8.617749e-08 2.297955e-08 -7.306520e-08 6.623409e-08 -3.949134e-08
1.423327e-08 6.282840e-08 3.000178e-08 -5.251635e-08 5.289728e-08 -4.589381e-08
1.298005e-07 -7.635538e-08 -3.002577e-07 -4.276396e-08 -4.216094e-07 6.573731e-09
1.417258e-07 -1.073103e-07 -3.631262e-07 -1.573164e-08 -3.976834e-07 3.688939e-08
1.588559e-07 -8.628869e-08 -3.010342e-07 3.623687e-09 -4.245551e-07 2.521132e-08
1.481254e-07 -1.102552e-07 -3.431822e-07 -1.249300e-08 -3.913198e-07 4.821170e-08
1.477629e-07 -1.817039e-07 -3.432812e-07 3.732218e-08 -4.914257e-07 5.076084e-08
1.383476e-07 -1.639783e-07 -3.205089e-07 -4.765481e-08 -3.855928e-07 4.725816e-08
1.430266e-07 9.787329e-08 -3.015158e-07 -8.270587e-08 -2.815477e-07 3.279435e-08
1.143535e-07 -9.475387e-08 -2.475428e-07 -8.764321e-08 -4.196951e-07 -9.952044e-09
1.288394e-07 -1.712321e-07 -2.793382e-07 -1.279086e-07 -4.166317e-07 -4.512374e-08
1.320245e-07 -1.758754e-07 -2.684340e-07 -1.056858e-07 -4.608631e-07 -1.925380e-08
9.990184e-08 -1.831510e-07 -2.796191e-07 -6.894054e-08 -4.212198e-07 -4.218107e-08
9.712283e-08 -3.358691e-08 -2.805546e-07 -9.533162e-08 -3.603982e-07 -3.909767e-08
1.519168e-07 -1.201289e-07 -2.704337e-07 -5.384778e-08 -3.526915e-07 -1.438287e-08
1.474540e-07 -2.527544e-07 -2.939777e-07 -1.058989e-07 -5.069410e-07 -2.503771e-08
1.438469e-07 -1.042129e-07 -3.029876e-07 -4.356503e-08 -4.314533e-07 9.535987e-09
1.445111e-07 -2.866858e-07 -3.617844e-07 -3.689835e-09 -5.364635e-07 3.639903e-08
1.438620e-07 -2.734617e-07 -3.141377e-07 -5.871199e-09 -5.086950e-07 3.509845e-08
1.386049e-07 -1.113308e-07 -3.230645e-07 -3.606002e-08 -3.645658e-07 4.687376e-08
1.105713e-07 -1.040297e-07 -2.580144e-07 -4.272320e-08 -4.344673e-07 8.762029e-09
1.125174e-07 -2.691280e-07 -3.148494e-07 -2.514101e-08 -5.334464e-07 1.621033e-08
1.125387e-07 -1.172792e-07 -2.642113e-07 -3.361671e-08 -3.484796e-07 1.476944e-08
9.941778e-08 -1.117325e-07 -2.852387e-07 -3.142975e-08 -3.608384e-07 3.595597e-08
2.947555e-08 6.266533e-08 -2.063909e-07 7.434711e-08 -2.484738e-07 1.289431e-07
-1.844234e-08 1.037919e-07 -2.158009e-07 1.054496e-07 -2.126041e-07 1.506877e-07
7.602724e-09 5.634899e-08 -2.064288e-07 1.058991e-07 -2.494569e-07 1.378069e-07
-1.176173e-08 5.226554e-08 -2.171143e-07 9.116970e-08 -2.422190e-07 1.554071e-07
-1.328566e-08 1.664761e-08 -2.630308e-07 1.381952e-07 -3.066471e-07 1.725485e-07
2.596601e-09 2.910793e-08 -2.121017e-07 7.736784e-08 -2.190112e-07 1.433840e-07
1.118519e-08 1.789725e-07 -1.984207e-07 2.198443e-08 -1.545157e-07 1.324797e-07
7.146596e-08 4.009915e-08 -3.092016e-07 4.794046e-08 -3.475250e-07 1.315019e-07
1.132449e-07 -1.438603e-08 -3.991167e-07 2.008664e-08 -3.890448e-07 9.200946e-08
9.859447e-08 -1.934765e-08 -3.094509e-07 4.474001e-08 -3.697179e-07 1.451187e-07
5.123943e-08 -1.510047e-08 -3.924196e-07 2.674611e-08 -3.879670e-07 8.120768e-08
5.370073e-08 2.056886e-07 -3.206805e-07 2.528296e-09 -2.240514e-07 6.010636e-08
5.608924e-08 4.617764e-08 -3.419177e-07 7.582353e-08 -2.993637e-07 1.174396e-07
9.037786e-08 -5.559416e-08 -3.587360e-07 6.203641e-08 -4.156430e-07 1.664595e-07
5.335823e-08 3.362643e-08 -2.221674e-07 8.005002e-08 -2.698893e-07 1.324983e-07
2.356554e-08 -6.169737e-08 -2.890297e-07 1.347282e-07 -3.528136e-07 1.771852e-07
2.289243e-08 -6.922891e-08 -2.309357e-07 1.311984e-07 -3.390855e-07 1.745883e-07
2.631246e-08 4.606060e-08 -2.021337e-07 1.016925e-07 -2.059417e-07 1.632343e-07
3.578477e-08 4.441680e-08 -3.006280e-07 2.900116e-08 -3.410982e-07 9.245157e-08
1.432937e-08 -5.793334e-08 -3.496042e-07 7.724888e-08 -4.122978e-07 1.268595e-07
-9.791939e-10 7.699618e-08 -2.973050e-07 2.054637e-08 -2.603718e-07 7.465708e-08
1.762436e-08 7.933821e-08 -2.912672e-07 3.834745e-08 -2.564297e-07 1.129710e-07
-5.108040e-08 4.741334e-08 -2.822204e-08 -4.834170e-08 -4.489755e-08 -4.985872e-08
-5.033515e-08 2.812666e-08 -2.691962e-08 -4.486448e-08 -4.715084e-08 -4.798674e-08
-4.771730e-08 7.464099e-08 -2.987550e-08 -3.027616e-08 -3.572685e-08 -4.776216e-08
-4.769507e-08 7.090493e-08 -2.954043e-08 -2.946598e-08 -3.272934e-08 -4.767575e-08
SCALARS stress double 6
LOOKUP_TABLE default
-3.533789e+09 -3.333789e+09 -3.493789e+09 -3.965162e+02 -6.679654e+00 -3.272763e+01
-3.236665e+09 -3.036665e+09 -3.196665e+09 -2.949056e+02 -3.824293e+01 3.091689e+00
-3.035997e+09 -2.835997e+09 -2.995997e+09 -3.424213e+02 -3.000054e+01 -4.622372e+01
-2.273752e+09 -2.073751e+09 -2.233752e+09 -3.719450e+02 -2.332272e+01 1.918068e+01
-2.111637e+09 -1.911637e+09 -2.071637e+09 -2.737536e+02 -2.660497e+01 -6.228266e+00
-1.770824e+09 -1.570824e+09 -1.730824e+09 -3.718981e+02 -4.368115e+01 -1.597986e+01
-1.973810e+09 -1.773810e+09 -1.933810e+09 -3.053925e+02 -3.009264e+01 -1.314323e+01
-3.243104e+09 -3.043106e+09 -3.203103e+09 1.327128e+03 1.601196e+02 1.070473e+01
-2.270515e+09 -2.070516e+09 -2.230513e+09 1.765137e+03 4.118624e+02 -1.935112e+01
-2.432110e+09 -2.232112e+09 -2.392109e+09 1.251132e+03 2.939194e+02 -2.647926e+01
-2.740248e+09 -2.540248e+09 -2.700246e+09 1.278516e+03 2.674206e+02 -8.284535e+01
-1.970514e+09 -1.770516e+09 -1.930513e+09 1.546646e+03 4.097140e+02 -1.402544e+02
-2.131835e+09 -1.931837e+09 -2.091834e+09 1.368021e+03 1.852422e+02 2.439667e+01
-4.021329e+09 -3.821331e+09 -3.981331e+09 -1.836882e+01 3.010731e+00 1.810949e+01
-3.469168e+09 -3.269170e+09 -3.429169e+09 2.580358e+01 -3.184840e-01 -1.602824e+01
-3.454415e+09 -3.254417e+09 -3.414416e+09 4.102539e+01 1.707628e+01 -2.293096e+00
-3.136338e+09 -2.936340e+09 -3.096337e+09 -5.425230e+02 -3.488279e+01 -1.220592e+02
-3.971040e+09 -3.771040e+09 -3.931039e+09 2.044059e+02 -2.730522e+01 1.915462e+01
-4.133845e+09 -3.933847e+09 -4.093844e+09 -3.252038e+02 -7.703817e+00 2.450611e+01
-3.339736e+09 -3.139738e+09 -3.299735e+09 -5.425854e+02 -3.606636e+01 -7.990916e+01
-3.886565e+09 -3.686567e+09 -3.846565e+09 -2.912358e+02 -1.156255e+01 -6.497972e+01
-3.840972e+09 -3.640975e+09 -3.800972e+09 -4.560919e+02 -1.276962e+01 -6.519440e+01
-3.059211e+09 -2.859210e+09 -3.019210e+09 -2.198139e+02 -2.302354e+01 -1.590712e+01
-2.680653e+09 -2.480649e+09 -2.640653e+09 -5.083401e+02 8.896070e+02 -1.172717e+03
-3.304526e+09 -3.104525e+09 -3.264526e+09 -1.883264e+02 -1.541285e+01 1.045428e+01
-2.643125e+09 -2.443124e+09 -2.603125e+09 -1.659211e+02 -8.509337e+00 -2.524653e+01
-3.264868e+09 -3.064867e+09 -3.224867e+09 -1.559150e+02 -1.346701e+01 -2.136277e+01
-3.246539e+09 -3.046538e+09 -3.206538e+09 -1.243218e+02 -7.892449e+00 -1.110020e+01
-2.501851e+09 -2.301850e+09 -2.461850e+09 -1.262031e+02 -8.321688e+00 1.405944e+01
-2.733140e+09 -2.533140e+09 -2.693140e+09 -2.503332e+02 -5.002829e+01 -3.601739e+00
-3.496336e+09 -3.296335e+09 -3.456336e+09 -1.630688e+02 -6.387602e+00 1.222963e+01
-2.756901e+09 -2.556901e+09 -2.716901e+09 -2.732951e+02 -1.469162e+01 1.186553e+01
-3.335965e+09 -3.135969e+09 -3.295966e+09 7.960668e+02 -7.897809e+02 1.368984e+02
-3.863966e+09 -3.663970e+09 -3.823968e+09 5.409166e+02 -2.656252e+02 1.162690e+02
-3.837372e+09 -3.637376e+09 -3.797373e+09 7.593124e+02 -4.156929e+02 1.661209e+02
-3.687546e+09 -3.487548e+09 -3.647547e+09 -1.794328e+02 -1.379558e+01 6.194187e+01
-3.293480e+09 -3.093482e+09 -3.253481e+09 -1.541833e+02 -7.761490e-01 1.785634e+01
-2.826657e+09 -2.626658e+09 -2.786658e+09 -2.074355e+02 -2.251916e+01 1.600467e+01
-3.047206e+09 -2.847207e+09 -3.007206e+09 -1.911453e+02 -1.180761e+01 -7.045871e+00
-2.439420e+09 -2.239419e+09 -2.399419e+09 5.041022e+01 8.725573e+00 4.607414e+01
-3.582524e+09 -3.382526e+09 -3.542526e+09 -1.491455e+02 -1.783801e+01 6.297924e+01
-4.302296e+09 -4.102295e+09 -4.262299e+09 1.125201e+03 -1.450635e+03 9.924599e+02
-4.034735e+09 -3.834736e+09 -3.994735e+09 -1.989915e+02 -3.549992e+00 -5.978009e+00
-3.182605e+09 -2.982604e+09 -3.142604e+09 5.842640e+01 2.228302e+01 -1.833186e+01
-2.501134e+09 -2.301133e+09 -2.461133e+09 4.931651e+01 5.271630e+00 -1.684110e+01
-3.015640e+09 -2.815638e+09 -2.975639e+09 4.034800e+01 1.272632e+01 2.050944e-01
-2.322895e+09 -2.122894e+09 -2.282894e+09 6.281316e+01 1.902262e+01 -2.203699e+01
-2.662960e+09 -2.462958e+09 -2.622959e+09 3.600289e+01 -8.926508e-01 -3.958059e-01
-3.174406e+09 -2.974412e+09 -3.134412e+09 2.226098e+03 5.937034e+02 5.293487e+02
-4.940412e+09 -4.740418e+09 -4.900412e+09 1.060665e+02 2.483565e-05 -1.760357e+01
-2.434795e+09 -2.234804e+09 -2.394802e+09 2.056401e+03 4.814243e+02 1.915729e+03
-2.685051e+09 -2.485055e+09 -2.645056e+09 2.304339e+03 -2.534959e+02 9.994252e+01
-2.271103e+09 -2.071109e+09 -2.231109e+09 2.333429e+03 8.341463e+02 9.201748e+02
-2.722872e+09 -2.522878e+09 -2.682878e+09 3.225708e+03 8.432752e+02 1.741866e+03
-4.991143e+09 -4.791142e+09 -4.951149e+09 7.085863e+02 -6.112477e+02 3.466234e+02
-3.560043e+09 -3.360053e+09 -3.520050e+09 -8.914150e+02 -3.101807e+01 5.229249e+02
-4.487054e+09 -4.287064e+09 -4.447060e+09 1.914003e+02 3.105440e+01 1.475167e+02
-3.867471e+09 -3.667481e+09 -3.827478e+09 -4.861969e+02 3.453052e+02 1.946386e+02
-4.710713e+09 -4.510724e+09 -4.670720e+09 -6.999673e+02 -1.687276e+02 1.170668e+02
-4.710713e+09 -4.510724e+09 -4.670720e+09 2.400096e+01 1.890387e+02 1.197609e+02
-4.401114e+09 -4.201125e+09 -4.361120e+09 -5.643485e+02 8.076120e+01 3.234187e+02
-3.259349e+09 -3.059355e+09 -3.219353e+09 -2.562092e+03 -6.399086e+02 1.410501e+03
-3.851779e+09 -3.651784e+09 -3.811782e+09 -2.046743e+03 -4.542767e+02 8.566454e+02
-4.031703e+09 -3.831707e+09 -3.991706e+09 -2.031277e+03 -1.064638e+02 1.016781e+03
-3.447183e+09 -3.247194e+09 -3.407190e+09 -1.680999e+03 -1.220886e+02 2.806511e+03
-3.776002e+09 -3.576012e+09 -3.736005e+09 -1.683841e+03 -3.022258e+02 2.603017e+03
-4.037986e+09 -3.837993e+09 -3.997990e+09 -2.512278e+03 -7.313072e+02 7.379567e+02
-4.391578e+09 -4.191585e+09 -4.351581e+09 -2.629476e+03 -9.013221e+02 5.512260e+02
-3.204168e+09 -3.004166e+09 -3.164169e+09 -1.178870e+03 1.130866e+02 -5.048668e+02
-3.047652e+09 -2.847652e+09 -3.007655e+09 -1.608707e+03 -4.903841e+01 5.668360e+02
-2.398458e+09 -2.198460e+09 -2.358461e+09 -1.568879e+03 -2.560086e+02 7.982204e+02
-3.355554e+09 -3.155553e+09 -3.315555e+09 -9.363839e+02 -7.520878e+01 2.504213e+00
-2.616850e+09 -2.416851e+09 -2.576852e+09 -1.127578e+03 -5.224625e+01 1.038147e+02
-2.771526e+09 -2.571525e+09 -2.731525e+09 -1.259933e+02 -1.448605e+01 1.219133e+01
-2.494321e+09 -2.294321e+09 -2.454321e+09 -1.638473e+02 -2.745492e+01 -9.800775e+00
-3.098783e+09 -2.898782e+09 -3.058783e+09 -1.662048e+02 -2.335837e+01 -1.439798e+01
-2.939396e+09 -2.739396e+09 -2.899396e+09 -1.128753e+02 -2.680214e+01 -1.240791e+01
-1.989936e+09 -1.789935e+09 -1.949935e+09 1.617069e+01 1.791702e+01 -9.543530e+00
-2.164815e+09 -1.964814e+09 -2.124815e+09 4.358043e+00 1.290380e+01 5.079492e+00
-4.991180e+09 -4.791178e+09 -4.951183e+09 4.616126e+02 -3.427864e+02 2.372683e+02
-1.813605e+09 -1.613604e+09 -1.773604e+09 3.919645e+01 2.070993e+01 2.372299e+01
-2.692840e+09 -2.492839e+09 -2.652839e+09 6.108828e+01 1.639350e+01 -4.709044e+00
-1.777217e+09 -1.577216e+09 -1.737216e+09 1.044123e+02 2.512092e+01 1.971457e+01
-2.265105e+09 -2.065104e+09 -2.225105e+09 5.623024e+01 1.364174e+01 2.538975e+00
-3.958639e+09 -3.758635e+09 -3.918637e+09 7.889097e+02 -5.681570e+02 -1.398901e+02
-2.665554e+09 -2.465553e+09 -2.625554e+09 9.478559e+01 1.386815e+01 -6.314238e+00
-4.818425e+09 -4.618422e+09 -4.778426e+09 3.193222e+01 -3.774452e+02 4.259076e+02
-2.578834e+09 -2.378835e+09 -2.538832e+09 9.687246e+02 1.816654e+02 -6.585624e+01
-2.877286e+09 -2.677287e+09 -2.837284e+09 7.582593e+02 9.329742e+01 -5.917461e+01
-2.785794e+09 -2.585794e+09 -2.745792e+09 7.991385e+02 1.797200e+02 -6.847067e+01
-2.650283e+09 -2.450283e+09 -2.610281e+09 1.074171e+03 2.908145e+02 -2.558447e+01
-3.100739e+09 -2.900740e+09 -3.060738e+09 1.261986e+03 3.601847e+02 -7.370146e+01
-4.657507e+09 -4.457507e+09 -4.617507e+09 -2.472277e+02 -2.443150e+01 -2.612956e+01
-4.663560e+09 -4.463560e+09 -4.623560e+09 -1.610285e+02 -2.094261e+01 -1.226356e+01
-4.992116e+09 -4.792116e+09 -4.952116e+09 -1.034541e+02 7.500895e+00 -3.583573e+00
-4.660226e+09 -4.460225e+09 -4.620225e+09 -1.501253e+02 -3.111291e+01 -1.456661e+01
-4.829336e+09 -4.629335e+09 -4.789336e+09 -2.514147e+02 -5.281080e+00 -3.542631e+01
-4.830433e+09 -4.630432e+09 -4.790432e+09 -1.510710e+02 -3.359054e-01 -3.347369e+01
-2.103789e+09 -1.903787e+09 -2.063787e+09 -9.824435e+02 -9.062783e+02 -2.598519e+02
-3.281847e+09 -3.081844e+09 -3.241845e+09 -6.265620e+02 -6.331461e+02 -1.843639e+02
-2.375371e+09 -2.175369e+09 -2.335369e+09 -9.181495e+02 -9.093337e+02 -3.061159e+02
-2.454509e+09 -2.254507e+09 -2.414508e+09 -9.423937e+02 -9.063420e+02 -2.332889e+02
-3.121879e+09 -2.921876e+09 -3.081878e+09 -9.955709e+02 -8.872709e+02 -3.804972e+02
-2.333559e+09 -2.133569e+09 -2.293567e+09 -1.187537e+02 2.868391e+01 5.090934e+02
-2.591089e+09 -2.391099e+09 -2.551097e+09 -1.597545e+02 9.034243e+01 2.802743e+02
-1.638513e+09 -1.438513e+09 -1.598515e+09 2.360205e+02 5.511466e+02 1.292078e+01
-2.690083e+09 -2.490093e+09 -2.650092e+09 -3.083630e+02 -6.943448e+01 1.079833e+03
-1.945087e+09 -1.745096e+09 -1.905096e+09 6.263900e+02 4.514151e+02 1.447630e+03
-1.543676e+09 -1.343684e+09 -1.503683e+09 -6.224265e+00 1.084587e+02 5.634279e+02
-2.104915e+09 -1.904923e+09 -2.064922e+09 4.387154e+02 -1.620190e+01 6.131623e+02
-2.903923e+09 -2.703923e+09 -2.863921e+09 3.409442e+02 2.839249e+02 -1.363861e+02
-3.775953e+09 -3.575952e+09 -3.735951e+09 6.325620e+02 2.171102e+02 -1.415659e+02
-3.406929e+09 -3.206928e+09 -3.366927e+09 7.359232e+02 4.099769e+02 -2.644535e+01
-3.959620e+09 -3.759615e+09 -3.919617e+09 6.637979e+02 1.437730e+02 2.813637e+02
-3.325146e+09 -3.125147e+09 -3.285144e+09 8.143778e+02 2.447301e+02 -1.030338e+02
-2.724248e+09 -2.524248e+09 -2.684246e+09 3.972595e+02 2.328078e+02 3.277136e+01
-2.379295e+09 -2.179294e+09 -2.339294e+09 8.204595e+01 1.401957e+01 2.408419e+01
-2.099482e+09 -1.899481e+09 -2.059482e+09 6.392933e+01 8.862713e+00 -1.141114e-01
-2.714464e+09 -2.514464e+09 -2.674464e+09 4.516816e+01 2.136152e+01 -3.415224e+01
-2.866804e+09 -2.666803e+09 -2.826803e+09 4.256247e+01 1.812074e+01 -1.890195e+01
-3.080104e+09 -2.880103e+09 -3.040103e+09 9.112965e+01 1.028820e+01 -2.751615e+01
-2.961606e+09 -2.761605e+09 -2.921605e+09 1.081286e+02 2.146415e+01 -1.270527e+01
-4.643136e+09 -4.443133e+09 -4.603138e+09 -3.057746e+03 4.609071e+02 6.852191e+02
-4.472850e+09 -4.272847e+09 -4.432850e+09 -3.350738e+03 2.954300e+02 4.323980e+02
-4.644064e+09 -4.444062e+09 -4.604064e+09 -3.293040e+03 5.189142e+02 1.102280e+02
-4.987627e+09 -4.787626e+09 -4.947627e+09 -5.420906e+02 3.322510e+00 1.675884e+01
-4.643387e+09 -4.443387e+09 -4.603388e+09 -3.617063e+03 5.026166e+02 7.236139e+01
-4.130669e+09 -3.930667e+09 -4.090669e+09 -3.388369e+03 3.422748e+02 4.282076e+02
-2.564711e+09 -2.364712e+09 -2.524712e+09 -1.040341e+02 -2.022677e+01 -6.528609e-01
-2.441009e+09 -2.241011e+09 -2.401010e+09 -1.049431e+02 -8.143657e+00 1.859321e+01
-1.773419e+09 -1.573421e+09 -1.733420e+09 -1.946089e+02 -1.167234e+01 -2.574129e+01
-2.329277e+09 -2.129278e+09 -2.289278e+09 -1.492453e+02 -9.788362e+00 -4.110582e+00
-2.326668e+09 -2.126670e+09 -2.286670e+09 -2.124933e+02 -3.296644e+01 7.654198e+00
-2.568522e+09 -2.368523e+09 -2.528523e+09 -1.324067e+02 -2.562314e+01 7.595933e+00
-4.819171e+09 -4.619169e+09 -4.779170e+09 -2.769988e+02 -5.039055e+01 -4.136380e+01
-4.820461e+09 -4.620460e+09 -4.780460e+09 -2.234723e+02 -2.929642e+01 -3.636063e+01
-4.132705e+09 -3.932704e+09 -4.092704e+09 -3.138467e+02 -1.069232e+02 1.953825e+01
-4.648827e+09 -4.448825e+09 -4.608826e+09 -2.322548e+02 -1.591352e+01 -1.615072e+01
-4.240938e+09 -4.040940e+09 -4.200939e+09 2.146539e+01 4.052098e+00 1.951072e+00
-4.038438e+09 -3.838440e+09 -3.998439e+09 4.158039e+01 2.624217e+00 2.040476e+01
-4.195153e+09 -3.995154e+09 -4.155154e+09 1.005724e+02 -1.767977e+00 -9.603604e+00
-4.274491e+09 -4.074492e+09 -4.234492e+09 1.185023e+02 -7.672396e-01 -2.165367e+01
-3.874748e+09 -3.674750e+09 -3.834750e+09 4.944244e+01 1.764479e+01 1.623329e+01
-4.763714e+09 -4.563715e+09 -4.723715e+09 1.848721e+01 -6.506597e+00 1.549082e+01
-4.105308e+09 -3.905309e+09 -4.065309e+09 -9.763378e+00 3.235242e+00 1.327502e+01
-4.014946e+09 -3.814948e+09 -3.974948e+09 1.487981e+01 1.097708e+01 1.003066e+00
-3.816972e+09 -3.616974e+09 -3.776973e+09 1.063161e+01 8.330181e+00 3.198067e+01
-4.991095e+09 -4.791092e+09 -4.951100e+09 -3.524078e+02 -5.792538e+02 3.855274e+02
-3.971291e+09 -3.771290e+09 -3.931290e+09 6.824873e+01 -3.009422e+00 7.914135e+00
-4.654813e+09 -4.454812e+09 -4.614813e+09 1.596149e+02 1.997555e+01 -2.413108e+01
-4.828135e+09 -4.628134e+09 -4.788135e+09 1.549355e+02 1.094980e-01 -3.544792e+01
-4.826672e+09 -4.626672e+09 -4.786672e+09 9.262801e+01 2.794777e-01 -3.053144e+01
-4.064456e+09 -3.864455e+09 -4.024456e+09 1.251550e+02 1.284227e+01 -9.260617e+00
-4.662683e+09 -4.462682e+09 -4.622682e+09 1.090041e+02 1.647963e+01 -1.033102e+01
-4.645787e+09 -4.445788e+09 -4.605790e+09 -2.654466e+03 5.002715e+02 1.125186e+02
-4.301298e+09 -4.101296e+09 -4.261298e+09 -2.303905e+03 5.017300e+02 3.568037e+02
-4.990413e+09 -4.790410e+09 -4.950411e+09 -1.040114e+03 3.259456e+00 2.872748e+01
-4.302292e+09 -4.102291e+09 -4.262292e+09 -2.299892e+03 3.698976e+02 3.736468e+02
-4.818143e+09 -4.618144e+09 -4.778145e+09 -2.573002e+03 6.937848e+01 -1.586312e+02
-4.818106e+09 -4.618106e+09 -4.778107e+09 -2.389530e+03 4.951414e+02 3.974779e+02
-4.073193e+09 -3.873197e+09 -4.033196e+09 -1.335410e+03 -8.928279e+02 -1.319846e+02
-4.060286e+09 -3.860290e+09 -4.020288e+09 -8.701365e+02 -7.009728e+02 -1.502443e+02
-4.278221e+09 -4.078225e+09 -4.238223e+09 -1.014360e+03 -7.844324e+02 -2.517245e+01
-4.823508e+09 -4.623511e+09 -4.783511e+09 -1.568908e+03 -5.827998e+02 -2.451442e+02
-4.652616e+09 -4.452620e+09 -4.612618e+09 -1.009443e+03 -3.454733e+02 1.248915e+02
-4.822499e+09 -4.622502e+09 -4.782501e+09 -1.050447e+03 -4.103954e+02 -2.611835e+02
-4.657551e+09 -4.457551e+09 -4.617551e+09 -3.087709e+02 -4.459404e+01 -2.546759e+01
-4.320242e+09 -4.120242e+09 -4.280242e+09 -1.879978e+02 7.855619e-01 -1.292499e+01
-4.278384e+09 -4.078384e+09 -4.238384e+09 -2.447221e+02 -7.415785e+00 1.785811e+00
-4.059269e+09 -3.859269e+09 -4.019270e+09 -2.870765e+02 -3.672273e+01 -2.189531e+01
-3.902712e+09 -3.702710e+09 -3.862711e+09 -9.170603e+02 -6.004855e+02 -3.229496e+02
-4.260421e+09 -4.060418e+09 -4.220420e+09 -8.292760e+02 -6.081823e+02 -1.684826e+02
-4.838837e+09 -4.638834e+09 -4.798835e+09 -6.166399e+02 -2.745511e+02 -1.428978e+02
-4.816775e+09 -4.616773e+09 -4.776774e+09 -1.028495e+03 -1.895582e+01 3.548955e+01
-2.709413e+09 -2.509412e+09 -2.669413e+09 -4.604145e+01 -1.207711e+01 -8.728621e+00
-2.420368e+09 -2.220367e+09 -2.380368e+09 -1.420504e+02 -2.846371e+01 -5.323526e+00
-2.019610e+09 -1.819609e+09 -1.979609e+09 -8.569605e+01 -1.151104e+01 -1.756124e+01
-4.818382e+09 -4.618379e+09 -4.778385e+09 -1.753759e+03 -3.212944e+02 -2.242378e+02
-2.808356e+09 -2.608355e+09 -2.768356e+09 -9.937153e+01 -1.059102e+01 -2.272116e+01
-4.015863e+09 -3.815866e+09 -3.975863e+09 -6.718309e+02 9.093776e+01 -4.256693e+01
-4.265948e+09 -4.065952e+09 -4.225948e+09 -6.379800e+02 -2.560101e+01 -7.358031e+00
-4.088244e+09 -3.888247e+09 -4.048244e+09 -7.611877e+02 1.826135e+02 -1.304809e+01
-4.458207e+09 -4.258211e+09 -4.418207e+09 -7.799276e+02 2.347837e+01 -2.603960e+01
-4.801440e+09 -4.601444e+09 -4.761440e+09 -7.207047e+02 1.210176e+02 -8.305152e+00
-4.993857e+09 -4.793857e+09 -4.953857e+09 2.050398e+02 1.227064e+01 6.151117e+01
-2.707663e+09 -2.507663e+09 -2.667661e+09 -7.696526e+02 -4.440129e+02 -1.892834e+02
-2.547309e+09 -2.347309e+09 -2.507307e+09 -1.132689e+03 -1.551676e+02 -2.066260e+02
-3.080419e+09 -2.880419e+09 -3.040418e+09 -6.633929e+02 -2.501173e+02 -1.852349e+02
-2.157639e+09 -1.957639e+09 -2.117638e+09 -5.517001e+02 -3.959637e+02 5.174142e+00
-2.182722e+09 -1.982722e+09 -2.142720e+09 -8.237313e+02 -5.202752e+02 -6.386257e+01
-2.931213e+09 -2.731214e+09 -2.891212e+09 -9.900811e+02 -8.946622e+02 -2.984536e+02
-3.747480e+09 -3.547479e+09 -3.707479e+09 6.130451e+01 2.604023e+01 1.336912e+01
-4.818679e+09 -4.618677e+09 -4.778678e+09 -7.678570e+02 -2.954964e+01 -7.593146e+01
-4.132809e+09 -3.932807e+09 -4.092808e+09 -1.010919e+03 -1.627268e+02 1.225961e+02
-4.302948e+09 -4.102946e+09 -4.262947e+09 -5.267915e+02 -1.049795e+02 7.600358e+01
-4.645955e+09 -4.445953e+09 -4.605954e+09 -7.023412e+02 -4.119770e+01 -3.797844e+01
-4.646703e+09 -4.446701e+09 -4.606703e+09 -9.329268e+02 -1.306383e+02 1.752903e+02
-4.644571e+09 -4.444562e+09 -4.604520e+09 -1.355901e+03 -2.235253e+03 -1.301833e+02
-4.645392e+09 -4.445383e+09 -4.605354e+09 -4.134802e+03 -4.989366e+03 7.409679e+02
-4.645798e+09 -4.445791e+09 -4.605748e+09 5.353455e+02 -1.277040e+03 -3.047931e+02
-4.300002e+09 -4.099991e+09 -4.259945e+09 2.219040e+03 -5.925330e+03 -2.451736e+03
-4.818151e+09 -4.618143e+09 -4.778103e+09 -1.046431e+03 -2.370319e+03 3.738230e+02
-2.912965e+09 -2.712961e+09 -2.872963e+09 1.281300e+03 8.769860e+02 -4.275653e+02
-2.811651e+09 -2.611647e+09 -2.771648e+09 1.233556e+03 8.521952e+02 -4.183952e+02
-2.486807e+09 -2.286802e+09 -2.446805e+09 2.612331e+03 1.158910e+03 -9.519937e+02
-3.741560e+09 -3.541560e+09 -3.701560e+09 2.442819e+02 3.702660e+01 -1.115325e+00
-2.666934e+09 -2.466928e+09 -2.626932e+09 2.186975e+03 1.335222e+03 -1.362173e+03
-2.469410e+09 -2.269405e+09 -2.429407e+09 9.944356e+02 7.574485e+02 -2.839661e+02
-2.901552e+09 -2.701547e+09 -2.861551e+09 7.000152e+02 9.469840e+02 -6.950931e+02
-4.303540e+09 -4.103541e+09 -4.263541e+09 4.394252e+02 -1.004520e+01 5.379573e+00
-4.819298e+09 -4.619299e+09 -4.779299e+09 4.096946e+02 -1.916247e+01 -3.201262e+01
-4.811425e+09 -4.611426e+09 -4.771426e+09 3.178519e+02 -1.461755e+01 -4.764178e+00
-4.304313e+09 -4.104314e+09 -4.264314e+09 3.797084e+02 -7.486241e+00 1.387516e+00
-4.113620e+09 -3.913623e+09 -4.073620e+09 5.388008e+02 -2.309712e+02 1.060431e+02
-4.204917e+09 -4.004919e+09 -4.164918e+09 6.749650e+02 -1.481022e+02 1.434081e+02
-4.607838e+09 -4.407841e+09 -4.567839e+09 5.024798e+02 -1.630584e+02 1.365757e+01
-4.296810e+09 -4.096805e+09 -4.256810e+09 -1.865381e+03 7.579365e+02 7.200139e+02
-4.278780e+09 -4.078782e+09 -4.238781e+09 9.586837e+02 -4.831294e+02 2.043216e+02
-4.053343e+09 -3.853344e+09 -4.013343e+09 9.477880e+02 -6.111270e+02 4.044875e+02
-4.777492e+09 -4.577495e+09 -4.737493e+09 5.753157e+02 4.220937e+01 -8.655529e+01
-4.042224e+09 -3.842227e+09 -4.002225e+09 8.390704e+02 -4.701380e+02 3.720351e+02
-2.959461e+09 -2.759464e+09 -2.919461e+09 9.587887e+02 -6.368289e+02 4.245167e+02
-3.855609e+09 -3.655612e+09 -3.815610e+09 9.678551e+02 -6.298270e+02 1.572836e+02
-4.794176e+09 -4.594175e+09 -4.754175e+09 8.449861e+01 5.711762e+00 8.629183e-01
-4.028018e+09 -3.828017e+09 -3.988017e+09 1.045899e+02 1.200108e+01 -2.344368e+01
-4.204675e+09 -4.004674e+09 -4.164674e+09 4.679844e+01 7.734991e+00 -7.529328e+00
-4.647546e+09 -4.447547e+09 -4.607547e+09 3.797747e+02 8.886170e+00 4.950472e+01
-4.297014e+09 -4.097015e+09 -4.257014e+09 2.928110e+02 1.396496e+01 -5.171321e+01
-4.133081e+09 -3.933081e+09 -4.093081e+09 4.292206e+02 2.522781e+01 5.115244e+01
-3.977787e+09 -3.777788e+09 -3.937788e+09 -2.437274e+02 -9.482523e+00 6.149730e+00
-4.207729e+09 -4.007730e+09 -4.167730e+09 -2.631658e+02 -3.230877e+01 -3.299892e+00
-3.750012e+09 -3.550014e+09 -3.710013e+09 -2.848372e+02 -2.056723e+01 2.081960e+01
-3.675571e+09 -3.475573e+09 -3.635572e+09 -2.573184e+02 1.344152e+01 1.797021e+00
-3.047640e+09 -2.847641e+09 -3.007641e+09 -1.180411e+02 2.155719e+00 -3.462985e+01
-3.754683e+09 -3.554684e+09 -3.714684e+09 -1.405678e+02 -5.739708e+00 2.141050e+01
-3.826854e+09 -3.626855e+09 -3.786855e+09 -1.756761e+02 -2.534101e+00 -4.759205e+00
-4.820810e+09 -4.620814e+09 -4.780811e+09 3.754883e+03 1.956011e+02 1.876883e+03
-4.647440e+09 -4.447448e+09 -4.607434e+09 3.909657e+03 1.088041e+03 1.885418e+03
-4.649242e+09 -4.449250e+09 -4.609243e+09 3.039594e+03 7.948888e+02 1.215089e+03
-4.306651e+09 -4.106657e+09 -4.266650e+09 3.489234e+03 6.696935e+02 2.168236e+03
-4.631389e+09 -4.431390e+09 -4.591390e+09 -3.343787e+02 8.677078e+00 3.366993e+01
-4.644897e+09 -4.444899e+09 -4.604898e+09 -4.124152e+02 4.557467e+00 4.185845e+01
-4.819069e+09 -4.619071e+09 -4.779071e+09 -4.096230e+02 9.028341e+00 -2.196810e+01
-4.816139e+09 -4.616141e+09 -4.776140e+09 -3.423121e+02 1.231903e+01 -1.913219e+01
-4.262039e+09 -4.062038e+09 -4.222038e+09 -1.130859e+03 -3.511949e+02 -1.146640e+02
-4.069765e+09 -3.869764e+09 -4.029765e+09 -1.273737e+03 -5.281586e+02 -1.677433e+02
-4.801151e+09 -4.601150e+09 -4.761150e+09 -7.491954e+02 -3.355263e+02 -1.893381e+02
-4.810183e+09 -4.610183e+09 -4.770183e+09 -1.217511e+03 -3.796612e+02 -2.042105e+02
-4.128728e+09 -3.928724e+09 -4.088727e+09 -8.381997e+02 3.946918e+02 4.999921e+02
-4.295519e+09 -4.095516e+09 -4.255517e+09 -6.469439e+02 3.654305e+01 3.500740e+01
-4.636332e+09 -4.436328e+09 -4.596331e+09 -2.919643e+02 1.531255e+02 1.641745e+02
-2.730927e+09 -2.530928e+09 -2.690931e+09 3.192814e+03 7.484131e+02 2.822357e+02
-3.347461e+09 -3.147461e+09 -3.307464e+09 3.465446e+03 4.547600e+02 5.495316e+01
-3.369586e+09 -3.169582e+09 -3.329588e+09 1.657118e+03 -8.836774e+02 -1.114074e+03
-4.302190e+09 -4.102191e+09 -4.262196e+09 1.258455e+03 -2.230816e+03 1.141306e+03
-3.524683e+09 -3.324681e+09 -3.484685e+09 2.085293e+03 -5.601156e+02 -1.242558e+03
-3.552199e+09 -3.352198e+09 -3.512202e+09 3.602440e+03 5.874368e+02 2.371685e+02
-4.816294e+09 -4.616290e+09 -4.776294e+09 -2.021045e+03 -7.592517e+01 -5.530855e+01
-4.820471e+09 -4.620476e+09 -4.780472e+09 -6.943381e+02 9.766311e+01 2.813564e+01
-4.474472e+09 -4.274469e+09 -4.434472e+09 -1.916240e+03 3.180831e+02 3.298701e+02
-4.132685e+09 -3.932690e+09 -4.092686e+09 -1.060526e+03 3.230466e+02 1.066441e+02
-4.303194e+09 -4.103199e+09 -4.263195e+09 -9.912745e+02 2.618290e+02 9.523675e+01
-4.303853e+09 -4.103859e+09 -4.263854e+09 -7.050274e+02 1.796331e+02 4.083808e+01
-1.791560e+09 -1.591561e+09 -1.751561e+09 1.467494e+02 3.076994e+01 -2.727087e+01
-2.765649e+09 -2.565649e+09 -2.725649e+09 5.655705e+01 2.424329e+01 -2.830176e+01
-1.851179e+09 -1.651179e+09 -1.811179e+09 6.601246e+01 2.968912e+01 3.578844e+01
-2.608640e+09 -2.408641e+09 -2.568641e+09 1.005329e+02 3.285634e+01 1.096559e+01
-3.003514e+09 -2.803514e+09 -2.963514e+09 1.027960e+02 6.018372e+00 -6.052492e+00
-1.600984e+09 -1.400984e+09 -1.560984e+09 1.019065e+02 4.741826e+01 2.172375e+00
-2.482296e+09 -2.282304e+09 -2.442303e+09 1.505884e+03 6.799369e+01 8.167429e+02
-2.670946e+09 -2.470956e+09 -2.630954e+09 2.283070e+03 5.253910e+02 2.020690e+03
-1.732739e+09 -1.532745e+09 -1.692747e+09 1.527567e+03 1.954106e+02 7.774843e+02
-1.879415e+09 -1.679424e+09 -1.839424e+09 1.721094e+03 6.237812e+02 1.229034e+03
-1.928228e+09 -1.728234e+09 -1.888235e+09 1.600536e+03 3.331811e+02 7.959697e+02
-2.274682e+09 -2.074690e+09 -2.234690e+09 1.041698e+03 -5.294955e+01 5.103356e+02
-2.595045e+09 -2.395050e+09 -2.555051e+09 -1.128294e+03 3.671778e+02 -4.186588e+01
-2.366116e+09 -2.166121e+09 -2.326122e+09 -1.708584e+03 2.226507e+02 5.677735e+02
-3.036939e+09 -2.836943e+09 -2.996943e+09 -2.192429e+03 -3.857064e+01 1.367238e+02
-3.401961e+09 -3.201966e+09 -3.361965e+09 -1.920202e+03 -2.864817e+02 2.846439e+02
-2.555083e+09 -2.355092e+09 -2.515092e+09 -1.643468e+03 -1.679889e+02 1.357195e+03
-2.880555e+09 -2.680563e+09 -2.840563e+09 -1.640067e+03 -4.664126e+01 8.405599e+02
-3.176240e+09 -2.976248e+09 -3.136246e+09 -2.118018e+03 -7.194171e+02 1.366930e+03
-2.672314e+09 -2.472314e+09 -2.632313e+09 2.077096e+03 6.045024e+02 1.301425e+01
-3.078626e+09 -2.878626e+09 -3.038624e+09 2.139822e+03 9.130455e+02 -2.495604e+02
-3.539138e+09 -3.339137e+09 -3.499138e+09 2.051184e+03 8.578824e+02 -3.907835e+02
-3.887151e+09 -3.687150e+09 -3.847151e+09 2.012267e+03 5.581509e+02 -2.112959e+02
-3.925031e+09 -3.725030e+09 -3.885030e+09 2.353565e+03 5.906897e+02 -2.117110e+02
-3.212157e+09 -3.012159e+09 -3.172157e+09 -1.275116e+03 -7.492128e+02 -3.306441e+02
-3.276360e+09 -3.076359e+09 -3.236359e+09 2.266049e+03 1.235261e+03 -3.878440e+02
-2.935093e+09 -2.735093e+09 -2.895091e+09 2.036337e+03 6.182701e+02 -3.346625e+02
-4.132378e+09 -3.932379e+09 -4.092379e+09 1.135171e+03 4.477088e+01 -3.703662e+01
-4.985337e+09 -4.785336e+09 -4.945336e+09 1.569484e+02 -9.475087e+00 8.641528e+00
-4.818845e+09 -4.618845e+09 -4.778845e+09 9.928023e+02 -5.551745e+01 -1.116419e+02
-4.646227e+09 -4.446228e+09 -4.606227e+09 1.104544e+03 4.211616e+01 -2.583695e+01
-4.303074e+09 -4.103075e+09 -4.263075e+09 1.053222e+03 -4.906358e+01 -9.592740e+01
-4.646360e+09 -4.446361e+09 -4.606360e+09 9.162828e+02 4.732208e+01 -1.587903e+01
-2.178449e+09 -1.978449e+09 -2.138449e+09 8.586824e+01 1.156759e+01 1.845618e+01
-2.845501e+09 -2.645501e+09 -2.805501e+09 1.086020e+02 1.822437e+01 -2.257394e+01
-1.803625e+09 -1.603626e+09 -1.763625e+09 1.670567e+02 3.317152e+01 3.393590e+01
-2.613808e+09 -2.413808e+09 -2.573808e+09 1.754546e+02 3.091229e+01 2.084594e+00
-2.101657e+09 -1.901657e+09 -2.061657e+09 1.591703e+02 2.431920e+01 -3.580949e+01
-1.774387e+09 -1.574386e+09 -1.734386e+09 1.634470e+02 1.651845e+01 -3.100266e+01
-1.854316e+09 -1.654316e+09 -1.814316e+09 2.081786e+02 4.401712e+01 2.130266e+00
-2.432037e+09 -2.232037e+09 -2.392037e+09 -1.319002e+02 -3.855754e+01 -1.477285e+01
-2.349851e+09 -2.149850e+09 -2.309851e+09 -7.231555e+01 -1.247021e+01 3.668613e+01
-3.158636e+09 -2.958635e+09 -3.118636e+09 -8.075033e+01 2.482672e-01 -1.261338e+01
-2.606899e+09 -2.406898e+09 -2.566899e+09 -1.265005e+02 -7.478928e+00 -2.283608e+01
-2.871272e+09 -2.671271e+09 -2.831271e+09 -3.964814e+01 -1.544924e+01 1.124690e+01
-3.249173e+09 -3.049182e+09 -3.209181e+09 7.612936e+02 2.215708e+02 3.796002e+02
-4.991160e+09 -4.791156e+09 -4.951162e+09 -6.912132e+02 -2.755245e+02 2.424614e+02
-3.758129e+09 -3.558137e+09 -3.718135e+09 8.257747e+02 5.358409e+00 7.179048e+02
-3.525196e+09 -3.325203e+09 -3.485201e+09 1.673430e+02 3.974283e+02 -5.736737e+02
-4.130316e+09 -3.930326e+09 -4.090323e+09 9.462051e+02 -6.097700e+01 2.063290e+02
-4.703770e+09 -4.503780e+09 -4.663776e+09 8.194934e+02 2.685348e+02 2.099152e+02
-4.480119e+09 -4.280129e+09 -4.440125e+09 1.285097e+02 5.501202e+01 1.804682e+02
-3.878253e+09 -3.678263e+09 -3.838260e+09 1.388776e+02 -4.082172e+01 3.456118e+02
-4.132553e+09 -3.932559e+09 -4.092561e+09 1.484744e+03 -2.598688e+03 1.284093e+03
-4.819019e+09 -4.619024e+09 -4.779027e+09 8.444014e+02 -1.169721e+03 2.026796e+02
-4.820428e+09 -4.620435e+09 -4.780435e+09 3.452812e+02 -9.193425e+02 4.220017e+01
-4.820506e+09 -4.620512e+09 -4.780514e+09 8.378356e+01 -6.707624e+02 2.559697e+02
-4.132812e+09 -3.932805e+09 -4.092788e+09 6.752951e+03 4.091818e+03 3.760131e+03
-4.818675e+09 -4.618673e+09 -4.778664e+09 5.176384e+03 3.153010e+02 4.153421e+03
-4.304878e+09 -4.104871e+09 -4.264855e+09 5.297386e+03 5.105825e+03 2.506667e+03
-4.648358e+09 -4.448348e+09 -4.608338e+09 5.325678e+03 3.595810e+03 1.143757e+03
-4.646723e+09 -4.446718e+09 -4.606719e+09 4.899166e+03 3.882642e+03 1.212441e+03
-4.991202e+09 -4.791201e+09 -4.951203e+09 1.982282e+02 -7.919187e+01 8.158218e+01
-2.583127e+09 -2.383125e+09 -2.543128e+09 3.836321e+02 -4.944609e+02 -1.997783e+02
-2.352816e+09 -2.152812e+09 -2.312816e+09 -5.740685e+02 -1.426666e+03 -1.820417e+03
-2.103471e+09 -1.903467e+09 -2.063470e+09 5.942769e+01 -6.289530e+02 -4.817793e+02
-1.945873e+09 -1.745872e+09 -1.905874e+09 3.680152e+02 -8.004755e+02 -7.116309e+02
-1.789148e+09 -1.589144e+09 -1.749147e+09 -8.305232e+02 -1.368870e+03 -1.085263e+03
-1.751478e+09 -1.551476e+09 -1.711479e+09 8.873748e+01 -5.938539e+02 -4.263917e+02
-1.568346e+09 -1.368342e+09 -1.528346e+09 4.776041e+02 -7.595726e+02 -1.098267e+03
-4.825274e+09 -4.625273e+09 -4.785274e+09 -2.009313e+02 -2.705150e+00 -3.426281e+01
-4.242474e+09 -4.042473e+09 -4.202473e+09 -1.030482e+02 1.137135e+00 7.544234e+00
-4.644330e+09 -4.444329e+09 -4.604329e+09 -1.028853e+02 -1.577983e+01 -2.041379e+01
-4.663591e+09 -4.463590e+09 -4.623590e+09 -2.001594e+02 -2.459712e+01 -8.475975e+00
-1.821487e+09 -1.621485e+09 -1.781484e+09 -9.075164e+01 -2.184252e+02 -8.056921e+00
-2.840498e+09 -2.640496e+09 -2.800496e+09 -1.211742e+02 -2.394605e+02 -1.940587e+01
-2.700899e+09 -2.500898e+09 -2.660898e+09 -4.662224e+01 -2.828077e+00 -2.265652e+01
-2.167037e+09 -1.967035e+09 -2.127034e+09 -1.479283e+02 -3.817937e+02 -2.192030e+01
-2.082348e+09 -1.882345e+09 -2.042345e+09 -5.525845e+02 -3.695395e+02 -1.700083e+02
-2.077268e+09 -1.877266e+09 -2.037265e+09 -1.349423e+02 -2.645035e+02 -7.030209e+01
-4.131473e+09 -3.931468e+09 -4.091474e+09 -6.501608e+02 -9.656332e+02 1.418389e+03
-2.805218e+09 -2.605217e+09 -2.765218e+09 -2.786296e+01 -2.937824e+00 -3.551337e+00
-2.743546e+09 -2.543545e+09 -2.703545e+09 -2.157137e+01 -2.037989e+00 1.285478e-01
-2.290664e+09 -2.090663e+09 -2.250663e+09 -4.923017e+01 -1.844333e+01 -1.520136e+01
-2.093966e+09 -1.893965e+09 -2.053965e+09 -4.240482e+01 -4.605663e+00 -3.660753e+00
-2.011404e+09 -1.811402e+09 -1.971402e+09 -2.003015e+02 -2.080802e+02 -7.830586e+00
-4.991827e+09 -4.791832e+09 -4.951833e+09 8.886328e+02 -4.171530e+02 9.495780e+01
-1.856936e+09 -1.656935e+09 -1.816934e+09 -1.712749e+02 -1.706608e+02 -2.941617e+01
-2.735318e+09 -2.535317e+09 -2.695316e+09 -1.384958e+02 -8.415350e+01 -6.636028e+01
-2.092516e+09 -1.892515e+09 -2.052513e+09 -3.649860e+02 -3.198947e+02 -3.579147e+01
-4.126563e+09 -3.926562e+09 -4.086563e+09 1.846606e+02 7.871758e+00 -5.536336e+00
-4.810886e+09 -4.610885e+09 -4.770885e+09 2.521132e+02 5.347692e+00 -2.998007e+01
-4.813029e+09 -4.613028e+09 -4.773028e+09 1.862751e+02 9.545815e+00 -9.686126e+00
-4.636464e+09 -4.436463e+09 -4.596463e+09 2.655464e+02 2.140945e+01 -4.001446e+01
-4.634391e+09 -4.434390e+09 -4.594390e+09 1.983621e+02 1.954313e+01 -2.948130e+01
-4.819350e+09 -4.619350e+09 -4.779350e+09 3.881155e+02 1.395658e+01 -1.558791e+01
-4.304511e+09 -4.104510e+09 -4.264511e+09 3.973960e+02 -3.385572e+00 1.738293e+00
-4.122186e+09 -3.922185e+09 -4.082186e+09 3.520749e+02 2.739069e+01 1.206248e+01
-4.125289e+09 -3.925288e+09 -4.085288e+09 2.805858e+02 2.200650e+01 1.615596e+01
-4.296915e+09 -4.096914e+09 -4.256914e+09 2.886429e+02 9.046893e+00 2.699435e+01
-4.807282e+09 -4.607285e+09 -4.767281e+09 7.106045e+02 -3.980735e+01 4.622434e+01
-4.083773e+09 -3.883776e+09 -4.043772e+09 8.980925e+02 9.253209e+01 1.894968e+00
-4.240053e+09 -4.040057e+09 -4.200052e+09 7.334646e+02 8.062760e+01 9.564380e+00
-4.286080e+09 -4.086084e+09 -4.246080e+09 8.453120e+02 1.020856e+02 -9.535743e+01
-2.087427e+09 -1.887428e+09 -2.047425e+09 3.195969e+02 1.469656e+02 -7.358027e+01
-2.246369e+09 -2.046371e+09 -2.206367e+09 2.055951e+02 5.082060e+01 -3.152385e+01
-1.832757e+09 -1.632758e+09 -1.792755e+09 3.518025e+02 8.241221e+01 5.735718e+01
-4.647512e+09 -4.447511e+09 -4.607511e+09 -2.068142e+02 -3.220912e+00 -5.577640e+01
-4.819255e+09 -4.619254e+09 -4.779254e+09 -2.522700e+02 -2.829293e+01 -4.250474e+01
-4.132924e+09 -3.932923e+09 -4.092923e+09 -2.645210e+02 1.669127e+01 -7.831597e+01
-4.302893e+09 -4.102892e+09 -4.262891e+09 -5.779274e+02 6.904166e-01 -1.881105e+01
-4.646463e+09 -4.446462e+09 -4.606462e+09 -2.416987e+02 -6.847975e+01 -8.736888e+01
-4.455759e+09 -4.255763e+09 -4.415759e+09 -1.977282e+03 4.528503e+02 -7.934112e+02
-4.303425e+09 -4.103423e+09 -4.263423e+09 -3.283908e+02 -2.432898e+01 -3.251566e+01
-2.041079e+09 -1.841079e+09 -2.001079e+09 -2.790477e+02 -1.425675e+01 -3.188255e+01
-4.649285e+09 -4.449276e+09 -4.609247e+09 2.921912e+03 5.119956e+03 4.261180e+02
-4.646988e+09 -4.446984e+09 -4.606950e+09 3.091516e+03 2.642962e+03 4.669632e+03
-4.305101e+09 -4.105090e+09 -4.265058e+09 2.313215e+03 8.362149e+03 4.519065e+03
-4.304865e+09 -4.104854e+09 -4.264816e+09 -8.319884e+02 7.900753e+03 1.481565e+03
-4.819498e+09 -4.619492e+09 -4.779456e+09 2.526806e+03 5.335910e+03 3.660206e+03
-3.030354e+09 -2.830352e+09 -2.990353e+09 -1.601542e+02 -3.981141e+00 -2.105435e+01
-3.300750e+09 -3.100749e+09 -3.260749e+09 -2.425633e+02 -1.114877e+00 -3.180609e+01
-4.302191e+09 -4.102183e+09 -4.262198e+09 9.254995e+02 3.140134e+03 -2.321536e+03
-3.518585e+09 -3.318584e+09 -3.478584e+09 -2.801690e+02 -5.890818e+00 -1.701823e+01
-3.297351e+09 -3.097350e+09 -3.257350e+09 -2.857797e+02 -1.600735e+01 -7.025603e+00
-4.644688e+09 -4.444692e+09 -4.604692e+09 2.715013e+03 5.847956e+02 -1.891966e+02
-4.815621e+09 -4.615626e+09 -4.775624e+09 2.494685e+03 2.952177e+02 -4.655603e+02
-4.818846e+09 -4.618850e+09 -4.778847e+09 2.332205e+03 2.723064e+02 -2.884513e+02
-4.639412e+09 -4.439409e+09 -4.599424e+09 -2.368768e+03 -2.331575e+03 -4.187437e+02
-4.810346e+09 -4.610343e+09 -4.770356e+09 -1.555998e+03 -2.366462e+03 -3.242643e+02
-4.818846e+09 -4.618845e+09 -4.778854e+09 -2.083230e+03 -1.870857e+03 -3.739896e+02
-4.301858e+09 -4.101855e+09 -4.261858e+09 -2.345914e+03 -4.741339e+02 5.184176e+02
-4.299960e+09 -4.099959e+09 -4.259960e+09 -2.663836e+03 2.493281e+02 1.772921e+01
-4.645777e+09 -4.445776e+09 -4.605778e+09 -2.189301e+03 1.019844e+01 1.444404e+02
-4.645380e+09 -4.445377e+09 -4.605381e+09 -1.925590e+03 -7.386630e+00 4.229469e+02
-4.818137e+09 -4.618135e+09 -4.778137e+09 -2.080271e+03 3.900789e+01 -1.470357e+02
-3.069402e+09 -2.869400e+09 -3.029400e+09 -3.220187e+02 -4.740915e+02 -9.715394e+01
-4.991240e+09 -4.791236e+09 -4.951224e+09 -6.184691e+03 -4.617909e+02 9.780317e+02
-3.217234e+09 -3.017232e+09 -3.177232e+09 -5.541059e+02 -5.628455e+02 -1.074985e+02
-2.782883e+09 -2.582881e+09 -2.742881e+09 -3.924750e+02 -2.496516e+02 -1.125882e+02
-2.816741e+09 -2.616740e+09 -2.776739e+09 -5.331274e+02 -3.440079e+02 -1.156965e+02
-3.780600e+09 -3.580598e+09 -3.740598e+09 -4.328572e+02 -1.693025e+02 -1.590013e+02
-4.053100e+09 -3.853098e+09 -4.013099e+09 -3.980919e+02 -2.243767e+02 6.547902e+00
-3.278794e+09 -3.078793e+09 -3.238793e+09 -7.538384e+02 -7.373093e+02 -2.841545e+02
-2.865103e+09 -2.665102e+09 -2.825103e+09 -1.183872e+02 -1.673325e+01 -6.702940e+00
-1.808745e+09 -1.608744e+09 -1.768744e+09 -1.448231e+02 -2.120261e+01 -4.307536e+01
-1.917498e+09 -1.717497e+09 -1.877497e+09 -1.566585e+02 -1.142509e+01 -4.477404e+01
-1.848325e+09 -1.648324e+09 -1.808325e+09 -2.290692e+02 -1.139291e+01 -2.929610e+01
-2.602684e+09 -2.402683e+09 -2.562683e+09 -2.495156e+02 -2.413710e+00 -3.091233e-02
-2.219862e+09 -2.019861e+09 -2.179861e+09 -2.503944e+02 -1.925253e+01 -2.622441e+01
-3.199826e+09 -2.999824e+09 -3.159825e+09 -7.523622e+01 -3.940269e+00 -1.004506e+01
-3.178119e+09 -2.978118e+09 -3.138118e+09 -9.038015e+01 -1.021349e+01 -1.796924e+01
-2.410620e+09 -2.210619e+09 -2.370620e+09 -5.071524e+01 -2.476330e+00 -1.377837e+01
-2.744283e+09 -2.544282e+09 -2.704283e+09 -5.342676e+01 -1.807628e+00 -1.316266e+01
-2.831697e+09 -2.631696e+09 -2.791696e+09 -4.400012e+01 -1.358320e+00 -9.604431e+00
-2.270557e+09 -2.070556e+09 -2.230557e+09 -6.315000e+01 -1.888440e+01 -2.700535e+01
-3.965229e+09 -3.765227e+09 -3.925228e+09 8.035238e+02 5.557765e+01 -6.230842e+01
-3.993105e+09 -3.793104e+09 -3.953104e+09 3.298681e+01 8.045021e+00 1.764082e+00
-4.063239e+09 -3.863238e+09 -4.023238e+09 5.302576e+00 -6.719447e-01 -5.187113e+00
-4.464096e+09 -4.264099e+09 -4.424095e+09 -2.102834e+03 4.434875e+02 -8.770773e+02
-4.496676e+09 -4.296674e+09 -4.456675e+09 3.085297e+01 -1.113385e+00 -4.817473e+00
-1.767698e+09 -1.567696e+09 -1.727697e+09 1.537978e+01 6.435760e+00 -4.588641e+00
-1.786883e+09 -1.586881e+09 -1.746882e+09 6.708461e+00 3.601624e+00 1.540821e+00
-2.101168e+09 -1.901167e+09 -2.061167e+09 1.909044e+01 6.871788e+00 -1.517606e+00
-4.131410e+09 -3.931392e+09 -4.091418e+09 2.634128e+02 1.396077e+02 -3.754841e+03
-2.042664e+09 -1.842662e+09 -2.002663e+09 7.320301e+00 2.109937e+00 -6.837556e+00
-4.107879e+09 -3.907878e+09 -4.067878e+09 -3.012161e+02 -2.173157e+01 -5.040642e+01
-4.657446e+09 -4.457445e+09 -4.617445e+09 -2.277616e+02 -1.153425e+01 -4.158267e+01
-3.126180e+09 -2.926192e+09 -3.086186e+09 1.297217e+03 5.526039e+02 2.685379e+03
-3.749277e+09 -3.549289e+09 -3.709281e+09 6.899211e+02 -1.011735e+03 3.934855e+03
-3.075106e+09 -2.875117e+09 -3.035112e+09 4.818468e+02 2.044076e+02 3.041206e+03
-2.548381e+09 -2.348392e+09 -2.508389e+09 -5.779407e+01 -8.798418e+01 2.124912e+03
-2.908350e+09 -2.708362e+09 -2.868358e+09 -9.531121e+02 -6.156552e+02 2.614412e+03
-3.672465e+09 -3.472476e+09 -3.632468e+09 -1.157060e+03 -7.783018e+01 2.310888e+03
-3.065800e+09 -2.865812e+09 -3.025807e+09 -1.563597e+03 -5.634467e+02 2.675406e+03
-3.398683e+09 -3.198683e+09 -3.358685e+09 -2.133139e+03 -2.070403e+02 4.074320e+02
-3.251800e+09 -3.051798e+09 -3.211801e+09 -3.285318e+03 -9.602437e+02 6.312825e+02
-3.189868e+09 -2.989870e+09 -3.149871e+09 -2.416845e+03 -6.580241e+02 9.044600e+02
-4.618451e+09 -4.418461e+09 -4.578455e+09 -1.182299e+03 -1.974636e+02 5.775186e+02
-4.602996e+09 -4.403007e+09 -4.563000e+09 -1.217573e+03 -1.049905e+02 6.899841e+02
-3.429881e+09 -3.229889e+09 -3.389887e+09 -2.754874e+03 -1.220053e+03 1.801212e+03
-4.178804e+09 -3.978814e+09 -4.138809e+09 -1.093914e+03 -1.762344e+02 1.486488e+03
-3.956093e+09 -3.756104e+09 -3.916096e+09 -1.459748e+03 -2.373287e+02 2.498523e+03
-4.990754e+09 -4.790749e+09 -4.950757e+09 -1.864336e+03 -4.122924e+02 3.426266e+02
-2.338511e+09 -2.138520e+09 -2.298519e+09 -1.159043e+01 8.548105e+01 6.489361e+02
-2.347133e+09 -2.147142e+09 -2.307141e+09 -5.081859e+02 -4.055690e+01 1.119178e+03
-2.751331e+09 -2.551339e+09 -2.711338e+09 -7.127145e+02 -6.475057e+01 4.581315e+02
-2.432551e+09 -2.232562e+09 -2.392560e+09 -2.702754e+02 -8.144767e+01 1.830779e+03
-3.823456e+09 -3.623455e+09 -3.783455e+09 -1.343836e+02 -2.332604e+01 -2.080784e+01
-4.063628e+09 -3.863627e+09 -4.023627e+09 -1.569150e+02 -1.402385e+01 1.077290e+01
-3.261785e+09 -3.061784e+09 -3.221785e+09 -1.957872e+02 -1.949818e+01 -1.526355e+01
-4.645479e+09 -4.445470e+09 -4.605479e+09 -6.772129e+02 -1.972700e+02 -9.409560e+02
-3.953926e+09 -3.753926e+09 -3.913926e+09 -1.733480e+02 -1.674938e+01 -1.077235e+01
-2.740537e+09 -2.540536e+09 -2.700536e+09 -1.603912e+02 -5.799698e+00 -1.253967e+01
-3.608322e+09 -3.408322e+09 -3.568322e+09 -1.737151e+02 -9.265243e+00 -2.640078e+01
-2.779787e+09 -2.579791e+09 -2.739787e+09 6.882125e+02 7.390105e+01 3.013287e+01
-3.276271e+09 -3.076274e+09 -3.236270e+09 8.126645e+02 1.259935e+02 -2.022137e+01
-3.961459e+09 -3.761452e+09 -3.921460e+09 -2.768096e+02 1.766041e+03 -2.626904e+03
-3.483733e+09 -3.283737e+09 -3.443733e+09 1.033954e+03 1.035217e+02 -3.584163e+01
-3.261584e+09 -3.061589e+09 -3.221584e+09 8.334314e+02 5.722538e+01 1.999562e+01
-4.301947e+09 -4.101944e+09 -4.261949e+09 -1.034523e+03 -7.995489e+02 8.845375e+02
-2.027838e+09 -1.827841e+09 -1.987837e+09 3.782425e+01 1.870494e+01 1.187743e+01
-2.285795e+09 -2.085797e+09 -2.245793e+09 1.560681e+02 -4.968029e+01 -6.583234e+00
-1.972316e+09 -1.772319e+09 -1.932315e+09 9.119739e+01 1.306702e+01 1.601434e+01
-2.511335e+09 -2.311338e+09 -2.471334e+09 1.516856e+02 -1.388769e+01 1.457686e+01
-2.064162e+09 -1.864165e+09 -2.024161e+09 1.190343e+02 7.248318e+00 6.525127e+00
-3.029691e+09 -2.829683e+09 -2.989689e+09 7.402761e+02 6.342853e+02 -1.524857e+03
-3.747114e+09 -3.547110e+09 -3.707115e+09 -1.485665e+03 2.786171e+02 -4.873461e+02
-3.366569e+09 -3.166565e+09 -3.326569e+09 -1.638220e+03 2.424129e+02 -3.030357e+02
-3.678057e+09 -3.478052e+09 -3.638057e+09 -1.095477e+02 5.583298e+02 -8.346191e+02
-3.247707e+09 -3.047699e+09 -3.207706e+09 2.054423e+01 1.256492e+03 -1.665516e+03
-3.138711e+09 -2.938707e+09 -3.098711e+09 -1.432015e+03 4.810976e+01 -3.939988e+02
-3.102267e+09 -2.902263e+09 -3.062267e+09 -6.455065e+01 6.622770e+02 -7.830388e+02
-4.304842e+09 -4.104844e+09 -4.264844e+09 -3.235454e+01 1.189105e-01 -5.773994e+01
-3.267589e+09 -3.067588e+09 -3.227588e+09 4.260944e+01 3.382563e+00 -2.496543e+00
-3.072480e+09 -2.872478e+09 -3.032479e+09 2.788173e+01 1.111122e+00 1.453481e+01
-2.978835e+09 -2.778833e+09 -2.938834e+09 1.656191e+01 -5.763639e-01 -5.951797e+00
-2.642378e+09 -2.442376e+09 -2.602377e+09 1.135638e+01 4.920306e+00 -3.219739e+00
-2.535188e+09 -2.335186e+09 -2.495187e+09 3.883895e+01 1.944755e+00 -4.492883e+00
-2.783185e+09 -2.583184e+09 -2.743184e+09 2.323346e+01 4.968141e+00 -5.265537e+00
-3.517944e+09 -3.317942e+09 -3.477943e+09 2.836190e+01 3.076195e+00 1.044746e+00
-2.547953e+09 -2.347951e+09 -2.507952e+09 9.822333e+00 -4.542484e+00 -1.979960e+01
-2.243051e+09 -2.043050e+09 -2.203050e+09 1.689379e+01 5.234120e+00 -8.348391e+00
-2.087466e+09 -1.887465e+09 -2.047465e+09 7.119372e+00 1.012795e+01 -1.630901e+01
-1.808902e+09 -1.608901e+09 -1.768901e+09 5.837772e+01 8.188639e+00 -2.361188e-01
-2.433989e+09 -2.233988e+09 -2.393988e+09 4.014064e+00 2.963815e+00 -2.856677e+01
-2.155074e+09 -1.955073e+09 -2.115073e+09 1.170066e+01 3.398062e+00 -1.751521e+01
-2.302790e+09 -2.102800e+09 -2.262799e+09 -4.325462e+01 -1.092807e+02 1.344431e+03
-2.830326e+09 -2.630336e+09 -2.790334e+09 4.945579e+02 -2.216676e+02 1.055073e+03
-2.489343e+09 -2.289354e+09 -2.449350e+09 -2.551533e+02 3.527367e+02 3.988390e+03
-3.397419e+09 -3.197429e+09 -3.357426e+09 -7.894401e+02 -1.959961e+02 1.186255e+03
-2.444056e+09 -2.244056e+09 -2.404059e+09 -1.337598e+03 1.365088e+01 7.514033e+01
-2.241321e+09 -2.041321e+09 -2.201323e+09 -9.265936e+02 2.025967e+02 -1.653224e+02
-3.079782e+09 -2.879780e+09 -3.039783e+09 -1.766975e+03 -6.482845e+01 -3.499475e+02
-2.461245e+09 -2.261241e+09 -2.421245e+09 -7.507115e+02 2.758328e+02 -9.272082e+02
-2.631370e+09 -2.431371e+09 -2.591373e+09 -5.209881e+02 4.915376e+02 -6.226216e+02
-3.199040e+09 -2.999040e+09 -3.159042e+09 -1.926538e+03 -4.812536e+02 4.688092e+02
-4.936109e+09 -4.736108e+09 -4.896108e+09 6.498637e-01 -2.665359e+00 3.143416e+00
-4.818394e+09 -4.618396e+09 -4.778395e+09 -5.314481e+02 -1.431731e+01 6.711610e+01
-4.562158e+09 -4.362157e+09 -4.522157e+09 3.063870e+01 4.592557e+00 -5.836579e+00
-3.670259e+09 -3.470258e+09 -3.630258e+09 7.070302e+00 3.694538e+00 -1.607376e+01
-3.300759e+09 -3.100758e+09 -3.260758e+09 3.953449e+00 -3.205141e+00 8.908584e+00
-3.859257e+09 -3.659255e+09 -3.819255e+09 2.251713e+01 7.065816e+00 -1.583004e+01
-3.867824e+09 -3.667823e+09 -3.827823e+09 1.433394e+01 -9.100560e-01 -8.521361e+00
-4.818258e+09 -4.618260e+09 -4.778260e+09 -3.305835e+02 4.665436e+00 2.777059e+01
-4.153344e+09 -3.953343e+09 -4.113343e+09 3.022782e+01 1.300798e+00 -4.243496e+00
-4.530089e+09 -4.330090e+09 -4.490091e+09 -1.119923e+03 1.416208e+02 -1.648913e+02
-4.460395e+09 -4.260398e+09 -4.420399e+09 -1.516613e+02 -3.143921e+01 -2.448372e+01
-4.110596e+09 -3.910597e+09 -4.070600e+09 -9.933911e+02 2.630251e+02 -5.153729e+01
-3.525052e+09 -3.325051e+09 -3.485053e+09 2.448541e+02 4.130457e+02 -1.342800e+03
-3.757982e+09 -3.557981e+09 -3.717983e+09 -7.727230e+02 3.886455e+01 6.431060e+02
-3.307678e+09 -3.107680e+09 -3.267682e+09 -1.302292e+03 -2.735570e+02 2.371635e+02
-4.645180e+09 -4.445177e+09 -4.605182e+09 -1.033629e+03 -3.587435e+02 6.122729e+02
-3.757762e+09 -3.557765e+09 -3.717765e+09 -5.923113e+02 7.474474e+01 4.869537e+02
-4.817427e+09 -4.617429e+09 -4.777426e+09 4.303096e+02 7.037985e+01 -5.489888e+01
-4.645568e+09 -4.445570e+09 -4.605567e+09 4.876858e+02 -1.830139e+01 -3.938182e+01
-4.245005e+09 -4.045007e+09 -4.205004e+09 4.882844e+02 2.068260e+01 1.927166e+01
-4.262658e+09 -4.062654e+09 -4.222658e+09 -1.408328e+03 2.315976e+02 -3.295947e+02
-4.073398e+09 -3.873395e+09 -4.033399e+09 -1.507342e+03 1.817097e+02 -2.005735e+02
-4.458805e+09 -4.258801e+09 -4.418805e+09 -1.545461e+03 2.515876e+02 -1.987337e+02
-4.034689e+09 -3.834689e+09 -3.994691e+09 -2.843793e+03 -5.946346e+01 -4.242812e+02
-4.802038e+09 -4.602034e+09 -4.762038e+09 -1.646189e+03 1.840572e+02 -3.366628e+02
-2.813094e+09 -2.613103e+09 -2.773102e+09 1.084643e+03 3.877870e+02 1.077826e+03
-2.227181e+09 -2.027190e+09 -2.187189e+09 1.723468e+03 6.517413e+02 1.820117e+03
-1.916812e+09 -1.716818e+09 -1.876819e+09 2.317847e+03 7.126183e+02 7.657906e+02
-2.083803e+09 -1.883808e+09 -2.043808e+09 1.028716e+03 -4.890491e+01 1.850280e+02
-2.087561e+09 -1.887570e+09 -2.047568e+09 6.833345e+02 3.257689e+02 6.027993e+02
-2.070346e+09 -1.870344e+09 -2.030345e+09 -3.836361e+01 -7.341029e+00 -1.905979e+01
-2.553803e+09 -2.353801e+09 -2.513802e+09 -9.844566e+00 3.830820e-01 -5.215529e+00
-2.907083e+09 -2.707082e+09 -2.867083e+09 -6.032907e+01 3.955370e+00 1.251796e+00
-3.097180e+09 -2.897179e+09 -3.057180e+09 -3.963058e+01 3.608143e+00 -1.723494e+01
-2.346334e+09 -2.146333e+09 -2.306334e+09 -3.179929e+01 -1.094741e+01 8.875682e+00
-2.722689e+09 -2.522688e+09 -2.682688e+09 -4.790115e+01 -6.772247e+00 -1.560778e+01
-2.390011e+09 -2.190010e+09 -2.350010e+09 -8.043807e+01 -1.063735e+01 1.029009e+01
-3.886888e+09 -3.686888e+09 -3.846888e+09 -1.882690e+02 -1.145084e+01 1.159840e+00
-2.704037e+09 -2.504037e+09 -2.664037e+09 -2.127204e+02 -1.558729e+01 1.782085e+01
-2.937926e+09 -2.737926e+09 -2.897926e+09 -1.397954e+02 -8.174190e+00 4.153620e-01
-4.108700e+09 -3.908699e+09 -4.068700e+09 -2.240227e+02 -1.137647e+01 1.722111e+01
-4.105136e+09 -3.905136e+09 -4.065136e+09 -2.761134e+02 -1.851556e+01 -1.430333e+01
-3.535726e+09 -3.335725e+09 -3.495726e+09 -2.698397e+02 -1.472564e+01 3.164699e+01
-3.095072e+09 -2.895071e+09 -3.055071e+09 -2.548595e+02 -2.186599e+01 -2.639145e+01
-3.775600e+09 -3.575600e+09 -3.735600e+09 -1.247510e+02 -2.540998e+01 2.189765e+00
-1.736511e+09 -1.536516e+09 -1.696517e+09 2.358695e+03 4.976644e+02 9.123762e+02
-4.123731e+09 -3.923731e+09 -4.083731e+09 -1.311380e+02 7.232352e+00 1.634226e+01
-3.890552e+09 -3.690552e+09 -3.850552e+09 -1.212475e+02 -8.038455e+00 2.200803e+01
-4.818482e+09 -4.618487e+09 -4.778482e+09 8.953356e+02 1.158201e+02 5.283814e+01
-1.578334e+09 -1.378333e+09 -1.538332e+09 -1.874375e+02 -1.543881e+02 -1.136417e+01
-4.476515e+09 -4.276520e+09 -4.436515e+09 1.110433e+03 8.052010e+01 -6.406925e+00
-4.472856e+09 -4.272844e+09 -4.432874e+09 1.792392e+03 2.153887e+03 8.668960e+02
-3.958884e+09 -3.758881e+09 -3.918898e+09 -3.583083e+03 4.584393e+03 2.686255e+03
-4.643145e+09 -4.443131e+09 -4.603153e+09 -8.554220e+01 -1.978860e+03 -1.468100e+03
-4.300856e+09 -4.100844e+09 -4.260864e+09 2.536129e+03 -3.316567e+03 -1.237035e+02
-4.643150e+09 -4.443138e+09 -4.603153e+09 1.589219e+03 -1.073507e+03 1.914522e+03
-4.817769e+09 -4.617754e+09 -4.777774e+09 1.329231e+03 -1.335527e+03 -8.507397e+02
-4.132517e+09 -3.932521e+09 -4.092522e+09 1.708769e+03 -1.984914e+03 1.067960e+03
-4.475749e+09 -4.275752e+09 -4.435754e+09 1.133710e+03 -1.363048e+03 7.396750e+02
-4.648951e+09 -4.448956e+09 -4.608955e+09 9.237819e+02 -7.264904e+02 1.224338e+02
-2.524073e+09 -2.324077e+09 -2.484078e+09 2.840351e+03 2.922532e+02 5.930343e+02
-2.481412e+09 -2.281411e+09 -2.441414e+09 1.561577e+03 -7.485619e+01 -3.314736e+02
-4.491056e+09 -4.291054e+09 -4.451054e+09 1.390734e+02 7.782391e+00 -1.749269e+01
-2.547794e+09 -2.347791e+09 -2.507796e+09 1.641238e+03 -6.598872e+02 -1.246577e+03
-1.885975e+09 -1.685977e+09 -1.845979e+09 1.159290e+03 -1.773576e+02 -1.773842e+02
-1.921851e+09 -1.721855e+09 -1.881857e+09 2.250685e+03 5.084926e+01 3.439698e+02
-2.266168e+09 -2.066170e+09 -2.226172e+09 1.070523e+03 -4.576974e+02 -4.789550e+02
-4.132687e+09 -3.932686e+09 -4.092686e+09 -3.416659e+01 -1.692358e+02 6.026765e+01
-4.303196e+09 -4.103194e+09 -4.263195e+09 -9.808959e+01 -1.200719e+02 5.672015e+01
-4.303855e+09 -4.103853e+09 -4.263854e+09 -2.447728e+02 -5.055328e+01 2.746919e+01
-2.954223e+09 -2.754221e+09 -2.914222e+09 5.604740e+01 1.104151e+01 -2.931018e+01
-2.450315e+09 -2.250314e+09 -2.410314e+09 5.337085e+01 7.617398e+00 -2.057637e+01
-2.508849e+09 -2.308848e+09 -2.468848e+09 6.006409e+01 1.458414e+01 -3.120651e+01
-2.097336e+09 -1.897335e+09 -2.057335e+09 2.520144e+01 -5.748120e+00 -1.719828e+01
-1.956549e+09 -1.756548e+09 -1.916548e+09 6.221032e+01 2.960197e+00 -6.432177e+00
-1.777504e+09 -1.577503e+09 -1.737503e+09 5.065416e+01 2.605836e+00 -4.298510e+01
-1.764137e+09 -1.564135e+09 -1.724136e+09 5.454930e+01 2.319233e+00 -1.939026e+01
-4.320267e+09 -4.120268e+09 -4.280266e+09 1.095272e+03 1.495822e+02 -2.209526e+01
-4.830576e+09 -4.630577e+09 -4.790575e+09 1.465162e+03 1.354049e+02 -1.241041e+02
-4.661931e+09 -4.461931e+09 -4.621930e+09 1.079359e+03 -1.838313e+02 -3.542273e+01
-4.831814e+09 -4.631814e+09 -4.791812e+09 9.453888e+02 6.957201e+01 -1.078322e+02
-1.750631e+09 -1.550633e+09 -1.710630e+09 -1.214106e+03 -5.801512e+02 -2.599808e+02
-1.958910e+09 -1.758912e+09 -1.918909e+09 -1.394692e+03 -8.578983e+02 -1.131738e+02
-2.106861e+09 -1.906866e+09 -2.066861e+09 -1.307435e+03 -5.843754e+02 -1.477628e+02
-4.991162e+09 -4.791164e+09 -4.951162e+09 -1.191713e+03 -1.377730e+01 3.045964e+01
-2.627540e+09 -2.427542e+09 -2.587539e+09 -7.084902e+02 -4.429611e+02 -7.093701e+01
-2.524340e+09 -2.324343e+09 -2.484341e+09 -1.565443e+03 -9.305380e+02 -3.318478e+02
-3.015746e+09 -2.815748e+09 -2.975748e+09 -7.150722e+01 -7.724559e+00 1.101871e+00
-2.683784e+09 -2.483786e+09 -2.643785e+09 -2.749787e+01 -1.668649e+01 1.801804e+01
-2.632071e+09 -2.432072e+09 -2.592072e+09 -5.392226e+01 -2.864803e+01 3.264367e+00
-2.790848e+09 -2.590849e+09 -2.750849e+09 -4.389578e+01 -1.583489e+01 -1.601782e+01
-1.880316e+09 -1.680318e+09 -1.840317e+09 -4.883920e+01 -1.010322e+01 2.146852e+01
-1.630181e+09 -1.430183e+09 -1.590182e+09 -6.073202e+01 -1.930458e+01 8.361908e+00
-2.977525e+09 -2.777526e+09 -2.937526e+09 -1.010642e+02 -1.041505e+01 1.858705e+01
-3.547673e+09 -3.347675e+09 -3.507674e+09 -3.737790e+01 1.625885e+01 -4.603674e+00
-4.645507e+09 -4.445507e+09 -4.605506e+09 -7.631732e+02 9.181274e+01 -4.986338e+01
-3.834827e+09 -3.634828e+09 -3.794828e+09 -8.749763e+01 -2.026649e+00 1.196552e+01
-2.759510e+09 -2.559512e+09 -2.719511e+09 -7.392208e+01 -4.980116e+00 3.233592e+01
-4.818840e+09 -4.618841e+09 -4.778841e+09 5.623476e+02 -1.773314e+01 -1.169920e+01
-4.818614e+09 -4.618614e+09 -4.778614e+09 7.140431e+02 -2.160051e+01 -3.452456e+01
-4.646035e+09 -4.446035e+09 -4.606035e+09 6.167001e+02 2.612441e+01 6.545353e+01
-4.303014e+09 -4.103014e+09 -4.263014e+09 6.092936e+02 -2.468273e+00 -1.061241e+01
-4.820071e+09 -4.620072e+09 -4.780072e+09 3.659115e+02 2.130847e+01 3.073738e+01
-3.727705e+09 -3.527705e+09 -3.687705e+09 1.231260e+02 6.232450e+00 1.336928e+01
-4.990755e+09 -4.790740e+09 -4.950759e+09 -1.212918e+03 1.742434e+03 -6.855058e+02
-3.396766e+09 -3.196766e+09 -3.356766e+09 1.376319e+02 2.415573e+01 2.749148e+01
-3.788691e+09 -3.588691e+09 -3.748691e+09 1.327091e+02 9.909549e+00 -7.052897e+00
-3.298531e+09 -3.098531e+09 -3.258531e+09 1.004324e+02 2.586938e+01 -1.301173e+01
-1.582813e+09 -1.382808e+09 -1.542812e+09 -1.213715e+03 -1.888617e+03 -1.880313e+03
-4.648356e+09 -4.448363e+09 -4.608360e+09 -6.520887e+02 5.588081e+02 -2.966910e+01
-4.646702e+09 -4.446708e+09 -4.606704e+09 -1.228962e+03 2.936575e+02 -2.167626e+01
-4.645954e+09 -4.445960e+09 -4.605956e+09 -7.351863e+02 3.714973e+02 -2.600091e+01
-4.646722e+09 -4.446729e+09 -4.606725e+09 -6.046750e+02 4.342744e+02 -2.920640e+01
-4.818678e+09 -4.618684e+09 -4.778680e+09 -6.837419e+02 3.674959e+02 5.660054e+01
-4.132532e+09 -3.932531e+09 -4.092530e+09 -3.281800e+02 -3.697184e+01 -5.696631e+01
-4.818997e+09 -4.618996e+09 -4.778996e+09 -3.669253e+02 1.130147e+00 -1.143051e+01
-4.820385e+09 -4.620384e+09 -4.780384e+09 -2.256430e+02 -2.562235e+01 -1.690370e+00
-4.820172e+09 -4.620172e+09 -4.780171e+09 -1.961684e+02 -8.233626e-01 -1.066676e+01
-4.132874e+09 -3.932879e+09 -4.092878e+09 -2.520320e+03 1.234747e+03 3.829793e+02
-4.819494e+09 -4.619500e+09 -4.779498e+09 -1.795067e+03 1.754329e+02 -2.560194e+02
-4.303292e+09 -4.103296e+09 -4.263295e+09 -2.351704e+03 8.872618e+02 4.333008e+02
-4.646681e+09 -4.446685e+09 -4.606684e+09 -2.641733e+03 5.071064e+02 9.768872e+01
-4.646982e+09 -4.446988e+09 -4.606985e+09 -1.975192e+03 3.705899e+02 -3.423387e+01
-4.660249e+09 -4.460251e+09 -4.620248e+09 7.787427e+02 -8.604026e+01 -3.577388e+01
-4.060337e+09 -3.860339e+09 -4.020336e+09 6.832515e+02 3.801433e+01 6.226147e+01
-4.829401e+09 -4.629403e+09 -4.789400e+09 1.110329e+03 1.073652e+02 -7.864539e+01
-4.830456e+09 -4.630458e+09 -4.790455e+09 6.805300e+02 7.260269e+01 -8.545096e+01
-4.657602e+09 -4.457604e+09 -4.617601e+09 1.011983e+03 -2.416172e+01 -4.825014e+01
-4.122228e+09 -3.922238e+09 -4.082223e+09 -4.099010e+03 -3.721992e+03 5.753494e+03
-4.807967e+09 -4.607978e+09 -4.767967e+09 -1.273540e+03 -1.968005e+02 1.952394e+03
-4.571691e+09 -4.371698e+09 -4.531690e+09 -3.188185e+03 -7.902222e+02 1.227413e+03
-4.632413e+09 -4.432420e+09 -4.592413e+09 -3.669973e+03 -4.570651e+02 2.025345e+03
-3.967410e+09 -3.767420e+09 -3.927412e+09 -2.707166e+03 3.405550e+02 2.495837e+03
-3.495559e+09 -3.295555e+09 -3.455559e+09 -9.116733e+02 -1.636354e+03 -1.440485e+03
-2.788751e+09 -2.588746e+09 -2.748749e+09 -6.073535e+02 -1.239456e+03 -7.555380e+02
-2.677904e+09 -2.477898e+09 -2.637903e+09 -9.700078e+02 -1.102920e+03 -1.754030e+03
-2.484982e+09 -2.284978e+09 -2.444981e+09 -3.333918e+02 -1.105425e+03 -5.250361e+02
-2.960549e+09 -2.760545e+09 -2.920550e+09 -3.756494e+02 -1.459154e+03 -1.354885e+03
-4.069163e+09 -3.869165e+09 -4.029163e+09 -5.199401e+02 4.867434e+01 3.869994e+00
-4.800829e+09 -4.600831e+09 -4.760828e+09 -3.788297e+02 1.169274e+02 -2.384414e-02
-4.261531e+09 -4.061532e+09 -4.221531e+09 -4.943029e+02 -9.114693e+00 -2.786419e+01
-4.088233e+09 -3.888235e+09 -4.048233e+09 -6.846148e+02 -1.335148e+02 -1.284093e+02
-3.891802e+09 -3.691803e+09 -3.851801e+09 -5.734133e+02 4.891784e+01 -9.088805e+01
-4.801422e+09 -4.601423e+09 -4.761422e+09 -5.526672e+02 -6.730062e+01 -6.466396e+01
-4.820405e+09 -4.620405e+09 -4.780404e+09 -4.057154e+02 -1.534683e+01 3.797931e+00
-4.132541e+09 -3.932541e+09 -4.092540e+09 -4.124978e+02 6.604539e+01 -1.302213e+01
-4.303630e+09 -4.103629e+09 -4.263629e+09 -3.258167e+02 -2.292081e+01 -2.507997e+01
-4.132870e+09 -3.932868e+09 -4.092870e+09 -1.715584e+03 -1.562568e+02 3.688155e+02
-4.819493e+09 -4.619492e+09 -4.779493e+09 -1.405614e+03 -1.749134e+00 -3.996418e+01
-4.649617e+09 -4.449616e+09 -4.609617e+09 -1.516438e+03 -7.871256e+01 6.752399e+01
-4.305097e+09 -4.105096e+09 -4.265097e+09 -1.467545e+03 -1.122983e+02 3.778256e+01
-4.648421e+09 -4.448420e+09 -4.608421e+09 -1.808877e+03 -1.032433e+02 1.517491e+02
-4.132647e+09 -3.932641e+09 -4.092649e+09 2.503416e+03 9.657936e+02 -9.048414e+02
-4.475881e+09 -4.275875e+09 -4.435882e+09 2.130617e+03 5.783085e+02 -1.189096e+03
-4.305977e+09 -4.105972e+09 -4.265978e+09 1.842843e+03 8.517794e+02 -8.150095e+02
-4.797912e+09 -4.597914e+09 -4.757913e+09 8.354807e+01 -3.912359e+00 1.995053e+01
-4.074000e+09 -3.874001e+09 -4.034001e+09 1.481408e+02 8.336856e+00 3.749782e+01
-4.458375e+09 -4.258376e+09 -4.418376e+09 2.232117e+02 6.396973e+00 1.916977e+00
-4.246676e+09 -4.046678e+09 -4.206677e+09 1.670591e+02 1.072549e+00 -1.829345e+01
-4.801607e+09 -4.601609e+09 -4.761609e+09 2.038279e+02 1.841369e+00 4.993374e+01
-2.711232e+09 -2.511233e+09 -2.671233e+09 -2.701627e+02 -1.172648e+00 3.074500e+01
-4.767424e+09 -4.567424e+09 -4.727424e+09 6.248701e+01 5.675080e+00 -3.298198e+01
-3.322805e+09 -3.122806e+09 -3.282806e+09 -2.703491e+02 -2.566146e+01 2.297455e+01
-3.084552e+09 -2.884553e+09 -3.044553e+09 -3.335395e+02 -2.131639e+01 1.239441e+01
-4.078468e+09 -3.878470e+09 -4.038470e+09 -3.508151e+02 -3.181938e+01 2.665362e+01
-3.321049e+09 -3.121050e+09 -3.281050e+09 -3.336537e+02 -3.319446e+01 4.787322e+01
-3.905513e+09 -3.705514e+09 -3.865514e+09 -3.062967e+02 -9.915368e+00 3.757531e+00
-2.349246e+09 -2.149250e+09 -2.309251e+09 1.115956e+03 -1.464101e+02 2.961024e+02
-2.238793e+09 -2.038797e+09 -2.198798e+09 2.198972e+03 5.639979e+02 3.537579e+02
-4.301822e+09 -4.101807e+09 -4.261820e+09 -2.402306e+03 -2.179773e+03 -2.827849e+03
-3.045884e+09 -2.845888e+09 -3.005888e+09 2.486258e+03 5.625709e+02 3.627232e+02
-3.867734e+09 -3.667735e+09 -3.827735e+09 1.957465e+02 2.794473e+01 7.656915e+00
-3.016708e+09 -2.816709e+09 -2.976709e+09 2.510553e+02 1.064992e+01 1.435994e+01
-2.656157e+09 -2.456158e+09 -2.616158e+09 8.164622e+01 3.034071e+01 1.130137e+01
-2.771322e+09 -2.571322e+09 -2.731322e+09 1.408945e+02 2.231719e+01 5.843194e+01
-2.930934e+09 -2.730935e+09 -2.890935e+09 4.685657e+01 1.834113e+01 -2.577614e+01
-4.028452e+09 -3.828452e+09 -3.988452e+09 8.071451e+01 3.415508e-01 1.420626e+01
-4.997103e+09 -4.797102e+09 -4.957102e+09 -1.583638e+02 1.056726e+01 3.210886e+00
-3.744882e+09 -3.544882e+09 -3.704882e+09 4.690084e+01 1.076044e+01 -2.127063e+01
-2.004196e+09 -1.804200e+09 -1.964201e+09 8.743472e+02 -2.072741e+01 1.853799e+02
-2.613850e+09 -2.413850e+09 -2.573853e+09 1.893200e+03 1.976248e+02 -2.930358e+01
-2.839992e+09 -2.639998e+09 -2.799998e+09 2.177234e+03 5.039888e+02 5.701859e+02
-2.425475e+09 -2.225481e+09 -2.385481e+09 -1.701895e+03 -1.633658e+02 5.150109e+02
-1.856821e+09 -1.656825e+09 -1.816826e+09 -1.487068e+03 -1.043094e+02 5.398724e+02
-2.234281e+09 -2.034287e+09 -2.194287e+09 -2.244191e+03 -7.921484e+02 1.337500e+03
-1.707874e+09 -1.507878e+09 -1.667879e+09 -1.643854e+03 -2.191196e+02 1.169150e+03
-1.883016e+09 -1.683016e+09 -1.843019e+09 -2.001007e+03 -2.797388e+02 8.196002e+01
-1.852706e+09 -1.652712e+09 -1.812713e+09 -2.283262e+03 -5.581481e+02 9.952591e+02
-3.064670e+09 -2.864670e+09 -3.024670e+09 3.198558e+02 4.582515e+01 -6.522093e+00
-1.711862e+09 -1.511872e+09 -1.671872e+09 -9.418291e+02 -3.675210e+02 1.651904e+03
-1.692972e+09 -1.492980e+09 -1.652980e+09 -2.253361e+03 -7.402228e+02 1.824920e+03
-2.378791e+09 -2.178800e+09 -2.338799e+09 -1.431358e+03 -3.434296e+02 1.423436e+03
-2.511784e+09 -2.311790e+09 -2.471789e+09 -1.021338e+03 -1.340750e+02 5.819218e+02
-1.867133e+09 -1.667143e+09 -1.827143e+09 -1.247316e+03 -8.476757e+02 1.406910e+03
-2.385663e+09 -2.185671e+09 -2.345671e+09 -2.499625e+03 -1.445639e+03 2.146285e+03
-2.404555e+09 -2.204564e+09 -2.364562e+09 -2.140620e+03 -2.841335e+02 2.037108e+03
-1.772989e+09 -1.572985e+09 -1.732987e+09 1.397129e+03 1.289122e+03 -6.395522e+02
-2.261072e+09 -2.061067e+09 -2.221070e+09 2.608274e+02 1.489007e+02 -2.101927e+02
-1.724273e+09 -1.524270e+09 -1.684273e+09 -3.941037e+02 7.791507e+02 -5.120830e+02
-1.761579e+09 -1.561573e+09 -1.721577e+09 5.131218e+02 1.019134e+03 -9.859260e+02
-3.087455e+09 -2.887456e+09 -3.047453e+09 8.682467e+02 3.061417e+02 6.318688e+01
-2.503216e+09 -2.303217e+09 -2.463214e+09 8.897170e+02 2.537403e+02 -6.003108e+01
-3.560641e+09 -3.360642e+09 -3.520639e+09 7.007808e+02 1.060875e+02 -7.179286e+01
-3.032707e+09 -2.832708e+09 -2.992706e+09 1.941462e+03 6.642988e+02 -3.577269e+02
-4.010520e+09 -3.810520e+09 -3.970518e+09 3.856096e+02 1.254615e+02 2.359192e+01
-4.178813e+09 -3.978813e+09 -4.138811e+09 7.009449e+02 2.061930e+02 -9.228218e+01
-3.890921e+09 -3.690921e+09 -3.850920e+09 6.526572e+02 1.890051e+02 2.186613e+01
-2.463536e+09 -2.263543e+09 -2.423543e+09 2.096507e+03 4.481904e+02 1.225018e+03
-2.784933e+09 -2.584941e+09 -2.744940e+09 1.029814e+03 8.743885e+01 4.766816e+02
-2.537031e+09 -2.337041e+09 -2.497039e+09 2.753120e+03 1.482203e+03 2.302555e+03
-2.842709e+09 -2.642716e+09 -2.802715e+09 1.668574e+03 3.968142e+02 7.774399e+02
-2.507253e+09 -2.307260e+09 -2.467261e+09 2.633930e+03 7.270189e+02 1.216802e+03
-3.261628e+09 -3.061639e+09 -3.221634e+09 1.796835e+03 7.431236e+02 2.907493e+03
-1.861002e+09 -1.661001e+09 -1.821001e+09 1.402721e+02 2.207361e+01 -1.217617e+01
-2.388585e+09 -2.188584e+09 -2.348585e+09 6.556979e+01 1.231219e+01 -3.982445e+01
-2.453776e+09 -2.253775e+09 -2.413775e+09 1.106285e+02 2.702184e+01 -7.435034e+00
-1.861344e+09 -1.661344e+09 -1.821344e+09 1.349683e+02 2.550488e+01 1.186789e+01
-4.302398e+09 -4.102389e+09 -4.262391e+09 -5.890710e+03 -2.343945e+03 3.393574e+02
-3.970043e+09 -3.770044e+09 -3.930044e+09 -1.029854e+03 -5.576758e+01 2.018621e+01
-2.528567e+09 -2.328566e+09 -2.488566e+09 1.275706e+02 -7.944729e-01 9.364259e+00
-3.996401e+09 -3.796402e+09 -3.956401e+09 7.433466e+02 -2.134482e+02 2.023337e+02
-4.626186e+09 -4.426187e+09 -4.586186e+09 3.295387e+02 -1.069455e+02 -2.304396e+01
-4.247405e+09 -4.047405e+09 -4.207405e+09 4.616822e+02 -1.765811e+02 5.959191e+01
-4.799125e+09 -4.599125e+09 -4.759124e+09 4.130518e+02 -1.095887e+01 -7.132030e+00
-4.800893e+09 -4.600894e+09 -4.760893e+09 3.949186e+02 6.201624e+01 -6.998089e+01
-4.821202e+09 -4.621213e+09 -4.781203e+09 1.962294e+03 2.207447e+02 2.929020e+03
-4.636888e+09 -4.436899e+09 -4.596880e+09 -2.623154e+02 -1.311145e+01 3.775274e+03
-4.304467e+09 -4.104479e+09 -4.264467e+09 1.167822e+03 2.233494e+02 2.875204e+03
-4.819866e+09 -4.619862e+09 -4.779868e+09 -5.148236e+02 -2.597629e+02 -7.818872e+01
-4.805688e+09 -4.605684e+09 -4.765689e+09 -9.424548e+02 -3.564968e+02 -2.128696e+02
-2.634357e+09 -2.434357e+09 -2.594357e+09 2.083207e+02 4.328675e+01 -5.566402e+00
-3.725091e+09 -3.525091e+09 -3.685091e+09 1.819190e+02 1.826250e+01 -2.917159e+01
-4.991216e+09 -4.791218e+09 -4.951218e+09 3.083825e+02 -2.478158e+01 -2.946494e+01
-3.137796e+09 -2.937796e+09 -3.097796e+09 1.912032e+02 2.411165e+01 1.783440e+01
-3.301936e+09 -3.101938e+09 -3.261937e+09 2.028271e+01 1.025239e+01 4.287614e+00
-2.739337e+09 -2.539337e+09 -2.699337e+09 3.140715e+02 3.950592e+01 3.602083e+01
-3.326506e+09 -3.126506e+09 -3.286506e+09 2.613404e+02 2.383767e+01 -2.877093e+01
-3.414253e+09 -3.214253e+09 -3.374253e+09 1.967924e+02 2.522089e+01 -2.363154e+01
-4.654449e+09 -4.454448e+09 -4.614448e+09 1.140422e+02 9.804054e+00 -2.137478e+01
-4.991190e+09 -4.791192e+09 -4.951192e+09 9.608001e+01 -6.616924e+00 -3.260447e+01
-3.988277e+09 -3.788276e+09 -3.948276e+09 4.738887e+01 -7.709390e-02 2.805434e+00
-4.826663e+09 -4.626663e+09 -4.786663e+09 1.136013e+02 2.004938e+00 -2.088431e+01
-4.818393e+09 -4.618392e+09 -4.778392e+09 6.598794e+01 1.331635e+00 -2.325181e+01
-4.825642e+09 -4.625641e+09 -4.785641e+09 8.130331e+01 3.221480e+00 2.289223e+01
-2.839394e+09 -2.639393e+09 -2.799394e+09 -1.276428e+02 -2.859358e+01 4.349314e+00
-4.010150e+09 -3.810149e+09 -3.970150e+09 -8.335403e+01 -1.186898e+01 1.477915e+01
-3.420110e+09 -3.220109e+09 -3.380110e+09 -1.424923e+02 5.796863e+00 -3.904395e+00
-2.771354e+09 -2.571354e+09 -2.731354e+09 -1.145311e+02 -5.469836e+00 6.273789e+00
-2.556955e+09 -2.356955e+09 -2.516955e+09 -1.540297e+02 -3.137129e+01 -1.800329e+01
-2.966022e+09 -2.766020e+09 -2.926021e+09 9.874309e+00 1.603485e+00 -4.625459e+00
-1.947987e+09 -1.747986e+09 -1.907986e+09 9.196828e+00 4.771282e+00 -3.823403e+00
-4.834608e+09 -4.634610e+09 -4.794609e+09 9.045697e+01 -8.398092e+00 1.941993e+01
-1.828122e+09 -1.628120e+09 -1.788121e+09 9.030828e+00 2.367056e+00 -6.989133e+00
-2.702802e+09 -2.502800e+09 -2.662801e+09 8.615267e+00 -1.965894e-01 -1.910983e+00
-2.069189e+09 -1.869187e+09 -2.029188e+09 2.682549e+01 -4.370727e-02 -2.573369e+00
-4.991177e+09 -4.791179e+09 -4.951178e+09 1.530934e+02 -1.016800e+01 -4.407343e+01
-2.811684e+09 -2.611686e+09 -2.771683e+09 1.707706e+02 -1.293874e+01 1.499483e+01
-2.752767e+09 -2.552769e+09 -2.712765e+09 8.924398e+01 1.014669e+00 1.503662e+01
-1.717961e+09 -1.517961e+09 -1.677961e+09 -1.223515e+02 -3.631964e+01 4.441354e-01
-2.103422e+09 -1.903424e+09 -2.063420e+09 2.118331e+02 -3.236785e+00 -3.292162e-01
-4.647726e+09 -4.447727e+09 -4.607728e+09 -1.472317e+03 -4.910265e+02 -3.300866e+01
-4.045575e+09 -3.845576e+09 -4.005576e+09 -1.415318e+03 -7.274318e+02 -2.402262e+02
-4.661913e+09 -4.461914e+09 -4.621913e+09 -9.305382e+02 -2.310575e+02 9.819918e+01
-4.039046e+09 -3.839047e+09 -3.999046e+09 -9.144139e+02 -3.450196e+02 -1.845775e+00
-4.254010e+09 -4.054011e+09 -4.214010e+09 -9.334348e+02 -3.370801e+02 -1.367982e+02
-4.053206e+09 -3.853205e+09 -4.013205e+09 4.109333e+01 5.151861e+00 3.868745e+00
-4.816659e+09 -4.616658e+09 -4.776658e+09 5.164788e+01 2.007127e+00 1.752155e+01
-4.197692e+09 -3.997691e+09 -4.157691e+09 3.110067e+01 -2.042441e+00 -2.935611e+00
-4.269157e+09 -4.069156e+09 -4.229156e+09 7.764662e+01 1.840093e+00 1.976118e+00
-4.596138e+09 -4.396138e+09 -4.556137e+09 -4.346526e+02 -1.015906e+02 -1.683017e+01
-4.778087e+09 -4.578088e+09 -4.738087e+09 -5.753160e+02 -7.206712e+01 -1.155125e+02
-4.129236e+09 -3.929236e+09 -4.089235e+09 -3.026133e+02 -1.763973e+02 -1.498799e+02
-3.670251e+09 -3.470252e+09 -3.630250e+09 -4.555680e+02 -2.208193e+02 -8.386949e+01
-3.302436e+09 -3.102437e+09 -3.262435e+09 -4.668755e+02 -2.672767e+02 -1.637549e+02
-3.869383e+09 -3.669385e+09 -3.829383e+09 -3.429769e+02 -2.911041e+02 -1.203651e+02
-3.864934e+09 -3.664934e+09 -3.824933e+09 -2.230302e+02 4.493835e+01 -3.105277e+01
-4.302291e+09 -4.102293e+09 -4.262293e+09 -3.812439e+01 -9.037362e-01 -3.875346e+01
-3.951235e+09 -3.751236e+09 -3.911235e+09 -5.205331e+02 -2.722272e+02 -8.483143e+01
-3.784534e+09 -3.584535e+09 -3.744534e+09 -7.747155e+02 -4.888112e+02 -1.109553e+02
-4.800199e+09 -4.600199e+09 -4.760199e+09 -8.576638e+02 -2.428855e+00 -1.329084e+01
-4.818845e+09 -4.618845e+09 -4.778845e+09 -6.763642e+02 2.264422e+01 -4.458315e+00
-4.132060e+09 -3.932060e+09 -4.092060e+09 -7.035628e+02 -2.268381e+01 -4.778585e+01
-4.640043e+09 -4.440038e+09 -4.600043e+09 -1.864261e+03 2.579409e+02 7.419554e+02
-4.296824e+09 -4.096818e+09 -4.256823e+09 -8.949592e+02 4.289901e+02 6.297297e+02
-4.642642e+09 -4.442639e+09 -4.602643e+09 -2.374178e+03 3.774709e+02 8.517747e+02
-1.576691e+09 -1.376690e+09 -1.536689e+09 -7.060952e+02 -5.121750e+02 -1.223522e+01
-4.473060e+09 -4.273057e+09 -4.433060e+09 -1.696096e+03 3.908982e+02 3.623072e+02
-4.128300e+09 -3.928295e+09 -4.088299e+09 -1.252716e+03 4.196193e+02 3.804613e+02
-4.132730e+09 -3.932728e+09 -4.092729e+09 2.035410e+02 4.694764e+01 -4.637401e+01
-4.820057e+09 -4.620056e+09 -4.780056e+09 1.072069e+02 -4.939010e+01 -7.623021e+01
-4.304498e+09 -4.104496e+09 -4.264497e+09 5.235524e+01 6.416465e+01 1.540801e+01
-4.646936e+09 -4.446934e+09 -4.606935e+09 9.386422e+01 1.071286e+02 3.698252e+01
-2.806748e+09 -2.606745e+09 -2.766745e+09 1.288105e+03 6.802216e+02 -1.817983e+02
-3.121182e+09 -2.921180e+09 -3.081181e+09 1.468360e+03 8.371354e+02 -8.580457e+01
-4.189974e+09 -3.989973e+09 -4.149973e+09 4.797801e+01 2.331734e+01 -2.003820e+00
-3.497853e+09 -3.297851e+09 -3.457852e+09 2.257900e+03 1.157445e+03 -5.795668e+02
-2.425283e+09 -2.225280e+09 -2.385280e+09 1.231587e+03 6.206562e+02 -1.944479e+02
-2.477233e+09 -2.277230e+09 -2.437231e+09 2.694358e+03 9.763951e+02 -6.708344e+02
-4.643186e+09 -4.443171e+09 -4.603194e+09 1.874847e+03 -2.101772e+03 -5.097064e+02
-4.078838e+09 -3.878837e+09 -4.038837e+09 8.933127e+01 1.347042e+01 -1.793149e+01
-4.639859e+09 -4.439857e+09 -4.599858e+09 9.584940e+01 8.533081e+00 -1.081575e+01
-4.102483e+09 -3.902482e+09 -4.062482e+09 5.200644e+01 1.060098e+01 -1.806250e+01
-4.269305e+09 -4.069304e+09 -4.229304e+09 4.396825e+01 4.519741e+00 -5.689894e+00
-4.285704e+09 -4.085703e+09 -4.245703e+09 7.373995e+01 5.926928e+00 -2.878472e+01
-4.819169e+09 -4.619175e+09 -4.779170e+09 -7.399721e+02 1.690270e+02 5.057289e+01
-4.820459e+09 -4.620466e+09 -4.780460e+09 -3.510493e+02 1.583297e+02 1.964658e+01
-4.814103e+09 -4.614105e+09 -4.774086e+09 -1.676860e+01 -7.124138e+02 -1.262275e+03
-4.606746e+09 -4.406747e+09 -4.566747e+09 6.293990e+01 1.565464e+01 7.511058e+00
-4.648825e+09 -4.448831e+09 -4.608826e+09 -3.097651e+02 1.662056e+02 -6.092280e+01
-3.018620e+09 -2.818624e+09 -2.978621e+09 -1.318410e+03 -9.393713e+02 -3.696207e+02
-4.475364e+09 -4.275357e+09 -4.435356e+09 3.469826e+03 -2.090401e+03 -4.894590e+02
-2.731115e+09 -2.531116e+09 -2.691115e+09 -1.102052e+02 -1.820138e+01 -9.583703e+00
-3.233778e+09 -3.033777e+09 -3.193777e+09 -1.021802e+03 -7.951289e+02 -2.336671e+02
-2.551773e+09 -2.351775e+09 -2.511772e+09 -8.108309e+02 -4.921266e+02 -1.896934e+02
-2.457174e+09 -2.257177e+09 -2.417174e+09 -1.165530e+03 -1.095845e+03 -2.941523e+02
-2.334645e+09 -2.134647e+09 -2.294645e+09 -1.404260e+03 -1.126642e+03 -2.329544e+02
-3.237978e+09 -3.037981e+09 -3.197979e+09 -1.396600e+03 -1.330518e+03 -4.377472e+02
-4.242871e+09 -4.042870e+09 -4.202871e+09 -1.498348e+02 4.834558e+00 -2.602143e+00
-4.286034e+09 -4.086033e+09 -4.246034e+09 -2.143533e+02 -1.000987e+01 -5.562801e+01
-4.239045e+09 -4.039044e+09 -4.199045e+09 -1.778638e+02 5.816026e+00 -5.717323e+00
-2.495830e+09 -2.295830e+09 -2.455830e+09 -6.868080e+01 -4.145086e+01 -1.030187e+01
-1.857851e+09 -1.657851e+09 -1.817851e+09 -7.253634e+01 -2.396834e+01 -3.257574e+01
-1.808892e+09 -1.608892e+09 -1.768892e+09 -2.117987e+02 -2.719666e+01 2.982445e+01
-3.147429e+09 -2.947429e+09 -3.107429e+09 -1.384120e+02 -7.681772e+00 1.701490e+01
-2.944181e+09 -2.744181e+09 -2.904181e+09 -6.594820e+01 -9.937290e+00 -2.604337e+01
-2.187398e+09 -1.987398e+09 -2.147398e+09 -1.027220e+02 -1.208084e+01 -9.716100e+00
-4.769758e+09 -4.569757e+09 -4.729756e+09 -5.893579e+00 -3.303615e+01 -1.031325e+01
-3.016416e+09 -2.816419e+09 -2.976416e+09 5.960179e+02 6.629253e+01 2.021272e+01
-1.878214e+09 -1.678217e+09 -1.838213e+09 5.984062e+02 4.602597e+01 -3.974405e+00
-2.585897e+09 -2.385900e+09 -2.545896e+09 8.811549e+02 1.068686e+02 2.806408e+01
-1.573444e+09 -1.373448e+09 -1.533443e+09 7.631892e+02 3.392223e+01 3.858477e+01
-2.192702e+09 -1.992705e+09 -2.152701e+09 8.444940e+02 5.166378e+01 3.265508e+01
-2.246897e+09 -2.046899e+09 -2.206896e+09 6.328961e+02 4.280382e+01 1.771857e+01
-4.991182e+09 -4.791171e+09 -4.951178e+09 -4.124045e+03 4.655913e+02 -4.652493e+02
-2.967627e+09 -2.767626e+09 -2.927627e+09 -2.078102e+02 -3.115461e+01 -5.175611e+00
-2.875539e+09 -2.675538e+09 -2.835539e+09 -2.253063e+02 -3.160359e+01 -6.959178e+00
-1.969809e+09 -1.769808e+09 -1.929808e+09 -2.727583e+02 -3.255865e+01 -3.024082e+00
-2.114863e+09 -1.914862e+09 -2.074863e+09 -1.151054e+02 -1.011621e+01 -1.512095e+01
-2.951339e+09 -2.751338e+09 -2.911338e+09 -1.450605e+02 -1.801077e+01 -3.234274e+00
-3.466661e+09 -3.266660e+09 -3.426661e+09 -1.932967e+02 6.003202e+00 -3.394333e+01
-2.101968e+09 -1.901967e+09 -2.061967e+09 -1.662514e+02 -1.507275e+01 -2.191799e+01
-1.669543e+09 -1.469542e+09 -1.629543e+09 -2.084509e+02 -2.468878e+01 -1.734120e+01
-3.281643e+09 -3.081642e+09 -3.241643e+09 -1.536914e+02 -2.450805e+01 1.313306e+01
-2.428868e+09 -2.228867e+09 -2.388868e+09 -1.239578e+02 -1.495633e+01 -4.847599e+01
-2.089873e+09 -1.889872e+09 -2.049873e+09 -2.178358e+02 -1.784962e+01 -2.434681e+01
-2.933369e+09 -2.733368e+09 -2.893368e+09 7.000393e+01 1.886445e+01 -6.839123e+00
-2.902963e+09 -2.702962e+09 -2.862962e+09 8.052630e+01 1.683509e+01 -1.588624e+01
-2.888093e+09 -2.688092e+09 -2.848092e+09 5.608133e+01 6.569220e+00 -5.613679e+00
-2.062427e+09 -1.862426e+09 -2.022426e+09 5.480854e+01 7.598647e+00 -5.363405e+00
-1.815437e+09 -1.615435e+09 -1.775436e+09 4.660902e+01 9.069399e+00 -8.107939e+00
-1.641940e+09 -1.441939e+09 -1.601939e+09 7.347786e+01 2.131860e+01 -1.094112e+01
-1.942269e+09 -1.742268e+09 -1.902268e+09 7.567280e+01 1.825267e+01 -9.367228e+00
-2.505769e+09 -2.305768e+09 -2.465768e+09 1.018217e+02 1.757281e+01 1.522763e+01
-4.818364e+09 -4.618353e+09 -4.778358e+09 -4.495316e+03 -1.670396e+03 8.646670e+02
-2.395834e+09 -2.195833e+09 -2.355833e+09 5.529333e+01 9.641287e+00 -1.826434e+01
-3.445768e+09 -3.245767e+09 -3.405767e+09 1.644807e+01 1.714394e+00 -1.024672e+01
-3.885131e+09 -3.685130e+09 -3.845130e+09 7.954398e+00 -8.426113e-01 -5.529223e+00
-3.955852e+09 -3.755850e+09 -3.915851e+09 2.570599e+01 4.725631e+00 -9.867023e+00
-3.914093e+09 -3.714092e+09 -3.874092e+09 1.328731e+01 4.618583e+00 -1.373251e+01
-4.115015e+09 -3.915013e+09 -4.075014e+09 3.829925e+00 2.445717e+00 -1.718952e+01
-4.751695e+09 -4.551694e+09 -4.711694e+09 7.983196e+00 -4.906628e+00 3.105665e+00
-4.964915e+09 -4.764913e+09 -4.924914e+09 1.916007e+00 -3.613962e+00 2.471083e+00
-1.881926e+09 -1.681925e+09 -1.841924e+09 -1.546488e+03 -9.512543e+02 -3.696415e+02
-2.583635e+09 -2.383634e+09 -2.543634e+09 -1.628714e+03 -1.452841e+03 -5.659997e+02
-1.752689e+09 -1.552687e+09 -1.712687e+09 -8.921073e+02 -6.529140e+02 -7.788587e+01
-2.071690e+09 -1.871688e+09 -2.031688e+09 -9.834262e+02 -7.353153e+02 -2.655426e+02
-2.135509e+09 -1.935507e+09 -2.095507e+09 -1.425323e+03 -1.126993e+03 -2.449845e+02
-2.586987e+09 -2.386986e+09 -2.546986e+09 -1.141760e+03 -9.643735e+02 -3.278767e+02
-1.885278e+09 -1.685277e+09 -1.845277e+09 -1.397779e+03 -8.435737e+02 -3.183544e+02
-1.937356e+09 -1.737366e+09 -1.897365e+09 9.278068e+01 -4.408822e+02 2.375297e+03
-2.286466e+09 -2.086477e+09 -2.246475e+09 1.920169e+02 -1.137738e+02 2.315823e+03
-2.442547e+09 -2.242559e+09 -2.402556e+09 -1.246890e+03 -8.443401e+01 2.553035e+03
-2.470507e+09 -2.270519e+09 -2.430516e+09 6.948045e+02 3.460396e+02 2.873308e+03
-2.637404e+09 -2.437419e+09 -2.597416e+09 4.926842e+01 -5.393367e+02 5.189394e+03
-3.091853e+09 -2.891853e+09 -3.051857e+09 3.171806e+03 6.353782e+02 2.716907e+01
-2.231025e+09 -2.031027e+09 -2.191029e+09 1.132660e+03 -5.068115e+02 -4.643910e+02
-2.953380e+09 -2.753378e+09 -2.913382e+09 3.559920e+02 -5.826656e+02 -4.976581e+02
-2.466905e+09 -2.266902e+09 -2.426906e+09 5.294333e+02 -9.441330e+02 -9.500669e+02
-3.287461e+09 -3.087459e+09 -3.247463e+09 1.654522e+03 -3.037996e+02 -1.209667e+03
-2.955265e+09 -2.755266e+09 -2.915268e+09 1.899092e+03 1.635442e+02 -1.752016e+02
-3.979185e+09 -3.779195e+09 -3.939191e+09 -1.646396e+03 -5.761218e+02 8.452822e+02
-3.720485e+09 -3.520494e+09 -3.680491e+09 -2.068614e+02 -3.572449e+01 5.411216e+01
-3.604433e+09 -3.404443e+09 -3.564440e+09 -2.604821e+02 -1.548819e+00 4.884971e+02
-3.574917e+09 -3.374927e+09 -3.534923e+09 -1.700795e+03 -5.108214e+02 1.633014e+03
-4.331427e+09 -4.131436e+09 -4.291432e+09 -3.220223e+02 1.152586e+02 3.751653e+02
-4.542350e+09 -4.342359e+09 -4.502354e+09 -8.739737e+02 -1.021900e+01 1.819152e+02
-3.474506e+09 -3.274515e+09 -3.434511e+09 -1.713659e+03 -3.088332e+02 1.463862e+03
-2.837254e+09 -2.637261e+09 -2.797259e+09 -1.051959e+03 -1.021662e+02 3.574576e+02
-3.297008e+09 -3.097018e+09 -3.257014e+09 -6.758898e+02 7.230599e+01 1.002662e+03
-2.167813e+09 -1.967822e+09 -2.127823e+09 -1.860333e+03 -8.396030e+01 1.285176e+03
-4.991158e+09 -4.791148e+09 -4.951148e+09 -4.060723e+03 -7.686508e+00 -4.995955e+01
-2.659874e+09 -2.459885e+09 -2.619881e+09 -1.852994e+03 -7.255709e+02 4.927536e+03
-4.301361e+09 -4.101348e+09 -4.261378e+09 9.747304e+02 4.994205e+03 -2.785227e+03
-1.777221e+09 -1.577223e+09 -1.737222e+09 -1.705756e+02 -1.972089e+01 4.817247e-01
-1.572382e+09 -1.372384e+09 -1.532383e+09 -2.066582e+02 -1.461271e+01 3.685479e+01
-2.544184e+09 -2.344185e+09 -2.504185e+09 -2.453928e+02 -3.780541e+01 -5.491677e+00
-1.755157e+09 -1.555158e+09 -1.715158e+09 -2.006846e+02 -3.866344e+01 4.880526e+01
-1.572382e+09 -1.372384e+09 -1.532383e+09 -3.126566e+02 -3.306626e+01 -2.352061e+01
-2.641889e+09 -2.441890e+09 -2.601890e+09 -2.711425e+02 -1.732483e+00 2.495472e+01
-2.249141e+09 -2.049143e+09 -2.209140e+09 5.690892e+01 1.006499e+00 -4.225466e+00
-1.920816e+09 -1.720819e+09 -1.880815e+09 2.281543e+02 2.400786e+01 3.904742e+01
-2.716334e+09 -2.516337e+09 -2.676333e+09 1.389926e+02 1.601849e+01 9.260841e+00
-2.798529e+09 -2.598532e+09 -2.758528e+09 1.325109e+02 2.753202e+01 -1.069708e+01
-3.051656e+09 -2.851659e+09 -3.011655e+09 1.979130e+02 -3.856330e+01 -5.963608e-02
-3.108399e+09 -2.908401e+09 -3.068397e+09 2.132457e+02 1.843295e+01 3.399311e+01
-3.395963e+09 -3.195965e+09 -3.355962e+09 2.820659e+02 -3.806433e+01 8.770138e+00
-3.352149e+09 -3.152152e+09 -3.312148e+09 2.515667e+02 -1.328815e+01 4.788699e+01
-3.953914e+09 -3.753915e+09 -3.913912e+09 6.792914e+02 1.823713e+02 -3.314526e+01
-3.281916e+09 -3.081917e+09 -3.241914e+09 9.748914e+02 1.353839e+02 1.335638e+00
-4.118719e+09 -3.918721e+09 -4.078718e+09 1.067831e+03 7.907868e+01 7.257012e+01
-4.265468e+09 -4.065469e+09 -4.225467e+09 7.874397e+02 7.732477e+01 2.671432e+01
-3.372896e+09 -3.172898e+09 -3.332895e+09 5.187844e+02 1.021386e+02 1.414749e+02
-4.288259e+09 -4.088261e+09 -4.248257e+09 6.464825e+02 6.405452e+01 3.237898e+01
-3.821435e+09 -3.621437e+09 -3.781434e+09 5.842396e+02 8.248718e+01 -3.677090e+01
-1.860769e+09 -1.660770e+09 -1.820767e+09 3.574831e+02 1.365793e+02 7.287806e+01
-3.093620e+09 -2.893620e+09 -3.053619e+09 7.684721e+02 2.873847e+02 2.468724e+01
-2.756030e+09 -2.556031e+09 -2.716028e+09 8.759325e+02 9.404607e+01 2.729479e+01
-4.303865e+09 -4.103855e+09 -4.263864e+09 1.294357e+03 -5.415832e+02 1.754401e+03
-2.424552e+09 -2.224553e+09 -2.384550e+09 4.136485e+02 2.008201e+02 -2.026286e+01
-2.146963e+09 -1.946963e+09 -2.106961e+09 3.748108e+02 3.170108e+02 1.666300e+01
-1.606100e+09 -1.406100e+09 -1.566098e+09 3.846878e+02 1.627440e+02 9.178455e+00
-1.809314e+09 -1.609315e+09 -1.769312e+09 1.092923e+03 2.240749e+02 8.940257e+01
-3.248375e+09 -3.048370e+09 -3.208373e+09 7.182485e+02 9.186760e+02 -6.513613e+02
-3.046443e+09 -2.846438e+09 -3.006442e+09 8.900365e+02 9.097424e+02 -8.185752e+02
-3.013756e+09 -2.813750e+09 -2.973755e+09 2.170378e+03 1.401178e+03 -1.340677e+03
-3.379440e+09 -3.179434e+09 -3.339440e+09 1.445683e+03 1.525936e+03 -1.257467e+03
-2.684449e+09 -2.484444e+09 -2.644448e+09 5.303101e+02 7.426808e+02 -6.222702e+02
-2.356166e+09 -2.156162e+09 -2.316165e+09 4.915111e+02 8.396344e+02 -4.190951e+02
-2.483764e+09 -2.283758e+09 -2.443762e+09 1.734088e+03 8.033039e+02 -1.195556e+03
-3.443578e+09 -3.243586e+09 -3.403582e+09 -1.811627e+02 -1.906054e+03 2.797627e+01
-1.788829e+09 -1.588838e+09 -1.748837e+09 5.854141e+01 -2.797170e+02 6.205884e+02
-1.880236e+09 -1.680245e+09 -1.840244e+09 9.782896e+02 1.336690e+02 1.240479e+03
-1.872251e+09 -1.672261e+09 -1.832261e+09 1.342647e+02 5.393202e+02 1.223488e+03
-2.863160e+09 -2.663171e+09 -2.823167e+09 -9.326214e+02 -1.694669e+02 2.234093e+03
-4.649889e+09 -4.449896e+09 -4.609896e+09 -2.883885e+02 -8.166463e+02 -6.304120e+00
-1.920567e+09 -1.720577e+09 -1.880579e+09 1.518085e+03 2.229692e+02 3.884341e+03
-3.990682e+09 -3.790679e+09 -3.950681e+09 -6.078219e+02 -4.976155e+02 -2.072928e+02
-4.257558e+09 -4.057555e+09 -4.217557e+09 -8.110681e+02 -4.325221e+02 -1.191547e+02
-3.362659e+09 -3.162656e+09 -3.322658e+09 -8.607873e+02 -9.807557e+02 -3.439761e+02
-1.586180e+09 -1.386191e+09 -1.546183e+09 2.747403e+02 -1.600789e+03 2.260209e+02
-3.777696e+09 -3.577693e+09 -3.737695e+09 -8.174100e+02 -6.524148e+02 -2.964509e+02
-2.947060e+09 -2.747056e+09 -2.907061e+09 -1.227954e+02 -1.174860e+03 -1.548088e+03
-3.132364e+09 -2.932361e+09 -3.092366e+09 1.223411e+03 -6.231549e+02 -1.082305e+03
-2.483588e+09 -2.283583e+09 -2.443588e+09 9.400716e+01 -1.103792e+03 -1.974501e+03
-2.596544e+09 -2.396539e+09 -2.556545e+09 -2.904306e+02 -1.383590e+03 -1.843878e+03
-3.708516e+09 -3.508511e+09 -3.668517e+09 1.938436e+02 -1.068903e+03 -1.318525e+03
-3.769493e+09 -3.569488e+09 -3.729495e+09 1.874579e+03 -5.990065e+02 -1.154882e+03
-2.254744e+09 -2.054745e+09 -2.214745e+09 -2.447391e+02 -2.839870e+01 1.569135e+01
-3.096826e+09 -2.896822e+09 -3.056828e+09 5.451093e+02 -1.951672e+03 -2.349757e+03
-3.741972e+09 -3.541968e+09 -3.701974e+09 1.791171e+03 -7.745493e+02 -8.715786e+02
-4.627596e+09 -4.427589e+09 -4.587596e+09 -7.936981e+02 2.835473e+02 1.029156e+03
-4.803884e+09 -4.603878e+09 -4.763883e+09 -6.167792e+01 8.128382e+01 2.008253e+02
-4.629225e+09 -4.429220e+09 -4.589223e+09 3.430964e+02 3.108271e+02 5.674777e+02
-4.471377e+09 -4.271371e+09 -4.431374e+09 2.426467e+02 -4.675983e+01 2.130306e+02
-4.127584e+09 -3.927578e+09 -4.087583e+09 -6.933153e+02 9.983860e+01 8.828951e+02
-4.266074e+09 -4.066074e+09 -4.226074e+09 -1.010724e+03 -3.939986e+02 -1.781852e+02
-4.041042e+09 -3.841041e+09 -4.001042e+09 -1.017832e+03 -4.059624e+02 -5.907876e+00
-4.216934e+09 -4.016934e+09 -4.176933e+09 -6.754708e+02 -1.687671e+02 -1.304062e+02
-4.660703e+09 -4.460700e+09 -4.620702e+09 -8.058024e+02 5.431543e+01 -1.260299e+02
-3.075954e+09 -2.875955e+09 -3.035953e+09 -7.005664e+02 -5.029222e+02 1.151118e+02
-3.483289e+09 -3.283288e+09 -3.443288e+09 -9.833811e+02 -7.115860e+02 -3.353475e+02
-4.501837e+09 -4.301842e+09 -4.461839e+09 -6.680452e+02 1.049438e+02 -6.770706e+02
-4.802816e+09 -4.602820e+09 -4.762818e+09 -1.855952e+03 1.489763e+02 1.008070e+01
-4.991300e+09 -4.791299e+09 -4.951267e+09 -3.464731e+03 -1.178285e+03 1.764070e+03
-4.326559e+09 -4.126562e+09 -4.286560e+09 -4.746287e+02 5.237429e+01 -4.667933e+02
-4.804136e+09 -4.604133e+09 -4.764143e+09 -2.103124e+03 1.798141e+03 4.095678e+02
-4.477318e+09 -4.277314e+09 -4.437331e+09 -2.569355e+03 3.105006e+03 2.448798e+03
-4.482762e+09 -4.282755e+09 -4.442773e+09 -2.119434e+03 2.912972e+03 2.469410e+03
-4.302084e+09 -4.102078e+09 -4.262069e+09 -4.053086e+03 5.230885e+03 9.411735e+02
-4.648987e+09 -4.448994e+09 -4.608993e+09 5.734516e+02 -8.540038e+02 1.030630e+02
-4.127636e+09 -3.927639e+09 -4.087617e+09 4.852816e+02 -5.576495e+02 -6.677973e+03
-4.328354e+09 -4.128354e+09 -4.288346e+09 -3.095709e+03 1.555510e+03 -2.405990e+03
-4.503774e+09 -4.303780e+09 -4.463761e+09 -2.263220e+03 1.979303e+02 -2.973298e+03
-4.134317e+09 -3.934317e+09 -4.094317e+09 3.933981e+02 -3.635543e+00 -1.982658e+01
-4.133709e+09 -3.933710e+09 -4.093709e+09 4.712405e+02 3.787411e+01 2.391952e+01
-4.304849e+09 -4.104850e+09 -4.264850e+09 4.983751e+02 -1.425018e+00 -1.187554e+01
-4.249716e+09 -4.049716e+09 -4.209716e+09 2.971753e+02 1.140535e+00 -4.309287e+01
-4.306273e+09 -4.106274e+09 -4.266274e+09 3.932904e+02 -5.356719e+00 -1.042793e+01
-4.820612e+09 -4.620613e+09 -4.780611e+09 4.494666e+03 5.741937e+02 -7.861854e+02
-4.819280e+09 -4.619286e+09 -4.779274e+09 4.670040e+03 3.333905e+02 3.249926e+03
-4.132816e+09 -3.932821e+09 -4.092815e+09 4.763613e+03 1.034298e+03 1.324597e+03
-4.647669e+09 -4.447664e+09 -4.607669e+09 3.185155e+03 2.531220e+02 -5.029395e+02
-4.133314e+09 -3.933310e+09 -4.093311e+09 5.239992e+03 2.190026e+03 -5.590717e+02
-4.303008e+09 -4.103003e+09 -4.263008e+09 4.373397e+03 9.407688e+02 6.665495e+01
-4.650423e+09 -4.450420e+09 -4.610423e+09 2.501809e+03 3.960583e+02 -2.545293e+02
-4.819113e+09 -4.619107e+09 -4.779116e+09 2.350460e+03 7.817457e+02 -1.052137e+03
-4.820707e+09 -4.620702e+09 -4.780708e+09 1.979760e+03 4.802471e+02 -7.915187e+02
-4.304556e+09 -4.104554e+09 -4.264558e+09 3.155810e+03 1.482993e+03 -7.517256e+02
-4.133603e+09 -3.933601e+09 -4.093605e+09 3.163240e+03 1.521426e+03 -4.657798e+02
-4.649550e+09 -4.449546e+09 -4.609551e+09 2.208974e+03 5.902178e+02 -3.298559e+02
-4.649207e+09 -4.449206e+09 -4.609206e+09 -9.373839e+01 -3.556685e+01 -3.149235e+01
-4.646971e+09 -4.446970e+09 -4.606970e+09 2.432948e+01 1.014859e+01 -3.627078e+01
-4.648725e+09 -4.448725e+09 -4.608724e+09 -2.549741e+02 -5.635880e+01 -5.011974e+01
-4.649426e+09 -4.449425e+09 -4.609425e+09 -7.064349e+01 -4.848584e+00 -4.280516e+01
-4.820873e+09 -4.620872e+09 -4.780872e+09 -6.355083e+01 -1.677762e+01 -1.823074e+01
-4.245944e+09 -4.045945e+09 -4.205945e+09 -3.158751e+02 -5.833521e+00 6.986091e+01
-4.234021e+09 -4.034022e+09 -4.194022e+09 -2.676702e+02 1.109745e+00 -2.812979e+01
-4.304467e+09 -4.104468e+09 -4.264468e+09 -6.267888e+02 -5.071897e+00 -1.015018e+01
-4.133514e+09 -3.933515e+09 -4.093515e+09 -5.632785e+02 -4.298860e+01 5.498219e+01
-4.645744e+09 -4.445745e+09 -4.605744e+09 -3.666941e+02 -1.089677e+01 2.669503e+01
-4.820655e+09 -4.620656e+09 -4.780656e+09 -4.436199e+02 -1.825055e+01 5.836470e+01
-1.887257e+09 -1.687253e+09 -1.847255e+09 -8.730166e+02 -1.050729e+03 -5.965396e+02
-4.821307e+09 -4.621314e+09 -4.781314e+09 -5.572159e+02 -1.002313e+03 -3.871545e+01
-4.649087e+09 -4.449094e+09 -4.609094e+09 5.705340e+01 -8.347144e+02 8.338481e+01
-4.649967e+09 -4.449974e+09 -4.609974e+09 -8.458450e+02 -7.674612e+02 -7.274949e+01
-4.305780e+09 -4.105786e+09 -4.265790e+09 -9.675028e+02 -3.154759e+03 9.125284e+01
-4.647600e+09 -4.447605e+09 -4.607610e+09 -5.346890e+02 -1.235904e+03 7.901407e+01
-4.133414e+09 -3.933420e+09 -4.093424e+09 -1.250689e+02 -2.882100e+03 3.372511e+02
-4.304021e+09 -4.104019e+09 -4.264020e+09 -6.150274e+02 -6.197548e+01 4.587209e+00
-4.133079e+09 -3.933077e+09 -4.093078e+09 -5.272016e+02 -1.161487e+02 1.154792e+02
-4.302772e+09 -4.102770e+09 -4.262771e+09 -5.826303e+02 -5.839305e+01 3.179116e+01
-4.649439e+09 -4.449438e+09 -4.609438e+09 -3.768612e+02 -3.919359e+01 -3.047960e+01
-4.820260e+09 -4.620259e+09 -4.780259e+09 -3.672984e+02 -3.900886e+01 7.511164e+01
-4.820873e+09 -4.620871e+09 -4.780871e+09 -3.964944e+02 -1.106034e+01 -6.401744e+01
-4.133077e+09 -3.933084e+09 -4.093079e+09 -2.738198e+02 1.733418e+02 -6.281675e+01
-4.302771e+09 -4.102777e+09 -4.262773e+09 -1.015848e+02 2.703849e+02 3.656561e+01
-4.304019e+09 -4.104026e+09 -4.264021e+09 2.775954e+02 2.021147e+02 6.932095e+01
-4.820871e+09 -4.620877e+09 -4.780872e+09 8.206394e+01 1.554278e+02 -2.965976e+00
-4.306205e+09 -4.106211e+09 -4.266206e+09 -1.238649e+01 4.120325e+00 5.006315e+01
-4.820258e+09 -4.620265e+09 -4.780260e+09 -2.825309e+02 1.091630e+01 -2.568935e+01
-4.625393e+09 -4.425395e+09 -4.585403e+09 -3.124439e+03 1.858217e+03 9.077690e+02
-4.623235e+09 -4.423236e+09 -4.583242e+09 -2.937278e+03 9.694274e+02 4.986271e+02
-4.649705e+09 -4.449698e+09 -4.609711e+09 -2.015948e+03 7.036887e+02 1.518509e+03
-4.460904e+09 -4.260900e+09 -4.420912e+09 -3.250074e+03 2.835066e+03 1.055634e+03
-4.645739e+09 -4.445737e+09 -4.605738e+09 -1.006183e+03 2.181381e+02 7.278610e+01
-4.800465e+09 -4.600465e+09 -4.760476e+09 -2.947623e+03 2.148862e+03 6.963849e+02
-4.457233e+09 -4.257233e+09 -4.417243e+09 -3.722352e+03 2.247857e+03 1.191519e+03
-4.634270e+09 -4.434265e+09 -4.594228e+09 1.393006e+03 -2.606051e+03 -4.462068e+03
-4.121690e+09 -3.921687e+09 -4.081654e+09 1.840055e+03 -4.358198e+03 -1.029892e+04
-4.801688e+09 -4.601684e+09 -4.761671e+09 -3.944139e+03 1.025256e+03 -1.784982e+03
-4.458458e+09 -4.258452e+09 -4.418437e+09 -1.700764e+03 2.450682e+03 -1.408311e+03
-4.470491e+09 -4.270491e+09 -4.430473e+09 -2.345113e+03 8.504469e+02 -4.322276e+03
-1.536398e+09 -1.336402e+09 -1.496403e+09 1.025488e+03 -1.930755e+02 4.081669e+02
-4.813722e+09 -4.613724e+09 -4.773700e+09 -1.902525e+03 -6.513207e+02 -5.338295e+03
-4.599315e+09 -4.399317e+09 -4.559317e+09 -2.102445e+03 7.732738e+01 7.867499e+00
-4.259795e+09 -4.059796e+09 -4.219795e+09 -2.261821e+03 2.531023e+02 -2.247170e+02
-4.040691e+09 -3.840694e+09 -4.000694e+09 -4.980823e+02 -3.581948e+01 4.294294e+02
-4.818768e+09 -4.618766e+09 -4.778773e+09 -2.256266e+03 -5.117812e+02 -5.487834e+02
-4.459584e+09 -4.259587e+09 -4.419585e+09 -1.765752e+03 2.308760e+02 -3.176251e+02
-4.127334e+09 -3.927338e+09 -4.087335e+09 -1.664153e+03 2.883992e+02 -2.736535e+02
-4.793549e+09 -4.593552e+09 -4.753551e+09 -1.813394e+03 3.219384e+01 -2.999376e+02
-4.450317e+09 -4.250319e+09 -4.410318e+09 -1.862121e+03 1.572234e+02 -2.750625e+02
-4.648791e+09 -4.448790e+09 -4.608790e+09 5.598639e+02 3.544173e+01 5.512486e+01
-4.306323e+09 -4.106322e+09 -4.266323e+09 3.903066e+02 -1.274152e+01 -7.370281e+01
-4.821648e+09 -4.621648e+09 -4.781648e+09 3.860110e+02 2.494957e+00 9.604257e+00
-4.647744e+09 -4.447743e+09 -4.607743e+09 3.972782e+02 2.622015e+01 2.014283e+01
-4.125370e+09 -3.925370e+09 -4.085370e+09 4.173806e+02 6.443606e+00 -5.362969e+01
-4.650479e+09 -4.450477e+09 -4.610479e+09 2.550970e+03 3.920468e+02 -1.355266e+02
-4.648918e+09 -4.448919e+09 -4.608919e+09 2.995482e+03 4.097707e+02 -1.032773e+02
-4.649362e+09 -4.449361e+09 -4.609364e+09 3.175015e+03 4.474516e+02 -2.014531e+02
-4.134053e+09 -3.934054e+09 -4.094055e+09 3.055807e+03 1.175946e+03 -1.758329e+02
-4.305896e+09 -4.105896e+09 -4.265896e+09 -5.448672e+02 -1.542977e+01 -6.517542e+01
-4.821600e+09 -4.621601e+09 -4.781601e+09 -4.295738e+02 2.009992e+01 -1.519396e+01
-4.821486e+09 -4.621487e+09 -4.781487e+09 -5.207728e+02 -3.122728e+01 3.409176e+01
-4.650370e+09 -4.450370e+09 -4.610370e+09 -4.075848e+02 -1.455468e+01 1.550129e+01
-4.136076e+09 -3.936076e+09 -4.096076e+09 9.752540e+02 1.999386e+01 -7.328724e+01
-4.136379e+09 -3.936378e+09 -4.096378e+09 6.772696e+02 1.167576e+01 -7.052954e+01
-4.653796e+09 -4.453795e+09 -4.613795e+09 6.516987e+02 3.835341e+01 -9.934480e+00
-4.305466e+09 -4.105466e+09 -4.265466e+09 2.933285e+02 -2.613958e+00 -5.247748e+01
-4.305628e+09 -4.105628e+09 -4.265628e+09 4.300382e+02 -3.158462e+00 -9.868639e+00
-4.819546e+09 -4.619547e+09 -4.779547e+09 4.474795e+02 -1.973235e+01 -1.586199e+01
-4.992685e+09 -4.792686e+09 -4.952686e+09 3.138549e+02 -1.454157e+01 -4.841230e+01
-4.305945e+09 -4.105945e+09 -4.265945e+09 3.622786e+02 2.604335e+00 -5.200435e+01
-4.134002e+09 -3.934001e+09 -4.094001e+09 4.214506e+02 3.399940e+01 4.341580e+00
-4.117000e+09 -3.917002e+09 -4.077001e+09 -3.287171e+02 -1.709532e+01 -2.429251e+01
-4.008682e+09 -3.808683e+09 -3.968683e+09 -2.143460e+02 -3.149273e+00 4.121025e+01
-4.804216e+09 -4.604217e+09 -4.764217e+09 -3.068652e+02 -1.578601e+01 4.605872e+01
-4.116984e+09 -3.916986e+09 -4.076986e+09 -2.478630e+02 3.835893e+00 3.460608e+01
-4.803450e+09 -4.603452e+09 -4.763451e+09 -2.686097e+02 -1.351406e+01 -1.596945e+01
-4.305762e+09 -4.105766e+09 -4.265771e+09 -1.814858e+03 -3.220888e+03 -2.887355e+02
-4.821293e+09 -4.621299e+09 -4.781301e+09 -9.297486e+02 -4.293512e+02 8.954931e+00
-4.650141e+09 -4.450147e+09 -4.610148e+09 -1.089899e+03 -7.615076e+02 -5.812531e+01
-4.821466e+09 -4.621472e+09 -4.781473e+09 -1.324333e+03 -1.026826e+03 -9.489262e+01
-4.815204e+09 -4.615211e+09 -4.775208e+09 1.845073e+03 5.722590e+02 -8.258790e+01
-4.653410e+09 -4.453417e+09 -4.613414e+09 1.898405e+03 7.219330e+02 -1.276791e+01
-4.128738e+09 -3.928745e+09 -4.088742e+09 1.798176e+03 7.535183e+02 -1.294065e+02
-4.132071e+09 -3.932076e+09 -4.092075e+09 2.861787e+03 1.260209e+03 -5.506537e+02
-3.959770e+09 -3.759777e+09 -3.919774e+09 2.034333e+03 1.506473e+03 -2.359543e+02
-4.811431e+09 -4.611424e+09 -4.771440e+09 -1.240663e+03 -1.512459e+03 -9.869680e+02
-4.632456e+09 -4.432448e+09 -4.592464e+09 -1.262151e+03 -6.084310e+02 -1.036738e+03
-4.124965e+09 -3.924958e+09 -4.084974e+09 -1.074527e+03 -3.226353e+03 -1.329696e+03
-4.126795e+09 -3.926794e+09 -4.086807e+09 -2.642287e+03 -4.994801e+03 -1.273581e+03
-3.954494e+09 -3.754489e+09 -3.914506e+09 -1.889000e+03 -3.657160e+03 -2.155921e+03
-4.451950e+09 -4.251950e+09 -4.411950e+09 -9.249732e+02 -3.433578e+01 -2.760670e+01
-4.654685e+09 -4.454685e+09 -4.614685e+09 -7.078117e+02 -5.053156e+01 -8.223741e-01
-4.116649e+09 -3.916649e+09 -4.076649e+09 -8.725588e+02 -1.034716e+01 -5.175270e+01
-4.130943e+09 -3.930942e+09 -4.090943e+09 -7.754631e+02 -3.445117e+01 -6.748687e+01
-4.801329e+09 -4.601329e+09 -4.761329e+09 -9.103469e+02 -3.436850e+01 3.949545e+00
-4.132600e+09 -3.932592e+09 -4.092601e+09 2.855843e+03 1.625661e+02 -1.559103e+03
-4.821268e+09 -4.621263e+09 -4.781270e+09 1.377585e+03 -2.588718e+02 -3.736747e+02
-4.649977e+09 -4.449973e+09 -4.609978e+09 1.640264e+03 -2.371987e+02 -5.568678e+02
-4.306682e+09 -4.106679e+09 -4.266685e+09 3.166590e+03 2.040562e+02 -3.912500e+02
-4.305634e+09 -4.105637e+09 -4.265635e+09 2.214613e+03 5.605493e+02 -2.069631e+02
-4.820586e+09 -4.620587e+09 -4.780585e+09 2.045765e+03 2.339274e+02 -1.547158e+02
-4.649777e+09 -4.449777e+09 -4.609776e+09 2.381648e+03 2.372937e+02 -4.299404e+00
-4.649511e+09 -4.449511e+09 -4.609510e+09 2.155868e+03 1.802114e+02 -9.928226e+00
-4.649093e+09 -4.449093e+09 -4.609093e+09 -6.361218e+02 -1.958426e+01 6.667577e+01
-4.133909e+09 -3.933909e+09 -4.093909e+09 -6.279298e+02 -5.611776e+01 1.569443e+01
-4.649129e+09 -4.449129e+09 -4.609129e+09 -5.446526e+02 -2.412380e+01 1.871820e+01
-4.820729e+09 -4.620730e+09 -4.780730e+09 -5.264838e+02 -3.321704e+01 1.836058e+01
-4.305636e+09 -4.105637e+09 -4.265642e+09 -2.040435e+03 -2.683024e+03 -6.478394e+02
-4.649418e+09 -4.449422e+09 -4.609423e+09 -1.598231e+03 -6.488162e+02 -7.042402e+01
-4.820586e+09 -4.620589e+09 -4.780590e+09 -1.766825e+03 -9.368794e+02 -9.919133e+01
-4.820595e+09 -4.620599e+09 -4.780602e+09 -1.787033e+03 -3.491090e+02 -1.084872e+02
-4.645970e+09 -4.445969e+09 -4.605970e+09 -6.247950e+02 -4.045039e+01 1.349650e+01
-4.820793e+09 -4.620791e+09 -4.780792e+09 -4.616694e+02 -3.195905e+01 6.608799e+01
-4.647253e+09 -4.447252e+09 -4.607253e+09 -6.148791e+02 -4.805599e+01 -1.434188e+01
-4.132422e+09 -3.932421e+09 -4.092421e+09 -5.984367e+02 -7.272346e+01 8.156705e+01
-4.645969e+09 -4.445976e+09 -4.605971e+09 6.448750e+02 1.719298e+02 -9.278306e+01
-4.306089e+09 -4.106096e+09 -4.266090e+09 1.710110e+02 1.306059e+02 2.380442e+01
-4.647252e+09 -4.447259e+09 -4.607254e+09 2.768080e+02 1.662382e+02 -3.620377e+01
-4.132421e+09 -3.932428e+09 -4.092423e+09 3.942588e+02 1.421848e+02 -6.512270e+00
-4.819371e+09 -4.619371e+09 -4.779371e+09 4.991659e+02 2.403371e+01 1.558097e+01
-4.649178e+09 -4.449178e+09 -4.609178e+09 3.623239e+02 2.720214e+01 1.083373e+01
-4.818939e+09 -4.618939e+09 -4.778939e+09 5.067701e+02 1.999711e+01 5.044126e+01
-4.305039e+09 -4.105039e+09 -4.265039e+09 3.938280e+02 2.879077e+00 -5.018635e+01
-4.825186e+09 -4.625185e+09 -4.785185e+09 1.297783e+02 1.162999e+01 4.577449e+00
-4.141097e+09 -3.941096e+09 -4.101096e+09 1.524809e+02 2.583840e+01 3.807617e+00
-4.138720e+09 -3.938719e+09 -4.098719e+09 1.396941e+02 8.904418e+00 -2.576235e+01
-4.650413e+09 -4.450412e+09 -4.610412e+09 1.840494e+02 1.497506e+01 -8.443074e+00
-4.303082e+09 -4.103083e+09 -4.263083e+09 5.016220e+02 -4.875716e+00 -1.587552e+01
-4.132149e+09 -3.932149e+09 -4.092149e+09 6.820571e+02 4.925419e+01 5.201701e+01
-4.309558e+09 -4.109558e+09 -4.269558e+09 6.744514e+02 -2.934417e+00 -1.615331e+01
-4.131619e+09 -3.931619e+09 -4.091619e+09 6.749087e+02 4.331841e+01 2.953243e+00
-4.305558e+09 -4.105557e+09 -4.265558e+09 5.595158e+02 -9.798151e+00 -2.469465e+01
-4.819511e+09 -4.619511e+09 -4.779511e+09 5.042468e+02 -1.176323e+01 -5.970847e+00
-4.991351e+09 -4.791351e+09 -4.951351e+09 5.582904e+02 -2.001714e+01 -2.654423e+01
-4.303767e+09 -4.103767e+09 -4.263767e+09 4.845973e+02 -3.165301e+00 -5.414693e+01
-4.819184e+09 -4.619188e+09 -4.779187e+09 -2.216249e+03 5.630538e+02 3.465455e+02
-4.303457e+09 -4.103462e+09 -4.263460e+09 -1.742115e+03 7.723688e+02 2.605231e+02
-4.134143e+09 -3.934150e+09 -4.094148e+09 -1.369546e+03 1.226281e+03 6.799757e+01
-4.133029e+09 -3.933035e+09 -4.093033e+09 -2.050012e+03 1.326877e+03 5.383523e+02
-4.822542e+09 -4.622541e+09 -4.782542e+09 1.026720e+03 3.642606e+01 3.472980e+00
-4.994209e+09 -4.794209e+09 -4.954209e+09 1.005431e+03 -3.952240e+01 -3.139550e+01
-4.481929e+09 -4.281927e+09 -4.441928e+09 9.795450e+02 -6.354169e-02 -6.335922e+01
-4.820086e+09 -4.620086e+09 -4.780086e+09 9.726965e+02 -7.372663e+00 -3.957724e+01
-4.133276e+09 -3.933276e+09 -4.093276e+09 1.164689e+03 -3.416320e+01 -2.010644e+02
-4.131940e+09 -3.931940e+09 -4.091940e+09 1.296579e+03 5.720174e+01 -7.400645e+01
-4.303944e+09 -4.103944e+09 -4.263944e+09 1.202000e+03 -5.586042e+01 -1.563315e+02
-4.134805e+09 -3.934805e+09 -4.094805e+09 3.579735e+02 -1.643693e+00 -1.886129e+01
-4.648082e+09 -4.448082e+09 -4.608082e+09 4.985652e+02 2.312713e+01 5.156315e+01
-4.991464e+09 -4.791464e+09 -4.951464e+09 4.358170e+02 -1.689301e+01 -4.822272e+01
-4.647000e+09 -4.447000e+09 -4.607000e+09 4.847141e+02 3.170315e+01 2.111949e+01
-4.649556e+09 -4.449555e+09 -4.609555e+09 3.902401e+02 3.256348e+01 9.147718e+00
-3.500478e+09 -3.300483e+09 -3.460481e+09 1.074438e+03 -1.344516e+03 4.433158e+02
-4.991603e+09 -4.791603e+09 -4.951603e+09 4.893190e+02 -2.569012e+01 -6.045693e+01
-4.132906e+09 -3.932906e+09 -4.092906e+09 4.909504e+02 2.501871e+00 -1.133678e+01
-4.818392e+09 -4.618396e+09 -4.778402e+09 5.422864e+02 -1.100600e+03 6.731754e+02
-4.302083e+09 -4.102086e+09 -4.262093e+09 4.726250e+02 -3.405170e+03 1.051401e+03
-3.962149e+09 -3.762156e+09 -3.922155e+09 7.131090e+02 -2.489080e+03 4.059375e+02
-4.646153e+09 -4.446157e+09 -4.606160e+09 1.217898e+03 -9.055242e+02 3.779234e+02
-4.302191e+09 -4.102194e+09 -4.262197e+09 1.119064e+03 -2.077379e+03 8.692669e+02
-4.131805e+09 -3.931808e+09 -4.091813e+09 1.519468e+03 -3.050499e+03 1.737167e+03
-4.818396e+09 -4.618392e+09 -4.778399e+09 2.952282e+03 2.933334e+02 -8.719670e+01
-4.302086e+09 -4.102080e+09 -4.262092e+09 3.166022e+03 2.731340e+03 -1.666123e+03
-4.134320e+09 -3.934316e+09 -4.094321e+09 3.200479e+03 1.426685e+03 -1.355482e+03
-4.131838e+09 -3.931830e+09 -4.091840e+09 2.442370e+03 2.078554e+03 -2.085044e+03
-4.131807e+09 -3.931801e+09 -4.091811e+09 2.649681e+03 1.809373e+03 -1.531895e+03
-4.302194e+09 -4.102187e+09 -4.262197e+09 2.096715e+03 2.151230e+03 -1.787072e+03
-4.287390e+09 -4.087392e+09 -4.247391e+09 -3.128847e+02 1.464344e+01 -2.901126e+01
-4.649799e+09 -4.449798e+09 -4.609798e+09 -4.391486e+02 -2.939712e+01 -2.760673e+01
-4.304670e+09 -4.104671e+09 -4.264671e+09 -4.779019e+02 -2.874142e+01 -1.637459e+01
-3.776288e+09 -3.576290e+09 -3.736289e+09 -3.420383e+02 -1.485082e+01 -2.555950e+01
-4.288156e+09 -4.088158e+09 -4.248157e+09 -3.316268e+02 -3.769142e+00 -1.350040e+01
-3.839192e+09 -3.639188e+09 -3.799192e+09 -2.288690e+02 -7.148853e+02 -1.590160e+02
-3.965599e+09 -3.765589e+09 -3.925595e+09 -3.237905e+02 -6.497158e+00 3.720914e+03
-4.134189e+09 -3.934190e+09 -4.094190e+09 -4.472214e+02 5.549535e+00 -2.099577e+01
-4.088862e+09 -3.888860e+09 -4.048861e+09 -3.463969e+02 -2.258575e+01 -5.726861e+01
-4.818328e+09 -4.618327e+09 -4.778327e+09 -3.066904e+02 -1.447502e+01 -1.703603e+01
-4.302304e+09 -4.102303e+09 -4.262303e+09 -3.779073e+02 -1.240046e+02 -9.007167e+01
-4.133707e+09 -3.933706e+09 -4.093706e+09 -1.636192e+02 1.471150e+01 -3.379973e+01
-4.646180e+09 -4.446180e+09 -4.606179e+09 -5.232437e+02 6.090672e+01 -3.959352e+01
-4.131884e+09 -3.931883e+09 -4.091883e+09 -4.429903e+02 -3.906198e+01 -8.449661e+01
-4.095847e+09 -3.895853e+09 -4.055848e+09 6.557234e+02 2.174607e+02 -4.869380e+01
-4.302290e+09 -4.102289e+09 -4.262288e+09 -4.571585e+02 -2.855759e+01 -4.521245e+00
-4.820305e+09 -4.620305e+09 -4.780305e+09 3.112848e+02 1.728238e+01 -1.213408e+00
-4.641798e+09 -4.441797e+09 -4.601797e+09 3.294536e+02 1.712996e+01 4.008290e+01
-4.648699e+09 -4.448698e+09 -4.608699e+09 2.931484e+02 2.664904e+01 1.954847e+00
-4.133649e+09 -3.933648e+09 -4.093648e+09 3.348316e+02 2.114280e+01 -1.364980e+01
-4.305816e+09 -4.105821e+09 -4.265816e+09 -6.792501e+02 -8.069956e+01 -2.760427e+01
-4.133994e+09 -3.934000e+09 -4.093995e+09 -4.302517e+02 8.839465e+00 -5.144037e+01
-4.645939e+09 -4.445944e+09 -4.605940e+09 -1.102071e+03 1.090812e+02 -3.936958e+01
-4.132213e+09 -3.932219e+09 -4.092215e+09 -1.237342e+03 5.937052e+02 1.919196e+02
-3.962195e+09 -3.762201e+09 -3.922196e+09 -4.168097e+02 2.420432e+02 -5.316509e+01
-4.304616e+09 -4.104621e+09 -4.264617e+09 9.044553e+02 2.249981e+02 4.936480e+01
-4.646427e+09 -4.446432e+09 -4.606428e+09 -9.916416e+02 5.764589e+01 -1.610802e+01
-4.819386e+09 -4.619397e+09 -4.779377e+09 6.172738e+02 -8.377951e+01 4.293199e+03
-4.649416e+09 -4.449418e+09 -4.609419e+09 4.385506e+03 1.228808e+03 8.283880e+01
-4.645933e+09 -4.445940e+09 -4.605924e+09 3.203095e+03 8.525385e+02 3.072962e+03
-4.650234e+09 -4.450229e+09 -4.610236e+09 1.324436e+01 -3.814852e+02 -5.204620e+02
-4.132207e+09 -3.932214e+09 -4.092193e+09 3.765899e+03 6.919012e+02 6.021225e+03
-4.134145e+09 -3.934147e+09 -4.094145e+09 4.754745e+03 1.775936e+03 2.363362e+03
-4.646666e+09 -4.446674e+09 -4.606657e+09 2.183217e+03 1.063904e+03 1.939390e+03
-4.305159e+09 -4.105157e+09 -4.265158e+09 -2.813465e+01 -9.399657e+01 5.503979e+01
-4.649050e+09 -4.449049e+09 -4.609049e+09 5.907781e+01 -8.736506e+01 3.374024e+01
-4.303141e+09 -4.103139e+09 -4.263140e+09 -3.387744e+02 -9.435707e+01 7.557046e+01
-4.646429e+09 -4.446427e+09 -4.606428e+09 -9.804284e+01 -1.468206e+02 4.252745e+01
-4.648391e+09 -4.448390e+09 -4.608390e+09 -2.799211e+01 -6.149809e+01 1.372806e+01
-4.647463e+09 -4.447461e+09 -4.607462e+09 -5.344874e+02 -3.805434e+01 -4.010553e+01
-4.648272e+09 -4.448272e+09 -4.608272e+09 3.941398e+02 2.042055e+01 3.234317e+01
-4.647036e+09 -4.447036e+09 -4.607036e+09 4.930686e+02 1.810437e+01 3.489359e+01
-4.991464e+09 -4.791464e+09 -4.951464e+09 5.666160e+02 -2.000724e+01 -1.472381e+01
-4.303803e+09 -4.103804e+09 -4.263803e+09 4.929420e+02 -5.330377e+00 -1.283541e+01
-4.820795e+09 -4.620796e+09 -4.780796e+09 3.361371e+02 -1.511806e+01 -4.706731e+00
-4.646246e+09 -4.446247e+09 -4.606247e+09 6.093004e+02 3.337608e+01 1.842728e+01
-4.646773e+09 -4.446774e+09 -4.606774e+09 4.395434e+02 2.643148e+01 5.313702e+00
-4.302961e+09 -4.102962e+09 -4.262962e+09 4.656846e+02 -4.488560e+00 4.695706e+00
-4.132404e+09 -3.932405e+09 -4.092405e+09 5.315972e+02 3.448569e+01 6.879090e+01
-4.817719e+09 -4.617719e+09 -4.777719e+09 7.525286e+02 3.009648e+01 4.348170e+01
-4.132375e+09 -3.932375e+09 -4.092375e+09 5.607440e+02 3.722182e+01 4.851946e+01
-4.132514e+09 -3.932514e+09 -4.092514e+09 6.119897e+02 -1.706442e+00 -3.194077e+01
-4.645547e+09 -4.445540e+09 -4.605543e+09 -4.131781e+03 -9.973313e+02 -1.941906e+02
-1.690822e+09 -1.490821e+09 -1.650821e+09 -2.583011e+01 2.169447e+01 -7.333432e+01
-4.649877e+09 -4.449873e+09 -4.609878e+09 -2.141624e+02 -5.504972e+02 -3.624949e+02
-4.656407e+09 -4.456402e+09 -4.616421e+09 -1.532638e+03 -3.391012e+03 -4.937693e+02
-4.649161e+09 -4.449163e+09 -4.609173e+09 -1.785738e+03 -1.468070e+03 -1.565127e+02
-4.821441e+09 -4.621442e+09 -4.781452e+09 -2.010758e+03 -1.947147e+03 -2.030637e+02
-4.132379e+09 -3.932379e+09 -4.092387e+09 -1.891108e+03 -2.547512e+03 -6.371315e+02
-3.954495e+09 -3.754493e+09 -3.914506e+09 -2.361434e+03 -4.877855e+03 -1.501164e+03
-4.656123e+09 -4.456120e+09 -4.616129e+09 -2.188944e+03 -1.075832e+03 -4.404402e+02
-4.301619e+09 -4.101622e+09 -4.261626e+09 3.267788e+03 2.259961e+03 -6.904559e+02
-4.649162e+09 -4.449165e+09 -4.609166e+09 3.174868e+03 4.824123e+02 -1.131929e+02
-4.821442e+09 -4.621445e+09 -4.781445e+09 3.016929e+03 3.398818e+02 -4.047044e+02
-4.132380e+09 -3.932384e+09 -4.092381e+09 2.237418e+03 3.353997e+02 -7.589737e+01
-4.656122e+09 -4.456127e+09 -4.616123e+09 2.104367e+03 1.571293e+02 -1.126726e+02
-3.959771e+09 -3.759777e+09 -3.919774e+09 2.546330e+03 1.270094e+03 -3.548049e+02
-4.648072e+09 -4.448074e+09 -4.608075e+09 3.271059e+03 6.726957e+02 -2.216740e+02
-4.656509e+09 -4.456509e+09 -4.616509e+09 -1.037504e+03 -3.076377e+01 1.639603e+01
-4.142343e+09 -3.942344e+09 -4.102344e+09 -9.851693e+02 -6.301754e+01 3.811358e+01
-4.649161e+09 -4.449162e+09 -4.609162e+09 -7.113317e+02 -2.915628e+01 2.438526e+01
-4.821441e+09 -4.621441e+09 -4.781441e+09 -7.424392e+02 1.977473e+01 -1.788832e+01
-4.284248e+09 -4.084248e+09 -4.244248e+09 -9.097405e+02 -1.325764e+01 1.243708e+01
-3.944349e+09 -3.744349e+09 -3.904349e+09 -9.422382e+02 -5.115868e+01 2.226601e+01
-4.629266e+09 -4.429266e+09 -4.589266e+09 -8.375640e+02 -5.174649e+01 1.806581e+01
-3.968983e+09 -3.768983e+09 -3.928983e+09 5.291285e+02 1.152755e+01 -1.029062e+02
-4.302451e+09 -4.102449e+09 -4.262450e+09 -8.337795e+02 -6.264049e+01 1.986137e+01
-4.817639e+09 -4.617637e+09 -4.777638e+09 -6.702617e+02 -4.792091e+01 9.669755e+01
-4.819544e+09 -4.619542e+09 -4.779543e+09 -5.724280e+02 -1.468929e+01 -7.465988e+01
-4.991252e+09 -4.791250e+09 -4.951251e+09 -4.917770e+02 1.069359e+01 2.181235e+00
-4.646373e+09 -4.446372e+09 -4.606372e+09 -3.385180e+02 -4.840292e+01 5.434843e-01
-4.304230e+09 -4.104228e+09 -4.264229e+09 -5.350761e+02 -1.348950e+02 6.962214e+01
-4.819519e+09 -4.619526e+09 -4.779523e+09 -6.035912e+02 1.777195e+02 2.277490e+01
-4.991250e+09 -4.791256e+09 -4.951252e+09 -7.716667e+02 4.694428e+01 4.478976e+01
-4.646372e+09 -4.446378e+09 -4.606373e+09 -6.964920e+02 2.204714e+02 9.216797e+00
-4.646180e+09 -4.446186e+09 -4.606182e+09 -1.158434e+03 1.958101e+02 2.968441e+01
-4.305157e+09 -4.105162e+09 -4.265157e+09 -6.798459e+02 1.058778e+02 3.766326e+01
-4.302947e+09 -4.102953e+09 -4.262949e+09 -1.158536e+03 5.075071e+02 1.321030e+02
-4.302450e+09 -4.102443e+09 -4.262442e+09 4.654571e+03 6.664044e+02 3.841470e+02
-4.991245e+09 -4.791249e+09 -4.951236e+09 5.109310e+03 2.273105e+02 1.036415e+03
-4.646486e+09 -4.446489e+09 -4.606483e+09 5.775119e+03 2.142379e+03 6.449911e+02
-4.646176e+09 -4.446178e+09 -4.606159e+09 4.997061e+03 2.373099e+03 2.060221e+03
-4.306009e+09 -4.106017e+09 -4.266009e+09 3.037215e+03 1.364147e+03 2.285079e+03
-4.646704e+09 -4.446701e+09 -4.606683e+09 5.324130e+03 2.001477e+03 2.788675e+03
-4.814569e+09 -4.614568e+09 -4.774568e+09 9.159044e+01 2.909573e+00 -2.600685e+01
-4.308720e+09 -4.108719e+09 -4.268719e+09 6.759399e+01 3.593219e+00 -8.438642e-01
-4.290018e+09 -4.090017e+09 -4.250017e+09 9.573494e+01 3.805718e+01 -1.500588e+00
-1.626557e+09 -1.426556e+09 -1.586557e+09 -9.473695e+00 -4.421061e+00 -6.039846e+00
-4.656634e+09 -4.456633e+09 -4.616633e+09 1.603842e+02 1.593578e+01 -2.010611e+01
-4.646452e+09 -4.446452e+09 -4.606452e+09 9.399865e+02 5.174523e+01 2.547625e+01
-3.624760e+09 -3.424760e+09 -3.584760e+09 -1.004472e+01 -2.223189e+01 -7.794528e+00
-4.818771e+09 -4.618772e+09 -4.778772e+09 6.210967e+02 3.267787e+01 3.441894e+01
-4.297810e+09 -4.097810e+09 -4.257810e+09 8.173418e+02 -1.956148e+01 -4.078809e+01
-4.645096e+09 -4.445096e+09 -4.605096e+09 7.669765e+02 3.509252e+01 3.918846e+01
-4.991238e+09 -4.791238e+09 -4.951238e+09 6.978644e+02 -2.444421e+01 -2.583381e+01
-4.117419e+09 -3.917412e+09 -4.077417e+09 -1.428312e+02 2.188167e+02 7.814778e+02
-4.131769e+09 -3.931769e+09 -4.091769e+09 8.239587e+02 4.686759e+01 -1.716717e+01
-4.131718e+09 -3.931710e+09 -4.091726e+09 2.917385e+03 2.614847e+03 -2.400317e+03
-4.645353e+09 -4.445344e+09 -4.605358e+09 1.802369e+03 2.343371e+02 -1.330933e+03
-4.645269e+09 -4.445266e+09 -4.605280e+09 3.172213e+03 1.566888e+03 -8.545590e+02
-4.818146e+09 -4.618142e+09 -4.778154e+09 2.972304e+03 5.095060e+02 -2.014514e+02
-4.131718e+09 -3.931717e+09 -4.091725e+09 1.384378e+03 -3.152249e+03 2.106708e+03
-4.972645e+09 -4.772643e+09 -4.932643e+09 -1.557659e+02 3.020757e+01 -3.345059e+01
-4.645351e+09 -4.445350e+09 -4.605358e+09 8.485601e+02 -1.109281e+03 6.572986e+02
-4.645267e+09 -4.445266e+09 -4.605277e+09 6.737837e+02 -9.195703e+02 7.359200e+02
-4.818145e+09 -4.618145e+09 -4.778155e+09 5.880482e+02 -1.393641e+03 1.031557e+03
-3.963557e+09 -3.763556e+09 -3.923556e+09 3.905411e+02 4.184086e+01 -2.555543e+01
-4.646542e+09 -4.446542e+09 -4.606542e+09 4.796213e+02 3.495932e+01 2.615855e+01
-4.135412e+09 -3.935411e+09 -4.095412e+09 3.615072e+02 2.816160e+01 -3.066311e+01
-4.812433e+09 -4.612432e+09 -4.772432e+09 3.135193e+02 -8.692398e+00 -3.008691e+01
-4.469200e+09 -4.269200e+09 -4.429200e+09 2.846420e+02 2.315258e+01 -1.731887e+01
-4.645279e+09 -4.445281e+09 -4.605280e+09 -6.285509e+02 7.048147e+00 -1.700244e+01
-4.131736e+09 -3.931738e+09 -4.091738e+09 -4.188813e+02 -4.409696e+00 2.083736e+01
-4.302144e+09 -4.102146e+09 -4.262146e+09 -3.342527e+02 1.832982e+00 -4.101999e+01
-4.818147e+09 -4.618149e+09 -4.778149e+09 -5.731709e+02 -1.491043e+01 8.159436e+01
-4.818357e+09 -4.618357e+09 -4.778356e+09 -5.997102e+02 -6.734380e+01 -6.510432e+01
-4.818349e+09 -4.618349e+09 -4.778348e+09 -4.254950e+02 5.795821e+01 2.297567e+01
-4.645537e+09 -4.445536e+09 -4.605535e+09 -3.779243e+02 1.060123e+02 8.354589e+00
-4.305028e+09 -4.105028e+09 -4.265027e+09 -4.146119e+02 -2.571477e+01 -1.397253e+01
-4.303128e+09 -4.103123e+09 -4.263130e+09 2.790845e+03 1.700927e+03 -1.050888e+03
-4.648033e+09 -4.448030e+09 -4.608036e+09 2.990408e+03 8.265687e+02 -4.095662e+02
-4.303021e+09 -4.103020e+09 -4.263026e+09 3.546866e+03 2.024388e+03 -1.072860e+03
-4.645442e+09 -4.445439e+09 -4.605448e+09 3.180858e+03 1.124351e+03 -6.101767e+02
-4.645578e+09 -4.445578e+09 -4.605583e+09 3.443555e+03 9.805945e+02 -4.585966e+02
-4.131804e+09 -3.931803e+09 -4.091810e+09 3.396054e+03 2.482678e+03 -8.476609e+02
-4.819701e+09 -4.619706e+09 -4.779707e+09 8.324416e+02 -5.864424e+02 2.641379e+02
-3.769545e+09 -3.569544e+09 -3.729544e+09 -5.609040e+00 1.837959e+00 -1.204828e+00
-3.962934e+09 -3.762941e+09 -3.922942e+09 1.856346e+01 -2.887047e+03 1.950453e+02
-4.303017e+09 -4.103021e+09 -4.263030e+09 -6.422581e+02 -4.180750e+03 3.782718e+02
-4.645439e+09 -4.445442e+09 -4.605449e+09 7.089641e+02 -1.067714e+03 3.271595e+02
-4.302343e+09 -4.102346e+09 -4.262355e+09 -2.016758e+02 -4.206106e+03 6.570272e+02
-4.131802e+09 -3.931805e+09 -4.091813e+09 6.057777e+02 -3.750688e+03 1.075522e+03
-4.645576e+09 -4.445578e+09 -4.605577e+09 -7.427261e+02 -2.383594e+00 5.070500e+01
-4.131802e+09 -3.931804e+09 -4.091803e+09 -6.514254e+02 -4.008934e+01 7.501046e+01
-4.647902e+09 -4.447904e+09 -4.607903e+09 -4.779945e+02 -1.669347e+00 2.961736e+01
-4.645440e+09 -4.445442e+09 -4.605442e+09 -5.729963e+02 4.010822e+00 5.667246e+00
-4.646317e+09 -4.446319e+09 -4.606318e+09 -4.784788e+02 -5.917850e+00 3.274358e+01
-4.991146e+09 -4.791148e+09 -4.951148e+09 -4.351713e+02 3.692971e+00 -2.035388e+01
-4.645824e+09 -4.445823e+09 -4.605823e+09 -1.276948e+02 -2.777763e+01 -3.649180e+01
-4.817484e+09 -4.617483e+09 -4.777482e+09 -7.511709e+01 2.989994e+01 1.303286e+01
-4.303435e+09 -4.103434e+09 -4.263434e+09 -1.667865e+02 2.984779e+01 1.436540e+00
-4.132304e+09 -3.932303e+09 -4.092302e+09 -2.093856e+02 7.013776e+01 -3.358658e+00
-4.133038e+09 -3.933037e+09 -4.093037e+09 -1.635108e+02 4.901657e+01 -2.311551e+01
-4.647359e+09 -4.447359e+09 -4.607358e+09 -1.210935e+02 -3.023726e+01 -5.950719e+01
-4.302150e+09 -4.102148e+09 -4.262148e+09 2.492030e+01 6.000585e+01 2.694802e+00
-4.819188e+09 -4.619189e+09 -4.779189e+09 9.513098e+02 5.114734e+01 5.281655e+01
-4.818792e+09 -4.618793e+09 -4.778793e+09 8.074801e+02 5.034832e+01 6.775160e+01
-4.818673e+09 -4.618674e+09 -4.778673e+09 8.170210e+02 -2.826257e+01 -1.098116e+02
-4.131254e+09 -3.931254e+09 -4.091254e+09 7.684944e+02 -9.081909e+00 -5.253031e+01
-4.648357e+09 -4.448355e+09 -4.608356e+09 -1.134390e+03 -8.429291e+01 2.574786e+01
-4.646723e+09 -4.446721e+09 -4.606722e+09 -8.092600e+02 -7.243672e+01 3.634952e+01
-4.819274e+09 -4.619273e+09 -4.779274e+09 -1.006151e+03 -2.665775e+01 4.195340e+01
-4.303458e+09 -4.103456e+09 -4.263458e+09 -9.005339e+02 -1.378517e+02 8.059017e+01
-4.303454e+09 -4.103454e+09 -4.263410e+09 2.482993e+03 4.360327e+03 7.465746e+03
-4.819189e+09 -4.619186e+09 -4.779141e+09 1.349802e+03 8.471589e+01 1.809633e+03
-4.303292e+09 -4.103287e+09 -4.263222e+09 -2.856789e+00 1.844317e+03 6.239568e+03
-4.134149e+09 -3.934138e+09 -4.094119e+09 4.345834e+03 7.969952e+03 6.563769e+03
-4.991101e+09 -4.791103e+09 -4.951102e+09 -4.147486e+02 1.097451e+01 -4.534568e+01
-4.645434e+09 -4.445436e+09 -4.605435e+09 -2.980889e+02 -1.061981e+01 3.790977e+01
-4.131840e+09 -3.931842e+09 -4.091842e+09 -2.087422e+02 1.580002e+00 1.856334e+01
-4.648015e+09 -4.448017e+09 -4.608016e+09 -1.485163e+02 -3.471232e+00 4.741485e+01
-4.991131e+09 -4.791132e+09 -4.951132e+09 -2.251216e+02 1.019758e+01 -5.409397e+01
-4.178581e+09 -3.978583e+09 -4.138582e+09 -1.993623e+02 1.137873e+01 -1.596087e+01
-4.630623e+09 -4.430625e+09 -4.590624e+09 -3.113121e+02 -1.281378e+01 2.384758e+01
-4.477607e+09 -4.277609e+09 -4.437608e+09 -1.420966e+02 -2.816505e+00 2.959411e+01
-4.818664e+09 -4.618662e+09 -4.778664e+09 -3.186150e+02 -4.541596e+01 1.466064e+00
-4.818681e+09 -4.618679e+09 -4.778680e+09 -4.650223e+02 -6.577471e+01 4.657674e+01
-4.302769e+09 -4.102767e+09 -4.262769e+09 -2.132025e+02 -1.872058e+02 1.401152e+02
-4.646230e+09 -4.446228e+09 -4.606230e+09 -6.670453e+02 -2.010843e+02 2.066644e+02
-4.132427e+09 -3.932425e+09 -4.092426e+09 -7.862986e+02 -2.730337e+02 2.562577e+02
-4.131989e+09 -3.931987e+09 -4.091988e+09 -5.925136e+02 -1.166904e+02 4.682412e+01
-4.818656e+09 -4.618664e+09 -4.778638e+09 1.617065e+03 -1.849060e+03 2.054507e+03
-4.818674e+09 -4.618678e+09 -4.778659e+09 4.136724e+03 3.454138e+03 2.834221e+03
-4.302758e+09 -4.102766e+09 -4.262728e+09 4.109258e+02 7.005275e+02 8.530680e+03
-4.646229e+09 -4.446233e+09 -4.606203e+09 5.859822e+02 2.532085e+02 4.577632e+03
-4.132425e+09 -3.932427e+09 -4.092388e+09 2.454952e+03 2.672561e+02 9.037221e+03
-4.131980e+09 -3.931984e+09 -4.091975e+09 6.528231e+03 4.767037e+03 6.206095e+03
-4.991773e+09 -4.791779e+09 -4.951776e+09 -1.356567e+03 2.129348e+02 5.289083e+01
-4.131987e+09 -3.931994e+09 -4.091989e+09 -7.715334e+02 4.364787e+02 -3.868366e+01
-4.302768e+09 -4.102772e+09 -4.262769e+09 -1.536657e+03 3.147207e+02 1.379635e+02
-4.646690e+09 -4.446695e+09 -4.606693e+09 -1.741351e+03 2.534684e+02 2.235205e+00
-4.646229e+09 -4.446233e+09 -4.606230e+09 -1.657899e+03 2.349444e+02 -2.916636e+01
-4.132426e+09 -3.932431e+09 -4.092428e+09 -1.936195e+03 8.668413e+02 3.792067e+02
-4.135100e+09 -3.935080e+09 -4.095069e+09 1.422148e+03 1.264635e+04 -2.824676e+03
-4.650667e+09 -4.450650e+09 -4.610650e+09 -3.617170e+02 4.386147e+03 5.489754e+02
-4.306050e+09 -4.106041e+09 -4.266005e+09 2.921087e+03 8.341500e+03 1.955503e+03
-4.991777e+09 -4.791771e+09 -4.951744e+09 4.322888e+03 9.171632e+02 1.721514e+03
-4.648112e+09 -4.448105e+09 -4.608092e+09 5.298012e+03 4.348092e+03 1.419127e+03
-4.820855e+09 -4.620862e+09 -4.780859e+09 -3.906698e+02 6.871349e+02 4.852607e+01
-4.139989e+09 -3.939998e+09 -4.099995e+09 -3.118706e+02 1.561557e+03 -4.045595e+01
-4.312306e+09 -4.112313e+09 -4.272313e+09 -9.412532e+02 1.654813e+03 1.314131e+02
-4.991773e+09 -4.791779e+09 -4.951776e+09 -1.490170e+03 2.091100e+02 3.303816e+01
-4.648110e+09 -4.448117e+09 -4.608114e+09 -1.176121e+03 4.956204e+02 1.077201e+02
-4.135432e+09 -3.935431e+09 -4.095432e+09 -1.522501e+03 -9.853831e+01 1.979360e+02
-4.650904e+09 -4.450903e+09 -4.610904e+09 -1.568505e+03 -6.559421e+01 3.875866e+01
-4.306385e+09 -4.106383e+09 -4.266385e+09 -1.516335e+03 -5.179648e+01 6.533345e+01
-4.991774e+09 -4.791772e+09 -4.951774e+09 -1.326024e+03 -1.977586e-01 1.047994e+01
-4.648111e+09 -4.448110e+09 -4.608111e+09 -1.107005e+03 -9.228594e+01 5.048819e+01
-4.646099e+09 -4.446100e+09 -4.606100e+09 5.668522e+02 3.573945e+01 1.279303e+01
-4.132312e+09 -3.932313e+09 -4.092313e+09 6.539855e+02 4.504924e+01 5.703170e+01
-4.132360e+09 -3.932361e+09 -4.092361e+09 5.526623e+02 7.466741e+00 -4.935556e+01
-4.646041e+09 -4.446042e+09 -4.606042e+09 7.298387e+02 4.141936e+01 -1.321391e+01
-4.991351e+09 -4.791351e+09 -4.951351e+09 7.104458e+02 -1.816802e+01 -5.842055e+01
-4.302802e+09 -4.102803e+09 -4.262803e+09 6.166826e+02 -5.491120e+00 -2.246638e+01
-4.300034e+09 -4.100028e+09 -4.260041e+09 -3.291745e+03 -2.070981e+03 1.747073e+03
-4.640728e+09 -4.440723e+09 -4.600732e+09 -2.447918e+03 1.472633e+02 4.922394e+02
-4.127547e+09 -3.927541e+09 -4.087549e+09 -3.485251e+03 1.055651e+02 2.068493e+03
-4.298966e+09 -4.098961e+09 -4.258971e+09 -2.245603e+03 -1.419851e+03 2.391530e+03
-4.129016e+09 -3.929011e+09 -4.089021e+09 -2.043545e+03 -1.886268e+03 2.609951e+03
-4.645318e+09 -4.445313e+09 -4.605324e+09 3.166350e+03 9.408651e+02 -6.211109e+02
-4.991101e+09 -4.791095e+09 -4.951108e+09 2.646497e+03 1.056733e+03 -7.259824e+02
-4.818331e+09 -4.618331e+09 -4.778338e+09 3.418223e+03 1.009399e+03 2.594531e+02
-4.301287e+09 -4.101288e+09 -4.261297e+09 3.385693e+03 3.788925e+03 -1.625612e+03
-4.131678e+09 -3.931678e+09 -4.091688e+09 3.427065e+03 4.190334e+03 -1.257943e+03
-4.302209e+09 -4.102206e+09 -4.262215e+09 3.179602e+03 2.392146e+03 -1.751248e+03
-4.301475e+09 -4.101475e+09 -4.261485e+09 3.603835e+03 3.409279e+03 -1.439146e+03
-4.991098e+09 -4.791099e+09 -4.951107e+09 5.690255e+02 -9.224318e+02 3.670471e+02
-4.645304e+09 -4.445304e+09 -4.605314e+09 1.830303e+02 -9.866018e+02 7.482831e+02
-4.131679e+09 -3.931680e+09 -4.091689e+09 7.760154e+02 -3.055517e+03 1.067060e+03
-4.302206e+09 -4.102209e+09 -4.262216e+09 7.102601e+02 -3.542895e+03 7.584553e+02
-4.301473e+09 -4.101472e+09 -4.261486e+09 -5.447770e+02 -4.816059e+03 1.110176e+03
-4.301287e+09 -4.101285e+09 -4.261300e+09 -4.967592e+02 -4.781854e+03 1.423898e+03
-4.131677e+09 -3.931677e+09 -4.091688e+09 6.731822e+02 -4.348214e+03 2.436436e+03
-4.493959e+09 -4.293963e+09 -4.453947e+09 -9.152918e+02 -4.647200e+00 -3.154332e+03
-4.991101e+09 -4.791103e+09 -4.951102e+09 -4.577395e+02 3.386212e+00 -2.178494e+01
-4.302207e+09 -4.102209e+09 -4.262209e+09 -5.730203e+02 -4.347347e+01 9.953903e+00
-4.645333e+09 -4.445335e+09 -4.605335e+09 -4.850130e+02 -3.114108e+00 2.727184e+00
-4.131928e+09 -3.931930e+09 -4.091930e+09 -5.329233e+02 -1.856955e+00 -3.543446e+01
-4.301474e+09 -4.101476e+09 -4.261475e+09 -8.080238e+02 -3.694225e+01 -3.553397e+01
-4.301297e+09 -4.101299e+09 -4.261298e+09 -8.421347e+02 -1.263990e+01 -1.883200e+01
-4.131685e+09 -3.931687e+09 -4.091687e+09 -7.072139e+02 -3.096682e+01 9.484028e+01
-4.820114e+09 -4.620114e+09 -4.780114e+09 2.921830e+02 -2.549520e+00 -1.187768e+00
-4.814052e+09 -4.614052e+09 -4.774052e+09 3.187133e+02 7.933343e+00 -4.075780e+00
-4.820467e+09 -4.620467e+09 -4.780467e+09 3.768123e+02 -8.667243e+00 -7.771661e+00
-4.056821e+09 -3.856820e+09 -4.016820e+09 2.463453e+01 3.290715e+00 -9.270043e+00
-4.249578e+09 -4.049577e+09 -4.209578e+09 2.170223e+02 4.049663e-01 -9.061832e+01
-4.141496e+09 -3.941495e+09 -4.101495e+09 5.460409e+02 3.554354e+01 -4.590415e+01
-4.131999e+09 -3.931998e+09 -4.091998e+09 3.417319e+02 3.182858e+00 -4.344666e+01
-2.335050e+09 -2.135051e+09 -2.295048e+09 1.478735e+03 2.345941e+02 1.426611e+01
-4.993255e+09 -4.793254e+09 -4.953254e+09 3.695799e+02 -1.294932e+01 -3.370778e+01
-4.133810e+09 -3.933810e+09 -4.093810e+09 4.108369e+02 6.989909e+00 -7.632543e+00
-4.134374e+09 -3.934376e+09 -4.094375e+09 -1.445206e+02 -1.843060e+00 -1.929640e+01
-4.134392e+09 -3.934394e+09 -4.094394e+09 -1.024428e+02 -6.682324e+00 -2.912930e+00
-4.304782e+09 -4.104784e+09 -4.264784e+09 -1.490597e+02 -2.250347e+00 -1.609419e+01
-4.648103e+09 -4.448105e+09 -4.608104e+09 6.617565e+01 7.012563e+00 4.981014e+01
-4.134434e+09 -3.934436e+09 -4.094435e+09 3.421641e+01 7.074869e+00 -6.759791e+00
-4.131309e+09 -3.931300e+09 -4.091323e+09 2.978377e+03 3.914647e+03 -3.242510e+03
-4.301665e+09 -4.101660e+09 -4.261683e+09 2.508670e+03 6.824117e+03 -2.536076e+03
-4.818179e+09 -4.618174e+09 -4.778192e+09 2.666563e+03 9.602146e+02 -3.409639e+02
-4.131310e+09 -3.931307e+09 -4.091317e+09 2.738728e+02 -2.661938e+03 2.229094e+03
-4.301662e+09 -4.101659e+09 -4.261668e+09 -1.512972e+02 -2.066709e+03 1.671693e+03
-4.818180e+09 -4.618177e+09 -4.778190e+09 -1.116205e+02 -1.460410e+03 1.342628e+03
-4.642159e+09 -4.442154e+09 -4.602179e+09 9.712768e+02 2.113446e+03 -1.594630e+02
-4.128976e+09 -3.928976e+09 -4.088998e+09 4.858933e+02 7.946058e+03 4.222172e+01
-4.824161e+09 -4.624160e+09 -4.784180e+09 -9.643054e+02 3.238373e+03 7.126750e+02
-4.651002e+09 -4.451002e+09 -4.611021e+09 4.868398e+02 2.140307e+03 -9.355723e+01
-4.307770e+09 -4.107770e+09 -4.267791e+09 5.426791e+02 7.069399e+03 -4.787279e+02
-4.650149e+09 -4.450148e+09 -4.610148e+09 -4.263152e+02 -2.417082e+01 -7.796223e+00
-4.646005e+09 -4.446003e+09 -4.606004e+09 -5.825608e+02 -4.298243e+01 1.386933e+01
-4.991178e+09 -4.791177e+09 -4.951178e+09 -6.607218e+02 -2.018057e+01 8.698578e+00
-4.289646e+09 -4.089645e+09 -4.249645e+09 -8.833262e+02 -2.291780e+01 1.966193e+01
-4.645683e+09 -4.445682e+09 -4.605683e+09 -8.338234e+02 -6.851440e+01 7.267397e+00
-4.132015e+09 -3.932014e+09 -4.092014e+09 -8.301746e+02 -9.146424e+01 1.184198e+02
-4.134741e+09 -3.934737e+09 -4.094743e+09 2.910352e+03 7.157817e+01 6.724603e-01
-4.289647e+09 -4.089637e+09 -4.249650e+09 2.696512e+03 -3.098377e+01 -1.330532e+03
-4.646241e+09 -4.446236e+09 -4.606243e+09 4.369948e+03 1.376513e+03 -1.008374e+02
-4.991175e+09 -4.791172e+09 -4.951169e+09 4.833090e+03 1.262344e+02 5.127068e+02
-4.645683e+09 -4.445676e+09 -4.605677e+09 4.657068e+03 1.351829e+03 9.343894e+01
-4.132016e+09 -3.932005e+09 -4.092013e+09 4.172051e+03 2.212996e+03 -1.754769e+03
-4.820937e+09 -4.620943e+09 -4.780938e+09 5.342180e+02 1.854053e+02 -2.518339e+01
-4.991177e+09 -4.791184e+09 -4.951179e+09 -1.678739e+02 -1.731688e+01 5.233868e+01
-4.646003e+09 -4.446010e+09 -4.606005e+09 -1.023116e+02 2.423941e+02 -7.321731e+01
-4.289646e+09 -4.089653e+09 -4.249649e+09 3.886761e+02 5.558836e+02 -9.349996e+00
-4.645683e+09 -4.445690e+09 -4.605686e+09 -3.782162e+01 3.554660e+02 -6.106547e+01
-4.132014e+09 -3.932022e+09 -4.092017e+09 1.092469e+02 3.800326e+02 -3.897051e+01
-4.131682e+09 -3.931684e+09 -4.091683e+09 -5.838291e+02 -6.594356e+00 -4.879747e+01
-4.131422e+09 -3.931425e+09 -4.091424e+09 -3.220181e+02 -1.824054e+00 -1.144750e+01
-4.301813e+09 -4.101816e+09 -4.261815e+09 -2.187307e+02 3.481921e+00 -7.403577e+01
-4.302373e+09 -4.102372e+09 -4.262372e+09 -1.001079e+03 -3.916529e+01 -2.284512e+01
-4.818422e+09 -4.618421e+09 -4.778421e+09 -7.945116e+02 -4.826182e+01 -8.772860e+01
-4.818984e+09 -4.618983e+09 -4.778983e+09 -4.846831e+02 -4.376322e+00 -6.752879e+01
-4.131986e+09 -3.931985e+09 -4.091985e+09 -6.022466e+02 1.366668e+01 -9.153353e+01
-4.132325e+09 -3.932324e+09 -4.092323e+09 -3.340647e+02 4.805598e+01 -1.603702e+00
-4.303231e+09 -4.103230e+09 -4.263230e+09 -2.415310e+02 1.851992e+02 3.841962e+01
-4.307190e+09 -4.107187e+09 -4.267191e+09 2.501768e+03 7.076618e+02 -6.272496e+02
-4.310613e+09 -4.110603e+09 -4.270617e+09 9.912471e+02 2.273724e+03 2.558954e+03
-4.823795e+09 -4.623785e+09 -4.783796e+09 1.304117e+03 8.595954e+02 2.502480e+03
-4.821885e+09 -4.621877e+09 -4.781882e+09 1.533732e+03 -2.580674e+02 -7.230217e+01
-4.305685e+09 -4.105686e+09 -4.265687e+09 2.992849e+03 1.035068e+03 -4.212826e+02
-4.820096e+09 -4.620097e+09 -4.780098e+09 3.007515e+03 3.914176e+02 2.005678e+02
-4.646253e+09 -4.446253e+09 -4.606258e+09 3.548996e+03 6.939317e+02 -3.211954e+02
-4.135177e+09 -3.935175e+09 -4.095178e+09 3.346688e+03 1.127237e+03 -9.660945e+02
-4.821724e+09 -4.621723e+09 -4.781723e+09 2.437402e+03 3.240392e+02 -3.047477e+02
-4.132540e+09 -3.932541e+09 -4.092544e+09 3.388744e+03 1.955249e+03 -3.760159e+02
-4.133630e+09 -3.933632e+09 -4.093633e+09 3.385305e+03 1.238482e+03 -7.785922e+02
-4.991221e+09 -4.791226e+09 -4.951232e+09 -3.531700e+02 -1.022034e+03 8.757978e+01
-4.304367e+09 -4.104373e+09 -4.264377e+09 -5.320104e+02 -3.194609e+03 1.774445e+02
-4.134827e+09 -3.934834e+09 -4.094835e+09 -8.713450e+02 -3.114111e+03 3.506866e+00
-4.649427e+09 -4.449432e+09 -4.609433e+09 -1.675904e+03 -5.799189e+02 -2.205046e+02
-4.646250e+09 -4.446254e+09 -4.606262e+09 -6.464477e+02 -1.485848e+03 1.564528e+02
-4.544644e+09 -4.344640e+09 -4.504643e+09 3.753571e+02 1.801227e+02 -9.459200e+01
-4.133628e+09 -3.933633e+09 -4.093639e+09 -1.740556e+03 -4.407655e+03 -4.485805e+02
-4.978029e+09 -4.778026e+09 -4.938029e+09 -1.136758e+03 -2.011092e+02 -1.184753e+02
-4.132537e+09 -3.932540e+09 -4.092549e+09 -9.100175e+02 -4.125637e+03 3.893581e+02
-4.133628e+09 -3.933629e+09 -4.093629e+09 -6.861594e+02 3.301044e+00 -2.668548e+01
-4.135021e+09 -3.935022e+09 -4.095022e+09 -5.147522e+02 7.168009e+00 -2.019785e+01
-4.649601e+09 -4.449601e+09 -4.609601e+09 -5.044546e+02 -1.117550e+01 6.220731e+01
-4.132537e+09 -3.932538e+09 -4.092538e+09 -7.760129e+02 -5.544998e+01 6.135990e+01
-4.647700e+09 -4.447701e+09 -4.607701e+09 -6.268955e+02 -5.076185e+00 5.655562e+01
-4.991221e+09 -4.791223e+09 -4.951222e+09 -5.661551e+02 -5.921308e+00 -3.398848e+01
-4.646250e+09 -4.446251e+09 -4.606251e+09 -6.763645e+02 -2.222465e+01 2.898590e+01
-4.294621e+09 -4.094620e+09 -4.254620e+09 5.246981e+01 9.986029e+00 -7.904270e+00
-4.819504e+09 -4.619503e+09 -4.779502e+09 -1.231073e+02 -2.647466e+01 -2.028472e+01
-4.991163e+09 -4.791162e+09 -4.951162e+09 -7.053750e+01 3.114869e+01 2.923107e+01
-4.131729e+09 -3.931728e+09 -4.091728e+09 1.326067e+01 6.225394e+01 -7.651201e-01
-4.645382e+09 -4.445381e+09 -4.605381e+09 2.526204e+01 1.363903e+01 -4.243364e+01
-4.129190e+09 -3.929193e+09 -4.089192e+09 -5.739797e+02 1.109674e+01 8.157583e+01
-4.308030e+09 -4.108032e+09 -4.268031e+09 -8.011514e+02 6.710937e+00 -1.107366e+02
-4.651262e+09 -4.451265e+09 -4.611264e+09 -8.050276e+02 2.690236e+01 -3.301905e+00
-4.813494e+09 -4.613498e+09 -4.773496e+09 -2.741092e+02 -2.817240e+01 -4.793262e+02
-4.824382e+09 -4.624385e+09 -4.784384e+09 -8.665200e+02 -1.780379e+01 1.892909e+02
-4.078346e+09 -3.878342e+09 -4.038347e+09 -1.350110e+03 -9.051480e+02 -7.977889e+02
-4.648198e+09 -4.448194e+09 -4.608200e+09 -1.060765e+03 -5.872566e+02 -3.423156e+02
-4.475149e+09 -4.275145e+09 -4.435150e+09 -1.636789e+03 -8.269116e+02 -5.587470e+02
-4.655658e+09 -4.455655e+09 -4.615661e+09 -1.404777e+03 -8.454323e+02 -5.525951e+02
-3.961884e+09 -3.761883e+09 -3.921882e+09 -3.545049e+02 1.874190e+01 -4.050428e+01
-4.819480e+09 -4.619479e+09 -4.779479e+09 -1.060421e+02 4.859402e+01 9.362241e+00
-4.991184e+09 -4.791183e+09 -4.951183e+09 -4.059480e+02 -4.345770e+01 1.159518e+01
-4.302303e+09 -4.102303e+09 -4.262302e+09 -7.859240e+02 -3.655453e+01 -3.434327e+01
-4.818769e+09 -4.618768e+09 -4.778768e+09 -1.758078e+02 -4.251788e+01 -3.931512e+01
-4.131863e+09 -3.931862e+09 -4.091862e+09 -2.949103e+02 4.285450e+00 -1.487970e+01
-3.941466e+09 -3.741469e+09 -3.901468e+09 -2.372873e+03 3.316365e+02 -4.619154e+02
-4.110830e+09 -3.910832e+09 -4.070830e+09 -2.529083e+03 4.723612e+02 -5.090979e+02
-4.299268e+09 -4.099268e+09 -4.259268e+09 -2.618657e+03 4.115602e+02 -1.789366e+02
-4.299425e+09 -4.099426e+09 -4.259426e+09 -3.032684e+03 5.113002e+02 -3.577190e+02
-4.129891e+09 -3.929892e+09 -4.089890e+09 -3.102369e+03 1.029783e+03 -4.358392e+02
-4.644796e+09 -4.444796e+09 -4.604796e+09 7.433954e+02 4.779231e+01 3.032071e+00
-4.302265e+09 -4.102265e+09 -4.262265e+09 7.216853e+02 -3.030456e+01 -1.441000e+02
-4.818085e+09 -4.618085e+09 -4.778085e+09 6.360493e+02 -1.303210e+01 -1.745020e+01
-4.132723e+09 -3.932723e+09 -4.092723e+09 9.683762e+02 -2.523546e+01 -1.053892e+02
-4.992307e+09 -4.792307e+09 -4.952307e+09 9.601647e+02 -1.820618e+01 -9.047303e+01
-4.303219e+09 -4.103219e+09 -4.263219e+09 9.399920e+02 -1.515259e+01 -6.007751e+01
-4.646623e+09 -4.446624e+09 -4.606624e+09 1.016644e+03 1.871464e+01 -7.515279e+01
-4.817534e+09 -4.617529e+09 -4.777540e+09 -1.866768e+03 -8.479685e+02 9.557149e+02
-4.817812e+09 -4.617809e+09 -4.777818e+09 -4.381723e+02 -7.480256e+02 6.976870e+02
-4.305027e+09 -4.105032e+09 -4.265032e+09 8.730140e+02 -1.363175e+03 5.141833e+02
-4.644898e+09 -4.444894e+09 -4.604906e+09 -4.086497e+02 -1.184862e+03 1.143668e+03
-4.646266e+09 -4.446271e+09 -4.606275e+09 3.591454e+02 -1.062171e+03 2.493221e+02
-4.817813e+09 -4.617800e+09 -4.777824e+09 9.390965e+02 1.139230e+02 -1.119660e+03
-2.093779e+09 -1.893774e+09 -2.053777e+09 8.830191e+01 1.039983e+03 -2.678634e+02
-4.131715e+09 -3.931711e+09 -4.091728e+09 3.799169e+03 5.386838e+03 -3.631027e+03
-4.644898e+09 -4.444892e+09 -4.604913e+09 2.514905e+03 1.452293e+03 -1.396567e+03
-4.817532e+09 -4.617527e+09 -4.777551e+09 1.221471e+03 1.905675e+03 -2.328212e+01
-4.291036e+09 -4.091031e+09 -4.250992e+09 1.307842e+03 -3.962082e+03 -8.199138e+03
-4.808536e+09 -4.608533e+09 -4.768515e+09 2.489575e+03 -1.390908e+03 -2.697959e+03
-4.285055e+09 -4.085051e+09 -4.245009e+09 -4.897028e+02 1.795639e+02 -7.213046e+03
-3.952298e+09 -3.752298e+09 -3.912272e+09 -9.486162e+02 -8.296658e+02 -1.059001e+04
-4.462456e+09 -4.262452e+09 -4.422457e+09 -1.466157e+03 -8.261114e+02 -5.723037e+02
-4.649052e+09 -4.449046e+09 -4.609055e+09 7.004660e+02 -4.651114e+02 -8.886972e+02
-4.133957e+09 -3.933950e+09 -4.093960e+09 3.601697e+02 -1.663238e+03 -1.422752e+03
-4.657698e+09 -4.457692e+09 -4.617702e+09 -1.815435e+02 -6.943872e+02 -6.331284e+02
-4.307399e+09 -4.107393e+09 -4.267401e+09 1.220629e+03 -7.764125e+02 -1.097853e+03
-4.131592e+09 -3.931593e+09 -4.091591e+09 2.284703e+03 -7.205984e+01 -5.428927e+02
-4.474824e+09 -4.274826e+09 -4.434824e+09 2.301684e+03 -2.193206e+02 -6.136094e+02
-4.818668e+09 -4.618667e+09 -4.778667e+09 -7.301355e+02 9.758676e+01 8.236906e+01
-4.814343e+09 -4.614344e+09 -4.774342e+09 1.820820e+03 -1.211004e+02 -3.148085e+02
-4.295345e+09 -4.095345e+09 -4.255344e+09 2.256705e+03 -1.853666e+02 -5.617291e+02
-4.132406e+09 -3.932407e+09 -4.092407e+09 7.904819e+02 5.412730e+01 5.572152e+01
-4.991409e+09 -4.791410e+09 -4.951410e+09 8.959288e+02 -1.912722e+01 -2.516377e+01
-4.302823e+09 -4.102824e+09 -4.262824e+09 7.282839e+02 -3.683127e+00 -2.557683e+01
-4.818678e+09 -4.618679e+09 -4.778679e+09 6.055040e+02 2.473392e+01 6.475073e+01
-4.818778e+09 -4.618779e+09 -4.778778e+09 6.607913e+02 -1.109361e+01 -8.089837e+01
-4.132193e+09 -3.932193e+09 -4.092193e+09 6.861281e+02 -2.591574e+00 -7.451987e+01
-4.475250e+09 -4.275249e+09 -4.435249e+09 -3.186517e+02 -1.024279e+01 -3.408072e+01
-4.133282e+09 -3.933281e+09 -4.093282e+09 -3.684886e+02 -1.974930e+01 1.184848e+01
-4.472630e+09 -4.272629e+09 -4.432630e+09 -4.219457e+02 -1.244257e+01 -1.459283e+01
-4.309907e+09 -4.109906e+09 -4.269906e+09 -4.978138e+02 -7.623342e+00 -4.575597e+00
-4.649523e+09 -4.449529e+09 -4.609524e+09 1.035695e+03 1.080867e+01 -5.588296e+01
-4.315465e+09 -4.115471e+09 -4.275466e+09 1.249953e+03 3.300953e+02 2.216196e+01
-4.143022e+09 -3.943027e+09 -4.103022e+09 1.422208e+03 1.114771e+02 8.391595e+00
-4.655562e+09 -4.455566e+09 -4.615562e+09 1.514481e+03 9.224279e+01 -4.376478e+01
-4.645840e+09 -4.445841e+09 -4.605840e+09 1.175692e+03 5.744096e+01 1.970268e+01
-4.818791e+09 -4.618792e+09 -4.778792e+09 1.181569e+03 5.971587e+01 1.069615e+02
-4.645774e+09 -4.445775e+09 -4.605774e+09 1.206144e+03 5.355699e+01 -8.370250e+01
-4.133115e+09 -3.933116e+09 -4.093116e+09 1.399316e+03 4.847657e+01 -7.295783e+01
-4.645680e+09 -4.445680e+09 -4.605680e+09 1.500738e+03 3.015093e+01 3.286948e+01
-4.302071e+09 -4.102071e+09 -4.262081e+09 1.835142e+02 -3.600997e+03 1.839228e+03
-4.302034e+09 -4.102033e+09 -4.262044e+09 6.727202e+02 -3.796443e+03 1.771779e+03
-4.645421e+09 -4.445416e+09 -4.605432e+09 -1.348719e+03 -6.575480e+02 8.013318e+02
-4.644655e+09 -4.444650e+09 -4.604663e+09 -9.875407e+02 -4.035157e+02 8.833051e+02
-4.302655e+09 -4.102649e+09 -4.262667e+09 -1.721290e+03 -4.525080e+03 2.046966e+03
-4.131473e+09 -3.931469e+09 -4.091484e+09 -1.784459e+02 -4.048092e+03 3.282548e+03
-4.131472e+09 -3.931473e+09 -4.091489e+09 2.096321e+03 6.657155e+03 -1.021020e+03
-4.817474e+09 -4.617475e+09 -4.777486e+09 2.921245e+03 1.907902e+03 2.914993e+02
-4.991058e+09 -4.791051e+09 -4.951070e+09 2.223518e+03 1.693008e+03 -9.197026e+02
-4.818228e+09 -4.618218e+09 -4.778235e+09 1.151613e+03 7.024002e+01 -8.825223e+02
-4.818143e+09 -4.618141e+09 -4.778154e+09 3.538818e+03 1.314353e+03 -1.635505e+03
-4.302036e+09 -4.102033e+09 -4.262048e+09 3.173097e+03 4.132720e+03 -2.639092e+03
-4.819777e+09 -4.619780e+09 -4.779777e+09 -1.121948e+03 2.003844e+02 9.184450e+01
-4.645798e+09 -4.445802e+09 -4.605799e+09 -1.298265e+03 1.102898e+02 -2.861665e+01
-4.131995e+09 -3.932000e+09 -4.091996e+09 -1.257514e+03 1.414487e+02 6.196991e+01
-4.303731e+09 -4.103734e+09 -4.263731e+09 -1.288641e+03 1.786982e+01 2.099606e+01
-4.818967e+09 -4.618960e+09 -4.778910e+09 -6.566603e+02 -1.273015e+03 1.492283e+03
-4.818050e+09 -4.618039e+09 -4.778017e+09 -1.819180e+03 -4.629249e+03 2.005967e+03
-4.302656e+09 -4.102646e+09 -4.262614e+09 -1.671651e+03 -7.164979e+03 2.455000e+03
-4.644183e+09 -4.444165e+09 -4.604158e+09 -2.565651e+03 -5.804078e+03 -2.092929e+03
-4.302560e+09 -4.102554e+09 -4.262500e+09 5.404724e+02 -4.327543e+03 -6.558392e+02
-4.626398e+09 -4.426397e+09 -4.586398e+09 -1.501563e+02 -1.677175e+01 -1.191755e+01
-4.751975e+09 -4.551974e+09 -4.711975e+09 -3.251074e+01 -1.148649e+00 -1.437900e+01
-4.813857e+09 -4.613856e+09 -4.773857e+09 -8.151738e+01 -5.140919e+00 2.147316e+01
-4.816248e+09 -4.616247e+09 -4.776248e+09 -1.205115e+02 -8.811583e-01 2.737334e+01
-3.866776e+09 -3.666775e+09 -3.826775e+09 -1.114921e+02 -1.882469e+01 -7.082491e+00
-4.766311e+09 -4.566310e+09 -4.726310e+09 -4.505879e+01 -6.819638e+00 -3.729429e+00
-4.817667e+09 -4.617670e+09 -4.777669e+09 -4.734378e+02 9.413138e+00 6.568461e+01
-4.817945e+09 -4.617948e+09 -4.777947e+09 -1.093664e+02 -4.922880e+00 -1.445737e+01
-4.645019e+09 -4.445022e+09 -4.605021e+09 -4.823781e+02 -4.523529e+01 7.801167e+01
-4.301787e+09 -4.101789e+09 -4.261788e+09 -4.821647e+02 5.212350e+01 -1.516571e+02
-4.645407e+09 -4.445410e+09 -4.605409e+09 -2.142430e+02 -1.643064e+00 4.590436e+01
-4.302211e+09 -4.102213e+09 -4.262213e+09 -9.024072e+02 -3.676626e+01 -1.745197e+01
-4.818274e+09 -4.618276e+09 -4.778275e+09 -4.395200e+02 -1.576075e+01 -3.679542e+01
-4.302100e+09 -4.102103e+09 -4.262102e+09 -4.850090e+02 -9.233435e+00 -2.303187e+01
-4.818151e+09 -4.618153e+09 -4.778152e+09 -7.052848e+02 1.046328e+01 -8.184827e+01
-4.817483e+09 -4.617485e+09 -4.777485e+09 -8.802982e+02 -3.062703e+01 9.983489e+01
-4.302046e+09 -4.102048e+09 -4.262047e+09 -6.285271e+02 -3.931522e+01 2.952676e+01
-4.991022e+09 -4.791020e+09 -4.951030e+09 3.448382e+03 9.156548e+02 -4.747655e+02
-4.818270e+09 -4.618268e+09 -4.778276e+09 3.474301e+03 8.855381e+02 -1.193737e+03
-4.132479e+09 -3.932478e+09 -4.092483e+09 3.779108e+03 1.808936e+03 -1.451899e+03
-4.991284e+09 -4.791286e+09 -4.951291e+09 3.380605e+03 6.725648e+02 -2.730685e+02
-4.298928e+09 -4.098932e+09 -4.258936e+09 3.197431e+03 2.634971e+03 -8.726458e+02
-4.644851e+09 -4.444855e+09 -4.604858e+09 3.291319e+03 8.234913e+02 -1.958619e+02
-4.645576e+09 -4.445578e+09 -4.605588e+09 -2.040438e+02 -1.500078e+03 4.307915e+02
-4.991019e+09 -4.791020e+09 -4.951032e+09 -1.807660e+02 -1.417183e+03 2.300469e+02
-4.653327e+09 -4.453325e+09 -4.613341e+09 -1.225624e+03 -1.715403e+03 6.440015e+02
-4.644705e+09 -4.444705e+09 -4.604719e+09 -5.458100e+02 -1.428717e+03 4.848299e+02
-4.131194e+09 -3.931194e+09 -4.091209e+09 -5.596492e+02 -5.149373e+03 1.404777e+03
-4.656016e+09 -4.456015e+09 -4.616031e+09 -1.524324e+03 -1.717073e+03 6.135375e+01
-4.645320e+09 -4.445322e+09 -4.605322e+09 -5.113745e+02 -7.382887e+00 1.217077e+01
-4.302343e+09 -4.102345e+09 -4.262345e+09 -7.426696e+02 -7.266937e+00 -1.396555e+01
-4.310195e+09 -4.110196e+09 -4.270196e+09 -1.025488e+03 -9.629053e+00 -2.120336e+01
-4.644707e+09 -4.444708e+09 -4.604708e+09 -8.080249e+02 -1.900099e+01 2.945984e+01
-4.131195e+09 -3.931196e+09 -4.091196e+09 -9.213506e+02 -5.966925e+01 8.323688e+01
-4.133884e+09 -3.933885e+09 -4.093885e+09 -8.556194e+02 1.258073e+00 -3.633216e+01
-4.991695e+09 -4.791693e+09 -4.951695e+09 -1.488446e+03 -1.264524e+01 -2.979915e+01
-4.818802e+09 -4.618799e+09 -4.778801e+09 -6.339816e+02 -1.259449e+02 1.074018e+02
-4.818892e+09 -4.618890e+09 -4.778892e+09 -8.000211e+02 -7.509909e+01 6.826337e+01
-4.302896e+09 -4.102894e+09 -4.262896e+09 -6.030601e+02 -3.219277e+02 2.822291e+02
-4.302898e+09 -4.102895e+09 -4.262898e+09 -1.181561e+03 -2.406346e+02 3.687743e+02
-4.132338e+09 -3.932335e+09 -4.092338e+09 -1.308583e+03 -3.159497e+02 4.861349e+02
-4.132737e+09 -3.932736e+09 -4.092737e+09 -8.959433e+02 -1.513818e+02 1.249128e+02
-4.302890e+09 -4.102891e+09 -4.262839e+09 -1.982321e+03 -3.239491e+03 8.785008e+03
-4.991700e+09 -4.791696e+09 -4.951651e+09 7.639664e+02 1.094969e+03 1.337493e+03
-4.819274e+09 -4.619269e+09 -4.779252e+09 5.061324e+03 3.459351e+03 2.819916e+03
-4.818799e+09 -4.618803e+09 -4.778765e+09 -6.255642e+02 -2.974009e+03 3.465828e+03
-4.818890e+09 -4.618893e+09 -4.778857e+09 1.685169e+03 3.711551e+03 3.590051e+03
-4.132734e+09 -3.932733e+09 -4.092703e+09 4.455353e+03 8.388089e+03 9.264581e+03
-4.132339e+09 -3.932342e+09 -4.092341e+09 -2.508029e+03 1.019843e+03 5.453601e+02
-4.302896e+09 -4.102899e+09 -4.262897e+09 -2.079932e+03 4.219059e+02 2.171725e+02
-4.818801e+09 -4.618805e+09 -4.778802e+09 -1.861208e+03 3.990903e+02 2.587487e+02
-4.132808e+09 -3.932815e+09 -4.092811e+09 -1.341508e+03 9.754707e+02 3.559656e+02
-4.991696e+09 -4.791701e+09 -4.951700e+09 -2.202736e+03 2.914298e+02 1.604308e+02
-4.818891e+09 -4.618896e+09 -4.778893e+09 -1.706832e+03 -2.482704e+01 -1.759853e+02
-4.132736e+09 -3.932742e+09 -4.092738e+09 -1.431932e+03 5.746432e+02 -7.600279e+01
-4.820406e+09 -4.620406e+09 -4.780405e+09 -5.385145e+02 -4.925375e+01 -5.087402e+01
-4.475096e+09 -4.275096e+09 -4.435095e+09 -7.633324e+02 9.931486e+01 -4.989481e+01
-4.819015e+09 -4.619015e+09 -4.779014e+09 -6.147151e+02 4.322679e+00 2.601322e+00
-4.645522e+09 -4.445522e+09 -4.605521e+09 -4.571581e+02 7.426234e+01 -2.575069e+01
-4.991184e+09 -4.791184e+09 -4.951183e+09 -5.694764e+02 -8.216271e+01 -1.621075e+01
-4.131863e+09 -3.931863e+09 -4.091862e+09 -7.959417e+02 7.400665e+01 -9.326197e+00
-4.305736e+09 -4.105737e+09 -4.265735e+09 -3.967049e+02 9.190212e+01 -6.391466e+00
-4.302947e+09 -4.102947e+09 -4.262946e+09 -5.231635e+02 -4.194715e+01 -1.835308e+01
-4.821288e+09 -4.621287e+09 -4.781287e+09 -4.280363e+02 -1.134735e+01 -5.996069e+01
-4.306291e+09 -4.106290e+09 -4.266290e+09 -4.103382e+02 -4.958830e+00 -1.180931e+01
-4.658699e+09 -4.458698e+09 -4.618698e+09 -5.336996e+02 -3.286101e+01 -6.131654e+00
-4.819748e+09 -4.619747e+09 -4.779747e+09 -3.754914e+02 -1.134194e+01 -5.040030e+01
-4.314313e+09 -4.114312e+09 -4.274313e+09 -5.896017e+02 -1.251281e+01 -3.971902e+00
-4.314312e+09 -4.114318e+09 -4.274314e+09 1.225182e+03 3.056197e+02 -6.647435e+01
-4.821287e+09 -4.621293e+09 -4.781288e+09 9.010540e+02 1.718233e+02 -3.201659e+01
-4.306290e+09 -4.106296e+09 -4.266291e+09 1.036003e+03 1.447824e+02 -1.621856e+01
-4.306566e+09 -4.106571e+09 -4.266566e+09 7.804648e+02 1.367900e+02 7.383297e+01
-4.306915e+09 -4.106921e+09 -4.266916e+09 6.757360e+02 1.395829e+02 1.027799e+01
-4.131173e+09 -3.931172e+09 -4.091173e+09 -7.433174e+02 -6.496771e+01 -6.031936e+01
-4.818455e+09 -4.618453e+09 -4.778454e+09 -5.512497e+02 -5.323763e+01 8.707782e+01
-4.304878e+09 -4.104877e+09 -4.264878e+09 -1.106893e+03 -6.836701e+01 6.406313e+01
-4.821818e+09 -4.621817e+09 -4.781818e+09 -1.296919e+03 -6.523322e+01 1.141358e+02
-4.135353e+09 -3.935352e+09 -4.095353e+09 -1.325410e+03 -2.641378e+01 -8.358059e+01
-4.305124e+09 -4.105123e+09 -4.265124e+09 -1.134252e+03 -6.332525e+01 5.579177e+01
-4.463185e+09 -4.263184e+09 -4.423185e+09 -1.159802e+03 -6.034039e+01 1.322203e+01
-4.133055e+09 -3.933053e+09 -4.093054e+09 -1.032140e+03 -7.302870e+01 -4.885693e+01
-4.131171e+09 -3.931166e+09 -4.091169e+09 4.360960e+03 9.666979e+02 1.543711e+03
-4.819779e+09 -4.619777e+09 -4.779777e+09 4.701356e+03 2.822373e+02 1.549000e+03
-4.304581e+09 -4.104581e+09 -4.264575e+09 4.851631e+03 9.065984e+02 1.789240e+03
-4.821913e+09 -4.621898e+09 -4.781901e+09 1.498563e+03 2.858076e+03 -1.836126e+03
-4.135448e+09 -3.935433e+09 -4.095439e+09 1.776064e+03 3.453020e+03 -2.352962e+02
-4.305124e+09 -4.105114e+09 -4.265100e+09 5.325848e+03 3.988236e+03 2.346653e+03
-4.463190e+09 -4.263176e+09 -4.423185e+09 1.682286e+03 8.005603e+02 -9.760130e+02
-4.133054e+09 -3.933047e+09 -4.093044e+09 6.046356e+03 4.724420e+03 4.697634e+03
-4.131172e+09 -3.931180e+09 -4.091175e+09 -9.196967e+01 6.530651e+02 2.728405e+01
-4.991475e+09 -4.791482e+09 -4.951478e+09 -6.982262e+02 8.462971e+01 5.206575e+01
-1.575080e+09 -1.375079e+09 -1.535079e+09 -2.418400e+01 -4.657596e+00 -2.373956e+01
-4.817638e+09 -4.617645e+09 -4.777640e+09 -6.866144e+01 -3.842752e+01 -3.954510e+01
-4.826455e+09 -4.626463e+09 -4.786461e+09 -3.693633e+02 4.958290e+02 2.708050e+02
-4.991146e+09 -4.791136e+09 -4.951150e+09 -1.665042e+01 1.082814e+03 -8.892639e+02
-4.305123e+09 -4.105131e+09 -4.265127e+09 -6.528382e+02 8.064244e+02 9.412052e+01
-4.119952e+09 -3.919960e+09 -4.079956e+09 3.859410e+02 1.173643e+03 -5.112040e+01
-4.133054e+09 -3.933061e+09 -4.093057e+09 -6.199366e+02 9.208219e+02 4.202313e+01
-4.134264e+09 -3.934264e+09 -4.094264e+09 -5.194656e+02 9.025944e+00 -2.233947e+01
-4.648561e+09 -4.448561e+09 -4.608561e+09 -4.751417e+02 -1.352178e+01 4.913616e+01
-4.992374e+09 -4.792374e+09 -4.952374e+09 -5.839520e+02 1.787230e+00 -6.271483e+01
-4.134975e+09 -3.934976e+09 -4.094976e+09 -8.007536e+02 -6.121409e+01 3.089326e+01
-4.305928e+09 -4.105929e+09 -4.265929e+09 -7.111647e+02 -2.152687e+01 -6.197484e+01
-4.993041e+09 -4.793042e+09 -4.953042e+09 -7.698967e+02 -6.466498e+00 -6.762721e+01
-4.648070e+09 -4.448071e+09 -4.608071e+09 -8.421286e+02 -1.456997e+01 6.819416e+01
-4.821093e+09 -4.621093e+09 -4.781093e+09 -6.530389e+02 -3.758128e+01 1.256436e+01
-4.304012e+09 -4.104012e+09 -4.264012e+09 -6.641987e+02 1.181951e+01 2.579093e+01
-4.134130e+09 -3.934136e+09 -4.094137e+09 -1.746986e+03 -3.035263e+03 -3.557638e+02
-4.648799e+09 -4.448802e+09 -4.608803e+09 -2.105577e+03 -4.078506e+02 -2.707917e+02
-4.992374e+09 -4.792375e+09 -4.952383e+09 -1.957744e+03 -1.230866e+03 -1.605845e+02
-4.648070e+09 -4.448072e+09 -4.608082e+09 -1.479603e+03 -1.470184e+03 -5.035069e+01
-4.993041e+09 -4.793040e+09 -4.953054e+09 -2.031013e+03 -2.139711e+03 -1.859663e+02
-4.134975e+09 -3.934976e+09 -4.094987e+09 -2.214917e+03 -3.821671e+03 -6.968825e+02
-4.305929e+09 -4.105931e+09 -4.265941e+09 -1.779754e+03 -4.497708e+03 -3.894732e+02
-4.821093e+09 -4.621093e+09 -4.781101e+09 -2.175732e+03 -6.973390e+02 -3.094309e+02
-4.132061e+09 -3.932062e+09 -4.092070e+09 -2.985931e+03 -4.130678e+03 -1.307455e+03
-4.134386e+09 -3.934387e+09 -4.094387e+09 2.925427e+03 7.814127e+02 -5.548305e+02
-4.820149e+09 -4.620151e+09 -4.780149e+09 2.037502e+03 6.956275e+01 6.921752e+01
-4.820429e+09 -4.620431e+09 -4.780430e+09 2.652465e+03 2.812072e+02 -2.664321e+02
-4.645242e+09 -4.445247e+09 -4.605247e+09 2.310398e+03 1.437537e+03 2.921564e+02
-4.993042e+09 -4.793046e+09 -4.953046e+09 2.833754e+03 5.159090e+02 -1.628139e+02
-4.134977e+09 -3.934980e+09 -4.094980e+09 2.957511e+03 1.316637e+03 -1.343355e+02
-4.305930e+09 -4.105932e+09 -4.265934e+09 3.177628e+03 1.435777e+03 -5.648920e+02
-4.821094e+09 -4.621097e+09 -4.781095e+09 2.441222e+03 2.254992e+02 1.177534e+02
-4.304012e+09 -4.104015e+09 -4.264014e+09 2.561509e+03 6.469142e+02 -2.787223e+01
-4.991099e+09 -4.791102e+09 -4.951108e+09 9.586620e+02 -7.527752e+02 2.981970e+02
-4.645424e+09 -4.445426e+09 -4.605430e+09 1.119068e+03 -9.634052e+02 3.985436e+02
-4.820392e+09 -4.620396e+09 -4.780396e+09 1.229411e+03 -5.274955e+02 3.528791e+02
-4.477160e+09 -4.277164e+09 -4.437164e+09 1.133243e+03 -9.768847e+02 4.939804e+02
-4.132533e+09 -3.932538e+09 -4.092539e+09 9.935521e+02 -1.862854e+03 2.575641e+02
-4.133921e+09 -3.933927e+09 -4.093926e+09 1.195598e+03 -1.235541e+03 4.130507e+02
-4.475076e+09 -4.275078e+09 -4.435080e+09 1.355800e+03 -1.175289e+03 4.742904e+02
-4.302920e+09 -4.102924e+09 -4.262927e+09 1.216249e+03 -2.020227e+03 8.489255e+02
-4.645427e+09 -4.445420e+09 -4.605429e+09 2.097050e+03 2.645287e+02 -8.995025e+02
-4.991102e+09 -4.791095e+09 -4.951108e+09 1.919136e+03 1.185218e+03 -6.834043e+02
-4.647897e+09 -4.447889e+09 -4.607898e+09 -6.555362e+02 -3.828167e+02 -9.378319e+02
-4.476777e+09 -4.276770e+09 -4.436778e+09 -1.568932e+03 9.947031e+01 -3.206170e+02
-4.819634e+09 -4.619627e+09 -4.779635e+09 7.047303e+02 7.809691e+02 -4.394649e+02
-4.133167e+09 -3.933161e+09 -4.093168e+09 8.130303e+02 5.381797e+02 -7.893358e+02
-4.475076e+09 -4.275068e+09 -4.435077e+09 -1.213967e+03 -8.477446e+01 -8.335447e+02
-4.475069e+09 -4.275062e+09 -4.435071e+09 1.144076e+03 4.638809e+02 -1.031970e+03
-4.302077e+09 -4.102080e+09 -4.262079e+09 1.695990e+02 -2.502915e+00 -7.627296e+01
-4.302273e+09 -4.102275e+09 -4.262274e+09 4.307217e+02 -1.217425e+01 -1.132287e+02
-4.645904e+09 -4.445906e+09 -4.605905e+09 4.850056e+02 2.885880e+01 3.623143e+01
-4.131686e+09 -3.931689e+09 -4.091688e+09 2.904358e+02 2.053683e+01 1.094809e+00
-4.475920e+09 -4.275918e+09 -4.435919e+09 8.090385e+01 -1.384666e+02 -5.587905e+01
-4.132704e+09 -3.932702e+09 -4.092703e+09 -1.559604e+02 -2.039996e+02 9.719413e+01
-4.645800e+09 -4.445798e+09 -4.605799e+09 6.007119e+00 -2.511270e+02 1.390255e+02
-4.991405e+09 -4.791403e+09 -4.951404e+09 -3.929924e+02 3.630585e+01 -5.581876e+01
-4.302707e+09 -4.102705e+09 -4.262707e+09 -3.895791e+02 -1.210724e+02 1.176152e+02
-4.475230e+09 -4.275228e+09 -4.435229e+09 2.605391e+02 -3.545034e+02 8.566599e+01
-4.132108e+09 -3.932106e+09 -4.092107e+09 -9.630551e+01 -3.010197e+02 2.038005e+02
-4.646002e+09 -4.446000e+09 -4.606002e+09 -2.132133e+02 -1.985326e+02 1.250662e+02
-4.475918e+09 -4.275923e+09 -4.435919e+09 -1.027789e+03 2.347359e+02 1.061623e+02
-4.132702e+09 -3.932707e+09 -4.092703e+09 -8.306922e+02 1.235437e+02 -5.069612e+01
-4.991403e+09 -4.791408e+09 -4.951405e+09 -1.298235e+03 9.167644e+01 7.902693e+01
-4.302706e+09 -4.102711e+09 -4.262707e+09 -1.102152e+03 3.131958e+02 7.180236e+01
-4.475228e+09 -4.275232e+09 -4.435229e+09 -1.201136e+03 1.176467e+02 -8.247623e+00
-4.476546e+09 -4.276550e+09 -4.436546e+09 -1.184558e+03 -4.265692e+01 -9.389385e+01
-4.132106e+09 -3.932111e+09 -4.092107e+09 -1.530215e+03 4.512223e+02 1.834492e+02
-4.646000e+09 -4.446005e+09 -4.606002e+09 -1.536534e+03 1.433854e+02 -7.113458e+00
-4.302566e+09 -4.102570e+09 -4.262566e+09 -1.298298e+03 1.321672e+02 5.347498e+01
-4.132921e+09 -3.932931e+09 -4.092916e+09 1.596337e+02 -1.573832e+03 5.210364e+03
-4.132937e+09 -3.932948e+09 -4.092932e+09 3.606913e+03 3.194814e+03 5.782228e+03
-4.645792e+09 -4.445800e+09 -4.605782e+09 -2.441081e+03 -9.028292e+02 3.132888e+03
-4.991397e+09 -4.791402e+09 -4.951373e+09 2.538608e+03 7.049427e+02 1.825923e+03
-4.302699e+09 -4.102706e+09 -4.262686e+09 3.202955e+03 9.152080e+02 6.342490e+03
-4.635956e+09 -4.435965e+09 -4.595947e+09 -1.865404e+03 -1.024754e+03 1.920156e+03
-4.645995e+09 -4.446002e+09 -4.605972e+09 4.124710e+02 2.819114e+02 2.869888e+03
-4.132097e+09 -3.932106e+09 -4.092078e+09 -2.043528e+03 -3.915938e+03 9.374713e+03
-4.131274e+09 -3.931268e+09 -4.091215e+09 -4.747718e+02 -1.062994e+03 -2.530113e+02
-4.819347e+09 -4.619340e+09 -4.779294e+09 2.323113e+02 9.669770e+02 4.055357e+03
-4.991321e+09 -4.791315e+09 -4.951269e+09 -2.144640e+03 -5.195507e+02 1.616396e+03
-4.817127e+09 -4.617115e+09 -4.777087e+09 5.884339e+02 -1.100077e+03 -5.688052e+03
-4.820376e+09 -4.620366e+09 -4.780328e+09 -2.326248e+02 5.000978e+03 -2.065666e+03
-4.303752e+09 -4.103748e+09 -4.263705e+09 3.087000e+03 4.274533e+03 9.236589e+03
-3.414619e+09 -3.214618e+09 -3.374618e+09 5.545466e+01 7.430234e+00 -1.320207e+01
-4.819339e+09 -4.619344e+09 -4.779344e+09 -2.209055e+03 5.511983e+02 1.621729e+02
-4.132718e+09 -3.932723e+09 -4.092721e+09 -2.234609e+03 6.607281e+02 6.510961e+01
-4.818960e+09 -4.618962e+09 -4.778963e+09 -2.738118e+03 6.689026e+02 4.257038e+02
-4.623475e+09 -4.423475e+09 -4.583476e+09 -2.295436e+03 -4.084233e+01 1.248791e+02
-4.131245e+09 -3.931244e+09 -4.091245e+09 -2.251951e+03 -2.863644e+01 3.044478e+02
-4.303749e+09 -4.103747e+09 -4.263748e+09 -1.314230e+03 -8.940470e+01 1.432865e+02
-4.817347e+09 -4.617333e+09 -4.777335e+09 4.290347e+02 -3.332139e+03 1.572835e+03
-4.816409e+09 -4.616400e+09 -4.776372e+09 6.928958e+02 -4.940357e+03 2.273189e+03
-4.299334e+09 -4.099327e+09 -4.259306e+09 4.299234e+02 -3.190447e+03 -1.690261e+03
-4.130660e+09 -3.930640e+09 -4.090623e+09 -1.399390e+03 -1.382072e+04 3.266801e+03
-4.817327e+09 -4.617325e+09 -4.777328e+09 -3.006057e+03 -1.161312e+02 7.014077e+02
-4.816371e+09 -4.616370e+09 -4.776371e+09 -2.630704e+03 -9.950263e+01 2.070196e+02
-4.644150e+09 -4.444148e+09 -4.604151e+09 -2.547173e+03 1.495136e+02 3.544766e+02
-4.130063e+09 -3.930063e+09 -4.090064e+09 -2.883578e+03 2.937890e+02 1.536818e+02
-4.642501e+09 -4.442501e+09 -4.602501e+09 -2.618580e+03 1.329671e+02 2.102594e+02
-4.124960e+09 -3.924961e+09 -4.084961e+09 3.568241e+02 3.932492e+01 1.411947e+01
-4.132984e+09 -3.932984e+09 -4.092984e+09 4.116015e+02 1.141852e+01 -3.990362e+01
-4.645861e+09 -4.445863e+09 -4.605863e+09 3.869041e+02 2.228595e+01 1.823357e+01
-4.646194e+09 -4.446195e+09 -4.606194e+09 4.656814e+02 3.208598e+01 4.587836e+00
-4.991395e+09 -4.791396e+09 -4.951395e+09 5.658605e+02 -1.803955e+01 -1.741119e+01
-4.475308e+09 -4.275309e+09 -4.435309e+09 3.594560e+02 1.646209e+01 1.524320e+00
-4.646040e+09 -4.446041e+09 -4.606041e+09 5.505139e+02 3.268123e+01 1.175889e+01
-4.132153e+09 -3.932155e+09 -4.092154e+09 4.741050e+02 2.429419e+01 5.519261e+01
-4.295755e+09 -4.095749e+09 -4.255753e+09 -1.349377e+03 5.289580e+02 9.519256e+02
-3.457239e+09 -3.257234e+09 -3.417241e+09 -8.926348e+01 -2.287853e+03 -1.669855e+03
-4.471533e+09 -4.271528e+09 -4.431532e+09 -1.309680e+03 3.517402e+02 4.180727e+02
-4.299542e+09 -4.099539e+09 -4.259543e+09 -2.801824e+03 1.090430e+03 5.290695e+02
-4.817705e+09 -4.617702e+09 -4.777705e+09 -2.010250e+03 4.927926e+02 4.342950e+02
-4.131239e+09 -3.931236e+09 -4.091239e+09 -1.953390e+03 2.613023e+02 2.361091e+02
-4.825715e+09 -4.625702e+09 -4.785720e+09 -3.027230e+03 6.288052e+02 -3.692510e+02
-4.653661e+09 -4.453653e+09 -4.613668e+09 -3.081311e+03 1.467948e+03 7.677732e+02
-4.145494e+09 -3.945477e+09 -4.105495e+09 -3.766482e+03 3.395530e+03 -4.282132e+02
-4.139250e+09 -3.939241e+09 -4.099259e+09 -2.597230e+03 -1.871653e+03 1.441184e+03
-4.660808e+09 -4.460794e+09 -4.620809e+09 -2.609688e+03 2.143381e+03 -1.080410e+03
-4.132327e+09 -3.932328e+09 -4.092328e+09 8.345048e+02 -1.741118e+01 -1.097417e+02
-4.646224e+09 -4.446226e+09 -4.606226e+09 7.891533e+02 4.227257e+01 1.146155e+01
-4.132406e+09 -3.932407e+09 -4.092407e+09 9.326908e+02 5.698942e+01 2.529378e+01
-4.303075e+09 -4.103076e+09 -4.263075e+09 8.890425e+02 -2.134352e+01 -4.747810e+01
-4.991409e+09 -4.791410e+09 -4.951409e+09 1.105643e+03 -4.253364e+01 -3.060525e+01
-4.646307e+09 -4.446308e+09 -4.606308e+09 1.053272e+03 4.321294e+01 -2.814040e+01
-4.647640e+09 -4.447638e+09 -4.607639e+09 -3.608790e+02 1.450640e+02 5.178167e+01
-4.133751e+09 -3.933749e+09 -4.093749e+09 -2.487668e+02 8.628154e+01 -5.641145e+01
-4.133440e+09 -3.933439e+09 -4.093439e+09 -3.699287e+01 -1.558898e+01 -5.668272e+01
-4.819111e+09 -4.619109e+09 -4.779110e+09 -1.646473e+01 2.868547e+01 -2.458268e+01
-4.132519e+09 -3.932517e+09 -4.092518e+09 -4.971516e+02 1.053511e+02 2.969129e+01
-4.991717e+09 -4.791715e+09 -4.951715e+09 -4.002168e+02 -7.960742e+01 -5.095862e+01
-4.656918e+09 -4.456905e+09 -4.616903e+09 -4.812388e+02 4.784679e+03 -1.718257e+03
-4.313688e+09 -4.113674e+09 -4.273678e+09 -4.974046e+02 4.342059e+03 -1.333155e+03
-4.297312e+09 -4.097302e+09 -4.257249e+09 2.732935e+02 7.960018e+03 -6.248771e+02
-4.304767e+09 -4.104750e+09 -4.264739e+09 -4.642368e+03 4.722296e+03 -9.207853e+02
-4.478681e+09 -4.278667e+09 -4.438677e+09 2.576642e+03 3.090563e+03 -9.685330e+02
-4.640550e+09 -4.440540e+09 -4.600499e+09 3.587425e+02 5.350135e+03 -3.200215e+02
-4.991624e+09 -4.791617e+09 -4.951566e+09 7.765610e+02 4.940455e+02 1.011548e+03
-3.963120e+09 -3.763101e+09 -3.923101e+09 2.449949e+03 1.185532e+04 2.575898e+03
-4.652294e+09 -4.452294e+09 -4.612293e+09 -1.210707e+02 -5.722828e+01 -4.573025e+01
-4.108263e+09 -3.908263e+09 -4.068262e+09 -2.499473e+02 2.137201e+01 -3.390183e+01
-4.821104e+09 -4.621104e+09 -4.781103e+09 -4.318548e+02 -2.117043e+01 -2.923849e+01
-4.070157e+09 -3.870157e+09 -4.030156e+09 -2.970971e+02 6.753211e+01 -4.430332e+01
-4.095308e+09 -3.895308e+09 -4.055307e+09 -4.124281e+02 2.510142e+01 -2.201855e+01
-4.652521e+09 -4.452520e+09 -4.612521e+09 -1.490670e+03 -1.735218e+01 -1.105601e+01
-4.309288e+09 -4.109288e+09 -4.269288e+09 -1.490308e+03 -5.764265e+01 5.917381e+01
-4.283234e+09 -4.083234e+09 -4.243235e+09 -1.965371e+03 6.892628e+01 -3.534945e+00
-4.137048e+09 -3.937048e+09 -4.097049e+09 -1.634639e+03 -1.505984e+01 -1.424360e+02
-4.478586e+09 -4.278585e+09 -4.438585e+09 -1.229170e+03 -2.674496e+01 3.691575e+01
-4.305188e+09 -4.105187e+09 -4.265189e+09 -1.808801e+03 -3.047937e+01 3.183017e+01
-4.820701e+09 -4.620701e+09 -4.780702e+09 -1.858641e+03 -7.598110e+01 1.948229e+02
-3.963113e+09 -3.763112e+09 -3.923113e+09 -1.429293e+03 -1.480934e+02 1.173928e+02
-4.993682e+09 -4.793684e+09 -4.953684e+09 -3.935082e+01 4.113655e+00 -4.452724e+01
-4.663298e+09 -4.463300e+09 -4.623300e+09 1.200156e+02 1.255421e+01 4.176298e+01
-4.321084e+09 -4.121086e+09 -4.281086e+09 6.574059e+01 -7.026255e+00 -4.090612e+01
-4.148142e+09 -3.948144e+09 -4.108144e+09 1.082445e+02 1.431699e+01 -5.207443e+00
-4.046672e+09 -3.846673e+09 -4.006673e+09 1.240958e+02 1.144288e+01 -1.859515e+01
-4.201360e+09 -4.001362e+09 -4.161361e+09 1.189133e+01 -5.602938e-01 3.370214e+01
-4.663893e+09 -4.463897e+09 -4.623893e+09 7.372883e+02 -4.478741e+01 -5.453549e+02
-4.154127e+09 -3.954131e+09 -4.114128e+09 7.386175e+02 -1.704520e+02 -9.271071e+02
-4.133402e+09 -3.933403e+09 -4.093403e+09 1.865664e+02 4.515056e+00 3.150014e+01
-1.824561e+09 -1.624564e+09 -1.784560e+09 1.103097e+01 2.707991e+00 4.569580e+01
-4.303877e+09 -4.103879e+09 -4.263879e+09 2.503047e+02 -2.541344e+00 -3.079872e+01
-4.774292e+09 -4.574294e+09 -4.734293e+09 1.096254e+02 -5.073430e+00 2.439126e+01
-3.921811e+09 -3.721813e+09 -3.881812e+09 1.712972e+02 2.183976e+01 1.906126e+01
-4.819867e+09 -4.619869e+09 -4.779868e+09 1.835436e+02 1.084141e+01 -2.078210e+01
-4.476674e+09 -4.276676e+09 -4.436675e+09 2.039429e+02 4.601983e+00 2.439375e+00
-4.819746e+09 -4.619740e+09 -4.779742e+09 2.076107e+03 1.278652e+02 3.508558e+02
-4.464015e+09 -4.264010e+09 -4.424011e+09 2.717828e+03 -7.394143e+02 -6.481725e+01
-4.807771e+09 -4.607765e+09 -4.767768e+09 1.197916e+03 -7.417923e+01 7.908452e+02
-4.634361e+09 -4.434354e+09 -4.594357e+09 1.841081e+03 -7.879009e+02 3.452265e+02
-4.649922e+09 -4.449917e+09 -4.609917e+09 2.267725e+03 -3.440794e+02 7.125007e+02
-4.474973e+09 -4.274976e+09 -4.434973e+09 1.435867e+03 -1.173680e+02 -5.452354e+02
-4.645203e+09 -4.445206e+09 -4.605205e+09 9.110352e+02 2.623688e+01 -5.396679e+01
-4.131550e+09 -3.931553e+09 -4.091551e+09 1.153480e+03 1.029493e+02 -1.969390e+02
-4.817156e+09 -4.617158e+09 -4.777156e+09 1.543941e+03 6.435933e+01 5.801758e+01
-4.131754e+09 -3.931758e+09 -4.091756e+09 9.374542e+02 -1.592986e+02 -5.114511e+02
-4.130690e+09 -3.930692e+09 -4.090690e+09 1.650412e+03 -2.449747e+02 -8.531198e+02
-4.645606e+09 -4.445605e+09 -4.605604e+09 -1.001036e+03 1.166273e+02 -1.218816e+01
-4.131872e+09 -3.931872e+09 -4.091871e+09 -1.053117e+03 -3.351147e+00 -8.808766e+01
-4.302274e+09 -4.102274e+09 -4.262273e+09 -7.631728e+02 5.361146e+01 -2.455149e+00
-4.131892e+09 -3.931891e+09 -4.091891e+09 -6.330694e+02 1.055909e+02 2.696372e+01
-4.991244e+09 -4.791243e+09 -4.951243e+09 -7.470132e+02 -8.332805e+01 -3.194982e+01
-4.645630e+09 -4.445629e+09 -4.605629e+09 -6.221205e+02 1.172830e+02 -3.027528e+00
-4.131791e+09 -3.931784e+09 -4.091795e+09 2.203342e+03 2.994342e+03 -2.256511e+03
-4.302121e+09 -4.102112e+09 -4.262127e+09 1.801907e+03 2.982388e+03 -2.849539e+03
-4.991059e+09 -4.791051e+09 -4.951070e+09 1.764673e+03 1.761000e+03 -8.412450e+02
-4.302239e+09 -4.102227e+09 -4.262241e+09 -1.650401e+03 1.315925e+03 -3.302267e+03
-4.645348e+09 -4.445338e+09 -4.605356e+09 7.403978e+02 3.488982e+02 -1.061794e+03
-4.131800e+09 -3.931786e+09 -4.091805e+09 8.105613e+01 1.118073e+03 -3.487767e+03
-4.131787e+09 -3.931790e+09 -4.091794e+09 1.059843e+03 -2.126575e+03 5.816472e+02
-4.302118e+09 -4.102117e+09 -4.262125e+09 8.482306e+02 -2.362402e+03 1.214676e+03
-4.991058e+09 -4.791057e+09 -4.951067e+09 5.285865e+02 -7.942688e+02 4.034822e+02
-4.302235e+09 -4.102233e+09 -4.262239e+09 7.017294e+02 -1.494528e+03 1.068268e+03
-4.302115e+09 -4.102113e+09 -4.262120e+09 6.439830e+02 -2.293843e+03 1.552951e+03
-4.131799e+09 -3.931798e+09 -4.091804e+09 1.174577e+03 -2.198043e+03 1.821837e+03
-4.131841e+09 -3.931843e+09 -4.091843e+09 -1.027849e+02 8.993941e+00 -5.711115e+00
-4.818306e+09 -4.618308e+09 -4.778307e+09 -2.262588e+02 -1.215302e+01 -1.764045e+01
-4.991149e+09 -4.791151e+09 -4.951150e+09 -1.730449e+02 7.016526e+00 -5.913064e+01
-4.302198e+09 -4.102200e+09 -4.262200e+09 -3.554579e+02 5.697687e+00 -1.697349e+01
-4.131793e+09 -3.931795e+09 -4.091794e+09 -3.466888e+02 -1.411420e+01 -2.318576e+01
-4.645377e+09 -4.445379e+09 -4.605379e+09 -3.342407e+02 -1.705974e+01 5.565148e+01
-4.991074e+09 -4.791076e+09 -4.951075e+09 -3.807955e+02 1.669859e+01 -5.633904e+01
-1.573503e+09 -1.373506e+09 -1.533503e+09 -1.899617e+03 -1.175376e+03 -3.769023e+02
-4.798991e+09 -4.598995e+09 -4.758990e+09 -1.510496e+03 3.443673e+02 -1.541613e+03
-4.813800e+09 -4.613804e+09 -4.773801e+09 -1.328554e+03 1.921480e+02 -8.458517e+02
-3.965925e+09 -3.765928e+09 -3.925926e+09 -1.563262e+03 3.801628e+02 -5.885931e+02
-4.300804e+09 -4.100809e+09 -4.260805e+09 -2.530118e+02 3.023090e+02 -1.206423e+03
-4.295683e+09 -4.095686e+09 -4.255682e+09 -8.705026e+02 1.919986e+01 -1.214025e+03
-4.638915e+09 -4.438920e+09 -4.598916e+09 -1.028706e+03 -2.104143e+02 -3.971925e+02
-4.107926e+09 -3.907928e+09 -4.067926e+09 -8.778251e+02 -2.364723e+01 -2.278519e+01
-4.133259e+09 -3.933260e+09 -4.093258e+09 -9.353750e+02 1.594165e+02 2.188246e+01
-4.819724e+09 -4.619725e+09 -4.779723e+09 -9.283573e+02 -1.061330e+02 -8.478521e+01
-4.648307e+09 -4.448309e+09 -4.608306e+09 -9.262082e+02 7.562015e+01 -8.912472e+01
-4.133266e+09 -3.933268e+09 -4.093265e+09 -1.039530e+03 -8.904779e+01 -1.403171e+02
-4.622013e+09 -4.422014e+09 -4.582014e+09 9.321421e+02 -3.224374e+02 1.017246e+02
-4.320421e+09 -4.120421e+09 -4.280422e+09 8.905839e+02 -5.180890e+02 2.297968e+02
-4.133273e+09 -3.933272e+09 -4.093273e+09 8.769431e+02 -4.733798e+02 1.320702e+02
-4.303732e+09 -4.103732e+09 -4.263733e+09 8.245532e+02 -4.626776e+02 3.391696e+02
-4.778097e+09 -4.578097e+09 -4.738097e+09 7.917558e+02 -4.585693e+00 -1.354610e+02
-4.819778e+09 -4.619777e+09 -4.779778e+09 6.949800e+02 -7.657947e+01 -7.356052e+01
-4.622589e+09 -4.422592e+09 -4.582589e+09 -7.874040e+02 6.982284e+01 2.518208e+01
-4.991201e+09 -4.791205e+09 -4.951202e+09 -1.226519e+03 1.336460e+01 8.384717e+01
-4.476544e+09 -4.276547e+09 -4.436544e+09 -9.734743e+02 6.093242e+01 -1.558785e-01
-4.646964e+09 -4.446967e+09 -4.606964e+09 -1.289030e+03 7.888271e+01 -4.933629e+01
-4.133272e+09 -3.933274e+09 -4.093272e+09 -1.138822e+03 2.158447e+02 4.207711e+01
-3.936124e+09 -3.736126e+09 -3.896124e+09 -9.465443e+02 4.991014e+01 -8.151209e+01
-4.305074e+09 -4.105076e+09 -4.265073e+09 -9.259073e+02 8.203138e+00 -3.436939e+01
-4.082594e+09 -3.882593e+09 -4.042593e+09 9.626971e+01 5.207568e+00 -3.290762e+01
-4.121740e+09 -3.921739e+09 -4.081739e+09 1.009331e+02 1.634622e+01 1.997303e+00
-4.621764e+09 -4.421763e+09 -4.581763e+09 4.913042e+01 6.114004e+00 -2.838824e+01
-4.079398e+09 -3.879397e+09 -4.039397e+09 3.009303e+01 2.114355e+01 -6.670462e+00
-3.917839e+09 -3.717838e+09 -3.877838e+09 7.995757e+01 -1.656288e+00 -2.278711e+01
-4.091943e+09 -3.891942e+09 -4.051942e+09 6.487504e+01 1.497322e+01 -3.484632e+01
-4.133413e+09 -3.933412e+09 -4.093412e+09 9.905204e+01 3.073880e+01 3.153314e+00
-4.993047e+09 -4.793046e+09 -4.953046e+09 1.251994e+02 2.033911e+01 6.983528e+00
-4.633250e+09 -4.433249e+09 -4.593249e+09 9.631466e+01 1.125943e+01 -2.730936e+01
-4.991097e+09 -4.791096e+09 -4.951111e+09 3.076929e+03 1.732302e+03 -6.510905e+02
-4.128386e+09 -3.928390e+09 -4.088395e+09 3.460470e+03 2.735679e+03 -1.528695e+03
-4.297473e+09 -4.097478e+09 -4.257484e+09 2.251874e+03 3.845942e+03 -5.693535e+02
-4.300920e+09 -4.100925e+09 -4.260932e+09 1.942973e+03 4.024457e+03 -7.641264e+02
-4.645422e+09 -4.445424e+09 -4.605436e+09 2.623219e+03 1.728915e+03 -4.676511e+02
-4.131834e+09 -3.931840e+09 -4.091848e+09 2.070889e+03 5.278728e+03 -2.177931e+02
-4.991464e+09 -4.791462e+09 -4.951463e+09 -7.652993e+02 1.512119e-02 -3.211590e+01
-4.646129e+09 -4.446127e+09 -4.606129e+09 -6.030345e+02 -2.550396e+02 2.420152e+02
-4.132176e+09 -3.932173e+09 -4.092176e+09 -4.336647e+02 -4.598070e+02 4.478732e+02
-4.132199e+09 -3.932197e+09 -4.092198e+09 -2.762845e+02 -2.736606e+02 2.326095e+02
-4.307246e+09 -4.107245e+09 -4.267247e+09 2.550990e+03 7.235264e+02 -4.667792e+02
-4.302573e+09 -4.102571e+09 -4.262573e+09 2.329710e+02 -4.077602e+02 3.458896e+02
-4.818533e+09 -4.618539e+09 -4.778516e+09 -3.771278e+03 -3.366408e+03 3.078597e+03
-4.302558e+09 -4.102565e+09 -4.262544e+09 -2.441618e+03 -1.086251e+03 7.281875e+03
-4.302993e+09 -4.102997e+09 -4.262959e+09 5.844052e+02 6.718838e+02 1.023764e+04
-4.991460e+09 -4.791463e+09 -4.951419e+09 4.571296e+02 4.110041e+02 2.489679e+03
-4.132187e+09 -3.932195e+09 -4.092170e+09 3.586446e+03 4.518042e+03 8.883797e+03
-4.292898e+09 -4.092909e+09 -4.252896e+09 -4.448470e+02 1.153609e+00 3.051661e+03
-4.646128e+09 -4.446132e+09 -4.606130e+09 -2.079783e+03 2.409453e+02 3.497738e+01
-4.818539e+09 -4.618543e+09 -4.778540e+09 -1.471051e+03 2.662256e+02 1.658052e+02
-4.991313e+09 -4.791316e+09 -4.951314e+09 -1.591184e+03 4.005694e+01 8.188285e+01
-4.132197e+09 -3.932202e+09 -4.092198e+09 -1.351471e+03 1.762830e+02 -4.702598e+01
-4.775334e+09 -4.575333e+09 -4.735333e+09 1.129599e+01 -1.514721e+01 -4.494773e+00
-4.302996e+09 -4.103001e+09 -4.262998e+09 -1.658012e+03 4.062578e+02 1.159501e+02
-4.991463e+09 -4.791467e+09 -4.951465e+09 -1.913129e+03 1.359788e+02 1.155234e+02
-4.645444e+09 -4.445446e+09 -4.605445e+09 -9.023787e+02 -1.733774e+01 2.927323e+01
-4.131847e+09 -3.931849e+09 -4.091848e+09 -1.024106e+03 -4.915760e+01 1.141239e+02
-4.303819e+09 -4.103821e+09 -4.263820e+09 -1.201838e+03 1.532443e+01 -5.394888e+01
-4.826120e+09 -4.626121e+09 -4.786121e+09 -1.062752e+03 -4.363816e+01 6.973759e+01
-4.311626e+09 -4.111627e+09 -4.271627e+09 -1.063332e+03 -2.153530e+01 -1.418389e+02
-4.139654e+09 -3.939655e+09 -4.099655e+09 -1.037608e+03 -2.329551e+00 -7.042427e+01
-4.990135e+09 -4.790133e+09 -4.950108e+09 9.497259e+02 -5.821314e+01 -9.619276e+02
-4.810268e+09 -4.610262e+09 -4.770223e+09 -1.186680e+03 1.353621e+03 -1.524801e+03
-4.990298e+09 -4.790289e+09 -4.950273e+09 -9.321870e+02 2.527873e+02 1.866144e+02
-4.129843e+09 -3.929827e+09 -4.089834e+09 1.673807e+03 -9.249169e+03 3.356694e+03
-4.628290e+09 -4.428287e+09 -4.588251e+09 -4.411310e+02 1.975614e+03 -2.776815e+03
-4.817740e+09 -4.617732e+09 -4.777684e+09 -9.482193e+02 1.814227e+02 -1.589779e+03
-4.132502e+09 -3.932494e+09 -4.092433e+09 -2.503590e+03 -2.263888e+03 1.103601e+03
-4.465045e+09 -4.265048e+09 -4.425045e+09 -2.305528e+03 1.567343e+02 -6.324708e+02
-4.795834e+09 -4.595835e+09 -4.755835e+09 -2.271480e+03 -5.434754e+01 9.631437e+01
-4.990276e+09 -4.790274e+09 -4.950276e+09 -2.587122e+03 5.675904e+01 -1.068967e+02
-4.643267e+09 -4.443266e+09 -4.603267e+09 -3.021002e+03 2.680545e+02 2.816600e+02
-4.603028e+09 -4.403028e+09 -4.563028e+09 -2.259166e+03 5.366771e+01 7.508008e+01
-4.817710e+09 -4.617710e+09 -4.777711e+09 -2.295289e+03 1.004608e+02 -1.217099e+02
-4.626467e+09 -4.426466e+09 -4.586467e+09 -1.976339e+03 -4.870111e+01 1.206923e+02
-4.132490e+09 -3.932488e+09 -4.092490e+09 -2.113501e+03 1.034579e+02 1.511847e+00
-1.689493e+09 -1.489486e+09 -1.649492e+09 -1.195477e+03 1.917832e+01 -1.001345e+03
-4.820149e+09 -4.620151e+09 -4.780155e+09 -2.131640e+03 -2.557293e+02 -2.615796e+02
-4.312884e+09 -4.112885e+09 -4.272885e+09 -8.846479e+02 -2.611329e+01 -5.553893e+01
-4.646981e+09 -4.446981e+09 -4.606985e+09 -2.211896e+03 -5.817531e+02 -4.483131e+02
-4.648868e+09 -4.448869e+09 -4.608874e+09 -2.041035e+03 -8.123573e+02 -2.002199e+02
-4.134442e+09 -3.934442e+09 -4.094447e+09 -2.418944e+03 -1.937533e+03 -1.005441e+03
-4.304597e+09 -4.104595e+09 -4.264596e+09 2.739394e+02 -4.014804e+01 -8.432211e+01
-4.819390e+09 -4.619388e+09 -4.779389e+09 -2.407916e+02 4.470060e+01 4.055275e+01
-4.822510e+09 -4.622509e+09 -4.782509e+09 6.045043e+01 -2.800000e+00 8.990546e+00
-4.820131e+09 -4.620130e+09 -4.780130e+09 5.976089e+01 -3.933437e+01 -5.930962e+01
-4.133665e+09 -3.933664e+09 -4.093664e+09 4.029386e+01 7.868269e+01 1.401054e+01
-4.147823e+09 -3.947821e+09 -4.107822e+09 1.766552e+02 4.464904e+00 -5.759475e+01
-4.991649e+09 -4.791648e+09 -4.951648e+09 -1.294608e+02 4.292737e+00 1.817972e+01
-4.990286e+09 -4.790284e+09 -4.950287e+09 -2.474247e+03 2.277278e+02 1.525061e+01
-4.816427e+09 -4.616426e+09 -4.776430e+09 -2.830092e+03 8.118558e+02 5.570029e+02
-4.280002e+09 -4.080002e+09 -4.240008e+09 -2.914964e+03 2.213427e+03 8.311545e+02
-4.817760e+09 -4.617762e+09 -4.777764e+09 -2.774222e+03 3.281031e+02 5.819897e+01
-4.644587e+09 -4.444588e+09 -4.604590e+09 -2.868930e+03 5.703471e+02 2.468298e+02
-4.132494e+09 -3.932496e+09 -4.092497e+09 -2.692141e+03 8.312849e+02 2.607600e+02
-4.302629e+09 -4.102630e+09 -4.262630e+09 3.868978e+02 -4.600326e+00 -1.859806e+01
-4.991357e+09 -4.791358e+09 -4.951358e+09 6.994108e+02 -2.211392e+01 -2.887447e+01
-4.302866e+09 -4.102867e+09 -4.262867e+09 5.668426e+02 -4.332249e+00 -2.103659e+01
-4.302555e+09 -4.102557e+09 -4.262556e+09 4.263617e+02 -1.244268e+01 -4.242320e+01
-4.132253e+09 -3.932254e+09 -4.092254e+09 5.320116e+02 4.859998e+00 -4.668413e+01
-4.476065e+09 -4.276066e+09 -4.436066e+09 3.612238e+02 -3.516177e+00 1.106750e+01
-4.818584e+09 -4.618583e+09 -4.778583e+09 -1.027370e+03 -2.591710e+01 -1.067695e+02
-4.819900e+09 -4.619898e+09 -4.779899e+09 -5.155430e+02 2.250942e+01 -5.670743e+01
-4.645851e+09 -4.445850e+09 -4.605850e+09 -8.270374e+02 1.691482e+02 1.318362e+01
-3.961545e+09 -3.761544e+09 -3.921544e+09 -5.623218e+02 1.662421e+02 5.575079e+00
-4.813611e+09 -4.613614e+09 -4.773611e+09 1.519979e+03 8.366719e+01 4.930293e+01
-4.296452e+09 -4.096455e+09 -4.256452e+09 1.624829e+03 8.550679e+01 -6.281302e+01
-4.646888e+09 -4.446891e+09 -4.606888e+09 1.917159e+03 7.038145e+01 1.428462e+01
-4.127146e+09 -3.927149e+09 -4.087145e+09 1.518698e+03 1.443155e+02 9.819473e+00
-4.127101e+09 -3.927100e+09 -4.087101e+09 -3.911784e+02 -9.756828e+00 7.886456e+00
-4.820050e+09 -4.620050e+09 -4.780050e+09 -4.907665e+02 -2.851988e+01 3.160253e+00
-4.647606e+09 -4.447605e+09 -4.607606e+09 -3.574458e+02 -2.071278e+01 -3.858532e+00
-4.813566e+09 -4.613566e+09 -4.773566e+09 -4.080860e+02 -2.351473e+01 -1.465465e+01
-4.131873e+09 -3.931875e+09 -4.091874e+09 1.053599e+03 7.758151e+01 -5.288810e+01
-4.132663e+09 -3.932664e+09 -4.092664e+09 1.425878e+03 -1.428758e+02 -5.225221e+02
-4.131491e+09 -3.931494e+09 -4.091493e+09 9.298287e+02 -9.235117e+01 -3.187396e+02
-4.645144e+09 -4.445147e+09 -4.605146e+09 8.312932e+02 2.349440e+01 -8.831837e+00
-4.818360e+09 -4.618360e+09 -4.778359e+09 -1.281310e+03 -8.274668e+01 -1.226060e+02
-4.302619e+09 -4.102617e+09 -4.262617e+09 -8.270741e+02 1.412205e+01 2.893603e+00
-4.991401e+09 -4.791399e+09 -4.951400e+09 -9.337490e+02 -9.321603e+01 -3.755563e+01
-4.302325e+09 -4.102325e+09 -4.262324e+09 -1.526132e+03 5.409893e+01 4.538642e+01
-4.131956e+09 -3.931956e+09 -4.091955e+09 -7.872994e+02 1.540433e+02 6.182320e+01
-4.818333e+09 -4.618334e+09 -4.778333e+09 -9.406296e+02 -9.272920e+01 -9.451859e+01
-4.818220e+09 -4.618223e+09 -4.778221e+09 8.435635e+02 1.311395e+02 8.880695e+00
-4.991408e+09 -4.791409e+09 -4.951409e+09 1.353257e+03 -4.188766e+01 -8.781755e+01
-4.817957e+09 -4.617959e+09 -4.777958e+09 8.693322e+02 9.080347e+01 4.882234e+01
-4.302478e+09 -4.102480e+09 -4.262479e+09 8.107677e+02 -3.096566e+01 -1.835807e+02
-4.646563e+09 -4.446565e+09 -4.606564e+09 1.309737e+03 4.235626e+01 -5.830856e+01
-4.645468e+09 -4.445466e+09 -4.605472e+09 7.019467e+02 -7.617036e+02 5.823419e+02
-4.818300e+09 -4.618298e+09 -4.778304e+09 5.226290e+02 -6.809621e+02 7.031195e+02
-4.301825e+09 -4.101821e+09 -4.261828e+09 -4.454329e+02 -1.124020e+03 1.254184e+03
-4.818323e+09 -4.618324e+09 -4.778328e+09 1.095123e+03 -8.582729e+02 8.317261e+02
-4.131761e+09 -3.931760e+09 -4.091767e+09 7.901590e+02 -2.285044e+03 1.150335e+03
-4.302252e+09 -4.102249e+09 -4.262254e+09 3.449971e+02 -1.330958e+03 1.136559e+03
-4.645471e+09 -4.445459e+09 -4.605470e+09 -1.650081e+03 -8.013763e+02 -1.397607e+03
-4.818301e+09 -4.618288e+09 -4.778302e+09 -2.510402e+03 -3.693748e+02 -1.380419e+03
-4.990693e+09 -4.790683e+09 -4.950709e+09 1.548758e+03 2.789984e+03 -7.398555e+02
-4.644896e+09 -4.444886e+09 -4.604904e+09 1.484469e+03 2.381196e+02 -2.001690e+03
-4.818325e+09 -4.618314e+09 -4.778326e+09 -1.564004e+03 1.378982e+01 -1.059494e+03
-4.131765e+09 -3.931757e+09 -4.091772e+09 2.248549e+03 4.246245e+03 -3.530459e+03
-4.805183e+09 -4.605175e+09 -4.765180e+09 1.450708e+03 -8.859152e+02 -5.332358e+02
-4.118718e+09 -3.918709e+09 -4.078715e+09 6.151539e+02 2.172838e+02 1.503191e+03
-4.302228e+09 -4.102227e+09 -4.262227e+09 2.510794e+01 9.107983e+00 3.754513e-01
-4.640342e+09 -4.440341e+09 -4.600341e+09 1.697157e+02 6.006310e+00 -1.924920e+01
-4.636786e+09 -4.436785e+09 -4.596785e+09 1.551307e+02 1.656284e+01 -3.309641e+01
-4.124000e+09 -3.923999e+09 -4.083999e+09 1.452770e+02 4.072843e+01 6.448804e+00
-4.990787e+09 -4.790790e+09 -4.950789e+09 -2.517094e+02 1.884424e+00 -1.138086e+02
-4.645046e+09 -4.445048e+09 -4.605048e+09 -2.187106e+02 -2.278712e+00 6.502276e+01
-4.302355e+09 -4.102357e+09 -4.262357e+09 1.541548e+02 -4.870262e+00 -8.684202e+01
-4.301652e+09 -4.101655e+09 -4.261654e+09 1.488661e+01 9.874240e-01 -1.229268e+02
-4.131605e+09 -3.931608e+09 -4.091607e+09 1.147252e+02 1.258150e+00 -6.030244e+01
-4.645310e+09 -4.445313e+09 -4.605312e+09 1.696563e+02 1.866874e+01 5.208779e+01
-4.990806e+09 -4.790805e+09 -4.950805e+09 1.688904e+02 1.693922e+01 6.005216e+00
-4.303653e+09 -4.103652e+09 -4.263652e+09 2.320595e+02 1.668211e+01 -1.234236e+01
-4.307180e+09 -4.107179e+09 -4.267179e+09 1.845677e+02 7.862127e+00 4.865898e-01
-3.971661e+09 -3.771660e+09 -3.931660e+09 1.214607e+02 1.382602e+01 -2.135418e+01
-4.143966e+09 -3.943965e+09 -4.103965e+09 1.350431e+02 2.728278e+00 -3.645565e+01
-4.990178e+09 -4.790177e+09 -4.950178e+09 1.880650e+02 4.150436e+00 -6.057316e+00
-4.133589e+09 -3.933589e+09 -4.093589e+09 2.171369e+02 3.491179e+01 1.238456e+01
-4.124421e+09 -3.924420e+09 -4.084420e+09 2.405739e+02 2.264953e+01 -4.301640e+00
-1.590569e+09 -1.390568e+09 -1.550568e+09 -3.392729e+00 1.375566e+01 -8.704073e+01
-4.128940e+09 -3.928939e+09 -4.088939e+09 2.199402e+02 5.715566e+00 -4.626542e+01
-4.133015e+09 -3.933014e+09 -4.093014e+09 -7.379046e+01 -5.932251e+00 -5.501974e+01
-4.479723e+09 -4.279722e+09 -4.439722e+09 2.004922e+02 1.887496e+01 -2.085018e+01
-3.988420e+09 -3.788419e+09 -3.948419e+09 -5.136244e+00 -4.169586e+00 -1.308243e+01
-4.637854e+09 -4.437853e+09 -4.597853e+09 5.266467e+01 -4.910258e+00 -2.933261e+01
-4.811533e+09 -4.611532e+09 -4.771532e+09 1.108843e+02 3.538853e+01 1.964895e+01
-4.646668e+09 -4.446667e+09 -4.606667e+09 -1.667399e+02 -2.733063e+01 -4.472202e+01
-4.991582e+09 -4.791581e+09 -4.951581e+09 -1.146868e+02 3.399416e+01 1.504994e+01
-4.131018e+09 -3.931017e+09 -4.091017e+09 -4.036519e+01 3.054459e+00 -5.337677e+01
-4.817127e+09 -4.617126e+09 -4.777126e+09 6.987355e+01 2.607733e+01 1.851149e+01
-4.818568e+09 -4.618566e+09 -4.778569e+09 -2.233456e+02 -1.853970e+02 1.367050e+02
-4.302673e+09 -4.102670e+09 -4.262673e+09 -2.658239e+02 -3.941006e+02 4.351816e+02
-4.302519e+09 -4.102517e+09 -4.262520e+09 -1.612786e+02 -6.811494e+02 6.101388e+02
-4.132336e+09 -3.932334e+09 -4.092336e+09 -5.814186e+02 -3.399717e+02 3.483089e+02
-4.645906e+09 -4.445903e+09 -4.605906e+09 -2.658142e+02 -3.070340e+02 3.191725e+02
-4.302517e+09 -4.102510e+09 -4.262496e+09 -4.698066e+03 -5.949098e+03 4.681409e+03
-4.645732e+09 -4.445721e+09 -4.605707e+09 -5.394564e+03 -4.610354e+03 2.947623e+02
-4.132724e+09 -3.932719e+09 -4.092671e+09 1.030661e+03 6.135404e+03 1.054317e+04
-4.991318e+09 -4.791314e+09 -4.951268e+09 -1.107883e+03 -6.440297e+02 1.465447e+03
-4.132084e+09 -3.932072e+09 -4.092050e+09 -3.198594e+03 -9.890907e+03 4.158231e+03
-4.645890e+09 -4.445880e+09 -4.605851e+09 -1.671085e+03 -5.285868e+03 -3.839175e+01
-4.645905e+09 -4.445907e+09 -4.605905e+09 -1.730862e+03 1.927559e+02 -3.103902e+01
-4.818567e+09 -4.618570e+09 -4.778568e+09 -1.833480e+03 3.025725e+02 2.029194e+02
-4.302898e+09 -4.102901e+09 -4.262900e+09 -2.159609e+03 5.010345e+02 2.051862e+02
-4.132335e+09 -3.932339e+09 -4.092336e+09 -1.879211e+03 2.569917e+02 -8.533403e+01
-4.132175e+09 -3.932178e+09 -4.092176e+09 -2.007723e+03 6.243542e+02 3.013232e+02
-4.134327e+09 -3.934326e+09 -4.094326e+09 -5.362332e+02 -6.278143e+01 -6.736476e+01
-4.990436e+09 -4.790435e+09 -4.950436e+09 -7.055741e+02 6.932482e-01 -4.136070e+00
-4.828335e+09 -4.628334e+09 -4.788334e+09 -6.290242e+02 -1.441327e+01 5.568621e+01
-4.657546e+09 -4.457545e+09 -4.617545e+09 -5.901759e+02 -3.742777e+01 1.926591e+01
-4.306916e+09 -4.106915e+09 -4.266915e+09 -4.262968e+02 -2.023302e+01 -1.050498e+00
-4.135172e+09 -3.935171e+09 -4.095172e+09 -5.514846e+02 -4.142991e+01 -6.924318e+01
-4.828334e+09 -4.628340e+09 -4.788336e+09 1.362800e+03 -1.268526e+02 4.308666e+01
-4.657545e+09 -4.457551e+09 -4.617546e+09 1.232461e+03 8.069696e+01 -8.147972e+01
-4.133803e+09 -3.933809e+09 -4.093804e+09 1.033020e+03 1.221258e+02 -2.635584e+01
-4.135171e+09 -3.935178e+09 -4.095172e+09 7.668588e+02 4.250214e+02 -4.029262e+01
-4.134325e+09 -3.934332e+09 -4.094327e+09 2.066341e+02 3.919425e+02 3.826264e+00
-4.990435e+09 -4.790442e+09 -4.950438e+09 5.475249e+02 4.056446e+01 7.004560e+01
-4.655573e+09 -4.455567e+09 -4.615579e+09 -1.046361e+03 -8.821875e+02 -8.166168e+02
-4.288687e+09 -4.088678e+09 -4.248689e+09 1.818957e+03 -1.491098e+03 -1.911089e+03
-4.118992e+09 -3.918983e+09 -4.078996e+09 1.003182e+03 -1.102415e+03 -2.033530e+03
-4.632694e+09 -4.432686e+09 -4.592701e+09 2.309337e+02 -5.591403e+02 -5.691523e+02
-4.304436e+09 -4.104431e+09 -4.264435e+09 3.188871e+03 -1.921946e+02 -3.636077e+02
-4.990436e+09 -4.790430e+09 -4.950436e+09 2.538636e+03 -2.962234e+02 -1.959028e+02
-4.643872e+09 -4.443876e+09 -4.603868e+09 -7.118767e+02 3.682811e+02 -8.293595e+02
-4.120862e+09 -3.920865e+09 -4.080859e+09 -2.526285e+03 1.180208e+03 -1.821559e+03
-4.818562e+09 -4.618564e+09 -4.778563e+09 4.536185e+02 1.099477e+01 5.003025e+01
-4.645883e+09 -4.445885e+09 -4.605884e+09 4.544965e+02 2.678453e+01 3.165569e+01
-4.302671e+09 -4.102673e+09 -4.262673e+09 4.849794e+02 -1.092364e+01 -7.041606e+01
-4.132212e+09 -3.932214e+09 -4.092213e+09 6.274327e+02 5.570928e+00 -7.568685e+01
-4.818538e+09 -4.618539e+09 -4.778539e+09 4.076262e+02 1.998523e+00 5.026907e+01
-4.645801e+09 -4.445803e+09 -4.605802e+09 4.543257e+02 2.425470e+01 3.058953e+01
-4.297582e+09 -4.097579e+09 -4.257581e+09 -2.806739e+02 -1.402860e+01 9.641256e+00
-4.818315e+09 -4.618313e+09 -4.778314e+09 -1.225743e+03 9.874472e-01 -7.626302e+01
-4.125850e+09 -3.925847e+09 -4.085849e+09 -4.385568e+02 1.303046e+02 1.265699e+02
-4.645734e+09 -4.445732e+09 -4.605733e+09 -1.508643e+03 2.875760e+02 1.494703e+02
-4.131850e+09 -3.931848e+09 -4.091848e+09 -1.275033e+03 3.208219e+02 2.436310e+02
-4.623391e+09 -4.423392e+09 -4.583392e+09 -2.589203e+03 4.385058e+01 9.451780e+01
-4.130184e+09 -3.930185e+09 -4.090183e+09 -3.625351e+03 1.375688e+03 -2.876215e+02
-4.816739e+09 -4.616741e+09 -4.776737e+09 -2.875837e+03 8.815492e+02 -1.622268e+02
-4.473123e+09 -4.273125e+09 -4.433122e+09 -3.010303e+03 5.266538e+02 -4.895446e+02
-4.816649e+09 -4.616650e+09 -4.776648e+09 -3.092428e+03 -1.994648e+02 -3.121366e+02
-4.307724e+09 -4.107722e+09 -4.267723e+09 5.797291e+02 -4.821103e+01 -7.957502e+01
-4.148200e+09 -3.948199e+09 -4.108200e+09 4.365733e+02 7.024003e+01 -2.552469e+01
-4.319258e+09 -4.119257e+09 -4.279257e+09 3.382783e+02 -2.804027e+01 -5.641612e+01
-4.822844e+09 -4.622843e+09 -4.782844e+09 6.713354e+02 2.637535e+01 8.903299e+00
-4.834666e+09 -4.634665e+09 -4.794665e+09 4.251969e+02 -2.358421e+01 -3.386041e+01
-4.816125e+09 -4.616121e+09 -4.776128e+09 -2.136584e+03 -1.556656e+02 6.024981e+01
-4.299903e+09 -4.099900e+09 -4.259905e+09 -3.061489e+03 -2.957032e+02 1.080190e+03
-4.473902e+09 -4.273900e+09 -4.433901e+09 -3.524939e+03 3.427638e+02 4.455883e+02
-4.299943e+09 -4.099939e+09 -4.259945e+09 -2.416183e+03 -7.595373e+02 1.034413e+03
-4.129660e+09 -3.929655e+09 -4.089663e+09 -1.870776e+03 -8.653568e+02 2.165898e+03
-4.816131e+09 -4.616117e+09 -4.776142e+09 1.035465e+03 -3.957895e+02 -8.442342e+02
-4.473902e+09 -4.273886e+09 -4.433918e+09 -1.493703e+03 1.751725e+03 2.320247e+03
-4.299917e+09 -4.099903e+09 -4.259935e+09 -7.252484e+01 3.395036e+03 -2.101344e+03
-4.299958e+09 -4.099943e+09 -4.259975e+09 1.866681e+03 3.251495e+03 -1.118272e+03
-4.129666e+09 -3.929654e+09 -4.089683e+09 2.864689e+02 4.453575e+03 -3.476974e+03
-4.302497e+09 -4.102493e+09 -4.262498e+09 -8.801597e+02 -5.303951e+02 7.170304e+02
-4.645886e+09 -4.445883e+09 -4.605886e+09 -1.314806e+03 -2.175343e+02 3.518054e+02
-4.132178e+09 -3.932175e+09 -4.092178e+09 -1.153190e+03 -3.393228e+02 4.327912e+02
-4.645091e+09 -4.445088e+09 -4.605092e+09 -2.346148e+03 2.738598e+01 3.414432e+02
-4.818040e+09 -4.618037e+09 -4.778040e+09 -2.128368e+03 -1.814647e+02 5.881688e+02
-4.645105e+09 -4.445091e+09 -4.605083e+09 1.154711e+03 -5.764512e+03 -2.367863e+02
-4.818404e+09 -4.618392e+09 -4.778387e+09 -3.348335e+03 -2.556909e+03 1.162923e+03
-4.302500e+09 -4.102489e+09 -4.262475e+09 -5.395884e+03 -5.850957e+03 3.066173e+03
-4.990809e+09 -4.790797e+09 -4.950764e+09 1.180207e+03 -8.691425e+02 1.457312e+03
-4.302158e+09 -4.102149e+09 -4.262117e+09 -4.131032e+03 -6.874926e+03 3.231950e+03
-4.132183e+09 -3.932174e+09 -4.092136e+09 -4.492152e+03 -7.831022e+03 3.378092e+03
-4.302670e+09 -4.102670e+09 -4.262646e+09 -5.628749e+03 -3.674733e+03 6.834855e+03
-4.645836e+09 -4.445835e+09 -4.605836e+09 -1.747747e+03 2.983664e+02 9.626574e+01
-4.645617e+09 -4.445616e+09 -4.605616e+09 -1.940267e+03 2.571960e+02 7.325489e+01
-4.302506e+09 -4.102504e+09 -4.262505e+09 -1.006341e+03 6.205479e+01 5.776190e+01
-4.645496e+09 -4.445495e+09 -4.605495e+09 -1.406118e+03 2.181876e+02 1.779222e+01
-4.818313e+09 -4.618312e+09 -4.778312e+09 -1.655076e+03 -6.014634e+01 -1.420145e+02
-4.645538e+09 -4.445537e+09 -4.605537e+09 -1.059735e+03 1.437611e+02 -1.929405e+01
-4.132118e+09 -3.932117e+09 -4.092117e+09 -1.062609e+03 2.312187e+02 1.446203e+02
-4.131068e+09 -3.931062e+09 -4.091075e+09 -1.773410e+03 -1.536981e+03 2.409860e+03
-4.818764e+09 -4.618758e+09 -4.778773e+09 -2.135976e+03 -1.409548e+03 1.398600e+03
-4.990692e+09 -4.790687e+09 -4.950698e+09 -1.743418e+03 -8.146338e+02 5.403074e+02
-4.301358e+09 -4.101354e+09 -4.261362e+09 -7.033145e+02 -1.771058e+03 1.606323e+03
-4.817938e+09 -4.617932e+09 -4.777947e+09 -1.578597e+03 -4.390659e+02 2.435214e+02
-4.131714e+09 -3.931711e+09 -4.091723e+09 -1.937321e+02 -2.797707e+03 1.909536e+03
-4.816069e+09 -4.616059e+09 -4.776086e+09 8.706636e+02 2.679996e+03 -1.065181e+03
-4.818764e+09 -4.618765e+09 -4.778781e+09 1.545583e+03 2.504332e+03 4.432051e+02
-4.645886e+09 -4.445886e+09 -4.605900e+09 2.089091e+03 2.036813e+03 -5.758660e+02
-4.311093e+09 -4.111095e+09 -4.271113e+09 1.236636e+03 6.943136e+03 -5.825242e+02
-4.298927e+09 -4.098922e+09 -4.258950e+09 9.257165e+02 8.032955e+03 -1.580024e+03
-3.961398e+09 -3.761398e+09 -3.921411e+09 3.902750e+03 5.117687e+03 -2.359511e+03
-4.131299e+09 -3.931295e+09 -4.091299e+09 -3.044200e+03 9.139382e+01 1.623305e+03
-4.131340e+09 -3.931336e+09 -4.091341e+09 -1.926562e+03 -3.965381e+02 8.166374e+02
-4.131574e+09 -3.931571e+09 -4.091575e+09 -2.083670e+03 -1.125830e+02 3.231146e+02
-4.816529e+09 -4.616528e+09 -4.776529e+09 -3.123385e+03 3.953210e+02 -4.424456e+01
-4.817805e+09 -4.617801e+09 -4.777807e+09 -2.136201e+03 -2.501738e+02 9.289556e+02
-4.300917e+09 -4.100915e+09 -4.260918e+09 -2.547409e+03 -2.635217e+02 5.812220e+02
-4.122069e+09 -3.922060e+09 -4.082048e+09 5.303046e+03 -9.077213e+03 -4.527749e+03
-4.642566e+09 -4.442559e+09 -4.602538e+09 4.302085e+02 -5.179172e+03 -2.013813e+03
-4.816247e+09 -4.616243e+09 -4.776209e+09 1.419335e+03 -4.762841e+02 -5.576717e+03
-1.606099e+09 -1.406100e+09 -1.566098e+09 9.513790e+02 1.424038e+02 -1.789170e+01
-4.816411e+09 -4.616399e+09 -4.776414e+09 1.651524e+03 -1.121623e+03 1.950849e+03
-4.301875e+09 -4.101862e+09 -4.261861e+09 1.154865e+03 -5.449029e+03 3.831038e+02
-4.129947e+09 -3.929935e+09 -4.089954e+09 3.558784e+02 4.979471e+02 2.974937e+03
-4.130883e+09 -3.930868e+09 -4.090872e+09 7.095337e+02 -5.144010e+03 -2.610893e+03
-4.818275e+09 -4.618260e+09 -4.778260e+09 -5.069772e+02 -3.495147e+03 -1.494495e+03
-4.816307e+09 -4.616297e+09 -4.776293e+09 2.456930e+03 -3.075929e+02 -4.428990e+03
-4.131344e+09 -3.931325e+09 -4.091349e+09 1.171024e+03 -3.808989e+03 -3.286155e+03
-4.131584e+09 -3.931568e+09 -4.091553e+09 2.581370e+02 -1.044808e+04 -2.441159e+03
-4.300953e+09 -4.100935e+09 -4.260934e+09 -2.569618e+03 -4.170964e+03 -8.896152e+02
-4.817810e+09 -4.617795e+09 -4.777811e+09 -3.968085e+02 9.651887e+01 -3.544653e+02
-4.645805e+09 -4.445806e+09 -4.605805e+09 -1.922687e+03 2.638999e+02 2.278523e+01
-4.132012e+09 -3.932013e+09 -4.092012e+09 -1.959194e+03 1.545381e+02 -5.547304e+01
-4.645948e+09 -4.445949e+09 -4.605949e+09 -2.409457e+03 3.211600e+02 9.109798e+01
-4.302214e+09 -4.102214e+09 -4.262215e+09 -2.445651e+03 5.125600e+02 2.769665e+02
-4.132178e+09 -3.932180e+09 -4.092179e+09 -2.315894e+03 3.332328e+02 -9.347102e+00
-4.831959e+09 -4.631947e+09 -4.791953e+09 -3.866234e+03 1.111364e+03 -1.145343e+03
-4.311633e+09 -4.111627e+09 -4.271648e+09 -1.331909e+03 -5.022254e+03 5.104518e+02
-4.303917e+09 -4.103909e+09 -4.263930e+09 -2.062727e+03 -4.985693e+03 1.024088e+03
-4.134305e+09 -3.934297e+09 -4.094315e+09 -2.441626e+03 -2.235682e+03 8.776400e+02
-4.640705e+09 -4.440710e+09 -4.600716e+09 2.240760e+03 1.284344e+03 -3.136148e+02
-4.135733e+09 -3.935741e+09 -4.095746e+09 -3.623048e+01 4.635186e+03 9.678282e+02
-4.644153e+09 -4.444158e+09 -4.604164e+09 1.933857e+03 1.412467e+03 -4.266590e+02
-4.312700e+09 -4.112706e+09 -4.272711e+09 -4.297127e+00 3.390437e+03 5.171921e+01
-4.655932e+09 -4.455939e+09 -4.615942e+09 -5.281570e+01 1.420758e+03 -3.745916e+01
-4.816450e+09 -4.616453e+09 -4.776452e+09 -1.259660e+02 3.522282e+01 -2.637750e+01
-4.311187e+09 -4.111189e+09 -4.271189e+09 -9.277449e+02 -4.192056e+01 -9.018418e+01
-4.990786e+09 -4.790789e+09 -4.950788e+09 -2.781005e+02 -1.124936e+00 -8.344384e+01
-4.817984e+09 -4.617987e+09 -4.777986e+09 -7.197828e+02 1.671801e+01 -1.428625e+02
-4.818814e+09 -4.618816e+09 -4.778815e+09 -9.113445e+02 -9.232172e+00 1.418470e+02
-4.131739e+09 -3.931742e+09 -4.091741e+09 -5.433155e+02 3.971007e+00 -9.775500e+01
-4.654859e+09 -4.454860e+09 -4.614860e+09 -1.071245e+03 -3.905287e+01 7.378084e+01
-4.135790e+09 -3.935792e+09 -4.095791e+09 -1.390165e+03 -4.328772e+01 1.417549e+02
-4.647052e+09 -4.447053e+09 -4.607053e+09 -1.201762e+03 -2.606158e+01 8.030867e+01
-4.309477e+09 -4.109478e+09 -4.269478e+09 -1.498721e+03 -1.034755e+00 2.145792e+00
-4.652710e+09 -4.452710e+09 -4.612710e+09 -1.498895e+03 2.291793e+01 1.717816e+01
-4.474449e+09 -4.274446e+09 -4.434449e+09 -4.302162e+03 -9.260478e+02 3.082172e+02
-4.645528e+09 -4.445517e+09 -4.605529e+09 -2.328726e+03 -6.799333e+02 -3.709319e+02
-4.131895e+09 -3.931883e+09 -4.091894e+09 -3.333977e+03 -5.188850e+02 -2.266737e+03
-4.991153e+09 -4.791148e+09 -4.951155e+09 -2.822224e+03 3.807715e+02 -7.252111e+02
-4.131846e+09 -3.931837e+09 -4.091847e+09 -5.853305e+01 1.352676e+03 -2.148140e+03
-4.818300e+09 -4.618291e+09 -4.778303e+09 1.001415e+02 1.009045e+03 -8.444045e+02
-4.991145e+09 -4.791135e+09 -4.951150e+09 -7.865783e+02 1.220235e+03 -9.629418e+02
-4.302313e+09 -4.102313e+09 -4.262316e+09 1.003332e+03 -9.061856e+02 6.315112e+02
-4.951559e+09 -4.751561e+09 -4.911558e+09 1.469051e+01 2.812621e+00 -2.494659e+00
-4.645529e+09 -4.445528e+09 -4.605533e+09 1.125277e+03 -7.181430e+02 5.066953e+02
-4.131895e+09 -3.931894e+09 -4.091897e+09 1.394386e+03 -1.481997e+03 1.206759e+03
-4.131843e+09 -3.931846e+09 -4.091847e+09 1.558984e+03 -1.661096e+03 7.271716e+02
-4.818297e+09 -4.618299e+09 -4.778303e+09 1.206085e+03 -4.515303e+02 -4.503446e+01
-4.991144e+09 -4.791145e+09 -4.951150e+09 1.202964e+03 -4.362446e+02 2.583380e+02
-4.646911e+09 -4.446913e+09 -4.606911e+09 -1.109466e+03 5.690020e+01 -4.802925e+01
-4.645534e+09 -4.445534e+09 -4.605533e+09 -1.156790e+03 9.017551e+01 -3.664832e+01
-4.131890e+09 -3.931891e+09 -4.091889e+09 -1.149358e+03 -3.484870e+01 -1.150480e+02
-4.991155e+09 -4.791156e+09 -4.951154e+09 -9.385054e+02 -7.928126e+01 1.713474e+01
-4.476487e+09 -4.276487e+09 -4.436486e+09 -7.992587e+02 7.560288e+01 4.942622e+00
-4.818327e+09 -4.618327e+09 -4.778326e+09 -7.664215e+02 1.056382e+02 4.268498e+01
-4.991154e+09 -4.791154e+09 -4.951153e+09 -9.438795e+02 -7.891223e+01 -1.973017e+00
-4.130358e+09 -3.930361e+09 -4.090360e+09 3.166515e+02 -6.157349e+01 -2.535409e+02
-4.643825e+09 -4.443828e+09 -4.603827e+09 3.973718e+02 2.244447e+01 -2.691458e+01
-4.816576e+09 -4.616579e+09 -4.776578e+09 1.690527e+02 -2.929163e+01 -6.547890e+01
-4.816823e+09 -4.616827e+09 -4.776825e+09 2.189835e+02 6.822937e+01 -7.383844e+01
-2.854759e+09 -2.654769e+09 -2.814766e+09 6.357415e+02 3.700063e+02 1.365279e+03
-2.228002e+09 -2.028011e+09 -2.188009e+09 9.764802e+02 9.706525e+01 1.663944e+03
-1.953680e+09 -1.753690e+09 -1.913689e+09 1.096005e+02 8.805482e-01 1.460922e+03
-2.435327e+09 -2.235336e+09 -2.395336e+09 8.560104e+02 1.643696e+02 7.312312e+02
-2.437121e+09 -2.237125e+09 -2.397126e+09 1.659182e+03 -3.015149e+01 -6.444939e+01
-2.208353e+09 -2.008362e+09 -2.168361e+09 2.330933e+02 1.849326e+02 6.125964e+02
-2.191018e+09 -1.991026e+09 -2.151025e+09 4.591941e+02 7.412011e+00 3.072611e+01
-4.860564e+09 -4.660563e+09 -4.820564e+09 -9.287958e+01 7.442097e+00 7.265974e-01
-4.830506e+09 -4.630506e+09 -4.790506e+09 -3.107081e+02 -1.224549e+01 -4.049140e+01
-4.831788e+09 -4.631788e+09 -4.791788e+09 -1.931505e+02 -1.051939e+01 -3.322416e+01
-4.272300e+09 -4.072299e+09 -4.232299e+09 7.762493e+01 -1.320922e+01 7.624558e+00
-2.593586e+09 -2.393586e+09 -2.553586e+09 -1.962980e+02 -1.210967e+01 6.298894e+00
-3.523199e+09 -3.323198e+09 -3.483199e+09 -1.926499e+02 -1.814661e+01 -1.894227e+01
-3.888143e+09 -3.688143e+09 -3.848143e+09 -2.711835e+02 -3.611782e+01 -1.803748e+01
-4.832084e+09 -4.632084e+09 -4.792084e+09 -1.753756e+02 -1.621608e+01 2.904699e+01
-3.856514e+09 -3.656513e+09 -3.816513e+09 -1.933602e+02 -1.148107e+01 1.974051e+00
-4.298865e+09 -4.098867e+09 -4.258860e+09 -4.973568e+03 -2.118647e+03 2.192617e+03
-4.443911e+09 -4.243913e+09 -4.403911e+09 -2.184053e+02 -7.022258e+01 -6.293349e+01
-4.645650e+09 -4.445650e+09 -4.605643e+09 -5.997006e+03 -1.188354e+03 1.689476e+03
-4.991306e+09 -4.791312e+09 -4.951282e+09 -1.981983e+03 -4.111592e+02 2.185125e+03
-4.818566e+09 -4.618573e+09 -4.778548e+09 -6.447476e+02 2.073357e+03 2.240729e+03
-4.645799e+09 -4.445801e+09 -4.605780e+09 -4.562505e+03 -2.518543e+03 2.322573e+03
-4.131993e+09 -3.931996e+09 -4.091980e+09 -6.714182e+03 -6.220272e+03 6.096502e+03
-4.131997e+09 -3.931995e+09 -4.091996e+09 3.230245e+02 -3.547559e+02 1.634606e+02
-4.645654e+09 -4.445652e+09 -4.605655e+09 4.767597e+02 -4.134846e+02 2.625637e+02
-4.991314e+09 -4.791312e+09 -4.951314e+09 -2.308652e+01 2.205763e+01 -2.263803e+01
-4.818573e+09 -4.618572e+09 -4.778573e+09 -1.214816e+02 -1.434157e+02 1.318761e+02
-4.646965e+09 -4.446965e+09 -4.606966e+09 8.253801e+02 -3.362030e+02 1.893382e+02
-4.645805e+09 -4.445803e+09 -4.605806e+09 2.329586e+02 -3.200042e+02 2.291557e+02
-4.132002e+09 -3.932000e+09 -4.092002e+09 3.908903e+02 -5.140120e+02 3.300872e+02
-4.666285e+09 -4.466285e+09 -4.626280e+09 -3.072968e+03 6.160849e+02 -3.721017e+02
-4.817763e+09 -4.617761e+09 -4.777764e+09 -3.229566e+03 2.051809e+02 -5.683592e+02
-4.323050e+09 -4.123051e+09 -4.283042e+09 -3.159700e+03 9.557365e+02 -1.187408e+03
-4.814974e+09 -4.614973e+09 -4.774972e+09 -3.382806e+03 -4.282329e+02 -4.474613e+02
-4.128507e+09 -3.928507e+09 -4.088503e+09 -4.495077e+03 2.802848e+03 -3.041884e+02
-4.299930e+09 -4.099931e+09 -4.259927e+09 -2.854217e+03 4.965936e+02 -8.754840e+02
-3.413057e+09 -3.213067e+09 -3.373064e+09 -4.424263e+02 -5.521801e+01 2.888032e+02
-2.152485e+09 -1.952495e+09 -2.112494e+09 -1.046221e+03 -1.457048e+02 1.264065e+03
-3.066827e+09 -2.866833e+09 -3.026832e+09 -1.183096e+03 -3.389560e+02 4.011096e+02
-3.278110e+09 -3.078106e+09 -3.238110e+09 -4.228611e+02 8.111817e+02 -1.308877e+03
-4.055290e+09 -3.855299e+09 -4.015295e+09 -1.917447e+03 -6.163939e+02 6.929066e+02
-4.645182e+09 -4.445166e+09 -4.605171e+09 -1.091212e+03 -4.590525e+03 -3.449448e+02
-4.645059e+09 -4.445044e+09 -4.605056e+09 -2.567224e+03 -2.556220e+03 -1.721481e+03
-4.817939e+09 -4.617923e+09 -4.777934e+09 -2.085802e+03 -1.926880e+03 -1.411624e+03
-4.991033e+09 -4.791018e+09 -4.951029e+09 1.481966e+03 9.499800e+02 -6.972716e+01
-4.813978e+09 -4.613968e+09 -4.773997e+09 -2.244752e+02 2.388985e+03 3.068964e+02
-4.302253e+09 -4.102239e+09 -4.262258e+09 -2.882248e+03 6.169814e+02 -2.143641e+03
-4.131349e+09 -3.931340e+09 -4.091361e+09 1.809568e+03 5.358523e+03 -4.500343e+03
-4.989353e+09 -4.789341e+09 -4.949370e+09 1.670544e+03 2.841468e+03 1.282133e+01
-4.132075e+09 -3.932076e+09 -4.092076e+09 3.779040e+02 -6.476758e+00 -2.848246e+01
-4.302437e+09 -4.102439e+09 -4.262438e+09 2.654261e+02 6.262119e-01 -2.033073e+01
-4.991295e+09 -4.791296e+09 -4.951296e+09 4.923055e+02 -2.224591e+01 -3.109679e+01
-4.818619e+09 -4.618620e+09 -4.778620e+09 4.717648e+02 -1.949568e+00 -6.293040e+01
-4.647110e+09 -4.447112e+09 -4.607111e+09 2.504222e+02 1.631496e+01 2.819569e+01
-4.132001e+09 -3.932003e+09 -4.092002e+09 3.449411e+02 1.594368e+01 3.688540e+01
-4.645788e+09 -4.445789e+09 -4.605789e+09 4.263717e+02 2.162041e+01 2.226118e+01
-4.640611e+09 -4.440610e+09 -4.600611e+09 -3.893591e+02 -1.573407e+01 4.866330e+01
-4.310390e+09 -4.110389e+09 -4.270390e+09 -5.744676e+02 -5.104824e+00 -9.032950e+01
-4.312889e+09 -4.112889e+09 -4.272889e+09 -6.865914e+02 4.236721e+00 3.089919e+00
-4.132379e+09 -3.932379e+09 -4.092379e+09 -6.642000e+02 -4.108517e+01 5.580656e+01
-4.817408e+09 -4.617408e+09 -4.777408e+09 -7.377380e+02 -2.068016e+01 5.025335e+01
-4.113733e+09 -3.913733e+09 -4.073733e+09 -8.539218e+02 -4.536779e+01 7.144223e+01
-4.305861e+09 -4.105861e+09 -4.265861e+09 -6.360865e+02 -4.212641e+00 -4.169030e+00
-4.647245e+09 -4.447244e+09 -4.607245e+09 -6.647679e+02 -3.171475e+01 2.787224e+01
-4.312890e+09 -4.112888e+09 -4.272897e+09 -2.138549e+03 -3.001764e+03 -1.551776e+03
-4.133684e+09 -3.933687e+09 -4.093689e+09 -2.188500e+03 -2.545857e+03 -4.786120e+02
-4.806636e+09 -4.606636e+09 -4.766639e+09 -1.996295e+03 -2.383428e+02 -2.825133e+02
-4.294351e+09 -4.094346e+09 -4.254360e+09 -1.805288e+03 -3.985795e+03 -1.490442e+03
-4.304011e+09 -4.104011e+09 -4.264018e+09 -2.191097e+03 -2.280168e+03 -8.280014e+02
-4.296178e+09 -4.096175e+09 -4.256188e+09 -2.367813e+03 -3.492256e+03 -8.436594e+02
-4.647245e+09 -4.447244e+09 -4.607254e+09 -2.198173e+03 -1.593070e+03 -3.551320e+02
-4.305821e+09 -4.105823e+09 -4.265828e+09 -2.182628e+03 -2.661616e+03 -8.011060e+02
-4.303655e+09 -4.103659e+09 -4.263655e+09 1.917836e+03 2.831302e+02 -1.159838e+02
-4.818768e+09 -4.618772e+09 -4.778769e+09 1.882620e+03 1.345900e+02 2.645882e+01
-4.647245e+09 -4.447249e+09 -4.607247e+09 2.565861e+03 3.006022e+02 -1.233079e+02
-4.305915e+09 -4.105918e+09 -4.265916e+09 2.483703e+03 5.981755e+02 -2.286967e+02
-4.133683e+09 -3.933685e+09 -4.093683e+09 2.317218e+03 4.535736e+02 -2.542428e+02
-4.134348e+09 -3.934351e+09 -4.094349e+09 2.073012e+03 4.198592e+02 -1.930466e+01
-4.312812e+09 -4.112816e+09 -4.272813e+09 1.819113e+03 5.910913e+02 -1.087232e+02
-4.312890e+09 -4.112894e+09 -4.272891e+09 2.104593e+03 5.248253e+02 -1.856907e+02
-4.637089e+09 -4.437088e+09 -4.597088e+09 2.313777e+02 3.195879e+01 -3.675426e+00
-4.294724e+09 -4.094724e+09 -4.254724e+09 2.867776e+02 -4.736071e+00 -2.809295e+00
-4.637931e+09 -4.437931e+09 -4.597931e+09 3.632797e+02 3.366817e+01 1.009716e+01
-4.808652e+09 -4.608651e+09 -4.768651e+09 3.667284e+02 8.507534e+00 6.979608e+00
-4.811754e+09 -4.611753e+09 -4.771754e+09 2.897568e+02 5.641283e-01 -5.690773e-01
-3.960372e+09 -3.760372e+09 -3.920372e+09 3.438382e+02 1.904433e+01 -4.378172e+01
-4.985659e+09 -4.785658e+09 -4.945658e+09 3.193566e+02 -1.290542e+01 -9.568918e+00
-4.818898e+09 -4.618887e+09 -4.778905e+09 2.015147e+02 2.052935e+03 1.575859e+03
-4.130670e+09 -3.930656e+09 -4.090681e+09 -1.171626e+02 6.808281e+02 3.270677e+03
-3.789243e+09 -3.589244e+09 -3.749244e+09 -3.014096e+02 -1.535472e+01 -1.286666e+00
-4.815003e+09 -4.614993e+09 -4.775016e+09 -6.903580e+02 1.820545e+03 1.079292e+03
-4.128538e+09 -3.928529e+09 -4.088554e+09 -3.076971e+03 3.511744e+03 4.293657e+03
-4.644911e+09 -4.444899e+09 -4.604915e+09 9.042412e+02 -1.701328e+03 1.437563e+03
-4.651194e+09 -4.451195e+09 -4.611195e+09 -1.829616e+03 -6.086443e+01 1.296518e+01
-4.307671e+09 -4.107671e+09 -4.267671e+09 -1.568494e+03 -3.806880e+01 4.436679e+01
-4.137504e+09 -3.937506e+09 -4.097505e+09 -1.562199e+03 3.154489e+01 -1.992902e+02
-3.964729e+09 -3.764729e+09 -3.924730e+09 -1.583445e+03 -7.551566e+01 1.710161e+01
-4.823434e+09 -4.623434e+09 -4.783435e+09 -1.479923e+03 3.242647e+00 -1.283500e+02
-4.308940e+09 -4.108941e+09 -4.268941e+09 -1.478222e+03 -7.075346e+01 -1.794821e+00
-4.476010e+09 -4.275999e+09 -4.435991e+09 -4.169858e+03 4.987907e+03 -6.110683e+03
-4.819244e+09 -4.619231e+09 -4.779217e+09 -3.042756e+03 4.648228e+03 -3.335259e+03
-4.488729e+09 -4.288721e+09 -4.448721e+09 -6.436151e+03 1.604652e+03 -1.404343e+03
-4.485607e+09 -4.285606e+09 -4.445606e+09 4.034810e+02 1.306924e+01 -1.899286e+01
-4.317578e+09 -4.117564e+09 -4.277586e+09 -2.585513e+03 -1.573591e+03 -4.407315e+02
-3.969369e+09 -3.769351e+09 -3.929361e+09 -5.096622e+03 7.613437e+03 -7.104835e+02
-4.307436e+09 -4.107419e+09 -4.267423e+09 -3.613635e+02 3.640932e+03 9.796931e+01
-4.657018e+09 -4.457002e+09 -4.617018e+09 -3.709154e+03 2.429345e+03 -6.358282e+02
-4.828170e+09 -4.628156e+09 -4.788163e+09 -1.631612e+03 2.274642e+02 -4.804310e+02
-4.143613e+09 -3.943620e+09 -4.103625e+09 -1.750368e+02 3.429181e+03 -3.778293e+02
-4.822634e+09 -4.622639e+09 -4.782644e+09 -1.914611e+03 7.483996e+02 1.152182e+02
-1.590645e+09 -1.390646e+09 -1.550645e+09 -2.339253e+02 -3.236856e+01 2.411435e+00
-4.660436e+09 -4.460443e+09 -4.620442e+09 -9.728305e+02 8.642059e+02 1.634544e+02
-4.831351e+09 -4.631358e+09 -4.791360e+09 -2.690359e+02 9.029813e+02 -4.538057e+02
-4.140326e+09 -3.940334e+09 -4.100334e+09 -1.120926e+03 2.320698e+03 1.256055e+02
-4.131862e+09 -3.931864e+09 -4.091864e+09 6.145653e+02 5.240398e+01 -2.484577e+01
-4.991356e+09 -4.791358e+09 -4.951357e+09 9.637434e+02 -3.660734e+01 -7.845604e+01
-4.302992e+09 -4.102994e+09 -4.262993e+09 7.890797e+02 -1.566892e+01 -1.004072e+02
-4.645505e+09 -4.445508e+09 -4.605507e+09 4.309480e+02 2.435286e+01 3.494259e+01
-4.991326e+09 -4.791328e+09 -4.951328e+09 5.942973e+02 -2.684072e+01 -7.683600e+01
-4.818665e+09 -4.618667e+09 -4.778666e+09 6.208490e+02 -1.749519e+01 -8.291836e+01
-4.302977e+09 -4.102979e+09 -4.262978e+09 6.815017e+02 -5.879330e+00 -4.170795e+01
-4.132361e+09 -3.932363e+09 -4.092362e+09 7.467845e+02 -1.256803e+01 -1.148863e+02
-4.818195e+09 -4.618194e+09 -4.778194e+09 5.387054e+01 -2.246822e+01 -4.258711e+01
-4.991874e+09 -4.791873e+09 -4.951873e+09 1.144897e+02 2.236814e+01 1.013787e+01
-4.822956e+09 -4.622955e+09 -4.782955e+09 2.464785e+02 -3.253859e+01 -5.473084e+01
-4.468300e+09 -4.268299e+09 -4.428299e+09 1.858576e+02 2.993917e+01 -2.679364e+01
-4.134916e+09 -3.934915e+09 -4.094915e+09 8.355049e+01 1.139298e+00 -3.822127e+01
-4.130662e+09 -3.930660e+09 -4.090660e+09 1.097391e+02 3.682598e-01 -5.043533e+01
-4.136490e+09 -3.936489e+09 -4.096489e+09 2.148361e+02 4.476272e+01 1.285098e+01
-4.132432e+09 -3.932421e+09 -4.092438e+09 2.299458e+02 8.475497e+02 2.256722e+03
-4.815778e+09 -4.615768e+09 -4.775777e+09 2.832353e+03 -2.012061e+03 -1.511746e+03
-4.822524e+09 -4.622516e+09 -4.782530e+09 3.794440e+02 9.734933e+02 6.660955e+02
-4.301679e+09 -4.101667e+09 -4.261686e+09 9.199962e+02 6.460724e+01 2.617721e+03
-4.129316e+09 -3.929305e+09 -4.089315e+09 7.899985e+02 3.442365e+02 4.292255e+03
-4.136059e+09 -3.936050e+09 -4.096066e+09 -1.213253e+02 2.141302e+03 2.801163e+03
-4.940391e+09 -4.740391e+09 -4.900391e+09 3.001514e+00 -9.665136e+00 -9.947650e-05
-4.647926e+09 -4.447930e+09 -4.607928e+09 4.168690e+02 -2.285857e+02 -2.797683e+02
-4.474987e+09 -4.274990e+09 -4.434988e+09 1.087774e+03 5.985685e+00 -2.720397e+02
-4.645340e+09 -4.445342e+09 -4.605342e+09 8.802363e+02 4.333119e+01 -1.050849e+01
-4.818161e+09 -4.618164e+09 -4.778163e+09 6.189111e+02 -8.670887e+01 -1.647383e+02
-4.645458e+09 -4.445462e+09 -4.605459e+09 1.041717e+02 1.059176e+02 -1.003784e+02
-4.131696e+09 -3.931699e+09 -4.091698e+09 5.650633e+02 6.736208e+01 -1.438612e+02
-4.132100e+09 -3.932102e+09 -4.092102e+09 4.812346e+02 -3.658681e+00 -9.515932e+01
-4.644885e+09 -4.444888e+09 -4.604887e+09 1.497309e+01 1.260970e+01 4.755265e+01
-4.304980e+09 -4.104978e+09 -4.264978e+09 1.215942e+02 3.473271e+01 -4.028131e+00
-4.818071e+09 -4.618073e+09 -4.778072e+09 8.976561e+01 1.280550e+01 1.049581e+01
-4.990913e+09 -4.790915e+09 -4.950914e+09 2.197555e+02 -1.410136e+01 -9.346338e+01
-4.645524e+09 -4.445526e+09 -4.605526e+09 -3.810997e+01 5.330936e+00 5.610642e+01
-4.131479e+09 -3.931482e+09 -4.091481e+09 -1.121607e+02 1.648414e+01 -2.831489e+01
-4.643577e+09 -4.443580e+09 -4.603579e+09 3.334643e+02 1.855806e+01 1.994941e+01
-4.131448e+09 -3.931451e+09 -4.091450e+09 4.438468e+02 -2.120453e+01 -1.542483e+02
-4.300157e+09 -4.100160e+09 -4.260159e+09 8.532831e+00 3.624570e-01 -1.307728e+02
-4.298570e+09 -4.098567e+09 -4.258568e+09 1.687058e+03 -9.856704e+01 -5.060173e+01
-3.958638e+09 -3.758635e+09 -3.918637e+09 1.846200e+03 -1.616601e+02 -3.903694e+01
-4.115964e+09 -3.915961e+09 -4.075962e+09 1.723419e+03 -1.017008e+02 9.678119e+01
-4.641803e+09 -4.441800e+09 -4.601801e+09 1.682798e+03 -3.023483e+02 -1.789654e+02
-4.411287e+09 -4.211289e+09 -4.371288e+09 -5.421567e+00 1.124738e+00 6.849854e+00
-4.645105e+09 -4.445101e+09 -4.605103e+09 8.450254e+02 -1.581010e+02 -1.197542e+02
-4.812572e+09 -4.612569e+09 -4.772570e+09 1.822783e+03 -2.205062e+02 -7.293068e+01
-4.471961e+09 -4.271957e+09 -4.431960e+09 -1.094019e+03 2.050490e+02 2.629660e+02
-4.817112e+09 -4.617111e+09 -4.777113e+09 -2.426251e+03 2.488690e+01 5.290395e+01
-4.818533e+09 -4.618531e+09 -4.778532e+09 -1.629160e+03 2.622445e+02 2.564292e+02
-4.644531e+09 -4.444529e+09 -4.604531e+09 -2.305006e+03 3.815246e+02 1.583122e+02
-4.818698e+09 -4.618697e+09 -4.778698e+09 -2.017079e+03 -2.274481e+01 -1.122169e+02
-4.302501e+09 -4.102499e+09 -4.262500e+09 -1.508499e+03 1.217995e+02 1.214467e+02
-4.131641e+09 -3.931640e+09 -4.091641e+09 -2.401958e+03 3.517029e+02 9.145980e+01
-4.302314e+09 -4.102308e+09 -4.262312e+09 -4.131719e+03 -4.629866e+02 -9.103607e+02
-4.818266e+09 -4.618255e+09 -4.778271e+09 -4.283998e+02 1.359305e+03 -1.069170e+03
-4.991097e+09 -4.791084e+09 -4.951103e+09 -1.288467e+03 1.792299e+03 -1.052039e+03
-4.645629e+09 -4.445620e+09 -4.605619e+09 -5.890731e+03 -2.401028e+03 4.925034e+02
-4.645483e+09 -4.445470e+09 -4.605481e+09 -2.882058e+03 -2.509006e+03 -5.159291e+01
-4.131900e+09 -3.931883e+09 -4.091898e+09 -4.336643e+03 -2.864262e+03 -2.022646e+03
-4.131858e+09 -3.931858e+09 -4.091862e+09 1.112753e+03 -1.354876e+03 6.364265e+02
-4.818264e+09 -4.618262e+09 -4.778269e+09 6.069917e+02 -5.387182e+02 1.485471e+02
-4.991096e+09 -4.791094e+09 -4.951101e+09 4.276671e+02 -4.580282e+02 2.691923e+02
-4.645484e+09 -4.445482e+09 -4.605488e+09 3.452506e+02 -6.571230e+02 6.247271e+02
-4.131899e+09 -3.931897e+09 -4.091901e+09 6.445709e+02 -1.274588e+03 1.289311e+03
-4.645629e+09 -4.445626e+09 -4.605630e+09 2.664996e+02 -5.078808e+02 4.542155e+02
-4.815044e+09 -4.615045e+09 -4.775050e+09 -2.935108e+03 9.155653e+02 5.129108e+02
-4.127572e+09 -3.927566e+09 -4.087573e+09 -2.556303e+03 1.696811e+03 1.820833e+03
-4.990323e+09 -4.790320e+09 -4.950327e+09 -2.678805e+03 4.956563e+02 2.143601e+02
-4.816465e+09 -4.616463e+09 -4.776468e+09 -2.789846e+03 1.099175e+02 1.245727e+02
-4.112051e+09 -3.912048e+09 -4.072054e+09 -3.020178e+03 1.370395e+03 1.039527e+03
-3.942471e+09 -3.742469e+09 -3.902477e+09 -3.505534e+03 2.565711e+03 2.134256e+03
-4.814037e+09 -4.614031e+09 -4.774039e+09 -1.904270e+03 1.891103e+02 1.127191e+02
-4.818338e+09 -4.618337e+09 -4.778337e+09 -1.022221e+03 1.354861e+02 9.644787e+01
-4.991160e+09 -4.791159e+09 -4.951159e+09 -1.244061e+03 -9.072257e+01 -6.905378e+00
-4.410465e+09 -4.210474e+09 -4.370471e+09 3.096514e+02 3.833373e+01 2.692897e+02
-4.645542e+09 -4.445543e+09 -4.605541e+09 -1.095908e+03 1.034519e+02 -4.518289e+01
-4.818363e+09 -4.618364e+09 -4.778362e+09 -1.285002e+03 -1.149968e+02 -1.084039e+02
-4.302309e+09 -4.102310e+09 -4.262309e+09 -1.095909e+03 2.572877e+01 -1.344377e+00
-4.131868e+09 -3.931868e+09 -4.091867e+09 -9.444696e+02 2.108160e+02 5.805467e+01
-4.656044e+09 -4.456042e+09 -4.616050e+09 -1.951058e+03 -8.581298e+02 -2.416937e+02
-4.142024e+09 -3.942019e+09 -4.102030e+09 -1.340654e+03 -2.512241e+03 -1.171957e+03
-4.135207e+09 -3.935201e+09 -4.095209e+09 -1.474376e+03 -1.713514e+03 -1.855844e+03
-3.962610e+09 -3.762606e+09 -3.922612e+09 -1.636616e+03 -1.678398e+03 -1.231384e+03
-4.312341e+09 -4.112334e+09 -4.272347e+09 -9.819476e+02 -2.574989e+03 -2.024556e+03
-4.991060e+09 -4.791053e+09 -4.951064e+09 3.575687e+01 -5.444461e+02 -3.425906e+02
-4.820422e+09 -4.620416e+09 -4.780426e+09 2.348208e+02 -7.357142e+02 -9.850430e+02
-4.312329e+09 -4.112334e+09 -4.272329e+09 1.519742e+03 2.175164e+02 -5.426473e+01
-4.140521e+09 -3.940527e+09 -4.100523e+09 1.761521e+03 2.258117e+02 -5.512071e+01
-4.134956e+09 -3.934962e+09 -4.094957e+09 1.145842e+03 3.743235e+02 -6.093124e+01
-3.962512e+09 -3.762517e+09 -3.922513e+09 1.316252e+03 1.606298e+02 -7.404102e+01
-4.310837e+09 -4.110843e+09 -4.270839e+09 1.487299e+03 5.254201e+02 -7.053827e+00
-4.820268e+09 -4.620274e+09 -4.780270e+09 1.037521e+03 3.013953e+02 -4.029777e+01
-4.118991e+09 -3.918998e+09 -4.078993e+09 1.006792e+03 3.495365e+02 -1.027722e+02
-4.653139e+09 -4.453139e+09 -4.613139e+09 -4.967489e+02 -2.440387e+01 1.002539e+01
-4.142068e+09 -3.942068e+09 -4.102068e+09 -6.944299e+02 -3.606318e+01 5.723403e+01
-4.134957e+09 -3.934955e+09 -4.094956e+09 -5.125059e+02 -2.734018e+01 -6.208716e+01
-3.962513e+09 -3.762512e+09 -3.922512e+09 -4.859166e+02 -4.140151e+01 9.016279e+00
-4.312384e+09 -4.112383e+09 -4.272384e+09 -7.388915e+02 -1.251116e+01 -3.581028e+01
-4.820269e+09 -4.620268e+09 -4.780269e+09 -6.099253e+02 -1.419761e+01 -6.344121e+01
-4.118991e+09 -3.918990e+09 -4.078991e+09 -8.265676e+02 -4.738409e+01 8.953095e+01
-4.115710e+09 -3.915706e+09 -4.075678e+09 -3.135362e+03 4.996616e+03 -1.008717e+04
-4.802176e+09 -4.602172e+09 -4.762141e+09 -2.093651e+03 4.693271e+02 -1.889066e+03
-4.460604e+09 -4.260592e+09 -4.420581e+09 -3.240544e+03 8.500021e+03 -1.046789e+03
-4.990093e+09 -4.790088e+09 -4.950044e+09 -6.051524e+02 -1.448864e+02 -6.425951e+02
-4.129784e+09 -3.929770e+09 -4.089749e+09 1.470620e+03 -8.083600e+03 -2.056403e+03
-4.812907e+09 -4.612894e+09 -4.772869e+09 -2.080737e+03 1.072344e+03 1.984753e+03
-4.307023e+09 -4.107024e+09 -4.267024e+09 -4.941900e+02 -3.343721e+00 -1.623009e+01
-4.133910e+09 -3.933899e+09 -4.093855e+09 -1.321914e+02 8.240855e+03 5.311290e+03
-4.136169e+09 -3.936176e+09 -4.096179e+09 -2.082349e+03 3.876133e+03 9.964358e+02
-4.797094e+09 -4.597095e+09 -4.757102e+09 -2.798202e+03 5.504309e+02 8.278324e+01
-4.992130e+09 -4.792140e+09 -4.952126e+09 5.296202e+02 -1.692198e+02 8.381864e+02
-4.990116e+09 -4.790117e+09 -4.950121e+09 -2.729200e+03 4.028789e+02 9.140752e+01
-4.130000e+09 -3.929998e+09 -4.090003e+09 -3.474881e+03 2.183362e+03 1.487119e+03
-4.817986e+09 -4.617991e+09 -4.777993e+09 -2.232436e+03 1.033354e+03 1.699401e+02
-4.645630e+09 -4.445635e+09 -4.605637e+09 -2.522097e+03 9.611953e+02 2.852978e+02
-4.821853e+09 -4.621852e+09 -4.781852e+09 -1.575358e+02 -4.459725e+01 -5.654891e+01
-4.213784e+09 -4.013783e+09 -4.173783e+09 -2.430934e+01 -2.060991e+01 -6.244252e+00
-4.769674e+09 -4.569673e+09 -4.729673e+09 -4.256147e+01 4.056332e+01 -2.996373e+01
-4.820588e+09 -4.620587e+09 -4.780587e+09 -3.175592e+02 -1.930675e+01 3.928488e+01
-4.823010e+09 -4.623008e+09 -4.783008e+09 -1.222722e+02 5.816361e+00 4.365896e+01
-4.189480e+09 -3.989479e+09 -4.149479e+09 2.969615e+01 -1.721345e+01 -1.952628e+01
-4.769703e+09 -4.569702e+09 -4.729702e+09 -6.811215e+01 -2.944131e+01 -1.920804e+01
-4.646525e+09 -4.446529e+09 -4.606528e+09 -2.351008e+03 3.183426e+02 5.116256e+01
-4.991619e+09 -4.791622e+09 -4.951623e+09 -2.807180e+03 3.485806e+02 7.491734e+01
-4.131295e+09 -3.931297e+09 -4.091299e+09 -3.215427e+03 1.860097e+03 9.023062e+02
-4.131678e+09 -3.931679e+09 -4.091679e+09 -2.805848e+03 1.095791e+03 7.234778e+02
-4.302533e+09 -4.102535e+09 -4.262533e+09 -1.939518e+03 1.816847e+02 1.317049e+02
-4.132233e+09 -3.932232e+09 -4.092233e+09 -2.126080e+03 6.462791e+02 4.860765e+02
-4.990803e+09 -4.790803e+09 -4.950804e+09 -2.617026e+03 1.318032e+02 1.083354e+02
-4.302554e+09 -4.102555e+09 -4.262557e+09 -2.654668e+03 9.169018e+02 6.029360e+02
-4.818423e+09 -4.618421e+09 -4.778415e+09 -5.840162e+03 -2.332846e+03 1.894212e+03
-4.302417e+09 -4.102418e+09 -4.262410e+09 -5.997308e+03 -1.903679e+03 2.695174e+03
-4.818424e+09 -4.618415e+09 -4.778410e+09 -5.455564e+03 -7.116752e+02 -4.096804e+02
-4.292722e+09 -4.092730e+09 -4.252709e+09 -1.874570e+03 -1.206027e+03 6.118365e+03
-4.132068e+09 -3.932074e+09 -4.092053e+09 -4.147682e+03 -9.090384e+02 6.065312e+03
-4.131960e+09 -3.931954e+09 -4.091954e+09 -6.019926e+03 -2.759175e+03 4.820394e+02
-4.991304e+09 -4.791301e+09 -4.951304e+09 -4.095495e+02 -5.601918e+01 1.277038e+01
-4.818428e+09 -4.618426e+09 -4.778429e+09 6.196324e+02 -1.478590e+02 -1.180374e+01
-4.302421e+09 -4.102420e+09 -4.262422e+09 4.767767e+02 -5.394382e+02 4.121276e+02
-4.645632e+09 -4.445631e+09 -4.605634e+09 7.689747e+02 -4.858065e+02 3.640794e+02
-4.132075e+09 -3.932073e+09 -4.092075e+09 1.826367e+02 -5.123713e+02 4.521463e+02
-4.476547e+09 -4.276546e+09 -4.436547e+09 3.689345e+02 -2.112627e+02 2.676642e+02
-4.818427e+09 -4.618429e+09 -4.778427e+09 -1.401817e+03 2.017505e+02 1.121545e+02
-3.728603e+09 -3.528600e+09 -3.688602e+09 -6.145276e+02 -5.512675e+02 -1.610039e+02
-4.302420e+09 -4.102423e+09 -4.262420e+09 -1.332790e+03 6.787948e+01 1.173498e+01
-3.667616e+09 -3.467622e+09 -3.627616e+09 5.017529e+01 3.448994e+01 -2.401112e+01
-4.302406e+09 -4.102407e+09 -4.262405e+09 -1.487695e+03 1.121756e+02 4.127356e+01
-4.132074e+09 -3.932077e+09 -4.092074e+09 -1.472654e+03 8.485729e+00 -1.116327e+02
-4.132001e+09 -3.932003e+09 -4.092001e+09 -1.576804e+03 3.378871e+02 1.332841e+02
-4.645627e+09 -4.445629e+09 -4.605627e+09 -1.498430e+03 1.017352e+02 -2.598927e+01
-4.132072e+09 -3.932074e+09 -4.092073e+09 4.241031e+02 1.101566e+01 -5.787632e+01
-1.890033e+09 -1.690025e+09 -1.850032e+09 1.628745e+02 1.164784e+03 -1.936677e+03
-4.304210e+09 -4.104218e+09 -4.264210e+09 3.908322e+03 1.475643e+03 2.628575e+03
-4.302447e+09 -4.102449e+09 -4.262449e+09 2.414480e+02 -5.216029e+00 -4.008741e+01
-3.606377e+09 -3.406373e+09 -3.566377e+09 -2.166753e+02 -6.868305e+02 -1.728759e+02
-4.131997e+09 -3.931999e+09 -4.091999e+09 3.390218e+02 1.231913e+01 2.650013e+01
-4.132096e+09 -3.932098e+09 -4.092098e+09 4.817719e+02 4.662248e-01 -7.198997e+01
-1.571545e+09 -1.371545e+09 -1.531547e+09 8.646856e+02 -6.260961e+02 -1.671714e+02
-4.991312e+09 -4.791313e+09 -4.951313e+09 5.563452e+02 -2.511713e+01 -4.809189e+01
-4.818633e+09 -4.618634e+09 -4.778634e+09 5.572327e+02 -9.326291e+00 -6.645908e+01
-4.818365e+09 -4.618359e+09 -4.778361e+09 -4.957511e+03 -1.578126e+02 -1.091115e+03
-4.131837e+09 -3.931826e+09 -4.091838e+09 -1.540779e+03 8.247258e+02 -2.748411e+03
-4.817875e+09 -4.617862e+09 -4.777881e+09 -7.506403e+02 9.916494e+02 -9.518891e+02
-4.990756e+09 -4.790741e+09 -4.950759e+09 -2.656027e+02 1.631822e+03 -6.436783e+02
-4.132101e+09 -3.932096e+09 -4.092080e+09 -5.131741e+03 -5.022941e+03 4.612264e+03
-4.134303e+09 -3.934303e+09 -4.094303e+09 -5.536517e+02 -4.183375e+01 3.454428e+00
-4.818639e+09 -4.618640e+09 -4.778609e+09 -3.658219e+03 9.081910e+02 2.044557e+03
-4.131942e+09 -3.931920e+09 -4.091925e+09 -4.269263e+03 -8.494635e+03 -1.404441e+03
-4.131475e+09 -3.931459e+09 -4.091473e+09 -2.490794e+03 -2.175557e+03 -2.444231e+03
-4.131809e+09 -3.931794e+09 -4.091800e+09 -2.357212e+03 -5.705251e+03 -5.762813e+02
-4.991221e+09 -4.791209e+09 -4.951197e+09 -1.821653e+03 -6.945620e+02 3.217285e+02
-4.657205e+09 -4.457212e+09 -4.617215e+09 6.397197e+01 1.092662e+03 -6.565393e+00
-4.997618e+09 -4.797625e+09 -4.957625e+09 9.846480e+02 3.723483e+02 1.629463e+02
-4.480239e+09 -4.280246e+09 -4.440246e+09 1.026304e+03 1.899934e+03 -3.863244e+02
-3.967920e+09 -3.767929e+09 -3.927926e+09 1.031511e+02 2.235489e+03 -3.186878e+01
-1.699934e+09 -1.499943e+09 -1.659943e+09 7.008661e+02 2.796509e+02 1.195127e+03
-2.863178e+09 -2.663177e+09 -2.823177e+09 2.072375e+01 5.081581e+00 -8.732648e+00
-4.477622e+09 -4.277630e+09 -4.437627e+09 -4.336070e+02 7.888570e+02 2.087010e+01
-4.492591e+09 -4.292599e+09 -4.452596e+09 6.776514e+02 8.460881e+02 -1.535878e+02
-3.447027e+09 -3.247026e+09 -3.407027e+09 1.687497e+02 -5.491780e+00 4.567863e+00
-4.820852e+09 -4.620852e+09 -4.780852e+09 2.484239e+03 1.344547e+02 1.394550e+02
-4.149359e+09 -3.949367e+09 -4.109365e+09 6.982246e+02 1.788477e+03 -1.945164e+02
-4.135429e+09 -3.935436e+09 -4.095435e+09 -1.434423e+03 1.461673e+03 2.664767e+02
-3.961334e+09 -3.761337e+09 -3.921335e+09 1.279587e+03 1.553581e+01 -5.364688e+02
-3.962184e+09 -3.762184e+09 -3.922184e+09 4.010546e+02 4.471806e+01 7.577682e+00
-2.461196e+09 -2.261195e+09 -2.421196e+09 -3.296142e+01 -5.932424e+00 -3.765294e+01
-3.963112e+09 -3.763120e+09 -3.923118e+09 -5.371053e+02 1.609919e+03 1.018216e+02
-4.992077e+09 -4.792076e+09 -4.952076e+09 -3.067352e+02 -1.447898e+00 9.753222e+00
-2.792885e+09 -2.592883e+09 -2.752884e+09 -1.102090e+02 -1.244060e+01 -1.873983e+01
-3.122889e+09 -2.922887e+09 -3.082888e+09 -1.176976e+02 -1.992536e+01 -4.947011e+01
-2.067304e+09 -1.867303e+09 -2.027304e+09 -1.363437e+02 -2.233756e+01 3.429832e+00
-2.450127e+09 -2.250125e+09 -2.410126e+09 -1.254633e+02 -8.621778e+00 -7.741196e+00
-2.219336e+09 -2.019335e+09 -2.179335e+09 -1.484637e+02 -1.740719e+01 -2.315152e+01
-2.195404e+09 -1.995403e+09 -2.155403e+09 -3.083452e+02 -4.232531e+01 -5.215041e+01
-1.884044e+09 -1.684042e+09 -1.844043e+09 -7.157197e+01 -1.655513e+01 -4.616325e+01
-1.560744e+09 -1.360747e+09 -1.520743e+09 4.612751e+02 1.139442e+02 -8.511570e+01
-1.884044e+09 -1.684042e+09 -1.844043e+09 -9.936502e+01 -1.680983e+01 -6.618179e+01
-4.127979e+09 -3.927983e+09 -4.087979e+09 9.303565e+02 1.842077e+02 -1.127919e+03
-4.127877e+09 -3.927878e+09 -4.087877e+09 1.978387e+03 -1.971846e+02 -4.758325e+02
-4.812457e+09 -4.612455e+09 -4.772455e+09 1.970406e+03 -3.410852e+02 -4.858728e+02
-3.963349e+09 -3.763348e+09 -3.923348e+09 1.298052e+02 2.060860e+01 -3.512795e+01
-4.558593e+09 -4.358601e+09 -4.518599e+09 -2.166072e+02 -4.938046e+01 1.586451e+02
-1.569067e+09 -1.369066e+09 -1.529069e+09 -1.821174e+03 1.580875e+02 2.887024e+02
-4.994095e+09 -4.794094e+09 -4.954093e+09 1.057952e+03 -9.903456e+01 -8.956993e+00
-4.650578e+09 -4.450579e+09 -4.610575e+09 2.373370e+03 -4.093563e+02 -8.839455e+02
-4.121439e+09 -3.921438e+09 -4.081436e+09 2.667466e+03 -6.218615e+02 -9.376951e+02
-4.820983e+09 -4.620985e+09 -4.780982e+09 1.769836e+03 2.084343e+02 -1.350490e+02
-4.131847e+09 -3.931847e+09 -4.091846e+09 -1.701667e+03 4.354154e+02 2.777913e+02
-1.553411e+09 -1.353414e+09 -1.513416e+09 -1.579007e+03 1.862627e+02 4.466956e+02
-4.302384e+09 -4.102384e+09 -4.262383e+09 -1.940227e+03 1.760531e+02 1.381045e+02
-4.818298e+09 -4.618297e+09 -4.778297e+09 -1.332920e+03 1.906396e+02 1.640931e+02
-3.962643e+09 -3.762642e+09 -3.922642e+09 -4.323407e+02 -1.050616e+02 2.826953e+01
-2.217083e+09 -2.017085e+09 -2.177084e+09 -1.262831e+01 2.254064e-01 5.803528e+00
-4.139552e+09 -3.939548e+09 -4.099566e+09 -1.168326e+03 -4.648445e+03 4.151616e+02
-4.991115e+09 -4.791114e+09 -4.951114e+09 -1.582916e+03 -8.628688e+01 3.902244e+00
-4.991303e+09 -4.791305e+09 -4.951304e+09 -2.004971e+03 1.770068e+01 7.490992e+01
-2.264621e+09 -2.064621e+09 -2.224621e+09 3.162241e+02 1.888451e+01 5.632796e+00
-4.132102e+09 -3.932104e+09 -4.092102e+09 -1.863681e+03 1.025229e+02 -8.137986e+01
-4.991174e+09 -4.791175e+09 -4.951174e+09 -1.722016e+03 -5.605223e+01 3.613467e+01
-4.818438e+09 -4.618440e+09 -4.778438e+09 -1.710996e+03 -9.875849e+01 -1.401191e+02
-4.302395e+09 -4.102396e+09 -4.262394e+09 -1.498429e+03 4.324863e+01 3.931575e+01
-4.131894e+09 -3.931894e+09 -4.091893e+09 -1.292372e+03 2.687017e+02 1.339120e+02
-4.840593e+09 -4.640597e+09 -4.800594e+09 6.026112e+02 1.711516e+02 -1.377516e+02
-4.302956e+09 -4.102958e+09 -4.262957e+09 1.385732e+03 -1.466911e+02 -3.927641e+02
-4.818871e+09 -4.618873e+09 -4.778872e+09 9.493203e+02 -5.000872e+01 -1.337120e+02
-4.302713e+09 -4.102715e+09 -4.262714e+09 -8.787405e+02 1.733964e+00 -2.430961e+01
-4.300592e+09 -4.100595e+09 -4.260594e+09 3.964955e+02 -1.011050e+01 -2.415136e+02
-1.688681e+09 -1.488680e+09 -1.648680e+09 -3.113872e+02 -4.212798e+01 -2.474623e+01
-4.818327e+09 -4.618330e+09 -4.778329e+09 6.468433e+02 -3.891674e+01 -1.117880e+02
-4.817914e+09 -4.617917e+09 -4.777916e+09 3.971356e+02 3.517822e+01 1.811878e+01
-4.132244e+09 -3.932246e+09 -4.092245e+09 8.496294e+02 -3.853404e+01 -1.924325e+02
-4.622465e+09 -4.422465e+09 -4.582465e+09 -9.413809e+02 -1.791050e+01 -8.535997e+01
-4.992664e+09 -4.792666e+09 -4.952665e+09 1.730996e+02 -1.180713e+01 -6.286186e+00
-1.605906e+09 -1.405906e+09 -1.565906e+09 -1.492681e+02 -4.364471e+01 -1.275524e+01
-4.300345e+09 -4.100348e+09 -4.260346e+09 3.323505e+02 -1.537614e+01 -2.004913e+02
-4.991218e+09 -4.791215e+09 -4.951219e+09 -1.214276e+03 -1.540333e+02 7.092905e+01
-4.817938e+09 -4.617934e+09 -4.777940e+09 -7.634754e+02 -3.692212e+02 4.031477e+02
-4.132080e+09 -3.932077e+09 -4.092081e+09 -1.061314e+03 -5.892243e+02 8.362597e+02
-4.132103e+09 -3.932100e+09 -4.092103e+09 -7.015670e+01 -6.733610e+02 7.059954e+02
-4.818364e+09 -4.618362e+09 -4.778367e+09 2.840898e+02 -3.190691e+02 1.583442e+02
-3.896815e+09 -3.696814e+09 -3.856814e+09 -2.281102e+02 -2.513713e+01 -1.490788e+01
-3.879818e+09 -3.679816e+09 -3.839817e+09 -3.400555e+02 -3.222972e+01 -5.140540e+01
-4.545310e+09 -4.345307e+09 -4.505311e+09 -8.842622e+01 -1.595219e+02 -7.326494e+01
-2.620563e+09 -2.420562e+09 -2.580562e+09 -9.363710e+02 -4.127323e+02 -2.043325e+02
-2.677277e+09 -2.477273e+09 -2.637275e+09 -2.771763e+02 -9.191954e+02 -1.364178e+02
-1.587883e+09 -1.387894e+09 -1.547886e+09 -1.419933e+02 -1.864551e+03 1.765363e+02
-4.962258e+09 -4.762256e+09 -4.922256e+09 -6.989371e+01 5.880074e-08 -4.711212e+01
-4.765618e+09 -4.565618e+09 -4.725617e+09 9.207900e+01 -1.421702e+02 1.830644e+01
-4.991160e+09 -4.791158e+09 -4.951162e+09 5.155925e+01 -1.871960e+02 1.317385e+02
-4.645546e+09 -4.445546e+09 -4.605548e+09 1.003314e+03 -6.445707e+02 3.390306e+02
-4.131835e+09 -3.931832e+09 -4.091838e+09 5.732976e+02 -1.424598e+03 1.036167e+03
-2.945084e+09 -2.745080e+09 -2.905083e+09 -2.609642e+02 -9.077275e+02 -2.429771e+02
-1.934508e+09 -1.734504e+09 -1.894507e+09 -2.423551e+02 -1.148726e+03 -2.918115e+02
-4.992206e+09 -4.792201e+09 -4.952208e+09 2.731143e+02 -1.953348e+02 -1.637568e+02
-2.660690e+09 -2.460685e+09 -2.620688e+09 -9.376469e+02 -1.168665e+03 -5.759109e+02
-2.136121e+09 -1.936116e+09 -2.096119e+09 -9.757220e+02 -9.781908e+02 -6.490876e+02
-3.960429e+09 -3.760433e+09 -3.920431e+09 2.492287e+03 7.788143e+02 -3.925600e+02
-4.097113e+09 -3.897113e+09 -4.057112e+09 2.056037e+03 5.432864e+02 -2.996304e+02
-3.302726e+09 -3.102727e+09 -3.262728e+09 -5.109766e+03 -2.221758e+03 1.350174e+03
-4.306278e+09 -4.106278e+09 -4.266278e+09 2.155550e+03 4.448739e+02 -3.050333e+02
-4.829107e+09 -4.629108e+09 -4.789105e+09 1.329756e+03 -6.476045e+01 8.784803e+01
-4.991228e+09 -4.791235e+09 -4.951214e+09 5.646577e+02 -8.052776e+01 1.426473e+03
-4.992030e+09 -4.792031e+09 -4.952030e+09 2.115534e+03 1.682342e+02 -1.325347e+02
-4.649251e+09 -4.449252e+09 -4.609252e+09 2.785959e+03 2.887958e+02 -5.670989e+01
-3.204274e+09 -3.004269e+09 -3.164273e+09 -3.520892e+02 4.171018e+02 -5.398178e+02
-4.096202e+09 -3.896203e+09 -4.056201e+09 1.646622e+03 3.455525e+02 -1.300297e+02
-3.902250e+09 -3.702248e+09 -3.862249e+09 7.195197e+00 -2.377339e+00 -2.656264e+00
-4.493881e+09 -4.293883e+09 -4.453882e+09 3.913175e+00 -2.076393e+00 1.741631e+01
-4.645525e+09 -4.445524e+09 -4.605525e+09 -2.299978e+03 4.009297e+02 1.470965e+02
-4.643550e+09 -4.443550e+09 -4.603550e+09 5.382955e+02 3.304499e+00 -7.597509e+00
-4.476898e+09 -4.276897e+09 -4.436897e+09 8.411853e+01 1.401754e+01 -2.737587e+01
-4.662491e+09 -4.462489e+09 -4.622490e+09 3.457504e+02 7.727160e+01 3.513631e+01
-4.319566e+09 -4.119565e+09 -4.279565e+09 2.931252e+02 2.847771e+01 -3.497909e+01
-3.506019e+09 -3.306018e+09 -3.466018e+09 -1.223216e+02 -3.404008e+01 -4.264593e+01
-3.962534e+09 -3.762533e+09 -3.922533e+09 1.520814e+02 4.056356e+01 -5.760478e+01
-4.820435e+09 -4.620433e+09 -4.780434e+09 3.230892e+02 5.314485e+01 9.920988e+00
-4.660064e+09 -4.460063e+09 -4.620063e+09 2.995298e+02 7.076522e+00 -1.898696e+01
-4.989711e+09 -4.789716e+09 -4.949713e+09 1.770894e+03 1.875306e+02 1.766935e+01
-3.961518e+09 -3.761520e+09 -3.921519e+09 3.247012e+02 3.567018e+01 1.524944e+01
-3.519606e+09 -3.319608e+09 -3.479605e+09 9.708366e+02 1.666738e+02 -7.273597e+01
-3.971553e+09 -3.771559e+09 -3.931554e+09 1.644254e+03 3.465924e+02 -1.999976e+02
-4.129396e+09 -3.929402e+09 -4.089399e+09 2.039755e+03 9.216223e+02 -1.529905e+02
-3.956184e+09 -3.756188e+09 -3.916176e+09 1.528440e+03 -8.372782e+02 -3.920055e+03
-4.804109e+09 -4.604116e+09 -4.764112e+09 1.371137e+03 -9.621620e+01 -1.020125e+02
-4.304361e+09 -4.104365e+09 -4.264363e+09 2.764511e+03 8.830508e+02 -3.280847e+02
-3.960428e+09 -3.760433e+09 -3.920430e+09 2.291481e+03 7.531453e+02 -1.640582e+02
-4.940313e+09 -4.740320e+09 -4.900316e+09 7.498619e+01 -7.451605e-05 6.791051e+01
-4.117644e+09 -3.917651e+09 -4.077647e+09 1.320981e+03 1.117063e+03 -1.084240e+02
-4.991214e+09 -4.791208e+09 -4.951221e+09 -1.393564e+03 -1.135632e+03 -4.127511e+02
-3.971554e+09 -3.771549e+09 -3.931559e+09 -1.445780e+03 -2.467465e+03 -1.588851e+03
-5.003297e+09 -4.803296e+09 -4.963296e+09 3.292631e+02 -1.678814e+01 6.185397e-02
-4.645730e+09 -4.445726e+09 -4.605731e+09 -8.800167e+02 -2.611248e+02 5.276770e+02
-4.805613e+09 -4.605603e+09 -4.765618e+09 -1.701847e+02 -1.910543e+02 -2.825734e+02
-4.130899e+09 -3.930896e+09 -4.090908e+09 -2.532799e+03 -3.746773e+03 -2.233617e+03
-4.991058e+09 -4.791057e+09 -4.951058e+09 -6.487483e+02 8.798203e+00 -2.696122e+01
-3.962643e+09 -3.762642e+09 -3.922642e+09 -5.043349e+02 -1.054315e+02 -1.735137e+01
-4.637583e+09 -4.437579e+09 -4.597592e+09 -1.896943e+03 -1.354682e+03 -8.866797e+02
-4.989318e+09 -4.789313e+09 -4.949315e+09 9.757656e+02 -7.771297e+01 -7.542711e+01
-4.304361e+09 -4.104361e+09 -4.264371e+09 -2.108754e+03 -4.115673e+03 -7.929966e+02
-4.119147e+09 -3.919137e+09 -4.079155e+09 -1.197499e+03 -2.913243e+03 -3.024202e+03
-4.820444e+09 -4.620438e+09 -4.780445e+09 1.397583e+03 9.098065e+01 -2.050405e+02
-4.991257e+09 -4.791256e+09 -4.951257e+09 -7.786266e+02 1.099210e+01 -2.420141e+01
-3.971553e+09 -3.771553e+09 -3.931553e+09 -6.772137e+02 -6.784797e+01 4.086742e+01
-4.654070e+09 -4.454076e+09 -4.614072e+09 1.496509e+03 2.164853e+02 -2.841377e+01
-4.988759e+09 -4.788754e+09 -4.948757e+09 -8.676900e+02 7.345372e+01 1.317146e+02
-4.990127e+09 -4.790124e+09 -4.950136e+09 -1.723099e+03 -1.391332e+03 -4.143484e+02
-4.805655e+09 -4.605655e+09 -4.765655e+09 -8.624239e+02 -1.883125e+01 8.567782e+01
-3.963112e+09 -3.763119e+09 -3.923117e+09 -1.360658e+03 1.564349e+03 3.253736e+02
-4.974047e+09 -4.774047e+09 -4.934047e+09 -8.632215e+02 -2.850527e+00 -3.349486e+01
-5.006032e+09 -4.806031e+09 -4.966031e+09 2.110508e+02 -5.285343e+01 -5.271829e+01
-3.585739e+09 -3.385738e+09 -3.545738e+09 -8.224674e-01 2.128229e+01 -5.200008e+00
-3.962670e+09 -3.762670e+09 -3.922670e+09 3.058678e+02 3.657598e+01 -8.769815e+00
-4.817009e+09 -4.617008e+09 -4.777008e+09 1.529051e+02 2.485850e+01 2.247010e+01
-4.647592e+09 -4.447593e+09 -4.607593e+09 -7.976523e+02 -2.890278e+01 4.778304e+01
-2.219409e+09 -2.019408e+09 -2.179408e+09 -1.440623e+01 -9.838374e+00 -5.004520e+01
-3.960428e+09 -3.760428e+09 -3.920428e+09 -7.435175e+02 -6.884828e+01 -7.775895e+00
-4.119190e+09 -3.919189e+09 -4.079190e+09 -9.019502e+02 -4.240964e+01 -7.603698e+01
-3.956184e+09 -3.756188e+09 -3.916177e+09 1.401672e+03 -2.331617e+02 -2.707562e+03
-4.636211e+09 -4.436207e+09 -4.596204e+09 3.463049e+03 -1.589344e+03 1.495611e+02
-1.879883e+09 -1.679879e+09 -1.839885e+09 -2.245988e+03 2.430964e+02 -7.769240e+02
-4.988758e+09 -4.788753e+09 -4.948757e+09 -5.236669e+02 3.356926e+01 6.695665e+01
-4.458123e+09 -4.258122e+09 -4.418114e+09 2.425198e+03 -9.767057e+02 -1.773810e+03
-4.837196e+09 -4.637199e+09 -4.797186e+09 -1.185806e+03 4.371134e+02 -3.490620e+02
-4.648939e+09 -4.448943e+09 -4.608931e+09 -5.243144e+02 -4.529011e+00 -1.491034e+03
-4.150729e+09 -3.950732e+09 -4.110719e+09 -5.481066e+02 4.834347e+02 -4.876466e+03
-3.959570e+09 -3.759564e+09 -3.919569e+09 -2.285510e+02 9.749224e+01 6.926981e+02
-4.990955e+09 -4.790958e+09 -4.950957e+09 1.147069e+03 -4.371247e+01 -1.287267e+02
-4.818245e+09 -4.618245e+09 -4.778245e+09 1.468922e+03 1.282312e+01 3.922835e+01
-3.960626e+09 -3.760623e+09 -3.920628e+09 -3.230802e+03 1.499026e+03 1.315461e+03
-4.131779e+09 -3.931780e+09 -4.091780e+09 1.499485e+03 -5.393273e+01 -3.583448e+02
-4.646423e+09 -4.446423e+09 -4.606423e+09 1.414652e+03 3.728244e+01 -1.010168e+01
-4.131803e+09 -3.931804e+09 -4.091803e+09 1.684794e+03 -3.462310e+01 -1.621958e+02
-4.646446e+09 -4.446447e+09 -4.606446e+09 1.817155e+03 -3.382959e+01 -1.638041e+01
-4.135856e+09 -3.935855e+09 -4.095855e+09 5.179048e+02 4.805086e+00 -8.247263e+01
-4.308011e+09 -4.108009e+09 -4.268010e+09 4.501848e+02 -1.393981e+01 -1.135249e+02
-4.822322e+09 -4.622320e+09 -4.782321e+09 5.213015e+02 5.411352e+01 2.454523e+01
-4.648792e+09 -4.448789e+09 -4.608790e+09 2.290702e+02 1.082139e+02 5.777361e+01
-4.651244e+09 -4.451242e+09 -4.611242e+09 4.489178e+02 1.000568e+02 6.597379e+01
-4.638528e+09 -4.438528e+09 -4.598528e+09 3.607369e+02 2.078924e+01 -6.291209e+00
-4.810465e+09 -4.610464e+09 -4.770464e+09 1.740391e+02 -1.586202e+01 -3.999636e+01
-4.125968e+09 -3.925967e+09 -4.085967e+09 2.849398e+02 2.495202e+01 3.202343e+00
-3.960480e+09 -3.760479e+09 -3.920479e+09 1.773818e+02 1.450536e+01 -2.358260e+01
-4.993852e+09 -4.793851e+09 -4.953851e+09 2.868902e+02 1.531930e-01 -2.101441e+00
-4.821878e+09 -4.621877e+09 -4.781877e+09 3.991349e+02 2.867791e+01 2.844016e+01
-3.960372e+09 -3.760372e+09 -3.920372e+09 2.795549e+02 2.528640e+01 -4.280776e+01
-4.616454e+09 -4.416453e+09 -4.576452e+09 -1.215846e+02 -8.241846e+00 -3.837110e+01
-4.289356e+09 -4.089352e+09 -4.249353e+09 1.922548e+03 -3.607138e+02 -3.284147e+02
-4.470817e+09 -4.270812e+09 -4.430815e+09 -1.217480e+02 8.146332e+01 1.987422e+02
-4.121306e+09 -3.921299e+09 -4.081303e+09 1.294487e+03 -6.797504e+02 -2.600784e+01
-1.590645e+09 -1.390643e+09 -1.550644e+09 -1.856109e+02 -4.840325e+01 -1.074395e+02
-3.961538e+09 -3.761535e+09 -3.921537e+09 -1.588420e+02 -3.872602e+02 2.961601e+02
-4.127213e+09 -3.927208e+09 -4.087210e+09 1.169915e+03 -3.694046e+02 -2.234275e+02
-4.989268e+09 -4.789262e+09 -4.949267e+09 5.324771e+01 -4.772403e+01 -1.125413e+01
-4.116945e+09 -3.916940e+09 -4.076942e+09 1.816509e+03 -5.247569e+02 -6.013454e+02
-4.803410e+09 -4.603406e+09 -4.763407e+09 1.956255e+03 -3.827961e+01 2.215532e+02
-2.617067e+09 -2.417060e+09 -2.577066e+09 1.173216e+02 5.601145e+02 -1.471809e+03
-1.567652e+09 -1.367654e+09 -1.527650e+09 2.484860e+02 6.277985e+01 2.397398e+01
-5.015283e+09 -4.815286e+09 -4.975276e+09 -2.252184e+03 -7.826351e+01 -9.891952e+02
-4.813679e+09 -4.613674e+09 -4.773676e+09 1.139165e+03 3.904711e+01 1.576381e+02
-4.990815e+09 -4.790810e+09 -4.950823e+09 -1.975165e+03 -1.260661e+03 5.846292e+02
-4.647149e+09 -4.447141e+09 -4.607161e+09 -2.073145e+03 -7.467981e+02 7.601939e+02
-4.818299e+09 -4.618293e+09 -4.778311e+09 -1.938172e+03 -9.751046e+02 -2.786113e+01
-4.310430e+09 -4.110422e+09 -4.270440e+09 -3.063616e+03 -2.036261e+03 1.405971e+03
-3.963125e+09 -3.763116e+09 -3.923133e+09 -2.123726e+03 -2.292714e+03 1.060973e+03
-3.958776e+09 -3.758782e+09 -3.918784e+09 2.603734e+03 2.147276e+03 -4.452752e+02
-4.302188e+09 -4.102184e+09 -4.262202e+09 -1.354197e+03 -4.581124e+03 1.761582e+03
-4.991922e+09 -4.791926e+09 -4.951937e+09 1.882960e+03 1.579522e+03 -3.014926e+02
-4.993770e+09 -4.793770e+09 -4.953768e+09 7.992309e+02 -9.749293e+00 -4.315542e+00
-3.534204e+09 -3.334205e+09 -3.494203e+09 1.181192e+03 1.731496e+02 4.817938e+00
-4.654325e+09 -4.454327e+09 -4.614344e+09 1.079483e+03 2.198970e+03 -1.893186e+02
-4.141018e+09 -3.941023e+09 -4.101035e+09 3.880884e+02 6.907390e+03 5.506355e+02
-3.303655e+09 -3.103654e+09 -3.263654e+09 6.925548e+01 -3.020597e+01 -6.089696e+01
-4.476400e+09 -4.276393e+09 -4.436402e+09 9.625441e+02 8.867022e+02 -3.655610e+02
-3.963457e+09 -3.763451e+09 -3.923454e+09 1.625615e+03 -4.975167e+02 3.247425e+02
-3.611512e+09 -3.411510e+09 -3.571510e+09 3.904785e+02 2.907824e+02 -4.451160e+01
-4.990816e+09 -4.790814e+09 -4.950835e+09 1.824743e+03 2.171623e+03 -4.614795e+02
-4.645949e+09 -4.445949e+09 -4.605933e+09 5.293092e+03 2.595378e+03 2.017062e+03
-4.302653e+09 -4.102654e+09 -4.262669e+09 2.090053e+03 5.738018e+03 -1.419791e+03
-4.659854e+09 -4.459859e+09 -4.619869e+09 4.578861e+02 1.960506e+03 -1.587886e+02
-3.961457e+09 -3.761460e+09 -3.921461e+09 1.593444e+03 -1.716335e+03 8.423071e+02
-4.991315e+09 -4.791313e+09 -4.951316e+09 -1.934714e+03 -5.090816e+01 6.897613e+01
-4.650148e+09 -4.450153e+09 -4.610162e+09 9.203437e+02 1.630538e+03 -5.340042e+01
-4.808206e+09 -4.608205e+09 -4.768205e+09 1.243327e+02 1.080899e+01 -2.335221e+01
-4.828840e+09 -4.628838e+09 -4.788839e+09 4.777341e+02 5.148755e+01 2.244745e+01
-4.645946e+09 -4.445948e+09 -4.605947e+09 -8.789334e+02 1.854128e+01 2.173025e+01
-3.230721e+09 -3.030720e+09 -3.190720e+09 1.547327e+02 1.252231e+01 -2.846068e+01
-4.990852e+09 -4.790855e+09 -4.950854e+09 -7.519266e+02 -1.082604e+01 -2.412359e+01
-4.339857e+09 -4.139856e+09 -4.299856e+09 4.691486e+00 2.875353e-01 -4.132581e+00
-4.990050e+09 -4.790054e+09 -4.950050e+09 1.706749e+03 3.669873e+01 -4.586700e+00
-1.769039e+09 -1.569042e+09 -1.729038e+09 1.091616e+02 1.961300e+01 1.335762e+01
-4.134208e+09 -3.934209e+09 -4.094209e+09 -1.216461e+03 2.308487e+01 -1.216019e+02
-4.644530e+09 -4.444532e+09 -4.604531e+09 -8.419521e+02 3.662587e+00 4.449809e+01
-4.131018e+09 -3.931020e+09 -4.091019e+09 -8.611603e+02 -1.229411e+00 -8.901245e+01
-4.818312e+09 -4.618314e+09 -4.778314e+09 -1.042562e+03 2.438669e+01 -1.103070e+02
-4.991934e+09 -4.791936e+09 -4.951935e+09 -1.083477e+03 -1.067398e+01 -6.772375e+01
-4.115849e+09 -3.915847e+09 -4.075847e+09 2.352858e+03 -5.741464e+02 -8.500208e+02
-4.125991e+09 -3.925990e+09 -4.085990e+09 2.092048e+03 -2.649592e+01 -2.422160e+02
-3.959077e+09 -3.759080e+09 -3.919079e+09 -5.898102e+02 2.122298e+01 -1.306016e+02
-4.992020e+09 -4.792018e+09 -4.952019e+09 -9.664041e+02 2.476007e+00 1.509825e+00
-4.119952e+09 -3.919951e+09 -4.079952e+09 -1.031989e+03 -4.958311e+01 -8.993169e+01
-3.962912e+09 -3.762910e+09 -3.922911e+09 6.740598e+02 8.592275e+01 2.725392e+00
-3.962611e+09 -3.762611e+09 -3.922610e+09 -3.872386e+01 -8.094361e+00 -3.955961e+01
-4.283558e+09 -4.083558e+09 -4.243558e+09 -1.037627e+03 -3.301732e+01 3.030799e+01
-4.993155e+09 -4.793149e+09 -4.953151e+09 1.667195e+03 1.277917e+01 -1.726130e+02
-4.289506e+09 -4.089505e+09 -4.249505e+09 -7.971740e+02 -1.459135e+01 -8.390909e+00
-4.655617e+09 -4.455616e+09 -4.615616e+09 -7.401651e+02 -4.166188e+01 -1.211665e+01
-4.131054e+09 -3.931052e+09 -4.091053e+09 -7.600975e+02 -4.351000e+01 -7.250576e+01
-4.279232e+09 -4.079232e+09 -4.239232e+09 -9.535282e+02 -7.125531e+01 1.425429e+02
-4.805456e+09 -4.605456e+09 -4.765456e+09 -8.359298e+02 -2.151422e+01 -8.020226e+01
-4.626791e+09 -4.426790e+09 -4.586791e+09 -1.039462e+03 -4.398988e+01 -4.892070e+01
-4.317203e+09 -4.117211e+09 -4.277210e+09 -9.917184e+02 2.051470e+03 2.136257e+02
-4.978373e+09 -4.778380e+09 -4.938377e+09 1.147844e+03 1.440629e+02 7.957929e+01
-4.642315e+09 -4.442322e+09 -4.602319e+09 1.363651e+03 4.917037e+02 -6.120516e+01
-3.961503e+09 -3.761506e+09 -3.921503e+09 -1.395011e+03 1.686101e+02 -8.617209e+01
-4.991921e+09 -4.791923e+09 -4.951937e+09 1.364607e+03 1.734649e+03 -3.172155e+02
-4.131053e+09 -3.931060e+09 -4.091055e+09 7.203132e+02 7.186952e+02 -4.699107e+01
-3.960758e+09 -3.760758e+09 -3.920758e+09 6.369175e+02 6.417595e+01 5.278569e+00
-4.631192e+09 -4.431198e+09 -4.591194e+09 1.270381e+03 2.515765e+02 -1.786996e+02
-3.452073e+09 -3.252074e+09 -3.412074e+09 -4.187232e+02 -1.730599e+01 7.739020e+00
-4.299082e+09 -4.099090e+09 -4.259086e+09 1.349901e+03 8.599905e+02 -9.918616e+01
-4.473346e+09 -4.273353e+09 -4.433351e+09 8.305745e+02 7.320767e+02 -6.246059e+01
-4.818480e+09 -4.618487e+09 -4.778483e+09 1.967400e+02 5.028062e+02 -1.050964e+01
-4.992019e+09 -4.792026e+09 -4.952022e+09 2.696547e+02 1.561894e+02 6.680127e+01
-4.463185e+09 -4.263194e+09 -4.423190e+09 3.772503e+02 7.424733e+02 -5.050246e+01
-3.959077e+09 -3.759081e+09 -3.919079e+09 -2.466906e+02 8.305831e+01 -1.921690e+02
-4.126106e+09 -3.926104e+09 -4.086104e+09 1.897595e+03 -2.861899e+02 -4.257068e+02
-4.131054e+09 -3.931046e+09 -4.091057e+09 1.695756e+03 -1.381848e+03 -1.617681e+03
-4.820739e+09 -4.620740e+09 -4.780732e+09 2.709238e+03 -1.353810e+02 -1.147986e+03
-4.120782e+09 -3.920778e+09 -4.080779e+09 2.575558e+03 -1.068654e+03 -2.973039e+02
-4.992825e+09 -4.792813e+09 -4.952834e+09 -2.817359e+03 -3.076216e+03 -4.765480e+02
-4.133502e+09 -3.933498e+09 -4.093504e+09 -1.226644e+03 -1.018540e+03 -5.060885e+02
-4.289224e+09 -4.089216e+09 -4.249233e+09 -1.168322e+03 -3.896183e+03 -9.695329e+02
-4.818480e+09 -4.618472e+09 -4.778479e+09 3.609966e+03 -2.696728e+02 8.652928e+02
-4.546931e+09 -4.346928e+09 -4.506930e+09 5.169668e+02 1.677758e+02 -5.889309e+01
-3.961526e+09 -3.761524e+09 -3.921530e+09 3.675184e+03 2.233856e+03 -1.357146e+03
-4.940412e+09 -4.740409e+09 -4.900414e+09 -1.335105e+02 -1.807883e+02 -2.443798e-05
-1.792976e+09 -1.592983e+09 -1.752983e+09 -4.903133e+02 -4.302971e+01 7.142366e+02
-4.992020e+09 -4.792011e+09 -4.952014e+09 3.630671e+03 -3.570474e+02 -9.103746e+01
-4.119954e+09 -3.919943e+09 -4.079954e+09 2.644915e+03 1.143465e+02 -7.859286e+02
-4.951559e+09 -4.751561e+09 -4.911558e+09 1.345061e+02 -8.011845e+00 -2.811788e+00
-4.805458e+09 -4.605449e+09 -4.765462e+09 1.028668e+03 -9.985370e+02 -5.414348e+02
-4.626640e+09 -4.426630e+09 -4.586646e+09 -1.996647e+02 -1.826835e+02 -1.102999e+03
-4.456166e+09 -4.256155e+09 -4.416165e+09 3.480180e+02 9.470925e+02 -1.310076e+03
-4.640749e+09 -4.440750e+09 -4.600748e+09 2.401705e+02 6.048239e+01 -7.007193e+01
-4.799401e+09 -4.599390e+09 -4.759406e+09 5.928114e+02 -1.691993e+03 -1.732238e+03
-4.818359e+09 -4.618352e+09 -4.778359e+09 -3.263869e+03 -3.807956e+02 2.093056e+02
-4.991178e+09 -4.791170e+09 -4.951177e+09 -4.089493e+03 4.593899e+02 -6.879983e+02
-3.961456e+09 -3.761452e+09 -3.921455e+09 -3.279226e+03 -1.055705e+03 -2.892122e+02
-4.772301e+09 -4.572302e+09 -4.732300e+09 3.112716e+02 3.001598e+01 9.750795e+01
-4.984287e+09 -4.784289e+09 -4.944286e+09 3.324740e+02 2.587488e+01 2.802789e+01
-1.888260e+09 -1.688265e+09 -1.848260e+09 8.144738e+02 -4.821130e+00 7.840513e+01
-4.475105e+09 -4.275102e+09 -4.435105e+09 -4.540846e+03 -9.114477e+02 1.764113e+02
-2.881248e+09 -2.681253e+09 -2.841248e+09 3.714199e+01 9.448304e+00 1.934559e+00
-4.991235e+09 -4.791235e+09 -4.951222e+09 -5.192116e+03 -6.405391e+02 6.810831e+02
-4.818462e+09 -4.618464e+09 -4.778450e+09 -5.360706e+03 5.161523e+02 4.755555e+02
-4.822453e+09 -4.622453e+09 -4.782452e+09 1.976058e+02 -1.628743e+02 -1.878926e+01
-4.131899e+09 -3.931893e+09 -4.091895e+09 -5.079488e+03 -2.363044e+03 7.823666e+02
-4.302396e+09 -4.102391e+09 -4.262393e+09 -5.428554e+03 -2.425955e+03 5.773552e+02
-4.991721e+09 -4.791720e+09 -4.951720e+09 3.100842e+02 -1.195602e+01 -4.252300e+00
-4.642098e+09 -4.442100e+09 -4.602092e+09 -4.963568e+03 -1.405627e+03 1.190008e+03
-4.131897e+09 -3.931899e+09 -4.091897e+09 -1.322934e+03 2.392994e+02 7.655118e+01
-4.131961e+09 -3.931963e+09 -4.091961e+09 -1.426707e+03 -3.900443e+01 -1.050961e+02
-3.486946e+09 -3.286945e+09 -3.446945e+09 6.119577e+01 7.421201e+00 -5.947657e+00
-1.580828e+09 -1.380827e+09 -1.540827e+09 8.543505e+01 2.320286e+01 -3.403037e+01
-2.940304e+09 -2.740303e+09 -2.900303e+09 2.568017e+01 6.299242e+00 -1.287836e+01
-4.763195e+09 -4.563194e+09 -4.723194e+09 1.068929e+01 3.707470e-01 -7.911822e-01
-4.818355e+09 -4.618356e+09 -4.778355e+09 -1.117174e+03 1.479725e+02 8.284557e+01
-3.955639e+09 -3.755638e+09 -3.915638e+09 1.156861e+02 1.783958e+01 -1.846630e+01
-3.411023e+09 -3.211022e+09 -3.371022e+09 8.003071e+01 1.048678e+01 -1.155670e+01
-4.100962e+09 -3.900961e+09 -4.060961e+09 7.580639e+01 8.876167e+00 -2.549553e+01
-4.991176e+09 -4.791177e+09 -4.951175e+09 -1.306260e+03 -7.054894e+01 1.962285e+01
-2.957035e+09 -2.757034e+09 -2.917034e+09 1.321172e+02 1.986511e+01 -1.322264e+01
-4.815405e+09 -4.615404e+09 -4.775405e+09 1.858402e+02 1.401880e+01 2.060071e+01
-2.161330e+09 -1.961329e+09 -2.121329e+09 1.189076e+02 1.622120e+01 -8.732288e+00
-4.133311e+09 -3.933314e+09 -4.093311e+09 -1.195487e+03 -7.317005e+01 -1.254083e+02
-2.000798e+09 -1.800797e+09 -1.960798e+09 5.554299e+01 1.780080e+01 -8.427387e+00
-4.076688e+09 -3.876691e+09 -4.036688e+09 -7.441559e+02 -1.316224e+01 -3.530309e+01
-4.819731e+09 -4.619733e+09 -4.779731e+09 -1.002335e+03 1.558837e+02 5.598193e+01
-3.122880e+09 -2.922878e+09 -3.082879e+09 -1.774582e+01 -4.677497e+00 2.202547e+00
-2.254868e+09 -2.054868e+09 -2.214867e+09 2.891027e+02 -4.138492e+02 -4.298771e+01
-4.991162e+09 -4.791164e+09 -4.951162e+09 -1.160852e+03 -5.012132e+01 3.693629e+01
-4.303678e+09 -4.103680e+09 -4.263678e+09 -1.109223e+03 -2.097589e+01 -4.140947e+00
-4.458194e+09 -4.258196e+09 -4.418194e+09 -8.219614e+02 5.576724e+00 -4.515309e+01
-4.546993e+09 -4.346995e+09 -4.506994e+09 1.163322e+00 -2.669680e+01 2.107906e+00
-4.818360e+09 -4.618359e+09 -4.778363e+09 1.082486e+03 -3.293422e+02 -1.478081e+01
-4.662259e+09 -4.462259e+09 -4.622261e+09 1.323009e+03 -4.891113e+02 2.719599e+02
-4.991241e+09 -4.791240e+09 -4.951242e+09 4.690651e+02 -4.401815e+01 5.489883e+01
-4.818467e+09 -4.618466e+09 -4.778468e+09 3.275727e+02 -3.132037e+02 3.262492e+02
-4.131902e+09 -3.931901e+09 -4.091903e+09 9.311150e+02 -8.519648e+02 5.329994e+02
-4.131962e+09 -3.931961e+09 -4.091963e+09 7.628190e+02 -9.116886e+02 8.147871e+02
-3.881534e+09 -3.681536e+09 -3.841535e+09 1.178577e+03 -7.178439e+02 3.296871e+02
-1.572382e+09 -1.372384e+09 -1.532383e+09 -2.057139e+02 -3.456870e+01 3.464107e+01
-4.133313e+09 -3.933312e+09 -4.093313e+09 7.932490e+02 -5.962621e+02 4.921888e+02
-3.135384e+09 -2.935383e+09 -3.095383e+09 -2.697095e+02 -1.776658e+01 -3.283304e+01
-2.870795e+09 -2.670794e+09 -2.830794e+09 -3.089949e+02 -3.456790e+01 -1.454587e+01
-4.818453e+09 -4.618459e+09 -4.778455e+09 -7.225709e+02 1.333781e+02 4.613649e+01
-4.150648e+09 -3.950650e+09 -4.110650e+09 8.284379e+00 -1.686391e+01 1.289002e+01
-2.690433e+09 -2.490432e+09 -2.650432e+09 -1.906766e+02 -1.474689e+01 -4.302321e+01
-4.997103e+09 -4.797102e+09 -4.957102e+09 -1.362122e+02 1.256240e+01 5.578340e+00
-1.575080e+09 -1.375079e+09 -1.535079e+09 -1.603443e+01 1.604796e-01 -2.040461e+01
-4.133441e+09 -3.933443e+09 -4.093443e+09 2.563004e+02 2.020479e+01 -3.588009e+01
-3.962351e+09 -3.762351e+09 -3.922351e+09 -4.180759e+02 -3.982847e+01 -1.212065e+00
-3.242394e+09 -3.042393e+09 -3.202394e+09 -2.726369e+02 -3.924909e+01 -1.156826e+01
-3.961552e+09 -3.761558e+09 -3.921553e+09 -8.833028e+02 2.873321e+02 -8.550882e+00
-3.487662e+09 -3.287665e+09 -3.447661e+09 7.996892e+02 -5.098945e+01 -3.322528e+01
-4.645644e+09 -4.445646e+09 -4.605646e+09 2.250009e+02 1.648679e+01 2.975388e+01
-4.132061e+09 -3.932065e+09 -4.092063e+09 2.791554e+03 1.029321e+03 -4.009735e+02
-3.169468e+09 -2.969470e+09 -3.129467e+09 3.076145e+02 2.190793e+01 -3.074567e+00
-3.584728e+09 -3.384732e+09 -3.544728e+09 7.325828e+01 1.783221e+01 4.781122e+01
-4.304870e+09 -4.104872e+09 -4.264871e+09 6.669179e+01 -7.446989e+00 -1.960456e+01
-3.111691e+09 -2.911692e+09 -3.071690e+09 1.291592e+03 2.807347e+02 -1.388236e+02
-4.131928e+09 -3.931930e+09 -4.091930e+09 1.368815e+02 3.345316e+00 1.865289e+01
-4.818466e+09 -4.618468e+09 -4.778468e+09 3.506911e+02 -1.099585e-01 -3.988131e+01
-4.991224e+09 -4.791225e+09 -4.951225e+09 3.274476e+02 -1.810026e+01 -4.892791e+01
-3.464878e+09 -3.264880e+09 -3.424877e+09 1.248243e+03 1.101814e+02 -8.575067e+00
-3.961998e+09 -3.761999e+09 -3.922001e+09 3.440964e+03 1.382793e+03 -5.353428e+02
-3.966054e+09 -3.766054e+09 -3.926052e+09 2.473560e+02 1.703825e+02 -9.283757e+00
-2.583225e+09 -2.383220e+09 -2.543224e+09 2.131528e+03 1.321265e+03 -1.323049e+03
-1.989020e+09 -1.789023e+09 -1.949019e+09 1.126557e+03 1.474141e+02 4.204812e+01
-3.919685e+09 -3.719687e+09 -3.879684e+09 1.170062e+02 1.397757e+01 -2.201530e+01
-1.688744e+09 -1.488747e+09 -1.648743e+09 8.781248e+02 1.127759e+02 5.754990e+01
-2.357702e+09 -2.157705e+09 -2.317701e+09 1.046198e+03 7.773437e+01 3.761097e+01
-4.472667e+09 -4.272669e+09 -4.432669e+09 -1.724674e+03 3.342095e+00 -5.152550e+01
-3.963014e+09 -3.763016e+09 -3.923015e+09 -1.332645e+03 2.820589e+00 1.093644e+02
-1.637342e+09 -1.437345e+09 -1.597341e+09 8.072227e+01 2.445580e+01 6.513302e+01
-3.232902e+09 -3.032905e+09 -3.192901e+09 1.049856e+03 1.938546e+02 -7.046983e+01
-3.726931e+09 -3.526934e+09 -3.686930e+09 4.077919e+02 2.977263e+01 3.143619e+01
-2.740034e+09 -2.540035e+09 -2.700032e+09 1.305627e+03 2.012825e+01 -9.516078e+01
-1.551648e+09 -1.351645e+09 -1.511648e+09 3.008471e+02 8.898493e+02 -5.275045e+02
-4.650216e+09 -4.450218e+09 -4.610218e+09 -1.295185e+03 -3.555596e+01 2.243234e+01
-4.814214e+09 -4.614219e+09 -4.774216e+09 -3.447212e+03 -6.860966e+02 1.040764e+03
-3.374683e+09 -3.174693e+09 -3.334685e+09 -4.158648e+03 -2.110642e+03 4.183537e+03
-4.646128e+09 -4.446129e+09 -4.606090e+09 -1.978774e+03 -1.736011e+03 3.059669e+03
-4.823970e+09 -4.623971e+09 -4.783971e+09 -1.577275e+03 -3.939216e+01 1.243633e+02
-4.822256e+09 -4.622257e+09 -4.782257e+09 -1.395451e+03 2.015133e+01 -1.629178e+02
-2.062574e+09 -1.862586e+09 -2.022582e+09 -3.120677e+02 2.589590e+02 5.425332e+03
-1.589792e+09 -1.389793e+09 -1.549795e+09 1.201985e+03 -4.720212e+02 -2.495991e+02
-3.318852e+09 -3.118858e+09 -3.278857e+09 -1.568677e+03 -3.126917e+02 4.583754e+02
-3.964729e+09 -3.764730e+09 -3.924730e+09 -1.669856e+03 1.786654e+01 2.393567e+01
-4.818565e+09 -4.618563e+09 -4.778542e+09 -5.428356e+03 -4.393975e+03 3.332990e+03
-3.563170e+09 -3.363179e+09 -3.523177e+09 -1.348020e+00 -5.533304e+01 3.069694e+02
-3.576145e+09 -3.376144e+09 -3.536143e+09 2.762503e+02 1.813601e+02 -1.157082e+01
-4.433366e+09 -4.233370e+09 -4.393369e+09 -3.340495e+03 -4.948734e+02 1.027759e+03
-4.480737e+09 -4.280738e+09 -4.440738e+09 -1.667746e+03 -9.641771e+00 -6.494727e+01
-1.811150e+09 -1.611146e+09 -1.771149e+09 3.826607e+02 6.700872e+02 -1.541620e+02
-1.572481e+09 -1.372483e+09 -1.532486e+09 2.147195e+03 -4.759567e+01 4.304242e+00
-2.913439e+09 -2.713434e+09 -2.873438e+09 -2.751629e+02 4.960093e+02 -2.998623e+02
-3.119761e+09 -2.919760e+09 -3.079762e+09 -5.604935e+02 1.322448e+02 -1.626597e+02
-3.840730e+09 -3.640737e+09 -3.800736e+09 1.135899e+02 1.980951e+02 2.976013e+02
-3.228112e+09 -3.028108e+09 -3.188111e+09 3.273893e+02 2.731035e+02 5.401528e+02
-2.996969e+09 -2.796964e+09 -2.956971e+09 -2.609338e+01 -1.850240e+03 -1.480142e+03
-1.535082e+09 -1.335090e+09 -1.495091e+09 8.927578e+02 2.732388e+01 1.222825e+03
-2.060532e+09 -1.860530e+09 -2.020533e+09 -3.622525e+02 7.470131e+02 -1.180791e+02
-2.859782e+09 -2.659777e+09 -2.819780e+09 1.073902e+02 7.780061e+02 -1.927803e+02
-2.992535e+09 -2.792535e+09 -2.952537e+09 -6.273115e+02 1.471754e+02 3.712959e+02
-2.138008e+09 -1.938006e+09 -2.098009e+09 5.782491e+01 5.317971e+02 1.080630e+02
-3.952681e+09 -3.752680e+09 -3.912670e+09 2.361324e+03 -2.170721e+03 -2.314387e+03
-4.315145e+09 -4.115150e+09 -4.275157e+09 -1.149894e+03 3.892107e+03 1.200628e+02
-3.960128e+09 -3.760135e+09 -3.920138e+09 1.361800e+03 3.563343e+03 -3.897720e+02
-3.112238e+09 -2.912248e+09 -3.072245e+09 -9.704463e+02 -1.567558e+02 1.327000e+03
-4.817364e+09 -4.617360e+09 -4.777373e+09 -1.668069e+03 -9.811615e+02 -1.197690e+02
-4.131310e+09 -3.931315e+09 -4.091323e+09 1.869767e+03 4.022013e+03 -9.881284e+02
-4.830079e+09 -4.630085e+09 -4.790091e+09 -4.357272e+02 1.614800e+03 6.762597e+02
-4.822199e+09 -4.622205e+09 -4.782211e+09 4.856782e+02 8.631185e+02 -1.026832e+03
-1.553411e+09 -1.353414e+09 -1.513416e+09 -1.528052e+03 7.088389e+00 4.580867e+02
-3.948370e+09 -3.748367e+09 -3.908367e+09 1.934123e+03 -3.978126e+02 -2.464735e+02
-3.968009e+09 -3.768017e+09 -3.928018e+09 -1.194747e+03 3.405023e+03 4.411666e+02
-4.658378e+09 -4.458383e+09 -4.618390e+09 -1.124987e+03 1.733713e+03 -8.438895e+01
-4.801354e+09 -4.601354e+09 -4.761344e+09 2.611533e+03 -9.632093e+02 -6.208907e+02
-4.804290e+09 -4.604292e+09 -4.764276e+09 1.106134e+03 -1.755898e+02 -2.423372e+03
-4.160543e+09 -3.960545e+09 -4.120534e+09 -2.792716e+03 1.644945e+03 -1.817627e+03
-4.135960e+09 -3.935964e+09 -4.095954e+09 1.292769e+03 -5.199862e+02 -2.167594e+03
-4.841707e+09 -4.641708e+09 -4.801702e+09 -3.459091e+03 1.130472e+03 -1.973544e+02
-3.166874e+09 -2.966887e+09 -3.126876e+09 -7.526449e+02 -4.137403e+02 5.933567e+03
-5.015284e+09 -4.815287e+09 -4.975277e+09 -1.703740e+03 -2.363816e+02 -7.918650e+02
-3.804124e+09 -3.604120e+09 -3.764124e+09 1.617304e+01 -6.854135e+02 -8.295770e+02
-4.155240e+09 -3.955241e+09 -4.115236e+09 -2.875191e+03 2.442198e+02 -2.252434e+03
-4.940328e+09 -4.740324e+09 -4.900328e+09 -2.888688e+02 -1.870339e+02 9.647909e-07
-4.647482e+09 -4.447481e+09 -4.607481e+09 1.497586e+03 1.633535e+01 4.273687e+01
-3.955303e+09 -3.755295e+09 -3.915313e+09 -1.952238e+03 -3.612189e+03 -1.410775e+03
-1.703409e+09 -1.503418e+09 -1.663418e+09 -8.584677e+02 -2.586690e+02 1.625051e+03
-4.304249e+09 -4.104248e+09 -4.264248e+09 1.497756e+03 -3.927100e+01 -1.923144e+02
-4.642510e+09 -4.442509e+09 -4.602509e+09 1.670313e+03 4.900218e+01 6.970393e+01
-3.402920e+09 -3.202919e+09 -3.362922e+09 7.573027e+02 -5.091757e+02 -7.672533e+02
-4.131808e+09 -3.931808e+09 -4.091808e+09 1.780969e+03 -1.366887e+02 -5.855209e+02
-4.821383e+09 -4.621382e+09 -4.781382e+09 1.447813e+03 1.042863e+01 5.946754e+01
-4.816387e+09 -4.616386e+09 -4.776386e+09 1.803530e+03 -1.998869e+00 -8.416665e+01
-3.254985e+09 -3.054996e+09 -3.214992e+09 -3.031484e+02 1.747711e+02 1.788721e+03
-3.411838e+09 -3.211838e+09 -3.371842e+09 2.244160e+03 2.063013e+01 -2.123297e+02
-4.638578e+09 -4.438577e+09 -4.598577e+09 2.256953e+03 -6.780276e+01 -1.040256e+02
-4.134084e+09 -3.934082e+09 -4.094096e+09 -2.382200e+03 4.313003e+03 1.459403e+03
-4.818268e+09 -4.618269e+09 -4.778268e+09 1.646762e+03 -9.634792e+01 -3.540086e+02
-4.988220e+09 -4.788221e+09 -4.948219e+09 1.871028e+03 -8.858814e+01 -2.120891e+02
-1.551647e+09 -1.351644e+09 -1.511648e+09 -1.233003e+03 4.343444e+02 -1.096150e+03
-4.134517e+09 -3.934519e+09 -4.094516e+09 2.114095e+03 -7.401233e+02 -1.494933e+03
-4.473922e+09 -4.273924e+09 -4.433922e+09 1.709684e+03 -1.022759e+02 -5.386475e+02
-4.471110e+09 -4.271111e+09 -4.431109e+09 1.955762e+03 -1.592344e+02 -4.905706e+02
-4.645328e+09 -4.445330e+09 -4.605329e+09 1.550584e+03 1.488958e+01 -1.360097e+02
-4.472660e+09 -4.272670e+09 -4.432666e+09 -1.284325e+03 -6.960457e+01 2.506630e+02
-4.991033e+09 -4.791035e+09 -4.951034e+09 1.270759e+03 -7.088785e+01 -2.409882e+02
-4.648867e+09 -4.448869e+09 -4.608868e+09 2.213708e+03 1.576661e+02 8.030622e+00
-3.006982e+09 -2.806984e+09 -2.966981e+09 1.262677e+03 2.377498e+02 -1.627524e+01
-2.902876e+09 -2.702870e+09 -2.862875e+09 1.972312e+03 1.959911e+03 -1.777579e+03
-4.818251e+09 -4.618250e+09 -4.778250e+09 1.459073e+03 -4.092481e+01 -1.837827e+02
-4.646189e+09 -4.446191e+09 -4.606189e+09 1.386155e+03 4.228282e+01 -1.610030e+02
-2.112715e+09 -1.912715e+09 -2.072713e+09 2.683493e+02 1.934737e+02 -2.072549e+01
-4.818406e+09 -4.618406e+09 -4.778406e+09 1.225313e+03 3.477058e+00 -7.827422e+01
-4.992020e+09 -4.792018e+09 -4.952019e+09 -1.011834e+03 4.191246e+00 2.245417e+01
-3.484233e+09 -3.284239e+09 -3.444234e+09 1.446918e+02 1.365612e+01 -8.276398e+00
-3.960376e+09 -3.760374e+09 -3.920375e+09 1.280886e+03 -1.000544e+02 -2.819576e+02
-4.647593e+09 -4.447593e+09 -4.607602e+09 -2.086232e+03 -1.564238e+03 -3.516675e+02
-4.646841e+09 -4.446840e+09 -4.606840e+09 1.209509e+03 -5.537995e+01 1.913435e+01
-4.992146e+09 -4.792147e+09 -4.952146e+09 1.333440e+03 -7.193664e+01 -1.796526e+02
-3.949744e+09 -3.749742e+09 -3.909736e+09 3.530443e+03 -2.169501e+03 -1.693286e+03
-3.962608e+09 -3.762608e+09 -3.922609e+09 1.285220e+03 2.700054e+01 -1.013175e+01
-4.621863e+09 -4.421856e+09 -4.581838e+09 -5.194008e+03 2.769142e+03 -3.862978e+03
-4.473324e+09 -4.273315e+09 -4.433317e+09 -4.718949e+03 1.224047e+03 -1.433054e+03
-4.306741e+09 -4.106738e+09 -4.266740e+09 9.699365e+02 5.802536e+01 3.343949e+01
-3.961996e+09 -3.761995e+09 -3.921996e+09 -1.495692e+03 -2.170337e+02 2.616744e+02
-4.115220e+09 -3.915216e+09 -4.075196e+09 -3.570185e+03 4.152922e+03 -5.642375e+03
-4.116282e+09 -3.916278e+09 -4.076271e+09 3.261375e+03 -2.302334e+03 -1.455024e+03
-3.953960e+09 -3.753955e+09 -3.913945e+09 -6.721667e+03 5.355832e+03 -5.159655e+03
-3.954453e+09 -3.754438e+09 -3.914423e+09 -7.323405e+03 9.396690e+03 -7.171324e+03
-4.471773e+09 -4.271762e+09 -4.431788e+09 -2.922594e+03 3.621497e+03 3.359128e+03
-4.816556e+09 -4.616548e+09 -4.776551e+09 -4.971595e+03 9.418358e+02 -8.076498e+02
-4.464672e+09 -4.264670e+09 -4.424669e+09 2.714592e+03 -5.420021e+02 -1.005285e+03
-4.124982e+09 -3.924976e+09 -4.084979e+09 -5.276232e+03 3.851491e+02 -1.216063e+03
-4.632589e+09 -4.432584e+09 -4.592585e+09 1.913739e+03 -8.476055e+01 3.042207e+01
-4.301106e+09 -4.101100e+09 -4.261100e+09 -4.936124e+03 1.160224e+03 -4.881139e+02
-3.961545e+09 -3.761552e+09 -3.921541e+09 6.543189e+03 3.482716e+03 5.654172e+03
-3.962576e+09 -3.762578e+09 -3.922587e+09 -3.872041e+03 3.928696e+03 2.559562e+03
-4.141367e+09 -3.941373e+09 -4.101382e+09 -9.122698e+02 5.050361e+03 7.361744e+01
-4.316972e+09 -4.116976e+09 -4.276985e+09 -7.437012e+02 3.834237e+03 1.447968e+02
-4.282160e+09 -4.082162e+09 -4.242169e+09 -3.171324e+03 2.950415e+03 1.416834e+03
-4.477236e+09 -4.277240e+09 -4.437237e+09 -9.175055e+02 5.436207e+01 4.309429e+01
-2.967966e+09 -2.767969e+09 -2.927966e+09 1.683552e+03 6.363914e+02 -1.293133e+01
-4.818394e+09 -4.618396e+09 -4.778395e+09 1.449757e+02 6.818750e+00 -2.124533e+01
-3.952677e+09 -3.752678e+09 -3.912664e+09 2.749942e+03 -2.805245e+03 -6.820233e+03
-3.961586e+09 -3.761588e+09 -3.921592e+09 3.827592e+03 2.223130e+03 -9.260550e+02
-1.533240e+09 -1.333245e+09 -1.493247e+09 -1.952370e+03 -3.852293e+02 1.782698e+03
-2.091689e+09 -1.891692e+09 -2.051696e+09 -5.429316e+03 -3.065619e+03 2.406542e+03
-3.727882e+09 -3.527893e+09 -3.687889e+09 -8.707958e+01 9.601217e+01 2.224401e+02
-1.780875e+09 -1.580880e+09 -1.740885e+09 -3.263354e+03 -9.987940e+02 1.537342e+03
-1.543675e+09 -1.343684e+09 -1.503685e+09 -3.634282e+02 -1.153347e+02 1.492261e+03
-2.825860e+09 -2.625869e+09 -2.785867e+09 -4.699440e+02 1.059813e+01 7.251302e+02
-3.919864e+09 -3.719861e+09 -3.879864e+09 -3.612212e+03 -1.203784e+03 4.899093e+02
-4.987683e+09 -4.787689e+09 -4.947683e+09 -3.353496e+03 -4.134399e+02 3.227299e+02
-3.959202e+09 -3.759208e+09 -3.919211e+09 -2.907464e+03 2.727041e+03 1.199266e+03
-4.134273e+09 -3.934274e+09 -4.094270e+09 3.178635e+03 -1.266119e+03 -1.638409e+03
-4.824644e+09 -4.624648e+09 -4.784658e+09 -9.588277e+02 1.254900e+03 -4.839697e+02
-4.132136e+09 -3.932133e+09 -4.092134e+09 -8.455760e+02 1.168442e+02 -2.089737e+01
-3.960397e+09 -3.760398e+09 -3.920397e+09 1.641551e+03 -2.560982e+00 -3.518787e+02
-4.299303e+09 -4.099301e+09 -4.259302e+09 2.635791e+01 -3.033933e+01 -1.143667e+02
-4.640815e+09 -4.440812e+09 -4.600814e+09 -2.773312e+02 1.662156e+02 1.197150e+02
-4.821397e+09 -4.621395e+09 -4.781396e+09 1.289346e+02 4.865823e+01 -8.644190e+00
-3.956007e+09 -3.756012e+09 -3.916006e+09 1.016260e+03 -3.756230e+02 -1.970913e+03
-3.956007e+09 -3.756012e+09 -3.916006e+09 -4.998354e+02 2.205797e+02 -2.349896e+03
-4.812316e+09 -4.612313e+09 -4.772314e+09 -4.119662e+02 6.685084e+01 1.542921e+01
-4.134931e+09 -3.934929e+09 -4.094930e+09 1.477191e+02 3.406756e+01 -4.590700e+01
-3.958511e+09 -3.758510e+09 -3.918510e+09 1.921557e+03 -1.856476e+02 -4.570824e+02
-3.956009e+09 -3.756013e+09 -3.916006e+09 1.487601e+03 -2.973493e+02 -2.134197e+03
-4.130891e+09 -3.930896e+09 -4.090888e+09 1.742277e+02 -1.237484e+01 -2.406240e+03
-4.639094e+09 -4.439098e+09 -4.599090e+09 3.143419e+01 7.862352e+00 -1.706123e+03
-4.818274e+09 -4.618274e+09 -4.778273e+09 1.795675e+03 -6.281010e+01 6.567576e+01
-3.951114e+09 -3.751120e+09 -3.911114e+09 -4.320980e+02 1.724437e+02 -2.460786e+03
-4.132031e+09 -3.932025e+09 -4.092028e+09 1.526618e+03 -2.556626e+02 4.314639e+02
-4.479017e+09 -4.279021e+09 -4.439013e+09 7.177863e+02 3.278478e+02 -1.430642e+03
-4.116084e+09 -3.916089e+09 -4.076082e+09 -4.365438e+02 8.875611e+01 -2.456202e+03
-4.112527e+09 -3.912530e+09 -4.072526e+09 -1.969040e+03 4.708599e+02 -7.884733e+02
-4.990485e+09 -4.790488e+09 -4.950481e+09 -1.739001e+03 1.040534e+02 -9.147371e+02
-4.802552e+09 -4.602555e+09 -4.762549e+09 -7.635765e+01 -6.340769e+01 -7.109061e+02
-1.568702e+09 -1.368712e+09 -1.528714e+09 1.578299e+03 3.138997e+02 3.164144e+03
-4.982149e+09 -4.782152e+09 -4.942148e+09 -1.438049e+03 5.193764e+01 -6.132210e+02
-4.990102e+09 -4.790104e+09 -4.950102e+09 -2.717593e+03 1.366255e+02 -2.781766e+02
-4.448890e+09 -4.248891e+09 -4.408891e+09 -1.828241e+03 1.927885e+01 4.137014e+00
-1.542870e+09 -1.342876e+09 -1.502877e+09 -1.102211e+03 1.886110e+02 9.622405e+02
-3.721004e+09 -3.521013e+09 -3.681011e+09 9.453961e-01 2.190697e+02 1.425999e+02
-4.256082e+09 -4.056084e+09 -4.216084e+09 -2.106877e+03 1.523153e+02 -2.270184e+02
-4.815900e+09 -4.615902e+09 -4.775901e+09 -1.590614e+03 2.911419e+01 -2.171167e+02
-4.971166e+09 -4.771168e+09 -4.931166e+09 -1.882017e+03 8.953113e+01 -4.074335e+02
-4.990301e+09 -4.790305e+09 -4.950305e+09 -2.316000e+03 1.250491e+02 2.938666e+02
-4.135497e+09 -3.935499e+09 -4.095499e+09 -1.565137e+03 -1.274538e+01 -1.094525e+02
-4.308273e+09 -4.108275e+09 -4.268275e+09 -1.404178e+03 -1.050203e+02 1.343883e+02
-4.008705e+09 -3.808714e+09 -3.968711e+09 -1.106111e+03 -2.006405e+02 4.981311e+02
-1.553255e+09 -1.353264e+09 -1.513264e+09 1.301919e+03 7.787969e+02 1.966407e+03
-4.107084e+09 -3.907086e+09 -4.067085e+09 -2.037044e+03 2.427684e+02 -1.044145e+02
-3.956657e+09 -3.756660e+09 -3.916660e+09 -1.922395e+03 8.580163e+01 2.737347e+01
-4.301564e+09 -4.101563e+09 -4.261563e+09 7.459560e+02 -1.484077e+01 -1.049139e+02
-2.677159e+09 -2.477173e+09 -2.637165e+09 -1.593511e+03 -1.167843e+03 5.674192e+03
-2.826217e+09 -2.626228e+09 -2.786220e+09 -4.561304e+03 -3.104547e+03 5.726243e+03
-4.137096e+09 -3.937095e+09 -4.097095e+09 6.216708e+02 5.538865e+01 -2.593787e+00
-4.647971e+09 -4.447971e+09 -4.607971e+09 5.819720e+02 6.320104e+01 3.888294e+01
-4.818235e+09 -4.618235e+09 -4.778235e+09 7.818903e+02 -1.485783e+01 -3.075412e+01
-4.991753e+09 -4.791753e+09 -4.951753e+09 7.507040e+02 -4.165849e+01 -8.306269e+01
-1.948246e+09 -1.748254e+09 -1.908253e+09 -4.695671e+02 -5.308648e+01 3.482921e+02
-4.657474e+09 -4.457473e+09 -4.617473e+09 4.866410e+02 6.856694e+01 9.736137e+00
-3.728964e+09 -3.528976e+09 -3.688968e+09 -1.989047e+02 1.714330e+02 2.625788e+03
-4.128096e+09 -3.928096e+09 -4.088096e+09 7.760442e+02 5.830188e+00 -4.070786e+01
-4.574472e+09 -4.374482e+09 -4.534473e+09 -1.718762e+03 -3.707345e+02 1.999420e+03
-2.392600e+09 -2.192601e+09 -2.352602e+09 -2.540715e+03 -5.551552e+02 1.038092e+03
-3.607407e+09 -3.407411e+09 -3.567411e+09 -1.103640e+02 7.709549e+01 1.439912e+02
-1.548138e+09 -1.348146e+09 -1.508146e+09 -1.827425e+03 -7.270326e+02 1.773759e+03
-5.009984e+09 -4.809994e+09 -4.969990e+09 7.918328e+02 9.262226e-01 2.209595e+02
-4.994210e+09 -4.794209e+09 -4.954209e+09 6.702925e+02 -5.527026e+01 -7.241727e+01
-2.043077e+09 -1.843083e+09 -2.003083e+09 -1.450849e+01 2.520849e+01 4.229121e+02
-4.494906e+09 -4.294910e+09 -4.454908e+09 2.481784e+02 -3.146797e+01 -3.837595e+02
-4.493487e+09 -4.293491e+09 -4.453488e+09 -2.452555e+02 8.141426e+01 -6.939827e+02
-4.649303e+09 -4.449297e+09 -4.609303e+09 -2.932360e+02 2.015076e+02 -2.875260e+02
-4.836719e+09 -4.636724e+09 -4.796720e+09 -2.219705e+02 2.698468e+01 -7.040713e+02
-1.548138e+09 -1.348147e+09 -1.508146e+09 -6.314020e+02 1.427542e+02 1.774969e+03
-3.150697e+09 -2.950705e+09 -3.110701e+09 -2.715597e+03 -1.099593e+03 2.823303e+03
-1.553255e+09 -1.353264e+09 -1.513264e+09 -4.940786e+02 -5.188080e+02 2.142639e+03
-1.552129e+09 -1.352138e+09 -1.512139e+09 -7.614485e+02 -1.994925e+02 1.056030e+03
-2.783496e+09 -2.583508e+09 -2.743502e+09 1.342309e+03 5.730650e+02 3.000932e+03
-4.151673e+09 -3.951677e+09 -4.111675e+09 1.415126e+02 2.907059e+01 -2.119149e+02
-2.491457e+09 -2.291465e+09 -2.451463e+09 2.937067e+03 1.027717e+03 2.397298e+03
-2.697772e+09 -2.497777e+09 -2.657775e+09 -5.917566e+03 -3.191911e+03 4.582935e+03
-4.150254e+09 -3.950258e+09 -4.110255e+09 -1.475404e+02 8.923611e+01 -5.733426e+02
-3.884183e+09 -3.684182e+09 -3.844182e+09 1.115078e+02 2.019515e+01 -1.238861e+01
-4.303310e+09 -4.103309e+09 -4.263309e+09 4.815637e+02 8.162751e+00 -2.103270e+00
-4.637957e+09 -4.437956e+09 -4.597956e+09 2.861118e+02 2.444273e+01 -4.133356e+00
-4.478645e+09 -4.278644e+09 -4.438644e+09 3.312880e+02 2.156769e+01 -1.441374e+01
-4.792344e+09 -4.592342e+09 -4.752343e+09 7.798673e+01 1.524280e+01 -5.861531e-01
-5.003297e+09 -4.803296e+09 -4.963296e+09 3.372609e+02 -1.589343e+01 7.025492e-01
-3.452258e+09 -3.252257e+09 -3.412257e+09 1.375627e+02 6.547310e+00 -5.668241e+00
-3.452882e+09 -3.252881e+09 -3.412881e+09 2.011987e+02 6.995300e+00 -5.197654e+00
-4.297109e+09 -4.097108e+09 -4.257108e+09 1.696085e+02 4.111005e-01 -7.766280e+00
-4.133969e+09 -3.933968e+09 -4.093968e+09 3.283466e+02 -6.781539e-01 -6.154027e+01
-3.957085e+09 -3.757084e+09 -3.917084e+09 5.457248e+02 7.382568e+01 -3.074744e+01
-3.958104e+09 -3.758103e+09 -3.918103e+09 1.255621e+02 1.157951e+01 -1.529504e+01
-3.957085e+09 -3.757084e+09 -3.917084e+09 5.832827e+02 7.255241e+01 -3.232942e+01
-3.976333e+09 -3.776332e+09 -3.936332e+09 2.344833e+02 7.750430e+01 -2.773470e+01
-4.479723e+09 -4.279722e+09 -4.439722e+09 3.051440e+02 1.211246e+01 -1.526606e+01
-3.953936e+09 -3.753935e+09 -3.913935e+09 1.537392e+02 2.491973e+01 -3.933169e+01
-4.985844e+09 -4.785840e+09 -4.945843e+09 -6.729407e+02 -6.270757e+01 -8.633033e+01
-4.662799e+09 -4.462798e+09 -4.622798e+09 2.936660e+02 1.656800e+01 1.176530e+01
-4.461264e+09 -4.261263e+09 -4.421266e+09 -1.676200e+03 -7.803934e+02 -3.819390e+02
-4.141870e+09 -3.941864e+09 -4.101875e+09 -1.011814e+03 -2.553061e+03 -2.517563e+03
-4.306472e+09 -4.106465e+09 -4.266477e+09 -2.067865e+03 2.577797e+03 1.994640e+03
-4.817834e+09 -4.617834e+09 -4.777834e+09 -7.869507e+02 4.015751e+01 8.714310e+01
-4.647096e+09 -4.447087e+09 -4.607092e+09 1.273422e+03 -1.546568e+03 1.608545e+03
-4.825992e+09 -4.625985e+09 -4.785999e+09 -6.807334e+02 6.119008e+02 5.762107e+02
-4.477317e+09 -4.277313e+09 -4.437327e+09 -2.167835e+03 3.030246e+03 1.394529e+03
-4.821672e+09 -4.621667e+09 -4.781674e+09 -6.483441e+02 -4.397537e+02 8.948890e+01
-4.805506e+09 -4.605506e+09 -4.765507e+09 -1.461715e+03 -5.965858e+02 -3.980651e+01
-1.581597e+09 -1.381596e+09 -1.541596e+09 -1.397748e+03 -1.048746e+03 -3.116638e+02
-4.627848e+09 -4.427843e+09 -4.587852e+09 -2.596582e+03 8.207753e+02 9.709255e+02
-4.095106e+09 -3.895101e+09 -4.055107e+09 -9.978304e+02 -1.197238e+03 -1.091723e+03
-4.830599e+09 -4.630595e+09 -4.790600e+09 -4.652113e+02 -3.664120e+02 -2.226981e+02
-3.948725e+09 -3.748725e+09 -3.908727e+09 -2.114228e+03 -1.525194e+03 -5.736342e+02
-3.907454e+09 -3.707452e+09 -3.867455e+09 -1.478493e+03 -1.154442e+03 -5.060233e+02
-4.644652e+09 -4.444648e+09 -4.604652e+09 -7.088608e+02 -5.384069e+02 -1.380541e+02
-1.772500e+09 -1.572513e+09 -1.732511e+09 3.569557e+02 1.494906e+02 4.971575e+03
-4.658948e+09 -4.458943e+09 -4.618952e+09 -1.154449e+03 -6.941267e+02 -6.406672e+02
-4.993340e+09 -4.793335e+09 -4.953343e+09 -4.787594e+02 -2.583478e+02 -1.590966e+02
-4.279083e+09 -4.079078e+09 -4.239083e+09 -5.396211e+02 -5.803248e+02 -4.366883e+02
-4.100945e+09 -3.900940e+09 -4.060947e+09 1.923243e+02 -1.003406e+03 -1.215655e+03
-4.813663e+09 -4.613662e+09 -4.773663e+09 -2.523087e+02 9.715471e+00 -2.007535e+01
-3.923643e+09 -3.723639e+09 -3.883643e+09 -1.123526e+03 -1.115965e+03 -8.104439e+02
-4.274189e+09 -4.074184e+09 -4.234190e+09 7.169782e+02 -6.758040e+02 -7.996110e+02
-4.819656e+09 -4.619650e+09 -4.779662e+09 -1.950268e+03 3.805370e+02 1.490475e+03
-3.966247e+09 -3.766242e+09 -3.926253e+09 -3.042931e+03 2.299892e+03 2.321580e+03
-4.818483e+09 -4.618481e+09 -4.778482e+09 -2.749452e+02 1.261276e+01 1.882112e+00
-4.990326e+09 -4.790321e+09 -4.950327e+09 -2.164665e+03 4.859444e+02 3.264250e+02
-4.115840e+09 -3.915833e+09 -4.075839e+09 -1.186634e+03 4.198956e+02 1.010356e+03
-4.987689e+09 -4.787682e+09 -4.947691e+09 -1.418961e+03 7.167006e+02 5.739900e+02
-4.301223e+09 -4.101215e+09 -4.261223e+09 -2.298808e+02 1.643639e+02 1.071417e+03
-4.131274e+09 -3.931264e+09 -4.091275e+09 -1.536060e+03 1.244519e+03 3.056681e+03
-4.802305e+09 -4.602298e+09 -4.762305e+09 -7.494596e+02 3.368713e+02 1.045565e+03
-3.935665e+09 -3.735668e+09 -3.895664e+09 1.034579e+03 5.911351e+01 -4.250345e+01
-2.910350e+09 -2.710354e+09 -2.870349e+09 9.962667e+02 1.309252e+02 1.261289e+01
-4.130113e+09 -3.930120e+09 -4.090117e+09 7.783443e+02 8.348456e+02 -1.767605e+02
-4.991114e+09 -4.791113e+09 -4.951114e+09 -1.345744e+03 -2.298158e+01 3.176914e+01
-3.804113e+09 -3.604117e+09 -3.764112e+09 8.328493e+01 2.796496e+01 -4.722770e+00
-4.978593e+09 -4.778587e+09 -4.938592e+09 1.753242e+02 1.207290e+02 6.618784e+01
-4.660486e+09 -4.460491e+09 -4.620486e+09 4.955461e+02 -1.023864e+02 -9.823158e+00
-4.649798e+09 -4.449804e+09 -4.609799e+09 7.806643e+02 6.093961e+01 -1.520323e+01
-3.962512e+09 -3.762517e+09 -3.922513e+09 1.227411e+03 2.097817e+02 2.912620e+01
-4.647737e+09 -4.447739e+09 -4.607737e+09 1.697712e+03 1.321670e+02 9.138775e-01
-3.960351e+09 -3.760355e+09 -3.920352e+09 1.409898e+03 2.865298e+02 3.253168e+01
-4.053060e+09 -3.853066e+09 -4.013060e+09 5.554361e+02 5.092975e+01 5.085934e+01
-4.106434e+09 -3.906438e+09 -4.066434e+09 9.305690e+02 1.439451e+02 -6.110289e+01
-4.819613e+09 -4.619619e+09 -4.779614e+09 7.681924e+02 5.089873e+01 7.297025e+01
-4.262104e+09 -4.062110e+09 -4.222105e+09 6.821530e+02 1.207401e+02 8.819610e+00
-3.955793e+09 -3.755793e+09 -3.915793e+09 -3.346547e+02 -2.629875e+01 -2.028847e+01
-4.648720e+09 -4.448726e+09 -4.608721e+09 8.656873e+02 1.464187e+02 -3.408582e+01
-4.993186e+09 -4.793191e+09 -4.953187e+09 1.008174e+03 6.305932e+01 7.666887e+01
-3.917526e+09 -3.717531e+09 -3.877526e+09 9.847093e+02 2.584153e+01 -2.725844e+01
-4.828489e+09 -4.628484e+09 -4.788496e+09 -1.379986e+03 -1.166298e+03 -1.141346e+03
-3.958941e+09 -3.758936e+09 -3.918943e+09 -3.631603e+03 4.895732e+02 1.015697e+03
-4.830476e+09 -4.630475e+09 -4.790475e+09 -2.163857e+02 -7.151770e+00 -5.105703e+01
-4.476515e+09 -4.276514e+09 -4.436515e+09 -3.669106e+02 -1.170144e+01 -1.152469e+01
-4.271761e+09 -4.071764e+09 -4.231760e+09 1.237265e+03 1.438894e+02 1.888877e+01
-4.492591e+09 -4.292599e+09 -4.452598e+09 1.226533e+03 1.326783e+03 -3.209827e+02
-4.262106e+09 -4.062104e+09 -4.222105e+09 -2.835091e+02 -7.402983e+00 -2.149434e+01
-4.306567e+09 -4.106565e+09 -4.266566e+09 -4.391304e+02 -2.531562e+01 -2.068409e+01
-4.641877e+09 -4.441877e+09 -4.601878e+09 -1.157446e+03 -7.676413e+00 2.629973e+01
-4.993186e+09 -4.793185e+09 -4.953186e+09 -4.781248e+02 3.036107e+00 -1.144889e+01
-4.272968e+09 -4.072966e+09 -4.232967e+09 -2.214857e+02 -1.836355e+00 -2.521405e+01
-4.667356e+09 -4.467356e+09 -4.627356e+09 -2.413103e+02 -3.049655e+01 -1.001114e+01
-4.992211e+09 -4.792210e+09 -4.952210e+09 -4.477590e+02 3.668388e+00 -3.691964e+00
-3.512273e+09 -3.312272e+09 -3.472272e+09 -1.509249e+02 5.778987e-01 1.567933e+01
-4.640633e+09 -4.440632e+09 -4.600633e+09 -3.098113e+02 -3.882200e+00 2.527899e+01
-4.095848e+09 -3.895847e+09 -4.055847e+09 -3.815038e+02 -3.190103e+01 -7.678063e+01
-3.917527e+09 -3.717526e+09 -3.877526e+09 -3.399313e+02 -3.858336e+01 -1.513245e+01
-4.269092e+09 -4.069091e+09 -4.229091e+09 -2.408565e+02 -1.182230e+01 5.447892e+00
-4.997707e+09 -4.797714e+09 -4.957717e+09 -7.038745e+02 1.012882e+03 4.206465e+01
-4.133435e+09 -3.933433e+09 -4.093433e+09 -5.128526e+02 1.420873e+02 7.973730e+01
-4.645722e+09 -4.445721e+09 -4.605721e+09 -1.270517e+03 1.978988e+02 4.171712e+01
-4.123431e+09 -3.923428e+09 -4.083429e+09 -1.521117e+01 -1.318333e+01 -3.990753e+00
-4.470804e+09 -4.270800e+09 -4.430802e+09 4.952561e+02 -4.899675e+01 -7.039370e+01
-1.596696e+09 -1.396698e+09 -1.556695e+09 -2.764819e+03 -1.668140e+03 -7.548532e+02
-3.961479e+09 -3.761475e+09 -3.921477e+09 -6.633312e+02 2.836409e+02 2.057807e+02
-4.813615e+09 -4.613612e+09 -4.773613e+09 -1.246585e+02 4.268114e+01 3.396271e+00
-4.642536e+09 -4.442534e+09 -4.602535e+09 3.200912e+01 1.345409e+02 3.719742e+01
-4.841796e+09 -4.641799e+09 -4.801791e+09 -1.822119e+03 -2.663010e+02 -1.423460e+03
-4.305706e+09 -4.105710e+09 -4.265698e+09 -5.692485e+02 6.752327e+02 -3.356244e+03
-4.114887e+09 -3.914888e+09 -4.074878e+09 2.463559e+03 -1.044221e+03 -3.539417e+03
-4.985080e+09 -4.785082e+09 -4.945082e+09 -1.661146e+03 -2.507520e+02 -7.784096e+01
-4.477238e+09 -4.277237e+09 -4.437237e+09 1.769498e+02 -1.417304e+02 6.388183e+01
-3.243732e+09 -3.043730e+09 -3.203730e+09 -5.686714e+01 -9.294398e+01 -1.058114e+02
-4.127639e+09 -3.927623e+09 -4.087645e+09 -1.897635e+03 -1.372205e+03 -3.485977e+03
-5.000515e+09 -4.800518e+09 -4.960508e+09 6.313170e+02 -1.739429e+02 -1.256463e+03
-4.802747e+09 -4.602743e+09 -4.762738e+09 3.630351e+03 -3.675599e+02 9.925480e+01
-4.477116e+09 -4.277118e+09 -4.437117e+09 -4.981832e+01 -4.364913e+00 1.931075e+01
-4.805681e+09 -4.605677e+09 -4.765669e+09 3.878408e+03 -3.214424e+03 -2.237541e+03
-4.631699e+09 -4.431693e+09 -4.591690e+09 2.994709e+03 -2.598766e+03 1.550749e+01
-4.695737e+09 -4.495736e+09 -4.655736e+09 3.225904e+01 3.136963e+00 7.632295e-01
-3.957576e+09 -3.757574e+09 -3.917565e+09 4.041049e+03 -3.145808e+03 -3.824903e+03
-3.959855e+09 -3.759854e+09 -3.919854e+09 1.891997e+02 1.475149e+01 -2.584461e+01
-4.987277e+09 -4.787267e+09 -4.947269e+09 2.084369e+03 9.795585e+02 -1.026448e+02
-4.451416e+09 -4.251415e+09 -4.411415e+09 1.188991e+02 3.153588e+00 -5.357777e-01
-4.309556e+09 -4.109555e+09 -4.269556e+09 1.615884e+02 3.975477e+00 -1.844285e-01
-3.971661e+09 -3.771660e+09 -3.931660e+09 1.470218e+02 2.290901e+01 -2.196624e+01
-4.293856e+09 -4.093855e+09 -4.253855e+09 2.309083e+02 6.389345e+00 -3.545985e+01
-4.989202e+09 -4.789202e+09 -4.949202e+09 2.095675e+02 -9.170100e+00 1.446061e+01
-4.809164e+09 -4.609163e+09 -4.769163e+09 1.348235e+02 5.318981e+00 1.793887e+01
-4.292909e+09 -4.092909e+09 -4.252909e+09 1.491284e+02 -3.492999e+00 1.468105e+01
-5.013420e+09 -4.813424e+09 -4.973421e+09 -2.914780e+02 1.003199e+02 -1.184189e+02
-4.809007e+09 -4.609011e+09 -4.769006e+09 5.638061e+02 -4.463875e+01 -1.463206e+03
-4.122542e+09 -3.922546e+09 -4.082541e+09 8.353787e+02 2.489608e+01 -8.382948e+02
-4.158605e+09 -3.958610e+09 -4.118607e+09 -5.693172e+02 1.594314e+02 -1.139249e+03
-4.987270e+09 -4.787275e+09 -4.947271e+09 -3.142195e+02 -2.762729e+01 -3.232521e+02
-4.121813e+09 -3.921816e+09 -4.081813e+09 -2.137462e+03 4.119967e+02 -1.112368e+03
-3.508345e+09 -3.308352e+09 -3.468348e+09 8.805695e+02 -1.838293e+03 3.983587e+02
-4.295680e+09 -4.095686e+09 -4.255681e+09 -8.208978e+02 4.865347e+01 -1.190529e+03
-4.650320e+09 -4.450320e+09 -4.610320e+09 1.036730e+03 4.796028e+01 5.170975e+01
-3.965228e+09 -3.765227e+09 -3.925228e+09 9.455304e+02 6.545276e+01 -5.506006e+01
-1.576692e+09 -1.376691e+09 -1.536689e+09 -1.167966e+03 -5.455573e+02 -1.535675e+02
-4.480616e+09 -4.280614e+09 -4.440615e+09 9.112425e+02 -1.680943e+01 -2.795922e+01
-2.243090e+09 -2.043090e+09 -2.203092e+09 -2.012913e+03 -3.656873e+02 -1.682041e+02
-4.310563e+09 -4.110562e+09 -4.270563e+09 6.521155e+02 1.020773e+00 -5.565173e+01
-4.991716e+09 -4.791714e+09 -4.951715e+09 -1.098791e+02 -5.202303e+01 -2.335501e+01
-4.133826e+09 -3.933824e+09 -4.093825e+09 3.664132e+02 1.016674e+02 -3.269694e+01
-1.689036e+09 -1.489032e+09 -1.649039e+09 3.146833e+03 1.691925e+02 -4.776168e+02
-4.647611e+09 -4.447609e+09 -4.607610e+09 -1.300905e+02 1.199329e+02 3.697206e+01
-1.644198e+09 -1.444196e+09 -1.604196e+09 -1.654642e+02 -3.979230e+02 -7.116966e+00
-4.820292e+09 -4.620290e+09 -4.780291e+09 3.671941e+02 -2.701842e+01 -5.386176e+00
-1.568707e+09 -1.368714e+09 -1.528715e+09 1.585078e+03 2.909821e+02 9.345539e+02
-2.222758e+09 -2.022769e+09 -2.182768e+09 3.688575e+03 1.638130e+03 4.587812e+03
-4.839271e+09 -4.639275e+09 -4.799275e+09 1.625175e+03 -6.639182e+01 -4.454650e+02
-4.823561e+09 -4.623560e+09 -4.783561e+09 6.254606e+02 -1.978025e+01 -5.462604e+01
-3.878776e+09 -3.678783e+09 -3.838780e+09 -1.187134e+03 -2.646315e+02 8.072993e+02
-4.808692e+09 -4.608690e+09 -4.768691e+09 1.233680e+02 7.131433e+00 -7.925979e+00
-4.636477e+09 -4.436476e+09 -4.596476e+09 1.282647e+02 3.858400e+00 1.631645e+01
-3.248905e+09 -3.048904e+09 -3.208904e+09 1.169947e+01 6.933476e-01 -2.784557e+00
-4.603846e+09 -4.403845e+09 -4.563845e+09 6.066512e+01 1.133992e+01 -3.074519e+01
-4.628937e+09 -4.428936e+09 -4.588936e+09 7.168847e+01 1.366451e+01 -5.283787e+00
-4.053122e+09 -3.853121e+09 -4.013121e+09 9.028967e+01 1.071814e+01 -1.569511e+01
-1.723016e+09 -1.523015e+09 -1.683015e+09 1.561867e+01 3.047285e+00 -3.773957e+00
-4.062499e+09 -3.862498e+09 -4.022499e+09 8.832721e+01 1.017585e+01 -9.983658e+00
-4.296568e+09 -4.096567e+09 -4.256567e+09 1.049874e+02 3.638102e+00 -3.508001e+01
-4.093446e+09 -3.893445e+09 -4.053446e+09 1.047748e+02 3.058174e+00 -8.139001e+00
-4.222938e+09 -4.022937e+09 -4.182937e+09 7.803898e+01 -5.169988e-01 3.978580e-01
-1.952281e+09 -1.752280e+09 -1.912280e+09 2.488664e+01 8.913026e+00 -5.643500e+00
-4.649664e+09 -4.449662e+09 -4.609663e+09 7.953062e+02 -3.705702e+01 -5.898081e+01
-4.314465e+09 -4.114459e+09 -4.274470e+09 -1.657863e+02 -2.124756e+03 -1.531366e+03
-3.843968e+09 -3.643967e+09 -3.803967e+09 7.177528e+01 -1.087466e+01 -4.650355e+01
-3.389909e+09 -3.189908e+09 -3.349908e+09 8.133865e+01 2.550490e+00 -6.405308e+00
-4.962256e+09 -4.762255e+09 -4.922255e+09 1.307821e+01 1.243450e-04 8.932943e-02
-2.260018e+09 -2.060017e+09 -2.220017e+09 4.947605e+01 6.290454e+00 -1.328437e+01
-2.134788e+09 -1.934787e+09 -2.094787e+09 5.044979e+01 8.178107e+00 -2.517503e+01
-4.645618e+09 -4.445617e+09 -4.605617e+09 1.619698e+03 -9.954856e+01 -1.702400e+02
-4.776383e+09 -4.576382e+09 -4.736382e+09 2.022441e+01 2.319059e+00 1.588481e+01
-3.384880e+09 -3.184879e+09 -3.344879e+09 3.216979e+01 6.324559e+00 -1.341409e+00
-3.384068e+09 -3.184067e+09 -3.344067e+09 6.033014e+01 6.055709e+00 -1.201878e+00
-3.963508e+09 -3.763505e+09 -3.923506e+09 1.201620e+03 -2.465674e+02 -1.468910e+02
-4.129922e+09 -3.929921e+09 -4.089921e+09 1.914134e+03 -1.804719e+02 -3.763062e+02
-4.992152e+09 -4.792152e+09 -4.952151e+09 1.415710e+03 -6.364650e+01 -1.376710e+02
-4.462449e+09 -4.262445e+09 -4.422436e+09 4.452003e+03 -2.810194e+03 -2.286732e+03
-2.148844e+09 -1.948843e+09 -2.108843e+09 4.365921e+01 7.647042e+00 -6.909477e+00
-4.461058e+09 -4.261058e+09 -4.421046e+09 1.372676e+03 -1.845123e+03 -3.018091e+03
-1.583810e+09 -1.383810e+09 -1.543810e+09 1.808180e+02 4.884488e+01 -8.896728e+00
-4.298564e+09 -4.098553e+09 -4.258570e+09 3.115524e+03 1.218535e+03 1.557379e+03
-2.228170e+09 -2.028169e+09 -2.188169e+09 1.050276e+02 1.831906e+01 -1.319708e+01
-1.860933e+09 -1.660932e+09 -1.820932e+09 9.156966e+01 1.512527e+01 -9.719079e+00
-4.987279e+09 -4.787273e+09 -4.947270e+09 3.420007e+03 -5.757659e+02 -1.677798e+02
-4.816148e+09 -4.616138e+09 -4.776131e+09 2.906225e+03 -4.209969e+03 2.162766e+03
-1.862374e+09 -1.662373e+09 -1.822373e+09 -2.212918e+00 1.288129e+01 -1.825157e+00
-4.634555e+09 -4.434547e+09 -4.594546e+09 2.826696e+03 -4.389973e+03 -2.123550e+03
-2.609371e+09 -2.409370e+09 -2.569371e+09 -2.494102e+01 -2.962962e+01 -8.773782e-01
-3.966001e+09 -3.766002e+09 -3.925984e+09 -1.024586e+03 7.284889e+02 -4.339450e+03
-4.990130e+09 -4.790126e+09 -4.950106e+09 3.765311e+03 -3.366313e+02 -1.191305e+03
-4.119221e+09 -3.919212e+09 -4.079206e+09 2.724688e+03 -4.029303e+03 -1.919262e+02
-1.570887e+09 -1.370886e+09 -1.530886e+09 -6.712527e+01 -3.404901e+00 -1.762040e+01
-4.815481e+09 -4.615475e+09 -4.775486e+09 -3.088432e+03 5.196390e+02 3.036607e+02
-4.645887e+09 -4.445881e+09 -4.605897e+09 -1.737508e+03 -5.978742e+02 1.055910e+03
-4.132298e+09 -3.932290e+09 -4.092307e+09 -2.415556e+03 -1.805701e+03 1.605080e+03
-4.991759e+09 -4.791752e+09 -4.951762e+09 -4.177269e+03 -1.482230e+03 6.371642e+01
-1.820839e+09 -1.620838e+09 -1.780839e+09 -1.573329e+02 -1.108110e+01 -2.870606e+01
-4.652601e+09 -4.452591e+09 -4.612605e+09 -4.113703e+03 8.530256e+02 -3.023819e+02
-1.581253e+09 -1.381252e+09 -1.541252e+09 -2.723259e+01 -1.133235e+01 -4.969870e+00
-1.581253e+09 -1.381252e+09 -1.541252e+09 -3.711091e+01 -1.378018e+01 -1.506666e+01
-2.239920e+09 -2.039919e+09 -2.199919e+09 -1.330964e+01 -2.308440e+00 -7.169595e+00
-4.811447e+09 -4.611441e+09 -4.771445e+09 -4.517593e+03 1.693588e+03 -7.573045e+01
-2.118553e+09 -1.918552e+09 -2.078553e+09 -9.702550e+01 -1.057929e+01 -1.301351e+01
-3.962062e+09 -3.762051e+09 -3.922068e+09 -6.139904e+03 1.662701e+03 -1.960212e+03
-4.468215e+09 -4.268209e+09 -4.428213e+09 -4.923612e+03 8.641376e+02 -1.868416e+02
-4.988600e+09 -4.788597e+09 -4.948621e+09 -5.548143e+02 3.365414e+03 6.730503e+01
-3.913044e+09 -3.713042e+09 -3.873043e+09 -6.374257e+01 -6.319150e+00 -2.737447e+01
-1.637342e+09 -1.437340e+09 -1.597341e+09 -4.865674e+01 -1.041905e+01 -2.522501e+01
-4.999534e+09 -4.799534e+09 -4.959552e+09 -6.985935e+02 2.416306e+03 -1.007894e+02
-2.050543e+09 -1.850546e+09 -2.010542e+09 5.479326e+02 4.165726e+01 -1.796534e+01
-4.827833e+09 -4.627832e+09 -4.787849e+09 -2.027586e+03 1.506743e+03 6.776177e+02
-3.208988e+09 -3.008991e+09 -3.168987e+09 1.016981e+03 9.708725e+01 -2.520261e+01
-3.969836e+09 -3.769842e+09 -3.929853e+09 -1.298296e+03 5.678120e+03 5.321882e+02
-4.827483e+09 -4.627485e+09 -4.787500e+09 9.339947e+02 1.447720e+03 -8.829405e+02
-1.568780e+09 -1.368783e+09 -1.528779e+09 7.114751e+01 1.912787e+00 -8.385825e+00
-1.588674e+09 -1.388676e+09 -1.548673e+09 1.276341e+02 -1.365299e+01 8.526969e+00
-4.999534e+09 -4.799537e+09 -4.959553e+09 -7.881756e+01 2.280416e+03 -1.260119e+02
-2.258765e+09 -2.058772e+09 -2.218766e+09 3.557659e+02 1.147472e+02 2.717950e+01
-4.131008e+09 -3.931009e+09 -4.091020e+09 4.048431e+03 4.188934e+03 -2.519715e+03
-4.132297e+09 -3.932299e+09 -4.092315e+09 2.451388e+03 5.952272e+03 -2.125265e+03
-4.991895e+09 -4.791893e+09 -4.951894e+09 -1.807763e+02 -5.511457e+01 4.481838e+01
-4.481148e+09 -4.281152e+09 -4.441150e+09 -8.694511e+02 -1.660004e+01 -6.787157e+01
-4.815656e+09 -4.615659e+09 -4.775658e+09 -6.123848e+02 6.105290e+00 -2.197824e+02
-4.821963e+09 -4.621965e+09 -4.781964e+09 -1.184237e+03 2.766310e+01 -4.489520e+01
-3.969880e+09 -3.769883e+09 -3.929882e+09 -1.477783e+03 1.226323e+02 -3.241646e+02
-4.827539e+09 -4.627542e+09 -4.787541e+09 -1.133684e+03 1.982029e+01 -1.925877e+02
-4.999578e+09 -4.799581e+09 -4.959580e+09 -1.161085e+03 -1.806443e+00 -9.950351e+01
-4.657083e+09 -4.457085e+09 -4.617085e+09 -1.310495e+03 2.710895e+01 1.751911e+01
-4.132348e+09 -3.932351e+09 -4.092350e+09 -8.760553e+02 2.315936e-01 -1.710676e+02
-4.990435e+09 -4.790428e+09 -4.950436e+09 3.454557e+03 -4.174897e+02 -3.673783e+02
-2.772462e+09 -2.572467e+09 -2.732462e+09 -2.018211e+02 -1.876152e+01 -8.752108e+01
-1.776934e+09 -1.576937e+09 -1.736934e+09 -4.750008e+02 7.527972e+01 -8.348870e+01
-2.569052e+09 -2.369056e+09 -2.529052e+09 -8.957856e+02 -1.557621e+02 2.386959e+01
-1.886729e+09 -1.686734e+09 -1.846729e+09 -5.866882e+02 -1.166875e+01 -1.211193e+02
-2.718363e+09 -2.518369e+09 -2.678364e+09 -3.821354e+02 -1.675027e+01 -8.107929e+01
-2.653966e+09 -2.453971e+09 -2.613966e+09 -5.396961e+02 2.396660e+02 -9.461086e+00
-3.721485e+09 -3.521488e+09 -3.681484e+09 7.071377e+01 -8.703165e+00 1.205186e+01
-2.242455e+09 -2.042458e+09 -2.202454e+09 8.719119e+02 1.038891e+02 -2.016551e+01
-2.172643e+09 -1.972648e+09 -2.132644e+09 -3.930445e+02 5.154341e+01 -7.504558e+01
-4.822650e+09 -4.622646e+09 -4.782651e+09 6.673066e+02 -1.741187e+02 -1.256913e+02
-4.651194e+09 -4.451195e+09 -4.611195e+09 -1.670577e+03 4.269183e+00 -9.199412e+00
-4.992806e+09 -4.792812e+09 -4.952812e+09 -1.254129e+03 -3.839162e+02 -6.147447e+01
-3.952449e+09 -3.752454e+09 -3.912449e+09 -5.525887e+02 1.272462e+02 -1.760877e+03
-4.988639e+09 -4.788634e+09 -4.948642e+09 -3.614313e+03 -7.995530e+02 6.659311e+02
-4.279075e+09 -4.079072e+09 -4.239077e+09 1.781132e+03 -5.726068e+02 -7.299942e+02
-3.929049e+09 -3.729044e+09 -3.889051e+09 4.691301e+01 -1.090961e+03 -1.102091e+03
-4.818057e+09 -4.618058e+09 -4.778056e+09 2.314730e+03 -4.931488e+02 -7.314763e+02
-4.820277e+09 -4.620277e+09 -4.780267e+09 -4.431627e+03 1.588775e+03 -9.416694e+01
-4.107360e+09 -3.907357e+09 -4.067362e+09 1.848366e+03 -5.319470e+02 -6.493659e+02
-4.307346e+09 -4.107346e+09 -4.267342e+09 2.569274e+03 -2.555339e+02 -4.173226e+02
-4.646148e+09 -4.446141e+09 -4.606152e+09 2.037488e+03 3.986371e+01 -6.670151e+02
-4.992605e+09 -4.792600e+09 -4.952607e+09 1.291482e+03 -1.758376e+02 -3.462955e+00
-4.995295e+09 -4.795289e+09 -4.955292e+09 3.243880e+03 3.234446e+02 2.523817e+02
-4.306744e+09 -4.106740e+09 -4.266745e+09 1.640308e+03 -3.292199e+02 -3.961173e+02
-4.647551e+09 -4.447551e+09 -4.607551e+09 1.967349e+02 2.101567e+01 9.502062e-01
-4.984152e+09 -4.784142e+09 -4.944113e+09 -5.156092e+02 -9.159574e+01 -1.244120e+03
-4.301185e+09 -4.101185e+09 -4.261185e+09 2.492473e+02 -5.151147e+00 -9.088022e+00
-3.957579e+09 -3.757568e+09 -3.917571e+09 4.615738e+03 -4.659276e+03 1.021099e+02
-4.991132e+09 -4.791123e+09 -4.951133e+09 6.838414e+02 6.988911e+02 -7.322158e+02
-4.817299e+09 -4.617298e+09 -4.777298e+09 2.455641e+02 1.244170e+01 -5.871073e+00
-4.267950e+09 -4.067949e+09 -4.227949e+09 1.140355e+02 -2.792191e+00 4.821253e+00
-4.827694e+09 -4.627693e+09 -4.787693e+09 1.349999e+02 6.006410e+00 1.812917e+01
-4.643351e+09 -4.443350e+09 -4.603350e+09 1.586517e+02 2.030234e+01 -1.039674e+01
-4.269471e+09 -4.069477e+09 -4.229471e+09 3.431865e+02 -1.125002e+01 1.644301e+01
-4.649468e+09 -4.449474e+09 -4.609469e+09 3.969911e+02 7.181193e+01 -3.077540e+01
-4.069374e+09 -3.869380e+09 -4.029375e+09 3.459006e+02 -4.211819e+00 3.688560e+01
-4.822496e+09 -4.622502e+09 -4.782497e+09 4.619096e+02 1.327677e+02 -2.407120e+01
-4.650598e+09 -4.450604e+09 -4.610599e+09 5.514409e+02 2.787369e+01 -2.211117e+01
-4.305487e+09 -4.105493e+09 -4.265488e+09 8.658825e+02 2.932859e+02 5.113077e+01
-4.992426e+09 -4.792432e+09 -4.952427e+09 6.305232e+02 1.299853e+01 7.140794e+01
-3.924103e+09 -3.724109e+09 -3.884104e+09 7.702913e+02 9.062195e+01 -9.021666e+01
-1.586180e+09 -1.386192e+09 -1.546183e+09 3.448260e+02 -2.072673e+03 1.941831e+02
-3.952449e+09 -3.752453e+09 -3.912450e+09 -1.649633e+03 4.696860e+02 -1.036139e+03
-4.940312e+09 -4.740314e+09 -4.900313e+09 8.547169e+00 -9.393380e+00 1.243435e-04
-2.752870e+09 -2.552879e+09 -2.712873e+09 3.024903e+02 -1.328453e+03 -2.770280e+01
-4.994772e+09 -4.794771e+09 -4.954771e+09 -1.137775e+02 1.285265e+01 -3.600334e+00
-3.902303e+09 -3.702302e+09 -3.862302e+09 -1.425336e+02 -7.868003e+00 -1.045413e+01
-3.074707e+09 -2.874716e+09 -3.034710e+09 1.244548e+02 -1.157855e+03 7.236968e+01
-2.063111e+09 -1.863121e+09 -2.023114e+09 4.992911e+02 -1.051757e+03 1.099217e+02
-2.651444e+09 -2.451454e+09 -2.611448e+09 4.419392e+01 -1.117499e+03 7.093555e+01
-2.054942e+09 -1.854951e+09 -2.014944e+09 -1.364140e+02 -1.043046e+03 2.816688e+01
-2.633986e+09 -2.433996e+09 -2.593990e+09 6.153611e+01 -2.580740e+03 1.417599e+02
-4.990945e+09 -4.790944e+09 -4.950945e+09 -2.280693e+02 1.250910e+00 4.623952e+01
-2.160322e+09 -1.960332e+09 -2.120325e+09 -1.655958e+02 -1.679258e+03 1.409512e+02
-3.863313e+09 -3.663313e+09 -3.823313e+09 2.508660e+02 4.707462e+00 -3.300930e+00
-4.305566e+09 -4.105570e+09 -4.265571e+09 -2.104212e+03 -1.594379e+03 -4.488113e+02
-3.682132e+09 -3.482131e+09 -3.642131e+09 -8.139323e+01 -7.532911e+00 4.167419e+01
-4.465911e+09 -4.265910e+09 -4.425910e+09 -3.925328e+02 -1.709206e+01 1.375271e+01
-3.864171e+09 -3.664170e+09 -3.824170e+09 -3.926081e+00 3.939473e+00 -6.255908e+00
-3.951819e+09 -3.751819e+09 -3.911819e+09 2.438862e+02 4.867360e+00 -5.487742e+00
-4.592810e+09 -4.392810e+09 -4.552810e+09 3.684552e+02 1.928160e+01 1.711237e+01
-4.568122e+09 -4.368121e+09 -4.528121e+09 -1.172016e+01 -1.297117e+01 2.041123e-01
-4.764226e+09 -4.564225e+09 -4.724225e+09 2.504079e+02 1.676148e+01 1.497278e+01
-4.849345e+09 -4.649344e+09 -4.809345e+09 -2.781547e+00 0.000000e+00 0.000000e+00
-2.046046e+09 -1.846045e+09 -2.006046e+09 -1.035236e+02 -6.774812e+00 -1.413833e+01
-3.721485e+09 -3.521483e+09 -3.681484e+09 -1.227999e+01 -1.538724e+01 -6.493991e+00
-4.976133e+09 -4.776132e+09 -4.936133e+09 -2.723483e+01 2.145946e+00 7.126136e+00
-4.305784e+09 -4.105784e+09 -4.265784e+09 3.121552e+02 -4.140484e-03 1.019343e+00
-4.778475e+09 -4.578476e+09 -4.738476e+09 -7.409186e+01 -1.080877e+01 9.375537e+00
-4.548974e+09 -4.348974e+09 -4.508974e+09 -2.605037e+01 -1.951540e+01 8.226415e-01
-4.992560e+09 -4.792559e+09 -4.952560e+09 2.597652e+02 -9.145181e+00 -5.147076e+01
-3.937946e+09 -3.737946e+09 -3.897946e+09 2.444753e+02 2.000218e+01 4.513253e+01
-4.991721e+09 -4.791720e+09 -4.951720e+09 2.006419e+02 -6.322569e+00 -4.763805e+01
-4.134120e+09 -3.934123e+09 -4.094125e+09 -2.056989e+03 -1.404007e+03 -3.600691e+02
-4.124771e+09 -3.924771e+09 -4.084771e+09 2.564889e+02 1.262969e+01 -8.547101e+00
-4.130833e+09 -3.930832e+09 -4.090833e+09 2.285360e+02 5.404241e+00 -9.218986e+00
-4.638982e+09 -4.438982e+09 -4.598982e+09 2.208409e+02 2.623281e+01 -8.058099e-01
-4.770222e+09 -4.570227e+09 -4.730223e+09 -1.682839e+02 1.148743e+02 -2.373448e+00
-2.951823e+09 -2.751824e+09 -2.911821e+09 1.811272e+02 2.950120e+01 -2.189829e+01
-4.990126e+09 -4.790131e+09 -4.950129e+09 2.246202e+03 2.687978e+02 -7.738027e+01
-4.989202e+09 -4.789202e+09 -4.949202e+09 1.968032e+02 -8.974275e+00 1.534121e+01
-2.088582e+09 -1.888583e+09 -2.048583e+09 1.612148e+02 2.342123e+01 5.001834e+01
-2.489261e+09 -2.289262e+09 -2.449261e+09 2.038915e+02 4.613517e+01 1.351450e+01
-4.749840e+09 -4.549842e+09 -4.709838e+09 7.677128e+01 -2.447860e+01 3.722455e+01
-4.782568e+09 -4.582570e+09 -4.742567e+09 1.317750e+02 1.928163e+01 -1.971318e+01
-2.758712e+09 -2.558713e+09 -2.718713e+09 1.428524e+02 1.419884e+01 4.598913e+01
-1.783333e+09 -1.583334e+09 -1.743334e+09 1.685938e+02 1.217548e+01 2.316098e+01
-2.456357e+09 -2.256358e+09 -2.416358e+09 1.873929e+02 4.941162e+01 1.263822e+01
-4.962257e+09 -4.762259e+09 -4.922255e+09 8.387407e+01 1.190897e+01 1.783667e-08
-2.607709e+09 -2.407710e+09 -2.567710e+09 1.924809e+02 4.664479e+00 -1.233470e+01
-2.461321e+09 -2.261324e+09 -2.421320e+09 1.501123e+02 -7.615505e+01 -2.762585e+01
-1.591693e+09 -1.391695e+09 -1.551692e+09 1.599564e+01 -5.143107e+00 9.796581e+00
-4.477109e+09 -4.277113e+09 -4.437111e+09 -1.299143e+03 1.392606e+02 -2.121721e+02
-4.951559e+09 -4.751562e+09 -4.911558e+09 8.050049e+01 -8.948654e+00 -3.530521e+00
-4.988691e+09 -4.788695e+09 -4.948692e+09 -8.395832e+02 -8.292901e+00 -1.185432e+02
-4.313113e+09 -4.113116e+09 -4.273114e+09 -9.771244e+02 -6.792798e-01 1.418662e+01
-4.304693e+09 -4.104697e+09 -4.264696e+09 3.187212e+02 1.156734e+01 -3.822187e+02
-4.988776e+09 -4.788779e+09 -4.948778e+09 -2.907517e+02 -1.375194e+01 -9.240088e+01
-4.127973e+09 -3.927977e+09 -4.087976e+09 -1.123326e+02 4.980531e+01 -2.830777e+02
-4.669791e+09 -4.469795e+09 -4.629792e+09 -4.593642e+02 2.716688e+01 -2.531468e+02
-1.591182e+09 -1.391180e+09 -1.551180e+09 -6.304987e+01 -1.480182e+02 2.268586e+01
-2.789019e+09 -2.589017e+09 -2.749017e+09 -3.972622e+02 -4.449090e+02 -1.349469e+02
-4.302225e+09 -4.102229e+09 -4.262227e+09 6.329139e+01 3.420657e+01 -3.684854e+02
-4.474309e+09 -4.274313e+09 -4.434314e+09 2.782354e+03 9.447897e+02 -4.785054e+02
-1.618722e+09 -1.418720e+09 -1.578720e+09 -1.277752e+02 -3.131413e+02 -4.301473e+01
-4.972645e+09 -4.772642e+09 -4.932643e+09 -2.383737e+02 7.076174e+00 -2.483696e+01
-4.300932e+09 -4.100939e+09 -4.260937e+09 -4.380425e+02 -9.638121e+02 2.191562e+01
-4.133886e+09 -3.933889e+09 -4.093891e+09 3.720313e+03 1.848501e+03 -1.275273e+03
-4.485257e+09 -4.285251e+09 -4.445271e+09 1.377764e+02 -4.812452e+03 7.155040e+02
-4.289462e+09 -4.089453e+09 -4.249469e+09 3.062534e+02 -2.070232e+03 -1.715123e+03
-3.948726e+09 -3.748724e+09 -3.908727e+09 -2.354265e+03 -1.603377e+03 -8.428377e+02
-3.962492e+09 -3.762492e+09 -3.922495e+09 -2.468977e+03 -2.065198e+03 -8.624885e+02
-4.137006e+09 -3.937015e+09 -4.097015e+09 1.372139e+03 2.695010e+03 -8.705301e+02
-4.989827e+09 -4.789834e+09 -4.949837e+09 1.603057e+03 1.171601e+03 -1.140080e+02
-4.817661e+09 -4.617663e+09 -4.777669e+09 3.489147e+03 7.928083e+02 -1.060919e+03
-3.963343e+09 -3.763343e+09 -3.923356e+09 -2.095861e+03 -4.343532e+03 -4.216265e+02
-4.127863e+09 -3.927870e+09 -4.087871e+09 1.999138e+03 3.496397e+03 -4.145523e+02
-4.315715e+09 -4.115721e+09 -4.275722e+09 2.171006e+03 1.424524e+03 -9.568115e+02
-4.644340e+09 -4.444333e+09 -4.604336e+09 -4.929084e+03 1.399531e+03 -7.434968e+02
-4.992821e+09 -4.792813e+09 -4.952833e+09 -2.564251e+03 -3.168169e+03 -2.490810e+02
-4.310095e+09 -4.110092e+09 -4.270109e+09 -1.087609e+03 -5.540145e+03 4.690047e+02
-4.133885e+09 -3.933887e+09 -4.093898e+09 -1.353570e+03 -5.278182e+03 -2.340621e+02
-4.849347e+09 -4.649345e+09 -4.809345e+09 -2.777021e+01 4.973799e-05 0.000000e+00
-4.298536e+09 -4.098527e+09 -4.258548e+09 -2.738952e+03 -3.055803e+03 -1.223361e+03
-2.772188e+09 -2.572186e+09 -2.732186e+09 -7.928733e+01 -1.243017e+02 -1.956600e+01
-4.378121e+09 -4.178123e+09 -4.338120e+09 1.328900e+01 9.899005e+00 4.222855e+00
-2.138739e+09 -1.938742e+09 -2.098738e+09 1.912956e+02 6.180021e+00 1.120920e+00
-4.951559e+09 -4.751561e+09 -4.911558e+09 2.189327e+01 6.117773e-01 -9.993357e-01
-4.298644e+09 -4.098645e+09 -4.258645e+09 -1.153198e+03 -4.971581e+01 3.179986e+01
-4.135254e+09 -3.935255e+09 -4.095255e+09 -1.360695e+03 -2.462661e+01 -1.004643e+02
-4.992713e+09 -4.792714e+09 -4.952714e+09 -1.162823e+03 1.837778e+01 -7.100213e+01
-4.653428e+09 -4.453429e+09 -4.613429e+09 -1.028961e+03 -1.444746e+01 7.382921e+01
-4.131863e+09 -3.931864e+09 -4.091864e+09 -7.623796e+02 3.869958e+00 -5.665043e+01
-4.142015e+09 -3.942016e+09 -4.102016e+09 -1.188380e+03 -3.260153e+01 1.141908e+01
-4.817661e+09 -4.617662e+09 -4.777662e+09 -8.989850e+02 2.304839e+01 -6.551737e+01
-1.576692e+09 -1.376691e+09 -1.536690e+09 -5.681965e+02 -4.818059e+02 -1.119260e+02
-4.992902e+09 -4.792901e+09 -4.952901e+09 1.929056e+03 6.468194e+01 -5.390862e+01
-4.288132e+09 -4.088130e+09 -4.248130e+09 1.472400e+03 1.317358e+02 -9.536968e+01
-4.270464e+09 -4.070463e+09 -4.230462e+09 1.510538e+03 2.323536e+02 -7.187322e+01
-3.104591e+09 -2.904590e+09 -3.064590e+09 -4.796513e+01 -1.934957e+00 9.670781e+00
-4.306544e+09 -4.106544e+09 -4.266544e+09 2.381928e+03 5.008514e+02 -2.974116e+02
-4.849345e+09 -4.649344e+09 -4.809345e+09 -7.990408e+00 0.000000e+00 0.000000e+00
-4.992798e+09 -4.792798e+09 -4.952799e+09 2.552599e+03 2.110292e+02 -1.633640e+02
-3.924956e+09 -3.724956e+09 -3.884954e+09 2.066711e+03 3.748074e+02 -3.404456e+01
-4.307328e+09 -4.107326e+09 -4.267328e+09 2.486838e+03 5.977016e+02 -4.331316e+02
-4.921179e+09 -4.721178e+09 -4.881178e+09 -1.483824e+01 -1.811557e+00 6.364623e+00
-4.667962e+09 -4.467960e+09 -4.627961e+09 1.593963e+03 4.016543e+02 -1.290908e+01
-4.097100e+09 -3.897098e+09 -4.057100e+09 2.337918e+03 7.457117e+02 -5.205819e+02
-3.454913e+09 -3.254912e+09 -3.414912e+09 -3.170895e+02 -1.383457e+01 -7.284601e+00
-4.821358e+09 -4.621358e+09 -4.781358e+09 -3.483724e+02 -4.272442e+01 1.598455e+01
-4.983061e+09 -4.783060e+09 -4.943060e+09 -6.693659e+01 1.108927e+01 7.280924e+00
-2.672822e+09 -2.472822e+09 -2.632822e+09 -9.372075e+01 -2.064947e+01 1.034590e+01
-3.673859e+09 -3.473859e+09 -3.633859e+09 -1.316985e+01 -2.320499e+01 -6.145489e+00
-4.306368e+09 -4.106369e+09 -4.266369e+09 -5.046543e+02 1.527832e+00 -2.551441e+01
-4.992729e+09 -4.792729e+09 -4.952729e+09 -4.524837e+02 -2.571404e+00 -5.601393e+01
-3.774977e+09 -3.574976e+09 -3.734977e+09 -9.536578e+01 -2.318310e+01 -1.312230e+01
-4.097031e+09 -3.897031e+09 -4.057031e+09 -3.621537e+02 8.095276e+00 -3.113859e+01
-4.307137e+09 -4.107137e+09 -4.267137e+09 -4.075600e+02 -1.330375e+01 -5.399770e+01
-4.663203e+09 -4.463204e+09 -4.623204e+09 -3.511095e+02 3.535811e+00 1.623323e+01
-4.962256e+09 -4.762255e+09 -4.922255e+09 -1.011880e+01 6.387104e+00 -2.487015e-05
-4.096999e+09 -3.896999e+09 -4.056999e+09 -3.819971e+02 1.210317e+01 -3.272183e+01
-4.114959e+09 -3.914966e+09 -4.074965e+09 -9.852746e+02 -1.848927e+03 -7.264674e+01
-4.821457e+09 -4.621461e+09 -4.781461e+09 -1.426017e+03 -6.288240e+01 1.703731e+01
-4.095950e+09 -3.895957e+09 -4.055955e+09 -1.020911e+03 -9.537609e+02 -7.822056e+00
-4.306908e+09 -4.106914e+09 -4.266915e+09 -1.089267e+03 -1.996844e+03 3.071320e+01
-4.103070e+09 -3.903076e+09 -4.063074e+09 -1.519952e+03 -1.773697e+03 -2.399681e+02
-4.306194e+09 -4.106200e+09 -4.266200e+09 -1.678867e+03 -1.915844e+03 -3.169936e+02
-4.992634e+09 -4.792639e+09 -4.952642e+09 -1.438960e+03 -7.864557e+02 1.522740e+01
-4.096668e+09 -3.896669e+09 -4.056670e+09 3.202232e+03 3.008487e+02 6.197230e+02
-4.306856e+09 -4.106856e+09 -4.266856e+09 3.360047e+03 1.422647e+02 5.278784e+02
-4.649828e+09 -4.449825e+09 -4.609830e+09 1.781527e+03 2.473945e+01 -3.058527e+02
-3.707301e+09 -3.507299e+09 -3.667299e+09 -9.003452e+01 -5.454611e+01 2.047541e+01
-3.948677e+09 -3.748668e+09 -3.908683e+09 -4.576255e+02 -2.285890e+03 -3.068671e+03
-4.269212e+09 -4.069212e+09 -4.229214e+09 2.874977e+03 1.122134e+02 -3.395099e+02
-4.305472e+09 -4.105474e+09 -4.265472e+09 1.972771e+03 2.859775e+02 -1.423249e+02
-4.780308e+09 -4.580306e+09 -4.740306e+09 -2.456905e+02 -1.155766e+02 -5.457924e+01
-3.656768e+09 -3.456768e+09 -3.616767e+09 -1.318593e+02 -8.736765e+01 -4.336767e+01
-4.982026e+09 -4.782025e+09 -4.942025e+09 -4.875882e+02 9.967867e+00 -6.778751e+01
-4.650089e+09 -4.450089e+09 -4.610090e+09 3.359806e+03 2.170225e+02 -7.578697e+01
-4.992577e+09 -4.792575e+09 -4.952576e+09 3.220881e+03 -6.841551e+01 3.025723e+02
-4.134120e+09 -3.934121e+09 -4.094120e+09 2.116696e+03 3.250047e+02 -3.008190e+01
-4.096102e+09 -3.896105e+09 -4.056105e+09 -1.793663e+03 -1.508706e+03 -3.278292e+02
-5.001359e+09 -4.801358e+09 -4.961358e+09 1.497450e+02 1.381174e+01 6.100178e-01
-4.651574e+09 -4.451580e+09 -4.611578e+09 -1.372703e+03 -2.695934e+02 -3.523522e+01
-4.991936e+09 -4.791938e+09 -4.951942e+09 -1.792938e+03 -7.853559e+02 -8.525327e+01
-3.886746e+09 -3.686744e+09 -3.846744e+09 3.421163e+01 2.338132e+00 -1.619946e+01
-4.133869e+09 -3.933872e+09 -4.093877e+09 -2.351746e+03 -2.511188e+03 -5.838034e+02
-4.306185e+09 -4.106189e+09 -4.266190e+09 -1.598791e+03 -1.988496e+03 -1.632621e+02
-5.004844e+09 -4.804842e+09 -4.964843e+09 3.412354e+01 -7.167444e+00 5.833147e+00
-4.991941e+09 -4.791935e+09 -4.951943e+09 1.700545e+03 1.983215e+02 -2.379024e+02
-3.634493e+09 -3.434492e+09 -3.594492e+09 3.377176e+01 3.714520e+00 -2.221925e+01
-3.864215e+09 -3.664214e+09 -3.824214e+09 8.587488e+01 5.057657e+00 -1.166580e+01
-3.931005e+09 -3.731010e+09 -3.891009e+09 -1.985075e+03 -1.154202e+03 -4.317200e+02
-3.892202e+09 -3.692201e+09 -3.852200e+09 3.465689e+01 3.930111e+00 -2.316915e+01
-3.234066e+09 -3.034063e+09 -3.194063e+09 5.119098e+02 3.771603e+02 -2.389353e+01
-4.276420e+09 -4.076425e+09 -4.236424e+09 -1.372566e+03 -8.337689e+02 -1.510195e+02
-4.940388e+09 -4.740387e+09 -4.900387e+09 3.241858e+01 -7.460088e-05 1.054530e+01
-3.984924e+09 -3.784934e+09 -3.944930e+09 1.386998e+02 -1.485203e+01 6.526768e+02
-4.950756e+09 -4.750755e+09 -4.910755e+09 2.182921e+01 -4.973777e-05 5.649241e-01
-3.712474e+09 -3.512473e+09 -3.672473e+09 1.068208e+01 1.861407e+00 -5.411966e+00
-4.306018e+09 -4.106019e+09 -4.266020e+09 2.786689e+03 9.144796e+02 -3.753032e+02
-1.606593e+09 -1.406592e+09 -1.566592e+09 1.287030e+01 5.779107e+00 -7.647714e-01
-4.287959e+09 -4.087966e+09 -4.247962e+09 1.261649e+03 5.499917e+02 -9.336887e+01
-2.402802e+09 -2.202807e+09 -2.362806e+09 -5.760341e+03 -4.060840e+03 4.456770e+03
-1.579002e+09 -1.379001e+09 -1.539001e+09 3.050640e+01 -1.195950e+01 -1.848745e+01
-2.523060e+09 -2.323061e+09 -2.483064e+09 -3.567010e+03 -1.682472e+03 -4.407411e+01
-4.549976e+09 -4.349974e+09 -4.509975e+09 1.383263e+01 4.667289e-01 -2.912905e+00
-2.935408e+09 -2.735419e+09 -2.895414e+09 -1.818448e+03 -9.111698e+02 4.372379e+03
-3.085142e+09 -2.885151e+09 -3.045144e+09 -4.055194e+03 -2.381882e+03 5.059306e+03
-4.477040e+09 -4.277042e+09 -4.437025e+09 -4.571411e+03 4.714201e+02 -3.551470e+03
-4.671587e+09 -4.471587e+09 -4.631581e+09 -3.036305e+03 1.462444e+03 -1.394840e+03
-1.591631e+09 -1.391632e+09 -1.551629e+09 1.722370e+03 2.909057e+02 -1.561842e+02
-4.559081e+09 -4.359083e+09 -4.519080e+09 2.115915e+02 2.952849e+01 -1.376375e+00
-4.758185e+09 -4.558188e+09 -4.718184e+09 1.156355e+02 4.375457e+01 -2.458624e+01
-4.988639e+09 -4.788635e+09 -4.948642e+09 -4.025510e+03 -7.457900e+02 6.598548e+02
-4.643266e+09 -4.443260e+09 -4.603272e+09 -3.313628e+03 4.771605e+02 5.594726e+02
-4.126752e+09 -3.926748e+09 -4.086752e+09 -3.606365e+03 -2.677536e+01 1.202828e+03
-4.988552e+09 -4.788548e+09 -4.948548e+09 -4.227392e+03 -4.919806e+01 -3.792429e+02
-4.305293e+09 -4.105290e+09 -4.265293e+09 -3.820269e+03 1.979168e+03 -1.432610e+02
-4.306656e+09 -4.106663e+09 -4.266663e+09 -2.880484e+02 -1.811625e+03 1.830466e+02
-3.090745e+09 -2.890742e+09 -3.050742e+09 -1.394645e+02 -3.382104e+02 -2.108903e-01
-1.578334e+09 -1.378333e+09 -1.538332e+09 -2.751137e+02 -3.078773e+02 2.746058e+01
-3.410403e+09 -3.210401e+09 -3.370402e+09 -1.054928e+03 -9.480080e+02 -3.474345e+02
-3.198683e+09 -2.998681e+09 -3.158681e+09 -8.389416e+01 -1.097594e+02 -2.170531e+01
-3.960353e+09 -3.760351e+09 -3.920355e+09 -2.158390e+03 -1.867590e+03 -9.635671e+02
-2.973659e+09 -2.773657e+09 -2.933657e+09 -7.551485e+01 -2.610907e+02 -1.048990e+01
-4.991975e+09 -4.791975e+09 -4.951975e+09 -4.259457e+02 5.018486e-02 -6.459005e+01
-4.305536e+09 -4.105536e+09 -4.265536e+09 -4.975369e+02 -9.966737e+00 -6.316362e+01
-4.306125e+09 -4.106125e+09 -4.266126e+09 -3.831706e+02 -1.273405e+01 -7.801482e+01
-3.924926e+09 -3.724926e+09 -3.884926e+09 -4.442458e+02 -2.458203e+01 6.261881e+01
-4.270381e+09 -4.070381e+09 -4.230381e+09 -3.278837e+02 -1.140318e+01 1.108425e+01
-4.283458e+09 -4.083458e+09 -4.243458e+09 -2.167496e+02 -1.016330e+01 2.896507e+01
-4.641302e+09 -4.441301e+09 -4.601301e+09 7.636075e+01 -1.530085e+01 -3.319812e+01
-3.955794e+09 -3.755797e+09 -3.915793e+09 1.419168e+03 1.520780e+02 -6.260581e+01
-4.092613e+09 -3.892612e+09 -4.052612e+09 3.105635e+00 6.188177e+00 -3.952626e+01
-4.657446e+09 -4.457450e+09 -4.617446e+09 8.021779e+02 6.646595e+01 -3.449778e+01
-1.586241e+09 -1.386245e+09 -1.546241e+09 6.058233e+02 -2.103892e+01 2.549890e+01
-3.785868e+09 -3.585871e+09 -3.745867e+09 3.767354e+01 1.776992e+01 1.790294e+00
-4.633599e+09 -4.433598e+09 -4.593598e+09 -5.890405e+00 5.141143e+00 -2.889808e+01
-4.067511e+09 -3.867510e+09 -4.027510e+09 4.043318e+00 3.341255e+01 -1.422333e+01
-4.264596e+09 -4.064595e+09 -4.224595e+09 -5.071237e+00 -3.628822e+00 9.614826e+00
-4.810991e+09 -4.610990e+09 -4.770990e+09 3.866047e+01 -4.648687e+00 -2.133730e+01
-3.930029e+09 -3.730028e+09 -3.890028e+09 3.408994e+01 -8.767689e+00 -2.801244e+01
-4.821018e+09 -4.621016e+09 -4.781017e+09 -2.956557e+02 -2.002670e+01 4.735585e+01
-4.649469e+09 -4.449468e+09 -4.609468e+09 -4.370886e+02 -3.458773e+01 -2.783861e+01
-4.076413e+09 -3.876411e+09 -4.036412e+09 -1.779506e+02 -7.027619e+01 1.336209e+01
-4.108208e+09 -3.908206e+09 -4.068206e+09 -2.757733e+02 -6.715037e+01 -7.881355e+01
-3.532294e+09 -3.332292e+09 -3.492293e+09 -1.726784e+01 -7.523767e+00 -8.448271e+00
-4.992342e+09 -4.792340e+09 -4.952340e+09 -4.734909e+02 -2.319750e+01 1.203536e+01
-4.133795e+09 -3.933793e+09 -4.093794e+09 -4.330805e+02 -9.766915e+01 -2.174177e+01
-4.306207e+09 -4.106205e+09 -4.266205e+09 -3.768906e+02 -9.524688e+01 2.120716e+01
-2.540600e+09 -2.340600e+09 -2.500600e+09 -1.976230e+01 -1.477912e+01 -5.036509e+01
-4.801096e+09 -4.601095e+09 -4.761095e+09 -2.007920e+02 8.317784e+00 -9.912987e+00
-4.101544e+09 -3.901551e+09 -4.061545e+09 -6.283598e+01 1.450477e+02 2.110232e-01
-3.807790e+09 -3.607789e+09 -3.767789e+09 -1.878902e+01 -5.895444e-01 -5.257032e+00
-4.649497e+09 -4.449504e+09 -4.609498e+09 2.789131e+02 3.686437e+01 -2.477233e+01
-4.990435e+09 -4.790442e+09 -4.950437e+09 1.641608e+02 1.108220e+02 1.654201e+01
-4.075436e+09 -3.875442e+09 -4.035437e+09 6.526000e+01 -3.747318e+01 5.909744e+00
-4.649437e+09 -4.449444e+09 -4.609439e+09 -1.243813e+01 9.496318e+01 -3.945748e+01
-3.935934e+09 -3.735941e+09 -3.895936e+09 4.100991e+02 1.107076e+02 -7.995469e+01
-4.133793e+09 -3.933799e+09 -4.093794e+09 -2.769549e+02 2.966509e+02 -2.626426e+01
-1.581598e+09 -1.381596e+09 -1.541596e+09 -1.174582e+03 -1.080544e+03 -2.589286e+02
-3.808063e+09 -3.608061e+09 -3.768061e+09 -1.355348e+02 -2.500027e+02 -5.160155e+01
-4.972645e+09 -4.772643e+09 -4.932643e+09 -9.510486e+01 -4.234936e+01 1.944785e+01
-4.641769e+09 -4.441760e+09 -4.601781e+09 -2.815715e+03 -2.928157e+03 -1.395392e+03
-4.819880e+09 -4.619885e+09 -4.779889e+09 -2.618239e+02 -1.375865e+03 3.445898e+00
-4.131672e+09 -3.931669e+09 -4.091672e+09 -1.942033e+03 -1.263737e+02 7.812963e+02
-4.981998e+09 -4.781998e+09 -4.941970e+09 -1.776182e+03 -1.081641e+02 -2.277617e+03
-4.996866e+09 -4.796857e+09 -4.956866e+09 -4.057213e+03 -1.349980e+03 3.607836e+00
-4.992340e+09 -4.792347e+09 -4.952341e+09 1.368892e+02 -4.530395e+01 5.188450e+01
-4.288799e+09 -4.088798e+09 -4.248799e+09 1.059200e+02 5.414291e+00 9.920093e+00
-4.306130e+09 -4.106129e+09 -4.266132e+09 3.171310e+03 1.292899e+03 -6.693768e+02
-4.096835e+09 -3.896831e+09 -4.056835e+09 2.271848e+03 9.361787e+02 -7.971644e+02
-4.944159e+09 -4.744158e+09 -4.904158e+09 3.294078e+01 2.486992e-05 1.572317e+00
-4.286556e+09 -4.086554e+09 -4.246555e+09 1.597745e+03 3.254992e+02 -1.673147e+02
-4.059881e+09 -3.859878e+09 -4.019880e+09 1.624605e+03 4.240179e+02 -2.354056e+02
-2.968706e+09 -2.768705e+09 -2.928706e+09 1.746653e+02 2.701481e+01 -1.947831e+01
-4.135000e+09 -3.935006e+09 -4.095007e+09 -1.447050e+03 -1.652377e+03 -1.334799e+02
-4.821580e+09 -4.621576e+09 -4.781579e+09 1.824456e+03 4.687957e+01 1.606980e+02
-1.549520e+09 -1.349518e+09 -1.509519e+09 3.649003e+00 2.686598e-01 -5.673510e+00
-3.948675e+09 -3.748683e+09 -3.908679e+09 1.089333e+03 8.889066e+02 -1.701902e+02
-4.302114e+09 -4.102111e+09 -4.262126e+09 -3.359805e+03 2.390493e+03 2.279988e+03
-4.475666e+09 -4.275654e+09 -4.435676e+09 3.848112e+02 1.697106e+03 1.892060e+03
-3.822645e+09 -3.622647e+09 -3.782644e+09 3.010864e+02 1.839687e+01 -1.685654e+01
-3.089634e+09 -2.889636e+09 -3.049633e+09 3.217222e+01 5.208102e+00 -1.353719e+00
-3.257917e+09 -3.057919e+09 -3.217915e+09 6.492360e+01 1.719313e+01 7.573641e+00
-4.988600e+09 -4.788594e+09 -4.948620e+09 -3.630531e+02 3.518948e+03 1.828640e+02
-4.813206e+09 -4.613200e+09 -4.773225e+09 -6.587284e+02 3.263482e+03 1.477484e+03
-4.126741e+09 -3.926735e+09 -4.086761e+09 -8.616583e+02 5.001161e+03 1.441951e+03
-4.988582e+09 -4.788578e+09 -4.948598e+09 -1.837669e+03 3.075222e+03 1.108112e+03
-4.313069e+09 -4.113072e+09 -4.273089e+09 -1.033123e+03 5.604856e+03 2.336895e+03
-1.588674e+09 -1.388677e+09 -1.548673e+09 7.809466e+01 -1.694834e+01 -5.181505e+00
-4.992694e+09 -4.792693e+09 -4.952694e+09 -5.109311e+02 1.269443e+01 -7.785097e+01
-4.637219e+09 -4.437218e+09 -4.597218e+09 -4.118743e+02 -2.248988e+01 -1.237506e+00
-4.829488e+09 -4.629487e+09 -4.789487e+09 -5.283236e+02 -1.528312e+01 -5.260872e+01
-2.057426e+09 -1.857429e+09 -2.017425e+09 8.593263e+02 9.474818e+01 -8.440704e+00
-4.976133e+09 -4.776132e+09 -4.936133e+09 -3.601886e+01 3.095295e+00 1.081374e+01
-4.653623e+09 -4.453622e+09 -4.613622e+09 -5.711219e+02 -3.640741e+01 3.102681e+01
-4.138438e+09 -3.938438e+09 -4.098438e+09 -6.103258e+02 -3.449238e+01 -4.522317e+01
-2.148654e+09 -1.948653e+09 -2.108653e+09 -2.373427e+02 -1.664994e+01 -2.024647e+01
-2.258731e+09 -2.058730e+09 -2.218731e+09 -1.900379e+01 4.172023e-01 -1.759407e+00
-4.129880e+09 -3.929880e+09 -4.089880e+09 -5.724284e+02 -8.498117e+00 -7.632718e+00
-4.820908e+09 -4.620908e+09 -4.780913e+09 -2.033888e+03 -1.074560e+03 -1.675515e+02
-4.992694e+09 -4.792693e+09 -4.952701e+09 -2.021450e+03 -1.078965e+03 -2.224357e+02
-4.827326e+09 -4.627323e+09 -4.787330e+09 -1.708263e+03 -8.899365e+02 3.603941e+01
-5.001253e+09 -4.801249e+09 -4.961258e+09 -1.498677e+03 -6.041644e+02 -3.991617e+02
-4.140861e+09 -3.940857e+09 -4.100865e+09 -2.332941e+03 -2.034240e+03 -1.842293e+03
-4.132303e+09 -3.932302e+09 -4.092308e+09 -2.370748e+03 -2.748676e+03 -8.342972e+02
-2.957517e+09 -2.757516e+09 -2.917516e+09 -2.174993e+02 -2.453113e+01 -1.696600e+01
-1.567197e+09 -1.367196e+09 -1.527196e+09 -2.397973e+02 -3.130461e+01 -1.972525e+01
-3.231219e+09 -3.031218e+09 -3.191219e+09 -3.394260e+02 -3.289351e+01 -8.101710e+00
-3.257916e+09 -3.057915e+09 -3.217915e+09 -8.077450e+00 -1.983551e-01 -4.872868e+00
-1.904311e+09 -1.704315e+09 -1.864311e+09 -1.028439e+03 -8.066717e+02 -4.777857e+01
-4.820813e+09 -4.620816e+09 -4.780814e+09 2.068437e+03 1.764610e+02 -9.194719e+01
-4.992694e+09 -4.792697e+09 -4.952695e+09 2.014177e+03 2.415846e+02 -9.273397e+01
-5.001252e+09 -4.801256e+09 -4.961253e+09 1.495906e+03 1.874161e+02 5.165665e+01
-4.829487e+09 -4.629492e+09 -4.789488e+09 1.374346e+03 2.485770e+02 -5.244329e+01
-3.452419e+09 -3.252415e+09 -3.412420e+09 -1.253438e+03 -2.099161e+03 -1.234118e+03
-4.140860e+09 -3.940865e+09 -4.100861e+09 1.697074e+03 5.281849e+02 -4.195437e+01
-4.132303e+09 -3.932307e+09 -4.092303e+09 2.036226e+03 3.272059e+02 -1.481988e+02
-4.821501e+09 -4.621502e+09 -4.781502e+09 -4.146024e+02 2.119781e+01 -2.341953e+01
-4.302898e+09 -4.102896e+09 -4.262844e+09 -3.084076e+03 -3.074846e+03 8.998730e+03
-4.129602e+09 -3.929594e+09 -4.089622e+09 1.695782e+03 4.867007e+03 -2.048782e+03
-4.092269e+09 -3.892270e+09 -4.052270e+09 -3.381890e+02 1.172453e+01 -1.978125e+01
-4.478654e+09 -4.278646e+09 -4.438648e+09 2.749173e+03 -2.056870e+03 1.835085e+03
-4.990178e+09 -4.790177e+09 -4.950177e+09 1.665367e+02 -9.643998e+00 5.631634e+00
-4.281820e+09 -4.081820e+09 -4.241820e+09 -3.514550e+02 -5.252879e+00 9.298132e+00
-4.978068e+09 -4.778066e+09 -4.938066e+09 2.262984e+03 2.103544e+01 -1.772939e+02
-3.959620e+09 -3.759614e+09 -3.919617e+09 1.395577e+03 -4.429949e+02 1.952610e+02
-3.958992e+09 -3.758996e+09 -3.918994e+09 1.233592e+02 1.586088e+01 -5.072323e+02
-4.059860e+09 -3.859861e+09 -4.019861e+09 -2.756846e+02 -3.383852e+01 -9.752234e+00
-4.649013e+09 -4.449018e+09 -4.609022e+09 -9.671248e+02 -1.201311e+03 -8.339584e+00
-4.816986e+09 -4.616987e+09 -4.776986e+09 -3.371984e+02 -2.643211e+01 3.948028e+01
-4.814609e+09 -4.614604e+09 -4.774607e+09 4.698766e+02 1.493833e+02 3.760645e+02
-4.993155e+09 -4.793150e+09 -4.953152e+09 2.093698e+03 3.899752e+01 -2.217754e+02
-3.948370e+09 -3.748368e+09 -3.908368e+09 2.170112e+03 -4.022601e+02 -2.575426e+02
-3.924997e+09 -3.724997e+09 -3.884997e+09 -4.539545e+02 -1.402266e+01 4.669789e+01
-4.301873e+09 -4.101869e+09 -4.261871e+09 5.879375e+02 1.329269e+02 1.439667e+02
-4.306183e+09 -4.106185e+09 -4.266185e+09 4.383967e+03 1.150393e+03 6.922701e+02
-4.286493e+09 -4.086497e+09 -4.246497e+09 1.887127e+03 -3.673299e+02 -2.687059e+02
-3.924631e+09 -3.724630e+09 -3.884635e+09 3.609996e+03 6.446715e+02 -5.779649e+02
-4.821848e+09 -4.621854e+09 -4.781850e+09 3.101660e+03 2.896401e+02 -7.325441e+02
-4.075506e+09 -3.875511e+09 -4.035510e+09 3.014741e+03 5.370017e+02 5.490082e+02
-4.096938e+09 -3.896945e+09 -4.056940e+09 3.362356e+03 7.967372e+02 2.553507e+03
-3.960867e+09 -3.760861e+09 -3.920864e+09 3.094552e+03 -1.584317e+03 -5.141930e+02
-4.663069e+09 -4.463076e+09 -4.623074e+09 -9.206614e+02 -3.531299e+02 -1.261699e+02
-4.299779e+09 -4.099786e+09 -4.259784e+09 -9.240848e+02 -9.699438e+02 -3.199408e+01
-4.992475e+09 -4.792465e+09 -4.952481e+09 5.417152e+02 1.789859e+03 2.967011e+02
-4.821229e+09 -4.621237e+09 -4.781236e+09 -2.334373e+02 -2.385104e+02 2.159040e+01
-4.664221e+09 -4.464229e+09 -4.624226e+09 -4.616932e+02 -4.248199e+02 -3.678712e+01
-4.107424e+09 -3.907432e+09 -4.067430e+09 -1.926970e+02 -1.753688e+03 8.827814e+01
-3.943051e+09 -3.743058e+09 -3.903057e+09 -1.325205e+03 -1.447840e+03 -2.545797e+02
-4.088770e+09 -3.888778e+09 -4.048775e+09 -3.736760e+02 -9.284002e+02 1.082966e+02
-3.924219e+09 -3.724222e+09 -3.884221e+09 -2.142333e+03 -9.466346e+02 -3.987756e+02
-4.270216e+09 -4.070219e+09 -4.230219e+09 -1.522543e+03 -7.287191e+02 -1.571262e+02
-4.815962e+09 -4.615965e+09 -4.775965e+09 -1.435707e+03 -1.096259e+02 1.424916e+02
-4.826622e+09 -4.626622e+09 -4.786623e+09 -1.332048e+03 9.286581e-01 2.909951e+01
-4.633113e+09 -4.433106e+09 -4.593110e+09 1.224057e+03 -2.545054e+02 3.608006e+02
-4.291128e+09 -4.091121e+09 -4.251125e+09 1.857234e+03 -2.891261e+02 1.049524e+02
-4.302116e+09 -4.102115e+09 -4.262134e+09 -3.857510e+03 5.291457e+03 2.803211e+03
-3.948895e+09 -3.748887e+09 -3.908894e+09 4.094794e+02 -1.495755e+02 1.204264e+03
-3.963457e+09 -3.763452e+09 -3.923454e+09 2.286076e+03 -8.724583e+02 2.431604e+02
-4.139528e+09 -3.939521e+09 -4.099535e+09 -2.232607e+03 3.160257e+03 3.719520e+03
-4.279230e+09 -4.079234e+09 -4.239233e+09 -1.152522e+03 -7.646737e+02 -1.312317e+02
-4.626610e+09 -4.426610e+09 -4.586612e+09 -1.610339e+03 -4.583553e+02 -8.726726e+01
-4.284508e+09 -4.084509e+09 -4.244511e+09 -2.014836e+03 -1.308746e+03 -4.805986e+02
-4.306193e+09 -4.106192e+09 -4.266192e+09 -7.060798e+01 6.320598e+01 -4.494396e-01
-4.993811e+09 -4.793809e+09 -4.953808e+09 2.998555e+03 4.067473e+02 3.762081e+01
-4.818481e+09 -4.618479e+09 -4.778480e+09 -8.750585e+02 -1.383385e+01 -8.117936e+01
-4.990566e+09 -4.790558e+09 -4.950563e+09 1.865433e+03 -4.194437e+02 -5.072333e+01
-4.459072e+09 -4.259065e+09 -4.419071e+09 -7.433977e+02 9.386820e+01 8.804112e+02
-4.114669e+09 -3.914668e+09 -4.074668e+09 -1.122049e+02 1.657344e+01 -4.179219e+01
-4.100069e+09 -3.900069e+09 -4.060068e+09 -8.880114e+01 4.170169e+01 -2.817953e+01
-4.285992e+09 -4.085987e+09 -4.245990e+09 3.186253e+02 6.736946e+01 1.825738e+02
-4.265071e+09 -4.065070e+09 -4.225069e+09 -6.285506e+01 -1.982477e+01 2.601545e-01
-4.640056e+09 -4.440051e+09 -4.600056e+09 -8.933422e+02 -3.961527e+01 1.333766e+02
-4.639548e+09 -4.439547e+09 -4.599547e+09 3.996515e+01 5.574671e+00 -3.670694e+01
-4.821085e+09 -4.621085e+09 -4.781084e+09 -1.381223e+02 2.361610e+00 -7.949144e+00
-3.964330e+09 -3.764320e+09 -3.924333e+09 -1.605699e+03 2.214744e+03 3.519897e+03
-4.992127e+09 -4.792137e+09 -4.952125e+09 2.294417e+03 1.576699e+01 1.091687e+03
-3.958992e+09 -3.758996e+09 -3.918994e+09 -1.176187e+03 7.792881e+01 -4.448127e+02
-4.839034e+09 -4.639042e+09 -4.799038e+09 2.148324e+03 1.855999e+01 1.388392e+03
-4.819540e+09 -4.619551e+09 -4.779542e+09 8.974441e+02 3.683674e+02 -4.025699e+02
-4.685051e+09 -4.485060e+09 -4.645055e+09 1.500750e+03 3.459514e+02 5.390470e+02
-3.924632e+09 -3.724636e+09 -3.884636e+09 4.458186e+03 1.603727e+03 5.491952e+02
-4.095475e+09 -3.895487e+09 -4.055477e+09 9.875995e+02 4.027303e+02 3.916735e+03
-4.076554e+09 -3.876563e+09 -4.036558e+09 1.858006e+03 3.744418e+02 8.199222e+02
-3.962222e+09 -3.762216e+09 -3.922233e+09 -1.928564e+03 -1.767945e+03 1.869875e+03
-4.992846e+09 -4.792846e+09 -4.952846e+09 -4.034184e+02 6.651598e+00 -4.340659e+00
-4.812150e+09 -4.612150e+09 -4.772150e+09 2.811173e+02 2.783239e+01 3.536794e+01
-4.250767e+09 -4.050767e+09 -4.210767e+09 1.453075e+02 6.992677e+00 3.959159e+01
-4.979442e+09 -4.779442e+09 -4.939434e+09 2.620688e+03 -4.360920e+02 -1.192875e+03
-4.082372e+09 -3.882373e+09 -4.042373e+09 2.785751e+02 -2.529211e+00 -2.501023e+01
-3.970815e+09 -3.770819e+09 -3.930810e+09 9.498456e+02 -6.597889e+01 -2.847722e+03
-4.988210e+09 -4.788209e+09 -4.948209e+09 1.677942e+03 -1.228135e+02 -1.949003e+02
-3.962454e+09 -3.762453e+09 -3.922453e+09 1.450548e+03 -8.907965e+00 -1.853834e+02
-4.592949e+09 -4.392949e+09 -4.552949e+09 2.866645e+02 2.115454e+01 1.413281e+01
-4.051667e+09 -3.851668e+09 -4.011668e+09 2.374992e+02 2.492812e+01 -1.899363e+01
-4.992898e+09 -4.792895e+09 -4.952896e+09 2.516083e+02 -8.289680e+01 -6.432749e+01
-2.925683e+09 -2.725682e+09 -2.885682e+09 3.036599e+01 8.074167e+00 -2.012588e+01
-3.963362e+09 -3.763362e+09 -3.923362e+09 -1.911186e+03 -9.291505e+01 1.287818e+02
-3.962055e+09 -3.762055e+09 -3.922055e+09 7.796224e+02 7.324215e+01 -1.746541e+01
-3.961710e+09 -3.761711e+09 -3.921711e+09 1.369486e+03 2.102590e+01 -7.110021e+01
-3.961710e+09 -3.761711e+09 -3.921711e+09 1.105681e+03 6.112702e+01 -8.598189e+01
-4.304801e+09 -4.104797e+09 -4.264803e+09 2.984885e+03 1.495776e+03 -1.093258e+03
-3.960374e+09 -3.760374e+09 -3.920375e+09 1.591340e+03 2.053160e+01 -9.934144e+01
-4.651564e+09 -4.451560e+09 -4.611563e+09 1.464908e+03 4.042323e+02 -6.586536e+01
-1.586471e+09 -1.386472e+09 -1.546472e+09 7.734779e+01 1.643651e+01 2.355903e+01
-4.141074e+09 -3.941076e+09 -4.101076e+09 -1.110107e+03 -4.229000e+00 1.230571e+02
-4.056088e+09 -3.856084e+09 -4.016087e+09 1.248149e+03 4.747046e+02 -2.490805e+02
-4.991942e+09 -4.791937e+09 -4.951943e+09 2.288288e+03 2.936651e+02 -2.797679e+02
-4.092892e+09 -3.892886e+09 -4.052892e+09 1.691571e+03 9.340327e+02 -1.182662e+03
-3.924837e+09 -3.724834e+09 -3.884836e+09 2.395737e+03 8.409811e+02 -4.098001e+02
-4.821245e+09 -4.621240e+09 -4.781245e+09 1.097562e+03 1.520130e+02 1.213989e+02
-3.960375e+09 -3.760375e+09 -3.920375e+09 1.239398e+03 9.197062e+01 -1.587619e+02
-3.961476e+09 -3.761477e+09 -3.921476e+09 -1.803648e+03 3.397021e+02 7.082107e+01
-4.821851e+09 -4.621857e+09 -4.781852e+09 -6.733481e+01 3.249266e+01 1.997368e+01
-4.650382e+09 -4.450388e+09 -4.610383e+09 -4.511777e+01 4.354370e+01 -2.134429e+01
-4.303190e+09 -4.103191e+09 -4.263190e+09 1.417911e+03 -9.999588e+01 -3.885843e+02
-4.314241e+09 -4.114240e+09 -4.274241e+09 4.825703e+02 -1.820814e+01 -8.584879e+01
-4.993047e+09 -4.793046e+09 -4.953046e+09 5.615257e+01 -4.303008e+00 1.141074e+01
-4.305592e+09 -4.105598e+09 -4.265593e+09 -3.093694e+02 7.408979e+01 2.898461e+01
-4.096376e+09 -3.896381e+09 -4.056376e+09 -4.100160e+02 1.230963e+02 5.230598e+00
-4.990397e+09 -4.790385e+09 -4.950407e+09 4.516793e+02 2.197086e+03 9.101689e+02
-3.929745e+09 -3.729751e+09 -3.889746e+09 -5.811552e+01 1.665618e+02 -7.090802e+01
-4.821120e+09 -4.621126e+09 -4.781121e+09 -3.983807e+02 -1.329845e+01 -5.130395e+01
-1.870148e+09 -1.670145e+09 -1.830148e+09 -9.805984e+02 3.902757e+01 -6.100354e+01
-3.965597e+09 -3.765584e+09 -3.925593e+09 5.979378e+02 -1.736585e+03 2.839230e+03
-4.077027e+09 -3.877025e+09 -4.037025e+09 -8.240305e+01 -1.120328e+02 2.827068e+01
-4.102284e+09 -3.902283e+09 -4.062283e+09 -1.005100e+02 -1.098143e+02 -5.466422e+01
-4.305594e+09 -4.105593e+09 -4.265593e+09 -2.324910e+02 -7.261067e+01 3.567572e+01
-4.986783e+09 -4.786782e+09 -4.946783e+09 7.942599e+02 -4.682777e+01 -7.719860e+01
-3.936408e+09 -3.736407e+09 -3.896407e+09 -2.591706e+02 -5.610117e+01 -3.026516e+01
-4.821122e+09 -4.621121e+09 -4.781121e+09 -5.099975e+01 -2.308156e+01 5.667314e+01
-3.965229e+09 -3.765227e+09 -3.925228e+09 5.893452e+02 9.673602e+01 -1.916775e+01
-4.651694e+09 -4.451693e+09 -4.611693e+09 1.102610e+03 2.209283e+01 -2.016037e+01
-4.280923e+09 -4.080922e+09 -4.240922e+09 1.097464e+02 1.826910e-01 1.052308e+01
-3.957085e+09 -3.757084e+09 -3.917084e+09 8.281908e+02 8.925951e+01 9.214759e+01
-4.303608e+09 -4.103607e+09 -4.263608e+09 1.059676e+03 2.482369e+01 -2.511028e+01
-3.962912e+09 -3.762911e+09 -3.922911e+09 3.859063e+02 1.142220e+02 -8.758986e+00
-4.138696e+09 -3.938695e+09 -4.098695e+09 9.210226e+02 -4.516169e+01 -1.350230e+02
-4.281945e+09 -4.081944e+09 -4.241944e+09 1.073255e+02 -3.276692e-01 3.927809e-01
-3.961905e+09 -3.761905e+09 -3.921905e+09 6.847519e+02 5.078618e+01 5.587631e+01
-5.006032e+09 -4.806030e+09 -4.966031e+09 4.025170e+02 -3.430383e+01 -1.446605e+01
-4.294360e+09 -4.094360e+09 -4.254360e+09 1.797118e+02 -2.981226e+00 3.546592e+00
-3.922710e+09 -3.722709e+09 -3.882709e+09 2.000643e+02 1.558077e+01 3.808934e+01
-3.962276e+09 -3.762277e+09 -3.922276e+09 3.592085e+02 3.902549e+01 1.541047e+01
-4.093062e+09 -3.893061e+09 -4.053061e+09 1.580608e+02 -2.980061e+00 -9.051867e+00
-4.651506e+09 -4.451508e+09 -4.611507e+09 -1.403033e+03 5.492168e+01 -5.394007e+01
-4.649428e+09 -4.449427e+09 -4.609427e+09 1.142264e+02 1.336552e+01 9.195237e+00
-4.273335e+09 -4.073334e+09 -4.233335e+09 1.582439e+02 -3.082046e+00 -4.278213e-01
-3.961334e+09 -3.761337e+09 -3.921335e+09 1.170989e+03 1.028987e+01 -3.295878e+02
-4.303085e+09 -4.103086e+09 -4.263086e+09 -4.784191e+02 -1.102327e+01 -5.239037e+00
-3.961089e+09 -3.761091e+09 -3.921090e+09 -2.147530e+02 1.177893e+01 3.363731e+01
-4.302511e+09 -4.102512e+09 -4.262512e+09 -3.656670e+02 -1.915688e+01 -3.572260e+01
-4.992743e+09 -4.792744e+09 -4.952744e+09 -3.852389e+02 6.062502e+00 -1.117717e+01
-4.820782e+09 -4.620783e+09 -4.780782e+09 3.956032e+02 1.725457e+01 3.758929e+01
-4.134917e+09 -3.934916e+09 -4.094917e+09 1.516917e+03 -7.810055e+01 -2.749865e+02
-4.305328e+09 -4.105328e+09 -4.265329e+09 -4.751090e+02 -3.653209e+00 -1.557284e+01
-3.943764e+09 -3.743765e+09 -3.903765e+09 -2.797654e+02 -3.911023e+00 -8.374187e+00
-4.470261e+09 -4.270265e+09 -4.430263e+09 -6.492459e+01 -3.353747e+01 -2.431337e+02
-4.761254e+09 -4.561255e+09 -4.721255e+09 -2.811075e+02 -9.838640e+00 2.517513e+01
-4.991897e+09 -4.791898e+09 -4.951898e+09 -3.718395e+02 -5.531000e+00 -7.718640e+00
-4.480280e+09 -4.280281e+09 -4.440281e+09 -1.935136e+03 1.515929e+01 1.879668e+01
-3.924794e+09 -3.724795e+09 -3.884795e+09 -4.191512e+02 -1.406071e+01 6.650258e+01
-4.985001e+09 -4.784994e+09 -4.945010e+09 -1.107707e+03 -1.422626e+03 -1.150963e+02
-3.963015e+09 -3.763016e+09 -3.923016e+09 -1.168002e+03 -4.685220e+01 -1.094270e+01
-3.720231e+09 -3.520226e+09 -3.680230e+09 -2.146927e+02 4.420655e+02 -1.066234e+03
-3.968009e+09 -3.768017e+09 -3.928018e+09 -1.145648e+03 2.842778e+03 4.939292e+02
-4.118754e+09 -3.918746e+09 -4.078765e+09 -1.725677e+03 -4.122458e+03 -1.676007e+03
-1.638552e+09 -1.438548e+09 -1.598550e+09 6.520478e+02 9.018046e+02 -2.373105e+02
-4.992478e+09 -4.792468e+09 -4.952483e+09 2.669610e+03 1.807709e+03 2.684936e+02
-4.987689e+09 -4.787682e+09 -4.947691e+09 -1.217800e+03 6.589970e+02 5.689613e+02
-4.313175e+09 -4.113173e+09 -4.273190e+09 -1.943654e+03 -4.420931e+03 -6.528472e+02
-4.127384e+09 -3.927374e+09 -4.087395e+09 -2.640547e+03 -3.056458e+03 -8.228962e+02
-3.961627e+09 -3.761618e+09 -3.921573e+09 -4.898811e+03 -8.430393e+03 3.854475e+03
-4.299718e+09 -4.099705e+09 -4.259729e+09 -1.419592e+03 -2.442061e+03 -1.640491e+03
-5.002179e+09 -4.802186e+09 -4.962185e+09 1.340284e+03 5.454571e+02 1.676242e+01
-4.484442e+09 -4.284448e+09 -4.444447e+09 2.221265e+03 1.216730e+03 -1.653976e+02
-4.302009e+09 -4.102015e+09 -4.262016e+09 2.631856e+03 1.759346e+03 -7.004038e+02
-4.315714e+09 -4.115721e+09 -4.275722e+09 1.538333e+03 1.542512e+03 6.026350e+02
-3.958900e+09 -3.758901e+09 -3.918923e+09 -7.221278e+02 7.264785e+03 3.762519e+02
-4.994025e+09 -4.794017e+09 -4.954031e+09 -1.737603e+02 1.078108e+03 8.960492e+02
-4.817776e+09 -4.617768e+09 -4.777789e+09 2.087378e+03 2.896213e+03 -1.623375e+03
-5.002180e+09 -4.802186e+09 -4.962185e+09 2.031652e+03 4.715724e+02 4.669041e+01
-4.141209e+09 -3.941216e+09 -4.101214e+09 2.049998e+03 1.234677e+03 -1.447121e+02
-3.961115e+09 -3.761116e+09 -3.921135e+09 1.824142e+03 6.901308e+03 -1.608448e+03
-4.990436e+09 -4.790435e+09 -4.950435e+09 -7.128345e+02 6.403356e+00 9.641274e+00
-4.131865e+09 -3.931865e+09 -4.091872e+09 4.298378e+03 2.782792e+03 -2.148667e+03
-4.814328e+09 -4.614334e+09 -4.774337e+09 2.070154e+03 6.815895e+02 -4.075782e+02
-2.124813e+09 -1.924814e+09 -2.084812e+09 -1.571698e+03 -8.116322e+02 -4.455461e+02
-4.030105e+09 -3.830112e+09 -3.990106e+09 -3.611702e+03 -1.383942e+03 2.724038e+03
-4.754188e+09 -4.554195e+09 -4.714188e+09 -3.289226e+03 2.075895e+02 -1.449015e+01
-4.990127e+09 -4.790123e+09 -4.950136e+09 -1.611934e+03 -1.368605e+03 -4.254883e+02
-4.996868e+09 -4.796858e+09 -4.956867e+09 -4.367813e+03 -1.371531e+03 1.497117e+02
-3.957577e+09 -3.757563e+09 -3.917570e+09 2.677439e+03 -6.129674e+03 6.673867e+02
-3.949743e+09 -3.749740e+09 -3.909736e+09 4.226118e+03 -1.796295e+03 -1.556633e+03
-3.962060e+09 -3.762053e+09 -3.922062e+09 -3.748958e+03 1.073281e+03 7.954795e+02
-4.991157e+09 -4.791157e+09 -4.951154e+09 -4.667102e+03 -1.944295e+02 -1.678910e+02
-3.960576e+09 -3.760575e+09 -3.920577e+09 -3.085500e+03 3.686814e+02 2.976386e+02
-4.309370e+09 -4.109360e+09 -4.269377e+09 -4.037796e+03 -2.610846e+03 4.387317e+02
-4.471642e+09 -4.271642e+09 -4.431641e+09 -4.229348e+03 -6.826739e+02 8.114902e+02
-4.128445e+09 -3.928449e+09 -4.088443e+09 -4.452508e+03 -7.840304e+02 2.008329e+03
-4.128406e+09 -3.928408e+09 -4.088403e+09 -5.223379e+03 -2.807242e+03 2.818680e+03
-4.289180e+09 -4.089187e+09 -4.249178e+09 -3.653582e+03 -9.912952e+02 3.134408e+03
-4.991193e+09 -4.791200e+09 -4.951185e+09 -3.633585e+03 -5.329966e+02 1.013796e+03
-3.983721e+09 -3.783726e+09 -3.943723e+09 -2.457144e+02 2.298533e+01 -8.074367e+02
-4.985110e+09 -4.785110e+09 -4.945110e+09 -1.094477e+03 1.912416e+01 7.540548e+01
-3.944349e+09 -3.744349e+09 -3.904349e+09 -9.444407e+02 -3.755358e+01 -5.559787e+00
-4.313276e+09 -4.113276e+09 -4.273276e+09 -1.057137e+03 -3.892092e+01 -1.266971e+01
-4.127383e+09 -3.927384e+09 -4.087384e+09 -1.269354e+03 -5.690480e+01 7.907145e+01
-4.134021e+09 -3.934021e+09 -4.094021e+09 -4.624553e+02 -4.272496e+01 2.245297e+00
-2.205441e+09 -2.005439e+09 -2.165440e+09 6.274865e+01 2.325786e+00 -1.877629e+01
-2.134681e+09 -1.934680e+09 -2.094680e+09 1.119280e+02 1.844200e+01 -9.517228e+00
-3.578432e+09 -3.378431e+09 -3.538431e+09 4.789358e+01 1.351875e+01 3.073860e+01
-1.561912e+09 -1.361910e+09 -1.521911e+09 3.241773e+01 1.549893e+01 -1.979486e+01
-4.992732e+09 -4.792733e+09 -4.952733e+09 -4.416586e+02 -5.737689e+00 -3.937812e+01
-1.834353e+09 -1.634352e+09 -1.794352e+09 9.340128e+01 2.095673e+01 -2.418440e+01
-3.200619e+09 -3.000618e+09 -3.160618e+09 8.451315e+01 5.668490e+00 -4.314373e+00
-4.663655e+09 -4.463657e+09 -4.623654e+09 9.114499e+02 -3.235010e+01 -9.379399e+00
-4.663596e+09 -4.463598e+09 -4.623595e+09 6.444132e+02 -9.327805e+00 -2.090877e+01
-1.579002e+09 -1.379001e+09 -1.539001e+09 4.579019e+01 2.649039e+01 -3.428021e+01
-4.288318e+09 -4.088320e+09 -4.248317e+09 9.082701e+02 2.262913e+01 3.220244e+01
-4.260146e+09 -4.060148e+09 -4.220145e+09 8.060655e+02 -7.419334e+00 2.206160e+01
-4.096049e+09 -3.896052e+09 -4.056048e+09 4.327678e+02 -2.382395e+01 4.086543e+01
-4.989086e+09 -4.789084e+09 -4.949085e+09 3.126449e+01 1.267871e+01 -4.604859e+00
-3.271850e+09 -3.071851e+09 -3.231851e+09 -9.579224e+01 -2.306733e+01 -2.957017e+00
-3.895454e+09 -3.695457e+09 -3.855453e+09 6.241368e+02 3.710783e-02 1.928492e+01
-4.629313e+09 -4.429316e+09 -4.589312e+09 8.311733e+02 3.160600e+01 7.690090e+00
-3.958941e+09 -3.758935e+09 -3.918943e+09 -3.094462e+03 1.052309e+03 2.078275e+03
-4.461056e+09 -4.261058e+09 -4.421041e+09 1.810266e+03 -7.490674e+02 -3.372518e+03
-2.632927e+09 -2.432933e+09 -2.592928e+09 1.441268e+02 1.030043e+01 4.463097e+01
-3.965997e+09 -3.765999e+09 -3.925983e+09 -3.462631e+03 1.604055e+03 -4.762501e+03
-4.646690e+09 -4.446690e+09 -4.606655e+09 2.486430e+03 2.728953e+03 2.896453e+03
-2.492540e+09 -2.292546e+09 -2.452541e+09 1.843222e+01 -5.883610e+01 -1.582563e+00
-2.670224e+09 -2.470230e+09 -2.630225e+09 9.740014e+01 1.761596e+01 9.593390e+00
-3.955302e+09 -3.755295e+09 -3.915312e+09 -2.505700e+03 -3.280488e+03 -2.180937e+03
-3.961361e+09 -3.761360e+09 -3.921368e+09 1.327138e+03 -3.074759e+03 2.043615e+03
-2.267219e+09 -2.067225e+09 -2.227219e+09 1.198978e+02 5.688360e+01 -1.291564e+01
-4.142242e+09 -3.942240e+09 -4.102257e+09 -2.054548e+03 -4.931855e+03 -1.482904e+02
-4.847007e+09 -4.647010e+09 -4.806995e+09 -1.810496e+03 -8.689206e+02 -3.222700e+03
-1.986871e+09 -1.786877e+09 -1.946872e+09 7.227912e+01 1.875861e+01 -2.863947e+01
-3.244351e+09 -3.044356e+09 -3.204357e+09 1.237134e+03 3.033415e+01 7.076057e+01
-4.646872e+09 -4.446878e+09 -4.606880e+09 9.998199e+02 -1.227600e+03 4.144040e+02
-4.999069e+09 -4.799057e+09 -4.959059e+09 -2.200908e+03 -4.964081e+02 -1.835598e+02
-4.081856e+09 -3.881863e+09 -4.041860e+09 2.990633e+02 -7.753389e+02 1.838541e+02
-4.135460e+09 -3.935447e+09 -4.095468e+09 -2.251462e+03 -1.676422e+03 -1.743418e+03
-4.651214e+09 -4.451222e+09 -4.611219e+09 -2.354509e+02 -3.942225e+02 2.359213e+01
-4.107777e+09 -3.907784e+09 -4.067782e+09 6.208970e+02 -1.354765e+03 2.473555e+02
-4.304099e+09 -4.104093e+09 -4.264094e+09 3.093807e+03 -9.600246e+02 -5.050554e+02
-4.991847e+09 -4.791853e+09 -4.951854e+09 2.801301e+02 -6.112308e+02 8.158309e+01
-3.935609e+09 -3.735617e+09 -3.895615e+09 -3.464656e+02 -1.631659e+03 3.665613e+00
-4.992728e+09 -4.792715e+09 -4.952695e+09 1.094144e+03 8.040008e+02 -1.973827e+02
-4.999640e+09 -4.799634e+09 -4.959655e+09 -2.252756e+03 -2.637718e+03 -6.223081e+01
-4.821114e+09 -4.621121e+09 -4.781119e+09 5.478152e+02 -3.552913e+02 8.982644e+01
-3.963125e+09 -3.763115e+09 -3.923133e+09 -3.046635e+03 -1.984792e+03 -5.305686e+02
-3.964328e+09 -3.764320e+09 -3.924333e+09 -1.223918e+03 2.104110e+03 3.245265e+03
-4.645348e+09 -4.445345e+09 -4.605364e+09 -2.441116e+03 3.570441e+03 -4.190243e+00
-4.636210e+09 -4.436209e+09 -4.596202e+09 2.899594e+03 -2.984453e+01 -1.252563e+03
-4.469971e+09 -4.269960e+09 -4.429991e+09 -8.219883e+02 4.005674e+03 1.422519e+03
-4.993058e+09 -4.793063e+09 -4.953065e+09 -2.090726e+03 5.553794e+02 6.250454e+01
-4.992272e+09 -4.792276e+09 -4.952286e+09 -1.513941e+03 1.755999e+03 -1.320799e+02
-4.622228e+09 -4.422224e+09 -4.582232e+09 -2.547401e+03 5.980502e+02 8.410312e+02
-2.487561e+09 -2.287567e+09 -2.447562e+09 -1.272016e+03 -1.073069e+03 -6.800508e+01
-4.281425e+09 -4.081423e+09 -4.241429e+09 -3.142601e+03 2.073218e+03 1.167883e+03
-3.575960e+09 -3.375964e+09 -3.535959e+09 1.108583e+02 2.506928e+01 4.007217e+01
-4.144886e+09 -3.944894e+09 -4.104895e+09 -1.036436e+03 2.645130e+03 7.559990e+02
-2.652501e+09 -2.452507e+09 -2.612502e+09 -1.521768e+03 -1.306000e+03 -4.445157e+02
-2.617895e+09 -2.417900e+09 -2.577896e+09 -7.103852e+02 -1.651795e+03 -2.125008e+02
-2.251071e+09 -2.051077e+09 -2.211072e+09 -7.692353e+02 -8.287054e+02 -9.775767e+01
-4.649207e+09 -4.449208e+09 -4.609207e+09 -5.437361e+02 -1.943793e+01 2.581995e+01
-2.220484e+09 -2.020491e+09 -2.180485e+09 -2.281841e+02 -1.375262e+02 -1.491350e+02
-4.648330e+09 -4.448336e+09 -4.608336e+09 -1.550018e+03 3.207926e+02 5.020075e+01
-3.923536e+09 -3.723535e+09 -3.883535e+09 1.371786e+02 9.387897e+00 2.758163e+01
-3.962491e+09 -3.762492e+09 -3.922495e+09 -2.229708e+03 -1.874057e+03 -4.174563e+02
-4.985337e+09 -4.785336e+09 -4.945336e+09 9.976797e+01 2.717870e+00 -3.642572e+01
-4.129766e+09 -3.929765e+09 -4.089765e+09 1.999292e+02 1.544894e+01 -1.392684e+01
-4.989553e+09 -4.789552e+09 -4.949553e+09 1.401491e+02 -5.125761e+00 -3.692086e+01
-1.882670e+09 -1.682667e+09 -1.842670e+09 -1.020534e+02 -8.444950e+02 -6.219796e+02
-4.124450e+09 -3.924449e+09 -4.084449e+09 1.606336e+02 6.227912e+00 4.282839e+00
-4.128315e+09 -3.928314e+09 -4.088314e+09 1.793621e+02 2.924780e+00 -2.363184e+01
-4.465459e+09 -4.265458e+09 -4.425458e+09 1.049020e+02 1.068320e+01 -1.323170e+01
-1.565544e+09 -1.365545e+09 -1.525543e+09 -1.555997e+03 -1.330892e+03 -2.441181e+02
-4.987802e+09 -4.787801e+09 -4.947801e+09 1.277648e+02 1.070413e+00 7.362416e+00
-3.422215e+09 -3.222214e+09 -3.382215e+09 -1.415121e+03 -1.196919e+03 -4.258415e+02
-1.565544e+09 -1.365545e+09 -1.525543e+09 -1.269647e+02 4.193352e+02 -3.961097e+01
-3.446158e+09 -3.246158e+09 -3.406158e+09 -8.812154e+02 -6.004346e+02 -3.456496e+02
-2.367877e+09 -2.167876e+09 -2.327876e+09 -1.732267e+03 -2.356701e+03 -1.005614e+03
-2.248013e+09 -2.048013e+09 -2.208012e+09 -1.836414e+03 -1.012831e+03 -4.168400e+02
-4.476400e+09 -4.276394e+09 -4.436401e+09 5.615922e+02 4.821901e+02 -8.438582e+02
-4.477212e+09 -4.277206e+09 -4.437213e+09 1.743933e+03 6.457760e+02 -5.905571e+02
-2.968535e+09 -2.768533e+09 -2.928535e+09 -1.842922e+03 -2.118642e+03 -8.501305e+02
-1.688746e+09 -1.488746e+09 -1.648744e+09 -2.128851e+03 -1.565053e+03 -5.004503e+02
-4.650427e+09 -4.450422e+09 -4.610427e+09 9.059938e+02 5.081467e+02 -4.379476e+02
-4.654640e+09 -4.454636e+09 -4.614647e+09 -1.682920e+03 -1.224413e+03 -6.050467e+02
-3.921156e+09 -3.721152e+09 -3.881156e+09 1.854771e+03 1.014684e+03 -7.480587e+02
-1.596696e+09 -1.396697e+09 -1.556695e+09 -1.779241e+03 -1.102173e+03 -3.592523e+02
-2.882799e+09 -2.682808e+09 -2.842802e+09 -1.098588e+00 -2.783966e+02 6.217592e+01
-3.882411e+09 -3.682414e+09 -3.842412e+09 -1.414418e+02 -1.750972e+02 -1.436530e+02
-4.821334e+09 -4.621328e+09 -4.781334e+09 -3.099222e+02 2.179010e+02 -1.725954e+02
-2.951280e+09 -2.751284e+09 -2.911281e+09 -7.870938e+01 -1.858607e+02 -1.774179e+02
-4.023035e+09 -3.823030e+09 -3.983035e+09 4.913384e+02 3.926540e+02 -1.956765e+02
-3.047848e+09 -2.847849e+09 -3.007848e+09 -1.953095e+03 -1.360437e+03 -4.388539e+02
-4.065809e+09 -3.865803e+09 -4.025809e+09 1.259062e+02 7.002207e+02 -1.115074e+03
-4.992071e+09 -4.792072e+09 -4.952072e+09 3.407046e+02 -1.235420e+01 -1.556468e+01
-4.992698e+09 -4.792699e+09 -4.952699e+09 3.215471e+02 -7.597155e+00 -6.278501e+00
-4.969740e+09 -4.769740e+09 -4.929740e+09 -1.888211e+03 4.382774e+01 -1.809802e+02
-3.962225e+09 -3.762216e+09 -3.922234e+09 -1.987499e+03 -1.998016e+03 1.886155e+03
-3.958992e+09 -3.758996e+09 -3.918994e+09 -9.641172e+02 1.291143e+02 -4.287161e+02
-4.083568e+09 -3.883569e+09 -4.043569e+09 2.608318e+02 -3.024586e+00 -2.875425e+01
-3.959649e+09 -3.759644e+09 -3.919652e+09 -2.915101e+03 6.134347e+02 1.971160e+03
-4.140561e+09 -3.940566e+09 -4.100556e+09 -6.450558e+02 4.112252e+02 -3.923120e+03
-4.991974e+09 -4.791975e+09 -4.951975e+09 3.233179e+02 -1.130362e+01 -1.308783e+01
-4.041461e+09 -3.841462e+09 -4.001461e+09 2.331532e+02 2.426518e+01 -1.569853e+01
-4.812103e+09 -4.612104e+09 -4.772104e+09 2.648897e+02 2.025644e+01 4.770237e+01
-4.302086e+09 -4.102081e+09 -4.262085e+09 -4.343064e+03 1.314009e+03 -4.089119e+02
-3.963343e+09 -3.763343e+09 -3.923343e+09 -9.682618e+02 -3.909456e+01 8.174141e+01
-3.919688e+09 -3.719688e+09 -3.879688e+09 3.628702e+02 2.224136e+01 6.119877e+01
-4.652173e+09 -4.452173e+09 -4.612174e+09 -1.478328e+03 -4.727416e+01 1.315486e+01
-4.650956e+09 -4.450955e+09 -4.610955e+09 5.788136e+02 9.667577e+01 4.249944e+01
-3.961433e+09 -3.761435e+09 -3.921434e+09 -2.008723e+01 1.546679e+01 3.493751e+01
-4.478730e+09 -4.278733e+09 -4.438731e+09 -1.239932e+03 7.875131e+00 -1.865723e+02
-4.305559e+09 -4.105556e+09 -4.265557e+09 2.301685e+02 -3.655877e+01 -6.867581e+01
-4.990396e+09 -4.790395e+09 -4.950394e+09 -3.711663e+03 -5.110959e+01 -3.624098e+02
-3.960786e+09 -3.760789e+09 -3.920784e+09 -2.406410e+03 9.599447e+02 -1.134065e+03
-4.127149e+09 -3.927146e+09 -4.087148e+09 -1.068351e+02 1.084164e+02 2.314358e+01
-3.961672e+09 -3.761670e+09 -3.921671e+09 4.246579e+02 1.198363e+02 9.979702e+00
-3.961154e+09 -3.761157e+09 -3.921156e+09 -5.630648e+02 1.779669e+01 -8.386790e+01
-4.991370e+09 -4.791368e+09 -4.951369e+09 4.250054e+02 -6.576034e+01 -4.296484e+01
-4.994427e+09 -4.794428e+09 -4.954428e+09 -1.603345e+03 4.834658e+00 -1.440191e+01
-4.814036e+09 -4.614033e+09 -4.774035e+09 3.604316e+02 2.020152e+02 1.505980e+02
-3.963199e+09 -3.763196e+09 -3.923198e+09 6.828023e+02 9.261676e+01 5.962528e+01
-4.988775e+09 -4.788779e+09 -4.948777e+09 -6.626269e+02 -2.762251e+01 -5.318342e+01
-3.955412e+09 -3.755412e+09 -3.915412e+09 -1.098190e+03 -8.934600e+01 -2.013476e+01
-4.648389e+09 -4.448395e+09 -4.608390e+09 -6.800556e+02 1.340020e+02 -2.317824e+01
-4.274789e+09 -4.074794e+09 -4.234789e+09 -6.206876e+02 5.309234e+01 -7.749403e+00
-3.962235e+09 -3.762238e+09 -3.922237e+09 -1.056976e+03 4.012576e+01 3.472700e+01
-4.302225e+09 -4.102229e+09 -4.262227e+09 -8.925924e+02 5.604418e+01 -1.853728e+02
-4.650843e+09 -4.450849e+09 -4.610844e+09 -3.717749e+02 4.132033e+01 -2.496872e+01
-4.986357e+09 -4.786359e+09 -4.946358e+09 -1.590902e+03 6.408855e+01 -2.768227e+02
-4.991891e+09 -4.791897e+09 -4.951892e+09 -6.929929e+02 -2.009002e+01 2.900546e+01
-4.303331e+09 -4.103332e+09 -4.263331e+09 1.309619e+03 -4.846306e+01 -2.507829e+02
-4.101656e+09 -3.901661e+09 -4.061657e+09 -6.448690e+02 6.139352e+01 6.574132e+00
-4.132458e+09 -3.932459e+09 -4.092459e+09 1.028353e+03 -4.310543e+01 -1.775091e+02
-3.924563e+09 -3.724569e+09 -3.884564e+09 -4.503805e+02 1.906715e+02 -7.140441e+01
-4.643123e+09 -4.443126e+09 -4.603125e+09 -1.468736e+03 1.491423e+00 -1.937573e+02
-3.960869e+09 -3.760859e+09 -3.920866e+09 1.641998e+03 -1.481092e+03 1.589618e+03
-4.972166e+09 -4.772165e+09 -4.932174e+09 -2.616509e+03 1.281034e+03 1.654549e+02
-4.821132e+09 -4.621137e+09 -4.781132e+09 -6.498557e+02 5.171617e+01 -5.145355e+01
-4.819153e+09 -4.619151e+09 -4.779152e+09 3.363335e+01 -8.815586e+01 -4.667139e+01
-3.960699e+09 -3.760689e+09 -3.920711e+09 -2.048143e+03 2.673561e+03 4.793598e+03
-4.649040e+09 -4.449042e+09 -4.609057e+09 -1.635539e+03 4.590082e+03 1.695959e+02
-4.137694e+09 -3.937694e+09 -4.097715e+09 -6.608538e+02 6.396364e+03 -1.848085e+02
-4.996344e+09 -4.796348e+09 -4.956358e+09 -7.276392e+02 1.418874e+03 7.015566e+00
-4.988474e+09 -4.788480e+09 -4.948482e+09 2.375116e+03 8.952928e+02 -1.943949e+02
-4.991893e+09 -4.791891e+09 -4.951892e+09 -1.175870e+02 -6.256045e+01 5.415142e+01
-4.276573e+09 -4.076572e+09 -4.236571e+09 -1.014396e+02 -3.831117e+00 1.035796e+01
-4.655539e+09 -4.455545e+09 -4.615545e+09 -9.259343e+02 7.184315e+02 4.799687e+01
-3.930472e+09 -3.730470e+09 -3.890470e+09 -6.853638e+01 -5.921288e+01 -1.481477e+01
-4.821133e+09 -4.621132e+09 -4.781132e+09 1.748621e+02 -3.881498e+01 9.329075e+01
-3.948675e+09 -3.748674e+09 -3.908675e+09 -9.080407e+02 -8.168699e+01 2.366254e+01
-4.272893e+09 -4.072892e+09 -4.232892e+09 2.697894e+02 -7.482744e+01 3.805446e+01
-4.652064e+09 -4.452056e+09 -4.612057e+09 2.527321e+03 -1.358966e+02 1.640885e+03
-4.640431e+09 -4.440429e+09 -4.600431e+09 -5.088260e+03 -4.795294e+03 -2.628940e+03
-4.099761e+09 -3.899760e+09 -4.059760e+09 1.668022e+02 -1.998011e+02 -2.224151e+01
-4.126825e+09 -3.926812e+09 -4.086820e+09 3.784564e+03 -4.449347e+03 2.495888e+02
-3.961118e+09 -3.761112e+09 -3.921125e+09 -1.739239e+03 -1.572984e+03 2.399676e+03
-4.824652e+09 -4.624643e+09 -4.784653e+09 -4.298561e+03 -6.537267e+02 -1.029613e+02
-2.242859e+09 -2.042867e+09 -2.202867e+09 -6.221576e+02 1.844064e+02 -2.097583e+02
-2.425861e+09 -2.225869e+09 -2.385868e+09 -8.089890e+02 -7.380325e+01 5.779873e+01
-2.621154e+09 -2.421164e+09 -2.581161e+09 2.018869e+02 2.489525e+02 6.149893e+02
-4.816064e+09 -4.616059e+09 -4.776069e+09 -2.067534e+03 -4.197833e+02 1.253474e+03
-1.543676e+09 -1.343684e+09 -1.503684e+09 -2.812919e+02 -1.704562e+02 2.016237e+02
-1.793782e+09 -1.593790e+09 -1.753790e+09 -2.825811e+02 1.338779e+02 2.442900e+02
-3.964154e+09 -3.764153e+09 -3.924153e+09 2.526971e+02 1.991054e+01 -2.281586e+01
-2.957331e+09 -2.757340e+09 -2.917338e+09 -6.167325e+02 -6.454010e+01 1.418314e+03
-3.437556e+09 -3.237557e+09 -3.397557e+09 2.840811e+02 4.261377e+00 1.742647e+01
-4.982556e+09 -4.782556e+09 -4.942556e+09 3.199945e+02 -2.012588e+01 -2.048091e+01
-4.986783e+09 -4.786782e+09 -4.946783e+09 5.382263e+02 -1.131883e+01 -1.490053e+01
-1.857872e+09 -1.657881e+09 -1.817881e+09 -1.055097e+03 -3.073760e+02 1.763719e+03
-1.716979e+09 -1.516989e+09 -1.676989e+09 -4.739359e+02 -5.847820e+01 2.120667e+03
-4.303639e+09 -4.103644e+09 -4.263645e+09 9.994249e+02 -1.625548e+03 5.300434e+02
-4.651092e+09 -4.451099e+09 -4.611097e+09 5.147737e+02 -3.780933e+02 1.226648e+02
-4.067945e+09 -3.867952e+09 -4.027949e+09 7.713726e+02 -6.375425e+02 2.048677e+02
-1.567651e+09 -1.367654e+09 -1.527650e+09 3.053666e+02 1.763809e+01 2.374127e+01
-2.958359e+09 -2.758362e+09 -2.918358e+09 1.022266e+03 1.817291e+02 -8.990541e+00
-4.820386e+09 -4.620392e+09 -4.780391e+09 9.293256e+02 -5.911941e+02 7.034143e+01
-4.093404e+09 -3.893410e+09 -4.053409e+09 9.448360e+02 -1.077948e+03 1.738033e+02
-1.867276e+09 -1.667279e+09 -1.827275e+09 5.859961e+01 -4.400183e-03 -1.455030e+01
-3.935985e+09 -3.735993e+09 -3.895992e+09 7.453543e+02 -1.604694e+03 3.098424e+02
-2.728081e+09 -2.528084e+09 -2.688080e+09 2.306441e+02 -1.426326e+01 3.580641e+01
-3.941740e+09 -3.741742e+09 -3.901739e+09 1.701349e+02 1.932123e+01 -5.485441e+00
-4.821097e+09 -4.621103e+09 -4.781101e+09 9.418734e+02 -4.625678e+02 1.317419e+02
-3.998958e+09 -3.798960e+09 -3.958961e+09 -2.503856e+03 -5.914544e+02 4.717151e+02
-1.740451e+09 -1.540454e+09 -1.700450e+09 2.785586e+02 5.891500e+01 -1.702048e+01
-3.960316e+09 -3.760316e+09 -3.920318e+09 -1.446913e+03 -1.676455e+02 1.985506e+01
-4.647086e+09 -4.447092e+09 -4.607087e+09 -7.051570e+02 2.468412e+02 2.434344e+00
-1.873773e+09 -1.673776e+09 -1.833772e+09 7.885125e+02 4.786272e+01 1.837734e+01
-2.225501e+09 -2.025506e+09 -2.185501e+09 1.396908e+02 -2.529376e+01 -4.255344e+01
-4.819208e+09 -4.619207e+09 -4.779209e+09 -1.173034e+03 -2.138291e+02 6.500489e+02
-4.456480e+09 -4.256477e+09 -4.416481e+09 -2.856051e+03 -2.733303e+02 -2.152060e+02
-4.302305e+09 -4.102305e+09 -4.262304e+09 -1.059727e+03 5.119972e+01 3.562926e+01
-4.476777e+09 -4.276773e+09 -4.436776e+09 -1.787852e+03 3.840357e+01 -4.760330e+02
-4.991105e+09 -4.791107e+09 -4.951106e+09 -6.809687e+02 -6.760761e+00 -2.766676e+01
-4.993516e+09 -4.793518e+09 -4.953518e+09 -1.535471e+03 -3.968146e+00 -4.669746e+01
-4.993516e+09 -4.793518e+09 -4.953518e+09 -1.464782e+03 -2.710911e+01 -7.473136e+01
-3.961450e+09 -3.761453e+09 -3.921452e+09 -1.624527e+02 -3.580340e+00 3.207964e+01
-3.940041e+09 -3.740042e+09 -3.900042e+09 -1.952515e+03 -5.948351e+01 1.958724e+02
-4.828808e+09 -4.628809e+09 -4.788809e+09 -9.254472e+02 7.702824e+00 -3.021125e+01
-4.652706e+09 -4.452701e+09 -4.612705e+09 1.434147e+03 4.605088e+02 -2.344951e+02
-4.656117e+09 -4.456118e+09 -4.616118e+09 -8.847856e+02 -3.539785e+01 2.082605e+01
-4.940332e+09 -4.740334e+09 -4.900333e+09 -2.229442e+01 9.279915e+00 2.486530e-05
-4.992478e+09 -4.792473e+09 -4.952479e+09 4.872998e+01 3.087774e+02 -3.342199e+02
-4.306983e+09 -4.106985e+09 -4.266985e+09 -1.295042e+03 -3.973304e+01 -4.473316e+01
-4.991104e+09 -4.791107e+09 -4.951106e+09 -7.436382e+02 -2.381901e+01 -2.615900e+01
-4.485247e+09 -4.285248e+09 -4.445248e+09 -1.178923e+03 -1.640927e+01 1.092677e+01
-4.041157e+09 -3.841152e+09 -4.001157e+09 -1.132877e+03 8.409741e+01 -6.505088e+01
-4.649598e+09 -4.449592e+09 -4.609599e+09 -5.993143e+02 1.812746e+02 -6.718515e+02
-4.828480e+09 -4.628481e+09 -4.788481e+09 -1.162075e+03 1.617465e+01 -1.197797e+01
-4.992713e+09 -4.792714e+09 -4.952714e+09 -1.378297e+03 9.413377e+00 -1.116131e+02
-3.963015e+09 -3.763015e+09 -3.923015e+09 -1.349789e+03 -7.060897e+01 -3.528734e+01
-4.994426e+09 -4.794427e+09 -4.954428e+09 -1.835286e+03 5.748817e+01 -2.099598e+02
-3.893721e+09 -3.693714e+09 -3.853721e+09 5.001218e+02 7.702134e+02 -1.003787e+03
-2.535642e+09 -2.335641e+09 -2.495641e+09 -2.256537e+02 -2.676135e+01 -2.227591e+00
-3.268623e+09 -3.068626e+09 -3.228623e+09 1.616224e+03 3.496990e+02 -7.817068e+01
-3.235622e+09 -3.035621e+09 -3.195621e+09 -1.772131e+02 -2.192403e+01 -1.709191e+01
-4.133964e+09 -3.933966e+09 -4.093965e+09 2.598046e+03 7.712157e+02 -4.282219e+01
-1.688691e+09 -1.488694e+09 -1.648690e+09 1.173050e+03 2.239413e+02 -3.005047e+01
-4.316622e+09 -4.116626e+09 -4.276637e+09 5.365751e+02 5.051349e+03 -2.602528e+02
-4.996345e+09 -4.796351e+09 -4.956359e+09 -5.809076e+01 1.188149e+03 4.238254e+01
-1.767917e+09 -1.567916e+09 -1.727917e+09 -3.541017e+01 -3.564585e+00 -1.323345e+01
-2.289790e+09 -2.089789e+09 -2.249789e+09 -1.394634e+02 -2.401547e+01 -3.574521e+01
-4.992030e+09 -4.792031e+09 -4.952030e+09 2.354401e+03 1.255028e+02 -7.046610e+01
-3.222106e+09 -3.022105e+09 -3.182105e+09 -2.397394e+02 -5.840533e+00 -8.714569e+00
-2.367584e+09 -2.167587e+09 -2.327583e+09 1.555174e+03 2.956331e+02 -1.287372e+02
-4.653138e+09 -4.453144e+09 -4.613140e+09 1.943364e+03 2.085738e+02 -1.536307e+02
-2.637336e+09 -2.437335e+09 -2.597335e+09 -2.173784e+02 -9.655189e+00 -9.241891e+00
-2.770414e+09 -2.570413e+09 -2.730413e+09 -1.062713e+02 -5.336377e+00 -1.977433e+01
-3.960653e+09 -3.760657e+09 -3.920663e+09 3.514192e+03 3.495198e+03 -1.109980e+03
-4.131196e+09 -3.931199e+09 -4.091204e+09 3.288028e+03 3.332656e+03 -5.269461e+02
-4.471094e+09 -4.271099e+09 -4.431102e+09 1.812245e+03 1.623797e+03 -5.980786e+02
-3.940387e+09 -3.740389e+09 -3.900388e+09 7.028509e+01 1.041770e+01 9.244589e+00
-3.498469e+09 -3.298476e+09 -3.458472e+09 -3.323200e+03 -7.416566e+02 2.184926e+03
-4.313972e+09 -4.113980e+09 -4.273983e+09 1.177855e+02 3.150647e+03 5.598345e+01
-4.660206e+09 -4.460210e+09 -4.620222e+09 -7.133074e+02 2.629036e+03 -2.273030e+02
-4.197600e+09 -3.997602e+09 -4.157601e+09 8.647895e+01 -4.843896e+00 -2.592904e+00
-4.819894e+09 -4.619896e+09 -4.779895e+09 2.895005e+02 -2.647840e+00 -5.814675e+01
-4.997706e+09 -4.797712e+09 -4.957717e+09 -1.670850e+03 7.531346e+02 2.499162e+01
-4.997707e+09 -4.797713e+09 -4.957717e+09 -7.598678e+02 1.122470e+03 2.461478e+01
-4.989826e+09 -4.789832e+09 -4.949837e+09 1.068500e+03 1.126364e+03 -8.267557e+01
-3.960128e+09 -3.760137e+09 -3.920138e+09 1.861942e+03 3.351282e+03 -3.312346e+02
-4.983425e+09 -4.783426e+09 -4.943426e+09 3.072034e+02 -9.242419e+00 3.468926e+00
-4.141354e+09 -3.941339e+09 -4.101335e+09 -1.410474e+03 6.181242e+03 2.524066e+02
-4.819907e+09 -4.619908e+09 -4.779908e+09 2.383317e+02 -6.341538e+00 4.376366e+01
-3.969942e+09 -3.769940e+09 -3.929956e+09 -2.341676e+03 -4.813728e+03 -2.329190e+02
-4.052418e+09 -3.852419e+09 -4.012419e+09 1.983911e+02 2.640222e+01 2.597349e-01
-3.909804e+09 -3.709805e+09 -3.869805e+09 2.812968e+02 1.859578e+01 4.710377e+01
-1.596696e+09 -1.396699e+09 -1.556695e+09 -2.317024e+03 -1.804852e+03 -3.965052e+02
-4.992651e+09 -4.792653e+09 -4.952653e+09 2.650046e+02 -2.236280e+01 -1.283153e+01
-1.552123e+09 -1.352136e+09 -1.512137e+09 -1.089720e+03 -1.453203e+02 4.291956e+03
-4.983662e+09 -4.783653e+09 -4.943651e+09 -4.502841e+03 -2.425127e+03 -8.133965e+02
-4.999073e+09 -4.799059e+09 -4.959060e+09 -4.743176e+03 -9.051922e+02 -1.509882e+03
-3.911657e+09 -3.711658e+09 -3.871658e+09 3.444157e+02 2.605520e+01 5.968149e+01
-4.077069e+09 -3.877073e+09 -4.037069e+09 -5.458223e+02 5.204452e+01 2.128245e+00
-1.688850e+09 -1.488855e+09 -1.648851e+09 -3.046089e+03 -2.495362e+03 -7.675037e+02
-4.655836e+09 -4.455825e+09 -4.615828e+09 -6.218757e+03 -1.773932e+03 -7.153195e+02
-3.963121e+09 -3.763115e+09 -3.923133e+09 -1.462740e+03 -2.078240e+03 3.823767e+02
-4.991760e+09 -4.791753e+09 -4.951763e+09 -4.621280e+03 -1.473456e+03 1.014724e+02
-4.668478e+09 -4.468483e+09 -4.628479e+09 -3.710069e+02 9.012450e+01 -2.074857e+01
-4.651031e+09 -4.451036e+09 -4.611031e+09 -6.207444e+02 4.045807e+01 -2.257161e+01
-4.122436e+09 -3.922444e+09 -4.082440e+09 1.834365e+01 -3.289527e+02 4.939135e+01
-4.270664e+09 -4.070669e+09 -4.230665e+09 -2.238775e+02 9.243671e+01 -3.379556e+01
-4.992554e+09 -4.792559e+09 -4.952555e+09 -6.648850e+02 -5.394582e-01 1.301625e+01
-3.960651e+09 -3.760650e+09 -3.920666e+09 -5.791906e+02 -4.263139e+03 1.395981e+03
-3.969942e+09 -3.769939e+09 -3.929956e+09 -1.163792e+03 -4.820016e+03 5.878226e+02
-3.961705e+09 -3.761706e+09 -3.921681e+09 4.417554e+03 4.227185e+03 1.084160e+04
-4.458205e+09 -4.258209e+09 -4.418205e+09 -9.184441e+02 3.009652e+01 1.310324e+01
-4.828489e+09 -4.628482e+09 -4.788502e+09 -2.807317e+03 -1.950986e+03 1.694646e+00
-4.992552e+09 -4.792556e+09 -4.952552e+09 -8.769059e+02 2.906696e+01 5.845908e+01
-4.647467e+09 -4.447471e+09 -4.607467e+09 -6.471100e+02 3.153826e+01 -4.247565e+01
-2.270138e+09 -2.070137e+09 -2.230137e+09 -3.099551e+02 -2.393712e+01 -1.848935e+01
-1.570887e+09 -1.370886e+09 -1.530887e+09 -7.767042e+01 -2.577725e+01 -2.162233e+01
-4.994772e+09 -4.794771e+09 -4.954771e+09 -6.694311e+01 8.649337e+00 3.649525e+01
-2.798686e+09 -2.598685e+09 -2.758686e+09 -9.619924e+00 -9.557153e-02 -3.496879e+00
-3.929846e+09 -3.729851e+09 -3.889847e+09 -7.836176e+02 2.254717e+02 -4.015677e+01
-3.993520e+09 -3.793520e+09 -3.953519e+09 3.676079e+02 -1.194267e+02 -5.726721e+01
-4.269607e+09 -4.069606e+09 -4.229606e+09 9.070893e+01 -7.087150e+01 1.160661e+00
-4.661503e+09 -4.461502e+09 -4.621503e+09 -1.079220e+01 -1.987878e+00 -7.336428e+00
-4.647747e+09 -4.447746e+09 -4.607746e+09 9.165493e+01 -1.861743e+00 -2.261558e+01
-5.005563e+09 -4.805563e+09 -4.965563e+09 -2.393524e+02 -2.585817e+01 5.925083e+01
-4.992556e+09 -4.792555e+09 -4.952555e+09 1.186560e+02 -3.077650e+01 4.130954e+01
-3.960738e+09 -3.760737e+09 -3.920737e+09 -7.319935e+02 -8.828700e+01 3.155801e+00
-4.302571e+09 -4.102574e+09 -4.262572e+09 -1.654515e+03 1.773771e+02 1.080618e+02
-4.455890e+09 -4.255890e+09 -4.415890e+09 8.016666e+02 -2.167011e+02 1.243756e+02
-4.992553e+09 -4.792552e+09 -4.952553e+09 2.465466e+02 7.332392e+01 -6.754505e+00
-3.960428e+09 -3.760428e+09 -3.920428e+09 -7.233837e+02 -7.097659e+01 -1.021196e+01
-3.024706e+09 -2.824705e+09 -2.984706e+09 -1.593545e+02 -1.649495e+01 -1.185995e+01
-4.624418e+09 -4.424418e+09 -4.584417e+09 4.694898e+02 -8.753113e+01 2.370096e+00
-3.927951e+09 -3.727949e+09 -3.887949e+09 2.208251e+02 -1.123417e+02 1.708523e+01
-1.568705e+09 -1.368703e+09 -1.528704e+09 5.135746e+00 4.380674e+00 -2.936108e+00
-1.549520e+09 -1.349518e+09 -1.509519e+09 1.272564e+01 1.031056e+01 -7.502003e+00
-4.594643e+09 -4.394642e+09 -4.554642e+09 1.636615e+01 5.257598e+00 -1.123233e+01
-4.822517e+09 -4.622521e+09 -4.782519e+09 1.020027e+03 -2.396780e+02 3.188908e+01
-4.820858e+09 -4.620860e+09 -4.780859e+09 -9.510797e+01 1.556431e+01 6.155524e+00
-4.649307e+09 -4.449309e+09 -4.609309e+09 1.017637e+03 -2.734809e+02 1.229728e+02
-4.977797e+09 -4.777796e+09 -4.937796e+09 7.803336e+01 -3.719904e+00 7.256880e+00
-4.964915e+09 -4.764913e+09 -4.924914e+09 4.421210e+01 -4.041013e+00 5.907978e+00
-4.280149e+09 -4.080152e+09 -4.240151e+09 1.083389e+03 -5.250521e+02 5.761850e+01
-4.476486e+09 -4.276488e+09 -4.436488e+09 8.191208e+02 -7.325913e+02 3.597818e+02
-1.626557e+09 -1.426556e+09 -1.586557e+09 -2.799858e+00 -4.881496e+00 -8.216542e+00
-4.652487e+09 -4.452494e+09 -4.612491e+09 3.766236e+02 -4.287667e+02 9.815228e+01
-3.918392e+09 -3.718391e+09 -3.878391e+09 -1.018442e+01 -6.784988e+00 -4.770943e+00
-4.320066e+09 -4.120068e+09 -4.280067e+09 1.227082e+02 8.152405e-01 -1.022700e+01
-4.774414e+09 -4.574413e+09 -4.734413e+09 -1.732533e+01 -9.947598e-01 1.147585e+01
-4.992533e+09 -4.792538e+09 -4.952537e+09 9.474174e+02 -3.272674e+02 7.964574e+01
-4.068899e+09 -3.868904e+09 -4.028901e+09 1.068166e+03 -4.689813e+02 1.629073e+02
-1.591182e+09 -1.391180e+09 -1.551180e+09 -1.702318e+01 -1.121382e+02 -1.808496e+01
-4.820652e+09 -4.620653e+09 -4.780653e+09 3.143651e+02 1.212093e+01 3.892434e+01
-3.901300e+09 -3.701300e+09 -3.861299e+09 -8.598550e+01 -1.177463e+02 -4.961330e+01
-3.921608e+09 -3.721613e+09 -3.881612e+09 1.218456e+03 -1.429858e+03 3.903322e+02
-3.886808e+09 -3.686809e+09 -3.846807e+09 -2.753398e+02 7.558426e+01 -3.218947e+01
-5.002021e+09 -4.802021e+09 -4.962019e+09 1.034099e+03 4.946367e+01 1.848999e+01
-2.202788e+09 -2.002790e+09 -2.162786e+09 1.085687e+02 1.360177e+01 2.223238e+00
-1.591693e+09 -1.391695e+09 -1.551692e+09 2.296672e+01 2.075281e+00 8.631345e+00
-4.630234e+09 -4.430236e+09 -4.590233e+09 -3.598900e+02 1.240416e+00 -7.474692e+01
-4.468616e+09 -4.268616e+09 -4.428616e+09 -1.003698e+02 -1.743060e+01 -1.951003e+01
-4.476487e+09 -4.276488e+09 -4.436486e+09 -6.148174e+02 3.438427e+01 -3.080057e+01
-4.281473e+09 -4.081473e+09 -4.241472e+09 -3.002058e+02 -2.455517e+01 -2.958619e+00
-1.638792e+09 -1.438792e+09 -1.598792e+09 -2.502490e+01 -3.577870e+01 4.600142e-01
-4.664552e+09 -4.464552e+09 -4.624552e+09 -2.202552e+02 7.393254e+00 -8.302708e+01
-1.638616e+09 -1.438617e+09 -1.598617e+09 -2.571135e+01 -2.418593e+01 2.918600e+00
-3.155357e+09 -2.955356e+09 -3.115356e+09 -1.313153e+01 2.091234e+00 -8.534617e+00
-1.906968e+09 -1.706967e+09 -1.866967e+09 -1.374042e+02 -1.316963e+01 2.175226e+01
-4.402695e+09 -4.202694e+09 -4.362695e+09 -6.309762e+00 -1.031979e+00 -3.826903e-01
-4.992539e+09 -4.792539e+09 -4.952538e+09 -4.407175e+02 5.494680e+00 2.177963e+01
-4.070086e+09 -3.870087e+09 -4.030085e+09 -4.178382e+02 5.201706e+01 -7.131367e+01
-1.568705e+09 -1.368703e+09 -1.528704e+09 1.139152e-02 4.561802e+00 -3.791627e+00
-2.949950e+09 -2.749946e+09 -2.909948e+09 -3.410376e+02 -8.626221e+02 -1.972078e+02
-4.458190e+09 -4.258191e+09 -4.418189e+09 -5.862457e+02 2.408038e+01 -4.735705e+01
-4.399207e+09 -4.199205e+09 -4.359205e+09 -3.524267e+01 -2.509836e+01 -6.743285e+01
-4.475782e+09 -4.275782e+09 -4.435781e+09 -5.692547e+02 -3.988450e+01 -4.962757e+01
-3.923511e+09 -3.723511e+09 -3.883510e+09 -5.035432e+02 -7.568794e+01 -8.652968e+01
-4.123807e+09 -3.923794e+09 -4.083743e+09 -3.755935e+03 3.465637e+03 -8.539344e+03
-4.818596e+09 -4.618590e+09 -4.778591e+09 3.428425e+03 -1.318456e+03 -3.229759e+02
-4.478653e+09 -4.278643e+09 -4.438652e+09 7.654756e+02 2.419720e+02 1.294974e+03
-3.962060e+09 -3.762053e+09 -3.922063e+09 -3.639317e+03 1.481295e+03 1.747074e+03
-2.656644e+09 -2.456640e+09 -2.616642e+09 3.264932e+02 8.279146e+02 -1.230888e+02
-4.990567e+09 -4.790561e+09 -4.950564e+09 2.501111e+03 2.730273e+02 -2.297315e+01
-4.133280e+09 -3.933274e+09 -4.093277e+09 2.326956e+03 -9.302124e+02 2.212346e+01
-3.967165e+09 -3.767153e+09 -3.927169e+09 -4.262111e+03 4.195589e+03 7.971527e+02
-4.278631e+09 -4.078624e+09 -4.238607e+09 -5.177883e+03 2.875754e+03 -7.843049e+03
-4.297191e+09 -4.097188e+09 -4.257179e+09 -6.607231e+03 5.232166e+03 -5.135106e+03
-4.482112e+09 -4.282102e+09 -4.442111e+09 3.661349e+02 3.877743e+01 2.038503e+03
-4.138185e+09 -3.938172e+09 -4.098187e+09 -5.256826e+03 3.657894e+03 -4.149154e+02
-4.304104e+09 -4.104094e+09 -4.264102e+09 -3.345783e+02 1.752096e+02 1.223224e+03
-4.820551e+09 -4.620545e+09 -4.780563e+09 -2.277372e+03 2.491150e+03 2.190068e+03
-4.978594e+09 -4.778587e+09 -4.938592e+09 1.082115e+03 1.219234e+02 -2.554640e+02
-4.135421e+09 -3.935410e+09 -4.095415e+09 1.415969e+03 -1.360510e+03 2.549088e+03
-4.304505e+09 -4.104506e+09 -4.264504e+09 1.698886e+03 2.941375e+02 -1.888941e+02
-5.010201e+09 -4.810200e+09 -4.970199e+09 1.152936e+03 -2.406615e+02 8.629178e+01
-3.924413e+09 -3.724415e+09 -3.884412e+09 1.639718e+03 2.013819e+02 5.904892e+01
-4.991022e+09 -4.791019e+09 -4.951030e+09 3.043751e+03 1.035245e+03 -4.918868e+02
-3.961116e+09 -3.761118e+09 -3.921136e+09 2.442549e+03 6.882856e+03 -1.681345e+03
-3.969835e+09 -3.769842e+09 -3.929854e+09 -7.933932e+02 6.249019e+03 6.935384e+02
-3.966647e+09 -3.766655e+09 -3.926661e+09 -2.086775e+02 4.572661e+03 1.845201e+02
-4.114000e+09 -3.914001e+09 -4.074009e+09 -3.466130e+03 2.895587e+03 1.705025e+03
-4.305809e+09 -4.105810e+09 -4.265820e+09 -4.088248e+03 3.890995e+03 2.326439e+03
-3.959204e+09 -3.759208e+09 -3.919212e+09 -2.716689e+03 2.759404e+03 5.565630e+02
-4.670152e+09 -4.470153e+09 -4.630151e+09 9.009785e+02 -1.231157e+01 -2.514176e+01
-4.297465e+09 -4.097468e+09 -4.257465e+09 1.503416e+03 1.472666e+02 -5.078480e+01
-4.145440e+09 -3.945445e+09 -4.105454e+09 -1.167551e+03 4.182547e+03 5.778147e+02
-4.288584e+09 -4.088586e+09 -4.248583e+09 1.005001e+03 9.210968e+01 2.029765e+01
-3.900197e+09 -3.700198e+09 -3.860195e+09 1.177992e+03 1.412433e+02 -8.282938e+01
-4.277479e+09 -4.077480e+09 -4.237477e+09 1.345654e+03 1.726701e+02 -3.081766e+01
-4.657663e+09 -4.457664e+09 -4.617662e+09 1.358002e+03 -3.454835e+01 -6.968367e+01
-4.105657e+09 -3.905658e+09 -4.065658e+09 -1.979996e+03 9.942936e+01 -2.093022e+02
-4.830516e+09 -4.630518e+09 -4.790514e+09 9.678536e+02 -4.165803e+01 6.253871e+01
-3.960371e+09 -3.760371e+09 -3.920371e+09 -2.361332e+03 1.106311e+02 2.249113e+02
-4.670104e+09 -4.470104e+09 -4.630104e+09 -2.077347e+02 -3.061862e+01 -7.879047e+00
-4.275311e+09 -4.075311e+09 -4.235311e+09 -3.064102e+02 -6.048471e+00 -4.749011e+00
-3.969880e+09 -3.769883e+09 -3.929882e+09 -1.107134e+03 -5.409181e+00 -1.011751e+02
-3.963818e+09 -3.763819e+09 -3.923819e+09 -1.406012e+03 -3.558404e+01 -2.406874e+01
-4.313850e+09 -4.113852e+09 -4.273852e+09 -1.311948e+03 2.746541e+01 -4.587261e+01
-4.283273e+09 -4.083274e+09 -4.243274e+09 -1.828535e+03 6.117149e+01 6.550699e+00
-4.299890e+09 -4.099893e+09 -4.259892e+09 -1.512687e+03 -7.866880e+01 -3.490803e+02
-4.470567e+09 -4.270571e+09 -4.430568e+09 -1.091420e+03 1.916530e+02 -6.869516e+02
-4.094058e+09 -3.894058e+09 -4.054058e+09 -3.360344e+02 1.028493e+01 -1.362881e+01
-4.142657e+09 -3.942659e+09 -4.102658e+09 -1.272074e+03 5.208899e+00 -4.181127e+01
-4.297378e+09 -4.097378e+09 -4.257378e+09 -3.906730e+02 -6.393520e+00 -5.326765e+00
-4.640708e+09 -4.440707e+09 -4.600707e+09 -2.683569e+02 -1.492771e+01 -1.887644e+01
-4.992610e+09 -4.792609e+09 -4.952609e+09 3.823838e+02 -5.838624e+01 -6.962237e+01
-4.830463e+09 -4.630462e+09 -4.790462e+09 -2.203966e+02 -5.881940e+00 1.697824e+01
-4.265636e+09 -4.065633e+09 -4.225636e+09 -1.076183e+03 -5.603144e+02 -2.159258e+02
-3.924038e+09 -3.724036e+09 -3.884037e+09 -1.157639e+03 -6.232374e+02 -2.200879e+02
-4.635883e+09 -4.435883e+09 -4.595883e+09 -6.858169e+02 -2.557203e+02 2.905112e+01
-4.482506e+09 -4.282505e+09 -4.442505e+09 -8.616504e+02 -1.932267e+02 -1.562048e+02
-4.827562e+09 -4.627561e+09 -4.787561e+09 1.687480e+02 -3.217277e+00 -2.584734e+01
-3.828194e+09 -3.628194e+09 -3.788194e+09 -1.338623e+03 -7.073878e+02 -7.694292e+01
-4.254003e+09 -4.054004e+09 -4.214003e+09 -1.459414e+03 -6.124734e+02 -2.033506e+02
-3.964512e+09 -3.764511e+09 -3.924511e+09 6.916160e+02 7.712467e+01 -2.546388e+01
-3.968983e+09 -3.768983e+09 -3.928983e+09 5.037030e+02 4.936951e+01 -6.226791e+01
-4.658062e+09 -4.458065e+09 -4.618064e+09 -1.174374e+03 -3.403642e+02 -1.363115e+01
-4.302608e+09 -4.102608e+09 -4.262608e+09 1.174227e+03 -2.325007e+01 -2.672862e+02
-4.479309e+09 -4.279309e+09 -4.439309e+09 1.005041e+03 5.094227e+01 -5.038650e+01
-1.583810e+09 -1.383810e+09 -1.543810e+09 2.409836e+02 3.077628e+01 -4.799938e+01
-4.809144e+09 -4.609143e+09 -4.769143e+09 -3.902015e+02 8.909277e+00 9.272504e+00
-4.991240e+09 -4.791242e+09 -4.951240e+09 -1.568545e+03 -3.007768e+01 5.235843e+01
-2.672209e+09 -2.472205e+09 -2.632207e+09 -3.565196e+02 -8.649307e+02 -2.501891e+02
-4.261735e+09 -4.061734e+09 -4.221735e+09 -2.677944e+02 9.883529e+00 8.634400e+00
-4.091458e+09 -3.891457e+09 -4.051457e+09 -2.752227e+02 -1.939645e+01 2.445483e+01
-4.819094e+09 -4.619094e+09 -4.779094e+09 -3.429954e+02 1.881892e+01 -3.964814e+00
-4.776702e+09 -4.576699e+09 -4.736701e+09 -2.927994e+02 -9.941590e+01 5.577181e+01
-1.560607e+09 -1.360606e+09 -1.520606e+09 2.388637e+01 1.910921e+01 -1.298709e+01
-1.688790e+09 -1.488790e+09 -1.648790e+09 3.371370e+02 5.387429e+01 -2.223723e+00
-2.704516e+09 -2.504518e+09 -2.664516e+09 5.333468e+01 -1.001551e+02 -3.489395e+01
-4.645558e+09 -4.445558e+09 -4.605557e+09 -1.526139e+03 1.516649e+02 -1.113095e-01
-4.999741e+09 -4.799742e+09 -4.959742e+09 -9.609526e+02 -2.222278e+01 -7.610271e+01
-4.992050e+09 -4.792049e+09 -4.952050e+09 -3.525419e+02 1.045629e+01 -7.557636e+01
-4.485576e+09 -4.285576e+09 -4.445576e+09 -9.751523e+02 -1.697739e+01 2.888288e+01
-1.924012e+09 -1.724011e+09 -1.884011e+09 -2.845524e+02 -3.202262e+01 -2.907531e+01
-4.129236e+09 -3.929236e+09 -4.089236e+09 -4.696408e+02 -3.043858e+01 -5.804235e+01
-4.644421e+09 -4.444420e+09 -4.604420e+09 -5.625574e+02 -2.483137e+01 6.090197e+01
-2.370718e+09 -2.170717e+09 -2.330718e+09 -3.991580e+02 -2.269905e+01 -4.201269e+00
-4.640698e+09 -4.440701e+09 -4.600697e+09 1.501720e+03 5.245309e+01 4.862334e+01
-4.470884e+09 -4.270884e+09 -4.430884e+09 -1.282992e+03 -3.375640e+01 1.820457e+01
-4.470616e+09 -4.270616e+09 -4.430617e+09 -1.257155e+03 -5.102219e+01 2.983172e+01
-4.811566e+09 -4.611570e+09 -4.771566e+09 1.474233e+03 8.914874e+01 1.855685e+01
-3.577018e+09 -3.377017e+09 -3.537017e+09 2.420496e+03 1.100011e+03 -5.959580e+02
-3.960011e+09 -3.760018e+09 -3.920014e+09 1.677930e+03 7.350740e+02 -1.949536e+02
-4.100328e+09 -3.900330e+09 -4.060327e+09 1.364611e+03 2.121438e+02 -7.787631e+01
-3.960129e+09 -3.760137e+09 -3.920139e+09 1.572405e+03 2.824192e+03 -4.628792e+02
-3.930009e+09 -3.730011e+09 -3.890008e+09 1.246556e+03 9.613399e+01 -1.037083e+02
-4.658947e+09 -4.458954e+09 -4.618953e+09 2.168523e+03 8.472124e+02 -3.802631e+01
-4.303361e+09 -4.103369e+09 -4.263369e+09 1.301334e+03 1.949194e+03 -3.227547e+01
-4.812462e+09 -4.612466e+09 -4.772462e+09 1.086662e+03 -2.934491e+01 -1.238402e+01
-4.125997e+09 -3.926000e+09 -4.085996e+09 1.134699e+03 1.821215e+02 5.018606e+01
-4.469229e+09 -4.269233e+09 -4.429229e+09 1.226179e+03 4.603158e+01 -1.395966e+01
-3.451385e+09 -3.251381e+09 -3.411383e+09 1.353152e+03 9.379595e+02 -5.037360e+02
-3.608271e+09 -3.408276e+09 -3.568271e+09 8.800596e+01 3.918620e+01 -8.759706e+00
-4.813693e+09 -4.613696e+09 -4.773692e+09 1.128472e+03 8.289060e+01 -8.070626e+01
-3.059374e+09 -2.859372e+09 -3.019376e+09 1.443988e+03 -4.007830e+02 -1.446596e+03
-4.106011e+09 -3.906008e+09 -4.066011e+09 -1.669745e+03 -9.263545e+02 -5.728569e+02
-4.313788e+09 -4.113773e+09 -4.273795e+09 -3.742265e+03 -1.465306e+03 -1.480544e+02
-4.449243e+09 -4.249241e+09 -4.409245e+09 -1.822402e+03 -8.950892e+02 -3.131793e+02
-4.648753e+09 -4.448757e+09 -4.608762e+09 -1.723232e+03 -1.043862e+03 -2.663681e+02
-3.962676e+09 -3.762679e+09 -3.922685e+09 -2.302409e+03 -3.642747e+03 -5.647246e+02
-4.470870e+09 -4.270855e+09 -4.430866e+09 8.333455e+02 1.047736e+03 -6.862390e+02
-4.470616e+09 -4.270602e+09 -4.430628e+09 -3.181726e+03 -2.540134e+03 -7.222926e+02
-1.890290e+09 -1.690300e+09 -1.850293e+09 -2.033562e+03 -3.076000e+03 -4.886893e+02
-4.813294e+09 -4.613295e+09 -4.773296e+09 -1.784973e+03 -7.563123e+02 -1.191922e+02
-4.992189e+09 -4.792190e+09 -4.952193e+09 -1.791358e+03 -7.141237e+02 -1.342575e+02
-4.151538e+09 -3.951537e+09 -4.111537e+09 4.133095e+02 1.863894e+01 -1.940446e+01
-4.131798e+09 -3.931798e+09 -4.091802e+09 -2.516411e+03 -2.239215e+03 -9.314056e+02
-4.298565e+09 -4.098564e+09 -4.258565e+09 3.302642e+02 -1.262773e+01 -1.092635e+01
-4.289477e+09 -4.089476e+09 -4.249480e+09 -1.988281e+03 -1.455942e+03 -5.264283e+02
-3.952858e+09 -3.752857e+09 -3.912858e+09 3.508936e+02 2.865386e+01 -6.185069e+01
-3.872284e+09 -3.672283e+09 -3.832284e+09 -1.423478e+03 -7.456163e+02 -1.379161e+02
-4.283377e+09 -4.083377e+09 -4.243380e+09 -1.581084e+03 -1.468170e+03 -3.127956e+02
-4.978424e+09 -4.778422e+09 -4.938425e+09 -1.494786e+03 -6.278049e+02 -9.193974e+01
-4.075207e+09 -3.875208e+09 -4.035208e+09 -1.636957e+03 -1.282259e+03 -2.718727e+02
-4.822426e+09 -4.622430e+09 -4.782418e+09 8.690163e+02 1.314100e+02 -2.444721e+03
-4.292978e+09 -4.092975e+09 -4.252972e+09 3.770942e+03 -1.079010e+03 6.288659e+01
-4.459515e+09 -4.259510e+09 -4.419507e+09 3.701332e+03 -1.649027e+03 -1.650483e+02
-4.458118e+09 -4.258120e+09 -4.418109e+09 2.701042e+03 -1.134334e+03 -2.335062e+03
-4.987278e+09 -4.787273e+09 -4.947270e+09 2.782121e+03 -7.398383e+02 -7.952572e+01
-3.973598e+09 -3.773598e+09 -3.933598e+09 3.683732e+02 3.211214e+01 -5.172313e+01
-4.459513e+09 -4.259510e+09 -4.419501e+09 3.922536e+03 -1.593572e+03 -5.678741e+02
-4.656584e+09 -4.456583e+09 -4.616584e+09 4.029894e+02 4.488839e+01 2.555186e+01
-4.479193e+09 -4.279196e+09 -4.439187e+09 1.224001e+03 -5.421187e+02 -2.141050e+03
-4.300639e+09 -4.100643e+09 -4.260635e+09 -7.735968e+02 5.724121e+02 -2.328072e+03
-5.002315e+09 -4.802316e+09 -4.962314e+09 7.538258e+02 5.844766e+01 2.236635e+01
-4.563706e+09 -4.363703e+09 -4.523704e+09 4.715034e+02 1.260261e+02 -2.647480e+01
-4.135785e+09 -3.935788e+09 -4.095781e+09 1.090861e+03 4.830642e+02 -1.910228e+03
-4.299241e+09 -4.099245e+09 -4.259237e+09 1.277998e+03 -7.451198e+02 -1.760253e+03
-3.205956e+09 -3.005958e+09 -3.165954e+09 1.340951e+02 3.284941e+01 -5.613405e+00
-2.632755e+09 -2.432754e+09 -2.592753e+09 3.830211e+02 2.839579e+02 -5.452105e+00
-4.465774e+09 -4.265778e+09 -4.425773e+09 9.880879e+02 -6.907845e+01 -1.005691e+03
-4.987272e+09 -4.787276e+09 -4.947271e+09 5.357840e+02 -2.404171e+01 -6.734985e+02
-3.957584e+09 -3.757576e+09 -3.917579e+09 2.274839e+03 -6.600348e+02 2.950318e+03
-4.980815e+09 -4.780819e+09 -4.940812e+09 9.193138e+01 1.046967e+01 -2.404494e+02
-4.299242e+09 -4.099246e+09 -4.259241e+09 -3.713068e+02 -5.513209e+01 -1.023468e+03
-3.568384e+09 -3.368382e+09 -3.528383e+09 1.270408e+00 1.325741e+00 2.613856e-01
-3.960870e+09 -3.760861e+09 -3.920868e+09 2.846383e+02 4.584959e+02 1.911733e+03
-3.957992e+09 -3.757982e+09 -3.917994e+09 -1.578220e+03 1.017513e+03 3.210528e+03
-3.958883e+09 -3.758882e+09 -3.918900e+09 -3.575224e+03 5.361952e+03 3.227929e+03
-4.405127e+09 -4.205126e+09 -4.365126e+09 3.073800e+01 7.452716e+00 -1.958906e+00
-3.957991e+09 -3.757984e+09 -3.917991e+09 -1.948789e+03 7.029799e+02 1.373205e+03
-4.461951e+09 -4.261942e+09 -4.421949e+09 -6.990345e+01 2.953924e+01 7.312728e+02
-3.744900e+09 -3.544899e+09 -3.704899e+09 5.288044e+00 3.491582e+00 -4.903097e+00
-2.943756e+09 -2.743755e+09 -2.903756e+09 -2.662562e+02 -3.386582e+01 -1.329584e+01
-4.940393e+09 -4.740391e+09 -4.900391e+09 -1.056709e+02 -7.457611e-05 -1.636564e+01
-3.604146e+09 -3.404148e+09 -3.564146e+09 2.974491e+00 -1.071442e+02 6.844284e+01
-4.993876e+09 -4.793875e+09 -4.953875e+09 -8.734188e+00 -7.920576e+00 5.281727e+01
-3.961778e+09 -3.761776e+09 -3.921777e+09 -9.574229e+02 -1.644021e+02 1.140812e+02
-4.711576e+09 -4.511574e+09 -4.671575e+09 6.795751e+00 -1.333202e+00 9.217196e-01
-4.993041e+09 -4.793042e+09 -4.953042e+09 -9.224800e+02 5.458198e+00 -1.196331e+01
-4.828534e+09 -4.628533e+09 -4.788533e+09 -7.187472e+02 -1.309549e+01 -7.491094e+01
-4.108717e+09 -3.908717e+09 -4.068717e+09 -1.025331e+03 -8.563858e+01 8.082297e+01
-4.598665e+09 -4.398664e+09 -4.558664e+09 6.130605e+00 -4.546301e-01 -4.973799e-05
-4.598665e+09 -4.398664e+09 -4.558664e+09 -3.678622e-01 4.973799e-05 -4.250111e-01
-3.473696e+09 -3.273695e+09 -3.433695e+09 1.114733e+01 -1.008518e+02 -1.080889e+01
-4.795183e+09 -4.595183e+09 -4.755183e+09 -9.763959e+02 -1.287945e+01 -6.561106e+01
-3.955412e+09 -3.755412e+09 -3.915412e+09 -1.163238e+03 -4.251449e+01 1.804353e+01
-2.994059e+09 -2.794058e+09 -2.954058e+09 -8.787840e+01 -8.644861e+01 -6.820887e+01
-2.804423e+09 -2.604421e+09 -2.764422e+09 -1.822422e+02 -1.798037e+01 -5.027123e+01
-2.664609e+09 -2.464608e+09 -2.624608e+09 1.730816e+02 -1.633757e+02 5.958251e+01
-4.233154e+09 -4.033153e+09 -4.193153e+09 1.300716e+02 -7.567254e+01 1.181327e+01
-3.617395e+09 -3.417394e+09 -3.577394e+09 -9.158124e+01 -1.396118e+01 -7.085607e+01
-4.813849e+09 -4.613849e+09 -4.773849e+09 -1.256464e+03 -3.488971e+01 1.291993e+01
-3.881651e+09 -3.681649e+09 -3.841649e+09 1.367181e+01 -4.391128e+01 -7.413724e+01
-3.961558e+09 -3.761558e+09 -3.921558e+09 -8.832290e+02 -7.352106e+01 2.103761e+01
-4.991058e+09 -4.791050e+09 -4.951063e+09 1.275448e+03 -8.526256e+02 -5.247365e+02
-3.474059e+09 -3.274058e+09 -3.434058e+09 -5.876160e+01 -6.788244e+01 -1.603453e+01
-3.882191e+09 -3.682189e+09 -3.842189e+09 -5.720319e+01 -1.142939e+01 -6.625543e+01
-3.960429e+09 -3.760430e+09 -3.920438e+09 -2.881389e+03 -4.117135e+03 -1.268941e+03
-3.492831e+09 -3.292834e+09 -3.452830e+09 1.132145e+02 2.200338e+01 1.946219e+01
-1.791951e+09 -1.591954e+09 -1.751950e+09 8.443932e+01 1.120516e+01 5.661016e+00
-4.772027e+09 -4.572032e+09 -4.732029e+09 -4.222212e+02 -2.899354e+02 -1.495863e+02
-3.911130e+09 -3.711136e+09 -3.871135e+09 -1.225415e+03 -1.599886e+03 -1.680223e+02
-3.286342e+09 -3.086344e+09 -3.246340e+09 6.683095e+00 1.754192e+01 8.930456e-01
-2.309836e+09 -2.109838e+09 -2.269834e+09 1.000498e+02 -7.734230e+01 7.439114e+01
-4.829584e+09 -4.629580e+09 -4.789588e+09 -1.342714e+03 -7.183144e+02 -9.391054e+02
-2.597029e+09 -2.397032e+09 -2.557028e+09 1.327102e+02 1.721785e+01 8.989122e+00
-2.288187e+09 -2.088190e+09 -2.248186e+09 4.930965e+01 -3.243662e+00 2.977279e+01
-4.993076e+09 -4.793063e+09 -4.953072e+09 -3.008304e+00 -8.261459e+02 -5.094047e+02
-4.817519e+09 -4.617511e+09 -4.777522e+09 1.965908e+03 1.059559e+02 -7.467935e+02
-4.940357e+09 -4.740361e+09 -4.900361e+09 3.068593e+02 7.020276e+01 9.986067e-05
-1.729809e+09 -1.529808e+09 -1.689808e+09 3.399293e+00 1.663786e+00 -2.956644e+00
-3.663122e+09 -3.463120e+09 -3.623121e+09 4.457817e+00 6.614655e-01 4.070557e-01
-3.961514e+09 -3.761507e+09 -3.921522e+09 -1.713231e+03 -2.703063e+03 -1.902652e+03
-4.985005e+09 -4.784992e+09 -4.945010e+09 9.620486e+02 -1.963655e+03 8.908215e+01
-4.123879e+09 -3.923876e+09 -4.083888e+09 -1.762161e+03 -3.910779e+03 -5.248828e+02
-3.972481e+09 -3.772489e+09 -3.932487e+09 1.706108e+03 1.389338e+03 -2.813448e+02
-5.002180e+09 -4.802187e+09 -4.962185e+09 8.869671e+02 2.953867e+02 -8.751307e+01
-4.310177e+09 -4.110184e+09 -4.270181e+09 1.890134e+03 5.318328e+02 -7.912175e+01
-3.972481e+09 -3.772488e+09 -3.932486e+09 1.989880e+03 1.646544e+03 -1.036524e+02
-2.007673e+09 -1.807677e+09 -1.967673e+09 1.049244e+03 8.292767e+01 3.819237e-01
-3.284542e+09 -3.084541e+09 -3.244541e+09 8.848389e-01 1.464585e+00 -2.289887e+00
-2.948841e+09 -2.748839e+09 -2.908840e+09 9.187452e+00 1.655200e+00 4.843983e-01
-2.109874e+09 -1.909873e+09 -2.069873e+09 5.690424e+00 9.940386e-01 -5.454554e+00
-3.441053e+09 -3.241052e+09 -3.401052e+09 8.313718e+00 4.815433e+00 -6.658419e+00
-4.990126e+09 -4.790131e+09 -4.950129e+09 2.423505e+03 2.881378e+02 -9.569053e+01
-4.819748e+09 -4.619752e+09 -4.779748e+09 1.070478e+03 1.554718e+02 -7.454979e+01
-3.960012e+09 -3.760018e+09 -3.920015e+09 1.835812e+03 7.197441e+02 -1.198199e+02
-2.809166e+09 -2.609167e+09 -2.769167e+09 -1.995971e+02 -1.685979e+01 5.129306e+01
-3.512954e+09 -3.312953e+09 -3.472953e+09 -3.138848e+01 -5.435915e+00 -8.243164e+00
-3.241214e+09 -3.041220e+09 -3.201215e+09 -4.311387e+02 1.666042e+02 -1.731713e+01
-4.131863e+09 -3.931865e+09 -4.091875e+09 -9.751091e+01 -4.586505e+03 7.184314e+02
-3.961515e+09 -3.761511e+09 -3.921523e+09 -2.579480e+03 -3.272636e+03 -2.283510e+03
-4.941909e+09 -4.741914e+09 -4.901911e+09 -1.972983e+02 -4.934096e-05 -1.126902e+02
-1.819395e+09 -1.619394e+09 -1.779394e+09 -2.292039e+01 -7.817236e+00 -3.746079e+00
-3.284542e+09 -3.084541e+09 -3.244541e+09 -8.243077e+00 -2.606047e+00 -1.964651e+00
-4.288685e+09 -4.088692e+09 -4.248687e+09 7.860276e+02 5.376545e+02 1.103642e+01
-2.638296e+09 -2.438295e+09 -2.598296e+09 -4.608687e+01 -6.814049e+00 -1.168043e+01
-4.647461e+09 -4.447468e+09 -4.607463e+09 -2.684681e+02 2.344300e+02 -6.790621e+01
-1.582763e+09 -1.382763e+09 -1.542761e+09 1.624254e+03 9.555055e+02 -1.706852e+02
-4.772027e+09 -4.572027e+09 -4.732027e+09 -8.041703e+01 1.407287e+00 -3.793643e+01
-4.992610e+09 -4.792608e+09 -4.952609e+09 6.477403e+02 -4.458864e+01 -3.750662e+01
-4.142374e+09 -3.942373e+09 -4.102373e+09 4.827214e+02 -7.593749e+00 -8.414539e+01
-3.968983e+09 -3.768983e+09 -3.928983e+09 6.885165e+02 6.863505e+01 7.062285e+01
-4.991371e+09 -4.791369e+09 -4.951369e+09 7.572692e+01 -7.676880e+01 -6.106758e+01
-3.962018e+09 -3.762016e+09 -3.922017e+09 -1.417877e+02 1.448142e+02 1.559234e+01
-4.991409e+09 -4.791409e+09 -4.951409e+09 1.106399e+03 -4.061197e+01 -1.144635e+02
-4.125068e+09 -3.925067e+09 -4.085067e+09 1.413306e+02 -6.069229e+00 -6.475908e+01
-4.660064e+09 -4.460063e+09 -4.620063e+09 3.605648e+02 3.713189e+00 -1.414233e+01
-4.648212e+09 -4.448211e+09 -4.608211e+09 1.213610e+02 1.420391e+01 -2.879236e+01
-1.763725e+09 -1.563724e+09 -1.723724e+09 -5.231342e+01 -1.070929e+01 -2.201603e+00
-4.817263e+09 -4.617262e+09 -4.777262e+09 4.513078e+02 3.621423e+00 -1.444804e+01
-2.321253e+09 -2.121251e+09 -2.281252e+09 -5.732403e+00 -3.138641e+00 -3.107630e+00
-4.982556e+09 -4.782555e+09 -4.942556e+09 4.542993e+02 -1.957188e+01 -1.496934e+01
-2.170042e+09 -1.970040e+09 -2.130039e+09 -1.626407e+02 -1.615809e+02 -3.369507e+01
-1.766609e+09 -1.566608e+09 -1.726607e+09 -4.512565e+02 -2.584191e+02 -2.827845e+01
-3.507918e+09 -3.307916e+09 -3.467916e+09 -2.224192e+02 -2.571249e+02 -1.008099e+02
-4.135024e+09 -3.935023e+09 -4.095024e+09 5.872167e+02 3.233099e+01 -3.083949e+01
-3.963199e+09 -3.763197e+09 -3.923198e+09 3.018649e+02 1.612305e+02 -1.359501e+01
-3.293421e+09 -3.093419e+09 -3.253419e+09 -3.094056e+01 -6.634367e+01 -5.341465e+01
-3.973599e+09 -3.773597e+09 -3.933598e+09 3.069400e+02 3.218630e+01 -4.702070e+01
-1.781100e+09 -1.581098e+09 -1.741097e+09 -1.505022e+02 -9.800207e+01 -3.164606e+01
-3.976333e+09 -3.776332e+09 -3.936332e+09 4.370476e+02 7.918110e+01 -2.226421e+01
-4.130552e+09 -3.930552e+09 -4.090552e+09 7.619487e+02 3.970793e+01 -1.099824e+01
-4.130612e+09 -3.930612e+09 -4.090612e+09 -2.760210e+01 -8.474483e+00 -4.113002e+01
-4.071956e+09 -3.871957e+09 -4.031957e+09 -3.018076e+02 -4.109400e+01 -2.820357e+01
-4.626041e+09 -4.426042e+09 -4.586043e+09 -2.589069e+03 -5.265813e+02 9.942474e+01
-4.799711e+09 -4.599710e+09 -4.759712e+09 -2.996555e+03 -6.909088e+02 7.742339e+02
-4.090135e+09 -3.890138e+09 -4.050137e+09 -3.417898e+03 -2.003125e+02 1.951291e+02
-3.499472e+09 -3.299469e+09 -3.459472e+09 -2.403176e+03 -1.051456e+02 -6.517697e+02
-4.127046e+09 -3.927045e+09 -4.087045e+09 2.590226e+02 -7.557688e+00 -5.997089e+01
-4.647271e+09 -4.447270e+09 -4.607269e+09 -3.794344e+03 -2.567657e+02 5.287139e+02
-3.882246e+09 -3.682247e+09 -3.842248e+09 -3.099378e+03 -5.130634e+02 4.788302e+02
-4.299277e+09 -4.099276e+09 -4.259276e+09 1.660063e+03 -2.545081e+02 -6.969600e+02
-3.962611e+09 -3.762607e+09 -3.922613e+09 -2.140411e+03 -1.424348e+03 -1.048394e+03
-4.654865e+09 -4.454859e+09 -4.614878e+09 -1.481341e+03 -7.939724e+02 6.188498e+02
-3.960352e+09 -3.760350e+09 -3.920355e+09 -2.434856e+03 -1.943705e+03 -8.139306e+02
-3.960351e+09 -3.760350e+09 -3.920355e+09 -2.468811e+03 -2.284000e+03 -1.185404e+03
-4.627741e+09 -4.427742e+09 -4.587743e+09 -1.966835e+03 -3.169323e+02 -2.431351e+02
-4.474334e+09 -4.274332e+09 -4.434333e+09 1.366573e+03 1.148654e+01 -4.416761e+00
-4.627772e+09 -4.427767e+09 -4.587769e+09 1.642841e+03 -3.464447e+02 -2.456437e+01
-4.802314e+09 -4.602313e+09 -4.762312e+09 2.190030e+03 -1.023357e+01 5.472280e+01
-4.991213e+09 -4.791206e+09 -4.951221e+09 -8.301534e+02 -1.484413e+03 -4.166562e+02
-4.461985e+09 -4.261978e+09 -4.421998e+09 -3.485767e+03 -2.705007e+03 -1.595349e+03
-4.813849e+09 -4.613839e+09 -4.773859e+09 -2.603427e+03 -2.653546e+03 -4.256148e+02
-4.626664e+09 -4.426662e+09 -4.586663e+09 1.875907e+03 -2.661595e+02 -2.169704e+02
-4.985001e+09 -4.784991e+09 -4.945009e+09 -3.680240e+02 -1.994118e+03 -5.004577e+02
-4.817567e+09 -4.617565e+09 -4.777566e+09 1.429623e+03 -1.090620e+02 -9.313987e+01
-1.590441e+09 -1.390441e+09 -1.550441e+09 -2.725260e+02 -4.224910e+01 7.036260e+00
-4.985004e+09 -4.784992e+09 -4.945010e+09 -1.346863e+03 -2.129140e+03 -1.345791e+03
-4.632152e+09 -4.432150e+09 -4.592149e+09 2.344384e+03 -2.869191e+02 -3.627907e+02
-3.961696e+09 -3.761703e+09 -3.921677e+09 4.146871e+03 4.273105e+03 8.576764e+03
-3.948675e+09 -3.748662e+09 -3.908680e+09 7.937079e+02 9.011856e+02 -1.228463e+03
-4.306915e+09 -4.106921e+09 -4.266930e+09 9.904706e+02 4.712107e+03 -1.533038e+02
-3.963100e+09 -3.763100e+09 -3.923101e+09 2.978075e+03 7.905689e+02 -3.630131e+02
-3.948369e+09 -3.748367e+09 -3.908368e+09 2.934624e+03 -4.339341e+02 -3.191654e+02
-4.304839e+09 -4.104842e+09 -4.264843e+09 3.270139e+03 1.623858e+03 -6.716994e+02
-4.988221e+09 -4.788220e+09 -4.948219e+09 2.221361e+03 -3.573401e+01 -1.551328e+02
-3.958776e+09 -3.758783e+09 -3.918783e+09 2.639582e+03 2.906964e+03 -8.280512e+02
-4.806418e+09 -4.606425e+09 -4.766422e+09 4.554783e+02 6.001062e+01 -5.381403e+01
-4.129155e+09 -3.929160e+09 -4.089158e+09 2.404812e+03 6.124981e+02 -5.165857e+01
-4.989317e+09 -4.789312e+09 -4.949315e+09 1.803629e+03 -1.675681e+02 -2.564469e+02
-3.960351e+09 -3.760356e+09 -3.920351e+09 1.894892e+03 2.896260e+02 -1.394871e+02
-4.826987e+09 -4.626993e+09 -4.786989e+09 1.687183e+03 4.525775e+02 -6.481671e+01
-3.453279e+09 -3.253280e+09 -3.413280e+09 -1.393172e+02 -1.582008e+01 -1.068599e+02
-4.835824e+09 -4.635830e+09 -4.795830e+09 1.063239e+03 7.917494e+02 3.793245e+01
-3.960351e+09 -3.760355e+09 -3.920351e+09 1.642414e+03 2.736231e+02 -2.159208e+01
-4.644707e+09 -4.444708e+09 -4.604716e+09 3.611852e+03 1.113810e+03 -5.084220e+02
-3.962396e+09 -3.762399e+09 -3.922396e+09 1.869459e+03 2.849404e+02 -5.624685e+01
-4.816579e+09 -4.616586e+09 -4.776583e+09 8.808515e+02 6.967536e+02 -1.532954e+02
-3.962397e+09 -3.762400e+09 -3.922397e+09 1.651236e+03 4.844244e+02 -8.933828e+01
-4.131703e+09 -3.931707e+09 -4.091703e+09 1.795839e+03 3.896459e+02 -1.888762e+02
-4.283432e+09 -4.083429e+09 -4.243430e+09 1.875122e+03 -1.707698e+02 -3.484132e+02
-4.991636e+09 -4.791632e+09 -4.951637e+09 -7.607913e+02 -2.037036e+02 -1.584318e+02
-4.638860e+09 -4.438856e+09 -4.598860e+09 -9.184193e+02 -5.516037e+02 -1.903064e+02
-4.254750e+09 -4.054747e+09 -4.214750e+09 -9.238857e+02 -5.310363e+02 -3.006500e+02
-4.042637e+09 -3.842635e+09 -4.002637e+09 -9.473527e+02 -5.534452e+02 -1.642790e+02
-3.961321e+09 -3.761323e+09 -3.921323e+09 -6.821414e+02 -8.780317e+00 3.867317e+01
-4.999741e+09 -4.799742e+09 -4.959742e+09 -1.128154e+03 -8.174605e+00 1.441273e+01
-3.887135e+09 -3.687136e+09 -3.847136e+09 -3.296318e+02 -2.532627e+01 -1.361635e+01
-3.961559e+09 -3.761558e+09 -3.921559e+09 -8.123390e+02 -6.694148e+01 -6.170110e+00
-3.961996e+09 -3.761997e+09 -3.921997e+09 -7.424820e+02 -2.299686e+01 6.379221e+01
-4.299623e+09 -4.099623e+09 -4.259623e+09 -1.251540e+03 -2.611394e+01 4.422001e+01
-4.127651e+09 -3.927651e+09 -4.087651e+09 -1.259432e+03 -7.130098e+01 6.626671e+01
-4.118032e+09 -3.918030e+09 -4.078034e+09 -2.100435e+03 -1.401714e+03 -7.755682e+02
-4.304360e+09 -4.104360e+09 -4.264360e+09 -7.979333e+02 -8.444983e+00 1.146961e+01
-4.792476e+09 -4.592474e+09 -4.752477e+09 -1.607847e+03 -4.091403e+02 -1.265078e+02
-3.957929e+09 -3.757928e+09 -3.917928e+09 -5.801078e+02 -3.848006e+01 5.530616e+00
-4.456276e+09 -4.256276e+09 -4.416276e+09 -1.033220e+03 -5.412910e+01 -3.672380e+00
-4.985110e+09 -4.785110e+09 -4.945110e+09 -1.093636e+03 2.013292e+01 4.164271e+01
-4.811703e+09 -4.611700e+09 -4.771703e+09 -1.059030e+03 -2.957587e+02 -1.096315e+02
-4.978029e+09 -4.778027e+09 -4.938030e+09 -1.056822e+03 6.360445e+00 -5.113068e+01
-3.948675e+09 -3.748674e+09 -3.908675e+09 -1.015916e+03 -9.108511e+01 2.768690e+01
-4.992981e+09 -4.792981e+09 -4.952981e+09 -1.294016e+03 -1.639115e+01 -2.453846e+01
-4.799509e+09 -4.599508e+09 -4.759509e+09 -1.042454e+03 -4.160929e+01 -2.932348e+01
-4.978374e+09 -4.778373e+09 -4.938373e+09 -8.853827e+02 6.768148e+00 -3.362832e+01
-4.991512e+09 -4.791516e+09 -4.951512e+09 9.401770e+02 4.695415e+01 2.253633e+01
-4.651386e+09 -4.451390e+09 -4.611385e+09 4.902260e+02 -1.325006e+02 -5.485359e+01
-5.001252e+09 -4.801251e+09 -4.961251e+09 -5.529982e+02 2.477454e+01 -2.963440e+01
-4.644533e+09 -4.444531e+09 -4.604533e+09 -2.188225e+03 -2.059462e+01 1.686249e+02
-4.282570e+09 -4.082574e+09 -4.242569e+09 5.022161e+02 7.050565e+01 1.986625e+01
-4.993060e+09 -4.793060e+09 -4.953061e+09 -1.909690e+03 2.927963e+01 -1.763744e+01
-4.061071e+09 -3.861074e+09 -4.021070e+09 6.585474e+02 -2.056503e+01 4.412493e+01
-4.125101e+09 -3.925105e+09 -4.085101e+09 1.430968e+03 2.223192e+02 -3.370669e+01
-4.992095e+09 -4.792097e+09 -4.952095e+09 1.572340e+03 1.697489e+02 -1.131105e+02
-4.805456e+09 -4.605463e+09 -4.765459e+09 1.038405e+03 4.759467e+02 -2.212803e+01
-4.827674e+09 -4.627680e+09 -4.787679e+09 1.975722e+03 6.090645e+02 -9.167255e+01
-4.992810e+09 -4.792817e+09 -4.952815e+09 -1.149391e+03 3.112123e+02 4.169465e+01
-3.967919e+09 -3.767928e+09 -3.927926e+09 8.807828e+01 1.395628e+03 -5.676055e+01
-3.972482e+09 -3.772490e+09 -3.932487e+09 8.359171e+02 1.849648e+03 -2.150703e+02
-4.801112e+09 -4.601116e+09 -4.761112e+09 8.039818e+02 7.460062e+01 1.422728e+01
-4.990946e+09 -4.790949e+09 -4.950945e+09 9.131531e+02 -4.502089e+01 9.247225e+01
-4.284015e+09 -4.084014e+09 -4.244014e+09 -1.931329e+02 1.788640e+00 -3.615964e+00
-4.826792e+09 -4.626799e+09 -4.786801e+09 -1.343587e+03 9.780036e+02 5.270651e+02
-4.997618e+09 -4.797625e+09 -4.957625e+09 2.968846e+02 7.916422e+02 1.027722e+02
-4.649625e+09 -4.449624e+09 -4.609624e+09 -2.834691e+02 -2.005038e+01 -2.340246e+01
-4.991512e+09 -4.791511e+09 -4.951512e+09 -2.799001e+02 1.006147e+01 1.380359e+01
-5.001252e+09 -4.801246e+09 -4.961257e+09 -7.862124e+02 -7.318235e+02 -4.435360e+02
-4.646687e+09 -4.446682e+09 -4.606635e+09 -3.560409e+02 2.598621e+02 3.200576e+03
-4.074336e+09 -3.874335e+09 -4.034335e+09 -2.320138e+02 -1.382845e+01 -3.398938e+01
-4.061524e+09 -3.861523e+09 -4.021524e+09 -1.811567e+02 -4.588156e+00 1.422151e+01
-4.978376e+09 -4.778366e+09 -4.938379e+09 5.659045e+02 -5.614500e+02 -3.897647e+02
-3.961772e+09 -3.761770e+09 -3.921726e+09 1.150095e+03 2.088195e+03 1.197819e+04
-4.992732e+09 -4.792733e+09 -4.952733e+09 -5.106544e+02 8.731952e+00 -1.143447e+01
-4.648335e+09 -4.448324e+09 -4.608293e+09 2.314380e+03 4.434105e+03 2.417680e+03
-3.961526e+09 -3.761536e+09 -3.921520e+09 1.122576e+03 -1.260927e+02 9.727212e+03
-4.122678e+09 -3.922677e+09 -4.082678e+09 -4.103283e+02 -1.938110e+01 -1.708714e+01
-4.992529e+09 -4.792528e+09 -4.952528e+09 -7.616947e+01 5.471642e+01 2.387463e+01
-4.812462e+09 -4.612461e+09 -4.772462e+09 -3.162076e+02 -3.131651e+01 -2.150570e+01
-4.819201e+09 -4.619207e+09 -4.779204e+09 -1.452574e+03 3.773922e+02 2.301257e+02
-4.627601e+09 -4.427599e+09 -4.587600e+09 4.544862e+01 9.556266e+00 -2.870879e+01
-3.961696e+09 -3.761693e+09 -3.921696e+09 -1.666616e+03 5.500165e+02 3.891794e+02
-4.130733e+09 -3.930738e+09 -4.090744e+09 -2.896389e+03 2.639484e+03 1.083000e+03
-4.826006e+09 -4.626012e+09 -4.786018e+09 -1.615231e+03 2.073481e+03 1.490661e+02
-4.650934e+09 -4.450939e+09 -4.610945e+09 -1.902825e+03 2.159954e+03 5.050027e+02
-3.838147e+09 -3.638145e+09 -3.798146e+09 1.120220e+02 9.863491e+00 -2.847515e+01
-4.970822e+09 -4.770821e+09 -4.930821e+09 6.782546e+01 1.519595e+00 1.383873e+01
-4.465931e+09 -4.265930e+09 -4.425930e+09 1.239813e+02 5.421988e+00 5.222514e+00
-4.992272e+09 -4.792272e+09 -4.952286e+09 -2.395670e+03 2.107958e+03 -3.987280e+00
-3.962574e+09 -3.762579e+09 -3.922586e+09 -3.272328e+03 4.148279e+03 1.395244e+03
-4.639801e+09 -4.439800e+09 -4.599800e+09 1.053387e+02 1.398717e+01 -1.367181e+01
-4.307701e+09 -4.107706e+09 -4.267712e+09 -1.956703e+03 3.947702e+03 7.380030e+02
-3.963030e+09 -3.763010e+09 -3.922997e+09 1.407556e+03 1.266825e+04 -1.194035e+03
-3.969371e+09 -3.769351e+09 -3.929362e+09 -2.435656e+03 7.449817e+03 -3.360394e+03
-4.640433e+09 -4.440423e+09 -4.600425e+09 -4.667212e+03 -2.617385e+03 2.586765e+03
-4.032558e+09 -3.832556e+09 -3.992557e+09 5.512417e+01 1.017515e-01 -1.343321e+00
-4.801152e+09 -4.601150e+09 -4.761151e+09 6.549832e+01 2.226969e+00 -1.101174e+00
-4.987330e+09 -4.787329e+09 -4.947329e+09 7.408867e+01 -3.488324e+00 3.180282e+01
-4.418707e+09 -4.218706e+09 -4.378706e+09 -1.372291e+01 -3.908461e+00 -4.537796e+00
-4.983663e+09 -4.783655e+09 -4.943652e+09 -5.362355e+03 -1.934275e+03 -7.890429e+02
-3.953959e+09 -3.753952e+09 -3.913945e+09 -5.821325e+03 8.022035e+03 -3.216877e+03
-4.297463e+09 -4.097457e+09 -4.257486e+09 1.599779e+03 7.618826e+03 -1.193154e+03
-4.052686e+09 -3.852685e+09 -4.012686e+09 -7.991433e+01 -4.106518e+00 -2.521157e+01
-4.185751e+09 -3.985750e+09 -4.145750e+09 -5.499875e+01 -3.458954e+00 -4.526369e+00
-4.648330e+09 -4.448329e+09 -4.608330e+09 -1.467365e+03 -8.232960e+01 7.659666e+01
-4.733337e+09 -4.533336e+09 -4.693336e+09 -2.164717e+01 -6.542635e+00 -5.976020e-01
-3.963363e+09 -3.763362e+09 -3.923363e+09 -1.619859e+03 -1.057363e+02 1.384959e+02
-4.821092e+09 -4.621092e+09 -4.781091e+09 -2.799358e+02 -2.916089e+00 -2.281402e+01
-4.307961e+09 -4.107962e+09 -4.267962e+09 -1.727495e+03 -2.578793e+01 1.388061e+02
-4.394132e+09 -4.194135e+09 -4.354131e+09 2.764796e+01 -5.929763e-01 1.280141e+01
-3.783466e+09 -3.583468e+09 -3.743464e+09 2.514004e+02 2.964889e+01 -3.053860e+01
-4.545769e+09 -4.345772e+09 -4.505767e+09 1.210337e+02 2.414283e+01 8.111023e-02
-4.986356e+09 -4.786359e+09 -4.946358e+09 -1.816065e+03 8.743633e+01 -1.464602e+02
-3.956659e+09 -3.756661e+09 -3.916660e+09 -1.553288e+03 -5.630279e+01 1.280492e+02
-4.132646e+09 -3.932644e+09 -4.092644e+09 -1.957044e+01 2.662718e+01 -2.825638e+01
-3.961951e+09 -3.761949e+09 -3.921950e+09 -1.439029e+02 7.890825e+01 -4.230018e+01
-4.708762e+09 -4.508765e+09 -4.668761e+09 7.228343e+01 -2.624147e+01 1.001261e+01
-4.647830e+09 -4.447828e+09 -4.607829e+09 2.744731e+02 9.330733e+01 1.697856e+01
-4.825161e+09 -4.625160e+09 -4.785161e+09 8.601834e+02 5.665779e+01 7.039776e+01
-4.994927e+09 -4.794926e+09 -4.954926e+09 5.974572e+02 -4.799408e+01 -5.974376e+01
-4.415218e+09 -4.215216e+09 -4.375216e+09 -9.472009e+01 -5.360427e+01 -5.502203e+00
-4.039857e+09 -3.839854e+09 -3.999855e+09 -4.578574e+02 -2.400809e+02 -1.182916e+02
-4.571034e+09 -4.371032e+09 -4.531032e+09 -1.776567e+02 -1.478448e+02 -2.146655e+00
-4.729848e+09 -4.529846e+09 -4.689846e+09 -1.216689e+02 -2.109269e+01 3.327370e+01
-4.308461e+09 -4.108460e+09 -4.268460e+09 9.888844e+02 9.325129e+01 -2.212210e+00
-3.964511e+09 -3.764510e+09 -3.924511e+09 1.001547e+03 6.357441e+01 -1.481255e+01
-4.302420e+09 -4.102419e+09 -4.262419e+09 7.166726e+02 -2.000461e+01 -5.072226e+01
-2.659782e+09 -2.459782e+09 -2.619782e+09 2.688492e+02 2.156391e+01 -6.059262e+01
-4.137383e+09 -3.937381e+09 -4.097382e+09 8.277877e+02 -9.761051e+01 -1.411325e+02
-3.899701e+09 -3.699700e+09 -3.859700e+09 1.497999e+02 1.636437e+01 -4.451849e+00
-4.284539e+09 -4.084535e+09 -4.244537e+09 1.630628e+03 -2.695769e+02 -2.560863e+02
-4.638987e+09 -4.438982e+09 -4.598987e+09 -1.351834e+03 3.952549e+02 6.132650e+02
-4.985115e+09 -4.785113e+09 -4.945114e+09 -2.266118e+02 -4.718620e+01 -1.052518e+02
-3.963507e+09 -3.763506e+09 -3.923506e+09 1.458835e+03 -8.230528e+01 -2.902348e+02
-4.289358e+09 -4.089364e+09 -4.249362e+09 -8.812705e+02 -8.061418e+02 -9.108017e+01
-3.838952e+09 -3.638952e+09 -3.798952e+09 1.663037e+02 1.911195e+01 1.087937e+01
-3.263737e+09 -3.063736e+09 -3.223736e+09 2.432484e+02 7.043869e+00 -1.253926e+01
-3.961503e+09 -3.761506e+09 -3.921503e+09 -1.317406e+03 9.347597e+01 -6.983533e+01
-4.647101e+09 -4.447099e+09 -4.607099e+09 -6.991318e+02 1.831416e+02 7.071114e+01
-4.306432e+09 -4.106429e+09 -4.266430e+09 6.016919e+02 7.730724e+01 5.669293e+01
-4.133592e+09 -3.933590e+09 -4.093590e+09 9.281812e+01 9.806417e+01 2.082109e+01
-4.992476e+09 -4.792473e+09 -4.952474e+09 -7.309132e+00 -5.528027e+01 -4.161503e+01
-1.941187e+09 -1.741186e+09 -1.901187e+09 -1.039226e+00 -6.390337e+00 -6.199971e+00
-3.469220e+09 -3.269225e+09 -3.429223e+09 -9.227833e+02 -1.744244e+03 -3.417121e+02
-1.941187e+09 -1.741186e+09 -1.901187e+09 -8.919713e+00 -5.713863e+00 -5.662919e+00
-1.830861e+09 -1.630859e+09 -1.790860e+09 -9.587048e+00 -7.400360e-01 -1.243522e+01
-2.844571e+09 -2.644570e+09 -2.804571e+09 -1.007040e+01 -6.162699e+00 -2.754614e+00
-2.494046e+09 -2.294045e+09 -2.454045e+09 1.964511e+01 5.208065e+00 -1.264121e+01
-4.305493e+09 -4.105492e+09 -4.265492e+09 -2.547029e+02 1.505260e+01 -7.412343e+00
-4.304279e+09 -4.104278e+09 -4.264278e+09 -2.068612e+02 2.630516e+01 1.345592e+01
-1.883335e+09 -1.683333e+09 -1.843334e+09 8.158921e+00 5.577220e+00 -5.276952e+00
-3.961672e+09 -3.761671e+09 -3.921671e+09 9.540270e+01 1.388508e+02 -1.358002e+01
-3.959061e+09 -3.759056e+09 -3.919058e+09 -1.096532e+03 2.566664e+02 5.913022e+02
-2.208187e+09 -2.008186e+09 -2.168186e+09 9.433954e+00 2.811434e+00 -4.686127e+00
-4.991177e+09 -4.791174e+09 -4.951175e+09 -6.475156e+02 -4.670917e+01 1.419898e+01
-4.992476e+09 -4.792474e+09 -4.952475e+09 -3.872366e+02 -8.073444e+01 -6.814308e+01
-3.961765e+09 -3.761769e+09 -3.921767e+09 -2.287568e+03 8.334982e+02 1.583199e+02
-1.883335e+09 -1.683333e+09 -1.843334e+09 -1.423501e-01 4.695304e+00 -4.489550e+00
-4.134277e+09 -3.934275e+09 -4.094276e+09 7.008482e+02 3.572789e+01 2.472091e+01
-3.948896e+09 -3.748890e+09 -3.908894e+09 -6.287104e+02 6.865245e+02 1.146298e+03
-1.606593e+09 -1.406592e+09 -1.566592e+09 1.250314e+00 9.548438e+00 -6.939818e+00
-2.520097e+09 -2.320096e+09 -2.480096e+09 5.915389e+00 4.144306e+00 1.860151e+00
-3.117572e+09 -2.917571e+09 -3.077570e+09 -1.117280e+02 -5.833441e+01 -5.630714e+01
-2.544926e+09 -2.344925e+09 -2.504924e+09 -4.615372e+02 -5.457205e+02 -1.806545e+02
-4.133482e+09 -3.933481e+09 -4.093481e+09 2.831689e+02 6.763123e+00 -4.720439e+01
-3.963556e+09 -3.763556e+09 -3.923556e+09 5.680080e+02 4.946262e+01 3.111923e+01
-3.961710e+09 -3.761711e+09 -3.921711e+09 1.132129e+03 4.188089e+01 -4.714424e+01
-1.905812e+09 -1.705810e+09 -1.865810e+09 -6.328931e+01 -8.877502e+01 -5.900188e+01
-3.506891e+09 -3.306900e+09 -3.466896e+09 2.781634e+02 -2.122404e+03 1.971614e+02
-3.964154e+09 -3.764153e+09 -3.924153e+09 3.019512e+02 3.642666e+01 -2.871170e+01
-4.293231e+09 -4.093230e+09 -4.253231e+09 2.658339e+02 3.715398e+00 -1.406478e+01
-2.245879e+09 -2.045877e+09 -2.205876e+09 -1.206303e+02 -1.481356e+02 -9.817449e+01
-3.701033e+09 -3.501032e+09 -3.661032e+09 3.148665e+01 1.440109e+01 -3.021539e+00
-1.874503e+09 -1.674501e+09 -1.834500e+09 -6.527857e+01 -3.476880e+02 -4.140953e+01
-1.905812e+09 -1.705810e+09 -1.865810e+09 -3.845622e+01 -1.281990e+02 -1.573669e+01
-3.962352e+09 -3.762351e+09 -3.922351e+09 -4.478436e+02 -1.694618e+01 -4.538634e+01
-2.554702e+09 -2.354700e+09 -2.514699e+09 -1.349599e+02 -2.440728e+02 -3.841994e+01
-3.957929e+09 -3.757928e+09 -3.917929e+09 -4.689533e+02 -4.119069e+01 -2.317201e+01
-3.228687e+09 -3.028682e+09 -3.188687e+09 -1.167646e+03 -1.667391e+03 -1.204609e+03
-2.257427e+09 -2.057424e+09 -2.217426e+09 -2.024725e+03 -1.918590e+03 -1.216508e+03
-2.571020e+09 -2.371016e+09 -2.531019e+09 -1.810940e+03 -1.980198e+03 -1.619316e+03
-4.815863e+09 -4.615862e+09 -4.775863e+09 -4.345963e+02 -2.067710e+01 2.820443e+00
-1.796518e+09 -1.596514e+09 -1.756516e+09 -1.691106e+03 -1.686034e+03 -1.158656e+03
-2.598394e+09 -2.398389e+09 -2.558394e+09 -5.655627e+02 -1.734319e+03 -1.707677e+03
-3.957929e+09 -3.757928e+09 -3.917928e+09 -4.082168e+02 -2.220147e+01 -6.325578e+00
-4.301188e+09 -4.101187e+09 -4.261188e+09 -5.637738e+02 -1.368532e+01 -1.808817e+01
-4.627481e+09 -4.427481e+09 -4.587481e+09 -9.113667e+02 -3.019638e+01 2.518404e+01
-4.129398e+09 -3.929397e+09 -4.089397e+09 -4.412802e+02 -1.294588e+01 -3.334835e+01
-4.459881e+09 -4.259881e+09 -4.419882e+09 -9.328213e+02 -5.069083e+01 4.998494e+00
-4.991257e+09 -4.791256e+09 -4.951257e+09 -8.677737e+02 6.211056e+00 2.340432e+01
-4.990126e+09 -4.790126e+09 -4.950126e+09 -7.036809e+02 8.466351e+00 -8.412734e+00
-2.321134e+09 -2.121132e+09 -2.281133e+09 -1.345283e+03 -1.302300e+03 -3.946745e+02
-4.114864e+09 -3.914864e+09 -4.074864e+09 -8.936804e+02 -1.673350e+01 2.734988e+01
-3.952614e+09 -3.752615e+09 -3.912614e+09 3.135960e+02 -1.819458e+02 7.969482e+01
-4.990126e+09 -4.790126e+09 -4.950126e+09 -8.659645e+02 4.457864e+00 -3.566721e+01
-2.067549e+09 -1.867545e+09 -2.027547e+09 -2.395731e+03 -2.048331e+03 -1.041191e+03
-3.248465e+09 -3.048462e+09 -3.208464e+09 -1.680396e+03 -1.326695e+03 -8.983386e+02
-2.989012e+09 -2.789010e+09 -2.949011e+09 -1.683866e+03 -1.410675e+03 -4.975060e+02
-2.258223e+09 -2.058227e+09 -2.218224e+09 -1.530911e+03 -1.684151e+03 -6.665800e+02
-4.470029e+09 -4.270031e+09 -4.430041e+09 -3.743588e+03 -3.350559e+03 -8.975713e+02
-2.995537e+09 -2.795534e+09 -2.955537e+09 -2.015866e+03 -1.986681e+03 -1.366944e+03
-3.254991e+09 -3.054987e+09 -3.214991e+09 -1.074420e+03 -1.362509e+03 -9.014157e+02
-3.528318e+09 -3.328316e+09 -3.488318e+09 -1.534715e+03 -1.562435e+03 -7.954927e+02
-4.984193e+09 -4.784187e+09 -4.944204e+09 -1.067519e+03 -1.903505e+03 -5.539347e+02
-4.303749e+09 -4.103749e+09 -4.263753e+09 -2.224206e+03 -2.101005e+03 -8.275384e+02
-2.014491e+09 -1.814486e+09 -1.974489e+09 -7.427159e+02 -1.156131e+03 -1.211627e+03
-3.960428e+09 -3.760426e+09 -3.920436e+09 -2.580097e+03 -3.630072e+03 -1.228300e+03
-2.364180e+09 -2.164179e+09 -2.324184e+09 2.388636e+03 -5.160167e+00 -8.039647e+02
-2.309309e+09 -2.109307e+09 -2.269310e+09 3.633376e+02 -9.642203e+02 -6.985193e+02
-2.580095e+09 -2.380091e+09 -2.540095e+09 -5.168659e+02 -1.445399e+03 -1.751779e+03
-4.950757e+09 -4.750757e+09 -4.910756e+09 -1.157375e+02 9.960647e-05 -6.313895e+01
-2.083420e+09 -1.883415e+09 -2.043419e+09 -4.545519e+02 -2.187427e+03 -1.987978e+03
-1.783045e+09 -1.583040e+09 -1.743044e+09 -1.128408e+03 -1.469870e+03 -1.781682e+03
-1.809449e+09 -1.609445e+09 -1.769448e+09 -6.611906e+02 -1.532466e+03 -1.367262e+03
-4.805219e+09 -4.605212e+09 -4.765229e+09 -6.074623e+02 -1.360204e+03 -1.437792e+02
-4.648994e+09 -4.448998e+09 -4.609003e+09 -1.809597e+03 -1.021594e+03 -1.244561e+02
-2.440667e+09 -2.240665e+09 -2.400665e+09 -5.516872e+02 -5.655074e+02 -1.204529e+02
-4.049356e+09 -3.849358e+09 -4.009355e+09 5.240650e+02 7.789982e+01 -8.301544e+00
-4.500479e+09 -4.300482e+09 -4.460478e+09 3.471584e+02 -4.028478e+00 1.312842e+01
-4.641357e+09 -4.441362e+09 -4.601359e+09 2.166482e+03 5.076237e+02 -1.252724e+02
-4.570151e+09 -4.370153e+09 -4.530150e+09 1.237991e+02 -3.200440e+00 -2.737044e+00
-4.168785e+09 -3.968787e+09 -4.128783e+09 1.143910e+02 1.184655e+01 -5.893666e+01
-4.821658e+09 -4.621655e+09 -4.781658e+09 2.528302e+03 4.429658e+02 -5.162380e+02
-4.198646e+09 -3.998648e+09 -4.158644e+09 2.750306e+02 1.668442e+01 1.264821e+01
-4.984287e+09 -4.784289e+09 -4.944286e+09 1.782390e+02 3.258923e+01 3.297758e+01
-4.771068e+09 -4.571070e+09 -4.731066e+09 1.941735e+02 -1.190076e+01 6.567646e+01
-4.504568e+09 -4.304566e+09 -4.464566e+09 -6.378456e+02 -1.462052e+02 -4.280936e+01
-4.148138e+09 -3.948138e+09 -4.108137e+09 -6.315347e+01 -2.425065e+02 -5.789251e+01
-4.817542e+09 -4.617546e+09 -4.777548e+09 3.002475e+03 4.700289e+02 -7.166431e+02
-4.989468e+09 -4.789474e+09 -4.949473e+09 2.070121e+03 4.262978e+02 -8.436760e+01
-4.548185e+09 -4.348185e+09 -4.508184e+09 -3.137471e+02 -3.131701e+01 8.865510e+00
-4.588975e+09 -4.388974e+09 -4.548973e+09 -2.634276e+02 -6.727758e+01 -2.057988e+01
-4.982027e+09 -4.782026e+09 -4.942026e+09 -3.368596e+02 1.595921e+01 -7.026695e+01
-4.647594e+09 -4.447597e+09 -4.607596e+09 2.764666e+03 3.589305e+02 -1.907524e+02
-4.768807e+09 -4.568806e+09 -4.728806e+09 -2.451100e+02 1.445544e+02 1.487405e+01
-4.989710e+09 -4.789716e+09 -4.949713e+09 1.686388e+03 1.560248e+02 -9.942786e+01
-4.131077e+09 -3.931082e+09 -4.091083e+09 2.709052e+03 2.103791e+03 -1.738444e+02
-4.475304e+09 -4.275309e+09 -4.435308e+09 3.178543e+03 8.028768e+02 -4.352618e+02
-4.063557e+09 -3.863556e+09 -4.023555e+09 -7.583338e+02 -8.835606e+01 -4.711804e+01
-3.774510e+09 -3.574509e+09 -3.734510e+09 -6.447516e+01 -1.248089e+01 -3.743373e+01
-3.963487e+09 -3.763493e+09 -3.923488e+09 1.007547e+03 2.467794e+02 -2.657916e+01
-3.955794e+09 -3.755798e+09 -3.915794e+09 1.251824e+03 3.957535e+02 -7.931670e+01
-3.962727e+09 -3.762734e+09 -3.922729e+09 5.955635e+02 2.965180e+02 -3.601856e+01
-4.825244e+09 -4.625243e+09 -4.785244e+09 -1.317971e+02 -9.958715e+00 1.887920e+01
-4.051350e+09 -3.851350e+09 -4.011350e+09 -1.249584e+02 -3.166967e+00 -1.495813e+01
-4.492951e+09 -4.292950e+09 -4.452950e+09 -1.036720e+02 -3.921940e+00 2.704255e-01
-4.196126e+09 -3.996126e+09 -4.156126e+09 -7.934920e+01 1.277310e+00 7.877416e+00
-4.116351e+09 -3.916354e+09 -4.076352e+09 -1.833865e+03 3.161828e+02 -7.601292e+02
-4.166266e+09 -3.966265e+09 -4.126265e+09 -1.057089e+01 -9.928897e+00 -3.083132e+01
-4.642474e+09 -4.442478e+09 -4.602473e+09 1.296905e+03 -2.245911e+02 -4.177683e+02
-4.277760e+09 -4.077764e+09 -4.237761e+09 -1.864646e+03 2.778296e+02 -4.251431e+02
-4.593499e+09 -4.393498e+09 -4.553499e+09 -4.145604e+01 -5.200239e+00 -4.324059e+00
-4.769841e+09 -4.569840e+09 -4.729840e+09 -4.361420e+01 -4.809962e+00 2.265073e+01
-4.288466e+09 -4.088461e+09 -4.248459e+09 3.008037e+03 -2.528400e+03 6.448717e+02
-4.983061e+09 -4.783060e+09 -4.943060e+09 -5.566766e+01 1.150144e+01 8.771214e+00
-4.129866e+09 -3.929861e+09 -4.089866e+09 -2.041906e+03 3.076874e+02 5.846336e+02
-2.148606e+09 -1.948609e+09 -2.108606e+09 -1.852119e+03 -1.150014e+03 -1.948441e+02
-4.470874e+09 -4.270874e+09 -4.430856e+09 2.299886e+02 -5.530055e+02 -3.018036e+03
-3.960696e+09 -3.760696e+09 -3.920696e+09 -4.161598e+03 1.901268e+03 -1.353705e+03
-1.897025e+09 -1.697027e+09 -1.857024e+09 -2.739083e+03 -1.705377e+03 -7.803552e+02
-2.142503e+09 -1.942501e+09 -2.102502e+09 4.842737e+01 1.207802e+01 -2.578699e+01
-2.841706e+09 -2.641704e+09 -2.801705e+09 7.761534e+01 1.333580e+01 -1.492008e+01
-3.958855e+09 -3.758851e+09 -3.918855e+09 -4.265702e+03 4.903996e+03 -1.891508e+03
-3.071275e+09 -2.871274e+09 -3.031274e+09 1.037371e+02 1.018885e+01 -8.846374e+00
-3.002778e+09 -2.802777e+09 -2.962777e+09 8.826613e+01 1.058551e+01 -1.048804e+01
-1.561146e+09 -1.361145e+09 -1.521145e+09 -9.078469e+01 -1.787539e+01 -2.961995e+01
-4.286495e+09 -4.086493e+09 -4.246494e+09 1.206385e+02 1.856079e+01 -4.897100e+00
-1.881156e+09 -1.681155e+09 -1.841155e+09 9.773173e+01 9.418109e+00 -2.229330e+01
-4.303738e+09 -4.103737e+09 -4.263737e+09 2.459280e+01 5.178333e+01 -2.679120e+00
-5.001359e+09 -4.801358e+09 -4.961358e+09 1.046980e+02 -4.630930e+00 7.295419e+00
-4.130544e+09 -3.930543e+09 -4.090543e+09 1.874463e+02 -1.629964e+00 -4.981901e+01
-4.992686e+09 -4.792686e+09 -4.952686e+09 2.711259e+02 -1.539548e+01 -1.933913e+00
-4.302201e+09 -4.102203e+09 -4.262202e+09 -2.981044e+02 8.351647e+00 -5.908503e+01
-3.959504e+09 -3.759503e+09 -3.919503e+09 1.733258e+02 1.439760e+01 4.228674e+00
-4.989086e+09 -4.789084e+09 -4.949085e+09 3.681686e+01 -7.925649e+00 1.466007e+01
-4.636142e+09 -4.436141e+09 -4.596141e+09 1.495325e+02 1.816591e+01 -1.546749e+01
-4.277089e+09 -4.077089e+09 -4.237089e+09 1.205369e+02 1.306617e+00 3.377045e+01
-4.146123e+09 -3.946123e+09 -4.106123e+09 1.507701e+02 -2.243403e+00 1.955609e+01
-3.646440e+09 -3.446440e+09 -3.606441e+09 1.654881e+02 2.389346e+01 -2.812703e+01
-3.959504e+09 -3.759503e+09 -3.919503e+09 2.206828e+02 2.018363e+01 -1.305498e+01
-4.294699e+09 -4.094698e+09 -4.254698e+09 3.620809e+02 1.211645e+01 2.607688e+01
-3.960480e+09 -3.760479e+09 -3.920479e+09 2.111378e+02 2.896092e+01 -3.572496e+01
-3.867500e+09 -3.667500e+09 -3.827500e+09 3.486055e+02 1.750887e+01 1.257046e+02
-4.039457e+09 -3.839457e+09 -3.999457e+09 2.764554e+02 -1.056391e+01 -1.383741e+01
-4.935514e+09 -4.735514e+09 -4.895514e+09 3.039139e+02 -3.328864e+00 -2.372962e+01
-4.802959e+09 -4.602961e+09 -4.762960e+09 -1.724990e+02 -1.593829e+00 2.309707e+01
-4.221951e+09 -4.021952e+09 -4.181952e+09 -1.467708e+02 -6.205088e+00 9.890126e+00
-3.996577e+09 -3.796578e+09 -3.956578e+09 -1.646236e+02 -1.917917e+01 6.623608e-01
-4.062311e+09 -3.862312e+09 -4.022312e+09 -1.790071e+02 -1.385133e+01 -1.878741e+01
-3.961443e+09 -3.761442e+09 -3.921441e+09 -3.341182e+02 5.273558e+01 -2.422666e+01
-2.814321e+09 -2.614319e+09 -2.774319e+09 -6.922307e+02 -6.643218e+02 -2.323137e+02
-1.561215e+09 -1.361218e+09 -1.521214e+09 2.896664e+02 4.527332e+01 4.464655e+01
-2.164131e+09 -1.964134e+09 -2.124130e+09 2.872859e+02 4.180860e+01 2.855510e+01
-2.171043e+09 -1.971041e+09 -2.131041e+09 -5.696799e+02 -5.920175e+02 -8.546797e+01
-4.126657e+09 -3.926656e+09 -4.086656e+09 1.376480e+02 9.836533e+00 -8.930183e+00
-1.852043e+09 -1.652041e+09 -1.812040e+09 -6.094684e+02 -5.291725e+02 -1.482686e+02
-1.680951e+09 -1.480949e+09 -1.640949e+09 -2.703628e+02 -6.005059e+02 -6.108834e+01
-2.400346e+09 -2.200344e+09 -2.360344e+09 -1.988476e+02 -2.544566e+02 -2.129755e+01
-2.782248e+09 -2.582247e+09 -2.742247e+09 8.416034e+01 1.349404e+01 -1.849228e+01
-4.121187e+09 -3.921186e+09 -4.081186e+09 1.389590e+01 5.257554e-01 -6.001635e+00
-3.812531e+09 -3.612530e+09 -3.772530e+09 5.503240e+01 5.090634e+00 -1.097793e+01
-3.877938e+09 -3.677937e+09 -3.837938e+09 8.337256e+01 1.328219e+01 -2.157298e+01
-2.269886e+09 -2.069885e+09 -2.229885e+09 -2.320228e+00 -4.807550e+00 -3.643635e+01
-2.905845e+09 -2.705843e+09 -2.865843e+09 -1.885459e+02 -4.634226e+02 -1.052008e+02
-4.716292e+09 -4.516291e+09 -4.676291e+09 1.691698e+01 -3.713488e+00 -1.378911e+00
-4.913295e+09 -4.713294e+09 -4.873294e+09 6.376460e+00 -1.488409e+00 5.685724e+00
-2.769428e+09 -2.569425e+09 -2.729426e+09 -4.893125e+02 -8.340564e+02 -1.424640e+02
-3.890582e+09 -3.690580e+09 -3.850581e+09 5.372399e+00 1.834984e+00 -7.589918e+00
-2.921117e+09 -2.721114e+09 -2.881115e+09 -1.952731e+02 -4.867262e+02 -2.319074e+01
-2.185659e+09 -1.985656e+09 -2.145656e+09 -2.692924e+02 -5.602668e+02 -1.217833e+01
-2.884523e+09 -2.684521e+09 -2.844521e+09 -4.889992e+02 -6.762276e+02 -1.472287e+02
-2.759567e+09 -2.559564e+09 -2.719565e+09 -4.517131e+02 -7.166168e+02 -1.518370e+02
-2.056370e+09 -1.856369e+09 -2.016368e+09 -8.062982e+02 -8.282495e+02 -9.416326e+01
-2.051465e+09 -1.851463e+09 -2.011462e+09 -6.122645e+02 -5.968362e+02 -1.090373e+02
-4.668220e+09 -4.468221e+09 -4.628217e+09 -3.056887e+03 9.490304e+02 -6.491548e+02
-1.929878e+09 -1.729875e+09 -1.889875e+09 -3.196227e+02 -6.734255e+02 -1.164066e+02
-4.990070e+09 -4.790070e+09 -4.950070e+09 3.960328e+02 -1.535347e+01 -2.541524e+01
-5.001016e+09 -4.801015e+09 -4.961015e+09 1.291750e+02 -1.212239e+01 2.708134e+00
-4.295296e+09 -4.095295e+09 -4.255295e+09 3.611813e+02 8.550707e+00 6.274771e+00
-4.990071e+09 -4.790070e+09 -4.950070e+09 2.602890e+02 -1.410312e+01 1.450858e-01
-3.802120e+09 -3.602119e+09 -3.762119e+09 3.847393e+01 -6.821068e+00 -2.029196e+01
-3.955961e+09 -3.755960e+09 -3.915960e+09 2.284553e+02 3.433151e+01 6.372568e+00
-4.646150e+09 -4.446149e+09 -4.606150e+09 2.285636e+02 -4.447806e+00 -3.243425e+01
-4.267150e+09 -4.067149e+09 -4.227149e+09 7.233679e+01 2.048033e+01 -8.435785e+00
-4.819947e+09 -4.619946e+09 -4.779947e+09 2.660243e+02 1.401215e+01 1.645171e+01
-3.003321e+09 -2.803320e+09 -2.963321e+09 1.451347e+02 3.182061e+01 -2.060374e+01
-4.998682e+09 -4.798681e+09 -4.958681e+09 4.544884e+02 -2.580595e+01 -1.481204e+01
-3.952858e+09 -3.752857e+09 -3.912857e+09 4.173764e+02 2.322481e+01 -5.835113e+01
-4.997400e+09 -4.797399e+09 -4.957399e+09 -2.170119e+00 -1.083465e+01 -7.714860e+00
-4.198918e+09 -3.998917e+09 -4.158917e+09 -1.541719e+01 -2.139896e+00 -4.322482e+00
-4.818840e+09 -4.618839e+09 -4.778840e+09 2.055979e+02 -1.450708e+00 -8.780720e+00
-3.961448e+09 -3.761450e+09 -3.921449e+09 -4.502303e+02 -2.693966e+01 4.573023e+01
-4.826820e+09 -4.626819e+09 -4.786819e+09 5.841847e+01 2.761354e+00 1.342104e+01
-2.153396e+09 -1.953394e+09 -2.113395e+09 -1.087210e+01 -2.861483e+00 -7.862706e+00
-2.006060e+09 -1.806059e+09 -1.966059e+09 -2.768417e+01 -8.847173e+00 -8.199199e+00
-3.962936e+09 -3.762942e+09 -3.922943e+09 -1.514662e+03 -2.773742e+03 -1.678048e+02
-2.056775e+09 -1.856773e+09 -2.016774e+09 -9.529963e+01 -6.691426e+00 -2.868476e+01
-2.439597e+09 -2.239596e+09 -2.399596e+09 -1.107226e+02 -6.366542e+00 -1.237271e+01
-3.962677e+09 -3.762680e+09 -3.922679e+09 2.859460e+03 9.072614e+02 -2.459890e+02
-3.339280e+09 -3.139281e+09 -3.299281e+09 1.874131e+02 3.492191e+00 7.692815e+00
-3.202529e+09 -3.002528e+09 -3.162528e+09 -4.142876e+01 8.070785e+00 -1.506571e+01
-4.991282e+09 -4.791283e+09 -4.951283e+09 -7.687885e+02 -6.557941e+00 -5.676699e+01
-4.656122e+09 -4.456121e+09 -4.616122e+09 -6.870801e+02 -3.464512e+01 2.785792e+01
-2.773675e+09 -2.573673e+09 -2.733674e+09 -3.861315e+01 -3.966978e-01 -3.645234e+01
-2.638195e+09 -2.438194e+09 -2.598195e+09 -1.229906e+01 1.512781e-01 -9.279692e+00
-2.885166e+09 -2.685164e+09 -2.845164e+09 -5.053889e+01 -2.153590e+01 -6.252229e+01
-4.143022e+09 -3.943021e+09 -4.103022e+09 -5.106863e+02 -2.271377e+01 3.216233e+01
-3.056352e+09 -2.856351e+09 -3.016351e+09 -5.019125e+01 -6.039635e+00 -1.462874e+01
-2.215657e+09 -2.015656e+09 -2.175657e+09 -2.747710e+01 -7.544837e+00 -2.244779e+01
-3.356801e+09 -3.156799e+09 -3.316800e+09 -7.251180e+01 9.059278e-01 5.706278e+00
-4.141869e+09 -3.941868e+09 -4.101869e+09 -7.045803e+02 -4.018049e+01 -6.582701e+01
-3.955794e+09 -3.755793e+09 -3.915793e+09 -3.715879e+02 -1.051854e+01 -6.412319e+01
-4.992211e+09 -4.792210e+09 -4.952210e+09 -4.335284e+02 3.694638e+00 -6.681466e+00
-3.962513e+09 -3.762512e+09 -3.922512e+09 -4.426553e+02 -3.977246e+01 -2.108640e+01
-5.001252e+09 -4.801251e+09 -4.961251e+09 -6.306855e+02 2.146480e+01 -1.337385e+01
-4.649524e+09 -4.449523e+09 -4.609523e+09 -4.102570e+02 -2.711989e+01 -6.518823e+00
-4.081184e+09 -3.881182e+09 -4.041182e+09 -2.080304e+01 -5.795978e+01 -7.709898e+01
-3.971554e+09 -3.771553e+09 -3.931553e+09 -5.980376e+02 -5.427648e+01 -1.629805e+01
-1.892992e+09 -1.692991e+09 -1.852991e+09 -3.318184e+02 -5.161249e+01 -4.851067e+01
-3.439385e+09 -3.239384e+09 -3.399384e+09 -1.388546e+02 -2.177509e+02 -8.950128e+00
-1.813222e+09 -1.613221e+09 -1.773221e+09 -9.458276e+00 -1.777014e+00 -1.140515e+01
-3.448119e+09 -3.248118e+09 -3.408119e+09 -3.407839e+02 -2.037547e+01 -2.063766e+01
-3.805817e+09 -3.605816e+09 -3.765817e+09 -3.849007e+01 -5.885745e-01 -1.971617e+01
-1.930283e+09 -1.730282e+09 -1.890282e+09 -6.241247e+01 -4.838139e+00 -1.134085e+01
-2.132608e+09 -1.932606e+09 -2.092607e+09 -3.680751e+01 -7.145957e+00 -2.640044e+01
-4.476547e+09 -4.276546e+09 -4.436547e+09 4.049120e+02 -3.026018e+02 1.269762e+02
-3.026087e+09 -2.826085e+09 -2.986086e+09 -6.566283e+01 1.219004e+00 -5.027424e+00
-1.810141e+09 -1.610145e+09 -1.770141e+09 1.254943e+02 7.135298e+01 3.672773e+01
-3.035833e+09 -2.835836e+09 -2.995832e+09 1.886984e+02 -2.147609e+01 5.615465e+01
-1.741580e+09 -1.541583e+09 -1.701579e+09 1.452095e+02 -3.037884e+01 8.866245e+00
-3.971555e+09 -3.771551e+09 -3.931559e+09 -2.168149e+03 -2.343403e+03 -1.612487e+03
-2.719191e+09 -2.519194e+09 -2.679190e+09 2.955728e+02 1.189734e+01 3.650370e+00
-4.043223e+09 -3.843221e+09 -4.003222e+09 -9.215044e+02 -7.479499e+02 -3.088924e+02
-4.990050e+09 -4.790048e+09 -4.950054e+09 -1.837209e+03 -5.697806e+02 -2.775528e+02
-4.649902e+09 -4.449897e+09 -4.609904e+09 -4.019128e+02 -6.188155e+02 -4.011095e+02
-4.991475e+09 -4.791470e+09 -4.951456e+09 5.846044e+03 -1.273907e+02 9.068023e+02
-4.135105e+09 -3.935099e+09 -4.095106e+09 -1.503461e+02 -9.008764e+02 -8.592402e+02
-2.737003e+09 -2.537006e+09 -2.697002e+09 2.168361e+02 -7.380208e+00 1.619347e+01
-1.948275e+09 -1.748278e+09 -1.908274e+09 1.438395e+02 5.072501e+01 1.415170e+01
-2.401681e+09 -2.201684e+09 -2.361680e+09 1.525924e+02 4.310053e+01 2.588285e+01
-1.571547e+09 -1.371545e+09 -1.531548e+09 4.006119e+01 -6.324536e+02 -4.741360e+02
-2.038313e+09 -1.838316e+09 -1.998313e+09 3.558419e+02 -1.765391e+01 2.195305e+01
-1.589792e+09 -1.389793e+09 -1.549795e+09 1.530243e+03 -3.475167e+02 -3.309456e+02
-4.992309e+09 -4.792305e+09 -4.952311e+09 -1.551407e+03 -3.629168e+02 -1.700934e+02
-4.143119e+09 -3.943115e+09 -4.103122e+09 -1.374219e+03 -1.959499e+03 -8.340028e+02
-4.119040e+09 -3.919039e+09 -4.079041e+09 -1.933299e+03 -7.980912e+02 -4.814310e+02
-1.582812e+09 -1.382807e+09 -1.542812e+09 2.805835e+02 -9.057613e+02 -1.859746e+03
-4.473507e+09 -4.273509e+09 -4.433506e+09 -2.917464e+03 7.109247e+02 -8.258405e+02
-2.045222e+09 -1.845224e+09 -2.005220e+09 4.196450e+02 -1.574423e+01 1.698411e+01
-2.215705e+09 -2.015708e+09 -2.175704e+09 5.494683e+01 2.158760e+01 2.592482e+01
-2.132723e+09 -1.932726e+09 -2.092723e+09 3.763271e+01 1.250914e+01 1.865630e+01
-1.874671e+09 -1.674672e+09 -1.834678e+09 2.996329e+03 8.641400e+01 -1.538423e+02
-4.246890e+09 -4.046889e+09 -4.206889e+09 6.175168e+01 -1.875520e+00 7.965788e-01
-3.941621e+09 -3.741620e+09 -3.901620e+09 2.345927e+01 4.680718e+00 -3.253760e+00
-4.138932e+09 -3.938931e+09 -4.098931e+09 1.300957e+01 -8.890119e+00 -1.143780e+01
-4.656045e+09 -4.456049e+09 -4.616046e+09 1.794555e+03 4.594342e+01 6.849460e+00
-4.476545e+09 -4.276544e+09 -4.436545e+09 5.418505e+02 -2.975612e+02 1.869317e+02
-4.992211e+09 -4.792215e+09 -4.952211e+09 1.188660e+03 6.092426e+01 2.779133e+01
-4.468333e+09 -4.268337e+09 -4.428333e+09 1.403507e+03 2.206355e+01 1.680354e+01
-4.761219e+09 -4.561218e+09 -4.721218e+09 2.721710e+01 -1.021127e+00 -9.750437e+00
-4.777583e+09 -4.577582e+09 -4.737582e+09 2.052781e+01 9.455814e+00 -6.380688e+00
-4.812440e+09 -4.612439e+09 -4.772439e+09 5.238686e+01 6.038801e+00 -2.627016e+01
-3.798419e+09 -3.598418e+09 -3.758418e+09 5.186390e+01 1.695834e+00 -4.984294e+00
-4.991177e+09 -4.791183e+09 -4.951179e+09 -6.382412e+02 8.308766e+01 3.484356e+01
-5.001251e+09 -4.801257e+09 -4.961253e+09 1.577318e+03 1.520990e+02 1.993748e+01
-4.992210e+09 -4.792216e+09 -4.952211e+09 1.260163e+03 4.648781e+01 9.738252e+00
-4.141869e+09 -3.941875e+09 -4.101870e+09 1.353942e+03 6.954486e+02 -1.262473e+02
-3.971553e+09 -3.771558e+09 -3.931554e+09 1.577927e+03 3.964478e+02 -5.937963e+01
-2.186729e+09 -1.986735e+09 -2.146729e+09 2.208564e+02 4.772965e+01 7.781786e+00
-4.802907e+09 -4.602906e+09 -4.762906e+09 5.769241e+01 -1.249990e+00 -6.758150e+00
-4.974142e+09 -4.774145e+09 -4.934141e+09 6.683653e+02 1.767454e+01 1.255559e+01
-4.177189e+09 -3.977189e+09 -4.137188e+09 -4.680114e+02 -1.593570e+02 -1.436277e+02
-4.723538e+09 -4.523539e+09 -4.683538e+09 -2.585676e+02 1.231437e+02 6.649273e+00
-4.143276e+09 -3.943278e+09 -4.103276e+09 -4.126798e+02 -5.260926e+01 -1.262479e+02
-4.827180e+09 -4.627182e+09 -4.787181e+09 -9.995632e+02 8.834601e+01 1.043240e+02
-3.810590e+09 -3.610591e+09 -3.770590e+09 -1.136756e+03 -7.090117e+02 -1.753584e+02
-4.820473e+09 -4.620471e+09 -4.780472e+09 2.842595e+00 -7.896202e+01 -1.823810e+01
-4.943354e+09 -4.743355e+09 -4.903354e+09 -4.444816e+02 -2.100122e+01 -5.522700e+01
-4.690357e+09 -4.490356e+09 -4.650357e+09 -1.115363e+02 1.290336e+01 -2.707189e+00
-3.529469e+09 -3.329469e+09 -3.489469e+09 -9.526047e+01 -1.712230e+01 -3.537089e+01
-4.328441e+09 -4.128441e+09 -4.288441e+09 -2.085720e+02 -1.378617e+01 7.966335e+00
-4.597982e+09 -4.397981e+09 -4.557982e+09 -7.752193e+01 -1.283312e+01 -1.163150e+01
-4.303990e+09 -4.103990e+09 -4.263989e+09 -1.713286e+02 -2.439649e+01 -1.975445e+00
-4.635424e+09 -4.435423e+09 -4.595424e+09 -2.181504e+02 -1.754145e+01 -2.053547e+01
-1.573550e+09 -1.373548e+09 -1.533549e+09 3.967445e+01 1.638715e+01 -3.672603e+01
-1.592370e+09 -1.392369e+09 -1.552369e+09 2.585207e+01 1.391393e+01 -6.535859e+01
-2.095145e+09 -1.895144e+09 -2.055144e+09 3.081970e+01 4.365845e+00 -1.629267e+01
-4.992116e+09 -4.792116e+09 -4.952116e+09 -7.967708e+01 1.931117e+01 8.745530e+00
-4.325693e+09 -4.125692e+09 -4.285693e+09 -2.387230e+02 1.069882e+01 3.410226e+01
-3.956525e+09 -3.756524e+09 -3.916524e+09 -8.162989e+01 -2.294941e+01 8.025561e+00
-4.479704e+09 -4.279703e+09 -4.439703e+09 3.932365e+01 4.538865e+00 -2.214435e+00
-4.599209e+09 -4.399211e+09 -4.559208e+09 2.753556e+02 2.131718e+01 -1.594645e+01
-4.111130e+09 -3.911133e+09 -4.071129e+09 6.646939e+02 4.970643e+01 -2.326452e+01
-4.992118e+09 -4.792119e+09 -4.952116e+09 2.845078e+02 1.325698e+02 4.115262e+01
-4.518500e+09 -4.318501e+09 -4.478499e+09 5.302626e+02 3.790752e+01 3.421465e+01
-4.832108e+09 -4.632109e+09 -4.792107e+09 8.121951e+02 -5.735865e+01 8.910544e+01
-3.957807e+09 -3.757809e+09 -3.917805e+09 3.021012e+02 -2.383613e+01 3.737956e+01
-3.281344e+09 -3.081343e+09 -3.241344e+09 -1.231568e+02 -2.901053e+01 1.176366e+01
-3.897654e+09 -3.697653e+09 -3.857653e+09 -1.629168e+02 -1.336142e+01 -5.252506e+00
-4.771800e+09 -4.571803e+09 -4.731801e+09 -4.163252e+02 -2.666586e+02 -1.343478e+02
-1.809534e+09 -1.609532e+09 -1.769533e+09 1.868050e+01 1.418020e+01 -1.565757e+01
-1.778785e+09 -1.578784e+09 -1.738784e+09 2.169153e+01 6.295462e+00 1.939657e-01
-2.328052e+09 -2.128051e+09 -2.288051e+09 1.005153e+01 5.388483e+00 -7.429799e+00
-3.015343e+09 -2.815342e+09 -2.975342e+09 3.263180e+01 6.364063e+00 -7.113279e-01
-2.759923e+09 -2.559922e+09 -2.719922e+09 3.963024e+01 1.384432e+00 -1.696812e+00
-5.002291e+09 -4.802291e+09 -4.962291e+09 -2.150238e+02 1.035618e+01 3.853077e+00
-4.991218e+09 -4.791215e+09 -4.951219e+09 -1.945117e+03 -1.708275e+02 1.565814e+02
-2.669505e+09 -2.469504e+09 -2.629504e+09 1.577618e+01 7.638910e+00 5.651013e-01
-2.089432e+09 -1.889431e+09 -2.049431e+09 4.577875e+01 1.094790e+01 -3.419562e+00
-2.067511e+09 -1.867510e+09 -2.027510e+09 5.416776e+01 7.151080e+00 -3.963844e+00
-2.793315e+09 -2.593315e+09 -2.753315e+09 -1.849820e+02 -1.631356e+01 3.133364e+01
-2.215506e+09 -2.015504e+09 -2.175505e+09 2.663886e+00 7.559696e+00 -5.948595e+00
-4.064066e+09 -3.864067e+09 -4.024066e+09 -2.011321e+02 -6.219437e+01 -1.056471e+02
-2.131916e+09 -1.931915e+09 -2.091916e+09 -6.514632e+00 1.153366e+01 -3.120487e+00
-3.836445e+09 -3.636448e+09 -3.796446e+09 -1.360326e+03 -3.932680e+02 -2.630133e+02
-2.895820e+09 -2.695817e+09 -2.855819e+09 -1.565793e+03 -1.297579e+03 -8.607533e+02
-1.827018e+09 -1.627019e+09 -1.787016e+09 -9.917009e+01 -2.145268e+02 1.166827e+01
-4.834272e+09 -4.634273e+09 -4.794273e+09 -9.658545e+02 -3.634796e+02 -1.842775e+02
-2.610789e+09 -2.410791e+09 -2.570788e+09 3.437399e+02 1.349517e+02 2.545788e+01
-2.367309e+09 -2.167311e+09 -2.327308e+09 1.741911e+03 4.883358e+02 1.709939e+01
-2.165527e+09 -1.965529e+09 -2.125526e+09 1.457910e+02 7.303333e+01 5.061288e+00
-4.212616e+09 -4.012620e+09 -4.172617e+09 -7.154311e+02 -3.050328e+02 -1.256635e+02
-4.644612e+09 -4.444615e+09 -4.604616e+09 -1.526644e+03 -5.736761e+02 2.030421e+01
-4.824975e+09 -4.624980e+09 -4.784978e+09 -1.079828e+03 7.722057e+01 1.826972e+02
-4.264339e+09 -4.064341e+09 -4.224340e+09 -1.176281e+03 -4.661937e+02 -1.791864e+02
-4.123719e+09 -3.923720e+09 -4.083717e+09 6.115698e+02 1.440913e+02 8.732987e+01
-3.497324e+09 -3.297325e+09 -3.457323e+09 5.669071e+02 1.264860e+02 -1.212946e+01
-3.386358e+09 -3.186358e+09 -3.346356e+09 2.800707e+02 1.804586e+02 -1.623772e+00
-4.132838e+09 -3.932837e+09 -4.092838e+09 1.455279e+03 -4.797978e+01 -2.059116e+02
-4.095663e+09 -3.895664e+09 -4.055662e+09 8.029032e+02 1.632813e+02 -1.312037e+02
-4.994927e+09 -4.794926e+09 -4.954926e+09 7.637514e+02 -4.605701e+01 -3.558224e+01
-4.646307e+09 -4.446308e+09 -4.606308e+09 8.890072e+02 4.335613e+01 -4.406695e+00
-3.962609e+09 -3.762609e+09 -3.922609e+09 9.539849e+02 7.695050e+01 -3.038457e+01
-4.817018e+09 -4.617017e+09 -4.777017e+09 7.296649e+02 -1.202986e+01 -4.320769e+01
-4.645652e+09 -4.445651e+09 -4.605652e+09 7.140979e+02 6.172763e+01 3.076915e+01
-3.610395e+09 -3.410394e+09 -3.570393e+09 4.391310e+02 2.049258e+02 6.839988e+01
-4.651694e+09 -4.451692e+09 -4.611693e+09 9.294120e+02 2.261060e+01 -9.098044e+01
-3.481777e+09 -3.281778e+09 -3.441776e+09 5.430855e+02 5.932285e+01 -5.317532e+01
-3.962235e+09 -3.762237e+09 -3.922237e+09 -1.035168e+03 -4.245268e+01 4.882555e+01
-3.961766e+09 -3.761766e+09 -3.921766e+09 4.632658e+02 4.212882e+01 2.497116e+01
-4.641043e+09 -4.441042e+09 -4.601043e+09 8.164910e+02 5.771373e+01 4.173311e+01
-4.640148e+09 -4.440147e+09 -4.600147e+09 2.890458e+02 2.111015e+01 4.273019e+00
-4.302918e+09 -4.102917e+09 -4.262917e+09 2.282495e+02 6.558271e+00 1.394364e+01
-4.638500e+09 -4.438500e+09 -4.598499e+09 3.044273e+02 4.233929e+01 8.474217e+01
-3.853867e+09 -3.653867e+09 -3.813865e+09 1.051020e+03 2.661432e+02 2.009422e-01
-4.313351e+09 -4.113351e+09 -4.273351e+09 4.066516e+02 1.451491e+01 -6.089920e-01
-4.839120e+09 -4.639118e+09 -4.799119e+09 3.712702e+01 -1.852143e+00 -1.759379e+01
-4.107259e+09 -3.907260e+09 -4.067258e+09 1.256003e+03 2.195147e+02 -4.689452e+01
-3.962022e+09 -3.762022e+09 -3.922022e+09 2.261104e+02 3.333229e+01 -4.661183e+00
-1.715685e+09 -1.515685e+09 -1.675685e+09 1.007741e+02 4.032962e+01 2.475752e+00
-4.122698e+09 -3.922697e+09 -4.082697e+09 1.431773e+02 3.258386e+00 -1.532680e+01
-3.955639e+09 -3.755638e+09 -3.915638e+09 1.454922e+02 1.382237e+01 -4.238465e+01
-4.291158e+09 -4.091157e+09 -4.251157e+09 1.985074e+02 -2.334614e+00 -1.271189e+01
-4.133840e+09 -3.933839e+09 -4.093840e+09 3.019621e+02 5.402101e+00 -3.412872e+00
-4.832138e+09 -4.632138e+09 -4.792137e+09 1.113427e+03 -1.480090e+02 1.144573e+02
-3.896851e+09 -3.696852e+09 -3.856850e+09 9.584696e+02 2.093198e+02 2.732605e+00
-4.651953e+09 -4.451951e+09 -4.611952e+09 6.817973e+01 -3.770538e+00 -1.949143e+01
-4.122226e+09 -3.922225e+09 -4.082225e+09 1.053202e+02 5.583307e+00 9.257483e-01
-3.960698e+09 -3.760698e+09 -3.920696e+09 -3.390826e+03 1.026857e+03 3.582092e+02
-4.985492e+09 -4.785491e+09 -4.945491e+09 -3.801173e+02 2.446164e+00 -3.872948e+00
-3.471606e+09 -3.271606e+09 -3.431606e+09 -8.257391e+01 -1.335497e+01 4.165202e+00
-4.992693e+09 -4.792693e+09 -4.952693e+09 -6.700188e+02 1.849763e+01 -2.311399e+01
-4.134820e+09 -3.934817e+09 -4.094821e+09 3.620564e+03 6.342281e+02 -7.616428e+02
-5.001995e+09 -4.801995e+09 -4.961995e+09 -2.408342e+02 1.329252e+01 1.211613e+01
-4.297401e+09 -4.097400e+09 -4.257400e+09 -3.089169e+02 3.437422e+00 -1.323441e+01
-4.820768e+09 -4.620768e+09 -4.780768e+09 -5.017028e+02 2.035154e+01 -5.785871e+00
-4.638498e+09 -4.438498e+09 -4.598498e+09 -4.438390e+01 -3.376190e+00 1.905077e+01
-1.810073e+09 -1.610071e+09 -1.770072e+09 -4.079137e+01 -1.929648e+00 -3.011193e+01
-4.990946e+09 -4.790945e+09 -4.950945e+09 -2.602774e+02 6.575163e+00 1.410641e+01
-4.987627e+09 -4.787626e+09 -4.947627e+09 -3.998876e+02 -3.023073e-01 -2.939933e+01
-3.737207e+09 -3.537206e+09 -3.697207e+09 -1.309240e+02 -1.270767e+01 -2.340220e+01
-4.992694e+09 -4.792694e+09 -4.952701e+09 -2.106390e+03 -1.027045e+03 -2.642743e+02
-4.198886e+09 -3.998885e+09 -4.158884e+09 6.239884e+02 1.944748e+02 -5.213598e+01
-4.820643e+09 -4.620645e+09 -4.780645e+09 -1.531356e+03 -5.084050e+02 -2.592627e+02
-3.380866e+09 -3.180864e+09 -3.340864e+09 -4.048182e+02 -3.197083e+02 -1.559615e+02
-4.126828e+09 -3.926829e+09 -4.086831e+09 -2.158234e+03 -1.220501e+03 -3.824836e+02
-4.990050e+09 -4.790048e+09 -4.950054e+09 -1.696369e+03 -6.437568e+02 -2.259526e+02
-4.632710e+09 -4.432709e+09 -4.592714e+09 -1.943622e+03 -6.703439e+02 -2.654063e+02
-4.131917e+09 -3.931915e+09 -4.091920e+09 -2.126298e+03 -2.007554e+03 -1.042907e+03
-4.992694e+09 -4.792698e+09 -4.952695e+09 2.248072e+03 1.738627e+02 -5.693097e+01
-4.061355e+09 -3.861355e+09 -4.021353e+09 1.458109e+03 2.548487e+02 -1.371589e+02
-3.814419e+09 -3.614419e+09 -3.774418e+09 1.324384e+03 3.982547e+02 -6.694255e+01
-4.990049e+09 -4.790053e+09 -4.950050e+09 1.458219e+03 1.033532e+02 -3.311839e+01
-4.818285e+09 -4.618289e+09 -4.778285e+09 1.332172e+03 7.643662e+00 7.695569e+01
-4.660694e+09 -4.460694e+09 -4.620693e+09 1.291308e+03 1.477136e+02 7.853336e+01
-4.639685e+09 -4.439688e+09 -4.599685e+09 1.623238e+03 1.215761e+02 1.547665e+01
-4.131819e+09 -3.931824e+09 -4.091820e+09 1.407843e+03 3.098454e+02 -9.259744e+01
-4.325781e+09 -4.125782e+09 -4.285780e+09 1.197321e+03 2.552615e+02 1.586967e+02
-4.786324e+09 -4.586332e+09 -4.746329e+09 8.010311e+02 -1.006557e+02 -3.887069e+02
-4.994095e+09 -4.794094e+09 -4.954093e+09 4.406353e+02 2.121721e+02 2.816752e+01
-3.414147e+09 -3.214151e+09 -3.374146e+09 6.338820e+02 3.218890e+01 -3.255968e+01
-4.475250e+09 -4.275254e+09 -4.435250e+09 9.762372e+02 1.434361e+02 -1.661588e+01
-3.534946e+09 -3.334949e+09 -3.494945e+09 3.079592e+01 4.234680e+00 2.956319e+01
-4.991063e+09 -4.791065e+09 -4.951062e+09 1.278467e+03 2.261179e+01 1.357494e+01
-4.257796e+09 -4.057803e+09 -4.217799e+09 -6.131604e+02 -5.361238e+02 -6.251995e+00
-4.664513e+09 -4.464519e+09 -4.624517e+09 -8.801973e+02 -7.271763e+02 -4.316499e+01
-3.961359e+09 -3.761366e+09 -3.921361e+09 1.164399e+03 5.088955e+02 -1.037546e+02
-4.815862e+09 -4.615867e+09 -4.775865e+09 1.992491e+03 7.303183e+01 5.570113e+01
-3.889711e+09 -3.689717e+09 -3.849714e+09 -1.260248e+03 -6.173510e+02 -2.301648e+02
-4.653626e+09 -4.453630e+09 -4.613629e+09 -1.157100e+03 -2.502710e+02 -1.043237e+02
-4.306669e+09 -4.106664e+09 -4.266671e+09 -4.051759e+02 -1.232843e+03 -9.272693e+02
-4.030143e+09 -3.830148e+09 -3.990145e+09 -6.415943e+02 -1.671582e+02 -6.089479e+01
-4.994093e+09 -4.794098e+09 -4.954095e+09 -4.723126e+02 -7.216878e+01 -1.481981e+02
-4.994092e+09 -4.794092e+09 -4.954092e+09 -1.117013e+02 2.861292e+01 7.957482e+00
-3.961360e+09 -3.761359e+09 -3.921359e+09 -6.975657e+02 -7.246184e+01 -8.339335e+00
-4.036223e+09 -3.836224e+09 -3.996224e+09 -1.953586e+02 1.526310e+01 -8.077699e-01
-4.194265e+09 -3.994265e+09 -4.154265e+09 -1.686618e+02 7.370899e+00 -1.294949e+01
-4.286033e+09 -4.086033e+09 -4.246033e+09 -8.318375e+02 -2.659541e+00 2.758795e+01
-4.804497e+09 -4.604495e+09 -4.764500e+09 -1.806735e+03 -8.069818e+02 -1.282207e+02
-4.510318e+09 -4.310319e+09 -4.470318e+09 -2.045580e+02 -5.965214e+01 1.597341e+01
-4.983101e+09 -4.783100e+09 -4.943101e+09 -1.027342e+03 -1.203623e+02 -8.480800e+01
-3.812395e+09 -3.612395e+09 -3.772396e+09 -2.710877e+02 -1.935442e+01 2.786545e+01
-4.978424e+09 -4.778423e+09 -4.938426e+09 -1.825256e+03 -4.042692e+02 -1.372252e+02
-4.660611e+09 -4.460606e+09 -4.620611e+09 -5.443840e+02 -4.656511e+02 -3.504784e+02
-4.276326e+09 -4.076325e+09 -4.236326e+09 -1.671659e+03 -8.621065e+02 -4.178565e+02
-3.544623e+09 -3.344623e+09 -3.504623e+09 -1.099569e+02 -3.098179e+01 1.305505e+01
-4.660624e+09 -4.460624e+09 -4.620624e+09 -2.460298e+02 -1.652900e+01 2.277882e+01
-4.108209e+09 -3.908209e+09 -4.068209e+09 -1.854424e+02 -1.664166e+01 -1.658765e+01
-4.813830e+09 -4.613828e+09 -4.773828e+09 -2.805007e+02 -9.789454e+01 -9.644077e+01
-4.983101e+09 -4.783100e+09 -4.943101e+09 -8.563375e+02 -7.937925e+01 -1.118983e+02
-3.431738e+09 -3.231741e+09 -3.391739e+09 -1.416331e+03 -1.169904e+03 -4.456929e+02
-1.591476e+09 -1.391473e+09 -1.551475e+09 -1.483127e+03 -1.779282e+03 -7.719877e+02
-3.910870e+09 -3.710870e+09 -3.870870e+09 -1.976814e+03 -6.269214e+02 -4.379455e+02
-4.088730e+09 -3.888728e+09 -4.048730e+09 -1.443155e+03 -1.004036e+03 -3.678182e+02
-4.288630e+09 -4.088635e+09 -4.248630e+09 8.037358e+02 8.924892e+01 1.621625e+01
-4.832949e+09 -4.632955e+09 -4.792949e+09 3.969236e+02 -4.101942e+01 7.761647e+01
-4.609301e+09 -4.409306e+09 -4.569301e+09 2.460752e+02 4.453951e+00 2.209852e+01
-5.002938e+09 -4.802943e+09 -4.962938e+09 2.272859e+02 -1.063610e+01 -5.325546e+01
-4.290075e+09 -4.090074e+09 -4.250075e+09 -2.288608e+02 1.813892e+00 -5.636365e+00
-4.832950e+09 -4.632949e+09 -4.792949e+09 -1.939196e+02 -5.824568e+00 4.274336e+01
-4.184938e+09 -3.984936e+09 -4.144937e+09 -6.749971e+01 -3.665064e-02 -2.805625e+01
-5.002939e+09 -4.802938e+09 -4.962938e+09 -5.520395e+01 5.120775e-01 -2.227665e+01
-4.260542e+09 -4.060539e+09 -4.220542e+09 -7.182934e+02 -5.906083e+02 -3.234786e+02
-4.832951e+09 -4.632947e+09 -4.792951e+09 -2.009893e+02 -9.493674e+01 4.356919e+01
-4.189982e+09 -3.989977e+09 -4.149982e+09 1.454376e+02 -6.038655e+02 -2.048502e+02
-4.985492e+09 -4.785496e+09 -4.945492e+09 1.345181e+03 6.422617e+00 -5.584308e+00
-5.002940e+09 -4.802936e+09 -4.962940e+09 4.488248e+00 -2.838424e+02 -1.668530e+02
-4.819182e+09 -4.619184e+09 -4.779181e+09 1.577727e+03 1.580407e+02 -7.778848e+01
-4.822458e+09 -4.622462e+09 -4.782458e+09 3.581644e+02 -2.697555e+01 5.971403e+01
-4.985492e+09 -4.785495e+09 -4.945492e+09 1.099086e+03 1.253119e+02 -7.319915e+01
-4.529725e+09 -4.329728e+09 -4.489724e+09 7.576250e+01 1.730571e+00 2.200160e+01
-4.011719e+09 -3.811722e+09 -3.971718e+09 3.910714e+02 2.777018e+01 -2.156421e+01
-4.950756e+09 -4.750758e+09 -4.910755e+09 1.689605e+02 3.405709e+01 2.497175e-05
-4.818450e+09 -4.618451e+09 -4.778442e+09 5.605162e+03 7.930002e+02 -5.464554e+02
-5.002315e+09 -4.802316e+09 -4.962313e+09 1.042209e+03 5.881796e+01 2.257269e+01
-3.675153e+09 -3.475155e+09 -3.635151e+09 1.334607e+02 2.641520e+01 -7.646657e+00
-4.297431e+09 -4.097434e+09 -4.257430e+09 1.076213e+03 1.077307e+02 -3.998945e+01
-1.905310e+09 -1.705315e+09 -1.865310e+09 3.620939e+02 4.716130e+01 4.637695e+01
-4.992603e+09 -4.792598e+09 -4.952606e+09 2.627016e+03 -3.576403e+02 -3.145365e+02
-4.992177e+09 -4.792179e+09 -4.952176e+09 9.392073e+02 2.254878e+01 -1.570676e+00
-3.962431e+09 -3.762430e+09 -3.922430e+09 -1.529836e+01 -1.194159e+00 -9.945534e+00
-4.079452e+09 -3.879452e+09 -4.039452e+09 -2.158992e+02 -1.558284e+01 -1.707500e+01
-4.951559e+09 -4.751561e+09 -4.911558e+09 7.272542e+01 -8.442278e-01 4.464283e+00
-3.873544e+09 -3.673547e+09 -3.833543e+09 1.691592e+02 -1.167441e+01 2.859067e+01
-4.559080e+09 -4.359079e+09 -4.519080e+09 -1.608681e+01 -1.518032e+01 -2.163665e+00
-4.941909e+09 -4.741909e+09 -4.901909e+09 -2.712849e+01 1.609079e+01 -7.794979e-09
-4.821293e+09 -4.621296e+09 -4.781292e+09 2.900217e+02 -6.195827e+01 4.137510e+01
-4.992146e+09 -4.792146e+09 -4.952146e+09 -2.531498e+02 9.802513e+00 -1.317149e+01
-4.772521e+09 -4.572524e+09 -4.732520e+09 1.857666e+02 -7.440132e+01 8.799471e+00
-3.922314e+09 -3.722313e+09 -3.882314e+09 -3.942670e+02 -2.322272e+01 5.803339e+01
-4.469229e+09 -4.269228e+09 -4.429229e+09 -3.331019e+02 -2.341233e+01 -2.028027e+01
-3.966052e+09 -3.766051e+09 -3.926052e+09 -2.417212e+01 9.047938e+00 4.044445e-01
-4.640747e+09 -4.440747e+09 -4.600747e+09 -4.039958e+01 -4.030294e+00 -1.685529e+01
-4.645058e+09 -4.445054e+09 -4.605061e+09 -4.445315e+02 -4.501835e+02 7.426601e+02
-4.950755e+09 -4.750755e+09 -4.910755e+09 -1.738706e+01 1.084701e+01 -3.367830e-09
-5.002291e+09 -4.802291e+09 -4.962291e+09 -1.902630e+02 1.033068e+01 3.820475e+00
-4.131409e+09 -3.931405e+09 -4.091412e+09 -1.829737e+02 -1.512919e+03 1.665884e+03
-4.806930e+09 -4.606929e+09 -4.766929e+09 -4.730165e+01 4.541079e+00 9.603806e-01
-4.131347e+09 -3.931343e+09 -4.091352e+09 -3.223758e+02 -1.864756e+03 1.860071e+03
-4.818269e+09 -4.618266e+09 -4.778270e+09 -2.175248e+03 -5.324854e+00 -8.052869e+01
-3.486762e+09 -3.286761e+09 -3.446761e+09 -1.354234e+01 -4.447074e-01 4.784732e-01
-4.015890e+09 -3.815888e+09 -3.975889e+09 -1.757031e+02 -6.611597e+00 -2.721879e+01
-4.788565e+09 -4.588568e+09 -4.748564e+09 1.636314e+02 3.851039e+01 3.669470e+00
-4.989346e+09 -4.789342e+09 -4.949349e+09 -2.490321e+03 -5.053377e+02 2.971039e+02
-4.642198e+09 -4.442193e+09 -4.602201e+09 -2.244868e+03 3.034215e+02 1.124226e+03
-4.643176e+09 -4.443172e+09 -4.603178e+09 -2.410800e+03 2.163077e+00 6.468575e+02
-4.184934e+09 -3.984939e+09 -4.144934e+09 2.557999e+02 7.690414e+00 -3.233014e+01
-5.000982e+09 -4.800985e+09 -4.960981e+09 2.524140e+02 -1.331313e+01 6.777045e+01
-3.084756e+09 -2.884758e+09 -3.044754e+09 5.082692e+02 6.234308e+01 -4.176916e+01
-3.961108e+09 -3.761107e+09 -3.921107e+09 1.719112e+02 3.075395e+01 -4.011120e+01
-4.646184e+09 -4.446184e+09 -4.606183e+09 -3.819087e+02 -3.289534e+01 -3.838324e+01
-4.131937e+09 -3.931933e+09 -4.091938e+09 -8.213072e+02 -6.656672e+02 8.559175e+02
-4.993852e+09 -4.793851e+09 -4.953851e+09 2.649751e+02 -1.130831e+01 9.125703e+00
-4.470278e+09 -4.270277e+09 -4.430277e+09 3.037176e+02 1.578987e+01 -2.223459e+01
-4.820055e+09 -4.620054e+09 -4.780054e+09 2.402398e+02 -9.414930e+00 -3.830188e+01
-2.471550e+09 -2.271548e+09 -2.431547e+09 -4.592099e+02 -5.269793e+02 -1.037932e+02
-4.131804e+09 -3.931800e+09 -4.091805e+09 -2.128525e+03 -5.003065e+02 1.264603e+03
-4.991026e+09 -4.791023e+09 -4.951027e+09 -2.427385e+03 -2.396208e+02 1.352861e+02
-4.762367e+09 -4.562364e+09 -4.722365e+09 -2.184485e+02 -1.912535e+02 -2.987040e+01
-4.770925e+09 -4.570924e+09 -4.730924e+09 -1.195509e+02 1.083363e+02 -1.813534e+01
-4.112114e+09 -3.912110e+09 -4.072113e+09 -3.844331e+02 -4.168972e+02 -1.015397e+02
-4.658015e+09 -4.458013e+09 -4.618013e+09 -6.801424e+01 -5.538268e+01 -3.578522e+01
-3.400754e+09 -3.200750e+09 -3.360753e+09 -6.096742e+02 -1.350644e+03 -6.514597e+02
-3.873836e+09 -3.673833e+09 -3.833834e+09 -2.494715e+02 -3.097283e+02 2.918236e+01
-4.823212e+09 -4.623211e+09 -4.783211e+09 -4.917504e+02 4.416107e+01 7.167856e+01
-4.165367e+09 -3.965364e+09 -4.125365e+09 -3.071051e+02 -3.405501e+02 -7.923862e+01
-2.161593e+09 -1.961591e+09 -2.121590e+09 -6.216720e+01 -2.044126e+02 -4.085597e+00
-5.005163e+09 -4.805160e+09 -4.965161e+09 -2.005214e+02 -2.554327e+02 6.900206e+01
-4.054466e+09 -3.854465e+09 -4.014465e+09 6.563821e+01 -4.676316e+00 -1.679837e+01
-2.370591e+09 -2.170589e+09 -2.330589e+09 -6.719181e+01 -8.256500e+00 -4.283379e+01
-3.607959e+09 -3.407954e+09 -3.567958e+09 -3.594236e+02 -8.195759e+02 -2.032916e+02
-4.222495e+09 -4.022494e+09 -4.182494e+09 -4.292192e+01 1.452140e+01 -3.774911e+00
-2.639027e+09 -2.439025e+09 -2.599025e+09 -6.036155e+01 -1.856454e+02 7.921126e+01
-1.996914e+09 -1.796912e+09 -1.956912e+09 -4.698931e+02 -3.033589e+02 -1.267721e+02
-4.822621e+09 -4.622620e+09 -4.782620e+09 3.694431e+01 -2.934989e+00 7.323484e+00
-1.936732e+09 -1.736730e+09 -1.896730e+09 -1.764159e+02 -4.478140e+02 3.062696e+01
-3.536058e+09 -3.336055e+09 -3.496056e+09 -1.369082e+02 -2.860407e+02 -8.245179e+00
-3.880803e+09 -3.680802e+09 -3.840802e+09 -3.146601e+00 3.718599e+00 -4.629846e+01
-4.804246e+09 -4.604245e+09 -4.764245e+09 4.313801e+01 8.390501e+00 -2.008375e+01
-5.002941e+09 -4.802936e+09 -4.962940e+09 -6.212829e+02 -1.101296e+02 -1.499701e+02
-3.579732e+09 -3.379729e+09 -3.539730e+09 -2.273158e+02 -5.173643e+02 -6.964868e+01
-3.796180e+09 -3.596177e+09 -3.756178e+09 -2.037837e+02 -3.965521e+02 -1.131100e+02
-3.113229e+09 -2.913226e+09 -3.073227e+09 -2.331778e+02 -5.581120e+02 -4.451846e+01
-3.268866e+09 -3.068863e+09 -3.228865e+09 -1.341561e+03 -1.415443e+03 -5.193864e+02
-4.997651e+09 -4.797649e+09 -4.957650e+09 -5.794190e+02 -2.444539e+02 -1.372298e+01
-2.232646e+09 -2.032644e+09 -2.192644e+09 -1.678578e+03 -9.804094e+02 -5.812361e+02
-1.573444e+09 -1.373447e+09 -1.533443e+09 5.886888e+02 1.503451e+01 6.170930e+01
-4.461421e+09 -4.261421e+09 -4.421421e+09 8.685440e+01 2.066641e+01 2.682743e+01
-4.761705e+09 -4.561705e+09 -4.721705e+09 6.365075e+01 4.788525e+00 4.136620e+01
-3.191604e+09 -2.991606e+09 -3.151603e+09 1.550637e+01 1.701869e+01 1.603802e-01
-2.765621e+09 -2.565624e+09 -2.725620e+09 9.112846e+00 3.231582e+00 7.518179e+00
-4.129121e+09 -3.929120e+09 -4.089120e+09 8.180881e+01 -2.259992e+00 4.873325e+00
-4.636929e+09 -4.436931e+09 -4.596928e+09 1.725590e+01 1.309104e+00 0.000000e+00
-3.906413e+09 -3.706418e+09 -3.866413e+09 2.847966e+02 -2.378775e+01 1.427331e+00
-4.048363e+09 -3.848364e+09 -4.008361e+09 2.868247e+02 4.200936e+01 -6.088343e+01
-2.366911e+09 -2.166914e+09 -2.326910e+09 3.235535e+02 1.281312e+02 5.570340e+01
-3.194688e+09 -2.994691e+09 -3.154687e+09 1.315072e+02 -3.198700e+01 1.533077e+01
-3.683414e+09 -3.483415e+09 -3.643412e+09 2.552223e+02 7.634188e+01 7.604255e+01
-4.985452e+09 -4.785456e+09 -4.945451e+09 3.906929e+02 -9.546138e+00 -5.745235e+00
-4.266487e+09 -4.066486e+09 -4.226486e+09 7.612024e+01 4.876767e+00 -1.381970e+01
-4.815061e+09 -4.615060e+09 -4.775061e+09 1.147932e+02 2.046154e+01 9.462653e+00
-4.761076e+09 -4.561080e+09 -4.721075e+09 2.014594e+02 -7.727060e+01 1.148654e+01
-4.084834e+09 -3.884838e+09 -4.044833e+09 9.861392e+01 7.893852e+01 1.534260e+01
-4.083038e+09 -3.883038e+09 -4.043038e+09 1.153675e+02 4.237179e+00 -8.338077e-01
-2.515291e+09 -2.315293e+09 -2.475289e+09 4.847164e+01 -1.444443e+01 2.307941e+01
-4.985268e+09 -4.785267e+09 -4.945267e+09 8.129239e+01 -1.521790e+01 1.875893e+01
-4.514777e+09 -4.314777e+09 -4.474777e+09 1.082672e+02 1.824596e+01 2.273173e+01
-3.785511e+09 -3.585511e+09 -3.745511e+09 5.191756e+01 1.062404e-01 4.024487e+01
-4.303490e+09 -4.103485e+09 -4.263484e+09 4.896875e+03 3.143609e+03 1.543361e+03
-2.639537e+09 -2.439540e+09 -2.599536e+09 4.343437e+01 1.270415e+01 2.349036e+01
-2.173816e+09 -1.973819e+09 -2.133815e+09 7.937989e+01 1.038242e+01 1.494127e+01
-4.622589e+09 -4.422593e+09 -4.582588e+09 7.300119e+02 3.252089e+01 -2.889361e+01
-4.974125e+09 -4.774124e+09 -4.934125e+09 -1.879743e+02 4.947438e+00 -3.906546e+00
-3.855090e+09 -3.655090e+09 -3.815090e+09 9.032166e+01 6.686477e+00 -3.168437e+01
-4.091460e+09 -3.891459e+09 -4.051459e+09 -5.815998e+01 3.533888e-02 -2.800923e+01
-4.645940e+09 -4.445938e+09 -4.605939e+09 -3.895898e+02 -1.477323e+02 1.032288e+02
-4.693484e+09 -4.493484e+09 -4.653484e+09 8.859760e+01 -8.897420e+00 8.725088e+00
-4.506039e+09 -4.306039e+09 -4.466039e+09 1.256267e+02 1.661754e+01 -1.545065e+01
-4.074300e+09 -3.874300e+09 -4.034300e+09 1.398790e+02 -4.058297e+00 2.317169e+00
-3.189804e+09 -2.989803e+09 -3.149803e+09 -7.621004e+00 -3.639428e+00 -3.428950e+00
-3.146829e+09 -2.946829e+09 -3.106829e+09 1.278527e+02 1.836298e+01 5.491896e+01
-4.564133e+09 -4.364132e+09 -4.524133e+09 -3.021647e+01 -4.799318e+00 -1.012339e+01
-1.567197e+09 -1.367196e+09 -1.527196e+09 -1.581578e+02 -2.706901e+01 -2.463611e+01
-3.934782e+09 -3.734782e+09 -3.894782e+09 2.100281e+02 3.826301e+01 -5.469749e+01
-2.674402e+09 -2.474401e+09 -2.634401e+09 -1.038047e+01 -6.826166e+00 -2.713456e+00
-3.325747e+09 -3.125747e+09 -3.285747e+09 1.944688e+02 2.853648e+01 1.460755e+00
-3.837047e+09 -3.637047e+09 -3.797047e+09 3.041552e+02 1.818399e+01 2.690509e+01
-2.199460e+09 -1.999459e+09 -2.159460e+09 -2.463727e+01 -6.438048e+00 -1.196895e+00
-2.286398e+09 -2.086396e+09 -2.246397e+09 -4.499599e+01 -3.407674e+00 -5.351538e+01
-4.863691e+09 -4.663691e+09 -4.823691e+09 8.816298e+01 -8.766445e+00 7.003781e+00
-3.212949e+09 -3.012949e+09 -3.172949e+09 2.292817e+02 9.347223e+00 -3.184809e+00
-4.577862e+09 -4.377862e+09 -4.537862e+09 1.546622e+02 1.428116e+01 3.106539e+01
-2.361712e+09 -2.161711e+09 -2.321712e+09 -1.171093e+01 1.320011e+00 -6.668677e+00
-4.016639e+09 -3.816639e+09 -3.976639e+09 1.308318e+02 6.120795e+00 -2.121751e+01
-4.806323e+09 -4.606323e+09 -4.766323e+09 1.406489e+02 2.465157e+01 1.740148e+01
-2.196968e+09 -1.996967e+09 -2.156967e+09 -9.549048e+00 -5.522198e+00 -6.162288e+00
-4.009159e+09 -3.809158e+09 -3.969158e+09 -1.236973e+02 -1.258605e+01 -3.307472e+01
-4.036343e+09 -3.836342e+09 -3.996342e+09 -1.832387e+01 -6.424495e+00 -1.602852e+01
-4.993200e+09 -4.793199e+09 -4.953199e+09 -3.038695e+01 -1.254459e+01 -1.167047e+01
-4.107190e+09 -3.907189e+09 -4.067189e+09 -9.355170e+00 5.004836e+00 -4.052884e+01
-4.259115e+09 -4.059115e+09 -4.219114e+09 -8.250176e+01 2.810624e+01 2.611925e+00
-3.892099e+09 -3.692098e+09 -3.852098e+09 -3.859345e+01 -2.898326e+00 -6.002455e+01
-3.237560e+09 -3.037559e+09 -3.197559e+09 -3.547391e+02 -3.284202e+01 -3.363718e+01
-4.921179e+09 -4.721178e+09 -4.881178e+09 -2.371776e+01 9.947800e-05 -4.767088e+00
-3.939221e+09 -3.739220e+09 -3.899221e+09 -5.486464e+01 -1.320281e+01 -1.038838e+01
-3.196629e+09 -2.996628e+09 -3.156628e+09 -2.937558e+01 7.556942e-01 -4.250298e+00
-4.812078e+09 -4.612077e+09 -4.772077e+09 1.874660e+01 1.539155e+01 -2.333891e+01
-4.609302e+09 -4.409301e+09 -4.569301e+09 -6.382991e+01 -7.078077e+00 -5.727131e+00
-1.555455e+09 -1.355454e+09 -1.515454e+09 -1.206266e+02 -1.304282e+01 -6.724471e+01
-4.252203e+09 -4.052204e+09 -4.212204e+09 -1.588608e+02 -1.978863e+01 -3.941166e+01
-4.835547e+09 -4.635547e+09 -4.795547e+09 -1.798314e+02 -2.810094e+01 3.069346e+01
-3.883184e+09 -3.683184e+09 -3.843184e+09 -2.755887e+02 -1.721030e+01 -6.047394e-01
-4.834434e+09 -4.634434e+09 -4.794435e+09 -2.746679e+02 8.258698e+00 1.375320e+01
-3.189804e+09 -2.989803e+09 -3.149803e+09 7.390071e-01 2.536824e+00 -3.046614e+00
-4.604188e+09 -4.404187e+09 -4.564187e+09 1.705844e+01 1.192170e+00 -4.991158e+00
-4.913295e+09 -4.713294e+09 -4.873294e+09 9.109756e+00 -1.881741e+00 2.273300e+00
-2.543604e+09 -2.343602e+09 -2.503603e+09 5.621664e+01 2.509593e-01 6.719080e+00
-1.561912e+09 -1.361910e+09 -1.521911e+09 5.573853e+01 5.039565e+00 1.727344e+00
-4.004247e+09 -3.804247e+09 -3.964247e+09 -1.202763e+02 -2.080682e+01 3.494127e+01
-1.561912e+09 -1.361910e+09 -1.521911e+09 2.800592e+01 1.194159e+01 -2.449182e+01
-3.920916e+09 -3.720914e+09 -3.880915e+09 4.668875e+01 9.452407e+00 -1.944258e+00
-3.008801e+09 -2.808800e+09 -2.968800e+09 1.438587e+01 2.344152e+00 -5.984948e+00
-1.583832e+09 -1.383831e+09 -1.543832e+09 6.102742e+01 1.810106e+01 -1.668468e+01
-5.005562e+09 -4.805563e+09 -4.965563e+09 -1.300418e+02 3.115633e+01 -1.180372e+01
-2.139115e+09 -1.939114e+09 -2.099114e+09 2.658993e-01 1.575311e-01 -4.523956e+00
-3.528476e+09 -3.328475e+09 -3.488475e+09 1.447276e+00 -4.849206e-01 -4.642445e+00
-4.055963e+09 -3.855970e+09 -4.015966e+09 -4.217349e+02 -2.832900e+02 -4.633352e+01
-5.005562e+09 -4.805569e+09 -4.965566e+09 -4.041461e+02 -1.869538e+02 -1.372247e+02
-3.532242e+09 -3.332241e+09 -3.492241e+09 3.239933e-01 1.171730e+01 -2.333508e+00
-4.073751e+09 -3.873750e+09 -4.033751e+09 -4.347996e+00 2.375760e+00 -1.815790e+01
-2.740834e+09 -2.540832e+09 -2.700833e+09 1.365308e-01 1.351630e-01 -2.546598e+00
-2.580017e+09 -2.380016e+09 -2.540016e+09 4.107721e+01 1.158859e+01 -2.536463e+00
-3.086930e+09 -2.886928e+09 -3.046929e+09 7.005099e-01 -6.316748e-03 -2.440954e+00
-4.240388e+09 -4.040396e+09 -4.200392e+09 -3.421546e+02 -4.934538e+02 3.287782e+01
-2.616549e+09 -2.416548e+09 -2.576548e+09 3.086839e+00 3.566972e+00 -6.798786e+00
-1.941194e+09 -1.741193e+09 -1.901193e+09 1.197601e+01 -3.948824e-01 -9.102363e+00
-3.305972e+09 -3.105971e+09 -3.265972e+09 3.733413e+01 8.369163e+00 -4.009524e+01
-4.835546e+09 -4.635554e+09 -4.795551e+09 -3.842180e+02 -9.151800e+01 5.569951e+01
-3.895403e+09 -3.695410e+09 -3.855407e+09 -8.692209e+02 -8.256270e+02 -1.400443e+02
-4.834395e+09 -4.634401e+09 -4.794399e+09 -1.060082e+03 -3.407085e+02 -7.186007e+01
-4.992310e+09 -4.792309e+09 -4.952309e+09 7.462591e+01 3.161566e+01 1.463007e+01
-4.304127e+09 -4.104126e+09 -4.264126e+09 -1.205936e+02 9.415357e+01 -3.572047e+00
-2.363512e+09 -2.163515e+09 -2.323511e+09 4.582587e+01 -4.571572e+00 4.082936e+00
-2.162104e+09 -1.962106e+09 -2.122102e+09 2.868932e+01 4.859899e-01 1.240192e+00
-4.292478e+09 -4.092477e+09 -4.252477e+09 3.704359e+01 -3.749910e+01 5.148883e+00
-4.646886e+09 -4.446885e+09 -4.606885e+09 2.322116e+02 2.409738e+01 -2.428335e+01
-4.646081e+09 -4.446080e+09 -4.606080e+09 1.151359e+02 -1.445759e+00 -1.338991e+01
-4.293553e+09 -4.093552e+09 -4.253552e+09 1.557491e+02 2.824422e+01 -1.155263e+01
-4.990296e+09 -4.790295e+09 -4.950295e+09 8.585070e+01 2.667003e+01 1.636872e+01
-2.361713e+09 -2.161711e+09 -2.321712e+09 5.696119e+00 5.729655e+00 -2.093587e+00
-4.992152e+09 -4.792151e+09 -4.952151e+09 1.829853e+03 -4.873061e+01 -9.546091e+01
-4.663708e+09 -4.463712e+09 -4.623700e+09 -1.092524e+03 3.834536e+02 -1.065991e+03
-3.962453e+09 -3.762453e+09 -3.922453e+09 1.944925e+03 -1.587503e+02 -2.567770e+02
-4.132165e+09 -3.932164e+09 -4.092164e+09 6.167724e-01 4.068724e+01 -4.042928e+00
-4.303213e+09 -4.103214e+09 -4.263214e+09 1.813952e+03 -1.688081e+02 -3.844348e+02
-4.476071e+09 -4.276070e+09 -4.436071e+09 1.251221e+03 1.415255e+01 -3.603000e+01
-3.958522e+09 -3.758521e+09 -3.918521e+09 2.440519e+03 -4.480723e+02 -6.874289e+02
-3.957571e+09 -3.757576e+09 -3.917572e+09 -1.221555e+02 1.208299e+02 -1.418890e+03
-3.958992e+09 -3.758996e+09 -3.918994e+09 -2.092738e+02 3.778348e+01 -3.557739e+02
-4.134185e+09 -3.934184e+09 -4.094184e+09 -1.484675e+01 2.586127e+00 -3.828373e+01
-4.667846e+09 -4.467845e+09 -4.627844e+09 2.943865e+01 6.942026e+01 -3.067424e+01
-4.061519e+09 -3.861518e+09 -4.021518e+09 -5.257440e+01 -2.671092e+00 -2.332408e+01
-3.957573e+09 -3.757577e+09 -3.917573e+09 9.844200e+02 -8.110320e+00 -1.253987e+03
-3.964111e+09 -3.764113e+09 -3.924110e+09 2.432502e+03 -4.672436e+02 -1.033000e+03
-3.965924e+09 -3.765928e+09 -3.925926e+09 -1.229770e+03 2.721212e+02 -6.267436e+02
-4.497361e+09 -4.297365e+09 -4.457362e+09 5.540240e+02 1.130086e+00 -4.462736e+02
-4.302447e+09 -4.102447e+09 -4.262447e+09 1.502426e+03 -4.876400e+01 -2.262225e+02
-4.127029e+09 -3.927032e+09 -4.087031e+09 -2.391119e+02 7.401130e+01 -3.166901e+01
-4.474973e+09 -4.274976e+09 -4.434974e+09 1.142223e+03 8.667591e+00 -4.332453e+02
-4.818339e+09 -4.618341e+09 -4.778340e+09 1.099955e+03 -9.193667e+01 -1.975404e+02
-4.991145e+09 -4.791148e+09 -4.951145e+09 1.207612e+03 -9.000766e+01 -5.803091e+02
-4.302385e+09 -4.102384e+09 -4.262385e+09 1.620659e+03 -1.060542e+01 -2.340323e+02
-5.010064e+09 -4.810064e+09 -4.970063e+09 -8.022967e+01 -1.839381e+01 -4.719240e+00
-4.248082e+09 -4.048081e+09 -4.208081e+09 -1.259113e+02 3.233069e+01 -3.972126e+00
-3.958639e+09 -3.758636e+09 -3.918637e+09 1.312876e+03 9.767962e+01 -5.350859e+01
-4.988336e+09 -4.788334e+09 -4.948335e+09 1.521474e+03 1.612183e+00 1.135549e+01
-4.840042e+09 -4.640041e+09 -4.800041e+09 -6.446400e+01 -1.642194e+01 -7.652736e+00
-4.131786e+09 -3.931785e+09 -4.091785e+09 1.500059e+03 -5.022811e+01 -9.668857e+01
-4.990073e+09 -4.790073e+09 -4.950073e+09 1.543878e+03 -8.459979e+01 -1.407976e+02
-3.903141e+09 -3.703140e+09 -3.863140e+09 -1.226432e+02 -8.820585e+00 -6.370778e+01
-4.990074e+09 -4.790073e+09 -4.950073e+09 1.121709e+03 -9.118457e+01 -1.705704e+02
-4.994926e+09 -4.794925e+09 -4.954926e+09 1.139937e+03 -1.317998e+02 -1.802746e+02
-4.838621e+09 -4.638620e+09 -4.798620e+09 -2.869410e+01 -2.490721e+01 -2.378785e+01
-4.993206e+09 -4.793203e+09 -4.953204e+09 1.442276e+03 -7.244241e+01 -1.110330e+02
-4.064619e+09 -3.864619e+09 -4.024619e+09 1.456741e+02 -2.625992e+00 2.457785e+01
-3.597202e+09 -3.397202e+09 -3.557202e+09 8.825634e+01 2.846815e+01 5.181309e+01
-4.393103e+09 -4.193104e+09 -4.353104e+09 6.406601e+01 2.572829e+01 -3.040190e+01
-4.626550e+09 -4.426549e+09 -4.586549e+09 1.969554e+03 -3.291256e+02 -2.562788e+02
-4.990096e+09 -4.790097e+09 -4.950095e+09 1.607597e+03 -1.296647e+02 -2.855315e+02
-4.637593e+09 -4.437592e+09 -4.597592e+09 1.794022e+02 6.283481e+00 2.951767e+01
-3.607284e+09 -3.407284e+09 -3.567284e+09 6.813723e+01 -4.263550e+00 -1.841052e+01
-4.533586e+09 -4.333585e+09 -4.493585e+09 -6.028655e+00 6.527017e+00 -5.001155e-02
-4.813122e+09 -4.613121e+09 -4.773122e+09 9.470079e+01 7.497505e-01 -8.676295e+00
-4.991236e+09 -4.791234e+09 -4.951235e+09 -2.277131e+02 8.952179e+00 7.623317e+00
-3.540194e+09 -3.340194e+09 -3.500194e+09 2.458134e+02 3.951658e+00 -5.712572e+01
-3.801183e+09 -3.601182e+09 -3.761182e+09 -6.457981e+00 4.033748e-02 -2.651097e+00
-4.693387e+09 -4.493387e+09 -4.653387e+09 1.113023e+02 -1.168733e+01 1.414001e+00
-4.939600e+09 -4.739599e+09 -4.899599e+09 -2.339426e-01 -8.970844e+00 4.973803e-05
-4.293244e+09 -4.093243e+09 -4.253243e+09 1.278735e+02 -4.943534e+00 -2.342162e+00
-3.451059e+09 -3.251059e+09 -3.411059e+09 7.069161e+00 1.813858e+01 3.088620e+01
-3.218837e+09 -3.018836e+09 -3.178836e+09 1.133346e+02 8.542202e+00 -2.143374e+01
-3.553097e+09 -3.353096e+09 -3.513096e+09 -1.622752e+00 1.960619e+01 -4.418984e+00
-3.966213e+09 -3.766213e+09 -3.926213e+09 1.409641e+02 1.188069e+01 -7.715009e+00
-4.657220e+09 -4.457220e+09 -4.617220e+09 4.044691e+01 4.082843e+00 2.700753e+01
-4.814873e+09 -4.614874e+09 -4.774870e+09 -4.803493e+03 4.298900e+02 -3.923225e+02
-4.991761e+09 -4.791760e+09 -4.951760e+09 1.165681e+02 -8.596553e+00 -1.386198e+00
-4.101521e+09 -3.901524e+09 -4.061520e+09 7.802314e+01 5.402381e+01 2.079615e+01
-3.722872e+09 -3.522872e+09 -3.682872e+09 1.190157e+02 2.621160e+01 6.242205e+00
-4.303490e+09 -4.103489e+09 -4.263489e+09 -8.092270e+02 -6.870819e+01 4.752716e+01
-3.891863e+09 -3.691865e+09 -3.851862e+09 1.654623e+02 -8.270034e+00 1.725422e+01
-4.060215e+09 -3.860217e+09 -4.020213e+09 2.833573e+02 6.307342e+01 -2.704087e+01
-3.876302e+09 -3.676302e+09 -3.836302e+09 7.336163e+01 2.020799e+00 1.573083e+01
-4.657249e+09 -4.457249e+09 -4.617249e+09 2.845165e+01 1.136652e+01 -1.525636e+01
-4.265210e+09 -4.065213e+09 -4.225209e+09 3.020139e+01 2.271976e+00 7.239017e+00
-3.927676e+09 -3.727679e+09 -3.887675e+09 3.452824e+01 9.262084e-01 -1.044340e+01
-4.991312e+09 -4.791316e+09 -4.951314e+09 -1.681919e+03 6.464121e+01 6.558386e+01
-4.108486e+09 -3.908486e+09 -4.068485e+09 -5.367094e+01 9.156317e+00 -3.363470e+01
-4.001846e+09 -3.801845e+09 -3.961845e+09 -9.028690e+01 -9.076835e+00 -4.277353e+01
-4.935515e+09 -4.735513e+09 -4.895514e+09 -4.667881e+01 -4.973167e-05 -7.588824e+00
-3.611553e+09 -3.411551e+09 -3.571552e+09 -5.403721e+01 -9.136064e+00 -1.275335e+01
-4.153235e+09 -3.953234e+09 -4.113235e+09 -4.165975e+01 -2.464962e+00 -2.575352e+00
-4.770365e+09 -4.570365e+09 -4.730364e+09 -3.701213e+01 4.739013e+01 -1.215952e+01
-4.199942e+09 -3.999942e+09 -4.159941e+09 -1.896896e+02 2.164187e+01 -8.959487e+00
-4.823731e+09 -4.623731e+09 -4.783729e+09 -1.403860e+02 -2.566639e+01 -2.612931e+01
-4.098868e+09 -3.898865e+09 -4.058866e+09 1.269852e+03 5.528755e+02 -2.697921e+02
-4.256831e+09 -4.056828e+09 -4.216829e+09 5.528860e+02 1.470755e+02 -9.200091e+01
-1.571676e+09 -1.371675e+09 -1.531675e+09 -1.667053e+02 -3.330253e+01 -5.093481e+01
-4.770520e+09 -4.570516e+09 -4.730518e+09 5.269564e+02 2.433288e+02 -1.125081e+02
-4.210650e+09 -4.010646e+09 -4.170648e+09 3.940095e+02 2.826304e+02 -1.250595e+02
-4.823940e+09 -4.623936e+09 -4.783939e+09 9.244285e+02 -5.683420e+01 5.253008e+01
-4.606549e+09 -4.406548e+09 -4.566548e+09 -6.726864e+00 1.109418e+00 1.683880e-01
-3.952250e+09 -3.752249e+09 -3.912250e+09 -1.511896e+01 -2.037442e+00 -8.772439e+00
-4.289785e+09 -4.089784e+09 -4.249784e+09 -2.711715e+00 -3.663427e+00 -1.113111e+00
-4.529546e+09 -4.329545e+09 -4.489546e+09 -3.253586e+00 9.899726e+00 5.365361e-01
-2.128427e+09 -1.928427e+09 -2.088427e+09 8.652406e+01 1.780790e+01 5.230049e+00
-4.982383e+09 -4.782382e+09 -4.942382e+09 3.734001e+01 -7.446624e+00 4.263621e+00
-3.982627e+09 -3.782635e+09 -3.942631e+09 -2.272732e+02 -3.588252e+02 -5.974886e-01
-4.993958e+09 -4.793966e+09 -4.953962e+09 -1.088533e+02 -1.719376e+02 -4.002669e+01
-4.670498e+09 -4.470497e+09 -4.630497e+09 5.622084e+00 2.941505e-01 3.824031e+00
-4.184175e+09 -3.984184e+09 -4.144179e+09 5.561406e+00 -4.321894e+02 4.649246e+01
-4.823936e+09 -4.623944e+09 -4.783940e+09 -1.928063e+01 -1.582966e+02 4.282021e+01
-3.568965e+09 -3.368964e+09 -3.528964e+09 4.511340e+01 4.076650e+00 -5.707435e+00
-3.843922e+09 -3.643931e+09 -3.803927e+09 -2.853338e+02 -8.817524e+02 9.877592e+00
-4.834237e+09 -4.634244e+09 -4.794242e+09 -6.528575e+02 -5.947236e+02 -4.907294e+01
-4.100704e+09 -3.900701e+09 -4.060702e+09 -2.975843e+02 -3.025390e+02 -6.930495e+01
-4.094262e+09 -3.894263e+09 -4.054263e+09 -1.893530e+02 1.227857e+00 -1.839945e+01
-2.586783e+09 -2.386782e+09 -2.546781e+09 -3.115635e+02 -1.826090e+02 -8.157057e+00
-4.313235e+09 -4.113233e+09 -4.273233e+09 -3.620820e+02 -4.052679e+02 -1.000132e+02
-4.020934e+09 -3.820935e+09 -3.980934e+09 -1.167940e+02 -3.720073e+01 1.255133e+01
-4.993959e+09 -4.793959e+09 -4.953959e+09 -1.154731e+02 2.473808e+01 8.669680e+00
-4.536352e+09 -4.336353e+09 -4.496353e+09 -1.531232e+02 -1.941291e+01 2.779640e+01
-4.286296e+09 -4.086294e+09 -4.246294e+09 -4.174171e+01 -2.140136e+01 -1.287359e+01
-3.948762e+09 -3.748760e+09 -3.908760e+09 -1.381625e+02 -1.924251e+02 1.380753e+01
-4.821917e+09 -4.621918e+09 -4.781918e+09 -1.663516e+02 -2.611626e+01 2.100077e+01
-3.841410e+09 -3.641411e+09 -3.801410e+09 -2.577766e+02 -1.491481e+01 1.782403e+01
-4.834331e+09 -4.634332e+09 -4.794332e+09 -2.820431e+02 2.163896e+01 -4.709086e+01
-4.658015e+09 -4.458013e+09 -4.618013e+09 -7.053066e+01 -6.900323e+01 -1.712213e+01
-3.929904e+09 -3.729913e+09 -3.889908e+09 8.945388e+01 -3.879877e+02 7.119430e+01
-4.993951e+09 -4.793959e+09 -4.953956e+09 1.238842e+02 -1.938277e+02 5.180714e+01
-3.977128e+09 -3.777128e+09 -3.937128e+09 8.709498e+00 -7.226913e-01 7.626960e+00
-4.176001e+09 -3.976008e+09 -4.136004e+09 3.167398e+02 -3.871948e+02 8.544226e+01
-4.823928e+09 -4.623935e+09 -4.783932e+09 3.105233e+02 -2.214500e+02 3.106225e+01
-3.828988e+09 -3.628996e+09 -3.788992e+09 3.359262e+02 -8.933325e+02 1.436319e+02
-4.822539e+09 -4.622547e+09 -4.782545e+09 -6.403165e+01 -4.429976e+02 2.491774e+01
-3.971394e+09 -3.771390e+09 -3.931392e+09 3.561146e+02 4.328466e+02 -6.043220e+01
-4.993955e+09 -4.793951e+09 -4.953954e+09 1.789040e+02 3.380068e+02 -1.740938e+02
-4.189012e+09 -3.989007e+09 -4.149011e+09 -1.454902e+01 3.803029e+02 -1.882777e+02
-1.560604e+09 -1.360603e+09 -1.520604e+09 9.788740e+01 3.800854e+01 -2.299141e+01
-4.821924e+09 -4.621920e+09 -4.781924e+09 4.085703e+02 1.046070e+01 -3.453985e+01
-3.818051e+09 -3.618047e+09 -3.778050e+09 1.038296e+03 6.977981e+02 -4.435277e+02
-4.822728e+09 -4.622723e+09 -4.782727e+09 1.435130e+03 3.384710e+02 -3.200577e+02
-3.913013e+09 -3.713014e+09 -3.873014e+09 -1.359741e+02 -7.587133e+00 -2.763309e+01
-4.985885e+09 -4.785887e+09 -4.945874e+09 9.883091e+02 -4.022653e+02 -1.760571e+03
-4.985706e+09 -4.785710e+09 -4.945705e+09 7.916264e+02 7.415271e+01 -8.820899e+02
-3.970816e+09 -3.770820e+09 -3.930811e+09 7.154410e+02 2.392089e+02 -1.888323e+03
-3.961460e+09 -3.761464e+09 -3.921463e+09 5.440062e+02 1.237830e+01 -2.509109e+02
-3.985585e+09 -3.785587e+09 -3.945579e+09 -1.994708e+03 2.141731e+03 -3.113137e+03
-4.995696e+09 -4.795700e+09 -4.955680e+09 -3.107116e+03 -6.834024e+02 -1.766642e+03
-4.993811e+09 -4.793811e+09 -4.953809e+09 2.430435e+03 -2.485029e+02 -6.484812e+02
-3.808622e+09 -3.608623e+09 -3.768623e+09 -6.848591e+01 -1.729315e+00 3.778394e+01
-3.637816e+09 -3.437817e+09 -3.597816e+09 -1.532909e+01 -1.369351e+01 -2.772433e+00
-4.116281e+09 -3.916276e+09 -4.076270e+09 4.348777e+03 -2.330527e+03 -1.533805e+03
-4.878408e+09 -4.678410e+09 -4.838409e+09 -8.367535e+01 3.035852e+00 -1.442103e+00
-4.645320e+09 -4.445313e+09 -4.605315e+09 -3.002928e+03 -1.458350e+03 2.131939e+02
-4.995293e+09 -4.795284e+09 -4.955291e+09 2.121627e+03 2.607890e+01 2.201410e+02
-4.293657e+09 -4.093669e+09 -4.253655e+09 -3.080085e+02 6.435792e+01 4.987005e+03
-4.132134e+09 -3.932122e+09 -4.092129e+09 1.326394e+03 -1.917478e+03 3.036233e+03
-4.979441e+09 -4.779440e+09 -4.939433e+09 3.313540e+03 -3.333119e+02 -1.126323e+03
-3.957581e+09 -3.757569e+09 -3.917572e+09 5.087003e+03 -4.601563e+03 -5.340547e+02
-4.820742e+09 -4.620736e+09 -4.780737e+09 3.177459e+03 -1.518475e+02 -4.295264e+02
-4.130653e+09 -3.930654e+09 -4.090654e+09 -1.690722e+02 1.780326e+00 1.080600e+01
-3.931159e+09 -3.731161e+09 -3.891160e+09 -1.642845e+02 -6.466212e+00 1.138266e+01
-3.952297e+09 -3.752296e+09 -3.912265e+09 -1.799652e+03 6.378097e+03 -7.069037e+03
-4.119214e+09 -3.919212e+09 -4.079203e+09 4.414840e+03 -3.412333e+03 -3.706049e+03
-4.129681e+09 -3.929673e+09 -4.089664e+09 2.396892e+03 -4.533833e+03 -5.271077e+03
-4.982377e+09 -4.782378e+09 -4.942361e+09 3.715035e+02 -9.427722e+02 -1.209364e+03
-4.389095e+09 -4.189097e+09 -4.349096e+09 -7.218044e+01 -1.247207e+01 1.501555e+01
-4.653845e+09 -4.453835e+09 -4.613848e+09 9.648202e+02 -1.578685e+02 1.829411e+03
-4.138882e+09 -3.938873e+09 -4.098884e+09 -9.925634e+02 2.295202e+03 3.750598e+03
-4.991694e+09 -4.791695e+09 -4.951695e+09 -7.194928e+02 1.023058e+01 -1.622595e+01
-3.575774e+09 -3.375774e+09 -3.535774e+09 -2.851469e+01 -3.797257e+01 -5.644018e-01
-4.019586e+09 -3.819588e+09 -3.979587e+09 -7.895828e+01 5.561640e+00 -4.739954e+01
-3.467679e+09 -3.267680e+09 -3.427680e+09 -1.278639e+02 -1.798306e+01 1.210026e+01
-3.487660e+09 -3.287662e+09 -3.447662e+09 -8.894832e+01 -2.171928e+01 8.536258e+00
-3.315909e+09 -3.115908e+09 -3.275909e+09 -2.819710e+02 -4.035853e+00 1.122266e+01
-4.654820e+09 -4.454822e+09 -4.614821e+09 -4.939308e+01 -8.441905e+00 -2.004242e+01
-3.817095e+09 -3.617096e+09 -3.777095e+09 -1.762963e+02 -3.032650e-01 -1.710379e+01
-2.538002e+09 -2.338001e+09 -2.498001e+09 6.167526e+01 -2.493589e+00 2.539203e+01
-3.467537e+09 -3.267536e+09 -3.427536e+09 7.922548e+01 -2.563247e-01 -1.356176e+01
-4.818201e+09 -4.618202e+09 -4.778202e+09 -2.504302e+02 1.100378e+01 -3.810980e+01
-4.512515e+09 -4.312513e+09 -4.472514e+09 5.329426e+00 -2.002452e-01 -2.304038e+00
-4.591460e+09 -4.391461e+09 -4.551461e+09 -1.435971e+02 1.114569e+01 1.950018e+01
-4.818422e+09 -4.618424e+09 -4.778424e+09 -1.134204e+02 -1.912025e+01 1.843101e+01
-3.624751e+09 -3.424752e+09 -3.584749e+09 1.495105e+02 8.859102e+01 -1.613704e+01
-4.770240e+09 -4.570240e+09 -4.730239e+09 1.772532e+01 -9.195756e+01 -2.775355e+00
-4.034161e+09 -3.834160e+09 -3.994160e+09 8.842395e+01 -1.733986e+01 9.037294e+00
-3.532320e+09 -3.332322e+09 -3.492319e+09 1.664140e+03 3.929365e+02 -1.997783e+02
-4.652178e+09 -4.452177e+09 -4.612177e+09 -1.012476e+02 3.071503e+01 -4.620987e+01
-4.819169e+09 -4.619169e+09 -4.779168e+09 1.417801e+02 4.147850e+00 2.910776e+01
-4.226248e+09 -4.026247e+09 -4.186247e+09 2.559062e+02 -1.108626e+02 3.401292e+01
-2.225839e+09 -2.025843e+09 -2.185839e+09 -2.423014e+02 -1.088948e+02 -1.824647e+02
-4.999539e+09 -4.799541e+09 -4.959540e+09 -1.115244e+03 -6.678549e+01 -1.300820e+02
-4.641882e+09 -4.441879e+09 -4.601881e+09 3.601549e+02 -6.388614e+01 -1.415205e+02
-4.131102e+09 -3.931099e+09 -4.091100e+09 1.492137e+03 -3.858878e+01 -9.675631e+01
-4.649973e+09 -4.449971e+09 -4.609972e+09 1.331565e+03 -1.528202e+02 -2.141018e+02
-4.993876e+09 -4.793875e+09 -4.953875e+09 1.196073e+02 4.289325e+01 -1.202455e+01
-4.665559e+09 -4.465570e+09 -4.625563e+09 9.668348e+02 2.996763e+02 4.926824e+02
-3.961013e+09 -3.761000e+09 -3.921024e+09 3.049282e+02 4.852954e+02 1.897401e+03
-4.682509e+09 -4.482520e+09 -4.642513e+09 1.308291e+02 1.252172e+02 9.777089e+02
-4.634117e+09 -4.434126e+09 -4.594122e+09 4.560956e+02 1.899604e+02 3.064426e+02
-4.856011e+09 -4.656022e+09 -4.816017e+09 7.846279e+01 6.565924e+01 -1.595943e+01
-4.556732e+09 -4.356743e+09 -4.516738e+09 1.368420e+02 3.380819e+01 1.551595e+02
-4.479293e+09 -4.279283e+09 -4.439304e+09 -7.872513e+02 1.932901e+03 2.222635e+03
-5.009985e+09 -4.809994e+09 -4.969990e+09 4.844274e+02 1.689985e+02 3.556323e+02
-3.958881e+09 -3.758876e+09 -3.918898e+09 -3.195785e+03 3.340484e+03 2.918964e+03
-4.825346e+09 -4.625336e+09 -4.785348e+09 2.560878e+02 -3.882641e+02 1.167697e+03
-4.647332e+09 -4.447326e+09 -4.607328e+09 3.050695e+03 -1.118486e+03 -9.908353e+02
-4.474505e+09 -4.274498e+09 -4.434505e+09 -6.658150e+02 1.589964e+02 1.592522e+03
-4.137329e+09 -3.937318e+09 -4.097331e+09 1.661258e+03 -5.835510e+02 1.445230e+03
-3.837949e+09 -3.637954e+09 -3.797950e+09 -4.504859e+02 7.901400e+01 -3.694303e+01
-4.292236e+09 -4.092241e+09 -4.252236e+09 -3.718330e+02 8.786488e+01 -3.699576e+01
-4.993874e+09 -4.793879e+09 -4.953874e+09 -2.021799e+02 5.309856e+01 3.149295e+01
-4.995295e+09 -4.795287e+09 -4.955292e+09 8.229589e+02 -7.102730e+02 -1.881703e+02
-4.817738e+09 -4.617731e+09 -4.777742e+09 -1.336294e+03 1.231029e+03 7.298125e+02
-4.636131e+09 -4.436142e+09 -4.596130e+09 -3.863198e+02 9.198312e+00 1.518670e+03
-4.994026e+09 -4.794018e+09 -4.954031e+09 -7.584899e+02 1.077435e+03 8.955010e+02
-3.959651e+09 -3.759643e+09 -3.919671e+09 -1.386941e+03 4.538408e+03 -1.107942e+02
-4.480929e+09 -4.280928e+09 -4.440949e+09 1.302810e+03 5.148528e+03 3.053580e+02
-3.958900e+09 -3.758896e+09 -3.918922e+09 -1.129982e+03 5.374876e+03 1.686627e+03
-4.839901e+09 -4.639905e+09 -4.799901e+09 -3.322042e+02 3.773736e+01 -6.240539e+01
-4.218080e+09 -4.018084e+09 -4.178080e+09 -3.214351e+02 -5.198411e+01 -4.514667e+00
-4.012478e+09 -3.812478e+09 -3.972477e+09 -1.288968e+02 -3.222398e+01 -5.914274e+01
-4.993753e+09 -4.793754e+09 -4.953752e+09 -1.627246e+02 -4.720876e+01 1.032264e+01
-4.240577e+09 -4.040578e+09 -4.200576e+09 -2.717720e+02 5.930507e+01 -1.245712e+01
-4.295861e+09 -4.095865e+09 -4.255858e+09 2.628076e+01 -3.146002e+01 -1.893940e+03
-4.821725e+09 -4.621725e+09 -4.781724e+09 -2.354477e+02 -1.792299e+01 -3.517329e+01
-3.960995e+09 -3.760992e+09 -3.921001e+09 1.041546e+02 -2.461868e+03 2.423286e+03
-3.884107e+09 -3.684107e+09 -3.844106e+09 -3.290386e+02 -1.914352e+01 -7.590167e+01
-4.459319e+09 -4.259322e+09 -4.419317e+09 -4.067459e+02 -1.044390e+02 -1.091328e+03
-4.822516e+09 -4.622516e+09 -4.782515e+09 -2.288614e+02 5.155375e+01 -4.114563e+00
-4.820342e+09 -4.620346e+09 -4.780344e+09 -9.222878e+02 5.440183e+01 -5.194838e+02
-3.932671e+09 -3.732678e+09 -3.892674e+09 3.955106e+02 -3.707321e+02 1.355850e+02
-4.991201e+09 -4.791204e+09 -4.951202e+09 -1.318209e+03 3.883597e+01 6.459566e+01
-3.960528e+09 -3.760529e+09 -3.920528e+09 -3.322703e+03 1.218841e+03 -6.634908e+02
-4.283317e+09 -4.083316e+09 -4.243316e+09 1.978361e+03 -1.448037e+02 -3.832419e+02
-4.990095e+09 -4.790096e+09 -4.950095e+09 1.826222e+03 -1.319011e+02 -2.604199e+02
-4.131740e+09 -3.931743e+09 -4.091741e+09 1.195211e+03 1.906281e+02 -4.492769e+02
-4.320660e+09 -4.120664e+09 -4.280661e+09 7.435844e+02 -6.292715e+01 -7.682720e+02
-4.993950e+09 -4.793957e+09 -4.953954e+09 2.793445e+02 -1.269866e+02 1.010772e+02
-4.477749e+09 -4.277752e+09 -4.437748e+09 2.322875e+03 -3.999512e+02 -1.037766e+03
-4.477751e+09 -4.277753e+09 -4.437750e+09 1.429068e+03 -1.174554e+02 -6.212527e+02
-3.962447e+09 -3.762449e+09 -3.922448e+09 1.649598e+03 -5.896908e+01 -2.344713e+02
-4.186915e+09 -3.986921e+09 -4.146918e+09 4.779560e+02 -2.542471e+02 1.105587e+02
-4.465774e+09 -4.265778e+09 -4.425774e+09 1.200282e+02 7.775057e+01 -1.081726e+03
-4.991356e+09 -4.791358e+09 -4.951357e+09 1.014425e+03 -3.106051e+01 -7.170699e+01
-3.961406e+09 -3.761408e+09 -3.921408e+09 -7.266866e+02 -1.929506e+01 2.310391e+01
-4.302096e+09 -4.102098e+09 -4.262096e+09 1.549554e+03 -1.044465e+02 -4.481139e+02
-4.133876e+09 -3.933880e+09 -4.093878e+09 -1.214849e+03 1.358295e+02 -1.919502e+02
-4.986356e+09 -4.786359e+09 -4.946358e+09 -1.211798e+03 -7.246761e+00 2.353799e+02
-4.823928e+09 -4.623933e+09 -4.783930e+09 4.386567e+02 -2.113306e+02 4.127216e+01
-3.826035e+09 -3.626041e+09 -3.786038e+09 7.504204e+02 -7.506527e+02 2.171791e+02
-4.822510e+09 -4.622518e+09 -4.782515e+09 5.094568e+02 -2.159028e+02 5.895880e+01
-4.995622e+09 -4.795626e+09 -4.955624e+09 -9.352093e+02 3.618814e+01 -2.725973e+02
-3.960405e+09 -3.760406e+09 -3.920405e+09 -2.591123e+03 4.249181e+02 -6.641395e+01
-3.943964e+09 -3.743960e+09 -3.903963e+09 3.747296e+01 4.742550e+02 -2.409308e+02
-3.960529e+09 -3.760529e+09 -3.920528e+09 -2.950545e+03 8.103942e+02 8.257043e+01
-4.768305e+09 -4.568300e+09 -4.728304e+09 1.766747e+02 2.591634e+02 7.874009e+01
-4.199240e+09 -3.999237e+09 -4.159241e+09 -7.469715e+02 2.099453e+02 -1.775908e+02
-4.816357e+09 -4.616358e+09 -4.776356e+09 -2.688279e+03 -9.651538e+01 -2.013635e+02
-4.990485e+09 -4.790488e+09 -4.950481e+09 -1.706638e+03 1.020482e+02 -9.156332e+02
-4.837970e+09 -4.637967e+09 -4.797971e+09 -4.432369e+02 -7.494712e+01 -9.820925e+01
-4.455759e+09 -4.255763e+09 -4.415758e+09 -1.252708e+03 4.597851e+01 -1.328299e+03
-3.779463e+09 -3.579458e+09 -3.739462e+09 3.174871e+02 5.894308e+02 -5.457559e+02
-4.822458e+09 -4.622452e+09 -4.782457e+09 8.123159e+02 3.160982e+02 -2.769059e+02
-3.954458e+09 -3.754440e+09 -3.914416e+09 -1.958093e+03 1.383306e+04 -6.670013e+03
-4.673192e+09 -4.473193e+09 -4.633193e+09 -7.512212e+01 3.176492e+00 1.480607e+00
-3.464680e+09 -3.264682e+09 -3.424682e+09 -1.892187e+01 -1.908472e+00 -3.465761e+01
-4.982379e+09 -4.782376e+09 -4.942361e+09 2.163880e+03 -1.076424e+03 -1.502230e+03
-4.989992e+09 -4.789983e+09 -4.949987e+09 1.284363e+03 6.819618e+02 2.971741e+02
-4.299231e+09 -4.099220e+09 -4.259206e+09 4.109188e+03 -3.193116e+03 -1.737747e+03
-3.412936e+09 -3.212938e+09 -3.372937e+09 -1.547588e+01 -9.467316e+00 2.410876e+01
-3.959652e+09 -3.759643e+09 -3.919671e+09 1.768622e+03 4.245751e+03 -1.867083e+03
-4.983660e+09 -4.783656e+09 -4.943651e+09 -4.050287e+03 -9.567368e+02 -2.057247e+02
-3.958853e+09 -3.758849e+09 -3.918848e+09 -4.671094e+03 2.375901e+03 1.262913e+02
-3.230323e+09 -3.030324e+09 -3.190324e+09 -9.782385e+01 -5.943236e+00 2.292622e+01
-4.807328e+09 -4.607332e+09 -4.767325e+09 -1.592744e+03 -1.053238e+02 -1.002707e+03
-3.958852e+09 -3.758849e+09 -3.918848e+09 -3.787637e+03 2.405886e+03 5.666224e+02
-2.733268e+09 -2.533269e+09 -2.693269e+09 -7.649052e+01 -7.071113e+00 3.310809e+00
-3.792276e+09 -3.592278e+09 -3.752278e+09 -6.064622e+01 5.486752e+00 6.392526e+00
-4.827028e+09 -4.627032e+09 -4.787023e+09 -7.920046e+02 3.938022e+02 -2.233936e+02
-4.645749e+09 -4.445742e+09 -4.605728e+09 -4.696737e+03 -4.709491e+03 1.907677e+03
-4.995700e+09 -4.795701e+09 -4.955681e+09 -1.675969e+03 -6.151425e+02 -2.139204e+03
-4.288894e+09 -4.088896e+09 -4.248873e+09 -1.986428e+02 -1.418330e+03 -6.583963e+03
-4.985884e+09 -4.785887e+09 -4.945873e+09 1.286482e+03 -4.614108e+02 -1.787452e+03
-2.929314e+09 -2.729315e+09 -2.889315e+09 -1.924265e+01 -1.154280e+01 -1.717353e+00
-3.792869e+09 -3.592870e+09 -3.752870e+09 -3.425724e+01 -5.247824e+00 1.900546e+01
-4.501151e+09 -4.301152e+09 -4.461152e+09 -9.006149e+01 -7.502052e+00 1.105651e+01
-4.766803e+09 -4.566805e+09 -4.726804e+09 -4.139753e+01 2.025791e+00 1.563111e+01
-4.449531e+09 -4.249533e+09 -4.409532e+09 -2.488047e+01 -3.015590e+00 3.468454e+00
-3.712133e+09 -3.512134e+09 -3.672134e+09 -4.693662e+01 5.194785e+00 1.161019e+01
-3.670952e+09 -3.470953e+09 -3.630953e+09 -8.870990e+01 -1.007869e+01 1.037076e+01
-4.155330e+09 -3.955333e+09 -4.115326e+09 -2.851527e+03 1.958743e+03 -1.530939e+03
-4.623061e+09 -4.423062e+09 -4.583062e+09 -3.421832e+01 -3.571063e+00 -9.599059e+00
-3.951115e+09 -3.751119e+09 -3.911114e+09 -2.278863e+03 1.000847e+03 -2.092128e+03
-4.641035e+09 -4.441045e+09 -4.601041e+09 4.319052e+01 1.507910e+02 1.204677e+02
-4.055613e+09 -3.855625e+09 -4.015620e+09 3.144517e+02 -8.586418e+01 1.717151e+03
-5.009993e+09 -4.810003e+09 -4.969998e+09 -3.124315e+02 -4.336613e+01 4.799706e+02
-3.981548e+09 -3.781558e+09 -3.941554e+09 -3.208960e+02 7.526292e+01 5.713501e+01
-4.131955e+09 -3.931947e+09 -4.091942e+09 -7.326036e+03 -7.799296e+03 4.458728e+03
-1.579002e+09 -1.379001e+09 -1.539001e+09 7.309647e+01 1.733806e+01 -2.070881e+01
-4.546927e+09 -4.346935e+09 -4.506931e+09 -4.503805e+01 -1.197821e+02 1.281425e+00
-4.944159e+09 -4.744161e+09 -4.904160e+09 -1.706104e+02 2.509485e-05 -7.413298e+01
-4.120171e+09 -3.920171e+09 -4.080174e+09 -2.009559e+03 -1.374209e+03 -4.830501e+02
-3.540167e+09 -3.340177e+09 -3.500173e+09 -2.546914e+02 1.512356e+02 1.646300e+03
-4.944160e+09 -4.744161e+09 -4.904158e+09 2.326200e+02 5.732219e+01 -4.949988e-05
-4.065489e+09 -3.865494e+09 -4.025489e+09 -3.408181e+02 3.520851e+01 1.898243e+00
-5.010002e+09 -4.810006e+09 -4.970002e+09 -2.338443e+02 8.348447e+00 3.960263e+01
-3.891939e+09 -3.691943e+09 -3.851939e+09 -5.674299e+02 5.994950e+01 -3.327162e+01
-4.822451e+09 -4.622456e+09 -4.782452e+09 -5.123595e+02 -6.731651e+01 2.181425e+01
-4.290858e+09 -4.090861e+09 -4.250858e+09 -4.101628e+02 -7.268339e+01 6.555023e+00
-4.258309e+09 -4.058312e+09 -4.218309e+09 -3.405087e+02 -6.989739e+01 -3.488709e+01
-4.992272e+09 -4.792270e+09 -4.952285e+09 -2.154944e+03 1.519123e+03 2.727484e+01
-4.991891e+09 -4.791896e+09 -4.951892e+09 -1.046497e+03 -1.043352e+02 8.553395e+00
-4.200879e+09 -4.000879e+09 -4.160878e+09 3.221664e+02 -1.399045e+02 5.323787e+01
-4.990397e+09 -4.790388e+09 -4.950407e+09 4.013281e+02 2.187096e+03 9.150111e+02
-4.641796e+09 -4.441784e+09 -4.601798e+09 3.122654e+03 -1.541774e+03 9.511671e+02
-4.995943e+09 -4.795938e+09 -4.955951e+09 -9.011615e+02 1.344282e+03 7.591914e+02
-3.966247e+09 -3.766241e+09 -3.926253e+09 -2.701504e+03 2.820806e+03 3.083080e+03
-4.839289e+09 -4.639288e+09 -4.799288e+09 -7.352830e+00 2.085817e+01 8.045586e+00
-4.450944e+09 -4.250942e+09 -4.410943e+09 1.088636e+02 1.006617e+01 -1.973678e+01
-4.170646e+09 -3.970647e+09 -4.130645e+09 3.541646e+02 -9.789417e+01 5.022660e+01
-4.183859e+09 -3.983858e+09 -4.143858e+09 1.512052e+01 -9.946355e-02 -4.889688e+00
-3.906744e+09 -3.706743e+09 -3.866743e+09 8.327070e+01 1.708296e+01 -3.947209e+01
-4.941910e+09 -4.741909e+09 -4.901909e+09 3.972544e+01 -2.486653e-05 3.478327e+00
-4.989269e+09 -4.789270e+09 -4.949269e+09 2.173295e+02 3.048173e+01 9.146096e+00
-3.808809e+09 -3.608809e+09 -3.768808e+09 4.166006e+02 -7.338908e+01 2.974246e+01
-4.651033e+09 -4.451032e+09 -4.611032e+09 2.699406e+02 -3.838447e+01 -1.092323e+00
-4.418682e+09 -4.218681e+09 -4.378682e+09 -3.842670e+01 -2.029016e+01 1.587139e+00
-4.944158e+09 -4.744158e+09 -4.904158e+09 -1.988903e+01 1.096753e+01 -2.487289e-05
-4.081675e+09 -3.881675e+09 -4.041674e+09 -2.389938e+02 1.293959e+01 -3.271755e+01
-3.993167e+09 -3.793168e+09 -3.953166e+09 -2.108636e+02 -1.724804e+01 -7.363236e+01
-3.908987e+09 -3.708993e+09 -3.868989e+09 -6.540621e+01 -2.029072e+02 -1.718862e+02
-4.991947e+09 -4.791948e+09 -4.951946e+09 -2.166931e+02 -2.301849e+01 2.712094e+01
-4.496984e+09 -4.296985e+09 -4.456983e+09 -2.777715e+02 -3.163481e+01 -3.714774e+01
-2.986399e+09 -2.786401e+09 -2.946399e+09 -7.073428e+02 -6.778820e+02 -1.954036e+02
-3.084668e+09 -2.884670e+09 -3.044669e+09 -1.550355e+03 -1.107612e+03 -4.051217e+02
-4.549734e+09 -4.349737e+09 -4.509735e+09 -1.744866e+02 -7.462503e+01 -1.035015e+01
-2.810085e+09 -2.610084e+09 -2.770085e+09 -1.715047e+03 -1.279183e+03 -3.879622e+02
-4.802263e+09 -4.602265e+09 -4.762262e+09 -3.887364e+02 -8.866692e+01 -2.188417e+01
-1.565544e+09 -1.365546e+09 -1.525543e+09 -1.075779e+03 -7.354494e+02 5.377127e+00
-3.823889e+09 -3.623890e+09 -3.783888e+09 -4.161576e+02 -1.925157e+01 -7.309800e+01
-4.822318e+09 -4.622318e+09 -4.782317e+09 -3.549792e+02 7.476025e+01 3.753353e+00
-4.026116e+09 -3.826122e+09 -3.986119e+09 5.575987e+02 -6.377015e+02 1.308855e+02
-3.937632e+09 -3.737639e+09 -3.897635e+09 4.579172e+02 -3.319306e+02 1.416174e+02
-3.961494e+09 -3.761501e+09 -3.921488e+09 -4.913592e+03 -3.562626e+03 4.594645e+03
-4.993952e+09 -4.793957e+09 -4.953954e+09 3.994816e+02 -1.201630e+02 1.071960e+02
-4.479361e+09 -4.279365e+09 -4.439362e+09 5.047587e+02 -3.087708e+02 1.592619e+01
-4.941911e+09 -4.741911e+09 -4.901910e+09 3.227868e+02 7.323651e+01 -4.931585e-05
-4.128103e+09 -3.928102e+09 -4.088102e+09 6.171813e+01 2.133576e+01 1.750305e+00
-4.313401e+09 -4.113400e+09 -4.273400e+09 1.606221e+02 1.769238e+01 -1.397399e+01
-3.225867e+09 -3.025866e+09 -3.185866e+09 2.379667e+01 3.178222e+01 -1.961545e+01
-2.181591e+09 -1.981590e+09 -2.141590e+09 8.426322e+01 -1.792072e+00 -1.865563e+01
-4.821924e+09 -4.621927e+09 -4.781925e+09 5.747164e+02 -2.461382e+02 -1.860910e+01
-4.629727e+09 -4.429726e+09 -4.589726e+09 1.223395e+02 1.997991e+01 -2.543898e+01
-4.818496e+09 -4.618491e+09 -4.778493e+09 1.601741e+03 -1.544640e+02 -5.167726e+02
-4.289880e+09 -4.089874e+09 -4.249877e+09 1.227074e+03 -4.667731e+02 9.496601e+01
-3.821028e+09 -3.621033e+09 -3.781030e+09 1.000814e+03 -6.292877e+02 2.482621e+02
-4.133282e+09 -3.933287e+09 -4.093282e+09 1.102907e+03 3.588942e+01 8.441410e+01
-4.991057e+09 -4.791064e+09 -4.951059e+09 1.167724e+03 9.402828e+01 8.490668e+01
-4.546775e+09 -4.346781e+09 -4.506775e+09 1.112037e+02 1.835356e+01 1.339658e+01
-4.474598e+09 -4.274595e+09 -4.434597e+09 -1.380933e+03 3.102653e+02 1.937583e+02
-4.475052e+09 -4.275056e+09 -4.435052e+09 1.301917e+03 9.475599e+01 -8.705865e+00
-3.850355e+09 -3.650354e+09 -3.810354e+09 -9.279297e+01 -1.350742e+01 -6.204605e+01
-4.822515e+09 -4.622521e+09 -4.782518e+09 7.974261e+02 -5.066325e+01 8.897096e+01
-3.951778e+09 -3.751775e+09 -3.911779e+09 -7.345140e+02 2.487051e+02 -2.867432e+02
-4.647850e+09 -4.447849e+09 -4.607849e+09 -3.670029e+02 -2.547072e+01 -2.166458e+01
-4.315466e+09 -4.115465e+09 -4.275465e+09 -5.348921e+02 -8.375529e+00 -4.094209e+01
-3.894168e+09 -3.694167e+09 -3.854167e+09 2.230683e+02 -2.147424e+02 -3.152703e+00
-4.786339e+09 -4.586337e+09 -4.746340e+09 -3.894492e+02 -1.075163e+00 4.101181e+02
-4.315716e+09 -4.115711e+09 -4.275720e+09 -1.198847e+03 -2.006707e+03 -1.459838e+03
-1.688746e+09 -1.488746e+09 -1.648744e+09 -2.291362e+03 -1.878188e+03 -5.464980e+02
-4.992308e+09 -4.792303e+09 -4.952310e+09 -8.090130e+02 -4.230842e+02 -2.128004e+02
-4.302296e+09 -4.102286e+09 -4.262300e+09 -2.328435e+03 1.437477e+03 -2.276133e+03
-1.591608e+09 -1.391605e+09 -1.551606e+09 -1.300902e+03 -1.020272e+03 -3.010906e+02
-4.546085e+09 -4.346087e+09 -4.506089e+09 1.137294e+02 -5.288525e+01 8.510114e+00
-4.060600e+09 -3.860599e+09 -4.020602e+09 -7.174620e+02 1.199434e+02 7.976515e+01
-4.288919e+09 -4.088918e+09 -4.248917e+09 2.354303e+03 -4.788959e+02 -6.556897e+02
-5.000514e+09 -4.800518e+09 -4.960508e+09 6.319099e+02 -1.985110e+02 -1.218516e+03
-4.643163e+09 -4.443164e+09 -4.603160e+09 -2.853831e+03 6.690017e+02 -1.497951e+02
-4.320475e+09 -4.120479e+09 -4.280466e+09 -8.989289e+02 8.458750e+02 -3.147578e+03
-3.952450e+09 -3.752453e+09 -3.912450e+09 -1.901369e+03 6.506196e+02 -9.437373e+02
-4.799512e+09 -4.599513e+09 -4.759514e+09 -1.660330e+03 6.834626e+01 -6.001666e+02
-4.657282e+09 -4.457285e+09 -4.617276e+09 1.058108e+03 -2.099200e+02 -8.803143e+02
-4.117824e+09 -3.917825e+09 -4.077812e+09 2.320359e+03 -2.157054e+03 -3.686388e+03
-4.477505e+09 -4.277508e+09 -4.437501e+09 2.720976e+03 -6.291070e+02 -2.303186e+03
-4.995623e+09 -4.795627e+09 -4.955624e+09 -1.261846e+03 2.988396e+01 -3.760174e+02
-3.790031e+09 -3.590029e+09 -3.750033e+09 -4.441495e+02 3.163018e+02 -2.494473e+02
-4.820801e+09 -4.620796e+09 -4.780801e+09 -3.108503e+02 1.686703e+02 -8.344714e+00
-3.741715e+09 -3.541716e+09 -3.701714e+09 -1.736029e+02 1.391695e+02 -4.708242e+01
-4.130274e+09 -3.930275e+09 -4.090272e+09 -2.559430e+03 3.641007e+02 -1.248695e+03
-4.501281e+09 -4.301284e+09 -4.461281e+09 -3.350155e+02 5.550039e+01 -3.776358e+01
-1.571788e+09 -1.371790e+09 -1.531787e+09 6.982248e+02 8.090818e+01 1.999686e+01
-4.839607e+09 -4.639609e+09 -4.799606e+09 -2.512737e+02 -2.531726e+01 2.999774e+01
-4.645864e+09 -4.445863e+09 -4.605863e+09 7.829581e+01 -1.691590e+01 -1.201089e+01
-2.701955e+09 -2.501953e+09 -2.661956e+09 -1.787520e+03 -1.519792e+02 -5.210642e+02
-4.825257e+09 -4.625259e+09 -4.785256e+09 5.655581e+02 -6.600467e+01 5.427668e+01
-4.081973e+09 -3.881975e+09 -4.041973e+09 -3.355140e+02 -5.275298e+01 -2.742529e+01
-4.132629e+09 -3.932628e+09 -4.092629e+09 -4.132293e+02 -4.220002e+01 -9.272268e+00
-4.546928e+09 -4.346929e+09 -4.506928e+09 -3.077674e+01 -2.288074e+01 5.319105e-01
-4.991694e+09 -4.791695e+09 -4.951695e+09 -6.097341e+02 -2.378135e+00 -5.536117e+01
-3.011585e+09 -2.811587e+09 -2.971586e+09 -1.481332e+02 -1.241527e+01 2.816618e+01
-3.310663e+09 -3.110666e+09 -3.270663e+09 -7.729001e+00 1.614112e+02 -8.888935e+01
-3.845455e+09 -3.645455e+09 -3.805456e+09 -2.892806e+01 -1.016737e+01 -2.464953e+00
-3.740038e+09 -3.540041e+09 -3.700037e+09 -2.513553e+02 -1.462737e+02 -1.705162e+01
-3.656449e+09 -3.456457e+09 -3.616452e+09 -5.872246e+01 -2.557357e+02 -2.556891e+01
-3.293217e+09 -3.093218e+09 -3.253216e+09 -2.737940e+02 -1.542857e+02 -1.240333e+02
-4.940385e+09 -4.740393e+09 -4.900389e+09 -7.247273e+00 2.486860e-05 3.038544e+00
-4.546705e+09 -4.346704e+09 -4.506704e+09 5.054447e+01 -3.616076e-01 -1.902346e+01
-3.863627e+09 -3.663625e+09 -3.823625e+09 3.546157e+01 2.388182e+00 -1.550057e+01
-4.940923e+09 -4.740922e+09 -4.900922e+09 4.115941e+01 4.973998e-05 2.703658e+00
-3.843314e+09 -3.643315e+09 -3.803313e+09 -3.531383e+02 -2.160170e+00 -4.454696e+01
-4.615940e+09 -4.415942e+09 -4.575939e+09 -8.614393e+01 4.535199e+01 -1.381851e+01
-4.825650e+09 -4.625652e+09 -4.785649e+09 -3.883110e+02 -5.232233e+01 -6.238596e+01
-3.542208e+09 -3.342209e+09 -3.502207e+09 -2.626687e+02 3.222381e+01 -6.289160e+01
-3.844866e+09 -3.644867e+09 -3.804868e+09 -1.049780e+03 -6.951867e+01 1.618760e+02
-4.302565e+09 -4.102567e+09 -4.262543e+09 -4.563707e+03 -3.866925e+03 5.548771e+03
-4.634065e+09 -4.434066e+09 -4.594067e+09 -3.102807e+02 -6.622551e+00 3.177885e+02
-4.188884e+09 -3.988889e+09 -4.148889e+09 -1.678054e+03 -1.218848e+01 3.838119e+02
-4.832254e+09 -4.632259e+09 -4.792258e+09 -1.856014e+03 8.679597e+01 -4.818064e+02
-3.783896e+09 -3.583896e+09 -3.743898e+09 -2.134630e+03 -1.901829e+01 2.521549e+01
-4.226047e+09 -4.026047e+09 -4.186049e+09 -1.404070e+03 1.785595e+02 -1.636752e+02
-3.718177e+09 -3.518180e+09 -3.678178e+09 2.505528e+02 1.286395e+02 1.114677e+02
-4.633667e+09 -4.433666e+09 -4.593666e+09 7.216575e+01 -2.920448e+01 -3.435204e+00
-4.131066e+09 -3.931063e+09 -4.091087e+09 1.725704e+03 7.212487e+03 -2.915160e+03
-2.634233e+09 -2.434233e+09 -2.594233e+09 -2.339559e+01 -4.603194e+01 1.198897e+01
-3.433657e+09 -3.233656e+09 -3.393656e+09 -8.077569e+01 -2.697712e+01 3.174826e+00
-4.649384e+09 -4.449387e+09 -4.609385e+09 4.320298e+02 -1.465452e+02 3.420278e+01
-4.060054e+09 -3.860058e+09 -4.020056e+09 5.335511e+02 -3.163449e+02 4.600658e+01
-3.721846e+09 -3.521851e+09 -3.681847e+09 4.754106e+02 1.268816e+02 1.764592e+02
-3.282157e+09 -3.082162e+09 -3.242159e+09 3.403308e+01 -3.698460e+02 8.499299e+01
-4.548975e+09 -4.348980e+09 -4.508977e+09 -1.451685e+02 -9.624641e+01 -2.919063e+01
-4.033460e+09 -3.833464e+09 -3.993461e+09 6.939301e+02 -4.743776e+02 8.630357e+01
-3.961463e+09 -3.761457e+09 -3.921457e+09 -5.669307e+03 -2.679049e+03 6.853250e+02
-4.645746e+09 -4.445746e+09 -4.605746e+09 -1.252932e+03 -3.222134e+02 1.815451e+01
-4.821412e+09 -4.621415e+09 -4.781413e+09 3.615530e+02 -2.996370e+01 1.573943e+01
-4.779867e+09 -4.579869e+09 -4.739867e+09 5.649538e+02 -2.746475e+02 1.640616e+02
-4.548977e+09 -4.348976e+09 -4.508975e+09 3.729232e+02 7.598963e+01 -2.368681e+01
-4.940925e+09 -4.740923e+09 -4.900923e+09 4.274259e+02 1.270831e+02 -4.876802e-05
-2.067309e+09 -1.867311e+09 -2.027308e+09 1.577928e+03 4.068879e+02 -6.932525e+01
-3.314533e+09 -3.114534e+09 -3.274532e+09 2.301591e+03 7.169795e+02 -2.962966e+01
-1.591631e+09 -1.391632e+09 -1.551630e+09 1.254405e+03 5.110888e+02 -1.432370e+01
-3.503405e+09 -3.303409e+09 -3.463406e+09 5.089203e+02 -4.735196e+02 1.220659e+02
-3.252140e+09 -3.052139e+09 -3.212139e+09 8.325641e+01 3.626925e+00 -1.835332e+01
-4.664659e+09 -4.464661e+09 -4.624661e+09 1.126740e+03 -2.656466e+02 2.467502e+02
-2.193939e+09 -1.993938e+09 -2.153938e+09 -5.546236e+00 -6.655832e+00 -4.202015e+01
-4.237130e+09 -4.037133e+09 -4.197132e+09 9.655118e+02 -6.343801e+02 1.749334e+02
-4.548278e+09 -4.348277e+09 -4.508277e+09 4.521162e+01 2.867812e+00 -1.394275e+01
-3.027922e+09 -2.827923e+09 -2.987921e+09 -4.066123e+02 -3.689581e+02 -1.904778e+02
-4.991163e+09 -4.791163e+09 -4.951165e+09 1.019368e+03 -4.432856e+01 7.059747e+01
-4.819738e+09 -4.619738e+09 -4.779739e+09 8.124716e+02 -4.041773e+02 3.523558e+02
-4.148606e+09 -3.948607e+09 -4.108608e+09 1.258243e+03 -6.864397e+02 1.582915e+02
-4.991616e+09 -4.791619e+09 -4.951618e+09 -8.095514e+02 -4.150185e+01 -8.514537e+01
-4.605728e+09 -4.405729e+09 -4.565728e+09 -7.022565e+02 -2.334355e+02 7.859288e+00
-4.148614e+09 -3.948614e+09 -4.108615e+09 1.359566e+03 -9.447372e+02 7.395341e+02
-4.793437e+09 -4.593439e+09 -4.753438e+09 7.419791e+02 -3.918139e+02 3.578583e+02
-2.971699e+09 -2.771699e+09 -2.931699e+09 -3.575124e+02 -4.490679e+01 -1.421082e+01
-2.638325e+09 -2.438325e+09 -2.598326e+09 -3.327729e+02 1.094638e+01 -5.475312e+01
-3.600047e+09 -3.400053e+09 -3.560052e+09 -1.238429e+03 -2.793334e+02 -7.048968e+02
-4.992486e+09 -4.792486e+09 -4.952486e+09 -3.739799e+02 -2.678152e+00 -1.451210e+01
-4.782260e+09 -4.582268e+09 -4.742265e+09 -5.993195e+02 1.322868e+02 -2.077054e+02
-4.772425e+09 -4.572435e+09 -4.732428e+09 -1.824247e+03 -6.416237e+00 1.289615e+03
-4.048373e+09 -3.848372e+09 -4.008372e+09 -7.003984e+01 -1.485903e+01 -2.044132e+01
-2.221361e+09 -2.021371e+09 -2.181369e+09 1.200470e+02 4.543659e+02 1.720283e+03
-5.005922e+09 -4.805929e+09 -4.965926e+09 -9.592544e+02 -3.580954e+02 3.094645e+02
-4.816833e+09 -4.616836e+09 -4.776835e+09 -2.499321e+03 -4.097407e+01 2.316552e+02
-5.005163e+09 -4.805160e+09 -4.965161e+09 -5.335170e+02 -4.107297e+01 -4.587235e+01
-4.819968e+09 -4.619964e+09 -4.779969e+09 -1.294362e+03 -6.260074e+02 -5.457178e+02
-2.288733e+09 -2.088734e+09 -2.248734e+09 7.322014e+01 7.913035e+00 -4.815928e+00
-3.295135e+09 -3.095138e+09 -3.255136e+09 1.051149e+03 -8.098035e+02 3.584106e+02
-5.000982e+09 -4.800985e+09 -4.960981e+09 1.788669e+02 -5.018021e+01 -5.763509e+01
-3.862677e+09 -3.662680e+09 -3.822677e+09 5.066462e+02 -3.525660e+02 1.719998e+02
-4.272966e+09 -4.072971e+09 -4.232966e+09 4.920393e+02 1.041428e+02 2.005683e+01
-4.994322e+09 -4.794323e+09 -4.954322e+09 3.412075e+02 9.706767e+00 7.088586e+01
-4.455892e+09 -4.255892e+09 -4.415892e+09 4.420992e+02 -2.336895e+02 6.050613e+01
-3.896361e+09 -3.696365e+09 -3.856361e+09 7.690551e+02 -2.060296e+01 -2.004875e+01
-3.789043e+09 -3.589044e+09 -3.749042e+09 7.076978e+02 -2.520028e+02 8.925149e+01
-4.584668e+09 -4.384668e+09 -4.544668e+09 6.318064e+02 -2.687224e+02 6.002594e+01
-3.980226e+09 -3.780228e+09 -3.940227e+09 -9.809252e+01 -1.483755e+01 2.575082e+01
-4.817130e+09 -4.617132e+09 -4.777131e+09 -1.216222e+02 4.216302e+00 -3.439260e+01
-4.132325e+09 -3.932327e+09 -4.092326e+09 1.204042e+03 -7.754904e+01 -2.837473e+02
-4.554814e+09 -4.354815e+09 -4.514815e+09 -5.880080e+01 -6.311801e+00 4.177245e+00
-4.951984e+09 -4.751986e+09 -4.911986e+09 -2.399440e+01 3.994669e+00 -9.915294e+00
-4.453066e+09 -4.253068e+09 -4.413067e+09 -7.473307e+00 -1.221361e-01 9.838057e+00
-4.770097e+09 -4.570098e+09 -4.730098e+09 -1.146177e+01 -4.483563e+00 1.270756e+01
-4.559067e+09 -4.359068e+09 -4.519068e+09 -2.904586e+01 -2.044110e+01 -1.375206e+00
-2.070776e+09 -1.870776e+09 -2.030776e+09 -3.750935e+02 -4.538530e+01 -1.583000e+01
-3.272091e+09 -3.072091e+09 -3.232091e+09 -3.868528e+02 -1.570974e+01 2.653708e-01
-3.912202e+09 -3.712204e+09 -3.872204e+09 -8.141686e+01 4.548098e+00 -4.550947e+00
-4.037472e+09 -3.837474e+09 -3.997473e+09 -3.862877e+01 -1.341684e+01 1.694814e+01
-4.303376e+09 -4.103385e+09 -4.263381e+09 1.517005e+03 1.561280e+01 4.988012e+02
-3.961321e+09 -3.761323e+09 -3.921323e+09 -6.723023e+02 -2.845192e+01 3.089719e+01
-4.940922e+09 -4.740922e+09 -4.900922e+09 -3.428303e+01 2.169561e+01 2.485571e-05
-4.786348e+09 -4.586353e+09 -4.746353e+09 8.695076e+02 1.774263e+02 5.889276e+02
-3.459428e+09 -3.259434e+09 -3.419432e+09 -2.004563e+03 -2.648409e+03 -6.115245e+02
-3.789297e+09 -3.589306e+09 -3.749302e+09 1.262017e+03 3.414524e+02 9.782361e+02
-3.827255e+09 -3.627260e+09 -3.787260e+09 2.764965e+03 7.851100e+02 4.668498e+02
-4.286165e+09 -4.086171e+09 -4.246168e+09 2.910350e+03 5.355988e+02 4.208679e+02
-4.992625e+09 -4.792629e+09 -4.952629e+09 -1.584293e+03 -3.454483e+02 -1.569611e+01
-5.009960e+09 -4.809966e+09 -4.969965e+09 1.002424e+03 2.912107e+02 7.770010e+01
-4.134040e+09 -3.934047e+09 -4.094048e+09 1.011895e+02 -2.720252e+03 6.755996e+01
-4.652176e+09 -4.452181e+09 -4.612177e+09 -2.238231e+02 1.092983e+02 -2.197824e+01
-4.770084e+09 -4.570090e+09 -4.730085e+09 -3.585446e+01 -2.564451e+01 -1.943104e+01
-4.992632e+09 -4.792638e+09 -4.952641e+09 -2.365909e+02 -7.560224e+02 1.439318e+01
-4.559067e+09 -4.359074e+09 -4.519070e+09 -1.047036e+02 -1.317402e+02 2.368861e+01
-3.889769e+09 -3.689776e+09 -3.849772e+09 -6.119521e+01 -2.557052e+02 -1.075015e+02
-4.187137e+09 -3.987143e+09 -4.147138e+09 -2.185804e+02 -8.375678e+00 1.043247e+00
-3.823067e+09 -3.623072e+09 -3.783067e+09 -2.364673e+02 9.961957e+01 -4.063231e+01
-4.822277e+09 -4.622282e+09 -4.782277e+09 -3.256600e+02 -1.662604e+01 2.475981e+01
-4.940314e+09 -4.740311e+09 -4.900315e+09 1.461326e+02 5.900333e+01 -1.490600e-04
-4.993697e+09 -4.793703e+09 -4.953698e+09 -1.145449e+02 5.598041e+01 1.219653e+01
-4.770086e+09 -4.570085e+09 -4.730085e+09 -4.040576e+01 -5.206349e+01 -1.915365e+01
-4.786332e+09 -4.586331e+09 -4.746333e+09 -5.771420e+02 1.639619e+02 -4.848602e+02
-3.901576e+09 -3.701573e+09 -3.861574e+09 3.520606e+02 3.865626e+02 -5.587504e+01
-3.847339e+09 -3.647338e+09 -3.807338e+09 -1.875255e+02 -4.636321e-01 -1.008293e+02
-4.275239e+09 -4.075238e+09 -4.235238e+09 3.623539e+01 -2.664630e+01 2.571512e+01
-4.993699e+09 -4.793698e+09 -4.953698e+09 4.050910e+01 4.049220e+01 -3.665247e+01
-4.846943e+09 -4.646945e+09 -4.806944e+09 1.301686e+01 -1.695224e+00 -9.527064e-01
-3.913616e+09 -3.713617e+09 -3.873617e+09 -4.039079e+00 -5.371081e-02 -5.354991e+00
-4.985497e+09 -4.785496e+09 -4.945496e+09 2.882814e+01 4.970492e+00 1.044702e+01
-3.653537e+09 -3.453538e+09 -3.613538e+09 -7.805221e+00 9.406204e-01 1.394305e+00
-4.830431e+09 -4.630430e+09 -4.790430e+09 1.008841e+02 1.499232e+01 1.273669e+01
-3.793099e+09 -3.593101e+09 -3.753100e+09 -1.334221e-01 1.426190e+00 -3.641592e+00
-3.908406e+09 -3.708407e+09 -3.868407e+09 2.947248e+01 -4.582454e-01 1.681255e+01
-3.311169e+09 -3.111171e+09 -3.271170e+09 9.003136e-01 -9.508347e-02 2.264029e+01
-3.750920e+09 -3.550922e+09 -3.710922e+09 3.281914e+01 4.328719e+00 -1.900538e+01
-3.829637e+09 -3.629639e+09 -3.789639e+09 -4.523479e+00 1.157102e+01 -2.318806e+01
-2.166756e+09 -1.966756e+09 -2.126756e+09 2.235320e+02 1.100568e+01 -1.206880e+01
-4.665055e+09 -4.465057e+09 -4.625056e+09 1.016971e+01 -9.386305e-01 -1.265757e+00
-4.770584e+09 -4.570586e+09 -4.730585e+09 6.120743e+01 3.972810e+00 -2.016965e+01
-4.990653e+09 -4.790652e+09 -4.950653e+09 1.581272e+02 -6.461164e+00 3.902816e+00
-4.999985e+09 -4.799984e+09 -4.959985e+09 8.833388e+01 -7.184454e+00 7.475322e+00
-3.588738e+09 -3.388740e+09 -3.548739e+09 -3.009226e+00 -3.625949e+00 3.748317e+00
-4.063435e+09 -3.863434e+09 -4.023434e+09 1.299338e+02 1.376508e+01 -2.142237e+01
-3.920824e+09 -3.720823e+09 -3.880823e+09 -3.548067e+01 -3.119097e+01 -4.557146e+01
-3.997763e+09 -3.797764e+09 -3.957764e+09 1.227694e+02 4.319681e+00 1.926989e+01
-4.820650e+09 -4.620649e+09 -4.780649e+09 -5.620012e+01 2.030076e+01 6.063351e+00
-3.976235e+09 -3.776237e+09 -3.936236e+09 1.168225e+02 -1.004838e+00 1.334530e+01
-3.776398e+09 -3.576399e+09 -3.736399e+09 1.204468e+02 1.651103e+01 1.901063e+01
-3.483144e+09 -3.283143e+09 -3.443143e+09 5.197753e+01 8.026642e+01 -2.798961e+01
-4.583248e+09 -4.383250e+09 -4.543249e+09 1.049741e+02 8.229950e+00 1.526609e+01
-4.988956e+09 -4.788958e+09 -4.948957e+09 4.877044e+01 -8.743558e+00 -1.068777e+01
-4.814381e+09 -4.614382e+09 -4.774382e+09 1.186043e+02 9.453619e+00 -3.496531e+01
-4.991036e+09 -4.791037e+09 -4.951037e+09 9.677337e+01 -2.066561e+01 7.286641e+00
-3.792157e+09 -3.592158e+09 -3.752157e+09 2.358933e+02 2.245304e+01 2.600565e+01
-3.963122e+09 -3.763120e+09 -3.923123e+09 3.348697e+03 1.352361e+03 -8.534863e+02
-4.143266e+09 -3.943273e+09 -4.103271e+09 2.664546e+02 -2.126223e+01 4.120778e+02
-4.818374e+09 -4.618375e+09 -4.778374e+09 -1.501389e+03 2.171098e+02 1.509056e+02
-2.972990e+09 -2.772989e+09 -2.932989e+09 2.923054e+03 1.550399e+03 -7.461997e+02
-4.803591e+09 -4.603591e+09 -4.763591e+09 1.455456e+02 1.695363e+01 3.445003e+01
-4.576793e+09 -4.376793e+09 -4.536793e+09 2.636116e+02 2.024116e+01 1.302184e+01
-4.003588e+09 -3.803588e+09 -3.963588e+09 1.474265e+02 -7.629506e+00 -3.076046e+00
-4.166497e+09 -3.966498e+09 -4.126498e+09 1.386164e+02 -6.090311e+00 -8.736279e+00
-3.907770e+09 -3.707771e+09 -3.867771e+09 7.307869e+01 1.104111e+01 -6.867318e+00
-3.961586e+09 -3.761589e+09 -3.921592e+09 3.967371e+03 2.733604e+03 -1.196918e+03
-5.005425e+09 -4.805426e+09 -4.965426e+09 7.594771e+01 -1.587797e+01 -2.443628e+01
-3.018641e+09 -2.818637e+09 -2.978639e+09 2.543338e+03 1.224410e+03 -8.638432e+02
-4.835307e+09 -4.635309e+09 -4.795308e+09 1.210929e+02 1.717155e+01 -1.294889e+01
-3.781977e+09 -3.581978e+09 -3.741978e+09 1.869059e+02 1.361171e+01 3.623649e+01
-4.639363e+09 -4.439365e+09 -4.599364e+09 9.051062e+01 2.036991e+01 2.154627e+01
-4.640370e+09 -4.440371e+09 -4.600371e+09 1.504023e+02 -7.784015e-02 -8.126865e+01
-4.992550e+09 -4.792553e+09 -4.952550e+09 -9.256605e+02 -1.053983e+01 3.417696e+01
-4.765295e+09 -4.565296e+09 -4.725296e+09 3.891849e+01 4.241019e+00 -2.252213e+01
-4.993856e+09 -4.793857e+09 -4.953857e+09 9.770818e+01 -1.906447e+01 -1.407647e+01
-4.813308e+09 -4.613309e+09 -4.773309e+09 2.217568e+02 -4.576343e+00 2.471059e+01
-3.798976e+09 -3.598977e+09 -3.758977e+09 2.255455e+02 1.825030e+01 2.967610e+01
-4.834103e+09 -4.634104e+09 -4.794104e+09 1.914163e+02 -1.087621e+01 4.875343e+00
-4.278683e+09 -4.078684e+09 -4.238684e+09 1.391237e+02 5.214260e-01 4.140586e+01
-4.990640e+09 -4.790641e+09 -4.950641e+09 -1.174223e+02 1.298278e+01 -4.855209e+01
-4.769672e+09 -4.569678e+09 -4.729673e+09 -1.225422e+01 4.491510e+01 -1.026368e+00
-4.075041e+09 -3.875047e+09 -4.035042e+09 -2.341669e+01 8.408541e+01 -1.681555e+01
-4.083453e+09 -3.883452e+09 -4.043452e+09 -9.784458e-01 7.541212e+00 -2.486712e+01
-3.875233e+09 -3.675239e+09 -3.835234e+09 1.572979e+01 7.267753e+01 -4.736376e+01
-4.274088e+09 -4.074094e+09 -4.234089e+09 -4.509155e+01 5.131854e+01 -1.008877e+01
-4.546648e+09 -4.346655e+09 -4.506651e+09 4.521667e+01 -8.146678e+01 4.783002e+01
-4.599395e+09 -4.399401e+09 -4.559395e+09 -7.803499e+01 1.850378e+01 -2.550231e+01
-4.993285e+09 -4.793291e+09 -4.953285e+09 -2.133061e+00 4.666441e+01 -1.339832e+01
-4.991405e+09 -4.791402e+09 -4.951404e+09 -8.042768e+02 -4.288137e+00 1.693322e+01
-4.060508e+09 -3.860506e+09 -4.020510e+09 8.908165e+02 -3.585623e+02 -3.034696e+02
-4.523828e+09 -4.323827e+09 -4.483827e+09 3.505331e+00 -3.557501e+00 2.494174e+00
-3.821602e+09 -3.621603e+09 -3.781606e+09 2.278996e+03 2.494217e+02 -2.277401e+02
-4.563034e+09 -4.363033e+09 -4.523032e+09 4.817523e+01 5.720242e-01 -3.025589e+01
-4.196318e+09 -3.996321e+09 -4.156322e+09 1.478341e+03 -1.200432e+02 4.335131e+01
-3.963349e+09 -3.763348e+09 -3.923348e+09 6.072377e+01 -2.561009e+00 -3.130367e+01
-4.822085e+09 -4.622088e+09 -4.782088e+09 2.491983e+03 2.140322e+01 8.971233e+02
-4.615659e+09 -4.415663e+09 -4.575663e+09 1.491940e+03 7.822246e-01 -2.700520e+01
-4.546624e+09 -4.346629e+09 -4.506626e+09 5.225957e+01 -7.132088e+01 2.769439e+01
-4.993281e+09 -4.793283e+09 -4.953285e+09 1.016459e+03 6.558506e+01 -2.345051e+02
-4.646523e+09 -4.446521e+09 -4.606523e+09 -1.489859e+03 -1.433729e+02 1.814672e+02
-4.991615e+09 -4.791614e+09 -4.951616e+09 -2.140026e+03 2.492274e+01 -2.386564e+01
-4.819335e+09 -4.619334e+09 -4.779335e+09 -1.778768e+03 8.596519e+00 -9.854235e+01
-4.991847e+09 -4.791852e+09 -4.951854e+09 6.770903e+02 -5.288597e+02 5.259336e+01
-4.301300e+09 -4.101299e+09 -4.261300e+09 -2.187814e+03 1.546237e+02 1.399562e+02
-1.899510e+09 -1.699520e+09 -1.859513e+09 2.711476e+02 -2.457256e+03 1.537467e+02
-3.230097e+09 -3.030096e+09 -3.190096e+09 1.157815e+02 2.033360e+01 6.751310e-01
-4.645048e+09 -4.445044e+09 -4.605050e+09 -1.884298e+03 -2.020492e+01 7.109824e+02
-4.646131e+09 -4.446128e+09 -4.606131e+09 -1.181515e+03 -1.746170e+02 3.303470e+02
-4.999985e+09 -4.799984e+09 -4.959985e+09 9.704360e+01 -7.409071e+00 6.882320e+00
-4.990796e+09 -4.790794e+09 -4.950797e+09 -2.298418e+03 -9.074472e+01 1.363113e+01
-4.302545e+09 -4.102543e+09 -4.262545e+09 -2.189328e+03 2.808508e+00 1.519172e+02
-4.770344e+09 -4.570343e+09 -4.730343e+09 4.119549e+00 -2.193692e+01 -8.977185e+00
-4.600432e+09 -4.400428e+09 -4.560431e+09 -1.601051e+02 -2.438163e+02 -9.355129e+01
-3.903288e+09 -3.703284e+09 -3.863286e+09 -2.973086e+02 -4.708307e+02 -3.483486e+00
-4.985844e+09 -4.785840e+09 -4.945843e+09 -1.873600e+02 -3.100441e+02 -5.203332e+01
-3.825440e+09 -3.625437e+09 -3.785439e+09 -1.002856e+03 -5.748803e+02 -3.353361e+02
-4.541608e+09 -4.341607e+09 -4.501607e+09 -2.428120e+00 1.610615e+01 -4.819549e-01
-4.538057e+09 -4.338057e+09 -4.498057e+09 1.112435e-01 1.935322e+01 -1.453605e+00
-3.778617e+09 -3.578613e+09 -3.738616e+09 -8.655083e+02 -8.353902e+02 -4.025596e+02
-3.711714e+09 -3.511713e+09 -3.671713e+09 5.797207e+01 1.697137e+01 -5.921880e+00
-2.824556e+09 -2.624555e+09 -2.784555e+09 1.697060e+00 3.378329e+00 6.077980e-02
-4.921181e+09 -4.721178e+09 -4.881179e+09 -1.778556e+02 -7.314728e+01 9.970830e-05
-4.779292e+09 -4.579288e+09 -4.739292e+09 -4.193170e+01 -1.682529e+02 -1.664141e+02
-5.005163e+09 -4.805161e+09 -4.965162e+09 -3.848237e+02 1.537539e+02 -5.109670e+01
-3.831003e+09 -3.630999e+09 -3.791001e+09 -2.874986e+02 -5.555969e+02 -1.322519e+02
-4.824807e+09 -4.624803e+09 -4.784807e+09 -5.920702e+02 -4.465021e+01 1.115305e+01
-4.274439e+09 -4.074436e+09 -4.234441e+09 3.809149e+02 -8.267036e+02 -8.999320e+02
-4.799896e+09 -4.599892e+09 -4.759896e+09 -8.701268e+02 -3.901200e+02 -2.275969e+02
-3.772002e+09 -3.571997e+09 -3.732002e+09 -5.497109e+02 -8.746673e+02 -7.043536e+02
-2.151022e+09 -1.951025e+09 -2.111022e+09 -6.173356e+02 -3.766849e+02 -1.130930e+02
-4.939602e+09 -4.739597e+09 -4.899600e+09 -3.527049e+02 -1.892772e+02 -2.367687e-05
-3.602850e+09 -3.402846e+09 -3.562849e+09 -3.014287e+02 -6.662144e+02 -1.001782e+02
-4.105043e+09 -3.905042e+09 -4.065042e+09 -2.873726e+01 5.786518e-01 -4.663555e-01
-2.690607e+09 -2.490604e+09 -2.650607e+09 -2.117858e+02 -6.817250e+02 -2.273774e+02
-4.484015e+09 -4.284014e+09 -4.444015e+09 -1.077145e+02 -3.359204e+00 -7.068216e+00
-1.559508e+09 -1.359506e+09 -1.519506e+09 -7.657613e+02 -6.255408e+02 -7.118840e+01
-4.600040e+09 -4.400038e+09 -4.560039e+09 -5.362758e+01 -5.916856e+00 -2.721495e+00
-4.985452e+09 -4.785451e+09 -4.945451e+09 -4.681742e+01 5.174989e-01 -1.419399e+01
-3.793399e+09 -3.593398e+09 -3.753398e+09 -1.647247e+02 -1.311158e+01 -7.434089e+00
-3.770048e+09 -3.570047e+09 -3.730048e+09 -1.731193e+02 -8.534915e+00 -3.347191e+01
-4.533008e+09 -4.333004e+09 -4.493006e+09 -3.584939e+02 -2.279113e+02 -6.599480e+01
-4.779291e+09 -4.579290e+09 -4.739290e+09 -6.832020e+01 -3.139997e+00 -4.234419e+00
-4.992076e+09 -4.792082e+09 -4.952077e+09 7.600758e+02 2.102034e+01 5.243568e+01
-4.824416e+09 -4.624414e+09 -4.784415e+09 -1.632852e+02 -4.468262e+00 2.615140e+01
-4.302450e+09 -4.102457e+09 -4.262453e+09 -3.827832e+01 4.296715e+02 7.688630e+01
-4.812422e+09 -4.612421e+09 -4.772422e+09 -1.882983e+02 -6.787893e+00 -5.281993e+01
-4.811148e+09 -4.611151e+09 -4.771147e+09 5.214440e+02 5.196418e+01 -8.706750e+01
-3.761973e+09 -3.561978e+09 -3.721973e+09 4.528735e+02 4.427472e+01 -1.510305e+01
-3.869428e+09 -3.669431e+09 -3.829427e+09 5.127058e+02 -5.867697e+01 9.517264e+00
-4.779290e+09 -4.579295e+09 -4.739290e+09 1.952880e+02 -7.035266e+01 9.116153e+00
-4.824415e+09 -4.624420e+09 -4.784415e+09 4.154371e+02 -3.566671e+01 6.789291e+01
-4.812422e+09 -4.612426e+09 -4.772422e+09 6.537105e+02 9.643406e+01 -8.497967e+01
-5.002938e+09 -4.802943e+09 -4.962938e+09 4.274674e+02 1.718449e-02 2.454620e+00
-4.939599e+09 -4.739604e+09 -4.899599e+09 1.070654e+02 2.481558e-05 -2.793579e+01
-4.600039e+09 -4.400044e+09 -4.560039e+09 2.640213e+02 -5.722753e+00 2.801678e+01
-2.699168e+09 -2.499172e+09 -2.659168e+09 -2.115474e+01 2.316410e+01 -9.251700e+01
-3.881006e+09 -3.681010e+09 -3.841005e+09 2.547789e+02 -9.554257e+00 3.284493e+01
-4.985452e+09 -4.785456e+09 -4.945451e+09 2.238218e+02 -2.876736e+01 -4.853712e+01
-3.786318e+09 -3.586322e+09 -3.746318e+09 6.217990e+02 -4.342900e+01 4.186670e+00
-4.145661e+09 -3.945660e+09 -4.105660e+09 5.745856e+01 -1.159406e+00 5.014199e+00
-2.561862e+09 -2.361862e+09 -2.521862e+09 2.021209e+02 2.961741e+01 1.570532e+01
-3.768239e+09 -3.568238e+09 -3.728238e+09 1.295496e+02 1.275824e+01 2.398020e+01
-4.985452e+09 -4.785451e+09 -4.945451e+09 -1.361041e+02 3.939050e+00 8.690221e+00
-4.994772e+09 -4.794771e+09 -4.954771e+09 -8.872628e+01 6.525376e+00 1.169377e+01
-3.810739e+09 -3.610738e+09 -3.770738e+09 -5.794939e+01 -2.289527e+00 -2.822151e+01
-3.893389e+09 -3.693388e+09 -3.853388e+09 -3.023346e+02 -3.276642e+01 -3.021022e+01
-4.093426e+09 -3.893425e+09 -4.053425e+09 -1.160516e+02 -7.806627e+00 1.656827e+01
-5.004844e+09 -4.804842e+09 -4.964843e+09 2.087429e+01 -7.740773e+00 -3.336300e+00
-3.883257e+09 -3.683256e+09 -3.843256e+09 7.427511e+01 1.856401e+01 -1.330376e+01
-4.647965e+09 -4.447964e+09 -4.607965e+09 7.548034e+01 1.533539e+01 -1.049698e+01
-4.587276e+09 -4.387276e+09 -4.547276e+09 7.867140e+01 1.704622e+01 -4.724550e+00
-4.663704e+09 -4.463703e+09 -4.623703e+09 1.083131e+02 1.642434e+01 -1.339311e+01
-1.560607e+09 -1.360606e+09 -1.520606e+09 2.719645e+01 1.631334e+01 -4.160857e+00
-4.989632e+09 -4.789631e+09 -4.949631e+09 6.070162e+01 -9.901302e+00 3.222201e+00
-5.002939e+09 -4.802938e+09 -4.962938e+09 -1.755750e+02 2.594930e+00 1.118453e+01
-4.269472e+09 -4.069471e+09 -4.229471e+09 -2.811152e+02 -1.405393e+01 1.744054e+01
-4.021719e+09 -3.821718e+09 -3.981718e+09 -2.116179e+02 -2.078640e+01 -5.484086e+01
-4.281943e+09 -4.081941e+09 -4.241942e+09 -2.214807e+02 -1.511156e+01 8.769753e+00
-3.589369e+09 -3.389368e+09 -3.549369e+09 -4.186360e+01 -2.733333e+00 -1.919966e+01
-4.820988e+09 -4.620987e+09 -4.780987e+09 -2.359980e+02 -2.243191e+01 -6.329657e+01
-4.939600e+09 -4.739598e+09 -4.899599e+09 -6.313509e+01 -2.485938e-05 -8.525838e+00
-4.598185e+09 -4.398183e+09 -4.558183e+09 -2.725758e+01 -9.728490e+00 -2.548402e+01
-1.639242e+09 -1.439242e+09 -1.599242e+09 -2.337698e+01 -3.976411e+01 -3.089973e-02
-4.992457e+09 -4.792456e+09 -4.952456e+09 -4.549524e+01 1.299845e+01 -4.345330e+01
-4.279720e+09 -4.079719e+09 -4.239723e+09 1.253822e+03 -7.568640e+02 -7.227638e+02
-4.598181e+09 -4.398180e+09 -4.558183e+09 1.173735e+03 -9.806949e+01 -1.052928e+02
-4.992455e+09 -4.792453e+09 -4.952457e+09 6.857557e+02 -1.296401e+02 -2.916054e+02
-3.901583e+09 -3.701584e+09 -3.861584e+09 -2.435043e+01 4.813021e+00 -4.658243e+00
-3.854506e+09 -3.654503e+09 -3.814508e+09 1.214933e+03 -3.326981e+02 -5.595147e+02
-4.993768e+09 -4.793767e+09 -4.953768e+09 -1.346046e+02 1.361069e+00 -9.803358e-02
-4.207676e+09 -4.007676e+09 -4.167679e+09 1.151050e+03 -2.503311e+02 -1.508488e+01
-4.821163e+09 -4.621162e+09 -4.781166e+09 1.630276e+03 -6.438791e+01 2.917344e+02
-4.280212e+09 -4.080218e+09 -4.240213e+09 1.803738e+02 3.543058e+01 -1.458202e+01
-4.598183e+09 -4.398189e+09 -4.558183e+09 7.227485e+01 9.822545e+00 -8.365241e+00
-2.310622e+09 -2.110621e+09 -2.270621e+09 -2.254877e+02 -1.043095e+01 -1.261824e+01
-4.992456e+09 -4.792461e+09 -4.952456e+09 1.084901e+02 2.792529e+01 -4.194131e+01
-3.881060e+09 -3.681066e+09 -3.841061e+09 2.756717e+02 5.108423e+01 -3.934406e+01
-4.238379e+09 -4.038385e+09 -4.198380e+09 6.578986e+01 1.708095e+01 3.470580e+01
-3.420254e+09 -3.220253e+09 -3.380253e+09 -1.923149e+02 -1.268232e+01 -2.978958e+01
-4.820986e+09 -4.620993e+09 -4.780987e+09 2.116884e+02 7.839125e+01 3.736044e+00
-3.929881e+09 -3.729877e+09 -3.889881e+09 7.017970e+01 -7.131244e+02 -2.759327e+02
-4.940413e+09 -4.740412e+09 -4.900412e+09 -1.009930e+02 9.951018e-05 -1.895948e+01
-4.940328e+09 -4.740326e+09 -4.900327e+09 -8.314461e+01 1.492335e-04 -1.315127e+01
-4.598905e+09 -4.398902e+09 -4.558906e+09 6.940193e+02 -2.241338e+02 -1.490086e+02
-4.993987e+09 -4.793983e+09 -4.953988e+09 2.685290e+02 -3.028759e+02 -1.566657e+02
-4.770064e+09 -4.570062e+09 -4.730062e+09 5.107931e+00 7.558724e+01 -3.195609e+01
-4.476735e+09 -4.276731e+09 -4.436736e+09 -1.248886e+03 -7.971922e+02 -5.854971e+02
-4.177768e+09 -3.977764e+09 -4.137769e+09 6.535805e+02 -4.934444e+02 -2.208020e+02
-3.814630e+09 -3.614626e+09 -3.774631e+09 9.694240e+01 -8.458618e+02 -6.249152e+02
-4.650881e+09 -4.450876e+09 -4.610882e+09 7.156812e+02 -2.712083e+02 -3.613499e+02
-2.138661e+09 -1.938660e+09 -2.098661e+09 -3.536948e+01 -1.048750e+00 -3.814011e+01
-1.629963e+09 -1.429962e+09 -1.589962e+09 -1.219672e+02 -1.646677e+01 -1.462426e+01
-4.822498e+09 -4.622496e+09 -4.782497e+09 -2.562778e+02 -5.954980e+00 -6.620241e+01
-4.768874e+09 -4.568872e+09 -4.728873e+09 -6.877416e+01 1.914923e+01 -2.256799e+01
-3.926732e+09 -3.726731e+09 -3.886731e+09 -7.328604e+01 -1.099535e+01 -1.886159e+01
-3.093234e+09 -2.893230e+09 -3.053235e+09 8.366316e+02 -8.345235e+02 -6.218773e+02
-4.598906e+09 -4.398904e+09 -4.558905e+09 -5.787918e+01 -6.683878e+00 -2.766957e+01
-4.993987e+09 -4.793985e+09 -4.953986e+09 -6.468868e+01 6.089945e+00 -4.357396e+01
-4.594019e+09 -4.394019e+09 -4.554019e+09 2.489208e+02 2.438629e+01 2.374094e+00
-4.819614e+09 -4.619613e+09 -4.779613e+09 -3.164250e+02 -2.667797e+00 8.116802e+00
-4.992686e+09 -4.792686e+09 -4.952686e+09 1.665120e+02 -8.843962e+00 -4.407950e+01
-4.179664e+09 -3.979662e+09 -4.139663e+09 -5.560763e+01 -1.044908e+01 -1.267060e+01
-3.805718e+09 -3.605717e+09 -3.765717e+09 -1.996375e+02 -2.279383e+01 -5.384021e+01
-4.179662e+09 -3.979668e+09 -4.139663e+09 1.981601e+02 1.343321e+01 2.112510e+01
-4.269091e+09 -4.069097e+09 -4.229092e+09 5.516281e+02 3.243532e+01 1.312480e+01
-4.091543e+09 -3.891542e+09 -4.051542e+09 -2.123514e+00 5.004289e+00 -2.125851e+01
-4.598904e+09 -4.398910e+09 -4.558905e+09 2.029919e+02 1.295958e+01 -1.055898e+01
-3.926728e+09 -3.726733e+09 -3.886728e+09 2.469429e+02 -3.025539e+01 9.190835e+00
-4.940327e+09 -4.740326e+09 -4.900327e+09 3.043120e+00 -1.065517e+01 9.947540e-05
-4.993986e+09 -4.793991e+09 -4.953986e+09 1.946485e+02 3.000086e+01 -6.528944e+01
-4.830475e+09 -4.630480e+09 -4.790475e+09 6.174506e+02 1.062847e+02 -4.730864e+01
-4.075343e+09 -3.875347e+09 -4.035343e+09 8.647182e+02 9.681978e+01 -4.457857e+01
-4.940327e+09 -4.740332e+09 -4.900327e+09 1.100757e+02 -6.572224e-08 -3.343557e+01
-3.805716e+09 -3.605722e+09 -3.765717e+09 4.840592e+02 6.368415e+01 -2.246203e+01
-4.021718e+09 -3.821724e+09 -3.981718e+09 3.160620e+02 8.244918e+01 -1.125932e+01
-4.583664e+09 -4.383663e+09 -4.543663e+09 5.525056e+01 1.272601e+01 -5.198304e+00
-3.869860e+09 -3.669858e+09 -3.829862e+09 -3.571676e+01 -4.974700e+02 -5.730931e+01
-3.856084e+09 -3.656083e+09 -3.816083e+09 4.668256e+01 1.492623e+01 -5.042680e+00
-4.982383e+09 -4.782382e+09 -4.942382e+09 4.425696e+01 -7.507353e+00 4.118206e+00
-4.826037e+09 -4.626036e+09 -4.786036e+09 8.015198e+01 -2.984777e-01 -1.922125e+01
-3.900562e+09 -3.700568e+09 -3.860562e+09 5.345604e+01 3.354967e+01 -3.494634e+01
-4.992485e+09 -4.792491e+09 -4.952486e+09 5.513036e+02 1.279816e+01 6.315220e+01
-3.841086e+09 -3.641092e+09 -3.801086e+09 7.851018e+01 4.112951e+01 -3.223636e+01
-3.779108e+09 -3.579107e+09 -3.739108e+09 8.909374e+01 9.507776e+00 1.907818e+01
-4.278535e+09 -4.078534e+09 -4.238534e+09 7.765098e+01 1.944631e+00 -2.719474e+00
-4.262290e+09 -4.062289e+09 -4.222289e+09 5.299294e+01 4.982721e+00 -1.439412e+01
-1.571676e+09 -1.371675e+09 -1.531675e+09 -3.022785e+02 -4.295147e+01 -1.370892e+01
-4.132142e+09 -3.932143e+09 -4.092142e+09 -2.275784e+03 6.898325e+02 4.101271e+02
-4.821422e+09 -4.621421e+09 -4.781421e+09 -4.618919e+02 -1.234577e+01 3.604476e+01
-3.693096e+09 -3.493094e+09 -3.653095e+09 2.978152e+01 4.648037e+00 -3.008918e+00
-1.913615e+09 -1.713614e+09 -1.873614e+09 -1.552325e+02 -3.440838e+01 -7.524867e+01
-4.134823e+09 -3.934821e+09 -4.094822e+09 -4.143772e+02 -2.803949e+01 2.666033e+01
-3.582587e+09 -3.382585e+09 -3.542586e+09 -6.351909e+01 -6.168698e+00 -2.908301e+01
-4.513041e+09 -4.313040e+09 -4.473040e+09 5.079925e+01 3.080697e+00 -2.504432e+00
-4.805783e+09 -4.605781e+09 -4.765782e+09 3.435701e+01 -3.965411e+00 6.404264e+00
-4.812073e+09 -4.612072e+09 -4.772072e+09 5.734989e+01 2.125653e+00 9.317219e+00
-4.594790e+09 -4.394789e+09 -4.554789e+09 3.915477e+01 9.650911e+00 1.611188e+00
-4.991303e+09 -4.791300e+09 -4.951304e+09 -1.051924e+03 -1.125120e+02 1.104457e+02
-4.545311e+09 -4.345310e+09 -4.505310e+09 -1.104262e+02 -3.066919e+00 -1.449213e+01
-4.416545e+09 -4.216545e+09 -4.376545e+09 2.065305e+01 2.283603e+01 2.160121e-01
-5.004844e+09 -4.804842e+09 -4.964843e+09 2.805485e+01 -3.206313e+00 4.716306e+00
-2.567018e+09 -2.367019e+09 -2.527019e+09 3.557277e+02 1.649463e+01 -8.809089e+01
-3.364951e+09 -3.164951e+09 -3.324951e+09 3.113183e+02 7.384177e+00 -1.219712e+00
-3.862174e+09 -3.662173e+09 -3.822174e+09 -3.228122e+00 -4.082488e+00 -1.491941e+00
-3.828826e+09 -3.628825e+09 -3.788825e+09 5.432875e+01 1.080182e+01 -8.952814e+00
-2.902564e+09 -2.702563e+09 -2.862563e+09 -8.501139e+02 -8.694874e+02 -2.751434e+02
-3.154304e+09 -2.954303e+09 -3.114303e+09 -9.744942e+02 -8.336603e+02 -2.419758e+02
-3.209143e+09 -3.009140e+09 -3.169141e+09 -2.296601e+02 -7.031268e+02 -1.329273e+02
-1.941136e+09 -1.741133e+09 -1.901134e+09 -3.961766e+02 -9.785049e+02 -1.414567e+02
-2.190063e+09 -1.990059e+09 -2.150060e+09 -3.961227e+02 -8.173625e+02 -7.485378e+01
-3.215798e+09 -3.015798e+09 -3.175798e+09 -3.937501e+02 -3.225188e+01 -1.501819e+01
-2.213005e+09 -2.013003e+09 -2.173003e+09 -9.149134e+02 -8.738355e+02 -3.637482e+02
-3.218973e+09 -3.018969e+09 -3.178972e+09 1.321588e+02 -9.076950e+02 -2.503249e+02
-2.409156e+09 -2.209153e+09 -2.369155e+09 -8.416361e+02 -1.093453e+03 -4.985574e+02
-4.126439e+09 -3.926422e+09 -4.086396e+09 -2.405444e+03 1.357045e+04 -5.005499e+03
-2.730666e+09 -2.530663e+09 -2.690665e+09 -9.119389e+02 -1.517088e+03 -5.033070e+02
-2.043531e+09 -1.843527e+09 -2.003528e+09 -8.505788e+02 -1.026141e+03 -4.823921e+02
-3.108445e+09 -2.908440e+09 -3.068444e+09 -6.980921e+02 -1.238325e+03 -7.606545e+02
-4.132213e+09 -3.932207e+09 -4.092199e+09 7.121555e+03 6.523816e+03 1.185163e+03
-4.940389e+09 -4.740389e+09 -4.900392e+09 9.441271e+01 -5.318101e+01 9.938632e-05
-4.268349e+09 -4.068345e+09 -4.228350e+09 -2.139139e+02 -7.178012e+02 -5.621987e+02
-1.887603e+09 -1.687600e+09 -1.847601e+09 -3.218780e+02 -9.973449e+02 -1.179937e+02
-3.882766e+09 -3.682763e+09 -3.842767e+09 -1.323755e+03 -1.044607e+03 -7.478669e+02
-3.136580e+09 -2.936576e+09 -3.096578e+09 -3.496520e+02 -7.449763e+02 -2.501389e+02
-2.888037e+09 -2.688033e+09 -2.848035e+09 -6.151811e+02 -1.063661e+03 -3.285664e+02
-2.067507e+09 -1.867505e+09 -2.027509e+09 2.248336e+03 -3.411273e+01 -5.572314e+02
-4.546776e+09 -4.346773e+09 -4.506777e+09 -2.444069e+02 -2.415099e+02 -8.015256e+01
-4.649915e+09 -4.449912e+09 -4.609918e+09 3.166574e+03 2.936186e+02 -5.583797e+02
-4.185506e+09 -3.985512e+09 -4.145507e+09 8.642491e+01 1.988821e+01 2.233562e+01
-3.891943e+09 -3.691948e+09 -3.851943e+09 8.234770e+02 4.460954e+01 -9.439096e+00
-2.546645e+09 -2.346642e+09 -2.506647e+09 1.330017e+03 -9.432461e+02 -1.110914e+03
-3.299396e+09 -3.099392e+09 -3.259398e+09 4.579484e+02 -1.242038e+03 -1.905864e+03
-1.883436e+09 -1.683430e+09 -1.843438e+09 1.613601e+03 -1.171173e+03 -1.985300e+03
-4.312357e+09 -4.112357e+09 -4.272357e+09 4.990201e+02 -1.132421e+01 -1.051796e+02
-4.302228e+09 -4.102228e+09 -4.262228e+09 5.916577e+02 -1.108004e+01 -9.566917e+01
-4.545310e+09 -4.345316e+09 -4.505310e+09 8.939930e+01 1.990817e+01 2.493092e+00
-4.134822e+09 -3.934828e+09 -4.094822e+09 8.984910e+02 2.274004e+01 3.331998e+01
-4.990456e+09 -4.790456e+09 -4.950456e+09 6.118434e+02 -3.565711e+01 -7.451507e+01
-4.478257e+09 -4.278256e+09 -4.438256e+09 5.726666e+02 4.613179e+01 1.838042e+00
-4.494770e+09 -4.294769e+09 -4.454770e+09 4.516152e+02 3.735900e+01 3.994955e+00
-4.644520e+09 -4.444520e+09 -4.604529e+09 3.386041e+03 1.488151e+03 -6.939730e+02
-4.821490e+09 -4.621489e+09 -4.781489e+09 5.890627e+02 9.930837e+00 1.192956e+01
-4.986783e+09 -4.786783e+09 -4.946783e+09 5.479821e+02 -3.263015e+01 -2.153823e+01
-4.138697e+09 -3.938697e+09 -4.098697e+09 6.351238e+02 1.713144e+01 -1.439199e+01
-4.135024e+09 -3.935023e+09 -4.095024e+09 6.411838e+02 2.608225e+01 -2.710048e+01
-4.546726e+09 -4.346722e+09 -4.506725e+09 4.923319e+02 1.820142e+02 -8.026632e+01
-4.940390e+09 -4.740385e+09 -4.900388e+09 5.035611e+02 1.987735e+02 1.787403e-06
-3.575188e+09 -3.375186e+09 -3.535187e+09 -2.911059e+01 -4.247338e+00 -5.548046e+00
-4.302396e+09 -4.102393e+09 -4.262397e+09 2.663829e+02 -7.731745e+02 7.571657e+02
-2.216253e+09 -2.016252e+09 -2.176253e+09 -5.055588e+01 -4.837940e+00 -3.198429e+01
-1.734237e+09 -1.534236e+09 -1.694236e+09 -1.577964e+02 -7.649591e+00 -2.617078e+01
-1.738716e+09 -1.538715e+09 -1.698715e+09 -1.618874e+02 -3.064951e+01 -3.425496e+01
-3.019467e+09 -2.819471e+09 -2.979466e+09 2.095693e+02 7.191581e+01 7.716622e+01
-4.940341e+09 -4.740340e+09 -4.900339e+09 -8.791677e+01 7.461054e-05 -2.266013e+00
-2.773681e+09 -2.573686e+09 -2.733681e+09 1.494960e+02 8.563846e+01 7.927289e+00
-2.480362e+09 -2.280365e+09 -2.440361e+09 5.004211e+02 2.465674e+01 4.971787e+01
-4.491838e+09 -4.291840e+09 -4.451840e+09 1.210253e+03 -7.453603e+02 2.963534e+02
-4.133963e+09 -3.933970e+09 -4.093969e+09 6.558578e+02 -1.477602e+03 3.987924e+02
-2.930665e+09 -2.730668e+09 -2.890664e+09 4.536548e+02 -1.045760e+02 4.800863e+01
-3.942828e+09 -3.742829e+09 -3.902829e+09 -2.009691e+01 -3.263310e-01 2.032294e+00
-2.087167e+09 -1.887171e+09 -2.047166e+09 4.144899e+02 -5.572699e+01 4.440294e+01
-3.962277e+09 -3.762277e+09 -3.922277e+09 -4.716129e+02 -3.800686e+01 4.269808e+00
-2.804141e+09 -2.604145e+09 -2.764141e+09 4.471914e+02 9.582382e+01 -1.213234e+00
-2.233908e+09 -2.033912e+09 -2.193907e+09 3.235025e+02 1.656733e+01 3.403205e+01
-1.889341e+09 -1.689344e+09 -1.849340e+09 2.832213e+02 1.886477e+00 7.870452e+00
-1.889340e+09 -1.689344e+09 -1.849340e+09 2.320531e+02 2.693070e+00 2.178729e+01
-2.730016e+09 -2.530020e+09 -2.690016e+09 3.107394e+02 6.662773e+01 7.469680e+00
-1.591055e+09 -1.391056e+09 -1.551056e+09 1.317170e+02 2.794495e+01 -5.097060e+01
-1.967335e+09 -1.767339e+09 -1.927335e+09 9.177077e+01 3.856548e+01 1.170505e+01
-1.758569e+09 -1.558573e+09 -1.718569e+09 5.396354e+02 -8.911049e+01 1.225515e+01
-4.135036e+09 -3.935037e+09 -4.095036e+09 -4.459324e+02 -4.067844e+01 3.354778e+01
-4.431179e+09 -4.231180e+09 -4.391180e+09 -3.052254e+01 -1.834260e+01 5.568168e-01
-2.587306e+09 -2.387310e+09 -2.547305e+09 4.843294e+02 2.534069e+01 9.037802e+01
-4.991897e+09 -4.791898e+09 -4.951898e+09 -3.837620e+02 -1.417578e+01 -1.467805e+01
-3.197896e+09 -2.997900e+09 -3.157896e+09 7.893862e+01 1.608714e+02 1.649088e+01
-4.318880e+09 -4.118879e+09 -4.278879e+09 1.789447e+02 -1.159890e+01 -4.459886e+01
-2.780214e+09 -2.580213e+09 -2.740213e+09 2.566933e+01 4.619399e+00 1.615267e+01
-4.819698e+09 -4.619697e+09 -4.779696e+09 -3.715525e+02 7.250357e+00 -1.856778e+01
-3.072727e+09 -2.872726e+09 -3.032727e+09 4.205222e+01 2.720999e+01 -1.356308e+01
-4.940323e+09 -4.740328e+09 -4.900323e+09 -3.042929e+01 -9.949387e-05 3.291517e+01
-2.817163e+09 -2.617162e+09 -2.777163e+09 2.581985e+01 6.326489e+00 -2.949751e+01
-2.775062e+09 -2.575061e+09 -2.735061e+09 5.160963e+01 -6.753673e+00 8.564658e+00
-2.556334e+09 -2.356333e+09 -2.516334e+09 5.483040e+01 6.648207e+00 4.162050e+00
-2.595214e+09 -2.395213e+09 -2.555213e+09 3.369280e+01 -1.403745e+01 -1.236986e+01
-2.949399e+09 -2.749396e+09 -2.909400e+09 1.272595e+02 5.428414e+02 -3.032972e+01
-1.834155e+09 -1.634154e+09 -1.794154e+09 3.302508e+01 1.845924e+01 -2.675096e+01
-3.887303e+09 -3.687312e+09 -3.847305e+09 2.243223e+03 5.572837e+02 1.958590e+03
-1.923770e+09 -1.723769e+09 -1.883769e+09 4.036750e+01 1.624631e+01 1.717776e+00
-1.756021e+09 -1.556020e+09 -1.716021e+09 8.353685e+01 2.040310e+01 2.722023e+01
-1.837357e+09 -1.637356e+09 -1.797357e+09 6.042156e+01 1.594187e+01 -2.170286e+01
-1.756024e+09 -1.556023e+09 -1.716023e+09 3.990337e+01 9.625060e+00 7.250891e+00
-2.227603e+09 -2.027601e+09 -2.187602e+09 2.410800e+00 4.326434e+00 -6.318814e+00
-2.095962e+09 -1.895961e+09 -2.055961e+09 3.134821e+01 6.509534e+00 4.852438e+00
-3.287831e+09 -3.087836e+09 -3.247833e+09 4.327875e+03 1.401309e+03 2.954054e+03
-4.940331e+09 -4.740340e+09 -4.900337e+09 3.093531e+02 3.742396e+01 2.507573e-05
-3.252552e+09 -3.052549e+09 -3.212553e+09 -4.536365e+01 -1.123534e+03 -8.282825e+02
-4.761620e+09 -4.561619e+09 -4.721619e+09 4.328354e+01 1.417110e+00 -2.988154e+01
-2.909325e+09 -2.709321e+09 -2.869324e+09 -2.682155e+02 -7.080953e+02 -1.133195e+02
-3.963642e+09 -3.763637e+09 -3.923645e+09 -1.196698e+03 -1.475590e+03 -1.759270e+03
-3.840925e+09 -3.640927e+09 -3.800929e+09 2.671910e+01 -1.641394e+02 1.078997e+02
-3.962908e+09 -3.762901e+09 -3.922909e+09 7.698493e+02 -9.638885e+02 -1.858573e+03
-2.123258e+09 -1.923257e+09 -2.083258e+09 1.293468e+02 2.054422e+01 -1.634934e+01
-2.850778e+09 -2.650777e+09 -2.810777e+09 5.375418e+01 2.175297e+01 -1.288240e+01
-3.569122e+09 -3.369122e+09 -3.529122e+09 -1.411220e+00 2.152733e+01 -4.920069e+00
-2.174093e+09 -1.974092e+09 -2.134092e+09 -6.833453e+00 1.060242e+01 -7.949959e+00
-2.614162e+09 -2.414161e+09 -2.574161e+09 1.134751e+02 2.512112e+01 -1.010291e+01
-3.875966e+09 -3.675965e+09 -3.835965e+09 -8.124796e+01 -1.016376e+01 -5.714305e+01
-2.732597e+09 -2.532596e+09 -2.692597e+09 -5.961390e+01 -6.611497e+00 -1.638502e+01
-2.982173e+09 -2.782171e+09 -2.942172e+09 -6.747908e+01 6.351538e-02 -1.503411e+01
-2.692893e+09 -2.492892e+09 -2.652891e+09 -5.767669e+01 -1.503818e+01 -7.935510e+01
-4.546776e+09 -4.346775e+09 -4.506775e+09 -1.013717e+02 -4.824060e+00 -1.061739e+01
-3.962196e+09 -3.762195e+09 -3.922195e+09 -3.692611e+02 -1.550973e+02 4.434060e+01
-4.817519e+09 -4.617518e+09 -4.777518e+09 -6.961139e+02 -2.887514e+01 8.086118e+01
-2.712958e+09 -2.512956e+09 -2.672957e+09 -3.026345e+01 -6.326921e+00 -4.586754e+01
-4.940391e+09 -4.740397e+09 -4.900391e+09 6.506719e+01 -2.488018e-05 -9.624152e+00
-2.803170e+09 -2.603172e+09 -2.763169e+09 -7.386119e-01 1.340949e+01 -1.513674e+02
-2.772905e+09 -2.572904e+09 -2.732905e+09 -1.548275e+02 -1.264746e+01 -2.633149e+01
-2.468158e+09 -2.268156e+09 -2.428157e+09 -1.556995e+02 -1.007850e+01 -2.403191e+00
-1.957809e+09 -1.757808e+09 -1.917808e+09 -5.258728e+01 -1.170715e+01 -5.312644e+01
-4.992368e+09 -4.792368e+09 -4.952368e+09 4.152830e+02 -1.280226e+01 -1.613500e-01
-2.769073e+09 -2.569076e+09 -2.729072e+09 1.351535e+02 -5.960067e+01 5.366441e+00
-2.982167e+09 -2.782172e+09 -2.942167e+09 1.895307e+02 4.067260e+01 6.257207e+01
-2.712955e+09 -2.512960e+09 -2.672955e+09 1.108870e+02 6.256400e+01 1.455945e+01
-2.779927e+09 -2.579932e+09 -2.739927e+09 4.869659e+02 -1.806476e+01 -3.142039e+01
-2.483087e+09 -2.283091e+09 -2.443087e+09 4.888864e+02 -1.183853e+01 8.027381e+01
-1.957807e+09 -1.757811e+09 -1.917807e+09 1.808069e+02 -4.009612e+01 2.094765e+01
-3.177606e+09 -2.977604e+09 -3.137605e+09 -9.488268e-01 -3.231154e+00 -4.400771e+01
-3.206162e+09 -3.006161e+09 -3.166162e+09 -4.761418e-01 1.189128e+01 3.669065e+01
-2.987983e+09 -2.787983e+09 -2.947983e+09 4.069284e+01 2.176116e+01 -3.360353e+01
-3.962729e+09 -3.762727e+09 -3.922728e+09 -5.383640e+02 -7.373995e+01 -2.621470e+01
-3.506436e+09 -3.306442e+09 -3.466437e+09 -4.617501e+02 1.517879e+02 -6.623260e+00
-4.770093e+09 -4.570093e+09 -4.730091e+09 -1.232928e+02 -1.017201e+02 -1.660677e+01
-2.752559e+09 -2.552558e+09 -2.712559e+09 4.058279e+01 2.164614e+01 -2.848338e+01
-2.327902e+09 -2.127902e+09 -2.287902e+09 1.214685e+02 2.521661e+01 -6.506507e-01
-1.563282e+09 -1.363281e+09 -1.523281e+09 6.680369e+01 3.281955e+01 -6.035444e+00
-2.430143e+09 -2.230142e+09 -2.390142e+09 4.369209e+01 9.832741e+00 -3.445162e+01
-2.620781e+09 -2.420778e+09 -2.580781e+09 -8.419430e+02 9.221490e+01 -7.233268e+02
-2.224885e+09 -2.024882e+09 -2.184885e+09 6.690469e+01 3.502329e+02 -8.246188e+01
-4.992006e+09 -4.792009e+09 -4.952004e+09 4.084142e+03 -1.182268e+01 6.460188e+02
-2.334085e+09 -2.134084e+09 -2.294086e+09 -1.099130e+03 2.161306e+01 1.512399e+02
-2.981945e+09 -2.781943e+09 -2.941945e+09 -8.585701e+02 -3.660439e+01 -1.873223e+02
-2.136065e+09 -1.936064e+09 -2.096067e+09 6.854140e+02 -6.852095e+02 -4.941373e+02
-1.752186e+09 -1.552183e+09 -1.712185e+09 -2.830783e+01 6.119968e+02 -2.653490e+02
-4.992775e+09 -4.792777e+09 -4.952776e+09 2.683447e+03 -1.707578e+02 4.495487e+02
-4.562712e+09 -4.362719e+09 -4.522717e+09 2.836019e+02 6.313731e+01 1.116077e+02
-1.801747e+09 -1.601746e+09 -1.761748e+09 -2.138458e+02 2.452755e+02 2.720669e+02
-4.817660e+09 -4.617658e+09 -4.777673e+09 -1.151168e+03 -1.782527e+03 3.541241e+01
-4.990350e+09 -4.790347e+09 -4.950365e+09 -1.257926e+03 -2.114694e+03 1.114365e+02
-1.555455e+09 -1.355454e+09 -1.515454e+09 -1.468411e+02 -2.342590e+01 -4.712083e+01
-4.644520e+09 -4.444518e+09 -4.604532e+09 -4.873390e+02 -1.390369e+03 7.897915e+02
-4.546451e+09 -4.346450e+09 -4.506450e+09 -1.141508e+02 -4.617725e+00 -1.686041e+01
-3.963488e+09 -3.763487e+09 -3.923487e+09 -5.105284e+02 -5.106893e+01 -2.615099e+01
-4.991096e+09 -4.791093e+09 -4.951108e+09 -6.460210e+02 -1.737339e+03 4.951413e+02
-3.935676e+09 -3.735678e+09 -3.895675e+09 -5.243966e+01 1.645967e+00 2.523923e+00
-4.992339e+09 -4.792346e+09 -4.952341e+09 -1.979957e+02 2.998039e+01 2.044970e+01
-4.485476e+09 -4.285475e+09 -4.445489e+09 -7.574361e+02 -3.892704e+03 -1.434691e+02
-4.819542e+09 -4.619549e+09 -4.779544e+09 -2.004407e+02 2.638864e+02 1.989729e+01
-4.142023e+09 -3.942017e+09 -4.102038e+09 -1.309710e+03 -5.073564e+03 6.311477e+02
-4.820771e+09 -4.620762e+09 -4.780781e+09 -2.368287e+03 -1.894822e+03 1.019111e+03
-4.991921e+09 -4.791914e+09 -4.951932e+09 -2.271391e+03 -2.120770e+03 2.580097e+02
-4.131834e+09 -3.931829e+09 -4.091848e+09 -1.515985e+03 -4.571171e+03 2.118453e+03
-4.991893e+09 -4.791899e+09 -4.951894e+09 -3.398227e+02 3.039439e+00 2.669150e+01
-4.131008e+09 -3.931005e+09 -4.091020e+09 -7.672369e+02 -4.272796e+03 1.261297e+03
-4.818546e+09 -4.618543e+09 -4.778546e+09 -1.132324e+03 -1.484917e+02 1.494098e+02
-4.756970e+09 -4.556980e+09 -4.716972e+09 -1.459664e+03 -2.221665e+02 4.473433e+02
-4.427722e+09 -4.227727e+09 -4.387724e+09 4.991859e+02 -1.757007e+02 1.437665e+02
-4.817874e+09 -4.617870e+09 -4.777877e+09 -6.164252e+02 -4.581154e+02 5.744798e+02
-4.940363e+09 -4.740362e+09 -4.900362e+09 -1.034419e+02 4.976768e-05 -1.606970e+01
-4.137141e+09 -3.937152e+09 -4.097144e+09 -1.863431e+03 -2.356023e+02 2.444737e+03
-5.007405e+09 -4.807407e+09 -4.967406e+09 4.388023e+01 -1.330988e+00 -3.783825e+01
-2.960629e+09 -2.760625e+09 -2.920627e+09 4.975268e+02 6.716130e+02 -2.118645e+02
-4.645458e+09 -4.445462e+09 -4.605460e+09 -1.018912e+03 7.413691e+01 -9.182739e+01
-4.077759e+09 -3.877759e+09 -4.037759e+09 3.529514e+02 2.509001e+01 2.172936e+01
-4.818253e+09 -4.618255e+09 -4.778260e+09 1.261469e+03 -9.829631e+02 9.180185e+02
-2.675770e+09 -2.475766e+09 -2.635768e+09 1.199750e+03 8.473128e+02 -3.950736e+02
-2.169271e+09 -1.969267e+09 -2.129269e+09 3.516797e+02 1.131200e+03 -1.562726e+02
-1.921222e+09 -1.721218e+09 -1.881220e+09 4.880224e+02 8.871687e+02 -1.898166e+02
-3.180328e+09 -2.980323e+09 -3.140327e+09 4.069110e+02 5.213443e+02 -2.041327e+02
-4.543788e+09 -4.343789e+09 -4.503789e+09 1.005025e+01 1.967399e+01 4.378659e+00
-4.249577e+09 -4.049577e+09 -4.209577e+09 3.742973e+02 -1.021532e+01 -8.271975e+00
-3.571480e+09 -3.371480e+09 -3.531480e+09 1.372557e+01 4.088371e+01 -1.069914e+00
-2.041366e+09 -1.841362e+09 -2.001363e+09 1.210206e+03 7.621031e+02 -2.186189e+02
-1.578991e+09 -1.378991e+09 -1.538991e+09 1.038854e+02 3.881152e+01 3.504865e+01
-4.976529e+09 -4.776529e+09 -4.936529e+09 1.115633e+02 -1.149445e+01 -1.328964e+01
-4.306734e+09 -4.106741e+09 -4.266741e+09 -8.458463e+02 -2.003198e+03 1.494368e+01
-2.581097e+09 -2.381092e+09 -2.541095e+09 1.804312e+02 7.353080e+02 4.708101e+00
-2.671095e+09 -2.471092e+09 -2.631092e+09 1.113686e+03 6.790282e+02 -2.623072e+02
-4.992648e+09 -4.792655e+09 -4.952654e+09 -5.028474e+02 -4.196445e+02 -1.115334e+01
-2.135108e+09 -1.935106e+09 -2.095106e+09 3.633416e+02 8.766855e+02 -4.976828e+01
-1.886844e+09 -1.686841e+09 -1.846841e+09 4.920750e+02 7.364941e+02 -4.915251e+01
-3.165545e+09 -2.965541e+09 -3.125543e+09 3.827480e+02 5.106760e+02 -6.975897e+01
-2.033413e+09 -1.833411e+09 -1.993411e+09 1.225489e+03 4.674790e+02 -4.395640e+01
-2.956227e+09 -2.756225e+09 -2.916225e+09 5.684003e+02 6.046020e+02 -2.241275e+02
-2.645455e+09 -2.445454e+09 -2.605453e+09 9.665672e+02 5.418717e+02 -2.356565e+02
-2.176427e+09 -1.976426e+09 -2.136425e+09 3.883804e+02 5.732065e+02 6.315729e+00
-1.893786e+09 -1.693782e+09 -1.853784e+09 -3.179836e+03 -2.843944e+03 -1.750872e+03
-4.940336e+09 -4.740331e+09 -4.900335e+09 4.092087e+02 1.799662e+02 -4.842292e-05
-1.537358e+09 -1.337359e+09 -1.497361e+09 -7.340304e+02 3.488636e+02 1.558586e+01
-1.887509e+09 -1.687507e+09 -1.847507e+09 4.592096e+02 4.995494e+02 3.236029e+01
-3.961434e+09 -3.761427e+09 -3.921436e+09 2.136224e+03 2.184454e+03 -2.098577e+03
-3.196074e+09 -2.996071e+09 -3.156071e+09 3.277902e+02 4.264367e+02 -4.935410e+00
-2.722171e+09 -2.522177e+09 -2.682172e+09 1.100992e+02 6.595133e+01 -5.690971e+00
-3.185043e+09 -2.985047e+09 -3.145043e+09 1.098490e+02 -6.132450e+01 4.780197e+01
-3.201737e+09 -3.001742e+09 -3.161737e+09 1.030639e+02 -3.919865e+01 6.181604e+01
-2.423459e+09 -2.223465e+09 -2.383459e+09 3.885517e+02 -6.493645e+01 8.125313e+01
-4.615846e+09 -4.415845e+09 -4.575845e+09 -7.627390e+01 1.121577e+01 -2.856290e+01
-2.740751e+09 -2.540756e+09 -2.700751e+09 4.473734e+02 -2.374536e+01 -1.735219e+01
-4.991403e+09 -4.791408e+09 -4.951405e+09 -1.415158e+03 9.374256e+01 5.828464e+01
-4.940308e+09 -4.740311e+09 -4.900308e+09 -2.944023e+01 -1.789455e-08 3.403829e+01
-1.906431e+09 -1.706436e+09 -1.866431e+09 1.548222e+02 -2.380761e+01 -5.777566e-01
-4.818644e+09 -4.618646e+09 -4.778645e+09 -2.288762e+03 4.574886e+02 3.282145e+02
-4.133883e+09 -3.933885e+09 -4.093884e+09 -9.444753e+01 -1.007874e+01 5.115856e+01
-2.716766e+09 -2.516764e+09 -2.676765e+09 -2.078043e+01 -1.938615e+01 -6.691453e+01
-4.546451e+09 -4.346452e+09 -4.506450e+09 3.094460e+01 -2.128525e+00 -4.089309e+01
-4.940308e+09 -4.740310e+09 -4.900308e+09 -1.645962e+01 -9.948333e-05 2.499299e+01
-3.962670e+09 -3.762670e+09 -3.922670e+09 4.550307e+02 4.052027e+01 3.596988e+01
-3.191661e+09 -2.991660e+09 -3.151660e+09 -6.177563e+01 -4.298799e+00 3.189623e+00
-3.201743e+09 -3.001742e+09 -3.161742e+09 -7.216103e+01 -3.470052e+00 4.974170e-01
-1.586440e+09 -1.386442e+09 -1.546441e+09 -4.268488e+01 -1.444062e+00 1.706520e+01
-3.969880e+09 -3.769883e+09 -3.929882e+09 -9.303627e+02 6.513001e+01 -1.578420e+02
-4.991282e+09 -4.791283e+09 -4.951283e+09 -8.710439e+02 6.735146e+00 -2.200493e+01
-4.654419e+09 -4.454422e+09 -4.614421e+09 -9.296125e+02 2.412136e+00 8.300243e+00
-2.440095e+09 -2.240094e+09 -2.400094e+09 -1.534479e+02 -3.018660e+01 2.033844e+01
-2.757392e+09 -2.557390e+09 -2.717391e+09 -1.882995e+02 -1.753572e+01 -1.441875e+01
-1.906432e+09 -1.706431e+09 -1.866431e+09 -5.041791e+01 -9.345644e+00 -8.528529e+01
-4.399400e+09 -4.199401e+09 -4.359401e+09 -2.503321e+01 -1.084731e+01 1.435637e+00
-4.645752e+09 -4.445750e+09 -4.605753e+09 -1.611368e+02 -4.111795e+02 4.197587e+02
-2.854137e+09 -2.654139e+09 -2.814139e+09 3.158026e+01 5.133286e+00 -2.063429e+01
-3.962676e+09 -3.762676e+09 -3.922676e+09 -6.344989e+02 -5.291041e+01 2.058392e+01
-4.991934e+09 -4.791936e+09 -4.951935e+09 -1.113291e+03 6.903758e+00 -5.145594e+01
-2.449655e+09 -2.249656e+09 -2.409656e+09 1.014528e+02 2.138453e+01 3.386181e+01
-2.314802e+09 -2.114804e+09 -2.274803e+09 2.628844e+01 4.776588e-01 7.902266e+00
-1.959821e+09 -1.759823e+09 -1.919823e+09 1.321645e+01 9.804005e+00 -4.063911e+00
-3.275892e+09 -3.075895e+09 -3.235893e+09 1.331843e+03 -1.221159e+03 5.673182e+02
-3.727772e+09 -3.527772e+09 -3.687770e+09 2.746947e+02 1.911522e+02 -1.090694e+02
-1.561042e+09 -1.361037e+09 -1.521039e+09 1.528396e+03 7.546442e+02 -5.929747e+02
-2.439645e+09 -2.239644e+09 -2.399643e+09 1.113308e+03 1.506676e+02 -1.229237e+02
-2.761940e+09 -2.561939e+09 -2.721938e+09 1.235791e+03 5.854920e+02 -1.346571e+02
-4.474453e+09 -4.274449e+09 -4.434452e+09 -2.533606e+03 -1.235654e+00 -5.018785e+02
-4.913295e+09 -4.713294e+09 -4.873294e+09 0.000000e+00 3.371241e-01 -5.252431e+00
-2.074895e+09 -1.874895e+09 -2.034893e+09 1.064174e+03 3.394318e+02 -1.715690e+01
-2.939005e+09 -2.739003e+09 -2.899003e+09 5.965132e+02 3.865522e+02 -1.891050e+02
-2.098232e+09 -1.898233e+09 -2.058230e+09 8.881920e+02 2.227463e+02 -2.880390e+01
-1.929280e+09 -1.729279e+09 -1.889277e+09 3.610968e+02 2.988414e+02 6.301649e+01
-4.921179e+09 -4.721182e+09 -4.881178e+09 5.097025e+01 2.485635e-05 -1.389282e+01
-4.935515e+09 -4.735518e+09 -4.895514e+09 9.306381e+01 -4.494315e-08 -2.704399e+01
-3.179592e+09 -2.979590e+09 -3.139590e+09 3.831354e+02 2.351630e+02 -2.437380e+01
-2.764332e+09 -2.564333e+09 -2.724333e+09 6.398780e+01 2.089928e+01 4.367478e+01
-3.227272e+09 -3.027274e+09 -3.187273e+09 6.871857e+01 4.917522e+00 1.284707e+00
-1.943768e+09 -1.743770e+09 -1.903769e+09 3.332024e+01 1.690255e+01 -1.700623e+01
-3.186450e+09 -2.986451e+09 -3.146451e+09 6.354316e+00 1.327943e+01 -5.358866e+01
-2.710469e+09 -2.510471e+09 -2.670470e+09 7.023096e+01 2.530896e+01 8.520914e+00
-3.249515e+09 -3.049516e+09 -3.209516e+09 -2.697004e+01 -3.143509e+00 4.956441e+00
-4.523515e+09 -4.323513e+09 -4.483514e+09 -3.909941e+01 -2.528294e+00 -4.311314e+00
-4.994772e+09 -4.794771e+09 -4.954771e+09 -3.347670e+01 -6.488495e+00 -2.254912e+01
-2.842642e+09 -2.642643e+09 -2.802643e+09 -4.044743e+01 -1.116444e+01 1.748059e+01
-2.482503e+09 -2.282505e+09 -2.442505e+09 -5.565361e+01 -1.598883e+01 4.842351e+01
-3.124981e+09 -2.924983e+09 -3.084983e+09 -4.898443e+01 -3.352216e-01 4.183643e+00
-4.533906e+09 -4.333903e+09 -4.493904e+09 -2.641019e+02 -1.570247e+02 -2.183888e+01
-4.935517e+09 -4.735513e+09 -4.895515e+09 -3.137148e+02 -1.589514e+02 8.904535e-07
-1.966983e+09 -1.766984e+09 -1.926984e+09 -2.295628e+01 -3.777283e+00 8.810408e+00
-3.261774e+09 -3.061775e+09 -3.221775e+09 -7.055732e+00 -1.129823e+00 8.199979e+00
-3.992346e+09 -3.792348e+09 -3.952348e+09 -7.468950e+01 3.647433e+00 5.861063e-01
-3.495912e+09 -3.295910e+09 -3.455910e+09 -9.368069e+01 -2.141807e+02 -1.099846e+01
-2.471241e+09 -2.271242e+09 -2.431242e+09 -1.939657e+02 -3.753981e+01 3.931816e+01
-2.877676e+09 -2.677677e+09 -2.837677e+09 -5.011737e+01 -1.979030e+01 3.281457e+01
-3.789591e+09 -3.589595e+09 -3.749595e+09 1.424138e+03 1.838318e+02 5.246494e+01
-4.649884e+09 -4.449890e+09 -4.609884e+09 3.488927e+03 4.949656e+02 9.786079e+02
-4.991176e+09 -4.791178e+09 -4.951178e+09 1.624722e+02 -8.186211e+00 -2.125217e+01
-3.016256e+09 -2.816257e+09 -2.976257e+09 -5.605931e+01 -3.263022e+01 -1.314135e+01
-1.552438e+09 -1.352444e+09 -1.512445e+09 1.165170e+03 -2.228924e+02 9.117718e+02
-1.552438e+09 -1.352443e+09 -1.512445e+09 1.828631e+03 4.364562e+02 8.323018e+02
-1.591477e+09 -1.391472e+09 -1.551475e+09 -1.600497e+03 -1.745964e+03 -9.644835e+02
-1.926916e+09 -1.726923e+09 -1.886923e+09 1.007840e+03 -1.421416e+02 7.727545e+02
-2.089835e+09 -1.889848e+09 -2.049843e+09 -2.111417e+03 -6.895635e+02 5.268773e+03
-2.224877e+09 -2.024878e+09 -2.184878e+09 -5.899172e+01 1.189459e+01 4.683429e+00
-2.766735e+09 -2.566736e+09 -2.726735e+09 -1.957722e+02 -1.918481e+01 -5.238038e+00
-2.050485e+09 -1.850486e+09 -2.010485e+09 -2.079520e+02 -3.024965e+01 4.454801e+01
-1.716954e+09 -1.516956e+09 -1.676955e+09 -9.431697e+01 -2.061806e+01 7.972876e-01
-2.923202e+09 -2.723202e+09 -2.883202e+09 -1.269559e+02 -2.234459e+01 -1.580482e+01
-4.303431e+09 -4.103439e+09 -4.263419e+09 2.182707e+03 1.127348e+03 5.201422e+03
-2.225430e+09 -2.025430e+09 -2.185430e+09 -8.064971e+01 3.487609e+00 8.243475e+00
-1.896512e+09 -1.696513e+09 -1.856513e+09 -5.963468e+01 -1.791880e+01 2.935904e+01
-4.945601e+09 -4.745603e+09 -4.905603e+09 6.681911e+01 -7.692409e+00 -2.689109e+00
-3.448643e+09 -3.248644e+09 -3.408644e+09 3.462940e+02 1.365181e+01 1.597019e+00
-4.484282e+09 -4.284282e+09 -4.444282e+09 8.916664e+01 2.263904e+01 -8.305300e+00
-4.546570e+09 -4.346571e+09 -4.506570e+09 7.426858e+00 1.852855e+01 1.235231e+00
-3.175234e+09 -2.975235e+09 -3.135235e+09 -1.341403e+01 -2.096935e+01 7.028880e-01
-4.770225e+09 -4.570224e+09 -4.730224e+09 6.892899e+01 1.110522e+02 -3.241053e+01
-2.485759e+09 -2.285759e+09 -2.445759e+09 -2.336484e+02 -4.577602e+01 1.865181e+01
-3.191129e+09 -2.991129e+09 -3.151130e+09 -1.570443e+02 -1.280828e+01 -1.593742e+00
-3.046559e+09 -2.846560e+09 -3.006560e+09 -8.052860e+01 -2.913806e+01 -7.647167e+00
-2.774432e+09 -2.574432e+09 -2.734432e+09 -1.189170e+02 -3.253166e+01 -2.962302e+01
-2.248904e+09 -2.048905e+09 -2.208905e+09 -1.127588e+02 -1.814693e+01 6.657928e-01
-1.968159e+09 -1.768160e+09 -1.928160e+09 -5.097749e+01 -2.769272e+01 2.082155e+01
-3.961492e+09 -3.761494e+09 -3.921494e+09 1.117489e+02 1.941406e+01 4.549927e+01
-4.611656e+09 -4.411657e+09 -4.571657e+09 1.184626e+02 1.602278e+01 -3.393350e+00
-4.940339e+09 -4.740339e+09 -4.900339e+09 1.710843e+01 -1.834136e+01 -2.487460e-05
-3.276734e+09 -3.076735e+09 -3.236735e+09 -2.413402e+01 -2.099574e+01 7.189080e+00
-2.865709e+09 -2.665712e+09 -2.825709e+09 3.831793e+02 -4.147879e+02 9.244839e+01
-2.498634e+09 -2.298635e+09 -2.458633e+09 8.157187e+02 -4.991900e+02 1.105243e+02
-3.879816e+09 -3.679822e+09 -3.839817e+09 7.067356e+02 1.474842e+02 -3.917319e+01
-4.546449e+09 -4.346455e+09 -4.506449e+09 1.599949e+01 1.581805e+01 -3.057767e+01
-2.259427e+09 -2.059428e+09 -2.219426e+09 2.732808e+02 -2.528353e+02 1.129864e+01
-2.217220e+09 -2.017222e+09 -2.177220e+09 7.928099e+01 -5.015194e+01 2.948825e+01
-3.155650e+09 -2.955655e+09 -3.115650e+09 8.191862e+01 -1.076505e+01 3.740668e+01
-3.380363e+09 -3.180369e+09 -3.340364e+09 9.206242e+00 -1.178507e+01 5.087880e+00
-2.486896e+09 -2.286902e+09 -2.446897e+09 2.268121e+02 -6.883378e+01 3.817965e+01
-2.809380e+09 -2.609385e+09 -2.769380e+09 3.036120e+02 1.870552e+00 -2.570524e+01
-2.121187e+09 -1.921193e+09 -2.081188e+09 2.017918e+02 2.699353e+01 -1.988923e+01
-4.940339e+09 -4.740344e+09 -4.900339e+09 -1.133805e+01 4.973353e-05 2.201680e+01
-3.848983e+09 -3.648984e+09 -3.808984e+09 -1.086360e+02 -8.979228e+00 1.621051e+01
-1.967038e+09 -1.767043e+09 -1.927038e+09 1.303428e+02 -4.636561e+00 -8.301097e+00
-3.466443e+09 -3.266443e+09 -3.426442e+09 -3.175262e+02 -1.222280e+00 -4.037922e+01
-3.275687e+09 -3.075693e+09 -3.235687e+09 3.827787e+01 -1.028490e+01 5.132050e+00
-4.476662e+09 -4.276663e+09 -4.436663e+09 2.255471e+02 9.364016e+00 3.128271e+00
-3.155651e+09 -2.955650e+09 -3.115650e+09 -7.915520e+01 -1.050958e+01 -1.457144e+01
-2.993161e+09 -2.793157e+09 -2.953162e+09 -3.012497e+03 -4.356042e+02 -1.060277e+02
-3.030121e+09 -2.830119e+09 -2.990120e+09 -2.943201e+01 -1.749322e+01 -4.479662e+01
-4.478102e+09 -4.278096e+09 -4.438102e+09 3.105241e+02 5.388966e+02 -7.778723e+02
-4.940305e+09 -4.740306e+09 -4.900307e+09 -8.908475e+01 2.847593e+01 -2.491429e-05
-2.720826e+09 -2.520824e+09 -2.680825e+09 -3.303398e+00 -4.156388e+01 -7.031028e+01
-3.961375e+09 -3.761378e+09 -3.921377e+09 -3.980046e+02 -2.086074e+01 2.788362e+01
-2.478011e+09 -2.278009e+09 -2.438009e+09 -1.428427e+02 -5.354169e+01 7.161922e+00
-2.803973e+09 -2.603971e+09 -2.763971e+09 -1.841260e+02 -1.665644e+01 -2.927305e+01
-3.230897e+09 -3.030898e+09 -3.190898e+09 2.324495e+01 1.253227e+01 6.342253e+00
-1.961633e+09 -1.761631e+09 -1.921631e+09 -5.960392e+01 -9.005436e+00 -1.040721e+02
-4.991974e+09 -4.791975e+09 -4.951975e+09 3.916499e+02 -3.019196e+00 -3.178583e+01
-2.881207e+09 -2.681210e+09 -2.841207e+09 -2.690628e+02 -1.620968e+02 -4.919662e+01
-2.479616e+09 -2.279619e+09 -2.439616e+09 -5.139038e+02 1.484243e+01 -1.297161e+02
-2.228441e+09 -2.028444e+09 -2.188441e+09 -2.118450e+02 1.853754e+01 -5.898717e+01
-1.966658e+09 -1.766662e+09 -1.926658e+09 -7.106094e+01 5.254730e+01 -1.028859e+02
-3.026743e+09 -2.826749e+09 -2.986744e+09 3.268625e+02 -1.999908e+02 1.089927e+02
-2.486683e+09 -2.286689e+09 -2.446684e+09 1.130184e+03 -7.641980e+02 1.881817e+02
-4.026279e+09 -3.826280e+09 -3.986278e+09 -1.726119e+02 1.906238e+01 -5.187048e+01
-2.259016e+09 -2.059023e+09 -2.219018e+09 3.500817e+02 -3.063276e+02 1.549348e+02
-1.956349e+09 -1.756356e+09 -1.916350e+09 3.244110e+02 -4.258380e+02 1.689077e+02
-4.992540e+09 -4.792540e+09 -4.952539e+09 -5.918402e+02 -7.101078e+01 1.248265e+01
-3.962193e+09 -3.762198e+09 -3.922194e+09 -8.238364e+02 2.270302e+02 -5.720545e+01
-3.319448e+09 -3.119454e+09 -3.279449e+09 2.719488e+02 -2.932086e+02 1.823861e+02
-4.645476e+09 -4.445478e+09 -4.605481e+09 1.098257e+03 -8.736057e+02 5.282941e+02
-2.494855e+09 -2.294855e+09 -2.454854e+09 5.260243e+02 -3.775827e+02 6.962620e+01
-2.640363e+09 -2.440363e+09 -2.600362e+09 7.680883e+01 -3.519748e+00 -8.525813e+00
-2.118648e+09 -1.918649e+09 -2.078647e+09 5.559658e+02 -1.841512e+02 -2.107042e+01
-2.960287e+09 -2.760289e+09 -2.920287e+09 2.663691e+02 -4.084013e+02 6.355096e+01
-2.264157e+09 -2.064156e+09 -2.224155e+09 8.987324e+01 -1.673015e+02 -3.566227e+01
-2.230493e+09 -2.030494e+09 -2.190492e+09 2.143260e+01 -1.508685e+01 -4.213210e+01
-3.223455e+09 -3.023455e+09 -3.183454e+09 -2.224995e+01 -8.751743e+01 4.251336e+01
-3.117580e+09 -2.917581e+09 -3.077579e+09 -1.355255e+02 2.472090e+00 -1.002223e+02
-4.305718e+09 -4.105723e+09 -4.265723e+09 9.235115e+02 -8.952455e+02 1.950004e+02
-2.481647e+09 -2.281648e+09 -2.441646e+09 -3.928815e+02 4.752891e+01 -9.480317e+01
-2.228509e+09 -2.028510e+09 -2.188508e+09 -1.171643e+02 1.511794e+01 -5.421787e+01
-1.891867e+09 -1.691873e+09 -1.851868e+09 2.331776e+03 -2.130375e+03 8.613798e+02
-1.986690e+09 -1.786690e+09 -1.946689e+09 -8.101522e+01 -4.160129e+01 -1.085148e+02
-2.689733e+09 -2.489732e+09 -2.649732e+09 2.854690e+01 2.354746e+00 -3.321282e+01
-3.369657e+09 -3.169658e+09 -3.329656e+09 -1.165558e+02 -2.022456e+01 -4.225845e+01
-3.245294e+09 -3.045293e+09 -3.205293e+09 1.157708e+01 -9.497295e+00 -3.776712e+01
-3.312019e+09 -3.112022e+09 -3.272019e+09 -2.155778e+02 -2.765158e+00 -4.456269e+01
-3.702750e+09 -3.502752e+09 -3.662750e+09 -6.129665e-01 2.590541e+01 -7.733277e+01
-2.999296e+09 -2.799300e+09 -2.959296e+09 -2.126129e+02 1.940343e+01 -7.963664e+01
-4.562672e+09 -4.362671e+09 -4.522673e+09 8.079985e+01 3.751200e+01 2.702738e+00
-1.903560e+09 -1.703564e+09 -1.863560e+09 -2.711155e+02 -4.156887e+00 -1.226889e+02
-4.651223e+09 -4.451218e+09 -4.611222e+09 8.561514e+02 3.669753e+02 -1.562491e+02
-3.265862e+09 -3.065866e+09 -3.225862e+09 1.188987e+00 8.912700e+00 -7.846221e+01
-1.707672e+09 -1.507675e+09 -1.667672e+09 -2.515121e+02 -2.338648e+00 -1.171024e+02
-1.957788e+09 -1.757792e+09 -1.917788e+09 -5.321711e+01 6.024689e+01 -8.963165e+01
-4.818201e+09 -4.618204e+09 -4.778203e+09 -4.356519e+02 -8.148127e+00 -2.503388e+01
-4.991488e+09 -4.791490e+09 -4.951490e+09 8.641829e+02 -2.562871e+01 -3.656610e+01
-2.714714e+09 -2.514722e+09 -2.674717e+09 9.606993e+02 -1.086677e+03 2.407480e+02
-3.861950e+09 -3.661955e+09 -3.821950e+09 -1.127789e+01 1.530264e+01 -1.974924e+01
-3.888598e+09 -3.688604e+09 -3.848599e+09 2.584434e+01 2.613610e+01 -2.349716e+01
-2.100786e+09 -1.900794e+09 -2.060788e+09 8.827458e+02 -8.578853e+02 1.990797e+02
-1.956341e+09 -1.756346e+09 -1.916341e+09 1.492425e+02 -1.027851e+02 -5.846493e+01
-4.546587e+09 -4.346592e+09 -4.506587e+09 -5.363024e+00 9.451549e+00 -4.221379e+01
-2.654206e+09 -2.454211e+09 -2.614207e+09 -3.702616e+02 -9.403884e+00 -7.324994e+01
-2.687616e+09 -2.487625e+09 -2.647619e+09 3.111133e+02 -9.208010e+02 9.834001e+01
-2.936390e+09 -2.736388e+09 -2.896388e+09 -5.030650e+01 -1.376648e+01 -5.288307e+01
-2.209470e+09 -2.009479e+09 -2.169473e+09 1.942189e+02 -3.915289e+02 1.663299e+02
-1.941216e+09 -1.741224e+09 -1.901218e+09 2.637969e+02 -4.581501e+02 1.942903e+02
-4.940325e+09 -4.740325e+09 -4.900324e+09 -6.016480e+01 -4.975499e-05 1.582570e+01
-4.648721e+09 -4.448719e+09 -4.608720e+09 -6.080877e+02 -4.266458e+01 -1.245837e+01
-3.196235e+09 -2.996241e+09 -3.156237e+09 6.714303e+01 -3.894696e+02 1.079501e+02
-3.251840e+09 -3.051839e+09 -3.211839e+09 -2.230107e+01 -3.198312e+01 -8.124704e+01
-3.936916e+09 -3.736920e+09 -3.896920e+09 1.490417e+03 -1.098653e+03 5.044901e+02
-2.112300e+09 -1.912300e+09 -2.072299e+09 3.216110e+02 -9.937116e+01 -5.505900e+01
-4.990089e+09 -4.790083e+09 -4.950042e+09 1.562971e+03 -3.235213e+02 -7.736348e+02
-4.597745e+09 -4.397749e+09 -4.557746e+09 1.895309e+02 -1.854624e+02 6.893472e+01
-4.940302e+09 -4.740308e+09 -4.900306e+09 -2.628603e+02 -1.668292e+02 -9.869290e-05
-2.241319e+09 -2.041318e+09 -2.201318e+09 -4.691555e+01 -9.464267e+01 -7.236082e+01
-4.990466e+09 -4.790476e+09 -4.950466e+09 -1.047458e+03 -8.522651e+01 4.513258e+02
-1.984615e+09 -1.784614e+09 -1.944613e+09 1.317045e+01 9.656432e+00 -1.419361e+02
-3.373504e+09 -3.173503e+09 -3.333503e+09 1.252925e+02 -3.084820e+01 -3.010210e+01
-3.953897e+09 -3.753906e+09 -3.913903e+09 2.399517e+02 1.744464e+02 3.191827e+02
-3.283729e+09 -3.083728e+09 -3.243728e+09 -4.605888e+01 -4.049875e+01 6.800331e-01
-2.241101e+09 -2.041100e+09 -2.201100e+09 6.935478e+01 8.812165e+00 6.655416e+00
-2.941564e+09 -2.741566e+09 -2.901565e+09 -6.160133e+00 -7.536046e-02 4.886733e+00
-3.002556e+09 -2.802561e+09 -2.962556e+09 -1.370962e+02 -6.711077e+01 -6.206601e+01
-4.399609e+09 -4.199611e+09 -4.359611e+09 3.714389e+00 2.949799e+00 -4.847962e-01
-3.959938e+09 -3.759941e+09 -3.919939e+09 6.970894e+01 2.227276e+01 -4.207869e+01
-3.960758e+09 -3.760758e+09 -3.920758e+09 8.453196e+02 6.495190e+01 4.795359e+01
-4.940306e+09 -4.740308e+09 -4.900308e+09 -7.510067e+00 -1.569246e+00 -9.947577e-05
-3.324286e+09 -3.124290e+09 -3.284286e+09 -2.333866e+02 -1.180876e+01 -5.426574e+01
-2.716235e+09 -2.516241e+09 -2.676236e+09 -1.170990e+02 -3.362483e+00 -7.196330e+01
-4.991032e+09 -4.791018e+09 -4.951029e+09 -1.202257e+03 1.166922e+03 -1.108951e+02
-4.991026e+09 -4.791024e+09 -4.951028e+09 -2.944092e+03 -2.154379e+02 1.771709e+02
-2.185169e+09 -1.985174e+09 -2.145169e+09 -1.057682e+02 3.535036e+01 -5.207018e+01
-1.961729e+09 -1.761734e+09 -1.921730e+09 -2.165226e+01 4.602622e+01 -7.063550e+01
-4.829122e+09 -4.629124e+09 -4.789124e+09 -1.338205e+03 8.310631e+00 1.143681e+02
-3.231944e+09 -3.031949e+09 -3.191944e+09 -1.744770e+01 -1.215689e+00 -6.778737e+01
-2.224241e+09 -2.024241e+09 -2.184240e+09 -8.353420e+01 -2.109513e+01 -5.894728e+01
-4.562689e+09 -4.362693e+09 -4.522689e+09 -1.027304e+01 7.759114e+00 -3.792732e+01
-1.945850e+09 -1.745850e+09 -1.905849e+09 -4.418317e+01 -3.316379e+01 -9.202389e+01
-2.074933e+09 -1.874933e+09 -2.034932e+09 -2.978711e+02 -5.889274e+01 -8.819556e+01
-1.986681e+09 -1.786682e+09 -1.946680e+09 -6.482089e+01 4.309137e+01 -1.163731e+02
-2.440148e+09 -2.240148e+09 -2.400147e+09 -3.027227e+02 2.287764e-01 -1.043324e+02
-4.650881e+09 -4.450881e+09 -4.610880e+09 -4.409301e+02 -1.023617e+00 -3.825848e+01
-2.995497e+09 -2.795498e+09 -2.955496e+09 -9.582257e+01 1.423504e+01 -9.976848e+01
-3.256733e+09 -3.056733e+09 -3.216732e+09 2.411518e+01 -2.375364e+01 -7.767322e+01
-2.941050e+09 -2.741059e+09 -2.901053e+09 6.518627e+01 -4.188569e+02 7.299136e+01
-2.966257e+09 -2.766264e+09 -2.926259e+09 2.374361e+02 -2.990644e+02 1.008824e+02
-1.854435e+09 -1.654444e+09 -1.814437e+09 2.152141e+02 -9.651634e+02 9.832941e+01
-4.134738e+09 -3.934748e+09 -4.094738e+09 2.486635e+03 1.297640e+03 1.226927e+03
-3.150962e+09 -2.950970e+09 -3.110965e+09 6.361758e+01 -4.634409e+02 8.418904e+01
-4.470986e+09 -4.270986e+09 -4.430984e+09 -3.674477e+03 -8.163574e+02 1.635899e+02
-2.996492e+09 -2.796495e+09 -2.956495e+09 1.003094e+02 -6.101584e+01 3.556421e+01
-1.636466e+09 -1.436463e+09 -1.596464e+09 6.225860e+02 9.393775e+02 -1.304011e+02
-1.656668e+09 -1.456677e+09 -1.616670e+09 2.530732e+02 -4.671263e+02 8.456596e+01
-1.906870e+09 -1.706879e+09 -1.866872e+09 2.003518e+02 -4.766727e+02 1.601519e+02
-2.179260e+09 -1.979259e+09 -2.139259e+09 -1.306294e+02 -5.166428e+01 -7.213106e+01
-4.451405e+09 -4.251411e+09 -4.411408e+09 -2.044326e+03 -1.023884e+02 1.613913e+01
-3.592569e+09 -3.392573e+09 -3.552568e+09 -4.269133e+03 -2.334396e+03 2.274205e+03
-2.713234e+09 -2.513232e+09 -2.673232e+09 -1.182517e+02 -8.011149e+01 -8.515139e+01
-2.714622e+09 -2.514621e+09 -2.674621e+09 3.360453e+01 -7.636933e+01 -7.870902e+01
-4.410397e+09 -4.210399e+09 -4.370400e+09 -1.770848e+02 5.864765e+01 3.926367e+01
-2.788775e+09 -2.588775e+09 -2.748774e+09 1.043640e+02 -1.318051e+02 -5.312558e+01
-3.840561e+09 -3.640560e+09 -3.800562e+09 2.436403e+02 1.226145e+02 1.777111e+01
-4.668595e+09 -4.468594e+09 -4.628594e+09 -3.219910e+01 -4.248497e+01 -4.159278e+01
-3.257004e+09 -3.057003e+09 -3.217002e+09 -6.360329e+01 -1.839776e+01 -4.391215e+01
-3.179549e+09 -2.979552e+09 -3.139553e+09 -2.024269e+03 -1.908951e+02 -3.173919e+02
-4.116649e+09 -3.916649e+09 -4.076648e+09 -7.072201e+01 -1.854665e+02 2.460841e+01
-4.991155e+09 -4.791157e+09 -4.951159e+09 1.306316e+03 -3.051327e+02 2.569902e+02
-2.097397e+09 -1.897396e+09 -2.057395e+09 1.008885e+02 -3.564244e+01 -6.502735e+01
-2.746753e+09 -2.546759e+09 -2.706753e+09 -4.896890e+01 -2.042431e+01 -2.800169e+01
-3.275705e+09 -3.075710e+09 -3.235705e+09 -2.133736e+02 -2.213211e+01 -3.700763e+01
-4.374078e+09 -4.174082e+09 -4.334079e+09 1.640328e+02 -5.868232e+01 -1.856878e+00
-2.423155e+09 -2.223161e+09 -2.383156e+09 -2.113346e+02 -6.706079e+01 -5.335862e+01
-2.570416e+09 -2.370422e+09 -2.530417e+09 -2.943013e+01 9.114217e+01 -5.807407e+01
-2.050012e+09 -1.850017e+09 -2.010012e+09 -2.078987e+02 8.880916e+01 -6.464740e+01
-2.989384e+09 -2.789389e+09 -2.949385e+09 -1.913975e+02 3.459377e+01 -4.844714e+01
-4.818641e+09 -4.618639e+09 -4.778641e+09 -4.527055e+02 -1.773945e+02 1.958181e+02
-1.911144e+09 -1.711149e+09 -1.871144e+09 9.864139e+00 4.032208e+01 -5.506649e+01
-3.166721e+09 -2.966726e+09 -3.126721e+09 -5.780649e+00 -1.486994e+01 -4.344801e+01
-4.643193e+09 -4.443192e+09 -4.603194e+09 -2.664315e+03 -1.117858e+01 2.315424e+02
-2.767085e+09 -2.567084e+09 -2.727084e+09 -1.872696e+02 4.512674e+01 -8.018277e+01
-4.132476e+09 -3.932477e+09 -4.092477e+09 -6.422264e+02 3.148589e+00 -3.453065e+01
-2.052288e+09 -1.852288e+09 -2.012287e+09 -2.042634e+02 -6.021547e+01 -8.011176e+01
-2.712437e+09 -2.512437e+09 -2.672436e+09 -7.109903e+01 4.021963e+01 -9.311528e+01
-2.932608e+09 -2.732607e+09 -2.892606e+09 -5.234563e+00 4.857572e+01 -7.699943e+01
-4.298021e+09 -4.098024e+09 -4.258023e+09 -1.113302e+02 -9.795358e+00 -9.866832e+01
-3.961375e+09 -3.761378e+09 -3.921377e+09 -3.767471e+02 -1.768710e+01 2.368202e+01
-4.991154e+09 -4.791153e+09 -4.951153e+09 -8.156614e+02 -2.934933e+01 2.090434e+01
-2.245345e+09 -2.045344e+09 -2.205344e+09 -7.600407e+01 -2.256951e+01 -6.268713e+01
-1.917009e+09 -1.717009e+09 -1.877008e+09 -3.607499e+01 -3.512136e+01 -8.617779e+01
-3.185240e+09 -2.985240e+09 -3.145239e+09 2.195072e+01 -3.635493e+00 -6.169855e+01
-4.476546e+09 -4.276549e+09 -4.436546e+09 -8.309309e+02 5.603452e+01 -1.184354e+01
-4.985492e+09 -4.785491e+09 -4.945491e+09 -2.750041e+02 -4.146283e+00 -7.525323e+01
-4.125997e+09 -3.925996e+09 -4.085996e+09 -3.104789e+02 9.717112e+00 3.443660e+00
-4.816188e+09 -4.616187e+09 -4.776188e+09 -1.060123e+02 5.331266e+00 -2.882068e+01
-3.875327e+09 -3.675326e+09 -3.835327e+09 -2.114637e+02 -1.506770e+01 -2.645002e+01
-4.095654e+09 -3.895653e+09 -4.055654e+09 -1.777761e+02 -2.253449e+01 -6.829024e-02
-4.304373e+09 -4.104373e+09 -4.264373e+09 -3.577964e+02 -1.124992e+01 -7.134410e+01
-3.840744e+09 -3.640747e+09 -3.800744e+09 1.571160e+01 2.020342e+01 2.172899e+01
-4.090331e+09 -3.890330e+09 -4.050330e+09 -3.278958e+02 -4.171475e+00 -3.306286e+01
-3.920053e+09 -3.720053e+09 -3.880053e+09 -3.140214e+02 -3.298589e+01 -3.792948e+01
-4.278535e+09 -4.078534e+09 -4.238534e+09 -2.455633e+02 4.319712e+00 8.503925e+00
-4.392273e+09 -4.192275e+09 -4.352273e+09 -9.142820e+01 1.372868e+00 -6.310745e+01
-1.660278e+09 -1.460277e+09 -1.620277e+09 2.324234e+01 -2.935292e+01 -1.331106e+02
-2.991168e+09 -2.791166e+09 -2.951167e+09 -5.723164e+01 -1.337392e+01 -2.668756e+01
-3.245685e+09 -3.045683e+09 -3.205683e+09 -7.175619e+01 -6.095540e+00 -2.742769e+01
-2.227276e+09 -2.027274e+09 -2.187274e+09 1.443587e+01 -1.030972e+01 -1.181930e+02
-2.766750e+09 -2.566748e+09 -2.726748e+09 -4.197935e+01 -7.334271e+01 -8.381004e+01
-2.431463e+09 -2.231461e+09 -2.391461e+09 -4.235119e+01 -9.767355e+01 -5.535267e+00
-4.652492e+09 -4.452497e+09 -4.612495e+09 5.885364e+02 -3.168542e+02 1.933898e+02
-1.910473e+09 -1.710472e+09 -1.870472e+09 -3.433262e+01 1.049335e+00 -1.231297e+02
-3.168980e+09 -2.968979e+09 -3.128979e+09 -8.529920e+01 -2.217222e+01 -3.270279e+01
-1.597091e+09 -1.397099e+09 -1.557093e+09 7.398802e+02 -1.192134e+03 3.018542e+02
-2.552290e+09 -2.352289e+09 -2.512289e+09 -1.601362e+02 6.190739e+00 -3.287745e+01
-4.799123e+09 -4.599123e+09 -4.759123e+09 6.985660e+02 -2.981898e+02 2.383792e+02
-4.765608e+09 -4.565608e+09 -4.725607e+09 1.412260e+02 1.482597e+02 -3.778190e+01
-3.191361e+09 -2.991370e+09 -3.151364e+09 1.294679e+02 -4.468500e+02 5.325323e+01
-4.558112e+09 -4.358113e+09 -4.518113e+09 5.319285e+00 1.471925e+01 9.231371e-02
-3.066023e+09 -2.866032e+09 -3.026026e+09 -1.270769e+02 -4.571713e+02 -3.157006e+01
-2.429613e+09 -2.229623e+09 -2.389616e+09 -1.579406e+02 -1.305557e+03 1.425871e+02
-4.227723e+09 -4.027729e+09 -4.187724e+09 -8.344992e+01 -1.019002e+01 9.404857e+00
-3.454459e+09 -3.254465e+09 -3.414460e+09 7.651176e+02 1.649837e+02 -5.100047e+01
-4.940313e+09 -4.740317e+09 -4.900313e+09 -3.597190e+01 4.971393e-05 3.745754e+01
-2.953177e+09 -2.753186e+09 -2.913181e+09 -2.216647e+02 -1.294376e+03 1.121592e+01
-2.205800e+09 -2.005810e+09 -2.165802e+09 -3.112582e+02 -1.162256e+03 -8.981631e+01
-1.908083e+09 -1.708093e+09 -1.868086e+09 3.123150e+01 -4.190691e+02 1.178373e+02
-3.160314e+09 -2.960322e+09 -3.120317e+09 1.715881e+01 -4.777409e+02 4.656456e+01
-4.548917e+09 -4.348920e+09 -4.508916e+09 -1.521711e+01 1.231595e+01 -5.108577e+01
-3.200091e+09 -3.000090e+09 -3.160090e+09 -1.487042e+00 5.860876e+00 -6.466878e+00
-3.024016e+09 -2.824016e+09 -2.984016e+09 6.779310e+01 3.241179e+01 -1.179462e+01
-2.728527e+09 -2.528527e+09 -2.688527e+09 7.534570e+01 3.420539e+01 -5.371079e+01
-2.446172e+09 -2.246172e+09 -2.406172e+09 1.510749e+02 3.239301e+01 -2.403204e+01
-2.909848e+09 -2.709847e+09 -2.869847e+09 6.223673e+01 3.260858e+01 -3.868086e+00
-1.913894e+09 -1.713894e+09 -1.873894e+09 2.938670e+01 1.892190e+01 1.791627e+01
-4.990274e+09 -4.790274e+09 -4.950275e+09 -3.187422e+03 3.421430e+01 -7.278770e+01
-2.475608e+09 -2.275607e+09 -2.435606e+09 -9.560337e+01 1.766054e+01 -2.026224e+01
-2.650580e+09 -2.450579e+09 -2.610579e+09 -8.815569e+01 1.104494e+01 2.133634e+00
-3.058034e+09 -2.858033e+09 -3.018033e+09 -6.578256e+01 1.143014e+01 -5.726262e+01
-2.555342e+09 -2.355342e+09 -2.515341e+09 2.888390e+01 7.655111e+01 -1.951403e+01
-2.237601e+09 -2.037600e+09 -2.197600e+09 -3.288103e+01 -9.432860e+00 -5.827072e+01
-1.967129e+09 -1.767128e+09 -1.927128e+09 -2.229332e+00 -1.267987e+01 -7.466375e+01
-4.078879e+09 -3.878879e+09 -4.038879e+09 4.283104e+02 -3.519861e+02 1.481757e+02
-3.267161e+09 -3.067160e+09 -3.227160e+09 2.404037e+01 -1.458719e+01 -3.161148e+01
-3.094210e+09 -2.894215e+09 -3.054211e+09 -5.547168e+02 -5.109347e+02 -6.925939e+01
-3.283517e+09 -3.083523e+09 -3.243519e+09 -5.886183e+01 -3.053270e+02 -6.009563e+01
-2.138392e+09 -1.938401e+09 -2.098394e+09 -8.311132e+02 -1.009192e+03 -1.098982e+02
-2.504257e+09 -2.304266e+09 -2.464260e+09 -8.637158e+02 -1.270081e+03 -5.564994e+01
-2.670203e+09 -2.470211e+09 -2.630205e+09 -1.181987e+03 -1.575778e+03 -2.835559e+02
-4.228457e+09 -4.028465e+09 -4.188456e+09 -3.206938e+03 -1.148925e+03 2.461611e+03
-4.940305e+09 -4.740314e+09 -4.900311e+09 -1.997829e+02 -6.025366e+01 4.995295e-05
-3.796088e+09 -3.596097e+09 -3.756094e+09 6.906656e+01 -2.194508e+02 2.978626e+02
-3.960789e+09 -3.760799e+09 -3.920796e+09 -6.868908e+01 -4.837887e+01 3.212429e+02
-3.405244e+09 -3.205255e+09 -3.365251e+09 -3.673036e+01 4.157001e+01 1.930784e+03
-2.859287e+09 -2.659296e+09 -2.819290e+09 2.724909e+01 -1.530402e+03 1.497065e+02
-1.987866e+09 -1.787875e+09 -1.947868e+09 -1.077741e+02 -3.029879e+02 1.110561e+02
-3.284627e+09 -3.084635e+09 -3.244629e+09 -6.255125e+01 -3.884229e+02 -3.831658e+01
-3.263687e+09 -3.063694e+09 -3.223690e+09 -6.451264e+02 -8.411364e+02 -1.392170e+02
-3.109166e+09 -2.909160e+09 -3.069165e+09 -6.899421e+02 1.112189e+03 -1.431329e+03
-4.666826e+09 -4.466822e+09 -4.626826e+09 -1.787784e+02 2.106701e+02 -4.224134e+02
-3.181831e+09 -2.981827e+09 -3.141830e+09 -2.247307e+02 -7.516406e+02 -3.576968e+02
-3.077324e+09 -2.877324e+09 -3.037327e+09 7.620124e+02 -4.616195e+02 5.345546e+01
-2.774134e+09 -2.574134e+09 -2.734136e+09 5.641553e+02 -2.549679e+02 4.886777e+02
-4.817357e+09 -4.617361e+09 -4.777353e+09 2.205995e+02 1.045766e+02 -1.222906e+03
-4.982148e+09 -4.782152e+09 -4.942148e+09 -1.209979e+03 7.691762e+01 -5.567141e+02
-4.980814e+09 -4.780818e+09 -4.940812e+09 -1.376116e+03 6.840672e+01 -8.704872e+02
-4.845072e+09 -4.645075e+09 -4.805073e+09 -4.947516e+02 -1.142436e+01 2.508188e+01
-2.429238e+09 -2.229235e+09 -2.389239e+09 5.850812e+02 -8.025311e+02 -1.090510e+03
-1.952986e+09 -1.752983e+09 -1.912986e+09 1.456427e-01 -9.822003e+02 -4.462372e+02
-4.644038e+09 -4.444043e+09 -4.604039e+09 -3.132399e+02 2.718080e+02 -2.536729e+02
-2.999679e+09 -2.799675e+09 -2.959679e+09 -2.374862e+02 -1.001760e+03 -7.960351e+02
-3.459659e+09 -3.259662e+09 -3.419661e+09 -2.177684e+03 -2.072935e+03 -7.233975e+02
-1.579291e+09 -1.379291e+09 -1.539291e+09 -1.337932e+02 -2.949070e+01 -6.337093e+00
-2.429160e+09 -2.229159e+09 -2.389159e+09 -4.320902e+01 8.701646e+00 -1.424387e+01
-1.643086e+09 -1.443087e+09 -1.603084e+09 2.261344e+02 8.882019e+01 -1.584237e+01
-3.178729e+09 -2.978728e+09 -3.138728e+09 5.493896e+01 9.687071e+00 -3.124162e+01
-3.061901e+09 -2.861900e+09 -3.021900e+09 -4.577213e+01 -2.543999e+00 -4.508451e+01
-3.262151e+09 -3.062148e+09 -3.222149e+09 4.309210e+02 5.804548e+02 -7.213218e+01
-2.737551e+09 -2.537550e+09 -2.697550e+09 4.336314e+01 2.026517e+01 -5.279850e+01
-4.997116e+09 -4.797118e+09 -4.957115e+09 5.046989e+02 3.921952e+01 2.767056e+01
-3.845441e+09 -3.645440e+09 -3.805439e+09 3.605856e+02 2.350677e+02 -7.362163e+01
-1.643085e+09 -1.443084e+09 -1.603084e+09 3.618200e+01 7.098420e+00 -2.780018e+01
-2.884679e+09 -2.684678e+09 -2.844678e+09 3.323037e+01 8.292020e+00 -2.599253e+01
-3.492752e+09 -3.292751e+09 -3.452751e+09 -3.861634e+00 -1.840344e+01 -2.702389e+01
-2.170735e+09 -1.970734e+09 -2.130734e+09 4.959122e+01 7.875887e+00 -2.511809e+01
-1.909716e+09 -1.709714e+09 -1.869714e+09 6.155374e+00 -1.114330e+01 -5.753830e+01
-2.647989e+09 -2.447988e+09 -2.607988e+09 2.770511e+01 -4.951604e-01 -4.732934e+01
-3.221461e+09 -3.021460e+09 -3.181460e+09 2.869398e+01 6.833767e-01 -2.975474e+01
-4.178811e+09 -3.978811e+09 -4.138811e+09 -1.521665e+02 5.958473e+00 -2.343900e+01
-2.122973e+09 -1.922973e+09 -2.082973e+09 -2.193070e+02 -3.311078e+01 4.390191e+01
-4.284363e+09 -4.084356e+09 -4.244361e+09 -8.120063e+02 -3.264550e+02 6.725128e+02
-3.060301e+09 -2.860301e+09 -3.020301e+09 -9.975705e+01 -4.172259e+01 -2.910637e+01
-2.487547e+09 -2.287547e+09 -2.447547e+09 -2.220762e+02 -4.012774e+01 9.005449e+00
-2.810089e+09 -2.610089e+09 -2.770089e+09 -1.855313e+02 -2.834708e+01 -2.550066e+01
-4.355868e+09 -4.155867e+09 -4.315867e+09 -3.648779e-01 1.485251e+00 -1.418304e+00
-4.226946e+09 -4.026945e+09 -4.186945e+09 6.062862e+00 1.003265e+00 -1.933440e+00
-4.921179e+09 -4.721178e+09 -4.881178e+09 -1.559012e+00 -4.842789e+00 1.348195e-10
-2.138438e+09 -1.938438e+09 -2.098439e+09 -1.456972e+02 -1.720450e+01 -3.376949e+00
-1.969906e+09 -1.769906e+09 -1.929906e+09 -5.152165e+01 -2.548309e+01 2.318884e+01
-3.220235e+09 -3.020235e+09 -3.180235e+09 -3.836769e+01 -1.852959e+01 1.092281e+01
-1.971778e+09 -1.771779e+09 -1.931779e+09 3.178858e+01 2.046194e+01 1.066867e+01
-2.776080e+09 -2.576081e+09 -2.736081e+09 6.691865e+01 1.250017e+01 3.952442e+01
-3.203953e+09 -3.003954e+09 -3.163954e+09 9.113443e+01 6.945836e+00 -9.723342e-01
-2.229885e+09 -2.029886e+09 -2.189886e+09 7.974214e+01 9.811861e+00 -4.315019e-01
-4.626562e+09 -4.426562e+09 -4.586538e+09 1.346246e+03 -1.921423e+03 -2.085008e+03
-3.952679e+09 -3.752670e+09 -3.912657e+09 4.361738e+03 -1.004051e+04 -4.050505e+03
-1.971761e+09 -1.771762e+09 -1.931762e+09 3.728171e+01 1.943186e+01 -1.946636e+01
-3.189148e+09 -2.989149e+09 -3.149149e+09 7.725622e+00 2.057723e+01 -6.425226e+01
-3.960438e+09 -3.760426e+09 -3.920410e+09 1.840905e+03 -7.907644e+03 -4.686049e+03
-4.134277e+09 -3.934274e+09 -4.094271e+09 3.036877e+03 -1.728024e+03 -5.089060e+02
-4.476512e+09 -4.276507e+09 -4.436506e+09 2.248178e+03 -3.858608e+02 3.404669e+00
-3.964113e+09 -3.764113e+09 -3.924111e+09 2.512718e+03 -5.300113e+02 -6.832799e+02
-3.494939e+09 -3.294941e+09 -3.454938e+09 -4.381495e+02 2.241638e+02 2.277069e+01
-3.330692e+09 -3.130694e+09 -3.290691e+09 1.017270e+01 -1.715350e+02 -9.116416e+01
-4.996245e+09 -4.796248e+09 -4.956244e+09 -2.648486e+02 -1.636086e+01 4.777708e+01
-4.025523e+09 -3.825526e+09 -3.985523e+09 -3.229055e+02 6.044320e+01 -4.849381e+01
-3.802074e+09 -3.602077e+09 -3.762074e+09 -6.035603e+02 3.766076e+01 -8.757881e+01
-3.040506e+09 -2.840506e+09 -3.000506e+09 5.718930e+00 1.161398e+01 3.344264e+00
-2.540238e+09 -2.340237e+09 -2.500237e+09 1.696912e+02 9.498912e+00 -5.345456e+01
-4.623419e+09 -4.423421e+09 -4.583419e+09 -5.463682e+02 1.391178e+01 1.287169e+01
-4.972168e+09 -4.772165e+09 -4.932175e+09 -2.271342e+03 1.307670e+03 5.364985e+02
-4.284616e+09 -4.084611e+09 -4.244618e+09 -2.713578e+03 1.842238e+03 1.811412e+03
-3.957992e+09 -3.757985e+09 -3.917992e+09 -2.558814e+03 1.349864e+03 2.263169e+03
-4.278995e+09 -4.078990e+09 -4.238998e+09 -2.463240e+03 1.713945e+03 1.566626e+03
-4.638752e+09 -4.438748e+09 -4.598750e+09 -6.479501e+02 2.048206e+02 1.834814e+02
-2.671034e+09 -2.471032e+09 -2.631032e+09 -1.597329e+01 1.846721e+01 -4.939118e+01
-4.995944e+09 -4.795940e+09 -4.955952e+09 -1.653080e+03 1.561714e+03 7.715004e+02
-4.820740e+09 -4.620742e+09 -4.780737e+09 2.405123e+03 -6.331993e+01 -6.812291e+02
-4.807906e+09 -4.607904e+09 -4.767903e+09 2.347765e+03 -2.896592e+02 -5.709816e+02
-4.770148e+09 -4.570147e+09 -4.730147e+09 7.177266e+00 2.335537e+01 -1.252609e+01
-4.814445e+09 -4.614449e+09 -4.774445e+09 9.683818e+02 -1.829124e+02 -5.931359e+02
-3.006933e+09 -2.806932e+09 -2.966932e+09 3.812387e+01 1.650075e+01 -2.183184e+01
-3.023293e+09 -2.823292e+09 -2.983292e+09 -1.635209e+01 -2.128015e+00 -3.958871e+01
-2.759949e+09 -2.559947e+09 -2.719947e+09 5.488522e+01 2.173467e+01 -4.039707e+01
-2.221896e+09 -2.021894e+09 -2.181895e+09 6.362197e+01 4.430213e+00 -1.362712e+01
-2.200882e+09 -2.000881e+09 -2.160881e+09 2.765636e+01 3.066099e+00 -3.046482e+01
-3.241672e+09 -3.041671e+09 -3.201671e+09 2.831075e+01 9.419133e-02 -2.218403e+01
-2.120580e+09 -1.920581e+09 -2.080581e+09 1.012664e+02 1.481242e+01 -1.009532e+00
-3.158046e+09 -2.958045e+09 -3.118046e+09 -1.173377e+02 -1.010293e+01 -4.822335e+00
-3.937109e+09 -3.737108e+09 -3.897109e+09 -2.807794e+02 -2.665531e+01 -2.405190e+01
-2.474547e+09 -2.274547e+09 -2.434547e+09 2.024274e+02 3.891038e+01 6.509304e+00
-3.081784e+09 -2.881784e+09 -3.041784e+09 9.861400e+01 1.377046e+01 1.824959e+01
-2.742989e+09 -2.542990e+09 -2.702990e+09 8.904434e+01 2.941506e+01 -8.439331e+00
-1.537357e+09 -1.337358e+09 -1.497360e+09 -1.105124e+03 3.503371e+02 1.093229e+02
-2.099296e+09 -1.899297e+09 -2.059296e+09 2.014648e+02 3.145677e+01 4.085834e+01
-4.647700e+09 -4.447712e+09 -4.607701e+09 1.176033e+03 4.850813e+02 1.956266e+03
-1.955502e+09 -1.755503e+09 -1.915503e+09 4.011947e+01 2.135134e+01 -1.911358e+01
-3.209417e+09 -3.009418e+09 -3.169418e+09 1.450950e+01 2.051185e+01 -6.149687e+01
-4.820899e+09 -4.620901e+09 -4.780901e+09 1.073334e+01 -7.637101e+00 1.088628e+01
-1.688417e+09 -1.488416e+09 -1.648415e+09 3.288143e+03 1.754980e+03 -8.046261e+02
-4.761468e+09 -4.561464e+09 -4.721467e+09 -2.545740e+02 -1.355387e+02 -3.862941e+01
-3.870873e+09 -3.670869e+09 -3.830871e+09 3.935834e+02 5.267421e+02 -1.262376e+02
-4.991190e+09 -4.791193e+09 -4.951192e+09 8.951459e+01 -7.817196e+00 -6.014519e+01
-1.688416e+09 -1.488417e+09 -1.648414e+09 2.741229e+03 1.219605e+03 -3.784633e+02
-2.968242e+09 -2.768244e+09 -2.928241e+09 1.541388e+03 3.303731e+02 -1.165362e+02
-2.182762e+09 -1.982762e+09 -2.142760e+09 2.457272e+03 9.209991e+02 -2.434261e+02
-4.837114e+09 -4.637116e+09 -4.797115e+09 2.134176e+01 1.548317e+01 8.678086e+00
-4.648075e+09 -4.448077e+09 -4.608076e+09 -3.228067e+01 6.359491e+00 3.742887e+01
-4.991212e+09 -4.791215e+09 -4.951214e+09 3.038447e+02 -1.685904e+01 -6.919567e+01
-4.818463e+09 -4.618465e+09 -4.778464e+09 3.505233e+02 -4.660453e-01 -4.652693e+01
-4.131883e+09 -3.931885e+09 -4.091884e+09 4.452277e+01 5.541720e+00 1.940081e+00
-4.131964e+09 -3.931966e+09 -4.091966e+09 2.213633e+02 8.999467e+00 -4.332209e+01
-4.991131e+09 -4.791133e+09 -4.951133e+09 -3.751878e+01 -4.846538e+00 -8.271853e+01
-4.818307e+09 -4.618309e+09 -4.778308e+09 -1.296395e+02 -6.353817e+00 -9.572897e+00
-1.965931e+09 -1.765931e+09 -1.925931e+09 4.028668e+01 2.887452e+01 2.134532e+01
-2.880395e+09 -2.680395e+09 -2.840395e+09 6.112466e+01 3.709534e+01 4.435950e+01
-5.010064e+09 -4.810064e+09 -4.970063e+09 -1.271142e+01 -4.710785e+00 3.218834e+01
-4.129599e+09 -3.929594e+09 -4.089603e+09 -1.687912e+03 -1.055395e+03 1.481577e+03
-3.341404e+09 -3.141405e+09 -3.301403e+09 2.014299e+03 7.430287e+02 -3.475376e+02
-2.021349e+09 -1.821348e+09 -1.981348e+09 5.529763e+01 9.862021e+00 -8.362175e+00
-2.053227e+09 -1.853229e+09 -2.013226e+09 1.210246e+03 2.591678e+02 -6.988954e+01
-2.137046e+09 -1.937043e+09 -2.097044e+09 5.061456e+02 7.763455e+02 -1.326012e+02
-1.571788e+09 -1.371790e+09 -1.531787e+09 9.045918e+02 1.638373e+02 7.735605e+01
-3.184200e+09 -2.984200e+09 -3.144200e+09 -1.942169e+00 1.445767e+01 3.109843e+00
-2.796489e+09 -2.596489e+09 -2.756489e+09 1.808799e+02 4.818368e+00 -1.197678e+00
-3.101925e+09 -2.901927e+09 -3.061925e+09 -4.987216e+02 -5.117202e+02 -9.713379e+01
-4.819878e+09 -4.619877e+09 -4.779877e+09 1.315796e+02 -9.351190e+00 -2.929200e+01
-4.640063e+09 -4.440062e+09 -4.600062e+09 9.783610e+00 -1.634826e+01 -2.420155e+01
-4.302541e+09 -4.102542e+09 -4.262542e+09 1.205910e+03 -7.038761e+01 -1.988504e+02
-2.300466e+09 -2.100471e+09 -2.260467e+09 -4.889425e+02 -2.875538e+02 -1.801709e+02
-4.976293e+09 -4.776294e+09 -4.936294e+09 -2.556646e+02 6.297844e+00 -2.994463e+00
-4.940313e+09 -4.740314e+09 -4.900314e+09 -1.775792e+01 7.738485e+00 2.486654e-05
-4.940307e+09 -4.740308e+09 -4.900308e+09 2.958282e+00 -9.429876e-01 -9.947603e-05
-4.990956e+09 -4.790958e+09 -4.950957e+09 1.092330e+03 -4.786299e+01 -1.337518e+02
-3.961432e+09 -3.761434e+09 -3.921434e+09 -2.573180e+02 -2.089804e+01 5.448593e+01
-4.283328e+09 -4.083328e+09 -4.243303e+09 1.263071e+03 -2.741771e+03 -5.785267e+03
-3.143290e+09 -2.943298e+09 -3.103293e+09 -3.038693e+02 -4.219228e+02 -7.464655e+01
-3.962222e+09 -3.762228e+09 -3.922237e+09 1.476344e+03 6.010881e+03 -8.789243e+02
-3.256172e+09 -3.056176e+09 -3.216173e+09 -1.603395e+02 -2.765001e+02 -7.888568e+01
-1.971169e+09 -1.771174e+09 -1.931169e+09 -4.371729e+02 -4.248340e+02 -2.242261e+02
-4.469986e+09 -4.269981e+09 -4.429985e+09 -3.285135e+03 6.698205e+01 1.429640e+03
-1.973894e+09 -1.773897e+09 -1.933894e+09 -2.536589e+02 -1.347115e+02 -2.587527e+01
-3.079136e+09 -2.879135e+09 -3.039135e+09 9.629045e+00 5.192970e+00 -6.648137e+00
-4.990103e+09 -4.790104e+09 -4.950103e+09 -2.322710e+03 1.566119e+02 -3.414598e+02
-3.044845e+09 -2.844844e+09 -3.004844e+09 5.074950e-01 1.044018e+01 -1.899646e+01
-1.893382e+09 -1.693380e+09 -1.853381e+09 5.064697e+01 8.641771e+00 -2.509850e+01
-4.300831e+09 -4.100829e+09 -4.260831e+09 -3.292771e+03 -2.444504e+01 3.646866e+02
-3.226412e+09 -3.026411e+09 -3.186411e+09 3.163283e+01 4.353131e-01 -6.056726e+00
-1.960193e+09 -1.760191e+09 -1.920191e+09 2.101246e+01 6.638828e+00 -3.323979e+01
-4.471741e+09 -4.271739e+09 -4.431741e+09 -4.336619e+03 5.493769e+02 7.895698e+01
-4.615472e+09 -4.415475e+09 -4.575473e+09 -2.307521e+03 3.180384e+02 -3.196374e+02
-1.962917e+09 -1.762916e+09 -1.922916e+09 1.775696e+01 -1.762714e+00 -2.919998e+01
-3.850798e+09 -3.650796e+09 -3.810796e+09 1.122873e+03 5.518170e+02 -6.742948e+01
-1.690831e+09 -1.490830e+09 -1.650830e+09 -1.243584e+02 2.765113e+01 -8.956663e+01
-3.652816e+09 -3.452815e+09 -3.612815e+09 3.421739e+01 2.296851e+00 -3.982414e+01
-4.820856e+09 -4.620855e+09 -4.780856e+09 -1.191294e+03 -2.280531e+01 -8.283793e+01
-4.814117e+09 -4.614116e+09 -4.774117e+09 -1.280072e+03 1.968879e+00 -2.130154e+00
-3.455917e+09 -3.255916e+09 -3.415916e+09 6.317123e+01 4.853025e+01 -2.928466e+01
-3.870890e+09 -3.670891e+09 -3.830891e+09 -1.454904e+01 9.457853e+00 -2.702473e+00
-1.860576e+09 -1.660576e+09 -1.820576e+09 -6.350756e+01 -2.042252e+01 2.842277e+01
-4.985110e+09 -4.785110e+09 -4.945110e+09 -1.198008e+03 -1.392346e+01 1.106362e+02
-1.595590e+09 -1.395589e+09 -1.555589e+09 -1.341598e+01 -2.350876e+01 -2.331829e+00
-3.955412e+09 -3.755412e+09 -3.915412e+09 -1.123956e+03 -5.572132e+01 -5.040319e+01
-4.136969e+09 -3.936969e+09 -4.096969e+09 -1.500366e+03 -9.715582e+01 1.526342e+02
-4.823514e+09 -4.623514e+09 -4.783514e+09 -1.607960e+03 -5.356793e+01 1.565175e+02
-3.963283e+09 -3.763283e+09 -3.923283e+09 -1.388405e+03 -5.277450e+01 6.014982e+01
-2.258570e+09 -2.058578e+09 -2.218572e+09 -1.222127e+03 -2.476262e+03 3.028959e+02
-4.814117e+09 -4.614117e+09 -4.774117e+09 -1.336454e+03 2.226974e+00 -2.276763e+00
-3.647188e+09 -3.447192e+09 -3.607189e+09 -1.568124e+02 -1.703793e+02 -5.912345e+01
-3.961088e+09 -3.761091e+09 -3.921090e+09 -2.362468e+02 9.381791e+00 1.238190e+01
-3.962055e+09 -3.762055e+09 -3.922055e+09 1.058616e+03 7.015369e+01 1.660264e+01
-3.962448e+09 -3.762449e+09 -3.922448e+09 1.399796e+03 4.562860e+01 -2.108136e+02
-4.993810e+09 -4.793811e+09 -4.953808e+09 2.096278e+03 -2.868516e+02 -6.256695e+02
-1.688694e+09 -1.488695e+09 -1.648695e+09 1.986850e+02 3.523176e+01 3.217168e+01
-4.985110e+09 -4.785110e+09 -4.945110e+09 -1.328274e+03 2.745139e+01 -1.142997e+02
-3.961402e+09 -3.761404e+09 -3.921404e+09 -4.689176e+02 -2.992703e+01 5.520917e+01
-1.880027e+09 -1.680028e+09 -1.840027e+09 2.722938e+02 3.375342e+01 5.654599e+01
-4.541628e+09 -4.341630e+09 -4.501629e+09 6.361069e+00 1.317467e+01 1.341707e+00
-2.065803e+09 -1.865800e+09 -2.025803e+09 3.256290e+02 -5.005048e+02 -8.438953e+02
-3.053728e+09 -2.853732e+09 -3.013733e+09 8.937379e+02 -6.285275e+01 4.859928e+02
-2.182386e+09 -1.982387e+09 -2.142387e+09 2.435268e+02 1.202490e+01 1.009996e+01
-2.779339e+09 -2.579343e+09 -2.739343e+09 7.629540e+02 3.542740e+01 6.316629e+02
-2.736194e+09 -2.536191e+09 -2.696194e+09 1.731295e+02 -7.489600e+02 1.781421e+02
-3.230933e+09 -3.030931e+09 -3.190934e+09 -8.508198e+01 -6.146697e+02 -3.786237e+02
-3.961536e+09 -3.761533e+09 -3.921525e+09 -6.700608e+03 -7.018451e+03 3.848442e+03
-3.423531e+09 -3.223527e+09 -3.383530e+09 1.194061e+03 1.089255e+03 -6.791698e+02
-1.702740e+09 -1.502737e+09 -1.662739e+09 2.864116e+02 -9.373484e+02 -2.729548e+02
-1.536604e+09 -1.336606e+09 -1.496607e+09 -2.565315e+02 -6.291346e+02 -1.067918e+02
-3.960990e+09 -3.760986e+09 -3.921008e+09 1.805498e+03 5.119805e+03 -3.679460e+03
-4.816424e+09 -4.616419e+09 -4.776428e+09 -3.842480e+03 -7.025549e+02 8.660419e+02
-3.961398e+09 -3.761394e+09 -3.921402e+09 1.959181e+02 -1.606202e+03 1.916483e+03
-4.272240e+09 -4.072242e+09 -4.232240e+09 -2.308279e+03 4.431642e+02 -5.993934e+02
-1.821741e+09 -1.621740e+09 -1.781743e+09 5.449579e+02 -6.963691e+02 -5.922684e+02
-1.586181e+09 -1.386191e+09 -1.546183e+09 3.964941e+02 -1.578920e+03 2.773442e+02
-3.961056e+09 -3.761051e+09 -3.921059e+09 -1.387825e+03 -4.964017e+02 1.944370e+03
-3.960995e+09 -3.760989e+09 -3.921001e+09 -9.620099e+02 -1.058334e+03 2.549531e+03
-4.819708e+09 -4.619700e+09 -4.779714e+09 -3.990553e+03 1.364252e+01 -1.237415e+02
-2.120583e+09 -1.920585e+09 -2.080587e+09 1.606242e+02 -3.396575e+02 1.768873e+02
-2.440941e+09 -2.240943e+09 -2.400940e+09 2.103952e+02 1.682776e+01 -2.027684e+01
-2.765331e+09 -2.565333e+09 -2.725329e+09 1.930581e+02 8.167378e+00 1.175550e+01
-3.213712e+09 -3.013713e+09 -3.173710e+09 2.504215e+02 7.020315e+01 -1.817750e+01
-3.273806e+09 -3.073806e+09 -3.233806e+09 9.179215e+01 2.016974e+01 -2.628525e+00
-1.828620e+09 -1.628622e+09 -1.788619e+09 4.780159e+02 -2.448098e+01 9.567412e+00
-2.133390e+09 -1.933393e+09 -2.093389e+09 4.119207e+02 8.193690e+01 -3.196015e+01
-4.988338e+09 -4.788333e+09 -4.948335e+09 9.860847e+02 8.788087e+01 6.778379e+01
-4.470446e+09 -4.270441e+09 -4.430444e+09 1.004632e+03 3.387781e+00 1.746528e+01
-4.985115e+09 -4.785112e+09 -4.945114e+09 1.498707e+02 2.248602e+01 2.107385e+01
-2.724801e+09 -2.524803e+09 -2.684800e+09 5.350346e+02 6.168363e+01 -4.898197e+01
-2.925055e+09 -2.725056e+09 -2.885054e+09 2.005023e+02 6.455631e+01 4.766929e+01
-1.957777e+09 -1.757781e+09 -1.917777e+09 -1.271333e+02 -4.306623e+01 -8.928833e+01
-4.827326e+09 -4.627330e+09 -4.787327e+09 1.697837e+03 -3.264513e+01 -6.452447e+00
-4.770062e+09 -4.570067e+09 -4.730062e+09 -1.044659e+02 8.644606e+01 2.490130e-01
-4.309905e+09 -4.109911e+09 -4.269907e+09 1.944544e+03 4.939465e+02 2.068776e+01
-3.961457e+09 -3.761457e+09 -3.921456e+09 -6.621891e+02 -9.743349e+01 -9.573358e+01
-3.021256e+09 -2.821259e+09 -2.981255e+09 8.296138e+01 3.132748e+01 -3.665756e+01
-3.043829e+09 -2.843831e+09 -3.003827e+09 1.464446e+02 5.279418e+00 2.159610e+01
-1.858965e+09 -1.658963e+09 -1.818963e+09 -1.119575e+02 -5.170643e+01 -8.134491e+01
-4.824904e+09 -4.624903e+09 -4.784903e+09 -5.562854e+02 4.770122e+00 4.270780e+01
-4.304617e+09 -4.104616e+09 -4.264616e+09 -3.670975e+02 -2.126299e+00 -3.738586e+01
-4.311452e+09 -4.111452e+09 -4.271452e+09 -7.077281e+02 7.263607e+00 1.487843e+01
-4.642843e+09 -4.442838e+09 -4.602847e+09 -1.720742e+03 -6.364293e+01 1.011805e+03
-2.881249e+09 -2.681248e+09 -2.841248e+09 -3.752508e+01 -1.042934e+01 -4.755636e+01
-4.546091e+09 -4.346089e+09 -4.506089e+09 -1.155959e+02 -4.224956e+00 -1.687602e+01
-3.963114e+09 -3.763112e+09 -3.923113e+09 -1.278335e+03 -1.257461e+02 6.841894e+01
-4.631917e+09 -4.431916e+09 -4.591917e+09 -8.444853e+02 -5.456989e+01 -6.542956e+00
-2.977197e+09 -2.777196e+09 -2.937196e+09 -3.667385e+02 -4.751361e+01 -2.157898e+01
-1.609217e+09 -1.409213e+09 -1.569216e+09 -7.949586e+02 -1.468904e+03 -9.914976e+02
-2.506475e+09 -2.306478e+09 -2.466475e+09 -4.891229e+02 -1.212792e+02 -2.203755e+02
-4.312425e+09 -4.112422e+09 -4.272429e+09 -1.438633e+03 -1.937995e+03 -9.924480e+02
-4.073674e+09 -3.873671e+09 -4.033676e+09 1.280813e+03 -4.015461e+02 -3.031839e+02
-4.311407e+09 -4.111403e+09 -4.271414e+09 -1.638170e+03 -2.366943e+03 -1.456881e+03
-3.961362e+09 -3.761355e+09 -3.921366e+09 -4.788658e+02 -2.153390e+03 -2.399466e+03
-4.307001e+09 -4.106996e+09 -4.267003e+09 1.102930e+01 -8.269395e+02 -9.499702e+02
-2.545453e+09 -2.345455e+09 -2.505451e+09 2.748517e+02 -8.476340e+01 -4.057699e+01
-3.172547e+09 -2.972546e+09 -3.132546e+09 -1.630507e+03 -1.234372e+03 -5.340711e+02
-2.248879e+09 -2.048876e+09 -2.208876e+09 -4.275727e+02 -5.984940e+02 -9.805884e+01
-2.832992e+09 -2.632994e+09 -2.792991e+09 3.601358e+02 3.446956e+01 -3.436491e+00
-2.264002e+09 -2.064004e+09 -2.224001e+09 1.031155e+02 2.694455e+01 1.076287e+01
-4.019804e+09 -3.819801e+09 -3.979803e+09 -8.464306e+02 -6.487116e+02 -4.279160e+02
-1.910858e+09 -1.710859e+09 -1.870856e+09 1.442545e+02 2.203305e+01 4.816478e+00
-3.961013e+09 -3.761010e+09 -3.921013e+09 -3.524028e+03 7.877863e+02 4.497801e+02
-3.944756e+09 -3.744755e+09 -3.904755e+09 -1.465600e+02 -1.706060e+02 -6.708556e+01
-2.230838e+09 -2.030838e+09 -2.190837e+09 -2.692847e+02 -2.228876e+02 -2.051596e+02
-3.637799e+09 -3.437794e+09 -3.597797e+09 3.968501e+02 5.640862e+02 -1.232281e+02
-2.201438e+09 -2.001440e+09 -2.161437e+09 5.732227e+02 1.839015e+01 8.027868e+01
-2.437512e+09 -2.237513e+09 -2.397511e+09 -6.607630e+02 -4.983243e+02 -3.151208e+02
-1.688417e+09 -1.488418e+09 -1.648415e+09 2.174602e+03 7.044750e+02 -1.565913e+02
-2.180108e+09 -1.980107e+09 -2.140105e+09 3.245160e+02 3.650449e+02 -2.846148e+00
-3.974662e+09 -3.774663e+09 -3.934663e+09 -1.778556e+01 2.260582e+01 5.142411e-01
-2.108303e+09 -1.908302e+09 -2.068303e+09 -5.424219e+01 -1.963601e+01 -7.803822e+00
-2.367290e+09 -2.167288e+09 -2.327288e+09 -5.575265e+02 -5.435644e+02 -2.663096e+01
-1.920946e+09 -1.720946e+09 -1.880947e+09 -1.425908e+02 -4.274750e+01 -4.244143e+00
-3.512830e+09 -3.312829e+09 -3.472829e+09 -2.204042e+02 -2.820451e+01 -9.551087e+00
-2.182843e+09 -1.982842e+09 -2.142841e+09 -2.348095e+02 -1.265716e+02 -5.853378e+01
-2.554602e+09 -2.354602e+09 -2.514603e+09 -4.415790e+02 7.230960e+00 -1.170867e+02
-1.969365e+09 -1.769365e+09 -1.929363e+09 -3.532073e+02 -1.964080e+02 -1.007412e+02
-1.831733e+09 -1.631732e+09 -1.791731e+09 -6.984554e+02 -5.639911e+02 -4.223779e+01
-2.122146e+09 -1.922152e+09 -2.082147e+09 -1.209889e+03 -7.282495e+02 -2.186739e+02
-3.243806e+09 -3.043805e+09 -3.203804e+09 -2.788881e+02 -1.435178e+02 -1.086139e+02
-3.015839e+09 -2.815839e+09 -2.975838e+09 -1.454406e+02 -4.219445e+01 -1.095773e+02
-3.481118e+09 -3.281124e+09 -3.441121e+09 -1.239557e+03 -1.387354e+03 -5.204097e+02
-2.645804e+09 -2.445813e+09 -2.605807e+09 -3.007357e+01 -2.987189e+02 5.862792e+01
-2.082059e+09 -1.882060e+09 -2.042058e+09 -6.910799e+02 -4.684899e+02 -1.648687e+02
-3.895054e+09 -3.695053e+09 -3.855053e+09 6.169556e+01 2.084636e+01 -5.118115e+01
-2.655598e+09 -2.455596e+09 -2.615596e+09 -1.569927e+02 -4.355132e+02 -4.024435e+01
-2.978507e+09 -2.778505e+09 -2.938506e+09 2.315308e+01 4.955558e+00 -9.727185e+00
-1.992925e+09 -1.792925e+09 -1.952923e+09 -1.554040e+02 -4.996021e+01 -1.546676e+01
-2.654517e+09 -2.454517e+09 -2.614516e+09 2.082424e+01 -3.135458e+00 -8.725134e+01
-2.231362e+09 -2.031361e+09 -2.191360e+09 -1.033892e+03 -8.188731e+02 -2.481192e+02
-4.064963e+09 -3.864959e+09 -4.024963e+09 -6.993638e+02 -6.642329e+02 -2.858500e+02
-1.747783e+09 -1.547782e+09 -1.707781e+09 -6.424615e+02 -6.095636e+02 -1.059737e+02
-3.397333e+09 -3.197332e+09 -3.357332e+09 -6.261640e+01 -1.012546e+01 7.105445e-01
-1.561146e+09 -1.361145e+09 -1.521145e+09 -3.072455e+01 1.064779e+00 -1.373992e+01
-1.880373e+09 -1.680372e+09 -1.840371e+09 -1.130741e+03 -6.784666e+02 -3.832930e+02
-4.302567e+09 -4.102565e+09 -4.262567e+09 6.038857e+00 -2.699919e+02 2.298381e+02
-1.561215e+09 -1.361218e+09 -1.521214e+09 1.633795e+02 1.690436e+01 6.709798e+01
-2.755779e+09 -2.555779e+09 -2.715778e+09 -2.848970e+02 -1.738818e+02 -1.197700e+02
-1.949406e+09 -1.749405e+09 -1.909405e+09 1.235551e+02 1.257933e+01 -8.273982e+00
-1.643459e+09 -1.443458e+09 -1.603457e+09 -5.052975e+02 -3.721747e+02 -1.175311e+02
-2.706983e+09 -2.506982e+09 -2.666982e+09 3.251825e+01 7.550152e+00 3.119318e-01
-2.945286e+09 -2.745293e+09 -2.905288e+09 -5.644805e+01 -1.955058e+02 -6.390598e+01
-1.737039e+09 -1.537047e+09 -1.697041e+09 -4.603955e+02 -5.232187e+02 -2.973853e+01
-5.005562e+09 -4.805568e+09 -4.965566e+09 -9.224537e+02 9.124464e+01 5.983506e+01
-1.925831e+09 -1.725830e+09 -1.885831e+09 -3.646272e+01 -1.695959e+01 -1.263333e+00
-1.778062e+09 -1.578061e+09 -1.738062e+09 -7.661700e+01 -1.837243e+01 -2.987076e+01
-2.028014e+09 -1.828014e+09 -1.988014e+09 -1.400114e+02 -2.009696e+01 -1.955735e+01
-2.003958e+09 -1.803958e+09 -1.963958e+09 -1.278627e+02 -2.972572e+00 -8.058176e+00
-3.465934e+09 -3.265942e+09 -3.425940e+09 7.648231e+02 -2.832551e+03 5.218630e+02
-3.902614e+09 -3.702615e+09 -3.862613e+09 2.292285e+01 -1.434652e+00 -2.088919e+01
-3.053352e+09 -2.853351e+09 -3.013351e+09 -9.566551e+01 1.543171e+00 -2.534001e+00
-3.015985e+09 -2.815984e+09 -2.975985e+09 -2.299855e+01 -3.966642e+00 -1.374690e+01
-3.011513e+09 -2.811516e+09 -2.971513e+09 -6.370025e+02 6.797068e+01 -1.438250e+02
-3.037265e+09 -2.837264e+09 -2.997265e+09 -3.357633e+01 -8.236611e+00 7.871497e+00
-4.301665e+09 -4.101661e+09 -4.261672e+09 -4.083295e+02 -2.944349e+03 2.159383e+03
-2.547521e+09 -2.347520e+09 -2.507520e+09 -5.790572e+01 2.661405e+00 -1.746244e+01
-3.850960e+09 -3.650955e+09 -3.810958e+09 3.893685e+02 5.786183e+02 -1.447489e+02
-2.448794e+09 -2.248793e+09 -2.408794e+09 -1.009945e+02 -4.751396e+00 -1.506591e+01
-1.786466e+09 -1.586466e+09 -1.746466e+09 -1.170078e+02 -3.894991e+01 2.516593e+00
-4.245192e+09 -4.045194e+09 -4.205194e+09 -2.629024e+03 -4.078227e+01 4.089431e+02
-3.961432e+09 -3.761424e+09 -3.921434e+09 8.858681e+02 1.237261e+03 -1.316379e+03
-4.135258e+09 -3.935258e+09 -4.095258e+09 2.431598e+03 5.131337e+02 -1.043218e+02
-2.187304e+09 -1.987303e+09 -2.147304e+09 -4.168743e+01 -5.004177e+00 -1.462824e+01
-2.190096e+09 -1.990095e+09 -2.150095e+09 -3.152195e+01 -3.630314e+00 -1.447351e+00
-4.818367e+09 -4.618366e+09 -4.778369e+09 8.467494e+02 -5.175636e+02 5.081102e+02
-1.908084e+09 -1.708083e+09 -1.868083e+09 1.833166e+01 3.983914e+00 -1.156581e+01
-1.808902e+09 -1.608901e+09 -1.768901e+09 1.149062e+01 3.118535e+00 -1.876802e+01
-4.265487e+09 -4.065488e+09 -4.225487e+09 -3.101982e+02 -5.756187e-01 1.978450e+01
-2.593426e+09 -2.393425e+09 -2.553425e+09 5.283009e+01 5.787881e+00 -3.401737e+01
-3.113826e+09 -2.913825e+09 -3.073825e+09 1.129082e+01 4.507456e+00 -2.492391e+00
-3.022906e+09 -2.822905e+09 -2.982905e+09 8.318878e+00 1.121480e+00 -6.201296e+00
-4.008415e+09 -3.808420e+09 -3.968417e+09 4.658920e+02 -1.394003e+02 2.015889e+02
-2.881493e+09 -2.681502e+09 -2.841496e+09 2.551046e+01 -2.869849e+02 1.174476e+02
-3.602957e+09 -3.402965e+09 -3.562960e+09 5.745462e+01 -2.618471e+02 2.910361e+01
-3.282404e+09 -3.082403e+09 -3.242403e+09 2.179235e+01 -5.227562e+00 2.222020e+00
-1.688352e+09 -1.488353e+09 -1.648353e+09 -3.967325e+02 -5.247699e+01 2.142151e+01
-2.806603e+09 -2.606601e+09 -2.766602e+09 1.027846e+01 6.070273e+00 -5.564587e+00
-2.896768e+09 -2.696767e+09 -2.856767e+09 4.337869e+01 1.044079e+01 -8.074964e-01
-2.589575e+09 -2.389573e+09 -2.549574e+09 8.823868e+00 -7.053568e+00 -2.092800e+01
-3.058577e+09 -2.858579e+09 -3.018578e+09 -3.054924e+02 -3.170750e+01 3.207703e+01
-3.627098e+09 -3.427097e+09 -3.587096e+09 2.647643e+01 7.035352e+00 -8.254171e+01
-3.465581e+09 -3.265580e+09 -3.425580e+09 3.334920e+01 -2.049398e+00 -1.946810e+01
-2.013190e+09 -1.813189e+09 -1.973189e+09 9.970030e+00 8.335963e-01 -9.322684e+00
-3.450329e+09 -3.250329e+09 -3.410328e+09 -7.153132e+00 1.123132e+02 -3.584230e+01
-3.617975e+09 -3.417970e+09 -3.577973e+09 4.035440e+02 5.005798e+02 -1.472002e+02
-1.561912e+09 -1.361910e+09 -1.521911e+09 9.899253e+00 5.445029e+00 -3.436311e+00
-1.784789e+09 -1.584786e+09 -1.744787e+09 -1.280843e+03 -1.272127e+03 -3.413148e+02
-2.784325e+09 -2.584323e+09 -2.744324e+09 -1.027261e+03 -1.010762e+03 -4.268596e+02
-2.880916e+09 -2.680913e+09 -2.840915e+09 -1.556999e+03 -1.431751e+03 -8.479387e+02
-4.820166e+09 -4.620174e+09 -4.780164e+09 3.366796e+03 5.950792e+02 -6.253569e+02
-3.498402e+09 -3.298399e+09 -3.458402e+09 -1.461607e+03 -1.248600e+03 -6.782664e+02
-4.821969e+09 -4.621963e+09 -4.781971e+09 1.121093e+03 -2.374978e+02 -3.118792e+02
-3.025105e+09 -2.825102e+09 -2.985104e+09 -9.215993e+02 -1.021582e+03 -3.938673e+02
-2.236267e+09 -2.036266e+09 -2.196266e+09 -1.213494e+03 -9.547415e+02 -1.926781e+02
-3.602910e+09 -3.402915e+09 -3.562910e+09 1.075529e+02 3.533961e+01 2.223444e+01
-3.490968e+09 -3.290974e+09 -3.450969e+09 4.683574e+02 1.537005e+02 -3.593931e+01
-2.964548e+09 -2.764546e+09 -2.924547e+09 -1.113564e+03 -8.957245e+02 -3.393521e+02
-4.179538e+09 -3.979534e+09 -4.139537e+09 -1.983312e+02 -4.344692e+02 -1.132432e+02
-2.509120e+09 -2.309124e+09 -2.469125e+09 -5.262151e+02 1.265182e+02 -2.056831e+02
-4.819065e+09 -4.619059e+09 -4.779067e+09 2.612266e+03 -3.581143e+02 -1.228493e+02
-2.474725e+09 -2.274722e+09 -2.434722e+09 -6.846906e+02 -4.820770e+02 -2.072939e+02
-2.420950e+09 -2.220952e+09 -2.380953e+09 3.650753e+01 3.513638e+02 1.016202e+02
-3.841087e+09 -3.641086e+09 -3.801086e+09 -8.044156e+01 -7.523493e+00 -4.640997e+01
-1.732303e+09 -1.532300e+09 -1.692304e+09 -1.260395e+03 6.135588e+02 -9.508671e+02
-1.881248e+09 -1.681248e+09 -1.841250e+09 -9.060250e+02 2.876603e+02 1.379838e+02
-3.415574e+09 -3.215573e+09 -3.375573e+09 -2.005824e+02 -6.703375e+00 -5.785523e+01
-2.992089e+09 -2.792090e+09 -2.952091e+09 -1.164988e+03 -5.812316e-01 -1.323721e+02
-2.465175e+09 -2.265174e+09 -2.425176e+09 -1.131370e+03 1.378819e+00 3.672749e+01
-4.998251e+09 -4.798250e+09 -4.958251e+09 6.139583e+01 -7.055533e+00 7.309520e+00
-2.845463e+09 -2.645462e+09 -2.805465e+09 -5.511079e+02 1.582666e+02 -5.070254e+02
-3.121554e+09 -2.921559e+09 -3.081559e+09 -8.299552e+02 2.312447e+01 6.740489e+02
-2.964667e+09 -2.764666e+09 -2.924666e+09 -1.844384e+00 5.391598e+00 -2.919670e+00
-3.451581e+09 -3.251587e+09 -3.411585e+09 1.259924e+03 -2.352712e+03 6.784483e+02
-3.961447e+09 -3.761453e+09 -3.921455e+09 1.480693e+03 -2.793635e+03 9.262510e+02
-2.280192e+09 -2.080195e+09 -2.240196e+09 -1.152387e+03 -2.172185e+02 6.536784e+02
-3.835941e+09 -3.635949e+09 -3.795944e+09 4.076961e+01 -2.490407e+02 1.684387e+01
-2.847468e+09 -2.647473e+09 -2.807473e+09 -6.273190e+02 -2.036624e+02 6.517923e+02
-3.449511e+09 -3.249512e+09 -3.409512e+09 1.746952e+02 -1.136022e+00 1.830793e+01
-2.480479e+09 -2.280475e+09 -2.440478e+09 4.619542e+02 7.048041e+02 -4.131875e+02
-1.787457e+09 -1.587459e+09 -1.747460e+09 -7.140991e+02 8.135142e+01 6.830531e+02
-3.709971e+09 -3.509972e+09 -3.669972e+09 -1.434603e+01 -1.107988e+01 7.733760e-01
-2.037558e+09 -1.837560e+09 -1.997562e+09 1.080368e+02 1.567529e+02 1.454204e+02
-1.734069e+09 -1.534070e+09 -1.694072e+09 -2.057806e+03 -4.494251e+02 6.501647e+02
-1.702359e+09 -1.502360e+09 -1.662363e+09 -1.356984e+03 2.413674e+02 -1.777736e+02
-3.612081e+09 -3.412077e+09 -3.572080e+09 3.463184e+02 4.020001e+02 -1.935876e+02
-2.216242e+09 -2.016252e+09 -2.176249e+09 -1.254416e+03 -9.315218e+02 2.522095e+03
-4.645347e+09 -4.445346e+09 -4.605354e+09 6.443500e+02 -9.899114e+02 7.928205e+02
-4.818402e+09 -4.618399e+09 -4.778404e+09 -9.614306e+02 -2.662435e+02 4.484044e+02
-3.962244e+09 -3.762239e+09 -3.922244e+09 3.089832e+03 1.059017e+03 -1.131558e+03
-3.845032e+09 -3.645028e+09 -3.805032e+09 3.560999e+02 4.589260e+02 -1.833172e+02
-2.381349e+09 -2.181356e+09 -2.341355e+09 -8.468952e+01 2.422332e+02 5.574799e+02
-3.307685e+09 -3.107698e+09 -3.267691e+09 -1.145252e+02 3.682005e+02 3.467805e+03
-1.698243e+09 -1.498247e+09 -1.658250e+09 -2.159679e+03 -2.083147e+02 2.418692e+02
-2.192847e+09 -1.992851e+09 -2.152852e+09 -1.455259e+03 2.372189e+02 6.725612e+02
-1.847437e+09 -1.647445e+09 -1.807445e+09 -1.654151e+03 -1.667111e+02 9.638789e+02
-1.583832e+09 -1.383831e+09 -1.543832e+09 4.945369e+01 2.508602e+01 -3.674935e+00
-1.542871e+09 -1.342876e+09 -1.502877e+09 -9.538197e+02 1.635984e+02 2.602499e+01
-2.829024e+09 -2.629024e+09 -2.789024e+09 2.335980e+02 2.167107e+01 1.405904e+01
-3.018552e+09 -2.818562e+09 -2.978559e+09 -4.227245e+02 -1.156868e+00 6.013840e+02
-3.898596e+09 -3.698602e+09 -3.858601e+09 -1.141015e+03 -3.542117e+01 -2.171916e+02
-4.094637e+09 -3.894645e+09 -4.054643e+09 -2.026720e+02 2.801932e+01 3.797929e+02
-1.792972e+09 -1.592977e+09 -1.752978e+09 -7.721840e+02 1.127827e+02 -1.818263e+02
-3.270793e+09 -3.070793e+09 -3.230794e+09 1.519228e+02 -2.907362e+02 1.436996e+03
-3.270576e+09 -3.070580e+09 -3.230580e+09 -8.875095e+01 2.488036e+02 -4.904856e+02
-3.035801e+09 -2.835800e+09 -2.995799e+09 1.349278e+03 4.106214e+02 -7.146976e+01
-4.976529e+09 -4.776529e+09 -4.936529e+09 2.208882e+02 -6.669025e+00 -3.204274e+01
-1.636682e+09 -1.436680e+09 -1.596679e+09 5.581455e+02 6.595858e+02 -4.795743e+01
-2.171003e+09 -1.971002e+09 -2.131002e+09 1.738089e+02 4.758925e+01 -1.088229e+01
-1.882761e+09 -1.682761e+09 -1.842759e+09 2.448566e+03 7.206524e+02 -2.213032e+02
-1.582762e+09 -1.382762e+09 -1.542761e+09 2.307050e+03 5.384132e+02 -3.469517e+02
-2.647631e+09 -2.447630e+09 -2.607630e+09 2.379610e+03 9.199513e+02 -5.164384e+02
-2.087116e+09 -1.887113e+09 -2.047113e+09 1.135539e+03 5.353501e+02 -2.230072e+02
-2.150726e+09 -1.950726e+09 -2.110725e+09 1.791513e+03 5.347181e+02 -1.873968e+01
-1.785149e+09 -1.585147e+09 -1.745146e+09 1.766078e+03 9.710135e+02 -1.516529e+02
-2.534418e+09 -2.334419e+09 -2.494416e+09 7.393994e+02 4.413337e+01 -7.809584e+01
-1.891431e+09 -1.691431e+09 -1.851431e+09 2.625973e+02 3.145443e+01 -3.163675e+01
-4.940362e+09 -4.740362e+09 -4.900362e+09 1.300524e+01 -1.349817e+01 2.486586e-05
-1.789472e+09 -1.589473e+09 -1.749470e+09 8.594294e+02 2.354526e+02 -8.438417e+01
-4.433637e+09 -4.233637e+09 -4.393637e+09 1.675600e+01 2.399702e+01 8.843477e+00
-1.964115e+09 -1.764115e+09 -1.924115e+09 2.780288e+02 3.439591e+01 2.700865e+01
-1.785977e+09 -1.585977e+09 -1.745975e+09 1.481704e+03 7.130692e+02 -2.668274e+01
-3.247366e+09 -3.047366e+09 -3.207365e+09 1.209212e+03 4.132698e+02 -2.770614e+02
-3.962861e+09 -3.762861e+09 -3.922861e+09 4.178592e+02 3.026125e+01 3.963847e+01
-4.940323e+09 -4.740324e+09 -4.900323e+09 1.350756e+01 -1.621446e+01 -4.974190e-05
-3.261829e+09 -3.061830e+09 -3.221828e+09 7.192998e+02 3.062521e+02 -6.836905e+01
-3.484843e+09 -3.284843e+09 -3.444841e+09 1.042841e+03 2.586426e+02 -5.304818e+01
-2.617392e+09 -2.417390e+09 -2.577390e+09 1.181014e+03 7.753322e+02 -1.928978e+02
-2.255286e+09 -2.055287e+09 -2.215287e+09 2.014188e+02 2.183702e+01 9.340126e+00
-1.579699e+09 -1.379700e+09 -1.539700e+09 2.367077e+02 5.232573e+01 1.780987e+01
-3.132827e+09 -2.932826e+09 -3.092826e+09 2.187719e+03 7.282403e+02 -4.001572e+02
-2.085147e+09 -1.885145e+09 -2.045145e+09 2.314864e+03 6.698768e+02 -3.923132e+02
-1.793317e+09 -1.593314e+09 -1.753315e+09 1.992140e+03 1.504201e+03 -4.453587e+02
-4.299610e+09 -4.099605e+09 -4.259614e+09 -1.724908e+03 -1.206852e+03 1.723636e+03
-2.865843e+09 -2.665845e+09 -2.825842e+09 7.325099e+02 1.647594e+02 -3.679194e+01
-3.818313e+09 -3.618315e+09 -3.778314e+09 -3.194362e-01 -6.709470e+00 3.674643e-01
-2.866163e+09 -2.666166e+09 -2.826162e+09 5.487937e+02 3.810876e+01 -5.308263e+00
-1.872422e+09 -1.672425e+09 -1.832421e+09 4.324013e+02 4.712928e+01 -2.264037e+00
-2.789696e+09 -2.589698e+09 -2.749694e+09 2.126267e+02 3.296519e+01 -1.422301e+01
-3.881373e+09 -3.681373e+09 -3.841373e+09 2.396491e+02 2.414051e+01 6.231996e+00
-1.832756e+09 -1.632758e+09 -1.792755e+09 5.520076e+02 4.417311e+01 6.659319e+00
-1.940470e+09 -1.740473e+09 -1.900469e+09 8.142823e+02 1.099274e+02 2.285776e+01
-2.730231e+09 -2.530232e+09 -2.690230e+09 3.614562e+02 1.716126e+02 3.328036e+01
-1.571788e+09 -1.371790e+09 -1.531787e+09 3.270093e+02 -3.295027e+01 6.708609e+00
-3.148306e+09 -2.948308e+09 -3.108307e+09 3.122160e+02 4.010085e+01 2.231106e+01
-3.235381e+09 -3.035377e+09 -3.195380e+09 2.264904e+03 1.265170e+03 -7.554765e+02
-2.658776e+09 -2.458772e+09 -2.618774e+09 2.552929e+03 1.186244e+03 -7.989651e+02
-2.574718e+09 -2.374717e+09 -2.534717e+09 2.894422e+03 1.664261e+03 -8.219936e+02
-3.960397e+09 -3.760398e+09 -3.920397e+09 1.972148e+03 -1.673283e+02 -4.230139e+02
-1.590932e+09 -1.390928e+09 -1.550929e+09 3.259334e+03 1.026278e+03 -9.682696e+02
-2.081574e+09 -1.881575e+09 -2.041575e+09 1.976606e+02 1.377562e+01 2.618224e+01
-2.777085e+09 -2.577081e+09 -2.737083e+09 1.294314e+03 8.658684e+02 -3.794606e+02
-1.802879e+09 -1.602874e+09 -1.762876e+09 2.036090e+03 1.785161e+03 -8.041640e+02
-3.962861e+09 -3.762861e+09 -3.922861e+09 3.021963e+02 3.228585e+01 -7.869048e-01
-3.403241e+09 -3.203242e+09 -3.363243e+09 -2.865779e+03 -5.133214e+02 2.175506e+02
-4.985268e+09 -4.785267e+09 -4.945267e+09 1.647763e+02 -2.775877e+00 -4.377737e+01
-4.131927e+09 -3.931931e+09 -4.091936e+09 5.816891e+02 -3.153506e+03 3.752601e+02
-3.748580e+09 -3.548579e+09 -3.708581e+09 -8.712664e+02 4.879902e+02 -8.172052e+02
-3.399987e+09 -3.199988e+09 -3.359988e+09 2.287956e+02 -7.025740e+00 1.274405e+01
-2.205661e+09 -2.005661e+09 -2.165661e+09 2.442369e+01 3.441596e+00 -3.004176e-02
-1.977280e+09 -1.777279e+09 -1.937279e+09 1.657708e+01 1.236023e+01 5.868119e+00
-4.645539e+09 -4.445539e+09 -4.605540e+09 -1.405848e+03 2.945461e+02 1.907810e+01
-2.257818e+09 -2.057817e+09 -2.217817e+09 1.924328e+02 3.833931e+01 1.787044e+01
-4.973183e+09 -4.773180e+09 -4.933183e+09 -1.871772e+03 -5.205073e+01 -6.508624e+01
-3.860370e+09 -3.660367e+09 -3.820370e+09 -2.407906e+03 -5.181830e+02 1.499044e+02
-2.771208e+09 -2.571203e+09 -2.731208e+09 -2.376409e+01 7.946039e+02 -1.372372e+03
-1.578991e+09 -1.378991e+09 -1.538991e+09 2.144795e+02 4.902775e+01 6.964463e+00
-1.900365e+09 -1.700361e+09 -1.860362e+09 3.113821e+03 2.028895e+03 -1.301696e+03
-2.574859e+09 -2.374856e+09 -2.534857e+09 2.931032e+03 1.735676e+03 -1.107324e+03
-1.600366e+09 -1.400360e+09 -1.560362e+09 3.030540e+03 9.138546e+02 -1.236208e+03
-2.085480e+09 -1.885476e+09 -2.045478e+09 9.877965e+02 7.892166e+02 -3.898348e+02
-1.973526e+09 -1.773522e+09 -1.933525e+09 5.528595e+02 1.708645e+03 -1.083860e+03
-2.651595e+09 -2.451594e+09 -2.611594e+09 2.438774e+00 3.386003e+01 7.416090e-01
-3.065044e+09 -2.865044e+09 -3.025044e+09 2.833609e+02 3.735602e+01 -7.284800e+00
-1.965880e+09 -1.765880e+09 -1.925880e+09 3.307318e+01 2.543253e+01 -1.800892e+01
-2.433174e+09 -2.233171e+09 -2.393173e+09 -2.132900e+03 -1.766232e+03 -1.227194e+03
-2.888711e+09 -2.688711e+09 -2.848711e+09 -6.319784e+00 1.036689e+01 -5.828385e+00
-1.689155e+09 -1.489154e+09 -1.649155e+09 1.962064e+02 3.987124e+01 -1.661616e+01
-3.062532e+09 -2.862530e+09 -3.022530e+09 -6.881997e+02 -6.292054e+02 -1.411219e+02
-1.637281e+09 -1.437277e+09 -1.597279e+09 -4.011969e+02 -1.219556e+03 -1.706411e+02
-2.336040e+09 -2.136036e+09 -2.296038e+09 -1.731521e+03 -1.500624e+03 -8.441955e+02
-1.794668e+09 -1.594664e+09 -1.754666e+09 -1.534673e+03 -1.660676e+03 -8.259422e+02
-2.665864e+09 -2.465860e+09 -2.625863e+09 -7.366590e+02 -1.043607e+03 -3.208749e+02
-3.962987e+09 -3.762987e+09 -3.922987e+09 3.361312e+02 3.377408e+01 1.148963e+01
-1.688750e+09 -1.488751e+09 -1.648751e+09 3.588718e+02 5.491323e+01 2.692150e+00
-3.452446e+09 -3.252446e+09 -3.412446e+09 3.500802e+02 6.337714e+00 2.648293e+00
-2.736002e+09 -2.535999e+09 -2.696000e+09 -7.645221e+02 -1.126914e+03 -3.078807e+02
-3.501949e+09 -3.301948e+09 -3.461948e+09 1.525639e+02 -6.375599e+00 -4.000731e+00
-1.663739e+09 -1.463739e+09 -1.623739e+09 2.119186e+02 4.340733e+01 -1.230605e+00
-1.688920e+09 -1.488920e+09 -1.648920e+09 2.988274e+02 5.060736e+01 -4.285861e+00
-1.894005e+09 -1.694002e+09 -1.854002e+09 -9.367564e+02 -7.571782e+02 -3.513859e+02
-2.943935e+09 -2.743935e+09 -2.903935e+09 1.815525e+02 3.511826e+00 2.343251e+01
-1.877519e+09 -1.677519e+09 -1.837519e+09 8.431855e+01 3.337659e+01 -9.687462e+00
-3.960082e+09 -3.760082e+09 -3.920082e+09 -5.254506e-01 -2.580617e+01 2.136421e+00
-2.276348e+09 -2.076347e+09 -2.236347e+09 1.864420e+02 1.937710e+01 -1.688648e+01
-4.814780e+09 -4.614779e+09 -4.774780e+09 2.107818e+02 3.063015e+00 2.157372e+01
-4.597283e+09 -4.397284e+09 -4.557284e+09 1.348736e+02 1.804491e+01 -2.899439e+00
-2.177171e+09 -1.977172e+09 -2.137172e+09 -1.297237e+02 -1.184509e+01 1.121268e+00
-4.813979e+09 -4.613979e+09 -4.773979e+09 1.686664e+02 -6.747754e+00 -2.975931e+01
-3.829397e+09 -3.629397e+09 -3.789397e+09 7.493058e+00 3.547751e+00 -1.425988e-01
-1.590441e+09 -1.390441e+09 -1.550441e+09 -3.175870e+02 -6.323622e+01 1.692108e+01
-4.993768e+09 -4.793768e+09 -4.953768e+09 9.727891e+01 -2.571156e+00 1.248473e+00
-2.191767e+09 -1.991768e+09 -2.151768e+09 3.550428e+02 1.909131e+01 3.759620e+00
-1.792560e+09 -1.592561e+09 -1.752561e+09 -2.569761e+02 -7.228371e+00 2.639048e+01
-2.185066e+09 -1.985065e+09 -2.145065e+09 2.694530e+02 2.026556e+01 3.894429e+00
-3.045122e+09 -2.845122e+09 -3.005122e+09 -7.138017e+01 -1.119358e+01 4.061121e+01
-2.619237e+09 -2.419237e+09 -2.579237e+09 -3.096100e+02 1.964795e+01 4.465375e+01
-1.906261e+09 -1.706261e+09 -1.866261e+09 1.014802e+02 4.050708e+01 2.645122e+00
-1.914492e+09 -1.714492e+09 -1.874492e+09 6.287698e+01 2.526227e+01 -1.142851e+01
-2.158001e+09 -1.958001e+09 -2.118001e+09 -2.679731e+02 -1.678111e+01 9.208691e+00
-2.062141e+09 -1.862144e+09 -2.022140e+09 2.520163e+02 7.024896e+00 2.201279e+00
-2.161742e+09 -1.961741e+09 -2.121741e+09 1.690247e+02 1.064382e+01 -1.593543e+00
-1.602350e+09 -1.402349e+09 -1.562349e+09 1.334719e+02 3.175086e+01 -1.373266e+01
-1.785509e+09 -1.585514e+09 -1.745509e+09 5.466889e+02 4.463754e+00 -5.900486e+01
-2.585698e+09 -2.385703e+09 -2.545698e+09 9.094324e+02 3.386402e+02 -1.498446e+02
-2.573487e+09 -2.373486e+09 -2.533486e+09 4.292011e+01 1.317655e+01 -8.990863e+00
-1.560604e+09 -1.360603e+09 -1.520604e+09 1.137096e+02 3.568640e+01 -1.047628e+01
-3.890755e+09 -3.690750e+09 -3.850756e+09 -8.417525e+02 -1.156671e+03 -1.043847e+03
-2.090200e+09 -1.890203e+09 -2.050199e+09 7.971325e+02 3.433759e+01 -1.554275e+01
-2.794474e+09 -2.594478e+09 -2.754473e+09 6.881308e+02 7.887324e+01 3.743565e+01
-2.555000e+09 -2.354998e+09 -2.514998e+09 -8.658813e+02 -9.209901e+02 -3.338562e+02
-4.135504e+09 -3.935497e+09 -4.095506e+09 2.685509e+02 -1.298071e+03 -1.871323e+03
-3.157035e+09 -2.957040e+09 -3.117035e+09 6.728640e+02 3.112974e+01 -2.536265e+00
-2.674709e+09 -2.474705e+09 -2.634706e+09 -3.572985e+02 -6.892350e+02 -1.291464e+02
-4.991241e+09 -4.791238e+09 -4.951242e+09 -3.101826e+01 -1.517751e+02 1.449795e+02
-2.336793e+09 -2.136797e+09 -2.296793e+09 5.863952e+02 5.407795e+00 2.615641e+01
-4.992427e+09 -4.792426e+09 -4.952426e+09 -4.815161e+02 5.327884e+00 9.056977e+00
-3.454461e+09 -3.254459e+09 -3.414460e+09 -3.663476e+02 -3.050608e+01 -3.560807e+01
-2.769017e+09 -2.569016e+09 -2.729016e+09 -2.478787e+01 -4.563150e+00 -1.881048e+01
-1.576439e+09 -1.376445e+09 -1.536439e+09 -7.328708e+01 8.766782e+01 -6.207581e+01
-1.769663e+09 -1.569662e+09 -1.729662e+09 -2.136460e+02 -3.388745e+01 -7.850967e+01
-2.605455e+09 -2.405454e+09 -2.565454e+09 -3.051619e+02 -1.693310e+01 -7.796803e+01
-1.690825e+09 -1.490831e+09 -1.650826e+09 4.383466e+02 1.184514e+02 -2.872986e+01
-2.996676e+09 -2.796675e+09 -2.956676e+09 1.014195e+02 2.270646e+01 -1.819280e+01
-1.750458e+09 -1.550457e+09 -1.710457e+09 -2.282919e+02 -2.755679e+01 -4.825558e+01
-3.033752e+09 -2.833751e+09 -2.993751e+09 -1.693172e+02 -4.546382e+00 -1.486862e+01
-2.950598e+09 -2.750597e+09 -2.910598e+09 -1.163178e+01 -5.903875e+00 -7.856563e+00
-1.638738e+09 -1.438737e+09 -1.598737e+09 -2.546734e+00 3.103245e+01 -5.351143e+00
-2.075279e+09 -1.875279e+09 -2.035279e+09 1.167910e+02 8.535095e+00 -9.554351e+00
-2.732534e+09 -2.532534e+09 -2.692534e+09 1.849059e+02 9.173812e+00 1.202336e+01
-1.602350e+09 -1.402349e+09 -1.562349e+09 8.361021e+01 3.393991e+01 -2.804414e+01
-2.879955e+09 -2.679954e+09 -2.839954e+09 -2.265017e+02 -1.036673e+01 -2.972960e+01
-2.785822e+09 -2.585820e+09 -2.745821e+09 -1.282906e+02 -1.057116e+01 -5.281279e+01
-4.106972e+09 -3.906973e+09 -4.066973e+09 1.178231e+03 -5.686575e+02 3.304639e+02
-2.267605e+09 -2.067605e+09 -2.227604e+09 3.860567e+02 -4.050918e+02 1.197293e+02
-3.204761e+09 -3.004763e+09 -3.164763e+09 -2.026804e+02 -1.868306e+01 -6.675995e+00
-3.709876e+09 -3.509878e+09 -3.669877e+09 -1.168551e+01 -1.227794e+01 1.840965e+00
-2.300320e+09 -2.100319e+09 -2.260319e+09 -1.557438e+02 -2.217209e+01 -3.731556e+01
-3.258683e+09 -3.058683e+09 -3.218683e+09 -2.074394e+02 -3.128101e+01 -5.566194e+01
-2.565675e+09 -2.365674e+09 -2.525675e+09 -1.385619e+02 -3.538690e+01 4.954575e+00
-4.133625e+09 -3.933631e+09 -4.093626e+09 1.361748e+01 -4.599487e+01 -1.515028e+01
-3.472852e+09 -3.272851e+09 -3.432851e+09 -1.549711e+02 2.767273e+00 -3.477516e+01
-2.137596e+09 -1.937595e+09 -2.097596e+09 -1.652193e+02 -2.789132e+01 -3.719969e+01
-3.115565e+09 -2.915565e+09 -3.075565e+09 -2.766109e+02 -3.688439e+01 1.140023e+01
-2.704055e+09 -2.504058e+09 -2.664054e+09 -2.728314e+01 8.916020e+00 -1.466913e+02
-5.009985e+09 -4.809996e+09 -4.969990e+09 3.279666e+02 -3.028620e+02 9.290381e+01
-1.793427e+09 -1.593427e+09 -1.753427e+09 -2.471143e+02 -6.915070e+00 2.164432e+01
-2.149705e+09 -1.949705e+09 -2.109705e+09 -2.285911e+02 -7.160835e+00 1.318190e+00
-3.460257e+09 -3.260255e+09 -3.420257e+09 -3.444208e+03 -4.722925e+02 4.823161e+02
-2.473685e+09 -2.273689e+09 -2.433686e+09 -1.387336e+03 -9.228912e+02 -2.265334e+02
-2.972182e+09 -2.772187e+09 -2.932184e+09 -7.044434e+02 -8.508458e+02 -1.141909e+02
-1.792849e+09 -1.592857e+09 -1.752850e+09 -1.412572e+03 -1.498166e+03 -4.097149e+02
-2.700907e+09 -2.500911e+09 -2.660907e+09 1.016130e+02 1.977002e+01 2.723040e+01
-1.590965e+09 -1.390972e+09 -1.550965e+09 -2.148670e+03 -1.773751e+03 -1.665990e+02
-2.142876e+09 -1.942880e+09 -2.102877e+09 -1.546069e+03 -1.073104e+03 -3.240538e+02
-2.623638e+09 -2.423642e+09 -2.583639e+09 -1.787970e+03 -1.409623e+03 -5.606436e+02
-1.568347e+09 -1.368344e+09 -1.528347e+09 -1.025865e+03 -1.517693e+03 -1.243018e+03
-2.194095e+09 -1.994091e+09 -2.154095e+09 -2.317248e+03 -2.935964e+03 -1.704882e+03
-1.593460e+09 -1.393456e+09 -1.553458e+09 -3.191328e+03 -2.477764e+03 -1.814534e+03
-2.108057e+09 -1.908053e+09 -2.068055e+09 -3.416373e+02 -1.113655e+03 -7.793169e+02
-2.160293e+09 -1.960289e+09 -2.120291e+09 -1.681536e+03 -1.606369e+03 -6.439323e+02
-3.636915e+09 -3.436913e+09 -3.596916e+09 -2.921689e+01 -3.979272e+02 -6.475541e+01
-3.962879e+09 -3.762876e+09 -3.922879e+09 3.372688e+03 5.029263e+02 -3.772397e+02
-1.812276e+09 -1.612272e+09 -1.772275e+09 -1.186049e+03 -1.840822e+03 -1.275424e+03
-3.890851e+09 -3.690851e+09 -3.850850e+09 -6.087094e+01 -3.148646e+01 -3.787024e+01
-2.646870e+09 -2.446874e+09 -2.606870e+09 -1.320186e+03 -8.982238e+02 -3.875210e+02
-3.395300e+09 -3.195299e+09 -3.355299e+09 -1.006019e+02 7.832192e+00 2.813425e+01
-3.303309e+09 -3.103312e+09 -3.263309e+09 -6.386002e+02 -3.430008e+02 -1.124558e+02
-2.926748e+09 -2.726749e+09 -2.886748e+09 -1.228357e+03 -8.514299e+02 -2.404439e+02
-1.820586e+09 -1.620586e+09 -1.780584e+09 -8.804355e+02 -3.409645e+02 -1.853640e+02
-1.533241e+09 -1.333245e+09 -1.493247e+09 -2.274380e+03 -3.998408e+02 7.390633e+02
-4.302400e+09 -4.102398e+09 -4.262401e+09 7.689767e+02 -7.514377e+02 6.673014e+02
-1.820213e+09 -1.620216e+09 -1.780213e+09 -5.967055e+02 -4.953203e+02 -9.192302e+01
-3.844289e+09 -3.644291e+09 -3.804291e+09 1.930611e+00 -4.674966e+00 1.051958e-02
-4.820175e+09 -4.620175e+09 -4.780175e+09 4.346632e+02 -1.813897e+01 -1.338914e+01
-3.268754e+09 -3.068756e+09 -3.228754e+09 -1.395750e+02 -2.132581e+02 -8.480066e+01
-2.889419e+09 -2.689422e+09 -2.849421e+09 -1.668280e+03 -1.084262e+03 -4.604050e+02
-4.028902e+09 -3.828904e+09 -3.988901e+09 -2.381151e+02 -3.127486e+01 -1.601368e+01
-3.406871e+09 -3.206872e+09 -3.366871e+09 -1.138640e+03 -7.835261e+02 -3.330854e+02
-2.930931e+09 -2.730937e+09 -2.890932e+09 8.504318e+01 -1.783675e+02 3.202142e+01
-3.187783e+09 -2.987786e+09 -3.147784e+09 -8.319298e+02 -5.689706e+02 -2.275970e+02
-3.361364e+09 -3.161364e+09 -3.321363e+09 -7.905722e+02 -2.976516e+02 -2.480646e+02
-2.915806e+09 -2.715813e+09 -2.875808e+09 4.908412e+01 -2.525093e+02 1.248167e+02
-4.305820e+09 -4.105813e+09 -4.265822e+09 7.115316e+02 -1.699671e+03 -1.574116e+03
-3.643021e+09 -3.443019e+09 -3.603019e+09 -8.145442e+01 -1.042879e+01 -6.133848e+01
-1.773824e+09 -1.573825e+09 -1.733822e+09 -1.634000e+03 -9.207754e+02 -2.614880e+02
-3.448118e+09 -3.248124e+09 -3.408119e+09 9.865826e+02 1.397195e+02 -3.935332e+01
-1.916533e+09 -1.716534e+09 -1.876532e+09 -1.057544e+03 -8.207037e+02 -3.265952e+02
-2.789318e+09 -2.589323e+09 -2.749319e+09 -4.798710e+02 -4.888013e+02 -1.591108e+02
-1.565544e+09 -1.365546e+09 -1.525543e+09 -7.289924e+02 -2.856509e+02 7.190800e+01
-3.930250e+09 -3.730248e+09 -3.890249e+09 -3.475755e+02 -4.649505e+01 -2.226633e+01
-4.102014e+09 -3.902012e+09 -4.062013e+09 -3.605978e+02 -4.530897e+01 -8.153393e+01
-2.961563e+09 -2.761569e+09 -2.921564e+09 1.863776e+01 1.747505e+01 -9.524424e+00
-2.941795e+09 -2.741801e+09 -2.901795e+09 3.472274e+01 1.431352e+01 9.542235e-01
-4.992685e+09 -4.792686e+09 -4.952686e+09 4.387441e+02 -2.026224e+01 -1.018957e+01
-4.305488e+09 -4.105487e+09 -4.265487e+09 -6.080182e+02 -3.097587e+01 -1.806327e+01
-1.890747e+09 -1.690746e+09 -1.850746e+09 -1.428734e+02 -1.392001e+01 -3.852551e+01
-4.992427e+09 -4.792426e+09 -4.952426e+09 -5.046635e+02 -7.894215e+00 -1.682827e+00
-1.789078e+09 -1.589088e+09 -1.749089e+09 1.045222e+03 1.984915e+01 3.379978e+03
-4.650979e+09 -4.450978e+09 -4.610978e+09 -2.810327e+02 -8.412397e+00 -5.039331e+01
-3.837086e+09 -3.637087e+09 -3.797087e+09 2.293132e+00 -2.575426e+00 -2.319283e-01
-3.312630e+09 -3.112631e+09 -3.272631e+09 1.019303e+02 1.496365e+01 -5.707415e+01
-4.993768e+09 -4.793768e+09 -4.953768e+09 1.900506e+02 6.402896e+00 -4.672096e+01
-3.924105e+09 -3.724103e+09 -3.884104e+09 -3.644766e+02 -3.537031e+01 -2.142531e+01
-4.063690e+09 -3.863688e+09 -4.023688e+09 -2.388350e+02 -4.018357e+01 8.873357e+00
-4.265459e+09 -4.065458e+09 -4.225458e+09 -1.516908e+02 -5.907630e-01 6.019839e+00
-2.787210e+09 -2.587213e+09 -2.747210e+09 7.912030e+00 -1.459498e+02 -3.657478e+01
-2.056338e+09 -1.856337e+09 -2.016337e+09 -1.426241e+02 -1.889094e+01 -2.995314e+01
-2.729339e+09 -2.529338e+09 -2.689338e+09 -5.032796e+01 -8.494148e+00 -1.682213e+00
-3.093048e+09 -2.893056e+09 -3.053054e+09 -3.451476e+00 7.185516e+00 3.143811e+02
-1.595590e+09 -1.395589e+09 -1.555589e+09 -9.656626e+01 -2.654352e+01 1.533029e+01
-2.373997e+09 -2.173999e+09 -2.333998e+09 -4.430878e+00 -3.001086e+00 3.813430e+00
-2.366845e+09 -2.166846e+09 -2.326846e+09 2.940576e+01 1.465487e+00 3.616947e+00
-2.201232e+09 -2.001232e+09 -2.161232e+09 -2.093253e+02 -1.118286e+01 -1.281157e+01
-2.801712e+09 -2.601711e+09 -2.761712e+09 -7.131209e+01 -2.507814e+01 -7.119073e+00
-1.796783e+09 -1.596783e+09 -1.756783e+09 -1.562100e+02 -1.454587e+01 -3.356623e+01
-2.963300e+09 -2.763302e+09 -2.923299e+09 -8.383459e+02 7.937209e+01 -9.186948e+01
-1.920104e+09 -1.720104e+09 -1.880104e+09 -2.305037e+02 -3.960506e+01 -2.563133e+01
-1.921210e+09 -1.721211e+09 -1.881209e+09 -1.966425e+02 4.205125e+01 -1.317588e+02
-2.557889e+09 -2.357894e+09 -2.517889e+09 9.031762e+02 3.653251e+02 -8.250886e+01
-1.707484e+09 -1.507488e+09 -1.667484e+09 2.353197e+02 -3.351636e+00 9.070879e+00
-1.789913e+09 -1.589919e+09 -1.749914e+09 4.502017e+02 4.500863e+01 -6.249883e+01
-1.872319e+09 -1.672321e+09 -1.832321e+09 -3.195073e+02 -3.806860e+01 4.147397e+01
-1.587682e+09 -1.387688e+09 -1.547682e+09 7.302979e+02 9.137062e+01 7.517182e+01
-2.634050e+09 -2.434055e+09 -2.594050e+09 7.294867e+02 9.171326e+01 -9.498206e+01
-4.112360e+09 -3.912360e+09 -4.072361e+09 -1.972004e+03 -4.120753e+01 1.818417e+02
-4.650299e+09 -4.450297e+09 -4.610298e+09 -2.766111e+02 1.755155e+00 -5.327436e+01
-2.087528e+09 -1.887533e+09 -2.047528e+09 6.921233e+02 4.676367e+01 8.478991e+00
-2.788734e+09 -2.588743e+09 -2.748742e+09 5.728516e+01 9.543195e+01 3.885721e+02
-2.826506e+09 -2.626516e+09 -2.786514e+09 -9.577300e+02 -1.023152e+02 1.692042e+03
-3.025950e+09 -2.825961e+09 -2.985958e+09 1.462113e+02 -3.316143e+00 3.525353e+02
-2.574526e+09 -2.374525e+09 -2.534526e+09 -3.306703e+02 -4.884178e+01 -1.301694e+02
-2.053559e+09 -1.853559e+09 -2.013562e+09 6.392214e+02 -3.740607e+02 -1.530936e+02
-2.573439e+09 -2.373448e+09 -2.533446e+09 -9.533903e+02 6.554489e+00 1.289866e+03
-1.707486e+09 -1.507485e+09 -1.667485e+09 -5.582539e+01 -8.397564e+00 -6.388172e+01
-3.961542e+09 -3.761543e+09 -3.921542e+09 -1.692005e+03 3.412943e+02 1.090025e+01
-1.788632e+09 -1.588630e+09 -1.748631e+09 -2.183280e+02 -3.554497e+01 -1.018312e+02
-1.586402e+09 -1.386401e+09 -1.546401e+09 -3.381632e+02 -4.895155e+01 -1.238481e+01
-2.651602e+09 -2.451601e+09 -2.611601e+09 -3.006130e+02 -3.350366e+01 -7.653351e+01
-2.071682e+09 -1.871681e+09 -2.031682e+09 -3.012668e+02 -1.939162e+01 -4.331228e+01
-4.768280e+09 -4.568281e+09 -4.728279e+09 -1.566881e+02 -1.070748e+02 -2.287746e+01
-2.193667e+09 -1.993676e+09 -2.153671e+09 -2.076795e+03 -3.179171e+03 -6.200465e+02
-3.963487e+09 -3.763493e+09 -3.923488e+09 9.337412e+02 2.541613e+02 -1.167478e+02
-2.699254e+09 -2.499253e+09 -2.659253e+09 -6.295700e+01 -5.087537e+00 -5.471605e+01
-4.646181e+09 -4.446179e+09 -4.606180e+09 -5.268212e+02 -9.669471e+01 2.978575e+01
-2.805059e+09 -2.605067e+09 -2.765062e+09 -3.063717e+02 -3.950234e+02 -6.224382e+01
-3.601828e+09 -3.401829e+09 -3.561827e+09 -2.988210e+01 -6.644896e+01 -2.293613e+01
-1.789768e+09 -1.589778e+09 -1.749770e+09 -9.111843e+02 -1.748924e+03 -2.072116e+02
-3.466084e+09 -3.266086e+09 -3.426084e+09 -9.525472e+02 2.614316e+01 -1.879862e+01
-2.559533e+09 -2.359542e+09 -2.519537e+09 -2.026890e+03 -2.891381e+03 -4.404707e+02
-3.454532e+09 -3.254538e+09 -3.414533e+09 -4.579625e+02 1.357293e+02 -1.398787e+01
-1.891262e+09 -1.691270e+09 -1.851264e+09 -2.862455e+03 -2.884982e+03 -7.881347e+02
-2.158263e+09 -1.958271e+09 -2.118265e+09 -1.689411e+03 -1.452251e+03 -2.786716e+02
-3.666833e+09 -3.466837e+09 -3.626833e+09 3.956831e+00 2.436423e+01 -8.492175e+01
-3.629001e+09 -3.429006e+09 -3.589001e+09 -1.276003e+01 1.494505e+01 -8.785461e+01
-2.622541e+09 -2.422549e+09 -2.582544e+09 -1.503404e+03 -1.936811e+03 -4.462939e+02
-2.819081e+09 -2.619080e+09 -2.779080e+09 3.712788e+01 1.990829e+01 -3.864468e+01
-2.879166e+09 -2.679168e+09 -2.839167e+09 2.498559e+02 3.327615e+01 -1.389152e+01
-3.585370e+09 -3.385372e+09 -3.545371e+09 6.299366e+00 1.441662e+01 -8.879972e-01
-2.466162e+09 -2.266161e+09 -2.426161e+09 2.289935e+01 1.167372e+01 -1.298150e+01
-1.794524e+09 -1.594523e+09 -1.754523e+09 3.457025e+01 1.890678e+00 -6.145895e+01
-1.892804e+09 -1.692803e+09 -1.852803e+09 9.217546e+01 2.102072e+01 -3.386797e+01
-2.681190e+09 -2.481192e+09 -2.641191e+09 6.314412e+00 2.864748e+01 -5.596394e-01
-2.146330e+09 -1.946329e+09 -2.106329e+09 5.579267e+01 1.373298e+01 -3.499856e+01
-2.646890e+09 -2.446889e+09 -2.606889e+09 8.737228e+01 -1.464722e-01 -2.656021e+01
-2.414645e+09 -2.214646e+09 -2.374646e+09 -2.136622e+02 -6.143788e+01 2.014219e+01
-4.123537e+09 -3.923538e+09 -4.083538e+09 9.159661e+00 7.344082e+00 -2.357064e+01
-3.604137e+09 -3.404138e+09 -3.564138e+09 6.958009e+00 2.719804e+01 -1.677066e+00
-2.596042e+09 -2.396051e+09 -2.556049e+09 -2.630404e+01 -3.935643e+00 2.686978e+02
-4.930470e+09 -4.730480e+09 -4.890472e+09 -1.936888e+03 6.554757e+01 2.982187e+02
-2.704659e+09 -2.504665e+09 -2.664660e+09 5.478236e+01 1.874009e+01 1.902086e+01
-3.961705e+09 -3.761710e+09 -3.921706e+09 -1.628928e+03 6.673212e+02 4.737637e+01
-2.959539e+09 -2.759546e+09 -2.919540e+09 6.074499e+02 1.539196e+02 -9.532958e+00
-1.586241e+09 -1.386245e+09 -1.546241e+09 8.152217e+02 3.912899e+01 1.207979e+02
-1.590644e+09 -1.390646e+09 -1.550645e+09 -2.767929e+02 -5.219947e+01 3.391736e+01
-3.614404e+09 -3.414409e+09 -3.574404e+09 -9.598586e-01 2.410049e+01 -7.477762e+01
-2.208857e+09 -2.008859e+09 -2.168858e+09 -6.146150e+01 4.905841e+00 3.230184e+00
-2.962629e+09 -2.762631e+09 -2.922630e+09 -2.758804e+02 -1.613221e+01 6.186909e+00
-4.818956e+09 -4.618954e+09 -4.778956e+09 -2.023736e+03 -1.255328e+02 3.841850e+02
-4.134391e+09 -3.934390e+09 -4.094390e+09 -1.151787e+03 -1.059717e+02 1.445401e+02
-3.407381e+09 -3.207382e+09 -3.367382e+09 -1.824076e+02 -2.444081e+01 5.805859e+01
-2.156925e+09 -1.956926e+09 -2.116926e+09 -2.697253e+02 -3.239768e+01 1.927698e+01
-3.460441e+09 -3.260439e+09 -3.420440e+09 -6.374587e+01 -1.661674e+02 2.819846e+01
-2.613527e+09 -2.413528e+09 -2.573528e+09 -2.373483e+02 -3.988120e+01 -3.088108e+00
-4.062694e+09 -3.862694e+09 -4.022693e+09 3.736531e+02 -2.560917e+02 9.102368e+01
-2.101960e+09 -1.901961e+09 -2.061961e+09 -1.764949e+02 -2.634349e+01 -2.353341e+01
-4.303868e+09 -4.103866e+09 -4.263867e+09 -6.997503e+02 7.658504e+00 -3.348870e+01
-4.992897e+09 -4.792894e+09 -4.952896e+09 6.963135e+02 -1.135521e+02 -1.042818e+02
-4.820743e+09 -4.620741e+09 -4.780742e+09 8.531275e+02 -3.726262e+00 -9.247487e+01
-2.758737e+09 -2.558736e+09 -2.718736e+09 -5.477135e+00 1.715662e+01 -2.554332e+01
-4.293099e+09 -4.093096e+09 -4.253098e+09 -2.913621e+02 4.740397e+01 5.602799e+01
-2.628554e+09 -2.428552e+09 -2.588553e+09 5.050401e+01 1.456005e+00 -6.107328e+00
-3.270666e+09 -3.070665e+09 -3.230665e+09 -5.978883e-01 3.283025e+00 1.187606e+00
-3.174209e+09 -2.974207e+09 -3.134208e+09 5.404570e+01 4.946182e+00 -1.548948e+01
-3.005478e+09 -2.805477e+09 -2.965477e+09 3.764380e+01 7.913526e+00 -2.818063e+01
-2.936340e+09 -2.736345e+09 -2.896340e+09 1.207696e+01 1.464826e+01 -3.419764e+01
-1.833672e+09 -1.633671e+09 -1.793671e+09 1.637454e+01 1.098925e+01 -2.417582e+01
-3.801368e+09 -3.601374e+09 -3.761369e+09 -1.477621e+02 1.251380e+02 -6.148798e+01
-2.314623e+09 -2.114623e+09 -2.274623e+09 -2.832079e+02 -1.723375e+01 -5.669410e+00
-1.825993e+09 -1.625991e+09 -1.785992e+09 8.013785e+00 5.182556e+00 -2.360895e+01
-3.256943e+09 -3.056941e+09 -3.216942e+09 3.066979e+01 -4.571071e+00 6.594509e-01
-5.002939e+09 -4.802938e+09 -4.962938e+09 -1.738332e+02 3.593567e-02 9.047142e+00
-4.983635e+09 -4.783634e+09 -4.943634e+09 1.496233e+02 -7.635391e+00 1.341976e+01
-4.834288e+09 -4.634287e+09 -4.794287e+09 1.557842e+02 2.773224e+01 -8.341285e+00
-4.983634e+09 -4.783633e+09 -4.943634e+09 2.411506e+02 7.418422e+00 1.384247e+01
-4.132790e+09 -3.932789e+09 -4.092789e+09 -3.093503e+02 9.665193e+01 -1.749709e+00
-4.304504e+09 -4.104503e+09 -4.264503e+09 4.912576e+00 4.006663e+01 9.857798e+00
-4.991163e+09 -4.791162e+09 -4.951162e+09 -2.889639e+02 -1.625697e+01 2.266325e+01
-4.985115e+09 -4.785112e+09 -4.945114e+09 2.128096e+02 -1.512551e+01 3.757597e+01
-4.991400e+09 -4.791398e+09 -4.951399e+09 -6.559159e+02 -4.731684e+01 -7.290896e+00
-4.298649e+09 -4.098646e+09 -4.258648e+09 4.522858e+02 -3.201736e+01 -6.726686e+01
-4.821636e+09 -4.621643e+09 -4.781638e+09 7.736201e+02 -1.058484e+02 1.623263e+01
-1.765962e+09 -1.565961e+09 -1.725961e+09 5.874216e+01 6.486356e+00 -2.162685e+01
-1.840476e+09 -1.640474e+09 -1.800475e+09 2.885261e+01 5.346623e+00 -1.584528e+01
-1.591056e+09 -1.391056e+09 -1.551056e+09 2.265345e+02 5.456510e+01 7.770106e+00
-1.771415e+09 -1.571414e+09 -1.731414e+09 6.054226e+01 2.405267e+00 -4.887952e+00
-3.961461e+09 -3.761465e+09 -3.921463e+09 4.805342e+02 1.342702e+01 -1.532591e+02
-2.083969e+09 -1.883967e+09 -2.043968e+09 5.970325e+01 2.810022e+00 -1.148070e+01
-4.991145e+09 -4.791148e+09 -4.951145e+09 1.074255e+03 -9.951676e+01 -5.969175e+02
-5.013419e+09 -4.813423e+09 -4.973421e+09 2.627442e+02 3.457155e+01 -3.110760e+02
-2.153504e+09 -1.953503e+09 -2.113503e+09 5.235915e-01 9.780852e-01 -2.721653e+01
-3.961657e+09 -3.761659e+09 -3.921659e+09 1.036690e+03 3.710115e+01 -1.063611e+02
-3.961257e+09 -3.761259e+09 -3.921258e+09 1.172912e+03 1.373785e+01 -2.815567e+02
-4.303127e+09 -4.103128e+09 -4.263128e+09 9.162841e+02 -1.766380e+01 -5.850088e+01
-2.441669e+09 -2.241667e+09 -2.401667e+09 2.835329e+01 -3.177872e+00 -2.665200e+01
-3.961403e+09 -3.761405e+09 -3.921404e+09 -4.282615e+02 -2.259864e+01 3.891513e+01
-3.961154e+09 -3.761157e+09 -3.921156e+09 -7.291782e+02 -2.509826e+01 -4.984336e+01
-1.716873e+09 -1.516875e+09 -1.676874e+09 -2.253253e+01 -6.070348e+00 6.487892e+00
-2.321924e+09 -2.121925e+09 -2.281925e+09 -1.050995e+01 -2.639429e+00 9.876249e+00
-2.154043e+09 -1.954045e+09 -2.114045e+09 -7.016998e+01 -7.923173e+00 3.165256e+01
-3.342996e+09 -3.142997e+09 -3.302997e+09 -6.148690e+01 -8.017528e+00 -2.172439e+01
-2.163480e+09 -1.963482e+09 -2.123481e+09 -5.772164e+01 -1.023295e+01 9.799802e+00
-3.962223e+09 -3.762230e+09 -3.922238e+09 2.019966e+03 5.249376e+03 -4.764364e+02
-4.851947e+09 -4.651957e+09 -4.811953e+09 -1.024666e+03 6.835200e+01 -1.803204e+02
-3.961398e+09 -3.761399e+09 -3.921411e+09 4.091208e+03 4.595127e+03 -2.141888e+03
-3.961117e+09 -3.761111e+09 -3.921124e+09 -8.584482e+02 -1.417941e+03 2.857769e+03
-4.646548e+09 -4.446542e+09 -4.606554e+09 -2.923828e+03 6.852963e+02 8.802912e+02
-1.583810e+09 -1.383810e+09 -1.543810e+09 1.892171e+02 4.758822e+01 -2.250364e+00
-2.147143e+09 -1.947146e+09 -2.107142e+09 5.901843e+01 -2.658313e+01 3.784421e+01
-2.931136e+09 -2.731140e+09 -2.891136e+09 5.162878e+01 2.964340e+01 -1.396912e+01
-1.593252e+09 -1.393254e+09 -1.553254e+09 -9.326773e+01 -7.431040e+00 2.430006e+01
-2.939257e+09 -2.739261e+09 -2.899257e+09 6.328499e+01 1.427222e+01 -9.245036e+00
-1.767910e+09 -1.567913e+09 -1.727909e+09 1.969077e+02 -9.908788e+00 9.805820e+00
-1.567652e+09 -1.367654e+09 -1.527650e+09 5.113599e+02 -7.886449e+01 3.894007e+01
-1.591609e+09 -1.391605e+09 -1.551607e+09 -1.681396e+03 -1.439954e+03 -7.451031e+02
-1.637344e+09 -1.437341e+09 -1.597342e+09 -3.290922e+02 -6.892294e+02 -9.259814e+01
-2.070803e+09 -1.870805e+09 -2.030805e+09 2.400167e+01 8.536233e+00 2.039513e+01
-2.845918e+09 -2.645917e+09 -2.805916e+09 -2.591835e+02 -2.526701e+02 -4.551078e-02
-4.301664e+09 -4.101654e+09 -4.261675e+09 1.478536e+03 4.329735e+03 -4.152799e+03
-3.056971e+09 -2.856973e+09 -3.016972e+09 -1.531192e+01 6.061196e-01 1.024761e+01
-1.747811e+09 -1.547810e+09 -1.707810e+09 -3.336663e+01 -7.432497e+00 -1.463055e+01
-2.931128e+09 -2.731126e+09 -2.891127e+09 -3.558727e+01 4.723990e+00 -2.181999e+01
-2.119739e+09 -1.919741e+09 -2.079741e+09 -5.232488e+01 -1.131690e+01 6.423233e+00
-2.939249e+09 -2.739248e+09 -2.899248e+09 -3.419758e+01 -7.050037e+00 -2.996177e+01
-4.650147e+09 -4.450154e+09 -4.610148e+09 6.760424e+02 6.365921e+01 -7.985842e+01
-2.166737e+09 -1.966739e+09 -2.126738e+09 2.590667e+01 1.538433e+00 2.225599e+01
-2.191521e+09 -1.991523e+09 -2.151522e+09 2.181566e+01 3.029951e+00 1.711892e+01
-2.184757e+09 -1.984756e+09 -2.144756e+09 1.128860e+01 8.100597e+00 8.234448e+00
-2.942477e+09 -2.742476e+09 -2.902476e+09 -4.752947e-01 -1.678289e+00 -4.854751e+00
-2.631356e+09 -2.431358e+09 -2.591358e+09 -3.145605e+01 4.477436e+00 -3.299121e+00
-1.791279e+09 -1.591281e+09 -1.751281e+09 -6.000765e+01 -3.868904e+00 3.644526e+00
-2.712248e+09 -2.512247e+09 -2.672247e+09 6.250255e-01 8.726080e+00 -5.602910e+00
-4.134955e+09 -3.934954e+09 -4.094954e+09 4.113545e+01 -1.378514e+00 -1.208820e-01
-2.561113e+09 -2.361111e+09 -2.521112e+09 -3.317833e+02 -5.538606e+01 -1.405073e+02
-1.965931e+09 -1.765929e+09 -1.925930e+09 -4.441120e+01 -9.813219e+00 -3.230497e+01
-1.656122e+09 -1.456121e+09 -1.616121e+09 -4.313435e+01 -1.376334e+01 -1.007970e+02
-3.608272e+09 -3.408271e+09 -3.568271e+09 -8.388357e+01 -1.043635e+01 -5.040460e+01
-1.789331e+09 -1.589330e+09 -1.749330e+09 -1.902670e+02 -3.855207e+01 -1.284157e+02
-1.590645e+09 -1.390643e+09 -1.550644e+09 -3.531079e+02 -7.715728e+01 -2.986617e+01
-2.642458e+09 -2.442457e+09 -2.602457e+09 -3.278517e+02 -3.042995e+01 -1.097236e+02
-3.492111e+09 -3.292110e+09 -3.452111e+09 1.132541e+02 6.978053e+00 -2.332469e+00
-2.727535e+09 -2.527535e+09 -2.687535e+09 -2.336989e+00 2.253330e+01 -3.081468e+00
-4.992425e+09 -4.792432e+09 -4.952427e+09 4.139381e+02 4.883181e+01 1.600145e+01
-1.583832e+09 -1.383831e+09 -1.543832e+09 4.276895e+01 2.937098e+01 -1.125276e+01
-2.561113e+09 -2.361119e+09 -2.521114e+09 6.101133e+02 3.020608e+02 2.700102e+00
-1.792810e+09 -1.592816e+09 -1.752810e+09 2.499895e+02 7.157193e+01 -6.555707e+01
-2.057620e+09 -1.857625e+09 -2.017620e+09 3.735899e+02 -1.226301e+01 9.823995e+00
-1.590645e+09 -1.390651e+09 -1.550645e+09 5.355645e+02 8.636893e+01 4.006622e+01
-1.656121e+09 -1.456126e+09 -1.616121e+09 1.846472e+02 6.537787e+00 -1.404404e+01
-1.965939e+09 -1.765943e+09 -1.925938e+09 1.665024e+02 -3.377683e+01 3.125399e+01
-2.208117e+09 -2.008122e+09 -2.168117e+09 1.098730e+02 4.871016e+00 -2.248861e+01
-2.624541e+09 -2.424547e+09 -2.584542e+09 5.388696e+02 1.492293e+02 -8.404467e+01
-2.695394e+09 -2.495399e+09 -2.655394e+09 8.537566e+01 6.535448e+00 4.696015e+01
-2.155753e+09 -1.955758e+09 -2.115753e+09 5.611295e+02 3.940966e+01 -7.989249e+00
-1.892373e+09 -1.692377e+09 -1.852373e+09 7.544905e+02 2.970465e+01 5.959157e+00
-3.415832e+09 -3.215833e+09 -3.375832e+09 4.327139e+02 -2.360389e+02 1.353761e+02
-1.884316e+09 -1.684315e+09 -1.844315e+09 2.262998e+02 3.229038e+01 2.857977e+01
-4.978373e+09 -4.778372e+09 -4.938373e+09 -9.688792e+02 -5.838818e+00 1.140999e+01
-4.978374e+09 -4.778363e+09 -4.938378e+09 1.442585e+03 -1.081179e+03 -4.981690e+02
-4.631919e+09 -4.431911e+09 -4.591921e+09 1.751556e+03 -2.055670e+01 -9.561773e+02
-1.884560e+09 -1.684560e+09 -1.844560e+09 2.490293e+02 4.125555e+01 -4.955197e+00
-2.072914e+09 -1.872914e+09 -2.032914e+09 1.456452e+02 2.044869e+01 3.191904e+01
-4.978373e+09 -4.778380e+09 -4.938377e+09 7.611784e+02 2.520413e+02 -3.204676e+01
-2.683277e+09 -2.483277e+09 -2.643276e+09 2.028646e+01 -1.637723e+00 -1.113035e+02
-3.948674e+09 -3.748682e+09 -3.908678e+09 6.719314e+02 9.346034e+02 -2.490952e+02
-3.962778e+09 -3.762766e+09 -3.922782e+09 -1.306241e+02 5.970593e+02 2.595984e+03
-2.421290e+09 -2.221290e+09 -2.381290e+09 1.673093e+02 3.605899e+01 2.388451e+01
-1.797745e+09 -1.597745e+09 -1.757745e+09 1.542327e+02 2.067194e+01 8.915970e+00
-2.846003e+09 -2.646002e+09 -2.806003e+09 2.243085e+02 3.956882e+01 -4.811156e+00
-2.049711e+09 -1.849711e+09 -2.009711e+09 2.128707e+02 1.015291e+01 -9.698907e-02
-3.962778e+09 -3.762775e+09 -3.922776e+09 1.592826e+00 1.656335e+02 9.121186e+01
-2.862473e+09 -2.662470e+09 -2.822471e+09 1.810999e+02 5.357402e+02 1.932214e+01
-2.842930e+09 -2.642932e+09 -2.802931e+09 3.505211e+01 1.128787e+01 5.139387e-01
-2.428627e+09 -2.228629e+09 -2.388628e+09 1.065433e+02 2.119896e+01 3.658239e+01
-2.845343e+09 -2.645344e+09 -2.805344e+09 6.053223e+01 -6.307150e-01 6.104717e+00
-2.573761e+09 -2.373762e+09 -2.533762e+09 2.183867e+01 1.615820e+00 2.911689e+01
-2.190929e+09 -1.990926e+09 -2.150927e+09 2.993273e+03 1.976914e+03 -1.083093e+03
-2.617365e+09 -2.417367e+09 -2.577366e+09 5.285457e+01 -4.136199e+00 -9.920976e+00
-3.846748e+09 -3.646755e+09 -3.806750e+09 4.337325e+01 -1.961014e+02 1.004180e+02
-1.784498e+09 -1.584499e+09 -1.744499e+09 2.507475e+01 2.191476e+00 1.202270e+01
-3.637375e+09 -3.437377e+09 -3.597375e+09 -1.351767e+02 -1.386133e+02 -3.553814e+01
-1.892976e+09 -1.692975e+09 -1.852975e+09 3.159735e+01 -1.045935e+01 -6.126054e+01
-3.962996e+09 -3.762996e+09 -3.923002e+09 -2.516391e+03 -2.637386e+03 -9.887551e+02
-4.312812e+09 -4.112810e+09 -4.272819e+09 -2.010850e+03 -2.869042e+03 -1.396936e+03
-3.908645e+09 -3.708653e+09 -3.868651e+09 2.766820e+02 -1.568550e+03 1.691840e+02
-2.104217e+09 -1.904216e+09 -2.064216e+09 -7.012660e+00 -1.346747e+01 -2.228066e+01
-4.992375e+09 -4.792377e+09 -4.952377e+09 2.628577e+03 2.999918e+02 -1.324535e+02
-3.040011e+09 -2.840007e+09 -3.000009e+09 -8.569574e+02 -1.226562e+03 -3.241774e+02
-3.962996e+09 -3.762999e+09 -3.922997e+09 2.159163e+03 4.457472e+02 -9.142740e+01
-4.301455e+09 -4.101459e+09 -4.261458e+09 2.710867e+03 8.662502e+02 -1.170985e+02
-1.792823e+09 -1.592822e+09 -1.752822e+09 -3.614999e+00 -6.673483e+00 -7.851600e+01
-2.559805e+09 -2.359804e+09 -2.519803e+09 7.756122e-01 6.676589e+01 -6.751557e+01
-4.110290e+09 -3.910290e+09 -4.070289e+09 1.078231e+03 2.190883e+02 -5.181727e+01
-1.590569e+09 -1.390568e+09 -1.550568e+09 8.456085e+01 3.832141e+01 -4.613245e+01
-2.179784e+09 -1.979782e+09 -2.139783e+09 8.980295e+01 1.962674e+01 -3.714508e+01
-4.293986e+09 -4.093985e+09 -4.253985e+09 -4.121535e+02 -2.209212e+01 -1.243860e+01
-3.962995e+09 -3.762995e+09 -3.922995e+09 -5.564982e+02 -4.131740e+01 1.624353e+01
-4.133584e+09 -3.933584e+09 -4.093584e+09 -4.851368e+02 1.453401e+00 -1.410898e+01
-2.276792e+09 -2.076791e+09 -2.236791e+09 9.516187e+01 1.146194e+01 -4.111489e+01
-4.640103e+09 -4.440104e+09 -4.600104e+09 2.753631e+02 1.498150e+01 3.977519e+01
-3.229958e+09 -3.029956e+09 -3.189957e+09 -3.274598e+02 -6.826602e+01 -3.601672e+01
-4.459726e+09 -4.259728e+09 -4.419728e+09 -1.971607e+02 -4.186969e+00 1.009472e+01
-3.961432e+09 -3.761435e+09 -3.921434e+09 -1.207612e+01 1.670982e+01 3.483967e+01
-2.860545e+09 -2.660544e+09 -2.820544e+09 -7.024816e+00 -3.732655e+01 -7.907047e+00
-3.961599e+09 -3.761601e+09 -3.921600e+09 4.554642e+02 3.639968e+01 3.000541e+01
-3.501803e+09 -3.301802e+09 -3.461802e+09 -3.036612e+02 -3.096486e+01 -4.613636e+01
-4.818886e+09 -4.618893e+09 -4.778888e+09 4.635441e+02 3.027363e+02 -1.214890e+01
-1.690813e+09 -1.490811e+09 -1.650811e+09 -3.795081e+02 -9.601603e+02 -1.260436e+02
-2.695651e+09 -2.495656e+09 -2.655656e+09 1.868468e+02 -2.272557e+02 1.585211e+02
-2.159600e+09 -1.959598e+09 -2.119598e+09 -2.583639e+02 -7.237006e+01 -8.729340e+01
-2.263337e+09 -2.063336e+09 -2.223336e+09 -2.688753e+02 -9.619037e+01 -6.820092e+01
-2.184754e+09 -1.984750e+09 -2.144753e+09 -4.088228e+02 -1.085624e+03 -2.348347e+02
-2.628996e+09 -2.428994e+09 -2.588994e+09 -1.892251e+02 -2.872209e+01 -9.721534e+01
-3.962642e+09 -3.762648e+09 -3.922643e+09 4.499132e+01 2.863654e+02 -2.169758e+01
-2.137914e+09 -1.937910e+09 -2.097912e+09 -3.961084e+02 -1.001356e+03 -1.598451e+02
-1.939740e+09 -1.739737e+09 -1.899738e+09 -3.030663e+02 -7.513993e+02 -4.517969e+01
-2.895361e+09 -2.695371e+09 -2.855368e+09 4.062735e+02 4.929745e+01 8.462740e+02
-2.913059e+09 -2.713054e+09 -2.873057e+09 -2.546835e+02 -7.769953e+02 -8.770163e+01
-3.109617e+09 -2.909627e+09 -3.069624e+09 1.039173e+03 3.607404e+02 1.253292e+03
-2.919792e+09 -2.719804e+09 -2.879801e+09 1.665329e+02 2.978632e+02 1.549759e+03
-1.699115e+09 -1.499122e+09 -1.659122e+09 1.358484e+03 2.436389e+02 1.329278e+03
-2.561088e+09 -2.361094e+09 -2.521089e+09 2.017409e+02 1.976451e+02 5.471045e+01
-1.560743e+09 -1.360747e+09 -1.520743e+09 4.068761e+02 2.887507e+01 3.669539e+01
-1.637342e+09 -1.437341e+09 -1.597341e+09 -7.355254e-01 2.031443e+01 -5.034815e+00
-1.780237e+09 -1.580245e+09 -1.740244e+09 4.052192e+02 5.272711e+01 4.878554e+02
-2.768532e+09 -2.568531e+09 -2.728531e+09 5.615065e+01 4.254370e+00 1.038626e+01
-1.762884e+09 -1.562891e+09 -1.722891e+09 7.750523e+02 9.703658e+01 1.518966e+02
-2.240259e+09 -2.040258e+09 -2.200258e+09 7.107360e+00 5.820041e+00 -7.470895e-01
-2.559507e+09 -2.359507e+09 -2.519507e+09 8.153456e+01 1.278388e+01 -7.816024e+01
-1.907908e+09 -1.707917e+09 -1.867910e+09 -1.654244e+02 -4.286199e+02 -1.042674e+02
-3.245116e+09 -3.045124e+09 -3.205119e+09 -1.441867e+02 -4.620564e+02 -8.249784e+01
-2.102794e+09 -1.902793e+09 -2.062793e+09 -2.526923e+02 -3.554989e+01 -1.990694e+01
-2.567376e+09 -2.367386e+09 -2.527381e+09 -8.131811e+02 -2.669350e+03 1.779617e+02
-4.620993e+09 -4.420996e+09 -4.580994e+09 -1.876515e+03 2.139399e+02 -5.032001e+02
-1.587883e+09 -1.387895e+09 -1.547885e+09 -7.303632e+02 -2.177125e+03 5.405354e+01
-1.785650e+09 -1.585661e+09 -1.745653e+09 -7.595823e+01 -1.842819e+03 9.327695e+01
-3.961446e+09 -3.761450e+09 -3.921447e+09 1.348520e+03 3.259124e+01 -9.826480e+02
-4.650578e+09 -4.450576e+09 -4.610575e+09 3.091344e+03 8.501394e+01 -5.035267e+02
-2.155633e+09 -1.955642e+09 -2.115635e+09 -1.062318e+03 -1.680957e+03 -1.512117e+02
-2.256155e+09 -2.056164e+09 -2.216158e+09 -8.498318e+02 -2.409612e+03 -5.412023e+02
-4.818888e+09 -4.618886e+09 -4.778887e+09 -6.343904e+02 -1.056634e+01 -7.195854e+01
-4.993255e+09 -4.793254e+09 -4.953254e+09 5.275287e+02 -1.082503e+01 1.030327e+01
-4.819741e+09 -4.619742e+09 -4.779742e+09 1.202877e+03 4.157094e+01 4.022856e+01
-4.991753e+09 -4.791753e+09 -4.951753e+09 1.018047e+03 -3.478695e+01 -4.083822e+01
-4.304738e+09 -4.104738e+09 -4.264738e+09 5.748580e+02 -3.448619e+01 -1.394070e+02
-4.992307e+09 -4.792307e+09 -4.952307e+09 1.247001e+03 -1.036187e+01 -5.418422e+01
-1.943779e+09 -1.743780e+09 -1.903780e+09 3.624683e+01 1.484668e+01 1.688397e+01
-3.242928e+09 -3.042929e+09 -3.202929e+09 1.104157e+02 8.481360e+00 -9.018020e+00
-3.250183e+09 -3.050182e+09 -3.210182e+09 5.702605e+01 1.171818e+01 -2.496710e+01
-2.571665e+09 -2.371664e+09 -2.531664e+09 1.177844e+02 1.559560e+00 1.474433e+00
-1.663584e+09 -1.463584e+09 -1.623584e+09 8.418241e+01 3.333847e+01 -5.537878e+00
-1.903090e+09 -1.703089e+09 -1.863090e+09 1.509130e+02 2.029442e+01 -3.041213e+01
-2.363163e+09 -2.163162e+09 -2.323162e+09 2.227677e+02 1.176216e+01 2.885475e+00
-2.941845e+09 -2.741844e+09 -2.901844e+09 2.606276e+01 7.375050e+00 -2.924405e+01
-1.735471e+09 -1.535470e+09 -1.695470e+09 8.729199e+01 2.125840e+01 -3.969648e+01
-1.797745e+09 -1.597745e+09 -1.757745e+09 1.470810e+02 2.415272e+01 2.741500e+01
-1.590965e+09 -1.390972e+09 -1.550967e+09 -1.089197e+03 -1.799796e+03 -2.307383e+02
-2.228442e+09 -2.028443e+09 -2.188442e+09 7.994266e+01 8.225657e+00 4.868460e+00
-1.689378e+09 -1.489386e+09 -1.649380e+09 -2.789192e+03 -3.059858e+03 -6.263676e+02
-3.458069e+09 -3.258069e+09 -3.418068e+09 -1.037271e+02 1.761538e+02 -2.065594e+01
-2.101150e+09 -1.901152e+09 -2.061151e+09 9.817802e+01 1.348580e+01 2.941830e+01
-2.891632e+09 -2.691632e+09 -2.851631e+09 3.498441e+01 1.057233e+01 -4.924049e+01
-1.638793e+09 -1.438793e+09 -1.598792e+09 4.389243e+01 9.385385e+00 -7.455244e+01
-2.426297e+09 -2.226299e+09 -2.386298e+09 1.671013e+02 3.792903e+01 2.088214e+01
-2.083653e+09 -1.883654e+09 -2.043654e+09 1.743739e+02 1.365011e+01 2.191990e+01
-2.573214e+09 -2.373215e+09 -2.533215e+09 1.401103e+02 -1.999853e+00 -1.130010e+00
-1.779842e+09 -1.579844e+09 -1.739844e+09 1.095695e+02 4.109306e+00 9.859637e+00
-1.893002e+09 -1.693009e+09 -1.853003e+09 1.310969e+02 1.340328e+02 1.062542e+01
-2.871228e+09 -2.671228e+09 -2.831228e+09 -5.464663e+00 -1.486773e+01 2.252609e+00
-1.688356e+09 -1.488356e+09 -1.648356e+09 -4.195222e+02 -6.280134e+01 -3.930719e+00
-2.996573e+09 -2.796579e+09 -2.956573e+09 1.267496e+02 2.192513e+01 4.115957e+01
-2.706432e+09 -2.506433e+09 -2.666433e+09 -2.786574e+01 -3.836105e+01 1.083409e+01
-2.220733e+09 -2.020733e+09 -2.180733e+09 -3.876544e+01 -5.125475e+00 7.000771e+00
-1.778604e+09 -1.578610e+09 -1.738604e+09 1.377963e+01 9.107929e+01 -6.266391e+01
-2.258677e+09 -2.058683e+09 -2.218677e+09 6.513213e+01 1.285973e+02 9.418859e+00
-1.590579e+09 -1.390585e+09 -1.550579e+09 2.397040e+02 9.765123e+01 -1.213300e+01
-2.958308e+09 -2.758307e+09 -2.918307e+09 6.568528e+00 2.289809e+01 -4.175581e+01
-2.624373e+09 -2.424379e+09 -2.584374e+09 2.813223e+02 1.882535e+02 -8.491827e+01
-1.638618e+09 -1.438617e+09 -1.598617e+09 3.908660e+01 1.035506e+01 -9.529105e+01
-2.920439e+09 -2.720439e+09 -2.880438e+09 3.866370e+01 1.321061e+01 -6.127457e+01
-2.968564e+09 -2.768574e+09 -2.928571e+09 -7.710077e+02 -3.340190e+03 1.348551e+01
-1.638616e+09 -1.438625e+09 -1.598618e+09 -6.460866e+00 -4.377205e+02 2.462719e+01
-2.158519e+09 -1.958525e+09 -2.118519e+09 3.440617e+02 3.215835e+01 -2.203124e+01
-3.961523e+09 -3.761529e+09 -3.921534e+09 -5.803117e+01 -3.719172e+03 3.689604e+02
-2.896851e+09 -2.696853e+09 -2.856852e+09 1.403906e+02 2.335449e+01 5.346113e+00
-4.490038e+09 -4.290040e+09 -4.450039e+09 1.891982e+01 5.526353e+00 4.217931e+00
-4.164983e+09 -3.964984e+09 -4.124984e+09 6.681973e+01 -4.818049e+00 -2.079166e+00
-4.789033e+09 -4.589035e+09 -4.749034e+09 7.367107e+01 3.593147e+00 -8.401120e+00
-4.801620e+09 -4.601622e+09 -4.761621e+09 1.663365e+02 -8.785906e-01 -1.902879e+01
-2.978810e+09 -2.778812e+09 -2.938811e+09 5.121609e+01 1.406345e+01 3.664195e+01
-4.991097e+09 -4.791084e+09 -4.951103e+09 -7.898745e+02 1.717966e+03 -1.032568e+03
-2.943123e+09 -2.743124e+09 -2.903123e+09 -1.201149e+01 -6.750739e+00 7.266348e+00
-4.302073e+09 -4.102067e+09 -4.262084e+09 3.377476e+03 4.371827e+03 -2.434479e+03
-2.561067e+09 -2.361065e+09 -2.521066e+09 -9.779199e+01 -1.843738e+02 -7.699921e+01
-1.892982e+09 -1.692981e+09 -1.852981e+09 -1.997965e+02 -1.495188e+02 -4.200243e+01
-2.625783e+09 -2.425781e+09 -2.585780e+09 4.396561e+02 4.296199e+02 -6.178991e+01
-2.861560e+09 -2.661555e+09 -2.821557e+09 2.300544e+02 6.244338e+02 -1.290713e+01
-3.001109e+09 -2.801108e+09 -2.961108e+09 -2.070727e+02 -1.322881e+02 -2.067621e+01
-3.232659e+09 -3.032657e+09 -3.192658e+09 -7.704489e+00 -8.786470e+01 -5.558709e+00
-1.955413e+09 -1.755412e+09 -1.915411e+09 -2.920053e+01 -3.412126e+00 -1.334663e+02
-2.181288e+09 -1.981294e+09 -2.141289e+09 -2.518281e+02 1.435781e+02 -2.379654e+01
-2.770143e+09 -2.570151e+09 -2.730150e+09 6.179103e+02 2.609563e+02 6.493989e+02
-1.777440e+09 -1.577446e+09 -1.737441e+09 -2.108740e+02 9.813372e+01 -6.577145e+01
-2.252008e+09 -2.052014e+09 -2.212009e+09 -1.859805e+02 1.195329e+02 -1.627060e+01
-2.203180e+09 -2.003178e+09 -2.163181e+09 -2.607119e+02 -8.371673e+02 -2.334571e+02
-1.878862e+09 -1.678869e+09 -1.838863e+09 -4.104693e+01 6.827081e+01 -9.253709e+01
-1.690840e+09 -1.490846e+09 -1.650840e+09 -3.992061e+02 1.138179e+02 -6.640032e+01
-2.104578e+09 -1.904583e+09 -2.064578e+09 4.636477e+02 -2.829727e+01 2.023431e+01
-1.690434e+09 -1.490439e+09 -1.650434e+09 9.597864e+02 9.170276e+01 1.003422e+01
-2.724411e+09 -2.524417e+09 -2.684412e+09 1.924506e+01 1.840711e+01 -1.198627e+01
-2.174459e+09 -1.974464e+09 -2.134458e+09 3.044963e+02 4.397950e+01 2.472796e+00
-3.136522e+09 -2.936528e+09 -3.096523e+09 1.906687e+01 -2.267329e+00 6.283479e-01
-2.617680e+09 -2.417687e+09 -2.577681e+09 -3.776881e+01 2.246038e+02 -2.868823e+01
-2.144278e+09 -1.944284e+09 -2.104278e+09 8.250820e+01 5.753189e+01 -3.292494e+01
-1.891841e+09 -1.691847e+09 -1.851842e+09 -4.783080e+02 1.913888e+02 -5.175397e+01
-2.279181e+09 -2.079186e+09 -2.239181e+09 -3.716084e+02 1.179427e+02 -3.205109e+01
-1.589415e+09 -1.389421e+09 -1.549416e+09 -3.403431e+02 8.523548e+01 -1.090712e+02
-3.283623e+09 -3.083629e+09 -3.243624e+09 1.374817e+01 -1.683460e+01 -1.594928e+01
-1.785304e+09 -1.585309e+09 -1.745304e+09 -3.860197e+02 9.087185e+01 -7.178314e+01
-2.652324e+09 -2.452330e+09 -2.612325e+09 -3.251915e+02 2.327907e+02 -2.185721e+01
-2.588719e+09 -2.388719e+09 -2.548719e+09 1.200424e+01 3.643976e+01 -4.084111e-01
-2.693008e+09 -2.493008e+09 -2.653008e+09 1.301550e+01 3.726952e+01 1.180867e+00
-2.150584e+09 -1.950590e+09 -2.110584e+09 -1.994861e+02 4.386329e+01 -5.897031e+01
-1.880841e+09 -1.680840e+09 -1.840840e+09 1.081660e+02 -1.647795e+02 -5.545537e+01
-2.606978e+09 -2.406976e+09 -2.566976e+09 -6.500498e+01 -2.464144e+02 -2.821736e-02
-1.734481e+09 -1.534481e+09 -1.694480e+09 1.999088e+02 -8.962619e+01 -1.296436e+02
-3.355554e+09 -3.155554e+09 -3.315554e+09 8.690840e+01 1.012202e+01 -6.995293e+01
-1.766235e+09 -1.566234e+09 -1.726233e+09 2.797018e+02 -1.090349e+02 -9.673201e+01
-2.548603e+09 -2.348599e+09 -2.508602e+09 3.959020e+02 7.375787e+02 -1.459582e+02
-2.255311e+09 -2.055310e+09 -2.215310e+09 4.400909e+01 -2.430453e+02 -6.280697e+01
-1.578415e+09 -1.378414e+09 -1.538414e+09 -2.961150e+01 -2.533070e+02 -3.346194e+01
-2.195408e+09 -1.995407e+09 -2.155407e+09 -8.821163e+01 -1.074395e+02 -4.092606e+01
-4.819194e+09 -4.619198e+09 -4.779197e+09 2.600978e+03 6.021232e+02 1.587050e+02
-2.620969e+09 -2.420968e+09 -2.580968e+09 -7.683601e+01 -5.866610e+01 -4.034107e+01
-2.624565e+09 -2.424561e+09 -2.584562e+09 5.089835e+02 5.495189e+02 -1.309869e+02
-2.146216e+09 -1.946215e+09 -2.106215e+09 -1.073221e+02 -8.396743e+01 -8.272862e+01
-4.302117e+09 -4.102106e+09 -4.262127e+09 7.395916e+02 4.440148e+03 -3.213978e+03
-4.820349e+09 -4.620350e+09 -4.780350e+09 -8.229445e+01 -8.959018e+00 -9.009714e+00
-2.259318e+09 -2.059327e+09 -2.219321e+09 3.359926e+02 -2.374574e+03 7.754646e+02
-4.988216e+09 -4.788218e+09 -4.948217e+09 -3.197881e+02 -1.070561e+00 -3.364725e+00
-4.976293e+09 -4.776294e+09 -4.936294e+09 -2.171336e+02 1.368327e+01 -1.524094e+01
-3.675057e+09 -3.475063e+09 -3.635059e+09 -4.491833e+01 -2.018235e+02 -2.630672e+01
-4.192752e+09 -3.992753e+09 -4.152753e+09 -1.670656e+02 -4.114333e+00 1.250389e+01
-4.664172e+09 -4.464174e+09 -4.624173e+09 1.731541e+01 3.328010e+00 -1.668113e+00
-3.425008e+09 -3.225008e+09 -3.385008e+09 -1.732646e+02 -2.318258e+01 -9.640163e+01
-4.647898e+09 -4.447900e+09 -4.607899e+09 -1.628277e+02 1.873391e+00 1.388472e+01
-3.489908e+09 -3.289908e+09 -3.449907e+09 -2.396037e+02 1.023556e+01 -1.989959e+01
-3.264031e+09 -3.064030e+09 -3.224030e+09 -7.584099e+01 6.955137e+00 -5.533761e+01
-2.435271e+09 -2.235271e+09 -2.395269e+09 -1.863190e+02 -6.247987e+00 -1.455258e+02
-3.088171e+09 -2.888173e+09 -3.048173e+09 -1.900035e+01 -3.582342e+00 4.642494e+00
-4.199166e+09 -3.999167e+09 -4.159167e+09 -3.145963e+01 -6.874959e+00 -2.761603e+00
-3.892412e+09 -3.692413e+09 -3.852413e+09 -2.271971e+02 -1.681346e+01 2.483910e+01
-2.181088e+09 -1.981087e+09 -2.141086e+09 5.206163e+02 -3.050022e+02 1.152695e+02
-2.704665e+09 -2.504666e+09 -2.664665e+09 -1.168757e+01 -4.639585e+01 5.923509e+00
-1.776792e+09 -1.576793e+09 -1.736791e+09 5.455569e+02 -1.958226e+02 -2.853124e+01
-2.557294e+09 -2.357294e+09 -2.517293e+09 5.533356e+02 -5.677646e+02 2.226392e+02
-1.878662e+09 -1.678661e+09 -1.838660e+09 3.082237e+02 -3.837998e+02 9.190268e+01
-2.246000e+09 -2.046001e+09 -2.205999e+09 -2.897101e+02 2.145446e+01 -1.027297e+02
-2.486770e+09 -2.286770e+09 -2.446769e+09 2.555282e+02 -2.323536e+02 5.915898e+01
-2.629338e+09 -2.429337e+09 -2.589337e+09 1.625049e+02 -1.801080e+02 3.406896e+01
-2.961271e+09 -2.761272e+09 -2.921270e+09 9.678541e+00 2.222714e+01 -9.181749e+01
-2.140704e+09 -1.940703e+09 -2.100703e+09 8.096951e+01 -1.546189e+02 -1.176487e+01
-1.774113e+09 -1.574115e+09 -1.734112e+09 -5.120625e+02 5.434485e+01 -8.193253e+01
-1.811176e+09 -1.611172e+09 -1.771175e+09 2.271805e+02 9.163820e+02 -3.323002e+02
-4.820938e+09 -4.620937e+09 -4.780937e+09 -4.416086e+02 -9.928026e+00 -6.342713e+01
-2.563262e+09 -2.363265e+09 -2.523261e+09 -9.447236e+02 -2.073335e+02 -2.185693e+01
-1.883471e+09 -1.683475e+09 -1.843471e+09 -6.983621e+02 -3.938793e+01 -1.471900e+02
-2.226742e+09 -2.026746e+09 -2.186742e+09 -1.910261e+02 2.307897e+01 -6.320915e+01
-3.961406e+09 -3.761409e+09 -3.921408e+09 -6.772053e+02 1.933116e+01 1.226912e+01
-2.640734e+09 -2.440738e+09 -2.600734e+09 -5.730011e+02 2.182673e+02 -4.359046e+01
-4.819003e+09 -4.619004e+09 -4.779004e+09 -7.388346e+02 2.083778e+01 -3.770826e+01
-4.940386e+09 -4.740387e+09 -4.900387e+09 -3.144481e+01 1.086979e+01 -2.487510e-05
-1.579291e+09 -1.379291e+09 -1.539291e+09 -2.228170e+02 -3.069941e+01 2.663295e+01
-3.961523e+09 -3.761524e+09 -3.921524e+09 -5.789891e+02 -3.469006e+01 3.034410e+01
-4.819520e+09 -4.619519e+09 -4.779520e+09 -9.780972e+02 -5.989962e+01 1.550548e+02
-2.156831e+09 -1.956835e+09 -2.116831e+09 -5.462982e+02 5.765429e+01 -1.138414e+02
-1.787200e+09 -1.587202e+09 -1.747200e+09 8.981252e+02 -3.447236e+02 1.280613e+02
-1.910437e+09 -1.710436e+09 -1.870436e+09 -4.638349e+01 -3.631494e+01 -1.073337e+02
-2.959541e+09 -2.759539e+09 -2.919540e+09 -3.567021e+02 -7.407375e+01 -2.492246e+01
-3.893375e+09 -3.693374e+09 -3.853374e+09 -7.106429e+01 -1.506409e+01 -6.061246e+01
-2.274232e+09 -2.074233e+09 -2.234232e+09 6.253806e+02 -6.757129e+02 -4.257100e+01
-1.588972e+09 -1.388973e+09 -1.548972e+09 7.096008e+02 -5.663803e+02 7.361771e+01
-2.932814e+09 -2.732821e+09 -2.892820e+09 -2.185865e+02 -2.632355e+01 2.676120e+01
-3.243812e+09 -3.043814e+09 -3.203812e+09 4.080604e+02 -1.769779e+02 7.844679e+01
-2.650439e+09 -2.450439e+09 -2.610438e+09 5.124079e+02 -2.962232e+02 9.034857e+01
-1.952933e+09 -1.752932e+09 -1.912934e+09 -2.937399e+02 -8.579689e+02 -8.387984e+01
-2.709216e+09 -2.509217e+09 -2.669217e+09 7.585864e+00 3.977504e+01 1.382654e-01
-2.946447e+09 -2.746447e+09 -2.906447e+09 2.413861e-01 3.727407e+00 2.417117e+00
-2.152999e+09 -1.952999e+09 -2.112998e+09 4.240469e+02 -2.609470e+02 3.815396e+01
-2.998397e+09 -2.798400e+09 -2.958397e+09 -5.658855e+02 -5.870063e+01 -6.019781e+01
-2.186332e+09 -1.986335e+09 -2.146332e+09 -8.861722e+02 7.082519e+00 -5.814757e+01
-4.649324e+09 -4.449322e+09 -4.609323e+09 -3.860202e+02 -2.071831e+01 -8.528097e+00
-1.581482e+09 -1.381484e+09 -1.541482e+09 -5.790149e+02 6.998657e+01 -1.478425e+02
-2.198650e+09 -1.998652e+09 -2.158649e+09 -4.671328e+02 -4.062184e+01 -1.205162e+02
-2.140767e+09 -1.940769e+09 -2.100766e+09 -4.993248e+02 2.003989e+01 -1.038073e+02
-2.630652e+09 -2.430654e+09 -2.590651e+09 -6.085693e+02 1.557817e+02 -3.067093e+01
-3.898627e+09 -3.698629e+09 -3.858626e+09 1.295203e+03 2.105353e+02 -8.621684e+00
-2.151478e+09 -1.951481e+09 -2.111477e+09 -5.696021e+02 6.291727e+01 -1.072872e+02
-2.642261e+09 -2.442263e+09 -2.602261e+09 2.798030e+02 -1.318479e+01 1.958536e+01
-2.191494e+09 -1.991496e+09 -2.151493e+09 1.546038e+03 -9.325866e+02 5.445554e+02
-2.847462e+09 -2.647465e+09 -2.807463e+09 5.041009e+02 -4.432293e+02 7.162217e+01
-1.561040e+09 -1.361037e+09 -1.521039e+09 6.151444e+02 9.947807e+02 1.762279e+02
-2.147410e+09 -1.947406e+09 -2.107409e+09 -2.814493e+02 5.713394e+02 -3.621089e+02
-1.551647e+09 -1.351645e+09 -1.511647e+09 -6.195392e+02 4.990317e+02 -1.894613e+02
-1.586643e+09 -1.386646e+09 -1.546643e+09 1.227333e+03 -8.523079e+02 2.189015e+02
-2.130426e+09 -1.930427e+09 -2.090427e+09 -2.051246e+01 -2.834444e+00 3.562969e+00
-2.217292e+09 -2.017293e+09 -2.177293e+09 -3.175788e+01 1.500521e+00 6.552110e+00
-2.200115e+09 -2.000118e+09 -2.160115e+09 9.758841e+02 -7.307004e+02 1.552170e+02
-2.555865e+09 -2.355867e+09 -2.515866e+09 -1.494919e+02 -2.108908e+01 -2.835661e+01
-2.172551e+09 -1.972555e+09 -2.132551e+09 1.191041e+03 -8.045083e+02 2.403376e+02
-2.655639e+09 -2.455642e+09 -2.615640e+09 1.115205e+03 -8.813160e+02 3.692684e+02
-1.787458e+09 -1.587459e+09 -1.747461e+09 -6.203002e+02 3.127467e+02 -4.002112e+02
-2.170034e+09 -1.970036e+09 -2.130034e+09 8.711571e+02 -3.429806e+02 1.334794e+02
-3.782485e+09 -3.582480e+09 -3.742484e+09 9.127842e+02 7.033664e+02 -6.344854e+02
-2.617397e+09 -2.417400e+09 -2.577400e+09 -1.452760e+03 -2.009621e+02 7.446049e+02
-1.702603e+09 -1.502610e+09 -1.662611e+09 -1.267903e+03 -2.149124e+02 9.068195e+02
-1.941919e+09 -1.741923e+09 -1.901924e+09 -1.149975e+03 -1.359308e+02 1.608655e+02
-1.578321e+09 -1.378322e+09 -1.538320e+09 -4.375980e+02 6.169412e+01 -1.636575e+02
-3.060630e+09 -2.860631e+09 -3.020629e+09 -1.855735e+02 -2.607278e+01 -1.054454e+02
-1.793792e+09 -1.593801e+09 -1.753800e+09 -7.361817e+01 9.896691e+00 4.668726e+02
-3.309621e+09 -3.109622e+09 -3.269620e+09 -2.008104e+02 3.833058e+01 -6.370083e+01
-1.771388e+09 -1.571390e+09 -1.731388e+09 -4.872410e+02 -5.426020e+01 -9.721406e+01
-2.054970e+09 -1.854977e+09 -2.014977e+09 3.053321e+03 6.604352e+02 2.111837e+03
-2.714182e+09 -2.514188e+09 -2.674188e+09 -9.281522e+01 2.265450e+02 2.896699e+02
-1.638509e+09 -1.438513e+09 -1.598514e+09 6.654882e+01 3.466409e+02 2.848428e+02
-2.568029e+09 -2.368031e+09 -2.528028e+09 -4.685291e+02 4.115508e+01 -1.236974e+02
-2.620655e+09 -2.420656e+09 -2.580654e+09 -4.572012e+02 -7.444141e+01 -4.528625e+01
-3.241210e+09 -3.041210e+09 -3.201210e+09 5.250105e+02 -4.109280e+02 1.163159e+02
-1.889513e+09 -1.689512e+09 -1.849512e+09 -3.024064e+02 -8.820273e+01 -5.544524e+01
-3.993360e+09 -3.793359e+09 -3.953359e+09 -1.611247e-01 5.186504e+00 -1.226569e+01
-1.638532e+09 -1.438532e+09 -1.598531e+09 -5.511464e+01 -5.926284e+01 -1.411091e+02
-2.954978e+09 -2.754979e+09 -2.914977e+09 -6.637423e+00 -5.521191e+01 2.181497e+01
-1.706240e+09 -1.506246e+09 -1.666241e+09 6.257048e+02 -2.675366e+02 1.174919e+02
-2.133482e+09 -1.933483e+09 -2.093481e+09 -3.766260e+02 2.561561e+01 -1.036197e+02
-2.377001e+09 -2.177004e+09 -2.337001e+09 1.912127e+03 -1.453329e+03 8.210389e+02
-1.586644e+09 -1.386646e+09 -1.546643e+09 1.247016e+03 -5.979042e+02 2.097297e+02
-2.115799e+09 -1.915801e+09 -2.075799e+09 8.395781e+02 -2.082571e+02 7.102152e+01
-1.893009e+09 -1.693014e+09 -1.853010e+09 1.464437e+03 -1.280118e+03 3.145299e+02
-3.243452e+09 -3.043457e+09 -3.203453e+09 4.414679e+02 -2.078488e+02 9.750917e+01
-1.587682e+09 -1.387687e+09 -1.547682e+09 5.411596e+02 2.765538e+01 -1.845280e+01
-4.132203e+09 -3.932201e+09 -4.092201e+09 -7.220976e+02 5.386182e+01 -8.357038e+01
-1.591631e+09 -1.391631e+09 -1.551629e+09 1.318646e+03 6.711000e+02 -1.689681e+02
-2.583852e+09 -2.383856e+09 -2.543852e+09 1.019322e+03 -7.264795e+02 1.150851e+02
-1.788814e+09 -1.588817e+09 -1.748814e+09 1.104817e+03 -7.816834e+02 2.805614e+02
-2.653991e+09 -2.453996e+09 -2.613992e+09 1.422908e+03 -1.572247e+03 3.893694e+02
-2.168858e+09 -1.968864e+09 -2.128859e+09 1.455455e+03 -9.625075e+02 3.241362e+02
-4.643238e+09 -4.443226e+09 -4.603186e+09 2.219423e+03 -6.296299e+03 -3.548580e+03
-4.808697e+09 -4.608705e+09 -4.768692e+09 -3.049937e+03 1.237603e+03 1.061694e+03
-3.992974e+09 -3.792977e+09 -3.952973e+09 -2.609612e+02 2.924928e+01 -7.339128e+01
-2.216759e+09 -2.016762e+09 -2.176759e+09 -6.559761e+01 2.048337e+01 -5.461835e+01
-3.692777e+09 -3.492787e+09 -3.652780e+09 -6.243578e+02 -1.754732e+02 4.020519e+03
-4.981468e+09 -4.781478e+09 -4.941466e+09 -1.233124e+03 -2.187924e+02 6.991583e+02
-4.836483e+09 -4.636494e+09 -4.796487e+09 4.273219e+02 -1.898917e+02 1.070907e+03
-1.579699e+09 -1.379700e+09 -1.539700e+09 1.196524e+02 2.433104e+01 -4.131322e+01
-2.934428e+09 -2.734430e+09 -2.894429e+09 -4.786175e+00 -5.407327e-01 3.346099e+00
-4.588696e+09 -4.388698e+09 -4.548698e+09 2.182337e+01 8.101318e+00 9.150423e+00
-2.934410e+09 -2.734412e+09 -2.894411e+09 -2.218075e+00 -3.962657e+00 -1.188750e+00
-3.925745e+09 -3.725756e+09 -3.885749e+09 2.312579e+03 1.470524e+03 2.214873e+03
-2.353748e+09 -2.153749e+09 -2.313747e+09 -1.846388e+02 1.349399e+01 -7.839767e+01
-2.697223e+09 -2.497224e+09 -2.657224e+09 4.035145e+00 1.150134e+01 3.023983e+00
-2.548422e+09 -2.348423e+09 -2.508421e+09 -5.661903e+02 1.719549e+02 -3.179721e+01
-2.700655e+09 -2.500664e+09 -2.660662e+09 8.674400e+01 -1.449404e+02 4.138189e+02
-1.875467e+09 -1.675468e+09 -1.835466e+09 -3.303568e+02 7.858284e+01 -8.405246e+01
-2.282519e+09 -2.082525e+09 -2.242525e+09 1.692637e+03 4.480965e+02 8.434829e+02
-3.005166e+09 -2.805167e+09 -2.965165e+09 -9.428382e+01 2.707704e+01 -8.842838e+01
-1.762951e+09 -1.562952e+09 -1.722950e+09 -3.929250e+02 -3.748522e+01 -1.116215e+02
-4.991221e+09 -4.791210e+09 -4.951197e+09 -3.451679e+03 -5.034590e+02 3.477341e+02
-2.495287e+09 -2.295297e+09 -2.455294e+09 5.963735e+02 2.949588e+02 1.509985e+03
-2.611213e+09 -2.411213e+09 -2.571212e+09 -2.874171e+02 -9.136108e+01 -8.017401e+01
-2.070056e+09 -1.870056e+09 -2.030055e+09 -2.061669e+02 -2.850086e+00 -8.178241e+01
-2.319713e+09 -2.119717e+09 -2.279713e+09 6.206903e+02 -6.171379e+02 3.113215e+02
-2.571532e+09 -2.371538e+09 -2.531534e+09 1.967798e+03 -1.021249e+03 7.069003e+02
-1.589443e+09 -1.389450e+09 -1.549444e+09 1.620517e+03 -1.574745e+03 2.668279e+02
-2.631324e+09 -2.431332e+09 -2.591327e+09 8.535529e+02 -8.198219e+02 3.140463e+02
-4.598283e+09 -4.398278e+09 -4.558283e+09 -3.593653e+01 2.344981e+02 -9.200036e+01
-2.901235e+09 -2.701237e+09 -2.861234e+09 -2.243054e+02 1.570676e+02 -1.018070e+02
-1.791614e+09 -1.591620e+09 -1.751615e+09 1.273408e+03 -1.063734e+03 4.028722e+02
-2.655166e+09 -2.455174e+09 -2.615169e+09 1.345287e+03 -2.031995e+03 4.584656e+02
-2.184176e+09 -1.984185e+09 -2.144179e+09 1.177973e+03 -1.293831e+03 3.512854e+02
-4.451159e+09 -4.251161e+09 -4.411158e+09 -8.398239e+02 2.588997e+01 -6.831242e+01
-1.851142e+09 -1.651142e+09 -1.811142e+09 4.587688e+01 2.535439e+01 -2.674861e+01
-1.945824e+09 -1.745824e+09 -1.905823e+09 -4.112422e+01 4.143208e+01 -8.292022e+01
-2.553061e+09 -2.353061e+09 -2.513059e+09 -4.024542e+02 1.525998e+02 -6.012455e+01
-5.005425e+09 -4.805426e+09 -4.965426e+09 1.719677e+02 1.043087e+01 4.663971e+01
-1.590669e+09 -1.390668e+09 -1.550668e+09 -6.322893e+01 1.586089e+01 -1.035458e+02
-1.583004e+09 -1.383004e+09 -1.543003e+09 -1.711745e+02 4.515292e+01 -1.188390e+02
-2.414235e+09 -2.214235e+09 -2.374234e+09 -2.016466e+02 4.137167e+01 -6.609913e+01
-4.818452e+09 -4.618451e+09 -4.778451e+09 -5.726476e+02 7.971602e+01 5.253473e+01
-2.195959e+09 -1.995959e+09 -2.155958e+09 4.884059e+00 -2.131795e+00 -5.663690e+01
-1.767634e+09 -1.567634e+09 -1.727633e+09 -2.769425e+02 -4.055809e+01 -1.129105e+02
-2.612585e+09 -2.412585e+09 -2.572584e+09 -1.936718e+02 -5.129367e+01 -7.011681e+01
-2.996493e+09 -2.796495e+09 -2.956497e+09 -7.045970e+01 7.363159e+01 1.013262e+02
-2.759296e+09 -2.559298e+09 -2.719299e+09 -1.335376e+02 1.341577e+02 7.459717e+01
-2.135844e+09 -1.935843e+09 -2.095842e+09 -1.312211e+02 2.880451e+01 -9.062379e+01
-1.878901e+09 -1.678903e+09 -1.838906e+09 -2.441776e+03 -7.225135e+02 3.624706e+02
-1.924812e+09 -1.724808e+09 -1.884811e+09 2.679222e+02 6.069755e+02 -1.015867e+03
-1.893085e+09 -1.693084e+09 -1.853083e+09 -4.595621e+01 -1.542748e+01 -7.585887e+01
-2.191325e+09 -1.991333e+09 -2.151327e+09 1.121547e+02 -1.840839e+02 1.324394e+02
-4.600287e+09 -4.400294e+09 -4.560291e+09 3.084357e+02 -1.474456e+02 3.211604e+01
-2.063295e+09 -1.863294e+09 -2.023294e+09 -4.820959e+01 -2.226489e+01 -3.627824e+01
-1.781562e+09 -1.581562e+09 -1.741561e+09 -8.452613e+01 -2.024944e+01 -8.849052e+01
-2.258794e+09 -2.058794e+09 -2.218793e+09 1.127080e+01 5.816025e+00 -5.408228e+01
-1.590669e+09 -1.390668e+09 -1.550668e+09 2.454097e+01 4.603996e+01 -6.299447e+01
-1.638514e+09 -1.438516e+09 -1.598515e+09 -4.864058e+00 -5.271978e-01 5.876469e+00
-2.782930e+09 -2.582932e+09 -2.742931e+09 -6.346590e+00 6.005844e+00 4.802999e+00
-2.158688e+09 -1.958687e+09 -2.118687e+09 4.157274e+01 1.278418e+01 -5.764963e+01
-1.535084e+09 -1.335091e+09 -1.495092e+09 6.521626e+02 5.088855e+00 -1.337321e+02
-2.624651e+09 -2.424650e+09 -2.584650e+09 1.421689e+01 -4.068745e+01 -5.045270e+01
-2.155561e+09 -1.955561e+09 -2.115563e+09 1.086255e+02 -6.048711e+02 -2.960847e+02
-2.209935e+09 -2.009942e+09 -2.169936e+09 5.051761e+02 -7.318971e+02 1.098461e+02
-2.587989e+09 -2.387998e+09 -2.547992e+09 1.572539e+03 -1.510377e+03 8.285703e+02
-2.747514e+09 -2.547530e+09 -2.707524e+09 2.065499e+03 6.262830e+02 6.553155e+03
-4.640694e+09 -4.440688e+09 -4.600714e+09 1.635100e+03 1.354831e+03 -1.749350e+02
-1.597091e+09 -1.397101e+09 -1.557093e+09 1.153897e+03 -1.935374e+03 2.558898e+02
-2.168097e+09 -1.968098e+09 -2.128098e+09 8.718772e+01 1.250958e+01 -1.072426e+00
-2.123727e+09 -1.923736e+09 -2.083729e+09 4.704092e+01 -1.088342e+03 5.855771e+01
-3.101361e+09 -2.901361e+09 -3.061361e+09 1.385644e+01 2.861357e+00 -1.089410e+00
-1.798119e+09 -1.598127e+09 -1.758121e+09 1.078377e+03 -1.429211e+03 3.901950e+02
-4.992342e+09 -4.792340e+09 -4.952341e+09 -3.954741e+02 1.301568e+00 1.697697e+01
-2.656286e+09 -2.456295e+09 -2.616290e+09 8.962197e+02 -2.338697e+03 4.297700e+02
-2.165576e+09 -1.965586e+09 -2.125579e+09 6.313103e+02 -1.509284e+03 2.626205e+02
-3.466411e+09 -3.266409e+09 -3.426410e+09 -2.580872e+02 -8.375788e+01 -1.849214e+01
-1.916942e+09 -1.716942e+09 -1.876941e+09 -1.768314e+01 2.512065e+01 -7.089870e+01
-2.546090e+09 -2.346090e+09 -2.506089e+09 -2.157987e+02 1.356031e+02 -4.903967e+01
-2.998437e+09 -2.798436e+09 -2.958436e+09 9.405123e-01 -6.173795e+01 -4.147832e+01
-1.881724e+09 -1.681723e+09 -1.841723e+09 -7.719974e+01 4.845104e+01 -6.669117e+01
-2.930056e+09 -2.730055e+09 -2.890055e+09 -6.011557e+01 -2.914927e+01 -4.790139e+01
-2.109898e+09 -1.909897e+09 -2.069897e+09 -1.135790e+02 -3.203066e+01 -5.725726e+01
-4.993186e+09 -4.793185e+09 -4.953186e+09 -4.891481e+02 6.730968e+00 1.860698e+00
-3.961464e+09 -3.761466e+09 -3.921464e+09 -1.253575e+03 1.556595e+02 -6.819736e+01
-1.773897e+09 -1.573897e+09 -1.733896e+09 -1.744179e+02 -3.016158e+01 -1.106617e+02
-2.668959e+09 -2.468958e+09 -2.628957e+09 3.078038e+02 2.864373e+02 -2.808740e+01
-2.609380e+09 -2.409380e+09 -2.569379e+09 -4.995731e+01 -2.320474e+01 -5.189382e+01
-2.608338e+09 -2.408342e+09 -2.568338e+09 -2.228456e+02 -2.455462e+02 -7.551396e+01
-2.147272e+09 -1.947271e+09 -2.107271e+09 -1.935089e+01 1.284347e+01 -5.842547e+01
-2.648624e+09 -2.448629e+09 -2.608624e+09 5.481591e-01 2.263850e+01 -5.476012e+01
-3.115723e+09 -2.915722e+09 -3.075721e+09 9.558083e+01 -5.669110e+01 -4.609816e+01
-1.906323e+09 -1.706325e+09 -1.866322e+09 4.315348e+01 2.130456e+01 1.384487e+01
-4.821638e+09 -4.621637e+09 -4.781637e+09 -4.878037e+02 -2.138783e+01 5.194455e+01
-1.955388e+09 -1.755387e+09 -1.915386e+09 -1.431308e+01 -7.185812e+01 -9.949683e+01
-4.663654e+09 -4.463654e+09 -4.623655e+09 8.912037e+02 -4.765536e+02 1.487865e+02
-2.648014e+09 -2.448012e+09 -2.608012e+09 -6.370136e+01 -8.265211e+00 -7.151045e+01
-1.906323e+09 -1.706325e+09 -1.866322e+09 3.108659e+01 1.470597e+00 -8.638370e-01
-2.398607e+09 -2.198609e+09 -2.358611e+09 1.286853e+03 -2.583211e+02 -4.294082e+02
-2.043898e+09 -1.843907e+09 -2.003906e+09 2.409254e+01 6.010211e-02 5.280307e+02
-1.536399e+09 -1.336402e+09 -1.496404e+09 1.163599e+03 -1.993878e+02 -1.542956e+02
-1.568780e+09 -1.368783e+09 -1.528779e+09 5.291088e+01 -2.300257e+00 1.199887e+01
-2.812359e+09 -2.612362e+09 -2.772358e+09 5.617493e+01 -1.988589e+01 1.794105e+01
-2.266643e+09 -2.066643e+09 -2.226643e+09 1.872525e+02 3.252132e+01 7.521559e+00
-2.829178e+09 -2.629182e+09 -2.789178e+09 -3.548301e+02 1.258841e+02 -6.284637e+01
-4.152258e+09 -3.952262e+09 -4.112257e+09 2.732328e+02 -1.226951e+01 -2.716646e+01
-1.591056e+09 -1.391056e+09 -1.551056e+09 2.307547e+02 5.621917e+01 1.881091e+00
-3.327171e+09 -3.127171e+09 -3.287171e+09 1.242900e+02 1.119319e+01 -7.480859e+01
-2.718774e+09 -2.518774e+09 -2.678774e+09 1.212301e+02 6.301082e+00 6.154330e-01
-4.991057e+09 -4.791063e+09 -4.951059e+09 9.811015e+02 1.054662e+02 1.036741e+01
-1.889702e+09 -1.689707e+09 -1.849702e+09 8.109299e+02 1.605926e+02 -4.551846e+01
-2.484046e+09 -2.284046e+09 -2.444046e+09 1.793919e+02 3.023085e+01 -2.205488e+01
-1.994202e+09 -1.794202e+09 -1.954202e+09 1.655892e+02 1.405496e+01 2.493022e+01
-3.039051e+09 -2.839051e+09 -2.999051e+09 8.227020e+01 3.014455e+01 1.382191e+01
-2.431226e+09 -2.231228e+09 -2.391227e+09 1.659705e+02 3.827774e+01 1.799083e+01
-1.782341e+09 -1.582341e+09 -1.742341e+09 2.145293e+02 1.829776e+01 2.044525e+01
-4.818184e+09 -4.618177e+09 -4.778192e+09 2.414929e+03 1.922214e+03 -1.290312e+03
-2.180363e+09 -1.980364e+09 -2.140364e+09 3.621571e+02 1.608042e+01 5.611990e+00
-4.817776e+09 -4.617781e+09 -4.777789e+09 1.389443e+03 1.858797e+03 3.829148e+02
-3.962677e+09 -3.762680e+09 -3.922679e+09 3.174339e+03 1.110701e+03 -3.519950e+02
-3.962331e+09 -3.762333e+09 -3.922332e+09 2.449909e+03 4.966728e+02 -1.429976e+02
-1.880036e+09 -1.680036e+09 -1.840036e+09 2.730082e+02 2.966220e+01 -2.771584e+01
-2.555146e+09 -2.355147e+09 -2.515147e+09 3.596305e+02 2.477924e+01 -9.857800e+01
-2.658730e+09 -2.458725e+09 -2.618728e+09 4.684813e+02 6.115626e+02 -2.234023e+02
-2.171357e+09 -1.971353e+09 -2.131355e+09 5.131786e+02 8.604215e+02 -2.099807e+02
-1.888595e+09 -1.688606e+09 -1.848599e+09 -7.547669e+02 -2.867346e+03 -9.253349e+01
-2.157592e+09 -1.957592e+09 -2.117592e+09 2.286387e+02 2.582182e+01 1.534459e+01
-4.991924e+09 -4.791916e+09 -4.951933e+09 -3.181318e+03 -2.029545e+03 4.205293e+02
-3.961400e+09 -3.761397e+09 -3.921410e+09 3.194071e+02 -3.718448e+03 2.851869e+03
-4.991282e+09 -4.791283e+09 -4.951296e+09 -1.259346e+03 -1.674168e+03 5.075950e+01
-1.781246e+09 -1.581247e+09 -1.741247e+09 2.020586e+02 1.752487e+01 2.933115e+01
-2.634727e+09 -2.434723e+09 -2.594727e+09 -2.672745e+02 6.623872e+02 -3.656213e+02
-1.950693e+09 -1.750692e+09 -1.910695e+09 -1.125546e+03 -1.889532e+01 -4.626262e+01
-4.818328e+09 -4.618329e+09 -4.778341e+09 -3.725849e+02 -1.444793e+03 5.802940e+02
-1.932841e+09 -1.732838e+09 -1.892842e+09 -1.216752e+03 5.592367e+02 -9.235239e+02
-3.961321e+09 -3.761324e+09 -3.921333e+09 7.112334e+02 -4.134775e+03 1.131193e+03
-3.962935e+09 -3.762942e+09 -3.922943e+09 -1.195983e+03 -2.805459e+03 -2.077445e+02
-4.940922e+09 -4.740928e+09 -4.900925e+09 -1.667503e+02 -4.946511e-05 -9.164056e+01
-4.819193e+09 -4.619190e+09 -4.779204e+09 -2.365975e+03 -1.392274e+03 -5.505542e+02
-2.462889e+09 -2.262883e+09 -2.422888e+09 -2.032622e+02 8.262596e+02 -1.571578e+03
-2.534606e+09 -2.334603e+09 -2.494607e+09 -1.360538e+03 1.731552e+02 -4.521427e+02
-3.840748e+09 -3.640753e+09 -3.800749e+09 4.267933e+00 -1.549661e+02 1.600554e+02
-3.446168e+09 -3.246171e+09 -3.406167e+09 6.088682e+02 5.675040e+01 6.786755e+00
-3.185732e+09 -2.985728e+09 -3.145730e+09 -3.099679e+02 -7.249203e+02 -1.358055e+02
-2.804676e+09 -2.604671e+09 -2.764675e+09 -3.413123e+02 -1.076536e+03 -6.434476e+02
-2.766702e+09 -2.566702e+09 -2.726700e+09 1.953860e+02 1.231779e+02 -1.726649e+01
-2.326410e+09 -2.126406e+09 -2.286409e+09 7.098002e+02 -3.200378e+02 -7.378423e+02
-2.394244e+09 -2.194239e+09 -2.354242e+09 -1.619624e+03 -1.678393e+03 -1.457766e+03
-3.102056e+09 -2.902060e+09 -3.062060e+09 1.243073e+03 3.430321e+01 -1.555824e+02
-2.185944e+09 -1.985951e+09 -2.145951e+09 5.723073e+02 1.186535e+02 5.856579e+02
-2.106366e+09 -1.906369e+09 -2.066370e+09 5.030605e+02 -2.025132e+02 -3.080839e+02
-2.462067e+09 -2.262065e+09 -2.422066e+09 2.364743e+01 3.451481e+00 -5.588325e+00
-1.643084e+09 -1.443084e+09 -1.603084e+09 -1.531010e+01 -3.423881e+01 -2.295875e+00
-1.884502e+09 -1.684506e+09 -1.844508e+09 2.145120e+03 1.789402e+02 3.578022e+02
-3.183751e+09 -2.983751e+09 -3.143754e+09 2.125813e+03 3.892587e+00 -3.729160e+02
-2.440187e+09 -2.240190e+09 -2.400191e+09 6.964527e+02 -1.699786e+02 -1.784752e+02
-3.562171e+09 -3.362180e+09 -3.522177e+09 7.659223e+02 2.501012e+02 3.344777e+02
-3.172665e+09 -2.972676e+09 -3.132672e+09 7.035016e+02 3.105395e+02 1.251961e+03
-3.187570e+09 -2.987570e+09 -3.147569e+09 -1.413551e+02 -7.995957e+01 -2.040880e+02
-2.510622e+09 -2.310629e+09 -2.470628e+09 6.611105e+02 3.731461e+02 3.306349e+02
-2.987436e+09 -2.787439e+09 -2.947436e+09 -8.628696e+01 -1.650557e+02 -1.640461e+02
-2.717099e+09 -2.517103e+09 -2.677099e+09 -1.880071e+02 -1.992100e+02 -4.807618e+01
-3.961523e+09 -3.761524e+09 -3.921524e+09 -6.185465e+02 -1.004901e+01 4.326188e+01
-1.737780e+09 -1.537784e+09 -1.697785e+09 1.387825e+03 1.371183e+01 5.237700e+02
-3.868346e+09 -3.668346e+09 -3.828346e+09 2.308274e+02 2.661087e+01 -3.934275e-01
-1.866340e+09 -1.666347e+09 -1.826347e+09 4.157066e+01 -6.708545e+01 2.971190e+02
-4.991221e+09 -4.791223e+09 -4.951222e+09 -6.179199e+02 7.964371e+00 -1.303009e+01
-3.207125e+09 -3.007132e+09 -3.167131e+09 7.326959e+01 -3.145007e+02 -1.125010e+02
-4.646180e+09 -4.446182e+09 -4.606181e+09 7.438134e+02 3.631359e+01 2.115453e+01
-1.764199e+09 -1.564203e+09 -1.724204e+09 1.061325e+03 5.312325e+01 1.934927e+02
-4.301863e+09 -4.101863e+09 -4.261863e+09 7.670667e+02 -1.105407e+01 -3.766566e+01
-1.684592e+09 -1.484596e+09 -1.644597e+09 9.252908e+02 -2.291077e+02 -4.344487e+02
-2.081687e+09 -1.881689e+09 -2.041686e+09 -1.790787e+02 -2.180921e+02 -9.892479e+01
-4.940412e+09 -4.740412e+09 -4.900412e+09 3.675140e+00 -1.063652e+01 7.460629e-05
-4.765984e+09 -4.565983e+09 -4.725983e+09 3.952101e+01 4.879421e+00 2.651562e+01
-3.182508e+09 -2.982508e+09 -3.142508e+09 8.628301e+01 1.513298e+01 -2.826734e+00
-3.653054e+09 -3.453054e+09 -3.613054e+09 2.323019e+02 3.698068e+01 8.201559e+00
-3.629359e+09 -3.429358e+09 -3.589358e+09 -1.786647e+00 1.376128e+01 -2.146480e+00
-3.744278e+09 -3.544278e+09 -3.704278e+09 -6.443557e-02 2.566169e+01 -1.566560e+00
-3.596441e+09 -3.396442e+09 -3.556442e+09 1.336015e+01 3.356812e+01 -1.722327e+00
-3.009262e+09 -2.809262e+09 -2.969262e+09 -1.593072e+03 -1.351808e+03 -4.091316e+02
-4.817775e+09 -4.617772e+09 -4.777782e+09 -4.647560e+02 -7.673743e+02 6.395350e+02
-3.057534e+09 -2.857532e+09 -3.017533e+09 -9.699528e+02 -5.344248e+02 -2.686167e+02
-3.961929e+09 -3.761919e+09 -3.921867e+09 2.229199e+03 1.015060e+04 4.741345e+03
-4.644591e+09 -4.444578e+09 -4.604602e+09 9.826021e+02 -6.137526e+02 -1.039514e+03
-1.927680e+09 -1.727680e+09 -1.887679e+09 -9.158610e+02 -8.088929e+02 -9.985526e+01
-2.263953e+09 -2.063957e+09 -2.223953e+09 -2.097807e+03 -1.681860e+03 -3.785924e+02
-4.632126e+09 -4.432128e+09 -4.592104e+09 -2.720824e+02 -2.449181e+02 -3.939161e+03
-4.981997e+09 -4.781997e+09 -4.941969e+09 -1.451096e+03 -1.961821e+02 -2.455162e+03
-2.232915e+09 -2.032914e+09 -2.192913e+09 -1.457954e+03 -1.029088e+03 -3.286109e+02
-2.961196e+09 -2.761195e+09 -2.921195e+09 -1.676311e+03 -1.159647e+03 -5.012090e+02
-2.993655e+09 -2.793651e+09 -2.953655e+09 -1.893560e+03 -1.548093e+03 -1.289146e+03
-1.767224e+09 -1.567221e+09 -1.727222e+09 -2.715749e+03 -1.802916e+03 -9.767700e+02
-3.961652e+09 -3.761653e+09 -3.921653e+09 5.916704e+02 5.036835e+01 -1.103935e+00
-2.828246e+09 -2.628247e+09 -2.788247e+09 1.753152e+02 6.737095e+00 3.646292e-01
-1.970414e+09 -1.770412e+09 -1.930413e+09 -1.374292e+03 -1.388973e+03 -4.085933e+02
-3.361388e+09 -3.161384e+09 -3.321387e+09 -9.160850e+02 -1.217805e+03 -4.906706e+02
-2.219322e+09 -2.019318e+09 -2.179321e+09 -6.097468e+02 -9.073635e+02 -8.191174e+02
-1.886353e+09 -1.686355e+09 -1.846354e+09 -3.814639e+01 -8.129308e+00 3.405955e+01
-2.249117e+09 -2.049119e+09 -2.209118e+09 -6.519968e+01 -5.440254e+00 2.744311e+01
-4.253825e+09 -4.053826e+09 -4.213826e+09 1.490143e+02 -2.155315e+00 3.886457e+01
-2.753724e+09 -2.553725e+09 -2.713725e+09 9.722469e+01 6.867185e+00 3.885996e+01
-3.447410e+09 -3.247411e+09 -3.407411e+09 3.647014e+02 9.989453e+00 2.442564e+00
-3.961751e+09 -3.761752e+09 -3.921751e+09 4.771291e+02 4.303441e+01 2.023623e+01
-3.962373e+09 -3.762373e+09 -3.922373e+09 3.692154e+02 3.602359e+01 1.144419e+01
-4.640247e+09 -4.440247e+09 -4.600247e+09 2.955954e+02 2.040185e+01 3.718418e+01
-3.961214e+09 -3.761217e+09 -3.921216e+09 2.358666e+02 2.426281e+01 1.679827e+01
-1.688564e+09 -1.488566e+09 -1.648565e+09 7.304339e+01 1.372771e+01 3.942793e+01
-3.961459e+09 -3.761456e+09 -3.921456e+09 -5.209052e+03 -2.775361e+03 1.517545e+03
-3.961359e+09 -3.761354e+09 -3.921370e+09 3.851556e+03 3.807618e+03 -3.955246e+03
-4.132341e+09 -3.932340e+09 -4.092281e+09 7.276783e+01 -4.128208e+03 8.529697e+03
-2.730534e+09 -2.530530e+09 -2.690532e+09 -9.663556e+02 -1.257984e+03 -5.190688e+02
-4.818803e+09 -4.618801e+09 -4.778803e+09 -1.357301e+03 -3.872045e+01 2.319309e+01
-4.177319e+09 -3.977318e+09 -4.137318e+09 -9.341954e+01 -1.090180e+02 1.920306e+01
-3.960653e+09 -3.760650e+09 -3.920666e+09 -9.369275e+02 -4.252580e+03 1.612460e+03
-3.490023e+09 -3.290019e+09 -3.450023e+09 -1.342609e+03 -1.172844e+03 -8.552605e+02
-3.961360e+09 -3.761357e+09 -3.921367e+09 4.189501e+02 -2.564914e+03 2.178676e+03
-3.230569e+09 -3.030566e+09 -3.190569e+09 -1.995744e+03 -2.058947e+03 -1.264841e+03
-2.088734e+09 -1.888733e+09 -2.048733e+09 -1.484567e+02 -1.921615e+01 -1.974457e+01
-2.485616e+09 -2.285615e+09 -2.445615e+09 -2.311908e+02 -1.840844e+01 -3.373604e+00
-2.869108e+09 -2.669107e+09 -2.829107e+09 -1.937638e+02 -1.100472e+01 -4.544461e+00
-2.883353e+09 -2.683352e+09 -2.843353e+09 -2.566997e+02 -1.143101e+01 -2.640714e+01
-4.810915e+09 -4.610914e+09 -4.770914e+09 1.775036e+02 1.538067e+00 -8.394778e-01
-4.816332e+09 -4.616327e+09 -4.776333e+09 -2.184332e+03 9.477290e+02 1.002062e+03
-3.960588e+09 -3.760586e+09 -3.920589e+09 -2.726018e+03 8.919223e+02 6.692067e+02
-4.988903e+09 -4.788904e+09 -4.948910e+09 -2.898717e+03 6.214657e+02 9.493295e+01
-3.960420e+09 -3.760419e+09 -3.920423e+09 -3.440003e+03 1.794354e+03 1.508362e+03
-4.818679e+09 -4.618685e+09 -4.778681e+09 -1.085363e+03 -5.172467e+01 -1.219241e+02
-3.961478e+09 -3.761479e+09 -3.921477e+09 -1.376413e+03 1.785996e+02 -3.713051e+01
-3.501386e+09 -3.301384e+09 -3.461385e+09 -3.016011e+02 -1.591859e+01 -3.299036e+01
-3.226886e+09 -3.026884e+09 -3.186885e+09 -3.203115e+02 -2.671621e+01 -2.761349e+01
-4.246398e+09 -4.046400e+09 -4.206400e+09 -5.340688e+01 -4.039659e+00 -5.266184e+00
-3.009986e+09 -2.809984e+09 -2.969985e+09 -3.134386e+02 -3.993287e+01 -2.774109e+01
-2.918407e+09 -2.718408e+09 -2.878407e+09 -4.140495e+00 6.331646e+00 6.235155e-01
-2.804783e+09 -2.604788e+09 -2.764783e+09 3.983268e+02 9.377050e+01 2.633030e+01
-4.504657e+09 -4.304658e+09 -4.464658e+09 -1.213067e+01 -3.112178e+00 7.057044e-01
-2.483394e+09 -2.283398e+09 -2.443394e+09 7.662605e+02 3.278535e+01 2.259644e+01
-3.017187e+09 -2.817180e+09 -2.977187e+09 -1.055151e+02 8.480811e+02 -1.215346e+03
-3.171722e+09 -2.971726e+09 -3.131721e+09 6.259686e+02 2.317334e+01 -8.463369e+01
-4.237010e+09 -4.037005e+09 -4.197010e+09 -2.924581e+02 4.635732e+02 -5.349101e+02
-3.961447e+09 -3.761437e+09 -3.921450e+09 1.802150e+02 1.173550e+03 -2.174600e+03
-3.961324e+09 -3.761322e+09 -3.921331e+09 4.192980e+03 3.512794e+03 -2.020209e+03
-4.992533e+09 -4.792533e+09 -4.952532e+09 1.601444e+03 1.508708e+01 -9.262009e+00
-3.961324e+09 -3.761323e+09 -3.921331e+09 4.244329e+03 2.974964e+03 -1.771765e+03
-2.851553e+09 -2.651558e+09 -2.811553e+09 5.542672e+02 1.155892e+01 -7.036529e+00
-3.961322e+09 -3.761324e+09 -3.921334e+09 1.186809e+03 -3.882215e+03 1.977007e+03
-3.961446e+09 -3.761447e+09 -3.921451e+09 1.646555e+03 -2.166388e+03 1.360547e+03
-2.991152e+09 -2.791157e+09 -2.951152e+09 7.569212e+02 1.301062e+02 2.033877e+01
-2.709336e+09 -2.509343e+09 -2.669338e+09 -1.605009e+02 -2.262342e+02 1.455306e+01
-2.682580e+09 -2.482580e+09 -2.642579e+09 -4.910512e+02 -3.186398e+02 -5.231713e+01
-2.979970e+09 -2.779978e+09 -2.939975e+09 1.599202e+03 -2.770467e+03 7.402063e+02
-3.499025e+09 -3.299029e+09 -3.459025e+09 8.220528e+02 1.057710e+02 -3.398159e+01
-3.225970e+09 -3.025975e+09 -3.185970e+09 9.127457e+02 2.082259e+02 -6.719240e+01
-1.897025e+09 -1.697025e+09 -1.857024e+09 -2.159649e+03 -1.527540e+03 -5.597793e+02
-1.897130e+09 -1.697133e+09 -1.857130e+09 -2.062422e+03 -1.928164e+03 -4.452543e+02
-2.726140e+09 -2.526148e+09 -2.686142e+09 -1.208754e+02 -2.307795e+02 4.153167e+01
-2.268220e+09 -2.068228e+09 -2.228222e+09 -5.535966e+02 -1.084075e+03 -3.455926e+01
-3.407141e+09 -3.207143e+09 -3.367141e+09 -7.714386e+02 -7.377830e+02 -2.838979e+02
-2.257343e+09 -2.057349e+09 -2.217344e+09 -1.626106e+03 -2.165486e+03 1.143621e+02
-2.605537e+09 -2.405537e+09 -2.565537e+09 7.051171e+01 4.665831e+01 -9.259237e+00
-3.475557e+09 -3.275559e+09 -3.435559e+09 -1.653402e+03 -1.438878e+03 -5.071024e+02
-3.961398e+09 -3.761385e+09 -3.921401e+09 1.111368e+03 4.910590e+02 -5.480363e+03
-3.962780e+09 -3.762768e+09 -3.922783e+09 1.709095e+03 -6.818920e+02 3.358135e+03
-3.960292e+09 -3.760278e+09 -3.920292e+09 1.574809e+03 -2.728451e+03 3.912293e+03
-3.225826e+09 -3.025829e+09 -3.185828e+09 -2.443817e+03 -2.179460e+03 -9.225018e+02
-3.961600e+09 -3.761596e+09 -3.921570e+09 -4.940603e+03 -1.068139e+04 8.481036e+03
-3.961543e+09 -3.761541e+09 -3.921544e+09 6.739331e+02 -8.919697e+02 7.283702e+02
-4.129905e+09 -3.929904e+09 -4.089905e+09 -2.771914e+03 4.804983e+02 -6.228758e+01
-3.961398e+09 -3.761397e+09 -3.921409e+09 4.016353e+02 -3.866203e+03 2.272850e+03
-4.969738e+09 -4.769739e+09 -4.929740e+09 -2.249556e+03 2.177522e+01 -6.371856e+01
-1.891864e+09 -1.691872e+09 -1.851866e+09 1.104012e+03 -1.906469e+03 2.602080e+02
-4.990227e+09 -4.790227e+09 -4.950226e+09 -2.759553e+03 6.103087e+01 -3.059695e+02
-3.960786e+09 -3.760789e+09 -3.920783e+09 -2.520401e+03 1.690762e+03 -2.337991e+03
-2.990582e+09 -2.790586e+09 -2.950585e+09 -1.814662e+03 -1.857100e+03 -4.362621e+02
-2.579028e+09 -2.379027e+09 -2.539027e+09 6.042313e+01 4.277449e+01 -5.651096e+01
-2.773209e+09 -2.573207e+09 -2.733208e+09 8.803575e+01 1.177906e+01 -1.425986e+01
-1.948937e+09 -1.748936e+09 -1.908936e+09 1.775706e+01 1.012558e+01 -4.351684e+01
-1.688850e+09 -1.488849e+09 -1.648849e+09 7.159928e+01 1.957813e+01 -3.490081e+01
-3.179920e+09 -2.979918e+09 -3.139919e+09 5.095558e+01 -4.076426e+00 -4.385474e+00
-3.456236e+09 -3.256234e+09 -3.416235e+09 1.132792e+02 -2.412691e+00 -2.300651e+01
-4.304288e+09 -4.104288e+09 -4.264288e+09 9.700240e+02 -3.010395e+01 -1.174443e+02
-3.235706e+09 -3.035705e+09 -3.195705e+09 9.285306e+01 1.200931e+01 -1.859027e+01
-4.814561e+09 -4.614561e+09 -4.774561e+09 7.815172e+02 2.865928e+01 -1.497519e+01
-3.961790e+09 -3.761792e+09 -3.921791e+09 8.912094e+02 5.139090e+01 -4.006450e+01
-3.020308e+09 -2.820307e+09 -2.980307e+09 8.557113e+01 2.209178e+01 -2.799362e+01
-4.307088e+09 -4.107087e+09 -4.267088e+09 1.036202e+03 -1.754836e+01 -7.771880e+01
-4.992071e+09 -4.792072e+09 -4.952072e+09 4.335174e+02 -7.202832e+00 -3.422976e+01
-4.477419e+09 -4.277420e+09 -4.437420e+09 3.382389e+02 1.269003e+00 -1.183870e+00
-2.798117e+09 -2.598119e+09 -2.758118e+09 -2.363824e+03 -2.264283e+03 -8.010869e+02
-2.640091e+09 -2.440094e+09 -2.600090e+09 6.115542e+02 8.628404e+01 -1.750159e+01
-2.386116e+09 -2.186115e+09 -2.346114e+09 -4.399069e+02 -4.680600e+02 -5.147964e+01
-1.943598e+09 -1.743602e+09 -1.903598e+09 5.885581e+02 9.468417e-01 -5.983780e+00
-4.991882e+09 -4.791882e+09 -4.951882e+09 3.676325e+02 -1.713991e+01 -5.406137e+01
-1.573045e+09 -1.373045e+09 -1.533044e+09 -3.129015e+02 6.616541e+01 -1.389663e+02
-3.955417e+09 -3.755413e+09 -3.915415e+09 2.576772e+02 9.397364e+01 8.653810e+01
-2.216262e+09 -2.016266e+09 -2.176261e+09 1.155275e+02 2.551696e+01 -5.917404e+00
-3.955417e+09 -3.755414e+09 -3.915416e+09 -2.412130e+02 2.755732e+02 1.317492e+02
-4.809897e+09 -4.609893e+09 -4.769895e+09 -1.566349e+02 1.608978e+02 2.724311e+02
-3.101624e+09 -2.901628e+09 -3.061623e+09 4.120368e+02 1.008768e+02 -4.437248e+01
-3.163421e+09 -2.963424e+09 -3.123420e+09 5.017719e+02 -1.898821e+00 2.584081e+01
-4.303982e+09 -4.103981e+09 -4.263981e+09 -1.956328e+02 -2.960328e+01 -3.505613e+01
-3.962778e+09 -3.762776e+09 -3.922776e+09 -3.973853e+02 2.225483e+02 4.789428e+01
-3.960715e+09 -3.760711e+09 -3.920713e+09 -1.161824e+03 3.988434e+02 3.570852e+02
-3.001525e+09 -2.801529e+09 -2.961525e+09 8.796443e+02 5.848709e+01 1.464344e+01
-3.518695e+09 -3.318699e+09 -3.478695e+09 7.756511e+02 3.988375e+01 -4.816834e+01
-3.398207e+09 -3.198206e+09 -3.358207e+09 -1.105240e+02 -9.798459e+00 -1.868741e+01
-2.226031e+09 -2.026030e+09 -2.186031e+09 -2.711079e+02 -2.658201e+01 -3.532424e+01
-1.873695e+09 -1.673694e+09 -1.833695e+09 -2.948523e+02 -3.850116e+01 -3.715228e+01
-1.934444e+09 -1.734440e+09 -1.894443e+09 -4.885276e+02 -1.197422e+03 -2.164291e+02
-2.343099e+09 -2.143098e+09 -2.303098e+09 -2.581879e+02 -1.996468e+01 -4.170454e+01
-4.819719e+09 -4.619722e+09 -4.779722e+09 1.142437e+03 -1.582668e+02 -8.186550e+01
-3.109170e+09 -2.909169e+09 -3.069169e+09 -1.720552e+02 -1.943181e+01 -6.138571e+01
-2.722071e+09 -2.522069e+09 -2.682070e+09 -1.354861e+02 -1.884611e+01 -5.471510e+01
-3.024559e+09 -2.824558e+09 -2.984558e+09 -2.410774e+02 -2.383543e+01 -2.902600e+01
-4.304378e+09 -4.104376e+09 -4.264377e+09 -1.294026e+02 -3.154745e+01 -9.803221e+01
-3.962102e+09 -3.762101e+09 -3.922101e+09 2.674875e+02 7.684424e+01 -2.593344e+01
-4.991800e+09 -4.791799e+09 -4.951799e+09 2.562223e+02 -2.192510e+01 -8.376718e+00
-3.508777e+09 -3.308776e+09 -3.468776e+09 -2.298935e+02 -1.080511e+01 -2.329631e+01
-4.316831e+09 -4.116830e+09 -4.276830e+09 3.176757e+02 3.188690e+01 -2.858800e+01
-4.303703e+09 -4.103701e+09 -4.263702e+09 9.354354e+01 -6.339193e+01 -6.185204e+01
-1.953931e+09 -1.753942e+09 -1.913943e+09 1.991087e+03 1.136316e+03 2.205048e+03
-2.452681e+09 -2.252690e+09 -2.412689e+09 6.068596e+02 -1.857413e+02 7.432228e+02
-1.882106e+09 -1.682107e+09 -1.842107e+09 2.046825e+02 2.560238e+01 -4.406177e+00
-2.775525e+09 -2.575537e+09 -2.735532e+09 -1.322499e+03 -4.501850e+02 5.145958e+03
-2.400950e+09 -2.200963e+09 -2.360957e+09 -2.168080e+03 -1.308419e+03 5.503069e+03
-4.992146e+09 -4.792147e+09 -4.952146e+09 1.607763e+03 -7.221393e+01 -1.549573e+02
-1.856697e+09 -1.656706e+09 -1.816704e+09 -1.868178e+03 -9.885311e+02 1.801586e+03
-2.751380e+09 -2.551390e+09 -2.711386e+09 -1.714734e+03 4.502750e+01 2.290943e+03
-3.577312e+09 -3.377313e+09 -3.537311e+09 2.085764e+03 5.210345e+02 -2.265070e+02
-2.669825e+09 -2.469825e+09 -2.629829e+09 -1.638255e+03 -2.710184e+00 -3.197501e+02
-4.989989e+09 -4.789980e+09 -4.949986e+09 3.198823e+03 6.405440e+02 2.316819e+02
-4.133809e+09 -3.933810e+09 -4.093797e+09 -3.755499e+03 -1.150655e+02 -5.968930e+03
-4.129618e+09 -3.929614e+09 -4.089619e+09 -3.514330e+03 5.900875e+02 1.040009e+02
-2.301698e+09 -2.101709e+09 -2.261709e+09 1.925768e+03 9.993914e+02 2.237873e+03
-4.130861e+09 -3.930859e+09 -4.090862e+09 -3.150967e+03 3.903902e+02 2.371649e+01
-3.961702e+09 -3.761700e+09 -3.921701e+09 -6.600351e+02 2.528950e+02 9.326789e+01
-3.051059e+09 -2.851071e+09 -3.011065e+09 -1.090907e+03 -3.273952e+02 4.630634e+03
-2.447705e+09 -2.247710e+09 -2.407709e+09 -2.827892e+03 -1.061063e+03 1.599141e+03
-4.820216e+09 -4.620214e+09 -4.780215e+09 -2.277420e+02 3.754465e+01 3.837649e+01
-3.860082e+09 -3.660082e+09 -3.820081e+09 3.063884e+01 4.285077e+00 -2.747522e+01
-4.546724e+09 -4.346724e+09 -4.506723e+09 3.934503e+01 1.458567e-01 -3.839763e+01
-4.990806e+09 -4.790805e+09 -4.950805e+09 9.026436e+01 -7.024745e+00 1.049785e+01
-4.991874e+09 -4.791873e+09 -4.951873e+09 -5.147276e+01 -8.083667e+00 6.765188e+00
-3.659127e+09 -3.459126e+09 -3.619126e+09 3.639747e+01 2.169472e+00 -6.758811e+01
-1.799761e+09 -1.599773e+09 -1.759771e+09 -3.200683e+03 -1.279548e+03 5.054492e+03
-1.893076e+09 -1.693075e+09 -1.853075e+09 1.414610e+01 3.686497e+01 -5.660808e+01
-4.991582e+09 -4.791581e+09 -4.951581e+09 -3.337328e+02 -2.238806e+00 4.023284e+00
-3.702748e+09 -3.502751e+09 -3.662748e+09 -2.887414e+01 -1.252104e+00 -6.177919e+01
-4.940335e+09 -4.740335e+09 -4.900333e+09 2.036970e+01 2.487461e-05 1.543972e+01
-1.567652e+09 -1.367654e+09 -1.527651e+09 1.889281e+02 -1.714791e+01 -2.649296e+01
-4.296290e+09 -4.096291e+09 -4.256290e+09 3.596775e+02 -4.932895e+00 9.515904e-01
-2.663166e+09 -2.463167e+09 -2.623164e+09 1.458371e+02 3.551396e+01 5.122048e+00
-2.676483e+09 -2.476496e+09 -2.636490e+09 -2.180228e+03 -1.267711e+03 5.448556e+03
-1.667018e+09 -1.467020e+09 -1.627016e+09 7.761265e+01 -2.302755e+00 7.814367e+00
-2.237901e+09 -2.037915e+09 -2.197910e+09 -1.540158e+03 -1.362516e+03 5.848886e+03
-4.818980e+09 -4.618980e+09 -4.778980e+09 6.126018e+02 2.609447e+01 3.452448e+01
-3.170213e+09 -2.970211e+09 -3.130212e+09 6.703915e+01 1.078842e+01 -4.278213e+00
-2.748720e+09 -2.548719e+09 -2.708719e+09 2.294299e+01 3.729404e+00 -1.385988e+01
-3.501179e+09 -3.301182e+09 -3.461178e+09 9.795924e+02 8.679387e+01 1.591459e+01
-1.667017e+09 -1.467016e+09 -1.627016e+09 1.469101e+01 6.166871e+00 -1.001259e+01
-3.312304e+09 -3.112307e+09 -3.272303e+09 8.341049e+02 -1.517431e+01 5.067094e+01
-3.245614e+09 -3.045616e+09 -3.205613e+09 8.901411e+02 8.035627e+01 -7.898594e+00
-3.191775e+09 -2.991777e+09 -3.151774e+09 5.867456e+02 5.023623e+01 -6.051373e+01
-3.239073e+09 -3.039071e+09 -3.199071e+09 -1.063172e+03 -6.763029e+02 -2.703544e+02
-4.849347e+09 -4.649345e+09 -4.809345e+09 -5.498117e+01 0.000000e+00 0.000000e+00
-2.171575e+09 -1.971575e+09 -2.131573e+09 -9.334726e+02 -5.059935e+02 -1.289023e+02
-3.962534e+09 -3.762533e+09 -3.922533e+09 1.559969e+01 4.051309e+01 -4.175275e+01
-3.960598e+09 -3.760597e+09 -3.920597e+09 -5.101537e+01 6.199069e+00 -5.557256e+01
-2.635650e+09 -2.435653e+09 -2.595649e+09 8.812622e+02 1.115578e+02 -4.645533e+01
-3.962143e+09 -3.762143e+09 -3.922142e+09 -4.012647e+02 4.020580e+01 -7.010301e+01
-3.962018e+09 -3.762017e+09 -3.922017e+09 -4.306655e+02 1.487116e+02 -1.625741e+01
-3.173748e+09 -2.973750e+09 -3.133746e+09 5.536304e+02 4.819607e+01 -1.396355e+01
-3.962176e+09 -3.762175e+09 -3.922175e+09 1.015565e+02 4.722622e+01 -5.646690e+01
-4.992232e+09 -4.792231e+09 -4.952231e+09 1.381294e+02 1.091612e+01 5.998843e+00
-4.821421e+09 -4.621427e+09 -4.781422e+09 1.150411e+03 -1.030208e+02 2.923740e+01
-3.962727e+09 -3.762734e+09 -3.922729e+09 3.233924e+02 3.318792e+02 -7.126741e+01
-2.210637e+09 -2.010653e+09 -2.170649e+09 8.003697e+01 -8.676696e+02 6.234272e+03
-4.546089e+09 -4.346095e+09 -4.506089e+09 4.960192e+01 1.638414e+01 -9.650165e+00
-3.655638e+09 -3.455644e+09 -3.615639e+09 2.618133e+01 2.684459e+01 -5.380731e+01
-4.991155e+09 -4.791156e+09 -4.951154e+09 -9.010456e+02 -3.497523e+01 2.498426e+01
-4.991464e+09 -4.791461e+09 -4.951463e+09 -1.270079e+03 -3.135789e+01 4.479820e+01
-3.963488e+09 -3.763487e+09 -3.923487e+09 -5.293610e+02 -5.531163e+01 5.408767e+00
-1.944596e+09 -1.744607e+09 -1.904606e+09 -2.679462e+03 -9.134873e+02 4.291083e+03
-1.600984e+09 -1.400984e+09 -1.560984e+09 1.164049e+02 4.883609e+01 4.553277e+00
-2.703553e+09 -2.503553e+09 -2.663553e+09 -3.260277e-02 5.873498e+01 1.220272e+00
-2.216126e+09 -2.016126e+09 -2.176126e+09 1.813313e+01 1.118282e+01 9.606893e-01
-2.255710e+09 -2.055721e+09 -2.215719e+09 -2.601133e+03 -6.482119e+02 5.099942e+03
-2.545919e+09 -2.345919e+09 -2.505919e+09 1.158595e+02 4.179737e+01 -1.204515e+01
-3.753493e+09 -3.553494e+09 -3.713493e+09 1.153225e+02 2.177935e+01 2.482671e+01
-2.965034e+09 -2.765034e+09 -2.925034e+09 3.644315e+02 4.875421e+01 9.397799e+00
-3.012022e+09 -2.812029e+09 -2.972029e+09 -3.724033e+03 -9.928053e+02 2.454482e+03
-2.091271e+09 -1.891281e+09 -2.051278e+09 2.759665e+03 5.334375e+02 3.901255e+03
-3.214921e+09 -3.014920e+09 -3.174920e+09 3.799095e+01 5.556088e+00 -5.957174e+00
-4.133191e+09 -3.933186e+09 -4.093194e+09 -2.448976e+03 2.230340e+03 1.609052e+03
-1.825993e+09 -1.625991e+09 -1.785992e+09 6.569787e+01 8.631631e+00 -1.316927e+01
-4.302107e+09 -4.102110e+09 -4.262109e+09 8.799195e+02 -2.486447e+01 -2.057669e+02
-2.250088e+09 -2.050087e+09 -2.210087e+09 1.095063e+02 9.027222e+00 -1.777863e+01
-3.145753e+09 -2.945751e+09 -3.105751e+09 4.829897e+01 9.771451e+00 -1.821102e+01
-4.132207e+09 -3.932208e+09 -4.092208e+09 8.155781e+02 5.984950e+01 7.223702e+01
-2.874977e+09 -2.674976e+09 -2.834977e+09 3.966286e+01 5.432122e+00 -4.065055e+00
-3.468058e+09 -3.268057e+09 -3.428057e+09 8.318520e+01 5.985719e-01 -8.851746e+00
-3.961905e+09 -3.761905e+09 -3.921905e+09 5.055033e+02 5.583521e+01 1.357703e+01
-4.632738e+09 -4.432738e+09 -4.592738e+09 -7.990699e+02 -4.352472e+01 3.011543e+01
-4.133804e+09 -3.933803e+09 -4.093803e+09 -5.859573e+02 -4.473844e+01 5.642225e+01
-3.181453e+09 -2.981452e+09 -3.141452e+09 8.375639e+01 1.167772e+01 -9.503388e+00
-1.580828e+09 -1.380827e+09 -1.540827e+09 1.027068e+02 1.872763e+01 -1.931725e+01
-4.283408e+09 -4.083397e+09 -4.243416e+09 -2.198046e+02 -3.674385e+03 -2.044582e+03
-2.722053e+09 -2.522052e+09 -2.682052e+09 -1.687543e+01 -1.857429e+01 -8.370370e+01
-4.991058e+09 -4.791057e+09 -4.951058e+09 -6.992548e+02 9.522140e+00 -6.224903e-02
-4.179641e+09 -3.979640e+09 -4.139640e+09 -1.110420e+02 -4.519476e+01 3.251845e+00
-3.962729e+09 -3.762727e+09 -3.922728e+09 -5.197209e+02 -7.386485e+01 9.835688e+00
-2.635264e+09 -2.435265e+09 -2.595263e+09 1.929052e+03 8.119696e+02 -2.842968e+02
-3.955305e+09 -3.755291e+09 -3.915314e+09 -9.812137e+02 -3.916657e+02 -3.811989e+03
-4.141702e+09 -3.941682e+09 -4.101699e+09 -3.819346e+03 5.597851e+03 -1.737604e+03
-3.960739e+09 -3.760730e+09 -3.920739e+09 2.500989e+03 -4.528500e+01 -1.798405e+03
-4.820858e+09 -4.620847e+09 -4.780846e+09 3.789482e+03 1.162378e+02 2.821528e+03
-4.806420e+09 -4.606408e+09 -4.766419e+09 2.674310e+03 1.102580e+03 -1.582580e+03
-3.963641e+09 -3.763634e+09 -3.923644e+09 -8.427437e+01 -1.262595e+03 -1.719986e+03
-3.961545e+09 -3.761552e+09 -3.921540e+09 4.792779e+03 3.846312e+03 3.837505e+03
-4.814104e+09 -4.614089e+09 -4.774104e+09 3.829451e+02 1.280603e+03 5.255995e+02
-4.991402e+09 -4.791404e+09 -4.951375e+09 3.152174e+03 5.940272e+02 2.145717e+03
-4.828335e+09 -4.628329e+09 -4.788340e+09 -3.804817e+02 -5.043799e+02 9.373693e+00
-4.821570e+09 -4.621565e+09 -4.781572e+09 -2.389074e+02 -5.032391e+02 -6.338700e+02
-3.963374e+09 -3.763357e+09 -3.923371e+09 -2.464477e+03 5.009923e+03 -3.550724e+03
-4.993339e+09 -4.793333e+09 -4.953342e+09 6.535122e+02 -5.046304e+02 -4.011145e+02
-3.961358e+09 -3.761365e+09 -3.921361e+09 9.364453e+02 5.235259e+02 -1.652175e+02
-4.647849e+09 -4.447854e+09 -4.607850e+09 9.041494e+02 5.383541e+01 -9.897053e+00
-4.814103e+09 -4.614088e+09 -4.774104e+09 -4.338216e+02 1.917871e+03 -1.565480e+03
-4.818870e+09 -4.618871e+09 -4.778871e+09 5.277166e+02 -4.844158e+00 -6.165412e+01
-4.993185e+09 -4.793191e+09 -4.953186e+09 9.449074e+02 4.821680e+01 1.175728e+01
-3.962320e+09 -3.762328e+09 -3.922324e+09 -5.013835e+02 9.936472e+02 8.567015e+01
-4.817518e+09 -4.617525e+09 -4.777520e+09 7.288026e+02 -9.063570e+01 -1.310622e+01
-4.786350e+09 -4.586355e+09 -4.746350e+09 -1.619613e+02 -1.003539e+02 -1.549943e+01
-2.885787e+09 -2.685793e+09 -2.845788e+09 1.589926e+01 1.524558e+01 -2.408862e+01
-4.134005e+09 -3.934011e+09 -4.094006e+09 -8.033796e+02 4.345797e+01 -5.978561e+01
-4.991160e+09 -4.791163e+09 -4.951161e+09 4.469638e+02 -4.813386e+01 -2.107533e+02
-4.827819e+09 -4.627804e+09 -4.787795e+09 -1.870006e+03 4.359233e+03 -1.446505e+03
-2.455153e+09 -2.255160e+09 -2.415159e+09 3.178215e+03 9.558352e+02 2.278109e+03
-3.961275e+09 -3.761278e+09 -3.921277e+09 6.633452e+02 4.449294e+01 -1.267456e+02
-3.961257e+09 -3.761259e+09 -3.921258e+09 1.100267e+03 1.062619e+01 -1.643918e+02
-4.991177e+09 -4.791175e+09 -4.951176e+09 -1.065347e+03 -1.009366e+02 -3.086951e+01
-4.646657e+09 -4.446656e+09 -4.606656e+09 -3.282628e+02 1.232959e+02 2.534435e+01
-2.428853e+09 -2.228858e+09 -2.388858e+09 1.038915e+03 -6.245436e+01 2.637454e+02
-2.732422e+09 -2.532434e+09 -2.692429e+09 5.863636e+02 5.100204e+02 2.849608e+03
-4.645804e+09 -4.445807e+09 -4.605804e+09 -1.654465e+03 1.230966e+02 -1.720600e+01
-4.647730e+09 -4.447729e+09 -4.607729e+09 5.210981e+01 -4.915305e+00 -7.246569e+01
-4.302490e+09 -4.102489e+09 -4.262489e+09 -1.270665e+03 4.150096e+01 2.652582e+01
-2.805308e+09 -2.605312e+09 -2.765312e+09 1.189781e+03 -1.186170e+01 -7.110807e+01
-4.820609e+09 -4.620616e+09 -4.780613e+09 -1.381436e+03 3.930431e+02 1.701314e+02
-3.622349e+09 -3.422349e+09 -3.582349e+09 1.330649e+02 3.154048e+01 -1.079919e+01
-4.116349e+09 -3.916350e+09 -4.076350e+09 7.389032e+00 3.808705e+00 -1.814453e+01
-1.705369e+09 -1.505370e+09 -1.665370e+09 1.131750e+02 3.991293e+01 3.515767e+00
-1.908011e+09 -1.708011e+09 -1.868011e+09 1.183295e+02 4.142462e+01 -6.393831e+00
-2.863323e+09 -2.663333e+09 -2.823330e+09 -3.031179e+01 -1.023579e+02 2.408452e+02
-3.961214e+09 -3.761217e+09 -3.921216e+09 2.563428e+02 2.657560e+01 -2.016573e+01
-3.347381e+09 -3.147387e+09 -3.307386e+09 3.697400e+03 1.103499e+03 1.612275e+03
-4.825163e+09 -4.625162e+09 -4.785163e+09 6.507369e+02 2.087597e+01 -1.897773e+01
-3.961658e+09 -3.761660e+09 -3.921659e+09 9.938710e+02 3.371964e+01 -6.634680e+01
-1.792764e+09 -1.592765e+09 -1.752765e+09 -2.267123e+02 -1.248210e+01 1.598181e+01
-4.990352e+09 -4.790353e+09 -4.950353e+09 -1.021072e+03 1.143226e+01 -4.072053e+01
-3.962675e+09 -3.762676e+09 -3.922676e+09 -7.762411e+02 -3.682489e+01 6.778632e+01
-3.101014e+09 -2.901020e+09 -3.061019e+09 3.349603e+03 1.314472e+03 1.680391e+03
-1.870895e+09 -1.670905e+09 -1.830903e+09 3.718807e+03 1.405217e+03 3.567446e+03
-3.127796e+09 -2.927810e+09 -3.087800e+09 1.952573e+03 1.296173e+03 6.727816e+03
-3.961628e+09 -3.761630e+09 -3.921629e+09 6.557588e+02 4.485653e+01 -3.211567e+01
-3.961790e+09 -3.761792e+09 -3.921791e+09 8.562700e+02 4.729916e+01 -1.739492e+01
-3.552962e+09 -3.352974e+09 -3.512966e+09 2.221081e+03 7.777756e+02 3.947312e+03
-4.991154e+09 -4.791155e+09 -4.951158e+09 1.052416e+03 -4.695371e+02 3.102468e+02
-2.246787e+09 -2.046789e+09 -2.206790e+09 -2.396867e+03 -5.669574e+02 8.199037e+02
-3.961539e+09 -3.761540e+09 -3.921540e+09 7.371182e+02 4.952185e+01 -8.908907e+00
-3.768669e+09 -3.568676e+09 -3.728674e+09 -1.584133e+03 -3.349783e+02 7.931260e+02
-3.962198e+09 -3.762200e+09 -3.922199e+09 -3.974479e+02 -2.600153e+01 3.157156e+01
-4.819005e+09 -4.619006e+09 -4.779009e+09 3.477059e+03 5.726120e+02 -7.410674e+02
-2.895845e+09 -2.695840e+09 -2.855843e+09 3.047005e+02 6.115176e+02 -1.203680e+02
-4.835071e+09 -4.635073e+09 -4.795074e+09 1.236900e+03 -6.554090e+02 4.959916e+02
-3.961362e+09 -3.761354e+09 -3.921371e+09 3.364284e+03 3.880480e+03 -3.078779e+03
-3.961403e+09 -3.761397e+09 -3.921408e+09 3.927229e+03 2.442504e+03 -2.881051e+03
-2.593815e+09 -2.393822e+09 -2.553823e+09 -3.613338e+03 -1.443274e+03 2.536039e+03
-1.844055e+09 -1.644058e+09 -1.804058e+09 -3.195528e+03 -1.366868e+03 2.705984e+03
-1.690833e+09 -1.490845e+09 -1.650837e+09 1.196753e+03 -3.165736e+03 5.660991e+02
-2.229013e+09 -2.029020e+09 -2.189019e+09 -1.662483e+03 -3.837141e+02 1.145318e+03
-3.961401e+09 -3.761402e+09 -3.921409e+09 1.421450e+03 -2.961402e+03 1.456567e+03
-3.961523e+09 -3.761527e+09 -3.921534e+09 7.508582e+02 -3.677915e+03 9.351162e+02
-2.644378e+09 -2.444387e+09 -2.604381e+09 5.209726e+01 -2.897204e+02 8.274011e+01
-4.302807e+09 -4.102808e+09 -4.262808e+09 5.505099e+02 -7.255405e+00 -2.172496e+01
-4.991057e+09 -4.791054e+09 -4.951066e+09 -2.540134e+02 -9.523179e+02 5.194713e+02
-3.019026e+09 -2.819026e+09 -2.979029e+09 -2.715300e+03 -6.284406e+02 7.225077e+02
-3.611324e+09 -3.411333e+09 -3.571327e+09 8.930854e+00 -2.939765e+02 -1.024963e+01
-4.940531e+09 -4.740538e+09 -4.900534e+09 -8.978625e+01 7.976500e-08 -4.974864e+01
-4.301423e+09 -4.101419e+09 -4.261442e+09 2.579479e+03 7.005834e+03 -2.422137e+03
-3.788454e+09 -3.588455e+09 -3.748457e+09 -2.813102e+03 -4.012391e+02 -3.617796e+02
-4.984155e+09 -4.784148e+09 -4.944115e+09 -2.566506e+03 -2.733885e+01 -1.219904e+03
-2.941267e+09 -2.741268e+09 -2.901267e+09 -3.330424e+03 -1.747430e+03 1.205888e+03
-3.961331e+09 -3.761312e+09 -3.921330e+09 -3.208425e+03 -6.921375e+03 -2.017350e+03
-3.841342e+09 -3.641339e+09 -3.801341e+09 1.347466e+03 7.166661e+02 -2.526810e+02
-3.961518e+09 -3.761501e+09 -3.921497e+09 -3.664034e+03 -1.221150e+04 -2.821298e+03
-4.839038e+09 -4.639035e+09 -4.799037e+09 1.582415e+03 3.852126e+02 -2.783838e+02
-3.887772e+09 -3.687770e+09 -3.847770e+09 1.369698e+03 5.766478e+02 -1.236531e+02
-4.839126e+09 -4.639124e+09 -4.799125e+09 1.580281e+03 2.435580e+02 1.169619e+01
-3.961707e+09 -3.761705e+09 -3.921706e+09 -3.505088e+02 -3.266881e+02 2.227571e+02
-4.008857e+09 -3.808855e+09 -3.968855e+09 5.850447e+02 1.888336e+02 6.594492e+01
-4.616743e+09 -4.416740e+09 -4.576741e+09 5.662520e+02 1.808698e+02 -2.543035e+01
-5.010201e+09 -4.810199e+09 -4.970199e+09 4.947594e+02 3.348939e+02 -2.661139e+01
-3.961520e+09 -3.761517e+09 -3.921521e+09 -1.002948e+03 -7.264932e+02 9.725880e+02
-2.474737e+09 -2.274735e+09 -2.434736e+09 -3.561015e+02 -6.152648e+01 -1.306952e+02
-1.888750e+09 -1.688749e+09 -1.848749e+09 -3.315285e+02 -4.850031e+01 -4.247748e+01
-4.303443e+09 -4.103441e+09 -4.263443e+09 -1.687234e+03 -7.130938e+01 2.115888e+02
-2.864759e+09 -2.664757e+09 -2.824758e+09 -1.741862e+02 -1.065327e+01 -1.876833e+01
-3.961329e+09 -3.761325e+09 -3.921329e+09 -2.169158e+03 -4.360913e+02 1.098697e+03
-3.084053e+09 -2.884051e+09 -3.044052e+09 -2.087765e+02 -2.547530e+01 -7.157855e+01
-2.766757e+09 -2.566755e+09 -2.726756e+09 -1.715249e+02 -2.974840e+01 -6.513931e+01
-1.690842e+09 -1.490840e+09 -1.650840e+09 5.992190e+00 -2.132417e+02 -4.469445e+01
-4.113043e+09 -3.913043e+09 -4.073043e+09 -1.029106e+03 -4.620340e+01 3.744343e+01
-3.963283e+09 -3.763282e+09 -3.923283e+09 -1.300691e+03 -8.436517e+01 4.841185e+01
-4.806418e+09 -4.606417e+09 -4.766418e+09 -9.687183e+02 -4.340237e+01 1.113303e+02
-3.961616e+09 -3.761614e+09 -3.921616e+09 7.991932e+01 -5.439354e+02 4.257218e+02
-3.491583e+09 -3.291582e+09 -3.451582e+09 -3.365343e+02 -1.252820e+01 -2.488337e+01
-4.992812e+09 -4.792811e+09 -4.952812e+09 -1.266393e+03 6.908409e+00 -1.678146e+01
-4.992811e+09 -4.792810e+09 -4.952811e+09 -1.397316e+03 4.985237e-01 8.378464e+00
-3.962322e+09 -3.762320e+09 -3.922321e+09 -9.864542e+02 -1.233689e+02 2.380190e+01
-3.002612e+09 -2.802611e+09 -2.962611e+09 -3.617916e+02 -7.059363e+01 -7.896584e+00
-2.193768e+09 -1.993767e+09 -2.153767e+09 5.431555e+01 4.745315e-01 -3.279246e+01
-4.483222e+09 -4.283229e+09 -4.443227e+09 -3.470227e+02 9.225913e+02 1.060551e+02
-4.658698e+09 -4.458704e+09 -4.618699e+09 1.251037e+03 9.142276e+01 -1.854332e+01
-4.134389e+09 -3.934397e+09 -4.094394e+09 -5.054985e+02 8.270876e+02 8.043247e+01
-4.835824e+09 -4.635832e+09 -4.795831e+09 8.535067e+02 5.209885e+02 -5.072287e+01
-4.997618e+09 -4.797625e+09 -4.957625e+09 2.836394e+02 7.976010e+02 9.835652e+01
-2.278593e+09 -2.078592e+09 -2.238592e+09 1.307793e+02 1.111372e+01 -3.200763e+01
-1.909266e+09 -1.709265e+09 -1.869265e+09 9.219459e+00 1.477782e+01 -5.652473e+01
-2.746600e+09 -2.546599e+09 -2.706599e+09 3.638040e+01 1.364525e+01 -1.345506e+01
-4.639522e+09 -4.439523e+09 -4.599523e+09 3.587266e+02 1.694649e+01 3.634213e+01
-4.821895e+09 -4.621901e+09 -4.781901e+09 -1.246743e+03 8.396663e+02 9.884187e+01
-3.962321e+09 -3.762328e+09 -3.922324e+09 8.290280e+01 1.005212e+03 -2.282240e+01
-4.992810e+09 -4.792818e+09 -4.952816e+09 -3.938731e+02 2.032026e+02 5.500145e+01
-3.963376e+09 -3.763357e+09 -3.923373e+09 -1.552888e+03 4.808312e+03 -6.369573e+02
-3.526593e+09 -3.326592e+09 -3.486592e+09 8.187323e+01 -5.911346e+00 -2.445820e+01
-4.112935e+09 -3.912921e+09 -4.072939e+09 6.067034e+02 1.043962e+03 -1.065402e+03
-3.015391e+09 -2.815390e+09 -2.975390e+09 5.750112e+01 1.950238e+01 -3.947510e+01
-2.557778e+09 -2.357784e+09 -2.517781e+09 -2.610236e+03 -2.760468e+03 -7.773469e+02
-4.992020e+09 -4.792012e+09 -4.952014e+09 3.282879e+03 -2.866077e+02 -5.748759e+01
-4.992813e+09 -4.792801e+09 -4.952793e+09 3.164320e+03 5.653488e+02 1.104021e+02
-3.962323e+09 -3.762311e+09 -3.922317e+09 4.184827e+03 2.219975e+03 -9.527384e+02
-4.069654e+09 -3.869654e+09 -4.029657e+09 2.413373e+03 8.359504e+01 8.816400e+01
-3.963116e+09 -3.763099e+09 -3.923098e+09 4.108977e+03 7.089602e+03 -3.995866e+02
-1.579699e+09 -1.379700e+09 -1.539700e+09 2.263444e+02 4.734960e+01 9.119268e+00
-1.891928e+09 -1.691935e+09 -1.851929e+09 -1.455317e+03 -2.184511e+03 -1.681175e+02
-2.565392e+09 -2.365393e+09 -2.525393e+09 3.026810e+02 1.952778e+01 1.083463e+02
-1.987416e+09 -1.787425e+09 -1.947419e+09 -3.595264e+02 -4.432433e+02 -2.163819e+02
-3.020810e+09 -2.820817e+09 -2.980812e+09 -5.835722e+02 -1.005066e+03 -1.365944e+02
-2.864611e+09 -2.664614e+09 -2.824613e+09 -2.469156e+03 -2.170937e+03 -9.868977e+02
-3.961455e+09 -3.761447e+09 -3.921455e+09 -2.365366e+03 -4.192678e+02 -7.620762e+02
-3.492717e+09 -3.292721e+09 -3.452719e+09 -1.580177e+03 -1.828362e+03 -5.379619e+02
-1.667019e+09 -1.467018e+09 -1.627017e+09 -6.630562e+01 -1.071452e+02 6.472739e+00
-2.989393e+09 -2.789400e+09 -2.949397e+09 -1.522189e+03 -2.343374e+03 -3.659518e+02
-1.938922e+09 -1.738931e+09 -1.898924e+09 -6.200024e+02 -1.138025e+03 1.869911e+01
-3.444720e+09 -3.244728e+09 -3.404724e+09 -2.723175e+02 -1.805555e+03 -7.068833e+01
-3.897660e+09 -3.697666e+09 -3.857661e+09 4.668978e+02 1.309171e+02 -3.792268e+01
-3.465945e+09 -3.265951e+09 -3.425946e+09 4.062613e+02 1.673519e+02 -3.835160e+01
-4.134471e+09 -3.934477e+09 -4.094472e+09 5.048604e+02 1.083232e+01 1.292902e+01
-2.208342e+09 -2.008344e+09 -2.168343e+09 6.246367e+01 4.774621e+00 4.594522e+00
-3.847359e+09 -3.647365e+09 -3.807360e+09 5.539929e+00 2.639608e+01 -2.726856e+01
-4.991893e+09 -4.791899e+09 -4.951894e+09 -7.132056e+02 -6.151945e+01 2.641122e+01
-4.940362e+09 -4.740367e+09 -4.900362e+09 2.369824e+01 -7.460467e-05 5.454517e+00
-2.784411e+09 -2.584413e+09 -2.744412e+09 5.942369e+01 1.414312e+01 -1.170225e+00
-3.230963e+09 -3.030965e+09 -3.190964e+09 3.458995e+01 -5.132019e+00 8.858983e+00
-3.736036e+09 -3.536033e+09 -3.696037e+09 3.926765e+02 -1.086536e+03 -1.278577e+03
-3.607965e+09 -3.407967e+09 -3.567968e+09 7.149506e+01 -6.903624e+01 6.517375e+01
-4.134803e+09 -3.934797e+09 -4.094804e+09 1.722404e+03 -4.498471e+02 -1.083303e+03
-2.017319e+09 -1.817314e+09 -1.977316e+09 -1.629592e+03 -1.640873e+03 -1.628981e+03
-4.821346e+09 -4.621343e+09 -4.781348e+09 1.904500e+03 -9.612106e+01 -3.316049e+02
-2.990239e+09 -2.790235e+09 -2.950241e+09 2.083370e+03 -5.803831e+02 -1.168199e+03
-3.263792e+09 -3.063785e+09 -3.223793e+09 3.674579e+02 -1.652386e+03 -1.528217e+03
-1.572482e+09 -1.372483e+09 -1.532486e+09 1.587071e+03 3.356868e+01 2.903947e+02
-2.330759e+09 -2.130757e+09 -2.290762e+09 1.579014e+03 -4.110804e+02 -1.324868e+03
-3.144208e+09 -2.944210e+09 -3.104209e+09 1.289819e+02 5.269945e+00 1.085731e+01
-4.992774e+09 -4.792778e+09 -4.952776e+09 3.366274e+03 -1.475081e+01 1.691013e+02
-3.891975e+09 -3.691974e+09 -3.851974e+09 -3.500374e+02 -5.108952e+01 -5.611986e+01
-3.460260e+09 -3.260259e+09 -3.420259e+09 -3.484861e+02 -5.060134e+01 -3.042085e+01
-4.134472e+09 -3.934471e+09 -4.094472e+09 -4.127208e+02 -5.250911e+01 4.158820e+01
-3.497577e+09 -3.297576e+09 -3.457576e+09 -7.425328e-01 -1.352993e+02 6.250599e+00
-4.134407e+09 -3.934405e+09 -4.094406e+09 -3.532346e+02 -8.234143e+01 6.268733e+01
-3.396361e+09 -3.196363e+09 -3.356362e+09 1.324242e+02 8.870678e+00 -7.869670e-01
-4.992543e+09 -4.792541e+09 -4.952542e+09 -8.794011e+01 -8.941648e+00 3.382525e+01
-4.991203e+09 -4.791202e+09 -4.951203e+09 5.668487e+02 3.077369e+01 4.188934e+00
-3.960589e+09 -3.760587e+09 -3.920589e+09 -2.318180e+03 7.942311e+02 8.852585e+02
-3.961416e+09 -3.761414e+09 -3.921415e+09 -1.413466e+03 3.905178e+02 1.546361e+02
-3.961478e+09 -3.761478e+09 -3.921477e+09 -1.295755e+03 2.447295e+02 -2.261687e+01
-2.775061e+09 -2.575062e+09 -2.735062e+09 1.271849e+02 -3.356610e-04 -2.623940e+00
-4.304408e+09 -4.104406e+09 -4.264406e+09 -3.607441e+02 6.292517e+00 -2.475447e+01
-3.961703e+09 -3.761701e+09 -3.921701e+09 -9.569674e+02 2.717009e+02 5.817895e+01
-3.206788e+09 -3.006789e+09 -3.166789e+09 6.788712e+01 1.616090e+01 2.978747e+01
-4.131147e+09 -3.931144e+09 -4.091146e+09 -8.642078e+02 1.723754e+02 9.593601e+01
-3.129196e+09 -2.929198e+09 -3.089197e+09 1.438504e+02 2.723277e+01 2.971032e+01
-3.812447e+09 -3.612448e+09 -3.772448e+09 2.891514e+01 9.546828e+00 2.129170e+01
-3.479899e+09 -3.279901e+09 -3.439900e+09 2.061882e+00 -1.157608e+00 2.653522e-01
-3.961628e+09 -3.761630e+09 -3.921629e+09 6.100747e+02 3.972812e+01 5.260340e+00
-4.818548e+09 -4.618539e+09 -4.778517e+09 -3.865400e+03 -2.704639e+03 -5.596145e+02
-4.299616e+09 -4.099604e+09 -4.259634e+09 2.307735e+02 5.079508e+03 -3.670968e+03
-3.083322e+09 -2.883323e+09 -3.043323e+09 -1.503054e+01 -4.521233e+00 3.122168e+01
-4.254534e+09 -4.054530e+09 -4.214534e+09 -1.797075e+02 7.290057e+02 -7.196425e+02
-1.993494e+09 -1.793496e+09 -1.953495e+09 1.095572e+01 5.979634e+00 1.349521e+01
-3.961398e+09 -3.761396e+09 -3.921402e+09 1.045976e+03 -2.128805e+03 1.789549e+03
-1.886621e+09 -1.686623e+09 -1.846623e+09 7.657454e+01 4.485341e+00 4.201174e+01
-1.709721e+09 -1.509723e+09 -1.669722e+09 5.402668e+01 2.084153e+01 5.528191e+00
-3.352005e+09 -3.152006e+09 -3.312006e+09 1.646950e+01 -4.398144e-01 1.276003e+01
-2.738467e+09 -2.538469e+09 -2.698468e+09 -1.736388e+01 -9.126579e+00 9.494100e+00
-3.214104e+09 -3.014106e+09 -3.174105e+09 -2.092868e+01 1.048624e+01 3.175290e+01
-3.961057e+09 -3.761052e+09 -3.921059e+09 -3.876481e+02 -1.354309e+03 1.830030e+03
-3.886474e+09 -3.686475e+09 -3.846475e+09 -7.680926e+00 3.528457e+00 1.363903e+00
-3.436138e+09 -3.236140e+09 -3.396139e+09 -2.298396e+02 -3.229388e+00 8.503042e+00
-4.992664e+09 -4.792666e+09 -4.952665e+09 1.553667e+02 -1.608898e+01 -2.344440e+01
-3.359299e+09 -3.159300e+09 -3.319300e+09 -3.409319e+02 -1.610120e+01 7.675641e+00
-3.473694e+09 -3.273696e+09 -3.433695e+09 1.095248e+01 -1.746388e+00 5.165787e-01
-3.272118e+09 -3.072120e+09 -3.232119e+09 4.451015e+01 -1.087872e+00 1.870209e+01
-3.943012e+09 -3.743014e+09 -3.903013e+09 -5.472129e-01 -5.002566e+00 6.754668e-01
-4.302783e+09 -4.102785e+09 -4.262784e+09 6.506568e+02 -1.051470e+01 -4.119340e+01
-3.961451e+09 -3.761445e+09 -3.921453e+09 2.694320e+03 1.804579e+03 -1.221815e+03
-3.961450e+09 -3.761445e+09 -3.921452e+09 3.346091e+03 1.667699e+03 -1.766084e+03
-3.531470e+09 -3.331472e+09 -3.491471e+09 5.374744e+01 -1.146477e+01 2.570395e+01
-2.698631e+09 -2.498624e+09 -2.658630e+09 8.739270e+02 1.208203e+03 -2.148238e+03
-4.992480e+09 -4.792473e+09 -4.952480e+09 1.036502e+03 5.660948e+02 -4.690586e+02
-3.372056e+09 -3.172057e+09 -3.332057e+09 1.221289e+02 6.310079e+00 5.989045e+00
-3.421550e+09 -3.221543e+09 -3.381550e+09 8.522709e+02 2.002727e+03 -1.787133e+03
-3.448500e+09 -3.248496e+09 -3.408500e+09 2.026752e+03 2.136227e+03 -1.375622e+03
-3.004403e+09 -2.804405e+09 -2.964404e+09 6.129587e+01 2.768570e+01 1.956583e+01
-2.370716e+09 -2.170718e+09 -2.330717e+09 6.408622e+00 2.475074e+00 1.163758e+01
-4.818270e+09 -4.618273e+09 -4.778278e+09 8.166459e+02 -7.329953e+02 -2.199664e+02
-4.305754e+09 -4.105761e+09 -4.265760e+09 5.727799e+02 -1.212043e+03 2.951800e+02
-3.613797e+09 -3.413804e+09 -3.573799e+09 6.261147e+01 -2.057021e+02 7.845894e+01
-3.235521e+09 -3.035529e+09 -3.195526e+09 7.245093e+02 -2.691112e+03 6.535410e+02
-3.844398e+09 -3.644407e+09 -3.804402e+09 1.013698e+01 -2.835335e+02 -7.233100e+01
-1.586440e+09 -1.386442e+09 -1.546441e+09 -1.204319e+01 7.354011e-01 5.714984e+01
-3.271392e+09 -3.071394e+09 -3.231394e+09 -2.585519e+01 -1.427418e-01 2.926394e+01
-3.963984e+09 -3.763986e+09 -3.923985e+09 -1.117826e+02 1.057100e+01 2.444869e-01
-1.581785e+09 -1.381786e+09 -1.541786e+09 1.718855e+02 3.745129e+01 3.122076e+01
-3.710085e+09 -3.510086e+09 -3.670086e+09 -1.146521e+00 2.459541e+00 -8.283614e-01
-3.961518e+09 -3.761520e+09 -3.921519e+09 3.426270e+02 3.942441e+01 2.133894e+01
-1.882065e+09 -1.682067e+09 -1.842067e+09 1.835792e+02 2.176533e+01 4.456345e+01
-3.314680e+09 -3.114682e+09 -3.274681e+09 7.417987e+01 1.614240e+01 -4.525207e+01
-4.102567e+09 -3.902569e+09 -4.062569e+09 4.468009e+01 6.875693e+00 2.500154e+01
-4.820673e+09 -4.620675e+09 -4.780674e+09 -1.242526e+03 -6.362257e+01 1.227738e+02
-4.820276e+09 -4.620275e+09 -4.780276e+09 4.202090e+02 1.695870e+01 -1.125024e+00
-4.135183e+09 -3.935182e+09 -4.095182e+09 4.342570e+02 2.025222e+01 -3.177049e+01
-3.669663e+09 -3.469663e+09 -3.629662e+09 2.641597e+01 -4.594472e+00 -8.302042e+01
-3.088481e+09 -2.888482e+09 -3.048482e+09 6.239210e+01 8.136088e+00 -1.951778e+00
-4.940315e+09 -4.740316e+09 -4.900314e+09 1.967498e+00 4.973894e-05 2.716786e+01
-4.650289e+09 -4.450290e+09 -4.610288e+09 -2.378761e+02 -4.582570e+01 -3.306487e+01
-4.124526e+09 -3.924525e+09 -4.084525e+09 -2.614751e-01 2.612284e+01 -7.050709e+00
-3.628404e+09 -3.428403e+09 -3.588403e+09 3.572129e+01 4.658149e+00 -3.003326e+01
-2.959225e+09 -2.759225e+09 -2.919224e+09 -2.796916e+01 -2.521838e+01 -2.379998e+01
-2.749299e+09 -2.549300e+09 -2.709300e+09 8.833956e+01 3.193210e+01 -4.477352e+00
-4.646131e+09 -4.446134e+09 -4.606133e+09 -2.159558e+03 3.209245e+02 2.273223e+01
-3.185286e+09 -2.985287e+09 -3.145287e+09 1.974322e+02 3.671844e+01 3.467034e+01
-4.302721e+09 -4.102728e+09 -4.262724e+09 -7.353694e+02 2.435419e+02 3.463314e+01
-1.693663e+09 -1.493664e+09 -1.653664e+09 8.356207e+01 2.901050e+01 6.053406e+00
-1.893165e+09 -1.693167e+09 -1.853166e+09 -9.874264e+01 -3.800020e+00 3.956467e+01
-4.180840e+09 -3.980850e+09 -4.140846e+09 1.330382e+02 -2.153420e+01 2.728732e+02
-4.819522e+09 -4.619514e+09 -4.779508e+09 5.087777e+03 2.378442e+03 -1.231414e+03
-3.962877e+09 -3.762875e+09 -3.922880e+09 4.878373e+03 2.525458e+03 4.803086e+02
-3.961475e+09 -3.761474e+09 -3.921474e+09 7.178950e+03 6.481821e+03 2.996553e+03
-4.992815e+09 -4.792804e+09 -4.952795e+09 1.524510e+03 7.337867e+02 2.696902e+02
-2.802427e+09 -2.602429e+09 -2.762428e+09 -1.155798e+02 -1.942890e+00 2.271548e+01
-4.646469e+09 -4.446469e+09 -4.606469e+09 6.213014e+02 2.900026e+01 5.358634e+01
-3.441190e+09 -3.241192e+09 -3.401192e+09 -1.102493e+02 1.493579e+00 3.860663e+00
-4.662113e+09 -4.462112e+09 -4.622112e+09 1.813604e+02 5.094581e+01 -1.543998e+01
-4.647737e+09 -4.447736e+09 -4.607736e+09 5.023540e+00 1.855406e+01 -5.538316e+01
-2.976211e+09 -2.776213e+09 -2.936212e+09 -2.776508e+01 2.199849e-01 3.694625e+01
-4.992232e+09 -4.792231e+09 -4.952231e+09 -1.380720e+01 -8.448470e+00 -8.552695e-01
-2.714247e+09 -2.514250e+09 -2.674246e+09 -3.438321e+02 -1.361275e+02 -5.399018e+01
-2.755487e+09 -2.555489e+09 -2.715487e+09 -5.672181e+02 -3.196803e+01 -4.485912e+01
-4.646409e+09 -4.446407e+09 -4.606408e+09 -6.579436e+02 1.358210e+02 2.041498e+01
-4.818790e+09 -4.618789e+09 -4.778789e+09 -3.432769e+02 -7.833238e-01 -2.448032e+01
-3.985584e+09 -3.785586e+09 -3.945578e+09 -2.698104e+03 1.488247e+03 -2.213337e+03
-4.455689e+09 -4.255691e+09 -4.415688e+09 -4.242603e+02 -3.280957e+01 -2.520319e+01
-2.745493e+09 -2.545494e+09 -2.705492e+09 -5.216670e+02 8.969328e+01 -1.201803e+01
-3.287918e+09 -3.087921e+09 -3.247918e+09 -2.768624e+02 -4.363603e+01 -8.481018e+01
-3.347953e+09 -3.147955e+09 -3.307952e+09 -1.730743e+02 1.463071e+01 -3.472385e+01
-4.475173e+09 -4.275173e+09 -4.435173e+09 1.215876e+03 2.898404e+01 -3.594455e+01
-3.961461e+09 -3.761461e+09 -3.921460e+09 -1.285791e+03 2.140146e+02 1.018913e+01
-3.291552e+09 -3.091555e+09 -3.251552e+09 -3.678654e+02 1.282134e+02 -1.079667e+02
-3.285105e+09 -3.085106e+09 -3.245104e+09 -5.363309e+02 5.159023e+00 -1.169277e+02
-4.991244e+09 -4.791242e+09 -4.951242e+09 -5.546385e+02 -4.019103e+01 -5.567085e+00
-3.961456e+09 -3.761455e+09 -3.921455e+09 -8.394963e+02 1.900653e+02 -3.401807e+00
-4.301912e+09 -4.101914e+09 -4.261913e+09 8.315580e+02 -6.903884e+01 -3.357218e+02
-3.270656e+09 -3.070658e+09 -3.230655e+09 -1.576690e+02 -9.028141e+00 -1.084169e+02
-2.413942e+09 -2.213944e+09 -2.373941e+09 -2.206020e+02 -1.059295e+01 -8.095666e+01
-4.133620e+09 -3.933620e+09 -4.093620e+09 1.019861e+03 3.588439e+01 -3.998226e+01
-3.136349e+09 -2.936351e+09 -3.096349e+09 -5.872385e+02 -6.991059e+00 -1.503314e+02
-3.441983e+09 -3.241985e+09 -3.401983e+09 -3.357712e+02 -5.278424e+01 -8.543544e+01
-3.961432e+09 -3.761434e+09 -3.921434e+09 -2.281458e+02 -1.477682e+01 4.470319e+01
-3.301689e+09 -3.101702e+09 -3.261691e+09 3.036663e+03 1.595532e+03 6.457838e+03
-3.902893e+09 -3.702899e+09 -3.862894e+09 1.462397e+02 1.265121e+02 -4.241445e+01
-3.962641e+09 -3.762648e+09 -3.922643e+09 -2.697892e+02 3.632641e+02 -5.919647e+01
-3.481919e+09 -3.281923e+09 -3.441919e+09 -5.635317e+02 -1.181884e+01 1.133586e+01
-3.236903e+09 -3.036904e+09 -3.196902e+09 -6.187037e+02 -3.457571e+01 -1.282366e+02
-2.261272e+09 -2.061275e+09 -2.221272e+09 -4.980550e+02 7.000254e+01 -1.097253e+02
-3.903870e+09 -3.703868e+09 -3.863868e+09 -3.047013e+02 -7.004179e+01 -6.206641e+01
-3.660420e+09 -3.460419e+09 -3.620418e+09 -7.478796e+01 -1.612379e+01 -7.242595e+01
-2.251276e+09 -2.051277e+09 -2.211275e+09 -3.530263e+02 1.809745e+01 -1.078006e+02
-2.807029e+09 -2.607028e+09 -2.767028e+09 -3.958783e+01 -1.593998e+01 -2.809990e+01
-1.880746e+09 -1.680747e+09 -1.840745e+09 -6.054862e+02 -9.032482e+01 -1.566208e+02
-3.611526e+09 -3.411526e+09 -3.571526e+09 -3.554133e+01 -3.969713e+01 -3.430131e+00
-2.185897e+09 -1.985900e+09 -2.145896e+09 -9.353780e+02 6.368961e+01 -5.316474e+01
-3.096643e+09 -2.896646e+09 -3.056643e+09 5.255017e+02 -3.432232e+02 5.484049e+01
-2.930994e+09 -2.730997e+09 -2.890994e+09 1.014784e+03 -8.544605e+02 3.363734e+02
-3.668264e+09 -3.468265e+09 -3.628265e+09 -2.006630e+01 -3.046787e+01 -3.164754e+00
-2.945535e+09 -2.745535e+09 -2.905535e+09 -1.673666e+01 6.893835e+00 -2.532062e+00
-2.709585e+09 -2.509585e+09 -2.669585e+09 -2.984715e+01 -2.654489e+01 3.296603e+00
-4.241728e+09 -4.041730e+09 -4.201728e+09 4.792170e+02 -3.237731e+02 1.679448e+02
-1.717331e+09 -1.517332e+09 -1.677332e+09 -1.215014e+02 -3.554443e+01 -3.843062e+00
-2.762868e+09 -2.562872e+09 -2.722868e+09 1.198132e+03 -6.549717e+02 1.974147e+02
-3.136527e+09 -2.936531e+09 -3.096528e+09 3.980949e+02 -4.359487e+02 8.086292e+01
-3.212522e+09 -3.012524e+09 -3.172522e+09 4.474552e-01 -1.100935e+02 4.757051e+01
-4.567087e+09 -4.367087e+09 -4.527086e+09 -6.878336e+01 -1.896625e+01 -4.011966e+00
-4.257802e+09 -4.057804e+09 -4.217803e+09 -1.421090e+03 -6.224075e+02 -9.820015e+01
-3.858184e+09 -3.658183e+09 -3.818183e+09 -8.370209e+02 -4.808709e+02 -6.901283e+01
-4.998709e+09 -4.798710e+09 -4.958709e+09 -6.753400e+02 -4.974786e+01 -6.339689e+01
-4.032235e+09 -3.832237e+09 -3.992236e+09 6.694147e+02 -1.053273e+02 7.828770e+01
-3.135430e+09 -2.935434e+09 -3.095431e+09 1.173076e+03 -1.010136e+03 2.599109e+02
-3.206161e+09 -3.006165e+09 -3.166162e+09 3.207061e+02 -1.980814e+02 1.457861e+01
-4.781341e+09 -4.581340e+09 -4.741341e+09 -3.626812e+01 1.431310e+00 -1.069693e+01
-4.291553e+09 -4.091552e+09 -4.251552e+09 -1.989976e+02 -2.390238e+00 4.712224e-01
-4.646315e+09 -4.446316e+09 -4.606316e+09 5.016556e+02 2.397927e+01 5.495380e+01
-1.891342e+09 -1.691341e+09 -1.851342e+09 -3.259809e+02 -4.486260e+01 4.052548e+01
-4.569348e+09 -4.369350e+09 -4.529347e+09 1.162957e+02 3.113699e+00 5.165514e+00
-3.776245e+09 -3.576247e+09 -3.736244e+09 5.085803e+02 7.330981e+01 -3.026020e+01
-3.432317e+09 -3.232319e+09 -3.392317e+09 6.786227e+02 -3.955566e+02 1.240733e+02
-3.019781e+09 -2.819783e+09 -2.979781e+09 1.144603e+03 -1.050055e+03 3.188629e+02
-3.895551e+09 -3.695551e+09 -3.855549e+09 5.120877e+02 2.697286e+02 7.006561e+01
-3.864161e+09 -3.664162e+09 -3.824159e+09 1.255354e+02 7.931345e+01 -3.369598e+01
-3.961884e+09 -3.761882e+09 -3.921882e+09 -1.170558e+02 3.597982e+01 -5.885713e+01
-3.961486e+09 -3.761485e+09 -3.921485e+09 -4.529140e+02 1.539254e+02 -2.336905e+01
-3.249966e+09 -3.049969e+09 -3.209968e+09 1.784894e+03 -1.625929e+03 9.583167e+02
-2.276747e+09 -2.076751e+09 -2.236747e+09 1.539969e+03 -1.249790e+03 6.544011e+02
-2.271903e+09 -2.071904e+09 -2.231902e+09 7.158456e+02 -6.721625e+02 3.272249e+02
-3.942469e+09 -3.742470e+09 -3.902477e+09 -3.443388e+03 3.159657e+03 1.679855e+03
-3.959060e+09 -3.759055e+09 -3.919058e+09 -6.005284e+02 1.290116e+02 3.154458e+02
-1.891398e+09 -1.691399e+09 -1.851397e+09 8.219431e+02 -4.687786e+02 1.042925e+02
-4.648424e+09 -4.448429e+09 -4.608429e+09 -2.251086e+03 8.742704e+02 3.655361e+02
-4.130647e+09 -3.930646e+09 -4.090648e+09 -2.728124e+03 1.157164e+03 6.739683e+02
-2.270253e+09 -2.070259e+09 -2.230254e+09 1.319474e+03 -1.532520e+03 9.465562e+00
-4.651718e+09 -4.451724e+09 -4.611727e+09 -2.057644e+03 1.157112e+03 2.672756e+02
-3.234806e+09 -3.034808e+09 -3.194805e+09 -7.303482e+02 1.372157e+02 -5.690222e+01
-3.960601e+09 -3.760581e+09 -3.920574e+09 -6.955710e+02 -1.341448e+04 -3.550351e+03
-1.716553e+09 -1.516556e+09 -1.676553e+09 -2.813618e+02 -9.705815e+00 -1.432404e+02
-2.666446e+09 -2.466449e+09 -2.626446e+09 -5.683887e+02 -2.233034e+01 -4.521887e+01
-4.808159e+09 -4.608156e+09 -4.768129e+09 1.146290e+03 -1.334860e+03 -6.360414e+02
-3.045761e+09 -2.845764e+09 -3.005761e+09 -2.954413e+02 9.073368e+00 -8.666004e+01
-3.961711e+09 -3.761712e+09 -3.921712e+09 9.077447e+02 4.354715e+01 -3.007960e+01
-2.938469e+09 -2.738470e+09 -2.898469e+09 1.389003e+03 -1.072535e+03 6.429330e+02
-1.717015e+09 -1.517017e+09 -1.677014e+09 5.151500e+02 -1.900954e+02 -6.154196e+00
-2.689869e+09 -2.489870e+09 -2.649868e+09 6.788437e+02 -2.496789e+02 1.604922e+02
-3.961613e+09 -3.761615e+09 -3.921614e+09 6.172982e+02 4.045765e+01 4.844829e+00
-3.961711e+09 -3.761712e+09 -3.921712e+09 9.232845e+02 4.582468e+01 -1.226991e+01
-2.818996e+09 -2.618998e+09 -2.778996e+09 9.322671e+02 -4.105933e+02 1.366059e+02
-3.026553e+09 -2.826558e+09 -2.986554e+09 1.418830e+03 -1.554603e+03 3.980282e+02
-2.696957e+09 -2.496962e+09 -2.656957e+09 6.990420e+02 -3.952372e+02 2.729294e+02
-3.241684e+09 -3.041691e+09 -3.201687e+09 1.167860e+03 -1.318654e+03 4.348975e+02
-4.645030e+09 -4.445027e+09 -4.605029e+09 -1.112449e+03 2.623213e+02 1.850068e+02
-4.304837e+09 -4.104838e+09 -4.264838e+09 -8.416633e+02 -5.501656e+00 -1.284003e+01
-3.036453e+09 -2.836454e+09 -2.996454e+09 -1.470202e+01 -6.414535e+00 2.302903e+00
-2.883282e+09 -2.683289e+09 -2.843284e+09 1.148085e+03 -1.241436e+03 4.062764e+02
-1.638548e+09 -1.438550e+09 -1.598549e+09 -2.092761e+01 -2.555655e+01 4.471613e+00
-2.194289e+09 -1.994295e+09 -2.154290e+09 2.006683e+03 -2.244676e+03 8.492722e+02
-2.254956e+09 -2.054956e+09 -2.214956e+09 -2.681122e+02 -1.658377e+01 9.229469e+00
-4.520474e+09 -4.320474e+09 -4.480474e+09 -1.330949e+02 -1.891944e+01 -2.180822e+01
-3.719022e+09 -3.519024e+09 -3.679023e+09 6.708263e+01 1.191128e+01 3.642721e+01
-4.198860e+09 -3.998862e+09 -4.158862e+09 1.034860e+02 -1.154195e+00 -7.002127e+00
-4.820486e+09 -4.620486e+09 -4.780486e+09 -4.101552e+02 1.550368e+01 -2.019435e+01
-4.991449e+09 -4.791450e+09 -4.951450e+09 4.510613e+02 -1.896390e+01 -9.629126e+00
-3.006777e+09 -2.806778e+09 -2.966776e+09 -4.729089e+02 9.771373e+01 -1.096058e+02
-4.132604e+09 -3.932605e+09 -4.092605e+09 -4.121004e+02 -6.623434e+00 4.914778e+01
-4.940531e+09 -4.740532e+09 -4.900532e+09 -3.741466e+01 1.560723e+01 1.243346e-04
-2.724279e+09 -2.524280e+09 -2.684278e+09 -2.482643e+02 1.768195e+02 -3.364048e+01
-3.211746e+09 -3.011747e+09 -3.171745e+09 -3.751485e+02 4.462473e+01 -7.918611e+01
-4.546722e+09 -4.346730e+09 -4.506726e+09 1.593269e+01 -9.640983e+01 3.415646e+01
-4.940332e+09 -4.740340e+09 -4.900336e+09 5.599084e+01 -2.481153e-05 5.747961e+01
-3.668257e+09 -3.468254e+09 -3.628255e+09 3.335074e+02 4.395601e+02 -7.416061e+01
-4.992095e+09 -4.792098e+09 -4.952095e+09 1.872953e+03 8.490225e+01 -3.752808e+01
-4.940535e+09 -4.740532e+09 -4.900533e+09 5.033608e+02 1.686978e+02 7.612334e-05
-4.992799e+09 -4.792798e+09 -4.952799e+09 2.678055e+03 2.127171e+02 -1.220631e+02
-4.820785e+09 -4.620781e+09 -4.780787e+09 2.457422e+03 2.173941e+02 9.285163e+01
-2.998584e+09 -2.798585e+09 -2.958583e+09 -3.693051e+02 -7.967217e+00 -8.319125e+01
-4.647788e+09 -4.447787e+09 -4.607790e+09 3.161140e+03 6.363360e+02 -2.842625e+02
-2.177891e+09 -1.977891e+09 -2.137890e+09 -5.527309e+02 -2.013221e+01 -7.334113e+01
-3.882877e+09 -3.682873e+09 -3.842877e+09 2.006567e+03 8.483514e+02 -6.374273e+02
-4.649210e+09 -4.449204e+09 -4.609210e+09 1.844996e+03 3.333328e+02 -5.390961e+02
-3.797233e+09 -3.597228e+09 -3.757232e+09 -7.352376e+02 -2.318166e+02 1.226586e+02
-4.143180e+09 -3.943178e+09 -4.103181e+09 1.309771e+02 2.841868e+02 1.107720e+02
-4.782119e+09 -4.582127e+09 -4.742123e+09 -2.073886e+02 -1.232061e+01 1.273683e+02
-2.962830e+09 -2.762838e+09 -2.922833e+09 -8.230221e+01 -2.181440e+02 -1.281760e+01
-3.962237e+09 -3.762241e+09 -3.922243e+09 -2.136467e+03 -2.350003e+03 -4.010153e+02
-3.671436e+09 -3.471435e+09 -3.631435e+09 3.961891e+01 -2.006953e+00 -5.503296e+01
-2.274068e+09 -2.074073e+09 -2.234068e+09 -3.692468e+02 1.123954e+02 -1.105542e+02
-4.940533e+09 -4.740532e+09 -4.900532e+09 3.969472e+01 -1.243403e-04 6.654197e+00
-3.460659e+09 -3.260658e+09 -3.420658e+09 -3.737109e+01 1.673684e-01 -2.827839e+01
-4.555518e+09 -4.355517e+09 -4.515517e+09 4.106396e+01 2.072905e+00 -9.173739e+00
-3.962618e+09 -3.762617e+09 -3.922617e+09 -3.225396e+01 2.302396e+01 -5.578825e+01
-2.704850e+09 -2.504849e+09 -2.664849e+09 1.519028e+01 -1.310310e+00 -6.241536e+01
-4.667174e+09 -4.467173e+09 -4.627173e+09 -1.734162e+02 -7.308525e+00 -4.302768e+01
-3.269019e+09 -3.069024e+09 -3.229019e+09 -5.641717e+02 3.526507e+01 -7.511784e+01
-2.186036e+09 -1.986035e+09 -2.146035e+09 -2.046093e+01 5.543498e+00 -4.494334e+01
-2.189155e+09 -1.989159e+09 -2.149155e+09 -8.805024e+02 1.085458e+02 -3.067458e+01
-2.897260e+09 -2.697265e+09 -2.857260e+09 -5.326371e+02 8.372573e+01 -1.071037e+01
-1.881728e+09 -1.681728e+09 -1.841727e+09 -1.521114e+02 -2.643920e+01 -1.078552e+02
-4.134407e+09 -3.934406e+09 -4.094406e+09 -1.111047e+02 3.294804e+01 -1.398704e+01
-3.962134e+09 -3.762133e+09 -3.922132e+09 -1.947636e+02 4.189632e+01 -6.227035e+01
-3.962176e+09 -3.762175e+09 -3.922175e+09 -3.735918e+01 3.526021e+01 -4.945895e+01
-3.063879e+09 -2.863884e+09 -3.023879e+09 -1.785484e+02 -6.024280e+01 -9.406795e+01
-3.961450e+09 -3.761452e+09 -3.921452e+09 -1.804359e+02 -6.809784e+00 4.964174e+01
-3.204621e+09 -3.004625e+09 -3.164621e+09 -2.969529e+02 1.149431e+02 -2.668615e+01
-4.302808e+09 -4.102809e+09 -4.262809e+09 7.298249e+02 -3.423665e+00 -2.172247e+01
-2.253131e+09 -2.053131e+09 -2.213130e+09 8.997386e+01 -2.368925e+02 3.695413e+01
-3.279463e+09 -3.079462e+09 -3.239461e+09 3.253514e+02 -1.660124e+02 4.157398e+01
-2.941242e+09 -2.741245e+09 -2.901242e+09 3.588428e+01 -8.772240e+00 -3.750481e+01
-1.730271e+09 -1.530272e+09 -1.690270e+09 3.372687e+02 -1.498058e+02 -8.467940e+01
-2.724088e+09 -2.524089e+09 -2.684087e+09 -8.245688e+00 1.266817e+01 -1.724765e+02
-4.303176e+09 -4.103175e+09 -4.263175e+09 -6.579992e+02 -5.631809e+00 -5.842151e+01
-3.842423e+09 -3.642424e+09 -3.802422e+09 3.983261e+01 3.923950e+00 4.950895e+00
-4.544619e+09 -4.344620e+09 -4.504618e+09 9.309149e+00 -3.847793e-01 -5.532206e+01
-2.672978e+09 -2.472977e+09 -2.632976e+09 3.568950e+02 -1.497259e+02 9.443764e+01
-3.139351e+09 -2.939352e+09 -3.099350e+09 3.757803e+02 -2.687597e+02 5.924726e+01
-3.007895e+09 -2.807895e+09 -2.967894e+09 6.723266e+02 -2.463903e+02 9.875768e+01
-2.246499e+09 -2.046498e+09 -2.206498e+09 -1.695297e+02 -1.294130e+02 -5.722245e+01
-4.992560e+09 -4.792559e+09 -4.952559e+09 3.858762e+02 -1.338022e+01 -8.920161e+00
-3.961525e+09 -3.761527e+09 -3.921527e+09 3.466725e+02 2.440693e+01 2.223250e+01
-3.961652e+09 -3.761653e+09 -3.921653e+09 6.016984e+02 4.895334e+01 6.313480e+00
-4.117671e+09 -3.917667e+09 -4.077678e+09 -3.186811e+03 2.436446e+03 2.422365e+03
-4.990287e+09 -4.790284e+09 -4.950287e+09 -2.170950e+03 2.289226e+02 5.406621e+01
-4.642775e+09 -4.442772e+09 -4.602777e+09 -2.802158e+03 5.096548e+02 5.329078e+02
-3.007269e+09 -2.807268e+09 -2.967268e+09 1.583915e+02 -2.739533e+02 4.171713e+01
-3.961921e+09 -3.761924e+09 -3.921925e+09 -3.169119e+03 1.658255e+03 9.356446e+02
-4.132167e+09 -3.932169e+09 -4.092168e+09 5.570066e+02 2.779233e+01 5.290518e+01
-3.199680e+09 -2.999681e+09 -3.159679e+09 1.449858e+02 -1.469519e+02 -2.311064e+01
-3.962308e+09 -3.762311e+09 -3.922308e+09 4.896018e+03 1.717656e+03 2.092437e+03
-3.020610e+09 -2.820620e+09 -2.980617e+09 -1.338671e+03 -7.476042e+00 2.528672e+03
-2.911432e+09 -2.711436e+09 -2.871437e+09 8.267193e+02 -1.015858e+02 3.355594e+02
-1.784190e+09 -1.584189e+09 -1.744191e+09 1.533993e+03 -3.789996e+01 -4.354790e+02
-3.457463e+09 -3.257473e+09 -3.417470e+09 5.182890e+01 6.217188e+01 5.926308e+02
-4.647815e+09 -4.447814e+09 -4.607810e+09 4.854261e+03 1.366212e+03 4.293931e+02
-4.991772e+09 -4.791769e+09 -4.951742e+09 3.660922e+03 1.017795e+03 1.497751e+03
-3.059778e+09 -2.859777e+09 -3.019777e+09 3.504330e+02 -1.227456e+02 1.600694e+01
-3.899776e+09 -3.699780e+09 -3.859776e+09 -6.219133e+00 1.818425e+01 -3.563640e+00
-4.132703e+09 -3.932709e+09 -4.092705e+09 -7.160430e+02 3.256214e+02 1.112067e+02
-3.891502e+09 -3.691508e+09 -3.851503e+09 -1.784261e+02 1.005324e+02 -4.280354e+01
-2.336882e+09 -2.136884e+09 -2.296881e+09 -2.399974e+02 3.881243e+01 -5.540998e+01
-2.695199e+09 -2.495203e+09 -2.655199e+09 -1.627993e+01 2.936303e+01 -1.193940e+02
-3.271449e+09 -3.071448e+09 -3.231447e+09 1.305233e+02 -1.925207e+02 1.943063e+01
-4.822279e+09 -4.622277e+09 -4.782277e+09 -1.307248e+01 -8.079922e+01 -4.927702e+01
-4.649041e+09 -4.449039e+09 -4.609040e+09 -1.865656e+02 -4.391241e+01 -1.331975e+01
-2.717799e+09 -2.517799e+09 -2.677798e+09 9.596727e+00 -5.192335e+01 -6.701243e+01
-4.303290e+09 -4.103288e+09 -4.263290e+09 -1.489875e+03 -1.540619e+02 1.437020e+02
-3.961554e+09 -3.761552e+09 -3.921553e+09 -1.986380e+02 -2.265231e+02 1.087558e+02
-3.904071e+09 -3.704069e+09 -3.864070e+09 -2.287593e+02 -8.687026e+01 -5.775273e+01
-4.819193e+09 -4.619193e+09 -4.779193e+09 -8.374472e+02 -5.086175e+01 4.815533e+00
-2.264985e+09 -2.064991e+09 -2.224985e+09 -1.765807e+02 1.125441e+02 -9.777355e+01
-3.963030e+09 -3.763031e+09 -3.923031e+09 -4.917318e+02 -2.925454e+01 1.430141e+01
-2.255915e+09 -2.055915e+09 -2.215916e+09 -2.628048e+02 -1.680858e+01 9.143346e+00
-3.963033e+09 -3.763035e+09 -3.923034e+09 -5.309732e+02 -1.285493e+01 5.370296e+01
-3.242341e+09 -3.042347e+09 -3.202342e+09 -3.542270e+02 3.041398e+01 -6.694291e+01
-3.961584e+09 -3.761586e+09 -3.921598e+09 -1.546409e+02 -4.882148e+03 9.808793e+02
-4.304521e+09 -4.104527e+09 -4.264530e+09 1.479845e+02 -2.959179e+03 4.002963e+02
-2.476088e+09 -2.276092e+09 -2.436088e+09 -4.974507e+02 3.949447e+00 -1.363254e+02
-4.187352e+09 -3.987359e+09 -4.147355e+09 -1.118261e+02 -4.697747e+02 -1.876560e+01
-2.880965e+09 -2.680970e+09 -2.840965e+09 -3.289365e+02 6.280250e+01 -2.344028e+01
-3.961998e+09 -3.761999e+09 -3.922001e+09 3.626760e+03 1.763130e+03 -7.238032e+02
-3.961526e+09 -3.761525e+09 -3.921530e+09 3.782000e+03 1.857790e+03 -1.161751e+03
-3.963123e+09 -3.763120e+09 -3.923124e+09 3.357126e+03 1.090757e+03 -7.287858e+02
-2.108486e+09 -1.908491e+09 -2.068486e+09 -3.761698e+02 1.053739e+02 -8.367964e+01
-4.470745e+09 -4.270737e+09 -4.430763e+09 1.005602e+03 3.914116e+03 7.868906e+02
-3.216878e+09 -3.016882e+09 -3.176878e+09 -2.603336e+02 1.482728e+01 -5.499226e+01
-4.484601e+09 -4.284603e+09 -4.444618e+09 -1.659068e+03 4.212531e+03 1.481716e+03
-3.969834e+09 -3.769837e+09 -3.929853e+09 -1.487296e+03 6.285902e+03 9.259960e+02
-2.987910e+09 -2.787911e+09 -2.947910e+09 -2.962767e+02 5.958849e+01 -8.571172e+01
-4.990815e+09 -4.790811e+09 -4.950834e+09 1.351078e+03 2.335466e+03 -4.400747e+02
-4.831906e+09 -4.631911e+09 -4.791922e+09 -5.379709e+02 2.763496e+03 5.629369e+02
-3.233613e+09 -3.033613e+09 -3.193612e+09 -2.980683e+02 -1.112272e+00 -7.361240e+01
-2.853908e+09 -2.653908e+09 -2.813907e+09 -2.757035e+02 -3.310093e+01 -4.008518e+01
-2.187846e+09 -1.987846e+09 -2.147845e+09 -3.968170e+02 -1.589446e+01 -7.944453e+01
-4.132717e+09 -3.932715e+09 -4.092717e+09 -1.425182e+03 -1.035423e+02 1.085938e+02
-3.214456e+09 -3.014456e+09 -3.174455e+09 -2.121298e+02 -9.904590e+01 -8.189090e+01
-4.990396e+09 -4.790396e+09 -4.950394e+09 -3.243830e+03 -5.598884e+01 -3.611532e+02
-3.959649e+09 -3.759644e+09 -3.919651e+09 -1.833610e+03 -7.157759e+02 1.923177e+03
-4.301815e+09 -4.101811e+09 -4.261816e+09 -1.884960e+03 -4.602829e+02 9.817500e+02
-4.476662e+09 -4.276663e+09 -4.436663e+09 3.520818e+02 1.559660e+01 -6.207277e+00
-2.799261e+09 -2.599261e+09 -2.759260e+09 -2.093271e+02 -7.672743e+01 -7.004037e+01
-3.961514e+09 -3.761516e+09 -3.921516e+09 3.176779e+02 2.638815e+01 2.408343e+01
-3.013568e+09 -2.813576e+09 -2.973571e+09 1.383983e+03 -2.176162e+03 3.656903e+02
-3.238579e+09 -3.038587e+09 -3.198583e+09 7.356858e+02 -1.523454e+03 2.589147e+02
-3.353583e+09 -3.153585e+09 -3.313584e+09 -1.439110e+02 -1.765177e+00 3.144198e+01
-2.873469e+09 -2.673478e+09 -2.833472e+09 7.533184e+02 -1.406532e+03 3.370328e+02
-4.818844e+09 -4.618844e+09 -4.778844e+09 1.104588e+03 -4.233462e+01 -8.861699e+01
-1.941190e+09 -1.741198e+09 -1.901192e+09 8.494714e+01 -2.160220e+02 -2.896415e+01
-3.961492e+09 -3.761494e+09 -3.921494e+09 1.045180e+02 1.813342e+01 3.165193e+01
-4.988691e+09 -4.788695e+09 -4.948692e+09 1.761818e+02 -8.085823e+01 1.472772e+01
-3.626193e+09 -3.426194e+09 -3.586194e+09 6.473665e+01 7.390189e+00 4.010877e+01
-4.617723e+09 -4.417725e+09 -4.577725e+09 1.151238e+02 8.283873e+00 1.413781e+01
-3.138605e+09 -2.938611e+09 -3.098607e+09 5.664748e+02 -6.536927e+02 1.841358e+02
-4.337495e+09 -4.137497e+09 -4.297496e+09 -5.555068e+01 -1.558967e+01 6.210659e+00
-2.949900e+09 -2.749908e+09 -2.909903e+09 4.915768e+02 -1.045731e+03 1.269813e+02
-4.458387e+09 -4.258389e+09 -4.418388e+09 1.903004e+02 1.309018e+00 -8.170087e-01
-3.961478e+09 -3.761480e+09 -3.921480e+09 1.791390e+02 2.070217e+01 4.202037e+01
-3.963984e+09 -3.763986e+09 -3.923985e+09 -2.861267e+01 1.779661e+00 3.701429e+01
-3.963984e+09 -3.763986e+09 -3.923985e+09 -3.552035e+01 1.103437e-01 4.840173e+01
-3.479207e+09 -3.279208e+09 -3.439208e+09 -1.798891e+02 -1.237303e+01 2.638231e+01
-2.861290e+09 -2.661292e+09 -2.821291e+09 -6.448869e+00 9.225776e-01 3.591325e+00
-4.645628e+09 -4.445622e+09 -4.605621e+09 -5.428597e+03 -2.483303e+03 7.302051e+02
-1.957388e+09 -1.757389e+09 -1.917389e+09 -2.144971e+02 -1.125047e+01 3.073472e+01
-4.749330e+09 -4.549332e+09 -4.709331e+09 -2.224517e+02 -5.014497e+00 -1.605530e+01
-3.946594e+09 -3.746596e+09 -3.906596e+09 -2.713218e+02 -3.006394e+01 4.678806e+01
-3.903165e+09 -3.703167e+09 -3.863167e+09 -8.385408e+01 6.308518e-01 1.333316e+01
-2.618915e+09 -2.418915e+09 -2.578915e+09 -2.905201e+02 1.130737e+01 3.937016e+01
-3.885919e+09 -3.685919e+09 -3.845919e+09 -3.089526e+02 -2.401658e+01 -9.260219e-01
-4.647407e+09 -4.447409e+09 -4.607408e+09 -1.769325e+02 -5.237930e+00 5.639430e+00
-3.961456e+09 -3.761456e+09 -3.921455e+09 -9.841839e+02 1.363758e+02 -2.930054e+01
-3.961443e+09 -3.761442e+09 -3.921442e+09 -4.388700e+02 3.035883e+01 -4.617863e+01
-3.231412e+09 -3.031410e+09 -3.191411e+09 -2.143915e+02 -1.101492e+02 -2.378622e+01
-4.089726e+09 -3.889725e+09 -4.049724e+09 -1.854457e+02 6.518286e+01 -3.347506e+01
-1.789245e+09 -1.589244e+09 -1.749244e+09 -1.125000e+02 -5.088838e+01 -1.481916e+02
-1.690835e+09 -1.490835e+09 -1.650834e+09 -2.672097e+02 3.419087e+01 -1.220520e+02
-3.497273e+09 -3.297271e+09 -3.457271e+09 -2.252275e+02 -1.093088e+02 -1.515350e+01
-3.124096e+09 -2.924095e+09 -3.084095e+09 -1.820565e+02 -4.964828e+01 -1.010972e+02
-2.244537e+09 -2.044543e+09 -2.204537e+09 1.129246e+02 1.228576e+02 -7.722466e+01
-3.267045e+09 -3.067052e+09 -3.227046e+09 -1.161327e+02 4.464412e+01 -2.871482e+01
-1.690839e+09 -1.490845e+09 -1.650840e+09 2.489200e+03 -2.004076e+03 7.903335e+02
-1.660985e+09 -1.460991e+09 -1.620986e+09 -1.135419e+02 -7.452055e+00 -8.177760e+01
-3.894737e+09 -3.694743e+09 -3.854741e+09 8.330935e+02 -1.293704e+03 2.706783e+02
-2.663519e+09 -2.463525e+09 -2.623519e+09 -1.156100e+02 4.477730e+01 1.108272e+01
-4.940308e+09 -4.740312e+09 -4.900309e+09 8.099696e+01 2.493870e-05 4.819069e+01
-3.053541e+09 -2.853546e+09 -3.013542e+09 -1.856457e+02 1.071569e+02 -4.538444e+01
-4.453359e+09 -4.253364e+09 -4.413361e+09 9.192903e+02 -4.130765e+02 1.682228e+02
-4.770660e+09 -4.570662e+09 -4.730660e+09 2.159193e+02 -2.074719e+02 5.797710e+01
-4.991128e+09 -4.791130e+09 -4.951134e+09 1.209151e+03 -4.547237e+02 2.882490e+02
-3.684555e+09 -3.484559e+09 -3.644556e+09 4.777454e+01 -1.209728e+02 1.053332e+02
-1.875469e+09 -1.675469e+09 -1.835468e+09 -4.433111e+02 -6.297346e+01 -1.427428e+02
-3.897147e+09 -3.697147e+09 -3.857146e+09 -2.328076e+02 1.132452e+01 -8.716236e+01
-2.766197e+09 -2.566203e+09 -2.726197e+09 -2.966620e+02 2.207076e+01 -3.300091e+01
-3.021395e+09 -2.821405e+09 -2.981399e+09 9.047682e+02 -2.506794e+03 3.251834e+02
-3.234837e+09 -3.034846e+09 -3.194841e+09 6.247982e+01 -1.587992e+03 1.281677e+02
-1.794857e+09 -1.594867e+09 -1.754860e+09 6.512940e+02 -1.721261e+03 2.586529e+02
-4.133939e+09 -3.933939e+09 -4.093938e+09 -4.774318e+02 1.759273e+01 -6.057763e+01
-3.961451e+09 -3.761451e+09 -3.921450e+09 -7.310362e+02 8.908713e+01 -4.549300e+01
-4.131218e+09 -3.931215e+09 -4.091217e+09 -3.493293e+03 -1.321979e+03 8.285451e+02
-2.191015e+09 -1.991026e+09 -2.151019e+09 4.170711e+02 -3.300217e+03 4.037212e+02
-4.477116e+09 -4.277118e+09 -4.437117e+09 -1.241043e+02 -1.471127e+01 2.487825e+01
-3.960994e+09 -3.760987e+09 -3.921009e+09 3.306504e+03 4.944699e+03 -3.586759e+03
-3.228540e+09 -3.028548e+09 -3.188543e+09 3.998199e+02 -4.480399e+02 9.699879e+01
-2.992290e+09 -2.792290e+09 -2.952289e+09 -1.971037e+02 1.970242e+01 -8.223656e+01
-4.990502e+09 -4.790501e+09 -4.950502e+09 -3.265708e+03 -6.379711e+01 1.362799e+02
-3.720874e+09 -3.520875e+09 -3.680877e+09 -1.058971e+00 1.493209e+02 -1.767887e+01
-3.851834e+09 -3.651828e+09 -3.811834e+09 1.350263e+03 7.914681e+02 -1.018442e+03
-3.380117e+09 -3.180112e+09 -3.340116e+09 -6.299703e+02 6.131802e+02 -1.135937e+03
-3.272297e+09 -3.072296e+09 -3.232295e+09 -1.482478e+02 -3.304564e+00 -8.021867e+01
-3.977706e+09 -3.777708e+09 -3.937708e+09 3.969778e+01 6.412009e+00 3.663175e+01
-2.635301e+09 -2.435300e+09 -2.595299e+09 -1.466010e+02 -3.124473e+01 -1.546899e+01
-2.184144e+09 -1.984143e+09 -2.144143e+09 -2.104290e+02 -9.258478e+00 -6.689778e+01
-2.684688e+09 -2.484689e+09 -2.644689e+09 -1.483825e+01 -1.103328e+01 7.304251e+00
-4.645670e+09 -4.445672e+09 -4.605671e+09 2.654322e+02 1.946629e+01 3.862675e+01
-4.132379e+09 -3.932380e+09 -4.092380e+09 9.749888e+02 8.398854e+01 2.780786e+01
-4.818827e+09 -4.618828e+09 -4.778828e+09 7.122129e+02 3.410563e+01 7.140630e+01
-4.990974e+09 -4.790977e+09 -4.950975e+09 6.513675e+02 -2.504088e+01 -1.015296e+02
-3.961525e+09 -3.761527e+09 -3.921527e+09 3.681239e+02 2.822126e+01 3.161513e+01
-4.134330e+09 -3.934330e+09 -4.094330e+09 3.758894e+02 3.516896e+01 1.600288e+01
-3.961599e+09 -3.761601e+09 -3.921600e+09 4.334998e+02 3.177388e+01 2.546478e+01
-2.547982e+09 -2.347982e+09 -2.507981e+09 -3.667597e+01 -9.113542e+01 -4.656334e+01
-3.296412e+09 -3.096413e+09 -3.256411e+09 1.575858e+03 2.463085e+02 -9.043897e+01
-1.677335e+09 -1.477334e+09 -1.637333e+09 4.923259e+02 4.451660e+02 -3.327295e+01
-1.891631e+09 -1.691632e+09 -1.851629e+09 1.884373e+03 3.537210e+02 -2.469344e+00
-3.961696e+09 -3.761697e+09 -3.921697e+09 5.981920e+02 4.379659e+01 1.737651e+01
-3.962987e+09 -3.762987e+09 -3.922987e+09 4.652645e+02 3.195549e+01 5.151242e+01
-3.255030e+09 -3.055028e+09 -3.215028e+09 1.156901e+03 4.029343e+02 -2.301571e+02
-4.328488e+09 -4.128489e+09 -4.288487e+09 9.024086e+02 1.624641e+01 7.556145e+00
-2.972579e+09 -2.772578e+09 -2.932577e+09 1.119410e+03 5.300921e+02 -1.281051e+02
-2.234745e+09 -2.034750e+09 -2.194745e+09 9.974049e+01 -2.353500e+01 -5.089330e+01
-1.690762e+09 -1.490768e+09 -1.650762e+09 7.638653e+02 1.060790e+02 2.137253e+00
-3.480307e+09 -3.280308e+09 -3.440306e+09 1.697412e+03 4.432025e+02 -8.808708e+01
-3.219512e+09 -3.019511e+09 -3.179511e+09 -3.452436e+02 -5.164059e+01 -2.913194e+01
-2.932525e+09 -2.732530e+09 -2.892525e+09 5.033505e+01 5.545836e+00 6.498020e-01
-2.562292e+09 -2.362290e+09 -2.522290e+09 -2.679822e+02 -1.225666e+02 -1.057540e+02
-2.646136e+09 -2.446135e+09 -2.606135e+09 -1.105545e+02 -1.764503e+01 -1.227641e+01
-3.252088e+09 -3.052086e+09 -3.212086e+09 -1.361075e+02 -5.293074e+01 -3.647902e+01
-3.485283e+09 -3.285282e+09 -3.445282e+09 -3.505929e+02 -3.065492e+01 -5.803242e+01
-2.846841e+09 -2.646847e+09 -2.806842e+09 3.785312e+02 2.578642e+01 -2.426879e+00
-1.892993e+09 -1.692999e+09 -1.852993e+09 6.229104e+02 1.427798e+02 -5.204669e+01
-1.716791e+09 -1.516797e+09 -1.676792e+09 1.000840e+02 1.501256e+00 -2.971851e+01
-2.644132e+09 -2.444137e+09 -2.604132e+09 7.824915e+01 9.819212e+00 4.783900e+01
-3.989848e+09 -3.789854e+09 -3.949848e+09 1.620189e+02 -1.841401e+01 1.865645e+01
-1.586241e+09 -1.386245e+09 -1.546241e+09 4.368143e+02 1.251380e+02 -2.840609e+01
-3.014849e+09 -2.814855e+09 -2.974850e+09 1.552440e+02 8.056218e+01 -2.769580e+01
-3.206993e+09 -3.006999e+09 -3.166994e+09 3.856060e+02 1.494018e+01 1.001521e+01
-3.040277e+09 -2.840284e+09 -3.000278e+09 1.003684e+02 9.559423e+01 -5.577222e+01
-2.996013e+09 -2.796020e+09 -2.956014e+09 2.933935e+02 1.699918e+02 -2.893410e+01
-2.997251e+09 -2.797257e+09 -2.957252e+09 -4.098292e+01 2.013274e+02 -4.235481e+01
-2.258699e+09 -2.058705e+09 -2.218700e+09 3.939954e+02 1.070778e+02 -6.906048e+01
-3.230962e+09 -3.030968e+09 -3.190963e+09 2.444954e+02 1.003432e+02 -1.697640e+01
-3.281244e+09 -3.081243e+09 -3.241243e+09 -3.431750e+01 5.358025e+00 -4.231228e+01
-2.959278e+09 -2.759284e+09 -2.919279e+09 9.155589e+02 1.558412e+02 -2.420213e+01
-3.137414e+09 -2.937420e+09 -3.097414e+09 -4.596280e+01 6.710413e+01 -3.486487e+01
-1.986835e+09 -1.786840e+09 -1.946835e+09 -3.609901e+01 -4.520261e+00 -6.216970e+01
-2.286404e+09 -2.086409e+09 -2.246404e+09 1.634995e+02 -4.012928e+01 -1.428894e+01
-3.258690e+09 -3.058696e+09 -3.218691e+09 1.297425e+02 6.827318e+01 -3.111484e+01
-3.459747e+09 -3.259754e+09 -3.419749e+09 -6.629217e+01 1.721761e+02 1.130644e+00
-3.047712e+09 -2.847718e+09 -3.007713e+09 -1.126325e+02 9.308611e+01 -2.336710e+01
-3.496146e+09 -3.296152e+09 -3.456147e+09 1.442395e+02 1.758440e+02 -3.469804e+01
-1.584303e+09 -1.384307e+09 -1.544303e+09 -4.846493e+02 2.748657e+01 -1.381183e+02
-4.993058e+09 -4.793064e+09 -4.953065e+09 -1.313638e+03 4.378025e+02 4.225089e+01
-4.642688e+09 -4.442690e+09 -4.602693e+09 -2.964782e+03 8.439172e+02 4.785218e+02
-4.801427e+09 -4.601429e+09 -4.761426e+09 -6.858152e+02 1.055158e+02 4.294987e+01
-2.126866e+09 -1.926872e+09 -2.086867e+09 -9.336892e+00 5.817316e+01 -4.131903e+01
-5.002938e+09 -4.802943e+09 -4.962938e+09 5.311920e+02 1.238286e+02 7.897202e+01
-4.991618e+09 -4.791623e+09 -4.951623e+09 -2.374771e+03 2.608464e+02 1.736012e+01
-3.239043e+09 -3.039048e+09 -3.199043e+09 -6.567488e+02 1.736202e+02 -1.477472e+01
-3.963360e+09 -3.763366e+09 -3.923367e+09 -2.632624e+03 2.323959e+03 7.938356e+02
-4.131521e+09 -3.931526e+09 -4.091528e+09 -2.820004e+03 2.149952e+03 6.406151e+02
-3.963360e+09 -3.763368e+09 -3.923367e+09 -1.563157e+03 2.368379e+03 3.332661e+02
-1.638620e+09 -1.438616e+09 -1.598617e+09 6.495728e+02 8.317809e+02 -2.397975e+02
-4.110629e+09 -3.910630e+09 -4.070637e+09 -3.221618e+03 3.306127e+03 1.431972e+03
-4.988902e+09 -4.788906e+09 -4.948910e+09 -2.248394e+03 6.838047e+02 1.317303e+02
-4.632879e+09 -4.432886e+09 -4.592882e+09 3.779616e+02 4.013225e+02 -1.396350e+02
-3.222769e+09 -3.022770e+09 -3.182770e+09 2.753821e+02 1.721656e+01 -1.789390e+01
-3.059292e+09 -2.859293e+09 -3.019293e+09 9.698162e+01 4.369657e+00 2.856283e+00
-3.233456e+09 -3.033455e+09 -3.193455e+09 1.629446e+02 -2.498493e+02 4.190355e+01
-2.630069e+09 -2.430070e+09 -2.590070e+09 2.234050e+02 6.942564e+00 3.091355e+01
-2.842837e+09 -2.642838e+09 -2.802837e+09 2.143626e+02 1.166921e+01 1.747684e+01
-3.208897e+09 -3.008897e+09 -3.168897e+09 2.296783e+02 4.261735e+01 2.627302e+01
-2.114478e+09 -1.914479e+09 -2.074478e+09 1.928343e+02 3.089645e+01 5.828941e+01
-2.932528e+09 -2.732526e+09 -2.892527e+09 -4.052686e+01 -1.160805e+01 -3.615290e+01
-3.230789e+09 -3.030788e+09 -3.190788e+09 4.404453e+01 -5.580105e-01 -3.408982e+01
-1.966953e+09 -1.766953e+09 -1.926952e+09 -7.027332e+00 2.207874e+01 -6.886375e+01
-2.940248e+09 -2.740247e+09 -2.900247e+09 5.221190e+01 1.040677e+01 -6.019165e+01
-2.793723e+09 -2.593722e+09 -2.753722e+09 1.747842e+00 -3.019451e+01 -1.948886e+01
-3.498348e+09 -3.298347e+09 -3.458347e+09 5.854589e+01 6.520949e+00 -2.077643e+01
-2.990919e+09 -2.790918e+09 -2.950918e+09 1.323474e+01 4.103717e+01 -5.515920e+01
-2.256676e+09 -2.056683e+09 -2.216678e+09 -1.376678e+03 -2.096130e+03 -6.884516e+02
-2.755667e+09 -2.555676e+09 -2.715670e+09 3.911804e+02 -1.080810e+03 4.421493e+02
-3.049750e+09 -2.849759e+09 -3.009754e+09 -5.894850e+02 -1.201099e+03 -3.554415e+01
-4.646016e+09 -4.446017e+09 -4.606017e+09 6.506589e+02 3.385875e+01 1.812081e+01
-2.995009e+09 -2.795008e+09 -2.955008e+09 -3.153788e+02 -8.775437e+01 -4.109301e+01
-3.504272e+09 -3.304279e+09 -3.464277e+09 -1.264733e+03 -2.146017e+03 -3.015826e+02
-3.421416e+09 -3.221417e+09 -3.381415e+09 7.313907e+02 -4.347276e+02 2.685424e+02
-2.308976e+09 -2.108977e+09 -2.268975e+09 3.079783e+02 -8.151100e+01 4.021357e-01
-3.011958e+09 -2.811967e+09 -2.971962e+09 -7.808327e+02 -2.608496e+03 -1.405080e+01
-1.892985e+09 -1.692983e+09 -1.852983e+09 -1.358295e+02 -1.069443e+02 -9.159661e+01
-1.905171e+09 -1.705175e+09 -1.865170e+09 8.253978e+02 1.027578e+02 -4.610700e+01
-2.192050e+09 -1.992055e+09 -2.152050e+09 8.933287e+02 9.483023e+01 -4.693133e+01
-3.009535e+09 -2.809545e+09 -2.969540e+09 8.151637e+01 -2.656720e+03 7.618749e+01
-3.246749e+09 -3.046758e+09 -3.206755e+09 -1.456540e+02 -2.576809e+03 4.336806e+02
-2.156678e+09 -1.956683e+09 -2.116678e+09 8.563405e+01 9.784060e+00 -2.590004e+01
-2.630827e+09 -2.430836e+09 -2.590831e+09 -7.587961e+02 -2.415213e+03 -5.205474e+01
-2.112302e+09 -1.912300e+09 -2.072301e+09 -1.179273e+02 -2.846438e+01 -5.268810e+01
-3.022851e+09 -2.822850e+09 -2.982851e+09 -3.171822e+02 -2.336676e+01 -3.326178e+01
-4.818182e+09 -4.618182e+09 -4.778191e+09 6.324787e+02 -8.410079e+02 7.197539e+01
-2.644133e+09 -2.444131e+09 -2.604132e+09 -5.565607e+01 -4.296082e+00 -3.805292e+01
-4.053062e+09 -3.853060e+09 -4.013061e+09 -2.510890e+02 -1.526936e+01 -7.507205e-01
-1.587102e+09 -1.387100e+09 -1.547101e+09 -1.286841e+02 -7.111311e+01 -1.308813e+02
-4.061596e+09 -3.861595e+09 -4.021595e+09 -1.936499e+02 -2.639531e+01 -8.151081e+01
-2.580472e+09 -2.380481e+09 -2.540475e+09 -1.917737e+02 -1.343266e+03 -6.746838e+01
-1.690434e+09 -1.490433e+09 -1.650434e+09 -2.957537e+02 -4.776704e+01 -4.159107e+01
-3.961446e+09 -3.761451e+09 -3.921454e+09 1.303188e+03 -3.000375e+03 9.633342e+02
-3.517659e+09 -3.317667e+09 -3.477664e+09 -4.766305e+02 -2.213832e+03 -4.725487e+01
-2.999194e+09 -2.799193e+09 -2.959192e+09 -5.453823e+01 1.877929e+01 -7.892634e+01
-2.258941e+09 -2.058940e+09 -2.218940e+09 7.452508e+01 5.843120e+00 -6.075964e+01
-3.225711e+09 -3.025711e+09 -3.185710e+09 -2.832502e+01 4.458763e-01 -6.209619e+01
-4.993682e+09 -4.793684e+09 -4.953683e+09 -5.163809e+01 1.930195e+00 -2.152444e+01
-3.019926e+09 -2.819925e+09 -2.979925e+09 -1.408099e+02 1.770716e+01 -7.013553e+01
-4.074369e+09 -3.874369e+09 -4.034369e+09 7.046175e+02 -1.222002e+02 -7.911279e+00
-4.268032e+09 -4.068038e+09 -4.228036e+09 5.889289e+02 -8.432541e+02 9.768200e+01
-2.757861e+09 -2.557871e+09 -2.717865e+09 -2.788327e+02 -1.229891e+03 2.795036e+02
-3.504011e+09 -3.304010e+09 -3.464010e+09 -2.370433e+01 -3.833854e+00 -5.254528e+01
-2.254661e+09 -2.054661e+09 -2.214661e+09 -2.831828e+02 -2.284293e+01 2.170489e+01
-3.216090e+09 -3.016090e+09 -3.176090e+09 -3.612120e+02 -3.548453e+01 4.294018e+01
-3.205592e+09 -3.005593e+09 -3.165593e+09 -2.782020e+02 -4.601239e+01 1.190668e+01
-2.844823e+09 -2.644823e+09 -2.804823e+09 -2.564764e+02 -7.753631e+00 2.837408e+01
-3.478654e+09 -3.278655e+09 -3.438655e+09 -3.317346e+02 -9.387997e+00 3.676572e+00
-3.263351e+09 -3.063352e+09 -3.223352e+09 -2.650191e+02 -4.139598e+01 2.594883e+01
-3.478145e+09 -3.278145e+09 -3.438145e+09 -3.083210e+02 8.599123e+00 1.409435e+01
-2.554572e+09 -2.354573e+09 -2.514573e+09 -4.284952e+02 -2.133436e+01 -1.476566e+02
-3.130389e+09 -2.930390e+09 -3.090390e+09 1.199930e+02 2.869086e+00 -3.427364e+00
-2.964518e+09 -2.764519e+09 -2.924518e+09 3.650680e+02 4.688461e+01 1.557235e+01
-4.043460e+09 -3.843458e+09 -4.003458e+09 -1.543722e+02 -3.523104e+01 -6.739886e+01
-1.690763e+09 -1.490762e+09 -1.650762e+09 -3.272909e+02 -6.915402e+01 -4.307188e+01
-3.227040e+09 -3.027040e+09 -3.187040e+09 2.880566e+02 3.201326e+01 3.854366e+01
-3.068546e+09 -2.868546e+09 -3.028546e+09 1.285235e+02 1.252810e+01 9.730218e+00
-2.785009e+09 -2.585010e+09 -2.745010e+09 1.798851e+02 2.739482e+01 -1.673306e+01
-3.484009e+09 -3.284010e+09 -3.444010e+09 2.425512e+02 2.459469e+00 5.970797e-01
-1.590559e+09 -1.390558e+09 -1.550558e+09 -1.087243e+02 -1.574423e+02 -1.568558e+02
-4.650600e+09 -4.450598e+09 -4.610599e+09 -2.406458e+02 -1.540515e+01 -3.452853e+01
-3.386360e+09 -3.186360e+09 -3.346360e+09 -1.713235e+02 -8.148550e+00 -7.982127e+00
-3.297706e+09 -3.097706e+09 -3.257706e+09 -3.132062e+02 -4.172647e+01 1.143660e+01
-3.963030e+09 -3.763031e+09 -3.923031e+09 -5.957271e+02 -2.248381e+01 5.793912e+01
-3.962276e+09 -3.762277e+09 -3.922277e+09 -6.037457e+02 -3.242850e+01 6.267824e+01
-3.452466e+09 -3.252466e+09 -3.412466e+09 -4.460269e+02 -1.091209e+01 -5.816547e-01
-5.005562e+09 -4.805563e+09 -4.965563e+09 -1.689084e+02 5.103690e+00 -1.433757e+01
-4.135135e+09 -3.935135e+09 -4.095135e+09 -4.768708e+02 -3.679903e+01 1.110567e+01
-4.991975e+09 -4.791975e+09 -4.951975e+09 -5.468260e+02 1.162321e+01 -1.326843e+01
-4.650256e+09 -4.450256e+09 -4.610256e+09 -4.941893e+02 -4.812219e+00 5.267960e+01
-3.026579e+09 -2.826579e+09 -2.986579e+09 -1.969610e+02 -2.138399e+01 -2.871853e+01
-3.322661e+09 -3.122661e+09 -3.282661e+09 -1.422485e+02 -1.493836e+01 -6.405252e+00
-3.478092e+09 -3.278092e+09 -3.438092e+09 -3.100114e+02 -1.597614e+01 1.730103e+00
-1.690839e+09 -1.490838e+09 -1.650838e+09 -1.848553e+02 -1.551877e+02 -5.597944e+01
-3.344759e+09 -3.144763e+09 -3.304763e+09 1.388194e+03 -8.828359e+01 1.726997e+02
-1.967323e+09 -1.767321e+09 -1.927324e+09 1.641588e+03 -5.562595e+00 -7.075033e+02
-1.587102e+09 -1.387101e+09 -1.547101e+09 -1.900288e+02 -1.050798e+02 -1.614993e+02
-1.690827e+09 -1.490825e+09 -1.650826e+09 -2.877479e+02 -1.002393e+02 -5.493677e+01
-1.772926e+09 -1.572925e+09 -1.732929e+09 1.178209e+03 -5.902295e+02 -9.613128e+02
-3.347155e+09 -3.147164e+09 -3.307161e+09 1.242406e+03 2.313514e+02 1.536029e+03
-3.052858e+09 -2.852868e+09 -3.012866e+09 2.369802e+03 8.051249e+02 2.605386e+03
-3.221508e+09 -3.021511e+09 -3.181512e+09 4.023326e+01 -3.060083e+02 -2.226044e+02
-3.253900e+09 -3.053903e+09 -3.213904e+09 2.748458e+03 5.305736e+02 6.558562e+02
-2.276142e+09 -2.076146e+09 -2.236147e+09 2.326813e+03 7.373849e+02 3.671272e+02
-2.679523e+09 -2.479520e+09 -2.639525e+09 2.359241e+03 -8.528259e+01 -1.129390e+03
-2.535078e+09 -2.335081e+09 -2.495082e+09 8.385573e+02 -1.892378e+02 -1.822778e+01
-3.224912e+09 -3.024911e+09 -3.184911e+09 -1.711080e+02 -3.912905e+01 -3.590948e+01
-2.191937e+09 -1.991935e+09 -2.151936e+09 -2.545933e+02 -6.984227e+01 -5.861941e+01
-1.962974e+09 -1.762970e+09 -1.922974e+09 6.967324e+02 -5.942994e+02 -1.214335e+03
-2.580276e+09 -2.380275e+09 -2.540280e+09 2.348717e+03 -8.657768e+01 -8.463392e+02
-3.085783e+09 -2.885781e+09 -3.045785e+09 2.531686e+03 -4.262218e+02 -1.253337e+03
-2.175298e+09 -1.975297e+09 -2.135303e+09 4.498000e+03 1.436184e+03 1.519815e+01
-1.873109e+09 -1.673110e+09 -1.833112e+09 2.723919e+03 8.359080e+02 4.579403e+02
-2.250125e+09 -2.050126e+09 -2.210124e+09 -4.087844e+02 2.613918e+01 -1.083263e+02
-3.600326e+09 -3.400325e+09 -3.560325e+09 -3.154443e+01 -5.248033e+00 -8.143483e+00
-3.340098e+09 -3.140097e+09 -3.300098e+09 -5.546249e+01 3.910252e+00 2.431740e+00
-1.859855e+09 -1.659854e+09 -1.819854e+09 -2.065082e+01 -7.594668e+00 -9.333334e+00
-3.237904e+09 -3.037903e+09 -3.197903e+09 -9.150926e+01 3.348639e+01 -3.830186e+01
-4.036380e+09 -3.836383e+09 -3.996380e+09 -4.103110e+02 2.341473e+01 -1.109776e+01
-3.453479e+09 -3.253480e+09 -3.413478e+09 -5.091813e+02 1.784436e+01 -4.532811e+01
-3.910748e+09 -3.710747e+09 -3.870747e+09 -2.336373e+01 2.222637e+01 -6.708979e+01
-1.658888e+09 -1.458887e+09 -1.618887e+09 -4.223576e+01 7.183782e+00 -7.492042e+01
-2.932379e+09 -2.732383e+09 -2.892379e+09 1.970596e+01 1.879073e+01 -5.664341e+01
-1.885426e+09 -1.685426e+09 -1.845425e+09 -2.899084e+02 -5.934569e+01 -1.250311e+02
-2.968856e+09 -2.768855e+09 -2.928855e+09 -1.272795e+01 -1.637623e+00 -1.477517e+00
-2.561201e+09 -2.361200e+09 -2.521200e+09 -8.937320e+01 8.264462e+01 -4.323763e+01
-4.645316e+09 -4.445319e+09 -4.605326e+09 4.732125e+02 -1.048995e+03 5.446490e+02
-2.069003e+09 -1.869002e+09 -2.029002e+09 -8.531446e+00 1.675325e+00 -1.037623e+01
-2.539735e+09 -2.339734e+09 -2.499734e+09 -2.672831e+01 -7.540729e+00 -3.544255e+00
-3.961457e+09 -3.761457e+09 -3.921456e+09 -9.369951e+02 1.783480e+02 -7.524922e+01
-1.690840e+09 -1.490842e+09 -1.650839e+09 -7.957352e+02 2.339588e+01 -1.484006e+02
-4.772583e+09 -4.572586e+09 -4.732583e+09 -1.943831e+02 -1.147752e+02 -2.345657e+01
-2.693722e+09 -2.493720e+09 -2.653721e+09 -3.210985e+01 -1.019267e+01 -6.114540e-01
-3.279418e+09 -3.079417e+09 -3.239417e+09 -4.207163e+01 4.540582e-01 2.297273e+00
-3.691347e+09 -3.491346e+09 -3.651347e+09 -4.034204e+01 -1.405195e+01 9.794753e+00
-3.631222e+09 -3.431221e+09 -3.591222e+09 -7.946937e+00 -1.249779e+00 -1.254541e+00
-3.223353e+09 -3.023353e+09 -3.183352e+09 -4.248471e+02 -2.398224e+01 -1.137699e+02
-2.932082e+09 -2.732081e+09 -2.892081e+09 -1.853869e+01 1.026965e-01 -1.606250e+01
-2.755394e+09 -2.555393e+09 -2.715393e+09 -3.566175e+01 -1.044408e+01 -5.210914e+00
-3.003226e+09 -2.803234e+09 -2.963229e+09 3.932848e+03 2.192362e+03 3.740553e+03
-2.933884e+09 -2.733883e+09 -2.893883e+09 -7.635006e+00 -5.579909e+00 -5.315126e+00
-3.420445e+09 -3.220455e+09 -3.380452e+09 5.164255e+01 2.420944e+02 3.113141e+02
-3.547855e+09 -3.347860e+09 -3.507859e+09 4.446085e+03 1.512089e+03 2.469563e+03
-1.831027e+09 -1.631026e+09 -1.791025e+09 1.105383e+03 4.173143e+02 -1.685472e+02
-1.950390e+09 -1.750388e+09 -1.910389e+09 -4.875766e+01 -2.956252e+00 3.605482e+00
-3.144562e+09 -2.944560e+09 -3.104560e+09 -3.499810e+02 -4.370985e+02 -1.976649e+02
-3.591528e+09 -3.391526e+09 -3.551526e+09 -2.101527e+02 -1.101538e+02 -1.168353e+02
-3.452109e+09 -3.252106e+09 -3.412108e+09 2.503287e+03 1.656678e+03 -8.357447e+02
-2.904909e+09 -2.704908e+09 -2.864907e+09 1.835618e+02 4.112819e+02 -5.476538e+00
-3.962332e+09 -3.762333e+09 -3.922332e+09 2.756708e+03 6.211588e+02 -2.281376e+02
-4.650560e+09 -4.450559e+09 -4.610560e+09 2.487015e+03 2.664973e+02 -1.013823e+02
-4.170026e+09 -3.970025e+09 -4.130024e+09 -2.623756e+02 -1.229253e+02 1.650849e+01
-2.687863e+09 -2.487861e+09 -2.647860e+09 -1.340031e+02 -2.319539e+02 -9.073724e+01
-1.638795e+09 -1.438793e+09 -1.598793e+09 5.061265e+02 6.395270e+02 -1.335844e+02
-2.885427e+09 -2.685425e+09 -2.845425e+09 -3.740481e+02 -2.475464e+02 -1.090291e+02
-3.744221e+09 -3.544219e+09 -3.704219e+09 -3.296399e+02 -1.908559e+02 -5.262755e+01
-2.137887e+09 -1.937885e+09 -2.097885e+09 4.378365e+02 5.699879e+02 -6.343628e+01
-1.590803e+09 -1.390802e+09 -1.550801e+09 1.930420e+03 1.247333e+03 -2.619783e+02
-3.314532e+09 -3.114532e+09 -3.274532e+09 2.469266e+03 1.144288e+03 -5.283250e+02
-3.117906e+09 -2.917905e+09 -3.077904e+09 -4.100844e+02 -1.855199e+02 -1.132930e+02
-3.886663e+09 -3.686660e+09 -3.846663e+09 2.204842e+03 7.531824e+02 -3.924849e+02
-5.010201e+09 -4.810199e+09 -4.970199e+09 1.134619e+03 -1.521741e+01 -5.587320e+01
-3.963100e+09 -3.763100e+09 -3.923101e+09 3.236959e+03 1.012223e+03 -4.660668e+02
-4.135192e+09 -3.935190e+09 -4.095192e+09 2.555923e+03 6.817738e+02 -2.327007e+02
-3.660070e+09 -3.460069e+09 -3.620068e+09 -2.601920e+02 -5.736930e+00 -4.378605e+01
-3.636610e+09 -3.436608e+09 -3.596608e+09 -6.056317e+01 -1.097938e+02 4.938287e+01
-2.997467e+09 -2.797466e+09 -2.957465e+09 -2.003101e+02 -2.467495e+02 -1.253198e+02
-2.200585e+09 -2.000579e+09 -2.160583e+09 2.318235e+03 2.118796e+03 -1.658320e+03
-2.942763e+09 -2.742761e+09 -2.902761e+09 -5.570744e+01 -6.673821e+01 -1.596685e+01
-3.731348e+09 -3.531346e+09 -3.691346e+09 -3.735801e+01 -2.135140e+01 -2.983132e+01
-1.561041e+09 -1.361037e+09 -1.521040e+09 3.873495e+01 1.100060e+03 -4.650584e+01
-3.160752e+09 -2.960750e+09 -3.120750e+09 -1.807340e+02 -4.583660e+02 -5.990316e+01
-3.797987e+09 -3.597985e+09 -3.757986e+09 -4.773608e+02 -4.319892e+02 -6.614113e+01
-3.569312e+09 -3.369309e+09 -3.529310e+09 -1.677031e+02 -3.699637e+02 -2.835567e+01
-2.334072e+09 -2.134071e+09 -2.294071e+09 1.076401e+01 1.397215e+00 -1.174818e+00
-2.190253e+09 -1.990246e+09 -2.150253e+09 3.701412e+02 1.294805e+03 -1.992888e+03
-3.797719e+09 -3.597718e+09 -3.757718e+09 2.113715e+01 5.576723e+00 -1.459579e+01
-3.909594e+09 -3.709593e+09 -3.869593e+09 1.811040e+01 -1.544106e+01 -5.501100e+01
-3.423872e+09 -3.223871e+09 -3.383871e+09 1.084890e+01 5.179749e+00 -1.342503e+00
-2.644382e+09 -2.444380e+09 -2.604381e+09 8.810016e+00 3.770575e+00 -2.568893e+00
-2.909533e+09 -2.709532e+09 -2.869532e+09 1.363435e+01 1.471887e+00 -5.457153e+00
-1.885423e+09 -1.685423e+09 -1.845422e+09 -2.017851e+02 6.890068e+01 -8.932415e+01
-3.395440e+09 -3.195438e+09 -3.355439e+09 1.830285e+01 2.641616e+00 -1.744891e+00
-2.668909e+09 -2.468908e+09 -2.628908e+09 2.646683e+00 -1.075025e+00 -7.342587e+00
-2.959130e+09 -2.759130e+09 -2.919128e+09 -4.091765e+02 3.974991e+01 -9.298904e+01
-3.279381e+09 -3.079379e+09 -3.239380e+09 9.297945e+00 -2.310056e+00 1.341583e+00
-3.678037e+09 -3.478036e+09 -3.638036e+09 8.968207e+00 3.639459e+00 -1.335256e+01
-2.195404e+09 -1.995410e+09 -2.155405e+09 6.163771e+02 1.212984e+02 -2.106494e+01
-3.113869e+09 -2.913868e+09 -3.073868e+09 5.981143e+00 -9.594459e-01 -5.589680e-01
-1.892990e+09 -1.692997e+09 -1.852991e+09 3.298143e+02 1.182081e+02 -8.240470e+01
-3.157157e+09 -2.957156e+09 -3.117156e+09 2.014180e+01 2.475454e+00 -6.077958e+00
-2.315249e+09 -2.115254e+09 -2.275249e+09 3.505988e+01 -9.620016e+00 -3.943015e+01
-2.933884e+09 -2.733883e+09 -2.893883e+09 4.577263e+00 3.611277e+00 1.733400e-01
-3.889412e+09 -3.689411e+09 -3.849411e+09 -1.738840e-01 7.933205e-03 -1.317858e+00
-3.962237e+09 -3.762242e+09 -3.922243e+09 -2.291330e+03 -2.309777e+03 -6.547470e+02
-4.304838e+09 -4.104840e+09 -4.264850e+09 -1.461956e+03 -4.511752e+03 -2.846416e+02
-1.690820e+09 -1.490831e+09 -1.650824e+09 -1.664154e+03 -3.444454e+03 -2.891148e+02
-3.465460e+09 -3.265468e+09 -3.425466e+09 -3.329099e+02 -3.084153e+03 1.486881e+02
-4.305521e+09 -4.105525e+09 -4.265530e+09 -1.717712e+03 -3.245552e+03 -4.304893e+02
-4.647754e+09 -4.447759e+09 -4.607763e+09 1.419834e+02 -1.121179e+03 6.123293e+01
-4.820335e+09 -4.620338e+09 -4.780342e+09 -1.941581e+03 -1.355860e+03 -1.897105e+02
-3.695771e+09 -3.495770e+09 -3.655770e+09 1.544499e+01 3.638160e+00 1.758561e+00
-3.890393e+09 -3.690392e+09 -3.850392e+09 5.868195e+01 -1.496698e+01 -6.180705e+01
-1.689379e+09 -1.489378e+09 -1.649378e+09 4.459463e+01 2.589914e+01 -5.506175e+01
-2.931879e+09 -2.731878e+09 -2.891878e+09 1.035625e+01 4.113046e+00 -7.997944e+00
-3.909823e+09 -3.709822e+09 -3.869823e+09 2.322535e+01 8.662543e+00 -4.070669e+00
-3.538864e+09 -3.338863e+09 -3.498863e+09 2.181278e+01 6.667180e+00 1.872462e+01
-3.577551e+09 -3.377553e+09 -3.537549e+09 7.261303e+01 1.384940e+01 -3.045134e+00
-3.608447e+09 -3.408450e+09 -3.568446e+09 3.162908e+01 -7.056502e+00 8.906259e+00
-2.382741e+09 -2.182744e+09 -2.342740e+09 3.418902e+02 -9.769909e+01 5.974309e+01
-4.994858e+09 -4.794862e+09 -4.954860e+09 -1.200283e+03 -1.065953e+02 -8.801646e+01
-2.258335e+09 -2.058338e+09 -2.218334e+09 2.314564e+02 -6.263932e+01 2.852180e+01
-2.938443e+09 -2.738446e+09 -2.898442e+09 7.189547e+01 -2.916785e+00 1.913968e+01
-2.785325e+09 -2.585325e+09 -2.745324e+09 -4.997925e+02 -1.486801e+02 -1.929155e+02
-2.468901e+09 -2.268904e+09 -2.428900e+09 3.575831e+02 -3.007152e+01 -3.282905e+01
-2.955885e+09 -2.755891e+09 -2.915889e+09 -2.594275e+03 -2.728506e+03 -8.511597e+02
-3.340089e+09 -3.140091e+09 -3.300087e+09 2.292523e+02 -5.597972e+00 7.111302e+00
-1.828620e+09 -1.628622e+09 -1.788619e+09 2.595502e+02 1.955738e+01 3.138532e+01
-3.285981e+09 -3.085983e+09 -3.245980e+09 1.475854e+02 3.945095e+00 -8.221444e-01
-3.692641e+09 -3.492643e+09 -3.652639e+09 1.460936e+02 7.482001e+00 1.505676e+01
-3.124680e+09 -2.924682e+09 -3.084678e+09 8.295118e+01 -1.088234e+01 1.727555e+01
-2.909543e+09 -2.709546e+09 -2.869542e+09 2.682189e+02 1.031770e+02 5.841313e+01
-3.862993e+09 -3.662994e+09 -3.822994e+09 -1.519234e+02 -2.026355e+01 2.784134e+01
-3.961448e+09 -3.761450e+09 -3.921449e+09 -4.103520e+02 -1.856090e+01 3.933412e+01
-3.963033e+09 -3.763035e+09 -3.923034e+09 -4.672982e+02 -2.977234e+01 2.859268e+01
-2.190520e+09 -1.990522e+09 -2.150521e+09 -3.756261e+02 -1.082980e+01 1.320256e+01
-2.979301e+09 -2.779302e+09 -2.939302e+09 -3.019164e+02 -4.075688e+01 3.080292e+01
-3.452174e+09 -3.252175e+09 -3.412175e+09 -4.546701e+02 -8.577466e+00 4.395980e+00
-4.820374e+09 -4.620374e+09 -4.780375e+09 -5.647885e+02 2.061685e+01 -1.281718e+01
-3.886643e+09 -3.686644e+09 -3.846644e+09 -3.049142e+02 -1.727080e+01 4.764004e+00
-2.935684e+09 -2.735686e+09 -2.895683e+09 3.958801e+01 -1.464271e+01 1.102455e+01
-3.703185e+09 -3.503187e+09 -3.663184e+09 2.954765e+01 2.234485e-01 7.418546e+00
-3.961584e+09 -3.761585e+09 -3.921585e+09 -7.944429e+02 -4.698890e+01 3.321396e+01
-2.934782e+09 -2.734785e+09 -2.894781e+09 4.185561e+01 2.413634e+01 1.082928e+01
-3.795526e+09 -3.595529e+09 -3.755525e+09 2.642688e+02 1.514695e+01 1.540393e+01
-3.573199e+09 -3.373203e+09 -3.533198e+09 1.294266e+02 -5.807178e+01 2.000471e+01
-2.218537e+09 -2.018538e+09 -2.178538e+09 -4.332209e+01 -1.429146e+00 1.349099e+01
-2.159641e+09 -1.959640e+09 -2.119640e+09 2.124872e+02 1.033162e+01 6.329234e+00
-3.188315e+09 -2.988315e+09 -3.148315e+09 1.600701e+02 3.321374e+01 -9.575695e+00
-2.263267e+09 -2.063277e+09 -2.223270e+09 -2.469324e+01 -2.528517e+03 -3.181032e+02
-4.991145e+09 -4.791148e+09 -4.951153e+09 5.847178e+02 -7.211611e+02 2.569816e+02
-2.839838e+09 -2.639838e+09 -2.799838e+09 1.523437e+02 1.301058e+01 1.790155e+01
-2.736511e+09 -2.536511e+09 -2.696511e+09 1.054464e+02 1.148923e+01 1.675830e+01
-4.835079e+09 -4.635079e+09 -4.795080e+09 1.102656e+03 -1.248227e+02 -1.383500e+02
-3.122660e+09 -2.922658e+09 -3.082659e+09 6.549727e+01 6.673570e+00 -8.042758e+00
-2.654844e+09 -2.454843e+09 -2.614844e+09 1.429062e+02 2.054107e+01 2.704533e+01
-2.638899e+09 -2.438903e+09 -2.598903e+09 -2.369878e+03 -6.522094e+02 9.355542e+02
-2.808762e+09 -2.608758e+09 -2.768761e+09 6.361404e+02 6.650253e+02 -6.046869e+02
-2.706122e+09 -2.506121e+09 -2.666121e+09 2.615845e+01 2.977515e+00 -1.951967e+01
-1.592370e+09 -1.392369e+09 -1.552369e+09 1.122264e+02 3.008511e+01 -2.704008e+01
-2.958307e+09 -2.758315e+09 -2.918312e+09 -2.000172e+03 -3.192387e+03 -5.769962e+02
-1.890298e+09 -1.690310e+09 -1.850302e+09 5.183587e+02 -3.022946e+03 4.547615e+02
-3.246985e+09 -3.046989e+09 -3.206987e+09 -1.475092e+03 -1.121345e+03 -4.283948e+02
-3.915553e+09 -3.715561e+09 -3.875559e+09 -4.866258e+02 -1.646731e+03 6.486172e+01
-5.005562e+09 -4.805569e+09 -4.965566e+09 -5.646252e+02 -2.434212e+02 -2.965432e+01
-3.961995e+09 -3.762000e+09 -3.922006e+09 -7.739753e+02 -3.931697e+03 1.927090e+02
-4.992374e+09 -4.792375e+09 -4.952383e+09 -2.033383e+03 -1.173917e+03 -2.159895e+02
-4.134841e+09 -3.934849e+09 -4.094849e+09 -4.667819e+02 -1.725227e+03 1.232471e+02
-3.961996e+09 -3.762001e+09 -3.922006e+09 -1.298674e+03 -4.014797e+03 -1.312599e+02
-4.993041e+09 -4.793040e+09 -4.953054e+09 -2.219256e+03 -2.076854e+03 -1.910500e+02
-3.962675e+09 -3.762679e+09 -3.922685e+09 -2.177849e+03 -3.729394e+03 -7.553860e+02
-1.700591e+09 -1.500592e+09 -1.660594e+09 -7.518431e+02 1.131479e+02 6.577169e+01
-2.709047e+09 -2.509041e+09 -2.669046e+09 -3.428798e+02 5.829407e+02 -1.362751e+03
-2.639966e+09 -2.439966e+09 -2.599968e+09 -2.575608e+03 -8.340104e+02 1.119401e+03
-3.472735e+09 -3.272743e+09 -3.432741e+09 -1.325053e+03 -3.022350e+03 -2.522981e+02
-3.961404e+09 -3.761398e+09 -3.921409e+09 2.756830e+03 2.652773e+03 -2.001063e+03
-4.992376e+09 -4.792378e+09 -4.952377e+09 2.844077e+03 2.516723e+02 -9.050742e+01
-4.993042e+09 -4.793046e+09 -4.953047e+09 2.941834e+03 4.685965e+02 -1.570889e+02
-2.970285e+09 -2.770289e+09 -2.930289e+09 -9.503982e+02 -3.053453e+01 7.065744e+02
-2.180961e+09 -1.980956e+09 -2.140962e+09 -2.580820e+03 -1.551525e+02 -7.256891e+02
-2.573160e+09 -2.373156e+09 -2.533161e+09 -2.843567e+03 -7.779560e+02 -3.012741e+02
-2.070688e+09 -1.870683e+09 -2.030687e+09 -2.717986e+02 6.154933e+02 -1.260074e+03
-1.569070e+09 -1.369067e+09 -1.529070e+09 -9.242449e+02 8.241776e+01 -2.741998e+01
-4.820449e+09 -4.620449e+09 -4.780449e+09 -5.844935e+02 2.156848e+01 -2.145893e+01
-4.589177e+09 -4.389178e+09 -4.549178e+09 -3.040588e+02 3.901697e+00 9.733128e+00
-2.305640e+09 -2.105637e+09 -2.265641e+09 -1.247611e+03 1.288800e+02 -4.869052e+02
-3.266699e+09 -3.066697e+09 -3.226700e+09 -2.131070e+03 1.386387e+01 -6.801947e+02
-1.892704e+09 -1.692714e+09 -1.852707e+09 -6.335801e+02 -2.714898e+03 7.492620e+01
-3.903861e+09 -3.703868e+09 -3.863865e+09 -6.511142e+02 -6.578485e+02 -1.060455e+02
-4.991181e+09 -4.791180e+09 -4.951183e+09 9.259697e+02 -2.024045e+02 1.541737e+02
-4.820068e+09 -4.620066e+09 -4.780071e+09 3.166917e+03 6.632618e+02 -8.317302e+02
-3.068312e+09 -2.868311e+09 -3.028311e+09 8.374006e+01 1.680166e+01 -6.883701e+00
-3.478872e+09 -3.278871e+09 -3.438871e+09 -1.221808e+02 -2.111201e+01 -5.485051e+01
-2.261630e+09 -2.061629e+09 -2.221629e+09 9.937708e+01 9.359541e+00 -3.061160e+01
-3.207494e+09 -3.007493e+09 -3.167494e+09 6.129138e+01 6.247173e+00 1.979945e+00
-4.255247e+09 -4.055246e+09 -4.215246e+09 4.910683e+01 1.159589e+01 -3.525573e+00
-2.642658e+09 -2.442657e+09 -2.602657e+09 5.480967e+01 -1.653358e+01 -4.030578e+01
-2.996574e+09 -2.796573e+09 -2.956574e+09 6.488361e+01 1.096770e+01 6.980826e+00
-2.641448e+09 -2.441447e+09 -2.601447e+09 1.139162e+02 2.442957e+01 -1.319865e+01
-2.606735e+09 -2.406734e+09 -2.566734e+09 9.496107e+01 -2.487571e+00 -1.144808e+01
-2.189477e+09 -1.989476e+09 -2.149476e+09 3.962606e+01 4.644739e+00 -3.424123e+01
-4.258423e+09 -4.058423e+09 -4.218423e+09 -1.249719e+03 -2.585367e+02 -2.844974e+02
-1.891400e+09 -1.691405e+09 -1.851401e+09 -2.978025e+03 -2.445458e+03 -9.155108e+02
-4.614310e+09 -4.414306e+09 -4.574310e+09 -7.748198e+02 1.008483e+02 -2.304409e+01
-3.873728e+09 -3.673730e+09 -3.833730e+09 -1.585442e+03 -1.183236e+03 -2.758109e+02
-1.920262e+09 -1.720268e+09 -1.880263e+09 -9.074501e+02 -9.078903e+02 -6.105173e+01
-3.897526e+09 -3.697525e+09 -3.857524e+09 -2.311547e+02 -1.455751e+02 -1.252309e+02
-1.571676e+09 -1.371675e+09 -1.531675e+09 -2.494153e+02 -1.360248e+01 -9.206700e+01
-2.190769e+09 -1.990768e+09 -2.150769e+09 -3.069990e+02 -3.555296e+01 -4.263623e+01
-3.393266e+09 -3.193261e+09 -3.353265e+09 9.300925e+02 8.603824e+02 -4.096553e+02
-2.521399e+09 -2.321398e+09 -2.481401e+09 -4.274560e+02 4.196796e+02 -4.060832e+02
-2.173180e+09 -1.973179e+09 -2.133179e+09 -1.689660e+02 -1.816185e+01 -3.942492e+01
-2.695396e+09 -2.495395e+09 -2.655395e+09 -5.379666e+01 -6.989344e+00 -2.790797e+01
-3.649159e+09 -3.449157e+09 -3.609160e+09 -7.062761e+02 1.951853e+02 -6.889572e+02
-2.156679e+09 -1.956677e+09 -2.116678e+09 -5.950510e+01 -4.766090e+00 -7.648538e+01
-3.150691e+09 -2.950689e+09 -3.110692e+09 -1.984402e+02 2.784448e+02 -2.125417e+02
-4.684062e+09 -4.484064e+09 -4.644065e+09 -1.006802e+03 2.540967e+01 1.150295e+02
-3.265190e+09 -3.065187e+09 -3.225191e+09 -7.148297e+02 6.743718e+01 -4.729956e+01
-3.561936e+09 -3.361938e+09 -3.521940e+09 -1.247531e+03 1.639700e+02 1.166505e+02
-3.422597e+09 -3.222603e+09 -3.382598e+09 -2.399263e+02 8.974636e+01 -8.400523e+00
-4.466664e+09 -4.266660e+09 -4.426662e+09 3.143267e+01 1.404358e+02 1.666458e+02
-4.651576e+09 -4.451575e+09 -4.611575e+09 -2.213218e+02 2.030742e+01 -5.666647e+01
-3.454525e+09 -3.254526e+09 -3.414525e+09 1.039897e+03 -7.676069e+02 4.161272e+02
-4.129961e+09 -3.929960e+09 -4.089963e+09 -2.777134e+03 7.216859e+02 5.453370e+02
-4.989983e+09 -4.789979e+09 -4.949984e+09 -1.784556e+03 3.663792e+02 1.340461e+02
-2.183267e+09 -1.983266e+09 -2.143266e+09 1.448670e+02 -1.666345e+02 7.718642e+00
-1.967115e+09 -1.767117e+09 -1.927114e+09 2.157230e+02 -2.691238e+02 6.909404e+01
-4.131365e+09 -3.931362e+09 -4.091364e+09 -1.363267e+03 4.025674e+02 3.820396e+02
-4.302292e+09 -4.102288e+09 -4.262291e+09 2.189993e+02 8.252386e+01 1.564684e+02
-4.814050e+09 -4.614044e+09 -4.774048e+09 -4.606436e+02 -9.462763e+00 -1.771756e+02
-2.617743e+09 -2.417745e+09 -2.577744e+09 -2.111017e+01 -2.061462e+01 3.547884e+00
-4.990464e+09 -4.790465e+09 -4.950465e+09 -1.028909e+02 -1.467999e+01 -1.259945e+01
-4.129828e+09 -3.929825e+09 -4.089829e+09 -2.217560e+03 1.067908e+03 9.711032e+02
-4.818273e+09 -4.618267e+09 -4.778277e+09 2.506131e+03 1.368702e+03 -8.926839e+02
-2.367642e+09 -2.167647e+09 -2.327643e+09 5.361415e+02 -2.362026e+02 1.000436e+02
-4.128144e+09 -3.928138e+09 -4.088141e+09 3.490212e+02 -1.031253e+02 7.530618e+01
-4.090466e+09 -3.890467e+09 -4.050467e+09 -2.174283e+03 1.030997e+02 -7.472392e+01
-4.643124e+09 -4.443126e+09 -4.603126e+09 -1.874507e+03 7.679502e+01 3.398642e+01
-4.990069e+09 -4.790069e+09 -4.950070e+09 -2.254425e+03 9.771830e+01 -1.588252e+02
-4.129733e+09 -3.929734e+09 -4.089734e+09 -2.588266e+03 1.425760e+02 -4.986338e+01
-3.776833e+09 -3.576839e+09 -3.736836e+09 5.180720e+02 -6.944393e+02 1.585320e+02
-3.940040e+09 -3.740041e+09 -3.900041e+09 -1.889666e+03 4.314311e+01 -2.852958e+02
-2.270228e+09 -2.070237e+09 -2.230231e+09 7.970428e+02 -2.320472e+03 -1.717879e+02
-4.798826e+09 -4.598826e+09 -4.758826e+09 -2.010926e+03 4.430302e+01 -7.541237e+01
-4.626506e+09 -4.426507e+09 -4.586507e+09 -1.896456e+03 -1.010398e+02 -6.381673e+01
-4.134236e+09 -3.934235e+09 -4.094236e+09 -1.924813e+03 1.010268e+01 -3.742219e+01
-3.947561e+09 -3.747565e+09 -3.907565e+09 1.294742e+03 1.527369e+02 -2.369121e+02
-4.301680e+09 -4.101690e+09 -4.261684e+09 1.323017e+02 9.914105e+01 1.451723e+03
-4.549763e+09 -4.349771e+09 -4.509769e+09 1.058484e+03 7.368768e+01 -2.030269e+01
-3.645025e+09 -3.445030e+09 -3.605030e+09 1.260216e+03 2.046736e+02 -6.614388e+02
-3.087355e+09 -2.887362e+09 -3.047359e+09 3.723837e+03 1.148349e+03 2.964341e+03
-3.385769e+09 -3.185780e+09 -3.345776e+09 1.550644e+03 6.027197e+02 1.594237e+03
-2.473769e+09 -2.273764e+09 -2.433768e+09 -1.927148e+03 -1.994780e+03 -1.433439e+03
-3.040061e+09 -2.840054e+09 -3.000060e+09 -9.397232e+02 -9.786922e+02 -1.491279e+03
-1.857175e+09 -1.657184e+09 -1.817177e+09 -2.396462e+02 -1.069234e+03 7.640886e+01
-1.590586e+09 -1.390591e+09 -1.550586e+09 1.504107e+03 -1.291317e+03 2.857147e+02
-4.541956e+09 -4.341957e+09 -4.501956e+09 -7.443026e+01 -1.717533e+01 -1.455423e+00
-2.222585e+09 -2.022586e+09 -2.182588e+09 9.990249e+01 -3.937787e+02 -1.192272e+02
-1.690842e+09 -1.490843e+09 -1.650841e+09 1.499717e+03 -9.005887e+02 4.127425e+02
-1.968261e+09 -1.768260e+09 -1.928264e+09 2.371543e+03 -2.880188e+01 -5.524903e+02
-3.163603e+09 -2.963602e+09 -3.123605e+09 7.657165e+02 -5.165658e+02 -9.771174e+02
-3.281726e+09 -3.081734e+09 -3.241730e+09 -6.261894e+02 -1.574902e+03 -7.594282e+01
-1.719738e+09 -1.519739e+09 -1.679741e+09 6.411992e+02 -4.047484e+02 7.988564e+01
-4.134242e+09 -3.934237e+09 -4.094242e+09 1.952925e+03 9.171292e+02 -3.855872e+02
-1.978088e+09 -1.778086e+09 -1.938086e+09 -5.550185e+02 -4.121461e+02 -1.057277e+02
-4.091878e+09 -3.891884e+09 -4.051878e+09 1.696307e+02 9.698906e+01 -2.647079e+01
-3.497463e+09 -3.297461e+09 -3.457462e+09 -1.154247e+03 -6.637627e+02 -2.882906e+02
-1.808639e+09 -1.608637e+09 -1.768637e+09 -2.739801e+02 -3.064608e+02 -6.819055e+01
-4.302346e+09 -4.102345e+09 -4.262351e+09 3.442511e+03 2.314871e+03 -1.210122e+03
-3.417890e+09 -3.217895e+09 -3.377890e+09 6.066105e+02 4.249716e+01 -1.734871e+01
-4.275280e+09 -4.075286e+09 -4.235281e+09 -2.990651e+01 4.981417e+01 -2.374511e+01
-2.672283e+09 -2.472282e+09 -2.632281e+09 -2.477563e+02 -1.392624e+02 -1.123150e+02
-4.115705e+09 -3.915703e+09 -4.075703e+09 -1.834630e+02 -1.642238e+02 -1.954529e+01
-1.576439e+09 -1.376444e+09 -1.536439e+09 -8.120874e+01 -1.120711e+01 -5.495354e+01
-3.875288e+09 -3.675293e+09 -3.835289e+09 -2.173081e+02 1.555208e+02 -6.531766e+01
-2.294754e+09 -2.094752e+09 -2.254752e+09 -5.216600e+01 -1.075903e+02 1.592939e+01
-3.895315e+09 -3.695314e+09 -3.855314e+09 -1.036537e+03 -4.922262e+02 -1.507632e+02
-4.011562e+09 -3.811561e+09 -3.971561e+09 -9.011133e+02 -5.533922e+02 -2.732860e+02
-2.862322e+09 -2.662317e+09 -2.822320e+09 -2.038318e+02 -8.533577e+02 -3.966754e+01
-2.927742e+09 -2.727740e+09 -2.887743e+09 -2.645618e+02 -4.035433e+02 -1.500144e+02
-3.004798e+09 -2.804794e+09 -2.964797e+09 -1.138610e+03 -8.297288e+02 -6.381219e+02
-4.643858e+09 -4.443856e+09 -4.603857e+09 -1.122591e+03 -4.020372e+02 -7.981352e+00
-2.666210e+09 -2.466208e+09 -2.626208e+09 -2.443638e+02 -4.401985e+02 -4.490932e+01
-2.625191e+09 -2.425187e+09 -2.585189e+09 -3.973575e+02 -8.489906e+02 -1.584936e+02
-1.776052e+09 -1.576058e+09 -1.736053e+09 -1.420244e+03 -1.054223e+03 -2.662094e+02
-1.781782e+09 -1.581785e+09 -1.741782e+09 -2.015947e+03 -1.271013e+03 -2.909043e+02
-3.938350e+09 -3.738346e+09 -3.898349e+09 -1.794648e+02 -7.590758e+02 -4.423151e+01
-3.076092e+09 -2.876087e+09 -3.036092e+09 3.032919e+02 -1.192598e+03 -9.249925e+02
-4.117047e+09 -3.917044e+09 -4.077045e+09 -5.931012e+02 -3.450239e+02 -3.833956e+01
-1.580828e+09 -1.380827e+09 -1.540827e+09 1.133201e+02 2.591665e+01 -4.267061e+01
-4.638785e+09 -4.438783e+09 -4.598785e+09 -1.093635e+03 -3.010547e+02 -1.553545e+01
-1.893333e+09 -1.693332e+09 -1.853332e+09 8.029445e+01 3.411112e+00 -4.405396e+01
-4.520192e+09 -4.320189e+09 -4.480190e+09 -6.140240e+02 -2.694998e+02 -5.321575e+01
-3.393631e+09 -3.193630e+09 -3.353630e+09 3.816416e+01 -7.330311e+00 -1.401699e+01
-2.914014e+09 -2.714013e+09 -2.874013e+09 9.526579e+01 1.139392e+01 -1.471726e+01
-2.501213e+09 -2.301207e+09 -2.461212e+09 -1.408956e+03 -1.740161e+03 -2.091551e+03
-4.668076e+09 -4.468080e+09 -4.628079e+09 1.873880e+03 2.549307e+02 -9.550639e+01
-2.858594e+09 -2.658590e+09 -2.818594e+09 -5.722635e+02 -1.321139e+03 -7.035718e+02
-3.850171e+09 -3.650168e+09 -3.810169e+09 -6.345893e+02 -4.950960e+02 -5.608729e+01
-3.417245e+09 -3.217243e+09 -3.377243e+09 -4.405002e+02 -3.114978e+02 -1.458200e+02
-3.390244e+09 -3.190239e+09 -3.350243e+09 2.999947e+02 8.954558e+02 -7.829142e+02
-2.584412e+09 -2.384407e+09 -2.544410e+09 9.273069e+02 8.070187e+02 -6.724980e+02
-3.227492e+09 -3.027490e+09 -3.187491e+09 -1.764259e+02 -2.270278e+01 -3.573263e+01
-4.660487e+09 -4.460486e+09 -4.620486e+09 -2.226322e+02 -1.041681e+01 1.085905e+01
-2.712182e+09 -2.512180e+09 -2.672182e+09 9.328205e+01 4.125790e+02 -8.077958e+01
-4.479730e+09 -4.279733e+09 -4.439731e+09 4.628943e+02 -5.972324e+01 1.104112e+01
-3.659422e+09 -3.459417e+09 -3.619421e+09 -1.715615e+01 5.603898e+02 -4.017396e+02
-4.274528e+09 -4.074526e+09 -4.234526e+09 -2.766824e+02 -1.499873e+01 7.911181e+00
-2.946406e+09 -2.746401e+09 -2.906404e+09 9.002413e+02 9.149712e+02 -5.907879e+02
-3.221775e+09 -3.021771e+09 -3.181774e+09 -1.896521e+01 5.112261e+02 -4.190485e+01
-2.255222e+09 -2.055221e+09 -2.215221e+09 -3.287624e+02 -5.652332e+01 -6.676975e+01
-3.120893e+09 -2.920887e+09 -3.080892e+09 2.058254e+03 1.869756e+03 -1.574124e+03
-2.208120e+09 -2.008118e+09 -2.168119e+09 -6.394395e+01 -9.663147e+00 -5.667118e+01
-1.888422e+09 -1.688420e+09 -1.848421e+09 -3.027333e+02 -3.250920e+01 -4.789202e+01
-4.075585e+09 -3.875584e+09 -4.035585e+09 -2.238213e+02 -9.145819e+00 1.576677e+01
-4.164225e+09 -3.964224e+09 -4.124225e+09 -4.896697e+01 -1.829867e+00 -1.536310e+01
-4.648064e+09 -4.448061e+09 -4.608065e+09 -1.379349e+03 4.645442e+01 -1.689641e+02
-2.780765e+09 -2.580761e+09 -2.740765e+09 -1.437405e+03 -3.826109e+01 -3.124917e+02
-4.595954e+09 -4.395955e+09 -4.555953e+09 3.383968e+02 -3.602709e+01 -3.009673e+01
-3.635442e+09 -3.435443e+09 -3.595441e+09 4.010463e+02 1.922140e+02 3.351915e+01
-1.891532e+09 -1.691531e+09 -1.851531e+09 6.971980e+01 2.911148e+01 -4.203051e+01
-3.064748e+09 -2.864750e+09 -3.024748e+09 3.068798e+02 -2.865318e+02 8.462626e+01
-2.796272e+09 -2.596273e+09 -2.756271e+09 3.246811e+02 -3.107909e+02 6.032131e+01
-4.450204e+09 -4.250206e+09 -4.410206e+09 1.122103e+03 -5.841446e+02 5.206869e+02
-1.878865e+09 -1.678871e+09 -1.838865e+09 -2.188451e+02 1.819379e+02 -1.785130e+01
-3.509911e+09 -3.309914e+09 -3.469912e+09 1.012301e+03 -1.048134e+03 4.872206e+02
-1.590579e+09 -1.390585e+09 -1.550579e+09 7.602373e+01 5.739610e+01 -3.534883e+01
-3.236702e+09 -3.036703e+09 -3.196702e+09 9.553360e+02 -8.720738e+02 5.021167e+02
-4.618610e+09 -4.418614e+09 -4.578610e+09 -3.392503e+02 -2.298889e+00 -5.806495e+01
-3.704110e+09 -3.504113e+09 -3.664109e+09 -2.581371e+02 2.052265e+02 -5.202401e+01
-3.106695e+09 -2.906698e+09 -3.066694e+09 -1.959212e+02 -3.788795e+01 -8.119928e+01
-2.693981e+09 -2.493986e+09 -2.653981e+09 3.001318e+02 8.097956e+01 1.294849e+01
-2.773211e+09 -2.573215e+09 -2.733211e+09 -1.803373e+02 -1.116132e+02 -6.284272e+01
-4.431466e+09 -4.231468e+09 -4.391465e+09 -5.740315e+02 4.493881e+01 -3.560428e+01
-3.508408e+09 -3.308409e+09 -3.468407e+09 -5.799212e+02 2.014959e+01 -1.771607e+01
-3.242791e+09 -3.042794e+09 -3.202791e+09 -7.738090e+02 -1.629046e+01 -1.188957e+02
-1.592370e+09 -1.392369e+09 -1.552369e+09 7.587187e+01 3.436336e+01 -7.844041e+01
-3.354759e+09 -3.154762e+09 -3.314758e+09 4.107197e+02 8.492807e+01 4.634338e-01
-3.122002e+09 -2.922006e+09 -3.082002e+09 3.759308e+02 7.764407e+00 -8.236703e+01
-4.804179e+09 -4.604177e+09 -4.764178e+09 3.392092e+01 1.414742e+01 6.930099e+00
-4.162682e+09 -3.962685e+09 -4.122683e+09 -1.820264e+02 -4.106552e+02 -7.664818e+01
-2.710269e+09 -2.510272e+09 -2.670268e+09 2.499925e+02 6.952857e+00 2.608529e+01
-3.224635e+09 -3.024642e+09 -3.184640e+09 -1.170640e+03 -2.290443e+03 -9.980597e+01
-2.256708e+09 -2.056717e+09 -2.216711e+09 -1.899100e+02 -4.314792e+02 -6.289002e+01
-2.305006e+09 -2.105008e+09 -2.265005e+09 7.842319e+02 1.182781e+02 2.641913e+01
-4.054380e+09 -3.854382e+09 -4.014382e+09 -1.417109e+03 -6.059674e+02 -1.954413e+02
-1.590298e+09 -1.390308e+09 -1.550299e+09 -1.674435e+03 -2.015553e+03 -8.500804e+01
-2.192363e+09 -1.992368e+09 -2.152364e+09 -2.645677e+03 -2.562691e+03 -9.127851e+02
-2.421909e+09 -2.221911e+09 -2.381908e+09 1.067693e+03 9.218126e+01 -1.810698e+01
-1.911119e+09 -1.711124e+09 -1.871119e+09 -8.213112e+01 -2.439990e+01 -7.336040e+01
-2.959580e+09 -2.759587e+09 -2.919581e+09 1.784257e+02 1.568235e+02 -5.345262e+01
-2.309692e+09 -2.109696e+09 -2.269692e+09 9.885952e+02 6.426662e+01 -6.005611e+01
-4.127533e+09 -3.927539e+09 -4.087534e+09 1.110135e+02 6.675113e+00 1.459832e+01
-3.900401e+09 -3.700403e+09 -3.860400e+09 4.985534e+02 6.833053e+01 3.863199e+00
-4.635483e+09 -4.435486e+09 -4.595482e+09 8.055219e+02 1.800963e+01 -8.433251e+00
-4.302225e+09 -4.102229e+09 -4.262227e+09 -1.113228e+03 1.617211e+02 -3.302239e+02
-4.825317e+09 -4.625319e+09 -4.785316e+09 8.193348e+02 7.109250e+01 -6.111496e+01
-3.197107e+09 -2.997110e+09 -3.157106e+09 3.274194e+02 4.405479e+01 2.549533e+01
-3.428141e+09 -3.228144e+09 -3.388140e+09 4.977397e+02 6.251697e+01 1.604560e+01
-4.632625e+09 -4.432628e+09 -4.592624e+09 4.253029e+02 -9.586714e+01 -1.806846e+01
-4.107798e+09 -3.907801e+09 -4.067797e+09 5.226202e+02 -2.268321e+01 3.490296e+01
-4.250089e+09 -4.050092e+09 -4.210088e+09 4.203906e+02 4.215297e+01 1.727500e+01
-4.445800e+09 -4.245802e+09 -4.405801e+09 3.244376e+01 9.837200e+00 1.504758e+01
-4.781774e+09 -4.581775e+09 -4.741775e+09 6.684276e+01 8.426921e-01 -4.138594e+01
-4.125866e+09 -3.925868e+09 -4.085867e+09 7.913015e+00 4.982423e+00 2.878443e+00
-3.290522e+09 -3.090519e+09 -3.250523e+09 2.509795e+03 -4.572013e+02 -1.124606e+03
-3.297317e+09 -3.097310e+09 -3.257318e+09 5.507794e+02 -1.889963e+03 -2.045318e+03
-3.897113e+09 -3.697111e+09 -3.857115e+09 2.113942e+03 -9.807270e+01 -6.919943e+02
-3.251334e+09 -3.051342e+09 -3.211339e+09 1.463757e+03 -2.589997e+03 8.519418e+02
-3.035074e+09 -2.835075e+09 -2.995074e+09 8.010829e+01 3.951220e+01 1.095653e+01
-2.678643e+09 -2.478651e+09 -2.638645e+09 8.889255e+01 -2.472346e+02 5.603984e+01
-3.916978e+09 -3.716979e+09 -3.876979e+09 9.719499e+01 2.068451e+01 1.483843e+01
-3.618942e+09 -3.418943e+09 -3.578943e+09 9.438450e+01 1.439143e+01 6.115243e+01
-2.752382e+09 -2.552383e+09 -2.712383e+09 4.653597e+01 1.016027e+01 3.254645e+01
-2.818833e+09 -2.618834e+09 -2.778833e+09 1.576693e+02 2.875042e+01 -2.709895e+01
-2.927350e+09 -2.727351e+09 -2.887351e+09 1.438285e+02 2.641353e+01 2.288193e+01
-4.663985e+09 -4.463986e+09 -4.623986e+09 1.433714e+02 -2.761889e+00 -7.156083e+01
-3.137473e+09 -2.937475e+09 -3.097474e+09 1.891842e+02 3.111648e+00 1.643266e+01
-4.972929e+09 -4.772931e+09 -4.932931e+09 1.465239e+02 -1.010232e+01 -6.995027e+00
-4.988956e+09 -4.788958e+09 -4.948957e+09 5.443233e+01 -8.797631e+00 -1.094149e+01
-3.583943e+09 -3.383945e+09 -3.543944e+09 -5.014485e+01 -4.059335e-01 -3.763550e+00
-3.400597e+09 -3.200598e+09 -3.360598e+09 -7.177441e+01 -1.687067e+01 7.191616e+00
-2.295638e+09 -2.095639e+09 -2.255639e+09 -4.612346e+00 2.711873e+00 5.941352e+00
-3.410843e+09 -3.210845e+09 -3.370845e+09 -8.563834e+01 -3.529377e+00 6.280808e+00
-2.243675e+09 -2.043675e+09 -2.203674e+09 -4.355457e+01 2.360950e+01 -8.701997e+01
-2.808943e+09 -2.608945e+09 -2.768944e+09 -1.732030e+02 -9.260199e+00 2.685434e+01
-3.459802e+09 -3.259807e+09 -3.419803e+09 -7.869236e+02 9.946332e+01 -1.087664e+01
-2.692224e+09 -2.492225e+09 -2.652225e+09 -9.782257e+01 -1.733660e+01 1.223026e+01
-1.584303e+09 -1.384307e+09 -1.544303e+09 -2.726670e+02 -1.099191e+02 -1.211911e+02
-3.454525e+09 -3.254529e+09 -3.414526e+09 -9.691907e+02 4.282324e+01 7.079427e+00
-2.208751e+09 -2.008752e+09 -2.168752e+09 -3.590937e+01 -4.349003e+00 -1.840669e+00
-4.131973e+09 -3.931974e+09 -4.091973e+09 -1.765487e+03 4.179352e+02 2.254504e+02
-4.605141e+09 -4.405143e+09 -4.565142e+09 -9.146850e+01 7.208311e+00 -1.201973e+01
-3.961461e+09 -3.761460e+09 -3.921460e+09 -1.149397e+03 2.930329e+02 3.056335e+01
-4.990504e+09 -4.790502e+09 -4.950503e+09 -3.560306e+03 -2.099206e+02 -2.451643e+02
-4.818607e+09 -4.618608e+09 -4.778607e+09 -2.162642e+03 -6.931275e+01 -1.650626e+02
-1.586440e+09 -1.386442e+09 -1.546441e+09 -5.629918e+00 3.807910e+00 2.480823e+01
-1.586471e+09 -1.386472e+09 -1.546472e+09 8.114059e+01 1.777200e+01 4.407477e+01
-1.891841e+09 -1.691847e+09 -1.851842e+09 -3.628013e+02 2.816720e+01 -1.071494e+02
-2.984041e+09 -2.784043e+09 -2.944042e+09 -1.456997e+02 -1.493807e+01 2.314932e+01
-5.007891e+09 -4.807893e+09 -4.967893e+09 9.736704e+02 -2.028553e+02 1.053867e+02
-3.938212e+09 -3.738213e+09 -3.898211e+09 -7.107584e+02 -1.163600e+02 -8.835200e+01
-2.552549e+09 -2.352550e+09 -2.512548e+09 -8.058523e+02 3.210744e+02 3.822410e+01
-1.690838e+09 -1.490838e+09 -1.650837e+09 -4.289561e+02 1.966164e+01 -1.248325e+02
-1.690840e+09 -1.490843e+09 -1.650840e+09 -8.997343e+02 5.319221e+01 -1.320163e+02
-4.991196e+09 -4.791201e+09 -4.951186e+09 -4.565873e+03 -3.372233e+02 1.226875e+03
-2.555711e+09 -2.355713e+09 -2.515710e+09 -8.883064e+02 -2.413108e+02 -5.095169e+01
-3.194629e+09 -2.994630e+09 -3.154630e+09 -9.218318e+01 -1.467485e+01 1.201764e+01
-4.649048e+09 -4.449054e+09 -4.609049e+09 -6.792821e+02 1.499689e+02 -3.632287e+01
-2.194267e+09 -1.994273e+09 -2.154268e+09 -5.995090e+02 1.222522e+02 -3.945276e+01
-2.541332e+09 -2.341333e+09 -2.501333e+09 -1.538829e+02 -1.729217e+01 9.278114e+01
-1.646134e+09 -1.446135e+09 -1.606135e+09 -1.143642e+02 -2.116634e+01 4.218435e+00
-3.261533e+09 -3.061535e+09 -3.221533e+09 -8.544746e+02 6.555529e+01 -4.751002e+01
-3.924567e+09 -3.724571e+09 -3.884567e+09 -9.651050e+02 2.354904e+02 -2.385007e+01
-4.820703e+09 -4.620707e+09 -4.780708e+09 -2.422738e+03 5.763906e+02 2.151508e+02
-4.817830e+09 -4.617827e+09 -4.777830e+09 -1.285206e+03 9.971624e+01 3.341183e+01
-3.961479e+09 -3.761477e+09 -3.921478e+09 -1.113072e+03 3.770706e+02 1.647266e+02
-2.121478e+09 -1.921478e+09 -2.081478e+09 -2.285945e+02 -3.407923e+01 4.209490e+01
-2.980006e+09 -2.780006e+09 -2.940006e+09 -3.238608e+02 -4.530876e+01 1.159994e+01
-1.890472e+09 -1.690473e+09 -1.850473e+09 -3.258259e+02 -3.923319e+01 5.827858e+01
-3.148493e+09 -2.948494e+09 -3.108494e+09 -1.411384e+02 -1.099958e+01 -1.408083e+00
-2.176906e+09 -1.976907e+09 -2.136907e+09 -1.034827e+02 -4.778093e+00 3.756847e+00
-1.590533e+09 -1.390534e+09 -1.550534e+09 -3.116026e+02 -6.121333e+01 3.426892e+01
-3.745256e+09 -3.545256e+09 -3.705255e+09 2.566844e+02 -5.580434e+01 9.376657e+00
-4.807253e+09 -4.607252e+09 -4.767252e+09 -1.609026e+02 -4.043450e+00 8.099235e+00
-4.486346e+09 -4.286345e+09 -4.446346e+09 -1.465137e+02 -3.825125e+00 -8.550023e+00
-4.992554e+09 -4.792553e+09 -4.952553e+09 4.241289e+02 -9.881671e+01 8.451693e+01
-2.968395e+09 -2.768394e+09 -2.928394e+09 1.695366e+02 -3.246260e+02 1.058764e+02
-3.837082e+09 -3.637085e+09 -3.797082e+09 -9.250839e+00 -1.159305e+02 5.979791e+01
-4.203146e+09 -4.003147e+09 -4.163147e+09 6.442560e+02 -2.359277e+02 1.389445e+02
-4.263386e+09 -4.063385e+09 -4.223386e+09 -2.169478e+02 -1.423218e+01 -5.560919e+00
-4.302653e+09 -4.102650e+09 -4.262653e+09 -1.314890e+03 -4.263701e+02 4.520206e+02
-4.820610e+09 -4.620609e+09 -4.780610e+09 -1.362254e+03 -8.317150e+01 1.876145e+02
-4.818267e+09 -4.618269e+09 -4.778278e+09 -1.178908e+01 -1.472449e+03 8.102515e+01
-4.644895e+09 -4.444892e+09 -4.604902e+09 -1.499782e+02 -7.617712e+02 9.109926e+02
-4.100488e+09 -3.900487e+09 -4.060488e+09 -1.282451e+02 -2.150920e-01 1.269483e+01
-3.907575e+09 -3.707574e+09 -3.867574e+09 -4.056954e+01 -6.139334e+00 -7.170101e+00
-3.820034e+09 -3.620033e+09 -3.780034e+09 -6.166725e+01 -1.385509e+01 -1.224727e+01
-4.099952e+09 -3.899951e+09 -4.059952e+09 -4.142846e+01 1.485226e+00 -1.579398e+01
-4.124023e+09 -3.924025e+09 -4.084023e+09 7.411617e+00 -1.800542e+02 3.657209e+01
-2.813759e+09 -2.613759e+09 -2.773758e+09 1.826422e+02 -2.003064e+02 -1.420094e+01
-4.595518e+09 -4.395518e+09 -4.555517e+09 2.487161e+02 -3.393795e+01 -2.339974e+01
-3.250629e+09 -3.050631e+09 -3.210628e+09 -2.182754e+02 1.210996e+00 -1.219191e+02
-3.689162e+09 -3.489163e+09 -3.649161e+09 2.633274e+02 1.577429e+02 -5.636002e+00
-3.232916e+09 -3.032917e+09 -3.192916e+09 6.447147e+02 -3.448463e+02 1.754877e+02
-4.992552e+09 -4.792552e+09 -4.952552e+09 8.092579e+02 -3.882545e+01 6.209736e+01
-4.819780e+09 -4.619779e+09 -4.779780e+09 3.945545e+02 -2.419377e+02 1.523432e+02
-1.690839e+09 -1.490840e+09 -1.650838e+09 -6.121619e+02 3.473955e+01 -1.337402e+02
-3.234583e+09 -3.034583e+09 -3.194582e+09 5.688745e+02 -4.947485e+02 2.450712e+02
-3.868780e+09 -3.668780e+09 -3.828780e+09 5.171297e+02 -3.875145e+02 1.230319e+02
-4.586438e+09 -4.386440e+09 -4.546439e+09 6.870075e+02 -1.520914e+02 5.210864e+01
-4.129608e+09 -3.929611e+09 -4.089608e+09 -1.892849e+01 -5.170423e+01 -2.824407e+01
-2.768275e+09 -2.568280e+09 -2.728275e+09 -1.515397e+02 -7.483772e+01 -6.204704e+01
-4.616250e+09 -4.416254e+09 -4.576250e+09 -3.099033e+02 1.822879e+01 -4.957112e+01
-3.725268e+09 -3.525272e+09 -3.685268e+09 -1.998272e+02 1.475862e+02 -6.099119e+01
-3.438853e+09 -3.238857e+09 -3.398853e+09 -3.343092e+02 1.149631e+02 -8.716366e+01
-4.992550e+09 -4.792553e+09 -4.952550e+09 -8.457037e+02 -3.115720e+01 5.343056e+01
-1.578321e+09 -1.378322e+09 -1.538320e+09 -4.520274e+02 9.090551e+00 -1.693750e+02
-4.819779e+09 -4.619783e+09 -4.779779e+09 -1.029473e+03 -1.943999e+02 -5.414056e+01
-3.233766e+09 -3.033770e+09 -3.193766e+09 -7.480366e+02 1.202750e+01 -9.242765e+01
-4.972863e+09 -4.772866e+09 -4.932863e+09 -6.249265e+02 -3.513293e+00 2.819020e+01
-1.883907e+09 -1.683909e+09 -1.843906e+09 -6.319114e+02 1.183456e+02 -8.258091e+01
-4.435171e+09 -4.235174e+09 -4.395171e+09 -6.406003e+02 2.870790e+01 -3.943304e+01
-2.740474e+09 -2.540481e+09 -2.700476e+09 4.676228e+02 -6.988507e+02 1.745083e+02
-4.600267e+09 -4.400273e+09 -4.560270e+09 4.650852e+02 -1.225590e+02 2.791859e+01
-3.811734e+09 -3.611737e+09 -3.771734e+09 -3.421569e+02 1.601929e+02 -6.285461e+01
-3.231233e+09 -3.031237e+09 -3.191233e+09 -7.275638e+02 1.644284e+02 -5.382627e+01
-3.533038e+09 -3.333040e+09 -3.493037e+09 -8.929622e+02 2.514184e+02 -2.902452e+00
-3.248659e+09 -3.048665e+09 -3.208660e+09 4.129931e+02 -3.080192e+02 1.016570e+02
-3.651063e+09 -3.451069e+09 -3.611065e+09 4.268821e+02 -4.711391e+02 1.877537e+02
-3.501153e+09 -3.301153e+09 -3.461153e+09 5.327557e+02 -4.386321e+02 2.565215e+02
-4.949521e+09 -4.749523e+09 -4.909522e+09 6.833609e+02 -7.258300e+01 3.088037e+01
-2.299917e+09 -2.099921e+09 -2.259917e+09 6.632967e+01 -4.051790e+02 6.822739e+01
-3.487033e+09 -3.287036e+09 -3.447034e+09 7.522220e+02 -8.291010e+02 5.518311e+02
-3.813470e+09 -3.613465e+09 -3.773469e+09 1.193682e+03 6.184963e+02 -3.626250e+02
-3.317624e+09 -3.117617e+09 -3.277623e+09 -4.223857e+02 1.059075e+03 -1.329952e+03
-4.284729e+09 -4.084740e+09 -4.244733e+09 9.545870e+02 4.103853e+02 1.282156e+03
-4.818255e+09 -4.618247e+09 -4.778260e+09 1.509158e+03 7.945746e+01 -6.905368e+02
-3.789289e+09 -3.589283e+09 -3.749289e+09 -1.593411e+03 -3.889700e+01 -8.949084e+02
-4.005120e+09 -3.805123e+09 -3.965121e+09 2.561255e+02 -1.755995e+02 1.076266e+02
-3.953800e+09 -3.753802e+09 -3.913803e+09 -1.947391e+02 9.311985e+01 7.720107e+01
-3.422639e+09 -3.222641e+09 -3.382642e+09 -3.041671e+03 4.817454e+01 7.484665e+02
-3.468182e+09 -3.268183e+09 -3.428181e+09 -7.141178e+02 1.254788e+01 -4.846576e+01
-4.992539e+09 -4.792542e+09 -4.952542e+09 8.643886e+02 -5.840246e+02 1.865863e+02
-4.992552e+09 -4.792556e+09 -4.952552e+09 -8.157069e+02 2.300171e+00 2.695451e+01
-2.593724e+09 -2.393725e+09 -2.553723e+09 -1.257902e+02 1.655526e+02 -4.215040e+01
-2.005582e+09 -1.805584e+09 -1.965582e+09 -1.956381e+02 1.755092e+01 -1.492100e+02
-3.936118e+09 -3.736120e+09 -3.896118e+09 -8.819064e+02 -2.308579e+01 -1.184033e+02
-3.962846e+09 -3.762848e+09 -3.922846e+09 -8.643246e+02 8.983800e+01 -1.141675e+02
-4.408335e+09 -4.208338e+09 -4.368336e+09 9.724446e+02 -2.606497e+02 1.443560e+02
-4.644591e+09 -4.444587e+09 -4.604595e+09 -7.020240e+02 -6.279086e+02 8.918967e+02
-3.228169e+09 -3.028174e+09 -3.188172e+09 1.724753e+03 -2.209685e+03 9.716523e+02
-3.243472e+09 -3.043478e+09 -3.203475e+09 8.933832e+02 -1.727089e+03 1.576865e+02
-3.917481e+09 -3.717485e+09 -3.877482e+09 4.577934e+01 -1.216866e+02 1.659579e+02
-3.377629e+09 -3.177630e+09 -3.337629e+09 2.973276e+02 -7.936443e+02 2.559277e+02
-2.193824e+09 -1.993824e+09 -2.153823e+09 1.036371e+03 -5.458967e+02 3.235560e+02
-3.978193e+09 -3.778195e+09 -3.938195e+09 1.223152e+03 -9.078899e+02 3.273145e+02
-3.540531e+09 -3.340534e+09 -3.500531e+09 -2.744555e+02 3.366652e+01 -5.041635e+01
-4.131959e+09 -3.931956e+09 -4.091960e+09 3.253087e+01 -7.893244e+02 7.327383e+02
-4.818643e+09 -4.618640e+09 -4.778643e+09 -1.235804e+03 -1.811816e+02 3.139911e+02
-3.961465e+09 -3.761463e+09 -3.921466e+09 9.261918e+02 -1.014505e+03 6.765586e+02
-4.813216e+09 -4.613213e+09 -4.773216e+09 -4.573753e+03 8.519938e+02 2.158535e+02
-2.315877e+09 -2.115879e+09 -2.275877e+09 -2.271896e+01 -8.188197e+01 -1.167967e+02
-3.871896e+09 -3.671898e+09 -3.831896e+09 -5.193067e+02 -5.926505e+00 -8.262456e+01
-2.781287e+09 -2.581287e+09 -2.741286e+09 -1.367434e+02 1.190538e+02 -9.216918e+01
-1.883471e+09 -1.683474e+09 -1.843471e+09 -6.876978e+02 1.744624e+02 -8.593378e+01
-3.708603e+09 -3.508604e+09 -3.668602e+09 -2.047056e+02 -1.594972e+02 -4.792495e+01
-2.183170e+09 -1.983171e+09 -2.143169e+09 -7.747885e+02 -1.917001e+01 -6.093333e+01
-1.581482e+09 -1.381485e+09 -1.541482e+09 -5.682097e+02 3.815559e+00 -1.431026e+02
-1.883907e+09 -1.683910e+09 -1.843907e+09 -7.170288e+02 -6.399848e+01 -1.378106e+02
-3.502737e+09 -3.302740e+09 -3.462737e+09 -6.431123e+02 4.580541e+01 -5.138626e+01
-4.993380e+09 -4.793383e+09 -4.953380e+09 -5.256565e+02 9.098954e+01 -5.454860e+00
-3.488502e+09 -3.288504e+09 -3.448502e+09 -5.169381e+02 -2.265453e+01 -1.188447e+01
-4.131931e+09 -3.931927e+09 -4.091934e+09 3.544139e+03 2.397243e+03 -1.918970e+03
-4.972858e+09 -4.772859e+09 -4.932857e+09 -4.951228e+02 -2.981295e-01 1.765411e+01
-3.957987e+09 -3.757990e+09 -3.917986e+09 -4.725079e+03 -1.464090e+03 2.639601e+03
-4.133429e+09 -3.933430e+09 -4.093430e+09 2.901400e+02 2.738576e+01 5.274833e+01
-1.895210e+09 -1.695212e+09 -1.855211e+09 8.924615e+01 3.029575e+01 3.678870e-01
-4.992652e+09 -4.792653e+09 -4.952653e+09 2.495737e+02 -1.443198e+01 3.913796e+00
-4.598064e+09 -4.398065e+09 -4.558063e+09 -2.663236e+02 -1.096638e+01 -5.078566e+01
-3.238055e+09 -3.038056e+09 -3.198054e+09 -4.784785e+02 1.043310e+02 -3.795958e+01
-3.336684e+09 -3.136686e+09 -3.296685e+09 -9.826236e+01 -1.113134e+01 1.091272e+01
-5.007405e+09 -4.807407e+09 -4.967406e+09 4.042860e+01 -2.766496e+00 -1.623647e+00
-4.237542e+09 -4.037544e+09 -4.197543e+09 -5.467378e+01 -1.523930e+01 -1.877316e+01
-4.362705e+09 -4.162707e+09 -4.322706e+09 1.638669e+01 7.945271e-01 1.452479e+01
-4.951984e+09 -4.751986e+09 -4.911986e+09 -2.493469e+01 -1.218345e+01 4.133725e+00
-4.990640e+09 -4.790641e+09 -4.950641e+09 -3.474200e+01 1.365388e+01 4.195489e+01
-4.990640e+09 -4.790641e+09 -4.950641e+09 -1.297244e+02 -3.700196e+00 -6.079798e+00
-3.961457e+09 -3.761458e+09 -3.921456e+09 -9.630025e+02 1.210965e+02 -8.071106e+01
-3.400645e+09 -3.200644e+09 -3.360644e+09 -2.081111e+02 -5.995810e+01 -6.984567e+01
-1.893056e+09 -1.693055e+09 -1.853055e+09 -3.243273e+02 -5.803495e+01 -6.405226e+01
-2.090980e+09 -1.890978e+09 -2.050979e+09 -3.335247e+02 -3.034755e+01 -4.571852e+01
-4.132067e+09 -3.932066e+09 -4.092067e+09 -1.646590e+03 1.899970e+02 3.339201e+01
-2.061108e+09 -1.861107e+09 -2.021107e+09 -2.747046e+01 -1.888145e+01 -6.910916e+01
-2.172256e+09 -1.972257e+09 -2.132257e+09 -2.618863e+02 -1.245457e+01 1.163648e+01
-3.006940e+09 -2.806938e+09 -2.966938e+09 -1.163773e+02 -4.426927e+01 -6.790596e+01
-2.155040e+09 -1.955038e+09 -2.115039e+09 -3.126207e+02 -4.635874e+01 -7.397513e+01
-2.446438e+09 -2.246439e+09 -2.406439e+09 -1.889201e+02 -1.065650e-02 5.576064e+01
-2.625577e+09 -2.425575e+09 -2.585576e+09 -3.058666e+02 -4.285059e+01 -8.696418e+01
-1.889526e+09 -1.689524e+09 -1.849524e+09 -2.746430e+02 -8.245960e+01 -8.610081e+01
-1.711386e+09 -1.511385e+09 -1.671385e+09 -2.414627e+01 -2.235930e+01 -1.133337e+02
-1.587102e+09 -1.387100e+09 -1.547101e+09 -3.181828e+02 -1.124725e+02 -5.344616e+01
-3.546556e+09 -3.346558e+09 -3.506557e+09 3.132393e+01 5.369138e+00 1.243657e+01
-1.581785e+09 -1.381786e+09 -1.541786e+09 1.588458e+02 3.410178e+01 2.400918e+01
-3.395486e+09 -3.195488e+09 -3.355487e+09 1.970642e+02 1.267382e+01 -1.978427e+01
-1.638521e+09 -1.438522e+09 -1.598520e+09 -1.651163e+01 -1.038051e+02 -1.135084e+02
-2.977658e+09 -2.777661e+09 -2.937660e+09 1.876738e+03 -1.548143e+03 9.272536e+02
-1.690842e+09 -1.490842e+09 -1.650841e+09 8.668243e+02 -5.668171e+02 1.969657e+02
-2.996129e+09 -2.796130e+09 -2.956130e+09 2.327464e+02 4.272633e+01 2.784062e+01
-1.880841e+09 -1.680840e+09 -1.840839e+09 -3.153469e+01 -2.268251e+02 -2.068753e+01
-1.917571e+09 -1.717573e+09 -1.877571e+09 4.629443e+02 -3.478466e+02 8.814822e+00
-4.643059e+09 -4.443060e+09 -4.603060e+09 1.702516e+02 7.356529e+00 8.778768e+00
-2.964749e+09 -2.764750e+09 -2.924750e+09 2.010274e+02 3.710035e+01 2.565520e+01
-3.221536e+09 -3.021536e+09 -3.181536e+09 2.709060e+02 2.918051e+01 5.744532e+01
-4.256683e+09 -4.056684e+09 -4.216684e+09 2.597026e+02 -2.670943e+00 5.822852e+00
-4.026972e+09 -3.826973e+09 -3.986973e+09 1.339274e+02 -6.601380e+00 1.648988e+00
-4.770221e+09 -4.570222e+09 -4.730222e+09 7.626088e+01 3.514300e+00 -4.542218e+01
-4.992652e+09 -4.792653e+09 -4.952653e+09 1.962763e+02 -6.041677e+00 -1.211672e+01
-4.129575e+09 -3.929570e+09 -4.089574e+09 4.060872e+02 3.852870e+02 -1.632787e+02
-4.814910e+09 -4.614915e+09 -4.774906e+09 -4.280046e+03 -2.079804e+03 2.037524e+03
-4.265306e+09 -4.065301e+09 -4.225306e+09 9.055340e+02 5.018723e+02 -5.055239e+02
-3.143756e+09 -2.943751e+09 -3.103754e+09 1.219152e+03 1.043092e+03 -6.043942e+02
-4.600352e+09 -4.400348e+09 -4.560351e+09 3.837067e+02 2.163816e+02 -5.845951e+01
-3.247199e+09 -3.047195e+09 -3.207197e+09 2.663419e+02 6.888405e+02 -1.620159e+02
-3.684899e+09 -3.484894e+09 -3.644897e+09 2.520612e+02 5.909308e+02 -1.327159e+02
-3.068176e+09 -2.868178e+09 -3.028176e+09 7.144180e+02 -4.891028e+02 1.183820e+02
-4.768285e+09 -4.568280e+09 -4.728285e+09 -2.066329e+02 1.675689e+02 -4.162375e+02
-4.992480e+09 -4.792474e+09 -4.952480e+09 1.030507e+03 4.409825e+01 -2.016726e+01
-3.834771e+09 -3.634772e+09 -3.794770e+09 -5.420622e+01 -7.698256e+01 2.652900e+00
-4.071759e+09 -3.871758e+09 -4.031758e+09 1.178579e+02 -1.228640e+02 -2.831556e+01
-3.016760e+09 -2.816760e+09 -2.976759e+09 5.085683e+02 -4.572811e+02 1.429667e+02
-3.310779e+09 -3.110779e+09 -3.270778e+09 2.261185e+02 -7.203705e+01 2.404869e+01
-1.690840e+09 -1.490845e+09 -1.650841e+09 -6.981392e+02 8.823400e+01 -1.041314e+02
-4.068710e+09 -3.868709e+09 -4.028709e+09 1.371322e+02 -1.836117e+02 5.061015e+01
-3.471540e+09 -3.271540e+09 -3.431539e+09 2.089554e+02 -1.164876e+02 8.108536e+00
-4.645653e+09 -4.445655e+09 -4.605653e+09 -1.332782e+03 1.287522e+02 -5.852531e+01
-3.181967e+09 -2.981966e+09 -3.141966e+09 -1.041125e+02 -8.556391e+01 -7.497423e+01
-3.231719e+09 -3.031718e+09 -3.191718e+09 2.013969e+02 -3.092160e+02 1.132412e+02
-4.770238e+09 -4.570243e+09 -4.730239e+09 -1.068511e+02 -6.433273e+01 -1.616425e+01
-4.823599e+09 -4.623598e+09 -4.783597e+09 -1.560291e+01 1.349053e+01 4.056313e+01
-4.970547e+09 -4.770548e+09 -4.930547e+09 5.173153e+02 -1.996814e+01 2.290153e+01
-4.992554e+09 -4.792553e+09 -4.952553e+09 9.548375e+01 -1.691188e+02 8.257321e+01
-4.989269e+09 -4.789269e+09 -4.949268e+09 1.449215e+02 -4.336551e+01 4.438779e+01
-1.581045e+09 -1.381049e+09 -1.541045e+09 -5.885068e+02 7.941577e+01 -1.730873e+02
-4.202388e+09 -4.002392e+09 -4.162388e+09 -1.449325e+01 -2.250457e+01 -1.717029e+01
-2.721623e+09 -2.521628e+09 -2.681623e+09 -1.168129e+02 -5.982860e+01 -4.383884e+01
-3.959245e+09 -3.759250e+09 -3.919245e+09 -1.808981e+02 2.787817e+01 -3.888690e+01
-3.672777e+09 -3.472783e+09 -3.632778e+09 -1.954715e+02 1.438597e+02 -5.574686e+01
-2.102251e+09 -1.902254e+09 -2.062251e+09 -4.985274e+02 1.268486e+02 -9.541916e+01
-3.891567e+09 -3.691573e+09 -3.851568e+09 -4.562119e+02 1.088416e+02 -5.890977e+01
-4.069829e+09 -3.869830e+09 -4.029828e+09 -4.080880e+02 -9.297316e+01 -5.439442e+01
-4.038226e+09 -3.838232e+09 -3.998227e+09 3.926340e+01 -1.236345e+01 7.305616e+00
-3.465269e+09 -3.265273e+09 -3.425269e+09 -2.779180e+02 -2.843799e+02 -4.100398e+01
-3.019369e+09 -2.819375e+09 -2.979371e+09 6.509012e+02 -6.361741e+02 2.371961e+02
-3.409255e+09 -3.209259e+09 -3.369256e+09 4.198875e+02 -2.598531e+02 1.610401e+02
-2.574328e+09 -2.374329e+09 -2.534327e+09 1.479642e+03 -1.548490e+02 3.047570e+02
-4.818889e+09 -4.618893e+09 -4.778889e+09 -4.884913e+02 -1.397766e+02 -5.885786e+01
-1.889069e+09 -1.689071e+09 -1.849069e+09 1.380004e+03 -9.986224e+02 4.996031e+02
-4.818466e+09 -4.618469e+09 -4.778466e+09 -1.502054e+03 -1.036180e+02 -1.186071e+02
-2.941703e+09 -2.741705e+09 -2.901703e+09 -1.129537e+01 -1.041085e+02 6.198298e+01
-1.878661e+09 -1.678661e+09 -1.838660e+09 4.283821e+02 -2.771001e+02 -1.103150e+00
-3.246484e+09 -3.046490e+09 -3.206485e+09 -6.226325e+02 1.065896e+02 -9.661441e+01
-4.972863e+09 -4.772866e+09 -4.932863e+09 -5.921326e+02 -5.144301e+00 3.259755e+01
-1.576235e+09 -1.376235e+09 -1.536234e+09 2.927562e+02 -3.823141e+02 2.116952e+01
-3.049230e+09 -2.849229e+09 -3.009229e+09 1.637472e+02 -1.173935e+02 -3.962707e+01
-3.457907e+09 -3.257906e+09 -3.417906e+09 2.313122e+02 -2.852168e+02 1.047541e+02
-3.423575e+09 -3.223575e+09 -3.383574e+09 2.540294e+00 -5.114208e+02 9.166902e+01
-2.976759e+09 -2.776760e+09 -2.936759e+09 1.069596e+03 -8.278102e+02 4.095141e+02
-5.010002e+09 -4.810006e+09 -4.970002e+09 -2.952685e+02 -1.198551e+01 6.027158e+00
-2.971288e+09 -2.771291e+09 -2.931288e+09 -9.610195e+02 6.285761e+01 -8.553310e+01
-2.260836e+09 -2.060839e+09 -2.220836e+09 -5.178971e+02 7.015898e+01 -1.015314e+02
-4.992552e+09 -4.792557e+09 -4.952552e+09 -5.343534e+02 -7.245848e+01 1.196263e-02
-4.126987e+09 -3.926988e+09 -4.086986e+09 7.657472e+00 4.357312e+01 -4.429269e+01
-2.656956e+09 -2.456957e+09 -2.616955e+09 -3.729929e+02 3.002735e+01 -2.545727e+01
-4.303447e+09 -4.103443e+09 -4.263379e+09 -3.617204e+02 1.542332e+03 8.229634e+03
-2.711559e+09 -2.511559e+09 -2.671558e+09 -8.981500e+01 7.691928e+01 -7.823970e+01
-3.857674e+09 -3.657683e+09 -3.817672e+09 -1.676343e+03 -5.132722e+02 3.094708e+03
-3.726128e+09 -3.526128e+09 -3.686127e+09 -1.295188e+02 -9.525910e+01 -6.810286e+01
-3.834264e+09 -3.634265e+09 -3.794263e+09 -2.035553e+02 -2.770304e+01 -8.588826e+01
-4.133296e+09 -3.933303e+09 -4.093299e+09 5.152601e+01 -1.755534e+02 8.830703e+01
-3.427618e+09 -3.227618e+09 -3.387617e+09 -2.085881e+02 -5.797013e+01 -8.258134e+01
-3.218037e+09 -3.018037e+09 -3.178036e+09 -3.298942e+02 7.758591e+01 -3.021183e+01
-4.268318e+09 -4.068318e+09 -4.228317e+09 -4.408170e+02 -2.916041e+01 -6.331130e+00
-4.972858e+09 -4.772859e+09 -4.932857e+09 -4.864283e+02 -9.366783e+00 1.882383e+01
-2.963301e+09 -2.763303e+09 -2.923301e+09 -8.961053e+02 7.841862e+01 -8.217173e+01
-4.992540e+09 -4.792540e+09 -4.952539e+09 -3.406909e+02 6.867523e+01 1.795437e+01
-3.380210e+09 -3.180216e+09 -3.340212e+09 5.260518e+02 -5.491652e+02 2.575757e+02
-4.127317e+09 -3.927323e+09 -4.087319e+09 6.029012e+01 -1.331906e+02 7.924161e+01
-2.696788e+09 -2.496796e+09 -2.656790e+09 2.236288e+02 -8.967127e+01 1.258672e+02
-3.646122e+09 -3.446129e+09 -3.606125e+09 4.054513e+02 -4.785717e+02 1.235984e+02
-2.378416e+09 -2.178419e+09 -2.338416e+09 3.482835e+02 -1.504241e+02 7.071103e+01
-3.276276e+09 -3.076281e+09 -3.236278e+09 8.837946e+02 -1.102752e+03 3.270647e+02
-3.236981e+09 -3.036988e+09 -3.196985e+09 6.854310e+02 -2.402611e+03 1.610219e+01
-4.651074e+09 -4.451080e+09 -4.611077e+09 9.460056e+02 -3.182619e+02 1.276320e+02
-4.993952e+09 -4.793956e+09 -4.953954e+09 9.199644e+02 2.062754e+02 -6.966839e+01
-3.424405e+09 -3.224410e+09 -3.384407e+09 1.010503e+03 -1.017071e+03 4.399166e+02
-1.891399e+09 -1.691399e+09 -1.851398e+09 7.893786e+02 -6.382403e+02 2.564547e+02
-4.992539e+09 -4.792544e+09 -4.952542e+09 7.776261e+02 -1.833281e+02 1.086552e+02
-4.520449e+09 -4.320449e+09 -4.480449e+09 1.402109e+02 2.532662e+01 -1.385950e+01
-3.451693e+09 -3.251693e+09 -3.411693e+09 1.014728e+02 2.121355e+01 1.095927e+01
-2.922432e+09 -2.722433e+09 -2.882433e+09 3.061247e+02 3.355045e+01 -3.534546e+01
-3.499742e+09 -3.299745e+09 -3.459742e+09 5.319820e+02 -4.531729e+02 1.037303e+02
-2.826584e+09 -2.626584e+09 -2.786584e+09 4.342893e+01 1.816194e+01 2.136262e+01
-3.396456e+09 -3.196456e+09 -3.356456e+09 2.390908e+02 2.233161e+00 1.723571e+01
-3.459034e+09 -3.259033e+09 -3.419033e+09 5.970601e+02 -4.535005e+02 2.050044e+02
-3.961504e+09 -3.761503e+09 -3.921504e+09 2.936801e+02 -2.427336e+02 1.396102e+02
-4.252667e+09 -4.052668e+09 -4.212667e+09 2.765440e+02 -1.143097e+00 1.083021e+01
-2.557737e+09 -2.357736e+09 -2.517736e+09 1.719538e+02 -3.118556e+02 9.604031e+01
-3.479787e+09 -3.279788e+09 -3.439787e+09 2.359248e+02 -7.167742e+00 1.634711e+01
-2.971373e+09 -2.771375e+09 -2.931375e+09 7.374243e+00 5.286017e+00 3.890619e+01
-3.916402e+09 -3.716403e+09 -3.876403e+09 1.116807e+02 2.251300e+01 1.328862e+01
-4.983426e+09 -4.783426e+09 -4.943426e+09 2.219651e+02 -4.346877e+00 -1.444531e+01
-3.149004e+09 -2.949006e+09 -3.109005e+09 1.319885e+02 1.431226e+01 4.283853e+01
-2.209927e+09 -2.009929e+09 -2.169928e+09 7.951375e+00 1.776990e-01 3.429882e+00
-4.728317e+09 -4.528319e+09 -4.688319e+09 -1.326019e+01 1.150757e+00 3.045905e+00
-3.222004e+09 -3.022004e+09 -3.182004e+09 2.806183e+02 2.120042e+01 -2.376368e+01
-3.504760e+09 -3.304762e+09 -3.464761e+09 -2.683178e+00 2.735397e+00 -4.616332e+00
-4.641986e+09 -4.441987e+09 -4.601987e+09 2.597596e+02 1.376168e+01 1.744585e+01
-2.698447e+09 -2.498446e+09 -2.658449e+09 1.458577e+03 -7.842052e+01 -4.493382e+02
-2.469886e+09 -2.269885e+09 -2.429888e+09 4.261675e+02 -5.209142e+02 4.396242e+01
-3.959853e+09 -3.759853e+09 -3.919855e+09 9.933170e+02 -1.911195e+02 -2.873691e+02
-3.287547e+09 -3.087548e+09 -3.247551e+09 9.558975e+02 -4.087419e+02 -2.471173e+02
-3.674034e+09 -3.474034e+09 -3.634037e+09 1.029919e+03 -2.096989e+02 -6.939302e+02
-4.821485e+09 -4.621485e+09 -4.781487e+09 3.140961e+03 1.003111e+02 -6.268715e+02
-2.696402e+09 -2.496397e+09 -2.656402e+09 2.022945e+01 -1.017910e+03 -2.134830e+03
-3.138262e+09 -2.938263e+09 -3.098261e+09 1.568055e+02 -1.428274e+02 2.090160e+01
-3.156292e+09 -2.956293e+09 -3.116292e+09 1.388320e+03 -9.058050e+02 6.436947e+02
-2.571217e+09 -2.371216e+09 -2.531222e+09 4.876279e+03 2.357932e+03 4.830675e+02
-2.759459e+09 -2.559456e+09 -2.719462e+09 1.166640e+03 -9.660588e+02 -1.297572e+03
-3.509508e+09 -3.309511e+09 -3.469511e+09 2.980036e+03 3.916783e+02 6.735451e+02
-1.690841e+09 -1.490844e+09 -1.650841e+09 2.059548e+03 -1.397526e+03 6.703852e+02
-1.980377e+09 -1.780378e+09 -1.940376e+09 1.089186e+02 -1.536782e+02 -2.000769e+01
-4.654767e+09 -4.454768e+09 -4.614768e+09 -3.915969e+01 -3.508916e+00 1.652194e+01
-4.590167e+09 -4.390169e+09 -4.550169e+09 -1.687721e+02 -6.016892e+00 2.652440e+00
-1.967157e+09 -1.767158e+09 -1.927158e+09 -4.654934e+01 -1.004550e+01 1.725785e+01
-3.832731e+09 -3.632734e+09 -3.792732e+09 7.641623e+02 -3.985113e+02 1.594115e+02
-4.972930e+09 -4.772931e+09 -4.932931e+09 1.346577e+02 -1.169065e+01 -1.244619e+01
-2.731806e+09 -2.531807e+09 -2.691807e+09 1.294571e+02 2.325668e+01 -1.641495e+01
-2.017795e+09 -1.817797e+09 -1.977796e+09 -1.102108e+02 -1.636351e+01 -9.955072e+00
-3.779980e+09 -3.579982e+09 -3.739981e+09 -8.508907e+01 5.035536e+00 1.842482e+01
-2.712250e+09 -2.512251e+09 -2.672251e+09 -6.011751e+01 -2.925703e+01 -3.414817e+01
-3.929075e+09 -3.729075e+09 -3.889075e+09 5.780029e+02 -1.457717e+02 4.680118e+01
-3.962076e+09 -3.762074e+09 -3.922076e+09 -9.765114e+02 -2.417470e+02 1.840289e+02
-2.141497e+09 -1.941498e+09 -2.101498e+09 -9.614338e+01 -3.864424e+00 7.927129e+00
-3.127920e+09 -2.927922e+09 -3.087921e+09 -2.688449e+02 -4.473353e+01 3.840541e+01
-1.966653e+09 -1.766656e+09 -1.926653e+09 -1.298138e+02 -5.226055e+01 -1.053545e+02
-1.690840e+09 -1.490844e+09 -1.650840e+09 -8.882248e+02 9.608824e+01 -1.317266e+02
-3.402365e+09 -3.202367e+09 -3.362367e+09 -2.953334e+02 -1.346494e+01 6.255187e+00
-4.589212e+09 -4.389214e+09 -4.549213e+09 -2.634949e+02 -9.638153e+00 2.631382e+00
-2.266626e+09 -2.066630e+09 -2.226626e+09 -5.040655e+02 1.197603e+02 -7.096781e+01
-4.820010e+09 -4.620004e+09 -4.780010e+09 -1.684376e+03 6.262080e+01 1.740343e+02
-3.961480e+09 -3.761469e+09 -3.921478e+09 -4.281378e+03 -2.418340e+03 -5.753235e+02
-1.593252e+09 -1.393254e+09 -1.553254e+09 -9.163682e+01 -1.559501e+01 1.878165e+01
-3.961398e+09 -3.761385e+09 -3.921403e+09 1.903321e+02 6.278903e+02 -2.934760e+03
-2.638514e+09 -2.438516e+09 -2.598515e+09 -5.582725e+01 -1.355407e+01 1.968059e+01
-1.638516e+09 -1.438517e+09 -1.598515e+09 -4.675595e+00 5.405388e+00 -1.170255e+02
-4.020906e+09 -3.820903e+09 -3.980904e+09 5.068367e+02 3.155500e+02 -4.579501e+00
-3.272830e+09 -3.072826e+09 -3.232828e+09 1.259246e+03 9.121332e+02 -4.025258e+02
-1.671020e+09 -1.471016e+09 -1.631017e+09 4.310674e+02 1.003176e+03 -1.685323e+02
-1.880745e+09 -1.680746e+09 -1.840744e+09 -4.827510e+02 1.064776e+02 -8.524154e+01
-1.573045e+09 -1.373046e+09 -1.533044e+09 -1.980961e+02 1.397481e+02 -1.301413e+02
-3.734550e+09 -3.534546e+09 -3.694547e+09 4.136982e+02 4.753248e+02 1.938456e+01
-4.122261e+09 -3.922272e+09 -4.082256e+09 -2.728720e+02 1.229742e+03 6.369589e+03
-4.648100e+09 -4.448090e+09 -4.608057e+09 -8.335455e+02 5.480728e+03 8.126104e+02
-3.158550e+09 -2.958546e+09 -3.118548e+09 1.292614e+03 7.467706e+02 -3.726053e+02
-4.302941e+09 -4.102944e+09 -4.262922e+09 4.997404e+03 3.627752e+03 6.558307e+03
-2.622627e+09 -2.422624e+09 -2.582625e+09 3.647511e+02 7.562160e+02 -1.597666e+02
-3.235369e+09 -3.035366e+09 -3.195368e+09 2.655839e+03 1.688414e+03 -9.482539e+02
-4.993955e+09 -4.793950e+09 -4.953954e+09 3.039728e+02 -1.998529e+02 1.481619e+02
-1.889068e+09 -1.689070e+09 -1.849068e+09 1.231123e+03 -8.135160e+02 2.411693e+02
-2.001887e+09 -1.801892e+09 -1.961888e+09 6.016749e+02 -6.766785e+02 5.060959e+01
-4.992743e+09 -4.792739e+09 -4.952743e+09 1.769291e+03 6.349632e+00 -8.782814e+01
-3.231773e+09 -3.031769e+09 -3.191772e+09 2.469728e+03 2.059413e+03 -1.411276e+03
-2.854935e+09 -2.654939e+09 -2.814935e+09 5.805473e+02 2.241251e+02 3.512077e+00
-2.074577e+09 -1.874580e+09 -2.034577e+09 2.298110e+03 -1.302238e+03 7.331422e+02
-2.954610e+09 -2.754616e+09 -2.914610e+09 -1.841054e+01 2.973758e+01 -3.642257e+01
-3.251617e+09 -3.051623e+09 -3.211617e+09 -8.992617e+01 -1.955054e+01 -2.844113e+01
-3.985589e+09 -3.785595e+09 -3.945590e+09 -8.148704e+01 -4.979220e+00 -3.503816e+01
-3.699323e+09 -3.499329e+09 -3.659323e+09 -1.020402e+02 1.000551e+02 -5.738233e+01
-3.466886e+09 -3.266889e+09 -3.426888e+09 1.519604e+03 -1.701792e+03 8.268843e+02
-1.974323e+09 -1.774328e+09 -1.934324e+09 1.526292e+03 -1.245491e+03 5.636253e+02
-3.426661e+09 -3.226664e+09 -3.386661e+09 -6.104991e+02 -6.830337e+00 -5.412770e+01
-1.695715e+09 -1.495715e+09 -1.655714e+09 -1.648129e+02 7.555226e+00 -1.172495e+02
-2.065777e+09 -1.865779e+09 -2.025776e+09 -2.804142e+02 -1.080887e+01 -1.512683e+02
-2.293989e+09 -2.093990e+09 -2.253988e+09 -1.291498e+02 -1.085524e+01 -5.825688e+01
-2.393915e+09 -2.193917e+09 -2.353914e+09 -2.309317e+02 1.173420e+01 -6.822037e+01
-2.111116e+09 -1.911117e+09 -2.071115e+09 -3.968296e+02 -4.132824e+01 -1.075657e+02
-1.573045e+09 -1.373046e+09 -1.533044e+09 -3.623058e+02 1.168568e+01 -1.602878e+02
-4.134393e+09 -3.934377e+09 -4.094378e+09 4.513357e+03 7.342336e+03 -1.576890e+03
-3.414918e+09 -3.214924e+09 -3.374919e+09 -1.713758e+02 -1.799367e+02 -2.184820e+01
-4.599963e+09 -4.399962e+09 -4.559962e+09 1.235695e+02 -1.557735e+01 -2.980188e+01
-4.991476e+09 -4.791474e+09 -4.951475e+09 -9.499093e+02 -9.146870e-02 2.271591e+01
-3.961480e+09 -3.761478e+09 -3.921479e+09 -6.205009e+02 -1.395117e+02 8.449085e+01
-1.581045e+09 -1.381048e+09 -1.541045e+09 -2.988992e+02 -1.469428e+02 -1.419694e+02
-4.131808e+09 -3.931810e+09 -4.091810e+09 -4.369170e+02 -2.801940e+00 4.517421e+01
-3.961617e+09 -3.761614e+09 -3.921617e+09 -1.892835e+03 -6.314335e+01 6.189176e+02
-1.899513e+09 -1.699522e+09 -1.859516e+09 2.206637e+03 -2.727896e+03 7.495888e+02
-1.638515e+09 -1.438520e+09 -1.598516e+09 9.298833e+01 -2.242662e+02 4.185668e+01
-3.227019e+09 -3.027025e+09 -3.187019e+09 -3.250506e+02 1.592807e+02 -9.338195e+01
-1.886729e+09 -1.686733e+09 -1.846729e+09 -6.629268e+02 2.122666e+02 -7.378160e+01
-4.993874e+09 -4.793878e+09 -4.953874e+09 -4.745512e+02 -1.412533e+02 -1.655330e+01
-2.096191e+09 -1.896195e+09 -2.056191e+09 -4.758767e+02 1.206368e+02 -8.896503e+01
-3.013701e+09 -2.813707e+09 -2.973701e+09 -3.376638e+02 1.832999e+02 -6.010997e+01
-3.025725e+09 -2.825730e+09 -2.985725e+09 -5.572401e+02 1.804613e+02 -7.954433e+01
-4.992554e+09 -4.792560e+09 -4.952555e+09 -3.446928e+02 -8.324160e+01 5.939101e+00
-2.581606e+09 -2.381612e+09 -2.541607e+09 -6.193974e+02 -5.657173e+01 3.568007e+01
-3.232629e+09 -3.032633e+09 -3.192629e+09 -5.976513e+02 -3.444737e+01 -1.217817e+02
-1.584303e+09 -1.384307e+09 -1.544303e+09 -5.135445e+02 8.679797e+01 -1.523182e+02
-1.890030e+09 -1.690036e+09 -1.850030e+09 7.179295e+02 4.065149e+01 6.045094e+01
-2.255869e+09 -2.055875e+09 -2.215870e+09 5.628529e+02 1.116757e+02 3.775298e+01
-4.819151e+09 -4.619156e+09 -4.779152e+09 -1.114744e+03 8.267937e+01 6.987408e+01
-2.466037e+09 -2.266042e+09 -2.426037e+09 7.013941e+02 1.230873e+02 -2.294528e+01
-3.961478e+09 -3.761485e+09 -3.921481e+09 -7.984637e+02 6.063320e+02 -5.024891e+00
-4.267726e+09 -4.067727e+09 -4.227725e+09 -2.380546e+02 -7.514872e+01 -3.107786e+01
-3.208655e+09 -3.008660e+09 -3.168655e+09 5.688301e+02 1.199990e+01 2.851489e+01
-3.473664e+09 -3.273669e+09 -3.433664e+09 7.083754e+02 1.445696e+02 -4.852732e+01
-3.425241e+09 -3.225247e+09 -3.385241e+09 2.850629e+02 1.025166e+02 2.180740e+01
-1.588953e+09 -1.388948e+09 -1.548952e+09 4.297472e+01 9.560732e+02 -4.996788e+02
-3.354794e+09 -3.154800e+09 -3.314795e+09 3.886645e+02 2.070586e+02 2.668213e+01
-2.748839e+09 -2.548845e+09 -2.708840e+09 2.765992e+02 8.287382e+01 1.245342e+01
-1.924480e+09 -1.724480e+09 -1.884479e+09 6.992896e+01 -1.597553e+02 -9.290144e+01
-3.657902e+09 -3.457901e+09 -3.617901e+09 -6.530282e+01 -3.327824e+01 -5.562500e+01
-3.816551e+09 -3.616551e+09 -3.776551e+09 7.751044e+01 -5.284400e+01 -3.303425e+01
-4.650845e+09 -4.450844e+09 -4.610844e+09 3.642256e+01 -2.125406e+01 -2.993613e+01
-3.225442e+09 -3.025440e+09 -3.185441e+09 -1.261147e+02 -2.077022e+02 5.527364e+01
-1.690836e+09 -1.490845e+09 -1.650839e+09 2.222218e+03 -2.718873e+03 6.633824e+02
-2.201932e+09 -2.001941e+09 -2.161935e+09 1.534301e+03 -2.943072e+03 6.784635e+02
-2.109439e+09 -1.909445e+09 -2.069440e+09 1.107394e+03 -7.267816e+02 2.464251e+02
-2.285570e+09 -2.085578e+09 -2.245572e+09 9.205299e+02 -2.071461e+03 8.160634e+02
-4.993876e+09 -4.793875e+09 -4.953875e+09 2.525205e+02 -1.701422e+02 3.685144e+01
-2.326543e+09 -2.126546e+09 -2.286543e+09 4.528625e+02 -4.365452e+02 -3.609555e+01
-2.269110e+09 -2.069116e+09 -2.229112e+09 1.156093e+03 -1.555537e+03 6.725161e+02
-1.780558e+09 -1.580557e+09 -1.740557e+09 2.817773e+01 -6.084434e+01 -1.455213e+02
-4.992556e+09 -4.792554e+09 -4.952555e+09 -1.018134e+02 -8.644553e+01 3.865239e+01
-1.578415e+09 -1.378414e+09 -1.538414e+09 4.787717e+01 -2.708588e+02 -1.164038e+02
-3.336539e+09 -3.136540e+09 -3.296538e+09 -1.711946e+02 -2.574410e+01 -5.933858e+01
-1.984598e+09 -1.784598e+09 -1.944597e+09 3.715173e+01 -9.900871e+01 -7.799278e+01
-3.715352e+09 -3.515351e+09 -3.675350e+09 -1.054634e+02 -8.371207e+01 -5.597566e+01
-3.961751e+09 -3.761752e+09 -3.921751e+09 4.874955e+02 4.523775e+01 1.974297e+01
-4.296871e+09 -4.096872e+09 -4.256871e+09 2.780421e+02 1.408421e+01 -4.724405e+01
-3.148015e+09 -2.948014e+09 -3.108014e+09 -3.030550e+01 1.582685e+01 -5.358018e+01
-2.732718e+09 -2.532717e+09 -2.692717e+09 -6.144011e+01 5.461848e+01 -5.786861e+01
-1.690842e+09 -1.490841e+09 -1.650841e+09 3.604298e+02 -3.378020e+02 4.884002e+01
-4.945601e+09 -4.745603e+09 -4.905603e+09 6.140238e+01 -9.152288e+00 -1.524402e+01
-3.866522e+09 -3.666522e+09 -3.826521e+09 -6.064199e+01 -6.837633e+01 -9.371309e+01
-3.880978e+09 -3.680980e+09 -3.840979e+09 -4.657180e+01 -1.883920e+00 -2.627893e+01
-4.600089e+09 -4.400089e+09 -4.560088e+09 -1.836416e+02 -1.039338e+01 -4.798520e+01
-4.991130e+09 -4.791132e+09 -4.951132e+09 -2.587524e+02 3.153041e+00 -2.779148e+01
-3.227733e+09 -3.027732e+09 -3.187731e+09 -2.249332e+02 3.300019e+01 -3.830647e+01
-4.993753e+09 -4.793754e+09 -4.953752e+09 -3.546479e+02 1.205520e+02 3.417154e+00
-3.916516e+09 -3.716515e+09 -3.876514e+09 -1.182593e+02 2.050970e+01 -8.086610e+01
-4.132549e+09 -3.932549e+09 -4.092548e+09 -5.434947e+02 -3.883398e+01 -7.005475e+01
-2.067552e+09 -1.867551e+09 -2.027551e+09 -2.448642e+03 -1.991050e+03 -9.009468e+02
-2.197459e+09 -1.997461e+09 -2.157459e+09 -2.411972e+03 -1.878841e+03 -9.089164e+02
-1.591609e+09 -1.391606e+09 -1.551606e+09 -1.534588e+03 -1.276637e+03 -4.411448e+02
-4.648948e+09 -4.448948e+09 -4.608947e+09 -2.311189e+02 -2.741422e+01 -4.789166e+01
-3.440226e+09 -3.240227e+09 -3.400227e+09 -2.034684e+03 -1.419794e+03 -7.397111e+02
-2.326453e+09 -2.126453e+09 -2.286452e+09 1.639014e+02 -4.869571e+01 -5.638047e+01
-4.131909e+09 -3.931909e+09 -4.091908e+09 -1.529536e+03 3.036507e+01 -1.110698e+02
-2.258643e+09 -2.058642e+09 -2.218642e+09 -1.923532e+02 -1.320897e+02 -1.096302e+02
-3.422559e+09 -3.222560e+09 -3.382558e+09 -4.220763e+02 5.416791e+00 -4.334088e+01
-1.590645e+09 -1.390643e+09 -1.550644e+09 -2.292525e+02 -6.333014e+01 -1.453752e+02
-2.463055e+09 -2.263054e+09 -2.423054e+09 6.966218e+01 -1.185084e+02 3.020696e+00
-3.880808e+09 -3.680808e+09 -3.840808e+09 1.183714e+02 2.700900e+01 -2.194080e+00
-3.001173e+09 -2.801173e+09 -2.961173e+09 2.500865e+02 1.128108e+01 -9.294986e+00
-1.590559e+09 -1.390557e+09 -1.550558e+09 -2.222900e+02 -1.664311e+02 -5.156386e+01
-1.955528e+09 -1.755528e+09 -1.915528e+09 4.751920e+01 2.491688e+01 2.378108e+01
-3.425838e+09 -3.225846e+09 -3.385842e+09 3.453914e+02 -1.705389e+03 1.986869e+02
-1.888600e+09 -1.688611e+09 -1.848603e+09 1.517221e+03 -2.922759e+03 7.128064e+02
-1.597091e+09 -1.397100e+09 -1.557093e+09 1.005036e+03 -1.465967e+03 3.159093e+02
-3.193880e+09 -2.993880e+09 -3.153880e+09 9.277496e+01 1.278523e+01 9.207621e+00
-2.080123e+09 -1.880124e+09 -2.040124e+09 1.125264e+02 4.868697e+00 1.297064e+01
-4.764238e+09 -4.564238e+09 -4.724238e+09 2.733380e+02 2.806234e+01 8.391794e+00
-4.820919e+09 -4.620919e+09 -4.780919e+09 1.367444e+02 1.807933e+01 -1.418070e+01
-4.113002e+09 -3.913003e+09 -4.073002e+09 1.164253e+01 9.389849e+00 -3.832609e+01
-4.195244e+09 -3.995245e+09 -4.155245e+09 2.623063e+02 -2.601950e+00 1.210821e+01
-3.962184e+09 -3.762184e+09 -3.922184e+09 5.490663e+02 4.341249e+01 4.971900e+01
-1.690828e+09 -1.490841e+09 -1.650832e+09 -1.056186e+02 -3.474175e+03 2.557952e+02
-2.192704e+09 -1.992715e+09 -2.152709e+09 -8.716010e+02 -3.492756e+03 -2.885056e+01
-4.639212e+09 -4.439212e+09 -4.599212e+09 2.766502e+02 2.470706e+01 1.458713e+01
-4.992698e+09 -4.792699e+09 -4.952699e+09 2.266052e+02 2.758765e-01 -3.746052e+01
-2.264970e+09 -2.064980e+09 -2.224973e+09 -2.761151e+02 -2.687086e+03 7.791472e+02
-2.561733e+09 -2.361743e+09 -2.521737e+09 4.468715e+02 -2.159142e+03 5.101037e+02
-2.176162e+09 -1.976171e+09 -2.136165e+09 4.896774e+01 -4.724873e+02 4.980001e+01
-4.600348e+09 -4.400356e+09 -4.560352e+09 3.215110e+00 -1.523443e+02 3.145073e+01
-2.663535e+09 -2.463544e+09 -2.623538e+09 5.140147e+01 -2.152883e+02 8.732075e+01
-3.643409e+09 -3.443418e+09 -3.603413e+09 1.199777e+02 -3.241410e+02 2.250222e+01
-1.590586e+09 -1.390591e+09 -1.550587e+09 1.410243e+03 -9.151194e+02 3.291646e+02
-3.888004e+09 -3.688004e+09 -3.848003e+09 1.690351e+03 3.872969e+02 -7.740363e+01
-1.688418e+09 -1.488414e+09 -1.648415e+09 3.227082e+03 1.963324e+03 -1.296944e+03
-3.863178e+09 -3.663180e+09 -3.823177e+09 8.882568e+02 1.425581e+02 -8.038698e+00
-3.428112e+09 -3.228108e+09 -3.388111e+09 1.071357e+03 1.172755e+03 -8.455523e+02
-1.590803e+09 -1.390802e+09 -1.550801e+09 2.895848e+03 8.012495e+02 -5.864998e+02
-3.786208e+09 -3.586216e+09 -3.746212e+09 4.343010e+02 -8.047791e+02 1.275006e+02
-3.398399e+09 -3.198407e+09 -3.358403e+09 4.431563e+02 -1.142004e+03 2.541070e+02
-3.961996e+09 -3.761997e+09 -3.921997e+09 -6.385801e+02 -4.256170e+01 2.639232e+01
-3.235995e+09 -3.036004e+09 -3.196000e+09 -1.679810e+02 -2.892387e+03 -2.478733e+02
-2.190411e+09 -1.990412e+09 -2.150412e+09 -4.287413e+02 -2.038623e+01 1.323996e+01
-4.280988e+09 -4.080995e+09 -4.240992e+09 5.145761e+02 -9.604628e+02 1.820519e+02
-4.993951e+09 -4.793956e+09 -4.953953e+09 6.454867e+02 6.806500e+01 -6.523705e+01
-2.746314e+09 -2.546321e+09 -2.706316e+09 3.520063e+02 1.789791e+01 1.075519e+02
-1.579309e+09 -1.379308e+09 -1.539307e+09 -6.362975e+01 5.068770e+01 -8.790944e+01
-2.195491e+09 -1.995490e+09 -2.155490e+09 -8.683687e+01 -7.849818e+00 -5.278419e+01
-4.992532e+09 -4.792539e+09 -4.952538e+09 5.281935e+02 -2.007268e+02 4.033928e+01
-4.805253e+09 -4.605253e+09 -4.765253e+09 2.201606e+02 -6.120384e+00 -2.683166e+01
-2.168694e+09 -1.968694e+09 -2.128693e+09 -5.294444e+01 6.068657e+00 -5.065585e+01
-1.579309e+09 -1.379308e+09 -1.539307e+09 -1.477438e+02 9.646671e+00 -1.263099e+02
-2.724377e+09 -2.524378e+09 -2.684378e+09 -2.999555e+02 -8.020127e+00 6.059824e+01
-3.734577e+09 -3.534578e+09 -3.694578e+09 -1.057523e+02 -1.657752e+01 5.958609e+01
-3.959855e+09 -3.759854e+09 -3.919854e+09 2.632755e+02 2.236948e+01 2.365489e+01
-3.339900e+09 -3.139901e+09 -3.299900e+09 -1.981452e+02 -8.995899e+00 -9.873128e+00
-2.234301e+09 -2.034306e+09 -2.194301e+09 -1.059074e+02 -1.128466e+01 -5.523132e+01
-2.712948e+09 -2.512949e+09 -2.672948e+09 -6.322422e+01 -2.520430e+01 -3.119452e+01
-2.195414e+09 -1.995420e+09 -2.155415e+09 2.298950e+02 1.399924e+02 -5.133367e+01
-1.690837e+09 -1.490844e+09 -1.650838e+09 1.228789e+00 1.104250e+02 -4.939296e+01
-4.652789e+09 -4.452788e+09 -4.612788e+09 1.613613e+02 5.112767e+00 -5.417014e+00
-2.183811e+09 -1.983807e+09 -2.143813e+09 1.147141e+03 -1.551444e+03 -2.122813e+03
-4.646970e+09 -4.446971e+09 -4.606971e+09 -3.099862e+02 -2.957971e+00 5.846974e+00
-2.987802e+09 -2.787801e+09 -2.947805e+09 5.009384e+03 2.098079e+03 7.551085e+02
-4.991932e+09 -4.791934e+09 -4.951933e+09 -1.660214e+02 -1.963173e+01 -3.848798e+01
-2.156841e+09 -1.956842e+09 -2.116842e+09 -2.839917e+02 -1.979275e+01 2.752098e+01
-4.988216e+09 -4.788217e+09 -4.948217e+09 -2.744274e+02 -1.001982e+01 -1.713578e+01
-4.131860e+09 -3.931851e+09 -4.091861e+09 -7.835819e+02 1.414301e+03 -1.938386e+03
-4.840186e+09 -4.640183e+09 -4.800184e+09 1.080575e+03 -9.268493e+01 1.017001e+02
-4.991161e+09 -4.791158e+09 -4.951155e+09 -5.389155e+03 -4.289713e+01 8.775532e+01
-3.961446e+09 -3.761445e+09 -3.921451e+09 1.320996e+03 -2.189198e+03 1.418701e+03
-3.961457e+09 -3.761457e+09 -3.921460e+09 1.381750e+03 -1.386290e+03 8.506243e+02
-4.266102e+09 -4.066097e+09 -4.226102e+09 8.554600e+02 5.304025e+02 -4.571280e+02
-4.455593e+09 -4.255593e+09 -4.415593e+09 -1.977882e+03 7.097212e+00 2.646287e+01
-4.157229e+09 -3.957225e+09 -4.117228e+09 5.384125e+02 3.060468e+02 -1.387695e+02
-3.961606e+09 -3.761603e+09 -3.921606e+09 -2.384427e+02 -7.397098e+02 7.181934e+02
-2.940516e+09 -2.740514e+09 -2.900514e+09 1.012710e+03 4.934122e+02 -1.560321e+02
-3.961554e+09 -3.761552e+09 -3.921553e+09 -4.952482e+02 -2.227195e+02 1.706748e+02
-3.961706e+09 -3.761704e+09 -3.921706e+09 -7.801352e+02 -2.856853e+02 2.998548e+02
-3.961462e+09 -3.761458e+09 -3.921464e+09 -4.402162e+02 -8.305124e+02 1.387365e+03
-4.617266e+09 -4.417265e+09 -4.577264e+09 6.058591e+02 1.113100e+02 -2.961237e+01
-2.664323e+09 -2.464321e+09 -2.624320e+09 3.642603e+02 5.545670e+02 -1.676140e+02
-3.961777e+09 -3.761784e+09 -3.921780e+09 -8.481574e+02 8.640868e+02 1.615693e+01
-4.992018e+09 -4.792025e+09 -4.952022e+09 -3.280374e+02 2.535007e+02 2.211223e+01
-4.303139e+09 -4.103145e+09 -4.263141e+09 -6.963495e+02 2.342692e+02 6.938718e+01
-3.706639e+09 -3.506637e+09 -3.666637e+09 4.613557e+02 3.581422e+02 1.052689e+02
-4.821739e+09 -4.621737e+09 -4.781738e+09 1.988403e+03 9.624063e+00 1.522209e+02
-4.993962e+09 -4.793958e+09 -4.953961e+09 9.249576e+02 -1.793551e+02 -1.474306e+01
-3.961627e+09 -3.761618e+09 -3.921573e+09 -1.336347e+03 -8.855009e+03 2.899158e+03
-3.961779e+09 -3.761771e+09 -3.921761e+09 8.673946e+03 6.850211e+03 5.127103e+03
-1.890802e+09 -1.690800e+09 -1.850800e+09 2.794931e+03 1.080141e+03 -5.400343e+02
-4.992814e+09 -4.792812e+09 -4.952814e+09 1.950090e+03 1.978300e+01 -1.100202e+02
-2.770948e+09 -2.570947e+09 -2.730947e+09 3.118985e+01 3.598295e-01 -7.749925e+00
-3.160153e+09 -2.960152e+09 -3.120152e+09 2.184537e+01 -3.597723e+00 5.189214e+00
-2.345160e+09 -2.145158e+09 -2.305159e+09 2.627292e+01 1.446243e+01 -3.003997e-01
-4.989352e+09 -4.789341e+09 -4.949369e+09 -6.887441e+02 2.973794e+03 -1.200142e+01
-3.962008e+09 -3.762000e+09 -3.921959e+09 2.691988e+03 9.144794e+03 6.933831e+03
-2.309506e+09 -2.109505e+09 -2.269505e+09 7.174476e+01 7.930643e+00 -1.064680e+01
-2.170765e+09 -1.970764e+09 -2.130764e+09 4.576279e+01 9.365888e+00 -9.347358e+00
-2.149472e+09 -1.949470e+09 -2.109471e+09 3.797520e+01 6.738801e+00 -2.039262e-02
-2.204594e+09 -2.004593e+09 -2.164593e+09 8.317600e+01 1.013387e+01 -5.842218e+00
-4.790025e+09 -4.590023e+09 -4.750024e+09 3.915853e+01 1.752468e+00 -1.168731e+00
-4.024255e+09 -3.824253e+09 -3.984254e+09 5.863042e+01 3.374971e-01 -4.218888e+00
-3.873066e+09 -3.673065e+09 -3.833065e+09 3.837336e+01 -5.587566e-01 1.576446e+00
-3.461645e+09 -3.261643e+09 -3.421644e+09 4.043053e+01 1.864739e+00 -6.634004e+00
-3.961618e+09 -3.761615e+09 -3.921618e+09 -1.279437e+03 -4.151111e+02 5.496983e+02
-3.961658e+09 -3.761660e+09 -3.921659e+09 7.148367e+02 5.490329e+01 2.430895e+00
-3.961613e+09 -3.761615e+09 -3.921614e+09 5.844374e+02 3.562333e+01 1.429241e+01
-3.911251e+09 -3.711249e+09 -3.871250e+09 6.026008e+01 8.520839e+00 -1.091518e+01
-3.961696e+09 -3.761697e+09 -3.921697e+09 6.104085e+02 4.591264e+01 4.164786e+00
-3.961476e+09 -3.761476e+09 -3.921475e+09 -1.723109e+03 4.143135e+02 8.307379e+01
-3.961605e+09 -3.761607e+09 -3.921605e+09 -2.139906e+03 4.795492e+02 1.255392e+02
-3.961614e+09 -3.761618e+09 -3.921615e+09 -1.807540e+03 4.584275e+02 -3.286898e-01
-4.452658e+09 -4.252657e+09 -4.412657e+09 2.768581e+01 5.094815e+00 -9.658841e+00
-4.170597e+09 -3.970596e+09 -4.130596e+09 3.810169e+01 9.912160e+00 -1.593595e+01
-4.256347e+09 -4.056346e+09 -4.216346e+09 9.545603e+01 7.485997e+00 -5.218314e+00
-4.657527e+09 -4.457526e+09 -4.617526e+09 3.084025e+01 6.925123e+00 -4.103476e+00
-3.962321e+09 -3.762320e+09 -3.922321e+09 -1.044644e+03 -1.307743e+02 5.290378e+01
-3.961543e+09 -3.761540e+09 -3.921543e+09 1.215395e+02 -7.827124e+02 8.271321e+02
-3.961765e+09 -3.761763e+09 -3.921765e+09 -1.239327e+03 -2.757362e+02 4.626688e+02
-4.134145e+09 -3.934144e+09 -4.094145e+09 -1.399740e+03 -6.868349e+01 -2.040754e+01
-2.742075e+09 -2.542071e+09 -2.702075e+09 -5.537039e+02 -1.084960e+03 -6.435458e+02
-3.957252e+09 -3.757249e+09 -3.917253e+09 5.428590e+02 -4.440835e+02 -3.540319e+02
-4.991394e+09 -4.791391e+09 -4.951394e+09 -1.585804e+03 2.817963e+00 7.530791e+01
-3.266304e+09 -3.066301e+09 -3.226305e+09 6.509836e+02 -7.636424e+02 -3.019433e+02
-3.961536e+09 -3.761541e+09 -3.921537e+09 -1.345156e+03 3.121366e+02 -6.685657e-01
-3.961705e+09 -3.761710e+09 -3.921707e+09 -1.485536e+03 4.553265e+02 7.386890e+01
-3.961542e+09 -3.761544e+09 -3.921542e+09 -1.667183e+03 2.292640e+02 1.538206e+01
-3.672307e+09 -3.472304e+09 -3.632308e+09 6.533633e+02 -6.211368e+02 -5.714559e+02
-3.961658e+09 -3.761660e+09 -3.921659e+09 7.356213e+02 5.799779e+01 -6.874288e+00
-3.961596e+09 -3.761598e+09 -3.921597e+09 5.338497e+02 4.390958e+01 1.834954e+01
-1.989380e+09 -1.789376e+09 -1.949379e+09 -6.478416e+02 -1.547948e+03 -1.435201e+03
-3.382422e+09 -3.182428e+09 -3.342428e+09 2.729598e+03 5.174931e+02 1.079315e+03
-4.038347e+09 -3.838351e+09 -3.998351e+09 1.620813e+03 -7.569557e+01 2.779049e+02
-2.292853e+09 -2.092863e+09 -2.252862e+09 8.983180e+02 3.935519e+02 1.539378e+03
-3.961417e+09 -3.761416e+09 -3.921416e+09 -1.651568e+03 4.177624e+02 1.263870e+02
-4.993282e+09 -4.793283e+09 -4.953285e+09 1.263827e+03 -5.985391e+01 -9.408031e+01
-3.961607e+09 -3.761615e+09 -3.921586e+09 -3.745937e+03 -3.741807e+03 8.153532e+03
-4.650472e+09 -4.450472e+09 -4.610475e+09 1.253629e+03 -7.498681e+01 -4.468169e+02
-4.647999e+09 -4.447982e+09 -4.607971e+09 -4.667072e+03 5.352511e+03 -5.034266e+02
-2.583978e+09 -2.383974e+09 -2.543980e+09 1.850284e+03 -1.322668e+02 -1.250871e+03
-3.265820e+09 -3.065826e+09 -3.225821e+09 1.197862e+02 3.714779e+01 -2.695869e+01
-2.259406e+09 -2.059412e+09 -2.219407e+09 -4.398369e+01 -7.717992e+00 -4.411408e+01
-3.752408e+09 -3.552413e+09 -3.712408e+09 1.804182e+01 3.247873e+01 -2.970572e+01
-3.068813e+09 -2.868819e+09 -3.028813e+09 -4.837775e+01 -2.838253e+01 -3.359185e+01
-2.802630e+09 -2.602636e+09 -2.762631e+09 2.028453e+01 2.069225e+01 -1.304077e+00
-3.832907e+09 -3.632913e+09 -3.792908e+09 -2.538812e+01 8.625752e+01 -4.249950e+01
-4.821072e+09 -4.621078e+09 -4.781073e+09 -4.572692e+01 -5.568019e+01 -2.191064e+01
-3.961697e+09 -3.761695e+09 -3.921696e+09 -2.022874e+03 6.214893e+02 3.565355e+02
-4.646126e+09 -4.446124e+09 -4.606124e+09 -5.778467e+02 4.367983e+01 -4.150447e+01
-3.224764e+09 -3.024771e+09 -3.184765e+09 4.452635e+01 2.237203e+02 -8.739850e+01
-4.299455e+09 -4.099457e+09 -4.259460e+09 -2.960045e+03 1.746417e+03 6.906783e+02
-4.991304e+09 -4.791300e+09 -4.951268e+09 -4.525512e+03 -1.017215e+03 1.966892e+03
-3.961478e+09 -3.761473e+09 -3.921472e+09 5.217392e+03 2.179552e+03 9.928003e+02
-4.993697e+09 -4.793702e+09 -4.953697e+09 -3.176346e+02 -1.161648e+02 1.662983e+01
-4.993697e+09 -4.793703e+09 -4.953698e+09 -9.336821e+01 1.862233e+01 2.286952e+01
-4.992541e+09 -4.792547e+09 -4.952542e+09 -5.998962e+01 -6.941931e+01 2.730939e+01
-3.747693e+09 -3.547692e+09 -3.707692e+09 1.212789e+02 9.788703e+01 -5.731416e+01
-3.961505e+09 -3.761504e+09 -3.921505e+09 7.080264e+02 -6.139259e+02 3.593231e+02
-1.705254e+09 -1.505253e+09 -1.665253e+09 9.130856e+01 -5.423977e+01 -1.306081e+02
-3.689567e+09 -3.489566e+09 -3.649566e+09 -9.591560e+00 3.142165e+01 -5.246070e+01
-1.583004e+09 -1.383004e+09 -1.543003e+09 -2.435096e+02 5.931467e+00 -1.507107e+02
-2.913094e+09 -2.713092e+09 -2.873092e+09 -1.826782e+02 -6.195710e+01 -8.184011e+01
-3.241124e+09 -3.041122e+09 -3.201122e+09 -1.274579e+01 -2.626365e+01 -3.643451e+01
-3.497907e+09 -3.297906e+09 -3.457906e+09 2.349387e+02 -1.917650e+02 9.598901e+01
-4.821074e+09 -4.621072e+09 -4.781072e+09 -2.149786e+02 -2.538050e+01 5.391728e+01
-3.216568e+09 -3.016567e+09 -3.176567e+09 3.284667e+01 2.932931e+00 -3.502885e+00
-3.236108e+09 -3.036107e+09 -3.196107e+09 -2.506630e+02 -1.007439e+02 -8.544265e+00
-4.993699e+09 -4.793698e+09 -4.953698e+09 7.426260e+01 -1.091233e+02 3.919279e+01
-4.993699e+09 -4.793698e+09 -4.953698e+09 -1.194278e+02 7.046481e+00 4.416302e+01
-3.961596e+09 -3.761598e+09 -3.921598e+09 5.114152e+02 3.989704e+01 1.587709e+01
-3.961766e+09 -3.761763e+09 -3.921765e+09 -7.016238e+02 -4.242073e+02 3.820434e+02
-3.961616e+09 -3.761613e+09 -3.921615e+09 -4.113741e+02 -4.774850e+02 5.138232e+02
-3.961520e+09 -3.761517e+09 -3.921521e+09 -1.820069e+03 -2.122325e+02 1.065513e+03
-4.992543e+09 -4.792541e+09 -4.952541e+09 -2.505864e+02 -5.351738e+01 3.538945e+01
-4.612104e+09 -4.412105e+09 -4.572105e+09 -1.603643e+02 -1.963145e+01 1.093986e+01
-4.612628e+09 -4.412628e+09 -4.572628e+09 -1.644715e+02 -1.770307e+01 -8.933316e+00
-3.961765e+09 -3.761767e+09 -3.921723e+09 5.132986e+02 2.175535e+03 9.548488e+03
-3.961526e+09 -3.761504e+09 -3.921500e+09 -2.024065e+03 -1.239467e+04 -3.689343e+02
-3.961612e+09 -3.761616e+09 -3.921590e+09 -4.834696e+03 -3.536403e+03 1.267166e+04
-4.303448e+09 -4.103452e+09 -4.263451e+09 -2.642436e+03 1.027288e+03 3.951329e+02
-3.029762e+09 -2.829763e+09 -2.989763e+09 -2.533680e+02 -2.338192e+01 -6.406788e+00
-3.961582e+09 -3.761582e+09 -3.921582e+09 -2.307558e+03 5.841351e+02 2.176564e+02
-3.416861e+09 -3.216862e+09 -3.376862e+09 -7.641758e+01 -1.889334e+01 9.239482e+00
-3.706664e+09 -3.506664e+09 -3.666664e+09 -1.147214e+02 -1.565905e+01 5.799549e+01
-4.991616e+09 -4.791614e+09 -4.951616e+09 -1.820667e+03 4.202542e+01 -6.202766e+01
-3.961605e+09 -3.761602e+09 -3.921606e+09 -9.010434e+02 -5.026852e+02 8.165884e+02
-2.254633e+09 -2.054633e+09 -2.214633e+09 -2.317250e+02 -3.447396e+01 1.503404e+01
-2.785601e+09 -2.585601e+09 -2.745601e+09 -7.733028e+01 -1.536114e+01 -3.701757e+01
-4.821615e+09 -4.621616e+09 -4.781616e+09 -3.823801e+02 -2.754370e+01 2.567460e+01
-4.993958e+09 -4.793959e+09 -4.953959e+09 -2.216998e+02 -1.815775e+01 -4.271275e+01
-3.461986e+09 -3.261987e+09 -3.421987e+09 -2.751743e+02 -1.032889e+01 1.599947e+01
-4.992743e+09 -4.792744e+09 -4.952744e+09 -3.123934e+02 -8.525851e+00 -4.287887e+01
-3.961611e+09 -3.761599e+09 -3.921571e+09 -6.018593e+03 -1.053728e+04 5.087384e+03
-4.281944e+09 -4.081952e+09 -4.241949e+09 -3.219600e+01 -1.010258e+03 4.102387e+01
-3.132269e+09 -2.932279e+09 -3.092273e+09 -2.569922e+02 -1.257672e+03 -4.459263e+01
-4.612103e+09 -4.412111e+09 -4.572108e+09 -3.572343e+02 -1.554355e+02 1.716093e+01
-3.961618e+09 -3.761621e+09 -3.921620e+09 -2.661724e+03 8.542619e+02 3.286004e+02
-3.961581e+09 -3.761581e+09 -3.921582e+09 -2.184323e+03 6.330066e+02 2.324652e+02
-2.744227e+09 -2.544236e+09 -2.704230e+09 -2.072907e+02 -3.521550e+02 -4.627615e+00
-4.303750e+09 -4.103755e+09 -4.263753e+09 -1.975791e+03 8.895252e+02 2.240990e+02
-3.696271e+09 -3.496279e+09 -3.656274e+09 -2.113191e+02 -1.284029e+02 -1.048084e+02
-3.961604e+09 -3.761606e+09 -3.921605e+09 -2.183042e+03 5.829768e+02 1.190250e+02
-3.878149e+09 -3.678153e+09 -3.838149e+09 -6.379613e+02 4.933817e+01 -8.995646e+01
-3.379769e+09 -3.179778e+09 -3.339773e+09 8.024739e+01 -1.536712e+03 1.692129e+02
-3.961546e+09 -3.761545e+09 -3.921544e+09 -7.674240e+02 1.501522e+02 -2.461505e+01
-3.961464e+09 -3.761466e+09 -3.921464e+09 -1.245398e+03 1.223391e+02 -6.648996e+01
-3.239474e+09 -3.039484e+09 -3.199480e+09 -1.058979e+03 -3.164150e+03 -4.781559e+02
-2.443738e+09 -2.243741e+09 -2.403737e+09 5.677498e+02 -1.156777e+00 -1.802486e+01
-1.638572e+09 -1.438578e+09 -1.598573e+09 3.191001e+01 3.656277e+01 -7.065450e+01
-4.280641e+09 -4.080648e+09 -4.240646e+09 -2.353965e+02 -1.030030e+03 6.186193e+01
-4.993952e+09 -4.793959e+09 -4.953956e+09 4.477092e+02 2.881670e+00 -3.711151e+00
-4.599397e+09 -4.399395e+09 -4.559396e+09 2.772141e+01 -1.090782e+01 -3.228118e+01
-4.770310e+09 -4.570318e+09 -4.730314e+09 2.029100e+02 -2.046504e+02 1.257841e+02
-4.992555e+09 -4.792562e+09 -4.952561e+09 -7.267703e+01 -3.119629e+02 3.351168e+01
-4.669243e+09 -4.469242e+09 -4.629242e+09 1.469179e+03 3.369732e+02 -2.066038e+02
-3.292004e+09 -3.092002e+09 -3.252002e+09 1.375525e+03 4.820061e+02 -2.208796e+02
-4.203794e+09 -4.003792e+09 -4.163792e+09 4.812137e+02 1.742692e+02 -7.850413e+01
-4.040827e+09 -3.840825e+09 -4.000825e+09 1.251761e+03 3.531507e+02 -2.088935e+02
-4.840318e+09 -4.640317e+09 -4.800317e+09 1.028533e+03 -1.093277e+02 -1.284228e+02
-4.822467e+09 -4.622464e+09 -4.782469e+09 5.302318e+02 -1.377498e+02 -2.617502e+02
-4.771042e+09 -4.571041e+09 -4.731041e+09 4.778292e+02 4.221059e+01 1.084821e+02
-5.002940e+09 -4.802935e+09 -4.962940e+09 -1.429329e+02 9.173765e+01 1.086895e+02
-2.966636e+09 -2.766632e+09 -2.926636e+09 -1.717095e+03 -2.362719e+03 -1.527501e+03
-3.177488e+09 -2.977488e+09 -3.137486e+09 4.514089e+02 1.926350e+02 -3.393944e+01
-4.651575e+09 -4.451575e+09 -4.611574e+09 1.510627e+03 1.770429e+02 5.191562e+01
-4.992902e+09 -4.792901e+09 -4.952901e+09 1.752669e+03 7.292572e+01 -1.131880e+02
-4.282697e+09 -4.082697e+09 -4.242696e+09 -1.209563e+02 -5.233732e+01 -1.529970e+01
-4.146576e+09 -3.946576e+09 -4.106575e+09 3.634744e+01 4.678260e+01 -1.908404e+01
-3.313178e+09 -3.113178e+09 -3.273177e+09 -1.510233e+02 -2.513746e+00 -6.181277e+01
-2.725120e+09 -2.525119e+09 -2.685119e+09 -4.968288e+01 4.523939e+01 -4.128960e+01
-3.759059e+09 -3.559058e+09 -3.719058e+09 -6.300945e+01 -5.856850e+01 -4.274091e+01
-4.838618e+09 -4.638617e+09 -4.798616e+09 -1.131625e+02 3.572337e+01 -1.289261e+01
-2.247434e+09 -2.047433e+09 -2.207433e+09 -9.622969e+00 6.256091e+00 -6.135229e+01
-4.295750e+09 -4.095749e+09 -4.255749e+09 2.206296e+02 -4.429691e+00 -4.268370e+01
-4.133036e+09 -3.933028e+09 -4.092991e+09 5.123550e+03 6.380956e+03 5.710305e+03
-3.962076e+09 -3.762070e+09 -3.922045e+09 5.915173e+03 8.801168e+03 6.659205e+03
-3.962074e+09 -3.762081e+09 -3.922078e+09 -1.544915e+03 9.463641e+02 1.788377e+02
-3.961765e+09 -3.761769e+09 -3.921767e+09 -2.155775e+03 7.155839e+02 1.786766e+02
-3.314744e+09 -3.114744e+09 -3.274744e+09 -1.349966e+02 -1.498244e+01 3.140991e+00
-3.961614e+09 -3.761618e+09 -3.921615e+09 -1.704132e+03 3.269931e+02 1.849560e+01
-3.217764e+09 -3.017763e+09 -3.177764e+09 -1.050208e+02 -8.248561e+00 -1.187146e+00
-3.851826e+09 -3.651826e+09 -3.811826e+09 -1.643865e+02 -2.144511e+01 1.088492e+01
-3.895198e+09 -3.695198e+09 -3.855198e+09 -1.267838e+02 -2.104940e+01 4.961514e+00
-4.308486e+09 -4.108491e+09 -4.268494e+09 -2.091038e+03 2.358137e+03 6.238881e+02
-3.402962e+09 -3.202962e+09 -3.362962e+09 -2.714857e+02 -1.696058e+01 1.122634e+01
-4.305191e+09 -4.105196e+09 -4.265195e+09 -2.253035e+03 1.245560e+03 4.017280e+02
-4.771040e+09 -4.571040e+09 -4.731040e+09 -9.001154e+01 1.501640e+00 4.472075e+01
-4.131686e+09 -3.931675e+09 -4.091637e+09 -1.260897e+03 -8.850310e+03 2.548376e+03
-4.835680e+09 -4.635680e+09 -4.795680e+09 -1.863424e+02 -2.875315e+01 -1.925567e+01
-3.961109e+09 -3.761088e+09 -3.921067e+09 2.516057e+03 -1.565043e+04 -2.031182e+03
-5.005562e+09 -4.805563e+09 -4.965563e+09 -2.511167e+02 -8.091911e+00 -4.819748e+01
-4.291523e+09 -4.091522e+09 -4.251522e+09 -1.618654e+02 3.999637e+00 -1.943562e+00
-1.602350e+09 -1.402349e+09 -1.562349e+09 1.487637e+02 4.006395e+01 -4.791851e+00
-2.963820e+09 -2.763819e+09 -2.923819e+09 2.267293e+02 2.673688e+01 -1.960818e+01
-4.651475e+09 -4.451475e+09 -4.611475e+09 -3.279287e+02 -2.233037e+01 1.523114e+01
-4.992846e+09 -4.792846e+09 -4.952846e+09 -2.872415e+02 -4.073951e+00 -5.282573e+01
-4.127259e+09 -3.927259e+09 -4.087241e+09 -1.891158e+03 1.563966e+02 -4.182733e+03
-3.627581e+09 -3.427580e+09 -3.587581e+09 7.298412e+01 1.447874e+01 4.794847e+01
-3.954463e+09 -3.754449e+09 -3.914413e+09 -6.397196e+03 8.004206e+03 -9.887225e+03
-4.132779e+09 -3.932767e+09 -4.092759e+09 -5.121094e+03 5.993600e+03 -5.307455e+03
-3.963037e+09 -3.763018e+09 -3.923001e+09 -3.079177e+03 1.420710e+04 1.951702e+02
-3.514521e+09 -3.314530e+09 -3.474525e+09 2.238899e+03 5.248111e+02 3.037986e+03
-4.667841e+09 -4.467847e+09 -4.627844e+09 2.912995e+03 4.772211e+02 1.342690e+02
-3.812684e+09 -3.612683e+09 -3.772686e+09 7.628294e+02 -2.540954e+02 -5.294474e+02
-4.855977e+09 -4.655986e+09 -4.815982e+09 1.194789e+03 -1.271295e+00 -3.469589e+02
-4.971165e+09 -4.771167e+09 -4.931166e+09 -2.194693e+03 6.671544e+01 -1.411387e+02
-3.941468e+09 -3.741469e+09 -3.901468e+09 -2.077851e+03 1.387032e+02 3.348146e+01
-3.961918e+09 -3.761916e+09 -3.921918e+09 -1.834907e+03 -1.111576e+02 2.919908e+02
-3.864758e+09 -3.664767e+09 -3.824764e+09 7.367982e+02 2.983371e+02 2.397539e+02
-2.463427e+09 -2.263425e+09 -2.423429e+09 2.199318e+03 -7.081270e+01 -1.328760e+03
-4.993280e+09 -4.793283e+09 -4.953285e+09 2.248185e+03 -2.292905e+02 5.776702e+02
-4.632879e+09 -4.432878e+09 -4.592878e+09 -8.816455e+02 -6.251974e+01 3.177186e+01
-4.612628e+09 -4.412634e+09 -4.572631e+09 -6.028999e+02 -1.792174e+02 -4.108820e+00
-4.133028e+09 -3.933026e+09 -4.093028e+09 -1.400271e+03 -2.023841e+02 2.603743e+02
-2.677045e+09 -2.477054e+09 -2.637048e+09 -5.986491e+02 -1.506130e+03 -3.386034e+00
-2.433830e+09 -2.233839e+09 -2.393833e+09 4.736304e+02 -1.109037e+03 1.928049e+02
-3.758380e+09 -3.558387e+09 -3.718383e+09 -3.995310e+02 3.613439e+01 -8.773785e+01
-1.890583e+09 -1.690584e+09 -1.850584e+09 -3.188195e+02 -3.544873e+01 -1.760763e+01
-2.660153e+09 -2.460155e+09 -2.620154e+09 -3.706173e+02 -3.019136e+01 -1.624406e+01
-2.633635e+09 -2.433642e+09 -2.593638e+09 -6.183996e+02 -1.763526e+03 -1.039192e+01
-1.595590e+09 -1.395589e+09 -1.555589e+09 -5.976219e+01 -5.943640e+00 -2.579413e+01
-3.386168e+09 -3.186175e+09 -3.346170e+09 -3.657945e+02 -3.427192e+02 -1.155005e+02
-4.821481e+09 -4.621487e+09 -4.781487e+09 -1.023050e+03 -1.225400e+02 -2.440426e+01
-4.306384e+09 -4.106390e+09 -4.266389e+09 -1.682174e+03 1.460989e+03 2.628793e+02
-4.993958e+09 -4.793966e+09 -4.953962e+09 -4.507307e+01 -1.352897e+02 4.416152e+01
-3.842781e+09 -3.642789e+09 -3.802785e+09 -3.245507e+02 -8.747679e+02 3.270578e+01
-4.632880e+09 -4.432870e+09 -4.592884e+09 2.707325e+03 1.164617e+03 -5.350530e+02
-4.301335e+09 -4.101325e+09 -4.261274e+09 -1.351404e+03 -3.258735e+03 3.066772e+02
-4.992649e+09 -4.792656e+09 -4.952655e+09 -7.572884e+02 -3.763076e+02 5.472031e+01
-4.648861e+09 -4.448860e+09 -4.608860e+09 4.301833e+02 2.605742e+01 4.725855e+01
-4.076608e+09 -3.876607e+09 -4.036607e+09 1.615978e+03 3.331505e+02 -2.021207e+02
-3.040494e+09 -2.840502e+09 -3.000497e+09 -1.184637e+03 -1.207977e+03 -3.546393e+02
-2.317164e+09 -2.117172e+09 -2.277166e+09 -3.283821e+02 -3.807635e+02 -1.057288e+02
-3.744986e+09 -3.544992e+09 -3.704988e+09 -5.364479e+02 1.676569e+02 -1.746723e+02
-3.229023e+09 -3.029029e+09 -3.189025e+09 -8.981818e+02 -1.025824e+03 -2.611328e+02
-3.961480e+09 -3.761478e+09 -3.921479e+09 -6.870992e+02 -1.255316e+02 2.593148e+01
-3.961504e+09 -3.761502e+09 -3.921504e+09 3.407437e+02 -6.185634e+02 4.363586e+02
-3.962322e+09 -3.762310e+09 -3.922319e+09 4.957869e+03 6.931926e+03 1.911041e+03
-3.352459e+09 -3.152465e+09 -3.312461e+09 -6.177642e+02 -3.380507e+02 -1.481828e+02
-4.133919e+09 -3.933919e+09 -4.093918e+09 -2.876646e+02 3.074183e+01 -5.064113e+01
-4.647215e+09 -4.447213e+09 -4.607213e+09 -1.956154e+02 5.349192e+01 -3.456309e+01
-3.960598e+09 -3.760597e+09 -3.920597e+09 8.507280e+01 3.191719e+01 -5.494400e+01
-4.770370e+09 -4.570378e+09 -4.730374e+09 8.125966e+00 -1.000689e+02 1.065933e+02
-3.962618e+09 -3.762617e+09 -3.922617e+09 -1.922979e+02 -1.363385e+01 -4.945349e+01
-4.819906e+09 -4.619904e+09 -4.779905e+09 -7.335438e+01 5.516267e+01 2.099479e+01
-3.961465e+09 -3.761464e+09 -3.921464e+09 -2.893136e+02 -4.435659e+00 -7.398163e+01
-3.961465e+09 -3.761464e+09 -3.921464e+09 -7.591679e+01 3.292175e+01 -7.308257e+01
-4.991176e+09 -4.791176e+09 -4.951175e+09 -1.256730e+03 -1.740203e+01 2.847996e+01
-4.992806e+09 -4.792812e+09 -4.952812e+09 -1.153079e+03 -4.672866e+02 1.835268e+01
-4.305411e+09 -4.105411e+09 -4.265410e+09 -3.133355e+01 -3.459520e+01 -6.408852e+00
-3.445570e+09 -3.245567e+09 -3.405572e+09 1.174920e+03 -8.593447e+02 -1.045318e+03
-2.840360e+09 -2.640357e+09 -2.800361e+09 6.813659e+02 -6.537286e+02 -5.245740e+02
-2.248768e+09 -2.048764e+09 -2.208768e+09 4.475657e+01 -1.118104e+03 -3.649939e+02
-4.797295e+09 -4.597298e+09 -4.757296e+09 -2.271081e+03 -2.605281e+01 -1.268523e+02
-3.961099e+09 -3.761096e+09 -3.921099e+09 -2.075884e+03 -4.342114e+01 5.868165e+02
-4.990754e+09 -4.790750e+09 -4.950757e+09 -9.356251e+02 -3.770956e+02 2.343681e+02
-4.798517e+09 -4.598514e+09 -4.758522e+09 -3.167440e+03 1.432360e+03 1.232941e+03
-4.818804e+09 -4.618807e+09 -4.778806e+09 -2.301210e+03 -1.786240e+01 -1.911349e+02
-3.960418e+09 -3.760419e+09 -3.920423e+09 -3.291568e+03 1.952256e+03 9.490040e+02
-3.643434e+09 -3.443430e+09 -3.603433e+09 1.437843e+02 -8.197793e+02 -3.615128e+02
-1.684198e+09 -1.484194e+09 -1.644197e+09 -1.919413e+02 -1.260574e+03 -2.622726e+02
-4.129943e+09 -3.929932e+09 -4.089897e+09 3.102904e+03 -5.389632e+03 -9.755222e+03
-4.991162e+09 -4.791149e+09 -4.951149e+09 -4.349379e+03 3.529124e+01 1.161502e+02
-4.991626e+09 -4.791618e+09 -4.951566e+09 -3.992975e+02 5.133509e+02 1.146168e+03
-3.960405e+09 -3.760395e+09 -3.920348e+09 -2.667320e+03 -2.617421e+03 -5.826555e+03
-4.821898e+09 -4.621897e+09 -4.781898e+09 -1.560208e+03 -2.210555e+01 -8.924831e+01
-3.962076e+09 -3.762074e+09 -3.922076e+09 -1.328309e+03 -1.727317e+02 2.372404e+02
-2.670826e+09 -2.470822e+09 -2.630825e+09 -1.059117e+02 -1.061081e+03 -1.793513e+01
-3.233508e+09 -3.033504e+09 -3.193509e+09 -1.376219e+03 -2.327343e+03 -1.727277e+03
-4.992454e+09 -4.792453e+09 -4.952457e+09 1.634291e+03 -6.376420e+01 4.245756e+02
-4.992456e+09 -4.792453e+09 -4.952457e+09 5.811095e+02 -7.731199e+01 -1.789859e+02
-4.993061e+09 -4.793060e+09 -4.953061e+09 -1.594862e+03 4.762310e+01 -5.907839e+01
-4.770424e+09 -4.570420e+09 -4.730425e+09 1.397219e+02 -1.819102e+02 -3.068261e+02
-4.992639e+09 -4.792635e+09 -4.952641e+09 4.892487e+02 -5.791449e-01 1.799699e+02
-4.134237e+09 -3.934242e+09 -4.094242e+09 -2.377919e+03 1.785347e+03 4.827705e+02
-3.962074e+09 -3.762081e+09 -3.922078e+09 -1.697819e+03 1.198958e+03 1.539960e+02
-2.301453e+09 -2.101452e+09 -2.261452e+09 7.288612e+01 -2.639465e+01 -1.062484e+02
-2.233444e+09 -2.033442e+09 -2.193443e+09 -7.163302e+00 -1.782261e+00 -1.120957e+02
-3.680308e+09 -3.480306e+09 -3.640307e+09 -3.695028e+01 8.533373e+00 -5.458332e+01
-4.637915e+09 -4.437906e+09 -4.597863e+09 -1.471991e+03 1.833809e+03 -2.736952e+03
-3.962083e+09 -3.762072e+09 -3.922047e+09 7.142521e+03 8.612378e+03 7.074958e+03
-4.821566e+09 -4.621553e+09 -4.781540e+09 1.319792e+03 6.187751e+02 2.986163e+03
-4.992734e+09 -4.792721e+09 -4.952698e+09 -2.570843e+03 8.332250e+02 -1.561553e+02
-2.705970e+09 -2.505969e+09 -2.665969e+09 -1.773145e+02 -3.705954e+01 -7.695522e+01
-3.963343e+09 -3.763343e+09 -3.923344e+09 -8.113469e+02 -5.621925e+01 1.902186e+01
-3.282951e+09 -3.082950e+09 -3.242950e+09 -2.802205e+01 -9.538528e+00 -3.297186e+01
-3.963343e+09 -3.763343e+09 -3.923355e+09 -2.086568e+03 -4.490954e+03 -6.455434e+02
-3.225312e+09 -3.025310e+09 -3.185311e+09 -3.355786e+02 -6.548186e+01 -3.311339e+01
-4.820354e+09 -4.620359e+09 -4.780363e+09 -1.347117e+03 -1.553800e+03 -7.882267e+01
-4.993287e+09 -4.793285e+09 -4.953285e+09 -5.841580e+01 -6.903007e+01 4.384049e+01
-4.993287e+09 -4.793285e+09 -4.953285e+09 -1.832913e+02 3.196586e+00 4.274669e+01
-3.963344e+09 -3.763348e+09 -3.923348e+09 3.025583e+03 1.356380e+03 -4.601560e+02
-4.820519e+09 -4.620518e+09 -4.780520e+09 3.124859e+03 4.384069e+02 -5.095380e+02
-4.649499e+09 -4.449498e+09 -4.609498e+09 -2.055493e+02 -1.774820e+01 -4.073384e+01
-4.471212e+09 -4.271215e+09 -4.431211e+09 9.884208e+02 -6.049023e+01 -1.036969e+03
-3.983720e+09 -3.783725e+09 -3.943722e+09 1.826689e+02 -3.771413e+00 -7.012063e+02
-4.838138e+09 -4.638143e+09 -4.798140e+09 1.388808e+02 -4.988074e+01 -4.946386e+02
-1.736676e+09 -1.536682e+09 -1.696677e+09 -1.032798e+01 -5.993904e-01 -5.303524e+01
-2.197273e+09 -1.997279e+09 -2.157273e+09 -4.004315e+00 4.972270e+01 -3.624568e+01
-4.990853e+09 -4.790856e+09 -4.950855e+09 -6.140511e+02 7.140884e+00 -3.504919e+01
-4.819128e+09 -4.619130e+09 -4.779129e+09 1.370039e+03 6.956932e+01 1.076873e+02
-3.961276e+09 -3.761278e+09 -3.921277e+09 5.892990e+02 3.855786e+01 -5.417833e+01
-4.302994e+09 -4.102995e+09 -4.262994e+09 1.104534e+03 -4.007481e+01 -1.278837e+02
-3.704903e+09 -3.504909e+09 -3.664904e+09 1.255516e+02 -1.416893e+01 -3.302123e+01
-2.711377e+09 -2.511383e+09 -2.671378e+09 2.256755e+02 7.453212e+01 -4.720981e+00
-3.312953e+09 -3.112959e+09 -3.272954e+09 1.128279e+02 -4.369133e+00 1.374807e+01
-3.230997e+09 -3.031003e+09 -3.190997e+09 4.570890e+02 2.272744e+02 -9.547193e+01
-4.993285e+09 -4.793291e+09 -4.953285e+09 -9.191938e+01 -7.116017e+01 4.500057e+01
-1.636039e+09 -1.436045e+09 -1.596049e+09 -4.354983e+03 -1.881014e+03 2.569427e+03
-4.993285e+09 -4.793291e+09 -4.953285e+09 6.983142e+01 1.050819e+01 2.291422e+01
-4.992505e+09 -4.792512e+09 -4.952506e+09 2.543188e+02 -4.234605e+01 4.575460e+01
-4.599568e+09 -4.399567e+09 -4.559567e+09 -3.980937e+01 -1.049148e+00 -2.447759e+01
-3.023845e+09 -2.823844e+09 -2.983843e+09 -8.161608e+01 1.168097e+01 -6.380787e+01
-3.273441e+09 -3.073441e+09 -3.233440e+09 -9.996652e+01 1.190113e+01 -3.767787e+01
-3.751124e+09 -3.551123e+09 -3.711123e+09 -2.656879e+01 -3.414314e+01 -3.164417e+01
-4.821271e+09 -4.621271e+09 -4.781271e+09 2.598408e+02 -9.345918e+00 -4.497732e+00
-2.707304e+09 -2.507303e+09 -2.667303e+09 -1.250203e+01 2.138997e+01 -3.745819e+01
-4.128578e+09 -3.928579e+09 -4.088583e+09 -3.030189e+03 1.816266e+03 7.290995e+02
-4.640438e+09 -4.440437e+09 -4.600437e+09 -6.461522e+01 2.578790e+00 -3.596278e+01
-4.811214e+09 -4.611213e+09 -4.771213e+09 -2.714809e+01 1.123497e+01 -1.395577e+00
-3.961920e+09 -3.761925e+09 -3.921925e+09 -2.648623e+03 1.775703e+03 4.593262e+02
-3.942883e+09 -3.742882e+09 -3.902882e+09 -1.535476e+02 -2.863713e+01 -5.617078e+01
-3.449105e+09 -3.249104e+09 -3.409103e+09 -2.205387e+02 -4.215566e+01 -3.442160e+01
-4.117375e+09 -3.917361e+09 -4.077352e+09 -5.813702e+03 7.670673e+03 -4.791346e+03
-4.992532e+09 -4.792531e+09 -4.952531e+09 1.104653e+01 3.487180e+01 1.574754e+01
-1.590579e+09 -1.390585e+09 -1.550579e+09 1.470419e+02 3.613291e+01 -5.502717e+01
-4.109369e+09 -3.909369e+09 -4.069369e+09 -2.380864e+03 1.962811e+02 -1.169259e+02
-3.940040e+09 -3.740041e+09 -3.900041e+09 -2.307568e+03 3.735618e+01 4.071679e+01
-3.219511e+09 -3.019517e+09 -3.179512e+09 5.628927e+02 7.359244e+01 2.123407e+01
-3.960738e+09 -3.760737e+09 -3.920737e+09 -7.430563e+02 -9.721425e+01 4.187420e+01
-3.961538e+09 -3.761536e+09 -3.921537e+09 1.886423e+02 -3.847732e+02 2.232897e+02
-3.961329e+09 -3.761325e+09 -3.921330e+09 -2.907999e+03 3.622651e+02 1.145852e+03
-3.191235e+09 -2.991241e+09 -3.151236e+09 2.417535e+02 8.709853e+01 -3.024329e+01
-4.646676e+09 -4.446674e+09 -4.606676e+09 -1.687232e+03 -6.422991e+01 1.864985e+02
-4.820587e+09 -4.620593e+09 -4.780588e+09 6.401535e+02 -8.856759e+01 6.325585e+01
-4.768872e+09 -4.568878e+09 -4.728873e+09 8.758025e+01 4.129253e-01 -1.120498e+00
-4.132213e+09 -3.932211e+09 -4.092212e+09 -7.101536e+02 -1.501544e+02 1.650575e+02
-4.819183e+09 -4.619181e+09 -4.779183e+09 -1.396198e+03 -1.346886e+02 2.375026e+02
-4.990226e+09 -4.790227e+09 -4.950226e+09 -3.119425e+03 5.234262e+01 -2.848541e+02
-3.961463e+09 -3.761460e+09 -3.921464e+09 4.102275e+02 -1.291866e+03 1.260785e+03
-3.962428e+09 -3.762439e+09 -3.922428e+09 2.007216e+03 1.237169e+03 5.775160e+03
-4.817638e+09 -4.617632e+09 -4.777634e+09 4.489560e+03 1.228443e+03 -1.150698e+03
-4.992006e+09 -4.792012e+09 -4.952004e+09 4.127199e+03 -1.729246e+02 7.455465e+02
-4.818646e+09 -4.618642e+09 -4.778602e+09 -2.326789e+03 -3.631059e+03 2.487508e+03
-3.219642e+09 -3.019647e+09 -3.179642e+09 7.363572e+02 2.392063e+02 -9.745672e+01
-3.397655e+09 -3.197660e+09 -3.357655e+09 4.863830e+02 7.279178e+01 -4.102848e+01
-4.132883e+09 -3.932874e+09 -4.092828e+09 1.522656e+03 9.657788e+03 1.091746e+03
-4.819202e+09 -4.619201e+09 -4.779173e+09 3.930417e+03 -3.249771e+02 1.426820e+03
-4.021062e+09 -3.821067e+09 -3.981062e+09 4.231540e+02 6.896476e+01 -4.748379e+01
-3.961539e+09 -3.761534e+09 -3.921526e+09 -7.745930e+03 -6.830554e+03 4.387034e+03
-3.962905e+09 -3.762898e+09 -3.922909e+09 2.575760e+03 4.200039e+02 -1.189065e+03
-4.132212e+09 -3.932219e+09 -4.092215e+09 -7.881895e+02 4.032997e+02 4.345431e+00
-4.822467e+09 -4.622473e+09 -4.782467e+09 2.759615e+02 -4.320799e+01 2.688551e+01
-4.304877e+09 -4.104884e+09 -4.264881e+09 -1.177740e+03 9.087890e+02 2.432361e+02
-4.107698e+09 -3.907705e+09 -4.067699e+09 3.097176e+02 2.055503e+02 -2.812310e+01
-4.819273e+09 -4.619280e+09 -4.779276e+09 -1.127842e+03 1.314536e+02 -2.090825e+02
-3.961105e+09 -3.761105e+09 -3.921106e+09 -2.875747e+03 1.009009e+03 6.039573e+02
-4.160911e+09 -3.960910e+09 -4.120910e+09 -1.100543e+02 -2.347294e+01 -1.200334e+01
-3.837965e+09 -3.637964e+09 -3.797964e+09 -1.150011e+02 -2.389184e+01 -5.949166e+01
-2.692706e+09 -2.492704e+09 -2.652705e+09 -1.642411e+02 -2.449765e+01 -5.922222e+01
-3.640285e+09 -3.440284e+09 -3.600284e+09 -5.971823e+01 -2.683309e+00 -3.834287e+01
-4.819195e+09 -4.619194e+09 -4.779194e+09 1.904252e+02 2.077506e+00 3.073809e-01
-2.229339e+09 -2.029338e+09 -2.189338e+09 -3.306684e+01 -2.079297e+00 -1.051979e+02
-3.187750e+09 -2.987749e+09 -3.147749e+09 -5.560279e+01 -8.599923e+00 -7.160423e+00
-1.578415e+09 -1.378414e+09 -1.538414e+09 1.790564e+02 -1.706993e+02 -1.242243e+02
-4.992457e+09 -4.792456e+09 -4.952456e+09 -2.032567e+02 5.275559e+00 3.637056e+01
-4.770424e+09 -4.570423e+09 -4.730423e+09 -8.756259e+01 2.006978e+00 -2.499468e+01
-4.992487e+09 -4.792485e+09 -4.952486e+09 -3.344262e+02 -9.909922e+00 9.733426e+00
-4.786476e+09 -4.586476e+09 -4.746475e+09 -4.658978e+01 -5.789486e+01 -1.605781e+01
-4.076544e+09 -3.876543e+09 -4.036543e+09 3.552488e+01 7.203852e+00 -3.821262e+01
-3.082499e+09 -2.882498e+09 -3.042498e+09 8.516233e+01 -2.519163e+01 9.616492e+00
-3.291830e+09 -3.091829e+09 -3.251829e+09 -2.488596e+01 2.870230e+00 -1.089414e+01
-4.604755e+09 -4.404754e+09 -4.564754e+09 -1.393823e+01 2.376034e+00 -1.245945e+01
-3.703961e+09 -3.503960e+09 -3.663960e+09 -1.482774e+01 -2.543914e+01 -2.772246e+01
-2.002529e+09 -1.802531e+09 -1.962528e+09 1.304659e+02 3.323234e+00 2.828780e+01
-3.098877e+09 -2.898880e+09 -3.058876e+09 1.411581e+02 5.913586e+01 -1.796361e+01
-2.779104e+09 -2.579106e+09 -2.739103e+09 9.629290e+01 6.287756e+00 4.429255e+00
-1.772058e+09 -1.572060e+09 -1.732057e+09 5.168134e+01 -1.211570e+01 7.155784e+00
-4.129887e+09 -3.929889e+09 -4.089885e+09 1.239135e+02 4.356788e+00 1.819366e+00
-5.010064e+09 -4.810064e+09 -4.970063e+09 -6.765899e+01 -4.751184e+01 2.034523e+01
-4.296315e+09 -4.096314e+09 -4.256314e+09 3.788688e+01 5.020129e+01 -1.527139e+00
-4.993200e+09 -4.793199e+09 -4.953199e+09 4.713822e+01 -6.015860e+00 2.712361e+01
-2.274663e+09 -2.074662e+09 -2.234662e+09 1.516402e+01 2.137092e+00 -5.377547e+00
-2.197080e+09 -1.997079e+09 -2.157079e+09 6.457379e+01 3.224340e+00 -1.218110e+01
-2.789765e+09 -2.589764e+09 -2.749764e+09 1.583061e+01 9.736585e-01 -6.826987e+00
-2.263400e+09 -2.063399e+09 -2.223399e+09 5.215824e+00 3.097147e+00 -3.023970e+00
-2.655191e+09 -2.455189e+09 -2.615190e+09 1.603995e+01 4.296343e+00 -6.724925e+00
-2.254399e+09 -2.054398e+09 -2.214397e+09 -1.218935e+02 -2.556757e+01 -1.502945e+02
-2.841823e+09 -2.641823e+09 -2.801822e+09 -6.808090e+02 -4.436014e+02 -1.815389e+02
-2.769500e+09 -2.569500e+09 -2.729499e+09 -1.095529e+02 -8.634908e+01 -9.765433e+01
-3.392454e+09 -3.192453e+09 -3.352453e+09 7.847472e+01 1.349825e+01 -2.360453e+00
-4.274416e+09 -4.074415e+09 -4.234415e+09 2.073918e+02 -7.147564e+00 1.347564e+01
-4.991882e+09 -4.791882e+09 -4.951882e+09 5.183570e+02 -1.920001e+01 -1.116921e+01
-4.197825e+09 -3.997826e+09 -4.157825e+09 -7.318777e+02 -2.273415e+02 -9.125568e+01
-1.667017e+09 -1.467016e+09 -1.627016e+09 -9.525721e+00 -1.588847e+01 -4.247836e+00
-4.804922e+09 -4.604921e+09 -4.764921e+09 -1.410888e+02 -2.776797e+00 -3.550099e+01
-2.773833e+09 -2.573832e+09 -2.733832e+09 -1.423178e+01 -1.523219e+01 -2.414568e+00
-2.793555e+09 -2.593555e+09 -2.753555e+09 1.363674e+02 1.523375e+01 -7.911773e+00
-4.643772e+09 -4.443772e+09 -4.603772e+09 1.211096e+02 1.526683e+01 1.405894e+01
-3.354663e+09 -3.154662e+09 -3.314662e+09 -1.305825e+02 -7.063988e+00 -2.495478e+01
-2.434240e+09 -2.234239e+09 -2.394240e+09 -5.369584e+01 -5.112406e+00 -2.493969e+01
-3.417178e+09 -3.217178e+09 -3.377178e+09 8.515910e+01 1.118037e+01 -1.095947e+01
-3.354503e+09 -3.154504e+09 -3.314504e+09 1.212402e+02 2.054303e+00 -7.967408e+01
-3.962022e+09 -3.762022e+09 -3.922022e+09 3.440213e+02 2.985203e+01 3.848855e+01
-3.165321e+09 -2.965321e+09 -3.125321e+09 1.811860e+02 4.726563e+00 4.025660e+01
-4.024058e+09 -3.824057e+09 -3.984058e+09 1.668503e+02 1.362064e+01 2.692019e+00
-1.964245e+09 -1.764245e+09 -1.924245e+09 2.538819e+02 2.789652e+01 -1.960543e+01
-1.891392e+09 -1.691392e+09 -1.851392e+09 2.757305e+02 4.140833e+01 4.752190e+01
-3.629952e+09 -3.429952e+09 -3.589952e+09 1.072758e+02 1.768902e+01 6.803605e+01
-2.118831e+09 -1.918831e+09 -2.078831e+09 1.065034e+02 1.628944e+01 1.865423e+00
-4.063998e+09 -3.863994e+09 -4.023999e+09 -6.542708e+01 -6.775187e+02 -4.376635e+02
-2.190321e+09 -1.990322e+09 -2.150322e+09 -4.339795e+02 -2.206522e+01 5.243553e+00
-4.125639e+09 -3.925635e+09 -4.085640e+09 -3.011766e+02 -6.112927e+02 -2.620479e+02
-2.634352e+09 -2.434348e+09 -2.594351e+09 -1.818184e+03 -1.893145e+03 -1.317947e+03
-2.953233e+09 -2.753233e+09 -2.913233e+09 -4.549069e+02 -5.361155e+01 1.594289e+01
-3.008700e+09 -2.808697e+09 -2.968700e+09 1.907693e+02 -7.905405e+02 -8.509608e+01
-2.687088e+09 -2.487086e+09 -2.647087e+09 4.091915e+01 -8.930755e+00 -3.893761e+01
-1.861041e+09 -1.661040e+09 -1.821040e+09 1.135169e+01 1.637332e+01 -5.338359e+01
-3.642773e+09 -3.442769e+09 -3.602772e+09 -1.796146e+02 -7.583684e+02 -2.034211e+02
-4.664316e+09 -4.464317e+09 -4.624317e+09 -2.119193e+02 3.711897e+00 1.982273e+01
-2.142868e+09 -1.942864e+09 -2.102865e+09 -8.640234e+02 -8.058990e+02 -3.805229e+02
-4.770370e+09 -4.570371e+09 -4.730371e+09 -9.399222e+01 -1.306916e+00 4.489244e+01
-3.862250e+09 -3.662250e+09 -3.822249e+09 -1.928165e+01 -2.881053e+01 -7.026506e+01
-3.172122e+09 -2.972118e+09 -3.132121e+09 -1.986956e+02 -9.035031e+02 -2.047359e+02
-4.651131e+09 -4.451128e+09 -4.611133e+09 3.780025e+02 -2.927399e+02 -4.885947e+02
-4.993986e+09 -4.793982e+09 -4.953987e+09 8.146042e+02 -1.982179e+01 9.377204e+01
-4.991636e+09 -4.791631e+09 -4.951637e+09 -7.014250e+02 -1.380543e+02 -1.013025e+02
-4.032103e+09 -3.832098e+09 -3.992102e+09 -4.527040e+02 -6.532921e+02 -5.904204e+02
-1.968539e+09 -1.768547e+09 -1.928541e+09 -4.039598e+02 -4.671297e+02 -2.319532e+02
-2.268861e+09 -2.068863e+09 -2.228862e+09 2.505076e+01 2.125817e+00 2.134795e+01
-2.186902e+09 -1.986903e+09 -2.146903e+09 1.327990e+02 6.981817e+00 9.549035e+00
-2.820607e+09 -2.620610e+09 -2.780607e+09 -4.488059e+02 -4.535163e+02 -1.799405e+02
-2.193101e+09 -1.993103e+09 -2.153102e+09 -1.528344e+02 -7.917219e+00 1.573826e+01
-4.835680e+09 -4.635686e+09 -4.795684e+09 -7.642236e+02 -2.631733e+02 6.987793e+01
-1.968680e+09 -1.768681e+09 -1.928681e+09 2.091797e+01 4.456106e+00 2.044205e+01
-4.771040e+09 -4.571046e+09 -4.731043e+09 -3.396013e+02 1.147373e+02 5.294206e+01
-4.282932e+09 -4.082933e+09 -4.242933e+09 -2.125992e+02 -1.273845e+01 3.150303e+01
-3.696574e+09 -3.496576e+09 -3.656574e+09 -5.775454e+02 1.778781e+02 -1.087635e+02
-4.599668e+09 -4.399673e+09 -4.559670e+09 -6.991517e+02 -9.678623e+01 -1.418361e+01
-3.006788e+09 -2.806794e+09 -2.966789e+09 -1.518851e+03 -2.200964e+02 -3.477428e+02
-4.994857e+09 -4.794860e+09 -4.954860e+09 -1.399388e+03 -1.255911e+02 -7.836347e+01
-1.587883e+09 -1.387893e+09 -1.547886e+09 -6.183234e+02 -1.599870e+03 8.264818e+00
-4.047843e+09 -3.847846e+09 -4.007845e+09 -1.519923e+03 -8.854952e+02 -1.839627e+02
-4.468618e+09 -4.268618e+09 -4.428616e+09 4.157366e+02 1.151230e+02 -3.655629e+01
-4.786758e+09 -4.586755e+09 -4.746756e+09 5.331792e+02 9.964746e+01 9.040871e+01
-2.837203e+09 -2.637201e+09 -2.797201e+09 2.412824e+03 1.066063e+03 -5.425198e+02
-2.146714e+09 -1.946715e+09 -2.106715e+09 -2.538786e+01 1.193662e+00 1.231986e+01
-1.688353e+09 -1.488354e+09 -1.648354e+09 -4.246361e+02 -6.042486e+01 6.147659e+00
-4.991945e+09 -4.791941e+09 -4.951945e+09 -5.925941e+02 -1.135874e+02 3.103266e+02
-4.821457e+09 -4.621457e+09 -4.781457e+09 1.727350e+03 -3.861693e+01 1.387503e+02
-4.822468e+09 -4.622467e+09 -4.782467e+09 -1.912971e+02 -3.042125e+00 4.083744e+01
-4.127535e+09 -3.927533e+09 -4.087533e+09 -1.020786e+02 -7.715506e+00 -1.523008e+01
-3.161233e+09 -2.961232e+09 -3.121232e+09 -2.075674e+02 -3.451261e+01 -7.631059e+01
-3.366618e+09 -3.166617e+09 -3.326618e+09 -1.780367e+02 -5.531760e+00 -4.936909e+01
-4.477623e+09 -4.277622e+09 -4.437623e+09 -1.185735e+03 -5.513520e+01 2.318771e+01
-2.225503e+09 -2.025502e+09 -2.185502e+09 -3.896400e+01 -5.008118e-01 -8.810177e+01
-4.992981e+09 -4.792981e+09 -4.952981e+09 -1.344389e+03 -1.534342e+00 -1.689485e+01
-4.994427e+09 -4.794427e+09 -4.954428e+09 -1.570203e+03 -2.009738e+01 -2.162678e+01
-4.477626e+09 -4.277611e+09 -4.437622e+09 2.453716e+03 2.511642e+03 1.230994e+02
-4.993075e+09 -4.793062e+09 -4.953071e+09 -1.733616e+02 -8.009117e+02 -5.738625e+02
-3.617467e+09 -3.417465e+09 -3.577466e+09 -6.177087e+01 -7.675573e+00 -3.027738e+01
-4.999071e+09 -4.799057e+09 -4.959059e+09 -3.170255e+03 -1.360119e+02 2.751459e+01
-4.312784e+09 -4.112783e+09 -4.272799e+09 -1.506387e+03 -5.577948e+03 -6.682071e+01
-1.555455e+09 -1.355454e+09 -1.515454e+09 -5.644581e+01 6.960558e+00 1.025456e+01
-3.217024e+09 -3.017022e+09 -3.177023e+09 -5.982682e+01 -1.895813e+00 -5.641034e+00
-3.961584e+09 -3.761587e+09 -3.921597e+09 -8.217052e+02 -4.915795e+03 4.059820e+02
-4.993987e+09 -4.793985e+09 -4.953986e+09 -1.666719e+02 -3.614461e-01 2.666339e+01
-4.992831e+09 -4.792826e+09 -4.952831e+09 -1.016706e+03 4.727995e+02 -5.200129e+02
-4.021066e+09 -3.821065e+09 -3.981065e+09 -2.026684e+02 -7.935746e+00 -4.613315e+01
-4.991512e+09 -4.791511e+09 -4.951512e+09 -3.109675e+02 4.443642e+00 3.653726e+01
-3.066131e+09 -2.866137e+09 -3.026131e+09 3.581123e+02 9.332330e+01 -2.472229e+01
-3.610837e+09 -3.410841e+09 -3.570836e+09 2.735471e+02 -9.664186e+01 -1.285856e+01
-4.133983e+09 -3.933984e+09 -4.093984e+09 -6.241746e+02 -4.977440e+01 3.533036e+01
-4.305974e+09 -4.105975e+09 -4.265975e+09 -5.437398e+02 -2.001624e+01 -4.217508e+01
-4.992374e+09 -4.792374e+09 -4.952374e+09 -7.267276e+02 1.167908e+01 -1.047223e+01
-1.688326e+09 -1.488328e+09 -1.648327e+09 -6.804716e+01 -4.503197e+00 4.656156e+01
-3.640281e+09 -3.440287e+09 -3.600281e+09 2.255664e+02 -6.537653e+01 -2.062779e+01
-3.762856e+09 -3.562861e+09 -3.722856e+09 3.926017e+02 3.079978e+01 -3.164433e+01
-3.841048e+09 -3.641050e+09 -3.801050e+09 3.567120e+01 1.124413e-01 1.746373e+01
-4.649625e+09 -4.449630e+09 -4.609625e+09 6.818082e+02 2.004309e+01 -1.177140e+01
-2.984693e+09 -2.784699e+09 -2.944693e+09 5.584963e+02 1.628903e+02 6.923218e+00
-4.650978e+09 -4.450984e+09 -4.610979e+09 3.427831e+02 4.235271e+01 -4.116320e+01
-4.991512e+09 -4.791517e+09 -4.951512e+09 7.215433e+02 -2.849298e+01 4.738342e+01
-2.988530e+09 -2.788534e+09 -2.948529e+09 9.272311e+02 2.062071e+02 -2.558056e+01
-3.467707e+09 -3.267713e+09 -3.427708e+09 1.512397e+01 1.088479e+02 -3.326621e+01
-4.377642e+09 -4.177644e+09 -4.337643e+09 -4.390466e+01 -2.329504e+00 -6.596377e+00
-4.823007e+09 -4.623013e+09 -4.783008e+09 -4.848007e+01 -2.290935e-01 -1.047476e+01
-3.900502e+09 -3.700502e+09 -3.860502e+09 6.080024e+01 4.891107e+00 -4.449093e+01
-1.560604e+09 -1.360603e+09 -1.520604e+09 1.483624e+02 3.390451e+01 -7.459198e+01
-2.228730e+09 -2.028729e+09 -2.188729e+09 5.263861e+01 1.223380e+01 1.665340e+00
-3.377188e+09 -3.177188e+09 -3.337188e+09 1.309245e+02 8.512707e+00 1.163992e+01
-1.593252e+09 -1.393254e+09 -1.553254e+09 -1.132186e+02 -2.518145e+01 5.288306e+01
-3.225482e+09 -3.025481e+09 -3.185481e+09 1.685978e+02 2.488926e+01 9.599333e+00
-3.586828e+09 -3.386827e+09 -3.546827e+09 6.334210e+01 1.488256e+01 4.332468e+01
-2.078932e+09 -1.878931e+09 -2.038931e+09 6.622247e+01 1.613513e+01 -9.553067e-01
-3.218524e+09 -3.018523e+09 -3.178523e+09 6.157354e+01 1.377898e+01 1.857644e+01
-4.109890e+09 -3.909890e+09 -4.069890e+09 1.943874e+02 6.209959e-01 -4.989243e+00
-4.132375e+09 -3.932374e+09 -4.092374e+09 2.466801e+02 2.217183e+01 -4.737133e+00
-4.819806e+09 -4.619805e+09 -4.779806e+09 2.078574e+02 1.514234e+01 1.282395e+00
-3.988800e+09 -3.788799e+09 -3.948799e+09 6.479175e+01 5.815018e+00 -1.465518e+01
-2.500027e+09 -2.300026e+09 -2.460026e+09 5.226145e+00 -1.073291e+01 -3.068675e+01
-4.171205e+09 -3.971204e+09 -4.131204e+09 4.334897e+01 6.048214e+00 -2.317256e+00
-2.800700e+09 -2.600699e+09 -2.760699e+09 1.926489e+00 1.210804e+01 -1.640001e+01
-2.277010e+09 -2.077011e+09 -2.237011e+09 6.362591e+01 4.286280e+00 -1.031417e+00
-3.960962e+09 -3.760961e+09 -3.920961e+09 7.915751e+00 2.813094e+00 -1.316898e+01
-3.674908e+09 -3.474907e+09 -3.634907e+09 3.277492e+00 -1.458141e+01 -2.002671e+01
-1.589961e+09 -1.389962e+09 -1.549962e+09 9.819760e+01 2.018443e+01 -3.506491e+01
-2.850745e+09 -2.650744e+09 -2.810744e+09 1.017698e+02 1.577723e+01 -2.300561e+01
-1.721645e+09 -1.521646e+09 -1.681645e+09 9.825717e+01 3.364550e+01 7.560057e+00
-4.993396e+09 -4.793395e+09 -4.953395e+09 -1.899678e+01 3.298350e+01 1.979975e+01
-4.970822e+09 -4.770821e+09 -4.930821e+09 9.702467e+01 -2.874557e+00 2.239555e+01
-1.912930e+09 -1.712931e+09 -1.872931e+09 1.074406e+02 3.661858e+01 -5.754101e+00
-4.641099e+09 -4.441098e+09 -4.601098e+09 2.070694e+02 1.437153e+01 5.266293e+00
-4.014804e+09 -3.814802e+09 -3.974802e+09 5.285943e+01 6.357132e+00 -2.396451e+00
-4.302568e+09 -4.102570e+09 -4.262570e+09 4.542952e+02 -1.546363e+01 -7.577240e+01
-4.993396e+09 -4.793395e+09 -4.953395e+09 5.956884e+01 -3.673101e+00 2.343012e+01
-4.994092e+09 -4.794092e+09 -4.954092e+09 -1.570680e+02 5.736082e+00 1.169917e+01
-4.134418e+09 -3.934417e+09 -4.094418e+09 5.215934e+02 8.731163e+00 -1.530786e+01
-1.590534e+09 -1.390534e+09 -1.550534e+09 -2.675358e+02 -4.077889e+01 1.630652e+01
-4.992189e+09 -4.792190e+09 -4.952193e+09 -2.104186e+03 -5.188619e+02 -2.295368e+02
-4.829040e+09 -4.629039e+09 -4.789040e+09 -2.806793e+02 -1.361200e+01 3.205345e+01
-3.483798e+09 -3.283804e+09 -3.443801e+09 -6.239003e+02 -1.139665e+03 -1.769070e+02
-4.992050e+09 -4.792049e+09 -4.952049e+09 -4.925048e+02 1.550281e+01 -1.208725e+01
-4.992729e+09 -4.792729e+09 -4.952729e+09 -5.618590e+02 9.944117e+00 -1.355940e+01
-3.846205e+09 -3.646205e+09 -3.806205e+09 -1.382039e+02 -1.164120e+01 5.433537e+01
-4.302175e+09 -4.102177e+09 -4.262176e+09 -2.142694e+02 4.121345e+00 -9.336883e+01
-3.088997e+09 -2.888996e+09 -3.048996e+09 8.888642e+01 1.759777e+01 1.147035e+01
-4.133243e+09 -3.933237e+09 -4.093250e+09 -2.531527e+03 -2.092986e+03 2.309496e+03
-3.960578e+09 -3.760576e+09 -3.920578e+09 -2.456940e+03 2.047591e+02 6.096257e+02
-4.645588e+09 -4.445590e+09 -4.605589e+09 1.541921e+02 1.630837e+01 4.162147e+01
-4.999641e+09 -4.799635e+09 -4.959655e+09 -2.559289e+03 -2.644748e+03 1.918804e+02
-3.478818e+09 -3.278817e+09 -3.438817e+09 7.657771e+01 1.259316e+00 8.267126e+00
-4.991130e+09 -4.791133e+09 -4.951133e+09 -3.350560e+01 -4.208763e+00 -5.229198e+01
-3.133493e+09 -2.933492e+09 -3.093492e+09 6.814942e+01 1.754437e+01 -8.439555e+00
-4.818299e+09 -4.618302e+09 -4.778312e+09 2.427191e+03 1.112142e+03 -1.145721e+03
-4.991697e+09 -4.791697e+09 -4.951700e+09 3.142554e+03 4.238638e+02 -2.011020e+02
-4.988475e+09 -4.788480e+09 -4.948482e+09 2.530692e+03 9.049386e+02 -1.182178e+02
-3.963344e+09 -3.763349e+09 -3.923348e+09 3.227942e+03 1.679272e+03 -6.949482e+02
-4.468890e+09 -4.268891e+09 -4.428889e+09 3.259717e+02 3.941821e+01 2.911480e+01
-2.280970e+09 -2.080974e+09 -2.240970e+09 -1.565669e+02 -6.233898e-02 -5.402513e+01
-1.888616e+09 -1.688618e+09 -1.848615e+09 2.076154e+01 1.558906e+01 -6.655094e+01
-1.578321e+09 -1.378323e+09 -1.538320e+09 -2.251230e+02 1.702572e+02 -1.166232e+02
-2.253286e+09 -2.053288e+09 -2.213285e+09 -4.786899e+02 2.666021e+01 -1.039627e+02
-1.909184e+09 -1.709187e+09 -1.869183e+09 -2.939572e+02 -8.758249e+00 -1.471349e+02
-3.012942e+09 -2.812943e+09 -2.972940e+09 6.961694e+02 2.897537e+01 -4.953967e+00
-4.280510e+09 -4.080510e+09 -4.240508e+09 1.286043e+03 1.530811e+02 -1.436707e+01
-3.767592e+09 -3.567592e+09 -3.727590e+09 2.362477e+02 7.329550e+01 7.700122e+01
-3.038119e+09 -2.838120e+09 -2.998117e+09 2.600838e+02 1.389031e+02 -9.653299e+01
-2.173850e+09 -1.973851e+09 -2.133848e+09 1.034531e+03 3.543306e+02 1.543500e+01
-2.964450e+09 -2.764450e+09 -2.924449e+09 -5.858542e+02 5.285997e+01 -1.094028e+02
-1.890303e+09 -1.690303e+09 -1.850302e+09 -1.312036e+02 2.923867e+01 -1.078348e+02
-2.044141e+09 -1.844142e+09 -2.004140e+09 4.233245e+02 1.308923e+02 -6.557806e+00
-3.024670e+09 -2.824671e+09 -2.984668e+09 5.694066e+02 6.550123e+01 2.254198e+01
-1.736580e+09 -1.536581e+09 -1.696579e+09 -2.335540e+02 1.415489e+01 -1.430366e+02
-2.236790e+09 -2.036791e+09 -2.196789e+09 -6.610578e+01 1.572666e+01 -6.471334e+01
-1.583004e+09 -1.383004e+09 -1.543003e+09 -1.130999e+02 9.845116e+01 -1.263859e+02
-1.638515e+09 -1.438517e+09 -1.598515e+09 -2.428932e+02 1.675875e+02 -1.079113e+02
-1.912597e+09 -1.712603e+09 -1.872598e+09 -1.864011e+02 1.120222e+01 -1.039581e+02
-2.973821e+09 -2.773825e+09 -2.933821e+09 -9.179776e+02 7.680877e+01 -6.275614e+01
-2.285916e+09 -2.085919e+09 -2.245915e+09 -1.817491e+02 -1.258563e+01 -4.932748e+01
-1.638515e+09 -1.438518e+09 -1.598515e+09 -1.225159e+01 7.431838e+00 -1.706770e+02
-1.711596e+09 -1.511601e+09 -1.671596e+09 -1.984141e+02 -2.255654e+00 -1.077620e+02
-3.936467e+09 -3.736466e+09 -3.896466e+09 -3.142248e+02 -5.305069e+01 -7.703902e+01
-3.418086e+09 -3.218088e+09 -3.378085e+09 5.877150e+02 1.201841e+02 -3.558326e+01
-2.322837e+09 -2.122839e+09 -2.282835e+09 5.438378e+02 6.330500e+01 5.144906e+01
-2.554432e+09 -2.354438e+09 -2.514433e+09 -2.828834e+02 2.887946e+01 7.917791e+01
-2.981262e+09 -2.781268e+09 -2.941263e+09 -6.479142e+02 1.104347e+02 -6.277055e+01
-3.451499e+09 -3.251504e+09 -3.411500e+09 -4.522427e+02 9.273960e+01 -6.259178e+00
-1.767299e+09 -1.567302e+09 -1.727298e+09 1.535397e+03 4.293527e+02 -7.344458e+01
-2.119945e+09 -1.919944e+09 -2.079942e+09 1.042395e+03 3.101609e+02 -1.370976e+02
-4.993962e+09 -4.793958e+09 -4.953961e+09 4.026413e+02 3.393228e+02 -6.262145e+01
-1.967120e+09 -1.767122e+09 -1.927119e+09 1.399168e+02 -3.861610e+00 -8.748790e+01
-3.027164e+09 -2.827164e+09 -2.987163e+09 7.418932e+01 -2.427300e+02 -3.321596e+00
-1.888616e+09 -1.688621e+09 -1.848616e+09 2.941312e+01 -2.274912e+02 1.108830e+02
-1.590586e+09 -1.390590e+09 -1.550586e+09 7.096007e+02 -4.308235e+02 1.528675e+02
-2.272805e+09 -2.072808e+09 -2.232805e+09 1.168046e+03 -9.439784e+02 1.569014e+02
-1.752951e+09 -1.552953e+09 -1.712950e+09 1.270805e+03 1.867647e+02 -4.562429e+01
-2.049816e+09 -1.849819e+09 -2.009816e+09 5.806890e+02 -2.055762e+02 5.059191e+01
-3.535836e+09 -3.335837e+09 -3.495836e+09 1.188693e+03 -4.963374e+02 4.062557e+02
-2.576659e+09 -2.376659e+09 -2.536658e+09 1.064776e+03 -9.538559e+02 4.274977e+02
-1.936324e+09 -1.736325e+09 -1.896322e+09 8.632387e+02 2.066457e+02 4.089495e+01
-4.820870e+09 -4.620865e+09 -4.780872e+09 5.296045e+02 -9.243808e+01 -5.486896e+01
-2.183372e+09 -1.983368e+09 -2.143371e+09 -1.722744e+02 -1.316641e+03 -2.551540e+02
-2.970132e+09 -2.770132e+09 -2.930131e+09 5.545898e+02 -5.048727e+02 2.172347e+02
-1.918091e+09 -1.718091e+09 -1.878090e+09 2.405818e+02 -2.592283e+02 -5.748424e+01
-3.817982e+09 -3.617978e+09 -3.777982e+09 -5.414144e+02 -8.384242e+02 -4.195786e+02
-2.190000e+09 -1.989996e+09 -2.149997e+09 -2.877767e+02 -1.007950e+03 -9.121430e+01
-1.691081e+09 -1.491089e+09 -1.651083e+09 4.817348e+02 -3.439303e+02 1.241123e+02
-2.971162e+09 -2.771167e+09 -2.931165e+09 1.904905e+03 -2.150987e+03 9.589419e+02
-3.622177e+09 -3.422173e+09 -3.582175e+09 -2.079073e+02 -5.440002e+02 -5.942621e+01
-1.907268e+09 -1.707274e+09 -1.867269e+09 7.216208e+02 -5.767228e+02 8.339127e+01
-2.206450e+09 -2.006455e+09 -2.166451e+09 1.808383e+02 -9.327535e+01 1.148741e+02
-2.693748e+09 -2.493753e+09 -2.653749e+09 1.221014e+02 -1.745393e+02 -3.773834e+01
-1.638515e+09 -1.438519e+09 -1.598515e+09 5.618544e+02 1.192913e+02 7.236334e+01
-3.823719e+09 -3.623720e+09 -3.783719e+09 6.487107e+02 -2.409238e+02 1.654986e+02
-3.033289e+09 -2.833297e+09 -2.993292e+09 5.127330e+02 -1.356722e+03 1.138578e+02
-2.168012e+09 -1.968021e+09 -2.128014e+09 3.306053e+02 -9.302196e+02 1.052448e+02
-2.258740e+09 -2.058737e+09 -2.218738e+09 -4.398380e+02 -5.815082e+02 -9.530796e+01
-1.899758e+09 -1.699766e+09 -1.859759e+09 5.343462e+02 -7.624320e+02 1.038971e+02
-2.935074e+09 -2.735070e+09 -2.895071e+09 -3.349194e+02 -6.929296e+02 -1.962752e+02
-3.428829e+09 -3.228827e+09 -3.388828e+09 -9.220557e+02 -6.894999e+02 -2.261190e+02
-2.955855e+09 -2.755854e+09 -2.915853e+09 -2.204753e+02 3.523580e+01 -7.351946e+01
-3.238949e+09 -3.038947e+09 -3.198949e+09 -1.557531e+03 -1.314291e+03 -3.879344e+02
-4.130551e+09 -3.930549e+09 -4.090550e+09 -7.803436e+01 -8.189484e-01 -2.901023e+01
-3.410854e+09 -3.210853e+09 -3.370854e+09 -1.667378e+02 -8.210835e+00 -1.325801e+01
-1.579309e+09 -1.379308e+09 -1.539308e+09 -4.310939e+01 7.928543e+01 -1.176424e+02
-3.444116e+09 -3.244114e+09 -3.404115e+09 -1.705846e+02 -2.443774e+01 -5.567551e+01
-3.040418e+09 -2.840417e+09 -3.000417e+09 -3.953217e+01 -1.272198e+00 -4.451989e+00
-3.975386e+09 -3.775385e+09 -3.935385e+09 -3.058329e+01 -1.436028e+01 -2.156637e+01
-4.985268e+09 -4.785267e+09 -4.945267e+09 7.834296e+01 -1.646457e+01 1.141141e+01
-4.622572e+09 -4.422571e+09 -4.582572e+09 -1.764873e+02 -1.251782e+01 -2.789898e+01
-3.823684e+09 -3.623683e+09 -3.783683e+09 -1.916238e+02 -1.404089e+01 -2.320628e+01
-3.237944e+09 -3.037952e+09 -3.197949e+09 -2.156786e+03 -3.123344e+03 -8.831996e+02
-2.964624e+09 -2.764633e+09 -2.924630e+09 4.703436e+02 -3.167357e+03 4.080939e+02
-3.892274e+09 -3.692272e+09 -3.852273e+09 -4.919710e+01 -5.807153e+00 -1.993444e+01
-3.791213e+09 -3.591211e+09 -3.751212e+09 -8.657599e+01 -1.379717e+01 -2.875578e+01
-1.586402e+09 -1.386401e+09 -1.546401e+09 -1.928467e+02 -3.771085e+01 -8.714074e+01
-3.869323e+09 -3.669321e+09 -3.829322e+09 -3.110042e+01 -3.840507e+00 -6.490485e+00
-4.651386e+09 -4.451385e+09 -4.611385e+09 -1.919038e+02 -1.873260e+01 -1.549970e+01
-2.967064e+09 -2.767070e+09 -2.927065e+09 -3.065798e+02 1.472612e+02 -2.534127e+01
-4.279412e+09 -4.079419e+09 -4.239413e+09 2.789118e+02 4.038077e+01 -8.892954e+00
-1.849011e+09 -1.649016e+09 -1.809011e+09 -7.002323e+01 2.409993e+01 -6.624617e+01
-3.319245e+09 -3.119244e+09 -3.279245e+09 -2.077650e+02 -1.276747e+01 -2.178338e+00
-3.530602e+09 -3.330601e+09 -3.490601e+09 -1.571957e+02 -2.599457e+00 -2.031433e+01
-1.961712e+09 -1.761717e+09 -1.921713e+09 -1.143120e+02 -2.989334e+01 -8.375087e+01
-2.265076e+09 -2.065078e+09 -2.225077e+09 5.146590e+01 2.057456e+00 -6.555641e+00
-4.133045e+09 -3.933045e+09 -4.093045e+09 5.413824e+02 3.737057e+01 5.330097e+00
-2.959581e+09 -2.759580e+09 -2.919580e+09 -1.209961e+02 -2.029168e+02 3.067421e+01
-3.850778e+09 -3.650777e+09 -3.810777e+09 -1.707080e+02 -2.713357e+01 -6.400921e+01
-1.907397e+09 -1.707396e+09 -1.867396e+09 -3.997345e+01 -8.658572e+01 -9.171742e+01
-3.213453e+09 -3.013457e+09 -3.173453e+09 2.421805e+02 1.260259e+01 -9.717688e+00
-3.187746e+09 -2.987751e+09 -3.147746e+09 2.196412e+02 -8.374384e+00 3.526884e+01
-3.600285e+09 -3.400289e+09 -3.560284e+09 2.471424e+02 -9.895410e+01 2.655946e+01
-3.822235e+09 -3.622240e+09 -3.782235e+09 6.113584e+02 -1.834742e+01 -3.244894e+01
-4.130547e+09 -3.930552e+09 -4.090547e+09 1.040474e+02 6.555431e+01 3.464276e+00
-1.608777e+09 -1.408787e+09 -1.568788e+09 1.179404e+03 5.448436e+02 3.692640e+03
-1.690596e+09 -1.490599e+09 -1.650604e+09 4.633029e+03 1.576848e+03 1.440345e+03
-3.051279e+09 -2.851282e+09 -3.011278e+09 8.993280e+02 5.774571e+01 -3.500163e+00
-4.088861e+09 -3.888866e+09 -4.048861e+09 7.952330e+02 1.899162e+02 -5.848712e+01
-3.210392e+09 -3.010396e+09 -3.170391e+09 2.793794e+02 6.670886e+00 3.197838e+01
-4.074139e+09 -3.874144e+09 -4.034139e+09 6.875961e+02 -1.840710e+01 7.009167e+01
-1.745772e+09 -1.545776e+09 -1.705772e+09 5.399017e+02 5.090829e+01 5.258999e+01
-4.168612e+09 -3.968615e+09 -4.128611e+09 1.907706e+02 1.579286e+01 1.964811e+01
-4.990946e+09 -4.790950e+09 -4.950945e+09 7.795128e+02 2.759118e+01 3.202182e+01
-4.832112e+09 -4.632112e+09 -4.792113e+09 -2.131344e+02 -1.568696e+01 5.073820e+01
-2.959605e+09 -2.759604e+09 -2.919604e+09 -9.272175e+01 3.169973e+01 -5.876720e+01
-1.666807e+09 -1.466807e+09 -1.626806e+09 -1.207978e+02 -4.720608e+00 -1.067488e+02
-1.638525e+09 -1.438525e+09 -1.598524e+09 1.929762e+01 1.167587e+01 -1.344839e+02
-4.468889e+09 -4.268888e+09 -4.428889e+09 -8.842017e+01 -1.874820e+01 1.624723e+01
-3.124946e+09 -2.924946e+09 -3.084946e+09 -1.850902e+02 4.875318e-01 5.254620e+00
-1.590669e+09 -1.390668e+09 -1.550668e+09 1.252954e+01 6.126559e+01 -1.050345e+02
-1.857700e+09 -1.657700e+09 -1.817699e+09 -6.947347e+01 1.761664e+01 -9.029839e+01
-3.899842e+09 -3.699846e+09 -3.859846e+09 -1.551629e+03 -1.358679e+03 -2.782020e+02
-3.085797e+09 -2.885796e+09 -3.045797e+09 -6.359858e+01 -4.199752e+00 -3.230190e+01
-1.657705e+09 -1.457715e+09 -1.617708e+09 -1.124069e+02 -5.184468e+02 2.862329e+01
-3.260605e+09 -3.060612e+09 -3.220608e+09 -1.178067e+03 -1.592074e+03 -3.686769e+02
-3.767601e+09 -3.567601e+09 -3.727601e+09 -5.554978e+01 -2.205149e+01 2.542813e+01
-2.067751e+09 -1.867751e+09 -2.027751e+09 -5.844974e+01 1.203914e+01 1.363877e+01
-1.911091e+09 -1.711090e+09 -1.871091e+09 -1.979725e+02 -2.684765e+01 -1.393833e+01
-1.906803e+09 -1.706812e+09 -1.866805e+09 1.101818e+01 -3.213097e+02 -2.584027e+01
-1.590645e+09 -1.390651e+09 -1.550645e+09 2.420295e+02 1.010372e+02 -3.127999e+01
-4.821016e+09 -4.621022e+09 -4.781017e+09 3.168294e+02 -9.019019e+01 1.230933e+01
-3.492188e+09 -3.292195e+09 -3.452189e+09 -1.831864e+02 1.542204e+02 -1.466445e+01
-3.443778e+09 -3.243777e+09 -3.403778e+09 -1.380914e+02 4.823615e+00 -3.146599e+00
-1.938841e+09 -1.738847e+09 -1.898842e+09 6.907647e+01 4.380326e+01 -2.877062e+01
-1.638547e+09 -1.438552e+09 -1.598548e+09 8.175359e+00 3.187917e+01 -8.910642e+01
-4.064226e+09 -3.864226e+09 -4.024226e+09 1.614652e+02 9.604879e+00 -2.369394e+01
-2.964263e+09 -2.764261e+09 -2.924262e+09 -2.896050e+02 -1.204807e+02 -8.768460e+00
-3.435119e+09 -3.235118e+09 -3.395118e+09 -1.109331e+02 -3.307154e+01 -3.067929e+01
-2.029493e+09 -1.829493e+09 -1.989493e+09 -2.833181e+02 -2.129888e+01 -3.314489e+01
-1.591400e+09 -1.391400e+09 -1.551400e+09 -2.631544e+02 -4.166926e+01 5.977238e+00
-3.807308e+09 -3.607306e+09 -3.767307e+09 -2.136242e+02 -1.936153e+01 -7.348332e+01
-2.111733e+09 -1.911732e+09 -2.071732e+09 -1.707601e+01 -4.105124e-01 -2.411909e+00
-4.669023e+09 -4.469020e+09 -4.629022e+09 1.575377e+03 3.936876e+02 -6.618739e+01
-2.976821e+09 -2.776820e+09 -2.936820e+09 -2.795394e+02 -3.096572e+01 8.192344e-01
-1.729227e+09 -1.529227e+09 -1.689227e+09 -2.491309e+02 -4.097459e+01 -1.762164e+01
-4.131832e+09 -3.931831e+09 -4.091831e+09 -1.356759e+03 1.023254e+02 -8.757098e+01
-3.869098e+09 -3.669097e+09 -3.829097e+09 6.990739e+01 1.700622e+01 -6.086861e+00
-3.961451e+09 -3.761450e+09 -3.921450e+09 -6.500248e+02 1.213666e+02 -2.850457e+01
-3.961486e+09 -3.761485e+09 -3.921485e+09 -6.189309e+02 9.507395e+01 -5.300334e+01
-1.590965e+09 -1.390971e+09 -1.550966e+09 -1.752233e+03 -1.314487e+03 -3.379484e+02
-4.765256e+09 -4.565255e+09 -4.725256e+09 3.472913e+01 1.527130e+00 -2.474085e+01
-3.432955e+09 -3.232955e+09 -3.392955e+09 -1.349529e+03 -4.985681e+02 -2.732109e+02
-2.884509e+09 -2.684507e+09 -2.844508e+09 2.968726e+01 -4.227679e+00 -1.676643e+00
-3.257927e+09 -3.057926e+09 -3.217926e+09 1.326280e+01 9.954611e+00 -2.589227e+01
-2.258841e+09 -2.058840e+09 -2.218840e+09 9.143245e+01 5.186681e+00 -5.236770e+01
-1.716751e+09 -1.516750e+09 -1.676750e+09 -7.941881e+01 8.307134e+00 -9.669424e+01
-4.025553e+09 -3.825555e+09 -3.985554e+09 -1.052131e+03 -6.936345e+02 -2.733976e+02
-1.919005e+09 -1.719004e+09 -1.879004e+09 -1.674252e+01 1.758426e+01 -7.730531e+01
-1.590569e+09 -1.390568e+09 -1.550568e+09 5.674735e+01 4.680952e+01 -9.636730e+01
-1.638791e+09 -1.438801e+09 -1.598793e+09 -8.586678e+01 -4.456081e+02 5.382386e+01
-3.401640e+09 -3.201640e+09 -3.361640e+09 -1.474698e+03 -1.191784e+03 -4.425690e+02
-3.782919e+09 -3.582927e+09 -3.742923e+09 4.526987e+01 -9.221678e+02 8.042833e+01
-4.631880e+09 -4.431878e+09 -4.591878e+09 -3.474441e+02 -1.428225e+02 -1.502768e+01
-1.590298e+09 -1.390308e+09 -1.550300e+09 -6.882598e+02 -1.989586e+03 -4.573421e+01
-1.560743e+09 -1.360747e+09 -1.520743e+09 2.179102e+02 -3.064790e+01 9.193339e+01
-3.802937e+09 -3.602940e+09 -3.762938e+09 -7.440705e+02 -4.477289e+02 -1.603773e+02
-2.885491e+09 -2.685492e+09 -2.845491e+09 -1.346330e+03 -1.328318e+03 -4.056951e+02
-4.298710e+09 -4.098713e+09 -4.258714e+09 -1.840940e+03 -1.742537e+03 -2.991687e+02
-1.890930e+09 -1.690926e+09 -1.850928e+09 2.803749e+03 1.417627e+03 -1.102394e+03
-4.619559e+09 -4.419557e+09 -4.579558e+09 -1.685411e+03 -1.753367e+02 -2.629867e+02
-3.757853e+09 -3.557852e+09 -3.717852e+09 7.022265e+01 2.572598e+00 -2.152840e+01
-4.549717e+09 -4.349715e+09 -4.509716e+09 1.029150e+01 8.319220e+00 -9.634398e+00
-1.638549e+09 -1.438548e+09 -1.598548e+09 -8.347997e+01 -3.771945e+01 -1.367893e+02
-4.149681e+09 -3.949679e+09 -4.109680e+09 4.081564e+01 1.005242e+01 -7.407827e+00
-2.840223e+09 -2.640221e+09 -2.800222e+09 4.928419e+00 5.640288e+00 -1.083898e+01
-2.981472e+09 -2.781471e+09 -2.941471e+09 5.754536e+01 1.454259e+01 -3.737290e+01
-3.958522e+09 -3.758523e+09 -3.918521e+09 2.064287e+03 -2.464914e+02 -7.979092e+02
-1.902064e+09 -1.702062e+09 -1.862062e+09 3.391661e+01 9.498536e+00 -3.807517e+01
-1.589961e+09 -1.389962e+09 -1.549962e+09 1.992691e+02 4.521888e+01 2.355862e+01
-3.961514e+09 -3.761516e+09 -3.921516e+09 3.408119e+02 2.982156e+01 1.951182e+01
-4.997400e+09 -4.797399e+09 -4.957399e+09 6.319682e+01 -7.955816e+00 1.443939e+01
-4.626262e+09 -4.426260e+09 -4.586261e+09 4.361400e+01 7.355887e+00 -1.891985e+01
-4.647176e+09 -4.447177e+09 -4.607177e+09 1.202518e+03 3.876545e+01 6.778552e+01
-2.101337e+09 -1.901337e+09 -2.061337e+09 8.086278e+00 8.481646e+00 -1.685745e-01
-4.987330e+09 -4.787329e+09 -4.947329e+09 1.030561e+02 -2.228933e+00 1.877689e+01
-2.164141e+09 -1.964140e+09 -2.124140e+09 6.043067e+00 5.140372e+00 1.284135e+00
-4.435984e+09 -4.235987e+09 -4.395986e+09 -2.704856e+03 -6.684645e+01 4.720946e+02
-1.588956e+09 -1.388950e+09 -1.548953e+09 1.725084e+03 1.053611e+03 -1.281728e+03
-2.976581e+09 -2.776584e+09 -2.936585e+09 -1.499801e+03 -5.928370e+01 -5.895920e+01
-2.213333e+09 -2.013342e+09 -2.173341e+09 1.812126e+02 6.546355e+01 3.151589e+02
-2.208304e+09 -2.008309e+09 -2.168310e+09 3.075024e+02 6.051941e+01 5.862338e+01
-1.640361e+09 -1.440359e+09 -1.600359e+09 4.251648e+01 7.171721e+00 -4.051723e+01
-4.989632e+09 -4.789631e+09 -4.949631e+09 5.398024e+01 -1.149957e+01 -1.764207e-01
-4.973181e+09 -4.773180e+09 -4.933182e+09 -1.876015e+03 -5.149650e+01 -1.556451e+02
-2.221894e+09 -2.021895e+09 -2.181895e+09 2.427110e+01 3.391808e+00 -3.309516e+00
-4.990501e+09 -4.790504e+09 -4.950502e+09 -2.641451e+03 1.002817e+02 -4.515945e+01
-1.638609e+09 -1.438609e+09 -1.598609e+09 5.043233e+00 4.453827e+01 -3.841166e+00
-3.208928e+09 -3.008935e+09 -3.168931e+09 -3.171475e+03 -1.045152e+03 3.017530e+03
-3.137179e+09 -2.937181e+09 -3.097180e+09 2.445572e+02 2.740218e+01 4.015617e+01
-1.638514e+09 -1.438515e+09 -1.598515e+09 -1.810914e-01 1.399162e+01 5.840496e+00
-2.462029e+09 -2.262029e+09 -2.422031e+09 -2.134306e+03 -2.515715e+02 -2.575314e+02
-4.608876e+09 -4.408879e+09 -4.568875e+09 1.905845e+02 -5.521162e+00 -1.182229e+01
-4.636929e+09 -4.436931e+09 -4.596928e+09 2.247013e+01 9.947598e-05 -1.200078e+00
-4.089331e+09 -3.889334e+09 -4.049329e+09 1.144206e+02 -2.262865e+01 1.366958e+01
-1.638515e+09 -1.438518e+09 -1.598515e+09 5.416529e+01 -1.816176e+02 -8.294125e+01
-4.490334e+09 -4.290337e+09 -4.450333e+09 5.147755e+02 -2.024025e+00 -2.274797e+01
-3.937857e+09 -3.737859e+09 -3.897855e+09 5.029353e+01 2.972765e+01 -2.697634e+01
-1.903163e+09 -1.703165e+09 -1.863162e+09 1.931550e+02 3.342304e+01 2.217486e+01
-3.466639e+09 -3.266642e+09 -3.426638e+09 7.261070e+01 -2.331480e-01 2.033881e+01
-1.980387e+09 -1.780388e+09 -1.940386e+09 7.104096e+01 8.936213e+00 -1.160427e+02
-1.571788e+09 -1.371790e+09 -1.531787e+09 6.432072e+02 2.922469e+02 -9.923637e+01
-4.486468e+09 -4.286470e+09 -4.446467e+09 6.639489e+02 1.425578e+01 -1.590848e+01
-4.496613e+09 -4.296615e+09 -4.456611e+09 4.330117e+02 1.614209e+01 3.951173e+00
-3.449631e+09 -3.249633e+09 -3.409630e+09 8.803547e+02 8.099370e+01 -2.693011e+01
-4.993962e+09 -4.793958e+09 -4.953961e+09 1.146010e+03 -3.629255e+01 -6.167605e+01
-3.873036e+09 -3.673039e+09 -3.833035e+09 8.102352e+02 8.738314e+01 -2.847582e+01
-2.896736e+09 -2.696735e+09 -2.856735e+09 -2.967850e+01 -1.247653e+01 -9.618050e+00
-2.207893e+09 -2.007898e+09 -2.167893e+09 -3.908338e+01 3.314388e+01 -5.409279e+01
-1.997258e+09 -1.797257e+09 -1.957258e+09 -2.064728e+01 -1.183382e+01 4.950671e+00
-2.611704e+09 -2.411703e+09 -2.571703e+09 4.868633e+01 -8.663488e+00 -1.936474e+00
-4.770515e+09 -4.570523e+09 -4.730519e+09 -1.924962e+02 -1.773547e+02 -1.304122e+02
-4.626015e+09 -4.426014e+09 -4.586015e+09 -5.483890e+01 -6.057043e+00 -2.468757e+00
-1.812435e+09 -1.612434e+09 -1.772434e+09 -9.036122e+01 -1.862094e+01 -5.907618e+00
-2.167144e+09 -1.967144e+09 -2.127143e+09 1.566413e+01 -3.231179e+00 -5.072589e+01
-2.727866e+09 -2.527865e+09 -2.687866e+09 -9.377382e+01 -1.041849e+01 -1.403547e+01
-4.935515e+09 -4.735514e+09 -4.895514e+09 -3.024990e+00 -5.219853e+00 2.819617e-10
-4.087026e+09 -3.887025e+09 -4.047025e+09 -2.253701e+02 -8.704870e+00 -1.721412e+01
-4.495282e+09 -4.295281e+09 -4.455281e+09 -1.303283e+02 -3.781878e+00 -1.682885e+00
-3.013802e+09 -2.813801e+09 -2.973802e+09 -2.068343e+02 -5.516171e+00 -1.135751e+01
-1.638523e+09 -1.438530e+09 -1.598525e+09 8.441037e+01 -2.999425e+02 1.824248e+01
-2.157005e+09 -1.957014e+09 -2.117007e+09 5.239194e+01 -2.669145e+02 8.580356e+01
-3.508275e+09 -3.308274e+09 -3.468275e+09 -2.099496e+02 -4.844965e+00 -8.466090e+00
-4.629267e+09 -4.429266e+09 -4.589266e+09 -2.097005e+02 -1.713102e+01 -1.533730e+01
-1.638550e+09 -1.438550e+09 -1.598549e+09 3.079316e+01 9.394425e+00 -1.048945e+02
-2.217331e+09 -2.017331e+09 -2.177330e+09 8.474508e+00 -1.070585e+00 -4.628456e+01
-4.771331e+09 -4.571330e+09 -4.731330e+09 1.108879e+01 1.879683e+01 -5.167902e+00
-1.881262e+09 -1.681261e+09 -1.841261e+09 1.050523e+02 8.784214e+00 -2.199262e+01
-4.632032e+09 -4.432031e+09 -4.592031e+09 1.085887e+02 -1.037510e+00 -1.992932e+01
-4.095701e+09 -3.895700e+09 -4.055700e+09 3.913037e+01 -8.944134e-01 2.892364e+00
-1.734103e+09 -1.534102e+09 -1.694102e+09 3.556048e+01 1.204772e+01 -1.915721e+01
-3.666902e+09 -3.466901e+09 -3.626901e+09 2.342495e+01 1.169800e+00 -1.204115e+01
-4.452940e+09 -4.252939e+09 -4.412939e+09 3.684968e+01 5.878583e+00 -2.369692e+00
-3.400507e+09 -3.200506e+09 -3.360506e+09 4.995640e+01 -5.660656e+00 -1.135220e+00
-4.989086e+09 -4.789084e+09 -4.949085e+09 5.340461e+01 -4.493678e+00 3.659391e+00
-4.485995e+09 -4.285994e+09 -4.445994e+09 4.196496e+01 3.160352e+00 -8.114766e+00
-3.894096e+09 -3.694095e+09 -3.854095e+09 7.975047e+01 1.516657e+01 -2.941950e+01
-4.027404e+09 -3.827415e+09 -3.987405e+09 -1.393733e+03 -1.053792e+03 3.015444e+03
-1.700429e+09 -1.500433e+09 -1.660435e+09 1.555666e+03 3.663521e+01 2.812824e+02
-2.622944e+09 -2.422953e+09 -2.582954e+09 3.874084e+03 2.141337e+03 3.056491e+03
-3.846050e+09 -3.646062e+09 -3.806057e+09 -1.346211e+02 -1.253150e+02 1.333073e+03
-2.061285e+09 -1.861281e+09 -2.021284e+09 3.771083e+02 7.960568e+02 -1.697324e+02
-4.054856e+09 -3.854865e+09 -4.014862e+09 1.469439e+03 6.256551e+01 1.188629e+03
-2.421701e+09 -2.221696e+09 -2.381701e+09 -6.786367e+02 -1.699133e+03 -1.675738e+03
-4.990463e+09 -4.790475e+09 -4.950466e+09 3.661859e+02 -1.296281e+02 1.793457e+02
-1.638548e+09 -1.438557e+09 -1.598550e+09 5.552200e+01 -3.800895e+02 3.784944e+01
-2.158285e+09 -1.958295e+09 -2.118288e+09 -3.597987e+01 -2.708360e+02 1.526207e-01
-4.993042e+09 -4.793052e+09 -4.953044e+09 1.677978e+03 6.947098e+01 5.806072e+02
-4.650795e+09 -4.450796e+09 -4.610798e+09 2.874598e+03 3.642045e+02 -1.749353e+02
-4.993041e+09 -4.793049e+09 -4.953043e+09 2.304105e+03 -1.373369e+02 5.458933e+02
-3.177123e+09 -2.977131e+09 -3.137129e+09 1.733842e+03 1.823642e+02 7.211292e+02
-2.211846e+09 -2.011851e+09 -2.171846e+09 -4.174438e+01 2.665161e+01 -3.989034e+01
-1.638520e+09 -1.438524e+09 -1.598520e+09 -1.188708e+01 2.189944e+01 -1.431687e+02
-2.856289e+09 -2.656303e+09 -2.816295e+09 -1.417418e+03 -9.839624e+02 5.463454e+03
-3.361644e+09 -3.161656e+09 -3.321647e+09 -5.854938e+02 -2.174222e+02 5.063263e+03
-3.827911e+09 -3.627922e+09 -3.787918e+09 1.558169e+03 6.551499e+02 1.152685e+03
-2.234731e+09 -2.034731e+09 -2.194730e+09 -1.645656e+01 2.503189e+00 -8.286666e+01
-5.009959e+09 -4.809968e+09 -4.969965e+09 1.831615e+03 -3.418521e+02 5.789873e+02
-3.393302e+09 -3.193305e+09 -3.353301e+09 4.988717e+02 1.151773e+01 1.168807e-02
-2.696256e+09 -2.496259e+09 -2.656255e+09 4.337841e+01 1.185136e+01 5.243232e+01
-3.813891e+09 -3.613890e+09 -3.773891e+09 -4.492435e+00 2.492694e+00 -1.965832e+00
-4.165794e+09 -3.965798e+09 -4.125793e+09 2.411920e+02 -5.077925e+00 4.961892e-01
-3.801177e+09 -3.601180e+09 -3.761176e+09 5.353280e+01 1.802649e+01 -9.907222e+00
-4.997116e+09 -4.797118e+09 -4.957115e+09 7.402270e+02 1.928041e+01 1.699866e+01
-2.706413e+09 -2.506416e+09 -2.666412e+09 1.094534e+02 1.899473e+01 -8.286289e-01
-2.634595e+09 -2.434598e+09 -2.594594e+09 5.896050e+01 -1.578709e+01 2.456952e+01
-5.000982e+09 -4.800985e+09 -4.960981e+09 2.926642e+02 -9.053657e+00 -1.803850e+01
-4.551179e+09 -4.351181e+09 -4.511179e+09 -4.161150e+02 -2.194803e+02 -1.088185e+01
-2.049736e+09 -1.849735e+09 -2.009736e+09 -1.017196e+02 -6.786339e+00 -1.343630e+01
-3.725960e+09 -3.525959e+09 -3.685959e+09 -6.311453e+00 -8.804122e-01 2.437162e+00
-1.638519e+09 -1.438520e+09 -1.598520e+09 4.721833e+00 2.568210e+01 4.480802e+00
-1.638547e+09 -1.438548e+09 -1.598548e+09 8.300201e+00 3.459107e+01 9.790178e-01
-1.728186e+09 -1.528185e+09 -1.688185e+09 -9.340248e+01 -1.677890e+01 -2.905990e+01
-1.743618e+09 -1.543617e+09 -1.703617e+09 -8.305434e+01 -1.048687e+01 -3.932115e+01
-2.696057e+09 -2.496056e+09 -2.656056e+09 4.402247e-01 1.265785e+01 -3.999370e+00
-2.460389e+09 -2.260388e+09 -2.420388e+09 3.979825e+01 3.585139e+00 4.263640e+00
-2.471854e+09 -2.271853e+09 -2.431853e+09 2.515743e+01 6.113694e+00 1.738303e+01
-4.361392e+09 -4.161390e+09 -4.321391e+09 8.091625e+00 2.744418e+00 -1.504873e+00
-3.085532e+09 -2.885531e+09 -3.045531e+09 3.390805e+01 4.669900e-01 -1.108578e+01
-1.641940e+09 -1.441939e+09 -1.601939e+09 6.682411e+01 2.103727e+01 -1.824968e+01
-1.638512e+09 -1.438519e+09 -1.598519e+09 3.920222e+00 2.016366e+02 5.771205e+02
-2.205546e+09 -2.005545e+09 -2.165545e+09 -6.426902e+01 -6.024141e+00 -9.864069e+01
-3.973312e+09 -3.773311e+09 -3.933311e+09 4.280143e+01 5.328207e+00 -1.059966e+01
-3.384048e+09 -3.184047e+09 -3.344047e+09 9.088092e+01 -2.352300e-01 1.190995e+01
-4.998251e+09 -4.798250e+09 -4.958251e+09 5.303149e+01 -6.531344e+00 8.821182e+00
-2.161277e+09 -1.961283e+09 -2.121278e+09 -1.046985e+00 2.371331e+01 -4.112197e+01
-4.356966e+09 -4.156966e+09 -4.316966e+09 6.450846e+01 2.566883e+01 8.661821e+00
-1.638530e+09 -1.438535e+09 -1.598531e+09 -9.210357e+00 3.095439e+01 -1.192273e+02
-2.910163e+09 -2.710162e+09 -2.870162e+09 7.472273e+01 1.242241e+01 -1.553253e+01
-2.190801e+09 -1.990800e+09 -2.150799e+09 2.836919e+03 1.441672e+03 -5.470504e+02
-2.186250e+09 -1.986249e+09 -2.146249e+09 6.512325e+01 7.802637e+00 -1.942816e+00
-2.238244e+09 -2.038252e+09 -2.198246e+09 -1.826070e+02 -1.034635e+02 -7.370372e+01
-4.822308e+09 -4.622308e+09 -4.782308e+09 1.026998e+02 1.660204e+00 3.014985e+01
-4.662047e+09 -4.462046e+09 -4.622046e+09 7.810018e+01 1.120950e+01 -1.314520e+01
-3.202941e+09 -3.002940e+09 -3.162940e+09 5.258499e+01 -7.986436e+00 -1.277289e+01
-4.827771e+09 -4.627770e+09 -4.787770e+09 9.462528e+01 -7.950616e-02 1.107384e+01
-4.644050e+09 -4.444049e+09 -4.604049e+09 5.249689e+01 1.241312e+01 -1.115172e+01
-4.758007e+09 -4.558006e+09 -4.718006e+09 2.708870e+01 1.573859e+00 2.112397e+01
-2.160093e+09 -1.960092e+09 -2.120092e+09 2.699092e+01 -2.340794e-01 -4.086240e+01
-4.272689e+09 -4.072688e+09 -4.232689e+09 1.135329e+02 -1.940717e+00 1.090420e+00
-4.139903e+09 -3.939902e+09 -4.099902e+09 2.160494e+00 3.919403e+00 -2.620731e+01
-4.652669e+09 -4.452668e+09 -4.612668e+09 7.715586e+01 1.128388e+01 -1.201076e+01
-4.162280e+09 -3.962280e+09 -4.122280e+09 2.521949e+02 6.900320e+00 1.782443e+01
-2.493125e+09 -2.293126e+09 -2.453123e+09 2.616301e+02 2.425475e+02 -8.615724e+01
-3.423929e+09 -3.223930e+09 -3.383927e+09 3.004566e+02 1.115928e+02 5.440068e+00
-3.506534e+09 -3.306536e+09 -3.466533e+09 1.304274e+03 2.911075e+02 -1.114859e+02
-2.160632e+09 -1.960630e+09 -2.120630e+09 -6.696469e+01 -7.018976e+00 -9.932662e+01
-2.854115e+09 -2.654117e+09 -2.814113e+09 8.050054e+02 1.429693e+02 -5.823061e+01
-4.138554e+09 -3.938555e+09 -4.098552e+09 2.058325e+02 -7.402021e+00 -4.746194e+01
-4.860566e+09 -4.660566e+09 -4.820564e+09 3.473216e+02 1.733123e+01 5.969380e+00
-2.996781e+09 -2.796783e+09 -2.956780e+09 1.058155e+03 1.343098e+02 1.216375e+01
-3.904588e+09 -3.704591e+09 -3.864587e+09 9.807418e+02 9.647052e+01 9.744567e+00
-1.638530e+09 -1.438531e+09 -1.598531e+09 7.266820e+00 3.268343e+01 3.324923e+00
-3.310862e+09 -3.110863e+09 -3.270860e+09 1.329017e+03 3.141570e+02 -2.702576e+01
-4.992117e+09 -4.792119e+09 -4.952116e+09 5.645529e+02 -6.032116e+00 -1.107486e+01
-4.640663e+09 -4.440667e+09 -4.600663e+09 1.079166e+03 4.513611e+01 5.781748e+01
-2.074551e+09 -1.874552e+09 -2.034552e+09 -2.719943e+02 -3.198853e+01 6.231881e+01
-2.237030e+09 -2.037035e+09 -2.197030e+09 3.163645e+01 1.773672e+01 -3.505253e+01
-4.518498e+09 -4.318498e+09 -4.478498e+09 -1.151890e+02 -1.369244e+01 6.850115e+00
-1.591400e+09 -1.391400e+09 -1.551400e+09 -1.704393e+02 -1.684270e+01 -5.070745e+01
-4.772300e+09 -4.572299e+09 -4.732300e+09 -6.522822e+01 -4.007713e+00 3.284214e+01
-3.727402e+09 -3.527402e+09 -3.687402e+09 -4.987343e+01 -1.724369e+01 -2.144652e+01
-4.138564e+09 -3.938563e+09 -4.098564e+09 -1.626020e+01 -9.763518e+00 -2.594567e+01
-1.616207e+09 -1.416213e+09 -1.576214e+09 -9.915673e+01 -2.141033e+02 1.521059e+02
-4.114308e+09 -3.914307e+09 -4.074308e+09 -1.584652e+02 -9.954537e+00 -2.289238e+01
-2.038945e+09 -1.838955e+09 -1.998954e+09 -4.013557e+01 -1.528103e+02 4.332900e+02
-2.696209e+09 -2.496208e+09 -2.656208e+09 -2.304207e+01 -5.344335e+00 -1.199399e+01
-2.211827e+09 -2.011826e+09 -2.171826e+09 -7.736302e+01 -4.162224e+00 -9.335903e+01
-1.629963e+09 -1.429962e+09 -1.589962e+09 -1.929147e+02 -2.446947e+01 -1.288966e+01
-3.204662e+09 -3.004661e+09 -3.164662e+09 -1.516695e+01 -5.229054e+00 -7.010694e+00
-1.638574e+09 -1.438573e+09 -1.598573e+09 -9.315901e+01 -2.777391e+01 -1.258793e+02
-3.897903e+09 -3.697902e+09 -3.857903e+09 -2.207133e+02 -2.397718e+01 -1.328104e+01
-2.500548e+09 -2.300549e+09 -2.460547e+09 -1.436201e+03 -1.141573e+03 -4.018565e+02
-2.757650e+09 -2.557652e+09 -2.717650e+09 -1.368131e+02 -1.647819e+02 -4.279442e+01
-4.991280e+09 -4.791281e+09 -4.951280e+09 -2.172736e+03 -9.692094e+00 7.355786e+01
-5.005561e+09 -4.805569e+09 -4.965566e+09 -5.718922e+02 -2.794672e+02 2.876277e+01
-1.638573e+09 -1.438573e+09 -1.598573e+09 5.349321e+00 3.776030e+01 -2.418298e+00
-3.877813e+09 -3.677818e+09 -3.837816e+09 -7.844574e+02 -5.394525e+02 -2.021762e+02
-3.402114e+09 -3.202111e+09 -3.362112e+09 -4.206060e+02 -2.617248e+02 -1.283430e+02
-2.217233e+09 -2.017238e+09 -2.177233e+09 7.493890e+01 1.803991e+01 -2.929514e+01
-3.368777e+09 -3.168774e+09 -3.328775e+09 -6.403121e+02 -6.195359e+02 -1.095159e+02
-4.999539e+09 -4.799540e+09 -4.959540e+09 -1.312734e+03 -7.296793e+01 -1.266095e+02
-4.498130e+09 -4.298128e+09 -4.458129e+09 -9.307225e+02 -2.855938e+02 -1.497928e+02
-4.991059e+09 -4.791059e+09 -4.951060e+09 -1.488952e+03 -1.443311e+02 -9.555553e+01
-4.653397e+09 -4.453397e+09 -4.613397e+09 -1.011437e+03 -2.794394e+02 -1.353564e+01
-3.904755e+09 -3.704754e+09 -3.864754e+09 3.848969e+01 1.498606e-01 -1.831888e+01
-4.982657e+09 -4.782656e+09 -4.942656e+09 5.849096e+01 2.454739e+01 1.252907e+01
-3.892859e+09 -3.692858e+09 -3.852859e+09 -1.342555e+03 -7.461132e+02 -2.173313e+02
-2.096843e+09 -1.896839e+09 -2.056842e+09 -1.874818e+03 -1.536402e+03 -1.102220e+03
-2.481718e+09 -2.281717e+09 -2.441716e+09 -4.671259e+02 -4.398661e+02 -1.197354e+02
-4.991141e+09 -4.791140e+09 -4.951140e+09 -3.075611e+02 -1.489877e+01 4.988474e-01
-3.962611e+09 -3.762610e+09 -3.922610e+09 7.488749e+01 2.171088e+01 -4.758114e+01
-4.305716e+09 -4.105715e+09 -4.265715e+09 -2.310031e+02 8.208208e+01 -1.507337e+01
-4.821382e+09 -4.621380e+09 -4.781380e+09 4.588461e+01 1.923428e+01 1.183953e+01
-4.302591e+09 -4.102590e+09 -4.262590e+09 -1.276193e+02 2.002069e+01 -2.286666e+00
-4.997651e+09 -4.797648e+09 -4.957650e+09 -1.165937e+03 -2.055126e+02 -2.507391e+01
-4.135596e+09 -3.935591e+09 -4.095595e+09 -4.129463e+02 -6.513759e+02 -1.221392e+02
-3.217898e+09 -3.017894e+09 -3.177898e+09 -5.232347e+02 -1.409659e+03 -5.957819e+02
-4.768871e+09 -4.568870e+09 -4.728874e+09 6.057810e+02 -1.458588e+02 -5.407871e+02
-4.304966e+09 -4.104961e+09 -4.264967e+09 -1.063079e+03 -1.128121e+03 -7.945611e+02
-1.967327e+09 -1.767325e+09 -1.927326e+09 -6.135246e+01 -2.343132e+00 -3.723864e+01
-1.638609e+09 -1.438607e+09 -1.598610e+09 -4.082903e+02 -8.567090e+02 -1.625888e+02
-1.786762e+09 -1.586764e+09 -1.746766e+09 -9.881015e+01 -4.076679e+02 6.750815e+01
-3.682337e+09 -3.482348e+09 -3.642344e+09 1.469672e+02 -3.168883e+01 7.671430e+02
-3.379072e+09 -3.179083e+09 -3.339077e+09 1.318072e+03 5.361124e+02 3.005852e+03
-3.137530e+09 -2.937540e+09 -3.097538e+09 2.770408e+01 -2.457246e+02 3.039163e+02
-4.137165e+09 -3.937176e+09 -4.097171e+09 -4.420496e+00 -1.383862e+02 4.450481e+02
-3.044454e+09 -2.844462e+09 -3.004461e+09 8.704396e+02 -4.350627e+00 5.901624e+02
-2.944015e+09 -2.744022e+09 -2.904021e+09 -4.374144e+02 8.627284e+01 -7.754748e+01
-3.769058e+09 -3.569066e+09 -3.729061e+09 -3.280349e+03 -7.839184e+02 2.658004e+03
-2.247370e+09 -2.047370e+09 -2.207369e+09 -1.124239e+02 2.116655e+01 -8.673552e+01
-4.305974e+09 -4.105973e+09 -4.265973e+09 -9.370969e+01 1.280878e+01 3.881006e+00
-4.992532e+09 -4.792532e+09 -4.952531e+09 -1.307700e+02 -9.856279e+00 1.674293e+01
-3.234141e+09 -3.034140e+09 -3.194140e+09 -1.037990e+02 -1.841729e+01 -7.542163e+01
-1.638661e+09 -1.438661e+09 -1.598661e+09 2.532211e+00 3.977014e+01 -2.321098e+00
-1.638663e+09 -1.438659e+09 -1.598661e+09 -5.540343e+02 -1.099962e+03 -3.024146e+02
-3.475654e+09 -3.275654e+09 -3.435653e+09 -3.235951e+02 6.181009e+00 -1.156416e+01
-4.770312e+09 -4.570312e+09 -4.730311e+09 -8.208803e+01 -7.551284e+01 -1.826429e+01
-4.991832e+09 -4.791831e+09 -4.951831e+09 -1.766706e+02 1.535699e+01 2.780880e+01
-4.992539e+09 -4.792539e+09 -4.952538e+09 -2.045968e+02 6.501104e+01 2.000180e+01
-4.646863e+09 -4.446862e+09 -4.606862e+09 -3.259413e+02 -4.562889e+01 -5.946351e+01
-1.699223e+09 -1.499221e+09 -1.659225e+09 -4.189725e+03 -1.597626e+03 9.749346e+02
-1.688639e+09 -1.488633e+09 -1.648637e+09 1.986841e+03 1.502561e+03 -1.548826e+03
-1.600365e+09 -1.400361e+09 -1.560362e+09 2.021860e+03 1.772601e+03 -8.758982e+02
-3.494151e+09 -3.294146e+09 -3.454150e+09 2.081627e+03 1.472023e+03 -1.050647e+03
-1.893056e+09 -1.693062e+09 -1.853057e+09 4.728609e+02 7.711080e+01 4.268313e+01
-1.698109e+09 -1.498108e+09 -1.658108e+09 -1.883309e+01 3.843634e+00 -5.676788e+01
-2.975730e+09 -2.775729e+09 -2.935729e+09 6.880022e+01 1.651523e+01 -2.779858e+01
-2.101124e+09 -1.901117e+09 -2.061121e+09 1.828883e+03 1.288708e+03 -1.632779e+03
-1.890931e+09 -1.690929e+09 -1.850929e+09 3.235299e+03 1.836179e+03 -1.010629e+03
-1.882967e+09 -1.682963e+09 -1.842964e+09 9.635872e+02 8.028356e+02 -4.609691e+02
-1.639242e+09 -1.439249e+09 -1.599243e+09 -1.528900e+02 -3.960901e+02 -8.643653e+00
-3.960403e+09 -3.760406e+09 -3.920405e+09 -2.819360e+03 7.336180e+02 -6.124066e+02
-1.719224e+09 -1.519228e+09 -1.679224e+09 -7.544160e+02 -3.632002e+02 -1.228915e+02
-4.808279e+09 -4.608282e+09 -4.768279e+09 -2.392605e+03 2.572556e+02 -2.644509e+01
-4.813293e+09 -4.613283e+09 -4.773287e+09 2.649521e+03 2.523607e+02 8.223709e+02
-3.960434e+09 -3.760422e+09 -3.920408e+09 4.554700e+03 -8.601376e+03 -5.187194e+03
-4.291322e+09 -4.091313e+09 -4.251311e+09 2.834939e+03 -4.759610e+03 -9.676256e+02
-2.247512e+09 -2.047512e+09 -2.207510e+09 1.911010e+03 6.267209e+02 -2.060605e+02
-1.582763e+09 -1.382761e+09 -1.542761e+09 1.672915e+03 9.053412e+02 -2.671162e+02
-3.013875e+09 -2.813876e+09 -2.973875e+09 2.408138e+03 1.112075e+03 -3.202016e+02
-1.638610e+09 -1.438609e+09 -1.598609e+09 -9.383848e+01 -1.977671e+01 -1.147217e+02
-1.638662e+09 -1.438660e+09 -1.598661e+09 -8.766970e+01 -1.555598e+01 -9.116658e+01
-2.870048e+09 -2.670047e+09 -2.830047e+09 2.393784e+03 1.058533e+03 -5.459020e+02
-2.607564e+09 -2.407564e+09 -2.567563e+09 2.482474e+03 1.016981e+03 -2.712775e+02
-1.890802e+09 -1.690802e+09 -1.850800e+09 2.768061e+03 1.301252e+03 -6.095278e+02
-4.814766e+09 -4.614761e+09 -4.774765e+09 -1.274182e+03 2.565649e+02 4.368607e+02
-4.299409e+09 -4.099405e+09 -4.259409e+09 -2.375117e+03 9.600041e+02 8.236068e+02
-3.960628e+09 -3.760624e+09 -3.920629e+09 -2.840914e+03 1.412899e+03 1.564538e+03
-1.638609e+09 -1.438614e+09 -1.598609e+09 6.021923e+01 4.498080e+01 -3.145764e+01
-1.638661e+09 -1.438666e+09 -1.598661e+09 8.245507e+01 4.143533e+01 2.809152e+00
-1.590804e+09 -1.390801e+09 -1.550801e+09 1.969580e+03 1.409969e+03 -5.254780e+02
-4.137455e+09 -3.937450e+09 -4.097453e+09 5.218543e+02 3.717334e+02 -1.078930e+02
-2.093316e+09 -1.893313e+09 -2.053313e+09 2.741482e+03 1.158682e+03 -7.520401e+02
-1.638726e+09 -1.438724e+09 -1.598725e+09 -7.574589e+01 -1.292340e+01 -6.734888e+01
-2.102878e+09 -1.902873e+09 -2.062875e+09 2.700435e+03 1.486563e+03 -1.123414e+03
-4.816198e+09 -4.616199e+09 -4.776199e+09 -2.658786e+03 2.932226e+02 -8.633537e+01
-4.642658e+09 -4.442659e+09 -4.602659e+09 -3.032746e+03 2.275591e+02 4.412038e+01
-4.300155e+09 -4.100154e+09 -4.260155e+09 -3.616502e+03 6.703954e+02 -2.600498e+02
-4.130633e+09 -3.930630e+09 -4.090633e+09 -2.332284e+03 -5.345405e+01 7.022191e+02
-4.299818e+09 -4.099803e+09 -4.259824e+09 2.218230e+02 -1.872245e+03 -3.646760e+02
-1.638725e+09 -1.438724e+09 -1.598725e+09 -1.340190e+00 2.821051e+01 -3.707992e+00
-4.642463e+09 -4.442453e+09 -4.602437e+09 4.111231e+03 -5.263875e+03 -2.122267e+03
-4.299919e+09 -4.099906e+09 -4.259926e+09 1.584741e+03 1.380526e+03 3.062842e+03
-4.818016e+09 -4.618018e+09 -4.778017e+09 1.236742e+03 -1.700546e+02 -3.094965e+02
-3.961446e+09 -3.761450e+09 -3.921447e+09 1.118809e+03 1.234639e+01 -6.025054e+02
-4.818206e+09 -4.618209e+09 -4.778206e+09 1.383326e+03 -3.024750e+02 -5.247968e+02
-4.304319e+09 -4.104318e+09 -4.264318e+09 1.969919e+02 3.265946e+00 -4.689238e+01
-4.991094e+09 -4.791094e+09 -4.951094e+09 2.155518e+02 -6.607136e+00 -7.348341e+00
-1.638725e+09 -1.438730e+09 -1.598725e+09 9.534248e+01 3.769033e+01 1.609843e+01
-2.258765e+09 -2.058764e+09 -2.218764e+09 -3.672059e+02 -5.764467e+01 -8.011252e+01
-4.650384e+09 -4.450383e+09 -4.610383e+09 -1.198530e+02 -1.961494e+01 -3.992216e+01
-4.992507e+09 -4.792505e+09 -4.952506e+09 -2.340720e+02 1.682089e+00 2.155729e+01
-4.821763e+09 -4.621763e+09 -4.781766e+09 1.213253e+03 -1.180261e+02 -3.722521e+02
-4.991174e+09 -4.791174e+09 -4.951174e+09 -1.651379e+03 6.148760e+00 4.669194e+01
-1.638727e+09 -1.438724e+09 -1.598725e+09 -5.590182e+02 -1.138198e+03 -2.554195e+02
-4.992680e+09 -4.792679e+09 -4.952683e+09 2.934663e+03 -1.368696e+02 -1.060940e+02
-2.258832e+09 -2.058838e+09 -2.218833e+09 6.092799e+02 1.039615e+02 -4.821401e+01
-4.134405e+09 -3.934412e+09 -4.094406e+09 1.028643e+01 2.400530e+01 -3.314191e+00
-4.992505e+09 -4.792511e+09 -4.952506e+09 4.956959e+01 3.764668e+00 1.489484e+01
-4.470778e+09 -4.270775e+09 -4.430777e+09 -3.557334e+03 3.134777e+02 8.376328e+02
-4.816084e+09 -4.616080e+09 -4.776085e+09 -3.480706e+03 -1.810317e+02 1.224939e+03
-4.990710e+09 -4.790708e+09 -4.950711e+09 -3.720915e+03 -2.913174e+02 5.067315e+01
-1.950054e+09 -1.750053e+09 -1.910053e+09 1.799506e+01 -4.072758e+00 -4.163852e+01
-4.324987e+09 -4.124988e+09 -4.284984e+09 -3.080052e+03 7.726910e+02 -1.372251e+03
-1.573550e+09 -1.373548e+09 -1.533549e+09 7.854239e+01 2.237508e+01 -4.592639e+01
-1.708248e+09 -1.508246e+09 -1.668246e+09 -5.645909e+00 2.292039e+00 -4.328970e+01
-1.639243e+09 -1.439242e+09 -1.599242e+09 4.355372e+01 8.305424e+00 -5.644761e+01
-4.817134e+09 -4.617133e+09 -4.777134e+09 -3.765359e+03 6.459178e+02 2.220737e+01
-4.127511e+09 -3.927502e+09 -4.087533e+09 -1.080492e+03 5.849343e+03 6.303177e+02
-4.816091e+09 -4.616080e+09 -4.776105e+09 6.982156e+01 1.451587e+03 4.480896e+02
-4.471769e+09 -4.271759e+09 -4.431782e+09 -9.787286e+02 1.585939e+03 2.134973e+03
-3.224416e+09 -3.024420e+09 -3.184418e+09 -1.610002e+03 -1.760282e+03 -3.521959e+02
-4.990714e+09 -4.790703e+09 -4.950724e+09 1.795853e+03 2.720846e+03 7.975522e+02
-4.131303e+09 -3.931285e+09 -4.091315e+09 -6.201509e+02 -1.647257e+03 -4.283213e+02
-3.813597e+09 -3.613597e+09 -3.773597e+09 2.019413e+02 2.626141e+01 -1.017828e+01
-3.823198e+09 -3.623197e+09 -3.783197e+09 -2.040717e+02 -2.352900e+01 -7.563481e+01
-1.639245e+09 -1.439244e+09 -1.599242e+09 3.874070e+02 4.195551e+02 -6.772027e+01
-4.306091e+09 -4.106090e+09 -4.266090e+09 -3.860358e+02 -3.945689e+01 1.289158e+01
-4.991240e+09 -4.791242e+09 -4.951240e+09 -1.607907e+03 1.445714e+01 4.528782e+01
-4.821207e+09 -4.621203e+09 -4.781208e+09 3.197395e+03 2.557970e+02 -6.975525e+02
-3.891725e+09 -3.691731e+09 -3.851725e+09 1.421775e+02 6.693334e+01 -3.482773e+01
-4.820791e+09 -4.620798e+09 -4.780793e+09 2.275555e+02 -8.779133e+01 -9.391361e+00
-4.935514e+09 -4.735514e+09 -4.895514e+09 1.935610e+02 -7.010546e+00 -8.553194e+00
-4.649506e+09 -4.449507e+09 -4.609507e+09 3.934927e+02 1.545891e+01 4.962196e+01
-4.765307e+09 -4.565307e+09 -4.725307e+09 2.010048e+02 -2.382798e+00 -1.526315e+01
-3.420352e+09 -3.220351e+09 -3.380351e+09 -2.101573e+02 -1.062878e+02 -5.820996e+01
-1.969657e+09 -1.769663e+09 -1.929658e+09 -2.299719e+02 -1.781200e+02 2.467320e+01
-4.305808e+09 -4.105807e+09 -4.265807e+09 -1.867102e+02 -1.628577e+02 3.077150e+01
-1.573503e+09 -1.373507e+09 -1.533503e+09 -1.178139e+03 -1.300652e+03 -1.581414e+02
-2.411903e+09 -2.211903e+09 -2.371903e+09 -2.859461e+02 -7.950394e+00 -3.019335e+01
-1.576236e+09 -1.376235e+09 -1.536234e+09 4.675901e+02 -2.491369e+02 -6.459740e+01
-5.009960e+09 -4.809966e+09 -4.969965e+09 1.458833e+03 4.125737e+01 1.145036e+02
-4.303253e+09 -4.103256e+09 -4.263249e+09 5.773966e+03 2.053756e+03 1.581467e+03
-3.886284e+09 -3.686286e+09 -3.846285e+09 2.998193e+03 5.290860e+02 3.651584e+02
-2.214862e+09 -2.014861e+09 -2.174861e+09 2.680793e+01 3.820425e+00 -2.143941e+01
-4.651574e+09 -4.451580e+09 -4.611575e+09 -2.986718e+01 9.164423e+01 -2.945474e+01
-1.589415e+09 -1.389420e+09 -1.549416e+09 -2.047106e+02 -6.155409e+01 -8.701970e+01
-1.887591e+09 -1.687587e+09 -1.847589e+09 -5.038212e+02 -1.198357e+03 -2.233306e+02
-1.638740e+09 -1.438737e+09 -1.598738e+09 -4.585648e+02 -9.346267e+02 -1.718947e+02
-4.633570e+09 -4.433567e+09 -4.593569e+09 -8.352801e+02 -3.740780e+02 -6.314175e+01
-1.957794e+09 -1.757799e+09 -1.917794e+09 9.239312e+01 3.757453e+01 -2.305695e+01
-3.405161e+09 -3.205161e+09 -3.365159e+09 1.329274e+03 4.362660e+02 -1.027715e+02
-1.638738e+09 -1.438742e+09 -1.598737e+09 9.910638e+01 3.428349e+01 4.291480e+01
-4.270052e+09 -4.070048e+09 -4.230051e+09 1.464601e+03 4.782592e+02 -3.017982e+02
-1.643085e+09 -1.443088e+09 -1.603085e+09 -1.814723e+02 -2.518772e+02 -2.826410e+01
-1.733543e+09 -1.533546e+09 -1.693542e+09 3.324184e+02 -6.389451e+00 -5.721679e+00
-2.181322e+09 -1.981321e+09 -2.141321e+09 -1.881377e+02 -2.616196e+01 -5.371053e+01
-3.224712e+09 -3.024711e+09 -3.184711e+09 -5.300964e+01 9.003323e-01 -6.909546e+00
-1.717712e+09 -1.517718e+09 -1.677713e+09 -6.967123e+02 -4.090141e+02 -1.241280e+02
-4.778563e+09 -4.578562e+09 -4.738562e+09 -6.305492e+01 1.707505e-01 -1.048847e+01
-4.756991e+09 -4.556990e+09 -4.716990e+09 -4.944832e+01 2.186047e+00 -7.158739e+00
-4.761076e+09 -4.561075e+09 -4.721075e+09 -5.480580e+01 -5.618167e+00 -2.396103e+00
-4.302301e+09 -4.102302e+09 -4.262300e+09 -1.156786e+03 -2.483985e+00 1.824295e+01
-4.302848e+09 -4.102847e+09 -4.262847e+09 1.152039e+02 -1.652136e+00 -6.533096e+00
-4.818630e+09 -4.618629e+09 -4.778629e+09 4.074320e+01 -1.420144e+01 -2.654934e+01
-4.991159e+09 -4.791158e+09 -4.951158e+09 -1.089532e+03 -3.230350e+01 1.572506e+01
-4.431477e+09 -4.231480e+09 -4.391477e+09 -6.360164e+02 2.453192e+01 -3.905025e+01
-4.991234e+09 -4.791239e+09 -4.951235e+09 -1.194280e+03 -5.380606e+00 5.353026e+01
-4.302603e+09 -4.102602e+09 -4.262603e+09 -1.747751e+03 2.162458e+02 1.607858e+02
-3.962852e+09 -3.762855e+09 -3.922852e+09 -1.046964e+03 1.282220e+02 -1.057057e+02
-4.158885e+09 -3.958883e+09 -4.118884e+09 -5.846041e+01 -1.345217e+00 -2.823879e+01
-4.992575e+09 -4.792575e+09 -4.952576e+09 4.175952e+03 -1.645775e+01 7.502578e+00
-1.957797e+09 -1.757795e+09 -1.917796e+09 -6.650551e+01 -5.633126e+00 -6.351057e+01
-1.638738e+09 -1.438737e+09 -1.598737e+09 -6.745123e+01 -1.038106e+01 -3.914294e+01
-4.301952e+09 -4.101936e+09 -4.261949e+09 -1.091001e+03 -2.327094e+03 -1.416172e+03
-3.960737e+09 -3.760728e+09 -3.920740e+09 3.925981e+03 2.427606e+03 -4.676895e+02
-4.818572e+09 -4.618576e+09 -4.778573e+09 -1.418072e+03 -1.147538e+02 -1.132946e+02
-4.778563e+09 -4.578567e+09 -4.738562e+09 1.838827e+02 7.584370e+01 -1.471173e+01
-3.960737e+09 -3.760744e+09 -3.920739e+09 4.702641e+02 5.404985e+02 -5.149750e+01
-4.649039e+09 -4.449045e+09 -4.609040e+09 -4.058844e+02 1.415760e+02 -4.748753e+01
-3.960736e+09 -3.760744e+09 -3.920739e+09 5.034232e+01 6.013297e+02 -9.064390e+01
-3.961479e+09 -3.761486e+09 -3.921481e+09 -2.637144e+02 5.556289e+02 -6.872620e+01
-3.234253e+09 -3.034252e+09 -3.194252e+09 -3.867927e+01 -1.765143e+02 -5.285520e+00
-4.647088e+09 -4.447086e+09 -4.607087e+09 -2.446806e+02 -4.066135e+01 7.966211e-03
-4.756991e+09 -4.556995e+09 -4.716990e+09 1.616549e+02 6.340731e+01 -1.420741e+01
-3.962195e+09 -3.762193e+09 -3.922194e+09 -1.062474e+02 -2.328322e+02 1.078497e+02
-2.814368e+09 -2.614368e+09 -2.774368e+09 -1.203512e+01 -2.817374e+01 -4.758364e-01
-4.991019e+09 -4.791019e+09 -4.951019e+09 -3.194723e+02 7.666216e+00 -1.143402e+00
-4.757383e+09 -4.557380e+09 -4.717382e+09 -3.127228e+02 -2.874332e+02 -8.027876e+01
-4.819518e+09 -4.619514e+09 -4.779517e+09 -7.184705e+02 -1.174752e+01 8.565852e+00
-2.297706e+09 -2.097706e+09 -2.257706e+09 -8.041572e+01 -8.154020e+00 3.453881e+00
-2.371042e+09 -2.171042e+09 -2.331042e+09 -3.438653e+02 -1.111473e+01 -1.289010e+00
-2.568222e+09 -2.368222e+09 -2.528222e+09 -2.183191e+02 -3.628730e+01 -3.676384e+00
-1.872318e+09 -1.672320e+09 -1.832319e+09 -2.198101e+02 -2.421618e+01 3.859397e+01
-1.638523e+09 -1.438524e+09 -1.598524e+09 -1.395530e+01 -1.150765e+01 3.870269e+00
-3.198245e+09 -2.998247e+09 -3.158246e+09 -1.455102e+02 -1.441817e+00 4.381847e+01
-4.768893e+09 -4.568899e+09 -4.728894e+09 1.305344e+02 4.522302e+01 -2.001621e+01
-4.273728e+09 -4.073726e+09 -4.233727e+09 -2.055447e+02 -1.269911e+01 1.100821e+01
-2.971375e+09 -2.771375e+09 -2.931375e+09 -4.104861e+02 -5.071631e+01 -1.139082e+01
-3.216383e+09 -3.016383e+09 -3.176383e+09 -3.875874e+02 -2.425443e+01 -2.339762e+01
-4.302263e+09 -4.102262e+09 -4.262262e+09 -1.406104e+03 1.208771e+02 6.336367e+01
-4.768895e+09 -4.568893e+09 -4.728893e+09 -8.059716e+01 -1.357223e+01 -2.092224e+01
-4.993287e+09 -4.793285e+09 -4.953285e+09 -1.401789e+01 2.267097e+01 -4.282032e+01
-1.571676e+09 -1.371675e+09 -1.531675e+09 -2.047740e+02 -3.086838e+01 -1.204447e+02
-3.989762e+09 -3.789763e+09 -3.949763e+09 -1.718550e+02 -1.323525e+01 2.426771e+01
-1.890473e+09 -1.690473e+09 -1.850473e+09 -3.640577e+02 -3.518474e+01 -2.195030e+01
-3.762861e+09 -3.562859e+09 -3.722860e+09 -1.974660e+02 -1.528088e+01 -5.248321e+01
-1.906368e+09 -1.706367e+09 -1.866367e+09 -6.190181e+01 -9.393828e+00 -8.807136e+01
-2.801515e+09 -2.601509e+09 -2.761513e+09 9.031447e+02 9.989495e+02 -5.538721e+02
-1.838852e+09 -1.638849e+09 -1.798849e+09 1.203073e+03 6.826829e+02 -2.938250e+02
-1.886669e+09 -1.686665e+09 -1.846666e+09 6.133965e+02 9.377031e+02 -2.389205e+02
-2.647893e+09 -2.447893e+09 -2.607893e+09 -2.549085e+02 -7.137178e+00 3.423195e+01
-1.890382e+09 -1.690382e+09 -1.850382e+09 -3.599305e+02 -3.385511e+01 -3.368346e+01
-4.655590e+09 -4.455589e+09 -4.615590e+09 4.983855e+02 4.500666e+01 2.711041e+01
-1.887060e+09 -1.687057e+09 -1.847057e+09 4.821147e+02 6.806489e+02 -1.645319e+02
-2.525030e+09 -2.325032e+09 -2.485031e+09 2.460634e+02 4.130001e+00 9.782293e+01
-4.154805e+09 -3.954803e+09 -4.114807e+09 -1.197881e+02 -3.686821e+02 1.401926e+01
-4.985844e+09 -4.785840e+09 -4.945843e+09 -5.024701e+02 -1.337494e+01 -1.743826e+01
-2.268592e+09 -2.068594e+09 -2.228594e+09 -1.977663e+00 -3.157408e+00 1.386861e+01
-4.778565e+09 -4.578561e+09 -4.738564e+09 -2.571210e+02 -2.905063e+02 -5.489862e+01
-1.886751e+09 -1.686753e+09 -1.846752e+09 1.178236e+02 1.821393e+01 4.032190e+00
-2.704381e+09 -2.504383e+09 -2.664382e+09 -9.698552e+00 -6.769624e+00 5.729555e+00
-4.037707e+09 -3.837709e+09 -3.997708e+09 -1.060513e+00 -7.883782e-02 -6.298073e+00
-1.888614e+09 -1.688616e+09 -1.848615e+09 -5.624799e+00 1.543127e+00 4.508177e+00
-2.903862e+09 -2.703864e+09 -2.863863e+09 2.824133e+01 -2.189302e+00 2.140810e+01
-4.024639e+09 -3.824635e+09 -3.984640e+09 1.730049e+02 -6.224206e+02 -6.837356e+02
-4.768893e+09 -4.568891e+09 -4.728895e+09 2.428910e+02 -2.208254e+02 2.346432e+02
-3.215678e+09 -3.015678e+09 -3.175678e+09 -3.400663e+02 -2.325137e+01 5.872087e+01
-3.058580e+09 -2.858581e+09 -3.018581e+09 -3.856903e+02 -4.334446e+01 2.758782e+01
-4.769698e+09 -4.569699e+09 -4.729702e+09 5.897370e+02 -2.942159e+01 4.327525e+02
-1.774613e+09 -1.574615e+09 -1.734614e+09 -2.688199e+02 -9.315018e+00 3.968625e+01
-4.993985e+09 -4.793991e+09 -4.953986e+09 3.954615e+02 4.542308e+01 4.549974e+01
-4.992455e+09 -4.792462e+09 -4.952456e+09 1.518865e+02 -1.759999e+01 6.476732e+01
-4.647521e+09 -4.447521e+09 -4.607521e+09 9.699695e+02 4.655184e+01 -5.557713e+00
-4.645461e+09 -4.445461e+09 -4.605461e+09 5.920829e+02 3.999165e+01 3.941253e+01
-4.174417e+09 -3.974423e+09 -4.134418e+09 4.627118e+01 -1.651360e+01 1.212427e+01
-3.961539e+09 -3.761540e+09 -3.921540e+09 7.524520e+02 5.198993e+01 6.438590e-02
-4.991020e+09 -4.791021e+09 -4.951021e+09 -6.871099e+02 -1.471994e-01 -1.614309e+01
-4.991603e+09 -4.791603e+09 -4.951603e+09 6.567016e+02 -2.428722e+01 -1.959846e+01
-3.474397e+09 -3.274403e+09 -3.434398e+09 2.765339e+02 6.435731e+01 -3.298514e+01
-4.827961e+09 -4.627961e+09 -4.787961e+09 4.894916e+02 8.734340e+00 3.336400e+01
-4.992456e+09 -4.792462e+09 -4.952456e+09 2.283749e+02 3.800978e-01 1.859326e+01
-4.769701e+09 -4.569707e+09 -4.729702e+09 4.901028e+01 9.889219e+00 -1.631839e+01
-4.993987e+09 -4.793985e+09 -4.953986e+09 -2.011650e+02 4.665075e+00 2.651861e+01
-4.770339e+09 -4.570337e+09 -4.730338e+09 -8.043877e+01 -3.121395e+00 -1.857028e+01
-4.985452e+09 -4.785451e+09 -4.945451e+09 -1.494580e+02 6.374794e+00 -3.389246e+00
-1.840472e+09 -1.640468e+09 -1.800470e+09 -1.004971e+03 -9.592457e+02 -4.692433e+02
-3.043498e+09 -2.843495e+09 -3.003496e+09 -4.017909e+02 -7.884686e+02 -6.371757e+01
-1.688744e+09 -1.488742e+09 -1.648742e+09 -2.964554e+03 -2.708517e+03 -1.222112e+03
-4.269331e+09 -4.069337e+09 -4.229332e+09 -3.717454e+02 5.795530e+01 -1.639781e+01
-4.064457e+09 -3.864463e+09 -4.024458e+09 -2.169256e+02 -5.586579e+01 -2.086684e+01
-4.770338e+09 -4.570343e+09 -4.730338e+09 1.910304e+02 8.181812e+01 -2.808570e+01
-4.148417e+09 -3.948422e+09 -4.108418e+09 -9.292711e+00 -4.863175e+01 -1.691010e+01
-3.886574e+09 -3.686574e+09 -3.846574e+09 -2.735568e+02 -2.815730e+01 -7.490069e+00
-1.857063e+09 -1.657062e+09 -1.817063e+09 -1.636251e+01 -2.069573e+01 -2.450019e+00
-3.831903e+09 -3.631909e+09 -3.791904e+09 2.783903e+02 5.029390e+01 -5.908653e+01
-2.476861e+09 -2.276860e+09 -2.436861e+09 -2.110634e+02 -2.180568e+01 -1.543351e+00
-2.112521e+09 -1.912521e+09 -2.072521e+09 -1.884995e+01 -3.412673e+00 1.372445e+00
-4.993986e+09 -4.793991e+09 -4.953986e+09 3.727013e+02 3.113275e+01 2.619046e+01
-3.357629e+09 -3.157633e+09 -3.317628e+09 4.577070e+02 2.325962e+02 3.560382e+01
-4.818142e+09 -4.618141e+09 -4.778154e+09 -2.882489e+02 -1.287883e+03 1.790860e+02
-3.961465e+09 -3.761465e+09 -3.921466e+09 1.302204e+03 -9.637945e+02 5.976243e+02
-3.961483e+09 -3.761482e+09 -3.921485e+09 1.322102e+03 -1.428036e+03 1.108127e+03
-4.991315e+09 -4.791313e+09 -4.951316e+09 -1.413751e+03 -4.619516e+01 6.215271e+00
-4.985452e+09 -4.785456e+09 -4.945451e+09 5.586918e+02 1.346179e+02 3.643910e+01
-4.086160e+09 -3.886162e+09 -4.046159e+09 9.737230e+02 1.057483e+02 -8.273191e+01
-1.921155e+09 -1.721151e+09 -1.881152e+09 5.137040e+02 9.614435e+02 -1.888784e+02
-4.302722e+09 -4.102720e+09 -4.262721e+09 -7.020356e+02 -1.838425e+02 1.280428e+02
-4.770374e+09 -4.570370e+09 -4.730373e+09 4.494228e+02 1.324628e+02 -7.928682e+00
-3.961482e+09 -3.761480e+09 -3.921485e+09 8.727093e+02 -1.368087e+03 1.188597e+03
-3.961464e+09 -3.761443e+09 -3.921448e+09 -5.615790e+03 -8.274844e+03 -2.436151e+03
-1.900586e+09 -1.700579e+09 -1.860583e+09 2.041780e+03 1.438878e+03 -1.697725e+03
-3.961330e+09 -3.761312e+09 -3.921330e+09 1.212024e+03 -7.250671e+03 -1.028385e+03
-3.961457e+09 -3.761442e+09 -3.921448e+09 -5.749746e+03 -8.242646e+03 2.142962e+03
-1.590931e+09 -1.390928e+09 -1.550929e+09 1.954305e+03 1.624319e+03 -4.480121e+02
-4.818640e+09 -4.618643e+09 -4.778641e+09 -1.901625e+03 -9.078665e+01 -1.596408e+02
-4.302397e+09 -4.102402e+09 -4.262403e+09 -2.524384e+03 1.642936e+03 3.575826e+02
-4.645498e+09 -4.445498e+09 -4.605498e+09 7.205285e+02 5.232922e+01 5.689856e+01
-3.961998e+09 -3.762003e+09 -3.922001e+09 -2.475758e+03 1.212861e+03 4.027978e+02
-3.961618e+09 -3.761620e+09 -3.921620e+09 -2.696443e+03 1.037857e+03 3.239393e+02
-4.129625e+09 -3.929616e+09 -4.089642e+09 2.433370e+02 4.489684e+03 8.994479e+02
-1.880549e+09 -1.680549e+09 -1.840547e+09 9.072304e+02 2.821017e+02 -1.039259e+02
-3.961525e+09 -3.761535e+09 -3.921518e+09 2.510993e+02 5.354974e+01 6.313501e+03
-4.991175e+09 -4.791174e+09 -4.951169e+09 5.240859e+03 2.846395e+02 3.286594e+02
-4.820615e+09 -4.620605e+09 -4.780587e+09 3.702860e+03 2.857636e+03 -4.898735e+02
-3.873398e+09 -3.673399e+09 -3.833396e+09 5.344479e+02 1.538312e+02 -4.238453e+01
-4.649616e+09 -4.449623e+09 -4.609622e+09 -1.678540e+03 6.814295e+02 1.243212e+02
-3.961503e+09 -3.761507e+09 -3.921503e+09 -1.047104e+03 3.529928e+02 2.026799e+01
-4.991463e+09 -4.791467e+09 -4.951465e+09 -2.039193e+03 1.684854e+02 9.644574e+01
-1.928163e+09 -1.728162e+09 -1.888160e+09 3.471070e+02 4.659944e+02 -9.658364e+01
-1.858045e+09 -1.658045e+09 -1.818043e+09 3.052756e+02 2.359509e+02 -6.831482e+01
-4.645977e+09 -4.445976e+09 -4.605976e+09 -2.891716e+02 7.040980e+01 -1.680356e+01
-4.992310e+09 -4.792309e+09 -4.952309e+09 -3.964446e+01 -3.880260e+00 1.608288e+01
-4.648261e+09 -4.448261e+09 -4.608260e+09 -4.147236e+02 -3.457085e+01 -4.466748e+01
-4.992457e+09 -4.792456e+09 -4.952456e+09 -1.372172e+02 -3.280534e+01 3.681004e+01
-2.181935e+09 -1.981934e+09 -2.141934e+09 -1.593961e+02 -3.706953e+01 -5.897226e+01
-3.485481e+09 -3.285480e+09 -3.445480e+09 1.909909e+01 -2.898060e+01 -2.565309e+01
-4.302397e+09 -4.102396e+09 -4.262396e+09 -6.221302e+02 1.760262e+01 -5.086517e+00
-3.707094e+09 -3.507093e+09 -3.667093e+09 4.054129e+01 5.648502e+01 -7.820219e+01
-3.965253e+09 -3.765251e+09 -3.925251e+09 -6.338547e+01 -1.080386e+01 -1.339939e+01
-1.854109e+09 -1.654108e+09 -1.814108e+09 -1.511614e+02 -1.873224e+01 -5.444953e+01
-4.032497e+09 -3.832499e+09 -3.992498e+09 2.862390e+01 1.092995e+00 7.132397e+00
-2.193885e+09 -1.993886e+09 -2.153886e+09 1.306227e+01 1.906196e+00 -1.617579e+00
-1.581785e+09 -1.381787e+09 -1.541786e+09 6.338199e+01 1.115334e+01 -2.514372e+01
-2.535406e+09 -2.335408e+09 -2.495407e+09 1.361276e+02 -4.443088e+00 6.312227e+01
-2.997824e+09 -2.797824e+09 -2.957822e+09 2.650214e+02 1.567784e+02 6.752137e+01
-1.882763e+09 -1.682763e+09 -1.842761e+09 2.191715e+03 8.409582e+02 -3.608909e+02
-2.056957e+09 -1.856957e+09 -2.016957e+09 1.871936e+02 1.284752e+01 -1.278095e+01
-4.063267e+09 -3.863267e+09 -4.023267e+09 6.701448e+01 4.674986e+00 -1.598758e+01
-1.640360e+09 -1.440365e+09 -1.600360e+09 -1.661090e+02 -3.166276e+02 -2.041648e+01
-4.640129e+09 -4.440128e+09 -4.600128e+09 2.538453e+01 5.440267e+00 -1.621846e+01
-4.880832e+09 -4.680833e+09 -4.840833e+09 9.071978e+01 -6.151694e+00 2.295483e+00
-2.207190e+09 -2.007194e+09 -2.167189e+09 9.897093e+02 4.690961e+01 -4.967463e+01
-1.707344e+09 -1.507348e+09 -1.667344e+09 9.756734e+02 1.407273e+02 -4.035498e+01
-1.855389e+09 -1.655394e+09 -1.815389e+09 3.003669e+02 5.609490e+01 3.561472e+01
-1.640359e+09 -1.440359e+09 -1.600359e+09 -2.110269e+01 -3.776624e+01 -1.149383e+00
-1.906367e+09 -1.706373e+09 -1.866367e+09 6.158106e+01 2.780137e+01 -3.550249e+01
-4.993988e+09 -4.793983e+09 -4.953988e+09 -2.074632e+02 -5.971191e+01 -3.504136e+01
-2.709967e+09 -2.509968e+09 -2.669970e+09 6.487964e+01 -4.662260e+02 -6.408567e+01
-3.417654e+09 -3.217650e+09 -3.377655e+09 -1.843615e+01 -1.536784e+03 -1.099398e+03
-4.126743e+09 -3.926745e+09 -4.086747e+09 8.403878e+01 -2.466315e+02 2.574513e+02
-4.770339e+09 -4.570335e+09 -4.730339e+09 7.262284e+00 -2.586673e+02 1.294677e+02
-4.650297e+09 -4.450303e+09 -4.610298e+09 1.804327e+02 7.112052e+01 -3.531547e+01
-1.590645e+09 -1.390651e+09 -1.550645e+09 3.800403e+02 3.187375e+01 -3.182382e+01
-4.767401e+09 -4.567401e+09 -4.727401e+09 7.192872e+01 -3.134065e+00 4.472157e+01
-4.764225e+09 -4.564225e+09 -4.724225e+09 3.178918e+02 -1.062155e+01 -1.887930e+01
-1.640362e+09 -1.440362e+09 -1.600360e+09 2.810280e+02 2.231906e+02 -3.085937e+01
-3.960653e+09 -3.760655e+09 -3.920655e+09 -9.417461e+02 -4.842476e+01 2.714048e+01
-3.960653e+09 -3.760655e+09 -3.920655e+09 -9.828081e+02 -1.344670e+01 4.303970e+01
-3.970043e+09 -3.770044e+09 -3.930044e+09 -1.146870e+03 1.112041e+00 3.606987e+01
-4.632315e+09 -4.432315e+09 -4.592315e+09 1.452793e+02 1.870081e+01 3.784417e+01
-4.992682e+09 -4.792680e+09 -4.952684e+09 1.691000e+03 -1.263387e+02 2.749048e+02
-4.642856e+09 -4.442856e+09 -4.602856e+09 -1.248734e+03 -7.336590e+01 1.522544e+02
-1.762741e+09 -1.562738e+09 -1.722742e+09 5.342347e+02 -8.128191e+02 -1.270064e+03
-4.820350e+09 -4.620350e+09 -4.780350e+09 -8.714157e+02 -4.265829e+01 4.933919e+01
-4.992507e+09 -4.792505e+09 -4.952506e+09 -3.207503e+02 -2.619451e+01 1.997274e+01
-4.991311e+09 -4.791313e+09 -4.951313e+09 5.898523e+02 -1.984307e+01 -3.276587e+01
-4.280751e+09 -4.080749e+09 -4.240750e+09 -1.199718e+02 -2.486047e+01 1.287250e+01
-4.990351e+09 -4.790353e+09 -4.950362e+09 2.729071e+03 1.295054e+03 -3.766315e+02
-4.990691e+09 -4.790682e+09 -4.950708e+09 9.941251e+02 2.854791e+03 -8.276835e+02
-4.817937e+09 -4.617936e+09 -4.777954e+09 2.378892e+03 1.694900e+03 -1.491215e+03
-3.960653e+09 -3.760657e+09 -3.920663e+09 3.484238e+03 4.057673e+03 -1.428156e+03
-4.991096e+09 -4.791094e+09 -4.951110e+09 2.669852e+03 1.873171e+03 -6.439378e+02
-4.991284e+09 -4.791286e+09 -4.951291e+09 3.292099e+03 7.049395e+02 -2.771300e+02
-4.992831e+09 -4.792826e+09 -4.952831e+09 -2.977979e+02 1.556974e+02 1.096797e+02
-4.753922e+09 -4.553921e+09 -4.713921e+09 2.138992e+01 1.485997e+00 -1.740300e+01
-4.762047e+09 -4.562046e+09 -4.722046e+09 1.522898e+01 1.168022e+00 -1.531443e+01
-4.786333e+09 -4.586343e+09 -4.746339e+09 1.929379e+02 -9.200037e+01 2.772104e+01
-4.060664e+09 -3.860672e+09 -4.020670e+09 7.492367e+02 9.659293e+01 3.563522e+02
-4.823472e+09 -4.623480e+09 -4.783482e+09 1.107455e+03 1.355804e+03 1.479400e+02
-4.642161e+09 -4.442164e+09 -4.602167e+09 3.205128e+03 1.204156e+03 -3.816537e+02
-4.814852e+09 -4.614856e+09 -4.774861e+09 2.763347e+03 1.640665e+03 3.415293e+02
-4.991020e+09 -4.791020e+09 -4.951032e+09 -4.133770e+01 -1.498508e+03 3.193401e+02
-4.105694e+09 -3.905701e+09 -4.065698e+09 -8.292564e+02 -8.784898e+02 -1.224780e+02
-4.301422e+09 -4.101417e+09 -4.261430e+09 -9.861784e+02 -2.681065e+03 2.060828e+03
-4.782510e+09 -4.582517e+09 -4.742513e+09 -4.286243e+02 -3.140711e+02 -1.380229e+02
-4.787149e+09 -4.587147e+09 -4.747147e+09 5.467308e+02 1.904576e+02 -1.434232e+02
-3.472985e+09 -3.272982e+09 -3.432984e+09 1.214265e+03 8.415870e+02 -5.440788e+02
-4.129958e+09 -3.929951e+09 -4.089962e+09 -4.349141e+03 9.463818e+02 1.213355e+03
-4.990352e+09 -4.790347e+09 -4.950365e+09 -1.435100e+03 -2.168848e+03 2.755150e+02
-4.271194e+09 -4.071189e+09 -4.231192e+09 1.434433e+03 3.790772e+02 -3.336074e+02
-4.826018e+09 -4.626014e+09 -4.786032e+09 -1.349093e+03 -2.026593e+03 7.168719e+02
-4.993956e+09 -4.793951e+09 -4.953954e+09 9.090528e+02 -3.090932e+01 -1.088456e+02
-4.642948e+09 -4.442935e+09 -4.602952e+09 -1.327910e+03 1.182456e+03 -1.456537e+02
-4.132476e+09 -3.932481e+09 -4.092487e+09 -4.645100e+02 -4.035864e+03 2.157124e+02
-4.828708e+09 -4.628704e+09 -4.788721e+09 -2.135319e+03 -2.466581e+03 -1.095411e+02
-4.786622e+09 -4.586621e+09 -4.746620e+09 -2.648589e+01 4.601387e+01 -1.175886e+01
-4.993953e+09 -4.793953e+09 -4.953952e+09 -6.113020e+01 -1.528593e+01 2.989114e+01
-1.961581e+09 -1.761580e+09 -1.921580e+09 -6.240758e+01 -2.102924e+01 -9.813390e+01
-4.993958e+09 -4.793966e+09 -4.953962e+09 -1.950633e+02 -1.997227e+02 3.534216e+00
-4.821768e+09 -4.621766e+09 -4.781767e+09 -1.750997e+02 -2.547481e+00 4.955885e+01
-2.451106e+09 -2.251105e+09 -2.411105e+09 -3.047171e+02 -3.164140e+01 -5.888009e+01
-1.586402e+09 -1.386401e+09 -1.546401e+09 -2.293002e+02 -4.248178e+01 -1.271427e+02
-1.966986e+09 -1.766992e+09 -1.926987e+09 2.098513e+01 1.936063e+01 -4.177535e+01
-3.438226e+09 -3.238233e+09 -3.398229e+09 8.083404e+02 -1.492596e+03 3.968973e+02
-1.919022e+09 -1.719028e+09 -1.879023e+09 2.058432e+02 5.146592e+01 3.006662e+00
-4.100542e+09 -3.900550e+09 -4.060546e+09 -4.305012e+02 -9.774189e+02 -3.975060e+01
-1.587682e+09 -1.387688e+09 -1.547683e+09 3.714100e+02 1.327216e+02 -3.085391e+01
-3.213300e+09 -3.013306e+09 -3.173301e+09 8.017989e+02 3.267676e+01 2.532820e+01
-4.993951e+09 -4.793959e+09 -4.953956e+09 1.434238e+02 -2.017666e+02 4.193447e+01
-4.782510e+09 -4.582510e+09 -4.742510e+09 -1.091223e+02 2.447358e+00 -5.861277e+01
-3.181499e+09 -2.981501e+09 -3.141501e+09 -3.892641e+00 -1.971179e+00 9.899663e+00
-4.993959e+09 -4.793959e+09 -4.953959e+09 -1.560532e+02 4.233491e+00 8.681418e+00
-2.860781e+09 -2.660782e+09 -2.820782e+09 -1.125582e+02 -2.671994e+01 -2.760930e+01
-1.586471e+09 -1.386472e+09 -1.546472e+09 9.505989e+00 7.508646e+00 -3.529060e+00
-1.959827e+09 -1.759828e+09 -1.919828e+09 2.658501e+01 1.062102e+01 1.445238e+01
-4.993753e+09 -4.793753e+09 -4.953752e+09 -1.356556e+02 -2.010922e+01 2.398714e+01
-5.010064e+09 -4.810064e+09 -4.970063e+09 -1.473726e+02 8.694380e+01 2.585804e+01
-1.903093e+09 -1.703094e+09 -1.863094e+09 5.528879e+01 2.114303e+01 5.265724e+00
-4.991033e+09 -4.791035e+09 -4.951034e+09 1.169394e+03 -7.615609e+01 -2.428799e+02
-3.959937e+09 -3.759940e+09 -3.919939e+09 1.142599e+02 2.214447e+01 -1.529429e+02
-4.643390e+09 -4.443393e+09 -4.603392e+09 8.661995e+00 1.199189e+01 3.969596e+01
-4.819581e+09 -4.619582e+09 -4.779581e+09 1.363239e+03 -4.899035e+01 -1.911538e+02
-2.121582e+09 -1.921578e+09 -2.081580e+09 1.213391e+03 7.650695e+02 -4.362135e+02
-4.301970e+09 -4.101973e+09 -4.261972e+09 9.112547e+02 -6.477027e+01 -3.766926e+02
-4.770368e+09 -4.570363e+09 -4.730366e+09 4.353712e+02 2.729749e+02 -5.309971e+01
-4.302947e+09 -4.102949e+09 -4.262948e+09 7.437740e+02 -2.109573e+01 -8.950513e+01
-4.766635e+09 -4.566638e+09 -4.726638e+09 -8.148665e+02 1.463668e+02 -5.312109e+02
-4.818709e+09 -4.618711e+09 -4.778711e+09 8.031876e+02 5.559440e+01 6.652178e+01
-3.961518e+09 -3.761520e+09 -3.921519e+09 3.052326e+02 8.617940e+00 4.180394e+01
-4.052726e+09 -3.852722e+09 -4.012725e+09 1.206200e+03 6.201443e+02 -4.152805e+02
-4.991946e+09 -4.791941e+09 -4.951946e+09 3.024478e+02 -7.909119e+00 -1.463616e+02
-4.266614e+09 -4.066620e+09 -4.226617e+09 9.458035e+02 -7.971339e+02 1.743514e+02
-4.770363e+09 -4.570372e+09 -4.730367e+09 -1.395458e+01 -5.904578e+01 -7.496910e+01
-4.991410e+09 -4.791410e+09 -4.951410e+09 8.859968e+02 -2.055749e+01 -3.239516e+01
-4.990912e+09 -4.790915e+09 -4.950914e+09 2.337031e+02 -1.238339e+01 -6.795737e+01
-4.993950e+09 -4.793957e+09 -4.953954e+09 3.726144e+02 -1.606361e+02 5.395217e+01
-3.285866e+09 -3.085867e+09 -3.245867e+09 -6.083097e+01 -1.334562e+01 9.143204e+00
-4.264676e+09 -4.064677e+09 -4.224677e+09 -1.959563e+02 -3.713288e-01 4.200004e+01
-4.991932e+09 -4.791934e+09 -4.951933e+09 -1.321729e+02 -1.430814e-01 -8.064617e+00
-1.638514e+09 -1.438515e+09 -1.598515e+09 1.559056e+01 4.156116e+00 1.504774e+01
-4.770516e+09 -4.570517e+09 -4.730516e+09 -8.527494e+01 -3.841812e+00 -3.786328e+01
-2.077157e+09 -1.877159e+09 -2.037158e+09 -1.900175e+02 -2.515200e+01 3.463139e+01
-2.951683e+09 -2.751685e+09 -2.911684e+09 -1.481886e+02 -1.512547e+01 4.289067e+01
-2.045537e+09 -1.845539e+09 -2.005538e+09 1.706013e+01 5.842232e+00 9.888948e+00
-3.191075e+09 -2.991076e+09 -3.151074e+09 -1.166713e+02 1.733063e+01 -6.364055e+01
-4.820883e+09 -4.620883e+09 -4.780883e+09 5.439401e+02 2.103715e+01 -6.635048e-01
-4.053987e+09 -3.853986e+09 -4.013985e+09 -1.337421e+02 4.024997e+00 -2.951324e+01
-4.770112e+09 -4.570112e+09 -4.730111e+09 -6.871690e+01 6.445437e+01 -1.510864e+01
-4.818924e+09 -4.618925e+09 -4.778925e+09 9.968562e+02 5.128717e+01 9.612872e+01
-4.818430e+09 -4.618432e+09 -4.778431e+09 1.961866e+02 2.844272e+00 2.611518e+01
-4.991947e+09 -4.791948e+09 -4.951946e+09 -2.115168e+02 9.994302e+00 2.971236e+01
-3.235474e+09 -3.035472e+09 -3.195473e+09 2.300972e+03 8.823243e+02 -3.835390e+02
-4.991945e+09 -4.791941e+09 -4.951946e+09 -2.610973e+02 2.742247e+02 -2.968749e+02
-5.010001e+09 -4.809998e+09 -4.970001e+09 -4.860300e+02 -1.568721e+02 1.345950e+02
-4.770285e+09 -4.570290e+09 -4.730287e+09 3.676654e+02 -2.970642e+02 9.821423e+01
-4.770309e+09 -4.570316e+09 -4.730312e+09 1.428021e+02 5.060008e+01 -4.381852e+01
-4.993952e+09 -4.793957e+09 -4.953954e+09 4.846664e+02 -1.260518e+02 6.415583e+01
-4.116311e+09 -3.916310e+09 -4.076310e+09 -1.041500e+03 -5.660568e+02 -2.044168e+02
-4.598569e+09 -4.398566e+09 -4.558568e+09 -2.941203e+02 -2.251205e+02 -2.796889e+01
-2.055591e+09 -1.855586e+09 -2.015589e+09 9.565441e+02 7.103730e+02 -6.519486e+02
-4.992742e+09 -4.792738e+09 -4.952742e+09 1.275542e+03 1.171769e+02 -1.640311e+02
-2.418271e+09 -2.218269e+09 -2.378270e+09 -1.720298e+03 -1.178224e+03 -5.751726e+02
-3.372915e+09 -3.172912e+09 -3.332916e+09 -4.183741e+02 5.431190e+02 -4.312581e+02
-4.770314e+09 -4.570309e+09 -4.730313e+09 2.175448e+02 1.534370e+02 -1.756899e+02
-4.282383e+09 -4.082390e+09 -4.242387e+09 3.766598e+02 -9.436076e+02 9.010616e+01
-4.587788e+09 -4.387786e+09 -4.547787e+09 -4.687045e+01 -5.133607e+00 -2.274817e+00
-4.532616e+09 -4.332614e+09 -4.492615e+09 -5.400983e+01 -3.202841e+00 -1.259258e+00
-3.086981e+09 -2.886980e+09 -3.046980e+09 -1.738512e+01 -7.686211e+00 -1.214055e+01
-4.593998e+09 -4.394001e+09 -4.553997e+09 2.366146e+02 -1.113828e+01 2.644028e+01
-4.652791e+09 -4.452791e+09 -4.612791e+09 6.752843e+02 4.325274e+01 3.835377e+01
-4.532615e+09 -4.332619e+09 -4.492615e+09 9.555056e+01 5.991215e+00 2.960251e+01
-5.000982e+09 -4.800985e+09 -4.960981e+09 4.713708e+02 1.479696e+02 -5.613926e+00
-4.992555e+09 -4.792562e+09 -4.952561e+09 3.196852e+02 -4.207904e+02 2.905278e+01
-4.134806e+09 -3.934805e+09 -4.094805e+09 3.127985e+02 2.672462e+01 3.395426e+00
-1.966974e+09 -1.766976e+09 -1.926975e+09 -3.310101e+00 -3.071209e+00 3.785565e+00
-4.821270e+09 -4.621270e+09 -4.781270e+09 3.716050e+02 2.243065e+01 9.488019e+00
-1.914900e+09 -1.714902e+09 -1.874901e+09 -3.411110e+01 -9.652465e+00 1.629693e+01
-4.592810e+09 -4.392810e+09 -4.552810e+09 2.384311e+02 2.305242e+01 1.338778e+01
-4.764970e+09 -4.564971e+09 -4.724971e+09 -1.969063e+02 1.091478e+01 -2.854506e+01
-1.835020e+09 -1.635022e+09 -1.795021e+09 -7.776434e+01 -2.213632e+01 1.874919e+01
-4.484805e+09 -4.284806e+09 -4.444806e+09 -1.132255e+02 -2.004034e+01 2.614497e+01
-4.706367e+09 -4.506368e+09 -4.666368e+09 -1.137939e+02 9.291480e+00 -5.980869e+00
-3.161423e+09 -2.961417e+09 -3.121423e+09 1.513970e+03 1.456013e+03 -1.424087e+03
-4.990464e+09 -4.790465e+09 -4.950465e+09 -9.561367e+01 -5.952037e-01 -1.160686e+00
-4.786340e+09 -4.586344e+09 -4.746340e+09 -1.711680e+02 1.161761e+02 1.011994e+00
-2.973003e+09 -2.773000e+09 -2.933002e+09 2.875695e+03 1.955704e+03 -1.121766e+03
-4.027879e+09 -3.827884e+09 -3.987880e+09 -2.066656e+02 5.992013e+01 -6.391743e+01
-1.581045e+09 -1.381049e+09 -1.541045e+09 -5.584822e+02 1.050045e+01 -1.600169e+02
-1.880291e+09 -1.680292e+09 -1.840292e+09 -2.745970e+01 -1.212280e+01 -6.719012e+00
-4.993874e+09 -4.793879e+09 -4.953874e+09 -2.312167e+02 2.050852e+01 1.681084e+01
-1.776027e+09 -1.576029e+09 -1.736028e+09 -1.266103e+02 -2.003322e+00 -4.277579e+00
-4.641025e+09 -4.441035e+09 -4.601031e+09 -3.350027e+02 -1.005187e+02 2.382436e+02
-4.095124e+09 -3.895125e+09 -4.055125e+09 -9.446734e+01 -1.305793e+01 -2.313628e+01
-1.571188e+09 -1.371189e+09 -1.531189e+09 -1.363137e+02 -1.283365e+01 3.387316e+01
-3.271732e+09 -3.071734e+09 -3.231734e+09 3.220679e+01 1.210761e+01 4.378013e+00
-1.967089e+09 -1.767091e+09 -1.927090e+09 -3.997261e+01 -1.181652e+01 -1.156546e+01
-3.432522e+09 -3.232524e+09 -3.392523e+09 -8.306334e+01 -2.774764e+00 5.230055e+00
-3.917282e+09 -3.717293e+09 -3.877288e+09 -3.740212e+02 1.780363e+02 1.223896e+03
-2.953109e+09 -2.753110e+09 -2.913110e+09 -4.349726e+02 -5.096222e+01 2.793503e+01
-1.590533e+09 -1.390534e+09 -1.550534e+09 -1.634265e+02 -1.663221e+01 -4.635633e+01
-2.670771e+09 -2.470777e+09 -2.630776e+09 3.742774e+03 1.110724e+03 3.006880e+03
-1.899729e+09 -1.699730e+09 -1.859730e+09 -1.168320e+02 -2.758136e+01 1.376355e+01
-3.960595e+09 -3.760576e+09 -3.920573e+09 2.785560e+03 -1.025782e+04 -1.979304e+03
-3.961052e+09 -3.761036e+09 -3.921057e+09 -3.707234e+02 -2.531759e+03 -5.687320e+03
-3.960294e+09 -3.760279e+09 -3.920292e+09 -1.485395e+01 -1.053979e+04 -2.871976e+02
-4.469983e+09 -4.269980e+09 -4.429983e+09 -4.443777e+03 9.974436e+02 3.304286e+02
-4.300034e+09 -4.100033e+09 -4.260034e+09 -3.020920e+03 2.951873e+02 1.719015e+02
-4.644085e+09 -4.444072e+09 -4.604084e+09 2.537502e+03 -3.374083e+03 5.707952e+02
-3.960698e+09 -3.760684e+09 -3.920710e+09 -1.350310e+03 -2.665632e+02 3.269021e+03
-4.814012e+09 -4.614008e+09 -4.774015e+09 -3.292499e+03 -3.423471e+02 3.618756e+02
-4.267096e+09 -4.067097e+09 -4.227095e+09 -3.490500e+02 -1.464577e+01 2.399015e+01
-1.896336e+09 -1.696337e+09 -1.856337e+09 -4.580252e+01 -3.306383e+00 -1.200338e+01
-1.890380e+09 -1.690380e+09 -1.850380e+09 -3.401969e+02 -4.288080e+01 4.872960e+01
-1.848254e+09 -1.648255e+09 -1.808254e+09 -1.446739e+02 -3.437568e+01 -6.859112e+00
-1.590441e+09 -1.390441e+09 -1.550441e+09 -1.726628e+02 -1.561588e+01 -5.429664e+01
-3.215577e+09 -3.015578e+09 -3.175577e+09 -3.662189e+02 -2.584774e+01 -7.147598e+00
-4.768286e+09 -4.568287e+09 -4.728285e+09 -1.241034e+02 8.963067e+01 -8.794423e+00
-4.993380e+09 -4.793382e+09 -4.953380e+09 -2.827880e+02 8.681518e+00 1.419195e+01
-5.009999e+09 -4.809998e+09 -4.970001e+09 -7.151823e+02 -3.164470e+01 -1.139228e+02
-4.992829e+09 -4.792825e+09 -4.952830e+09 -1.518760e+03 2.136129e+02 -1.151401e+02
-1.579002e+09 -1.379001e+09 -1.539001e+09 4.371024e+00 4.670659e+00 -2.736031e+01
-4.010610e+09 -3.810605e+09 -3.970609e+09 7.178021e+01 4.221000e+02 -6.199231e+02
-2.437140e+09 -2.237142e+09 -2.397139e+09 -1.725380e+02 -2.059389e+02 -1.169419e+02
-4.990303e+09 -4.790305e+09 -4.950305e+09 -1.277177e+03 4.810788e+01 -4.591513e+01
-4.991947e+09 -4.791950e+09 -4.951948e+09 4.484793e+02 -6.921390e+01 2.596767e+01
-4.469974e+09 -4.269970e+09 -4.429993e+09 -7.260797e+02 4.493322e+03 1.579888e+03
-4.643048e+09 -4.443032e+09 -4.603046e+09 2.269316e+02 -4.379886e+03 -6.615990e+02
-4.817136e+09 -4.617124e+09 -4.777146e+09 3.907796e+02 2.244766e+03 9.311290e+02
-1.571188e+09 -1.371190e+09 -1.531189e+09 -1.736450e+02 -1.693290e+01 1.852777e+01
-3.431696e+09 -3.231697e+09 -3.391697e+09 -2.583688e+02 7.695089e+00 2.055144e+01
-1.649384e+09 -1.449386e+09 -1.609383e+09 1.654471e+02 4.480262e+01 6.240585e+01
-4.937011e+09 -4.737012e+09 -4.897012e+09 -2.040032e+02 7.277166e+00 -7.387236e+00
-4.646160e+09 -4.446161e+09 -4.606161e+09 -1.957279e+02 3.185171e+00 1.433034e+01
-1.850259e+09 -1.650259e+09 -1.810259e+09 -5.765068e+01 -1.217600e+01 -3.045671e+01
-3.895689e+09 -3.695694e+09 -3.855692e+09 1.056717e+03 -1.060434e+03 1.412649e+02
-4.597745e+09 -4.397749e+09 -4.557746e+09 4.021890e+01 4.036151e+00 1.530841e+01
-4.994321e+09 -4.794323e+09 -4.954322e+09 3.383889e+02 -2.922072e+01 7.153868e+01
-4.814439e+09 -4.614442e+09 -4.774441e+09 -1.113272e+02 7.122468e+00 -7.470472e+00
-4.303391e+09 -4.103391e+09 -4.263391e+09 1.016706e+03 1.986475e+01 -2.212442e+01
-4.770655e+09 -4.570657e+09 -4.730655e+09 2.270005e+02 1.595537e+02 -3.016577e+01
-3.231001e+09 -3.031000e+09 -3.191000e+09 -2.686770e+02 -2.345598e+01 -8.753511e+01
-4.615940e+09 -4.415943e+09 -4.575940e+09 -1.047450e+02 -4.969683e+01 -4.300403e+00
-4.131862e+09 -3.931862e+09 -4.091861e+09 -8.028744e+02 -2.078396e+01 -8.981175e+01
-3.366947e+09 -3.166946e+09 -3.326946e+09 -7.053999e+01 -9.396710e+00 -1.115139e+01
-4.996245e+09 -4.796248e+09 -4.956244e+09 -3.191225e+02 6.809877e+00 2.006118e+01
-4.669012e+09 -4.469014e+09 -4.629011e+09 -2.557560e+02 1.390023e+01 3.122705e+01
-4.982657e+09 -4.782656e+09 -4.942656e+09 -2.822430e+01 3.085248e-01 1.471082e+01
-3.484850e+09 -3.284849e+09 -3.444849e+09 -3.670388e+01 -5.631087e+00 -2.131870e+01
-4.014310e+09 -3.814307e+09 -3.974311e+09 -1.401185e+03 4.082917e+02 -4.783263e+02
-3.008935e+09 -2.808931e+09 -2.968936e+09 -5.535567e+02 5.686769e+02 -1.118246e+03
-4.645461e+09 -4.445460e+09 -4.605460e+09 2.490027e+01 -1.422615e+01 -2.412928e+01
-3.961108e+09 -3.761107e+09 -3.921107e+09 9.947342e+01 1.276339e+01 -3.228548e+01
-4.990302e+09 -4.790304e+09 -4.950305e+09 -1.066263e+03 -7.476244e+01 -1.811762e+02
-4.027533e+09 -3.827528e+09 -3.987532e+09 8.421020e+02 5.753808e+02 -5.660245e+02
-4.992316e+09 -4.792316e+09 -4.952315e+09 -1.960311e+02 -7.872728e+00 1.719539e+01
-4.296830e+09 -4.096829e+09 -4.256829e+09 8.858513e+00 5.960585e+00 2.159172e+00
-4.480092e+09 -4.280091e+09 -4.440093e+09 -8.354316e+02 1.158381e+02 -1.498558e+02
-4.813511e+09 -4.613510e+09 -4.773510e+09 2.397850e+02 2.902053e+01 3.651244e+01
-4.990296e+09 -4.790295e+09 -4.950295e+09 -4.620871e+01 -5.408161e+00 1.421387e+01
-3.953936e+09 -3.753935e+09 -3.913935e+09 2.313386e+02 3.230935e+01 -4.912757e+01
-1.889177e+09 -1.689171e+09 -1.849174e+09 1.941840e+03 1.487532e+03 -1.417993e+03
-4.819812e+09 -4.619810e+09 -4.779811e+09 -1.486096e+02 -4.447173e+01 8.625060e+01
-3.496959e+09 -3.296959e+09 -3.456958e+09 -3.705939e+02 3.654218e+01 -3.793732e+01
-4.991178e+09 -4.791177e+09 -4.951178e+09 -6.023769e+02 -3.464848e+00 1.415354e+01
-4.949521e+09 -4.749522e+09 -4.909522e+09 6.235730e+02 -1.311695e+02 4.537912e+01
-4.991774e+09 -4.791773e+09 -4.951774e+09 -9.739745e+02 1.018288e+01 -4.160125e+01
-4.819203e+09 -4.619201e+09 -4.779203e+09 -9.020876e+02 -9.386183e+01 9.276483e+01
-4.646982e+09 -4.446979e+09 -4.606981e+09 -1.314247e+03 -1.165170e+02 2.049519e+02
-4.651070e+09 -4.451069e+09 -4.611068e+09 -3.003732e+02 -2.460315e+00 -4.312642e+01
-4.134345e+09 -3.934349e+09 -4.094346e+09 4.406627e+03 1.654864e+03 1.031624e+02
-3.898882e+09 -3.698882e+09 -3.858881e+09 -3.607253e+02 -5.191726e+00 -9.953724e+01
-4.991841e+09 -4.791841e+09 -4.951840e+09 -3.628054e+02 2.626025e+01 2.973972e+01
-4.029538e+09 -3.829546e+09 -3.989542e+09 3.705319e+02 -8.564061e+02 9.687213e+01
-2.815050e+09 -2.615056e+09 -2.775052e+09 8.772064e+02 -1.095648e+03 1.488659e+02
-3.961552e+09 -3.761558e+09 -3.921553e+09 -9.717891e+02 3.930834e+02 -2.729688e+01
-4.649322e+09 -4.449328e+09 -4.609323e+09 1.709745e+02 1.114987e+02 -6.570480e+01
-4.303489e+09 -4.103496e+09 -4.263492e+09 -6.051013e+02 4.810417e+02 1.166315e+02
-4.428092e+09 -4.228094e+09 -4.388092e+09 3.467357e+02 5.802333e-01 -9.818962e+00
-4.818663e+09 -4.618668e+09 -4.778664e+09 -1.313582e+03 2.542751e+02 1.585928e+02
-3.237603e+09 -3.037605e+09 -3.197605e+09 6.523167e+02 -1.410669e+03 4.372045e+02
-3.961536e+09 -3.761540e+09 -3.921537e+09 -1.248661e+03 2.174291e+02 1.973559e+01
-4.302672e+09 -4.102675e+09 -4.262672e+09 -1.730889e+03 2.467694e+02 9.434475e+01
-4.302952e+09 -4.102951e+09 -4.262950e+09 -3.817099e+02 1.665851e+01 4.747399e+00
-4.940314e+09 -4.740315e+09 -4.900314e+09 -1.040512e+01 1.243370e-04 4.298633e+01
-4.092117e+09 -3.892128e+09 -4.052122e+09 -4.438117e+02 -1.005862e+02 1.076754e+03
-4.302745e+09 -4.102743e+09 -4.262743e+09 -2.892246e+02 -2.182259e+01 -1.828703e+01
-4.782255e+09 -4.582262e+09 -4.742260e+09 -9.391446e+02 -2.538727e+02 6.932471e+02
-1.967709e+09 -1.767710e+09 -1.927710e+09 -5.877519e+01 -1.375773e+01 -1.653457e+01
-3.920370e+09 -3.720374e+09 -3.880370e+09 -4.171767e+03 -1.597396e+03 1.318692e+03
-1.919358e+09 -1.719359e+09 -1.879359e+09 -1.440789e+02 -4.256442e+01 -1.138067e+01
-3.610042e+09 -3.410042e+09 -3.570042e+09 -9.666295e+01 -2.812846e+01 4.409722e+01
-4.608588e+09 -4.408593e+09 -4.568592e+09 -1.656574e+03 -2.856378e+01 -2.444924e+01
-3.105895e+09 -2.905895e+09 -3.065895e+09 -2.737589e+01 6.582873e+00 -2.177778e-01
-5.001995e+09 -4.801995e+09 -4.961995e+09 -2.681886e+02 1.359040e+01 1.247325e+01
-3.961360e+09 -3.761359e+09 -3.921359e+09 -7.480880e+02 -7.678689e+01 2.060812e+01
-4.302738e+09 -4.102736e+09 -4.262737e+09 -6.247263e+02 -2.917085e+01 6.624874e+00
-5.009992e+09 -4.810003e+09 -4.969998e+09 -4.200698e+02 1.548224e+01 2.817099e+02
-4.306236e+09 -4.106235e+09 -4.266235e+09 -4.370932e+02 -5.299118e+01 -6.290012e+00
-4.288685e+09 -4.088683e+09 -4.248684e+09 -8.447745e+02 -1.678934e+01 1.752092e+00
-4.772578e+09 -4.572581e+09 -4.732578e+09 -1.755234e+02 1.186202e+02 6.524240e+00
-4.631917e+09 -4.431925e+09 -4.591920e+09 7.840264e+02 2.965665e+02 -4.532763e+01
-4.302736e+09 -4.102743e+09 -4.262738e+09 6.451558e+02 3.168672e+02 -3.316729e+00
-4.801438e+09 -4.601441e+09 -4.761438e+09 -8.107051e+02 -8.163823e+01 -2.985702e+01
-4.448210e+09 -4.248213e+09 -4.408209e+09 -2.957288e+02 4.847674e+01 -2.524593e+01
-4.306235e+09 -4.106241e+09 -4.266236e+09 3.970160e+02 9.165881e+01 5.799097e+01
-4.080817e+09 -3.880822e+09 -4.040818e+09 -6.001846e+02 -6.434266e+01 -6.687269e+01
-4.131642e+09 -3.931643e+09 -4.091643e+09 -1.145106e+02 1.655251e+01 4.694321e+00
-3.961360e+09 -3.761351e+09 -3.921365e+09 9.167182e+02 -1.024542e+03 -1.654572e+03
-4.302715e+09 -4.102715e+09 -4.262695e+09 5.297691e+03 2.922645e+03 6.539510e+03
-4.302915e+09 -4.102908e+09 -4.262919e+09 2.047734e+03 -1.175782e+03 -1.336805e+03
-4.650631e+09 -4.450626e+09 -4.610634e+09 1.220113e+03 -3.330638e+02 -6.720602e+02
-4.990464e+09 -4.790465e+09 -4.950465e+09 -5.979260e+01 1.662634e+01 -7.914011e+00
-4.951984e+09 -4.751986e+09 -4.911986e+09 -4.510875e+01 -1.981053e+00 -3.196561e+00
-4.029261e+09 -3.829266e+09 -3.989261e+09 -1.962685e+02 7.962053e+01 -4.620483e+00
-4.818872e+09 -4.618873e+09 -4.778873e+09 7.986229e+02 -2.583842e+01 -9.605610e+01
-4.992541e+09 -4.792547e+09 -4.952542e+09 -3.436137e+02 3.425008e+00 1.606580e+01
-4.818267e+09 -4.618269e+09 -4.778269e+09 -6.360162e+02 1.793480e+01 -5.141516e+01
-4.990352e+09 -4.790353e+09 -4.950353e+09 -9.318939e+02 -6.152390e+00 -7.155812e+01
-4.064699e+09 -3.864704e+09 -4.024699e+09 -4.664039e+02 -6.915876e+01 -5.290585e+01
-4.301566e+09 -4.101569e+09 -4.261568e+09 -5.461682e+02 1.072526e+00 -9.421761e+01
-4.818328e+09 -4.618330e+09 -4.778330e+09 -7.791274e+02 -3.585786e+01 7.409638e+01
-3.961584e+09 -3.761585e+09 -3.921585e+09 -8.755240e+02 -1.722648e+01 6.002627e+01
-4.991073e+09 -4.791076e+09 -4.951075e+09 -4.042158e+02 1.327032e+01 -2.934989e+01
-4.305806e+09 -4.105812e+09 -4.265807e+09 -4.056991e+02 -4.430951e+01 9.434654e+00
-4.819810e+09 -4.619815e+09 -4.779811e+09 -6.780586e+02 1.623473e+01 -2.193255e+01
-4.991283e+09 -4.791283e+09 -4.951296e+09 -9.690538e+02 -1.793913e+03 1.239814e+02
-4.991097e+09 -4.791093e+09 -4.951108e+09 -9.712183e+02 -1.745500e+03 6.119915e+02
-4.599961e+09 -4.399966e+09 -4.559961e+09 -2.127946e+02 2.124873e+01 -3.614385e+01
-3.961430e+09 -3.761433e+09 -3.921435e+09 1.433548e+03 -2.177090e+03 9.883318e+02
-4.817473e+09 -4.617470e+09 -4.777486e+09 -8.442553e+02 -1.842544e+03 1.105984e+03
-3.961401e+09 -3.761405e+09 -3.921410e+09 1.460976e+03 -3.098784e+03 1.450632e+03
-4.818227e+09 -4.618226e+09 -4.778234e+09 7.449010e+02 -1.062400e+03 9.893995e+02
-4.819003e+09 -4.619005e+09 -4.779015e+09 -1.160834e+03 -1.874174e+03 -2.197523e+01
-3.232234e+09 -3.032240e+09 -3.192235e+09 -1.369370e+02 1.520389e+02 2.549104e+01
-1.733556e+09 -1.533566e+09 -1.693566e+09 1.541479e+03 5.691387e+02 2.009491e+03
-4.820350e+09 -4.620350e+09 -4.780363e+09 -1.560234e+03 -1.296450e+03 4.506611e+01
-1.921118e+09 -1.721120e+09 -1.881122e+09 1.086186e+03 -2.014347e+02 -1.721956e+02
-4.991221e+09 -4.791225e+09 -4.951232e+09 8.005241e+01 -1.152388e+03 1.262823e+02
-4.818941e+09 -4.618946e+09 -4.778953e+09 -6.254252e+02 -8.828259e+02 1.640839e+02
-3.013183e+09 -2.813185e+09 -2.973188e+09 -4.785735e+03 -1.809214e+03 1.297474e+03
-4.821642e+09 -4.621641e+09 -4.781643e+09 2.726115e+03 2.189123e+02 1.834396e+02
-4.480110e+09 -4.280117e+09 -4.440115e+09 9.756919e+02 5.838109e+01 -7.053872e+01
-4.131682e+09 -3.931678e+09 -4.091689e+09 3.991484e+03 3.716953e+03 -2.870028e+03
-4.646360e+09 -4.446355e+09 -4.606363e+09 2.794919e+03 7.929793e+02 -3.869105e+02
-4.302189e+09 -4.102191e+09 -4.262205e+09 2.642633e+03 5.402456e+03 -1.309098e+03
-4.820351e+09 -4.620354e+09 -4.780357e+09 3.172216e+03 7.554059e+02 2.285100e+02
-3.961434e+09 -3.761425e+09 -3.921434e+09 1.564692e+03 1.094883e+03 -2.206420e+03
-2.259880e+09 -2.059879e+09 -2.219879e+09 -3.336382e+02 -1.026464e+02 -1.012524e+02
-3.895577e+09 -3.695576e+09 -3.855576e+09 -5.184605e+00 -1.467292e+02 -3.311081e+01
-3.870860e+09 -3.670860e+09 -3.830859e+09 2.101948e+02 -7.318330e+01 -2.576522e+01
-4.990352e+09 -4.790354e+09 -4.950362e+09 3.036476e+03 1.222799e+03 -3.473707e+02
-4.644655e+09 -4.444651e+09 -4.604672e+09 2.584022e+03 1.545160e+03 -8.989070e+02
-4.645305e+09 -4.445300e+09 -4.605316e+09 3.377941e+03 1.208189e+03 -8.802612e+02
-1.576235e+09 -1.376236e+09 -1.536235e+09 2.579264e+02 -4.199646e+02 -3.966115e+01
-1.590559e+09 -1.390558e+09 -1.550558e+09 -2.136356e+01 -1.032154e+02 -1.446263e+02
-2.999254e+09 -2.799253e+09 -2.959253e+09 -8.290058e+01 -2.268157e+02 1.656370e+01
-4.305854e+09 -4.105861e+09 -4.265861e+09 6.017686e+01 -1.830684e+03 2.727225e+02
-4.652517e+09 -4.452525e+09 -4.612523e+09 -3.216193e+01 -4.733364e+02 2.975339e+01
-4.306318e+09 -4.106314e+09 -4.266318e+09 2.206922e+03 9.016839e+02 -7.026975e+02
-1.600364e+09 -1.400360e+09 -1.560362e+09 1.510189e+03 1.546165e+03 -6.871384e+02
-1.708527e+09 -1.508536e+09 -1.668536e+09 3.004948e+01 8.211077e+01 1.353641e+03
-4.992814e+09 -4.792811e+09 -4.952813e+09 1.843525e+03 9.015488e+01 -1.034912e+02
-1.589443e+09 -1.389450e+09 -1.549444e+09 1.411063e+03 -1.131875e+03 3.576917e+02
-4.770291e+09 -4.570297e+09 -4.730293e+09 2.285786e+02 1.187023e+02 -4.208326e+01
-2.277921e+09 -2.077929e+09 -2.237924e+09 1.268563e+03 -2.025225e+03 -7.762565e+01
-4.993953e+09 -4.793953e+09 -4.953952e+09 -2.506553e+02 1.026283e+02 1.800535e+01
-4.649358e+09 -4.449358e+09 -4.609358e+09 -3.830928e+02 -2.502616e+01 1.140807e+01
-4.816346e+09 -4.616345e+09 -4.776346e+09 -5.747132e+02 -3.324778e+01 -6.451167e+00
-4.432302e+09 -4.232304e+09 -4.392301e+09 -5.738019e+02 -9.677135e+00 -3.503779e+01
-4.305616e+09 -4.105616e+09 -4.265616e+09 -6.710686e+02 -4.278019e+00 -1.706478e+01
-3.962351e+09 -3.762351e+09 -3.922351e+09 -5.375079e+02 -3.089184e+01 4.884713e+01
-4.648848e+09 -4.448849e+09 -4.608849e+09 -6.712875e+02 -1.314864e+01 6.638990e+01
-4.992540e+09 -4.792541e+09 -4.952539e+09 -6.158863e+02 6.494004e+00 2.483286e+01
-2.255929e+09 -2.055931e+09 -2.215930e+09 -7.399372e+01 -1.027708e+01 2.785706e+01
-4.820094e+09 -4.620095e+09 -4.780095e+09 -6.958727e+02 -3.710611e+01 3.166340e+01
-4.649054e+09 -4.449056e+09 -4.609060e+09 -2.183383e+03 -7.953700e+02 -3.508442e+02
-3.475790e+09 -3.275798e+09 -3.435794e+09 -9.057518e+02 -1.698168e+03 -3.019802e+02
-4.369088e+09 -4.169089e+09 -4.329089e+09 -2.028952e+01 4.186114e+00 1.468265e+00
-3.962490e+09 -3.762493e+09 -3.922494e+09 -2.505117e+03 -1.893914e+03 -7.929510e+02
-4.991694e+09 -4.791698e+09 -4.951705e+09 -1.446826e+03 -1.196724e+03 1.107099e+01
-4.994093e+09 -4.794098e+09 -4.954095e+09 -7.528056e+02 -1.113650e+02 -6.815248e+00
-4.990640e+09 -4.790642e+09 -4.950641e+09 -9.749418e+01 2.748613e+00 -9.212807e+00
-4.991935e+09 -4.791939e+09 -4.951942e+09 -1.922049e+03 -6.865969e+02 -1.708814e+02
-4.728324e+09 -4.528325e+09 -4.688325e+09 -2.652886e+01 -1.198275e+00 -1.017189e+01
-4.982086e+09 -4.782087e+09 -4.942087e+09 4.308462e+00 -4.900051e+00 8.851522e+00
-4.239453e+09 -4.039463e+09 -4.199457e+09 -1.396729e+03 -1.065906e+02 1.403024e+03
-4.991225e+09 -4.791222e+09 -4.951229e+09 3.267651e+03 5.694811e+02 -3.194192e+02
-4.991224e+09 -4.791221e+09 -4.951228e+09 3.029825e+03 6.500533e+02 -3.318042e+02
-4.991697e+09 -4.791697e+09 -4.951700e+09 3.189390e+03 4.297472e+02 -1.841050e+02
-4.805132e+09 -4.605136e+09 -4.765132e+09 -4.498375e+02 1.068569e+02 1.951291e+01
-4.298124e+09 -4.098130e+09 -4.258126e+09 2.166019e+03 7.357062e+02 -5.767597e+01
-2.263369e+09 -2.063373e+09 -2.223369e+09 -4.460578e+02 1.182160e+02 -1.410847e+02
-3.962397e+09 -3.762400e+09 -3.922396e+09 2.161612e+03 3.056456e+02 -8.805719e+01
-4.649148e+09 -4.449150e+09 -4.609148e+09 2.483135e+03 1.994967e+02 -1.640573e+01
-4.577253e+09 -4.377255e+09 -4.537254e+09 -2.657919e+02 -7.702090e+00 1.294363e+01
-4.301665e+09 -4.101666e+09 -4.261666e+09 -4.124225e+02 1.277759e+00 -1.352105e+01
-4.157246e+09 -3.957247e+09 -4.117247e+09 -3.171881e+01 -1.673535e+01 -2.656201e+01
-4.819979e+09 -4.619981e+09 -4.779980e+09 -5.366388e+02 2.209369e+01 -2.858661e+01
-4.991148e+09 -4.791151e+09 -4.951150e+09 -1.946459e+02 3.173766e+00 -3.129512e+01
-4.818427e+09 -4.618429e+09 -4.778428e+09 2.422930e+02 1.799076e+00 2.977045e+01
-4.303018e+09 -4.103019e+09 -4.263019e+09 -6.762612e+02 -2.828404e+01 -3.774004e+01
-4.991694e+09 -4.791697e+09 -4.951705e+09 -1.136151e+03 -1.266834e+03 -2.200551e+01
-4.820093e+09 -4.620096e+09 -4.780104e+09 -1.814202e+03 -7.015295e+02 -1.638860e+02
-4.770290e+09 -4.570296e+09 -4.730293e+09 2.845985e+02 -2.467831e+02 1.285063e+02
-3.962935e+09 -3.762942e+09 -3.922943e+09 -4.933167e+02 -2.841268e+03 1.097020e+02
-4.133888e+09 -3.933893e+09 -4.093897e+09 -1.279646e+03 -2.864299e+03 -1.072568e+02
-4.991828e+09 -4.791832e+09 -4.951833e+09 1.222823e+03 -3.066434e+02 2.033975e+01
-4.992821e+09 -4.792818e+09 -4.952822e+09 2.520732e+03 3.341967e+02 -2.105895e+02
-4.992821e+09 -4.792818e+09 -4.952822e+09 2.713749e+03 2.585072e+02 -1.994849e+02
-4.287616e+09 -4.087613e+09 -4.247615e+09 1.571706e+03 2.392053e+02 -1.674757e+02
-4.818945e+09 -4.618944e+09 -4.778948e+09 3.261932e+03 5.413799e+02 2.273272e+02
-4.992633e+09 -4.792639e+09 -4.952641e+09 -6.395479e+02 -6.579358e+02 4.266416e+01
-4.130754e+09 -3.930763e+09 -4.090758e+09 -4.396247e+01 -4.478625e+02 7.214048e+00
-4.990456e+09 -4.790456e+09 -4.950456e+09 8.117010e+02 -3.174129e+01 -3.312794e+01
-4.998681e+09 -4.798681e+09 -4.958681e+09 6.556981e+02 -3.068426e+01 -4.367150e+01
-4.991130e+09 -4.791123e+09 -4.951133e+09 -1.964464e+02 8.833607e+02 -8.293002e+02
-1.605906e+09 -1.405906e+09 -1.565906e+09 -1.071596e+02 -4.216328e+01 -1.166706e+01
-1.968788e+09 -1.768788e+09 -1.928788e+09 -5.454203e+01 -2.042759e+01 -1.747919e+01
-4.648969e+09 -4.448969e+09 -4.608968e+09 -3.968527e+02 -4.201156e+01 -4.722006e+01
-4.302034e+09 -4.102037e+09 -4.262036e+09 4.676010e+02 -7.936038e+00 -1.238693e+02
-4.817888e+09 -4.617890e+09 -4.777889e+09 -3.599631e+02 4.106854e+00 -3.495414e+01
-4.477173e+09 -4.277174e+09 -4.437172e+09 -5.712563e+02 -6.997364e+00 -4.190799e+00
-4.794014e+09 -4.594016e+09 -4.754014e+09 -5.675527e+02 7.574673e+00 9.326560e+00
-4.991489e+09 -4.791490e+09 -4.951490e+09 8.289389e+02 -3.055601e+01 -4.307519e+01
-4.795840e+09 -4.595841e+09 -4.755840e+09 3.633475e+02 -2.492709e+02 1.010566e+02
-4.970547e+09 -4.770547e+09 -4.930547e+09 4.207133e+02 -5.193345e+01 3.430975e+01
-4.254908e+09 -4.054917e+09 -4.214912e+09 -1.215465e+03 -4.868060e+01 1.502803e+03
-4.623276e+09 -4.423278e+09 -4.583278e+09 6.683599e+00 8.359713e-01 -2.890499e+00
-4.623276e+09 -4.423278e+09 -4.583277e+09 9.896005e-02 -1.733039e+00 3.563105e+00
-3.755327e+09 -3.555328e+09 -3.715328e+09 1.065257e+02 1.879845e+01 2.568170e+01
-4.690359e+09 -4.490360e+09 -4.650357e+09 5.983391e+02 9.075985e+01 -2.797359e+01
-4.418684e+09 -4.218684e+09 -4.378682e+09 3.198115e+02 2.105492e+01 9.845635e+00
-4.101442e+09 -3.901445e+09 -4.061441e+09 1.124057e+03 -1.226394e+01 4.910040e+01
-4.823596e+09 -4.623602e+09 -4.783597e+09 -2.108341e+02 2.837891e+01 -3.512123e+01
-5.002020e+09 -4.802021e+09 -4.962019e+09 1.402831e+03 5.359396e+01 2.077212e+01
-4.778898e+09 -4.578900e+09 -4.738896e+09 2.526515e+02 6.473472e+01 -6.827864e+01
-1.576439e+09 -1.376445e+09 -1.536439e+09 -1.092872e+02 3.658634e+01 -8.034300e+01
-2.256381e+09 -2.056381e+09 -2.216379e+09 1.977412e+03 4.258721e+02 -2.271100e+02
-1.591400e+09 -1.391400e+09 -1.551400e+09 -2.949352e+02 -5.636644e+01 4.429889e+00
-2.024715e+09 -1.824716e+09 -1.984718e+09 -2.644175e+03 -7.075338e+02 4.484573e+02
-3.180460e+09 -2.980461e+09 -3.140463e+09 -1.009585e+03 -8.135630e+00 -1.931963e+02
-3.873422e+09 -3.673421e+09 -3.833422e+09 -8.846775e+01 -5.223807e+00 -2.154851e+01
-4.778897e+09 -4.578896e+09 -4.738896e+09 -5.524881e+01 3.221953e+00 -2.905594e+01
-3.535535e+09 -3.335547e+09 -3.495535e+09 -1.774493e+03 -7.007680e+02 5.531586e+03
-5.005922e+09 -4.805929e+09 -4.965926e+09 -1.414258e+03 -5.323405e+01 2.945960e+02
-4.782120e+09 -4.582120e+09 -4.742120e+09 -9.327992e+01 -2.358551e+00 4.314947e+01
-2.947119e+09 -2.747121e+09 -2.907122e+09 -6.007398e+01 -1.930466e+02 -6.425241e+01
-3.476811e+09 -3.276816e+09 -3.436812e+09 7.350012e+02 -7.174540e+02 2.566670e+02
-4.305818e+09 -4.105816e+09 -4.265817e+09 5.890036e+01 -2.522916e+02 8.489506e+01
-1.588973e+09 -1.388974e+09 -1.548972e+09 8.122171e+02 -3.847700e+02 2.817835e+01
-2.967749e+09 -2.767751e+09 -2.927750e+09 -2.286133e+02 -3.229561e+01 2.500527e+01
-2.154007e+09 -1.954009e+09 -2.114006e+09 8.627119e+02 2.212340e+02 -8.419734e+01
-1.959996e+09 -1.759998e+09 -1.919997e+09 -1.486737e+02 -1.586818e+01 4.556943e+00
-4.194143e+09 -3.994149e+09 -4.154146e+09 -1.442654e+02 -5.149859e+02 -3.210652e+01
-4.131077e+09 -3.931079e+09 -4.091078e+09 -1.212488e+01 -3.267528e+00 -3.814009e+00
-3.224186e+09 -3.024192e+09 -3.184190e+09 -2.574064e+03 -2.738062e+03 -1.082518e+03
-4.991616e+09 -4.791619e+09 -4.951618e+09 -5.528886e+02 3.433973e+01 -1.795733e+02
-2.800817e+09 -2.600818e+09 -2.760818e+09 1.618784e+02 1.928666e+01 4.135174e+01
-4.769550e+09 -4.569554e+09 -4.729552e+09 -4.606318e+02 2.074457e+02 2.157037e+01
-3.976844e+09 -3.776847e+09 -3.936845e+09 -5.993419e+02 -1.367513e+02 -7.149040e+01
-4.730135e+09 -4.530135e+09 -4.690134e+09 -2.467712e+02 -1.706466e+02 -1.012971e+02
-4.770205e+09 -4.570206e+09 -4.730206e+09 6.050731e+01 -4.579128e-01 3.685087e+01
-3.720755e+09 -3.520756e+09 -3.680756e+09 1.114039e+02 2.027104e+01 4.240251e+00
-4.997400e+09 -4.797399e+09 -4.957399e+09 2.174755e+01 2.564053e+01 6.483212e+00
-2.174294e+09 -1.974293e+09 -2.134293e+09 4.236126e+00 -3.801301e+00 -7.442721e+00
-4.722889e+09 -4.522888e+09 -4.682888e+09 1.645517e+01 1.683258e+00 -1.614545e+00
-4.503073e+09 -4.303071e+09 -4.463072e+09 2.499817e+01 3.538087e+00 -4.530012e+00
-4.993396e+09 -4.793395e+09 -4.953395e+09 -1.642533e+01 -1.153006e+01 -5.529621e+00
-3.960285e+09 -3.760281e+09 -3.920285e+09 -1.854855e+03 4.163907e+02 7.119844e+02
-4.991036e+09 -4.791037e+09 -4.951037e+09 1.143657e+02 -1.375338e+01 1.187440e+01
-4.817613e+09 -4.617609e+09 -4.777611e+09 -8.535008e+02 1.299401e+02 1.826252e+02
-4.301798e+09 -4.101794e+09 -4.261796e+09 -1.112441e+03 9.764122e+01 1.574647e+02
-3.959060e+09 -3.759056e+09 -3.919058e+09 4.934824e+01 -7.795533e+01 3.906458e+01
-3.961478e+09 -3.761480e+09 -3.921480e+09 1.703022e+02 1.885197e+01 3.807389e+01
-4.991395e+09 -4.791396e+09 -4.951395e+09 5.770051e+02 -1.587882e+01 -1.712280e+01
-4.302411e+09 -4.102413e+09 -4.262413e+09 2.249938e+02 -8.142426e+00 -5.782778e+01
-4.646210e+09 -4.446211e+09 -4.606211e+09 6.814836e+02 3.875545e+01 1.814017e+01
-3.962966e+09 -3.762967e+09 -3.922967e+09 1.933684e+02 2.716289e+01 2.732742e+01
-4.991148e+09 -4.791143e+09 -4.951151e+09 2.738665e+03 7.005964e+02 -4.797737e+02
-1.563282e+09 -1.363281e+09 -1.523281e+09 6.191133e+01 3.335880e+01 -1.452249e+01
-1.913830e+09 -1.713830e+09 -1.873830e+09 3.304060e+01 1.986462e+01 -1.844299e+01
-3.905310e+09 -3.705309e+09 -3.865309e+09 7.835920e+01 1.933447e+01 6.400807e+00
-4.818982e+09 -4.618986e+09 -4.778988e+09 1.462391e+03 -7.780935e+02 2.351156e+02
-3.498049e+09 -3.298049e+09 -3.458049e+09 -2.771269e+02 -7.469962e+00 -2.605326e+01
-4.645422e+09 -4.445424e+09 -4.605429e+09 1.258659e+03 -9.798158e+02 5.847485e+02
-4.648259e+09 -4.448265e+09 -4.608265e+09 8.739720e+02 -7.588785e+02 2.391113e+02
-4.303033e+09 -4.103039e+09 -4.263043e+09 3.617836e+02 -2.973023e+03 5.915138e+02
-4.648769e+09 -4.448769e+09 -4.608769e+09 -4.975198e+02 -2.489845e+01 1.066915e+01
-2.254754e+09 -2.054754e+09 -2.214754e+09 -2.713028e+02 -1.617406e+01 2.199868e+01
-4.661905e+09 -4.461905e+09 -4.621905e+09 -1.857883e+02 -4.544998e+01 -3.793641e+00
-4.188624e+09 -3.988625e+09 -4.148624e+09 1.219029e+02 -3.998366e+00 -4.985798e+00
-2.855811e+09 -2.655811e+09 -2.815811e+09 2.061435e+02 3.011980e+01 1.963120e+01
-4.781763e+09 -4.581765e+09 -4.741764e+09 4.169706e+01 1.319064e+00 2.445746e+01
-4.993856e+09 -4.793857e+09 -4.953857e+09 1.162280e+02 -9.630719e+00 -2.472525e+00
-4.520477e+09 -4.320477e+09 -4.480475e+09 5.903314e+02 6.188172e+01 -1.282354e+02
-4.448259e+09 -4.248261e+09 -4.408260e+09 2.916254e+01 2.450861e+00 6.086612e+00
-4.648705e+09 -4.448706e+09 -4.608704e+09 1.973098e+03 1.274301e+02 4.338628e+01
-4.132716e+09 -3.932718e+09 -4.092715e+09 1.659083e+03 1.820010e+02 6.157723e+00
-4.991159e+09 -4.791163e+09 -4.951161e+09 5.345358e+02 -4.579925e+01 -2.026361e+02
-3.114342e+09 -2.914344e+09 -3.074343e+09 -1.685008e+03 -1.270910e+03 -5.042175e+02
-4.765290e+09 -4.565291e+09 -4.725291e+09 2.154845e+01 3.822045e-01 1.163339e+01
-4.641943e+09 -4.441945e+09 -4.601947e+09 -1.807181e+03 -5.572552e+02 -1.238318e+02
-5.005425e+09 -4.805426e+09 -4.965426e+09 9.084957e+01 -7.924366e+00 -1.530110e+01
-2.081440e+09 -1.881444e+09 -2.041439e+09 -1.023636e+03 -8.095126e+02 -2.666841e+02
-4.651526e+09 -4.451528e+09 -4.611527e+09 -1.431116e+03 -3.854735e+02 -3.098903e+00
-4.817684e+09 -4.617680e+09 -4.777685e+09 -3.341154e+03 3.905796e+02 -1.027507e+03
-3.758699e+09 -3.558707e+09 -3.718702e+09 -2.735901e+03 -1.110209e+03 1.636356e+03
-3.218096e+09 -3.018102e+09 -3.178101e+09 -1.092403e+03 -2.317957e+02 2.937843e+02
-4.037190e+09 -3.837198e+09 -3.997194e+09 -2.918640e+01 -9.810701e+02 3.768773e+01
-4.992633e+09 -4.792639e+09 -4.952642e+09 -1.309748e+03 -7.821121e+02 -6.333293e+01
-1.590298e+09 -1.390306e+09 -1.550300e+09 -1.392618e+03 -1.533276e+03 -2.122504e+02
-5.010201e+09 -4.810198e+09 -4.970199e+09 1.133585e+03 -1.236108e+02 -1.177765e+02
-4.667445e+09 -4.467446e+09 -4.627444e+09 1.214164e+03 -1.119380e+01 -1.970796e+01
-4.130597e+09 -3.930596e+09 -4.090595e+09 3.903335e+02 1.916117e+02 -1.190384e+02
-4.772029e+09 -4.572029e+09 -4.732027e+09 4.258870e+02 1.373795e+02 -1.181599e+02
-4.476491e+09 -4.276492e+09 -4.436491e+09 -7.906034e+02 2.843824e+01 -3.759961e+01
-4.992539e+09 -4.792543e+09 -4.952542e+09 1.153539e+03 -3.105872e+02 1.913484e+02
-3.862942e+09 -3.662939e+09 -3.822941e+09 1.255874e+03 6.167957e+02 -1.813151e+02
-4.989635e+09 -4.789639e+09 -4.949637e+09 4.108720e+01 -4.745856e+00 -1.152113e+02
-4.992316e+09 -4.792315e+09 -4.952315e+09 -2.604068e+01 3.795750e+01 1.930859e+01
-4.133253e+09 -3.933256e+09 -4.093256e+09 1.396725e+03 -1.332029e+03 5.976112e+02
-4.992545e+09 -4.792546e+09 -4.952544e+09 -8.229863e+02 -6.456041e+00 1.945184e+01
-4.991832e+09 -4.791831e+09 -4.951831e+09 -4.129128e+02 5.456218e+01 2.951721e+01
-4.991357e+09 -4.791358e+09 -4.951358e+09 7.182048e+02 -1.903238e+01 -2.408459e+01
-4.992529e+09 -4.792529e+09 -4.952528e+09 -2.744931e+02 -1.055913e+00 2.345286e+01
-4.646056e+09 -4.446057e+09 -4.606057e+09 7.282607e+02 4.113169e+01 -1.716565e+01
-4.303236e+09 -4.103236e+09 -4.263236e+09 6.212285e+02 -5.912000e+00 -1.996173e+01
-4.993953e+09 -4.793953e+09 -4.953952e+09 -1.132622e+02 -3.885064e+01 3.551243e+00
-4.188964e+09 -3.988965e+09 -4.148963e+09 2.680722e+01 4.778330e+01 -1.420230e+01
-4.778651e+09 -4.578652e+09 -4.738652e+09 -4.344564e+01 5.145725e+00 -2.143055e+00
-4.645711e+09 -4.445713e+09 -4.605712e+09 8.110723e+02 3.707056e+01 1.134104e+01
-4.207725e+09 -4.007727e+09 -4.167726e+09 -9.650815e+01 -4.797665e+00 2.918168e+01
-4.132199e+09 -3.932201e+09 -4.092201e+09 6.142968e+02 3.182381e+01 3.034348e+01
-4.818718e+09 -4.618720e+09 -4.778719e+09 5.041639e+02 1.898278e+01 4.911654e+01
-4.460217e+09 -4.260219e+09 -4.420218e+09 -2.221165e+02 -9.814611e+00 1.801520e+01
-3.316689e+09 -3.116691e+09 -3.276690e+09 1.262946e+01 -3.237098e+00 2.096612e+00
-4.142280e+09 -3.942281e+09 -4.102281e+09 1.963068e+01 1.369915e+00 -3.239871e-01
-4.579540e+09 -4.379542e+09 -4.539541e+09 1.030502e+02 7.111364e+00 9.461801e+00
-4.645766e+09 -4.445768e+09 -4.605766e+09 -1.939521e+03 1.850597e+02 2.011843e+01
-4.645639e+09 -4.445639e+09 -4.605638e+09 -1.487717e+03 1.708251e+02 -2.402870e+01
-4.991157e+09 -4.791149e+09 -4.951156e+09 -2.499185e+03 3.130645e+02 -4.794569e+02
-4.554917e+09 -4.354912e+09 -4.514916e+09 -3.354090e+02 -2.691642e+02 -7.780112e+01
-4.133544e+09 -3.933538e+09 -4.093544e+09 -1.668144e+03 3.538019e+01 -9.719543e+02
-3.840019e+09 -3.640014e+09 -3.800018e+09 -3.649819e+02 -7.200596e+02 -2.187705e+02
-4.131834e+09 -3.931823e+09 -4.091837e+09 2.867001e+02 1.241532e+03 -2.271458e+03
-3.877538e+09 -3.677536e+09 -3.837538e+09 -1.409097e+03 -8.776241e+02 -2.839412e+02
-4.821284e+09 -4.621283e+09 -4.781287e+09 3.168681e+03 -5.649801e+00 4.221643e+02
-4.645424e+09 -4.445415e+09 -4.605429e+09 9.253481e+02 3.904827e+02 -8.026801e+02
-4.988690e+09 -4.788694e+09 -4.948692e+09 -2.457603e+02 -1.309033e+01 -2.630250e+02
-4.554915e+09 -4.354919e+09 -4.514914e+09 9.951905e+01 1.064066e+01 2.529103e+01
-4.133254e+09 -3.933255e+09 -4.093253e+09 -6.870596e+02 -3.300180e+01 -6.479757e+01
-3.834970e+09 -3.634975e+09 -3.794970e+09 8.765309e+01 3.823082e+01 -1.971462e+01
-4.007818e+09 -3.807822e+09 -3.967817e+09 4.647107e+02 5.182114e+01 -2.509655e+01
-4.645536e+09 -4.445535e+09 -4.605535e+09 -7.859139e+02 6.319695e+01 -3.223971e+01
-4.554915e+09 -4.354914e+09 -4.514914e+09 -7.266987e+01 -2.639670e+00 -2.584468e+00
-4.991149e+09 -4.791149e+09 -4.951148e+09 -5.802332e+02 -2.491463e+01 9.821893e+00
-3.834974e+09 -3.634973e+09 -3.794973e+09 -7.133925e+01 -3.553133e+00 -3.856858e+01
-4.319026e+09 -4.119027e+09 -4.279028e+09 1.300918e+03 -7.589148e+02 5.690515e+02
-4.992539e+09 -4.792542e+09 -4.952542e+09 1.119106e+03 -1.234375e+02 1.736527e+02
-3.602914e+09 -3.402912e+09 -3.562913e+09 -7.656741e+01 -6.951034e+00 -3.874704e+01
-4.989553e+09 -4.789552e+09 -4.949553e+09 2.323093e+02 -1.018674e+01 3.826120e+00
-4.992369e+09 -4.792368e+09 -4.952368e+09 2.827636e+02 -1.089600e+01 -4.192741e+01
-4.131832e+09 -3.931834e+09 -4.091838e+09 1.631985e+03 -2.281360e+03 1.547975e+03
-4.300118e+09 -4.100117e+09 -4.260117e+09 1.585958e+02 -2.247959e+00 -5.428014e+01
-5.001016e+09 -4.801015e+09 -4.961015e+09 1.200981e+02 -1.188265e+01 3.408843e+00
-4.649017e+09 -4.449016e+09 -4.609016e+09 3.120569e+02 1.779434e+01 4.889175e+01
-3.959855e+09 -3.759854e+09 -3.919854e+09 1.793377e+02 2.531860e+01 -1.803654e+01
-4.816231e+09 -4.616230e+09 -4.776231e+09 1.454319e+02 -9.524825e-02 -2.273822e+00
-3.961459e+09 -3.761448e+09 -3.921456e+09 -1.788549e+03 -5.405165e+02 -1.929115e+03
-3.961484e+09 -3.761470e+09 -3.921478e+09 -2.992752e+03 -2.651550e+03 -2.626784e+03
-4.991466e+09 -4.791464e+09 -4.951420e+09 -1.511895e+02 5.024239e+02 2.766524e+03
-3.961055e+09 -3.761037e+09 -3.921059e+09 3.440719e+02 -2.607200e+03 -2.388404e+03
-4.294677e+09 -4.094667e+09 -4.254610e+09 -1.516800e+03 4.791000e+03 -2.743518e+03
-3.960394e+09 -3.760375e+09 -3.920338e+09 4.174405e+03 -1.050831e+04 -1.019456e+04
-4.645052e+09 -4.445036e+09 -4.605042e+09 -2.404451e+03 -4.440702e+03 -1.754160e+03
-3.962129e+09 -3.762134e+09 -3.922135e+09 1.300530e+03 -1.890401e+03 4.261819e+02
-3.961933e+09 -3.761922e+09 -3.921865e+09 -1.072653e+03 -6.073045e+02 -1.110536e+03
-4.646136e+09 -4.446134e+09 -4.606095e+09 -3.081332e+03 -1.567830e+03 3.282365e+03
-4.818808e+09 -4.618806e+09 -4.778760e+09 -1.864414e+03 1.398603e+03 2.250044e+03
-4.992545e+09 -4.792546e+09 -4.952544e+09 -7.928366e+02 -3.673064e+01 2.671576e+01
-4.132333e+09 -3.932337e+09 -4.092294e+09 -1.366212e+03 2.602133e+03 1.074477e+04
-4.452766e+09 -4.252770e+09 -4.412768e+09 6.880859e+02 -5.166189e+02 9.541226e+01
-4.642847e+09 -4.442835e+09 -4.602858e+09 2.611758e+02 -5.289837e+02 -1.939089e+03
-1.589443e+09 -1.389449e+09 -1.549444e+09 8.712800e+02 -7.367871e+02 2.307418e+02
-4.646532e+09 -4.446527e+09 -4.606480e+09 3.019960e+00 6.585390e+02 1.106996e+03
-4.476486e+09 -4.276490e+09 -4.436491e+09 1.700923e+03 -7.712407e+02 1.454890e+02
-3.961497e+09 -3.761502e+09 -3.921490e+09 -6.300524e+03 -3.270305e+03 6.612872e+03
-4.302715e+09 -4.102717e+09 -4.262716e+09 -2.409468e+03 4.408398e+02 2.810116e+02
-5.007892e+09 -4.807894e+09 -4.967894e+09 8.850650e+02 1.354676e+01 1.448759e+02
-4.575996e+09 -4.375998e+09 -4.535998e+09 -1.894421e+02 -2.838746e+01 3.172438e+01
-4.305098e+09 -4.105104e+09 -4.265103e+09 -1.554412e+03 1.391664e+03 2.591325e+02
-4.815194e+09 -4.615190e+09 -4.775192e+09 -6.901803e+02 -1.299117e+02 -8.255185e+01
-4.991316e+09 -4.791319e+09 -4.951318e+09 -2.433802e+03 1.200592e+02 1.121370e+02
-4.991303e+09 -4.791304e+09 -4.951303e+09 -2.039460e+03 6.924463e+01 6.976715e+01
-4.991316e+09 -4.791318e+09 -4.951318e+09 -2.481485e+03 1.751379e+02 1.065634e+02
-1.826458e+09 -1.626459e+09 -1.786456e+09 2.962735e+02 7.995235e+01 -7.539213e+01
-4.302088e+09 -4.102089e+09 -4.262089e+09 -5.113803e+02 -1.224091e+01 -9.866177e+00
-4.302572e+09 -4.102573e+09 -4.262572e+09 -1.922703e+03 2.599703e+02 1.343430e+02
-4.645431e+09 -4.445433e+09 -4.605432e+09 -3.554649e+02 -2.205784e+01 3.643288e+01
-4.301354e+09 -4.101355e+09 -4.261357e+09 -2.868655e+03 1.179195e+03 4.890225e+02
-4.300021e+09 -4.100020e+09 -4.260022e+09 -2.782054e+03 9.910787e+02 5.516268e+02
-4.645447e+09 -4.445447e+09 -4.605448e+09 -2.446127e+03 3.937182e+02 8.691450e+01
-4.651159e+09 -4.451163e+09 -4.611159e+09 -4.315344e+02 5.315812e+01 -1.064502e+02
-4.304229e+09 -4.104235e+09 -4.264230e+09 -2.679478e+02 1.135076e+02 1.753081e-01
-3.891558e+09 -3.691562e+09 -3.851558e+09 -5.880714e+02 9.598112e+01 -7.379332e+01
-4.280242e+09 -4.080242e+09 -4.240243e+09 -2.297875e+03 8.430110e+01 -2.263892e+01
-3.960370e+09 -3.760370e+09 -3.920371e+09 -2.755255e+03 2.077856e+02 7.473985e+01
-4.820469e+09 -4.620473e+09 -4.780469e+09 -8.714995e+02 1.086053e+02 1.446283e+01
-3.961917e+09 -3.761916e+09 -3.921917e+09 -2.187105e+03 -8.440697e+01 2.483611e+02
-4.991895e+09 -4.791893e+09 -4.951894e+09 -3.547014e+02 -2.667227e+01 4.209754e+01
-4.302147e+09 -4.102144e+09 -4.262148e+09 -1.925909e+03 -2.163567e+02 5.217255e+02
-4.646691e+09 -4.446689e+09 -4.606690e+09 -9.005107e+02 -1.649811e+02 1.422190e+02
-3.962853e+09 -3.762853e+09 -3.922853e+09 8.468338e+02 -6.061151e+02 2.854396e+02
-4.133996e+09 -3.933994e+09 -4.093995e+09 -1.557952e+02 -1.096264e+02 7.172954e+01
-4.999578e+09 -4.799581e+09 -4.959580e+09 -1.151502e+03 9.461162e+00 -9.317132e+01
-4.132215e+09 -3.932213e+09 -4.092214e+09 -4.629977e+02 -1.732844e+02 1.084638e+02
-4.134007e+09 -3.934006e+09 -4.094006e+09 1.028889e+02 -1.609917e+02 1.342275e+02
-4.303471e+09 -4.103469e+09 -4.263470e+09 -9.331054e+02 -7.271171e+01 6.168982e+01
-4.302997e+09 -4.102995e+09 -4.262997e+09 -6.670357e+02 -1.896624e+02 2.215751e+02
-4.818541e+09 -4.618539e+09 -4.778540e+09 1.038026e+02 -8.547710e+01 -1.514011e+01
-4.820471e+09 -4.620469e+09 -4.780470e+09 1.126029e+02 -2.357369e+01 -3.062489e+01
-4.809632e+09 -4.609642e+09 -4.769629e+09 -3.494634e+02 -8.136041e+01 3.132764e+02
-4.991314e+09 -4.791311e+09 -4.951314e+09 -4.847475e+02 -4.881717e+01 6.041638e+01
-4.133313e+09 -3.933317e+09 -4.093313e+09 -9.909815e+02 2.020190e+02 -4.956508e+01
-4.303469e+09 -4.103476e+09 -4.263472e+09 -1.229127e+03 5.985319e+02 1.096888e+02
-1.773863e+09 -1.573864e+09 -1.733868e+09 2.068860e+03 -4.360518e+02 -4.272233e+02
-3.010474e+09 -2.810478e+09 -2.970474e+09 -5.922057e+02 1.041032e+02 -1.186912e+02
-4.991310e+09 -4.791314e+09 -4.951283e+09 -2.292103e+03 -3.558523e+02 2.441606e+03
-3.951767e+09 -3.751780e+09 -3.911768e+09 -1.981944e+03 -5.380487e+02 6.105982e+03
-4.645904e+09 -4.445904e+09 -4.605883e+09 -5.627806e+03 -2.324749e+03 3.611225e+03
-4.132169e+09 -3.932171e+09 -4.092135e+09 -5.441818e+03 -9.340232e+03 1.071098e+04
-4.090328e+09 -3.890329e+09 -4.050327e+09 -5.653566e+02 5.141475e+01 -9.058698e+00
-3.498988e+09 -3.298992e+09 -3.458988e+09 -5.980342e+02 6.642268e+01 1.401797e+01
-4.303470e+09 -4.103467e+09 -4.263446e+09 5.326980e+03 3.620063e+03 6.434154e+03
-4.622583e+09 -4.422585e+09 -4.582583e+09 -7.644925e+02 -7.299819e+01 -6.783948e+01
-4.988581e+09 -4.788573e+09 -4.948597e+09 -1.068025e+03 3.533179e+03 1.038160e+03
-4.815441e+09 -4.615438e+09 -4.775461e+09 1.168375e+03 2.212693e+03 -8.972807e+02
-1.589415e+09 -1.389421e+09 -1.549416e+09 -3.305028e+02 4.062177e+01 -1.042169e+02
-1.588972e+09 -1.388974e+09 -1.548972e+09 5.376107e+02 -6.143725e+02 8.190745e+01
-4.992551e+09 -4.792551e+09 -4.952552e+09 6.869766e+02 -1.461324e+02 9.153399e+01
-4.473191e+09 -4.273189e+09 -4.433192e+09 -3.991862e+03 -1.215628e+02 8.127867e+02
-4.988551e+09 -4.788550e+09 -4.948548e+09 -3.451780e+03 -3.142384e+02 -5.055213e+02
-4.640108e+09 -4.440108e+09 -4.600108e+09 3.699808e+01 4.543715e+00 2.372582e+01
-4.644418e+09 -4.444417e+09 -4.604418e+09 2.489612e+02 1.738860e+01 3.401405e+01
-4.131784e+09 -3.931786e+09 -4.091785e+09 -2.920090e+02 -1.161897e+01 -3.810368e+01
-4.302650e+09 -4.102652e+09 -4.262651e+09 4.544879e+02 -7.400005e+00 -3.340204e+01
-4.299237e+09 -4.099240e+09 -4.259239e+09 -5.441611e+02 -1.566670e+01 4.740850e+01
-4.991295e+09 -4.791296e+09 -4.951296e+09 5.122995e+02 -1.850868e+01 -1.979103e+01
-4.940309e+09 -4.740311e+09 -4.900309e+09 4.296323e+01 2.490553e-05 4.762315e+01
-3.924565e+09 -3.724566e+09 -3.884565e+09 1.017209e+03 -5.339296e+02 2.443920e+02
-4.061992e+09 -3.861994e+09 -4.021993e+09 2.100499e+02 2.554357e+00 -2.089090e+01
-4.991298e+09 -4.791299e+09 -4.951298e+09 4.258827e+02 -1.570799e+01 -2.574031e+01
-4.818566e+09 -4.618568e+09 -4.778567e+09 4.587124e+02 2.029999e+01 4.227700e+01
-3.922382e+09 -3.722383e+09 -3.882382e+09 3.757116e+02 -5.923802e+01 8.936122e+01
-4.991893e+09 -4.791892e+09 -4.951892e+09 1.558939e+02 -1.137492e+02 6.267337e+01
-4.133315e+09 -3.933314e+09 -4.093314e+09 3.784589e+02 -2.689110e+02 2.451000e+02
-4.990292e+09 -4.790280e+09 -4.950269e+09 2.830653e+03 5.409787e+01 3.668664e+01
-4.417373e+09 -4.217384e+09 -4.377380e+09 -1.219501e+02 6.828403e+01 2.795575e+02
-5.005921e+09 -4.805930e+09 -4.965926e+09 -1.648291e+03 1.633119e+02 5.014496e+02
-4.989636e+09 -4.789639e+09 -4.949638e+09 3.386480e+01 -5.299891e+00 -1.297862e+02
-4.373341e+09 -4.173347e+09 -4.333343e+09 -3.236377e+03 -7.245410e+02 8.841455e+02
-4.987685e+09 -4.787689e+09 -4.947684e+09 -4.115064e+03 -2.300474e+02 4.633032e+02
-4.624658e+09 -4.424656e+09 -4.584663e+09 -3.208635e+03 1.024101e+03 1.104801e+03
-3.959205e+09 -3.759207e+09 -3.919213e+09 -3.374409e+03 2.844393e+03 1.310692e+03
-4.940314e+09 -4.740324e+09 -4.900321e+09 4.478833e+01 3.090540e+01 2.489371e-05
-4.131874e+09 -3.931870e+09 -4.091874e+09 -4.173289e+03 -4.542337e+02 -8.472842e+02
-3.346885e+09 -3.146884e+09 -3.306884e+09 7.064825e+01 5.945754e+00 -8.882501e+00
-3.300759e+09 -3.100758e+09 -3.260758e+09 -3.558119e+01 -1.096776e+00 -1.713939e+01
-2.908511e+09 -2.708510e+09 -2.868510e+09 -1.606080e+01 -1.808667e+01 -5.033914e+00
-3.861025e+09 -3.661025e+09 -3.821024e+09 -2.165317e+02 -2.677552e+01 -6.789697e+01
-4.647925e+09 -4.447923e+09 -4.607924e+09 -4.694320e+03 -6.581945e+02 8.125550e+02
-4.072307e+09 -3.872304e+09 -4.032306e+09 -2.956033e+03 -3.888875e+02 -3.450613e+02
-4.194662e+09 -3.994661e+09 -4.154661e+09 4.355469e+01 3.310802e+01 -7.437272e+00
-4.302247e+09 -4.102238e+09 -4.262248e+09 -6.771031e+02 1.482411e+03 -2.035288e+03
-4.819719e+09 -4.619720e+09 -4.779719e+09 -7.293982e+02 1.460305e+02 4.003684e+01
-4.817098e+09 -4.617096e+09 -4.777098e+09 -2.623492e+03 1.430135e+02 -8.024752e+01
-4.990068e+09 -4.790068e+09 -4.950069e+09 -2.698282e+03 7.870075e+01 -1.093640e+02
-4.280158e+09 -4.080160e+09 -4.240159e+09 -2.586666e+03 3.035311e+02 -3.883176e+02
-4.776932e+09 -4.576933e+09 -4.736933e+09 -2.239130e+03 1.674689e+02 -2.884810e+01
-4.645680e+09 -4.445682e+09 -4.605681e+09 2.414575e+02 1.942871e+01 4.762124e+01
-4.990974e+09 -4.790977e+09 -4.950976e+09 5.745595e+02 -3.182042e+01 -1.196316e+02
-4.644798e+09 -4.444801e+09 -4.604800e+09 -5.462658e+02 -2.384212e+01 3.168308e+01
-4.819737e+09 -4.619740e+09 -4.779737e+09 -1.087529e+03 -1.274231e+02 -1.093668e+02
-4.991326e+09 -4.791328e+09 -4.951328e+09 6.417483e+02 -2.066589e+01 -5.774302e+01
-3.155347e+09 -2.955348e+09 -3.115345e+09 1.525898e+02 1.137735e+02 -1.145503e+01
-4.473590e+09 -4.273594e+09 -4.433592e+09 2.806850e+02 8.545596e+00 -1.899086e+02
-4.642470e+09 -4.442473e+09 -4.602472e+09 -5.429703e+02 4.114382e+01 -1.608022e+02
-4.629394e+09 -4.429395e+09 -4.589393e+09 -4.938413e+02 1.458906e+00 -5.888361e+01
-4.991842e+09 -4.791842e+09 -4.951840e+09 -6.481731e+02 8.219850e+01 3.259256e+01
-4.131201e+09 -3.931204e+09 -4.091203e+09 -4.733015e+02 1.018215e+01 -1.637590e+02
-4.645267e+09 -4.445270e+09 -4.605269e+09 4.678368e+02 2.870635e+01 2.490812e+01
-4.991020e+09 -4.791021e+09 -4.951021e+09 -6.723967e+02 -1.549835e+01 -2.815010e+01
-4.302244e+09 -4.102245e+09 -4.262248e+09 1.098206e+03 -1.469938e+03 8.238385e+02
-4.991163e+09 -4.791162e+09 -4.951164e+09 6.997644e+02 -1.750865e+02 1.376706e+02
-4.132832e+09 -3.932833e+09 -4.092833e+09 4.044983e+02 2.118308e+01 4.861329e+01
-4.471206e+09 -4.271210e+09 -4.431208e+09 -1.026624e+02 1.313172e+01 -1.809817e+02
-4.130110e+09 -3.930113e+09 -4.090112e+09 1.452464e+02 3.206475e+01 -6.634486e+01
-4.131519e+09 -3.931521e+09 -4.091521e+09 -7.291612e+02 -2.494420e+01 1.017746e+02
-4.546589e+09 -4.346589e+09 -4.506588e+09 -9.817588e+01 -9.412641e+00 -1.143290e+01
-4.818205e+09 -4.618208e+09 -4.778207e+09 -5.349831e+02 6.516851e-02 8.487092e+01
-4.136174e+09 -3.936172e+09 -4.096173e+09 -1.169086e+02 -4.142843e+01 -2.542601e+01
-4.818348e+09 -4.618351e+09 -4.778350e+09 5.401157e+01 6.837991e+00 -1.703444e+01
-4.991216e+09 -4.791218e+09 -4.951217e+09 3.321308e+02 -1.974540e+01 -1.196318e+01
-4.992487e+09 -4.792485e+09 -4.952486e+09 -2.997738e+02 3.950092e+00 1.369366e+01
-4.991223e+09 -4.791225e+09 -4.951225e+09 3.514369e+02 -1.369931e+01 -2.804567e+01
-3.372717e+09 -3.172715e+09 -3.332716e+09 -2.018098e+02 -2.138848e+01 -8.767072e+01
-4.301829e+09 -4.101814e+09 -4.261832e+09 -2.571373e+03 5.705203e+02 -3.810210e+03
-3.961448e+09 -3.761437e+09 -3.921450e+09 1.591150e+03 9.206085e+02 -3.804784e+03
-3.961457e+09 -3.761459e+09 -3.921460e+09 1.694748e+03 -1.363374e+03 7.849726e+02
-4.990692e+09 -4.790689e+09 -4.950699e+09 -7.538516e+02 -7.533720e+02 4.245019e+02
-3.961431e+09 -3.761434e+09 -3.921436e+09 1.674274e+03 -2.021597e+03 9.378627e+02
-4.989347e+09 -4.789343e+09 -4.949349e+09 -3.244299e+03 -4.906977e+02 3.393804e+02
-4.297496e+09 -4.097491e+09 -4.257500e+09 -2.455114e+03 -1.449730e+03 1.625915e+03
-3.375026e+09 -3.175021e+09 -3.335026e+09 -6.175931e+02 -1.381524e+03 -7.084618e+02
-4.769668e+09 -4.569671e+09 -4.729672e+09 8.849468e+02 -1.260639e+02 -5.926745e+02
-4.990816e+09 -4.790810e+09 -4.950824e+09 -2.553525e+03 -1.211900e+03 6.546539e+02
-4.303316e+09 -4.103310e+09 -4.263324e+09 -2.912306e+03 -1.914710e+03 2.011928e+03
-4.992638e+09 -4.792633e+09 -4.952640e+09 1.629585e+03 -1.206466e+02 -1.355664e+02
-4.609303e+09 -4.409299e+09 -4.569303e+09 2.043306e+02 -2.338520e+02 -5.797720e+01
-3.432438e+09 -3.232444e+09 -3.392439e+09 -5.987069e+00 -7.335826e+01 1.324980e+01
-4.990118e+09 -4.790117e+09 -4.950121e+09 -2.832198e+03 4.546111e+02 1.576676e+02
-4.991395e+09 -4.791394e+09 -4.951395e+09 -1.898685e+03 -5.781713e+01 4.909558e+01
-4.643254e+09 -4.443253e+09 -4.603256e+09 -2.782131e+03 6.109842e+02 5.945012e+02
-4.991280e+09 -4.791279e+09 -4.951280e+09 -2.040559e+03 5.667928e+01 8.934177e+01
-4.821766e+09 -4.621772e+09 -4.781767e+09 1.267994e+02 -2.503308e+01 1.935971e+01
-4.992485e+09 -4.792491e+09 -4.952486e+09 4.535917e+02 2.157599e+01 2.033891e+01
-4.818478e+09 -4.618478e+09 -4.778478e+09 -1.934443e+03 3.217973e+02 2.610960e+02
-4.818601e+09 -4.618599e+09 -4.778600e+09 -8.431182e+02 1.127545e+02 1.184080e+02
-4.770423e+09 -4.570429e+09 -4.730423e+09 1.504242e+02 -1.634308e+01 9.506696e+00
-4.818249e+09 -4.618252e+09 -4.778251e+09 -2.792968e+02 7.736782e+00 2.430534e+01
-4.664317e+09 -4.464319e+09 -4.624318e+09 6.618779e+01 7.575903e+00 3.372144e+01
-4.129984e+09 -3.929988e+09 -4.089987e+09 -6.745711e+01 -9.425113e+00 -1.058389e+02
-4.991212e+09 -4.791214e+09 -4.951214e+09 3.281211e+02 -1.318719e+01 -4.479205e+01
-4.647407e+09 -4.447409e+09 -4.607408e+09 -4.914851e+01 -1.079967e-01 1.096996e+01
-3.848927e+09 -3.648928e+09 -3.808928e+09 1.296624e+02 1.837976e+01 1.885942e+01
-2.729098e+09 -2.529098e+09 -2.689098e+09 2.238891e+02 3.121804e+01 1.821363e+01
-4.818942e+09 -4.618943e+09 -4.778943e+09 -6.564100e+02 -3.312139e+01 5.122416e+01
-2.931611e+09 -2.731609e+09 -2.891609e+09 1.324613e+03 6.944750e+02 -1.302245e+02
-3.106265e+09 -2.906265e+09 -3.066263e+09 2.750421e+02 2.335861e+02 -1.305508e+01
-4.131961e+09 -3.931963e+09 -4.091963e+09 2.675106e+02 8.754676e+00 -3.475559e+01
-4.818152e+09 -4.618154e+09 -4.778154e+09 2.997488e+02 -8.376681e+00 -5.199443e+01
-4.641253e+09 -4.441257e+09 -4.601255e+09 -1.111542e+02 2.117381e+01 -9.206059e+01
-4.137916e+09 -3.937919e+09 -4.097918e+09 -8.162120e+02 1.648874e+01 -3.170055e+02
-4.640780e+09 -4.440782e+09 -4.600779e+09 1.238929e+03 7.869400e+01 -6.645361e+00
-4.470261e+09 -4.270265e+09 -4.430264e+09 -7.725944e+02 1.728733e+02 -1.738718e+02
-1.939668e+09 -1.739669e+09 -1.899669e+09 2.557969e+02 2.413679e+01 4.136500e+01
-1.991055e+09 -1.791056e+09 -1.951056e+09 2.572597e+02 2.675985e+01 4.207307e+01
-1.890281e+09 -1.690283e+09 -1.850282e+09 2.211518e+02 3.101999e+01 4.620604e+01
-1.690735e+09 -1.490736e+09 -1.650736e+09 2.275503e+02 3.528766e+01 1.697642e+01
-1.589961e+09 -1.389962e+09 -1.549962e+09 2.116150e+02 4.879966e+01 3.449098e+01
-1.589961e+09 -1.389962e+09 -1.549962e+09 2.393766e+02 4.692309e+01 5.443711e+01
-1.846136e+09 -1.646130e+09 -1.806134e+09 -2.089639e+03 -2.422545e+03 -2.086238e+03
-2.043925e+09 -1.843921e+09 -2.003924e+09 -1.968349e+03 -2.996414e+03 -1.799446e+03
-1.893770e+09 -1.693767e+09 -1.853769e+09 -2.346010e+03 -2.921024e+03 -1.751890e+03
-1.490939e+09 -1.290934e+09 -1.450937e+09 -2.676733e+03 -2.022853e+03 -2.214346e+03
-1.695981e+09 -1.495975e+09 -1.655978e+09 -2.445255e+03 -2.110630e+03 -2.014503e+03
-1.593460e+09 -1.393456e+09 -1.553458e+09 -3.090533e+03 -2.267996e+03 -1.736292e+03
-1.591056e+09 -1.391050e+09 -1.551053e+09 -2.493951e+03 -2.217188e+03 -2.388005e+03
-1.791288e+09 -1.591282e+09 -1.751285e+09 -2.440710e+03 -2.123886e+03 -2.051032e+03
-1.896213e+09 -1.696207e+09 -1.856211e+09 -2.422012e+03 -2.042301e+03 -2.114943e+03
-1.838954e+09 -1.638949e+09 -1.798952e+09 -1.339549e+03 -2.002009e+03 -2.044344e+03
-1.738837e+09 -1.538831e+09 -1.698837e+09 -2.859871e+02 -1.767151e+03 -2.656249e+03
-2.039212e+09 -1.839206e+09 -1.999211e+09 -2.728025e+02 -1.901179e+03 -2.663082e+03
-1.488534e+09 -1.288529e+09 -1.448532e+09 -1.723623e+03 -1.633482e+03 -1.941809e+03
-1.588650e+09 -1.388644e+09 -1.548649e+09 -9.301741e+02 -1.132205e+03 -2.504990e+03
-1.688766e+09 -1.488762e+09 -1.648765e+09 -1.764833e+03 -1.582826e+03 -1.967069e+03
-1.840899e+09 -1.640900e+09 -1.800899e+09 2.426851e+02 2.687493e+01 1.979647e+00
-2.040452e+09 -1.840453e+09 -2.000453e+09 2.745114e+02 2.061272e+01 -5.835535e+00
-1.890289e+09 -1.690290e+09 -1.850289e+09 2.419600e+02 3.092766e+01 -4.410144e-01
-2.089832e+09 -1.889833e+09 -2.049833e+09 3.068826e+02 1.201080e+01 9.279692e+00
-2.340773e+09 -2.140774e+09 -2.300774e+09 3.053437e+02 1.027511e+01 5.078852e+00
-2.141219e+09 -1.941220e+09 -2.101220e+09 2.960602e+02 1.763894e+01 1.943618e+01
-1.838905e+09 -1.638906e+09 -1.798906e+09 3.470366e+02 4.223835e+01 1.632267e+01
-1.688741e+09 -1.488742e+09 -1.648742e+09 3.420773e+02 4.349209e+01 1.894642e+01
-1.688741e+09 -1.488742e+09 -1.648742e+09 3.232935e+02 5.072665e+01 2.805521e+01
-1.488534e+09 -1.288529e+09 -1.448532e+09 -2.257380e+03 -2.259994e+03 -2.047177e+03
-1.688767e+09 -1.488762e+09 -1.648765e+09 -2.523264e+03 -2.442806e+03 -2.125894e+03
-1.488535e+09 -1.288529e+09 -1.448532e+09 -2.576259e+03 -2.536062e+03 -2.462586e+03
-1.838894e+09 -1.638895e+09 -1.798895e+09 2.912772e+02 3.639124e+01 2.084410e+01
-1.688734e+09 -1.488735e+09 -1.648735e+09 2.661408e+02 4.240375e+01 1.747655e+01
-1.688734e+09 -1.488735e+09 -1.648735e+09 2.802921e+02 3.598090e+01 2.396410e+01
-1.941443e+09 -1.741437e+09 -1.901441e+09 -2.106833e+03 -2.438415e+03 -2.113351e+03
-2.244158e+09 -2.044153e+09 -2.204157e+09 -1.949501e+03 -2.768978e+03 -2.329464e+03
-2.046368e+09 -1.846363e+09 -2.006366e+09 -2.072152e+03 -2.373626e+03 -2.188586e+03
-1.989109e+09 -1.789104e+09 -1.949108e+09 -1.605820e+03 -2.197427e+03 -2.039147e+03
-2.189367e+09 -1.989363e+09 -2.149368e+09 -1.371091e+03 -3.124037e+03 -2.896815e+03
-2.339490e+09 -2.139484e+09 -2.299491e+09 -8.846486e+02 -2.554791e+03 -2.395930e+03
-1.513881e+09 -1.313882e+09 -1.473881e+09 2.776414e+02 2.383129e+01 3.691815e+01
-1.664041e+09 -1.464042e+09 -1.624042e+09 2.737817e+02 2.148704e+01 3.584811e+01
-1.689734e+09 -1.489736e+09 -1.649735e+09 2.754433e+02 2.274625e+01 3.498323e+01
-1.639347e+09 -1.439349e+09 -1.599348e+09 2.504697e+02 2.526071e+01 3.804304e+01
-1.438800e+09 -1.238802e+09 -1.398801e+09 2.493241e+02 2.992255e+01 1.325612e+01
-1.539574e+09 -1.339575e+09 -1.499575e+09 2.495625e+02 2.999086e+01 1.362721e+01
-1.489187e+09 -1.289188e+09 -1.449188e+09 2.334810e+02 3.701322e+01 1.989324e+01
-1.489187e+09 -1.289188e+09 -1.449188e+09 2.579590e+02 3.825554e+01 4.007838e+01
-1.514757e+09 -1.314752e+09 -1.474754e+09 -2.473767e+03 -2.639842e+03 -2.490920e+03
-1.617277e+09 -1.417272e+09 -1.577275e+09 -2.484584e+03 -2.434084e+03 -2.476202e+03
-1.716172e+09 -1.516168e+09 -1.676170e+09 -2.225473e+03 -2.799760e+03 -2.303366e+03
-1.641094e+09 -1.441091e+09 -1.601093e+09 -2.436502e+03 -2.829384e+03 -2.251457e+03
-1.439679e+09 -1.239675e+09 -1.399677e+09 -2.761069e+03 -2.387846e+03 -2.608890e+03
-1.439679e+09 -1.239674e+09 -1.399676e+09 -2.724113e+03 -2.254780e+03 -2.565759e+03
-1.542200e+09 -1.342194e+09 -1.502197e+09 -2.663835e+03 -2.276863e+03 -2.492817e+03
-1.490939e+09 -1.290935e+09 -1.450937e+09 -2.938801e+03 -2.388813e+03 -2.342665e+03
-1.489737e+09 -1.289732e+09 -1.449735e+09 -2.871071e+03 -2.507639e+03 -2.792284e+03
-1.489737e+09 -1.289732e+09 -1.449734e+09 -2.576259e+03 -2.345684e+03 -2.697550e+03
-1.589853e+09 -1.389848e+09 -1.549851e+09 -2.574818e+03 -2.347741e+03 -2.485990e+03
-1.642316e+09 -1.442310e+09 -1.602314e+09 -2.591071e+03 -2.282243e+03 -2.570343e+03
-1.513570e+09 -1.313564e+09 -1.473568e+09 -1.985786e+03 -2.263849e+03 -2.490235e+03
-1.613687e+09 -1.413681e+09 -1.573684e+09 -1.891767e+03 -2.256549e+03 -2.287794e+03
-1.563628e+09 -1.363622e+09 -1.523627e+09 -1.205237e+03 -2.017813e+03 -2.677065e+03
-1.713816e+09 -1.513809e+09 -1.673814e+09 -1.302788e+03 -2.055312e+03 -2.573153e+03
-1.438476e+09 -1.238471e+09 -1.398474e+09 -2.295008e+03 -1.959062e+03 -2.562243e+03
-1.438476e+09 -1.238471e+09 -1.398474e+09 -2.307927e+03 -2.099039e+03 -2.279123e+03
-1.488534e+09 -1.288528e+09 -1.448533e+09 -1.745826e+03 -1.484978e+03 -2.726021e+03
-1.538592e+09 -1.338588e+09 -1.498591e+09 -2.249529e+03 -1.903918e+03 -2.335362e+03
-1.513882e+09 -1.313883e+09 -1.473883e+09 2.576216e+02 2.543909e+01 3.370371e+00
-1.614656e+09 -1.414657e+09 -1.574657e+09 2.587467e+02 2.538468e+01 2.830490e+00
-1.714433e+09 -1.514434e+09 -1.674434e+09 2.661597e+02 2.037823e+01 3.114966e-01
-1.639351e+09 -1.439352e+09 -1.599352e+09 2.460417e+02 2.627301e+01 3.538100e+00
-1.588962e+09 -1.388964e+09 -1.548963e+09 3.058344e+02 1.941844e+01 1.944310e+01
-1.739123e+09 -1.539124e+09 -1.699123e+09 3.060895e+02 1.853273e+01 1.525755e+01
-1.864593e+09 -1.664594e+09 -1.824594e+09 3.059468e+02 1.525986e+01 1.413559e+01
-1.764816e+09 -1.564817e+09 -1.724817e+09 3.037676e+02 1.798595e+01 1.749967e+01
-1.463496e+09 -1.263497e+09 -1.423496e+09 3.258968e+02 4.594612e+01 2.556568e+01
-1.613659e+09 -1.413660e+09 -1.573660e+09 3.325026e+02 4.204546e+01 2.099903e+01
-1.538577e+09 -1.338578e+09 -1.498578e+09 3.429094e+02 4.778732e+01 2.361565e+01
-1.538577e+09 -1.338578e+09 -1.498578e+09 3.266359e+02 4.858785e+01 2.974302e+01
-1.438477e+09 -1.238471e+09 -1.398474e+09 -2.847278e+03 -2.611355e+03 -2.698525e+03
-1.438476e+09 -1.238471e+09 -1.398474e+09 -2.648678e+03 -2.509615e+03 -2.360005e+03
-1.538593e+09 -1.338587e+09 -1.498590e+09 -2.697178e+03 -2.478897e+03 -2.441005e+03
-1.438477e+09 -1.238471e+09 -1.398474e+09 -2.698455e+03 -2.476803e+03 -2.652453e+03
-1.463494e+09 -1.263495e+09 -1.423494e+09 3.053169e+02 3.565197e+01 2.262952e+01
-1.613654e+09 -1.413655e+09 -1.573655e+09 3.007931e+02 3.310573e+01 2.176378e+01
-1.538574e+09 -1.338575e+09 -1.498575e+09 2.852336e+02 3.765029e+01 1.803705e+01
-1.538574e+09 -1.338575e+09 -1.498575e+09 2.962737e+02 3.473570e+01 2.287883e+01
-1.564815e+09 -1.364809e+09 -1.524813e+09 -2.565892e+03 -2.798692e+03 -2.682795e+03
-1.664931e+09 -1.464925e+09 -1.624928e+09 -2.410764e+03 -2.503963e+03 -2.471809e+03
-1.816289e+09 -1.616283e+09 -1.776287e+09 -2.308743e+03 -2.818555e+03 -2.581604e+03
-1.717394e+09 -1.517388e+09 -1.677391e+09 -2.415541e+03 -2.450721e+03 -2.561200e+03
-1.588648e+09 -1.388642e+09 -1.548646e+09 -2.326387e+03 -2.611993e+03 -2.562619e+03
-1.688764e+09 -1.488758e+09 -1.648762e+09 -2.176823e+03 -2.317194e+03 -2.352658e+03
-1.788893e+09 -1.588888e+09 -1.748892e+09 -2.028602e+03 -2.902182e+03 -2.740088e+03
-1.863955e+09 -1.663949e+09 -1.823954e+09 -1.798111e+03 -2.576393e+03 -2.506593e+03
-3.297514e+09 -3.097513e+09 -3.257513e+09 1.612881e+02 7.522896e+00 -3.891609e+01
-2.568512e+09 -2.368531e+09 -2.528528e+09 -1.704567e+03 1.689396e+04 -5.219988e+02
-2.358647e+09 -2.158670e+09 -2.318666e+09 -9.300828e+02 1.837737e+04 3.431580e+02
-1.783426e+09 -1.583453e+09 -1.743439e+09 9.479489e+03 2.351291e+04 -2.809846e+03
-2.755860e+09 -2.555872e+09 -2.715877e+09 1.164512e+03 1.634709e+04 -1.819992e+03
-1.951196e+09 -1.751218e+09 -1.911207e+09 5.608151e+03 1.806159e+04 -3.412598e+03
-2.578909e+09 -2.378922e+09 -2.538925e+09 4.796967e+03 1.475429e+04 -3.349023e+03
-2.754416e+09 -2.554420e+09 -2.714419e+09 -4.858602e+02 1.234056e+02 -8.963070e+02
-2.442854e+09 -2.242858e+09 -2.402857e+09 -1.464603e+03 2.045985e+02 -1.128523e+03
-3.208126e+09 -3.008126e+09 -3.168127e+09 -1.354561e+03 -1.177647e+02 9.353806e+01
-1.766222e+09 -1.566227e+09 -1.726227e+09 -1.835988e+03 2.930702e+02 -9.695912e+02
-2.050926e+09 -1.850930e+09 -2.010931e+09 -1.639625e+03 1.357525e+02 -8.112316e+02
-2.530870e+09 -2.330868e+09 -2.490869e+09 3.311584e+02 1.145242e+02 -4.527552e+01
-2.129175e+09 -1.929180e+09 -2.089179e+09 -6.009908e+02 5.345407e+01 -8.027270e+02
-1.759698e+09 -1.559702e+09 -1.719702e+09 -8.144518e+02 5.514319e+01 -3.751308e+02
-1.573394e+09 -1.373393e+09 -1.533393e+09 -3.060680e+00 6.840376e+01 -4.753328e+01
-2.139717e+09 -1.939720e+09 -2.099719e+09 4.325934e+03 -5.719354e+03 2.824263e+03
-2.551820e+09 -2.351823e+09 -2.511825e+09 4.391798e+03 -7.334429e+03 4.086233e+03
-3.022947e+09 -2.822948e+09 -2.982955e+09 1.822435e+03 -7.906347e+03 3.534827e+03
-2.718151e+09 -2.518150e+09 -2.678150e+09 1.084833e+02 3.894194e+01 -5.695811e+01
-2.458537e+09 -2.258541e+09 -2.418543e+09 4.632127e+03 -7.092404e+03 4.279123e+03
-2.546981e+09 -2.346984e+09 -2.506984e+09 3.803620e+03 -4.736828e+03 2.904638e+03
-2.747736e+09 -2.547738e+09 -2.707739e+09 2.796300e+03 -5.354418e+03 3.057559e+03
-3.086372e+09 -2.886371e+09 -3.046371e+09 2.144743e+02 7.489345e+01 -6.742660e+01
-2.604805e+09 -2.404813e+09 -2.564807e+09 1.316538e+03 1.615527e+03 -1.951154e+02
-2.391302e+09 -2.191311e+09 -2.351305e+09 9.491462e+02 1.587502e+03 -1.624110e+02
-1.986030e+09 -1.786040e+09 -1.946032e+09 2.428111e+02 2.083916e+03 -7.245490e+01
-2.394341e+09 -2.194351e+09 -2.354344e+09 1.738908e+03 2.398367e+03 -2.929081e+02
-1.788562e+09 -1.588574e+09 -1.748565e+09 -7.890150e+01 2.820510e+03 1.296015e+02
-1.606359e+09 -1.406358e+09 -1.566358e+09 4.463510e+02 9.172910e+01 -9.208408e+01
-2.382667e+09 -2.182677e+09 -2.342671e+09 8.737740e+02 2.487066e+03 -1.024411e+01
-1.766642e+09 -1.566649e+09 -1.726643e+09 2.676039e+03 1.409049e+03 -3.070708e+02
-2.481470e+09 -2.281477e+09 -2.441471e+09 2.590677e+03 1.367845e+03 -3.889666e+02
-2.381187e+09 -2.181194e+09 -2.341189e+09 2.533067e+03 1.385156e+03 -3.822428e+02
-1.962411e+09 -1.762419e+09 -1.922413e+09 2.903264e+03 2.085805e+03 -3.987486e+02
-2.650334e+09 -2.450334e+09 -2.610334e+09 1.137038e+03 -1.461317e+01 -2.471122e+02
-3.614981e+09 -3.414980e+09 -3.574980e+09 1.537393e+02 -2.351190e+00 -2.985229e+01
-2.550711e+09 -2.350712e+09 -2.510712e+09 1.206755e+03 3.970662e+01 -1.645681e+02
-3.170385e+09 -2.970386e+09 -3.130386e+09 1.225796e+03 -4.696713e+01 -2.889133e+02
-2.478803e+09 -2.278803e+09 -2.438803e+09 1.123260e+03 3.122389e+01 -1.421130e+02
-2.412718e+09 -2.212718e+09 -2.372718e+09 1.079933e+03 2.868026e+01 -1.898419e+02
-2.727008e+09 -2.527008e+09 -2.687008e+09 8.868302e+02 4.222296e+01 -1.950792e+02
-3.622409e+09 -3.422409e+09 -3.582409e+09 1.285220e+03 -8.448120e+01 -3.221951e+02
-3.364794e+09 -3.164795e+09 -3.324795e+09 1.265542e+03 -1.507330e+01 -2.756342e+02
-3.218737e+09 -3.018729e+09 -3.178737e+09 -4.929967e+03 3.314522e+03 5.066647e+03
-3.187645e+09 -2.987643e+09 -3.147648e+09 -5.916709e+03 3.582151e+03 3.456393e+03
-2.517962e+09 -2.317954e+09 -2.477962e+09 -4.432607e+03 3.258523e+03 4.156464e+03
-2.599023e+09 -2.399021e+09 -2.559024e+09 -5.387523e+03 5.029920e+03 4.115893e+03
-3.426293e+09 -3.226288e+09 -3.386297e+09 -4.324699e+03 4.292348e+03 4.264658e+03
-3.376706e+09 -3.176703e+09 -3.336711e+09 -4.710403e+03 4.573726e+03 3.144905e+03
-3.193073e+09 -2.993068e+09 -3.153074e+09 -1.047303e+03 -1.286552e+03 2.332562e+03
-2.591740e+09 -2.391734e+09 -2.551739e+09 -1.156472e+03 -6.744899e+02 2.245305e+03
-2.802318e+09 -2.602312e+09 -2.762316e+09 -1.611686e+03 -1.480991e+03 2.551859e+03
-3.188772e+09 -2.988766e+09 -3.148772e+09 -1.778856e+03 -3.824808e+02 2.335592e+03
-2.392426e+09 -2.192416e+09 -2.352425e+09 -2.163747e+02 -5.203538e+02 3.903780e+03
-2.776499e+09 -2.576493e+09 -2.736502e+09 1.374369e+02 -3.461124e+03 5.139248e+03
-3.175725e+09 -2.975719e+09 -3.135728e+09 2.764201e+02 -1.751377e+03 3.587208e+03
-3.190465e+09 -2.990457e+09 -3.150468e+09 -5.209111e+02 -1.559404e+03 3.278066e+03
-3.332180e+09 -3.132175e+09 -3.292174e+09 3.955743e+03 -2.105594e+03 -1.887100e+03
-2.671613e+09 -2.471601e+09 -2.631607e+09 2.520928e+03 -3.347121e+03 4.981138e+02
-3.587573e+09 -3.387574e+09 -3.547574e+09 1.641551e+03 -1.369187e+02 -7.672563e+02
-3.023830e+09 -2.823824e+09 -2.983824e+09 3.550638e+03 -2.343075e+03 -2.273903e+03
-2.116727e+09 -1.916718e+09 -2.076710e+09 2.034600e+03 -4.354699e+03 -6.422733e+03
-2.776994e+09 -2.576989e+09 -2.736986e+09 5.655179e+03 -3.551308e+03 -4.247559e+03
-1.885983e+09 -1.685963e+09 -1.845966e+09 7.544384e+03 -7.713780e+03 -2.780959e+03
-2.069259e+09 -1.869248e+09 -2.029253e+09 4.542695e+03 -3.890064e+03 -2.507772e+03
-3.244565e+09 -3.044564e+09 -3.204564e+09 -1.082649e+03 1.451333e+02 2.488177e+01
-3.211503e+09 -3.011501e+09 -3.171502e+09 -6.515482e+02 1.061498e+02 -4.583336e+01
-3.389062e+09 -3.189061e+09 -3.349061e+09 -8.184009e+02 6.378369e+01 -2.532846e+01
-2.861183e+09 -2.661182e+09 -2.821182e+09 -1.347833e+03 2.340671e+02 1.271653e+02
-3.250029e+09 -3.050029e+09 -3.210028e+09 -1.321427e+03 4.757299e+02 1.302563e+02
-2.684004e+09 -2.483989e+09 -2.644010e+09 -1.470554e+03 -1.980131e+03 -5.842270e+03
-2.515434e+09 -2.315440e+09 -2.475435e+09 -1.456032e+03 8.351149e+02 1.716231e+02
-1.931155e+09 -1.731161e+09 -1.891156e+09 -1.497999e+03 6.379220e+02 1.842159e+02
-2.303219e+09 -2.103224e+09 -2.263220e+09 -2.024434e+03 9.280804e+02 8.258905e+01
-2.546030e+09 -2.346037e+09 -2.506032e+09 -1.909579e+03 1.580956e+03 2.646287e+02
-1.750981e+09 -1.550988e+09 -1.710982e+09 -1.538427e+03 9.884584e+02 1.917132e+02
-1.916321e+09 -1.716326e+09 -1.876322e+09 -2.123988e+03 1.384868e+03 1.005781e+02
-2.788672e+09 -2.588671e+09 -2.748671e+09 4.458870e+02 8.149664e+01 -2.942209e+01
-1.720170e+09 -1.520169e+09 -1.680169e+09 8.363808e+00 4.518664e+01 -1.479449e+02
-2.058697e+09 -1.858695e+09 -2.018696e+09 1.521854e+02 7.051220e+01 -1.096241e+02
-2.054920e+09 -1.854919e+09 -2.014920e+09 3.585346e+02 9.532236e+01 -1.205921e+02
-1.919765e+09 -1.719763e+09 -1.879764e+09 1.099822e+02 9.768964e+01 -9.251779e+01
-1.958405e+09 -1.758407e+09 -1.918405e+09 -1.967240e+03 5.472702e+02 5.297991e+01
-2.326713e+09 -2.126717e+09 -2.286713e+09 -2.077713e+03 5.886395e+02 1.061309e+02
-2.562566e+09 -2.362568e+09 -2.522565e+09 -1.899807e+03 5.345916e+02 1.290984e+02
-2.356170e+09 -2.156173e+09 -2.316170e+09 -1.961015e+03 4.026134e+02 1.043789e+02
-2.560212e+09 -2.360215e+09 -2.520212e+09 -2.448182e+03 9.268087e+02 3.990705e+02
-2.554949e+09 -2.354951e+09 -2.514949e+09 -1.969298e+03 4.420474e+02 9.651837e+01
-3.571852e+09 -3.371851e+09 -3.531851e+09 1.559968e+01 5.160036e+01 -1.720764e+01
-1.802964e+09 -1.602967e+09 -1.762965e+09 3.928435e+03 -5.646248e+03 3.496644e+03
-2.452292e+09 -2.252293e+09 -2.412293e+09 4.621181e+02 3.520195e+01 1.962122e+01
-2.170393e+09 -1.970395e+09 -2.130394e+09 2.842297e+02 2.041802e+01 1.412542e+01
-2.613736e+09 -2.413737e+09 -2.573737e+09 2.581132e+02 2.578067e+01 5.283301e+01
-2.211371e+09 -2.011373e+09 -2.171373e+09 2.536147e+02 7.399372e+00 -1.256349e+01
-3.127466e+09 -2.927465e+09 -3.087479e+09 -4.609430e+03 -1.011429e+04 -3.645054e+03
-3.594337e+09 -3.394335e+09 -3.554336e+09 2.674875e+02 4.823570e+01 -5.174026e+01
-3.435459e+09 -3.235456e+09 -3.395471e+09 -3.022993e+03 -7.660582e+03 -3.622070e+03
-3.196557e+09 -2.996557e+09 -3.156572e+09 -4.062747e+03 -1.050841e+04 -1.727058e+03
-3.412248e+09 -3.212245e+09 -3.372261e+09 -2.416181e+03 -7.856025e+03 -1.217990e+03
-2.833666e+09 -2.633665e+09 -2.793666e+09 -4.360468e+02 -2.886459e+01 -8.424661e+00
-3.322657e+09 -3.122638e+09 -3.282649e+09 1.620316e+03 -5.097747e+03 3.641236e+03
-1.582788e+09 -1.382810e+09 -1.542804e+09 8.203131e+03 4.786033e+03 2.845202e+04
-3.428451e+09 -3.228450e+09 -3.388450e+09 -4.355803e+02 -3.695441e+01 3.046875e+00
-3.054420e+09 -2.854419e+09 -3.014419e+09 3.068873e+01 5.329326e+01 -4.204720e+01
-2.594323e+09 -2.394322e+09 -2.554322e+09 -3.779335e+02 -4.713162e+01 5.031371e+01
-3.293054e+09 -3.093054e+09 -3.253054e+09 -4.136947e+02 -1.570974e+01 -5.944187e-01
-3.111556e+09 -2.911555e+09 -3.071556e+09 -5.208065e+02 -3.206787e+01 -4.317394e+01
-2.100353e+09 -1.900346e+09 -2.060351e+09 5.456838e+03 4.335075e+03 -4.791505e+03
-1.651365e+09 -1.451361e+09 -1.611363e+09 5.628735e+03 3.377346e+03 -2.525931e+03
-2.224673e+09 -2.024679e+09 -2.184674e+09 -8.339051e+02 3.695545e+02 1.583313e+02
-2.907536e+09 -2.707529e+09 -2.867536e+09 3.832226e+03 2.581953e+03 -3.891069e+03
-3.071094e+09 -2.871092e+09 -3.031096e+09 3.783177e+03 2.985780e+03 -2.718903e+03
-2.511823e+09 -2.311816e+09 -2.471823e+09 5.422616e+03 4.475413e+03 -4.401087e+03
-2.746735e+09 -2.546715e+09 -2.706776e+09 3.641663e+03 2.344410e+04 -1.765136e+04
-3.599655e+09 -3.399656e+09 -3.559653e+09 3.178635e+03 -1.485135e+03 -3.114340e+03
-1.798166e+09 -1.598185e+09 -1.758203e+09 9.338054e+03 4.117374e+04 -1.377947e+04
-2.368577e+09 -2.168585e+09 -2.328594e+09 1.693242e+04 2.324085e+04 -1.512528e+04
-1.968871e+09 -1.768835e+09 -1.928930e+09 4.467462e+03 3.818471e+04 -2.867070e+04
-1.782940e+09 -1.582914e+09 -1.743010e+09 1.207066e+04 4.317650e+04 -3.265443e+04
-3.168505e+09 -2.968514e+09 -3.128510e+09 2.556568e+03 3.362619e+03 -3.676262e+02
-2.776202e+09 -2.576212e+09 -2.736209e+09 2.448342e+03 6.131697e+03 -1.381328e+03
-2.438376e+09 -2.238390e+09 -2.398381e+09 8.604915e+02 5.035398e+03 -3.890271e+01
-2.789208e+09 -2.589218e+09 -2.749212e+09 1.283936e+03 2.733989e+03 -1.713351e+02
-2.562891e+09 -2.362900e+09 -2.522895e+09 2.379900e+03 2.942707e+03 -6.902586e+02
-2.363861e+09 -2.163871e+09 -2.323865e+09 2.598531e+03 3.905050e+03 -7.356723e+02
-3.184133e+09 -2.984131e+09 -3.144132e+09 1.053075e+03 -1.741074e+01 -2.511951e+02
-3.367398e+09 -3.167397e+09 -3.327398e+09 1.186266e+03 -1.062090e+02 -2.739102e+02
-2.711251e+09 -2.511249e+09 -2.671250e+09 7.856648e+02 1.286453e+02 1.989939e+01
-3.218243e+09 -3.018242e+09 -3.178243e+09 8.383907e+02 3.457086e+01 -1.629110e+02
-2.504320e+09 -2.304319e+09 -2.464319e+09 9.111070e+02 8.500273e+01 -1.854955e+02
-3.559074e+09 -3.359081e+09 -3.519063e+09 4.792779e+03 4.808163e+03 8.678793e+03
-3.417427e+09 -3.217426e+09 -3.377426e+09 9.564555e+02 8.730280e+01 -6.756852e+01
-2.461929e+09 -2.261933e+09 -2.421932e+09 7.520167e+02 1.638150e+01 -4.845728e+02
-2.030987e+09 -1.830990e+09 -1.990990e+09 1.663482e+03 -1.972577e+02 -1.050416e+03
-1.817542e+09 -1.617545e+09 -1.777545e+09 1.504409e+03 -1.484315e+02 -8.815946e+02
-2.709912e+09 -2.509914e+09 -2.669914e+09 -9.584785e+02 -2.414849e+01 -2.281736e+00
-1.796678e+09 -1.596680e+09 -1.756680e+09 -7.532977e+02 -4.538802e+01 -1.177898e+01
-2.460605e+09 -2.260606e+09 -2.420606e+09 -9.224415e+02 -5.816596e+01 2.856225e+01
-2.104297e+09 -1.904298e+09 -2.064298e+09 -1.025694e+03 -1.041301e+02 2.919121e+01
-1.808737e+09 -1.608738e+09 -1.768738e+09 -9.439696e+02 -5.472999e+01 -4.242305e+01
-1.780581e+09 -1.580578e+09 -1.740579e+09 8.778058e+01 1.689045e+02 -3.022805e+01
-2.374585e+09 -2.174583e+09 -2.334584e+09 -1.408595e+02 1.630609e+01 -1.634539e+02
-2.409694e+09 -2.209691e+09 -2.369693e+09 1.216768e+02 2.282858e+02 2.871780e+01
-2.371243e+09 -2.171240e+09 -2.331241e+09 2.112271e+02 2.310092e+02 5.289173e+01
-2.389213e+09 -2.189210e+09 -2.349212e+09 4.822216e+02 1.674250e+02 -6.974031e+01
-2.561920e+09 -2.361935e+09 -2.521932e+09 -1.130439e+02 -1.176622e+04 8.483099e+02
-3.175122e+09 -2.975130e+09 -3.135134e+09 -2.485645e+03 -8.187215e+03 -4.702915e+02
-2.759321e+09 -2.559328e+09 -2.719334e+09 -1.462389e+03 -1.328817e+04 2.144039e+02
-3.169513e+09 -2.969521e+09 -3.129528e+09 -5.987998e+02 -1.069616e+04 5.422376e+02
-3.374396e+09 -3.174400e+09 -3.334409e+09 -1.166958e+03 -7.731892e+03 3.008492e+01
-3.079470e+09 -2.879469e+09 -3.039469e+09 9.527697e+01 3.655022e+01 -3.964302e+01
-2.453980e+09 -2.253979e+09 -2.413979e+09 -2.749579e+01 7.446313e+01 -6.704428e+01
-2.790698e+09 -2.590696e+09 -2.750697e+09 2.001976e+02 -3.771014e+01 -1.689750e+02
-2.605051e+09 -2.405050e+09 -2.565051e+09 2.631890e+02 8.042174e+01 -4.627874e+01
-2.301229e+09 -2.101228e+09 -2.261228e+09 1.010464e+02 1.306814e+02 -5.197543e+01
-2.034259e+09 -1.834257e+09 -1.994258e+09 1.194207e+02 8.089725e+01 -7.897790e+01
-2.087777e+09 -1.887776e+09 -2.047776e+09 1.294133e+02 4.111713e+01 -7.385005e+01
-3.407795e+09 -3.207796e+09 -3.367796e+09 -1.545150e+03 -6.227982e+01 1.074789e+02
-3.053608e+09 -2.853609e+09 -3.013609e+09 -1.263221e+03 -3.869095e+01 -3.441961e+01
-2.623530e+09 -2.423531e+09 -2.583531e+09 -1.262596e+03 -6.585885e+01 1.633164e+01
-3.571852e+09 -3.371851e+09 -3.531851e+09 1.520814e+02 6.237031e+01 -2.993162e+01
-2.332604e+09 -2.132606e+09 -2.292606e+09 -1.233087e+03 -1.054742e+02 -7.718605e+01
-2.678283e+09 -2.478285e+09 -2.638285e+09 -1.162003e+03 -6.074311e+01 2.751593e+01
-3.417344e+09 -3.217336e+09 -3.377354e+09 -1.922887e+03 -4.988103e+03 -3.590812e+03
-2.466367e+09 -2.266348e+09 -2.426366e+09 1.634525e+03 1.209573e+03 -5.257733e+03
-2.495459e+09 -2.295446e+09 -2.455459e+09 -2.650117e+03 -2.340772e+03 -4.746579e+03
-2.844461e+09 -2.644450e+09 -2.804473e+09 1.811861e+03 -4.740174e+03 -4.569846e+03
-2.421720e+09 -2.221719e+09 -2.381729e+09 -6.703002e+03 -1.106863e+04 -6.594502e+03
-2.614948e+09 -2.414945e+09 -2.574955e+09 -6.612919e+03 -1.109079e+04 -6.594765e+03
-3.228422e+09 -3.028416e+09 -3.188427e+09 -2.529022e+03 -4.526450e+03 -3.388104e+03
-2.643624e+09 -2.443619e+09 -2.603611e+09 -8.099024e+03 -1.266614e+04 1.571944e+04
-2.595887e+09 -2.395888e+09 -2.555881e+09 3.181411e+03 -3.079972e+03 -1.114757e+04
-3.052584e+09 -2.852599e+09 -3.012585e+09 -7.298614e+02 -3.220677e+01 1.009766e+04
-2.840791e+09 -2.640779e+09 -2.800787e+09 -7.451919e+03 5.577905e+03 -7.845647e+03
-3.405954e+09 -3.205948e+09 -3.365933e+09 -9.981035e+03 1.137098e+04 -1.294560e+04
-3.210496e+09 -3.010484e+09 -3.170472e+09 -1.046474e+04 1.216300e+04 -9.035267e+03
-2.643720e+09 -2.443698e+09 -2.603723e+09 -1.559160e+03 1.421811e+03 9.413079e+02
-2.496461e+09 -2.296445e+09 -2.456460e+09 -7.390121e+03 1.360697e+04 -1.300838e+04
-2.086914e+09 -1.886899e+09 -2.046887e+09 -8.689761e+03 2.001470e+03 -2.476793e+04
-2.649593e+09 -2.449587e+09 -2.609579e+09 -1.307809e+04 1.638728e+04 -6.750387e+03
-3.146905e+09 -2.946901e+09 -3.106900e+09 4.388660e+03 -2.274788e+03 -2.467934e+03
-2.653915e+09 -2.453912e+09 -2.613908e+09 5.102862e+03 -3.749857e+03 -5.019367e+03
-2.975352e+09 -2.775347e+09 -2.935347e+09 3.576846e+03 -2.578518e+03 -2.289715e+03
-3.157006e+09 -2.957008e+09 -3.117005e+09 -7.483242e+03 -4.419409e+03 4.382766e+03
-2.750305e+09 -2.550310e+09 -2.710300e+09 3.932803e+03 -3.261218e+03 -8.773977e+03
-3.318687e+09 -3.118686e+09 -3.278682e+09 3.138147e+03 -1.381770e+03 -3.937786e+03
-3.253026e+09 -3.053028e+09 -3.213023e+09 3.809134e+03 -1.799419e+03 -3.953938e+03
-2.196125e+09 -1.996116e+09 -2.156123e+09 -3.244894e+01 -7.358770e+01 -2.437209e+03
-3.451491e+09 -3.251490e+09 -3.411483e+09 3.465843e+03 -2.619864e+03 -3.642669e+03
-2.106569e+09 -1.906566e+09 -2.066569e+09 3.857513e+03 -1.893479e+03 -2.820138e+03
-2.768445e+09 -2.568444e+09 -2.728442e+09 2.657878e+03 -1.233331e+03 -1.911156e+03
-3.351869e+09 -3.151867e+09 -3.311867e+09 2.664538e+03 -5.571516e+02 -1.709001e+03
-1.842335e+09 -1.642337e+09 -1.802337e+09 2.952160e+01 1.188436e+01 5.561611e+01
-3.166635e+09 -2.966637e+09 -3.126637e+09 -5.502067e+01 -3.419797e-01 2.226805e+01
-2.394274e+09 -2.194231e+09 -2.354279e+09 -1.000279e+04 -3.821332e+04 -5.149565e+03
-2.958912e+09 -2.758914e+09 -2.918913e+09 6.779708e+01 1.681450e+01 3.152200e+01
-2.866128e+09 -2.666130e+09 -2.826130e+09 -1.594869e+01 5.285998e+00 3.572083e+01
-2.149244e+09 -1.949247e+09 -2.109246e+09 7.849019e+01 8.054072e+00 2.288900e+01
-1.594867e+09 -1.394902e+09 -1.554890e+09 -4.271695e+03 -3.123008e+03 3.887885e+04
-2.906151e+09 -2.706151e+09 -2.866151e+09 1.441584e+03 -6.669532e+01 -3.564866e+02
-3.406547e+09 -3.206548e+09 -3.366547e+09 1.637103e+03 -1.366918e+02 -7.457123e+02
-3.217374e+09 -3.017377e+09 -3.177376e+09 1.469893e+03 -4.448451e+01 -6.134130e+02
-3.388135e+09 -3.188136e+09 -3.348136e+09 1.391369e+03 -5.967179e+01 -4.530111e+02
-3.275099e+09 -3.075099e+09 -3.235099e+09 1.443040e+03 -6.559014e+01 -3.237436e+02
-1.827521e+09 -1.627430e+09 -1.787547e+09 2.757159e+04 -3.839424e+04 -2.225262e+04
-1.983015e+09 -1.782962e+09 -1.943006e+09 7.592995e+03 -1.318183e+03 4.806824e+03
-2.381253e+09 -2.181190e+09 -2.341241e+09 3.449849e+03 -3.241113e+04 -1.331937e+04
-2.385775e+09 -2.185748e+09 -2.345704e+09 -1.231605e+04 -2.500628e+04 3.740604e+04
-2.044575e+09 -1.844561e+09 -2.004584e+09 -1.483550e+04 -3.520371e+04 2.363006e+04
-1.983416e+09 -1.783410e+09 -1.943389e+09 -7.885044e+03 -2.931556e+04 3.966284e+04
-1.690434e+09 -1.490439e+09 -1.650434e+09 1.207395e+03 2.671203e+02 1.003420e+01
-3.215779e+09 -3.015776e+09 -3.175728e+09 -8.819491e+03 -2.202578e+04 1.423196e+04
-2.386188e+09 -2.186182e+09 -2.346132e+09 -8.884961e+03 -2.298345e+04 3.647736e+04
-2.814320e+09 -2.614315e+09 -2.774338e+09 5.858085e+03 1.372815e+04 -9.320403e+03
-3.156312e+09 -2.956299e+09 -3.116315e+09 7.842944e+03 3.971000e+03 -9.740958e+03
-2.617395e+09 -2.417400e+09 -2.577421e+09 1.136191e+04 2.237057e+04 -1.174983e+04
-3.347030e+09 -3.147016e+09 -3.307035e+09 6.242741e+03 4.442158e+03 -1.124856e+04
-2.797981e+09 -2.597972e+09 -2.758009e+09 6.316899e+03 2.297059e+04 -8.307957e+03
-3.358370e+09 -3.158347e+09 -3.318373e+09 -6.201242e+02 -1.670888e+03 -5.963914e+03
-3.150620e+09 -2.950601e+09 -3.110630e+09 2.703023e+03 -8.924446e+02 -1.121805e+04
-2.124478e+09 -1.924479e+09 -2.084479e+09 -4.668608e+02 -3.101521e+01 9.601046e+00
-3.068544e+09 -2.868546e+09 -3.028545e+09 -5.879126e+02 -3.892511e+01 3.265834e+01
-3.265819e+09 -3.065821e+09 -3.225820e+09 -5.645509e+02 -2.337078e+01 1.787227e+01
-2.253090e+09 -2.053091e+09 -2.213091e+09 -4.311163e+02 -1.082981e+01 8.533933e+00
-2.627325e+09 -2.427327e+09 -2.587327e+09 -4.503821e+02 -5.615861e+01 4.845566e+01
-2.965100e+09 -2.765101e+09 -2.925101e+09 -4.618407e+02 -3.468555e+01 4.319513e+01
-3.232123e+09 -3.032129e+09 -3.192124e+09 -9.013225e+02 3.692783e+02 6.045665e+01
-2.102421e+09 -1.902428e+09 -2.062422e+09 -8.537445e+02 4.629177e+02 6.977960e+01
-3.530354e+09 -3.330360e+09 -3.490355e+09 -8.833029e+02 3.073714e+02 4.026237e+01
-2.703032e+09 -2.503039e+09 -2.663034e+09 -8.887503e+02 6.083445e+02 3.305181e+00
-2.630323e+09 -2.430329e+09 -2.590324e+09 -6.890806e+02 5.819716e+02 3.128537e+01
-2.347413e+09 -2.147409e+09 -2.307411e+09 -2.613789e+02 -6.550274e+02 1.187691e+03
-1.989460e+09 -1.789456e+09 -1.949459e+09 -3.979534e+02 -8.503379e+02 1.409600e+03
-1.793301e+09 -1.593296e+09 -1.753299e+09 5.964997e+02 -1.812923e+03 2.258220e+03
-2.484370e+09 -2.284367e+09 -2.444369e+09 2.253736e+03 -2.372487e+03 2.612066e+03
-2.538610e+09 -2.338606e+09 -2.498609e+09 9.373187e+01 -9.277681e+02 1.495520e+03
-1.946061e+09 -1.746062e+09 -1.906060e+09 -1.013641e+03 -8.704337e+00 -1.266426e+02
-2.949173e+09 -2.749175e+09 -2.909172e+09 -1.304119e+03 2.185192e+02 2.254550e+01
-2.489726e+09 -2.289729e+09 -2.449726e+09 -1.247686e+03 2.632484e+02 -9.252945e+01
-1.946061e+09 -1.746063e+09 -1.906061e+09 -1.069532e+03 1.729201e+02 -4.535503e+01
-2.445228e+09 -2.245229e+09 -2.405227e+09 -1.467230e+03 3.523306e+02 2.435606e+01
-2.198377e+09 -1.998379e+09 -2.158376e+09 -1.211407e+03 9.766891e+01 -4.499693e+01
-1.586090e+09 -1.386099e+09 -1.546059e+09 1.865470e+04 -2.337290e+04 6.152868e+04
-2.111941e+09 -1.911940e+09 -2.071941e+09 -6.693737e+02 -6.855887e+01 -4.344158e+01
-2.221183e+09 -2.021182e+09 -2.181183e+09 -5.484571e+02 -7.249660e+01 -5.671723e+01
-2.619445e+09 -2.419444e+09 -2.579445e+09 -5.192641e+02 -6.306162e+01 -1.887476e+01
-2.927921e+09 -2.727920e+09 -2.887920e+09 -5.043606e+02 -7.530389e+01 -2.492244e+01
-3.226167e+09 -3.026165e+09 -3.186166e+09 -5.127914e+02 -5.107430e+01 -2.447898e+01
-2.635258e+09 -2.435261e+09 -2.595260e+09 -3.583826e+02 -2.051491e+01 -1.207745e+02
-2.009734e+09 -1.809736e+09 -1.969714e+09 -1.044675e+04 -3.219111e+04 3.957832e+04
-3.129369e+09 -2.929371e+09 -3.089371e+09 -4.838196e+02 -3.208206e+01 -1.751626e+01
-3.155342e+09 -2.955343e+09 -3.115340e+09 -4.785307e+03 -2.918926e+03 4.041057e+03
-3.171956e+09 -2.971959e+09 -3.131958e+09 -2.799925e+02 -3.240522e+01 3.794637e+01
-2.769959e+09 -2.569961e+09 -2.729960e+09 -2.789723e+02 -1.989572e+01 -6.553227e-01
-2.536595e+09 -2.336597e+09 -2.496597e+09 -4.386208e+02 -4.102091e+00 -6.676921e+01
-2.832207e+09 -2.632204e+09 -2.792184e+09 -8.896057e+03 -2.110140e+04 1.439087e+04
-1.767489e+09 -1.567500e+09 -1.727491e+09 2.141667e+03 3.071333e+03 -3.592545e+02
-1.985827e+09 -1.785835e+09 -1.945829e+09 2.553588e+03 2.031106e+03 -3.155187e+02
-1.794555e+09 -1.594564e+09 -1.754556e+09 2.066346e+03 2.101984e+03 -1.484272e+02
-3.381600e+09 -3.181611e+09 -3.341609e+09 1.320088e+03 6.077392e+03 -3.186539e+02
-2.759120e+09 -2.559129e+09 -2.719123e+09 2.545380e+03 3.240639e+03 -2.805272e+02
-1.958762e+09 -1.758772e+09 -1.918765e+09 2.603777e+03 3.493856e+03 -7.372819e+02
-3.065444e+09 -2.865446e+09 -3.025445e+09 2.429455e+02 3.257900e+01 2.139228e+01
-3.219958e+09 -3.019948e+09 -3.179958e+09 -8.908416e+03 -1.102091e+04 2.557715e+03
-2.271601e+09 -2.071603e+09 -2.231603e+09 2.658640e+02 1.591997e+01 1.928867e+01
-1.904462e+09 -1.704464e+09 -1.864463e+09 2.671593e+02 3.031983e+01 2.068852e+00
-2.680555e+09 -2.480557e+09 -2.640556e+09 2.513327e+02 3.434178e+01 4.692329e+01
-2.556062e+09 -2.356065e+09 -2.516063e+09 -3.107779e+03 1.743413e+03 6.118985e+02
-1.973572e+09 -1.773575e+09 -1.933571e+09 -2.774698e+03 9.819676e+02 2.371757e+02
-2.372499e+09 -2.172503e+09 -2.332500e+09 -2.667908e+03 1.383516e+03 3.687320e+02
-1.996673e+09 -1.796679e+09 -1.956674e+09 -3.618281e+03 2.371164e+03 1.026408e+03
-1.970482e+09 -1.770481e+09 -1.930482e+09 -8.186198e+02 -9.315662e+01 1.232259e-01
-1.588246e+09 -1.388241e+09 -1.548242e+09 5.164662e+03 -2.869973e+03 3.662293e+03
-1.775761e+09 -1.575761e+09 -1.735761e+09 -7.373342e+02 -7.076448e+01 -6.734415e+01
-2.504803e+09 -2.304802e+09 -2.464802e+09 -6.661242e+02 -6.510788e+01 -3.479664e+01
-2.117829e+09 -1.917828e+09 -2.077828e+09 -6.306569e+02 -8.080108e+01 -3.066633e+00
-3.119951e+09 -2.919947e+09 -3.079952e+09 -2.233452e+03 -3.487815e+03 -2.910269e+03
-3.016224e+09 -2.816220e+09 -2.976227e+09 -1.106336e+03 -3.081550e+03 -2.789435e+03
-2.368192e+09 -2.168188e+09 -2.328192e+09 -5.617775e+03 -3.882578e+03 -4.350540e+03
-2.553369e+09 -2.353360e+09 -2.513370e+09 -3.611417e+03 -4.014332e+03 -5.482300e+03
-2.944359e+09 -2.744352e+09 -2.904360e+09 -5.645861e+02 -1.990596e+03 -3.045755e+03
-2.833152e+09 -2.633148e+09 -2.793156e+09 -3.538866e+03 -6.924473e+03 -4.710298e+03
-2.407469e+09 -2.207470e+09 -2.367470e+09 4.488027e+02 7.386196e+01 4.229488e+01
-2.155664e+09 -1.955647e+09 -2.115670e+09 4.922783e+03 5.815399e+03 -3.594324e+03
-2.089361e+09 -1.889362e+09 -2.049362e+09 4.451667e+02 4.611080e+01 3.315157e+01
-3.205998e+09 -3.005998e+09 -3.165998e+09 4.787803e+02 2.570716e+01 -7.867916e+00
-2.413969e+09 -2.213969e+09 -2.373969e+09 4.242585e+02 5.578712e+01 -4.365951e+00
-2.905716e+09 -2.705717e+09 -2.865717e+09 3.940277e+02 3.590016e+01 -3.323422e+01
-3.004141e+09 -2.804141e+09 -2.964141e+09 5.093587e+02 3.650310e+01 -1.693367e+01
-2.704932e+09 -2.504939e+09 -2.664939e+09 -3.185994e+03 -6.363092e+03 -1.406870e+03
-3.106895e+09 -2.906902e+09 -3.066901e+09 -3.513124e+03 -4.988648e+03 -1.195514e+03
-3.097236e+09 -2.897242e+09 -3.057246e+09 -3.639064e+03 -6.886740e+03 -2.466512e+03
-3.287889e+09 -3.087894e+09 -3.247897e+09 -1.577133e+03 -5.204653e+03 -7.975447e+02
-2.055187e+09 -1.855191e+09 -2.015188e+09 -5.843527e+03 -7.662904e+03 -2.826369e+03
-2.452490e+09 -2.252495e+09 -2.412493e+09 -5.664247e+03 -6.193755e+03 -2.595408e+03
-2.705944e+09 -2.505946e+09 -2.665947e+09 -4.748920e+03 -4.666262e+03 -2.434748e+03
-1.775798e+09 -1.575798e+09 -1.735798e+09 1.007252e+03 9.148811e+01 -1.383138e+02
-3.124100e+09 -2.924100e+09 -3.084100e+09 1.168376e+03 1.799586e+01 -1.677399e+02
-2.716419e+09 -2.516419e+09 -2.676419e+09 1.179175e+03 -8.406465e+00 -1.984380e+02
-2.690491e+09 -2.490491e+09 -2.650491e+09 1.000692e+03 3.115804e+01 -1.822895e+02
-1.823451e+09 -1.623452e+09 -1.783452e+09 1.345858e+03 6.203191e+01 -2.586360e+02
-2.598518e+09 -2.398518e+09 -2.558518e+09 1.155266e+03 2.606590e+01 -1.713714e+02
-2.886310e+09 -2.686310e+09 -2.846310e+09 1.162922e+03 3.064216e+01 -2.521424e+02
-1.771034e+09 -1.571035e+09 -1.731035e+09 1.192467e+03 3.053321e+01 -2.998715e+02
-2.342634e+09 -2.142635e+09 -2.302635e+09 1.277543e+03 4.080620e+01 -2.347304e+02
-2.747101e+09 -2.547100e+09 -2.707100e+09 2.737902e+02 2.775385e+01 -5.671269e+01
-3.106902e+09 -2.906901e+09 -3.066901e+09 2.677244e+01 5.598834e+01 -4.950291e+01
-2.080720e+09 -1.880719e+09 -2.040719e+09 1.509053e+02 4.672121e+01 -5.109696e+01
-1.757850e+09 -1.557849e+09 -1.717849e+09 1.495264e+02 3.080600e+01 -4.913862e+01
-1.922421e+09 -1.722420e+09 -1.882421e+09 1.979908e+02 4.907086e+01 -6.739494e+01
-3.584870e+09 -3.384855e+09 -3.544867e+09 -5.749746e+03 -7.483869e+03 1.353209e+02
-2.107605e+09 -1.907604e+09 -2.067604e+09 2.589620e+02 4.156974e+01 -4.486373e+01
-2.689449e+09 -2.489448e+09 -2.649448e+09 1.796622e+02 3.442499e+01 -2.893182e+01
-2.484908e+09 -2.284907e+09 -2.444907e+09 6.928566e+01 3.570894e+01 -6.904538e+01
-2.372054e+09 -2.172053e+09 -2.332053e+09 6.029239e+01 6.612986e+01 -7.606968e+01
-2.087696e+09 -1.887695e+09 -2.047695e+09 4.647025e+01 6.611628e+00 -5.960812e+01
-3.411086e+09 -3.211084e+09 -3.371083e+09 -6.082824e+03 3.420027e+03 -2.623085e+03
-2.337451e+09 -2.137424e+09 -2.297449e+09 1.304134e+04 9.840578e+03 -1.779916e+04
-1.945931e+09 -1.745928e+09 -1.905930e+09 -1.110664e+03 4.245628e+02 4.167515e+02
-2.195629e+09 -1.995623e+09 -2.155627e+09 3.219401e+03 1.974549e+03 -2.632739e+03
-2.336803e+09 -2.136800e+09 -2.296801e+09 -1.083879e+03 2.521159e+02 4.164982e+02
-1.942312e+09 -1.742309e+09 -1.902310e+09 -1.092128e+03 5.711406e+02 2.012902e+02
-2.322893e+09 -2.122891e+09 -2.282891e+09 -1.101939e+03 5.254803e+02 1.408717e+02
-2.318250e+09 -2.118247e+09 -2.278248e+09 -1.761153e+03 4.752741e+02 4.232544e+02
-2.695304e+09 -2.495303e+09 -2.655304e+09 1.673146e+03 -2.465754e+03 1.957703e+03
-2.717784e+09 -2.517779e+09 -2.677783e+09 1.584162e+03 -1.680140e+03 1.989760e+03
-2.357999e+09 -2.157996e+09 -2.317997e+09 7.531229e+02 -1.054830e+03 1.128072e+03
-1.888673e+09 -1.688672e+09 -1.848671e+09 2.786848e+03 -2.263977e+03 2.056011e+03
-1.993127e+09 -1.793121e+09 -1.953124e+09 1.182765e+03 -1.488219e+03 2.868476e+03
-2.586800e+09 -2.386798e+09 -2.546800e+09 1.971667e+02 -1.650562e+03 1.306798e+03
-2.101473e+09 -1.901471e+09 -2.061472e+09 1.679795e+03 -1.387703e+03 1.494263e+03
-2.087783e+09 -1.887780e+09 -2.047782e+09 1.381769e+03 -1.245725e+03 1.338907e+03
-2.088498e+09 -1.888497e+09 -2.048497e+09 2.072783e+03 -2.649886e+03 2.351576e+03
-2.402688e+09 -2.202683e+09 -2.362687e+09 1.161929e+03 -1.552859e+03 2.706582e+03
-2.689826e+09 -2.489823e+09 -2.649826e+09 1.829834e+03 -3.051501e+03 2.848711e+03
-2.738141e+09 -2.538143e+09 -2.698143e+09 -8.585491e+02 -2.382813e+01 -1.314490e+02
-2.687921e+09 -2.487923e+09 -2.647923e+09 -1.078849e+03 -6.643808e+01 -1.090184e+01
-2.476656e+09 -2.276659e+09 -2.436658e+09 -7.382977e+02 -4.401586e+01 -8.825330e+01
-3.142932e+09 -2.942934e+09 -3.102934e+09 -8.696250e+02 -2.041446e+01 -4.776021e+01
-3.113569e+09 -2.913571e+09 -3.073571e+09 -8.284192e+02 7.572811e+01 -2.441616e+02
-3.322425e+09 -3.122427e+09 -3.282426e+09 -6.582169e+02 -9.889311e+00 -8.089201e+01
-1.581793e+09 -1.381796e+09 -1.541793e+09 -2.247666e+03 6.439136e+02 1.245653e+02
-3.192867e+09 -2.992873e+09 -3.152872e+09 -3.573734e+03 3.469877e+03 1.297532e+03
-2.626991e+09 -2.426994e+09 -2.586993e+09 -3.795260e+03 2.633218e+03 1.240069e+03
-3.208481e+09 -3.008482e+09 -3.168482e+09 -4.030985e+03 2.254136e+03 1.377832e+03
-3.199468e+09 -2.999471e+09 -3.159473e+09 -4.161119e+03 3.376735e+03 1.494480e+03
-2.453041e+09 -2.253034e+09 -2.413040e+09 6.015921e+03 4.277073e+03 -4.258742e+03
-2.099215e+09 -1.899203e+09 -2.059210e+09 3.875136e+03 2.656847e+03 -6.057815e+03
-1.632466e+09 -1.432458e+09 -1.592462e+09 5.411806e+03 3.782047e+03 -3.977477e+03
-3.052704e+09 -2.852697e+09 -3.012706e+09 2.405168e+03 2.328731e+03 -3.764694e+03
-3.298927e+09 -3.098915e+09 -3.258927e+09 4.678902e+01 8.708601e+02 -3.585196e+03
-2.507332e+09 -2.307320e+09 -2.467330e+09 3.725752e+03 3.454183e+03 -5.721817e+03
-2.410639e+09 -2.210638e+09 -2.370639e+09 4.352293e+02 6.654615e+01 -5.174715e+01
-2.791979e+09 -2.591978e+09 -2.751979e+09 3.487184e+02 2.056151e+01 -3.102485e+01
-2.602374e+09 -2.402373e+09 -2.562373e+09 4.148808e+02 3.240564e+01 -7.686054e+01
-2.585932e+09 -2.385932e+09 -2.545932e+09 3.962309e+02 5.293903e+01 -5.245194e+01
-3.189565e+09 -2.989564e+09 -3.149565e+09 4.126821e+02 7.092973e+01 -4.945728e+00
-3.389497e+09 -3.189496e+09 -3.349496e+09 3.138421e+02 2.714156e+01 -4.889205e+01
-3.393735e+09 -3.193735e+09 -3.353735e+09 3.914068e+02 4.423162e+01 1.147915e+00
-2.684439e+09 -2.484441e+09 -2.644441e+09 -3.769631e+02 -2.502906e+01 -1.468234e+02
-2.417989e+09 -2.217993e+09 -2.377992e+09 -5.382197e+02 4.675725e+01 -1.981304e+02
-2.015024e+09 -1.815028e+09 -1.975027e+09 -5.366998e+02 7.715074e+01 -1.574777e+02
-2.061409e+09 -1.861412e+09 -2.021411e+09 -5.162535e+02 4.654009e+00 -7.839779e+01
-2.600478e+09 -2.400481e+09 -2.560481e+09 -5.360096e+02 -2.141529e+01 -1.359551e+02
-3.108915e+09 -2.908907e+09 -3.068916e+09 -5.903454e+03 -4.460875e+03 -7.005900e+02
-1.802848e+09 -1.602856e+09 -1.762850e+09 1.821140e+03 1.274485e+03 -7.124072e+01
-2.811772e+09 -2.611779e+09 -2.771773e+09 1.734798e+03 1.108284e+03 -2.472607e+02
-2.419878e+09 -2.219886e+09 -2.379880e+09 1.800021e+03 1.701144e+03 -2.925122e+02
-2.409614e+09 -2.209623e+09 -2.369617e+09 1.362984e+03 1.582818e+03 -2.202232e+02
-2.611147e+09 -2.411155e+09 -2.571149e+09 9.750389e+02 1.271521e+03 2.156249e+01
-2.457436e+09 -2.257443e+09 -2.417437e+09 1.560048e+03 7.601282e+02 -1.450929e+02
-2.554815e+09 -2.354821e+09 -2.514816e+09 1.257993e+03 4.273343e+02 -2.809280e+01
-1.892461e+09 -1.692468e+09 -1.852462e+09 1.038361e+03 5.176165e+02 -6.572429e+01
-2.502165e+09 -2.302172e+09 -2.462167e+09 1.298810e+03 6.237419e+02 4.549560e+00
-2.097429e+09 -1.897436e+09 -2.057430e+09 1.336264e+03 6.098730e+02 4.008111e+00
-3.147656e+09 -2.947652e+09 -3.107668e+09 -3.774364e+03 -8.728925e+03 -3.100027e+03
-2.707958e+09 -2.507964e+09 -2.667967e+09 -4.770731e+03 -1.054607e+04 -3.194319e+03
-2.102244e+09 -1.902258e+09 -2.062256e+09 -5.826525e+03 -1.618171e+04 -2.272340e+03
-2.747407e+09 -2.547406e+09 -2.707420e+09 -3.545823e+03 -1.091203e+04 -3.989732e+03
-2.301768e+09 -2.101771e+09 -2.261786e+09 -7.996055e+03 -1.623946e+04 -5.820245e+03
-2.725376e+09 -2.525382e+09 -2.685397e+09 -5.432705e+03 -1.747449e+04 -4.341444e+03
-2.100211e+09 -1.900225e+09 -2.060224e+09 -2.956034e+03 -1.814675e+04 -2.176157e+03
-1.931997e+09 -1.731997e+09 -1.891997e+09 3.597047e+02 4.038586e+01 1.546704e+01
-1.931867e+09 -1.731867e+09 -1.891867e+09 3.210077e+02 5.387429e+01 -4.554421e+00
-2.159108e+09 -1.959108e+09 -2.119108e+09 4.167715e+02 4.141552e+01 2.752238e+01
-3.041131e+09 -2.841131e+09 -3.001131e+09 4.237386e+02 3.050197e+01 -1.484764e+01
-2.001508e+09 -1.801508e+09 -1.961508e+09 5.508664e+02 5.442767e+01 -1.198698e+00
-2.418053e+09 -2.218053e+09 -2.378053e+09 4.689615e+02 4.475842e+01 -3.667601e+01
-2.396841e+09 -2.196834e+09 -2.356838e+09 2.594274e+03 -2.175661e+03 3.940504e+03
-2.579724e+09 -2.379715e+09 -2.539724e+09 9.496116e+02 -2.389381e+03 4.655143e+03
-1.995340e+09 -1.795333e+09 -1.955337e+09 2.590571e+03 -3.760248e+03 5.038831e+03
-2.010125e+09 -1.810119e+09 -1.970123e+09 3.120894e+02 -9.072487e+02 2.496500e+03
-1.810301e+09 -1.610295e+09 -1.770298e+09 -2.945878e+02 -1.025484e+03 2.366683e+03
-1.993825e+09 -1.793819e+09 -1.953823e+09 -1.367103e+03 -1.469678e+03 2.514096e+03
-2.544428e+09 -2.344436e+09 -2.504423e+09 -1.609953e+03 2.018346e+03 -1.136673e+04
-2.038587e+09 -1.838586e+09 -1.998573e+09 5.865973e+02 -1.464975e+03 -1.427481e+04
-3.446810e+09 -3.246814e+09 -3.406801e+09 1.935340e+03 -1.815246e+03 -8.181555e+03
-2.664928e+09 -2.464928e+09 -2.624921e+09 1.955166e+03 -1.881616e+03 -7.814991e+03
-2.163896e+09 -1.963902e+09 -2.123891e+09 7.843972e+03 -9.302240e+03 -1.894506e+04
-3.071904e+09 -2.871881e+09 -3.031896e+09 -1.298935e+04 -2.220263e+04 8.383476e+03
-3.172666e+09 -2.972667e+09 -3.132659e+09 -1.615604e+03 9.446836e+02 -6.332884e+03
-2.579523e+09 -2.379524e+09 -2.539523e+09 6.642903e+02 4.429380e+01 -1.848339e+01
-1.594862e+09 -1.394863e+09 -1.554863e+09 -8.126449e+02 -9.115002e+01 4.449109e+01
-3.195526e+09 -2.995527e+09 -3.155527e+09 6.756555e+02 4.155130e+01 -6.952327e+01
-3.196701e+09 -2.996702e+09 -3.156702e+09 5.128600e+02 3.364360e+01 -5.401905e+01
-3.383231e+09 -3.183232e+09 -3.343232e+09 6.945695e+02 4.785537e+01 -3.137995e+01
-3.382823e+09 -3.182824e+09 -3.342823e+09 6.533776e+02 3.635254e+01 -4.063029e+01
-2.599919e+09 -2.399923e+09 -2.559919e+09 2.814746e+03 6.046546e+02 -3.435972e+02
-1.890111e+09 -1.690113e+09 -1.850110e+09 3.689163e+03 1.694793e+03 -5.941460e+02
-2.957363e+09 -2.757365e+09 -2.917362e+09 2.936944e+03 1.128782e+03 -5.480137e+02
-2.082328e+09 -1.882330e+09 -2.042328e+09 3.607920e+03 1.709196e+03 -6.648081e+02
-2.002386e+09 -1.802394e+09 -1.962393e+09 1.154357e+03 1.638130e+03 5.839507e+03
-2.590100e+09 -2.390102e+09 -2.550100e+09 3.246249e+03 1.514069e+03 -9.776358e+02
-1.956717e+09 -1.756719e+09 -1.916716e+09 2.748416e+03 8.430904e+02 -2.318727e+02
-3.130582e+09 -2.930581e+09 -3.090581e+09 -6.525623e+02 -7.717624e+01 1.148072e+01
-2.726944e+09 -2.526943e+09 -2.686944e+09 -7.449670e+02 -3.845381e+01 2.058690e+01
-3.397150e+09 -3.197149e+09 -3.357150e+09 -6.813576e+02 -7.433662e+01 4.215927e+01
-3.204196e+09 -3.004195e+09 -3.164195e+09 -8.449193e+02 -9.656441e+01 2.648527e+01
-1.700183e+09 -1.500193e+09 -1.660192e+09 7.286484e+03 7.318325e+03 1.092225e+04
-3.179270e+09 -2.979268e+09 -3.139270e+09 -9.873981e+02 -3.853447e+02 3.459833e+02
-2.738488e+09 -2.538484e+09 -2.698487e+09 -1.024364e+03 -6.404244e+02 8.491399e+02
-2.545504e+09 -2.345501e+09 -2.505503e+09 -3.853719e+02 -6.966876e+02 8.051196e+02
-1.785375e+09 -1.585368e+09 -1.745374e+09 -1.566939e+04 9.480443e+03 8.131883e+03
-1.744216e+09 -1.544229e+09 -1.704218e+09 -9.100977e+03 1.111035e+04 5.282693e+03
-2.129448e+09 -1.929453e+09 -2.089451e+09 -6.915239e+03 5.729222e+03 3.149267e+03
-2.123734e+09 -1.923737e+09 -2.083736e+09 -7.795057e+03 5.629869e+03 3.473812e+03
-2.296205e+09 -2.096213e+09 -2.256207e+09 -9.816733e+03 7.149154e+03 5.118299e+03
-2.180542e+09 -1.980538e+09 -2.140538e+09 -6.490673e+03 2.231492e+03 3.538041e+03
-1.737466e+09 -1.537465e+09 -1.697465e+09 1.234602e+02 7.493402e+01 -7.938455e+01
-3.574571e+09 -3.374551e+09 -3.534570e+09 -5.615790e+03 -9.048599e+02 -5.699874e+03
-2.534423e+09 -2.334422e+09 -2.494422e+09 -2.044987e+02 8.913366e+01 -6.995767e+01
-2.611392e+09 -2.411391e+09 -2.571391e+09 -4.834228e+02 1.076352e+02 -2.958468e+01
-2.381368e+09 -2.181382e+09 -2.341371e+09 -2.622544e+02 -1.868623e+03 1.119508e+04
-1.761101e+09 -1.561099e+09 -1.721100e+09 -2.011341e+02 1.101462e+02 -8.762877e+01
-1.547217e+09 -1.347215e+09 -1.507216e+09 1.759011e+02 1.066873e+02 -5.490397e+01
-1.769657e+09 -1.569656e+09 -1.729656e+09 -2.776628e+02 7.191479e+01 -1.312841e+02
-1.754126e+09 -1.554145e+09 -1.714132e+09 1.373557e+03 8.267793e+03 -1.151958e+03
-2.571830e+09 -2.371842e+09 -2.531835e+09 4.014285e+03 4.664237e+03 -1.563008e+03
-2.237650e+09 -2.037664e+09 -2.197657e+09 7.703428e+02 6.502831e+03 1.016628e+02
-3.593575e+09 -3.393552e+09 -3.553533e+09 -2.024065e+03 -1.399641e+04 4.886217e+03
-1.830265e+09 -1.630282e+09 -1.790271e+09 5.152434e+02 6.142059e+03 -2.684798e+01
-1.570813e+09 -1.370829e+09 -1.530818e+09 1.421414e+03 5.142932e+03 -7.567700e+02
-2.550143e+09 -2.350116e+09 -2.510139e+09 9.756249e+02 2.706616e+03 -1.087269e+04
-3.170474e+09 -2.970460e+09 -3.130483e+09 3.747080e+03 4.010447e+03 -5.330883e+03
-2.772684e+09 -2.572670e+09 -2.732694e+09 3.162767e+03 8.826707e+03 -8.623226e+03
-2.590262e+09 -2.390212e+09 -2.550267e+09 3.351682e+03 -9.402679e+02 -1.592841e+04
-2.602022e+09 -2.402000e+09 -2.562023e+09 -6.690433e+03 -7.441872e+03 -2.130844e+03
-3.015291e+09 -2.815270e+09 -2.975283e+09 -4.303475e+03 -1.019977e+04 -1.665203e+03
-3.357055e+09 -3.157036e+09 -3.317056e+09 -1.645736e+03 -3.991244e+03 -6.276315e+03
-2.105720e+09 -1.905719e+09 -2.065719e+09 5.609628e+02 6.501994e+01 -1.698834e+02
-2.628001e+09 -2.428000e+09 -2.588000e+09 8.609310e+02 6.779684e+01 -1.343810e+02
-3.292180e+09 -3.092179e+09 -3.252179e+09 8.008967e+02 2.116762e+01 -1.101068e+02
-2.587238e+09 -2.387236e+09 -2.547236e+09 1.112584e+02 1.965098e+01 -8.103414e+01
-2.608975e+09 -2.408974e+09 -2.568974e+09 4.290979e+02 1.762492e+02 -8.668620e+01
-2.618519e+09 -2.418489e+09 -2.578442e+09 1.088239e+04 -2.868344e+04 -2.351446e+04
-3.231658e+09 -3.031634e+09 -3.191560e+09 1.096769e+03 -1.108199e+03 1.242379e+03
-3.416742e+09 -3.216717e+09 -3.376638e+09 -4.718977e+03 1.214167e+03 3.899196e+03
-2.356279e+09 -2.156275e+09 -2.316277e+09 -7.902732e+02 2.574086e+02 1.150595e+02
-3.178767e+09 -2.978763e+09 -3.138765e+09 -1.891142e+03 6.181142e+02 9.375950e+02
-2.790055e+09 -2.590050e+09 -2.750053e+09 -2.112634e+03 1.363305e+03 8.782720e+02
-2.043992e+09 -1.843991e+09 -2.003991e+09 5.657895e+02 5.316942e+01 -2.851454e+00
-2.645856e+09 -2.445855e+09 -2.605856e+09 5.501311e+02 5.164845e+01 -3.078911e+01
-2.855456e+09 -2.655456e+09 -2.815456e+09 4.460991e+02 4.541043e+01 -1.270607e+01
-2.454998e+09 -2.254998e+09 -2.414998e+09 4.341080e+02 6.471373e+01 -2.697090e+01
-2.617901e+09 -2.417906e+09 -2.577904e+09 2.820003e+02 -3.689005e+01 -1.627462e+03
-2.439659e+09 -2.239666e+09 -2.399663e+09 -4.386737e+02 3.560601e+02 -2.960102e+03
-2.365558e+09 -2.165564e+09 -2.325563e+09 -1.642761e+03 5.775366e+02 -2.236525e+03
-1.762817e+09 -1.562823e+09 -1.722822e+09 -1.496094e+03 5.011144e+02 -1.945527e+03
-2.669649e+09 -2.469626e+09 -2.629654e+09 7.319585e+02 -2.133103e+02 -5.781287e+03
-2.476449e+09 -2.276434e+09 -2.436454e+09 -3.208216e+03 -3.376764e+03 -4.252549e+03
-2.699338e+09 -2.499322e+09 -2.659302e+09 8.893891e+03 2.134143e+04 1.033687e+04
-2.577372e+09 -2.377365e+09 -2.537368e+09 5.516928e+03 2.860642e+03 9.764112e+02
-2.771711e+09 -2.571682e+09 -2.731714e+09 7.386200e+03 5.548682e+03 -2.489505e+03
-2.447275e+09 -2.247259e+09 -2.407277e+09 2.445504e+03 1.471353e+03 -4.447050e+03
-2.662579e+09 -2.462596e+09 -2.622597e+09 -4.145623e+03 1.825151e+04 3.256110e+03
-2.642569e+09 -2.442577e+09 -2.602579e+09 -5.106854e+03 1.142386e+04 3.996251e+03
-2.706507e+09 -2.506515e+09 -2.666514e+09 -9.369329e+03 1.494322e+04 9.065806e+03
-2.460898e+09 -2.260904e+09 -2.420909e+09 -1.037005e+04 1.479040e+04 9.391594e+03
-2.646223e+09 -2.446233e+09 -2.606251e+09 -9.115612e+03 2.760998e+04 6.403786e+03
-2.443647e+09 -2.243646e+09 -2.403647e+09 4.000142e+02 5.482962e+01 -4.876363e+00
-3.075124e+09 -2.875127e+09 -3.035146e+09 1.704505e+03 1.579053e+04 3.929143e+03
-2.882624e+09 -2.682625e+09 -2.842650e+09 -6.724590e+03 1.721116e+04 7.122557e+03
-3.327097e+09 -3.127096e+09 -3.287096e+09 -4.175652e+02 -3.485673e+01 1.193339e+00
-3.325343e+09 -3.125342e+09 -3.285343e+09 -3.321674e+02 -1.383450e+01 -1.049389e+01
-3.625735e+09 -3.425734e+09 -3.585734e+09 -3.715879e+02 -1.331812e+01 -2.602106e+01
-2.628428e+09 -2.428427e+09 -2.588427e+09 -3.984534e+02 -4.170233e+01 -2.685219e+01
-2.057634e+09 -1.857636e+09 -2.017636e+09 -1.093391e+03 -3.277409e+01 -1.325410e+01
-1.944630e+09 -1.744632e+09 -1.904632e+09 -1.224571e+03 -7.489187e+01 -9.769828e+00
-1.764065e+09 -1.564067e+09 -1.724067e+09 -9.487220e+02 -8.519437e+01 4.201977e+01
-2.565280e+09 -2.365281e+09 -2.525281e+09 -1.233965e+03 -6.525950e+01 -6.919434e+01
-2.843642e+09 -2.643642e+09 -2.803633e+09 -3.335403e+03 5.162937e+03 -9.169252e+03
-2.983465e+09 -2.783462e+09 -2.943436e+09 4.425365e+03 -7.592241e+03 -1.981127e+04
-2.053645e+09 -1.853600e+09 -2.013578e+09 -1.655921e+04 6.272990e+03 -5.827271e+04
-1.825754e+09 -1.625732e+09 -1.785755e+09 5.255078e+03 -1.657566e+04 -1.128121e+04
-2.441156e+09 -2.241117e+09 -2.401147e+09 9.010027e+02 -1.516716e+04 4.233685e+03
-2.591496e+09 -2.391494e+09 -2.551495e+09 1.574917e+02 2.499948e+01 -1.344649e+01
-3.411172e+09 -3.211171e+09 -3.371171e+09 1.979692e+02 6.683070e+00 -3.324855e+01
-3.005355e+09 -2.805354e+09 -2.965355e+09 1.510305e+02 2.594431e+01 -1.702231e+01
-2.697770e+09 -2.497769e+09 -2.657769e+09 2.201389e+02 1.456012e+01 -1.169168e+01
-2.641178e+09 -2.441178e+09 -2.601151e+09 1.031600e+04 8.185017e+03 1.748847e+04
-2.105141e+09 -1.905149e+09 -2.065139e+09 1.884193e+04 1.215928e+04 2.579035e+04
-3.127464e+09 -2.927444e+09 -3.087447e+09 7.580448e+03 1.228515e+04 2.660630e+03
-2.558039e+09 -2.358005e+09 -2.518028e+09 1.427774e+04 2.280289e+04 1.136078e+04
-3.105696e+09 -2.905681e+09 -3.065678e+09 7.483453e+03 1.717073e+04 6.858596e+03
-2.921553e+09 -2.721553e+09 -2.881553e+09 4.374203e+02 4.331289e+01 -2.207051e+01
-1.582332e+09 -1.382311e+09 -1.542358e+09 1.899321e+04 1.605856e+04 6.013903e+03
-3.024535e+09 -2.824537e+09 -2.984535e+09 3.371892e+03 1.723272e+03 -9.160925e+02
-1.656718e+09 -1.456721e+09 -1.616717e+09 3.341897e+03 1.403068e+03 -5.014794e+02
-1.855798e+09 -1.655798e+09 -1.815797e+09 4.784444e+03 2.785587e+03 -1.298593e+03
-2.406385e+09 -2.206389e+09 -2.366385e+09 4.532270e+03 2.079045e+03 -9.679573e+02
-2.048164e+09 -1.848165e+09 -2.008164e+09 4.626582e+03 2.822004e+03 -1.417082e+03
-2.450242e+09 -2.250243e+09 -2.410243e+09 4.626136e+03 2.825277e+03 -1.215507e+03
-1.621811e+09 -1.421812e+09 -1.581809e+09 3.623939e+03 1.484938e+03 -5.394674e+02
-2.540950e+09 -2.340963e+09 -2.500961e+09 6.141913e+01 1.048107e+04 -3.739126e+02
-2.341569e+09 -2.141585e+09 -2.301579e+09 4.339401e+03 9.707234e+03 -1.531596e+03
-2.152807e+09 -1.952826e+09 -2.112817e+09 -5.143063e+02 9.357509e+03 -5.569542e+01
-2.571772e+09 -2.371785e+09 -2.531780e+09 2.506004e+03 7.422123e+03 -9.083910e+02
-1.766036e+09 -1.566062e+09 -1.726046e+09 1.673612e+02 1.364862e+04 2.908267e+02
-2.191326e+09 -1.991325e+09 -2.151326e+09 -3.207364e+02 -2.393712e+01 -1.688526e+01
-1.751784e+09 -1.551811e+09 -1.711792e+09 3.742983e+03 1.247414e+04 -1.823864e+03
-2.776114e+09 -2.576112e+09 -2.736018e+09 6.318250e+03 1.117451e+04 3.627274e+04
-2.738705e+09 -2.538717e+09 -2.698689e+09 7.408561e+03 5.988390e+03 2.226861e+04
-3.393501e+09 -3.193502e+09 -3.353442e+09 2.925512e+03 3.317758e+03 2.326731e+04
-3.243665e+09 -3.043666e+09 -3.203654e+09 -8.344843e+03 -1.477826e+04 1.466773e+04
-2.830011e+09 -2.630005e+09 -2.789991e+09 -7.891366e+03 -1.277482e+04 2.226019e+04
-2.797462e+09 -2.597478e+09 -2.757455e+09 8.559015e+02 2.522759e+02 2.759465e+04
-1.985619e+09 -1.785619e+09 -1.945619e+09 5.833275e+02 4.340333e+01 -1.816700e+01
-1.906510e+09 -1.706513e+09 -1.866509e+09 2.578347e+03 8.482332e+02 -3.462009e+02
-2.967111e+09 -2.767114e+09 -2.927111e+09 2.902511e+03 1.181643e+03 -4.258368e+02
-2.648325e+09 -2.448331e+09 -2.608327e+09 2.630955e+03 1.619985e+03 -3.630763e+02
-3.139598e+09 -2.939603e+09 -3.099600e+09 2.401127e+03 1.062518e+03 -2.428487e+02
-1.769163e+09 -1.569162e+09 -1.729163e+09 5.698702e+02 6.335206e+01 -5.474709e+01
-3.149881e+09 -2.949885e+09 -3.109881e+09 2.505555e+03 1.132800e+03 -3.266571e+02
-2.545211e+09 -2.345220e+09 -2.505217e+09 -4.019525e+03 6.174559e+03 1.467077e+03
-2.395692e+09 -2.195690e+09 -2.355693e+09 -9.041767e+03 9.839420e+03 6.868497e+03
-2.213531e+09 -2.013534e+09 -2.173532e+09 -6.234814e+03 4.615362e+03 2.670348e+03
-1.760954e+09 -1.560959e+09 -1.720955e+09 -6.123970e+03 5.067522e+03 2.704051e+03
-2.040764e+09 -1.840777e+09 -2.000770e+09 -6.179938e+03 1.053347e+04 2.853892e+03
-2.093938e+09 -1.893937e+09 -2.053937e+09 -1.327414e+02 -1.395667e+01 -6.497581e+01
-1.791523e+09 -1.591522e+09 -1.751521e+09 -1.244420e+02 1.988994e+01 -8.065220e+01
-2.578369e+09 -2.378368e+09 -2.538368e+09 4.916764e+01 4.829278e+01 -5.950497e+01
-1.599627e+09 -1.399634e+09 -1.559629e+09 8.654822e+03 -8.926607e+03 5.317461e+03
-2.792523e+09 -2.592522e+09 -2.752522e+09 2.389696e+01 -1.182647e-01 -6.817870e+01
-1.974841e+09 -1.774840e+09 -1.934840e+09 6.685875e+01 -2.148012e+01 -8.077138e+01
-1.783409e+09 -1.583408e+09 -1.743408e+09 1.013362e+02 5.207370e+01 -5.402661e+01
-3.590500e+09 -3.390498e+09 -3.550499e+09 -1.328309e+03 -1.786414e+02 1.650004e+02
-1.772940e+09 -1.572939e+09 -1.732939e+09 -5.890356e+01 5.636644e+01 -8.967001e+01
-2.811550e+09 -2.611540e+09 -2.771550e+09 -2.648193e+03 3.307640e+03 6.513223e+03
-2.549016e+09 -2.349002e+09 -2.509012e+09 -5.734183e+02 -3.460809e+02 2.273980e+03
-3.136157e+09 -2.936150e+09 -3.096157e+09 -4.035165e+03 1.888395e+03 3.353718e+03
-2.696217e+09 -2.496211e+09 -2.656216e+09 -2.799729e+03 3.692089e+03 2.782771e+03
-2.858387e+09 -2.658393e+09 -2.818390e+09 8.311608e+01 2.396565e+02 -2.858268e+03
-2.554535e+09 -2.354539e+09 -2.514538e+09 -1.483686e+03 4.681647e+02 -1.318081e+03
-2.641017e+09 -2.441024e+09 -2.601021e+09 -2.807292e+01 2.046154e+02 -2.615683e+03
-2.660170e+09 -2.460172e+09 -2.620190e+09 -5.731614e+02 -1.555814e+04 1.827293e+03
-2.074325e+09 -1.874339e+09 -2.034342e+09 1.238322e+03 -2.062141e+04 2.812981e+03
-1.775429e+09 -1.575448e+09 -1.735439e+09 7.443963e+03 -1.579091e+04 4.903642e+03
-2.592419e+09 -2.392433e+09 -2.552433e+09 2.813789e+01 -1.651647e+04 8.638297e+02
-1.994440e+09 -1.794457e+09 -1.954454e+09 -2.511716e+03 -1.767943e+04 -3.083063e+02
-2.405771e+09 -2.205771e+09 -2.365771e+09 -1.819907e+03 3.823193e+01 -2.277151e+01
-1.797090e+09 -1.597122e+09 -1.757107e+09 -5.391484e+03 -2.587043e+04 -1.971252e+03
-1.955153e+09 -1.755166e+09 -1.915178e+09 -3.355397e+03 -2.706666e+04 -1.657844e+03
-2.897770e+09 -2.697773e+09 -2.857772e+09 4.041274e+02 1.423314e+00 -1.053939e+02
-2.871472e+09 -2.671475e+09 -2.831475e+09 2.529467e+01 -1.386956e+00 -1.472349e+02
-2.618072e+09 -2.418075e+09 -2.578074e+09 1.805375e+03 -2.541706e+02 -1.273985e+03
-2.509135e+09 -2.309109e+09 -2.469145e+09 -9.688384e+03 2.821856e+03 -4.143740e+02
-2.936751e+09 -2.736746e+09 -2.896763e+09 -5.861854e+03 -7.328240e+03 -6.436146e+02
-2.425215e+09 -2.225204e+09 -2.385239e+09 -7.056818e+03 -1.895067e+04 -2.739692e+03
-2.334223e+09 -2.134228e+09 -2.294248e+09 2.140185e+03 -1.425714e+04 4.292781e+03
-2.494164e+09 -2.294150e+09 -2.454191e+09 -7.729907e+03 -1.639209e+04 -1.621275e+03
-2.765869e+09 -2.565873e+09 -2.725868e+09 -2.356476e+02 7.812822e+02 -6.215919e+03
-2.844624e+09 -2.644629e+09 -2.804622e+09 -1.078608e+03 1.671558e+03 -6.890585e+03
-3.235515e+09 -3.035519e+09 -3.195513e+09 -9.075404e+02 1.131521e+03 -4.123495e+03
-2.547599e+09 -2.347605e+09 -2.507598e+09 3.955590e+03 -2.373650e+03 -7.995114e+03
-2.710565e+09 -2.510569e+09 -2.670560e+09 3.991458e+03 -3.337563e+03 -9.380677e+03
-3.207314e+09 -3.007319e+09 -3.167314e+09 -1.214927e+03 9.827937e+02 -4.426586e+03
-3.433978e+09 -3.233982e+09 -3.393975e+09 -1.446606e+03 1.294682e+03 -3.930204e+03
-3.080477e+09 -2.880482e+09 -3.040475e+09 2.603943e+03 -1.471160e+03 -5.639669e+03
-3.546456e+09 -3.346457e+09 -3.506436e+09 -1.024586e+03 -9.508517e+02 -9.637383e+03
-3.385350e+09 -3.185345e+09 -3.345352e+09 1.466882e+02 -2.071899e+03 2.485895e+03
-2.092918e+09 -1.892910e+09 -2.052879e+09 -8.786069e+03 -1.149355e+04 -2.421900e+04
-3.220384e+09 -3.020392e+09 -3.180377e+09 -5.653196e+02 1.334294e+03 -1.241898e+04
-2.769706e+09 -2.569714e+09 -2.729700e+09 -1.736428e+03 9.391882e+02 -1.238925e+04
-2.188524e+09 -1.988532e+09 -2.148516e+09 -1.445242e+03 2.113641e+03 -1.661965e+04
-1.867341e+09 -1.667322e+09 -1.827319e+09 2.479865e+03 -1.560900e+04 -2.729725e+04
-2.872882e+09 -2.672886e+09 -2.832885e+09 3.922980e+02 3.016977e+01 -4.329003e+02
-2.912487e+09 -2.712490e+09 -2.872489e+09 4.198297e+02 5.265931e+01 -2.176711e+02
-1.836506e+09 -1.636509e+09 -1.796509e+09 2.420900e+02 -3.065572e+00 -2.973317e+02
-2.492845e+09 -2.292848e+09 -2.452848e+09 7.027282e+02 2.746435e+01 -2.547498e+02
-3.320715e+09 -3.120714e+09 -3.280714e+09 1.846452e+03 -2.241576e+02 -6.437701e+02
-1.913665e+09 -1.713664e+09 -1.873665e+09 1.544384e+03 1.652851e+01 -4.723121e+02
-3.128618e+09 -2.928617e+09 -3.088617e+09 2.002730e+03 -2.087896e+02 -5.716928e+02
-2.054955e+09 -1.854955e+09 -2.014956e+09 2.005281e+03 -1.914868e+01 -8.289856e+02
-2.848123e+09 -2.648122e+09 -2.808123e+09 1.355225e+03 -1.005079e+02 -2.397871e+02
-2.779170e+09 -2.579168e+09 -2.739169e+09 -1.613873e+03 -3.328154e+02 3.587958e+02
-2.517217e+09 -2.317216e+09 -2.477217e+09 1.755129e+03 -1.458261e+02 -6.138043e+02
-3.579703e+09 -3.379709e+09 -3.539705e+09 -1.544915e+03 1.076497e+03 2.107280e+02
-2.111256e+09 -1.911237e+09 -2.071245e+09 -1.511525e+03 -2.408176e+03 3.838838e+03
-2.537724e+09 -2.337707e+09 -2.497719e+09 -2.133908e+03 2.090784e+03 8.598692e+03
-1.969954e+09 -1.769939e+09 -1.929944e+09 -5.309556e+03 3.472814e+03 5.718346e+03
-1.769605e+09 -1.569601e+09 -1.729603e+09 -4.515740e+02 -5.974048e+02 5.527219e+02
-3.152847e+09 -2.952828e+09 -3.112836e+09 2.666616e+03 -3.453867e+03 5.497496e+03
-1.777715e+09 -1.577696e+09 -1.737703e+09 -1.334425e+03 -1.640499e+03 4.046429e+03
-1.792155e+09 -1.592153e+09 -1.752154e+09 -5.000324e+02 -4.840812e+02 5.609783e+02
-2.389929e+09 -2.189903e+09 -2.349928e+09 -1.267585e+04 4.504120e+03 1.530542e+04
-3.591931e+09 -3.391929e+09 -3.551931e+09 -7.016238e+02 -4.053226e+02 4.336688e+02
-2.393199e+09 -2.193188e+09 -2.353203e+09 -1.544111e+04 1.367134e+04 1.522575e+04
-1.993808e+09 -1.793798e+09 -1.953800e+09 -1.595176e+04 9.005241e+03 1.169335e+04
-1.808062e+09 -1.608053e+09 -1.768058e+09 -1.522045e+04 8.150977e+03 9.948494e+03
-3.184213e+09 -2.984214e+09 -3.144214e+09 -7.740756e+02 -6.819636e+01 1.014981e+01
-2.782095e+09 -2.582096e+09 -2.742096e+09 -8.375646e+02 -2.470456e+01 2.272037e+01
-2.718886e+09 -2.518886e+09 -2.678887e+09 -8.012784e+02 -5.587828e+01 1.187595e+01
-2.752895e+09 -2.552895e+09 -2.712895e+09 -7.752331e+02 -4.336675e+01 1.457983e+01
-3.167782e+09 -2.967783e+09 -3.127783e+09 -7.801275e+02 -6.712564e+01 5.644615e+00
-3.078155e+09 -2.878154e+09 -3.038155e+09 -2.308470e+03 9.972261e+01 1.191298e+02
-2.469595e+09 -2.269593e+09 -2.429594e+09 -1.335707e+03 -4.765563e+02 5.612420e+02
-2.060848e+09 -1.860845e+09 -2.020847e+09 -2.165607e+03 2.813139e+02 2.588618e+02
-2.659289e+09 -2.459289e+09 -2.619289e+09 -2.190314e+03 -1.367803e+02 -6.168872e+01
-2.783529e+09 -2.583527e+09 -2.743529e+09 -1.358260e+03 -3.150437e+02 2.248915e+02
-3.587603e+09 -3.387603e+09 -3.547603e+09 5.916704e+02 1.540380e+01 -3.568780e+01
-1.986705e+09 -1.786704e+09 -1.946705e+09 -1.001622e+03 -2.508362e+02 1.809491e+02
-1.982002e+09 -1.782000e+09 -1.942002e+09 -1.334146e+03 -2.848932e+02 2.607043e+02
-2.590198e+09 -2.390197e+09 -2.550198e+09 -1.066592e+03 -3.429525e+02 1.356809e+02
-2.392844e+09 -2.192842e+09 -2.352843e+09 -8.637762e+02 -3.650314e+02 3.522665e+02
-1.788778e+09 -1.588705e+09 -1.748598e+09 -8.457683e+04 -1.364394e+04 8.963825e+04
-2.418241e+09 -2.218243e+09 -2.378240e+09 5.678769e+03 3.252851e+03 -1.600140e+03
-1.622406e+09 -1.422406e+09 -1.582404e+09 5.625214e+03 3.063880e+03 -1.682733e+03
-1.622404e+09 -1.422403e+09 -1.582402e+09 4.706614e+03 2.426227e+03 -1.332843e+03
-3.032743e+09 -2.832743e+09 -2.992744e+09 3.705220e+03 2.539282e+03 -1.594458e+03
-3.297335e+09 -3.097331e+09 -3.257336e+09 3.438655e+03 1.593564e+03 -1.969108e+03
-2.494346e+09 -2.294344e+09 -2.454347e+09 5.479114e+03 3.772754e+03 -2.577402e+03
-3.005214e+09 -2.805215e+09 -2.965215e+09 2.433059e+02 3.521394e+01 4.497928e+01
-3.257148e+09 -3.057150e+09 -3.217149e+09 1.703750e+02 3.278085e+00 -6.731851e+00
-2.618698e+09 -2.418700e+09 -2.578699e+09 1.888813e+02 4.475869e+00 -3.328734e+00
-2.535182e+09 -2.335184e+09 -2.495183e+09 7.370499e+01 -1.355360e+00 2.246552e+01
-2.315322e+09 -2.115326e+09 -2.275322e+09 -1.306090e+03 1.752951e+02 -1.951498e+01
-2.087272e+09 -1.887275e+09 -2.047271e+09 -1.236660e+03 2.235082e+02 -4.689106e+01
-2.946267e+09 -2.746270e+09 -2.906267e+09 -1.158690e+03 2.531611e+02 -4.773825e+01
-1.943156e+09 -1.743159e+09 -1.903156e+09 -1.133090e+03 7.093945e+01 -1.139920e+02
-2.245582e+09 -2.045585e+09 -2.205581e+09 -1.012975e+03 1.597584e+02 -5.316471e+01
-3.380040e+09 -3.180039e+09 -3.340040e+09 -1.322298e+03 -2.005946e+02 1.550029e+02
-2.584518e+09 -2.384516e+09 -2.544517e+09 -1.087896e+03 -4.127492e+02 3.876392e+02
-3.390861e+09 -3.190860e+09 -3.350861e+09 -1.015569e+03 -2.720678e+02 1.400640e+02
-1.792302e+09 -1.592300e+09 -1.752301e+09 -8.096782e+02 -3.612251e+02 3.791085e+02
-3.610048e+09 -3.410051e+09 -3.570053e+09 -2.505117e+03 -3.358492e+03 -1.351173e+03
-2.384489e+09 -2.184487e+09 -2.344488e+09 -9.985684e+02 -2.970345e+02 2.100477e+02
-1.651009e+09 -1.450998e+09 -1.611005e+09 2.765748e+03 2.690402e+03 -4.308718e+03
-2.032805e+09 -1.832805e+09 -1.992805e+09 -7.886097e+02 -8.475108e+01 7.940571e+00
-2.247011e+09 -2.046991e+09 -2.207005e+09 -1.187596e+03 -2.149009e+03 -5.152353e+03
-3.053148e+09 -2.853137e+09 -3.013149e+09 -1.222601e+03 -5.530965e+02 -2.941600e+03
-2.465917e+09 -2.265904e+09 -2.425918e+09 1.536358e+03 2.049293e+03 -4.366220e+03
-2.784560e+09 -2.584558e+09 -2.744558e+09 -3.315273e+03 1.501234e+03 8.537040e+02
-1.798910e+09 -1.598910e+09 -1.758909e+09 -3.562601e+03 1.489532e+03 1.273462e+03
-2.077356e+09 -1.877354e+09 -2.037354e+09 -3.695812e+03 1.557550e+03 1.688087e+03
-2.606560e+09 -2.406557e+09 -2.566558e+09 -2.698095e+03 1.050322e+03 7.518672e+02
-2.472894e+09 -2.272893e+09 -2.432893e+09 -3.783955e+03 1.869912e+03 1.264316e+03
-2.932019e+09 -2.732020e+09 -2.892018e+09 -5.092471e+02 8.527809e+01 -1.094028e+02
-2.097498e+09 -1.897498e+09 -2.057496e+09 -7.736595e+02 3.664617e+01 -8.382200e+01
-3.230255e+09 -3.030255e+09 -3.190254e+09 -6.934542e+02 8.392789e+00 -1.110823e+02
-2.692192e+09 -2.492192e+09 -2.652191e+09 -8.228515e+02 -1.484031e+01 -1.150987e+02
-2.618286e+09 -2.418287e+09 -2.578285e+09 -7.834006e+02 9.404093e+01 -8.316737e+01
-2.413550e+09 -2.213549e+09 -2.373548e+09 -9.900835e+02 2.521566e+02 -4.527899e+01
-2.816181e+09 -2.616182e+09 -2.776182e+09 6.750810e+02 3.012844e+01 -1.593454e+01
-3.422836e+09 -3.222836e+09 -3.382835e+09 -1.197330e+03 2.707699e+02 9.552628e+01
-3.428301e+09 -3.228300e+09 -3.388300e+09 -1.415799e+03 3.708874e+02 1.470052e+02
-2.839801e+09 -2.639801e+09 -2.799800e+09 -1.381372e+03 2.660990e+02 6.320618e+01
-2.754351e+09 -2.554355e+09 -2.714352e+09 -2.112153e+03 1.080826e+03 1.136872e+02
-2.368630e+09 -2.168633e+09 -2.328630e+09 -1.698444e+03 3.955938e+02 1.020690e+01
-1.735991e+09 -1.535995e+09 -1.695991e+09 -2.452559e+03 9.108787e+02 1.441936e+02
-1.743189e+09 -1.543193e+09 -1.703189e+09 -1.729356e+03 5.469540e+02 -3.643145e+01
-2.319515e+09 -2.119519e+09 -2.279516e+09 -2.271120e+03 8.332248e+02 1.289102e+02
-2.642183e+09 -2.442182e+09 -2.602183e+09 -5.102258e+02 -1.219988e+02 -3.732237e+01
-2.233114e+09 -2.033112e+09 -2.193113e+09 -5.078037e+02 -1.272472e+02 -3.312512e+01
-2.756285e+09 -2.556283e+09 -2.716284e+09 -6.558365e+02 -9.284963e+01 1.862641e+01
-3.239038e+09 -3.039037e+09 -3.199037e+09 -5.126636e+02 -1.105047e+02 -7.851018e+00
-3.239026e+09 -3.039025e+09 -3.199025e+09 -5.179651e+02 -8.448940e+01 -9.464045e+00
-1.819771e+09 -1.619779e+09 -1.779773e+09 1.140165e+04 -1.316830e+04 9.257322e+03
-1.795648e+09 -1.595668e+09 -1.755658e+09 1.157154e+04 -1.999924e+04 8.642143e+03
-1.777830e+09 -1.577831e+09 -1.737831e+09 6.488101e+02 3.124516e+01 -3.695320e+01
-2.439181e+09 -2.239183e+09 -2.399182e+09 4.878180e+02 5.259029e+01 7.917913e+01
-2.761202e+09 -2.561204e+09 -2.721203e+09 3.618078e+02 1.343552e+01 -3.012125e+01
-2.578914e+09 -2.378916e+09 -2.538916e+09 3.483069e+02 6.672124e+00 -5.393119e+01
-2.345869e+09 -2.145871e+09 -2.305871e+09 2.829353e+02 1.859288e+01 1.079472e+02
-2.527464e+09 -2.327461e+09 -2.487463e+09 -1.482831e+03 4.479122e+02 6.033409e+02
-3.152557e+09 -2.952555e+09 -3.112556e+09 -1.498891e+03 3.633533e+02 2.201594e+02
-3.168536e+09 -2.968533e+09 -3.128535e+09 -5.220701e+02 4.378376e+02 1.916175e+02
-2.757086e+09 -2.557083e+09 -2.717084e+09 -7.261619e+02 1.954038e+02 1.393059e+02
-3.361184e+09 -3.161181e+09 -3.321182e+09 -9.465227e+02 2.743089e+02 2.856196e+02
-2.542274e+09 -2.342272e+09 -2.502272e+09 -1.169382e+03 4.381636e+02 1.005609e+02
-2.737562e+09 -2.537560e+09 -2.697561e+09 -8.577043e+02 1.391145e+02 -1.296698e+02
-1.800302e+09 -1.600302e+09 -1.760303e+09 9.126153e+02 1.111674e+02 -8.729292e+01
-2.639205e+09 -2.439205e+09 -2.599205e+09 9.793950e+02 5.395928e+01 -1.413443e+02
-2.401150e+09 -2.201150e+09 -2.361150e+09 1.020123e+03 7.884080e+01 -6.495324e+01
-2.507193e+09 -2.307192e+09 -2.467193e+09 5.231119e+02 9.573008e+01 -1.189695e+02
-3.593985e+09 -3.393985e+09 -3.553985e+09 3.905411e+02 7.177814e+00 -6.615389e+00
-2.418361e+09 -2.218360e+09 -2.378360e+09 6.906765e+02 1.092523e+02 -1.212634e+02
-2.160371e+09 -1.960373e+09 -2.120373e+09 -1.190392e+02 -9.063782e+00 2.575227e+01
-2.494661e+09 -2.294663e+09 -2.454663e+09 -2.782518e+02 -1.633627e+01 3.684971e+01
-2.562517e+09 -2.362519e+09 -2.522518e+09 -3.811112e+02 -2.290145e+01 2.042932e+01
-1.883376e+09 -1.683378e+09 -1.843378e+09 -1.916236e+02 -2.235353e+01 6.166592e+01
-1.984653e+09 -1.784654e+09 -1.944654e+09 -2.302236e+02 -4.107301e+00 4.280894e+01
-2.030474e+09 -1.830473e+09 -1.990473e+09 5.106548e+02 3.627845e+01 -5.376795e+01
-2.020902e+09 -1.820903e+09 -1.980903e+09 -6.303289e+02 -2.598541e+01 1.987810e+01
-3.071278e+09 -2.871278e+09 -3.031278e+09 -5.924373e+02 -3.004179e+01 9.554569e+00
-2.833028e+09 -2.633029e+09 -2.793029e+09 8.431688e+02 2.843970e+00 -1.046535e+02
-1.931141e+09 -1.731141e+09 -1.891141e+09 -5.157026e+02 -4.949488e+01 2.988542e+01
-2.441165e+09 -2.241165e+09 -2.401165e+09 -6.366278e+02 -5.726886e+01 6.053263e+00
-2.952059e+09 -2.752059e+09 -2.912059e+09 -5.258478e+02 -5.061442e+01 3.693444e+01
-2.770323e+09 -2.570325e+09 -2.730323e+09 -3.248673e+03 1.834973e+03 7.685841e+02
-2.364759e+09 -2.164759e+09 -2.324758e+09 -2.983932e+03 1.165184e+03 4.414041e+02
-2.589545e+09 -2.389544e+09 -2.549544e+09 -3.923930e+03 1.725381e+03 1.291866e+03
-3.181517e+09 -2.981516e+09 -3.141516e+09 -3.320035e+03 1.192294e+03 9.086277e+02
-2.694447e+09 -2.494444e+09 -2.654446e+09 -3.766389e+03 1.965470e+03 1.724089e+03
-3.392230e+09 -3.192226e+09 -3.352229e+09 -2.857587e+03 1.220454e+03 1.246079e+03
-3.083159e+09 -2.883157e+09 -3.043159e+09 -3.642957e+03 1.866628e+03 1.686055e+03
-2.954440e+09 -2.754441e+09 -2.914441e+09 3.631273e+02 3.931937e+01 -1.051434e+01
-2.498680e+09 -2.298682e+09 -2.458682e+09 3.802979e+02 4.104461e+01 3.414904e+01
-3.254770e+09 -3.054771e+09 -3.214771e+09 4.318244e+02 1.012280e+01 1.308507e+00
-3.062634e+09 -2.862635e+09 -3.022635e+09 4.867541e+02 2.599207e+01 -3.798371e+01
-1.970164e+09 -1.770155e+09 -1.930159e+09 3.071546e+02 -1.426606e+03 -5.624034e+02
-2.018904e+09 -1.818900e+09 -1.978903e+09 2.507021e+03 -1.201290e+03 -1.195255e+03
-1.824221e+09 -1.624217e+09 -1.784219e+09 3.070512e+03 -1.236823e+03 -1.417791e+03
-1.598574e+09 -1.398571e+09 -1.558573e+09 2.507585e+03 -7.370340e+02 -1.581602e+03
-3.257914e+09 -3.057917e+09 -3.217917e+09 3.094072e+01 2.020863e+01 -7.955747e+01
-2.791495e+09 -2.591499e+09 -2.751498e+09 -1.387178e+02 4.936946e+01 -4.455779e+02
-2.053757e+09 -1.853761e+09 -2.013760e+09 1.786053e+02 1.899085e+01 -3.906328e+02
-2.680132e+09 -2.480135e+09 -2.640134e+09 7.041643e+02 9.501180e+00 -2.472128e+02
-3.181574e+09 -2.981578e+09 -3.141576e+09 3.331469e+02 -2.639005e+01 -5.086897e+02
-2.688411e+09 -2.488414e+09 -2.648413e+09 6.710007e+01 1.027354e+01 -1.442264e+02
-3.425258e+09 -3.225262e+09 -3.385261e+09 -9.483744e+01 3.355628e+01 -1.163911e+02
-3.414020e+09 -3.214023e+09 -3.374022e+09 -6.268995e+01 3.339882e+01 -2.107584e+02
-2.467147e+09 -2.267151e+09 -2.427150e+09 1.887378e+02 2.202561e+01 -2.268058e+02
-1.599762e+09 -1.399773e+09 -1.559765e+09 5.807485e+03 -8.693764e+03 2.983672e+03
-2.445834e+09 -2.245837e+09 -2.405836e+09 3.811100e+03 -4.723084e+03 2.725382e+03
-2.304966e+09 -2.104972e+09 -2.264969e+09 3.315063e+03 -5.004254e+03 1.467912e+03
-2.425865e+09 -2.225864e+09 -2.385865e+09 8.164006e+02 9.021031e+01 -2.818885e+01
-1.788188e+09 -1.588200e+09 -1.748193e+09 5.609719e+03 -9.317959e+03 2.134600e+03
-2.488991e+09 -2.289001e+09 -2.448998e+09 2.997976e+03 -7.561291e+03 2.213291e+03
-2.629441e+09 -2.429460e+09 -2.589468e+09 2.736191e+03 2.759525e+04 -4.483905e+03
-3.220463e+09 -3.020466e+09 -3.180481e+09 5.849633e+03 1.213120e+04 -5.189175e+03
-3.401827e+09 -3.201822e+09 -3.361850e+09 -5.245419e+02 1.488692e+04 -2.279672e+03
-3.411183e+09 -3.211187e+09 -3.371205e+09 7.153000e+02 1.479913e+04 -1.965544e+03
-2.807181e+09 -2.607178e+09 -2.767193e+09 1.822244e+03 -1.111804e+04 6.282515e+03
-3.206033e+09 -3.006027e+09 -3.166043e+09 1.154242e+03 -6.100983e+03 5.823537e+03
-3.196782e+09 -2.996779e+09 -3.156788e+09 2.493651e+03 -5.895250e+03 4.689595e+03
-1.816112e+09 -1.616112e+09 -1.776112e+09 5.507569e+02 1.086661e+02 1.115933e+01
-2.617231e+09 -2.417226e+09 -2.577237e+09 6.578430e+03 -8.659154e+03 7.161190e+03
-2.811348e+09 -2.611347e+09 -2.771359e+09 2.372491e+03 -1.173157e+04 6.523702e+03
-2.409803e+09 -2.209804e+09 -2.369815e+09 5.700864e+03 -1.264776e+04 8.864817e+03
-2.807331e+09 -2.607328e+09 -2.767335e+09 2.462859e+03 -6.034250e+03 5.166890e+03
-3.190314e+09 -2.990322e+09 -3.150317e+09 3.480400e+02 1.140722e+03 -1.120945e+02
-3.200054e+09 -3.000062e+09 -3.160057e+09 1.158714e+03 1.322618e+03 -1.199137e+02
-3.399120e+09 -3.199128e+09 -3.359123e+09 9.749214e+02 1.306641e+03 -7.651160e+01
-3.336175e+09 -3.136177e+09 -3.296177e+09 1.750935e+02 3.174186e+01 4.355379e+01
-3.385098e+09 -3.185106e+09 -3.345101e+09 3.774972e+02 1.141832e+03 -1.312591e+02
-3.391814e+09 -3.191823e+09 -3.351818e+09 8.074374e+02 2.208564e+03 -2.495437e+02
-3.214706e+09 -3.014706e+09 -3.174706e+09 7.432363e+02 8.091302e+01 2.601572e+01
-3.297396e+09 -3.097399e+09 -3.257395e+09 1.801698e+03 2.460765e+02 -2.172867e+01
-1.587073e+09 -1.387075e+09 -1.547074e+09 -1.035670e+02 -2.320203e+00 5.234523e+01
-2.997014e+09 -2.797017e+09 -2.957013e+09 1.673766e+03 3.303732e+02 -1.055677e+02
-2.903805e+09 -2.703809e+09 -2.863805e+09 1.475842e+03 3.397197e+02 -3.900550e+01
-2.518532e+09 -2.318533e+09 -2.478532e+09 7.581579e+02 8.281092e+01 -6.817328e+01
-2.080929e+09 -1.880930e+09 -2.040930e+09 9.521401e+02 6.697574e+01 -1.279002e+02
-3.303323e+09 -3.103323e+09 -3.263323e+09 1.002849e+03 5.278475e+01 -6.479167e+01
-3.107056e+09 -2.907057e+09 -3.067057e+09 1.006800e+03 5.000215e+01 -6.527900e+01
-2.722454e+09 -2.522455e+09 -2.682455e+09 8.834488e+02 9.099566e+01 5.139516e+01
-2.866347e+09 -2.666340e+09 -2.826346e+09 6.477073e+02 -5.803831e+02 -2.627111e+03
-2.540575e+09 -2.340563e+09 -2.500577e+09 -6.840564e+02 -1.844347e+03 -3.926762e+03
-3.166378e+09 -2.966374e+09 -3.126379e+09 7.138427e+01 -2.159066e+03 -2.490015e+03
-3.106660e+09 -2.906651e+09 -3.066662e+09 1.040048e+03 -9.681313e+02 -2.804032e+03
-3.416038e+09 -3.216029e+09 -3.376030e+09 -1.866296e+03 1.953451e+03 -6.203909e+02
-1.606358e+09 -1.406358e+09 -1.566358e+09 6.239040e+02 1.186174e+02 -8.165709e+01
-2.480973e+09 -2.280961e+09 -2.440980e+09 4.701686e+02 -7.077319e+03 4.759228e+03
-3.239547e+09 -3.039538e+09 -3.199547e+09 -2.854305e+03 7.131208e+02 2.664128e+03
-3.235030e+09 -3.035021e+09 -3.195038e+09 -3.059676e+03 -8.251215e+02 3.358533e+02
-3.418925e+09 -3.218913e+09 -3.378935e+09 -3.554503e+03 -1.600206e+03 2.689563e+03
-3.424344e+09 -3.224332e+09 -3.384346e+09 -4.214480e+03 2.080122e+03 1.785491e+03
-3.490716e+09 -3.290716e+09 -3.450717e+09 -2.114228e+03 -1.568091e+03 -7.397112e+02
-3.113294e+09 -2.913304e+09 -3.073306e+09 -2.281229e+03 8.588421e+03 1.701490e+03
-3.203683e+09 -3.003694e+09 -3.163694e+09 -1.202950e+03 7.301089e+03 7.636310e+02
-2.808082e+09 -2.608095e+09 -2.768095e+09 -1.581782e+02 1.206643e+04 5.843891e+01
-3.320024e+09 -3.120031e+09 -3.280037e+09 -2.938946e+03 8.666818e+03 1.408594e+03
-3.406333e+09 -3.206344e+09 -3.366350e+09 -2.371697e+03 1.196234e+04 1.845198e+03
-3.318421e+09 -3.118420e+09 -3.278420e+09 3.807366e+02 5.449541e+01 -5.439425e+01
-2.604678e+09 -2.404682e+09 -2.564703e+09 5.828131e+02 -2.006204e+04 3.679421e+03
-2.444988e+09 -2.244988e+09 -2.404988e+09 5.104978e+02 8.293589e+01 -7.049540e+01
-1.999326e+09 -1.799324e+09 -1.959354e+09 2.942511e+03 -2.660120e+04 1.450361e+04
-1.944930e+09 -1.744943e+09 -1.904960e+09 1.358550e+03 -2.824328e+04 5.765089e+03
-2.003400e+09 -1.803401e+09 -1.963413e+09 5.063644e+03 -1.854258e+04 9.101826e+03
-1.791074e+09 -1.591094e+09 -1.751087e+09 1.053188e+04 -2.957445e+04 1.247069e+04
-2.137228e+09 -1.937255e+09 -2.097292e+09 -1.291652e+04 5.216534e+04 1.843715e+04
-2.015903e+09 -1.815908e+09 -1.975999e+09 2.703009e+03 7.313756e+04 -6.722340e+03
-1.981878e+09 -1.781898e+09 -1.941907e+09 -1.164168e+04 3.390474e+04 8.650599e+03
-1.819103e+09 -1.619117e+09 -1.779207e+09 -3.516330e+04 5.296280e+04 1.224246e+04
-1.796121e+09 -1.596149e+09 -1.756157e+09 -2.035632e+04 3.942224e+04 4.502014e+03
-2.808192e+09 -2.608192e+09 -2.768193e+09 -1.006694e+03 -9.048199e+01 6.459988e+01
-3.244781e+09 -3.044782e+09 -3.204782e+09 -1.027216e+03 -1.228403e+02 4.959058e+01
-3.397354e+09 -3.197354e+09 -3.357354e+09 -1.205062e+03 -5.169130e+01 -6.313266e+01
-2.857999e+09 -2.658000e+09 -2.818000e+09 -1.035369e+03 -4.437818e+01 1.257523e+01
-2.758024e+09 -2.558024e+09 -2.718024e+09 -9.959173e+02 -8.245823e+01 4.819468e+01
-2.817379e+09 -2.617379e+09 -2.777379e+09 -9.609972e+02 -8.761764e+01 -3.068574e+01
-2.594477e+09 -2.394475e+09 -2.554476e+09 4.853555e+02 7.525372e+01 -7.472601e+01
-3.195885e+09 -2.995884e+09 -3.155885e+09 4.575651e+02 5.801807e+01 -4.616761e+01
-2.511334e+09 -2.311333e+09 -2.471333e+09 5.584699e+02 1.135687e+02 -5.937930e+01
-3.129903e+09 -2.929902e+09 -3.089903e+09 2.948238e+02 6.619170e+01 -6.600505e+01
-3.607194e+09 -3.407192e+09 -3.567193e+09 3.859063e+02 6.376393e+01 -1.660485e+01
-3.421050e+09 -3.221049e+09 -3.381050e+09 5.182901e+02 7.839098e+01 9.587681e+00
-2.844558e+09 -2.644558e+09 -2.804558e+09 6.582083e+02 2.581374e+00 -6.171214e+01
-3.227272e+09 -3.027271e+09 -3.187271e+09 6.576609e+02 7.184698e+01 -8.382438e+01
-2.789800e+09 -2.589800e+09 -2.749800e+09 -1.666602e+03 -7.777773e+01 -6.016842e+01
-2.595052e+09 -2.395053e+09 -2.555053e+09 -1.568912e+03 -6.355660e+01 -2.585187e+01
-1.975710e+09 -1.775710e+09 -1.935711e+09 -1.567432e+03 -9.975832e+01 7.493761e+01
-1.761220e+09 -1.561221e+09 -1.721221e+09 -1.277285e+03 -1.415074e+02 -1.488345e+01
-1.782805e+09 -1.582805e+09 -1.742806e+09 -1.432278e+03 -1.897664e+02 4.513353e+01
-3.169680e+09 -2.969658e+09 -3.129674e+09 1.143841e+03 -1.246096e+04 2.775255e+03
-2.536875e+09 -2.336866e+09 -2.496913e+09 -1.197178e+04 2.051085e+04 1.578330e+04
-3.342110e+09 -3.142091e+09 -3.302127e+09 7.935241e+02 2.572333e+03 4.172068e+03
-3.355494e+09 -3.155475e+09 -3.315495e+09 4.284764e+03 -1.074146e+04 -4.013687e+02
-3.157680e+09 -2.957662e+09 -3.117699e+09 -7.955784e+03 6.902032e+03 9.116615e+03
-3.216159e+09 -3.016158e+09 -3.176158e+09 -6.115888e+02 2.582519e+02 3.630813e+01
-2.424543e+09 -2.224542e+09 -2.384542e+09 -4.611660e+02 9.876097e+01 -1.057294e+02
-2.607847e+09 -2.407845e+09 -2.567846e+09 -7.101717e+02 2.575671e+02 5.691563e+01
-2.625707e+09 -2.425706e+09 -2.585705e+09 -9.301017e+02 2.669701e+02 3.715656e+01
-3.229362e+09 -3.029361e+09 -3.189361e+09 -7.246016e+02 1.518047e+02 -3.127104e+01
-3.613486e+09 -3.413485e+09 -3.573485e+09 -7.674240e+02 6.302833e+01 -4.936033e+01
-2.788606e+09 -2.588604e+09 -2.748604e+09 -3.916165e+02 1.083363e+02 -2.514162e+00
-1.582383e+09 -1.382383e+09 -1.542383e+09 8.829324e+02 1.089155e+02 -8.921509e+01
-3.035331e+09 -2.835300e+09 -2.995320e+09 -9.423881e+03 -2.702737e+04 4.855777e+03
-2.393473e+09 -2.193427e+09 -2.353487e+09 3.183461e+03 -1.471160e+03 -1.415082e+04
-3.004987e+09 -2.804961e+09 -2.964973e+09 -2.958857e+03 -1.118678e+04 -6.514435e+03
-2.586667e+09 -2.386632e+09 -2.546620e+09 -5.476917e+03 -4.274588e+04 7.614929e+03
-2.428435e+09 -2.228396e+09 -2.388398e+09 -1.154056e+03 -4.493701e+04 -1.315940e+04
-2.630841e+09 -2.430842e+09 -2.590841e+09 -5.109553e+03 3.583911e+03 2.106114e+03
-3.211673e+09 -3.011669e+09 -3.171672e+09 -2.620992e+03 1.151633e+03 1.094065e+03
-2.209157e+09 -2.009153e+09 -2.169155e+09 -3.408342e+03 1.552587e+03 1.343950e+03
-1.868506e+09 -1.668506e+09 -1.828505e+09 -5.654954e+03 3.290714e+03 2.178103e+03
-2.469140e+09 -2.269142e+09 -2.429142e+09 -4.676861e+03 2.816584e+03 1.660046e+03
-2.680789e+09 -2.480788e+09 -2.640789e+09 -3.697570e+03 1.925638e+03 1.337234e+03
-1.807425e+09 -1.607426e+09 -1.767426e+09 7.749718e+02 5.811783e+01 -6.126325e+01
-1.816845e+09 -1.616847e+09 -1.776847e+09 7.985484e+02 6.367098e+01 -5.331496e+01
-2.495815e+09 -2.295815e+09 -2.455815e+09 9.227520e+02 4.874150e+01 -6.868522e+01
-2.091424e+09 -1.891424e+09 -2.051424e+09 9.121122e+02 7.149392e+01 -3.675258e+01
-2.009670e+09 -1.809671e+09 -1.969671e+09 8.168823e+02 7.235530e+01 -1.019070e+02
-2.640384e+09 -2.440385e+09 -2.600385e+09 8.363502e+02 5.291287e+01 -1.132490e+02
-3.409218e+09 -3.209220e+09 -3.369219e+09 -1.001478e+03 -6.453361e+01 -2.405260e+01
-3.418817e+09 -3.218818e+09 -3.378818e+09 -1.023993e+03 -4.362939e+01 -3.207200e+01
-3.219055e+09 -3.019057e+09 -3.179057e+09 -1.349992e+03 3.167478e+00 -9.736843e+01
-3.421099e+09 -3.221103e+09 -3.381102e+09 -9.976148e+02 8.017872e+01 -5.166780e+02
-3.433279e+09 -3.233283e+09 -3.393282e+09 -7.881331e+02 4.808254e+01 -7.133801e+01
-2.828912e+09 -2.628915e+09 -2.788915e+09 -7.528893e+02 1.151971e+01 -2.625597e+02
-2.902405e+09 -2.702407e+09 -2.862407e+09 -1.287768e+03 1.538757e+01 -2.426131e+02
-2.517999e+09 -2.318002e+09 -2.478001e+09 -1.015492e+03 -4.493797e+01 -7.638073e+01
-2.716108e+09 -2.516110e+09 -2.676110e+09 -1.066566e+03 -9.028935e+01 -6.788237e+01
-3.304329e+09 -3.104322e+09 -3.264307e+09 1.211740e+04 1.757236e+04 1.368130e+04
-2.823471e+09 -2.623471e+09 -2.783471e+09 6.810379e+02 3.632482e+01 -6.681829e+01
-2.000625e+09 -1.800624e+09 -1.960624e+09 5.100652e+02 3.230550e+01 -3.819530e+01
-2.031894e+09 -1.831893e+09 -1.991893e+09 5.788313e+02 2.381460e+01 -5.044285e+01
-2.646846e+09 -2.446845e+09 -2.606845e+09 5.273738e+02 5.878061e+01 -4.428788e+01
-2.463793e+09 -2.263793e+09 -2.423793e+09 5.676052e+02 7.026025e+01 -3.203908e+01
-3.396781e+09 -3.196787e+09 -3.356783e+09 -1.475352e+03 2.825692e+02 -2.640624e+03
-3.181696e+09 -2.981700e+09 -3.141699e+09 -2.262561e+03 6.669578e+02 -5.896354e+02
-3.381440e+09 -3.181444e+09 -3.341442e+09 -1.090434e+03 6.646345e+01 -1.415134e+03
-2.766358e+09 -2.566362e+09 -2.726361e+09 -2.260241e+03 7.652910e+02 -1.516996e+03
-2.493261e+09 -2.293270e+09 -2.453265e+09 5.661075e+02 5.849190e+02 -6.022184e+03
-2.672579e+09 -2.472583e+09 -2.632576e+09 -4.120980e+02 1.167523e+03 -5.874794e+03
-2.849701e+09 -2.649706e+09 -2.809699e+09 -5.846730e+02 8.503949e+02 -5.684219e+03
-3.366634e+09 -3.166640e+09 -3.326636e+09 2.682661e+03 1.785563e+03 -5.312740e+02
-2.615149e+09 -2.415156e+09 -2.575151e+09 1.669076e+03 1.166353e+03 -2.189909e+02
-3.200479e+09 -3.000487e+09 -3.160482e+09 1.733612e+03 1.139160e+03 -3.424984e+02
-2.756215e+09 -2.556221e+09 -2.716217e+09 2.633756e+03 1.581510e+03 -3.226794e+02
-3.147407e+09 -2.947414e+09 -3.107410e+09 2.647974e+03 1.774001e+03 -4.070954e+02
-2.726164e+09 -2.526163e+09 -2.686163e+09 2.137833e+02 2.951486e+01 -3.340504e+01
-2.085024e+09 -1.885023e+09 -2.045023e+09 2.048631e+02 1.484181e+01 -3.136846e+01
-2.471295e+09 -2.271294e+09 -2.431294e+09 2.819721e+02 3.227429e+01 -4.480048e+01
-2.697681e+09 -2.497680e+09 -2.657680e+09 2.617350e+02 1.371158e+01 -4.406709e+01
-1.594114e+09 -1.394116e+09 -1.554115e+09 2.294271e+02 3.286409e+01 -2.919561e+01
-2.656229e+09 -2.456236e+09 -2.616227e+09 -1.313430e+03 1.031369e+03 -7.181017e+03
-2.859721e+09 -2.659725e+09 -2.819718e+09 -8.124871e+02 9.341751e+02 -5.380508e+03
-2.657264e+09 -2.457268e+09 -2.617262e+09 -5.346252e+03 3.913485e+03 -5.982158e+03
-2.482859e+09 -2.282866e+09 -2.442862e+09 -4.423215e+03 2.926944e+03 -6.503946e+03
-1.651296e+09 -1.451298e+09 -1.611298e+09 -3.731521e+02 -4.257345e+01 4.420121e+01
-1.951234e+09 -1.751235e+09 -1.911235e+09 -3.611835e+02 -3.806866e+01 3.238359e+01
-3.072446e+09 -2.872447e+09 -3.032447e+09 -4.510323e+02 -1.918312e+01 2.815220e+01
-3.261812e+09 -3.061814e+09 -3.221813e+09 -4.028794e+02 -9.427874e+00 4.772982e+00
-2.595937e+09 -2.395939e+09 -2.555939e+09 -2.517444e+02 -2.089987e+01 3.789811e+01
-2.961090e+09 -2.761092e+09 -2.921092e+09 -3.828761e+02 -1.612322e+01 1.500316e+01
-1.784352e+09 -1.584352e+09 -1.744352e+09 6.315323e+02 4.272526e+01 -1.104445e+01
-2.603478e+09 -2.403479e+09 -2.563479e+09 6.515840e+02 4.154509e+01 -5.217706e+01
-2.815892e+09 -2.615894e+09 -2.775893e+09 7.081582e+02 5.760585e+01 7.734385e+01
-2.401541e+09 -2.201542e+09 -2.361542e+09 6.296406e+02 6.789672e+01 -2.513826e+01
-2.005663e+09 -1.805664e+09 -1.965664e+09 6.208048e+02 3.248670e+01 -3.929038e+01
-1.994516e+09 -1.794517e+09 -1.954517e+09 6.677128e+02 4.820444e+01 -5.670270e+01
-2.607694e+09 -2.407695e+09 -2.567695e+09 8.221120e+02 5.507333e+01 -4.753922e+01
-2.276081e+09 -2.076102e+09 -2.236091e+09 1.786769e+03 2.133337e+03 2.159675e+04
-1.700874e+09 -1.500884e+09 -1.660887e+09 -4.097307e+03 -4.378462e+03 8.451913e+03
-2.803987e+09 -2.603990e+09 -2.763991e+09 -7.798992e+03 -6.571776e+03 3.599657e+03
-2.982024e+09 -2.782038e+09 -2.942022e+09 -4.581104e+01 -8.760152e+02 1.100227e+04
-3.398082e+09 -3.198081e+09 -3.358081e+09 7.133517e+02 5.881968e+01 -1.333289e+01
-2.012663e+09 -1.812681e+09 -1.972675e+09 -4.060238e+03 -3.377033e+03 1.068215e+04
-3.213985e+09 -3.013998e+09 -3.173985e+09 -1.411384e+02 5.395526e+01 9.890236e+03
-2.370669e+09 -2.170668e+09 -2.330669e+09 2.017369e+02 3.854046e+01 -1.873294e+01
-2.087311e+09 -1.887310e+09 -2.047310e+09 1.374491e+02 1.964875e+01 -5.382313e+00
-1.959850e+09 -1.759849e+09 -1.919850e+09 2.102141e+02 1.146248e+01 -3.335111e+01
-3.305272e+09 -3.105271e+09 -3.265272e+09 1.198506e+02 1.831022e+01 -1.498648e+01
-3.605533e+09 -3.405531e+09 -3.565532e+09 1.454921e+02 4.527214e+00 -2.043737e+01
-2.502457e+09 -2.302456e+09 -2.462456e+09 1.277955e+02 2.100042e+01 -2.194264e+01
-2.689987e+09 -2.489992e+09 -2.649987e+09 1.570331e+03 4.666412e+02 -2.056868e+01
-1.989612e+09 -1.789616e+09 -1.949612e+09 1.732506e+03 4.496361e+02 -1.060426e+02
-2.073538e+09 -1.873542e+09 -2.033537e+09 1.447358e+03 2.817447e+02 -1.732834e+02
-1.813310e+09 -1.613314e+09 -1.773310e+09 1.832343e+03 3.564103e+02 4.887374e+01
-1.895545e+09 -1.695549e+09 -1.855544e+09 1.255217e+03 2.262863e+02 3.818242e-01
-1.595216e+09 -1.395219e+09 -1.555215e+09 1.199308e+03 -7.070677e+01 5.918586e+01
-2.796478e+09 -2.596481e+09 -2.756477e+09 1.378034e+03 2.160253e+02 -7.217818e+01
-2.626674e+09 -2.426673e+09 -2.586674e+09 -3.246118e+02 -3.246190e+01 -3.692563e+01
-1.891061e+09 -1.691060e+09 -1.851060e+09 -3.847499e+02 -3.794623e+01 -3.188254e+01
-2.096832e+09 -1.896832e+09 -2.056832e+09 -4.781681e+02 -2.255804e+01 -6.109693e+01
-1.590732e+09 -1.390731e+09 -1.550731e+09 -3.175080e+02 -5.563788e+01 4.465308e+01
-1.781112e+09 -1.581111e+09 -1.741112e+09 -4.875607e+02 -5.023445e+01 -5.446565e+00
-2.893464e+09 -2.693463e+09 -2.853465e+09 -3.161356e+03 -2.118642e+03 -1.469842e+03
-2.893572e+09 -2.693573e+09 -2.853573e+09 -2.714404e+03 -2.442127e+03 -8.010870e+02
-2.716677e+09 -2.516678e+09 -2.676679e+09 -3.496951e+03 -4.279933e+03 -1.456364e+03
-2.619809e+09 -2.419812e+09 -2.579812e+09 -3.506900e+03 -4.123251e+03 -1.456317e+03
-3.579414e+09 -3.379414e+09 -3.539414e+09 4.632658e+02 1.309795e+01 6.907650e+00
-2.965376e+09 -2.765374e+09 -2.925378e+09 -2.704364e+03 -2.953254e+03 -1.744999e+03
-2.087941e+09 -1.887938e+09 -2.047939e+09 -2.113425e+02 8.791751e+00 -6.791661e+01
-2.654009e+09 -2.454007e+09 -2.614007e+09 -3.331857e+02 -1.933183e+01 -1.049124e+02
-3.046378e+09 -2.846376e+09 -3.006376e+09 -3.302262e+02 6.475579e+00 -7.426315e+01
-2.490352e+09 -2.290351e+09 -2.450352e+09 4.406697e+02 1.021941e+02 -1.112593e+02
-2.627624e+09 -2.427627e+09 -2.587626e+09 -9.938274e+02 -1.880862e+01 -1.608590e+02
-2.314050e+09 -2.114053e+09 -2.274053e+09 -1.518109e+03 -5.554572e+01 -3.737369e+01
-2.077411e+09 -1.877414e+09 -2.037413e+09 -1.006968e+03 -2.678718e+01 -1.502263e+02
-2.057363e+09 -1.857372e+09 -2.017369e+09 -1.199377e+04 1.554847e+04 8.247737e+03
-2.805422e+09 -2.605422e+09 -2.765430e+09 -7.256930e+03 9.938411e+03 7.019785e+03
-2.456757e+09 -2.256759e+09 -2.416774e+09 -1.256110e+04 2.046234e+04 1.573461e+04
-1.889332e+09 -1.689335e+09 -1.849334e+09 2.513812e+03 -6.238042e+02 -5.142936e+03
-3.004854e+09 -2.804849e+09 -2.964849e+09 3.453956e+03 -2.587296e+03 -1.920297e+03
-3.283702e+09 -3.083698e+09 -3.243696e+09 4.059646e+03 -2.306253e+03 -1.866685e+03
-2.217262e+09 -2.017259e+09 -2.177253e+09 4.212116e+03 -4.278897e+03 -8.938027e+03
-2.438371e+09 -2.238358e+09 -2.398365e+09 2.430315e+03 -3.539180e+03 -3.321488e+02
-2.537836e+09 -2.337839e+09 -2.497837e+09 2.951049e+03 -6.014744e+02 -3.454230e+03
-3.291303e+09 -3.091305e+09 -3.251300e+09 3.061274e+03 -1.343043e+03 -4.141389e+03
-2.883112e+09 -2.683115e+09 -2.843105e+09 3.637442e+03 -3.021442e+03 -8.777350e+03
-2.035544e+09 -1.835559e+09 -1.995555e+09 -9.046581e+03 1.716568e+04 4.897008e+03
-2.176350e+09 -1.976349e+09 -2.136349e+09 1.547545e+02 1.604989e+01 -1.865563e+01
-2.716321e+09 -2.516333e+09 -2.676334e+09 -2.938958e+03 1.129874e+04 1.190421e+03
-3.084951e+09 -2.884961e+09 -3.044967e+09 -4.453571e+03 1.053809e+04 3.227239e+03
-3.047877e+09 -2.847888e+09 -3.007885e+09 -5.706367e+03 7.016465e+03 3.289141e+03
-2.727556e+09 -2.527567e+09 -2.687569e+09 -3.228530e+03 9.549839e+03 3.631654e+02
-3.417568e+09 -3.217576e+09 -3.377578e+09 -2.777577e+03 7.203033e+03 1.577844e+03
-3.053740e+09 -2.853744e+09 -3.013758e+09 -2.311082e+03 -1.209228e+04 1.724093e+03
-1.830410e+09 -1.630429e+09 -1.790433e+09 1.952289e+03 -2.048979e+04 3.947561e+03
-2.484899e+09 -2.284902e+09 -2.444913e+09 3.664074e+03 -1.158857e+04 4.904415e+03
-2.120738e+09 -1.920734e+09 -2.080737e+09 -1.165386e+03 -9.330468e+02 1.603606e+03
-3.109801e+09 -2.909799e+09 -3.069801e+09 -2.114256e+03 -1.579493e+02 4.094803e+02
-2.628389e+09 -2.428387e+09 -2.588388e+09 -2.727316e+03 4.450003e+02 -4.226250e+01
-2.107785e+09 -1.907783e+09 -2.067785e+09 -2.166908e+03 -3.210283e+02 3.570761e+02
-2.540526e+09 -2.340522e+09 -2.500525e+09 -1.351527e+03 -6.888908e+02 1.308909e+03
-2.705304e+09 -2.505303e+09 -2.665305e+09 -2.154935e+03 -2.336488e+02 5.106200e+02
-2.039828e+09 -1.839827e+09 -1.999827e+09 1.476805e+02 7.246896e+01 -6.961232e+01
-1.746812e+09 -1.546810e+09 -1.706811e+09 1.389529e+02 1.026253e+02 -9.920097e+01
-2.114063e+09 -1.914062e+09 -2.074062e+09 3.788365e+02 6.223613e+01 -1.156540e+02
-2.091512e+09 -1.891510e+09 -2.051511e+09 3.396702e+02 5.190823e+01 -5.464476e+01
-3.094562e+09 -2.894561e+09 -3.054561e+09 2.712426e+02 9.021620e+01 -6.575572e+01
-2.685310e+09 -2.485309e+09 -2.645309e+09 1.777398e+02 1.556194e+02 -4.345080e+01
-2.725065e+09 -2.525064e+09 -2.685064e+09 2.971093e+02 7.073832e+01 -2.038585e+01
-3.213621e+09 -3.013622e+09 -3.173622e+09 -9.288754e+02 -2.811199e+01 -7.291530e+01
-1.976147e+09 -1.776150e+09 -1.936149e+09 -9.162435e+02 3.915724e+00 -1.425402e+02
-2.549421e+09 -2.349423e+09 -2.509423e+09 -9.960434e+02 -7.446319e+01 -5.996847e+01
-3.085496e+09 -2.885498e+09 -3.045498e+09 -1.090504e+03 -3.776484e+01 -3.682711e+01
-2.900574e+09 -2.700576e+09 -2.860576e+09 -1.376396e+03 -2.086864e+01 -2.758720e+02
-2.829010e+09 -2.629011e+09 -2.789011e+09 -9.268128e+02 -7.696987e+01 2.459651e+01
-2.601843e+09 -2.401844e+09 -2.561844e+09 -8.340998e+02 -5.529159e+01 -2.895447e+01
-3.220886e+09 -3.020888e+09 -3.180887e+09 -1.268025e+03 -2.030902e+00 -1.090181e+02
-2.062992e+09 -1.862994e+09 -2.022993e+09 -9.146898e+02 -8.086789e+01 2.874240e+01
-3.594777e+09 -3.394777e+09 -3.554777e+09 7.371183e+02 2.093245e+00 -7.270093e+01
-2.303119e+09 -2.103113e+09 -2.263115e+09 -4.209076e+03 2.138370e+03 3.052892e+03
-2.742652e+09 -2.542645e+09 -2.702650e+09 -2.253495e+03 1.176116e+03 2.064443e+03
-3.017970e+09 -2.817966e+09 -2.977970e+09 -2.913712e+03 1.719572e+03 1.522308e+03
-3.274619e+09 -3.074616e+09 -3.234620e+09 -3.084854e+03 2.069896e+03 1.705748e+03
-2.099483e+09 -1.899476e+09 -2.059477e+09 -6.811482e+03 9.032646e+02 3.637391e+03
-1.873656e+09 -1.673653e+09 -1.833654e+09 -3.114756e+03 9.877355e+02 1.438838e+03
-3.198528e+09 -2.998523e+09 -3.158527e+09 -3.304568e+03 1.732394e+03 1.922139e+03
-1.916155e+09 -1.716150e+09 -1.876153e+09 -5.044935e+03 2.353036e+03 2.646804e+03
-2.567636e+09 -2.367631e+09 -2.527633e+09 -2.570603e+03 1.103265e+03 1.291639e+03
-2.092648e+09 -1.892651e+09 -2.052651e+09 -1.890453e+02 5.373193e+01 -8.186259e+01
-1.783542e+09 -1.583545e+09 -1.743544e+09 -4.995818e+02 -5.193672e+00 -6.544114e+01
-2.459295e+09 -2.259297e+09 -2.419297e+09 -2.751196e+02 1.001284e+01 -1.463397e+01
-3.281797e+09 -3.081800e+09 -3.241799e+09 -3.342800e+02 2.633722e+01 -5.277437e+01
-2.034757e+09 -1.834759e+09 -1.994759e+09 -4.120639e+02 -2.878953e+01 -1.924153e+01
-3.050414e+09 -2.850417e+09 -3.010416e+09 -3.641320e+02 2.616274e+00 8.489605e+00
-3.072942e+09 -2.872945e+09 -3.032944e+09 -3.654998e+02 5.705880e+00 -9.230670e+01
-2.453211e+09 -2.253214e+09 -2.413213e+09 -5.256547e+02 -4.017910e+01 -4.660533e+01
-3.066613e+09 -2.866616e+09 -3.026615e+09 -1.633460e+03 3.372917e+02 -6.498263e+02
-2.024662e+09 -1.824664e+09 -1.984664e+09 -2.074766e+03 2.445211e+02 -4.790066e+02
-2.411889e+09 -2.211891e+09 -2.371892e+09 -2.102290e+03 4.047266e+01 -3.281970e+02
-2.714529e+09 -2.514528e+09 -2.674529e+09 -3.914479e+03 1.882602e+03 -9.272615e+02
-2.507108e+09 -2.307110e+09 -2.467111e+09 -2.898769e+03 5.575012e+02 -6.768524e+02
-2.106195e+09 -1.906197e+09 -2.066197e+09 -2.715534e+03 2.189309e+02 -8.285138e+02
-2.114029e+09 -1.914029e+09 -2.074031e+09 -3.079508e+03 1.145474e+03 -4.422273e+02
-2.415918e+09 -2.215919e+09 -2.375919e+09 8.178706e+02 7.892027e+01 -1.383344e+02
-2.741838e+09 -2.541841e+09 -2.701839e+09 -3.117024e+03 1.564963e+03 -2.386773e+03
-3.117245e+09 -2.917246e+09 -3.077246e+09 1.772595e+03 -8.939215e+01 -5.716135e+02
-3.101159e+09 -2.901159e+09 -3.061158e+09 1.983584e+03 -4.642241e+02 -1.278061e+03
-2.723691e+09 -2.523690e+09 -2.683691e+09 2.325987e+03 -3.898039e+02 -1.100197e+03
-2.164836e+09 -1.964836e+09 -2.124836e+09 -1.004441e+03 -9.450440e+01 3.513840e+00
-2.526123e+09 -2.326123e+09 -2.486123e+09 -9.618394e+02 -1.054055e+02 2.077957e+00
-2.762465e+09 -2.562471e+09 -2.722470e+09 4.039499e+03 5.122146e+03 -1.451370e+03
-2.978731e+09 -2.778731e+09 -2.938731e+09 -1.010127e+03 -1.212192e+02 5.231891e+01
-3.328775e+09 -3.128775e+09 -3.288775e+09 -1.116634e+03 -6.775471e+01 9.920787e+01
-2.513358e+09 -2.313358e+09 -2.473358e+09 -1.143016e+03 -1.058493e+02 1.470280e+02
-2.352849e+09 -2.152849e+09 -2.312849e+09 -1.202631e+03 -1.445570e+02 6.221739e+01
-2.586729e+09 -2.386729e+09 -2.546729e+09 -1.056345e+03 -1.495826e+02 -7.583693e+01
-2.459968e+09 -2.259932e+09 -2.419960e+09 -1.118456e+04 1.332975e+04 -1.415011e+03
-1.813949e+09 -1.613949e+09 -1.773949e+09 6.795858e+02 5.504792e+01 -3.001658e+01
-3.122425e+09 -2.922421e+09 -3.082423e+09 3.807729e+02 -5.407988e+01 2.946077e+02
-3.305310e+09 -3.105309e+09 -3.265309e+09 1.215809e+02 1.214368e+01 -1.356178e+01
-3.100092e+09 -2.900089e+09 -3.060090e+09 1.813814e+03 -4.828296e+02 -3.878701e+02
-3.579295e+09 -3.379295e+09 -3.539295e+09 5.055032e+02 8.509424e+00 -2.421962e+01
-2.725080e+09 -2.525077e+09 -2.685078e+09 2.167976e+03 -8.405895e+02 -1.041388e+03
-2.104408e+09 -1.904403e+09 -2.064405e+09 1.410994e+03 -5.802660e+02 -4.615571e+02
-1.878762e+09 -1.678757e+09 -1.838760e+09 1.612382e+03 -5.749989e+02 -3.362838e+02
-2.733438e+09 -2.533433e+09 -2.693436e+09 1.541492e+02 2.318727e+02 2.881772e+02
-2.778019e+09 -2.578017e+09 -2.738018e+09 1.067320e+03 -4.579429e+01 -1.326498e+02
-2.590235e+09 -2.390233e+09 -2.550234e+09 9.241407e+02 4.386465e+01 -1.531148e+02
-2.649718e+09 -2.449718e+09 -2.609718e+09 1.227999e+03 -2.114574e+01 -1.553933e+02
-3.402796e+09 -3.202794e+09 -3.362795e+09 8.291548e+02 1.130465e+02 1.348399e+01
-2.868515e+09 -2.668514e+09 -2.828515e+09 1.515059e+03 -1.410334e+02 -3.586451e+02
-3.217071e+09 -3.017070e+09 -3.177070e+09 1.379053e+03 -1.427538e+02 -3.619804e+02
-3.380284e+09 -3.180283e+09 -3.340284e+09 1.306132e+03 -1.220908e+02 -3.360177e+02
-2.723191e+09 -2.523194e+09 -2.683193e+09 3.860724e+02 1.268630e+01 -2.338695e+02
-3.373942e+09 -3.173937e+09 -3.333943e+09 -8.888888e+02 -1.242479e+03 2.315149e+03
-3.219925e+09 -3.019921e+09 -3.179925e+09 -1.058352e+02 -1.190814e+03 2.241068e+03
-2.593616e+09 -2.393614e+09 -2.553617e+09 1.895667e+03 -3.841744e+03 4.113908e+03
-3.152297e+09 -2.952300e+09 -3.112299e+09 -5.525803e+02 1.268807e+02 -4.153188e+02
-1.830418e+09 -1.630420e+09 -1.790420e+09 6.994042e+01 3.614922e+01 7.248815e+01
-2.596811e+09 -2.396815e+09 -2.556814e+09 5.297752e+02 -3.998074e+01 -1.198657e+03
-2.519960e+09 -2.319965e+09 -2.479964e+09 -5.847353e+02 4.626514e+00 -7.526595e+02
-2.195562e+09 -1.995567e+09 -2.155566e+09 -1.554862e+00 1.565622e+02 -8.226588e+02
-2.790230e+09 -2.590233e+09 -2.750233e+09 3.514162e+02 -5.946114e+01 -1.805724e+02
-2.731324e+09 -2.531324e+09 -2.691325e+09 -1.166966e+03 -8.231772e+01 3.506692e+01
-1.971845e+09 -1.771845e+09 -1.931845e+09 -1.197113e+03 -1.009870e+02 1.747754e+01
-2.378510e+09 -2.178510e+09 -2.338510e+09 -9.985892e+02 -7.133814e+01 5.416225e+01
-2.614365e+09 -2.414365e+09 -2.574365e+09 -1.038652e+03 -1.083467e+02 6.655926e+01
-2.358068e+09 -2.158069e+09 -2.318069e+09 -1.116202e+03 -1.466210e+02 -1.256278e+01
-2.060889e+09 -1.860887e+09 -2.020888e+09 -1.347852e+03 -2.438483e+02 4.012601e+02
-3.340343e+09 -3.140343e+09 -3.300344e+09 -4.822697e+03 -2.221758e+03 1.832875e+03
-3.060979e+09 -2.860977e+09 -3.020978e+09 -1.813480e+03 -8.252023e+01 3.127924e+02
-2.774287e+09 -2.574285e+09 -2.734287e+09 -1.157982e+03 -3.160951e+02 4.152123e+02
-3.030714e+09 -2.830714e+09 -2.990715e+09 -2.104394e+03 3.268063e+01 1.072921e+02
-2.794070e+09 -2.594068e+09 -2.754070e+09 -1.938222e+03 -2.445558e+02 5.832034e+02
-3.405809e+09 -3.205808e+09 -3.365810e+09 -2.415003e+03 -9.781131e+00 7.131700e+01
-3.371685e+09 -3.171682e+09 -3.331685e+09 -1.126732e+03 -3.815933e+02 5.695372e+02
-3.198566e+09 -2.998564e+09 -3.158566e+09 -1.936823e+03 -1.874091e+02 4.851442e+02
-3.050133e+09 -2.850131e+09 -3.010132e+09 -2.945309e+03 7.334515e+02 1.785717e+02
-1.787845e+09 -1.587843e+09 -1.747845e+09 -1.746070e+03 -9.426006e+01 3.267118e+02
-2.382874e+09 -2.182870e+09 -2.342872e+09 -4.345288e+02 -7.143061e+02 1.218836e+03
-2.515160e+09 -2.315158e+09 -2.475160e+09 -2.337683e+03 -9.261618e+00 3.494041e+02
-2.623019e+09 -2.423022e+09 -2.583021e+09 2.089169e+03 -2.564973e+02 -2.077620e+03
-1.822672e+09 -1.622674e+09 -1.782674e+09 2.974170e+03 -1.186819e+03 -2.807524e+03
-2.455323e+09 -2.255327e+09 -2.415325e+09 2.440832e+03 -8.366211e+02 -2.934903e+03
-3.405922e+09 -3.205924e+09 -3.365922e+09 2.861951e+03 -1.073436e+03 -1.996040e+03
-2.633906e+09 -2.433907e+09 -2.593905e+09 3.974690e+03 -2.432393e+03 -3.941846e+03
-2.576893e+09 -2.376889e+09 -2.536888e+09 3.302990e+03 -3.110117e+03 -2.879322e+03
-2.840279e+09 -2.640285e+09 -2.800281e+09 1.547661e+03 -3.935648e+02 -4.522888e+03
-3.395909e+09 -3.195912e+09 -3.355908e+09 2.323282e+03 -8.770669e+02 -2.825025e+03
-2.046051e+09 -1.846055e+09 -2.006053e+09 2.617971e+03 -1.087963e+03 -4.877076e+03
-1.769722e+09 -1.569723e+09 -1.729722e+09 6.534903e+03 -3.642277e+03 -5.061072e+03
-2.678376e+09 -2.478383e+09 -2.638379e+09 1.431976e+03 -5.154500e+02 -4.087785e+03
-3.425842e+09 -3.225841e+09 -3.385839e+09 3.056266e+03 -8.329971e+02 -1.355708e+03
-2.849521e+09 -2.649520e+09 -2.809501e+09 -7.751841e+03 -1.603184e+04 1.984355e+04
-2.790712e+09 -2.590706e+09 -2.750611e+09 6.379092e+03 9.589133e+03 3.981330e+04
-2.567720e+09 -2.367740e+09 -2.527674e+09 1.268592e+04 1.788615e+04 4.674879e+04
-3.450604e+09 -3.250607e+09 -3.410606e+09 3.935257e+02 4.090066e+01 -9.212339e+01
-3.376909e+09 -3.176918e+09 -3.336871e+09 4.397209e+03 5.591020e+03 1.584039e+04
-2.621178e+09 -2.421159e+09 -2.581074e+09 3.400354e+03 6.314161e+03 2.981618e+04
-2.591630e+09 -2.391636e+09 -2.551581e+09 -4.362546e+03 -1.713113e+04 3.247617e+04
-2.434920e+09 -2.234892e+09 -2.394821e+09 1.296006e+04 1.285570e+04 1.708905e+04
-1.766277e+09 -1.566326e+09 -1.726241e+09 -8.463112e+02 -1.834522e+04 8.161141e+04
-2.633740e+09 -2.433733e+09 -2.593716e+09 -4.521581e+03 -1.363945e+04 1.632671e+04
-1.982971e+09 -1.782956e+09 -1.942877e+09 -1.354584e+04 -3.636008e+03 7.171226e+04
-2.847943e+09 -2.647934e+09 -2.807948e+09 -2.651116e+03 -2.751391e+03 5.714487e+03
-2.483596e+09 -2.283584e+09 -2.443603e+09 1.102167e+03 -3.134556e+03 7.434405e+03
-2.452501e+09 -2.252483e+09 -2.412487e+09 -5.120998e+03 9.710911e+03 -1.008852e+04
-2.495450e+09 -2.295441e+09 -2.455448e+09 -5.786303e+03 2.769423e+03 -1.178938e+03
-3.233224e+09 -3.033217e+09 -3.193225e+09 -4.146043e+03 1.120988e+03 -7.783635e+01
-2.076384e+09 -1.876369e+09 -2.036391e+09 -3.228212e+03 -8.554425e+02 6.735673e+03
-2.398761e+09 -2.198767e+09 -2.358766e+09 -3.389060e+02 5.670768e+01 -1.565889e+03
-3.494124e+09 -3.294122e+09 -3.454125e+09 -2.158390e+03 -2.432898e+03 -1.085788e+03
-2.787906e+09 -2.587910e+09 -2.747909e+09 4.524718e+02 -7.153316e+01 -1.258579e+03
-1.991234e+09 -1.791228e+09 -1.951234e+09 9.573110e+02 1.436184e+03 -1.397311e+03
-1.795540e+09 -1.595607e+09 -1.755599e+09 1.753983e+04 7.938772e+04 -1.760758e+04
-2.579151e+09 -2.379156e+09 -2.539154e+09 -4.596983e+02 1.860982e+02 -9.103649e+02
-1.985513e+09 -1.785519e+09 -1.945518e+09 -3.218519e+02 -1.270340e+02 -1.378209e+03
-2.165902e+09 -1.965907e+09 -2.125906e+09 -4.306189e+02 1.118039e+02 -8.667501e+02
-3.589778e+09 -3.389765e+09 -3.549781e+09 5.979378e+02 1.272057e+03 4.888304e+03
-3.403956e+09 -3.203941e+09 -3.363957e+09 3.805689e+03 -2.120823e+03 1.980660e+03
-3.127943e+09 -2.927929e+09 -3.087931e+09 -8.312104e+02 -3.780052e+03 4.678994e+03
-2.733298e+09 -2.533281e+09 -2.693292e+09 -3.295960e+02 -3.316560e+02 6.720809e+03
-1.825755e+09 -1.625756e+09 -1.785759e+09 -4.151117e+03 2.360626e+03 -2.822381e+03
-2.564496e+09 -2.364499e+09 -2.524498e+09 -2.133864e+02 -1.215420e+01 -6.846310e+00
-2.466831e+09 -2.266841e+09 -2.426831e+09 -4.579485e+02 7.971632e+02 -1.108731e+04
-3.324910e+09 -3.124913e+09 -3.284912e+09 -4.015692e+02 -1.037661e+01 -3.623227e+01
-1.760006e+09 -1.559994e+09 -1.720000e+09 -1.025399e+01 -4.034052e+02 1.037612e+03
-1.571696e+09 -1.371687e+09 -1.531689e+09 2.205684e+03 -2.319931e+03 -2.907185e+03
-2.762723e+09 -2.562711e+09 -2.722718e+09 -1.021619e+03 -2.323010e+02 1.918250e+03
-2.557872e+09 -2.357870e+09 -2.517870e+09 -1.874439e+03 6.237180e+02 3.388417e+02
-1.763942e+09 -1.563928e+09 -1.723935e+09 -6.070932e+03 1.967718e+03 5.230421e+03
-2.155920e+09 -1.955910e+09 -2.115913e+09 -2.945335e+03 -1.261357e+02 2.475845e+03
-2.370036e+09 -2.170030e+09 -2.330032e+09 -5.433679e+02 5.585546e+02 5.760599e+01
-1.771405e+09 -1.571396e+09 -1.731400e+09 1.170696e+03 -1.693425e+03 1.014338e+02
-3.195693e+09 -2.995693e+09 -3.155693e+09 1.122842e+03 2.433279e+00 -2.105874e+02
-2.836498e+09 -2.636497e+09 -2.796498e+09 8.317697e+02 3.377655e+01 -9.960405e+01
-2.191583e+09 -1.991582e+09 -2.151582e+09 3.787879e+02 4.257716e+01 -1.242844e+02
-2.108646e+09 -1.908645e+09 -2.068645e+09 9.359168e+02 9.750917e-01 -1.551066e+02
-2.016564e+09 -1.816563e+09 -1.976564e+09 1.219112e+03 -2.265026e+01 -1.792837e+02
-1.823587e+09 -1.623587e+09 -1.783587e+09 1.263536e+03 -4.116052e+01 -3.037367e+02
-1.903082e+09 -1.703081e+09 -1.863081e+09 5.085934e+02 6.853878e+01 -1.843890e+02
-3.150065e+09 -2.950067e+09 -3.110068e+09 -8.198049e+03 -6.960467e+03 9.539961e+03
-1.907382e+09 -1.707398e+09 -1.867406e+09 -5.000785e+03 -3.847839e+03 1.940082e+04
-3.179044e+09 -2.979043e+09 -3.138997e+09 5.424323e+03 8.215029e+03 1.941328e+04
-2.708944e+09 -2.508963e+09 -2.668937e+09 -3.371359e+02 1.683817e+03 2.234830e+04
-3.103100e+09 -2.903113e+09 -3.063099e+09 -9.038550e+02 8.484367e+02 1.466049e+04
-3.391281e+09 -3.191293e+09 -3.351274e+09 1.686853e+03 7.634353e+02 1.202196e+04
-2.712873e+09 -2.512875e+09 -2.672875e+09 -3.245951e+02 -2.206120e+01 -1.312476e+01
-2.790323e+09 -2.590325e+09 -2.750324e+09 7.728641e+01 1.014080e+01 1.003160e+01
-3.401962e+09 -3.201964e+09 -3.361963e+09 7.405692e+01 3.481202e+01 4.258836e+01
-3.166531e+09 -2.966533e+09 -3.126533e+09 -2.647851e+02 -9.462280e+00 2.528562e+01
-2.800068e+09 -2.600071e+09 -2.760070e+09 -6.976508e+01 -5.451084e+00 2.275915e+01
-3.411707e+09 -3.211710e+09 -3.371709e+09 -1.634507e+02 2.706331e+00 -6.136887e+01
-1.777653e+09 -1.577655e+09 -1.737654e+09 -2.345502e+02 -2.220135e+01 -6.258497e+01
-2.594952e+09 -2.394955e+09 -2.554954e+09 -6.315307e+01 -1.375641e+00 -6.571159e+00
-2.353675e+09 -2.153677e+09 -2.313677e+09 -3.852957e+01 5.352193e+00 2.179344e+01
-1.790811e+09 -1.590813e+09 -1.750813e+09 -1.086317e+02 -9.094561e+00 9.245601e+01
-2.470094e+09 -2.270101e+09 -2.430111e+09 1.865532e+03 -1.395262e+04 3.081902e+03
-2.668335e+09 -2.468341e+09 -2.628351e+09 1.563719e+03 -1.371088e+04 3.560723e+03
-3.370466e+09 -3.170466e+09 -3.330481e+09 -1.922897e+03 -1.080245e+04 8.747761e+02
-2.585831e+09 -2.385836e+09 -2.545853e+09 -3.005356e+03 -1.614810e+04 6.218366e+02
-3.173590e+09 -2.973594e+09 -3.133607e+09 -2.243233e+03 -1.080680e+04 -1.355835e+02
-2.766213e+09 -2.566221e+09 -2.726226e+09 -1.025574e+03 -1.308559e+04 2.458456e+02
-2.654119e+09 -2.454123e+09 -2.614121e+09 1.047673e+03 -2.150865e+02 -2.319222e+03
-3.419852e+09 -3.219857e+09 -3.379854e+09 -2.410154e+02 9.650892e+01 -1.845178e+03
-3.349989e+09 -3.149993e+09 -3.309991e+09 -5.532127e+02 1.211175e+02 -3.686239e+02
-3.215195e+09 -3.015200e+09 -3.175198e+09 4.867177e+02 1.486793e+02 -1.057097e+03
-3.397898e+09 -3.197901e+09 -3.357899e+09 1.261568e+03 1.550475e+02 -1.053139e+03
-2.799555e+09 -2.599560e+09 -2.759558e+09 -8.178540e+02 2.745073e+02 -1.784695e+03
-3.414605e+09 -3.214610e+09 -3.374607e+09 1.640141e+02 2.923677e+02 -1.331809e+03
-3.173042e+09 -2.973046e+09 -3.133044e+09 4.435612e+02 2.084080e+01 -7.884418e+02
-2.811777e+09 -2.611776e+09 -2.771776e+09 2.723608e+02 6.022533e+01 -2.796051e+01
-2.432235e+09 -2.232238e+09 -2.392236e+09 1.683210e+03 -3.221096e+02 -1.207993e+03
-2.426618e+09 -2.226622e+09 -2.386621e+09 1.942354e+03 -3.853100e+02 -1.970430e+03
-3.208872e+09 -3.008875e+09 -3.168873e+09 1.466998e+03 -2.324641e+02 -1.282011e+03
-1.758650e+09 -1.558649e+09 -1.718648e+09 -1.935654e+03 4.572912e+02 2.119538e+02
-2.609684e+09 -2.409684e+09 -2.569684e+09 3.616216e+02 3.546937e+01 2.130696e+01
-2.831326e+09 -2.631326e+09 -2.791326e+09 3.613225e+02 1.918894e+01 1.749459e+00
-2.433428e+09 -2.233427e+09 -2.393427e+09 3.956390e+02 6.012483e+01 -5.482981e+01
-3.413129e+09 -3.213129e+09 -3.373129e+09 4.522060e+02 2.154976e+01 -6.652352e+01
-2.600245e+09 -2.400244e+09 -2.560244e+09 3.313723e+02 5.122833e+01 -1.107685e+01
-3.043949e+09 -2.843948e+09 -3.003948e+09 4.823858e+02 3.282297e+01 -1.433979e+01
-3.043934e+09 -2.843933e+09 -3.003933e+09 4.198777e+02 3.665380e+01 -2.359662e+01
-2.184557e+09 -1.984561e+09 -2.144557e+09 2.932190e+03 9.701179e+02 -2.237505e+02
-2.158682e+09 -1.958686e+09 -2.118681e+09 3.308683e+03 1.517164e+03 -5.615243e+02
-3.305092e+09 -3.105094e+09 -3.265092e+09 2.103868e+03 7.169795e+02 -1.609323e+02
-2.972737e+09 -2.772739e+09 -2.932736e+09 2.578982e+03 1.155935e+03 -4.595735e+02
-3.217050e+09 -3.017032e+09 -3.176990e+09 -6.521982e+03 -2.039154e+04 9.161849e+03
-2.388036e+09 -2.188061e+09 -2.348016e+09 5.628010e+03 6.674733e+03 4.876983e+04
-2.789941e+09 -2.589917e+09 -2.749895e+09 9.670438e+03 1.941619e+04 6.951202e+03
-1.996945e+09 -1.796917e+09 -1.956782e+09 2.438468e+04 4.457137e+04 6.609022e+04
-3.394939e+09 -3.194915e+09 -3.354904e+09 6.829305e+03 1.373289e+04 5.108545e+03
-2.604429e+09 -2.404394e+09 -2.564371e+09 9.827363e+03 3.730319e+04 1.931050e+04
-3.209868e+09 -3.009841e+09 -3.169818e+09 4.131690e+03 2.199317e+04 1.034970e+04
-1.977172e+09 -1.777171e+09 -1.937171e+09 -5.353448e+02 2.077677e+02 -5.503631e+01
-1.808516e+09 -1.608514e+09 -1.768514e+09 -7.742158e+02 1.105082e+02 -1.573955e+02
-1.813736e+09 -1.613736e+09 -1.773735e+09 -1.189666e+03 3.273682e+02 -2.667648e+01
-2.009497e+09 -1.809497e+09 -1.969495e+09 -1.555594e+03 2.152925e+02 7.573826e+01
-2.409766e+09 -2.209766e+09 -2.369765e+09 -1.541779e+03 4.370994e+02 9.784191e+01
-2.366131e+09 -2.166130e+09 -2.326130e+09 -1.256718e+03 4.687080e+02 2.862487e+01
-1.789674e+09 -1.589670e+09 -1.749673e+09 3.265730e+03 -3.969683e+03 4.091875e+03
-2.013108e+09 -1.813098e+09 -1.973107e+09 1.869151e+03 -6.211825e+03 7.035789e+03
-2.009714e+09 -1.809704e+09 -1.969710e+09 -2.349024e+02 -2.264457e+02 3.481471e+03
-3.402016e+09 -3.202016e+09 -3.362018e+09 -3.733916e+03 2.499317e+03 1.923340e+03
-2.411627e+09 -2.211621e+09 -2.371626e+09 2.577240e+02 -1.825388e+03 2.541055e+03
-2.434150e+09 -2.234141e+09 -2.394148e+09 2.130040e+03 -2.096285e+03 6.154976e+03
-2.020066e+09 -1.820062e+09 -1.980066e+09 4.719313e+03 -9.016327e+03 6.487974e+03
-1.808858e+09 -1.608851e+09 -1.768856e+09 3.707652e+03 -6.351438e+03 6.210470e+03
-2.848798e+09 -2.648790e+09 -2.808814e+09 -3.254247e+03 -7.214060e+03 4.268845e+03
-3.429283e+09 -3.229277e+09 -3.389285e+09 -4.055137e+03 4.073298e+02 -7.766058e+02
-3.395792e+09 -3.195777e+09 -3.355803e+09 -3.107117e+03 -2.044951e+03 2.985642e+03
-2.018633e+09 -1.818641e+09 -1.978654e+09 2.660592e+03 -2.012119e+04 5.180624e+03
-2.407933e+09 -2.207939e+09 -2.367962e+09 2.356721e+03 -1.950936e+04 4.571139e+03
-3.047263e+09 -2.847259e+09 -3.007283e+09 -3.257866e+03 -8.200139e+03 2.914122e+03
-3.411992e+09 -3.211988e+09 -3.372002e+09 1.000759e+03 -6.092969e+03 6.129141e+03
-3.401459e+09 -3.201456e+09 -3.361471e+09 -1.279520e+03 -7.480123e+03 2.837906e+03
-2.450044e+09 -2.250043e+09 -2.410051e+09 5.596241e+03 -7.770075e+03 7.594575e+03
-2.860281e+09 -2.660279e+09 -2.820284e+09 -5.651399e+03 4.734955e+03 3.239001e+03
-1.582958e+09 -1.382957e+09 -1.542957e+09 7.710813e+02 2.296910e+02 -9.616541e+01
-3.192319e+09 -2.992313e+09 -3.152319e+09 -1.716846e+03 -3.619400e+02 2.308030e+03
-2.628219e+09 -2.428211e+09 -2.588218e+09 -3.730647e+03 1.723697e+03 1.492404e+03
-3.218430e+09 -3.018424e+09 -3.178428e+09 -3.503468e+03 1.835754e+03 9.139420e+02
-2.342732e+09 -2.142721e+09 -2.302726e+09 2.499137e+03 -2.727685e+03 3.362354e+02
-3.406718e+09 -3.206712e+09 -3.366720e+09 -2.596955e+03 1.093667e+02 2.527645e+03
-1.600364e+09 -1.400360e+09 -1.560361e+09 -3.052789e+03 1.009245e+03 1.258111e+03
-3.398005e+09 -3.198012e+09 -3.358015e+09 1.151000e+03 -7.179199e+03 1.664097e+03
-2.799494e+09 -2.599502e+09 -2.759506e+09 1.516070e+03 -1.160162e+04 2.270134e+03
-3.208023e+09 -3.008031e+09 -3.168035e+09 1.414309e+03 -7.480743e+03 1.739316e+03
-3.202129e+09 -3.002134e+09 -3.162143e+09 1.661824e+03 -8.675340e+03 3.049419e+03
-2.796361e+09 -2.596365e+09 -2.756377e+09 1.390836e+03 -1.427305e+04 3.696968e+03
-2.008669e+09 -1.808669e+09 -1.968669e+09 4.365991e+02 3.575830e+01 -3.023785e+01
-2.002740e+09 -1.802740e+09 -1.962740e+09 5.781270e+02 3.253129e+01 -2.384507e+01
-1.789025e+09 -1.589025e+09 -1.749025e+09 4.545468e+02 3.530304e+01 6.116069e+00
-2.504225e+09 -2.304226e+09 -2.464225e+09 5.025186e+02 3.638277e+01 -1.925405e+01
-2.422691e+09 -2.222691e+09 -2.382692e+09 -1.996844e+03 5.657071e+01 -2.746022e+01
-2.468223e+09 -2.268221e+09 -2.428223e+09 -2.252279e+03 -3.803210e+00 3.708235e+02
-1.943230e+09 -1.743230e+09 -1.903231e+09 -2.300813e+03 1.733312e+02 6.534490e+01
-2.500307e+09 -2.300300e+09 -2.460306e+09 -2.806858e+03 2.122909e+02 1.325899e+03
-2.110970e+09 -1.910969e+09 -2.070971e+09 -2.742710e+03 4.182823e+02 2.459249e+01
-1.772450e+09 -1.572451e+09 -1.732452e+09 -2.529050e+03 3.894242e+02 -8.356183e+02
-3.591296e+09 -3.391298e+09 -3.551297e+09 -2.819360e+03 8.191952e+02 -1.247252e+03
-3.397909e+09 -3.197912e+09 -3.357910e+09 -2.884535e+03 1.204392e+03 -1.289673e+03
-2.652745e+09 -2.452743e+09 -2.612745e+09 -2.971188e+03 7.001178e+02 3.897325e+02
-2.603022e+09 -2.403019e+09 -2.563026e+09 -3.795461e+03 -6.863107e+03 -4.001072e+03
-2.766557e+09 -2.566555e+09 -2.726563e+09 -3.797162e+03 -7.710658e+03 -3.715240e+03
-2.861531e+09 -2.661526e+09 -2.821538e+09 -2.261025e+03 -7.198362e+03 -4.556950e+03
-3.437244e+09 -3.237246e+09 -3.397246e+09 2.432430e+01 2.659640e+00 1.932322e+00
-1.775933e+09 -1.575933e+09 -1.735933e+09 9.874044e+02 3.714767e+01 -2.573625e+02
-1.806469e+09 -1.606471e+09 -1.766470e+09 9.551187e+01 1.158178e+01 -3.164531e+01
-2.500646e+09 -2.300648e+09 -2.460648e+09 4.555469e+02 1.431483e+01 -7.894113e+01
-1.840894e+09 -1.640897e+09 -1.800897e+09 4.849694e+01 -5.316332e+00 -4.727294e+01
-3.271275e+09 -3.071278e+09 -3.231277e+09 3.790749e+02 3.501358e+01 -1.184233e+02
-2.872227e+09 -2.672230e+09 -2.832229e+09 8.803890e+01 1.565340e+01 -5.712633e+01
-1.995951e+09 -1.795949e+09 -1.955953e+09 -5.683379e+03 -6.245108e+03 -4.845117e+03
-2.469769e+09 -2.269764e+09 -2.429770e+09 -2.787746e+03 -4.334096e+03 -2.742672e+03
-3.200040e+09 -3.000035e+09 -3.160043e+09 -3.024234e+03 -2.541496e+03 -3.432409e+03
-3.172340e+09 -2.972338e+09 -3.132344e+09 -3.228260e+03 -4.070485e+03 -3.187819e+03
-3.262282e+09 -3.062276e+09 -3.222284e+09 -1.645503e+03 -2.037033e+03 -2.358305e+03
-2.891534e+09 -2.691530e+09 -2.851536e+09 -2.734655e+03 -3.167195e+03 -2.839106e+03
-2.641732e+09 -2.441733e+09 -2.601733e+09 -2.041032e+03 2.641125e+02 -9.296100e+01
-3.275853e+09 -3.075855e+09 -3.235855e+09 -1.735769e+03 1.366446e+02 -4.915181e+02
-2.786094e+09 -2.586099e+09 -2.746097e+09 -1.077847e+03 3.692993e+02 -1.640216e+03
-2.575169e+09 -2.375174e+09 -2.535172e+09 -8.701271e+02 2.246498e+02 -1.796676e+03
-1.955313e+09 -1.755317e+09 -1.915317e+09 -1.511011e+03 4.726670e+02 -1.103584e+03
-3.394902e+09 -3.194906e+09 -3.354904e+09 -8.125439e+02 2.263249e+02 -7.994983e+02
-3.372439e+09 -3.172443e+09 -3.332441e+09 -9.239591e+02 5.762113e+01 -7.981022e+02
-2.653358e+09 -2.453370e+09 -2.613363e+09 -3.483913e+02 3.712401e+03 2.069852e+02
-2.032217e+09 -1.832229e+09 -1.992221e+09 4.213946e+02 3.830653e+03 1.113720e+01
-3.628689e+09 -3.428687e+09 -3.588687e+09 -1.149397e+03 1.136759e+02 1.050475e+01
-1.573914e+09 -1.373916e+09 -1.533916e+09 -3.517732e+02 -5.311053e+01 6.594228e+01
-2.033278e+09 -1.833292e+09 -1.993284e+09 1.239324e+03 6.675941e+03 1.553311e+02
-2.002550e+09 -1.802548e+09 -1.962549e+09 -2.537164e+03 1.407027e+03 8.867233e+02
-1.835560e+09 -1.635574e+09 -1.795564e+09 -2.739436e+03 6.314839e+03 6.180142e+02
-2.048624e+09 -1.848611e+09 -2.008621e+09 -3.294134e+03 2.110085e+03 2.586680e+03
-2.425743e+09 -2.225731e+09 -2.385742e+09 -1.458701e+03 -2.323126e+02 5.185998e+03
-2.841390e+09 -2.641382e+09 -2.801395e+09 -2.136746e+03 -2.912842e+03 5.936544e+03
-1.846392e+09 -1.646363e+09 -1.806390e+09 6.393847e+03 -5.619055e+03 1.174713e+04
-1.816482e+09 -1.616473e+09 -1.776483e+09 9.719459e+03 -8.508697e+03 1.019050e+04
-2.639739e+09 -2.439724e+09 -2.599739e+09 -6.491032e+02 -4.815032e+02 5.862742e+03
-3.428380e+09 -3.228375e+09 -3.388386e+09 -3.371248e+03 -1.465938e+03 2.345514e+03
-2.064209e+09 -1.864198e+09 -2.024220e+09 6.384289e+02 -8.118041e+03 8.605282e+03
-2.085914e+09 -1.885903e+09 -2.045912e+09 -5.971969e+03 4.104993e+03 1.328043e+03
-2.600835e+09 -2.400834e+09 -2.560835e+09 -2.082618e+03 6.735660e+01 1.198073e+02
-3.358368e+09 -3.158369e+09 -3.318369e+09 -2.082612e+03 1.037554e+02 -3.210838e+02
-3.361339e+09 -3.161339e+09 -3.321340e+09 -1.857606e+03 -1.570454e+02 2.515412e+02
-2.313473e+09 -2.113474e+09 -2.273474e+09 -1.681905e+03 -2.528362e+01 -5.432292e+01
-2.544119e+09 -2.344120e+09 -2.504120e+09 -1.745162e+03 2.207316e+01 -1.479185e+02
-3.188229e+09 -2.988229e+09 -3.148230e+09 -1.666035e+03 -1.193381e+02 2.301489e+01
-2.416541e+09 -2.216538e+09 -2.376564e+09 -8.995904e+03 -1.842587e+04 -5.346342e+03
-2.522000e+09 -2.322003e+09 -2.482019e+09 -7.876325e+03 -1.609567e+04 -5.983331e+03
-3.420042e+09 -3.220031e+09 -3.380051e+09 -1.885467e+03 -5.136518e+03 -3.383426e+03
-2.702647e+09 -2.502638e+09 -2.662659e+09 -2.587356e+03 -8.072023e+03 -5.014150e+03
-2.527176e+09 -2.327178e+09 -2.487187e+09 -4.973672e+03 -1.096768e+04 -5.174857e+03
-1.790414e+09 -1.590438e+09 -1.750430e+09 -9.450106e+03 -2.334947e+04 -8.512705e+03
-2.073921e+09 -1.873920e+09 -2.033947e+09 -7.215636e+03 -2.475007e+04 -4.992462e+03
-2.117230e+09 -1.917221e+09 -2.077247e+09 -6.452864e+03 -1.759121e+04 -6.186797e+03
-3.386451e+09 -3.186450e+09 -3.346450e+09 2.743362e+02 3.468941e+01 -6.385705e+00
-3.098139e+09 -2.898138e+09 -3.058138e+09 2.506901e+02 3.645992e+01 -2.211350e+01
-2.829726e+09 -2.629726e+09 -2.789726e+09 2.480414e+02 2.197638e+01 6.831947e-01
-2.643540e+09 -2.443539e+09 -2.603539e+09 2.888067e+02 3.427890e+01 -3.378217e+01
-3.214572e+09 -3.014571e+09 -3.174571e+09 2.492148e+02 3.102096e+01 -2.008751e+01
-1.979182e+09 -1.779181e+09 -1.939181e+09 -2.912587e+03 9.661632e+02 6.263282e+02
-3.115532e+09 -2.915531e+09 -3.075531e+09 2.062792e+02 2.129025e+01 -4.064950e+01
-1.876291e+09 -1.676298e+09 -1.836295e+09 -6.641630e+03 -8.335740e+03 -2.773383e+03
-2.082389e+09 -1.882399e+09 -2.042395e+09 -5.013460e+03 -9.906955e+03 -2.404468e+03
-2.074432e+09 -1.874438e+09 -2.034436e+09 -6.220618e+03 -8.854033e+03 -2.833815e+03
-2.465176e+09 -2.265180e+09 -2.425180e+09 -4.626962e+03 -5.632223e+03 -2.558118e+03
-2.067874e+09 -1.867878e+09 -2.027877e+09 -5.135746e+03 -6.841871e+03 -2.816041e+03
-1.781433e+09 -1.581447e+09 -1.741437e+09 -7.464505e+03 -1.201076e+04 -3.328102e+03
-1.781791e+09 -1.581794e+09 -1.741796e+09 -7.765513e+03 -1.063730e+04 -4.428696e+03
-2.774887e+09 -2.574896e+09 -2.734890e+09 -8.482038e+02 2.050211e+03 1.887021e+02
-2.357768e+09 -2.157777e+09 -2.317771e+09 -9.739836e+02 1.945373e+03 1.216843e+02
-2.740754e+09 -2.540761e+09 -2.700755e+09 -9.562886e+02 1.050198e+03 1.712506e+01
-3.384696e+09 -3.184703e+09 -3.344698e+09 -8.018530e+02 1.091490e+03 9.985043e+01
-2.771562e+09 -2.571570e+09 -2.731565e+09 -7.218993e+02 1.246950e+03 1.766862e+02
-3.174752e+09 -2.974760e+09 -3.134755e+09 -7.283265e+02 1.151091e+03 6.092262e+01
-3.047426e+09 -2.847428e+09 -3.007416e+09 1.015552e+04 7.448760e+03 1.055610e+04
-2.606995e+09 -2.406991e+09 -2.566940e+09 -1.467820e+04 -2.701620e+04 3.323721e+04
-2.559017e+09 -2.359030e+09 -2.519013e+09 1.718132e+03 2.236932e+03 2.370154e+04
-2.410716e+09 -2.210717e+09 -2.370673e+09 -1.080803e+04 -2.799051e+04 3.380901e+04
-2.312749e+09 -2.112767e+09 -2.272763e+09 1.106008e+04 6.102908e+03 2.220244e+04
-1.987059e+09 -1.787083e+09 -1.947071e+09 5.779175e+03 2.995563e+03 5.211210e+04
-2.166660e+09 -1.966650e+09 -2.126626e+09 1.896805e+04 2.820961e+04 3.060392e+04
-1.789291e+09 -1.589326e+09 -1.749299e+09 4.810510e+03 3.243572e+03 3.774017e+04
-1.951495e+09 -1.751511e+09 -1.911509e+09 1.060340e+04 5.409954e+03 2.283490e+04
-2.822466e+09 -2.622465e+09 -2.782466e+09 3.390040e+03 1.550399e+03 -7.911003e+02
-3.192639e+09 -2.992639e+09 -3.152642e+09 4.914717e+03 3.532707e+03 -1.971079e+03
-2.616246e+09 -2.416248e+09 -2.576246e+09 4.569199e+03 2.784341e+03 -1.315909e+03
-2.557875e+09 -2.357875e+09 -2.517875e+09 3.941765e+03 2.210909e+03 -1.485505e+03
-2.016163e+09 -1.816165e+09 -1.976162e+09 5.585900e+03 3.890367e+03 -1.997338e+03
-2.578134e+09 -2.378138e+09 -2.538136e+09 4.621637e+03 3.737020e+03 -1.633681e+03
-1.773001e+09 -1.573005e+09 -1.733001e+09 4.970802e+03 2.941016e+03 -9.377457e+02
-2.561928e+09 -2.361934e+09 -2.521931e+09 4.963123e+03 4.161110e+03 -1.610786e+03
-1.773432e+09 -1.573439e+09 -1.733433e+09 6.055424e+03 4.853744e+03 -1.829054e+03
-1.964272e+09 -1.764278e+09 -1.924274e+09 4.044177e+03 3.245543e+03 -8.206978e+02
-1.782176e+09 -1.582180e+09 -1.742176e+09 6.828307e+03 5.250072e+03 -2.075909e+03
-3.289719e+09 -3.089720e+09 -3.249719e+09 3.011774e+03 8.226821e+02 -4.777636e+02
-2.482318e+09 -2.282320e+09 -2.442318e+09 3.568808e+03 1.802169e+03 -5.784562e+02
-1.976107e+09 -1.776114e+09 -1.936108e+09 2.533715e+03 1.399068e+03 -3.388208e+02
-2.558671e+09 -2.358675e+09 -2.518672e+09 3.228579e+03 1.931324e+03 -5.754510e+02
-3.590378e+09 -3.390380e+09 -3.550379e+09 2.756708e+03 1.333439e+03 -3.274742e+02
-3.184817e+09 -2.984820e+09 -3.144820e+09 3.901335e+03 2.221697e+03 -9.052099e+02
-2.776527e+09 -2.576530e+09 -2.736529e+09 3.875968e+03 3.218242e+03 -1.288370e+03
-2.746123e+09 -2.546128e+09 -2.706125e+09 3.487316e+03 2.242791e+03 -8.236227e+02
-2.084800e+09 -1.884799e+09 -2.044799e+09 -8.682140e+01 2.118305e+02 -8.079323e+01
-3.383396e+09 -3.183400e+09 -3.343399e+09 3.769233e+03 1.994603e+03 -1.060612e+03
-2.316989e+09 -2.116995e+09 -2.276990e+09 3.611214e+03 2.333737e+03 -8.777782e+02
-1.945164e+09 -1.745170e+09 -1.905164e+09 3.603929e+03 1.972462e+03 -7.170374e+02
-2.566666e+09 -2.366672e+09 -2.526668e+09 3.574370e+03 2.602584e+03 -6.765599e+02
-2.671442e+09 -2.471442e+09 -2.631429e+09 -1.407450e+04 -1.574632e+04 1.892611e+04
-3.577478e+09 -3.377477e+09 -3.537476e+09 -3.735904e+01 4.678027e+01 -2.770969e+01
-2.357949e+09 -2.157955e+09 -2.317952e+09 4.045471e+03 2.908598e+03 -8.892912e+02
-3.154563e+09 -2.954568e+09 -3.114565e+09 3.504498e+03 1.838818e+03 -6.415586e+02
-2.121225e+09 -1.921230e+09 -2.081225e+09 2.359074e+03 9.494024e+02 -2.074657e+02
-1.916256e+09 -1.716261e+09 -1.876256e+09 2.509573e+03 7.227198e+02 -8.804437e+01
-2.435462e+09 -2.235468e+09 -2.395464e+09 2.788149e+03 1.537452e+03 -3.461661e+02
-2.010232e+09 -1.810231e+09 -1.970231e+09 4.361592e+02 4.468213e+01 1.198810e+00
-1.810033e+09 -1.610032e+09 -1.770032e+09 3.756082e+02 7.724463e+01 -2.928321e+01
-2.760167e+09 -2.560164e+09 -2.720165e+09 -1.489441e+03 4.444226e+02 5.625609e+02
-2.134285e+09 -1.934284e+09 -2.094284e+09 2.004781e+02 2.403309e+01 -4.840336e+01
-2.591054e+09 -2.391059e+09 -2.551058e+09 2.164736e+02 -4.119787e+01 -5.661096e+02
-1.819877e+09 -1.619882e+09 -1.779881e+09 2.259410e+02 -5.804696e+01 -5.747683e+02
-2.817378e+09 -2.617375e+09 -2.777377e+09 5.203883e+02 -1.301757e+01 -9.102955e+01
-2.665005e+09 -2.465003e+09 -2.625004e+09 -3.131896e+02 4.780817e+02 1.431252e+02
-3.102976e+09 -2.902974e+09 -3.062975e+09 3.793922e+01 8.122332e+01 4.741358e+01
-3.615391e+09 -3.415385e+09 -3.575397e+09 -8.427437e+01 -3.674172e+03 -3.287771e+03
-3.355230e+09 -3.155236e+09 -3.315233e+09 2.805849e+03 2.192849e+03 -2.915696e+02
-2.537406e+09 -2.337411e+09 -2.497408e+09 3.854774e+03 2.584916e+03 -8.335328e+02
-3.225203e+09 -3.025204e+09 -3.185203e+09 3.545475e+03 1.896149e+03 -1.037301e+03
-2.747699e+09 -2.547707e+09 -2.707703e+09 3.456092e+03 3.612912e+03 -1.091041e+03
-1.771905e+09 -1.571913e+09 -1.731906e+09 3.844353e+03 2.484384e+03 -7.960830e+02
-2.359319e+09 -2.159327e+09 -2.319322e+09 4.813550e+03 3.524945e+03 -1.590107e+03
-2.559856e+09 -2.359867e+09 -2.519861e+09 3.317706e+03 5.082664e+03 -1.001439e+03
-2.334236e+09 -2.134244e+09 -2.294238e+09 2.992757e+03 2.650195e+03 -5.661693e+02
-1.752946e+09 -1.552954e+09 -1.712947e+09 3.084457e+03 1.646737e+03 -4.908949e+02
-1.576840e+09 -1.376857e+09 -1.536846e+09 3.563375e+03 -7.261710e+03 1.907680e+03
-1.776362e+09 -1.576372e+09 -1.736365e+09 3.014256e+03 3.140648e+03 -4.876017e+02
-2.560089e+09 -2.360099e+09 -2.520094e+09 2.997167e+03 4.204960e+03 -6.179142e+02
-2.367259e+09 -2.167267e+09 -2.327262e+09 2.524287e+03 2.818976e+03 -5.948966e+02
-1.588148e+09 -1.388147e+09 -1.548147e+09 -3.002296e+02 8.214754e+01 -1.381108e+02
-1.965643e+09 -1.765651e+09 -1.925646e+09 4.819940e+03 5.449190e+03 -1.748211e+03
-1.773274e+09 -1.573286e+09 -1.733278e+09 1.820481e+03 4.832018e+03 -2.317092e+02
-3.578874e+09 -3.378873e+09 -3.538873e+09 -1.413466e+03 2.646308e+02 1.452565e+02
-2.137290e+09 -1.937290e+09 -2.097290e+09 -5.465073e+02 -2.924472e+01 1.348217e+00
-3.609545e+09 -3.409545e+09 -3.569545e+09 -4.716128e+02 -3.391502e+01 2.673397e+01
-2.950957e+09 -2.750957e+09 -2.910957e+09 -5.435077e+02 -3.020325e+01 -3.547623e+01
-2.398820e+09 -2.198821e+09 -2.358821e+09 -6.597404e+02 -6.564940e+01 -1.768111e+00
-2.556449e+09 -2.356449e+09 -2.516449e+09 -5.607330e+02 -6.997823e+01 -1.386437e+01
-3.599586e+09 -3.399588e+09 -3.559587e+09 -4.282616e+02 -2.269049e+01 9.692990e+00
-3.610648e+09 -3.410649e+09 -3.570649e+09 -7.762412e+02 -2.816966e+01 -3.033664e+01
-1.816969e+09 -1.616969e+09 -1.776970e+09 -6.049687e+02 -7.491526e+01 5.459341e+00
-2.585080e+09 -2.385081e+09 -2.545081e+09 -6.923935e+02 -5.196170e+01 3.904507e+01
-1.592347e+09 -1.392348e+09 -1.552348e+09 -5.670627e+02 -7.925245e+01 2.441936e+01
-1.892286e+09 -1.692287e+09 -1.852287e+09 -5.402138e+02 -4.427406e+01 4.765145e+01
-2.793423e+09 -2.593418e+09 -2.753424e+09 5.914401e+02 -2.826025e+03 3.046394e+03
-3.093610e+09 -2.893608e+09 -3.053611e+09 1.798201e+03 -2.778682e+03 2.645070e+03
-3.386290e+09 -3.186287e+09 -3.346293e+09 1.627168e+03 -3.620477e+03 3.446874e+03
-3.202970e+09 -3.002969e+09 -3.162972e+09 2.269030e+03 -2.761122e+03 2.136882e+03
-3.396365e+09 -3.196363e+09 -3.356366e+09 2.033142e+03 -2.735021e+03 2.484807e+03
-2.455737e+09 -2.255690e+09 -2.415714e+09 3.079340e+03 2.346550e+04 -8.735606e+03
-2.544931e+09 -2.344913e+09 -2.504940e+09 -9.895549e+02 6.357110e+03 -4.832806e+03
-3.399709e+09 -3.199697e+09 -3.359705e+09 4.068110e+03 4.220630e+03 2.823244e+03
-2.854872e+09 -2.654854e+09 -2.814891e+09 2.245139e+03 -2.696142e+03 -2.799118e+03
-3.086178e+09 -2.886153e+09 -3.046171e+09 -4.597888e+03 8.275251e+03 -1.005604e+04
-3.172246e+09 -2.972245e+09 -3.132245e+09 -1.855857e+03 5.707137e+02 3.639086e+02
-1.827621e+09 -1.627575e+09 -1.787640e+09 -4.281693e+03 5.600941e+02 -7.796858e+03
-2.559812e+09 -2.359813e+09 -2.519820e+09 -7.416412e+03 9.843813e+03 6.058927e+03
-1.937669e+09 -1.737666e+09 -1.897666e+09 -1.768680e+03 5.360871e+02 4.611094e+02
-2.576759e+09 -2.376744e+09 -2.536749e+09 -5.166071e+03 6.267653e+02 5.589831e+03
-3.318335e+09 -3.118328e+09 -3.278333e+09 -3.067879e+03 1.756427e+03 2.747167e+03
-2.363054e+09 -2.163038e+09 -2.323044e+09 -5.065128e+03 4.940067e+02 5.716158e+03
-3.194128e+09 -2.994124e+09 -3.154132e+09 -4.878681e+03 4.693976e+03 3.370826e+03
-2.810313e+09 -2.610305e+09 -2.770311e+09 -4.975200e+03 3.643469e+03 4.580919e+03
-2.622860e+09 -2.422868e+09 -2.582883e+09 6.216500e+03 1.925884e+04 -5.789489e+03
-2.407630e+09 -2.207654e+09 -2.367661e+09 -1.795656e+01 2.548329e+04 -3.197463e+02
-2.014418e+09 -1.814441e+09 -1.974437e+09 9.175706e+03 3.015005e+04 -9.299701e+03
-2.275337e+09 -2.075337e+09 -2.235337e+09 1.155976e+03 1.267587e+02 8.994686e+01
-2.082074e+09 -1.882074e+09 -2.042074e+09 8.683537e+02 7.854083e+01 -9.179859e+01
-1.968621e+09 -1.768622e+09 -1.928622e+09 1.158763e+03 1.301080e+01 -2.037968e+02
-1.774214e+09 -1.574214e+09 -1.734215e+09 1.049326e+03 4.954758e+01 -1.795272e+02
-3.134689e+09 -2.934689e+09 -3.094689e+09 9.257373e+02 8.289832e+01 -3.100410e+01
-2.478650e+09 -2.278651e+09 -2.438651e+09 9.726286e+02 1.041113e+02 -1.963343e+02
-3.246337e+09 -3.046337e+09 -3.206337e+09 1.178365e+03 3.240397e+01 -1.464697e+02
-3.092996e+09 -2.892995e+09 -3.052995e+09 7.911837e+02 1.403270e+01 -1.268682e+02
-3.423226e+09 -3.223225e+09 -3.383226e+09 9.046408e+02 1.286113e+01 -1.539704e+02
-3.377616e+09 -3.177612e+09 -3.337614e+09 -1.590648e+03 6.867919e+02 1.118130e+03
-2.702800e+09 -2.502799e+09 -2.662800e+09 6.783644e+02 3.081819e+00 -2.096723e+02
-3.108915e+09 -2.908914e+09 -3.068914e+09 5.718822e+02 9.310728e+01 -4.155429e+01
-2.885695e+09 -2.685694e+09 -2.845695e+09 1.187496e+03 2.702047e+00 -2.073155e+02
-3.393003e+09 -3.193006e+09 -3.353008e+09 -3.691546e+03 3.561098e+03 1.653275e+03
-2.057545e+09 -1.857547e+09 -2.017547e+09 -4.728179e+03 3.611904e+03 2.258060e+03
-3.206194e+09 -3.006183e+09 -3.166190e+09 -2.177234e+03 -2.500722e+01 4.138079e+03
-2.629258e+09 -2.429253e+09 -2.589256e+09 -3.266574e+03 8.808848e+02 1.512623e+03
-2.593797e+09 -2.393802e+09 -2.553800e+09 -4.687809e+03 4.396253e+03 1.910395e+03
-1.760655e+09 -1.560652e+09 -1.720653e+09 -8.234184e+02 2.609073e+02 -4.628662e+01
-1.756012e+09 -1.556010e+09 -1.716010e+09 -1.543508e+03 6.759432e+02 2.717425e+02
-2.683188e+09 -2.483184e+09 -2.643186e+09 5.823663e+02 -1.810282e+02 -1.839228e+02
-2.535481e+09 -2.335477e+09 -2.495479e+09 -1.042111e+03 3.180951e+02 2.862659e+02
-1.790007e+09 -1.590002e+09 -1.750004e+09 -4.148332e+02 4.492314e+02 2.302290e+02
-2.788190e+09 -2.588193e+09 -2.748192e+09 1.624448e+03 -1.672114e+02 -1.073050e+03
-2.492069e+09 -2.292072e+09 -2.452072e+09 2.535094e+03 -3.030095e+02 -1.834238e+03
-1.760838e+09 -1.560839e+09 -1.720840e+09 2.294250e+03 -4.749345e+02 -1.532062e+03
-2.409149e+09 -2.209152e+09 -2.369151e+09 1.547332e+03 -1.689890e+02 -9.810130e+02
-2.665266e+09 -2.465267e+09 -2.625267e+09 1.989710e+03 -3.343147e+02 -1.047713e+03
-2.527838e+09 -2.327838e+09 -2.487838e+09 3.115956e+03 -1.147310e+03 -1.787604e+03
-1.809898e+09 -1.609903e+09 -1.769902e+09 1.934045e+03 -3.387975e+02 -1.791768e+03
-2.477872e+09 -2.277874e+09 -2.437873e+09 2.206285e+03 -5.775915e+02 -1.597228e+03
-2.643881e+09 -2.443886e+09 -2.603885e+09 7.165689e+02 9.084542e+01 -1.202861e+03
-3.203501e+09 -3.003504e+09 -3.163503e+09 1.046009e+03 -7.634827e+00 -5.589007e+02
-2.724632e+09 -2.524633e+09 -2.684633e+09 1.726355e+03 -1.568951e+02 -5.437206e+02
-2.542755e+09 -2.342754e+09 -2.502755e+09 2.203665e+03 -4.877175e+02 -1.033995e+03
-2.819421e+09 -2.619423e+09 -2.779422e+09 1.422474e+03 -1.725031e+02 -5.989205e+02
-2.965404e+09 -2.765403e+09 -2.925403e+09 2.277178e+03 -5.304698e+02 -1.112429e+03
-3.424360e+09 -3.224361e+09 -3.384361e+09 1.815516e+03 -1.204759e+02 -5.266856e+02
-3.180974e+09 -2.980973e+09 -3.140973e+09 -4.071334e+02 1.488586e+02 -6.997600e+01
-3.581261e+09 -3.381257e+09 -3.541259e+09 -1.161824e+03 2.881646e+02 2.940671e+02
-2.988300e+09 -2.788298e+09 -2.948299e+09 1.703129e+02 1.100399e+02 -3.458350e+01
-2.262151e+09 -2.062150e+09 -2.222150e+09 -4.642788e+02 1.560640e+02 -4.995602e+01
-2.633275e+09 -2.433248e+09 -2.593176e+09 -9.502250e+03 7.147677e+03 -5.197048e+04
-2.655589e+09 -2.455577e+09 -2.615561e+09 -1.237750e+04 -6.809385e+03 -1.119793e+04
-2.502461e+09 -2.302454e+09 -2.462439e+09 -7.885563e+03 2.278277e+03 -1.178719e+04
-2.635576e+09 -2.435558e+09 -2.595561e+09 -1.245146e+04 7.848107e+03 -8.819583e+03
-2.691307e+09 -2.491288e+09 -2.651314e+09 -3.374994e+03 -1.855788e+03 4.546034e+03
-2.690226e+09 -2.490224e+09 -2.650220e+09 -5.208257e+03 1.384493e+03 -2.455005e+03
-3.394933e+09 -3.194929e+09 -3.354909e+09 -2.419853e+03 7.543221e+01 -1.330909e+04
-2.017910e+09 -1.817901e+09 -1.977911e+09 2.376730e+03 -5.690165e+03 7.696681e+03
-2.629054e+09 -2.429050e+09 -2.589052e+09 -4.483461e+03 2.300811e+03 -3.915404e+02
-2.680992e+09 -2.480986e+09 -2.640995e+09 -4.073779e+03 9.362205e+01 3.188805e+03
-2.000881e+09 -1.800877e+09 -1.960880e+09 3.249186e+03 -4.041631e+03 4.321195e+03
-2.631589e+09 -2.431585e+09 -2.591588e+09 -1.805133e+02 -1.183446e+03 2.198671e+03
-2.627539e+09 -2.427531e+09 -2.587541e+09 2.690164e+03 -4.118434e+03 6.611118e+03
-2.099560e+09 -1.899554e+09 -2.059558e+09 -2.584847e+03 5.764903e+02 1.535136e+03
-3.388682e+09 -3.188677e+09 -3.348683e+09 -1.222262e+03 -1.185659e+03 2.201277e+03
-3.408411e+09 -3.208404e+09 -3.368414e+09 -6.270242e+02 -1.727704e+03 3.893154e+03
-1.904518e+09 -1.704512e+09 -1.864517e+09 -1.288766e+03 -5.698821e+02 1.441775e+03
-3.385955e+09 -3.185953e+09 -3.345954e+09 -1.923350e+03 6.170214e+02 3.593397e+02
-1.995473e+09 -1.795475e+09 -1.955474e+09 1.081863e+02 2.711736e+01 1.764498e+01
-2.566998e+09 -2.367000e+09 -2.526999e+09 3.488346e+02 1.805080e+01 -3.477782e+01
-3.348294e+09 -3.148296e+09 -3.308295e+09 3.552425e+02 5.771005e-01 -1.994163e+01
-3.156158e+09 -2.956160e+09 -3.116159e+09 3.628750e+02 3.513242e+01 -1.887917e+01
-3.358534e+09 -3.158533e+09 -3.318533e+09 -2.850536e+02 1.731253e+02 -6.123315e+01
-2.185461e+09 -1.985459e+09 -2.145460e+09 -6.383713e+02 1.716650e+02 -3.525797e+01
-2.001445e+09 -1.801444e+09 -1.961444e+09 -4.612957e+02 8.411688e+01 -8.533046e+01
-2.408329e+09 -2.208328e+09 -2.368328e+09 -9.270517e+02 2.396884e+02 2.631550e+01
-2.361247e+09 -2.161246e+09 -2.321246e+09 -4.033940e+02 2.212698e+02 -1.187935e+01
-3.450417e+09 -3.250416e+09 -3.410416e+09 -1.073148e+03 1.712479e+02 9.228882e-01
-3.355163e+09 -3.155161e+09 -3.315162e+09 -8.749559e+02 3.343180e+02 1.952473e+02
-2.832981e+09 -2.632981e+09 -2.792980e+09 -1.184485e+03 1.788795e+02 -2.564204e+01
-2.546928e+09 -2.346928e+09 -2.506928e+09 3.217735e+02 4.132484e+01 -3.382145e+01
-1.909275e+09 -1.709275e+09 -1.869275e+09 2.913481e+02 4.286036e+01 1.621529e+01
-2.952609e+09 -2.752609e+09 -2.912609e+09 3.493716e+02 2.700765e+01 -3.439886e+01
-1.862816e+09 -1.662816e+09 -1.822816e+09 3.856053e+02 5.455208e+01 -1.161061e+01
-2.853919e+09 -2.653918e+09 -2.813918e+09 3.397986e+02 1.756554e+01 -6.010836e+00
-3.131373e+09 -2.931372e+09 -3.091372e+09 3.652770e+02 3.673638e+01 -2.412606e+01
-3.610175e+09 -3.410173e+09 -3.570177e+09 -2.075884e+03 -8.713267e+02 1.186674e+03
-3.612228e+09 -3.412227e+09 -3.572227e+09 2.261104e+02 1.136033e+01 -4.940297e+01
-3.417868e+09 -3.217867e+09 -3.377867e+09 2.851512e+02 3.437567e+01 -1.641682e+01
-3.196730e+09 -2.996738e+09 -3.156753e+09 -3.610322e+03 1.508942e+04 2.874684e+03
-2.008743e+09 -1.808768e+09 -1.968765e+09 -9.767082e+03 3.018061e+04 5.706683e+03
-3.375033e+09 -3.175039e+09 -3.335044e+09 -4.355393e+03 9.822522e+03 3.197683e+03
-3.424615e+09 -3.224609e+09 -3.384625e+09 -5.555283e+03 7.103566e+03 5.266058e+03
-2.409259e+09 -2.209272e+09 -2.369267e+09 -5.867926e+03 9.955751e+03 3.826016e+03
-1.957841e+09 -1.757846e+09 -1.917848e+09 -9.405838e+03 1.361336e+04 6.038684e+03
-1.899721e+09 -1.699746e+09 -1.859731e+09 -5.770837e+03 1.405973e+04 2.547880e+03
-1.927710e+09 -1.727718e+09 -1.887712e+09 -9.737003e+03 9.251010e+03 5.422871e+03
-2.631186e+09 -2.431185e+09 -2.591185e+09 -8.121561e+02 -1.591114e+02 1.815355e+01
-2.843754e+09 -2.643753e+09 -2.803753e+09 -9.211481e+02 -1.860203e+02 2.583793e+02
-3.057801e+09 -2.857800e+09 -3.017801e+09 -9.533291e+02 -1.303513e+02 5.236262e+01
-2.444596e+09 -2.244595e+09 -2.404596e+09 -1.033722e+03 -2.119417e+02 2.889281e+01
-2.660013e+09 -2.460012e+09 -2.620012e+09 -8.201714e+02 -9.649147e+01 -5.511693e+01
-2.440844e+09 -2.240843e+09 -2.400843e+09 -7.782604e+02 -1.500912e+02 -1.626107e+00
-1.827983e+09 -1.627982e+09 -1.787982e+09 -8.956132e+02 -1.626014e+02 -1.209366e+01
-1.560983e+09 -1.360985e+09 -1.520985e+09 -6.607784e+02 -9.393680e+01 5.688180e+01
-3.590795e+09 -3.390794e+09 -3.550794e+09 3.508936e+02 2.278637e+01 -2.218087e+01
-3.177174e+09 -2.977182e+09 -3.137178e+09 2.083498e+03 1.803788e+03 -2.421458e+02
-3.342984e+09 -3.142990e+09 -3.302987e+09 2.782436e+03 1.887359e+03 -3.811196e+02
-1.848934e+09 -1.648938e+09 -1.808934e+09 3.467945e+03 1.380895e+03 -5.987373e+02
-3.376310e+09 -3.176316e+09 -3.336316e+09 3.874241e+03 3.404107e+03 -1.277120e+03
-2.044401e+09 -1.844405e+09 -2.004405e+09 -1.554751e+03 3.135590e+02 -5.730428e+02
-2.776867e+09 -2.576871e+09 -2.736869e+09 -8.569518e+02 1.990383e+02 -9.812698e+02
-2.432340e+09 -2.232347e+09 -2.392344e+09 -4.451755e+02 2.821277e+02 -2.410120e+03
-2.382800e+09 -2.182804e+09 -2.342803e+09 -1.978393e+03 7.317216e+02 -1.879232e+03
-3.390426e+09 -3.190429e+09 -3.350428e+09 -2.347552e+03 6.054613e+02 -7.817891e+02
-3.197662e+09 -2.997666e+09 -3.157664e+09 -1.054627e+03 3.059165e+02 -1.424620e+03
-2.601613e+09 -2.401614e+09 -2.561614e+09 -1.513051e+03 -1.087110e+02 -5.287895e+01
-1.773482e+09 -1.573483e+09 -1.733483e+09 -1.564184e+03 -1.119552e+02 -2.636226e+01
-3.159133e+09 -2.959134e+09 -3.119135e+09 -1.928849e+03 4.282549e+01 -1.529346e+02
-2.345262e+09 -2.145264e+09 -2.305264e+09 -1.755557e+03 -2.223972e+01 -1.544304e+02
-2.794248e+09 -2.594248e+09 -2.754249e+09 -1.712225e+03 -1.383345e+01 5.634095e+01
-2.619972e+09 -2.419965e+09 -2.579972e+09 -4.000680e+02 -1.446373e+03 -2.172375e+03
-2.907466e+09 -2.707459e+09 -2.867466e+09 2.050228e+03 -6.553992e+02 -2.711271e+03
-3.228263e+09 -3.028256e+09 -3.188272e+09 -1.892157e+03 -4.387282e+03 -2.536598e+03
-1.851781e+09 -1.651783e+09 -1.811783e+09 -3.187146e+02 -1.585502e+01 3.918797e+01
-2.791779e+09 -2.591772e+09 -2.751780e+09 1.431043e+03 -9.943702e+02 -2.172819e+03
-3.282315e+09 -3.082306e+09 -3.242316e+09 1.739874e+03 -1.224477e+03 -2.855458e+03
-3.431046e+09 -3.231038e+09 -3.391048e+09 1.963582e+03 -1.544389e+03 -2.679911e+03
-2.799753e+09 -2.599741e+09 -2.759755e+09 4.849849e+03 1.435482e+03 -3.452759e+03
-3.409268e+09 -3.209249e+09 -3.369273e+09 1.588014e+03 2.250215e+02 -3.132825e+03
-3.086690e+09 -2.886679e+09 -3.046691e+09 1.026169e+04 1.319675e+04 6.202610e+03
-2.992440e+09 -2.792434e+09 -2.952447e+09 7.017727e+03 2.302452e+03 -4.761223e+02
-2.265689e+09 -2.065683e+09 -2.225689e+09 7.550209e+02 -1.551444e+03 -3.455405e+03
-1.808165e+09 -1.608134e+09 -1.768165e+09 -5.785369e+03 1.680766e+03 -8.270397e+03
-2.039315e+09 -1.839297e+09 -1.999321e+09 2.899792e+03 -4.358146e+03 -7.664653e+03
-1.978210e+09 -1.778213e+09 -1.938213e+09 -9.678242e+02 3.982347e+01 -7.383334e+01
-1.802870e+09 -1.602873e+09 -1.762873e+09 -4.816118e+02 4.232057e+01 -2.609709e+02
-1.914852e+09 -1.714851e+09 -1.874851e+09 1.147984e+03 -8.908782e+02 -2.264596e+03
-3.152678e+09 -2.952674e+09 -3.112678e+09 3.844937e+03 3.071598e+03 -2.280143e+03
-2.675384e+09 -2.475379e+09 -2.635385e+09 6.095787e+03 5.684238e+03 -4.147368e+03
-3.403296e+09 -3.203289e+09 -3.363301e+09 5.521325e+03 5.574738e+03 -5.153870e+03
-2.804652e+09 -2.604649e+09 -2.764655e+09 5.414268e+03 6.307520e+03 -4.565358e+03
-2.810163e+09 -2.610161e+09 -2.770166e+09 5.300988e+03 5.942428e+03 -4.296364e+03
-3.408806e+09 -3.208804e+09 -3.368808e+09 3.373464e+03 3.334138e+03 -1.949015e+03
-1.797531e+09 -1.597522e+09 -1.757528e+09 1.092505e+04 8.326355e+03 -7.054360e+03
-1.987401e+09 -1.787403e+09 -1.947403e+09 7.125826e+03 7.795988e+03 -4.455920e+03
-1.794756e+09 -1.594754e+09 -1.754754e+09 9.396218e+03 6.833929e+03 -4.269401e+03
-2.380489e+09 -2.180492e+09 -2.340492e+09 -5.124217e+02 -5.254498e+01 -1.553627e+02
-2.054527e+09 -1.854531e+09 -2.014530e+09 -1.277186e+03 9.371468e+01 -3.116437e+02
-3.418289e+09 -3.218291e+09 -3.378291e+09 -1.335718e+03 -1.135040e+01 -1.124525e+02
-3.433569e+09 -3.233571e+09 -3.393571e+09 -1.122935e+03 5.684792e+01 -2.923115e+02
-2.372449e+09 -2.172453e+09 -2.332452e+09 -5.275813e+02 -1.240581e+00 -3.745623e+02
-2.827895e+09 -2.627899e+09 -2.787898e+09 -8.148156e+02 3.373178e+01 -4.462256e+02
-2.460366e+09 -2.260372e+09 -2.420370e+09 1.065318e+03 -2.125976e+02 -1.987543e+03
-2.850782e+09 -2.650786e+09 -2.810784e+09 1.154710e+03 -2.827375e+02 -2.205712e+03
-3.224034e+09 -3.024040e+09 -3.184036e+09 8.285836e+01 3.061314e+02 -2.703546e+03
-2.826033e+09 -2.626037e+09 -2.786035e+09 1.642875e+03 -3.672042e+02 -2.483489e+03
-3.230827e+09 -3.030832e+09 -3.190828e+09 1.321069e+02 1.012030e+02 -1.521050e+03
-2.452428e+09 -2.252433e+09 -2.412431e+09 8.364765e+02 -2.679690e+01 -1.823075e+03
-2.643831e+09 -2.443836e+09 -2.603834e+09 1.605352e+03 -3.921136e+02 -2.296749e+03
-3.402605e+09 -3.202608e+09 -3.362606e+09 1.440244e+03 -3.983725e+02 -1.329230e+03
-3.198991e+09 -2.998993e+09 -3.158992e+09 1.427249e+03 -6.779476e+01 -6.126351e+02
-2.451729e+09 -2.251736e+09 -2.411732e+09 -3.994165e+02 3.270336e+02 -3.862547e+03
-2.488006e+09 -2.288012e+09 -2.448009e+09 3.674481e+02 9.943082e+01 -3.395294e+03
-3.601966e+09 -3.401952e+09 -3.561977e+09 7.937079e+02 -4.628228e+03 -2.304963e+03
-1.599705e+09 -1.399704e+09 -1.559704e+09 1.156854e+02 2.714057e+01 -4.209012e+01
-1.861152e+09 -1.661154e+09 -1.821154e+09 2.418924e+03 -5.692099e+02 -1.562736e+03
-2.559153e+09 -2.359154e+09 -2.519154e+09 1.551541e+03 -1.001700e+02 -6.451016e+02
-3.223219e+09 -3.023220e+09 -3.183220e+09 -9.285113e+02 -5.813033e+01 1.057779e+01
-1.580655e+09 -1.380645e+09 -1.540649e+09 -5.312605e+03 1.471242e+03 3.083627e+03
-2.459969e+09 -2.259973e+09 -2.419972e+09 9.831013e+02 -3.701661e+01 -1.036175e+03
-2.011961e+09 -1.811963e+09 -1.971963e+09 1.557796e+03 -6.488647e+01 -1.071852e+03
-2.245747e+09 -2.045747e+09 -2.205746e+09 -2.894816e+02 7.647154e+00 -8.632722e+01
-2.634599e+09 -2.434602e+09 -2.594601e+09 8.757858e+02 3.738310e+01 -4.566647e+02
-2.474722e+09 -2.274725e+09 -2.434725e+09 7.554969e+02 -2.642760e+01 -3.313788e+02
-2.857739e+09 -2.657742e+09 -2.817741e+09 9.030229e+02 -5.508455e+01 -4.610193e+02
-3.586061e+09 -3.386060e+09 -3.546060e+09 9.455304e+02 -4.686705e+01 -1.573474e+02
-2.651261e+09 -2.451264e+09 -2.611263e+09 9.518065e+02 -8.107853e+01 -7.264668e+02
-3.492814e+09 -3.292812e+09 -3.452812e+09 -3.692611e+02 -1.404662e+02 2.819844e+01
-3.586061e+09 -3.386060e+09 -3.546060e+09 8.035238e+02 -1.234706e+01 -1.110070e+02
-3.360903e+09 -3.160907e+09 -3.320905e+09 3.909116e+02 9.042063e-02 -4.979652e+02
-2.019695e+09 -1.819699e+09 -1.979698e+09 1.968026e+03 -2.883541e+02 -2.188516e+03
-3.610490e+09 -3.410485e+09 -3.570489e+09 -1.096532e+03 1.003802e+03 8.841539e+02
-3.232994e+09 -3.032986e+09 -3.192995e+09 -2.068116e+03 5.311911e+02 3.051022e+03
-1.793172e+09 -1.593174e+09 -1.753173e+09 -9.860174e+02 -4.046885e+01 4.352369e+01
-2.517863e+09 -2.317865e+09 -2.477865e+09 -7.784632e+02 -3.073421e+01 -6.202732e+01
-2.440375e+09 -2.240370e+09 -2.400372e+09 -4.412106e+03 2.420469e+03 -1.081749e+03
-1.574983e+09 -1.374982e+09 -1.534982e+09 -2.494489e+02 1.020264e+02 -1.254629e+02
-2.843054e+09 -2.643048e+09 -2.803055e+09 -3.458089e+03 9.818642e+02 2.441615e+03
-3.229507e+09 -3.029501e+09 -3.189505e+09 -3.430818e+03 1.802906e+03 1.043055e+03
-1.773065e+09 -1.573067e+09 -1.733067e+09 -8.306907e+02 -5.070262e+01 -8.232385e+01
-2.017344e+09 -1.817338e+09 -1.977344e+09 -3.959711e+03 2.062287e+03 3.515110e+02
-3.585826e+09 -3.385825e+09 -3.545825e+09 1.719112e+02 2.039481e+01 -2.551200e+01
-1.547217e+09 -1.347216e+09 -1.507216e+09 4.224088e+01 1.080593e+02 -1.077676e+02
-1.804868e+09 -1.604855e+09 -1.764865e+09 1.066165e+00 8.414349e+02 3.030756e+03
-2.753128e+09 -2.553132e+09 -2.713126e+09 -4.084091e+03 4.942644e+03 -7.129341e+03
-3.408179e+09 -3.208180e+09 -3.368177e+09 -3.051660e+03 1.062422e+03 -1.849154e+03
-3.421242e+09 -3.221242e+09 -3.381237e+09 -2.702264e+03 2.070738e+03 -2.278998e+03
-2.631950e+09 -2.431953e+09 -2.591952e+09 -2.141324e+02 5.126053e+00 -8.636544e+01
-3.596684e+09 -3.396683e+09 -3.556683e+09 2.206829e+02 -1.014183e+01 -1.629563e+01
-2.429714e+09 -2.229708e+09 -2.389711e+09 -3.899743e+03 2.431313e+03 -1.033888e+03
-3.417792e+09 -3.217789e+09 -3.377793e+09 -4.007612e+03 3.524005e+02 1.176219e+03
-2.401389e+09 -2.201382e+09 -2.361390e+09 -3.809702e+03 2.009817e+03 1.656424e+03
-2.592954e+09 -2.392951e+09 -2.552954e+09 4.094130e+03 2.470616e+03 -2.229096e+03
-2.823060e+09 -2.623057e+09 -2.783059e+09 3.837301e+03 1.955704e+03 -1.596447e+03
-3.587997e+09 -3.387999e+09 -3.547999e+09 -9.828082e+02 -2.155391e+01 -1.892481e+01
-3.123718e+09 -2.923716e+09 -3.083718e+09 3.926955e+03 2.435591e+03 -1.500761e+03
-3.395064e+09 -3.195062e+09 -3.355069e+09 5.527889e+03 4.632191e+03 -3.439859e+03
-2.789022e+09 -2.589024e+09 -2.749025e+09 5.298770e+03 4.963231e+03 -2.755609e+03
-2.793372e+09 -2.593373e+09 -2.753375e+09 4.885188e+03 4.427394e+03 -2.451725e+03
-2.574068e+09 -2.374070e+09 -2.534072e+09 7.193971e+03 6.760894e+03 -3.530445e+03
-2.924545e+09 -2.724545e+09 -2.884544e+09 3.534553e+03 1.672138e+03 -1.045440e+03
-1.974825e+09 -1.774829e+09 -1.934825e+09 7.117984e+03 5.247593e+03 -2.972954e+03
-2.553272e+09 -2.353273e+09 -2.513273e+09 -1.654508e+03 -6.239099e+01 2.531485e+01
-2.543613e+09 -2.343612e+09 -2.503615e+09 -3.180965e+03 -5.593693e+03 -2.621498e+03
-1.692152e+09 -1.492152e+09 -1.652151e+09 -2.803936e+03 -1.982460e+03 -8.703461e+02
-1.871045e+09 -1.671047e+09 -1.831045e+09 -4.056456e+03 -3.626038e+03 -1.766050e+03
-2.427059e+09 -2.227062e+09 -2.387061e+09 -1.771132e+02 -2.515982e+01 -3.636094e+02
-2.649337e+09 -2.449331e+09 -2.609340e+09 -4.753802e+03 -5.946711e+03 -4.624276e+03
-2.403226e+09 -2.203223e+09 -2.363227e+09 -4.595447e+03 -4.630216e+03 -3.345384e+03
-3.193792e+09 -2.993789e+09 -3.153793e+09 -2.379657e+03 -1.988035e+03 -1.249166e+03
-1.992479e+09 -1.792480e+09 -1.952479e+09 -4.108290e+03 -3.282822e+03 -1.800738e+03
-1.560983e+09 -1.360985e+09 -1.520985e+09 -6.750374e+02 -4.043648e+01 5.177683e+01
-1.797220e+09 -1.597217e+09 -1.757219e+09 -5.647844e+03 -5.655068e+03 -3.817858e+03
-2.167947e+09 -1.967943e+09 -2.127946e+09 -3.725196e+03 -2.935964e+03 -2.718977e+03
-3.406693e+09 -3.206694e+09 -3.366698e+09 -1.820331e+03 -3.979840e+03 -1.018712e+03
-3.109773e+09 -2.909773e+09 -3.069776e+09 -3.189922e+03 -3.497820e+03 -1.472032e+03
-1.762183e+09 -1.562184e+09 -1.722183e+09 -5.784197e+03 -5.665585e+03 -3.068457e+03
-1.997406e+09 -1.797400e+09 -1.957405e+09 8.671025e+03 9.250331e+03 -8.718042e+03
-1.592347e+09 -1.392348e+09 -1.552348e+09 -6.003853e+02 -7.440980e+01 2.183299e+01
-3.593638e+09 -3.393641e+09 -3.553640e+09 -1.035168e+03 -3.238345e+01 -8.034806e+01
-2.601959e+09 -2.401945e+09 -2.561957e+09 1.307784e+03 2.112490e+03 -6.657509e+03
-3.189195e+09 -2.989180e+09 -3.149193e+09 1.055204e+03 1.765333e+03 -6.162121e+03
-2.057799e+09 -1.857786e+09 -2.017796e+09 1.848883e+03 7.771174e+02 -4.554270e+03
-2.604241e+09 -2.404232e+09 -2.564238e+09 -8.280183e+01 -5.992830e+01 -1.882215e+03
-2.086741e+09 -1.886739e+09 -2.046740e+09 5.460547e+03 3.897595e+03 -2.957644e+03
-3.598505e+09 -3.398497e+09 -3.558508e+09 8.858681e+02 3.181104e+03 -3.119702e+03
-3.133998e+09 -2.933993e+09 -3.093998e+09 2.754364e+03 2.728597e+03 -2.779375e+03
-2.834420e+09 -2.634411e+09 -2.794417e+09 1.862555e+03 8.480811e+02 -3.285531e+03
-2.397425e+09 -2.197420e+09 -2.357428e+09 9.371838e+03 7.381921e+03 -6.997185e+03
-3.587691e+09 -3.387687e+09 -3.547694e+09 -2.168149e+03 -3.404124e+03 -2.047444e+03
-1.793243e+09 -1.593245e+09 -1.753241e+09 8.603543e+03 6.629863e+03 -6.232436e+03
-1.795220e+09 -1.595202e+09 -1.755215e+09 8.427545e+03 6.456784e+03 -8.181343e+03
-2.846131e+09 -2.646123e+09 -2.806146e+09 -2.814136e+03 -9.924092e+03 -6.603684e+03
-2.596008e+09 -2.396003e+09 -2.556010e+09 2.846467e+03 -4.094660e+03 4.455250e+03
-1.995477e+09 -1.795487e+09 -1.955479e+09 -2.182548e+03 2.520305e+03 3.119984e+02
-3.189491e+09 -2.989499e+09 -3.149495e+09 -1.818902e+03 1.996223e+03 3.175124e+02
-2.605510e+09 -2.405520e+09 -2.565514e+09 -2.175142e+03 3.193696e+03 6.499949e+02
-3.570969e+09 -3.370966e+09 -3.530968e+09 -6.633312e+02 1.132413e+02 1.295989e+02
-1.993417e+09 -1.793423e+09 -1.953417e+09 1.003923e+03 2.901940e+02 3.903971e+00
-2.085815e+09 -1.885814e+09 -2.045814e+09 -1.371821e+01 -1.957101e+01 -7.041162e+01
-1.988167e+09 -1.788177e+09 -1.948169e+09 -7.107213e+02 1.773557e+03 2.753300e+02
-3.175212e+09 -2.975221e+09 -3.135216e+09 -8.403082e+02 2.004045e+03 7.277180e+01
-3.601277e+09 -3.401273e+09 -3.561275e+09 1.934123e+03 -5.503352e+01 -5.629079e+02
-2.587524e+09 -2.387533e+09 -2.547527e+09 -7.255089e+02 2.139533e+03 1.538007e+02
-3.400831e+09 -3.200838e+09 -3.360835e+09 -1.825355e+03 1.913478e+03 2.305826e+02
-2.050151e+09 -1.850163e+09 -2.010154e+09 -6.643565e+02 3.396453e+03 1.112225e+02
-1.567311e+09 -1.367313e+09 -1.527311e+09 -6.658795e+03 -4.631029e+03 -2.631170e+03
-3.626086e+09 -3.426090e+09 -3.586087e+09 2.492287e+03 9.968879e+02 -3.383265e+02
-2.400472e+09 -2.200481e+09 -2.360475e+09 -2.183818e+03 3.216261e+03 4.569473e+02
-3.219281e+09 -3.019290e+09 -3.179286e+09 -2.014916e+03 3.060329e+03 4.195406e+02
-3.410413e+09 -3.210423e+09 -3.370426e+09 -1.940805e+02 7.655657e+03 1.880804e+02
-1.967988e+09 -1.767994e+09 -1.927989e+09 -2.705842e+03 1.131035e+03 4.164248e+02
-3.370426e+09 -3.170435e+09 -3.330437e+09 -4.844412e+02 5.744062e+03 5.575693e+02
-3.052062e+09 -2.852073e+09 -3.012068e+09 -3.609860e+02 3.715173e+03 7.453278e+01
-3.392255e+09 -3.192265e+09 -3.352262e+09 3.829139e+02 3.129752e+03 -2.543729e+02
-2.360319e+09 -2.160332e+09 -2.320325e+09 3.290526e+03 5.552190e+03 -1.368672e+03
-3.591977e+09 -3.391984e+09 -3.551981e+09 1.677930e+03 1.328218e+03 -2.507868e+02
-3.387731e+09 -3.187739e+09 -3.347738e+09 1.836442e+03 3.854566e+03 3.563770e+00
-3.369405e+09 -3.169413e+09 -3.329414e+09 3.266776e+03 5.094337e+03 -1.335157e+03
-2.411461e+09 -2.211469e+09 -2.371462e+09 1.562099e+03 1.086574e+03 -1.740777e+02
-3.605772e+09 -3.405763e+09 -3.565759e+09 2.274839e+03 -4.197690e+03 1.418997e+02
-2.632272e+09 -2.432277e+09 -2.592273e+09 2.029197e+03 6.948434e+02 -1.595895e+02
-1.769686e+09 -1.569692e+09 -1.729686e+09 1.647707e+03 4.675828e+02 -6.025262e+01
-2.014797e+09 -1.814806e+09 -1.974799e+09 1.788880e+03 1.247799e+03 -2.635233e+02
-1.987780e+09 -1.787785e+09 -1.947780e+09 1.995526e+03 7.429505e+02 -3.163302e+02
-3.083844e+09 -2.883848e+09 -3.043844e+09 1.603782e+03 3.681907e+02 -1.105975e+02
-2.206519e+09 -2.006522e+09 -2.166518e+09 2.142962e+03 4.646755e+02 -1.573779e+02
-2.835488e+09 -2.635484e+09 -2.795487e+09 -1.182722e+02 -1.430312e+03 2.410714e+03
-2.372876e+09 -2.172881e+09 -2.332876e+09 1.983956e+03 6.837137e+02 -2.164321e+02
-1.595216e+09 -1.395220e+09 -1.555215e+09 1.814153e+03 4.690112e+02 7.131558e+01
-3.247789e+09 -3.047793e+09 -3.207789e+09 2.177726e+03 5.257245e+02 -1.677269e+02
-3.299467e+09 -3.099470e+09 -3.259468e+09 2.771999e+03 1.221774e+03 -2.228190e+02
-3.260161e+09 -3.060163e+09 -3.220162e+09 4.031689e+02 1.620189e+01 -1.368654e+02
-1.916097e+09 -1.716098e+09 -1.876098e+09 -4.437578e+02 -2.592677e+01 1.604114e+01
-2.174811e+09 -1.974814e+09 -2.134810e+09 2.566881e+03 1.024597e+03 -2.797626e+02
-2.076390e+09 -1.876396e+09 -2.036390e+09 2.689386e+03 1.405998e+03 -4.585738e+02
-3.597994e+09 -3.397992e+09 -3.557997e+09 3.348697e+03 3.046486e+03 -1.591665e+03
-3.075724e+09 -2.875730e+09 -3.035726e+09 2.714769e+03 1.838236e+03 -5.790656e+02
-3.335176e+09 -3.135180e+09 -3.295177e+09 2.501355e+03 1.088868e+03 -3.435279e+02
-1.597724e+09 -1.397728e+09 -1.557727e+09 -2.598039e+02 2.002491e+01 -8.294726e+01
-3.430508e+09 -3.230513e+09 -3.390509e+09 2.337748e+03 8.995134e+02 -1.187443e+02
-3.410524e+09 -3.210529e+09 -3.370524e+09 1.754422e+03 4.236254e+02 1.049552e+02
-2.560468e+09 -2.360469e+09 -2.520469e+09 -5.631960e+02 -6.566954e+01 1.801473e+01
-3.217523e+09 -3.017528e+09 -3.177523e+09 1.848056e+03 4.883976e+02 -2.994421e+01
-2.587541e+09 -2.387530e+09 -2.547527e+09 1.224567e+04 -1.800093e+04 -1.917232e+04
-3.392266e+09 -3.192267e+09 -3.352267e+09 1.072069e+03 3.034943e+01 -1.400999e+02
-1.785674e+09 -1.585642e+09 -1.745677e+09 -2.232017e+04 -3.868911e+04 2.678579e+04
-2.762990e+09 -2.562992e+09 -2.722992e+09 1.243684e+03 -3.962248e+01 -2.902579e+02
-1.568376e+09 -1.368379e+09 -1.528379e+09 -1.406939e+03 -1.182766e+02 -2.157187e+02
-3.622357e+09 -3.422361e+09 -3.582346e+09 1.528440e+03 -1.622608e+03 -7.832847e+03
-3.379990e+09 -3.179991e+09 -3.339991e+09 1.280047e+03 -2.846363e+01 -1.503503e+02
-3.068703e+09 -2.868697e+09 -3.028721e+09 1.847772e+02 -8.526953e+03 2.058004e+03
-1.580542e+09 -1.380574e+09 -1.540550e+09 3.660773e+03 -1.374353e+04 2.413279e+03
-1.777224e+09 -1.577223e+09 -1.737225e+09 -2.759695e+03 3.803148e+02 5.053639e+01
-2.138015e+09 -1.938006e+09 -2.098021e+09 1.091915e+04 1.294590e+04 5.264413e+03
-2.420549e+09 -2.220552e+09 -2.380552e+09 7.685136e+03 6.393847e+03 5.287137e+03
-3.253169e+09 -3.053167e+09 -3.213169e+09 4.839858e+03 9.763136e+02 1.769773e+03
-2.679971e+09 -2.479958e+09 -2.639977e+09 1.088597e+04 1.011024e+04 4.438303e+03
-3.609524e+09 -3.409527e+09 -3.569520e+09 -2.520401e+03 1.832563e+03 -4.450140e+03
-1.799297e+09 -1.599297e+09 -1.759297e+09 -1.265970e+03 -1.360794e+02 1.046642e+02
-2.156015e+09 -1.955985e+09 -2.116012e+09 1.518884e+04 2.241736e+04 8.417597e+03
-3.604946e+09 -3.404945e+09 -3.564945e+09 -7.480880e+02 -5.206590e+01 1.190861e+01
-3.171501e+09 -2.971503e+09 -3.131502e+09 -7.025235e+02 -1.665961e+01 -5.546665e+01
-2.466430e+09 -2.266420e+09 -2.426433e+09 1.566832e+04 8.905268e+03 5.782070e+03
-3.551636e+09 -3.351634e+09 -3.511635e+09 4.878373e+03 1.572841e+03 1.343940e+03
-3.174601e+09 -2.974589e+09 -3.134599e+09 4.568751e+03 1.703156e+03 -1.093294e+03
-2.484182e+09 -2.284187e+09 -2.444180e+09 -1.198893e+03 1.430542e+03 -7.078108e+03
-2.159210e+09 -1.959208e+09 -2.119203e+09 5.781057e+03 -4.750840e+03 -8.207903e+03
-2.481417e+09 -2.281424e+09 -2.441420e+09 5.454777e+02 -2.870741e+01 -4.704702e+03
-1.588246e+09 -1.388243e+09 -1.548242e+09 3.863712e+03 -2.958519e+03 2.828110e+03
-1.603335e+09 -1.403362e+09 -1.563344e+09 -4.289917e+03 1.280940e+04 1.092740e+03
-2.402799e+09 -2.202785e+09 -2.362784e+09 3.505834e+03 -6.953320e+03 -1.718583e+03
-3.266219e+09 -3.066217e+09 -3.226211e+09 3.372133e+03 -2.591225e+03 -3.164518e+03
-1.919939e+09 -1.719947e+09 -1.879943e+09 4.966908e+03 -2.563957e+03 -7.878535e+03
-2.760295e+09 -2.560297e+09 -2.720296e+09 -4.340603e+02 -2.019185e+01 1.387827e+00
-2.378983e+09 -2.178984e+09 -2.338984e+09 -1.099322e+03 -5.940686e+01 -2.543076e+01
-2.714213e+09 -2.514216e+09 -2.674215e+09 -4.863760e+02 -2.417647e+01 -3.076064e+00
-1.607327e+09 -1.407326e+09 -1.567326e+09 7.142726e+02 1.628720e+02 -8.801199e+01
-2.133134e+09 -1.933136e+09 -2.093135e+09 -2.472221e+02 2.814412e+00 -6.913842e+00
-2.710782e+09 -2.510784e+09 -2.670783e+09 -2.682099e+02 -1.796242e+01 2.191543e+01
-2.578575e+09 -2.378578e+09 -2.538577e+09 -1.190286e+02 -1.003035e+01 2.031262e+01
-1.992480e+09 -1.792481e+09 -1.952480e+09 -2.675827e+03 -1.878188e+03 -8.861108e+02
-3.417133e+09 -3.217135e+09 -3.377134e+09 -2.997613e+02 -2.471534e+01 6.924936e+01
-1.598752e+09 -1.398816e+09 -1.558810e+09 -1.856092e+04 6.217855e+04 2.898384e+03
-2.176313e+09 -1.976312e+09 -2.136312e+09 1.101379e+02 1.622119e+01 -7.941385e+00
-3.304236e+09 -3.104238e+09 -3.264237e+09 -2.277850e+02 -4.049468e+00 -3.803414e+00
-2.877972e+09 -2.677975e+09 -2.837974e+09 3.626039e+01 1.533578e+01 -6.431993e+01
-3.393869e+09 -3.193871e+09 -3.353870e+09 -7.688037e+01 1.096144e+01 5.500147e+01
-2.553838e+09 -2.353840e+09 -2.513840e+09 -3.055573e+02 -2.112979e+01 3.434049e+01
-1.789156e+09 -1.589158e+09 -1.749158e+09 -2.906271e+02 -1.497659e+01 -1.269000e+01
-1.764000e+09 -1.564002e+09 -1.724001e+09 -2.948554e+01 -1.099212e-02 -1.015177e+00
-2.426932e+09 -2.226934e+09 -2.386933e+09 -2.762337e+01 4.461974e+00 4.841857e+01
-3.452359e+09 -3.252362e+09 -3.412361e+09 4.060352e+02 3.846470e+01 -9.696163e-01
-2.722525e+09 -2.522528e+09 -2.682528e+09 -8.284853e+01 -1.247292e+00 1.202897e+02
-3.623697e+09 -3.423700e+09 -3.583699e+09 -1.207612e+01 -8.430440e+00 4.952479e+01
-2.600864e+09 -2.400867e+09 -2.560866e+09 1.076424e+02 3.876025e+01 3.493206e+01
-3.156095e+09 -2.956097e+09 -3.116097e+09 3.872599e+02 1.679932e+01 -5.422891e+01
-3.112469e+09 -2.912468e+09 -3.072468e+09 1.213287e+02 1.911297e+01 -3.576582e+01
-3.426816e+09 -3.226819e+09 -3.386818e+09 -4.567585e+00 3.024729e+00 -1.030420e+02
-3.384123e+09 -3.184125e+09 -3.344125e+09 1.130069e+02 6.962556e+00 -5.249708e+01
-2.702972e+09 -2.502971e+09 -2.662971e+09 1.583799e+02 2.648613e+01 -1.248299e+01
-2.055833e+09 -1.855835e+09 -2.015835e+09 2.189722e+02 3.231245e+01 3.725341e+01
-2.131552e+09 -1.931554e+09 -2.091553e+09 2.209457e+02 2.288201e+01 3.458723e+01
-1.771041e+09 -1.571043e+09 -1.731043e+09 2.421413e+02 2.137981e+01 -9.594372e+00
-2.484776e+09 -2.284775e+09 -2.444775e+09 2.555225e+02 3.948565e+01 -2.127941e+01
-3.196987e+09 -2.996990e+09 -3.156989e+09 -6.774374e+01 9.710646e+00 7.823998e+00
-1.954625e+09 -1.754627e+09 -1.914626e+09 2.338266e+02 2.715813e+01 3.232499e+01
-1.779657e+09 -1.579660e+09 -1.739659e+09 1.775190e+02 2.972562e+01 6.453445e+01
-3.490784e+09 -3.290783e+09 -3.450784e+09 1.156862e+02 6.547285e+00 -7.005671e+00
-3.360561e+09 -3.160568e+09 -3.320580e+09 2.532987e+03 1.090174e+04 -1.887271e+03
-3.004944e+09 -2.804943e+09 -2.964943e+09 1.055844e+02 1.986519e+01 -2.403588e+01
-3.375899e+09 -3.175905e+09 -3.335912e+09 4.840996e+03 7.886929e+03 -2.595812e+03
-2.348523e+09 -2.148545e+09 -2.308537e+09 1.114430e+03 1.529832e+04 -8.644561e+02
-1.966142e+09 -1.766141e+09 -1.926142e+09 -6.298226e+02 -4.542836e+01 -9.656009e-01
-2.780230e+09 -2.580238e+09 -2.740245e+09 4.501053e+03 1.362199e+04 -3.699684e+03
-1.631199e+09 -1.431200e+09 -1.591200e+09 -5.781186e+02 -7.261472e+01 6.678040e+00
-3.420844e+09 -3.220846e+09 -3.380845e+09 1.390369e+03 1.057593e+01 -3.104508e+02
-2.457606e+09 -2.257609e+09 -2.417608e+09 1.483460e+03 -9.647254e+01 -4.596858e+02
-2.455456e+09 -2.255460e+09 -2.415459e+09 1.683534e+02 4.348498e+01 -5.442171e+02
-2.824762e+09 -2.624764e+09 -2.784763e+09 1.472170e+03 -5.961992e+01 -5.938749e+02
-1.590642e+09 -1.390642e+09 -1.550642e+09 -1.164598e+03 -2.559190e+02 1.914427e+02
-2.852142e+09 -2.652145e+09 -2.812144e+09 8.813642e+02 1.920252e+01 -4.338428e+02
-3.428776e+09 -3.228779e+09 -3.388778e+09 9.096918e+02 2.899635e+01 -1.599529e+02
-1.805203e+09 -1.605205e+09 -1.765205e+09 1.138139e+03 -1.971568e+01 -4.552884e+02
-2.693587e+09 -2.493589e+09 -2.653589e+09 6.714941e+02 4.078546e+01 -9.468313e+01
-3.162579e+09 -2.962584e+09 -3.122582e+09 -4.835930e+02 5.125786e+01 -8.940766e+02
-3.394518e+09 -3.194517e+09 -3.354518e+09 -5.460880e+02 -3.706801e+01 -6.738913e+00
-2.626217e+09 -2.426219e+09 -2.586219e+09 1.445681e+03 -9.799735e+01 -5.917763e+02
-2.685242e+09 -2.485243e+09 -2.645243e+09 1.595859e+03 -9.360227e+01 -4.656525e+02
-3.402460e+09 -3.202462e+09 -3.362461e+09 1.341416e+03 -1.818180e+02 -7.637382e+02
-2.046121e+09 -1.846123e+09 -2.006123e+09 1.489082e+03 -1.259583e+02 -6.219556e+02
-3.025015e+09 -2.825014e+09 -2.985014e+09 -3.232284e+02 -3.456790e+01 -1.869201e+01
-2.602352e+09 -2.402355e+09 -2.562354e+09 1.488038e+03 -2.191572e+02 -9.936412e+02
-3.229818e+09 -3.029821e+09 -3.189820e+09 9.195166e+02 2.877730e+01 -2.427080e+02
-2.632792e+09 -2.432802e+09 -2.592798e+09 6.749896e+02 3.883373e+03 -4.236466e+02
-2.570018e+09 -2.370029e+09 -2.530023e+09 1.924395e+03 3.951830e+03 -6.023994e+02
-2.732312e+09 -2.532311e+09 -2.692312e+09 -4.644850e+02 -4.817974e+01 -2.350518e+00
-3.040393e+09 -2.840405e+09 -3.000402e+09 5.252568e+02 5.936222e+03 4.979686e+02
-3.468784e+09 -3.268792e+09 -3.428784e+09 -3.840550e+03 -2.110642e+03 5.604684e+03
-1.606509e+09 -1.406513e+09 -1.566509e+09 2.425185e+03 7.799957e+02 -9.231343e+01
-3.595483e+09 -3.395491e+09 -3.555489e+09 1.706108e+03 3.124038e+03 -4.837536e+02
-2.773210e+09 -2.573218e+09 -2.733213e+09 2.359633e+03 2.578298e+03 -8.355266e+02
-2.784621e+09 -2.584630e+09 -2.744625e+09 -1.717290e+02 2.516266e+03 1.269956e+02
-3.192748e+09 -2.992757e+09 -3.152752e+09 1.167258e+03 1.863451e+03 -3.368093e+02
-3.193190e+09 -2.993200e+09 -3.153195e+09 1.291729e+03 2.320493e+03 1.864363e+01
-1.786214e+09 -1.586223e+09 -1.746216e+09 -9.481571e+02 1.648670e+03 4.931835e+01
-1.992749e+09 -1.792759e+09 -1.952751e+09 1.740259e+03 2.374740e+03 -3.197794e+02
-1.985237e+09 -1.785247e+09 -1.945241e+09 8.955482e+02 3.691731e+03 -2.018960e+02
-2.576707e+09 -2.376716e+09 -2.536710e+09 6.836173e+02 2.347849e+03 -8.351700e+01
-3.492812e+09 -3.292818e+09 -3.452813e+09 -4.168098e+02 3.184640e+02 -1.398782e+01
-1.784076e+09 -1.584086e+09 -1.744078e+09 3.370215e+02 1.926286e+03 6.926263e+01
-3.399545e+09 -3.199552e+09 -3.359547e+09 1.441422e+03 6.838824e+02 2.618028e+01
-1.600086e+09 -1.400082e+09 -1.560084e+09 1.290141e+02 1.208933e+02 -2.407910e+02
-3.562211e+09 -3.362216e+09 -3.522213e+09 2.546330e+03 1.758909e+03 -4.837425e+02
-1.849818e+09 -1.649829e+09 -1.809821e+09 -3.421476e+02 3.284684e+03 -7.903491e+01
-1.783284e+09 -1.583295e+09 -1.743286e+09 2.037378e+03 2.712332e+03 -3.882145e+02
-3.492406e+09 -3.292411e+09 -3.452406e+09 1.227411e+03 2.068205e+02 -3.935330e+01
-2.083132e+09 -1.883131e+09 -2.043131e+09 -4.740610e+02 -3.338112e+01 -2.418665e+00
-3.490716e+09 -3.290719e+09 -3.450715e+09 1.251824e+03 1.242813e+02 -2.520261e+01
-1.987261e+09 -1.787260e+09 -1.947261e+09 -4.812189e+02 -3.765523e+01 -1.404843e+01
-2.587376e+09 -2.387375e+09 -2.547375e+09 -4.663508e+02 -5.306963e+01 -5.802751e+01
-3.029722e+09 -2.829721e+09 -2.989722e+09 -5.219792e+02 -7.962805e+01 -1.815103e+01
-3.171776e+09 -2.971776e+09 -3.131776e+09 -5.767834e+02 -6.652904e+01 5.645749e+00
-2.798221e+09 -2.598225e+09 -2.758221e+09 1.323132e+03 2.588117e+02 -3.381411e+01
-3.120236e+09 -2.920235e+09 -3.080235e+09 -6.409390e+02 -6.900414e+01 -1.384726e+01
-2.729537e+09 -2.529540e+09 -2.689537e+09 2.082850e+03 6.850664e+02 -3.607534e+01
-3.594599e+09 -3.394599e+09 -3.554599e+09 -5.801077e+02 -2.281395e+01 3.381785e+00
-1.784944e+09 -1.584943e+09 -1.744944e+09 -6.156489e+02 -6.073805e+01 -3.110140e+01
-2.997653e+09 -2.797652e+09 -2.957652e+09 -4.536991e+02 -4.641089e+01 -2.157893e+01
-3.490663e+09 -3.290666e+09 -3.450662e+09 1.419168e+03 1.101814e+02 -5.064780e+01
-2.761499e+09 -2.561499e+09 -2.721499e+09 -5.784043e+02 -4.580571e+01 1.921055e+01
-1.918772e+09 -1.718771e+09 -1.878771e+09 -5.345978e+02 -1.059690e+02 -3.185989e+01
-2.574787e+09 -2.374786e+09 -2.534787e+09 -5.719924e+02 -4.188742e+01 8.205276e-01
-2.827576e+09 -2.627591e+09 -2.787582e+09 -4.595162e+03 -3.104547e+03 9.370610e+03
-1.578795e+09 -1.378794e+09 -1.538795e+09 -4.753742e+02 -7.152211e+01 4.503663e+00
-2.183163e+09 -1.983162e+09 -2.143162e+09 -4.712979e+02 -4.927829e+01 -4.263628e+01
-3.578528e+09 -3.378534e+09 -3.538544e+09 1.476344e+03 1.025776e+04 -1.096954e+03
-2.401431e+09 -2.201447e+09 -2.361475e+09 3.296891e+03 3.275905e+04 -8.780304e+03
-2.025334e+09 -1.825265e+09 -1.985319e+09 2.967925e+01 1.400344e+04 3.234530e+02
-3.344613e+09 -3.144619e+09 -3.304590e+09 5.040831e+03 5.117128e+03 1.726314e+04
-1.799258e+09 -1.599116e+09 -1.759177e+09 2.234457e+04 5.375674e+04 3.923353e+03
-1.586067e+09 -1.386114e+09 -1.546045e+09 2.066950e+04 1.151759e+04 9.525229e+04
-2.757637e+09 -2.557639e+09 -2.717638e+09 1.717173e+02 2.239576e+01 1.775341e+01
-3.601858e+09 -3.401852e+09 -3.561862e+09 2.756830e+03 3.947988e+03 -3.130254e+03
-3.112779e+09 -2.912781e+09 -3.072781e+09 -2.790732e+02 -2.195162e+00 3.155217e+01
-1.967738e+09 -1.767740e+09 -1.927740e+09 -3.926633e+01 -6.146915e+00 4.392907e+01
-2.668209e+09 -2.468211e+09 -2.628211e+09 -5.194783e+01 -9.950215e-01 1.324146e+01
-3.629632e+09 -3.429645e+09 -3.589633e+09 -1.981944e+03 -7.007680e+02 8.192841e+03
-3.604587e+09 -3.404590e+09 -3.564589e+09 -2.362468e+02 2.189336e+00 -1.401338e+02
-2.040995e+09 -1.840997e+09 -2.000996e+09 -3.020272e+01 -3.375243e+00 3.125007e+01
-1.665408e+09 -1.465410e+09 -1.625409e+09 1.501766e+01 9.273632e+00 4.950740e+01
-3.469600e+09 -3.269582e+09 -3.429609e+09 -5.096622e+03 -1.705713e+03 -1.588936e+03
-2.873125e+09 -2.673127e+09 -2.833127e+09 7.543072e+01 1.606798e+01 5.335067e+01
-3.042428e+09 -2.842430e+09 -3.002429e+09 1.837018e+02 2.316481e+01 -1.926515e+01
-2.749918e+09 -2.549916e+09 -2.709917e+09 -5.671544e+02 -1.192824e+02 2.654344e+01
-1.569180e+09 -1.369182e+09 -1.529183e+09 -2.153401e+03 2.106075e+02 -6.973746e+02
-2.568068e+09 -2.368067e+09 -2.528067e+09 -5.360974e+02 -6.223128e+01 -7.897599e+01
-2.728981e+09 -2.528980e+09 -2.688981e+09 -6.700701e+02 -7.345110e+01 -3.690149e+01
-2.448911e+09 -2.248911e+09 -2.408911e+09 -8.138774e+02 -1.291585e+02 -2.923888e+01
-2.034352e+09 -1.834352e+09 -1.994352e+09 -8.132093e+02 -9.987525e+01 -2.626881e+00
-3.607193e+09 -3.407192e+09 -3.567210e+09 -3.575224e+03 1.085812e+04 4.592288e+03
-2.709959e+09 -2.509958e+09 -2.669958e+09 -6.335661e+02 -4.723460e+01 1.486475e+01
-2.359003e+09 -2.159003e+09 -2.319003e+09 -6.278528e+02 -9.664350e+01 -6.321027e+00
-2.536034e+09 -2.336034e+09 -2.496034e+09 -7.681890e+02 -5.032346e+01 -1.030269e+01
-2.063717e+09 -1.863723e+09 -2.023721e+09 -4.443508e+03 3.418627e+03 -6.900409e+03
-3.594855e+09 -3.394852e+09 -3.554853e+09 1.846200e+03 -4.106792e+02 -5.521067e+02
-3.386804e+09 -3.186803e+09 -3.346804e+09 -6.250573e+02 -3.331567e+01 -5.086177e+01
-1.780073e+09 -1.580072e+09 -1.740072e+09 -6.835045e+02 -1.143186e+02 -9.493800e+01
-1.610124e+09 -1.410105e+09 -1.570118e+09 9.151266e+03 -9.198402e+03 -1.342373e+04
-2.024852e+09 -1.824851e+09 -1.984851e+09 -5.166422e+02 -7.596562e+01 -4.810877e+01
-3.601278e+09 -3.401272e+09 -3.561275e+09 1.395577e+03 -6.228194e+02 -3.036982e+02
-2.440508e+09 -2.240508e+09 -2.400508e+09 -7.835259e+02 -1.163784e+02 3.201317e+01
-2.545576e+09 -2.345576e+09 -2.505576e+09 -6.513601e+02 -7.957305e+01 -4.913870e+01
-1.619144e+09 -1.419148e+09 -1.579145e+09 6.952719e+03 -5.982602e+03 -1.258063e+04
-3.414002e+09 -3.213993e+09 -3.374004e+09 3.416469e+03 4.708891e+02 -1.005258e+03
-2.699561e+09 -2.499578e+09 -2.659570e+09 -2.510158e+03 -1.167843e+03 8.820548e+03
-2.363343e+09 -2.163343e+09 -2.323343e+09 -8.194023e+02 -1.001825e+02 4.466569e+01
-3.270201e+09 -3.070214e+09 -3.230199e+09 2.817805e+02 -1.327145e+03 1.084431e+04
-2.802321e+09 -2.602321e+09 -2.762320e+09 -5.079831e+03 -3.191911e+03 4.446517e+03
-2.383193e+09 -2.183162e+09 -2.343136e+09 2.239503e+04 2.546985e+04 3.041257e+04
-3.587294e+09 -3.387297e+09 -3.547291e+09 1.487601e+03 -3.039902e+02 -3.849139e+03
-3.599655e+09 -3.399657e+09 -3.559654e+09 2.432502e+03 -6.309142e+02 -2.403572e+03
-2.055296e+09 -1.855296e+09 -2.015296e+09 1.433086e+03 1.182194e+02 -3.166820e+02
-2.713820e+09 -2.513815e+09 -2.673818e+09 1.204914e+03 -4.440626e+02 -1.457626e+02
-2.166747e+09 -1.966751e+09 -2.126729e+09 1.520246e+04 2.943682e+04 3.148665e+04
-2.833011e+09 -2.632994e+09 -2.792899e+09 -6.593745e+03 -1.983231e+04 2.252113e+04
-3.594854e+09 -3.394853e+09 -3.554853e+09 1.921557e+03 -1.014350e+02 -7.326443e+02
-2.130306e+09 -1.930316e+09 -2.090318e+09 -1.312978e+04 -1.518456e+04 2.038737e+04
-3.072366e+09 -2.872365e+09 -3.032355e+09 1.087839e+04 1.375786e+04 1.596112e+04
-1.776726e+09 -1.576735e+09 -1.736727e+09 1.286733e+04 1.473114e+04 2.585470e+04
-3.319679e+09 -3.119677e+09 -3.279674e+09 9.077039e+03 6.833942e+03 4.064194e+03
-2.502493e+09 -2.302499e+09 -2.462498e+09 -4.273411e+03 -6.348399e+03 -1.467372e+03
-2.605299e+09 -2.405308e+09 -2.565305e+09 -2.383050e+03 -6.177128e+03 -8.532380e+02
-2.706387e+09 -2.506397e+09 -2.666394e+09 -2.160150e+03 -6.257323e+03 -1.100388e+03
-2.813982e+09 -2.613990e+09 -2.773989e+09 -2.355477e+03 -6.715149e+03 -1.046314e+03
-3.627830e+09 -3.427830e+09 -3.587830e+09 1.450548e+03 -1.402007e+02 -4.221348e+02
-2.858873e+09 -2.658877e+09 -2.818873e+09 -3.031890e+03 2.040452e+03 -4.195227e+03
-3.597652e+09 -3.397657e+09 -3.557653e+09 -4.320980e+02 2.992282e+02 -2.575261e+03
-3.404891e+09 -3.204896e+09 -3.364900e+09 -3.939517e+03 -6.732087e+03 -2.179080e+03
-2.677393e+09 -2.477392e+09 -2.637392e+09 2.485038e+02 1.807544e+01 -1.018309e+01
-2.463516e+09 -2.263515e+09 -2.423516e+09 1.946445e+03 -2.141444e+02 -8.403947e+02
-2.001684e+09 -1.801681e+09 -1.961683e+09 1.144481e+02 -1.110504e+00 -1.003969e+02
-1.975573e+09 -1.775570e+09 -1.935571e+09 2.033934e+02 5.608713e+01 4.036883e+01
-3.175297e+09 -2.975295e+09 -3.135296e+09 1.302712e+03 -9.561816e+01 -7.894869e+01
-3.405073e+09 -3.205075e+09 -3.365075e+09 5.719547e+02 1.029811e+00 -3.519226e+01
-3.233735e+09 -3.033737e+09 -3.193736e+09 6.690227e+02 2.040444e+00 -1.367127e+02
-2.814507e+09 -2.614509e+09 -2.774509e+09 5.688488e+02 1.964780e+01 2.346235e+00
-2.606062e+09 -2.406066e+09 -2.566062e+09 1.793446e+03 5.893283e+02 -1.744980e+02
-3.305204e+09 -3.105203e+09 -3.265203e+09 1.548428e+02 -6.480363e-01 -1.155660e+01
-3.305615e+09 -3.105614e+09 -3.265615e+09 1.915119e+02 1.174023e+01 -7.948057e+00
-3.605532e+09 -3.405531e+09 -3.565532e+09 1.255621e+02 -1.041877e+01 -4.801208e+00
-2.591458e+09 -2.391457e+09 -2.551457e+09 1.085085e+02 1.248692e+01 -2.403021e+01
-3.112101e+09 -2.912104e+09 -3.072100e+09 2.017611e+03 5.329472e+02 -1.935372e+02
-2.788295e+09 -2.588302e+09 -2.748297e+09 1.630981e+03 8.369111e+02 -1.054206e+02
-3.604751e+09 -3.404750e+09 -3.564750e+09 6.885164e+02 5.336655e+01 -9.800424e+00
-3.379905e+09 -3.179911e+09 -3.339907e+09 1.907863e+03 8.910542e+02 -3.615685e+02
-3.117960e+09 -2.917959e+09 -3.077960e+09 2.856874e+02 2.753179e+01 1.679472e+01
-3.605750e+09 -3.405752e+09 -3.565749e+09 2.161612e+03 5.998466e+02 -2.104542e+02
-2.685870e+09 -2.485876e+09 -2.645871e+09 1.439869e+03 7.318070e+02 -2.564813e+02
-3.190075e+09 -2.990074e+09 -3.150074e+09 1.375460e+02 5.169240e+01 -4.647286e+01
-1.600279e+09 -1.400278e+09 -1.560278e+09 3.371879e+02 7.455846e+01 -5.281073e+01
-3.605532e+09 -3.405531e+09 -3.565532e+09 1.733257e+02 -8.233584e+00 -1.263156e+01
-2.554180e+09 -2.354186e+09 -2.514181e+09 1.167002e+03 3.725438e+02 -6.912409e+00
-2.905549e+09 -2.705553e+09 -2.865549e+09 1.395492e+03 3.244859e+02 -1.139224e+02
-2.705397e+09 -2.505408e+09 -2.665405e+09 -7.739331e+02 -7.074281e+03 -9.250511e+01
-3.299405e+09 -3.099409e+09 -3.259405e+09 1.501904e+03 2.184529e+02 -4.687943e+01
-3.159835e+09 -2.959837e+09 -3.119836e+09 -2.635544e+03 1.086476e+03 4.241339e+02
-2.757553e+09 -2.557556e+09 -2.717553e+09 -2.502703e+03 9.031669e+02 3.183579e+02
-3.490717e+09 -3.290715e+09 -3.450717e+09 -2.354265e+03 -1.415443e+03 -8.932025e+02
-2.593443e+09 -2.393446e+09 -2.553445e+09 -3.849837e+03 2.061735e+03 1.254932e+03
-3.386797e+09 -3.186799e+09 -3.346798e+09 -3.386717e+03 2.047773e+03 1.003184e+03
-3.615390e+09 -3.415381e+09 -3.575394e+09 9.167181e+02 -1.778069e+03 -2.678597e+03
-3.370393e+09 -3.170395e+09 -3.330394e+09 -2.587658e+03 1.012062e+03 4.418425e+02
-1.567313e+09 -1.367314e+09 -1.527311e+09 -5.518038e+03 -4.218521e+03 -2.453413e+03
-1.814782e+09 -1.614785e+09 -1.774784e+09 -1.657312e+02 2.640365e+01 -1.195220e+02
-1.688850e+09 -1.488855e+09 -1.648851e+09 -3.263443e+03 -2.947802e+03 -7.675037e+02
-2.772095e+09 -2.572101e+09 -2.732097e+09 -2.778300e+03 1.493545e+03 6.846009e+02
-2.598263e+09 -2.398269e+09 -2.558265e+09 -2.804922e+03 2.339344e+03 6.191844e+02
-2.605588e+09 -2.405569e+09 -2.565619e+09 -9.857394e+02 -5.334570e+03 1.523060e+03
-3.193796e+09 -2.993796e+09 -3.153797e+09 -2.852572e+03 -2.605590e+03 -1.243845e+03
-3.384221e+09 -3.184190e+09 -3.344203e+09 -5.961739e+03 1.344361e+04 -4.441993e+02
-3.411681e+09 -3.211673e+09 -3.371669e+09 -7.663985e+03 4.488232e+03 -9.040007e+03
-2.828134e+09 -2.628107e+09 -2.788107e+09 -2.440324e+03 1.228621e+04 -1.208710e+04
-2.445313e+09 -2.245316e+09 -2.405315e+09 -1.188795e+03 1.163672e+02 -4.985518e+02
-1.890998e+09 -1.690997e+09 -1.850997e+09 -3.302148e+02 -4.212803e+01 -2.818535e+01
-3.399913e+09 -3.199888e+09 -3.359854e+09 6.871757e+02 2.691960e+04 -2.451182e+03
-3.228866e+09 -3.028837e+09 -3.188812e+09 1.678382e+03 2.278496e+04 -1.652630e+03
-3.413943e+09 -3.213922e+09 -3.373911e+09 -5.599683e+03 8.081094e+03 -4.550797e+03
-1.834989e+09 -1.634902e+09 -1.794949e+09 -1.575861e+04 2.397471e+04 -2.418498e+04
-1.579180e+09 -1.379181e+09 -1.539181e+09 -7.482909e+02 -8.850332e+01 -9.374182e+00
-2.193080e+09 -1.993079e+09 -2.153079e+09 -3.921450e+02 -3.331759e+01 -4.170453e+01
-3.625735e+09 -3.425734e+09 -3.585734e+09 -4.082168e+02 -1.772864e+01 -1.555097e+01
-2.707107e+09 -2.507110e+09 -2.667110e+09 -1.103343e+03 4.393736e+01 -1.210086e+02
-3.625735e+09 -3.425734e+09 -3.585734e+09 -3.346547e+02 -1.690788e+01 -1.723829e+01
-2.042035e+09 -1.841974e+09 -2.001975e+09 -2.030454e+04 1.370646e+04 -3.242688e+04
-2.717047e+09 -2.517047e+09 -2.677047e+09 -5.320197e+02 -2.018348e+01 6.137594e+00
-3.325406e+09 -3.125405e+09 -3.285406e+09 -3.851420e+02 -2.631282e+01 -1.156826e+01
-3.200319e+09 -3.000299e+09 -3.160319e+09 -5.628902e+03 9.239575e+03 -6.657764e+03
-3.190334e+09 -2.990337e+09 -3.150333e+09 1.323151e+03 1.817292e+02 3.192965e+01
-2.629970e+09 -2.429924e+09 -2.589893e+09 -3.315328e+03 3.912502e+04 -8.197019e+03
-1.795454e+09 -1.595442e+09 -1.755448e+09 7.433482e+03 5.051038e+03 -9.248829e+03
-2.603197e+09 -2.403195e+09 -2.563202e+09 5.913307e+03 8.885137e+03 -7.568871e+03
-2.596176e+09 -2.396163e+09 -2.556179e+09 9.160390e+03 9.261305e+03 -9.699705e+03
-3.492406e+09 -3.292410e+09 -3.452406e+09 1.409898e+03 7.299210e+01 -1.466801e+00
-2.195820e+09 -1.995823e+09 -2.155820e+09 1.406832e+03 1.474142e+02 -7.659492e+01
-1.778689e+09 -1.578664e+09 -1.738690e+09 1.494212e+04 1.112179e+04 -1.566303e+04
-1.964614e+09 -1.764587e+09 -1.924606e+09 1.273078e+04 1.390419e+04 -2.116604e+04
-1.884702e+09 -1.684709e+09 -1.844703e+09 -3.126708e+02 3.729322e+02 -3.801488e+01
-2.598009e+09 -2.397999e+09 -2.558023e+09 8.005781e+03 1.207238e+04 -1.013101e+04
-3.407197e+09 -3.207189e+09 -3.367201e+09 -1.605368e+03 3.669735e+03 5.444732e+03
-3.598043e+09 -3.398047e+09 -3.558043e+09 1.642414e+03 2.938600e+02 1.023796e+01
-3.171064e+09 -2.971050e+09 -3.131075e+09 -4.330255e+03 -3.692298e+03 8.067289e+03
-2.440782e+09 -2.240791e+09 -2.400810e+09 -1.094531e+04 2.289775e+04 8.568410e+03
-1.895226e+09 -1.695229e+09 -1.855225e+09 1.785136e+03 5.470072e+02 -1.791044e+02
-2.197564e+09 -1.997568e+09 -2.157564e+09 1.311213e+03 2.169286e+02 -6.005610e+01
-3.057706e+09 -2.857691e+09 -3.017718e+09 -5.031097e+03 9.427287e+03 8.751148e+03
-2.663203e+09 -2.463215e+09 -2.623231e+09 -8.633528e+03 2.549111e+04 6.969861e+03
-3.397555e+09 -3.197556e+09 -3.357583e+09 -5.186488e+03 1.242086e+04 5.558263e+03
-2.767367e+09 -2.567349e+09 -2.727405e+09 -1.270636e+04 2.060295e+04 7.834098e+03
-2.381550e+09 -2.181570e+09 -2.341581e+09 -1.135473e+04 2.809458e+04 1.131020e+04
-3.358665e+09 -3.158652e+09 -3.318681e+09 -7.598514e+03 6.172720e+03 7.893938e+03
-3.290770e+09 -3.090769e+09 -3.250772e+09 -3.340003e+03 -3.562001e+03 -2.028395e+03
-2.746554e+09 -2.546535e+09 -2.706552e+09 -2.176919e+03 2.579360e+03 7.857505e+03
-2.171372e+09 -1.971373e+09 -2.131371e+09 -4.119633e+03 -3.684997e+03 -1.973774e+03
-1.804808e+09 -1.604769e+09 -1.764791e+09 -1.543249e+04 4.151516e+03 1.500191e+04
-3.400913e+09 -3.200905e+09 -3.360914e+09 -3.502368e+03 3.364757e+03 5.236867e+03
-3.395064e+09 -3.195055e+09 -3.355062e+09 -2.386499e+03 2.432824e+03 6.103284e+03
-1.780186e+09 -1.580185e+09 -1.740182e+09 -1.722161e+04 1.627162e+04 1.453946e+04
-1.843735e+09 -1.643746e+09 -1.803748e+09 -2.535822e+04 2.286379e+04 1.185754e+04
-1.784540e+09 -1.584521e+09 -1.744539e+09 -2.065869e+04 1.624478e+04 2.247154e+04
-2.137246e+09 -1.937219e+09 -2.097260e+09 -8.935766e+03 1.805012e+04 1.486774e+04
-3.182288e+09 -2.982288e+09 -3.142288e+09 -5.650373e+02 -4.597468e+01 -1.257410e+01
-1.784516e+09 -1.584569e+09 -1.744569e+09 -1.469004e+04 5.966258e+04 1.204023e+04
-2.640590e+09 -2.440588e+09 -2.600592e+09 -4.494724e+03 -5.174136e+03 -3.124126e+03
-2.779388e+09 -2.579368e+09 -2.739389e+09 1.498052e+03 -7.934226e+03 2.800500e+03
-2.752039e+09 -2.552041e+09 -2.712039e+09 -2.635268e+03 9.211891e+02 3.211970e+02
-3.596466e+09 -3.396468e+09 -3.556465e+09 -2.406410e+03 1.082695e+03 -1.528224e+03
-3.175242e+09 -2.975240e+09 -3.135241e+09 -2.432951e+03 8.270034e+02 5.154342e+02
-3.494123e+09 -3.294121e+09 -3.454125e+09 -2.434856e+03 -2.406131e+03 -1.109456e+03
-1.589856e+09 -1.389854e+09 -1.549854e+09 8.569203e+03 -7.467410e+03 6.442812e+03
-2.572446e+09 -2.372445e+09 -2.532445e+09 -2.999380e+03 1.321402e+03 8.418197e+02
-2.755737e+09 -2.555738e+09 -2.715736e+09 -2.711861e+03 8.870396e+02 4.972003e+02
-2.800231e+09 -2.600231e+09 -2.760239e+09 6.846761e+03 1.130991e+04 -6.644490e+03
-3.401764e+09 -3.201756e+09 -3.361775e+09 7.073571e+03 9.043872e+03 -7.080694e+03
-1.585191e+09 -1.385263e+09 -1.545249e+09 2.367838e+04 7.575698e+04 -2.205066e+04
-2.593065e+09 -2.393062e+09 -2.553070e+09 9.458911e+03 9.652695e+03 -6.791992e+03
-2.399500e+09 -2.199495e+09 -2.359503e+09 8.700207e+03 7.922267e+03 -7.330842e+03
-2.041570e+09 -1.841564e+09 -2.001568e+09 6.040271e+03 4.131338e+03 -4.632495e+03
-2.796287e+09 -2.596281e+09 -2.756287e+09 3.053568e+03 2.477722e+03 -2.763176e+03
-3.615491e+09 -3.415496e+09 -3.575484e+09 9.498456e+02 -6.407743e+02 -6.174705e+03
-3.264148e+09 -3.064142e+09 -3.224149e+09 4.325337e+03 2.976670e+03 -3.866707e+03
-3.440790e+09 -3.240793e+09 -3.400790e+09 2.179155e+03 5.981919e+02 -9.118901e+01
-3.199736e+09 -2.999727e+09 -3.159744e+09 5.569728e+03 7.027155e+03 -7.365072e+03
-3.409318e+09 -3.209310e+09 -3.369320e+09 2.001557e+03 2.584642e+03 -3.346422e+03
-1.583135e+09 -1.383135e+09 -1.543135e+09 -8.230358e+02 -1.179466e+02 5.715032e+00
-3.593760e+09 -3.393759e+09 -3.553760e+09 -4.180760e+02 -1.968998e+01 1.048991e+01
-2.386590e+09 -2.186598e+09 -2.346600e+09 8.856574e+03 1.127412e+04 -5.552994e+03
-3.128059e+09 -2.928059e+09 -3.088059e+09 -4.231807e+02 -3.650774e+01 -4.382845e+01
-1.780951e+09 -1.580954e+09 -1.740953e+09 1.446443e+04 1.336184e+04 -7.293390e+03
-2.734554e+09 -2.534549e+09 -2.694555e+09 -1.987944e+03 -1.109412e+03 2.242298e+03
-3.190867e+09 -2.990866e+09 -3.150867e+09 1.493742e+02 2.701482e+01 -1.204192e+01
-3.224903e+09 -3.024905e+09 -3.184905e+09 3.846861e+02 3.231856e+01 -4.278328e+01
-2.398844e+09 -2.198845e+09 -2.358845e+09 -3.934795e+03 1.770030e+03 -2.467171e+03
-1.608525e+09 -1.408525e+09 -1.568525e+09 3.371466e+02 5.018854e+01 -2.326232e+01
-2.520111e+09 -2.320111e+09 -2.480113e+09 -3.278798e+03 9.921474e+02 -4.137266e+02
-3.317045e+09 -3.117043e+09 -3.277045e+09 -2.430870e+03 1.678219e+01 4.908594e+02
-3.340767e+09 -3.140778e+09 -3.300768e+09 -1.536400e+03 -4.137403e+02 7.329718e+03
-2.041109e+09 -1.841114e+09 -2.001132e+09 -1.088520e+04 2.768159e+04 7.230330e+03
-2.408793e+09 -2.208793e+09 -2.368843e+09 -1.330134e+03 2.155260e+04 -3.135785e+03
-2.646899e+09 -2.446866e+09 -2.606932e+09 -1.865091e+04 2.187451e+02 6.499757e+03
-2.011746e+09 -1.811666e+09 -1.971818e+09 -2.464188e+04 2.395429e+04 -1.720573e+03
-2.835478e+09 -2.635442e+09 -2.795514e+09 2.304182e+03 6.683058e+03 -3.246760e+03
-3.490397e+09 -3.290399e+09 -3.450396e+09 1.869458e+03 3.496990e+02 -5.622788e+01
-3.590377e+09 -3.390379e+09 -3.550378e+09 2.859460e+03 1.278808e+03 -5.005725e+02
-2.374006e+09 -2.174006e+09 -2.334021e+09 1.274124e+04 2.068436e+04 -1.236581e+04
-1.813747e+09 -1.613789e+09 -1.773769e+09 6.299419e+03 3.311075e+04 -1.030931e+04
-1.830675e+09 -1.630621e+09 -1.790573e+09 -6.116586e+02 -6.592307e+04 -9.114424e+04
-3.396418e+09 -3.196426e+09 -3.356422e+09 2.567672e+03 2.478002e+03 -7.460450e+02
-2.816158e+09 -2.616136e+09 -2.776201e+09 -1.474032e+03 1.333905e+04 -9.380303e+03
-2.596687e+09 -2.396671e+09 -2.556739e+09 -2.937877e+03 1.470953e+04 -1.073641e+04
-1.610128e+09 -1.410126e+09 -1.570124e+09 4.877019e+03 -5.066353e+03 -1.094417e+04
-3.593349e+09 -3.393352e+09 -3.553351e+09 -2.466907e+02 6.658442e+01 -2.603339e+02
-3.441764e+09 -3.241761e+09 -3.401756e+09 3.888491e+03 -2.140681e+03 -3.148064e+03
-3.230578e+09 -3.030542e+09 -3.190592e+09 -8.589622e+02 -1.453159e+04 -4.471513e+03
-2.802710e+09 -2.602714e+09 -2.762713e+09 -2.244601e+03 6.771138e+02 -2.021668e+03
-2.816055e+09 -2.616050e+09 -2.776105e+09 -4.023707e+02 2.850255e+04 1.761023e+03
-3.598546e+09 -3.398547e+09 -3.558575e+09 -7.221278e+02 1.655999e+04 5.628815e+02
-3.603445e+09 -3.403430e+09 -3.563440e+09 -1.485393e+01 -1.006565e+04 -4.101683e+02
-3.630185e+09 -3.430189e+09 -3.590184e+09 -4.725079e+03 -2.334396e+03 3.555784e+03
-2.009145e+09 -1.809172e+09 -1.969185e+09 5.446392e+02 5.293063e+04 -6.410644e+03
-3.577158e+09 -3.377166e+09 -3.537169e+09 1.861942e+03 6.377276e+03 -5.154760e+02
-1.578336e+09 -1.378333e+09 -1.538335e+09 -9.866201e+02 4.754438e+02 4.041846e+02
-1.926886e+09 -1.726863e+09 -1.886915e+09 -3.650621e+04 2.688869e+04 3.504330e+04
-2.655126e+09 -2.455113e+09 -2.615126e+09 1.244559e+03 2.247943e+03 -4.756780e+03
-3.224829e+09 -3.024829e+09 -3.184829e+09 7.310179e+02 7.108111e+01 -5.387869e+01
-3.456125e+09 -3.256125e+09 -3.416125e+09 1.512965e+03 -1.828009e+02 -4.254074e+02
-3.581106e+09 -3.381109e+09 -3.541107e+09 -2.661724e+03 9.990169e+02 4.711412e+02
-3.245687e+09 -3.045679e+09 -3.205687e+09 -1.809220e+03 4.580864e+02 -5.365831e+02
-3.087557e+09 -2.887561e+09 -3.047555e+09 2.121345e+03 -5.898457e+02 -3.763586e+03
-3.452973e+09 -3.252965e+09 -3.412974e+09 -2.365366e+03 3.671955e+02 -1.703939e+03
-2.601832e+09 -2.401812e+09 -2.561826e+09 -6.085001e+03 -4.236020e+03 -3.643452e+03
-3.192589e+09 -2.992579e+09 -3.152583e+09 -5.297679e+03 -2.532098e+03 -1.959044e+03
-3.163131e+09 -2.963122e+09 -3.123130e+09 -3.328263e+03 -1.927886e+02 -1.795927e+03
-2.207343e+09 -2.007327e+09 -2.167342e+09 -3.974570e+03 -5.421003e+03 -3.149482e+03
-3.617228e+09 -3.417225e+09 -3.577225e+09 2.170112e+03 -5.240600e+02 -1.064353e+03
-2.355185e+09 -2.155178e+09 -2.315182e+09 -3.223002e+03 -8.997855e+02 5.603197e+02
-3.577350e+09 -3.377342e+09 -3.537348e+09 4.094794e+02 -4.247320e+02 9.871666e+02
-2.379937e+09 -2.179916e+09 -2.339943e+09 2.057548e+03 7.705230e+02 -7.353601e+03
-2.001366e+09 -1.801345e+09 -1.961348e+09 -2.485061e+03 -2.323080e+03 -3.235209e+03
-3.158868e+09 -2.958870e+09 -3.118870e+09 -4.335024e+02 -3.119554e+01 -7.233284e+00
-2.396716e+09 -2.196699e+09 -2.356715e+09 7.329655e+03 6.324127e+03 -1.024792e+04
-1.813969e+09 -1.613956e+09 -1.773965e+09 -1.213119e+03 -3.967706e+03 2.463473e+02
-1.875916e+09 -1.675915e+09 -1.835915e+09 1.649355e+02 3.347620e+01 -2.229330e+01
-3.604750e+09 -3.404750e+09 -3.564750e+09 6.369174e+02 2.011939e+01 -3.898494e+01
-3.197914e+09 -2.997904e+09 -3.157918e+09 3.304061e+03 3.347281e+03 -4.647347e+03
-2.802986e+09 -2.602986e+09 -2.762986e+09 6.293632e+02 1.891485e+00 -7.278650e+01
-2.782990e+09 -2.582994e+09 -2.742993e+09 4.252214e+02 -1.376302e+01 -6.330126e+02
-2.440116e+09 -2.240119e+09 -2.400119e+09 -2.581418e+03 6.140237e+02 -6.480555e+02
-2.566988e+09 -2.366988e+09 -2.526988e+09 5.590630e+02 4.221557e+01 -2.981978e+01
-3.185030e+09 -2.985035e+09 -3.145033e+09 -8.386957e+02 2.110555e+02 -7.814632e+02
-3.418235e+09 -3.218240e+09 -3.378237e+09 2.698873e+02 1.263995e+02 -1.505533e+03
-2.302899e+09 -2.102906e+09 -2.262903e+09 3.048323e+03 -4.128462e+03 1.258040e+03
-1.690836e+09 -1.490848e+09 -1.650839e+09 2.826968e+03 -3.759165e+03 1.213906e+03
-1.768318e+09 -1.568339e+09 -1.728326e+09 1.306191e+03 -9.044213e+03 1.464680e+03
-1.598169e+09 -1.398168e+09 -1.558168e+09 4.746743e+02 9.710752e+01 -5.525139e+01
-1.800327e+09 -1.600327e+09 -1.760327e+09 6.994099e+02 8.609915e+01 -4.633249e+01
-2.649598e+09 -2.449598e+09 -2.609598e+09 6.362119e+02 6.299447e+01 -5.325628e+01
-2.495951e+09 -2.295948e+09 -2.455949e+09 -1.229281e+02 2.720385e+02 4.608802e+01
-1.879261e+09 -1.679270e+09 -1.839264e+09 2.877582e+03 -4.455534e+03 1.132696e+03
-2.577998e+09 -2.378007e+09 -2.538004e+09 1.648026e+03 -6.434184e+03 1.301198e+03
-1.599552e+09 -1.399551e+09 -1.559551e+09 1.690842e+02 8.298013e+01 -6.561548e+01
-2.688223e+09 -2.488233e+09 -2.648230e+09 1.588673e+03 -6.448857e+03 1.446828e+03
-2.561248e+09 -2.361248e+09 -2.521248e+09 3.746849e+02 1.581079e+01 -3.007939e+01
-1.554801e+09 -1.354801e+09 -1.514801e+09 4.774980e+02 8.744438e+01 9.752949e+00
-2.577281e+09 -2.377294e+09 -2.537289e+09 1.134963e+03 -8.000644e+03 1.685993e+03
-2.070731e+09 -1.870745e+09 -2.030737e+09 1.576895e+03 -6.483609e+03 1.231521e+03
-2.483380e+09 -2.283394e+09 -2.443389e+09 1.662860e+03 -7.598256e+03 1.536374e+03
-2.019616e+09 -1.819618e+09 -1.979618e+09 1.157361e+03 -3.066238e+01 -3.379920e+02
-3.239660e+09 -3.039663e+09 -3.199662e+09 3.967049e+02 4.217282e+01 -2.507121e+02
-3.491127e+09 -3.291126e+09 -3.451127e+09 1.793378e+02 6.995251e+00 -7.741992e+00
-1.598168e+09 -1.398168e+09 -1.558168e+09 5.181494e+02 5.624596e+01 -8.853186e+01
-2.017588e+09 -1.817587e+09 -1.977588e+09 5.235515e+02 3.390822e+01 -1.525592e+01
-2.655069e+09 -2.455072e+09 -2.615071e+09 8.129932e+02 2.360089e+01 -3.836926e+02
-3.296767e+09 -3.096766e+09 -3.256766e+09 1.940774e+02 5.885123e+00 -2.525648e+01
-1.680710e+09 -1.480715e+09 -1.640714e+09 4.459894e+03 -2.796524e+03 -7.745408e+03
-1.689155e+09 -1.489154e+09 -1.649155e+09 1.738187e+02 3.987117e+01 -2.689795e+01
-2.636233e+09 -2.436237e+09 -2.596235e+09 -1.259570e+02 1.827780e+01 -3.753712e+02
-3.392673e+09 -3.192676e+09 -3.352675e+09 6.861417e+02 1.952669e+02 -6.692456e+02
-2.016379e+09 -1.816380e+09 -1.976380e+09 1.701331e+03 -1.284272e+02 -5.416122e+02
-2.833063e+09 -2.633063e+09 -2.793063e+09 1.195721e+03 5.078040e+01 -2.584198e+02
-2.035463e+09 -1.835463e+09 -1.995464e+09 -2.036816e+03 -1.640369e+02 1.502907e+02
-3.182839e+09 -2.982843e+09 -3.142842e+09 -1.444766e+02 8.466973e+01 -6.186103e+02
-3.243334e+09 -3.043335e+09 -3.203334e+09 1.770501e+03 -1.282252e+02 -5.075664e+02
-1.602626e+09 -1.402630e+09 -1.562629e+09 -5.974763e+01 5.175982e+01 -1.464579e+02
-3.617226e+09 -3.417225e+09 -3.577225e+09 2.440519e+03 -3.429067e+02 -1.226559e+03
-3.216895e+09 -3.016899e+09 -3.176897e+09 1.631281e+03 -2.019873e+02 -1.768648e+03
-2.084417e+09 -1.884418e+09 -2.044419e+09 2.018980e+03 -3.229836e+02 -8.612979e+02
-1.579812e+09 -1.379812e+09 -1.539811e+09 -8.948952e+02 1.689483e+02 -8.161209e+01
-3.168178e+09 -2.968174e+09 -3.128157e+09 5.447039e+03 -8.311585e+03 -1.474847e+04
-2.070948e+09 -1.870950e+09 -2.030950e+09 2.131467e+03 -7.375836e+02 -1.857161e+03
-3.598948e+09 -3.398945e+09 -3.558946e+09 1.201620e+03 -1.958217e+02 -1.734224e+02
-1.695191e+09 -1.495190e+09 -1.655190e+09 7.156383e+02 1.404963e+02 -1.517416e+02
-3.030690e+09 -2.830691e+09 -2.990670e+09 -1.048857e+04 4.943698e+03 -1.529128e+04
-2.987271e+09 -2.787278e+09 -2.947260e+09 -3.668595e+03 2.477665e+03 -1.885557e+04
-2.829098e+09 -2.629067e+09 -2.789100e+09 1.123453e+04 -5.297801e+03 -8.014289e+03
-3.345334e+09 -3.145330e+09 -3.305334e+09 -2.736011e+03 1.599465e+03 1.545754e+03
-3.225164e+09 -3.025141e+09 -3.185130e+09 8.044557e+03 -2.305287e+04 -9.023293e+03
-3.220084e+09 -3.020054e+09 -3.180052e+09 1.134288e+04 -1.854331e+04 -8.434754e+03
-3.300456e+09 -3.100454e+09 -3.260455e+09 2.505029e+02 2.680639e+01 -1.173229e+02
-1.580658e+09 -1.380649e+09 -1.540650e+09 -6.814695e+03 1.788965e+03 3.318831e+03
-1.557523e+09 -1.357520e+09 -1.517521e+09 -1.575260e+03 5.360482e+02 2.867485e+02
-3.603908e+09 -3.403904e+09 -3.563906e+09 7.889096e+02 -1.474253e+02 -3.904863e+01
-3.601278e+09 -3.401272e+09 -3.561274e+09 1.625615e+03 -6.538945e+02 -2.782012e+02
-3.614558e+09 -3.414553e+09 -3.574556e+09 6.637980e+02 4.259619e+02 3.134318e+02
-3.407701e+09 -3.207674e+09 -3.367650e+09 -9.055027e+02 -1.056225e+04 -4.779810e+03
-3.601859e+09 -3.401854e+09 -3.561863e+09 3.346091e+03 3.681144e+03 -3.075542e+03
-3.600957e+09 -3.400954e+09 -3.560965e+09 3.194070e+02 -5.431034e+03 3.446549e+03
-3.199668e+09 -2.999667e+09 -3.159679e+09 2.416118e+03 -7.906161e+03 4.994304e+03
-3.598507e+09 -3.398498e+09 -3.558507e+09 1.564692e+03 2.856877e+03 -3.847309e+03
-3.598546e+09 -3.398539e+09 -3.558573e+09 -1.386941e+03 1.234058e+04 9.642157e+02
-2.710210e+09 -2.510207e+09 -2.670208e+09 9.920895e+01 4.622808e+01 -7.830987e+01
-2.822960e+09 -2.622957e+09 -2.782959e+09 -2.605718e+03 1.291882e+03 8.876084e+02
-1.576993e+09 -1.376993e+09 -1.536992e+09 -2.378693e+03 9.579681e+02 1.264444e+02
-2.023308e+09 -1.823314e+09 -1.983313e+09 5.714735e+03 -1.166838e+04 5.741514e+03
-3.431738e+09 -3.231740e+09 -3.391740e+09 -1.443917e+03 4.167422e+01 -4.738302e+01
-3.582186e+09 -3.382189e+09 -3.542188e+09 -7.291782e+02 -1.095342e+01 -1.094740e+02
-2.901224e+09 -2.701233e+09 -2.861232e+09 2.885804e+03 -7.119128e+03 2.684849e+03
-3.610649e+09 -3.410649e+09 -3.570649e+09 -6.344990e+02 -3.196238e+01 -6.443358e+00
-3.569162e+09 -3.369163e+09 -3.529162e+09 1.369486e+03 -4.709834e+01 -2.797737e+02
-3.595445e+09 -3.395446e+09 -3.555446e+09 -8.755239e+02 -1.933459e+01 -1.006682e+01
-2.047967e+09 -1.847971e+09 -2.007970e+09 4.770628e+03 -5.980524e+03 4.000536e+03
-3.407565e+09 -3.207565e+09 -3.367570e+09 2.884009e+03 -4.784379e+03 3.389757e+03
-3.412259e+09 -3.212261e+09 -3.372269e+09 2.164698e+03 -6.544097e+03 3.213923e+03
-2.447227e+09 -2.247230e+09 -2.407230e+09 3.931680e+03 -4.820263e+03 2.717482e+03
-2.500206e+09 -2.300205e+09 -2.460206e+09 -4.909882e+02 -5.863788e+01 -1.891083e+01
-1.811961e+09 -1.611961e+09 -1.771962e+09 6.383614e+03 -8.986284e+03 6.284676e+03
-1.810973e+09 -1.610982e+09 -1.770976e+09 7.665130e+03 -1.043225e+04 5.472885e+03
-2.812853e+09 -2.612856e+09 -2.772872e+09 5.884498e+03 1.866393e+04 -7.540029e+03
-1.554622e+09 -1.354623e+09 -1.514623e+09 5.580136e+02 6.440581e+01 2.838440e+01
-1.590497e+09 -1.390499e+09 -1.550498e+09 -3.669960e+02 -1.850997e+01 5.185178e+01
-3.399571e+09 -3.199572e+09 -3.359584e+09 3.413311e+03 9.592656e+03 -3.668853e+03
-2.413430e+09 -2.213428e+09 -2.373440e+09 1.173288e+04 1.309458e+04 -1.131027e+04
-1.998086e+09 -1.798069e+09 -1.958080e+09 7.324111e+03 6.833561e+03 -1.109582e+04
-1.620122e+09 -1.420122e+09 -1.580123e+09 1.727096e+03 2.174771e+01 -4.785372e+02
-2.758526e+09 -2.558511e+09 -2.718539e+09 7.428346e+03 1.209195e+04 -1.418230e+04
-2.715821e+09 -2.515800e+09 -2.675845e+09 4.403271e+03 1.338769e+04 -1.149471e+04
-2.575564e+09 -2.375572e+09 -2.535600e+09 6.021547e+03 3.328880e+04 -9.101637e+03
-2.801947e+09 -2.601937e+09 -2.761953e+09 5.695867e+03 1.113481e+04 -1.044093e+04
-3.583489e+09 -3.383479e+09 -3.543488e+09 -1.578220e+03 8.763626e+02 3.202864e+03
-3.361195e+09 -3.161181e+09 -3.321200e+09 2.406348e+03 4.523183e+03 -5.797459e+03
-2.003328e+09 -1.803286e+09 -1.963407e+09 -6.181663e+03 5.352054e+04 -1.953691e+04
-1.999675e+09 -1.799678e+09 -1.959707e+09 1.295763e+04 4.345315e+04 -2.071787e+04
-2.747368e+09 -2.547364e+09 -2.707367e+09 -1.281578e+03 2.791002e+02 4.927880e+02
-1.566693e+09 -1.366736e+09 -1.526708e+09 -9.197995e+03 2.324402e+04 1.569782e+03
-3.577352e+09 -3.377343e+09 -3.537349e+09 2.846383e+02 -1.413641e+02 1.716829e+03
-1.786682e+09 -1.586681e+09 -1.746697e+09 3.312949e+04 3.334443e+04 -2.340190e+04
-1.806485e+09 -1.606498e+09 -1.766495e+09 2.022950e+04 2.512481e+04 -1.021141e+04
-2.409423e+09 -2.209440e+09 -2.369443e+09 9.118290e+03 1.882289e+04 -6.131823e+03
-1.973234e+09 -1.773233e+09 -1.933234e+09 -6.391026e+02 -4.553526e+01 -3.511583e+00
-2.587642e+09 -2.387642e+09 -2.547642e+09 -6.208670e+02 -3.927924e+01 -4.925325e+01
-2.333939e+09 -2.133939e+09 -2.293939e+09 -7.886618e+02 -7.981510e+01 -1.507757e+01
-1.574179e+09 -1.374214e+09 -1.534189e+09 -3.767484e+04 3.796593e+04 2.281097e+04
-1.782192e+09 -1.582192e+09 -1.742192e+09 -8.100384e+02 -1.043569e+02 -2.219782e+00
-3.390690e+09 -3.190689e+09 -3.350689e+09 3.359871e+02 2.214395e+01 -4.152011e+01
-3.608467e+09 -3.408459e+09 -3.568472e+09 -1.223918e+03 3.669338e+03 5.032765e+03
-3.583290e+09 -3.383297e+09 -3.543298e+09 2.639582e+03 4.837969e+03 -8.958373e+02
-3.408932e+09 -3.208932e+09 -3.368932e+09 3.175173e+02 3.165042e+01 1.307066e+01
-1.964372e+09 -1.764371e+09 -1.924372e+09 1.960461e+02 1.422470e+01 -8.658082e+00
-2.642025e+09 -2.442027e+09 -2.602027e+09 -2.159072e+03 1.030731e+02 -3.915304e+02
-3.577612e+09 -3.377613e+09 -3.537613e+09 -2.307568e+03 5.763228e+01 -2.188440e+02
-1.604227e+09 -1.404226e+09 -1.564226e+09 2.676966e+02 3.741391e+01 -3.824319e+01
-1.581318e+09 -1.381319e+09 -1.541319e+09 -1.423082e+03 -1.722956e+02 6.134258e+01
-1.582821e+09 -1.382821e+09 -1.542822e+09 1.304094e+03 3.594180e+01 -2.379046e+02
-2.205717e+09 -2.005716e+09 -2.165716e+09 2.000872e+02 1.176211e+01 -6.363802e+00
-3.598344e+09 -3.398344e+09 -3.558344e+09 -1.300691e+03 -7.361495e+01 7.108351e+01
-3.597596e+09 -3.397597e+09 -3.557597e+09 -9.682619e+02 -2.949615e+01 -1.179641e+01
-1.590732e+09 -1.390731e+09 -1.550731e+09 -4.089166e+02 -5.648107e+01 -1.046015e+01
-2.700731e+09 -2.500731e+09 -2.660731e+09 -1.131046e+03 -6.041576e+01 -2.426263e+01
-2.642652e+09 -2.442655e+09 -2.602654e+09 8.335147e+01 8.539886e+00 -7.274845e+01
-1.811939e+09 -1.611943e+09 -1.771942e+09 -1.374610e+02 -1.394442e+00 -1.987695e+02
-2.045819e+09 -1.845822e+09 -2.005822e+09 1.780171e+02 -6.067886e+01 -3.731155e+02
-2.309162e+09 -2.109165e+09 -2.269164e+09 -6.659462e+02 -1.739033e+01 -2.096832e+01
-2.904497e+09 -2.704500e+09 -2.864499e+09 3.767754e+02 2.977919e+01 -2.254611e+02
-3.571389e+09 -3.371390e+09 -3.531390e+09 -1.168002e+03 -6.299407e+01 6.664764e+01
-3.446609e+09 -3.246612e+09 -3.406611e+09 6.809952e+02 -3.347672e+01 -2.393669e+02
-3.122215e+09 -2.922212e+09 -3.082213e+09 -1.682597e+03 4.386980e+02 5.991257e+02
-1.580578e+09 -1.380578e+09 -1.540578e+09 -1.257929e+03 -3.732464e+02 3.647381e+02
-3.576997e+09 -3.376995e+09 -3.536996e+09 -1.044645e+03 -1.355470e+02 4.883078e+01
-3.038440e+09 -2.838443e+09 -2.998442e+09 -4.425194e+02 -3.128950e+01 -6.506240e+01
-1.580577e+09 -1.380577e+09 -1.540578e+09 -1.673244e+03 -2.245658e+02 2.084110e+02
-2.504290e+09 -2.304293e+09 -2.464292e+09 6.514745e+02 2.096388e+01 2.859034e+01
-3.415148e+09 -3.215151e+09 -3.375150e+09 7.729300e+02 4.180812e+01 -1.985667e+01
-2.691148e+09 -2.491151e+09 -2.651150e+09 2.082912e+02 1.836585e+01 -7.685860e+01
-3.372451e+09 -3.172456e+09 -3.332454e+09 1.209496e+02 -1.947322e+01 -1.189002e+03
-3.444368e+09 -3.244371e+09 -3.404370e+09 2.145231e+02 -1.971108e+01 -2.012250e+02
-3.234617e+09 -3.034620e+09 -3.194619e+09 8.729515e+01 3.157261e+01 -2.229617e+01
-2.621355e+09 -2.421351e+09 -2.581366e+09 -1.036734e+03 -7.953733e+03 5.333416e+03
-1.579893e+09 -1.379918e+09 -1.539899e+09 1.152858e+02 -9.521937e+03 9.889592e+02
-3.612376e+09 -3.412367e+09 -3.572292e+09 -4.898811e+03 -6.066842e+03 8.368724e+03
-3.153396e+09 -2.953390e+09 -3.113395e+09 -4.393131e+02 7.295488e+02 -1.871597e+03
-3.587691e+09 -3.387689e+09 -3.547695e+09 -2.468811e+03 -4.017281e+03 -1.873531e+03
-2.378478e+09 -2.178485e+09 -2.338486e+09 -6.187037e+03 -9.560148e+03 -3.643986e+03
-3.279265e+09 -3.079268e+09 -3.239267e+09 4.179559e+02 4.941260e+01 -1.091617e+02
-3.227566e+09 -3.027569e+09 -3.187568e+09 -9.520899e+01 3.996438e+00 -1.652629e+02
-3.198039e+09 -2.998042e+09 -3.158041e+09 -4.941549e+02 6.000809e+01 -2.605222e+02
-1.590241e+09 -1.390244e+09 -1.550241e+09 3.559827e+03 -2.730005e+03 1.387450e+03
-3.193900e+09 -2.993901e+09 -3.153902e+09 -2.118500e+03 -2.312348e+03 -4.805688e+02
-3.194254e+09 -2.994250e+09 -3.154256e+09 6.345023e+02 -1.800580e+03 2.264732e+03
-2.617036e+09 -2.417041e+09 -2.577039e+09 -2.919619e+03 -4.279210e+03 -1.038314e+03
-3.401997e+09 -3.201992e+09 -3.362005e+09 -3.147741e+03 -5.345212e+03 -3.054809e+03
-1.600762e+09 -1.400769e+09 -1.560763e+09 1.205449e+04 -1.454210e+04 8.391179e+03
-3.099040e+09 -2.899043e+09 -3.059046e+09 -4.109218e+03 -5.434769e+03 -2.179435e+03
-3.012905e+09 -2.812907e+09 -2.972908e+09 -3.191756e+03 -3.395609e+03 -1.473062e+03
-2.646059e+09 -2.446063e+09 -2.606060e+09 -3.148943e+03 2.169841e+03 -3.966627e+03
-2.721759e+09 -2.521765e+09 -2.681763e+09 -3.111814e+03 -4.405438e+03 -1.292613e+03
-3.609396e+09 -3.409378e+09 -3.569371e+09 2.449949e+03 1.041606e+04 3.737230e+03
-2.465306e+09 -2.265305e+09 -2.425305e+09 6.857179e+03 3.937034e+03 -2.902702e+03
-2.672139e+09 -2.472142e+09 -2.632145e+09 -3.839818e+03 -7.671794e+03 -3.045104e+03
-3.601061e+09 -3.401063e+09 -3.561073e+09 -1.546408e+02 -7.608037e+03 1.349267e+03
-3.281277e+09 -3.081280e+09 -3.241285e+09 -3.294579e+03 -7.066363e+03 -2.001931e+03
-1.774872e+09 -1.574877e+09 -1.734874e+09 -6.407432e+03 -5.886385e+03 -2.598206e+03
-1.779758e+09 -1.579776e+09 -1.739765e+09 6.461435e+02 -8.596804e+03 6.384405e+02
-3.418175e+09 -3.218138e+09 -3.378176e+09 -3.797292e+03 -1.621469e+04 5.810266e+03
-3.578562e+09 -3.378556e+09 -3.538558e+09 3.094552e+03 -1.081227e+03 -1.130212e+03
-3.400758e+09 -3.200755e+09 -3.360762e+09 -2.896485e+03 -4.515571e+03 -2.664790e+03
-1.896940e+09 -1.696948e+09 -1.856942e+09 -4.938066e+03 -4.619195e+03 -1.408349e+03
-3.603632e+09 -3.403636e+09 -3.563634e+09 -2.457144e+02 9.414713e+01 -1.075840e+03
-1.988687e+09 -1.788690e+09 -1.948690e+09 -5.083126e+02 -3.189731e+01 -1.079004e+02
-1.595978e+09 -1.395985e+09 -1.555979e+09 -4.708440e+03 -4.606923e+03 -1.448321e+03
-2.507796e+09 -2.307796e+09 -2.467797e+09 -1.915368e+03 -9.181875e+01 8.836367e+01
-3.062353e+09 -2.862351e+09 -3.022355e+09 -3.713838e+03 -2.797939e+03 -2.249423e+03
-2.811886e+09 -2.611889e+09 -2.771889e+09 2.471582e+03 -3.804159e+03 1.915011e+03
-2.283577e+09 -2.083585e+09 -2.243581e+09 3.456116e+03 -4.907801e+03 1.888411e+03
-3.592083e+09 -3.392086e+09 -3.552085e+09 4.805342e+02 1.723605e+00 -4.629960e+02
-2.281511e+09 -2.081519e+09 -2.241515e+09 2.944516e+03 -4.301093e+03 2.006089e+03
-3.358705e+09 -3.158707e+09 -3.318706e+09 -1.321013e+03 -4.966272e+01 -8.234677e+01
-2.029968e+09 -1.829970e+09 -1.989970e+09 8.200045e+02 3.412697e+01 -7.834257e+01
-3.399242e+09 -3.199244e+09 -3.359247e+09 1.538405e+03 -3.366318e+03 1.431022e+03
-3.092125e+09 -2.892132e+09 -3.052133e+09 2.412846e+03 -5.615857e+03 2.306493e+03
-2.354077e+09 -2.154093e+09 -2.314087e+09 -1.569851e+03 -1.144170e+04 3.562249e+01
-2.039963e+09 -1.839966e+09 -1.999965e+09 4.066044e+03 -5.684261e+03 2.844399e+03
-3.587295e+09 -3.387298e+09 -3.547291e+09 7.154410e+02 -1.570539e+01 -3.748258e+03
-2.712231e+09 -2.512235e+09 -2.672234e+09 3.692246e+03 -4.941789e+03 2.779236e+03
-1.547217e+09 -1.347215e+09 -1.507216e+09 1.703461e+02 5.101190e+01 -1.264428e+02
-1.584234e+09 -1.384233e+09 -1.544233e+09 2.179610e+02 1.125696e+02 -6.080273e+01
-2.679893e+09 -2.479900e+09 -2.639899e+09 2.527061e+03 -6.061627e+03 1.836800e+03
-3.202731e+09 -3.002733e+09 -3.162734e+09 2.470079e+03 -2.914903e+03 1.478446e+03
-3.008693e+09 -2.808701e+09 -2.968703e+09 7.545926e+02 -7.380449e+03 2.668777e+03
-2.653030e+09 -2.453030e+09 -2.613030e+09 4.351110e+02 7.070270e+01 -9.678342e+00
-1.784735e+09 -1.584735e+09 -1.744735e+09 2.710415e+02 6.302325e+01 -3.134788e+01
-3.604901e+09 -3.404900e+09 -3.564901e+09 5.457248e+02 2.120711e+01 -2.744866e+01
-3.297979e+09 -3.097978e+09 -3.257979e+09 5.984675e+02 6.769270e+01 -5.939797e+01
-2.707047e+09 -2.507051e+09 -2.667050e+09 2.610905e+03 -3.748230e+03 1.889213e+03
-1.578665e+09 -1.378664e+09 -1.538664e+09 -7.999414e+01 7.674805e+01 -1.409442e+02
-3.313898e+09 -3.113896e+09 -3.273897e+09 4.654334e+02 7.566414e+01 -4.390818e+01
-1.574983e+09 -1.374982e+09 -1.534982e+09 -2.403804e+02 9.407668e+01 -1.114306e+02
-1.900651e+09 -1.700659e+09 -1.860653e+09 3.947525e+03 -4.061186e+03 1.589028e+03
-2.006362e+09 -1.806374e+09 -1.966369e+09 1.036924e+04 1.698845e+04 -7.974840e+03
-1.585772e+09 -1.385804e+09 -1.545783e+09 -1.362315e+03 -1.709442e+04 -3.810792e+02
-3.016352e+09 -2.816348e+09 -2.976352e+09 -4.316348e+03 2.723139e+03 3.215691e+03
-1.594883e+09 -1.394874e+09 -1.554873e+09 -2.174365e+04 -3.264132e+04 3.137844e+04
-2.821673e+09 -2.621672e+09 -2.781706e+09 6.584582e+02 2.471766e+04 -3.982313e+03
-1.989539e+09 -1.789539e+09 -1.949546e+09 1.262965e+04 1.811144e+04 -1.405693e+04
-3.391904e+09 -3.191905e+09 -3.351922e+09 6.378683e+03 1.131214e+04 -4.944682e+03
-2.832131e+09 -2.632135e+09 -2.792150e+09 6.129760e+03 1.906090e+04 -7.759782e+03
-2.003491e+09 -1.803489e+09 -1.963498e+09 1.205456e+04 1.944328e+04 -1.470588e+04
-2.406266e+09 -2.206278e+09 -2.366275e+09 1.016942e+04 1.246832e+04 -6.379065e+03
-3.390454e+09 -3.190444e+09 -3.350458e+09 2.010976e+03 4.007229e+03 -5.051168e+03
-3.155029e+09 -2.955008e+09 -3.115028e+09 -2.145756e+02 2.848421e+02 -9.459742e+03
-1.794826e+09 -1.594866e+09 -1.754842e+09 1.817057e+03 2.187680e+04 -4.352950e+03
-1.786805e+09 -1.586825e+09 -1.746811e+09 6.574815e+03 1.095516e+04 -3.974721e+03
-1.597477e+09 -1.397471e+09 -1.557476e+09 1.185096e+04 -8.216738e+03 1.022864e+04
-1.989169e+09 -1.789192e+09 -1.949180e+09 5.182935e+03 1.943222e+04 -3.495874e+03
-3.260606e+09 -3.060615e+09 -3.220607e+09 7.682912e+03 6.873271e+03 7.290066e+03
-1.987474e+09 -1.787487e+09 -1.947478e+09 7.146435e+03 1.090429e+04 -3.582415e+03
-3.543103e+09 -3.343090e+09 -3.503114e+09 1.574809e+03 1.285628e+03 5.820501e+03
-3.417065e+09 -3.217060e+09 -3.377093e+09 1.236607e+03 1.105102e+04 -2.198792e+03
-3.626086e+09 -3.426090e+09 -3.586086e+09 1.894892e+03 4.733943e+02 -2.066258e+02
-2.353022e+09 -2.152986e+09 -2.313032e+09 2.383543e+03 -5.417144e+03 -1.865661e+04
-1.591050e+09 -1.391028e+09 -1.551052e+09 -2.257403e+03 -3.931506e+03 -4.826648e+03
-1.575800e+09 -1.375749e+09 -1.535822e+09 -1.185427e+04 -7.992642e+03 -7.948190e+03
-2.688313e+09 -2.488286e+09 -2.648293e+09 -1.878671e+04 -3.031472e+04 1.424637e+04
-3.164383e+09 -2.964356e+09 -3.124388e+09 1.744755e+03 -9.749565e+03 -6.242665e+03
-1.591427e+09 -1.391446e+09 -1.551433e+09 1.973888e+03 7.356438e+03 -4.467880e+02
-2.044089e+09 -1.844096e+09 -2.004094e+09 -1.024637e+04 1.514853e+04 8.188057e+03
-3.550896e+09 -3.350898e+09 -3.510897e+09 3.466726e+02 4.092354e+00 1.340327e+01
-3.579295e+09 -3.379295e+09 -3.539295e+09 6.847519e+02 -2.140400e+00 -5.116965e+01
-2.008515e+09 -1.808529e+09 -1.968552e+09 3.464086e+03 4.445677e+04 -9.490508e+03
-1.619876e+09 -1.419876e+09 -1.579876e+09 5.319450e+02 6.765399e+01 -3.719311e+01
-2.798078e+09 -2.598073e+09 -2.758078e+09 -1.059238e+03 -1.407877e+03 2.400559e+03
-1.593557e+09 -1.393560e+09 -1.553559e+09 -6.071585e+02 -3.240674e+01 -1.803396e+02
-2.841965e+09 -2.641957e+09 -2.801969e+09 2.655906e+02 -6.121257e+03 6.337969e+03
-3.601870e+09 -3.401872e+09 -3.561871e+09 1.036690e+03 -2.410691e+00 -3.563604e+02
-2.831977e+09 -2.631971e+09 -2.791978e+09 -3.465181e+03 9.902667e+02 2.233628e+03
-2.791239e+09 -2.591231e+09 -2.751242e+09 -2.046631e+02 -2.960986e+03 4.670040e+03
-3.627830e+09 -3.427829e+09 -3.587829e+09 1.944925e+03 -3.492074e+02 -7.000466e+02
-1.570073e+09 -1.370072e+09 -1.530072e+09 -1.225867e+03 4.059182e+02 1.344703e+02
-2.600999e+09 -2.400998e+09 -2.560998e+09 3.980270e+01 1.025009e+02 -6.254727e+01
-3.598946e+09 -3.398945e+09 -3.558946e+09 1.458835e+03 3.528204e+01 -2.502341e+02
-3.619339e+09 -3.419338e+09 -3.579339e+09 1.239398e+03 -5.296001e+01 -2.521181e+02
-3.413683e+09 -3.213682e+09 -3.373682e+09 2.280116e+02 5.174300e+01 -1.541893e+01
-2.511066e+09 -2.311065e+09 -2.471065e+09 1.887899e+02 6.950087e+01 -5.599946e+01
-2.744228e+09 -2.544227e+09 -2.704227e+09 1.793866e+02 6.757804e+01 -5.899954e+01
-2.472504e+09 -2.272503e+09 -2.432503e+09 6.476019e+01 1.749957e+01 -8.454287e+01
-2.565536e+09 -2.365535e+09 -2.525535e+09 1.401924e+02 2.717512e+01 -4.553447e+01
-2.831318e+09 -2.631312e+09 -2.791315e+09 -6.056337e+02 9.818259e+00 7.290739e+02
-1.594075e+09 -1.394088e+09 -1.554079e+09 -2.531848e+03 4.260283e+03 3.745097e+02
-3.404686e+09 -3.204685e+09 -3.364685e+09 -4.722048e+02 1.329679e+02 -2.930526e+01
-1.956806e+09 -1.756805e+09 -1.916805e+09 1.471104e+02 3.368192e+01 -2.912242e+01
-2.040049e+09 -1.840048e+09 -2.000048e+09 4.005836e+02 2.472541e+01 -3.119970e+01
-1.588148e+09 -1.388147e+09 -1.548147e+09 -3.671930e+02 8.991280e+01 -1.497731e+02
-1.596306e+09 -1.396304e+09 -1.556305e+09 1.595972e+02 1.126933e+02 -1.544326e+02
-3.610341e+09 -3.410340e+09 -3.570340e+09 4.010546e+02 9.198190e+00 -2.192202e-01
-3.622410e+09 -3.422409e+09 -3.582410e+09 1.001547e+03 3.906342e+01 -7.056732e+01
-1.588010e+09 -1.388009e+09 -1.548009e+09 2.468494e+02 1.260882e+02 -1.512094e+02
-3.591860e+09 -3.391859e+09 -3.551860e+09 6.740598e+02 2.311301e+01 -4.691096e+01
-3.594777e+09 -3.394777e+09 -3.554777e+09 9.232845e+02 -7.094778e+00 -1.153746e+02
-2.664742e+09 -2.464744e+09 -2.624744e+09 7.071897e+02 4.441547e+01 -5.983274e+01
-2.544329e+09 -2.344330e+09 -2.504330e+09 1.107305e+03 -7.407284e+00 -3.326600e+02
-2.332815e+09 -2.132814e+09 -2.292814e+09 -1.635186e+02 8.943902e+01 -7.722791e+01
-1.781734e+09 -1.581749e+09 -1.741738e+09 7.630325e+03 9.533517e+03 -3.172096e+03
-1.579735e+09 -1.379738e+09 -1.539735e+09 -1.329321e+03 4.540905e+02 -7.221352e+01
-2.536623e+09 -2.336590e+09 -2.496635e+09 -2.089469e+03 9.815906e+03 1.158564e+04
-3.587814e+09 -3.387823e+09 -3.547820e+09 8.807823e+01 2.199480e+03 -8.845256e+01
-3.201009e+09 -3.001008e+09 -3.161018e+09 6.737767e+03 7.985362e+03 -4.956848e+03
-3.589693e+09 -3.389693e+09 -3.549693e+09 -1.295755e+03 2.940673e+02 5.149174e+01
-1.985892e+09 -1.785896e+09 -1.945893e+09 8.958993e+03 8.661779e+03 -5.364979e+03
-2.385130e+09 -2.185131e+09 -2.345133e+09 7.171640e+03 6.288163e+03 -3.645871e+03
-1.885351e+09 -1.685348e+09 -1.845350e+09 5.898436e+03 3.798303e+03 -2.482008e+03
-2.834654e+09 -2.634631e+09 -2.794496e+09 2.025587e+03 -2.041401e+04 -2.392441e+04
-3.558880e+09 -3.358882e+09 -3.518889e+09 -3.872041e+03 6.525984e+03 2.942607e+03
-3.583489e+09 -3.383482e+09 -3.543489e+09 -2.558814e+03 1.997540e+03 2.910758e+03
-2.639143e+09 -2.439092e+09 -2.598983e+09 -1.729615e+04 2.890937e+03 1.273554e+04
-1.571745e+09 -1.371744e+09 -1.531743e+09 -8.982862e+03 4.652310e+03 3.360108e+03
-1.779427e+09 -1.579354e+09 -1.739425e+09 -2.255944e+04 8.005713e+03 -5.768180e+03
-1.571916e+09 -1.371925e+09 -1.531916e+09 -7.695902e+03 7.145667e+03 3.409185e+03
-2.814113e+09 -2.614090e+09 -2.774089e+09 -1.362282e+04 -9.848376e+03 9.203488e+03
-2.077999e+09 -1.878022e+09 -2.038009e+09 -3.986438e+03 1.629826e+04 3.650728e+03
-3.605229e+09 -3.405215e+09 -3.565230e+09 2.677439e+03 -2.996996e+03 1.331316e+03
-3.588414e+09 -3.388418e+09 -3.548424e+09 3.514192e+03 6.362280e+03 -1.777144e+03
-3.162178e+09 -2.962189e+09 -3.122199e+09 1.304968e+03 1.341118e+04 -7.594087e+02
-1.745451e+09 -1.545476e+09 -1.705461e+09 1.800195e+03 1.468408e+04 -8.940785e+02
-1.957523e+09 -1.757540e+09 -1.917534e+09 3.643948e+03 1.781454e+04 -1.965789e+03
-2.345667e+09 -2.145684e+09 -2.305679e+09 4.763817e+03 1.200790e+04 -1.929284e+03
-1.895492e+09 -1.695495e+09 -1.855491e+09 1.472719e+03 2.239413e+02 -6.937145e+01
-2.339340e+09 -2.139361e+09 -2.299354e+09 5.728578e+03 1.355169e+04 -3.136205e+03
-3.194429e+09 -2.994432e+09 -3.154431e+09 1.618688e+03 -1.009296e+02 -8.672397e+02
-2.526699e+09 -2.326712e+09 -2.486709e+09 4.246413e+03 1.067187e+04 -1.761716e+03
-2.444409e+09 -2.244423e+09 -2.404417e+09 -2.807585e+03 7.511782e+03 1.372202e+03
-2.460694e+09 -2.260715e+09 -2.420710e+09 -2.216457e+03 1.884498e+04 1.380737e+03
-2.344399e+09 -2.144423e+09 -2.304418e+09 -7.482146e+02 1.917584e+04 6.432433e+02
-1.607433e+09 -1.407426e+09 -1.567430e+09 1.223565e+04 -9.319010e+03 1.000256e+04
-1.960376e+09 -1.760399e+09 -1.920385e+09 1.098867e+03 1.537210e+04 7.257022e+02
-3.600955e+09 -3.400956e+09 -3.560965e+09 1.421450e+03 -5.837548e+03 2.542566e+03
-2.391445e+09 -2.191468e+09 -2.351464e+09 5.102084e+03 2.148102e+04 -3.515633e+03
-2.521601e+09 -2.321604e+09 -2.481603e+09 4.819502e+02 5.580014e+01 -9.685128e+01
-3.102059e+09 -2.902070e+09 -3.062074e+09 -3.232802e+03 1.125736e+04 2.754997e+03
-2.773415e+09 -2.573414e+09 -2.733414e+09 -6.518009e+02 -2.384051e+02 1.455626e+02
-3.492572e+09 -3.292575e+09 -3.452572e+09 4.896018e+03 1.401308e+03 3.032137e+03
-3.399819e+09 -3.199817e+09 -3.359818e+09 -6.651316e+02 -2.291814e+02 4.915939e+01
-2.494926e+09 -2.294924e+09 -2.454924e+09 -2.240972e+02 -2.443502e+02 9.338830e+01
-3.002992e+09 -2.802990e+09 -2.962991e+09 -4.110656e+02 -1.916229e+02 3.067425e+01
-2.483600e+09 -2.283599e+09 -2.443599e+09 -3.951900e+02 -2.466653e+02 8.997623e+00
-1.595129e+09 -1.395128e+09 -1.555128e+09 7.951261e+01 -4.493876e+02 1.970731e+02
-3.214776e+09 -3.014775e+09 -3.174776e+09 -1.349945e+03 -1.414005e+02 6.713306e+01
-3.212644e+09 -3.012642e+09 -3.172643e+09 -3.565461e+02 -3.764420e+02 2.723889e+02
-3.301223e+09 -3.101222e+09 -3.261222e+09 -4.745554e+02 -1.407982e+02 1.995354e+01
-2.530198e+09 -2.330198e+09 -2.490199e+09 -1.287651e+03 -6.604066e+01 8.290697e+01
-3.571389e+09 -3.371390e+09 -3.531390e+09 -1.349789e+03 -5.396065e+01 -8.755951e+00
-1.597069e+09 -1.397069e+09 -1.557070e+09 -1.090051e+03 -2.221492e+02 5.824734e+01
-2.427123e+09 -2.227096e+09 -2.387110e+09 -1.104737e+03 -3.970077e+03 9.541994e+03
-2.634900e+09 -2.434885e+09 -2.594888e+09 4.035303e+03 -7.108395e+03 -1.384697e+03
-1.590641e+09 -1.390641e+09 -1.550642e+09 -1.366956e+03 -2.267510e+02 9.837764e+01
-2.843999e+09 -2.643977e+09 -2.803998e+09 6.350936e+03 -4.596694e+03 -2.406459e+01
-3.421878e+09 -3.221865e+09 -3.381870e+09 1.000326e+04 -1.177459e+04 -5.192663e+03
-2.652670e+09 -2.452643e+09 -2.612660e+09 1.595785e+03 -6.590126e+03 5.777876e+03
-3.236610e+09 -3.036591e+09 -3.196591e+09 7.234848e+03 -1.392306e+04 -1.527633e+03
-3.588613e+09 -3.388595e+09 -3.548610e+09 1.212024e+03 -3.921323e+03 -1.296822e+03
-3.573075e+09 -3.373078e+09 -3.533096e+09 -1.487296e+03 1.220717e+04 1.026994e+03
-2.780060e+09 -2.580045e+09 -2.740062e+09 -4.250614e+03 -6.076065e+03 7.710964e+03
-3.358760e+09 -3.158761e+09 -3.318761e+09 3.627387e+02 3.587175e+01 1.722218e+01
-2.788225e+09 -2.588226e+09 -2.748226e+09 6.719411e+02 5.641293e+01 -1.574553e+01
-3.588115e+09 -3.388115e+09 -3.548123e+09 4.244329e+03 5.275280e+03 -2.804210e+03
-3.596331e+09 -3.396320e+09 -3.556327e+09 -3.237905e+02 -3.061836e+02 4.026129e+03
-2.656213e+09 -2.456204e+09 -2.616213e+09 5.518298e+03 5.246358e+03 -5.345657e+03
-1.594081e+09 -1.394072e+09 -1.554078e+09 4.552722e+02 -7.914478e+02 2.862735e+03
-3.200366e+09 -3.000363e+09 -3.160370e+09 5.478652e+03 4.867027e+03 -3.634205e+03
-1.969875e+09 -1.769876e+09 -1.929876e+09 -1.302547e+03 -8.834632e+01 -3.073552e+01
-3.630972e+09 -3.430975e+09 -3.590974e+09 -9.303628e+02 2.436223e+01 -2.176854e+02
-3.578358e+09 -3.378360e+09 -3.538360e+09 -1.406012e+03 -1.177119e+01 -9.165519e+01
-3.382847e+09 -3.182829e+09 -3.342845e+09 -2.627584e+03 -1.767903e+03 -5.900074e+03
-2.852242e+09 -2.652236e+09 -2.812241e+09 3.565666e+03 1.869756e+03 -2.651445e+03
-2.791168e+09 -2.591154e+09 -2.751165e+09 1.019013e+03 2.327089e+03 -6.846342e+03
-1.554801e+09 -1.354801e+09 -1.514801e+09 6.093684e+02 9.276908e+01 -2.411564e+01
-1.981307e+09 -1.781285e+09 -1.941307e+09 2.009941e+03 1.168491e+03 -8.081250e+03
-3.418042e+09 -3.218042e+09 -3.378042e+09 1.194954e+03 2.439455e+01 -1.443076e+02
-1.874984e+09 -1.674981e+09 -1.834981e+09 2.933761e+03 -2.144510e+03 2.119539e+03
-1.994846e+09 -1.794845e+09 -1.954845e+09 8.374685e+02 8.229162e+01 -9.559835e+01
-1.602776e+09 -1.402776e+09 -1.562776e+09 5.547804e+02 8.110948e+01 -3.285582e+01
-3.607780e+09 -3.407778e+09 -3.567778e+09 3.018649e+02 1.423730e+01 -1.280348e+02
-1.972915e+09 -1.772912e+09 -1.932913e+09 -5.327414e+02 -4.886210e+02 6.633611e+02
-2.596274e+09 -2.396270e+09 -2.556273e+09 -6.390940e+02 -1.155107e+03 1.392939e+03
-1.977815e+09 -1.777817e+09 -1.937816e+09 -5.609979e+02 -1.994102e+01 -3.005708e+00
-3.594337e+09 -3.394336e+09 -3.554336e+09 9.540269e+01 6.190986e+01 -3.568678e+01
-2.362059e+09 -2.162056e+09 -2.322058e+09 -1.306131e+03 -5.759321e+02 5.706781e+02
-1.584234e+09 -1.384233e+09 -1.544233e+09 4.252452e+02 1.016785e+02 -5.839431e+01
-2.612978e+09 -2.412981e+09 -2.572981e+09 2.503823e+03 -3.756973e+03 1.866065e+03
-1.591549e+09 -1.391546e+09 -1.551547e+09 -6.827438e+02 2.448097e+02 2.651997e+01
-1.910419e+09 -1.710418e+09 -1.870418e+09 -1.032643e+02 4.333798e+01 -6.378747e+01
-1.977399e+09 -1.777398e+09 -1.937399e+09 2.883661e+02 2.548533e+01 -9.823521e+00
-3.374686e+09 -3.174684e+09 -3.334685e+09 -2.093872e+02 4.872596e+01 -1.125263e+02
-2.506623e+09 -2.306626e+09 -2.466624e+09 3.188118e+03 -3.163953e+03 1.846640e+03
-3.597265e+09 -3.397265e+09 -3.557265e+09 8.281909e+02 9.923907e+00 -3.181496e+01
-2.677827e+09 -2.477836e+09 -2.637833e+09 1.914913e+03 -5.987312e+03 1.874268e+03
-3.090059e+09 -2.890066e+09 -3.050065e+09 2.031799e+03 -4.369081e+03 1.449269e+03
-1.561368e+09 -1.361367e+09 -1.521367e+09 -9.133451e+01 1.017246e+02 -1.534110e+02
-2.006985e+09 -1.806994e+09 -1.966993e+09 6.584535e+03 -1.200440e+04 6.434431e+03
-2.654454e+09 -2.454457e+09 -2.614458e+09 2.566652e+03 -5.701609e+03 2.903461e+03
-2.605323e+09 -2.405329e+09 -2.565326e+09 2.044936e+03 -3.476820e+03 1.170164e+03
-3.580332e+09 -3.380333e+09 -3.540333e+09 -2.875747e+03 1.211668e+03 8.096061e+02
-2.396911e+09 -2.196910e+09 -2.356911e+09 4.418410e+03 -4.228488e+03 3.771066e+03
-2.815681e+09 -2.615682e+09 -2.775683e+09 2.535699e+03 -3.738991e+03 2.369722e+03
-3.401140e+09 -3.201141e+09 -3.361143e+09 2.648810e+03 -3.009847e+03 2.171038e+03
-1.993936e+09 -1.793935e+09 -1.953935e+09 3.056405e+03 -2.844506e+03 2.529665e+03
-3.606245e+09 -3.406240e+09 -3.566252e+09 -3.094462e+03 -2.570103e+03 3.921259e+03
-3.595580e+09 -3.395565e+09 -3.555552e+09 -7.323405e+03 4.027528e+03 -7.334797e+03
-2.915478e+09 -2.715482e+09 -2.875486e+09 4.364251e+03 -7.504519e+03 3.575561e+03
-2.408450e+09 -2.208451e+09 -2.368451e+09 3.422740e+03 -3.161419e+03 2.210221e+03
-2.881479e+09 -2.681472e+09 -2.841483e+09 -4.232409e+03 3.479550e+02 3.134085e+03
-1.561389e+09 -1.361388e+09 -1.521388e+09 2.311824e+02 4.712360e+01 -4.203295e+01
-3.212997e+09 -3.012998e+09 -3.173000e+09 2.541856e+03 -3.166344e+03 2.094018e+03
-1.768075e+09 -1.568075e+09 -1.728074e+09 -1.772876e+02 1.909974e+01 -1.079677e+02
-1.875984e+09 -1.675983e+09 -1.835984e+09 1.228353e+02 2.207354e+01 -2.175873e+01
-2.591870e+09 -2.391869e+09 -2.551869e+09 1.550140e+02 1.588477e+01 -1.590865e+01
-1.793581e+09 -1.593584e+09 -1.753581e+09 2.829404e+03 -3.276993e+03 1.764523e+03
-3.081558e+09 -2.881565e+09 -3.041560e+09 1.372068e+03 6.246233e+02 -1.063590e+02
-2.072340e+09 -1.872347e+09 -2.032341e+09 1.493677e+03 6.233764e+02 -9.908534e+01
-3.299953e+09 -3.099952e+09 -3.259952e+09 7.428976e+01 1.465761e+01 -2.936073e+01
-1.989844e+09 -1.789852e+09 -1.949846e+09 8.196739e+02 1.152767e+03 1.222771e+01
-3.183984e+09 -2.983990e+09 -3.143985e+09 1.618595e+03 7.013476e+02 4.688526e+01
-1.895741e+09 -1.695740e+09 -1.855740e+09 2.577383e+02 7.644187e+01 -5.383953e+01
-3.605533e+09 -3.405531e+09 -3.565532e+09 1.470220e+02 -5.522408e-01 1.060063e+01
-2.588424e+09 -2.388431e+09 -2.548425e+09 6.681050e+02 8.718551e+02 5.085817e+01
-2.703070e+09 -2.503078e+09 -2.663072e+09 9.253124e+02 8.518700e+02 1.351286e+01
-2.394500e+09 -2.194508e+09 -2.354502e+09 8.248965e+02 1.155267e+03 -6.475762e+01
-3.189392e+09 -2.989391e+09 -3.149391e+09 3.354972e+02 4.257433e+01 -2.570173e+01
-1.876022e+09 -1.676021e+09 -1.836021e+09 1.173989e+02 2.096249e+01 -3.490081e+01
-1.561389e+09 -1.361388e+09 -1.521388e+09 2.227610e+02 4.858330e+01 -4.175001e+01
-3.395975e+09 -3.195983e+09 -3.355979e+09 1.073374e+03 1.308629e+03 9.742473e+01
-3.308372e+09 -3.108371e+09 -3.268372e+09 2.416497e+02 2.540832e+01 -2.434569e+01
-3.212880e+09 -3.012879e+09 -3.172879e+09 4.691546e+02 6.357222e+01 -4.220892e+01
-3.559860e+09 -3.359864e+09 -3.519863e+09 -2.092737e+02 4.604586e+01 -6.212824e+02
-1.809828e+09 -1.609837e+09 -1.769830e+09 1.848664e+03 1.465304e+03 -3.067452e+02
-1.801755e+09 -1.601763e+09 -1.761757e+09 1.098412e+03 8.954976e+02 -7.700580e+01
-1.571388e+09 -1.371390e+09 -1.531390e+09 -6.798355e+02 -4.377272e+01 1.045548e+01
-1.600566e+09 -1.400569e+09 -1.560568e+09 -4.096900e+02 -3.924539e+00 -6.022804e+01
-3.446803e+09 -3.246804e+09 -3.406804e+09 1.494007e+03 1.708103e+01 -2.712232e+02
-3.000011e+09 -2.800017e+09 -2.960012e+09 6.601522e+02 5.282795e+02 -6.534053e+01
-2.486179e+09 -2.286187e+09 -2.446181e+09 6.384334e+02 6.779103e+02 -2.202372e+00
-1.571388e+09 -1.371391e+09 -1.531390e+09 -5.225274e+02 -2.847180e+00 -3.140054e+01
-3.610016e+09 -3.410017e+09 -3.570017e+09 1.399796e+03 -5.111045e+01 -4.164276e+02
-2.591215e+09 -2.391205e+09 -2.551154e+09 -1.253384e+04 -1.737785e+04 3.606669e+04
-2.622944e+09 -2.422867e+09 -2.582878e+09 -2.373463e+03 -3.935590e+04 1.667925e+04
-2.019302e+09 -1.819278e+09 -1.979143e+09 1.355897e+04 1.982275e+04 5.056096e+04
-1.599588e+09 -1.399588e+09 -1.559588e+09 6.479043e+02 8.918230e+01 -4.894276e+01
-2.845412e+09 -2.645398e+09 -2.805295e+09 3.774234e+03 1.796808e+03 2.069301e+04
-2.847635e+09 -2.647609e+09 -2.807511e+09 1.754597e+03 1.759766e+03 1.710114e+04
-3.623697e+09 -3.423700e+09 -3.583699e+09 2.563428e+02 6.203229e-01 -1.948369e+02
-2.666119e+09 -2.466119e+09 -2.626105e+09 1.258202e+04 1.376480e+04 2.289009e+04
-2.372153e+09 -2.172153e+09 -2.332153e+09 6.730109e+02 7.003494e+01 -2.433379e+01
-2.844694e+09 -2.644665e+09 -2.804587e+09 1.111438e+03 3.475881e+04 -5.992764e+02
-3.593348e+09 -3.393352e+09 -3.553351e+09 -5.898102e+02 3.122641e+01 -2.693143e+02
-3.630972e+09 -3.430974e+09 -3.590974e+09 -1.477783e+03 4.953053e+01 9.742305e+01
-3.582186e+09 -3.382189e+09 -3.542188e+09 -5.630648e+02 8.293451e+00 -1.168286e+02
-1.808826e+09 -1.608777e+09 -1.768818e+09 2.671789e+03 2.133530e+04 -4.076103e+03
-2.629848e+09 -2.429796e+09 -2.589828e+09 3.116860e+03 2.268521e+04 -7.059770e+03
-2.068428e+09 -1.868429e+09 -2.028429e+09 -1.085956e+03 -9.148374e+01 4.580705e+01
-1.590089e+09 -1.390091e+09 -1.550091e+09 -9.613464e+02 -6.032179e+01 4.640264e+01
-3.578529e+09 -3.378535e+09 -3.538545e+09 2.019966e+03 9.575064e+03 -7.384793e+02
-2.580995e+09 -2.381011e+09 -2.541006e+09 3.550998e+03 1.086515e+04 -1.936491e+03
-3.172509e+09 -2.972508e+09 -3.132508e+09 -7.759488e+01 7.501092e+01 -6.139827e+01
-1.568551e+09 -1.368489e+09 -1.528538e+09 -5.551435e+03 -7.580226e+04 2.377441e+04
-1.821541e+09 -1.621491e+09 -1.781251e+09 2.669937e+04 3.899195e+04 9.024230e+04
-3.598546e+09 -3.398542e+09 -3.558575e+09 -1.129982e+03 1.506799e+04 2.022089e+03
-1.647332e+09 -1.447263e+09 -1.607326e+09 3.551918e+04 -4.868901e+03 -3.795159e+04
-2.581523e+09 -2.381524e+09 -2.541524e+09 -9.216065e+02 -6.152925e+01 -6.891771e+00
-1.571911e+09 -1.371924e+09 -1.531915e+09 -7.811011e+03 7.183275e+03 2.900589e+03
-3.609492e+09 -3.409498e+09 -3.569498e+09 -2.632624e+03 3.146381e+03 7.121160e+02
-3.204653e+09 -3.004653e+09 -3.164653e+09 -1.013585e+03 -6.294793e+01 -7.765226e+00
-3.127785e+09 -2.927785e+09 -3.087785e+09 -1.203151e+03 -1.260857e+02 -3.064937e+01
-3.595481e+09 -3.395490e+09 -3.555489e+09 1.572405e+03 3.592623e+03 -6.176871e+02
-2.802692e+09 -2.602693e+09 -2.762693e+09 -6.716085e+02 -2.291297e+01 1.149306e+01
-1.574356e+09 -1.374365e+09 -1.534365e+09 2.916256e+04 2.166536e+04 -2.428326e+04
-3.342734e+09 -3.142734e+09 -3.302734e+09 -8.604716e+02 -5.399260e+01 -3.144376e+01
-2.526906e+09 -2.326906e+09 -2.486906e+09 -8.541169e+02 -9.578678e+01 6.030040e+01
-3.149780e+09 -2.949779e+09 -3.109780e+09 -9.100911e+02 -7.033755e+01 3.478625e+01
-2.622551e+09 -2.422550e+09 -2.582550e+09 -1.003059e+03 -1.679124e+02 4.428589e+01
-3.606042e+09 -3.406038e+09 -3.566035e+09 -6.700608e+03 -7.156390e+03 4.488638e+03
-3.608469e+09 -3.408460e+09 -3.568472e+09 -1.605699e+03 3.364753e+03 4.651295e+03
-3.193798e+09 -2.993797e+09 -3.153798e+09 -9.139473e+02 -9.878516e+01 3.883785e+00
-3.196201e+09 -2.996198e+09 -3.156206e+09 2.103536e+03 -3.613253e+03 3.332397e+03
-3.606245e+09 -3.406239e+09 -3.566253e+09 -1.739239e+03 -4.413010e+03 4.092369e+03
-2.233979e+09 -2.033978e+09 -2.193978e+09 -5.284488e+02 -8.418729e+01 -4.238449e+01
-3.084605e+09 -2.884604e+09 -3.044604e+09 -6.408029e+02 -1.011878e+02 -9.468572e+00
-2.680216e+09 -2.480214e+09 -2.640215e+09 -6.391407e+02 -6.552428e+01 3.193832e+00
-1.747170e+09 -1.547173e+09 -1.707173e+09 -1.402747e+03 1.191205e+02 -4.893236e+02
-3.194910e+09 -2.994909e+09 -3.154909e+09 -8.450792e+02 -1.759464e+02 7.645861e+00
-1.972742e+09 -1.772741e+09 -1.932740e+09 -6.862860e+02 6.032977e+01 -5.386386e+01
-3.606627e+09 -3.406622e+09 -3.566630e+09 -3.631603e+03 -1.287272e+02 1.861610e+03
-3.162621e+09 -2.962628e+09 -3.122636e+09 -1.541804e+03 -1.065774e+04 7.433226e+02
-2.567786e+09 -2.367785e+09 -2.527785e+09 -7.145558e+02 -2.351494e+02 9.274932e+01
-3.386498e+09 -3.186497e+09 -3.346497e+09 -9.050622e+02 -1.524814e+02 -3.604686e+00
-1.772107e+09 -1.572105e+09 -1.732106e+09 -5.970864e+02 -1.670287e+02 -9.203057e+01
-3.287947e+09 -3.087912e+09 -3.247938e+09 -3.957871e+03 1.274293e+04 -6.314177e+03
-1.583805e+09 -1.383804e+09 -1.543805e+09 -4.664587e+02 -1.948507e+02 1.886895e+01
-1.579893e+09 -1.379913e+09 -1.539899e+09 1.502358e+03 -9.619186e+03 1.367688e+03
-1.580545e+09 -1.380568e+09 -1.540552e+09 4.567783e+03 -1.369576e+04 2.853014e+03
-1.580540e+09 -1.380565e+09 -1.540550e+09 2.521300e+03 -1.330662e+04 1.954230e+03
-2.126958e+09 -1.926957e+09 -2.086957e+09 -5.317804e+02 -1.286201e+02 -2.184751e+01
-3.160674e+09 -2.960673e+09 -3.120673e+09 -6.520865e+02 -1.148631e+02 2.819647e+01
-1.689379e+09 -1.489378e+09 -1.649378e+09 1.437132e+02 4.145295e+01 -5.506167e+01
-2.074530e+09 -1.874529e+09 -2.034529e+09 -3.944134e+02 -1.439144e+02 2.064772e+01
-3.135087e+09 -2.935085e+09 -3.095086e+09 -8.546636e+02 3.789452e+02 1.823435e+02
-2.097625e+09 -1.897623e+09 -2.057624e+09 5.306919e+02 4.678126e+01 -1.619552e+02
-2.782210e+09 -2.582221e+09 -2.742234e+09 1.168970e+02 2.312166e+04 -1.963925e+03
-3.400158e+09 -3.200160e+09 -3.360184e+09 3.719702e+03 1.451309e+04 -3.343364e+03
-2.433603e+09 -2.233626e+09 -2.393630e+09 9.193888e+03 2.636936e+04 -7.115785e+03
-1.791176e+09 -1.591168e+09 -1.751177e+09 1.904536e+04 1.674947e+04 -1.298255e+04
-3.586487e+09 -3.386489e+09 -3.546489e+09 8.912093e+02 1.308558e+01 -1.955178e+02
-2.384136e+09 -2.184143e+09 -2.344160e+09 1.218909e+04 2.087524e+04 -1.385207e+04
-3.182193e+09 -2.982203e+09 -3.142214e+09 4.881080e+02 1.349830e+04 -8.026387e+02
-1.786471e+09 -1.586532e+09 -1.746500e+09 -6.612227e+03 4.158164e+04 5.183288e+02
-1.594162e+09 -1.394196e+09 -1.554169e+09 1.615326e+04 1.672310e+04 -6.335110e+03
-3.142145e+09 -2.942146e+09 -3.102146e+09 3.670804e+02 2.041972e+01 -6.330689e+00
-2.347435e+09 -2.147463e+09 -2.307456e+09 -2.749634e+03 2.001794e+04 -6.473703e+02
-3.565879e+09 -3.365878e+09 -3.525878e+09 5.291284e+02 1.109851e+01 -4.246928e+01
-3.166517e+09 -2.966514e+09 -3.126516e+09 -4.417172e+02 -6.399756e+02 7.764295e+02
-3.598344e+09 -3.398344e+09 -3.558344e+09 -1.015916e+03 -1.328965e+02 -1.662295e+01
-1.761038e+09 -1.561078e+09 -1.721054e+09 -3.805342e+03 2.384732e+04 1.271098e+03
-3.609545e+09 -3.409545e+09 -3.569545e+09 -5.375080e+02 -1.278694e+01 6.379706e+00
-2.377007e+09 -2.177007e+09 -2.337007e+09 -7.032129e+02 -8.445517e+01 7.909205e+00
-1.993268e+09 -1.793266e+09 -1.953266e+09 -1.247126e+02 -2.236823e+02 7.718667e+00
-2.324988e+09 -2.124988e+09 -2.284988e+09 -7.337349e+02 -8.059815e+01 -2.459470e+01
-1.591726e+09 -1.391724e+09 -1.551725e+09 -7.379035e+02 -7.353492e+02 5.180543e+02
-1.602630e+09 -1.402617e+09 -1.562624e+09 5.603363e+03 -3.670101e+03 6.439837e+03
-1.573961e+09 -1.373953e+09 -1.533956e+09 -4.085858e+02 8.730069e+02 1.404695e+03
-3.232006e+09 -3.032006e+09 -3.192006e+09 -4.398395e+02 -3.463491e+01 1.350185e+01
-2.387716e+09 -2.187714e+09 -2.347715e+09 -1.149326e+03 -4.197856e+02 2.357616e+02
-2.487344e+09 -2.287344e+09 -2.447344e+09 -4.624932e+02 -5.777578e+01 -2.903713e+01
-3.296290e+09 -3.096289e+09 -3.256290e+09 -4.990009e+02 -5.046655e+01 -8.324697e+00
-2.358864e+09 -2.158863e+09 -2.318864e+09 -6.406526e+02 -7.454058e+01 -3.942139e+01
-1.796881e+09 -1.596880e+09 -1.756880e+09 -4.682384e+02 -3.786571e+01 -1.361173e+01
-3.391781e+09 -3.191779e+09 -3.351781e+09 4.592697e+01 -7.390090e+02 8.189448e+02
-1.588845e+09 -1.388843e+09 -1.548844e+09 -5.258597e+02 -4.710367e+02 6.223223e+02
-1.569175e+09 -1.369173e+09 -1.529174e+09 -2.001175e+02 -7.426730e+02 4.769745e+02
-2.787780e+09 -2.587779e+09 -2.747780e+09 -5.683140e+02 -4.543763e+01 2.861796e+01
-3.204161e+09 -3.004161e+09 -3.164161e+09 -9.586898e+02 -7.707054e+01 4.537454e+00
-3.612263e+09 -3.412264e+09 -3.572264e+09 -1.146870e+03 -1.885699e+01 1.242992e+01
-2.532388e+09 -2.332387e+09 -2.492387e+09 -6.600263e+02 -1.044131e+02 1.589345e+01
-3.197234e+09 -2.997233e+09 -3.157234e+09 -5.336670e+02 -3.475871e+01 -8.987574e+00
-1.894505e+09 -1.694505e+09 -1.854505e+09 -5.199260e+02 -4.365255e+01 -3.502638e+01
-3.182466e+09 -2.982465e+09 -3.142466e+09 -1.390538e+03 -9.695894e+01 3.669907e+01
-2.194457e+09 -1.994456e+09 -2.154457e+09 -4.410203e+02 -2.269908e+01 -2.381753e+00
-1.782853e+09 -1.582853e+09 -1.742853e+09 -6.039012e+02 -7.493830e+01 4.536424e+01
-2.608980e+09 -2.408980e+09 -2.568980e+09 -6.855259e+02 -5.011804e+01 -1.595433e+01
-3.130652e+09 -2.930652e+09 -3.090652e+09 -4.837839e+02 -5.049955e+01 -4.697226e+01
-3.597596e+09 -3.397597e+09 -3.557597e+09 -1.029854e+03 -2.025115e+01 -1.222151e+01
-3.394517e+09 -3.194517e+09 -3.354518e+09 -7.126670e+02 -4.772097e+01 -4.782212e+01
-3.598089e+09 -3.398089e+09 -3.558089e+09 -9.444406e+02 -4.113669e+01 1.255865e+01
-3.347107e+09 -3.147107e+09 -3.307107e+09 -7.391025e+02 -3.483253e+01 -1.918046e+00
-3.421245e+09 -3.221245e+09 -3.381245e+09 -1.733137e+03 1.675497e+01 -1.198201e+02
-1.558992e+09 -1.358993e+09 -1.518993e+09 -1.234488e+03 -1.005337e+02 1.127186e+02
-1.581318e+09 -1.381319e+09 -1.541319e+09 -1.505305e+03 -1.687223e+02 7.524156e+01
-2.613615e+09 -2.413615e+09 -2.573615e+09 -4.484796e+02 -4.192893e+01 6.195799e+01
-2.025639e+09 -1.825639e+09 -1.985639e+09 -5.711876e+02 -3.126212e+01 2.397110e+00
-1.585771e+09 -1.385796e+09 -1.545782e+09 -1.683410e+03 -1.555226e+04 4.451880e+02
-1.781393e+09 -1.581394e+09 -1.741394e+09 7.346502e+02 9.049043e+01 -1.405933e+01
-3.594170e+09 -3.394168e+09 -3.554185e+09 -2.341676e+03 -9.000762e+03 -5.426347e+02
-3.195500e+09 -2.995497e+09 -3.155510e+09 1.600839e+03 -6.628421e+03 4.466860e+03
-1.581390e+09 -1.381390e+09 -1.541391e+09 9.184186e+02 1.314923e+02 -1.670127e+02
-1.784709e+09 -1.584709e+09 -1.744709e+09 8.191608e+02 5.343822e+01 -1.009836e+02
-2.612312e+09 -2.412312e+09 -2.572312e+09 7.415902e+02 3.329995e+01 -5.258887e+01
-2.400274e+09 -2.200274e+09 -2.360274e+09 6.800718e+02 9.844787e+01 2.326645e+01
-1.576842e+09 -1.376857e+09 -1.536846e+09 3.378162e+03 -7.036634e+03 1.360925e+03
-1.995883e+09 -1.795883e+09 -1.955883e+09 6.745769e+02 4.620898e+01 -5.603830e+01
-2.297418e+09 -2.097418e+09 -2.257402e+09 1.097988e+04 1.149949e+04 2.487369e+04
-3.609123e+09 -3.409116e+09 -3.569137e+09 -1.952238e+03 -8.380193e+03 -2.583065e+03
-3.579691e+09 -3.379671e+09 -3.539695e+09 -2.435656e+03 5.016258e+02 -1.062959e+03
-2.380759e+09 -2.180776e+09 -2.340775e+09 5.400549e+02 -1.599984e+04 1.859276e+03
-3.207479e+09 -3.007487e+09 -3.167494e+09 1.042680e+03 -9.861072e+03 2.612786e+03
-2.603521e+09 -2.403522e+09 -2.563522e+09 7.533262e+02 7.245818e+01 -1.250246e+01
-1.590002e+09 -1.390032e+09 -1.550018e+09 -1.203268e+04 -2.475605e+04 -5.417928e+03
-2.574896e+09 -2.374897e+09 -2.534897e+09 6.854214e+02 4.115140e+01 -3.962953e+01
-2.633138e+09 -2.433139e+09 -2.593139e+09 7.445806e+02 6.091728e+01 3.755914e+01
-2.700368e+09 -2.500368e+09 -2.660368e+09 9.608180e+02 9.051964e+00 -1.519215e+02
-2.573602e+09 -2.373611e+09 -2.533609e+09 7.719944e+03 6.873548e+03 -3.364105e+03
-2.733078e+09 -2.533076e+09 -2.693077e+09 2.519028e+02 4.653387e+01 -3.955058e+01
-2.808017e+09 -2.608017e+09 -2.768017e+09 7.377072e+02 3.326410e+01 -1.010444e+02
-3.205043e+09 -3.005043e+09 -3.165043e+09 8.131514e+02 5.491552e+01 -1.967134e+01
-3.411409e+09 -3.211410e+09 -3.371410e+09 8.316782e+02 8.041031e+01 1.413161e+01
-2.612833e+09 -2.412838e+09 -2.572875e+09 2.471977e+03 2.885380e+04 -6.684201e+03
-3.400367e+09 -3.200368e+09 -3.360368e+09 8.888596e+02 1.003720e+01 -1.340697e+02
-2.982483e+09 -2.782486e+09 -2.942483e+09 2.712214e+03 9.366222e+02 -3.220205e+02
-1.781613e+09 -1.581636e+09 -1.741622e+09 -2.122355e+03 1.505179e+04 2.110664e+03
-3.093540e+09 -2.893543e+09 -3.053554e+09 -8.775472e+03 1.405755e+04 7.510902e+03
-3.178710e+09 -2.978715e+09 -3.138713e+09 4.461775e+03 3.004701e+03 -1.334592e+03
-1.589807e+09 -1.389814e+09 -1.549808e+09 1.229125e+03 7.770091e+02 -1.860061e+02
-3.595483e+09 -3.395491e+09 -3.555489e+09 1.989880e+03 3.377378e+03 -3.718789e+02
-3.389997e+09 -3.189998e+09 -3.349998e+09 7.596887e+02 1.799287e+01 -1.906301e+01
-2.583149e+09 -2.383154e+09 -2.543150e+09 -1.011236e+03 5.662855e+02 4.914678e+01
-1.578337e+09 -1.378333e+09 -1.538335e+09 -5.280816e+02 1.537868e+02 2.809730e+02
-1.582001e+09 -1.382014e+09 -1.542005e+09 4.114847e+03 5.408805e+03 -7.365370e+02
-2.655859e+09 -2.455865e+09 -2.615860e+09 -1.203777e+03 5.425376e+02 6.398979e+01
-2.477557e+09 -2.277563e+09 -2.437558e+09 -9.700178e+02 5.044923e+02 -6.398737e+00
-2.727985e+09 -2.527990e+09 -2.687986e+09 -1.470171e+03 4.050148e+02 -4.522024e+01
-2.329426e+09 -2.129432e+09 -2.289426e+09 -1.517964e+03 7.485458e+02 5.826420e+01
-3.123272e+09 -2.923277e+09 -3.083273e+09 -1.471007e+03 7.763253e+02 6.769352e+01
-3.574854e+09 -3.374836e+09 -3.534868e+09 3.440719e+02 4.221555e+03 -4.977417e+03
-2.388618e+09 -2.188613e+09 -2.348638e+09 1.638517e+03 -1.043952e+04 7.784574e+03
-2.306291e+09 -2.106297e+09 -2.266292e+09 -1.499209e+03 8.096706e+02 1.356777e+02
-3.351763e+09 -3.151768e+09 -3.311764e+09 -1.528247e+03 7.020930e+02 1.452686e+02
-2.370610e+09 -2.170611e+09 -2.330609e+09 -1.485655e+03 4.466544e+02 -7.985316e+01
-1.971304e+09 -1.771306e+09 -1.931303e+09 -1.498004e+03 2.451656e+02 -5.252093e+01
-1.570815e+09 -1.370830e+09 -1.530819e+09 2.421983e+03 4.945847e+03 -4.896284e+02
-1.577457e+09 -1.377468e+09 -1.537461e+09 -5.188187e+03 5.436429e+03 1.404715e+03
-2.620721e+09 -2.420725e+09 -2.580722e+09 -1.496128e+03 5.690398e+02 1.311881e+02
-2.577707e+09 -2.377710e+09 -2.537707e+09 -1.732292e+03 3.455749e+02 3.930242e+01
-3.244499e+09 -3.044502e+09 -3.204499e+09 -1.364409e+03 1.900737e+02 -5.999882e+01
-2.498436e+09 -2.298435e+09 -2.458435e+09 2.251939e+02 2.920881e+01 -1.693288e+01
-2.608919e+09 -2.408918e+09 -2.568918e+09 1.539439e+02 1.791801e+01 -1.473926e+01
-1.575587e+09 -1.375586e+09 -1.535586e+09 1.447922e+02 3.646238e+01 -6.099426e+01
-1.787553e+09 -1.587555e+09 -1.747552e+09 -1.488089e+03 1.663154e+02 -4.826163e+01
-3.595383e+09 -3.395373e+09 -3.555288e+09 -2.667320e+03 4.097166e+02 -6.915316e+03
-3.588621e+09 -3.388604e+09 -3.548616e+09 -3.664034e+03 -7.322761e+03 -3.974152e+03
-2.600831e+09 -2.400833e+09 -2.560830e+09 -1.227526e+03 1.113631e+02 -1.127434e+02
-1.546487e+09 -1.346522e+09 -1.506516e+09 6.172996e+03 -3.804133e+04 6.025748e+03
-1.777222e+09 -1.577206e+09 -1.737215e+09 1.154885e+04 1.060939e+04 -1.789083e+04
-3.130543e+09 -2.930523e+09 -3.090549e+09 3.278363e+03 -5.151871e+03 -6.742071e+03
-2.970790e+09 -2.770763e+09 -2.930787e+09 -4.277870e+03 1.306199e+04 -9.188215e+03
-3.579685e+09 -3.379673e+09 -3.539699e+09 -4.262111e+03 -3.965932e+03 1.601491e+03
-1.583301e+09 -1.383331e+09 -1.543315e+09 5.786622e+03 -1.914529e+04 5.476307e+03
-1.811975e+09 -1.611807e+09 -1.771750e+09 -1.919368e+04 1.042069e+05 -4.838005e+04
-3.196299e+09 -2.996276e+09 -3.156273e+09 9.294504e+03 1.589896e+04 5.462974e+03
-3.633659e+09 -3.433661e+09 -3.593649e+09 -1.994708e+03 1.899271e+03 -5.998962e+03
-2.719048e+09 -2.519026e+09 -2.679051e+09 1.972445e+02 4.485453e+03 -1.652803e+03
-2.642164e+09 -2.442139e+09 -2.602062e+09 8.023469e+03 1.383484e+04 9.031983e+03
-3.613180e+09 -3.413173e+09 -3.573186e+09 -3.748958e+03 -1.788611e+03 1.668481e+03
-3.613180e+09 -3.413173e+09 -3.573186e+09 -3.639317e+03 -1.370027e+03 2.676588e+03
-3.214860e+09 -3.014821e+09 -3.174785e+09 -1.571780e+03 2.787342e+04 -2.937694e+03
-1.577459e+09 -1.377465e+09 -1.537460e+09 -6.642090e+03 4.322214e+03 2.386836e+03
-2.340327e+09 -2.140338e+09 -2.300332e+09 -5.181735e+03 5.511226e+03 1.712279e+03
-1.592116e+09 -1.392115e+09 -1.552115e+09 -3.372473e+03 1.240521e+03 8.227026e+02
-1.910772e+09 -1.710726e+09 -1.870761e+09 1.539435e+04 1.877087e+04 -2.505518e+03
-3.577157e+09 -3.377165e+09 -3.537169e+09 1.361801e+03 6.489180e+03 -5.355303e+02
-3.193647e+09 -2.993639e+09 -3.153593e+09 5.961877e+03 7.662934e+03 2.116672e+04
-2.444336e+09 -2.244270e+09 -2.404310e+09 3.222460e+03 4.429203e+04 4.569467e+03
-1.576110e+09 -1.376129e+09 -1.536116e+09 -3.202507e+03 8.144817e+03 9.857986e+02
-1.576112e+09 -1.376127e+09 -1.536116e+09 -7.227102e+03 7.961746e+03 2.784021e+03
-3.573076e+09 -3.373083e+09 -3.533097e+09 -7.933932e+02 1.259512e+04 7.778028e+02
-1.774115e+09 -1.574121e+09 -1.734116e+09 -1.576137e+03 4.836784e+02 8.294799e+01
-1.996182e+09 -1.796189e+09 -1.956183e+09 -3.767440e+03 3.324263e+03 7.519373e+02
-2.563624e+09 -2.363602e+09 -2.523636e+09 6.846891e+03 8.041916e+03 -4.628180e+03
-1.950575e+09 -1.750571e+09 -1.910573e+09 -5.267185e+02 2.906226e+02 2.858840e+02
-2.825700e+09 -2.625673e+09 -2.785606e+09 5.262522e+03 3.256129e+04 1.460186e+04
-3.391514e+09 -3.191502e+09 -3.351454e+09 3.144323e+03 2.019655e+04 1.676656e+04
-3.209232e+09 -3.009217e+09 -3.169231e+09 -5.568211e+02 1.882109e+03 -5.145272e+03
-1.761283e+09 -1.561284e+09 -1.721284e+09 -1.575132e+03 -4.700937e+01 6.732030e+01
-2.552832e+09 -2.352831e+09 -2.512832e+09 -1.449674e+03 -1.227004e+02 5.746872e+01
-2.054822e+09 -1.854825e+09 -2.014824e+09 -1.289171e+03 -3.823220e+01 -1.239188e+02
-3.148335e+09 -2.948334e+09 -3.108335e+09 -1.672940e+03 -1.327797e+02 2.327361e+02
-3.593638e+09 -3.393641e+09 -3.553640e+09 -1.056976e+03 2.595119e+01 -1.126582e+02
-2.655218e+09 -2.455151e+09 -2.615182e+09 3.028288e+03 4.548531e+04 -8.536755e+03
-3.399413e+09 -3.199414e+09 -3.359415e+09 3.671548e+03 2.544926e+03 -1.084550e+03
-2.053729e+09 -1.853674e+09 -2.013738e+09 3.257643e+03 7.924235e+02 -1.757196e+04
-3.581168e+09 -3.381172e+09 -3.541171e+09 -9.641172e+02 1.447384e+02 -5.477198e+02
-3.475086e+09 -3.275089e+09 -3.435088e+09 -1.922395e+03 1.446913e+02 -3.939411e+02
-1.943777e+09 -1.743778e+09 -1.903778e+09 -1.386645e+03 -3.437595e+01 -2.068708e+01
-1.590089e+09 -1.390091e+09 -1.550091e+09 -1.018839e+03 -5.047699e+01 -5.220926e+01
-1.944259e+09 -1.744260e+09 -1.904261e+09 -1.752992e+03 -2.076618e+02 4.664647e+01
-1.911137e+09 -1.711095e+09 -1.871123e+09 2.668680e+04 1.978163e+04 1.327889e+04
-3.427312e+09 -3.227299e+09 -3.387235e+09 6.484350e+02 2.989339e+03 2.457920e+03
-2.606998e+09 -2.406998e+09 -2.566997e+09 -1.286099e+03 3.568656e+01 -1.051844e+02
-2.399088e+09 -2.199088e+09 -2.359087e+09 -1.140533e+03 1.825900e+02 -6.517231e+01
-2.816519e+09 -2.616521e+09 -2.776519e+09 -1.301409e+03 2.113980e+02 -1.587995e+01
-2.837481e+09 -2.637481e+09 -2.797480e+09 -1.310656e+03 1.529108e+02 9.702851e+00
-2.762509e+09 -2.562508e+09 -2.722508e+09 -7.631140e+02 7.410371e+01 -9.684136e+01
-2.991871e+09 -2.791872e+09 -2.951870e+09 -7.434929e+02 1.298128e+02 -6.226892e+01
-2.185349e+09 -1.985346e+09 -2.145348e+09 4.088209e+03 2.300061e+03 -1.972727e+03
-3.614981e+09 -3.414979e+09 -3.574980e+09 3.069402e+02 -9.901442e+00 -4.353096e+01
-1.600279e+09 -1.400278e+09 -1.560278e+09 3.793721e+02 7.955510e+01 -2.998928e+01
-1.599552e+09 -1.399551e+09 -1.559551e+09 3.321816e+02 9.177349e+01 -7.055999e+01
-2.580859e+09 -2.380858e+09 -2.540858e+09 2.553354e+02 3.532360e+01 3.125013e+00
-1.588614e+09 -1.388613e+09 -1.548613e+09 4.166756e+02 7.638044e+01 -2.148916e+01
-3.410711e+09 -3.210712e+09 -3.370710e+09 -1.135641e+03 1.770540e+02 -4.550127e+01
-2.379597e+09 -2.179598e+09 -2.339598e+09 8.138233e+02 6.342985e+01 -1.310497e+01
-3.610188e+09 -3.410187e+09 -3.570188e+09 5.680080e+02 3.087399e+01 -6.606573e-01
-1.572872e+09 -1.372871e+09 -1.532871e+09 2.541290e+02 6.167618e+01 -5.025415e+01
-3.158157e+09 -2.958157e+09 -3.118156e+09 -7.699323e+02 1.541812e+02 -5.084232e+01
-3.364010e+09 -3.164010e+09 -3.324009e+09 -8.559026e+02 1.214600e+02 -2.890190e+01
-3.610188e+09 -3.410188e+09 -3.570188e+09 5.037030e+02 2.477554e+01 -1.426262e+01
-3.377557e+09 -3.177557e+09 -3.337557e+09 5.200130e+02 3.907870e+01 -3.196114e+01
-2.484990e+09 -2.284989e+09 -2.444989e+09 1.189961e+02 4.089356e+01 -6.056401e+01
-1.581237e+09 -1.381238e+09 -1.541238e+09 8.238687e+02 1.408818e+02 -5.628351e+01
-1.808276e+09 -1.608280e+09 -1.768276e+09 -4.951315e+03 2.935689e+03 1.333594e+03
-2.072204e+09 -1.872203e+09 -2.032202e+09 -3.742584e+03 1.481317e+03 1.133833e+03
-1.599588e+09 -1.399588e+09 -1.559588e+09 7.273112e+02 8.999122e+01 -4.082940e+01
-2.632013e+09 -2.432012e+09 -2.592015e+09 -6.274413e+03 5.150411e+03 4.248483e+03
-3.074652e+09 -2.874651e+09 -3.034653e+09 -3.480886e+03 1.973855e+03 1.815560e+03
-1.878433e+09 -1.678436e+09 -1.838435e+09 -3.997282e+02 1.526860e+01 -1.508896e+01
-3.240362e+09 -3.040365e+09 -3.200364e+09 2.968228e+01 8.732269e+00 -1.428734e+02
-3.591860e+09 -3.391859e+09 -3.551860e+09 6.916160e+02 4.533451e+01 -3.873406e+01
-1.776518e+09 -1.576522e+09 -1.736521e+09 -6.358453e+02 1.068401e+02 -5.536526e+02
-2.835286e+09 -2.635289e+09 -2.795288e+09 1.469160e+03 -2.691447e+02 -1.335142e+03
-2.347240e+09 -2.147245e+09 -2.307244e+09 -1.513317e+03 4.843239e+02 -1.271813e+03
-3.598089e+09 -3.398089e+09 -3.558089e+09 -8.832290e+02 -6.249114e+01 7.966643e+00
-2.596620e+09 -2.396624e+09 -2.556623e+09 -5.626251e+02 1.920301e+01 -2.555717e+02
-3.591808e+09 -3.391809e+09 -3.551809e+09 -1.889666e+03 1.161758e+01 -6.596267e+01
-3.620479e+09 -3.420480e+09 -3.580480e+09 -1.388405e+03 -5.158848e+01 -3.104690e+01
-2.341447e+09 -2.141443e+09 -2.301445e+09 -5.447074e+02 1.844695e+02 2.098611e+02
-2.592676e+09 -2.392673e+09 -2.552674e+09 -2.840673e+02 1.336410e+02 5.936828e+01
-1.997252e+09 -1.797253e+09 -1.957253e+09 -1.001461e+03 -5.761512e+01 1.829806e+01
-1.592611e+09 -1.392611e+09 -1.552611e+09 -9.871029e+02 -1.469230e+02 1.332005e+01
-1.597070e+09 -1.397069e+09 -1.557070e+09 -1.076868e+03 -2.155230e+02 6.686404e+01
-1.546480e+09 -1.346518e+09 -1.506512e+09 -1.164019e+03 -3.444087e+04 3.991091e+03
-1.582744e+09 -1.382695e+09 -1.542757e+09 8.096666e+03 -5.637114e+03 -1.241937e+03
-3.342001e+09 -3.142011e+09 -3.301999e+09 -5.553570e+03 -4.804170e+03 8.170600e+03
-2.532108e+09 -2.332105e+09 -2.492106e+09 -8.668619e+02 4.941752e+02 3.167821e+02
-1.773206e+09 -1.573204e+09 -1.733204e+09 -1.110529e+03 5.037255e+02 1.892006e+02
-1.799439e+09 -1.599437e+09 -1.759438e+09 -2.231613e+02 1.211797e+02 -4.402604e+01
-1.561675e+09 -1.361680e+09 -1.521675e+09 3.085163e+03 1.549224e+03 -6.142899e+02
-3.284820e+09 -3.084812e+09 -3.244830e+09 -2.644253e+03 -4.838157e+03 -4.535983e+03
-3.213965e+09 -3.013953e+09 -3.173970e+09 1.508875e+03 7.586402e+02 -2.018913e+03
-3.004445e+09 -2.804447e+09 -2.964444e+09 2.259047e+03 6.363914e+02 -2.158152e+02
-2.021097e+09 -1.821095e+09 -1.981100e+09 -6.823557e+03 -1.009857e+04 -6.588240e+03
-2.785982e+09 -2.585989e+09 -2.745984e+09 2.081905e+03 1.907838e+03 -2.678999e+02
-2.361370e+09 -2.161379e+09 -2.321373e+09 -1.934305e+03 1.668739e+03 4.228771e+02
-3.595544e+09 -3.395549e+09 -3.555551e+09 -2.291330e+03 -4.372498e+03 -8.898506e+02
-3.600387e+09 -3.400388e+09 -3.560398e+09 -2.086568e+03 -6.909326e+03 -1.109088e+03
-2.360903e+09 -2.160911e+09 -2.320907e+09 5.370173e+03 6.019133e+03 -1.836104e+03
-3.588931e+09 -3.388929e+09 -3.548941e+09 -2.361433e+03 -6.802890e+03 -2.701133e+03
-3.594171e+09 -3.394171e+09 -3.554186e+09 -2.095861e+03 -9.934204e+03 -6.860555e+02
-3.617380e+09 -3.417374e+09 -3.577392e+09 -1.889000e+03 -6.719934e+03 -3.434960e+03
-2.058407e+09 -1.858387e+09 -2.018410e+09 1.232729e+03 -4.582959e+03 -7.688811e+03
-3.595543e+09 -3.395547e+09 -3.555551e+09 -2.302409e+03 -4.499642e+03 -8.916280e+02
-1.595978e+09 -1.395985e+09 -1.555979e+09 -5.208033e+03 -4.986821e+03 -1.441175e+03
-2.528805e+09 -2.328792e+09 -2.488812e+09 -2.854621e+03 -2.275710e+03 -7.950336e+03
-3.308829e+09 -3.108829e+09 -3.268829e+09 -4.546959e+02 -1.091204e+01 4.149391e-02
-3.210627e+09 -3.010608e+09 -3.170628e+09 2.024221e+03 4.436687e+03 1.802977e+03
-3.309930e+09 -3.109931e+09 -3.269931e+09 -5.362416e+02 -3.705311e+01 4.169971e+01
-2.454366e+09 -2.254353e+09 -2.414372e+09 -5.268197e+03 -3.937234e+03 -8.335500e+03
-2.604467e+09 -2.404466e+09 -2.564467e+09 -4.781681e+02 -5.339631e+01 -4.023547e+01
-3.246378e+09 -3.046370e+09 -3.206386e+09 -3.009694e+03 -4.242567e+03 -4.447481e+03
-1.590732e+09 -1.390731e+09 -1.550731e+09 -4.914549e+02 -4.235626e+01 9.835588e+00
-1.592611e+09 -1.392611e+09 -1.552611e+09 -1.021261e+03 -1.549064e+02 -4.016355e+00
-2.599952e+09 -2.399936e+09 -2.559977e+09 -5.773050e+03 -1.744659e+04 -3.425325e+03
-3.102897e+09 -2.902889e+09 -3.062905e+09 -4.221437e+03 -6.653824e+03 -3.421153e+03
-3.401930e+09 -3.201922e+09 -3.361938e+09 -4.766571e+02 -3.966576e+03 -3.834376e+03
-3.609545e+09 -3.409545e+09 -3.569545e+09 -5.564982e+02 -1.270366e+01 5.129404e+00
-3.299002e+09 -3.099003e+09 -3.259003e+09 3.241809e+02 1.620811e+01 -2.814300e+00
-2.649760e+09 -2.449762e+09 -2.609761e+09 5.277612e+02 4.171223e+01 3.411243e+00
-3.411202e+09 -3.211203e+09 -3.371203e+09 5.105681e+02 4.348831e+01 -7.913762e+00
-3.599457e+09 -3.399456e+09 -3.559456e+09 -4.323408e+02 -9.528874e+01 -2.192369e+01
-3.429150e+09 -3.229150e+09 -3.389150e+09 -6.301537e+02 -5.288847e+01 -8.906980e+00
-1.594563e+09 -1.394563e+09 -1.554563e+09 -5.356973e+02 -6.943608e+01 -2.296943e+01
-2.782167e+09 -2.582169e+09 -2.742168e+09 3.422696e+02 2.604302e+01 1.406297e+01
-3.594600e+09 -3.394599e+09 -3.554599e+09 -4.859165e+02 -3.336815e+01 -4.221922e+01
-3.354339e+09 -3.154338e+09 -3.314338e+09 -7.697969e+02 -7.312575e+01 2.682959e+01
-3.599338e+09 -3.399340e+09 -3.559340e+09 3.247012e+02 6.063098e+00 2.139107e+00
-3.395875e+09 -3.195876e+09 -3.355876e+09 5.105656e+02 1.208976e+01 -3.373213e+01
-3.617007e+09 -3.417008e+09 -3.577008e+09 -1.098190e+03 -6.022065e+01 -1.677638e+01
-3.592656e+09 -3.392657e+09 -3.552678e+09 1.824142e+03 1.304501e+04 -2.299045e+03
-3.392256e+09 -3.192265e+09 -3.352262e+09 7.062039e+02 2.730613e+03 1.661256e+02
-1.985358e+09 -1.785361e+09 -1.945360e+09 2.798117e+02 9.601277e+00 -1.767380e+01
-3.624296e+09 -3.424302e+09 -3.584310e+09 -1.298296e+03 8.229388e+03 5.277581e+02
-3.577157e+09 -3.377165e+09 -3.537168e+09 -2.086775e+02 5.953026e+03 1.588279e+02
-3.058635e+09 -2.858636e+09 -3.018636e+09 3.776870e+02 3.735168e+01 2.149507e+01
-2.035185e+09 -1.835186e+09 -1.995186e+09 4.093943e+02 2.763224e+01 4.176604e+01
-2.056736e+09 -1.856738e+09 -2.016738e+09 5.158953e+02 5.027774e+01 5.701983e+01
-3.411640e+09 -3.211636e+09 -3.371639e+09 -2.085591e+03 6.363105e+02 7.724544e+02
-2.013192e+09 -1.813148e+09 -1.973208e+09 1.378915e+03 6.828294e+03 9.394497e+03
-1.590740e+09 -1.390740e+09 -1.550740e+09 8.567185e+02 9.871436e+01 -3.885493e+01
-1.596305e+09 -1.396304e+09 -1.556305e+09 8.226519e+02 1.115407e+02 -1.771800e+02
-3.627830e+09 -3.427830e+09 -3.587830e+09 1.591340e+03 -9.335906e+01 -3.574618e+02
-1.596306e+09 -1.396304e+09 -1.556305e+09 2.917590e+02 2.229167e+02 -1.661730e+02
-2.177670e+09 -1.977669e+09 -2.137669e+09 4.685286e+02 3.969704e+01 -4.121997e+01
-2.828824e+09 -2.628826e+09 -2.788825e+09 5.094743e+02 3.354074e+01 2.056338e+01
-2.492717e+09 -2.292716e+09 -2.452716e+09 -4.759193e+02 2.334082e+01 -1.188946e+02
-3.598204e+09 -3.398203e+09 -3.558203e+09 1.214607e+02 -3.785089e+00 -8.313059e+00
-3.411991e+09 -3.211991e+09 -3.371991e+09 -8.852197e+02 -9.823176e+01 2.764781e+01
-1.762474e+09 -1.562474e+09 -1.722474e+09 -6.866723e+02 -5.222618e+01 -2.442019e+01
-1.953240e+09 -1.753240e+09 -1.913240e+09 -7.343842e+02 -5.621037e+01 -1.308358e-01
-3.589746e+09 -3.389746e+09 -3.549746e+09 2.526972e+02 1.845083e+01 -2.555524e+01
-3.396692e+09 -3.196692e+09 -3.356692e+09 -7.802376e+02 -2.373736e+01 4.038924e+00
-3.589746e+09 -3.389746e+09 -3.549746e+09 3.019512e+02 1.886793e+01 -2.507053e+01
-1.790007e+09 -1.590003e+09 -1.750005e+09 -6.503915e+02 8.510519e+02 3.412394e+02
-3.200241e+09 -3.000241e+09 -3.160241e+09 -6.322170e+02 -6.090872e+01 3.049260e+01
-2.755447e+09 -2.555447e+09 -2.715448e+09 -7.837771e+02 -7.995033e+01 -2.000691e+01
-1.588614e+09 -1.388613e+09 -1.548613e+09 2.702696e+02 7.185843e+01 -3.758923e+01
-1.619877e+09 -1.419876e+09 -1.579876e+09 3.817586e+02 6.337446e+01 2.740470e+00
-2.753241e+09 -2.553240e+09 -2.713241e+09 -6.943597e+02 -3.622244e+01 2.190275e+01
-1.608525e+09 -1.408525e+09 -1.568525e+09 2.975291e+02 5.627906e+01 -2.224562e+01
-3.585826e+09 -3.385825e+09 -3.545825e+09 1.773817e+02 2.575679e+01 -1.200867e+01
-1.772678e+09 -1.572678e+09 -1.732678e+09 2.093676e+02 2.657845e+01 -3.146133e+01
-1.599705e+09 -1.399704e+09 -1.559704e+09 2.033962e+02 4.000977e+01 -4.756549e+01
-2.802726e+09 -2.602725e+09 -2.762725e+09 -5.301932e+02 -1.920745e+01 4.930328e+00
-3.139311e+09 -2.939311e+09 -3.099311e+09 -7.437711e+02 -6.575802e+01 1.359337e+01
-2.346361e+09 -2.146362e+09 -2.306362e+09 -8.050391e+02 -7.865706e+01 8.751698e+00
-3.617008e+09 -3.417008e+09 -3.577008e+09 -1.163238e+03 -4.632864e+01 -2.250652e+00
-1.558993e+09 -1.358993e+09 -1.518993e+09 -1.251796e+03 -1.134959e+02 -4.464685e+01
-2.523399e+09 -2.323399e+09 -2.483399e+09 -7.797966e+02 -4.207441e+01 1.949908e+01
-1.962191e+09 -1.762191e+09 -1.922191e+09 -7.887705e+02 -7.646305e+01 7.795991e-01
-1.558992e+09 -1.358993e+09 -1.518993e+09 -1.040142e+03 -1.768639e+02 7.116297e+01
-3.414447e+09 -3.214446e+09 -3.374446e+09 -7.236996e+02 -1.029852e+02 9.167671e+01
-1.959661e+09 -1.759661e+09 -1.919661e+09 -8.046435e+02 -4.856059e+01 5.919859e+01
-2.555334e+09 -2.355335e+09 -2.515335e+09 -5.932815e+02 -7.011470e+01 -2.297154e+01
-3.610176e+09 -3.410172e+09 -3.570176e+09 -1.820069e+03 -3.732428e+02 1.241719e+03
-3.413373e+09 -3.213374e+09 -3.373374e+09 -6.695253e+02 -6.692261e+01 3.620792e+01
-2.444797e+09 -2.244797e+09 -2.404797e+09 -5.777651e+02 -6.918548e+01 -7.886602e+00
-1.832195e+09 -1.632194e+09 -1.792195e+09 -1.531423e+03 -2.871876e+02 3.131534e+02
-1.568377e+09 -1.368378e+09 -1.528379e+09 -1.829340e+03 1.058336e+02 -1.859467e+02
-2.433878e+09 -2.233883e+09 -2.393883e+09 5.702051e+03 -7.457243e+03 4.491680e+03
-2.608786e+09 -2.408788e+09 -2.568787e+09 -6.939445e+02 -2.769633e+01 -2.529912e+01
-1.583124e+09 -1.383125e+09 -1.543125e+09 -8.882382e+02 -6.700716e+01 -9.758059e+00
-1.576704e+09 -1.376704e+09 -1.536704e+09 -6.970468e+02 -1.039249e+02 -3.211905e+00
-2.072911e+09 -1.872915e+09 -2.032928e+09 5.123479e+03 -2.110374e+04 7.606886e+03
-3.202069e+09 -3.002062e+09 -3.162075e+09 1.177301e+03 -3.628904e+03 4.577599e+03
-1.767432e+09 -1.567434e+09 -1.727433e+09 -8.715445e+02 -4.741070e+01 6.197698e+01
-1.587471e+09 -1.387471e+09 -1.547471e+09 -7.702299e+02 -1.066887e+02 -1.167848e+00
-3.577087e+09 -3.377087e+09 -3.537087e+09 -8.113469e+02 -2.545471e+01 -8.688755e+00
-3.223613e+09 -3.023605e+09 -3.183615e+09 1.097947e+02 -1.959236e+03 4.360259e+03
-2.394572e+09 -2.194566e+09 -2.354570e+09 -1.423434e+03 -4.162271e+02 1.847052e+03
-1.808283e+09 -1.608275e+09 -1.768281e+09 -5.058994e+02 -1.440856e+03 3.089177e+03
-1.804061e+09 -1.604049e+09 -1.764055e+09 5.539791e+03 -3.653333e+03 6.975647e+03
-3.402738e+09 -3.202735e+09 -3.362745e+09 8.059120e+02 -4.349138e+03 3.423394e+03
-3.165608e+09 -2.965608e+09 -3.125608e+09 -6.953966e+02 -3.691419e+01 -8.520833e+00
-2.394977e+09 -2.194977e+09 -2.354977e+09 -8.714328e+02 -9.225156e+01 2.890086e+01
-2.422505e+09 -2.222501e+09 -2.382506e+09 4.385979e+03 -4.869797e+03 5.271109e+03
-2.586757e+09 -2.386743e+09 -2.546778e+09 1.392567e+03 -1.088142e+04 6.869172e+03
-2.798949e+09 -2.598956e+09 -2.758961e+09 1.002934e+03 -1.183744e+04 2.373445e+03
-3.368469e+09 -3.168467e+09 -3.328469e+09 -1.415569e+03 -3.477516e+02 5.010950e+02
-2.958123e+09 -2.758124e+09 -2.918123e+09 2.137548e+03 -3.853450e+02 -1.067632e+03
-1.793257e+09 -1.593253e+09 -1.753256e+09 1.696879e+03 -5.625386e+02 -1.647155e+03
-2.054382e+09 -1.854382e+09 -2.014383e+09 1.767831e+03 -2.201532e+02 -7.305669e+02
-3.437085e+09 -3.237084e+09 -3.397076e+09 4.980607e+03 -4.423163e+03 -5.256905e+03
-3.234125e+09 -3.034118e+09 -3.194133e+09 -1.145410e+03 -6.841357e+02 4.801934e+03
-1.601219e+09 -1.401216e+09 -1.561217e+09 1.555202e+03 -1.203196e+03 1.185833e+03
-1.577081e+09 -1.377078e+09 -1.537078e+09 1.507350e+03 -1.588109e+03 1.670458e+03
-2.856259e+09 -2.656257e+09 -2.816257e+09 2.221713e+03 -9.719176e+02 -1.008523e+03
-2.474858e+09 -2.274858e+09 -2.434858e+09 2.200859e+03 -5.035238e+02 -1.185855e+03
-2.515297e+09 -2.315293e+09 -2.475295e+09 1.563317e+03 -3.228554e+02 -1.454083e+02
-2.171849e+09 -1.971845e+09 -2.131913e+09 -4.344387e+03 3.610983e+04 9.194185e+03
-1.577081e+09 -1.377076e+09 -1.537078e+09 2.293757e+03 -1.397820e+03 1.956848e+03
-1.988495e+09 -1.788492e+09 -1.948494e+09 -8.131040e+02 4.258920e+02 3.799038e+02
-3.357289e+09 -3.157274e+09 -3.317297e+09 -9.311794e+02 7.364186e+01 6.780080e+03
-2.292806e+09 -2.092805e+09 -2.252806e+09 -3.164640e+03 -2.356701e+03 -1.356036e+03
-2.426239e+09 -2.226195e+09 -2.386229e+09 1.524311e+03 -1.097238e+04 5.850978e+03
-2.012268e+09 -1.812241e+09 -1.972235e+09 1.073574e+03 -1.553452e+04 -4.664427e+03
-2.097333e+09 -1.897339e+09 -2.057336e+09 -4.381906e+03 -5.192175e+03 -1.700574e+03
-2.097011e+09 -1.896985e+09 -2.056996e+09 -1.327508e+03 -4.160608e+03 5.075235e+03
-2.124095e+09 -1.924066e+09 -2.084075e+09 -2.021035e+03 -2.455242e+03 7.900185e+03
-3.198643e+09 -2.998641e+09 -3.158649e+09 -4.246160e+03 -4.700213e+03 -3.173037e+03
-1.586920e+09 -1.386941e+09 -1.546930e+09 -1.021799e+04 -1.646239e+04 -5.273361e+03
-2.050193e+09 -1.850182e+09 -2.010186e+09 3.401085e+03 -3.934693e+03 -2.647614e+03
-1.801891e+09 -1.601883e+09 -1.761882e+09 5.604843e+03 -9.331301e+03 -1.050271e+04
-2.078606e+09 -1.878608e+09 -2.038606e+09 -4.029342e+03 -3.656930e+03 -1.719825e+03
-3.393430e+09 -3.193427e+09 -3.353445e+09 -2.768967e+03 -9.824028e+03 -2.778624e+03
-2.830694e+09 -2.630654e+09 -2.790579e+09 -1.928391e+03 3.784212e+04 2.014588e+03
-1.790542e+09 -1.590506e+09 -1.750515e+09 7.969634e+03 -1.385979e+04 1.349934e+03
-3.279384e+09 -3.079385e+09 -3.239377e+09 8.422125e+03 6.552777e+03 1.021703e+04
-3.601966e+09 -3.401952e+09 -3.561976e+09 -9.812136e+02 -4.440761e+03 -5.151965e+03
-3.473900e+09 -3.273883e+09 -3.433911e+09 -2.464477e+03 -3.438450e+03 -4.707735e+03
-1.581508e+09 -1.381507e+09 -1.541507e+09 -5.722793e+01 6.464048e+01 -1.216307e+02
-1.772350e+09 -1.572349e+09 -1.732349e+09 1.278488e+02 2.470778e+01 -5.763080e+01
-3.587749e+09 -3.387748e+09 -3.547748e+09 2.795549e+02 1.744729e+01 7.368434e-01
-2.491321e+09 -2.291320e+09 -2.451320e+09 1.942132e+02 2.477962e+01 -1.331980e+01
-1.763472e+09 -1.563446e+09 -1.723460e+09 -1.316723e+03 -3.258992e+03 3.472262e+03
-2.672341e+09 -2.472329e+09 -2.632374e+09 -1.034017e+04 -9.081023e+03 -1.373639e+03
-1.815295e+09 -1.615269e+09 -1.775314e+09 1.051671e+04 -1.578764e+04 1.188329e+04
-1.789862e+09 -1.589861e+09 -1.749861e+09 3.343211e+01 2.223602e+01 -8.732095e+01
-1.572872e+09 -1.372871e+09 -1.532871e+09 2.983880e+02 5.926064e+01 -4.512131e+01
-3.105077e+09 -2.905076e+09 -3.065076e+09 2.613657e+02 4.259833e+01 -3.066239e+01
-2.788933e+09 -2.588932e+09 -2.748933e+09 3.353558e+02 9.187163e+00 -6.561028e+00
-2.695342e+09 -2.495341e+09 -2.655341e+09 8.040993e+01 -9.076736e+00 -4.990036e+01
-3.201297e+09 -3.001297e+09 -3.161297e+09 2.690887e+02 8.709461e+01 -2.519079e+01
-2.190949e+09 -1.990949e+09 -2.150949e+09 -3.614771e+02 -1.111468e+01 -1.590681e+01
-2.392812e+09 -2.192809e+09 -2.352830e+09 1.042422e+03 -9.391596e+03 4.913330e+03
-1.968450e+09 -1.768459e+09 -1.928452e+09 -9.514103e+02 1.562355e+03 6.593806e+01
-2.788119e+09 -2.588127e+09 -2.748121e+09 -1.772145e+02 1.199704e+03 1.478513e+02
-2.563085e+09 -2.363093e+09 -2.523087e+09 -9.230664e+02 1.139727e+03 1.130731e+02
-3.051049e+09 -2.851059e+09 -3.011056e+09 6.569289e+02 3.940915e+03 -1.244880e+02
-2.366874e+09 -2.166886e+09 -2.326878e+09 1.126030e+03 3.247434e+03 -3.690992e+01
-2.378882e+09 -2.178892e+09 -2.338885e+09 -7.103921e+02 2.106556e+03 1.461858e+02
-1.986646e+09 -1.786655e+09 -1.946648e+09 9.744132e+02 1.287318e+03 -1.885460e+02
-1.588247e+09 -1.388247e+09 -1.548245e+09 5.978733e+03 -4.891786e+03 3.903744e+03
-2.376745e+09 -2.176755e+09 -2.336747e+09 2.431050e+02 2.006681e+03 -1.137765e+02
-2.779408e+09 -2.579417e+09 -2.739411e+09 4.144513e+02 1.887381e+03 2.410484e+01
-2.782386e+09 -2.582384e+09 -2.742385e+09 -1.249365e+03 -4.278176e+02 7.300460e+02
-2.367632e+09 -2.167640e+09 -2.327634e+09 -8.743336e+02 1.102019e+03 1.587204e+02
-1.801266e+09 -1.601266e+09 -1.761266e+09 -1.006799e+03 -1.623259e+02 -9.307085e+00
-1.583135e+09 -1.383135e+09 -1.543135e+09 -8.314803e+02 -1.384881e+02 2.331866e+00
-2.822774e+09 -2.622773e+09 -2.782774e+09 -1.336248e+03 -9.129788e+01 1.098039e+02
-1.768118e+09 -1.568127e+09 -1.728120e+09 -8.499815e+02 1.468855e+03 1.764633e+02
-1.587471e+09 -1.387471e+09 -1.547471e+09 -6.401761e+02 -1.175526e+02 -1.623135e+01
-3.571643e+09 -3.371643e+09 -3.531643e+09 -9.422382e+02 -4.602575e+01 2.505596e+01
-1.576704e+09 -1.376704e+09 -1.536704e+09 -6.914893e+02 -1.028541e+02 -8.620116e+00
-1.967835e+09 -1.767843e+09 -1.927836e+09 -1.112482e+02 9.055343e+02 -4.542916e+01
-1.773970e+09 -1.573978e+09 -1.733971e+09 -2.089674e+01 1.024399e+03 -3.766967e+01
-3.610649e+09 -3.410649e+09 -3.570649e+09 -6.037457e+02 -2.083616e+01 -5.056489e+00
-3.583248e+09 -3.383248e+09 -3.543248e+09 -8.123390e+02 -3.708032e+01 -7.856663e+00
-2.812287e+09 -2.612285e+09 -2.772285e+09 -5.432446e+02 1.089246e+02 -2.097771e+01
-2.646842e+09 -2.446841e+09 -2.606841e+09 -1.109804e+03 1.308259e+02 -6.941675e+01
-1.594564e+09 -1.394563e+09 -1.554563e+09 -5.345726e+02 -6.910783e+01 -1.398193e+01
-3.390294e+09 -3.190293e+09 -3.350294e+09 -8.256560e+02 -5.388291e+01 -2.029462e+01
-3.562134e+09 -3.362134e+09 -3.522134e+09 -7.435176e+02 -3.477038e+01 -1.485510e+01
-1.579180e+09 -1.379181e+09 -1.539181e+09 -8.579532e+02 -9.998621e+01 -2.938384e+01
-2.476658e+09 -2.276656e+09 -2.436657e+09 -9.544870e+01 1.779072e+02 -2.851882e+01
-1.583290e+09 -1.383299e+09 -1.543293e+09 -9.863158e+03 -8.841275e+03 -4.537557e+03
-1.586926e+09 -1.386941e+09 -1.546931e+09 -1.285521e+04 -1.568478e+04 -6.358901e+03
-2.191121e+09 -1.991115e+09 -2.151121e+09 1.280879e+03 -4.467210e+02 -2.297564e+03
-3.438251e+09 -3.238245e+09 -3.398240e+09 -8.906205e+03 -9.184088e+03 4.003211e+03
-3.282181e+09 -3.082179e+09 -3.242180e+09 7.250740e+00 1.120088e+02 -1.337017e+01
-3.415357e+09 -3.215347e+09 -3.375364e+09 -1.758953e+03 -4.297018e+03 -5.052524e+03
-2.765283e+09 -2.565281e+09 -2.725282e+09 -1.007084e+00 8.041698e+01 -5.681875e+01
-3.156836e+09 -2.956840e+09 -3.116837e+09 -2.112768e+03 1.063351e+03 1.598996e+02
-3.366774e+09 -3.166778e+09 -3.326775e+09 -2.072933e+03 7.977618e+02 1.805656e+02
-2.565275e+09 -2.365280e+09 -2.525277e+09 -2.779541e+03 1.521366e+03 4.651667e+02
-2.310417e+09 -2.110421e+09 -2.270418e+09 -1.861152e+03 6.333865e+02 -1.893858e+01
-3.588931e+09 -3.388930e+09 -3.548941e+09 -2.580097e+03 -6.623732e+03 -2.334272e+03
-1.586556e+09 -1.386575e+09 -1.546564e+09 -8.751187e+03 -1.272558e+04 -3.844293e+03
-1.980081e+09 -1.780097e+09 -1.940089e+09 -1.566737e+03 -1.151644e+04 2.999729e+01
-1.583292e+09 -1.383307e+09 -1.543297e+09 -7.857901e+03 -1.146413e+04 -3.308485e+03
-3.138283e+09 -2.938287e+09 -3.098284e+09 -2.001630e+03 7.001581e+02 1.977639e+02
-1.780556e+09 -1.580567e+09 -1.740571e+09 9.895637e+03 3.191660e+03 4.277695e+04
-3.617381e+09 -3.417374e+09 -3.577392e+09 -1.713231e+03 -6.773320e+03 -2.867631e+03
-3.310416e+09 -3.110414e+09 -3.270416e+09 -2.418278e+03 1.949025e+02 4.309600e+02
-2.458634e+09 -2.258638e+09 -2.418634e+09 1.483987e+03 3.062009e+02 -8.908496e+01
-3.329457e+09 -3.129454e+09 -3.289458e+09 -2.888877e+03 5.529852e+02 6.096847e+02
-3.600325e+09 -3.400320e+09 -3.560341e+09 3.851556e+03 1.056406e+04 -5.797516e+03
-1.579688e+09 -1.379697e+09 -1.539689e+09 3.433037e+03 2.779475e+03 -5.252014e+02
-1.968645e+09 -1.768642e+09 -1.928644e+09 -1.290827e+03 -2.718852e+02 5.530429e+02
-3.587816e+09 -3.387824e+09 -3.547820e+09 8.359172e+02 2.274561e+03 -2.355646e+02
-3.391849e+09 -3.191846e+09 -3.351849e+09 -1.875775e+03 -1.617903e+02 6.866628e+02
-2.130241e+09 -1.930236e+09 -2.090239e+09 -4.661504e+02 -9.004493e+02 2.104957e+03
-3.214947e+09 -3.014952e+09 -3.174948e+09 2.024595e+03 8.542764e+02 -1.484274e+02
-3.383334e+09 -3.183333e+09 -3.343333e+09 1.597702e+02 8.928420e+01 -1.054886e+01
-2.415724e+09 -2.215722e+09 -2.375723e+09 9.447020e+01 6.278071e+01 -1.124992e+02
-2.756403e+09 -2.556402e+09 -2.716402e+09 -1.478632e+02 6.467313e+01 -2.108360e+01
-2.456261e+09 -2.256273e+09 -2.416265e+09 -6.520344e+02 3.413237e+03 2.782846e+01
-2.838489e+09 -2.638491e+09 -2.798488e+09 -3.568289e+03 2.060408e+03 -2.228457e+03
-2.798743e+09 -2.598742e+09 -2.758736e+09 -2.632637e+03 2.227603e+03 -7.558081e+03
-2.028005e+09 -1.828000e+09 -1.988004e+09 -4.388104e+03 4.035952e+03 -1.472445e+03
-2.713799e+09 -2.513805e+09 -2.673803e+09 -3.518207e+03 -5.344150e+03 -1.242232e+03
-1.786439e+09 -1.586430e+09 -1.746439e+09 -3.268085e+03 2.462434e+03 1.193912e+03
-3.129547e+09 -2.929544e+09 -3.089547e+09 -2.436591e+03 4.105731e+02 7.489064e+02
-2.593262e+09 -2.393263e+09 -2.553263e+09 -4.212136e+03 2.221307e+03 -2.380002e+03
-3.604111e+09 -3.404106e+09 -3.564118e+09 -2.579480e+03 -5.288665e+03 -3.207885e+03
-3.595466e+09 -3.395471e+09 -3.555468e+09 2.291481e+03 9.186717e+02 -1.616217e+02
-3.592466e+09 -3.392467e+09 -3.552468e+09 3.626760e+03 2.423847e+03 -1.246665e+03
-3.595467e+09 -3.395473e+09 -3.555468e+09 1.835812e+03 1.003323e+03 -1.843641e+02
-1.590666e+09 -1.390654e+09 -1.550663e+09 -8.810968e+02 -2.228776e+02 2.377035e+03
-1.807218e+09 -1.607219e+09 -1.767222e+09 -5.283639e+03 2.246446e+03 -2.769191e+03
-2.387392e+09 -2.187398e+09 -2.347392e+09 -3.558966e+03 1.695839e+03 7.158610e+02
-1.790700e+09 -1.590712e+09 -1.750704e+09 -5.772325e+02 3.034687e+03 1.917690e+02
-1.954794e+09 -1.754811e+09 -1.914800e+09 4.367247e+03 9.601386e+03 -2.031011e+03
-3.385442e+09 -3.185447e+09 -3.345444e+09 -2.881835e+03 1.663772e+03 6.133484e+02
-3.414944e+09 -3.214953e+09 -3.374950e+09 -1.454597e+03 3.490935e+03 4.270741e+02
-1.568744e+09 -1.368750e+09 -1.528745e+09 -1.488281e+03 4.508765e+02 -1.973089e+01
-3.312196e+09 -3.112188e+09 -3.272193e+09 -1.757997e+03 7.065272e+02 1.769629e+03
-3.171683e+09 -2.971688e+09 -3.131685e+09 -2.782717e+03 1.665216e+03 6.447065e+02
-3.170281e+09 -2.970287e+09 -3.130283e+09 -1.887649e+03 1.625079e+03 1.794171e+02
-1.744380e+09 -1.544391e+09 -1.704383e+09 -7.688909e+03 8.545352e+03 3.411486e+03
-3.582064e+09 -3.382069e+09 -3.542070e+09 -2.716689e+03 4.095343e+03 1.012151e+03
-2.632174e+09 -2.432160e+09 -2.592184e+09 -2.587555e+03 -5.258232e+03 -7.039329e+03
-3.615392e+09 -3.415385e+09 -3.575396e+09 -4.788659e+02 -3.490119e+03 -3.675384e+03
-2.563168e+09 -2.363175e+09 -2.523163e+09 -1.349450e+04 -1.503923e+04 2.081954e+04
-1.753561e+09 -1.553581e+09 -1.713585e+09 2.885637e+03 -2.021509e+04 2.861223e+03
-2.319825e+09 -2.119832e+09 -2.279827e+09 -9.616915e+02 1.021789e+03 -1.688073e+01
-3.617948e+09 -3.417951e+09 -3.577950e+09 5.892990e+02 -1.653344e+01 -2.584730e+02
-1.789817e+09 -1.589826e+09 -1.749819e+09 -2.007320e+03 2.235009e+03 4.388414e+02
-2.822815e+09 -2.622812e+09 -2.782865e+09 -6.242282e+03 2.914664e+04 4.049425e+03
-1.787658e+09 -1.587664e+09 -1.747658e+09 -2.638304e+03 1.249978e+03 3.424064e+02
-1.972053e+09 -1.772061e+09 -1.932054e+09 -1.932874e+03 1.438552e+03 3.977611e+02
-1.591549e+09 -1.391547e+09 -1.551547e+09 -3.629745e+02 2.391142e+02 -7.661635e+01
-1.590661e+09 -1.390658e+09 -1.550660e+09 1.104493e+02 1.100737e+02 1.284739e+01
-1.952051e+09 -1.752058e+09 -1.912052e+09 -1.675614e+03 1.071903e+03 4.664478e+01
-1.602623e+09 -1.402607e+09 -1.562620e+09 5.161366e+02 1.714526e+03 4.120064e+03
-1.782811e+09 -1.582816e+09 -1.742811e+09 1.993928e+03 8.289482e+02 -2.413721e+02
-2.743909e+09 -2.543915e+09 -2.703910e+09 2.322899e+03 8.762029e+02 -2.583891e+02
-1.753892e+09 -1.553897e+09 -1.713892e+09 3.384508e+03 1.795657e+03 -3.578056e+02
-1.801295e+09 -1.601295e+09 -1.761295e+09 8.418802e+02 6.428235e+01 -1.570873e+02
-1.583407e+09 -1.383404e+09 -1.543406e+09 8.862288e+02 -2.624328e+02 -2.331593e+02
-3.214231e+09 -3.014230e+09 -3.174230e+09 6.163997e+02 7.783024e+01 -7.991940e+01
-1.993543e+09 -1.793540e+09 -1.953542e+09 4.788836e+02 -1.652802e+00 -7.900838e+01
-3.597654e+09 -3.397657e+09 -3.557653e+09 -1.901369e+03 8.680483e+02 -2.234225e+03
-2.616501e+09 -2.416509e+09 -2.576503e+09 1.749202e+03 1.691131e+03 -3.303559e+02
-2.542408e+09 -2.342416e+09 -2.502411e+09 2.709556e+03 2.765921e+03 -4.288237e+02
-1.582818e+09 -1.382817e+09 -1.542818e+09 -1.067824e+03 -3.039902e+02 1.381888e+02
-3.620479e+09 -3.420479e+09 -3.580480e+09 -1.583445e+03 -5.594920e+01 4.549432e+01
-2.683289e+09 -2.483290e+09 -2.643290e+09 4.895005e+02 2.696767e+01 1.815795e-01
-1.591725e+09 -1.391723e+09 -1.551725e+09 -1.533431e+03 -3.812669e+02 4.045767e+02
-2.717720e+09 -2.517715e+09 -2.677719e+09 -1.794527e+03 -1.218721e+02 1.801821e+03
-2.448137e+09 -2.248138e+09 -2.408138e+09 4.269979e+02 3.810357e+01 -3.859245e+00
-3.200224e+09 -3.000221e+09 -3.160224e+09 3.027966e+02 -8.150840e+02 9.170402e+02
-3.599091e+09 -3.399090e+09 -3.559092e+09 -2.187105e+03 -1.670507e+02 2.541935e+02
-2.631622e+09 -2.431622e+09 -2.591622e+09 2.524557e+02 2.942977e+01 -5.367815e+01
-2.527153e+09 -2.327154e+09 -2.487153e+09 4.186610e+02 3.368486e+01 3.477200e+01
-2.401540e+09 -2.201541e+09 -2.361540e+09 5.667880e+02 6.648256e+01 5.156958e+01
-2.479612e+09 -2.279611e+09 -2.439611e+09 2.241238e+02 2.844246e+01 -4.687012e+01
-2.594848e+09 -2.394849e+09 -2.554849e+09 5.084904e+02 2.982854e+01 -1.491759e+01
-2.840767e+09 -2.640766e+09 -2.800767e+09 5.075922e+02 5.117563e+01 -1.830517e+01
-3.252760e+09 -3.052760e+09 -3.212760e+09 4.290097e+02 1.653986e+01 -1.076982e+01
-1.786019e+09 -1.586020e+09 -1.746020e+09 5.915569e+02 6.111382e+01 -5.068631e+00
-2.824639e+09 -2.624638e+09 -2.784639e+09 2.894065e+02 1.881268e+01 -4.131346e+01
-3.593985e+09 -3.393984e+09 -3.553985e+09 4.173765e+02 1.138659e+01 -5.381402e-01
-1.777200e+09 -1.577200e+09 -1.737200e+09 2.364884e+02 3.589346e+01 -4.113307e+01
-2.624048e+09 -2.424049e+09 -2.584049e+09 5.834421e+02 6.995545e+01 6.180840e+01
-3.398558e+09 -3.198559e+09 -3.358559e+09 5.950764e+02 1.196100e+01 -3.489754e+00
-2.673863e+09 -2.473864e+09 -2.633864e+09 5.343298e+02 9.287375e+00 -4.155903e+01
-3.178711e+09 -2.978715e+09 -3.138719e+09 5.345061e+03 5.800838e+03 -2.513640e+03
-2.770703e+09 -2.570706e+09 -2.730709e+09 5.370859e+03 7.479318e+03 -3.268112e+03
-3.169535e+09 -2.969542e+09 -3.129542e+09 4.042525e+03 4.119393e+03 -1.078118e+03
-2.767317e+09 -2.567322e+09 -2.727317e+09 2.528724e+03 1.060010e+03 -3.872922e+02
-1.580783e+09 -1.380787e+09 -1.540783e+09 5.031233e+03 2.736041e+03 -9.433349e+02
-2.600084e+09 -2.400086e+09 -2.560087e+09 5.203150e+03 4.609046e+03 -2.968074e+03
-1.567312e+09 -1.367316e+09 -1.527312e+09 -6.439414e+03 -5.599627e+03 -2.471817e+03
-3.562629e+09 -3.362625e+09 -3.522632e+09 -1.636616e+03 -3.317034e+03 -1.971822e+03
-3.359273e+09 -3.159270e+09 -3.319277e+09 -2.381627e+03 -3.190869e+03 -2.527303e+03
-1.975318e+09 -1.775329e+09 -1.935323e+09 6.061079e+03 6.565750e+03 -2.165636e+03
-3.591132e+09 -3.391129e+09 -3.551132e+09 -3.524028e+03 7.921674e+02 3.755921e+02
-2.824284e+09 -2.624293e+09 -2.784288e+09 -2.035349e+03 3.404166e+03 6.761632e+02
-2.053857e+09 -1.853867e+09 -2.013860e+09 -1.854027e+03 3.156194e+03 5.372465e+02
-3.166626e+09 -2.966618e+09 -3.126628e+09 2.903563e+03 -4.457420e+02 -2.039722e+03
-3.268284e+09 -3.068292e+09 -3.228291e+09 -1.163727e+03 3.968290e+03 3.439422e+02
-2.809852e+09 -2.609859e+09 -2.769857e+09 -2.965996e+03 3.520671e+03 7.692764e+02
-3.490714e+09 -3.290710e+09 -3.450715e+09 -2.140411e+03 -2.099161e+03 -1.432093e+03
-3.400514e+09 -3.200520e+09 -3.360520e+09 -2.997404e+03 3.843181e+03 8.875325e+02
-3.402761e+09 -3.202772e+09 -3.362770e+09 -1.500846e+03 5.413309e+03 3.829213e+02
-2.592556e+09 -2.392566e+09 -2.552562e+09 -4.226618e+03 5.384753e+03 1.721608e+03
-2.688106e+09 -2.488112e+09 -2.648115e+09 -5.028379e+03 -1.013266e+04 -2.949396e+03
-1.807141e+09 -1.607149e+09 -1.767142e+09 -3.559489e+03 2.958027e+03 8.985856e+02
-2.777745e+09 -2.577753e+09 -2.737747e+09 3.613228e+02 9.342388e+02 -4.580336e+01
-2.828258e+09 -2.628252e+09 -2.788266e+09 -3.646079e+03 -8.909261e+03 -5.124920e+03
-1.567205e+09 -1.367208e+09 -1.527208e+09 -1.018857e+03 -2.628759e+01 -2.956101e+02
-2.584127e+09 -2.384135e+09 -2.544130e+09 -1.994337e+03 1.915310e+03 3.527274e+02
-1.591682e+09 -1.391681e+09 -1.551683e+09 -2.801147e+03 3.820802e+02 6.227797e+01
-1.771721e+09 -1.571728e+09 -1.731722e+09 -1.985935e+03 1.440339e+03 1.532105e+02
-3.401844e+09 -3.201848e+09 -3.361847e+09 -2.852528e+03 1.782839e+03 6.145261e+02
-3.582310e+09 -3.382315e+09 -3.542312e+09 -1.229770e+03 3.345075e+02 -1.073780e+03
-3.590061e+09 -3.390052e+09 -3.550081e+09 -2.048143e+03 9.213376e+03 6.860863e+03
-3.607194e+09 -3.407192e+09 -3.567210e+09 -3.583083e+03 1.029095e+04 3.709912e+03
-3.073737e+09 -2.873747e+09 -3.033743e+09 -1.726882e+03 3.717330e+03 3.038145e+02
-1.853525e+09 -1.653538e+09 -1.813529e+09 -1.902053e+03 4.496510e+03 5.619318e+02
-3.602210e+09 -3.402206e+09 -3.562210e+09 -4.671094e+03 1.182325e+03 6.407768e+02
-3.181871e+09 -2.981880e+09 -3.141875e+09 4.046061e+02 2.054322e+03 -4.182065e+01
-1.590367e+09 -1.390379e+09 -1.550371e+09 -2.141744e+02 2.934794e+03 3.238898e+00
-3.602209e+09 -3.402206e+09 -3.562210e+09 -3.787637e+03 1.008063e+03 1.025634e+03
-3.386552e+09 -3.186561e+09 -3.346556e+09 -5.634044e+02 2.167713e+03 1.525395e+02
-1.889098e+09 -1.689098e+09 -1.849098e+09 8.728708e+02 9.180180e+01 -6.569100e+01
-3.382411e+09 -3.182408e+09 -3.342410e+09 -1.544953e+03 5.511242e+02 5.233336e+02
-3.377289e+09 -3.177294e+09 -3.337293e+09 3.288080e+03 3.594233e+03 -6.384855e+02
-3.177192e+09 -2.977200e+09 -3.137196e+09 2.376884e+03 2.665702e+03 -6.902569e+02
-1.754568e+09 -1.554568e+09 -1.714567e+09 -4.866862e+02 8.246498e+01 -9.284093e+01
-3.497164e+09 -3.297162e+09 -3.457162e+09 4.246579e+02 7.000953e+01 -2.825168e+01
-3.173847e+09 -2.973857e+09 -3.133855e+09 2.453497e+03 5.085236e+03 -1.095710e+03
-2.762027e+09 -2.562039e+09 -2.722037e+09 3.461526e+03 9.718352e+03 -2.099757e+03
-3.208711e+09 -3.008712e+09 -3.168712e+09 1.005249e+03 3.407197e+01 -4.137353e+01
-1.568000e+09 -1.368000e+09 -1.527999e+09 -5.300391e+02 1.004407e+02 -1.520646e+02
-2.403499e+09 -2.203500e+09 -2.363500e+09 9.867301e+02 7.222572e+01 -1.674801e+02
-2.855810e+09 -2.655812e+09 -2.815812e+09 8.312654e+02 -1.640991e+01 -2.484796e+02
-2.379965e+09 -2.179967e+09 -2.339966e+09 1.014878e+03 8.772774e+01 -2.171512e+02
-2.501095e+09 -2.301105e+09 -2.461102e+09 -2.334253e+03 -6.477827e+03 -7.531860e+02
-2.612792e+09 -2.412794e+09 -2.572793e+09 1.181827e+03 1.882952e+01 -2.131756e+02
-2.415719e+09 -2.215721e+09 -2.375720e+09 1.132627e+03 -8.821448e-01 -1.625430e+02
-3.175435e+09 -2.975436e+09 -3.135436e+09 1.227171e+03 -5.532027e+00 -1.397558e+02
-3.224221e+09 -3.024224e+09 -3.184223e+09 8.580440e+02 4.230381e+01 -2.058699e+02
-3.591977e+09 -3.391984e+09 -3.551981e+09 2.034333e+03 1.834413e+03 -1.984655e+02
-2.820093e+09 -2.620092e+09 -2.780091e+09 -4.104165e+03 2.102078e+03 -2.271421e+03
-2.074774e+09 -1.874777e+09 -2.034776e+09 1.700551e+02 1.971938e+01 -1.236890e+02
-2.146292e+09 -1.946294e+09 -2.106294e+09 -2.182279e+02 -5.107109e+00 6.407149e+00
-3.593768e+09 -3.393769e+09 -3.553768e+09 -6.385801e+02 -2.989811e+01 -1.318915e+00
-1.817062e+09 -1.617061e+09 -1.777064e+09 -8.729403e+03 -1.035768e+04 -6.219801e+03
-1.596771e+09 -1.396787e+09 -1.556775e+09 -4.302845e+03 -6.838880e+03 -1.122570e+03
-3.410220e+09 -3.210221e+09 -3.370221e+09 -4.995839e+02 -4.833044e+01 5.622701e+01
-2.505244e+09 -2.305256e+09 -2.465257e+09 -3.554368e+03 -1.422586e+04 -1.230344e+03
-3.348984e+09 -3.148986e+09 -3.308986e+09 -2.583147e+02 -1.371837e+01 4.827221e+01
-2.717886e+09 -2.517894e+09 -2.677898e+09 -2.175475e+03 -1.003774e+04 -1.216167e+03
-2.492649e+09 -2.292642e+09 -2.452668e+09 -5.737468e+03 -9.697889e+03 -3.953968e+03
-2.816105e+09 -2.616107e+09 -2.776106e+09 -5.064136e+02 -3.117768e+01 8.983807e+00
-2.673872e+09 -2.473874e+09 -2.633873e+09 -4.493224e+02 -1.488895e+01 -2.770481e+00
-3.607149e+09 -3.407137e+09 -3.567149e+09 -6.139904e+03 -1.142673e+03 -1.966400e+03
-2.153316e+09 -1.953318e+09 -2.113317e+09 -3.851410e+02 -3.140977e+01 5.817392e+01
-3.404045e+09 -3.204047e+09 -3.364046e+09 -4.398442e+02 -1.521095e+01 1.853636e+00
-3.385427e+09 -3.185424e+09 -3.345443e+09 -8.525794e+02 -6.884297e+03 1.992380e+03
-1.580633e+09 -1.380637e+09 -1.540632e+09 3.490552e+03 1.401870e+03 -3.139801e+02
-2.382931e+09 -2.182933e+09 -2.342933e+09 -5.637196e+02 -3.341870e+01 4.257890e+01
-2.536909e+09 -2.336912e+09 -2.496911e+09 -2.657332e+02 2.017572e+00 5.587820e+01
-2.000694e+09 -1.800696e+09 -1.960695e+09 -5.605789e+02 -3.630836e+01 1.092149e+01
-1.585089e+09 -1.385100e+09 -1.545092e+09 2.170689e+03 2.683985e+03 -3.390979e+02
-3.214678e+09 -3.014680e+09 -3.174680e+09 -5.065592e+02 -3.669553e+01 1.539498e+01
-1.798877e+09 -1.598879e+09 -1.758879e+09 -5.171160e+02 -1.937081e+01 -1.196103e+01
-2.169783e+09 -1.969783e+09 -2.129792e+09 -5.667008e+03 -3.130906e+02 1.755700e+03
-2.171444e+09 -1.971447e+09 -2.131446e+09 -8.047203e+03 -6.478557e+03 7.775990e+03
-2.814854e+09 -2.614842e+09 -2.774841e+09 -5.477034e+03 -5.781094e+03 1.569352e+03
-2.880603e+09 -2.680601e+09 -2.840602e+09 -8.580332e+03 -7.001162e+03 8.597670e+03
-3.433084e+09 -3.233089e+09 -3.393085e+09 1.939852e+03 5.935222e+02 -2.187942e+02
-1.688425e+09 -1.488428e+09 -1.648424e+09 1.991485e+03 4.068879e+02 -1.476213e+02
-3.258331e+09 -3.058328e+09 -3.218315e+09 -8.679447e+03 -8.143638e+03 1.016407e+04
-3.595122e+09 -3.395129e+09 -3.555124e+09 9.364454e+02 7.077302e+02 -6.293701e+01
-3.492809e+09 -3.292816e+09 -3.452811e+09 4.499126e+01 3.449205e+02 1.130669e+00
-1.782458e+09 -1.582465e+09 -1.742458e+09 7.367263e+03 5.681532e+03 -3.195110e+03
-1.688416e+09 -1.488420e+09 -1.648416e+09 2.440130e+03 9.608510e+02 -2.284740e+02
-3.583290e+09 -3.383296e+09 -3.543297e+09 2.603734e+03 3.997818e+03 -5.377092e+02
-3.398762e+09 -3.198751e+09 -3.358757e+09 -6.948857e+03 -3.742100e+03 -2.337184e+03
-3.426123e+09 -3.226121e+09 -3.386110e+09 -6.794751e+03 -7.240170e+03 9.735049e+03
-2.430910e+09 -2.230909e+09 -2.390911e+09 -2.848503e+03 4.352199e+02 -4.904084e+01
-1.778449e+09 -1.578419e+09 -1.738439e+09 -4.009976e+03 -3.620031e+03 -9.772488e+03
-3.626085e+09 -3.426089e+09 -3.586086e+09 2.159163e+03 6.316694e+02 -1.591643e+02
-3.597993e+09 -3.397991e+09 -3.557996e+09 3.675184e+03 3.180613e+03 -2.103567e+03
-2.410281e+09 -2.210261e+09 -2.370287e+09 -1.148326e+04 -1.494330e+04 4.844656e+03
-1.811954e+09 -1.611953e+09 -1.771951e+09 -2.950914e+04 -2.669853e+04 3.318133e+04
-2.455659e+09 -2.255653e+09 -2.415643e+09 -1.203668e+04 -1.345854e+04 1.552097e+04
-2.345338e+09 -2.145325e+09 -2.305334e+09 -1.114250e+03 -3.953316e+02 2.214890e+03
-3.372751e+09 -3.172758e+09 -3.332755e+09 1.804512e+03 2.044819e+03 -1.155257e+02
-3.194731e+09 -2.994737e+09 -3.154732e+09 1.086500e+03 4.527833e+02 -2.044792e+02
-3.581100e+09 -3.381108e+09 -3.541103e+09 8.290284e+01 1.328853e+03 -7.068205e+00
-3.104640e+09 -2.904632e+09 -3.064637e+09 -2.801694e+03 1.707507e+03 2.742443e+03
-1.794281e+09 -1.594273e+09 -1.754273e+09 -7.431048e+03 1.372630e+03 5.274798e+03
-1.768959e+09 -1.568949e+09 -1.728951e+09 -3.098606e+03 -3.243031e+02 2.537437e+03
-2.570067e+09 -2.370076e+09 -2.530070e+09 3.555743e+02 1.735539e+03 -4.431093e+01
-2.571947e+09 -2.371946e+09 -2.531951e+09 -1.137326e+04 8.909627e+03 7.766145e+03
-1.773826e+09 -1.573840e+09 -1.733830e+09 1.988644e+03 5.736252e+03 -5.175915e+02
-3.161250e+09 -2.961245e+09 -3.121248e+09 -7.868578e+02 6.059410e+02 5.872013e+02
-1.977610e+09 -1.777607e+09 -1.937605e+09 -8.679049e+03 5.300232e+03 5.494958e+03
-3.167014e+09 -2.967014e+09 -3.127014e+09 6.168698e+02 5.840640e+01 1.837648e+01
-3.375854e+09 -3.175854e+09 -3.335854e+09 6.266245e+02 2.673648e+01 -1.613530e+01
-3.370454e+09 -3.170454e+09 -3.330454e+09 4.969064e+02 4.858153e+01 -3.736008e+01
-2.341243e+09 -2.141243e+09 -2.301243e+09 4.813186e+02 5.994436e+01 -2.339451e+00
-2.777530e+09 -2.577530e+09 -2.737530e+09 6.214557e+02 3.455040e-01 -9.657375e+01
-2.603157e+09 -2.403160e+09 -2.563157e+09 1.596952e+03 1.507614e+02 -3.134710e+01
-1.600364e+09 -1.400373e+09 -1.560365e+09 1.216112e+03 1.450184e+03 -1.184889e+02
-1.593383e+09 -1.393391e+09 -1.553384e+09 2.235215e+03 1.086622e+03 -9.397089e+01
-3.590377e+09 -3.390380e+09 -3.550379e+09 3.174339e+03 1.532465e+03 -6.439020e+02
-2.548043e+09 -2.348049e+09 -2.508044e+09 2.618238e+03 1.641169e+03 -3.289083e+02
-1.585090e+09 -1.385100e+09 -1.545092e+09 2.225009e+03 2.505301e+03 -2.804811e+02
-3.173997e+09 -2.973997e+09 -3.133997e+09 6.264388e+02 4.718058e+01 7.585504e+00
-2.029829e+09 -1.829829e+09 -1.989829e+09 3.895627e+02 3.283010e+01 -1.225240e+01
-2.811346e+09 -2.611354e+09 -2.771349e+09 1.159476e+03 1.275075e+03 -1.235907e+01
-1.597879e+09 -1.397888e+09 -1.557881e+09 1.960656e+03 1.424905e+03 -1.867730e+02
-2.766787e+09 -2.566797e+09 -2.726797e+09 3.207299e+03 8.759808e+03 -1.623964e+03
-2.998333e+09 -2.798333e+09 -2.958333e+09 5.172922e+02 3.236446e+01 -4.217931e+01
-1.829630e+09 -1.629630e+09 -1.789630e+09 4.796263e+02 5.922734e+01 -4.420251e+01
-2.663402e+09 -2.463402e+09 -2.623402e+09 3.927369e+02 2.939674e+01 -5.687455e+01
-2.209781e+09 -2.009780e+09 -2.169781e+09 2.499594e+02 2.026552e+01 2.051574e+00
-2.051400e+09 -1.851399e+09 -2.011399e+09 4.359274e+02 3.348165e+01 -4.795474e+01
-2.566562e+09 -2.366571e+09 -2.526568e+09 4.571198e+03 6.489471e+03 -2.128336e+03
-1.647866e+09 -1.447882e+09 -1.607871e+09 -2.600847e+02 5.788597e+03 -1.223997e+02
-1.764401e+09 -1.564414e+09 -1.724406e+09 3.866278e+03 5.673445e+03 -5.799374e+02
-2.502881e+09 -2.302881e+09 -2.462881e+09 3.885450e+02 5.193734e+01 -1.715732e+01
-2.368708e+09 -2.168713e+09 -2.328712e+09 7.097729e+03 5.950602e+03 -3.199689e+03
-1.985682e+09 -1.785696e+09 -1.945687e+09 3.954401e+03 9.397023e+03 -1.133853e+03
-2.671798e+09 -2.471798e+09 -2.631798e+09 4.383072e+02 2.640420e+01 5.427341e+00
-3.175146e+09 -2.975154e+09 -3.135161e+09 4.668492e+03 9.191811e+03 -2.307955e+03
-2.741759e+09 -2.541737e+09 -2.701751e+09 -4.060651e+02 1.889512e+03 -9.073219e+03
-1.582003e+09 -1.382020e+09 -1.542006e+09 5.263344e+03 6.264737e+03 -1.256898e+03
-3.380145e+09 -3.180155e+09 -3.340163e+09 7.893665e+02 1.284597e+04 -4.589607e+02
-3.584311e+09 -3.384320e+09 -3.544321e+09 -1.194747e+03 5.704590e+03 7.777521e+02
-2.050481e+09 -1.850496e+09 -2.010485e+09 -2.560542e+03 6.596047e+03 1.081736e+03
-1.647865e+09 -1.447879e+09 -1.607870e+09 -2.521731e+03 5.510950e+03 8.292957e+02
-2.572062e+09 -2.372062e+09 -2.532062e+09 3.801926e+02 4.963942e+01 -5.020802e-01
-3.234465e+09 -3.034465e+09 -3.194465e+09 3.412820e+02 4.018064e+01 -3.907201e+01
-3.612228e+09 -3.412227e+09 -3.572227e+09 3.440213e+02 7.245010e+00 2.997497e+00
-1.967413e+09 -1.767427e+09 -1.927418e+09 3.273502e+03 6.028998e+03 -9.811626e+02
-1.631492e+09 -1.431492e+09 -1.591492e+09 3.324094e+02 4.469670e+01 -2.596347e+01
-1.619739e+09 -1.419739e+09 -1.579739e+09 4.397921e+02 5.790814e+01 -2.882448e+01
-3.312076e+09 -3.112076e+09 -3.272076e+09 3.403336e+02 2.952757e+01 7.012292e+00
-1.839850e+09 -1.639849e+09 -1.799849e+09 3.918855e+02 4.765755e+01 1.070251e+01
-1.851201e+09 -1.651200e+09 -1.811201e+09 4.089730e+02 4.968813e+01 -1.586573e+01
-3.398711e+09 -3.198711e+09 -3.358711e+09 4.300995e+02 3.238832e+01 -3.330349e+01
-1.579689e+09 -1.379700e+09 -1.539689e+09 5.167396e+03 3.293901e+03 -1.174590e+03
-3.584063e+09 -3.384068e+09 -3.544067e+09 3.227942e+03 2.788649e+03 -9.933505e+02
-2.459967e+09 -2.259977e+09 -2.419971e+09 -1.843098e+03 3.208233e+03 5.578692e+02
-1.589091e+09 -1.389152e+09 -1.549109e+09 1.261548e+04 3.292290e+04 -7.383002e+03
-3.387661e+09 -3.187667e+09 -3.347672e+09 3.293774e+03 8.152590e+03 -1.754177e+03
-3.204850e+09 -3.004857e+09 -3.164856e+09 -2.985260e+03 3.707620e+03 9.958738e+02
-1.589082e+09 -1.389098e+09 -1.549086e+09 6.242387e+03 8.376072e+03 -1.997122e+03
-3.140423e+09 -2.940429e+09 -3.100425e+09 -1.708603e+03 1.029963e+03 2.836031e+02
-1.574359e+09 -1.374344e+09 -1.534360e+09 3.133417e+04 2.433626e+04 -2.461937e+04
-1.764515e+09 -1.564522e+09 -1.724516e+09 -9.811045e+02 7.341803e+02 -2.291740e+01
-2.545301e+09 -2.345308e+09 -2.505302e+09 -9.213271e+02 1.007174e+03 4.729414e+01
-1.594084e+09 -1.394076e+09 -1.554080e+09 2.539263e+03 -2.737008e+03 4.013846e+03
-2.828455e+09 -2.628425e+09 -2.788358e+09 -2.651757e+02 -3.377441e+04 8.117049e+03
-3.607151e+09 -3.407144e+09 -3.567153e+09 -5.821326e+03 2.210958e+03 -2.614460e+03
-2.828017e+09 -2.628009e+09 -2.788031e+09 -2.369454e+03 -9.959555e+03 -5.014948e+03
-2.797486e+09 -2.597486e+09 -2.757506e+09 -3.267618e+03 -1.667292e+04 -2.693390e+03
-3.576582e+09 -3.376572e+09 -3.536533e+09 7.142521e+03 1.133906e+04 1.261141e+04
-3.600957e+09 -3.400954e+09 -3.560964e+09 4.189501e+02 -5.169525e+03 2.979428e+03
-2.648575e+09 -2.448568e+09 -2.608578e+09 -3.543510e+02 -4.072889e+03 5.392707e+03
-3.518799e+09 -3.318791e+09 -3.478778e+09 8.673946e+03 6.437581e+03 6.636626e+03
-1.583309e+09 -1.383336e+09 -1.543318e+09 1.043657e+04 -1.897497e+04 6.566994e+03
-3.405626e+09 -3.205620e+09 -3.365635e+09 2.851621e+03 -5.532758e+03 4.922344e+03
-2.169409e+09 -1.969403e+09 -2.129411e+09 4.145697e+03 2.632667e+03 1.940337e+03
-2.786302e+09 -2.586298e+09 -2.746303e+09 1.551197e+03 -3.394064e+03 3.856693e+03
-1.599626e+09 -1.399629e+09 -1.559627e+09 8.497690e+03 -7.093091e+03 5.514663e+03
-2.352484e+09 -2.152481e+09 -2.312490e+09 4.651519e+03 -1.939985e+03 -1.359735e+03
-3.396178e+09 -3.196185e+09 -3.356193e+09 -7.642239e+00 -1.089870e+04 1.503291e+03
-2.051845e+09 -1.851842e+09 -2.011851e+09 1.185669e+04 5.611562e+03 4.526947e+03
-1.815114e+09 -1.615114e+09 -1.775115e+09 1.624467e+03 -2.406932e+02 -5.640301e+02
-2.330629e+09 -2.130629e+09 -2.290628e+09 -3.743603e+02 -8.965759e+00 -1.569811e+02
-2.560228e+09 -2.360227e+09 -2.520226e+09 -4.553931e+02 1.232546e+02 -8.548066e+01
-1.573956e+09 -1.373951e+09 -1.533955e+09 -2.806669e+03 5.677582e+02 6.280003e+02
-1.904967e+09 -1.704966e+09 -1.864966e+09 2.247632e+02 3.406398e+01 -2.715421e+00
-1.619739e+09 -1.419739e+09 -1.579739e+09 3.773654e+02 6.048257e+01 -1.254526e+01
-2.722315e+09 -2.522314e+09 -2.682314e+09 -4.871996e+02 1.082903e+02 -4.642915e+01
-2.578669e+09 -2.378668e+09 -2.538668e+09 -6.657942e+02 1.114980e+02 -6.191102e+01
-2.820510e+09 -2.620509e+09 -2.780509e+09 -6.102478e+02 -3.490734e+01 -8.117111e+01
-1.578795e+09 -1.378794e+09 -1.538795e+09 -5.564073e+02 -6.790610e+01 -9.211389e+01
-1.590264e+09 -1.390263e+09 -1.550262e+09 5.883505e+02 -6.721512e+02 2.844562e+02
-3.492406e+09 -3.292405e+09 -3.452406e+09 -4.426553e+02 -2.081229e+01 -2.063764e+01
-3.363053e+09 -3.163051e+09 -3.323052e+09 -1.492600e+02 1.114943e+02 -2.643905e+00
-3.604946e+09 -3.404945e+09 -3.564945e+09 -9.080406e+02 -5.183104e+01 -2.808711e+01
-1.569181e+09 -1.369182e+09 -1.529183e+09 -2.216058e+03 2.032518e+02 -2.172749e+02
-2.351713e+09 -2.151712e+09 -2.311712e+09 2.232415e+02 1.401700e+02 6.868343e+00
-3.169391e+09 -2.969390e+09 -3.129389e+09 -7.043653e+02 1.489683e+02 -4.618124e+01
-3.375243e+09 -3.175242e+09 -3.335241e+09 -5.254030e+02 3.292416e+01 -7.461892e+01
-1.591495e+09 -1.391497e+09 -1.551496e+09 -9.234504e+02 -9.745401e+01 4.952782e+01
-3.578359e+09 -3.378360e+09 -3.538360e+09 -1.332645e+03 -7.076596e+00 -5.127261e+01
-3.582311e+09 -3.382315e+09 -3.542312e+09 -1.176187e+03 1.556739e+02 -8.312766e+02
-1.778397e+09 -1.578396e+09 -1.738396e+09 -2.737860e+02 4.265908e+01 -1.185320e+02
-1.951350e+09 -1.751349e+09 -1.911349e+09 -1.617639e+02 6.004572e+01 -7.266052e+01
-1.575587e+09 -1.375586e+09 -1.535586e+09 1.817564e+02 3.994411e+01 -3.874531e+01
-2.534286e+09 -2.334285e+09 -2.494285e+09 -1.453925e+01 5.588092e+01 -9.493120e+01
-1.575587e+09 -1.375586e+09 -1.535586e+09 1.260784e+02 1.759184e+01 2.236844e+01
-2.773742e+09 -2.573741e+09 -2.733741e+09 -7.059916e+02 7.236627e+01 -6.575915e+01
-2.770695e+09 -2.570693e+09 -2.730694e+09 -9.895395e+02 -2.318831e+02 1.360191e+02
-3.377359e+09 -3.177357e+09 -3.337358e+09 -9.441428e+02 -1.721196e+02 1.911846e+02
-2.393444e+09 -2.193442e+09 -2.353443e+09 -4.516894e+02 -3.961596e+02 2.621649e+02
-2.818700e+09 -2.618698e+09 -2.778699e+09 -3.593210e+02 -3.650678e+02 3.079116e+02
-2.561212e+09 -2.361211e+09 -2.521212e+09 -7.553555e+02 -2.731096e+02 4.321812e+01
-2.176725e+09 -1.976724e+09 -2.136724e+09 1.527044e+02 1.064383e+01 -1.058310e+01
-2.381316e+09 -2.181314e+09 -2.341315e+09 -6.124525e+02 -3.307820e+02 1.091748e+02
-2.723101e+09 -2.523100e+09 -2.683100e+09 1.218251e+02 9.767046e+00 -3.800574e+01
-3.491127e+09 -3.291126e+09 -3.451127e+09 1.891995e+02 7.224244e+00 1.659433e+00
-1.992732e+09 -1.792729e+09 -1.952731e+09 -8.663025e+02 -3.281987e+02 3.018821e+02
-2.577820e+09 -2.377818e+09 -2.537819e+09 -1.268044e+03 -2.620545e+02 2.848689e+02
-1.785712e+09 -1.585710e+09 -1.745711e+09 -5.811678e+02 -4.123733e+02 1.615552e+02
-1.968640e+09 -1.768639e+09 -1.928640e+09 -1.044270e+03 -2.181550e+02 9.956352e+01
-3.464979e+09 -3.264981e+09 -3.424971e+09 -1.450141e+03 1.021248e+03 -5.685278e+03
-2.141250e+09 -1.941255e+09 -2.101253e+09 4.472953e+03 -6.737201e+03 3.795108e+03
-2.407540e+09 -2.207543e+09 -2.367541e+09 3.258504e+03 -3.311020e+03 1.830736e+03
-1.615655e+09 -1.415656e+09 -1.575656e+09 3.599051e+02 4.402367e+01 -1.770382e+01
-1.564707e+09 -1.364708e+09 -1.524708e+09 7.166113e+02 7.550992e+01 5.247315e+00
-2.607842e+09 -2.407841e+09 -2.567842e+09 1.847184e+03 -2.298053e+03 1.224515e+03
-2.024536e+09 -1.824535e+09 -1.984536e+09 2.765931e+02 2.156118e+01 -1.190334e+01
-2.397044e+09 -2.197044e+09 -2.357044e+09 2.230428e+03 -2.032374e+03 1.290291e+03
-1.615655e+09 -1.415656e+09 -1.575656e+09 4.506770e+02 6.078436e+01 -9.192743e+00
-2.102477e+09 -1.902481e+09 -2.062477e+09 3.207447e+03 -3.049778e+03 1.669027e+03
-2.497117e+09 -2.297118e+09 -2.457117e+09 2.439380e+03 -2.008203e+03 1.282600e+03
-3.609568e+09 -3.409559e+09 -3.569590e+09 1.768622e+03 1.153971e+04 -3.629049e+03
-2.599233e+09 -2.399236e+09 -2.559235e+09 1.991037e+03 -2.398664e+03 1.070784e+03
-2.181566e+09 -1.981565e+09 -2.141565e+09 -4.166190e+02 -1.397539e+02 -4.092608e+01
-1.586142e+09 -1.386112e+09 -1.546200e+09 -8.507238e+03 -6.644431e+03 -6.471592e+03
-3.155185e+09 -2.955184e+09 -3.115184e+09 -5.599442e+02 -1.575919e+02 3.810773e+01
-3.408958e+09 -3.208956e+09 -3.368957e+09 -7.115458e+02 -1.565804e+02 1.187103e+02
-1.599761e+09 -1.399778e+09 -1.559766e+09 8.050976e+03 -1.023286e+04 4.947834e+03
-3.606628e+09 -3.406623e+09 -3.566630e+09 -1.833610e+03 -1.889037e+03 2.325984e+03
-3.121577e+09 -2.921575e+09 -3.081576e+09 -2.491471e+02 -2.922678e+02 1.020163e+02
-3.592827e+09 -3.392821e+09 -3.552832e+09 -9.620100e+02 -2.708441e+03 3.368193e+03
-1.784252e+09 -1.584257e+09 -1.744252e+09 -5.026705e+03 3.070876e+03 1.585364e+03
-3.400794e+09 -3.200790e+09 -3.360795e+09 2.516105e+02 -1.579556e+03 2.189363e+03
-1.963976e+09 -1.763977e+09 -1.923975e+09 -3.064075e+03 8.684405e+02 5.896092e+02
-2.190111e+09 -1.990112e+09 -2.150109e+09 3.332433e+03 1.417584e+03 -6.820544e+02
-2.353921e+09 -2.153921e+09 -2.313920e+09 -3.071822e+03 1.265703e+03 4.551106e+02
-2.155797e+09 -1.955797e+09 -2.115796e+09 3.985142e+03 2.085498e+03 -1.254454e+03
-1.974815e+09 -1.774815e+09 -1.934815e+09 -3.026988e+03 1.862871e+03 7.965562e+02
-1.772056e+09 -1.572065e+09 -1.732058e+09 5.598805e+03 4.337862e+03 -1.713035e+03
-1.993033e+09 -1.793034e+09 -1.953032e+09 -4.068377e+03 1.991489e+03 1.440225e+03
-1.795602e+09 -1.595606e+09 -1.755602e+09 -3.448761e+03 1.509107e+03 9.123575e+02
-1.771114e+09 -1.571119e+09 -1.731129e+09 3.892367e+03 3.620515e+04 -1.966583e+04
-2.811875e+09 -2.611878e+09 -2.771878e+09 -4.226849e+03 2.407507e+03 1.575041e+03
-2.565346e+09 -2.365292e+09 -2.525350e+09 -3.174012e+03 -6.863587e+02 -8.523255e+03
-1.585200e+09 -1.385208e+09 -1.545238e+09 2.537885e+04 5.098431e+04 -3.913339e+04
-2.325672e+09 -2.125673e+09 -2.285673e+09 -1.746207e+03 -1.489659e+02 -2.360649e+01
-3.372563e+09 -3.172564e+09 -3.332565e+09 -1.861297e+03 -2.323725e+01 1.085463e+02
-2.412238e+09 -2.212237e+09 -2.372238e+09 1.195989e+03 3.622982e+01 -1.040210e+02
-3.591808e+09 -3.391810e+09 -3.551809e+09 -1.553288e+03 3.366029e+01 -8.303703e+01
-2.426118e+09 -2.226118e+09 -2.386118e+09 6.716889e+02 1.273087e+02 -7.903524e+01
-2.114141e+09 -1.914141e+09 -2.074141e+09 7.693485e+02 4.885321e+01 -1.013209e+02
-1.582383e+09 -1.382383e+09 -1.542383e+09 6.495872e+02 1.290481e+02 1.360734e+01
-1.801914e+09 -1.601914e+09 -1.761914e+09 7.215992e+02 8.986970e+01 -1.281269e+01
-2.488953e+09 -2.288953e+09 -2.448953e+09 9.063985e+02 3.495245e+01 -1.527071e+02
-3.543098e+09 -3.343085e+09 -3.503112e+09 -1.350310e+03 2.778310e+03 4.830296e+03
-3.615493e+09 -3.415496e+09 -3.575484e+09 1.401672e+03 -7.535463e+02 -6.068135e+03
-2.418774e+09 -2.218775e+09 -2.378775e+09 7.534004e+02 7.117464e+01 -1.609856e+01
-3.411123e+09 -3.211122e+09 -3.371122e+09 7.007878e+02 -1.784439e+00 -1.170731e+02
-3.218684e+09 -3.018691e+09 -3.178711e+09 1.960677e+03 1.595911e+04 -2.738065e+03
-3.302692e+09 -3.102692e+09 -3.262692e+09 9.650920e+02 5.529691e+01 -6.017168e+01
-1.568593e+09 -1.368489e+09 -1.528534e+09 -2.047870e+04 -6.674739e+04 3.936109e+03
-2.621570e+09 -2.421569e+09 -2.581570e+09 7.959870e+02 8.388034e+01 -8.469437e+01
-3.410972e+09 -3.210972e+09 -3.370972e+09 7.885989e+02 3.614918e+01 -3.831234e+01
-2.595156e+09 -2.395167e+09 -2.555163e+09 -1.032944e+03 -7.067347e+03 -3.789580e+01
-1.982589e+09 -1.782603e+09 -1.942597e+09 -1.405180e+03 -1.073646e+04 2.533657e+02
-3.184773e+09 -2.984773e+09 -3.144773e+09 4.009169e+02 5.767951e+01 -5.505967e+01
-2.567159e+09 -2.367171e+09 -2.527168e+09 1.191236e+02 -8.128836e+03 4.713371e+02
-2.494822e+09 -2.294834e+09 -2.454831e+09 -1.645033e+03 -8.100610e+03 -5.702518e+02
-1.572872e+09 -1.372871e+09 -1.532871e+09 2.376487e+02 4.853778e+01 -7.869743e+01
-3.097043e+09 -2.897042e+09 -3.057042e+09 8.385289e+01 5.492094e+01 -4.238768e+01
-3.598398e+09 -3.398395e+09 -3.558396e+09 1.592882e+00 9.931695e+01 4.991764e+01
-1.586905e+09 -1.386903e+09 -1.546904e+09 -1.957730e+03 7.571174e+02 1.886066e+02
-1.890695e+09 -1.690709e+09 -1.850700e+09 -1.801900e+03 -5.570167e+03 2.525213e+02
-1.586907e+09 -1.386905e+09 -1.546904e+09 -2.987841e+03 1.055578e+03 6.496595e+02
-2.995946e+09 -2.795955e+09 -2.955952e+09 -1.014660e+03 -4.407380e+03 1.348552e+01
-1.600362e+09 -1.400358e+09 -1.560360e+09 -2.317823e+03 5.323068e+02 9.042003e+02
-2.611658e+09 -2.411669e+09 -2.571668e+09 -4.383723e+03 -9.782027e+03 -2.044577e+03
-3.177767e+09 -2.977777e+09 -3.137780e+09 -1.214857e+03 -8.584037e+03 -4.573806e+01
-3.404428e+09 -3.204434e+09 -3.364438e+09 -1.024894e+03 -5.366569e+03 2.103344e+02
-3.294188e+09 -3.094196e+09 -3.254196e+09 -2.587341e+03 -4.930082e+03 -1.425570e+03
-1.688743e+09 -1.488742e+09 -1.648742e+09 -4.418833e+03 -2.708517e+03 -1.987247e+03
-3.199417e+09 -2.999417e+09 -3.159417e+09 -6.790590e+02 -5.860439e+01 6.030341e+01
-2.826226e+09 -2.626224e+09 -2.786225e+09 -5.855421e+02 -3.282278e+02 1.704819e+02
-1.639028e+09 -1.439027e+09 -1.599027e+09 -8.392583e+02 -1.835082e+02 6.914586e+00
-1.778117e+09 -1.578117e+09 -1.738117e+09 -6.840079e+02 -4.441101e+01 -3.261359e+01
-1.995438e+09 -1.795439e+09 -1.955439e+09 -6.559664e+02 -1.640887e+01 5.371898e+01
-1.584683e+09 -1.384682e+09 -1.544682e+09 -6.585312e+02 -1.297393e+02 -7.364560e+01
-2.577140e+09 -2.377141e+09 -2.537141e+09 -7.350132e+02 -4.486293e+01 -3.409099e+01
-3.198880e+09 -2.998879e+09 -3.158880e+09 5.718074e+02 5.275644e+01 -5.312545e+01
-2.676268e+09 -2.476269e+09 -2.636269e+09 -6.065529e+02 -2.053504e+01 -1.301743e+00
-3.293050e+09 -3.093051e+09 -3.253050e+09 -5.809574e+02 -2.799209e+01 -2.736505e+01
-2.992331e+09 -2.792332e+09 -2.952332e+09 -4.763971e+02 -5.096224e+01 1.989645e+01
-2.758552e+09 -2.558556e+09 -2.718552e+09 -1.546098e+03 6.581812e+02 7.625492e+01
-2.761345e+09 -2.561346e+09 -2.721344e+09 -1.959276e+03 5.646677e+02 1.179157e+02
-1.589811e+09 -1.389816e+09 -1.549810e+09 8.885712e+03 4.963008e+03 -2.790183e+03
-1.595216e+09 -1.395220e+09 -1.555216e+09 1.565217e+03 2.457472e+02 1.108867e+00
-3.369976e+09 -3.169978e+09 -3.329976e+09 -2.170161e+03 5.425970e+02 1.993010e+02
-1.936566e+09 -1.736570e+09 -1.896567e+09 -2.026625e+03 8.199867e+02 1.341257e+02
-2.362927e+09 -2.162929e+09 -2.322927e+09 -2.500915e+03 7.890051e+02 3.380492e+02
-1.882306e+09 -1.682319e+09 -1.842310e+09 9.308467e+02 -5.950356e+03 8.453084e+02
-3.388293e+09 -3.188296e+09 -3.348300e+09 2.240508e+03 -4.007971e+03 1.963663e+03
-2.366147e+09 -2.166146e+09 -2.326147e+09 2.076198e+02 3.186907e+01 -3.578201e+01
-1.900668e+09 -1.700667e+09 -1.860667e+09 1.331083e+02 2.448616e+01 -4.596994e+01
-3.592438e+09 -3.392443e+09 -3.552447e+09 -1.298674e+03 -5.442679e+03 -1.098943e+02
-1.588281e+09 -1.388302e+09 -1.548287e+09 -1.477669e+03 -7.744203e+03 2.609477e+00
-1.895411e+09 -1.695403e+09 -1.855408e+09 6.058696e+03 4.175347e+03 -3.897639e+03
-1.748561e+09 -1.548560e+09 -1.708560e+09 2.019047e+02 2.755124e+01 -5.332410e+00
-2.507441e+09 -2.307440e+09 -2.467440e+09 1.239513e+02 4.500598e+01 -4.683789e+01
-1.798661e+09 -1.598660e+09 -1.758660e+09 1.824084e+02 2.615082e+01 -4.071675e+01
-2.111006e+09 -1.911005e+09 -2.071005e+09 1.877828e+02 2.920338e+01 -3.231966e+01
-3.305102e+09 -3.105105e+09 -3.265102e+09 2.185286e+03 6.849701e+02 -2.627834e+02
-2.788373e+09 -2.588372e+09 -2.748372e+09 1.377394e+02 1.085897e+01 -2.694160e+01
-3.596684e+09 -3.396683e+09 -3.556683e+09 2.111378e+02 2.738433e+01 3.126082e+01
-3.298510e+09 -3.098509e+09 -3.258509e+09 1.212417e+02 1.021248e+01 -1.946807e+01
-3.595445e+09 -3.395446e+09 -3.555446e+09 -7.944429e+02 -3.707690e+01 -1.354761e+01
-2.729719e+09 -2.529718e+09 -2.689719e+09 -4.317048e+02 -2.815114e+01 -1.463269e+01
-3.625735e+09 -3.425734e+09 -3.585734e+09 -4.478436e+02 -2.771200e+01 -1.296350e+01
-3.577351e+09 -3.377344e+09 -3.537348e+09 -6.287103e+02 3.976191e+02 9.111687e+02
-1.997317e+09 -1.797322e+09 -1.957317e+09 -5.082267e+03 3.080941e+03 1.626639e+03
-1.892751e+09 -1.692750e+09 -1.852751e+09 -4.171842e+02 -4.246479e+01 -4.511644e+01
-3.412692e+09 -3.212691e+09 -3.372691e+09 1.373080e+02 1.837254e+01 -2.034878e+01
-2.175354e+09 -1.975345e+09 -2.135349e+09 -9.923045e+02 1.585283e+02 9.100156e+02
-3.429290e+09 -3.229290e+09 -3.389290e+09 -4.835024e+02 -2.375153e+01 -4.381999e+01
-3.170153e+09 -2.970143e+09 -3.130147e+09 4.041652e+02 -8.570506e+02 1.433031e+03
-3.175077e+09 -2.975065e+09 -3.135073e+09 -1.069415e+03 -1.443150e+02 2.757166e+03
-3.369794e+09 -3.169782e+09 -3.329792e+09 -1.585132e+03 5.569330e+02 3.092509e+03
-3.136844e+09 -2.936825e+09 -3.096836e+09 1.120727e+02 -3.456014e+03 5.493774e+03
-3.034357e+09 -2.834343e+09 -2.994347e+09 6.235230e+02 -2.055448e+03 2.909957e+03
-1.894515e+09 -1.694515e+09 -1.854515e+09 -4.097109e+02 -4.538533e+01 -1.775871e+01
-3.383848e+09 -3.183836e+09 -3.343844e+09 1.503573e+03 -1.544294e+03 1.579261e+03
-1.594563e+09 -1.394563e+09 -1.554563e+09 -4.093096e+02 -4.585597e+01 -1.757977e+00
-2.625520e+09 -2.425507e+09 -2.585522e+09 -6.245329e+03 5.547915e+03 8.032937e+03
-3.008124e+09 -2.808123e+09 -2.968124e+09 -4.442320e+02 -5.071635e+01 -5.308548e+00
-2.391474e+09 -2.191473e+09 -2.351474e+09 -4.821511e+02 -5.075866e+01 -3.098058e+01
-2.743948e+09 -2.543929e+09 -2.703932e+09 4.416845e+03 -6.705158e+03 8.465640e+02
-2.817838e+09 -2.617825e+09 -2.777835e+09 -2.741976e+03 4.749486e+03 6.585617e+03
-3.601983e+09 -3.401980e+09 -3.561985e+09 -3.230802e+03 1.996903e+03 1.615717e+03
-3.209360e+09 -3.009361e+09 -3.169359e+09 -1.307858e+03 4.152995e+02 5.499107e+01
-3.606628e+09 -3.406623e+09 -3.566631e+09 -2.915101e+03 -5.689802e+02 2.618904e+03
-1.576994e+09 -1.376995e+09 -1.536992e+09 -3.541461e+03 1.005179e+03 6.536735e+02
-2.072790e+09 -1.872798e+09 -2.032791e+09 -1.551293e+02 4.405839e+02 7.770038e+01
-2.181338e+09 -1.981345e+09 -2.141339e+09 3.525090e+02 3.618222e+02 -6.612793e+00
-2.570558e+09 -2.370565e+09 -2.530559e+09 2.342522e+02 8.698158e+02 -1.895385e+02
-3.401251e+09 -3.201259e+09 -3.361254e+09 -1.852631e+02 5.304148e+02 -2.994156e+01
-1.993480e+09 -1.793487e+09 -1.953481e+09 7.996430e+02 4.618767e+02 -6.255572e+01
-1.785947e+09 -1.585947e+09 -1.745947e+09 4.716097e+02 5.006304e+01 -1.121567e+00
-1.564707e+09 -1.364708e+09 -1.524708e+09 5.727394e+02 8.031304e+01 4.177561e+01
-3.612263e+09 -3.412264e+09 -3.572264e+09 -9.417461e+02 -6.189516e+01 4.170297e+01
-3.398170e+09 -3.198171e+09 -3.358171e+09 -7.559902e+02 -1.792376e+01 -2.474915e+01
-3.204337e+09 -3.004344e+09 -3.164339e+09 8.402685e+02 1.182019e+03 -1.695190e+02
-1.762074e+09 -1.562076e+09 -1.722075e+09 -1.142659e+03 -2.408039e+01 -6.660356e+01
-2.776212e+09 -2.576211e+09 -2.736212e+09 -1.395130e+03 -1.554692e+02 8.359729e+01
-1.594862e+09 -1.394863e+09 -1.554863e+09 -8.297241e+02 -9.108682e+01 4.162222e+01
-2.591269e+09 -2.391278e+09 -2.551271e+09 -2.877537e+02 1.176378e+03 4.144996e+01
-3.595501e+09 -3.395503e+09 -3.555502e+09 -6.821415e+02 -1.566431e+01 -7.261995e+00
-3.298013e+09 -3.098020e+09 -3.258015e+09 5.926569e+02 4.814061e+02 -1.945990e+02
-2.999780e+09 -2.799787e+09 -2.959781e+09 3.549330e+02 4.459375e+02 -5.345267e+01
-2.957192e+09 -2.757193e+09 -2.917193e+09 -5.737037e+02 -4.643357e+01 3.250289e+01
-1.560983e+09 -1.360985e+09 -1.520985e+09 -9.123712e+02 -6.423377e+01 -3.933181e+00
-3.604588e+09 -3.404591e+09 -3.564590e+09 -2.147529e+02 7.047264e+00 -1.512458e+02
-2.008023e+09 -1.808031e+09 -1.968025e+09 1.353156e+03 1.749363e+03 -3.100589e+02
-2.520976e+09 -2.320980e+09 -2.480976e+09 1.924094e+03 5.566847e+02 -1.842681e+02
-2.508087e+09 -2.308090e+09 -2.468089e+09 1.662290e+02 3.608278e+01 -1.643653e+02
-2.041220e+09 -1.841233e+09 -2.001224e+09 -2.165017e+03 5.288235e+03 3.076442e+02
-1.608058e+09 -1.408058e+09 -1.568058e+09 6.917660e+02 7.914284e+01 -2.228898e-01
-2.696225e+09 -2.496232e+09 -2.656227e+09 -1.441422e+02 6.305790e+02 -5.056876e+01
-1.770367e+09 -1.570375e+09 -1.730368e+09 -1.024771e+02 8.241752e+02 2.803073e+01
-2.784475e+09 -2.584485e+09 -2.744489e+09 5.055157e+03 1.488571e+04 -4.542146e+03
-3.162017e+09 -2.962029e+09 -3.122027e+09 3.549672e+03 7.262776e+03 -1.576245e+03
-1.589808e+09 -1.389810e+09 -1.549808e+09 6.923599e+03 4.275950e+03 -2.355908e+03
-3.604750e+09 -3.404750e+09 -3.564750e+09 8.453195e+02 1.196236e+01 -7.660178e+01
-3.597265e+09 -3.397265e+09 -3.557265e+09 7.796224e+02 2.832225e+01 -3.459280e+01
-3.387362e+09 -3.187361e+09 -3.347372e+09 6.776307e+03 7.650976e+03 -4.735473e+03
-1.690839e+09 -1.490839e+09 -1.650838e+09 -5.670211e+02 6.319942e+01 -1.337402e+02
-3.123124e+09 -2.923125e+09 -3.083124e+09 3.381508e+03 1.661939e+03 -8.437791e+02
-3.381340e+09 -3.181343e+09 -3.341346e+09 3.974690e+03 4.788717e+03 -1.660083e+03
-1.576994e+09 -1.376993e+09 -1.536992e+09 -2.285389e+03 9.160468e+02 2.902920e+02
-3.176858e+09 -2.976861e+09 -3.136860e+09 -3.259134e+03 1.843335e+03 1.025936e+03
-1.581278e+09 -1.381279e+09 -1.541277e+09 -2.580765e+03 8.708286e+02 2.780185e+02
-2.373348e+09 -2.173359e+09 -2.333355e+09 6.118193e+03 7.998127e+03 -2.801039e+03
-1.600227e+09 -1.400226e+09 -1.560226e+09 -8.706871e+02 2.369554e+02 -1.347540e+02
-3.380661e+09 -3.180670e+09 -3.340670e+09 2.760725e+03 5.900065e+03 -7.436744e+02
-3.584269e+09 -3.384272e+09 -3.544275e+09 3.827592e+03 3.932578e+03 -1.520672e+03
-1.572166e+09 -1.372169e+09 -1.532166e+09 -1.617249e+03 5.574109e+02 -3.829015e+01
-1.961706e+09 -1.761731e+09 -1.921724e+09 -1.440345e+03 2.808492e+04 5.993920e+02
-1.581277e+09 -1.381279e+09 -1.541276e+09 -2.271100e+03 1.000246e+03 8.585203e+01
-1.794823e+09 -1.594838e+09 -1.754830e+09 1.169884e+04 1.473840e+04 -4.344920e+03
-3.592196e+09 -3.392193e+09 -3.552196e+09 -1.666616e+03 7.303195e+02 5.147869e+02
-3.381640e+09 -3.181644e+09 -3.341648e+09 5.367748e+03 5.432188e+03 -2.676616e+03
-1.587371e+09 -1.387370e+09 -1.547370e+09 1.789139e+02 5.615631e+01 -5.842951e+01
-1.578665e+09 -1.378664e+09 -1.538664e+09 -4.157971e+00 5.768612e+01 -1.304973e+02
-1.967020e+09 -1.767028e+09 -1.927022e+09 5.370816e+03 6.075678e+03 -1.494997e+03
-1.690840e+09 -1.490841e+09 -1.650839e+09 -7.906246e+02 6.654089e+01 -1.484006e+02
-1.782668e+09 -1.582678e+09 -1.742672e+09 7.116251e+03 7.288935e+03 -1.593437e+03
-1.821030e+09 -1.620961e+09 -1.780988e+09 -4.367406e+03 1.703459e+04 -4.521489e+04
-2.392141e+09 -2.192143e+09 -2.352142e+09 6.623215e+02 5.175566e+01 -1.981778e+01
-3.436336e+09 -3.236338e+09 -3.396338e+09 6.845660e+02 4.770505e+01 -5.407753e+01
-1.999143e+09 -1.799144e+09 -1.959143e+09 6.571548e+02 2.775129e+01 1.918783e+00
-2.453194e+09 -2.253197e+09 -2.413196e+09 1.134562e+02 3.689097e+01 -5.087900e+01
-2.799953e+09 -2.599953e+09 -2.759953e+09 6.681681e+02 2.940767e+01 -3.189430e+01
-3.627039e+09 -3.427036e+09 -3.587029e+09 3.036877e+03 -2.427506e+03 -3.263634e+03
-3.578563e+09 -3.378557e+09 -3.538559e+09 2.286076e+03 -8.829184e+02 -6.095140e+02
-1.579890e+09 -1.379911e+09 -1.539898e+09 1.189030e+02 -9.303133e+03 1.011678e+03
-3.208170e+09 -3.008171e+09 -3.168171e+09 5.094271e+02 4.448365e+01 -3.463260e+01
-1.690834e+09 -1.490847e+09 -1.650837e+09 1.552108e+03 -4.463435e+03 5.660991e+02
-3.600389e+09 -3.400392e+09 -3.560400e+09 -2.177849e+03 -6.988041e+03 -1.107225e+03
-1.763984e+09 -1.563980e+09 -1.723979e+09 -8.565301e+03 4.435267e+03 4.687667e+03
-3.608868e+09 -3.408864e+09 -3.568872e+09 -3.042931e+03 2.991913e+03 2.720405e+03
-3.404643e+09 -3.204645e+09 -3.364644e+09 7.327203e+02 1.249524e+01 -9.326156e+01
-1.595213e+09 -1.395214e+09 -1.555212e+09 -5.469626e+03 2.981785e+03 2.169537e+03
-3.143171e+09 -2.943177e+09 -3.103179e+09 -4.130331e+03 5.830683e+03 1.914183e+03
-2.668072e+09 -2.468074e+09 -2.628073e+09 6.319754e+02 4.330835e+01 -9.247981e+01
-3.193273e+09 -2.993275e+09 -3.153274e+09 5.488135e+02 2.026273e+01 -6.674379e+01
-3.525891e+09 -3.325884e+09 -3.485890e+09 -1.948789e+03 9.073517e+02 1.682307e+03
-2.562018e+09 -2.362010e+09 -2.522015e+09 3.295421e+02 -6.631347e+01 8.950312e+02
-3.293952e+09 -3.093949e+09 -3.253950e+09 1.082542e+03 -1.244589e+00 -2.001005e+02
-1.576722e+09 -1.376715e+09 -1.536718e+09 -1.708349e+03 6.844513e+02 1.325724e+03
-2.391653e+09 -2.191652e+09 -2.351653e+09 1.129044e+03 1.839097e+01 -2.435660e+02
-2.010522e+09 -1.810517e+09 -1.970519e+09 -2.519169e+03 6.297773e+02 1.334189e+03
-3.614558e+09 -3.414552e+09 -3.574556e+09 -2.285510e+02 1.782389e+02 7.302529e+02
-3.385409e+09 -3.185410e+09 -3.345410e+09 5.640953e+02 3.394952e+01 -2.971395e+01
-2.606743e+09 -2.406744e+09 -2.566744e+09 1.413940e+03 2.425300e+01 -2.536201e+02
-2.850721e+09 -2.650722e+09 -2.810722e+09 1.782521e+03 -2.066905e+02 -4.289629e+02
-2.762364e+09 -2.562366e+09 -2.722365e+09 9.850987e+02 3.306120e+01 -1.551756e+02
-2.195501e+09 -1.995504e+09 -2.155500e+09 1.536251e+03 2.956331e+02 -4.173431e+01
-2.605670e+09 -2.405669e+09 -2.565670e+09 1.222902e+03 7.651787e+01 -2.455682e+02
-3.297662e+09 -3.097665e+09 -3.257661e+09 1.566327e+03 3.054351e+02 -1.487582e+02
-3.598044e+09 -3.398047e+09 -3.558043e+09 1.651236e+03 2.620972e+02 -3.525695e+01
-1.859963e+09 -1.659963e+09 -1.819964e+09 1.939864e+03 -3.736802e+02 -7.599865e+02
-1.860753e+09 -1.660753e+09 -1.820754e+09 1.306549e+03 1.733474e+02 -2.562265e+02
-2.204782e+09 -2.004784e+09 -2.164784e+09 2.519262e+02 1.202493e+01 1.120659e+01
-1.609726e+09 -1.409727e+09 -1.569727e+09 5.917646e+02 5.916025e+01 -1.574761e+01
-2.792984e+09 -2.592984e+09 -2.752984e+09 6.279778e+02 1.321703e+01 -3.056832e+01
-3.165809e+09 -2.965809e+09 -3.125809e+09 4.978059e+02 6.054671e+01 1.834606e+01
-3.589186e+09 -3.389187e+09 -3.549187e+09 4.771291e+02 6.459274e+00 -1.542325e+00
-1.554623e+09 -1.354623e+09 -1.514623e+09 5.148769e+02 5.850269e+01 -3.944484e+01
-1.561784e+09 -1.361784e+09 -1.521784e+09 4.556730e+02 5.616153e+01 -1.605521e+01
-1.561784e+09 -1.361784e+09 -1.521784e+09 4.558186e+02 5.605358e+01 7.197709e-01
-1.781864e+09 -1.581864e+09 -1.741864e+09 5.482064e+02 4.486188e+01 1.612539e+01
-1.554623e+09 -1.354623e+09 -1.514623e+09 4.354029e+02 6.632500e+01 -1.964088e+01
-1.783096e+09 -1.583096e+09 -1.743096e+09 5.365456e+02 4.255356e+01 2.986263e+01
-2.623128e+09 -2.423128e+09 -2.583128e+09 5.146698e+02 3.338786e+01 -1.544173e+01
-2.421898e+09 -2.221897e+09 -2.381897e+09 2.787852e+02 4.948649e+01 -3.768635e+01
-3.288865e+09 -3.088866e+09 -3.248866e+09 4.337462e+02 2.033086e+01 -3.427232e+01
-2.812141e+09 -2.612135e+09 -2.772138e+09 -1.134151e+03 2.396049e+02 9.332811e+02
-3.348386e+09 -3.148382e+09 -3.308385e+09 -1.049330e+03 3.923622e+02 6.088401e+02
-1.631492e+09 -1.431492e+09 -1.591492e+09 4.031345e+02 5.784975e+01 -1.166572e+01
-3.401312e+09 -3.201305e+09 -3.361313e+09 -3.465601e+03 2.135996e+03 3.303696e+03
-1.595435e+09 -1.395434e+09 -1.555435e+09 -9.389088e+02 -3.817573e+02 3.177544e+02
-2.600541e+09 -2.400532e+09 -2.560539e+09 -5.657902e+03 4.134107e+03 4.871620e+03
-2.792966e+09 -2.592966e+09 -2.752967e+09 -3.236821e+03 2.358815e+03 1.034149e+03
-2.408913e+09 -2.208918e+09 -2.368915e+09 -5.018483e+03 4.026315e+03 1.714677e+03
-3.157084e+09 -2.957092e+09 -3.117088e+09 3.461281e+03 3.118440e+03 -9.136548e+02
-2.147535e+09 -1.947531e+09 -2.107532e+09 -2.778715e+03 1.544286e+03 1.336873e+03
-2.599916e+09 -2.399910e+09 -2.559913e+09 -1.592354e+03 4.907303e+02 7.197937e+02
-3.194546e+09 -2.994541e+09 -3.154544e+09 -1.254999e+02 2.047900e+02 3.215689e+02
-1.575587e+09 -1.375586e+09 -1.535586e+09 1.610087e+02 3.592486e+01 -8.502527e+01
-1.964965e+09 -1.764964e+09 -1.924963e+09 -3.466904e+02 6.089908e+01 -6.492741e+01
-3.308038e+09 -3.108037e+09 -3.268037e+09 1.542390e+02 3.076834e+01 -4.415025e+01
-1.587371e+09 -1.387370e+09 -1.547370e+09 1.834448e+02 3.709119e+01 -6.635694e+01
-1.889778e+09 -1.689777e+09 -1.849777e+09 8.415544e+01 2.658175e+01 -5.158387e+01
-2.404358e+09 -2.204356e+09 -2.364357e+09 -2.519779e+03 1.092877e+03 7.282531e+02
-1.812033e+09 -1.612029e+09 -1.772030e+09 -2.619964e+03 7.806844e+02 1.136949e+03
-1.798851e+09 -1.598847e+09 -1.758849e+09 -2.623617e+03 8.445951e+02 9.446474e+02
-1.593383e+09 -1.393390e+09 -1.553384e+09 1.785973e+03 6.470798e+02 -8.407457e+01
-1.580656e+09 -1.380654e+09 -1.540654e+09 -6.672058e+03 5.512157e+03 3.525082e+03
-1.812034e+09 -1.612029e+09 -1.772031e+09 -3.041222e+03 1.117001e+03 1.438299e+03
-1.790595e+09 -1.590594e+09 -1.750594e+09 2.980814e+03 -2.868693e+03 2.356828e+03
-1.776906e+09 -1.576901e+09 -1.736903e+09 1.959131e+03 -1.832391e+03 2.193966e+03
-3.407202e+09 -3.207204e+09 -3.367204e+09 3.184973e+02 8.246864e+00 -1.751822e+00
-1.580786e+09 -1.380792e+09 -1.540785e+09 6.368801e+03 4.039454e+03 -1.601250e+03
-2.710286e+09 -2.510284e+09 -2.670286e+09 1.338048e+03 -2.106036e+03 1.508963e+03
-3.611712e+09 -3.411715e+09 -3.571714e+09 1.142600e+02 1.934783e+00 -3.581925e+02
-3.490762e+09 -3.290762e+09 -3.450762e+09 3.361312e+02 6.337690e+00 4.740080e+00
-2.811575e+09 -2.611575e+09 -2.771579e+09 2.855324e+03 -6.210285e+03 4.282696e+03
-3.137121e+09 -2.937124e+09 -3.097123e+09 -8.760195e+02 2.509242e+01 -6.761355e+01
-3.105639e+09 -2.905635e+09 -3.065639e+09 1.509699e+03 -1.835861e+03 1.857308e+03
-2.603004e+09 -2.402994e+09 -2.563003e+09 -1.217336e+03 -1.287293e+03 4.163091e+03
-3.393839e+09 -3.193841e+09 -3.353840e+09 2.127253e+03 -5.249220e+02 -1.152491e+03
-2.805653e+09 -2.605652e+09 -2.765655e+09 2.239008e+03 -3.543478e+03 2.478198e+03
-3.232106e+09 -3.032107e+09 -3.192106e+09 2.828423e+03 -7.225710e+02 -1.872400e+03
-3.595714e+09 -3.395713e+09 -3.555727e+09 4.016354e+02 -8.533281e+03 3.667057e+03
-2.100998e+09 -1.900998e+09 -2.060998e+09 3.104921e+03 -1.208669e+03 -1.807282e+03
-3.001259e+09 -2.801259e+09 -2.961259e+09 5.328542e+02 5.609768e+01 4.492335e-01
-3.423493e+09 -3.223493e+09 -3.383492e+09 2.104419e+03 -3.044958e+01 -1.114928e+03
-3.559861e+09 -3.359865e+09 -3.519863e+09 1.233592e+02 -1.763736e+01 -5.876753e+02
-2.021558e+09 -1.821558e+09 -1.981558e+09 7.542335e+02 7.029023e+01 7.273612e+00
-2.839577e+09 -2.639540e+09 -2.799586e+09 -8.603201e+02 -1.380746e+04 -4.490300e+03
-1.602627e+09 -1.402630e+09 -1.562630e+09 -1.137631e+01 2.566769e+01 6.269103e+00
-2.612492e+09 -2.412435e+09 -2.572466e+09 -9.318295e+03 -1.869523e+04 2.839495e+03
-2.841124e+09 -2.641127e+09 -2.801126e+09 -9.281077e+01 7.641757e+00 -1.364140e+02
-2.171154e+09 -1.971110e+09 -2.131201e+09 -7.400037e+03 1.498397e+04 1.503537e+04
-1.581681e+09 -1.381470e+09 -1.541641e+09 -7.370047e+03 -8.873600e+04 7.976745e+03
-3.603452e+09 -3.403440e+09 -3.563445e+09 4.554700e+03 -4.916825e+03 -3.609081e+03
-2.574206e+09 -2.374188e+09 -2.534208e+09 -9.719828e+02 -4.561657e+03 3.490087e+03
-1.605485e+09 -1.405451e+09 -1.565474e+09 -1.974687e+04 -2.516943e+04 6.273241e+03
-3.388790e+09 -3.188780e+09 -3.348804e+09 -5.182599e+03 6.557388e+03 8.873352e+03
-1.791318e+09 -1.591127e+09 -1.751308e+09 -2.246990e+03 -9.462193e+04 8.419239e+03
-1.802791e+09 -1.602714e+09 -1.762787e+09 1.894720e+04 -2.791363e+04 -6.373821e+03
-3.591889e+09 -3.391885e+09 -3.551890e+09 -3.876482e+02 -1.891309e+03 2.268946e+03
-1.793910e+09 -1.593903e+09 -1.753907e+09 3.089826e+03 -3.287167e+03 4.446247e+03
-1.577081e+09 -1.377079e+09 -1.537079e+09 2.833186e+03 -2.311309e+03 2.114502e+03
-1.600894e+09 -1.400885e+09 -1.560892e+09 -4.760747e+03 4.041070e+03 -7.678673e+02
-3.413681e+09 -3.213679e+09 -3.373680e+09 -2.234643e+02 -3.545202e+02 2.984654e+02
-2.593760e+09 -2.393758e+09 -2.553759e+09 2.181975e+02 -6.119113e+02 4.911204e+02
-2.700150e+09 -2.500149e+09 -2.660149e+09 6.698149e+02 -7.896779e+02 5.169635e+02
-3.402845e+09 -3.202843e+09 -3.362844e+09 -4.577549e+03 2.679569e+03 -1.899994e+02
-2.600743e+09 -2.400740e+09 -2.560743e+09 2.920171e+03 -2.665635e+03 2.413231e+03
-2.394960e+09 -2.194957e+09 -2.354958e+09 3.736660e+02 -6.462840e+02 4.605691e+02
-2.812416e+09 -2.612414e+09 -2.772415e+09 3.783281e+02 -7.176035e+02 5.227951e+02
-1.892690e+09 -1.692689e+09 -1.852688e+09 6.711342e+02 -6.103876e+02 3.111717e+02
-1.995987e+09 -1.795985e+09 -1.955985e+09 7.255675e+01 -4.941336e+02 2.363063e+02
-1.591684e+09 -1.391683e+09 -1.551684e+09 -1.529492e+03 -5.049121e+02 4.487549e+02
-1.593557e+09 -1.393560e+09 -1.553560e+09 -9.309553e+02 3.064519e+01 -1.277810e+02
-2.397530e+09 -2.197529e+09 -2.357530e+09 6.364731e+01 -8.904240e+02 5.478976e+02
-2.195115e+09 -1.995114e+09 -2.155114e+09 2.302311e+02 -3.561024e+02 1.152695e+02
-3.577612e+09 -3.377614e+09 -3.537614e+09 -2.077851e+03 7.030666e+01 -1.872783e+02
-1.943839e+09 -1.743841e+09 -1.903841e+09 -1.758326e+03 3.019895e+01 -1.114497e+02
-2.520411e+09 -2.320410e+09 -2.480410e+09 2.554731e+02 -3.425338e+02 2.569212e+02
-3.630972e+09 -3.430974e+09 -3.590974e+09 -1.107134e+03 6.806743e+01 -2.609452e+02
-1.600753e+09 -1.400787e+09 -1.560759e+09 2.812451e+04 2.431260e+04 -1.424010e+04
-2.383621e+09 -2.183625e+09 -2.343623e+09 8.984096e+03 7.444562e+03 -4.636815e+03
-3.384134e+09 -3.184131e+09 -3.344148e+09 1.293790e+03 1.013622e+04 -5.606508e+03
-2.478664e+09 -2.278671e+09 -2.438666e+09 -1.672982e+02 6.576845e+02 9.896077e+01
-3.584269e+09 -3.384272e+09 -3.544275e+09 3.967371e+03 4.468867e+03 -1.803287e+03
-1.690837e+09 -1.490844e+09 -1.650838e+09 -2.932959e+02 4.760092e+02 -1.925199e+01
-1.946864e+09 -1.746861e+09 -1.906865e+09 -1.605198e+03 -3.065619e+03 1.571773e+03
-1.593365e+09 -1.393362e+09 -1.553363e+09 8.970547e+03 5.833303e+03 -4.530945e+03
-2.221808e+09 -2.021808e+09 -2.181807e+09 3.425236e+03 1.441672e+03 -7.924425e+02
-2.925138e+09 -2.725138e+09 -2.885139e+09 4.160030e+03 2.219502e+03 -1.284461e+03
-3.037116e+09 -2.837122e+09 -2.997117e+09 -6.804888e+02 5.100378e+02 3.523229e+01
-3.589018e+09 -3.389007e+09 -3.549021e+09 1.591150e+03 4.725319e+03 -5.607119e+03
-3.590290e+09 -3.390291e+09 -3.550304e+09 4.091208e+03 8.990685e+03 -3.351088e+03
-3.109825e+09 -2.909832e+09 -3.069827e+09 -8.767860e+02 5.905659e+02 -3.225879e+01
-2.373708e+09 -2.173716e+09 -2.333710e+09 -1.098572e+02 9.864163e+02 -2.899195e+01
-2.506964e+09 -2.306963e+09 -2.466963e+09 2.685483e+02 2.382130e+01 -6.491420e+01
-3.598948e+09 -3.398945e+09 -3.558946e+09 1.312876e+03 -2.489428e+02 -2.371959e+02
-1.580032e+09 -1.380030e+09 -1.540031e+09 3.986966e+02 9.860408e+01 -1.035801e+02
-1.812530e+09 -1.612529e+09 -1.772529e+09 5.685920e+02 5.907558e+01 -2.983005e+01
-1.944689e+09 -1.744696e+09 -1.904690e+09 -9.414756e+02 6.353118e+02 -6.018073e+00
-1.961982e+09 -1.761990e+09 -1.921983e+09 -8.546206e+02 7.945850e+02 1.831950e+02
-3.604111e+09 -3.404106e+09 -3.564118e+09 -1.445780e+03 -5.390790e+03 -2.644435e+03
-1.954290e+09 -1.754296e+09 -1.914291e+09 -1.513777e+03 7.767399e+02 1.123414e+02
-3.490699e+09 -3.290693e+09 -3.450700e+09 -1.196698e+03 -2.287853e+03 -2.356026e+03
-3.604946e+09 -3.404945e+09 -3.564945e+09 -6.975656e+02 -4.772706e+01 -1.926337e+01
-1.762453e+09 -1.562460e+09 -1.722454e+09 -8.797545e+02 6.537541e+02 7.842482e+01
-3.406135e+09 -3.206136e+09 -3.366136e+09 -6.261717e+02 -1.539593e+01 -3.186131e+01
-1.584683e+09 -1.384682e+09 -1.544682e+09 -6.607505e+02 -1.496689e+02 -4.218116e+01
-3.208467e+09 -3.008467e+09 -3.168468e+09 1.924045e+03 -1.801320e+03 1.140541e+03
-1.690827e+09 -1.490825e+09 -1.650826e+09 -5.181070e+02 -1.124968e+02 -5.493671e+01
-1.578795e+09 -1.378795e+09 -1.538795e+09 -5.860823e+02 -9.417619e+01 -4.241697e+01
-2.818260e+09 -2.618262e+09 -2.778262e+09 -6.917374e+02 -2.728241e+01 2.246939e+00
-2.169719e+09 -1.969725e+09 -2.129720e+09 1.206207e+03 3.541065e+02 -1.035155e+02
-3.575482e+09 -3.375488e+09 -3.535483e+09 1.316253e+03 3.101668e+02 -1.658994e+02
-2.535768e+09 -2.335770e+09 -2.495770e+09 -4.689560e+02 -3.809635e+01 4.849608e+01
-2.851827e+09 -2.651829e+09 -2.811828e+09 -3.363878e+02 -3.170750e+01 3.639684e+01
-1.564717e+09 -1.364723e+09 -1.524717e+09 1.655195e+03 5.333885e+02 2.847843e+00
-2.862282e+09 -2.662284e+09 -2.822283e+09 -1.146777e+02 -2.458630e+00 4.853271e+01
-2.816527e+09 -2.616528e+09 -2.776528e+09 -6.473241e+02 -3.957057e+01 4.304230e+00
-3.154467e+09 -2.954468e+09 -3.114468e+09 -4.961534e+02 -3.008808e+01 -5.489881e+00
-2.853747e+09 -2.653748e+09 -2.813748e+09 -4.369700e+02 -4.334447e+01 2.419899e+01
-1.602289e+09 -1.402290e+09 -1.562290e+09 -8.783069e+02 -1.264908e+02 6.613349e+01
-1.977064e+09 -1.777065e+09 -1.937065e+09 -1.109352e+03 -9.378950e+01 4.751733e+01
-2.468910e+09 -2.268911e+09 -2.428911e+09 -6.042300e+02 -6.602176e+01 -6.326362e+00
-2.410119e+09 -2.210120e+09 -2.370120e+09 -7.415792e+02 -4.217542e+01 2.847909e+01
-1.787057e+09 -1.587058e+09 -1.747058e+09 -6.551516e+02 -6.383200e+01 5.985701e+01
-1.900651e+09 -1.700657e+09 -1.860652e+09 2.177482e+03 -2.798571e+03 1.090198e+03
-3.012169e+09 -2.812168e+09 -2.972168e+09 2.485006e+02 3.735607e+01 -2.571015e+01
-1.781864e+09 -1.581864e+09 -1.741864e+09 4.427712e+02 5.949088e+01 -9.372015e+00
-1.583124e+09 -1.383125e+09 -1.543125e+09 -6.883239e+02 -8.984141e+01 3.333629e+01
-2.481339e+09 -2.281351e+09 -2.441348e+09 -4.815658e+03 7.801451e+03 1.177837e+03
-2.425543e+09 -2.225556e+09 -2.385560e+09 -1.040422e+04 1.521463e+04 5.305920e+03
-2.726009e+09 -2.526015e+09 -2.686016e+09 -4.164801e+03 7.139967e+03 1.976259e+03
-2.599946e+09 -2.399947e+09 -2.559947e+09 -7.055173e+02 -7.065331e+01 7.507809e+01
-1.952239e+09 -1.752226e+09 -1.912232e+09 -1.116203e+03 -1.482972e+03 2.022038e+03
-2.000291e+09 -1.800278e+09 -1.960285e+09 -8.294686e+03 3.748280e+03 5.323273e+03
-3.076114e+09 -2.876103e+09 -3.036127e+09 -7.082602e+03 8.298641e+03 8.152112e+03
-1.997214e+09 -1.797210e+09 -1.957212e+09 -5.270613e+03 2.373430e+03 2.587267e+03
-1.554801e+09 -1.354801e+09 -1.514801e+09 5.341077e+02 4.987935e+01 -7.014629e+01
-2.642804e+09 -2.442802e+09 -2.602823e+09 -9.672289e+03 2.226926e+04 1.367982e+04
-2.517197e+09 -2.317176e+09 -2.477188e+09 -2.173257e+03 -3.131357e+03 5.435821e+03
-2.727734e+09 -2.527728e+09 -2.687734e+09 -4.504905e+03 3.058589e+03 3.591390e+03
-2.559042e+09 -2.359031e+09 -2.519037e+09 -8.469110e+02 -5.304934e+02 7.385567e+02
-2.354887e+09 -2.154893e+09 -2.314888e+09 -2.703663e+03 1.179804e+03 3.865312e+02
-3.596684e+09 -3.396683e+09 -3.556683e+09 2.284553e+02 -4.424794e+00 -1.838274e+01
-3.587749e+09 -3.387748e+09 -3.547748e+09 3.438382e+02 5.090833e+00 -6.608960e+00
-3.370549e+09 -3.170551e+09 -3.330549e+09 -2.606172e+03 1.124842e+03 4.750055e+02
-2.382977e+09 -2.182978e+09 -2.342976e+09 -4.046707e+03 1.438722e+03 1.145526e+03
-1.783117e+09 -1.583126e+09 -1.743120e+09 -4.749798e+03 4.380123e+03 1.119074e+03
-2.216367e+09 -2.016367e+09 -2.176367e+09 3.527199e+02 1.909128e+01 -2.476902e+00
-2.162447e+09 -1.962448e+09 -2.122448e+09 3.748839e+02 1.608042e+01 4.715249e+00
-3.191906e+09 -2.991910e+09 -3.151908e+09 -2.983001e+03 1.728589e+03 5.885041e+02
-3.180966e+09 -2.980966e+09 -3.140966e+09 6.681700e+02 4.441792e+01 -4.578748e+01
-1.952334e+09 -1.752334e+09 -1.912334e+09 4.862967e+02 5.246341e+01 1.702461e+01
-3.586263e+09 -3.386264e+09 -3.546264e+09 6.104085e+02 2.237879e+01 1.290000e+01
-2.814617e+09 -2.614619e+09 -2.774618e+09 -4.052726e+03 2.739189e+03 1.414967e+03
-1.802550e+09 -1.602556e+09 -1.762551e+09 -3.366187e+03 2.211945e+03 5.456679e+02
-2.152108e+09 -1.952108e+09 -2.112108e+09 3.716155e+02 1.971237e+01 -1.188334e+01
-1.904977e+09 -1.704976e+09 -1.864976e+09 2.615260e+02 1.722223e+01 -3.491662e+01
-2.348505e+09 -2.148507e+09 -2.308505e+09 -1.979947e+03 8.394389e+02 1.114872e+02
-1.779449e+09 -1.579453e+09 -1.739449e+09 -2.547200e+03 9.238645e+02 2.908878e+02
-1.780711e+09 -1.580714e+09 -1.740711e+09 -3.224789e+03 1.412112e+03 4.430172e+02
-2.833030e+09 -2.633030e+09 -2.793030e+09 3.220819e+02 4.582514e+01 -7.855022e+00
-1.688920e+09 -1.488920e+09 -1.648920e+09 2.869701e+02 5.060740e+01 -1.156208e+01
-3.406954e+09 -3.206941e+09 -3.366893e+09 1.167210e+03 -1.560879e+04 -1.526909e+04
-2.051072e+09 -1.851023e+09 -2.011025e+09 -9.599083e+03 1.321408e+04 -3.899278e+04
-2.092139e+09 -1.892138e+09 -2.052138e+09 2.183778e+02 1.524287e+01 8.283921e+00
-1.689165e+09 -1.489164e+09 -1.649164e+09 2.232496e+02 4.125548e+01 -1.786344e+01
-3.612228e+09 -3.412227e+09 -3.572227e+09 3.058678e+02 1.040997e+01 8.756249e+00
-2.028573e+09 -1.828527e+09 -1.988247e+09 2.761504e+03 4.162766e+04 3.290700e+04
-2.232373e+09 -2.032373e+09 -2.192373e+09 3.141888e+02 1.888446e+01 -1.938666e+00
-1.909031e+09 -1.709031e+09 -1.869031e+09 3.209783e+02 3.029905e+01 -3.157993e+01
-2.645177e+09 -2.445138e+09 -2.605127e+09 -1.843662e+04 1.940351e+04 -2.457131e+04
-2.433646e+09 -2.233601e+09 -2.393507e+09 3.849765e+03 1.029412e+04 3.211469e+03
-3.312320e+09 -3.112320e+09 -3.272320e+09 2.229157e+02 7.043869e+00 -1.181353e+01
-2.082927e+09 -1.882927e+09 -2.042927e+09 3.872265e+02 1.991010e+01 -1.271587e+01
-3.351524e+09 -3.151525e+09 -3.311497e+09 -1.085209e+03 -1.243148e+03 -1.454137e+04
-1.676917e+09 -1.476916e+09 -1.636916e+09 -3.343673e+02 2.390648e+02 -8.624960e+01
-2.805638e+09 -2.605619e+09 -2.765510e+09 -8.613424e+03 6.492976e+03 -3.227492e+04
-3.229447e+09 -3.029432e+09 -3.189371e+09 3.677074e+03 -4.264391e+02 8.525291e+03
-3.212488e+09 -3.012458e+09 -3.172434e+09 6.977807e+02 -3.463577e+04 -3.615351e+03
-2.818388e+09 -2.618364e+09 -2.778235e+09 -2.913179e+03 -2.129705e+04 -1.478262e+04
-3.607702e+09 -3.407692e+09 -3.567686e+09 4.361738e+03 -1.004292e+04 -4.949648e+03
-3.596115e+09 -3.396102e+09 -3.556077e+09 1.840905e+03 -1.217072e+04 -1.127583e+04
-3.363990e+09 -3.163984e+09 -3.324006e+09 -1.771210e+03 -8.214190e+03 1.172789e+03
-2.233763e+09 -2.033753e+09 -2.193760e+09 1.736858e+03 1.294805e+03 -3.798847e+03
-3.589858e+09 -3.389857e+09 -3.549827e+09 -1.799652e+03 4.621110e+03 -9.686553e+03
-3.389070e+09 -3.189077e+09 -3.349057e+09 -3.912965e+03 2.425871e+03 -1.086317e+04
-1.952082e+09 -1.752074e+09 -1.912080e+09 -8.766782e+02 1.917831e+01 -2.306664e+03
-3.275262e+09 -3.075232e+09 -3.235261e+09 -1.510006e+02 6.515550e+03 -4.655408e+03
-3.092485e+09 -2.892437e+09 -3.052461e+09 -6.934623e+03 1.983461e+04 -6.996187e+03
-3.198746e+09 -2.998719e+09 -3.158717e+09 -2.709726e+03 2.410206e+04 -1.966193e+04
-3.209322e+09 -3.009322e+09 -3.169352e+09 1.371974e+03 1.488343e+04 -2.306318e+03
-3.591078e+09 -3.391076e+09 -3.551079e+09 -2.726018e+03 1.680215e+03 1.003203e+03
-1.812091e+09 -1.611941e+09 -1.771890e+09 6.536406e+02 -9.267819e+04 -1.017866e+04
-3.603908e+09 -3.403905e+09 -3.563907e+09 4.934828e+01 2.010791e+02 2.050344e+01
-1.593424e+09 -1.393424e+09 -1.553423e+09 -7.172370e+02 1.558521e+02 -1.066195e+02
-3.598398e+09 -3.398395e+09 -3.558397e+09 -2.412130e+02 1.208733e+02 1.075624e+02
-2.068989e+09 -1.868985e+09 -2.028987e+09 9.820810e+02 8.036375e+01 -3.363808e+02
-3.255177e+09 -3.055175e+09 -3.215176e+09 -1.936268e+02 8.149483e+01 -1.625623e+01
-2.005405e+09 -1.805314e+09 -1.965367e+09 9.381725e+03 9.357968e+03 -3.636162e+03
-3.607779e+09 -3.407777e+09 -3.567778e+09 6.828024e+02 -6.174182e+01 -6.753995e+01
-2.671701e+09 -2.471700e+09 -2.631701e+09 1.535751e+03 -1.300197e+02 -3.575485e+02
-3.228304e+09 -3.028279e+09 -3.188230e+09 1.883424e+03 -1.513298e+04 -1.330792e+04
-2.181681e+09 -1.981692e+09 -2.141685e+09 1.879293e+03 -5.253583e+03 6.070848e+02
-2.350889e+09 -2.150890e+09 -2.310888e+09 -2.254054e+03 8.092575e+02 3.583348e+02
-3.597309e+09 -3.397310e+09 -3.557308e+09 2.064287e+03 -3.316218e+02 -1.306479e+03
-1.699227e+09 -1.499222e+09 -1.659226e+09 -2.251616e+03 -1.597626e+03 1.033837e+03
-2.481713e+09 -2.281720e+09 -2.441716e+09 1.358601e+03 -4.704633e+02 -4.193956e+03
-2.029348e+09 -1.829350e+09 -1.989350e+09 -1.376643e+03 1.098846e+02 -2.600302e+02
-1.777038e+09 -1.577039e+09 -1.737037e+09 -2.170134e+03 4.362525e+02 1.292899e+02
-2.478047e+09 -2.278044e+09 -2.438045e+09 -3.731600e+03 1.779790e+03 1.707701e+03
-2.763161e+09 -2.563159e+09 -2.723160e+09 -2.437420e+03 6.388277e+02 5.349433e+02
-2.950434e+09 -2.750435e+09 -2.910435e+09 3.368343e+02 4.387649e+01 3.510000e+01
-3.418989e+09 -3.218993e+09 -3.378991e+09 6.608249e+02 -2.006959e+01 -4.230693e+02
-3.586487e+09 -3.386489e+09 -3.546489e+09 9.938710e+02 -2.707017e+01 -1.773088e+02
-2.561553e+09 -2.361554e+09 -2.521553e+09 -2.272310e+03 9.115082e+02 3.528265e+02
-3.587997e+09 -3.387999e+09 -3.547999e+09 -7.266866e+02 -4.132802e+01 3.260902e+01
-3.113257e+09 -2.913260e+09 -3.073259e+09 -1.529592e+03 3.485688e+01 -1.978519e+02
-1.965614e+09 -1.765614e+09 -1.925613e+09 -2.168254e+03 5.639209e+02 1.337040e+02
-2.513036e+09 -2.313040e+09 -2.473036e+09 -2.085497e+03 9.400663e+02 9.101057e+01
-3.224424e+09 -3.024427e+09 -3.184426e+09 -7.715077e+02 4.591647e+01 -1.435728e+02
-3.379182e+09 -3.179184e+09 -3.339182e+09 -1.919010e+03 5.208416e+02 1.047788e+02
-3.163534e+09 -2.963534e+09 -3.123534e+09 -2.709122e+03 1.093843e+03 6.740815e+02
-2.376630e+09 -2.176642e+09 -2.336637e+09 4.410523e+03 -8.271762e+03 2.994417e+03
-2.510574e+09 -2.310572e+09 -2.470573e+09 1.632787e+03 -1.732718e+03 1.428804e+03
-2.761842e+09 -2.561842e+09 -2.721841e+09 -2.022931e+03 4.410485e+02 1.883170e+02
-2.558297e+09 -2.358297e+09 -2.518296e+09 -1.973864e+03 4.436636e+02 1.494949e+02
-3.295099e+09 -3.095098e+09 -3.255098e+09 1.394496e+02 -4.328903e+02 2.905675e+02
-3.295778e+09 -3.095777e+09 -3.255778e+09 8.248616e+02 -7.180054e+02 2.812510e+02
-3.201185e+09 -3.001188e+09 -3.161203e+09 5.844572e+03 1.169649e+04 -4.925809e+03
-3.173858e+09 -2.973858e+09 -3.133857e+09 -1.960828e+03 6.208049e+02 2.196875e+02
-3.374246e+09 -3.174246e+09 -3.334246e+09 -2.250681e+03 5.317840e+02 2.642556e+02
-1.800620e+09 -1.600635e+09 -1.760626e+09 1.005851e+04 1.446291e+04 -1.005552e+04
-2.806751e+09 -2.606748e+09 -2.766755e+09 2.200270e+03 -5.551643e+03 4.622241e+03
-3.188799e+09 -2.988798e+09 -3.148808e+09 6.447243e+03 7.584601e+03 -4.735923e+03
-2.416346e+09 -2.216366e+09 -2.376364e+09 -1.131068e+04 2.290543e+04 5.089834e+03
-1.591300e+09 -1.391284e+09 -1.551295e+09 1.714353e+04 1.315874e+04 -1.399420e+04
-3.304787e+09 -3.104789e+09 -3.264794e+09 1.608329e+03 -5.547794e+03 2.303041e+03
-2.403322e+09 -2.203318e+09 -2.363323e+09 3.259628e+03 -4.488729e+03 4.727747e+03
-3.111395e+09 -2.911396e+09 -3.071400e+09 2.912961e+03 -5.005792e+03 2.513781e+03
-3.586701e+09 -3.386706e+09 -3.546710e+09 1.303187e+03 -5.319540e+03 1.523923e+03
-2.038570e+09 -1.838573e+09 -1.998572e+09 3.972340e+03 -5.728218e+03 2.859390e+03
-1.794646e+09 -1.594656e+09 -1.754653e+09 6.667982e+03 -1.244362e+04 5.183841e+03
-3.590169e+09 -3.390174e+09 -3.550171e+09 -1.649633e+03 5.607099e+02 -1.783318e+03
-1.559190e+09 -1.359191e+09 -1.519192e+09 -1.662116e+03 -1.842607e+02 -1.688554e+02
-2.031873e+09 -1.831876e+09 -1.991876e+09 -1.576521e+03 1.812098e+01 -4.044290e+02
-2.092676e+09 -1.892685e+09 -2.052681e+09 3.618697e+03 -6.563683e+03 2.039061e+03
-3.168624e+09 -2.968626e+09 -3.128625e+09 -1.957487e+03 6.256762e+02 1.205635e+02
-3.524476e+09 -3.324475e+09 -3.484475e+09 -5.293610e+02 -4.409614e+01 -2.906154e+01
-2.521261e+09 -2.321266e+09 -2.481262e+09 -1.375202e+03 4.050843e+02 1.143181e+01
-3.598345e+09 -3.398344e+09 -3.558344e+09 -1.123956e+03 -6.372341e+01 2.936454e+01
-3.334524e+09 -3.134527e+09 -3.294526e+09 -7.342269e+02 -1.393611e+01 -1.315053e+02
-2.146125e+09 -1.946130e+09 -2.106126e+09 -1.333710e+03 4.419888e+02 5.316794e+01
-2.037422e+09 -1.837425e+09 -1.997421e+09 -1.643715e+03 1.574029e+02 1.200958e+01
-2.218267e+09 -2.018271e+09 -2.178267e+09 -1.384823e+03 4.436912e+02 -1.205065e+02
-3.619703e+09 -3.419706e+09 -3.579705e+09 6.557588e+02 -1.188580e+01 -1.770915e+02
-2.673746e+09 -2.473747e+09 -2.633747e+09 3.877620e+02 2.463582e+01 1.728577e+01
-3.186829e+09 -2.986829e+09 -3.146830e+09 -3.188901e+03 1.675625e+03 8.890214e+02
-1.570073e+09 -1.370072e+09 -1.530072e+09 -1.415210e+03 4.619255e+02 3.088500e+01
-1.588010e+09 -1.388009e+09 -1.548009e+09 -3.398290e+01 6.738719e+01 -1.264033e+02
-1.747442e+09 -1.547439e+09 -1.707441e+09 -1.003997e+03 5.175034e+02 4.311548e+02
-3.153839e+09 -2.953842e+09 -3.113839e+09 -1.554324e+03 5.622211e+02 2.095646e+01
-3.264321e+09 -3.064326e+09 -3.224322e+09 -9.935659e+02 1.728193e+02 -9.465955e+01
-3.101272e+09 -2.901270e+09 -3.061271e+09 5.193324e+02 1.039025e+02 -9.853592e+01
-2.966089e+09 -2.766094e+09 -2.926090e+09 -9.424834e+02 2.354357e+02 -6.275615e+01
-1.785106e+09 -1.585110e+09 -1.745106e+09 -1.676165e+03 3.056920e+02 4.190354e+01
-3.337031e+09 -3.137036e+09 -3.297032e+09 -1.433728e+03 5.991214e+02 1.177006e+02
-3.386316e+09 -3.186324e+09 -3.346319e+09 9.330347e+01 1.317448e+03 9.881670e-01
-1.748919e+09 -1.548925e+09 -1.708920e+09 -1.349983e+03 6.950467e+02 -1.634165e+01
-3.365944e+09 -3.165950e+09 -3.325946e+09 -1.840568e+03 1.016603e+03 1.871222e+02
-3.595041e+09 -3.395049e+09 -3.555044e+09 1.089333e+03 1.122816e+03 -1.886270e+01
-1.731196e+09 -1.531199e+09 -1.691196e+09 -2.085103e+03 8.272905e+02 1.822962e+02
-1.589806e+09 -1.389814e+09 -1.549807e+09 9.713922e+02 7.569616e+02 -1.498795e+02
-3.589777e+09 -3.389765e+09 -3.549782e+09 1.709095e+03 2.074718e+03 4.486875e+03
-3.364349e+09 -3.164353e+09 -3.324350e+09 -1.475994e+03 3.386636e+02 -4.922163e+01
-3.213706e+09 -3.013708e+09 -3.173730e+09 -6.764664e+03 1.296428e+04 5.079085e+03
-2.223428e+09 -2.023435e+09 -2.183416e+09 -5.412903e+03 -4.586639e+01 -2.327798e+04
-2.191605e+09 -1.991604e+09 -2.151604e+09 5.892835e+02 7.645113e+01 -2.163029e+01
-3.401347e+09 -3.201347e+09 -3.361347e+09 5.816563e+02 4.491733e+01 -2.184686e+01
-2.170863e+09 -1.970862e+09 -2.130862e+09 2.801144e+02 4.436041e+01 -7.203456e+01
-2.348579e+09 -2.148590e+09 -2.308585e+09 3.259984e+03 5.041276e+03 -8.935517e+02
-3.258021e+09 -3.058024e+09 -3.218021e+09 2.871246e+03 1.215934e+03 -5.698050e+02
-2.113320e+09 -1.913324e+09 -2.073319e+09 1.959436e+03 3.955986e+02 -1.698426e+02
-3.213433e+09 -3.013432e+09 -3.173432e+09 2.857177e+02 6.404377e+01 -3.016242e+01
-3.483390e+09 -3.283391e+09 -3.443396e+09 -2.881389e+03 -5.421560e+03 -1.837308e+03
-2.606119e+09 -2.406118e+09 -2.566119e+09 5.405201e+02 4.922663e+01 -7.913707e+01
-2.800772e+09 -2.600771e+09 -2.760771e+09 4.032272e+02 1.934243e+01 -5.246402e+01
-1.689378e+09 -1.489389e+09 -1.649381e+09 -3.280741e+03 -4.031984e+03 -6.263676e+02
-3.491349e+09 -3.291353e+09 -3.451353e+09 -2.136467e+03 -3.015526e+03 -6.115245e+02
-3.389815e+09 -3.189814e+09 -3.349814e+09 3.599510e+02 4.976544e+01 -3.546160e+01
-1.888979e+09 -1.688986e+09 -1.848982e+09 -3.573252e+03 -5.764177e+03 -1.487549e+03
-3.110476e+09 -2.910480e+09 -3.070489e+09 -4.464755e+03 -1.128399e+04 -2.685745e+03
-3.412261e+09 -3.212261e+09 -3.372261e+09 -5.178930e+02 -3.251662e+01 -1.403629e+01
-1.931139e+09 -1.731139e+09 -1.891139e+09 -5.370068e+02 -4.480595e+01 -2.678492e+01
-3.609545e+09 -3.409545e+09 -3.569545e+09 -7.233837e+02 -3.206006e+01 -3.624761e+01
-3.385023e+09 -3.185022e+09 -3.345023e+09 5.052926e+02 6.351601e+01 1.914166e+00
-2.992663e+09 -2.792662e+09 -2.952663e+09 -3.791226e+02 -4.490672e+01 -1.816153e+01
-3.161384e+09 -2.961384e+09 -3.121384e+09 -7.843073e+02 -8.455518e+01 1.281499e+01
-3.379736e+09 -3.179735e+09 -3.339735e+09 5.182825e+02 3.411465e+01 -2.826043e+01
-3.213423e+09 -3.013422e+09 -3.173424e+09 1.715675e+03 -1.957940e+03 1.521816e+03
-2.094382e+09 -1.894384e+09 -2.054381e+09 2.462018e+03 -1.929322e+03 1.218486e+03
-3.567333e+09 -3.367331e+09 -3.527332e+09 -1.417878e+02 1.847647e+02 7.916266e-01
-2.698915e+09 -2.498915e+09 -2.658915e+09 1.401457e+03 -1.407372e+03 9.359979e+02
-3.592827e+09 -3.392824e+09 -3.552832e+09 1.041546e+02 -4.210558e+03 3.359813e+03
-1.904250e+09 -1.704259e+09 -1.864254e+09 3.738488e+03 -6.088253e+03 3.031113e+03
-2.805589e+09 -2.605588e+09 -2.765589e+09 1.114175e+03 -1.301686e+03 9.465647e+02
-3.401565e+09 -3.201564e+09 -3.361566e+09 8.434120e+02 -1.142532e+03 8.261761e+02
-2.597717e+09 -2.397717e+09 -2.557717e+09 1.395602e+03 -1.423189e+03 6.860551e+02
-3.193090e+09 -2.993090e+09 -3.153090e+09 1.206750e+03 7.529435e+01 -1.659344e+02
-2.194982e+09 -1.994983e+09 -2.154982e+09 1.447704e+03 -1.119222e+03 5.445554e+02
-3.590171e+09 -3.390174e+09 -3.550171e+09 -1.563262e+03 3.585999e+02 -1.336218e+03
-2.651275e+09 -2.451278e+09 -2.611276e+09 -1.915558e+03 4.893213e+02 -1.446359e+03
-2.610243e+09 -2.410244e+09 -2.570243e+09 3.372581e+03 -3.283705e+03 2.331067e+03
-1.792485e+09 -1.592485e+09 -1.752484e+09 2.029317e+03 -1.817808e+03 1.137820e+03
-3.592082e+09 -3.392086e+09 -3.552085e+09 5.440062e+02 -1.044888e+01 -6.351936e+02
-1.892558e+09 -1.692559e+09 -1.852557e+09 2.524497e+03 -1.761652e+03 1.030059e+03
-2.842116e+09 -2.642115e+09 -2.802115e+09 7.324850e+02 8.814230e+01 1.276625e+01
-2.831518e+09 -2.631517e+09 -2.791517e+09 6.144829e+02 1.477499e+01 -5.338443e+01
-1.567205e+09 -1.367209e+09 -1.527208e+09 -7.252367e+02 6.779799e+01 -3.717463e+02
-2.884268e+09 -2.684270e+09 -2.844269e+09 6.668629e+02 1.804309e+01 -2.247030e+01
-1.983862e+09 -1.783864e+09 -1.943864e+09 1.009502e+03 4.689384e+00 -2.184583e+02
-1.769450e+09 -1.569451e+09 -1.729451e+09 1.060919e+03 6.364638e+01 -6.142853e+01
-2.828908e+09 -2.628908e+09 -2.788908e+09 5.101036e+02 3.536757e+01 -4.805976e+01
-3.106381e+09 -2.906380e+09 -3.066380e+09 3.419709e+02 1.257495e+02 -7.378252e+01
-3.193510e+09 -2.993509e+09 -3.153510e+09 4.460440e+02 8.292236e+01 -4.840840e+01
-3.595501e+09 -3.395503e+09 -3.555502e+09 -6.723024e+02 -3.658053e+01 -1.591397e+01
-3.601676e+09 -3.401678e+09 -3.561677e+09 -6.185465e+02 -2.148769e+01 -1.119436e+01
-3.593768e+09 -3.393769e+09 -3.553768e+09 -7.424821e+02 -2.899494e+01 -1.462773e+01
-3.210537e+09 -3.010539e+09 -3.170538e+09 -6.918920e+02 -3.202923e+01 4.167327e+01
-1.583124e+09 -1.383125e+09 -1.543125e+09 -7.172877e+02 -8.022860e+01 2.842705e+01
-3.418676e+09 -3.218675e+09 -3.378675e+09 3.495740e+02 1.741098e+01 -9.420922e+01
-3.570086e+09 -3.370089e+09 -3.530088e+09 -6.772053e+02 3.937247e+00 -3.009520e+01
-1.980336e+09 -1.780336e+09 -1.940336e+09 6.750590e+02 5.929863e+01 2.765498e+01
-3.209767e+09 -3.009767e+09 -3.169767e+09 6.760780e+02 5.585442e+01 -1.274228e+01
-1.943604e+09 -1.743592e+09 -1.903601e+09 7.783041e+03 5.158456e+03 2.809481e+03
-1.797975e+09 -1.597974e+09 -1.757975e+09 5.106961e+02 1.059670e+02 -5.546175e+01
-1.994271e+09 -1.794271e+09 -1.954271e+09 1.023186e+03 4.465805e+01 -5.111210e+01
-1.823795e+09 -1.623797e+09 -1.783794e+09 5.483473e+03 3.100860e+03 -2.243960e+03
-2.006396e+09 -1.806400e+09 -1.966395e+09 4.475938e+03 2.456269e+03 -1.105795e+03
-2.611087e+09 -2.411083e+09 -2.571088e+09 4.679810e+03 4.631467e+03 -5.298229e+03
-2.622276e+09 -2.422274e+09 -2.582275e+09 9.331675e+02 -1.085316e+03 8.730685e+02
-2.776725e+09 -2.576730e+09 -2.736731e+09 6.004490e+03 8.615648e+03 -3.909515e+03
-3.592481e+09 -3.392474e+09 -3.552489e+09 3.364284e+03 6.273694e+03 -4.436694e+03
-3.216488e+09 -3.016487e+09 -3.176488e+09 8.242374e+02 -1.196364e+03 9.608307e+02
-1.994309e+09 -1.794309e+09 -1.954308e+09 2.230047e+03 -1.691025e+03 1.194151e+03
-1.591759e+09 -1.391764e+09 -1.551760e+09 5.408879e+03 -4.838121e+03 2.933207e+03
-2.650544e+09 -2.450529e+09 -2.610552e+09 2.428550e+03 -5.475382e+03 8.611757e+03
-3.408044e+09 -3.208042e+09 -3.368044e+09 2.523250e+02 -6.616318e+02 4.776775e+02
-2.584343e+09 -2.384353e+09 -2.544357e+09 5.155466e+02 -1.169458e+04 1.602374e+03
-2.599633e+09 -2.399632e+09 -2.559632e+09 7.743743e+02 -8.090781e+02 4.075883e+02
-3.216930e+09 -3.016933e+09 -3.176939e+09 2.584257e+03 -7.311855e+03 3.426964e+03
-1.969374e+09 -1.769391e+09 -1.929385e+09 2.112435e+02 -1.507669e+04 9.846581e+02
-3.599586e+09 -3.399588e+09 -3.559587e+09 -4.502303e+02 -4.015158e+01 7.427922e+00
-1.653214e+09 -1.453215e+09 -1.613215e+09 -4.964374e+02 -5.124784e+01 4.467701e+01
-3.098064e+09 -2.898063e+09 -3.058063e+09 6.467772e+02 -7.386224e+02 4.593705e+02
-2.005678e+09 -1.805677e+09 -1.965677e+09 1.183085e+03 -8.472782e+02 6.965586e+02
-1.590230e+09 -1.390231e+09 -1.550231e+09 -6.118528e+02 -6.522782e+01 7.674729e+01
-3.570086e+09 -3.370089e+09 -3.530088e+09 -3.980046e+02 -8.961240e+00 2.384167e+00
-3.595501e+09 -3.395503e+09 -3.555502e+09 -4.689176e+02 -2.893060e+01 5.213318e+01
-3.594160e+09 -3.394163e+09 -3.554162e+09 -1.804359e+02 -1.458215e+01 9.781354e-01
-1.803962e+09 -1.603960e+09 -1.763960e+09 9.926154e+02 -1.047589e+03 6.391538e+02
-1.573914e+09 -1.373916e+09 -1.533916e+09 -3.887721e+02 -4.258761e+01 6.777012e+01
-1.590230e+09 -1.390231e+09 -1.550231e+09 -6.343647e+02 -4.660237e+01 5.611905e+01
-2.695888e+09 -2.495890e+09 -2.655890e+09 -7.857568e+02 -1.867917e+01 -5.460070e+01
-3.490892e+09 -3.290892e+09 -3.450892e+09 3.021964e+02 7.384227e+00 -8.321813e+00
-1.893585e+09 -1.693585e+09 -1.853584e+09 1.557948e+03 -1.044929e+03 6.692343e+02
-3.592657e+09 -3.392660e+09 -3.552679e+09 2.442549e+03 1.325772e+04 -2.392941e+03
-3.600325e+09 -3.400317e+09 -3.560340e+09 3.306504e+03 9.860867e+03 -5.384671e+03
-3.609568e+09 -3.409563e+09 -3.569593e+09 1.805498e+03 1.417767e+04 -4.613631e+03
-2.196010e+09 -1.996010e+09 -2.156009e+09 8.050336e+02 -6.088836e+02 3.235560e+02
-1.993493e+09 -1.793494e+09 -1.953492e+09 -1.622173e+03 1.815201e+02 3.624343e+00
-2.007150e+09 -1.807167e+09 -1.967168e+09 8.732170e+03 2.972886e+04 -8.996553e+03
-2.001138e+09 -1.801138e+09 -1.961137e+09 -1.137157e+03 1.297163e+02 -9.269939e+01
-1.690590e+09 -1.490597e+09 -1.650602e+09 4.712321e+03 1.576848e+03 5.268248e+03
-3.602346e+09 -3.402349e+09 -3.562358e+09 7.112334e+02 -7.787278e+03 2.070006e+03
-3.492808e+09 -3.292813e+09 -3.452812e+09 1.300530e+03 -2.743101e+03 6.784483e+02
-3.407018e+09 -3.207020e+09 -3.367029e+09 1.461441e+03 -8.515874e+03 2.904419e+03
-3.316194e+09 -3.116193e+09 -3.276192e+09 -4.803870e+03 -2.683801e+03 4.353666e+03
-2.731176e+09 -2.531170e+09 -2.691171e+09 -6.496980e+03 -5.714002e+03 3.500022e+03
-3.412067e+09 -3.212068e+09 -3.372066e+09 -1.430223e+03 2.358664e+02 -8.283368e+00
-1.573394e+09 -1.373393e+09 -1.533393e+09 1.063688e+02 4.431553e+01 -8.657824e+01
-3.337193e+09 -3.137192e+09 -3.297192e+09 2.446445e+02 2.365183e+01 -2.437614e+01
-3.180979e+09 -2.980981e+09 -3.140979e+09 -1.879268e+03 4.767570e+02 1.169532e+02
-3.389305e+09 -3.189306e+09 -3.349305e+09 -1.711876e+03 2.150276e+02 9.982375e+01
-3.602754e+09 -3.402754e+09 -3.562752e+09 -4.161598e+03 2.287402e+03 -2.735018e+03
-3.599923e+09 -3.399919e+09 -3.559918e+09 -4.265702e+03 3.423118e+03 -4.076338e+03
-2.821023e+09 -2.621024e+09 -2.781022e+09 -1.428444e+03 2.246704e+02 -4.466965e+01
-3.200215e+09 -3.000214e+09 -3.160214e+09 -1.243310e+03 3.420706e+02 9.063847e+01
-2.817024e+09 -2.617025e+09 -2.777025e+09 3.631270e+02 4.875422e+01 -1.694051e+00
-2.768961e+09 -2.568961e+09 -2.728960e+09 -1.965010e+03 5.152279e+02 1.455051e+02
-2.585251e+09 -2.385251e+09 -2.545250e+09 -1.557196e+03 4.998520e+02 3.490939e+01
-2.563884e+09 -2.363884e+09 -2.523884e+09 4.935616e+02 4.851739e+01 -3.523986e+00
-2.821972e+09 -2.621977e+09 -2.781974e+09 -7.860403e+02 4.957639e+02 -2.650792e+03
-3.166345e+09 -2.966344e+09 -3.126344e+09 2.665992e-02 1.116744e+02 -8.638862e+01
-3.119237e+09 -2.919236e+09 -3.079236e+09 5.362818e+02 8.982038e+00 -1.448395e+02
-3.490713e+09 -3.290714e+09 -3.450714e+09 3.592086e+02 1.365184e+01 -2.974108e+00
-1.969389e+09 -1.769388e+09 -1.929388e+09 -3.845472e+02 7.267472e+01 -6.760329e+01
-3.073382e+09 -2.873380e+09 -3.033380e+09 -3.519394e+01 1.398787e+02 -4.149960e+01
-2.692231e+09 -2.492230e+09 -2.652230e+09 4.936774e+02 3.672795e+01 -1.090722e+02
-3.185967e+09 -2.985969e+09 -3.145969e+09 -2.398086e+02 -1.532185e+01 1.894331e+01
-3.545866e+09 -3.345868e+09 -3.505867e+09 -3.767471e+02 -2.663253e+01 1.625645e+01
-2.817356e+09 -2.617357e+09 -2.777357e+09 5.111152e+02 3.157741e+01 -2.998212e+01
-2.053863e+09 -1.853861e+09 -2.013861e+09 -3.782874e+02 2.023948e+02 -6.830569e+01
-2.086403e+09 -1.886401e+09 -2.046402e+09 3.941367e+02 2.121247e+02 -7.012532e+01
-3.062530e+09 -2.862528e+09 -3.022529e+09 -1.401591e+02 1.466241e+02 2.335565e+01
-3.408010e+09 -3.208008e+09 -3.368009e+09 5.422179e+02 1.302884e+01 -1.182063e+02
-3.105128e+09 -2.905127e+09 -3.065127e+09 1.819884e+02 4.499197e+01 -2.557513e+01
-1.579848e+09 -1.379847e+09 -1.539847e+09 -2.496002e+01 8.907308e+01 -8.954874e+01
-3.305565e+09 -3.105563e+09 -3.265564e+09 2.609895e+02 7.794319e+01 -3.225089e+01
-3.375145e+09 -3.175143e+09 -3.335144e+09 1.705379e+02 3.997801e+00 -1.199088e+02
-3.107671e+09 -2.907670e+09 -3.067671e+09 1.280356e+02 8.092861e+01 -4.406667e+01
-1.743035e+09 -1.543034e+09 -1.703035e+09 3.401973e+02 2.639365e+01 -9.968799e+01
-2.672319e+09 -2.472318e+09 -2.632318e+09 -4.207833e+01 1.016878e+02 -2.095071e+01
-3.408103e+09 -3.208096e+09 -3.368029e+09 5.112568e+03 3.900938e+03 1.535995e+04
-3.590058e+09 -3.390053e+09 -3.550080e+09 -3.195785e+03 1.120337e+04 4.903027e+03
-1.608773e+09 -1.408810e+09 -1.568880e+09 -2.843054e+04 6.182519e+04 9.939776e+03
-1.876512e+09 -1.676510e+09 -1.836511e+09 9.159327e-01 1.364540e+02 -1.752185e+02
-1.779627e+09 -1.579625e+09 -1.739626e+09 3.250681e+02 1.186084e+02 -5.926896e+01
-2.446271e+09 -2.246241e+09 -2.406258e+09 -1.335056e+04 -1.610794e+04 -5.261030e+03
-3.584874e+09 -3.384859e+09 -3.544866e+09 -2.992752e+03 -6.193711e+02 -3.690112e+03
-2.333234e+09 -2.133240e+09 -2.293235e+09 -6.378779e+02 3.018890e+02 -3.945276e+01
-2.341369e+09 -2.141375e+09 -2.301370e+09 -1.690725e+03 1.352587e+03 2.449562e+02
-1.575828e+09 -1.375790e+09 -1.535817e+09 9.583635e+03 4.557066e+03 -1.631352e+04
-1.591297e+09 -1.391282e+09 -1.551295e+09 1.524619e+04 9.038278e+03 -1.169374e+04
-2.997546e+09 -2.797546e+09 -2.957546e+09 7.751077e+02 -7.789483e+02 4.095141e+02
-1.585282e+09 -1.385281e+09 -1.545281e+09 -5.176048e+02 -3.918691e+02 2.249057e+02
-1.590770e+09 -1.390768e+09 -1.550769e+09 3.265124e+03 -2.522636e+03 2.125034e+03
-2.243180e+09 -2.043186e+09 -2.203181e+09 -1.293279e+03 2.468256e+02 1.465306e+02
-2.827618e+09 -2.627621e+09 -2.787626e+09 2.572856e+03 -8.357306e+03 3.685202e+03
-3.304833e+09 -3.104839e+09 -3.264834e+09 -9.428282e+02 6.034685e+02 5.104515e+01
-3.412362e+09 -3.212366e+09 -3.372376e+09 -5.058182e+02 -7.592053e+03 1.804424e+03
-3.367666e+09 -3.167666e+09 -3.327666e+09 5.555761e+02 2.112778e+01 9.187431e-01
-2.620759e+09 -2.420761e+09 -2.580761e+09 -4.781477e+02 -4.423949e+01 1.898248e+01
-3.242055e+09 -3.042057e+09 -3.202056e+09 8.216839e+02 3.503820e+01 -1.400995e+02
-3.597265e+09 -3.397265e+09 -3.557265e+09 1.058616e+03 -6.217252e+00 -1.729206e+02
-1.871014e+09 -1.671020e+09 -1.831015e+09 -9.583610e+02 1.983608e+02 1.773773e+00
-3.442475e+09 -3.242476e+09 -3.402476e+09 4.334998e+02 9.803159e+00 -1.301973e+00
-3.428631e+09 -3.228631e+09 -3.388631e+09 9.750140e+02 3.009373e+01 -1.258112e+02
-3.159175e+09 -2.959182e+09 -3.119177e+09 -9.567971e+02 1.055212e+03 3.782020e+01
-1.581237e+09 -1.381238e+09 -1.541238e+09 1.039119e+03 5.153774e+01 -1.559469e+02
-3.586675e+09 -3.386676e+09 -3.546676e+09 1.105681e+03 4.487521e+01 -1.399632e+02
-3.106188e+09 -2.906198e+09 -3.066197e+09 -6.317867e+02 -5.843731e+03 2.557550e+02
-1.718148e+09 -1.518154e+09 -1.678149e+09 -2.038584e+03 1.131377e+03 2.190998e+02
-3.206285e+09 -3.006293e+09 -3.166293e+09 -2.359556e+03 -5.710495e+03 -5.839781e+02
-2.996860e+09 -2.796859e+09 -2.956859e+09 1.942928e+02 2.673691e+01 -2.385119e+01
-2.762552e+09 -2.562552e+09 -2.722553e+09 1.236882e+03 -2.079087e+01 -1.705458e+02
-2.510886e+09 -2.310887e+09 -2.470887e+09 1.038192e+03 4.317506e+01 -1.429755e+02
-2.125087e+09 -1.925087e+09 -2.085087e+09 3.130675e+02 1.895048e+01 1.954889e-01
-2.750826e+09 -2.550826e+09 -2.710826e+09 3.746314e+02 2.499498e+01 5.752174e+00
-1.595210e+09 -1.395215e+09 -1.555211e+09 -4.852454e+03 3.104630e+03 1.300042e+03
-1.661711e+09 -1.461708e+09 -1.621710e+09 -4.840241e+03 2.005705e+03 2.321992e+03
-3.170197e+09 -2.970199e+09 -3.130199e+09 9.887938e+02 7.353957e+01 -1.323439e+02
-3.408447e+09 -3.208449e+09 -3.368450e+09 -3.382710e+03 2.593493e+03 1.174644e+03
-3.610489e+09 -3.410484e+09 -3.570488e+09 -1.854855e+03 8.903183e+02 9.724510e+02
-1.573394e+09 -1.373393e+09 -1.533393e+09 1.017857e+02 5.070163e+01 -9.714598e+01
-3.392985e+09 -3.192984e+09 -3.352984e+09 1.454909e+02 1.831754e+01 -4.533330e+01
-2.476158e+09 -2.276157e+09 -2.436158e+09 1.633096e+02 2.578454e+01 -3.910451e+01
-3.392078e+09 -3.192080e+09 -3.352079e+09 1.038193e+03 3.988626e+01 -5.720361e+01
-3.403120e+09 -3.203122e+09 -3.363121e+09 8.582882e+02 -1.483444e+01 -1.976816e+02
-2.526105e+09 -2.326108e+09 -2.486107e+09 1.734595e+02 8.098595e+00 -3.671229e+01
-2.819800e+09 -2.619802e+09 -2.779802e+09 1.003269e+03 1.167589e+01 -7.234145e+01
-2.016887e+09 -1.816886e+09 -1.976887e+09 6.769592e+02 1.060160e+02 2.714945e+01
-3.450705e+09 -3.250705e+09 -3.410705e+09 1.236513e+03 -5.359694e+01 -2.664369e+02
-2.498924e+09 -2.298924e+09 -2.458924e+09 1.579411e+03 -1.215426e+03 8.467155e+02
-1.591759e+09 -1.391762e+09 -1.551759e+09 5.524242e+03 -4.367743e+03 2.956112e+03
-3.408393e+09 -3.208390e+09 -3.368393e+09 3.343953e+02 -1.152716e+03 1.305389e+03
-2.604321e+09 -2.404320e+09 -2.564320e+09 2.087874e+03 -1.944617e+03 1.559518e+03
-1.801063e+09 -1.601061e+09 -1.761060e+09 8.609574e+03 -7.420168e+03 6.666781e+03
-1.593424e+09 -1.393424e+09 -1.553423e+09 -7.632287e+02 1.718657e+02 -1.371109e+02
-2.570343e+09 -2.370343e+09 -2.530342e+09 -5.378196e+02 1.924960e+01 -8.086768e+01
-2.785213e+09 -2.585210e+09 -2.745211e+09 -2.017629e+02 2.233497e+02 1.831600e+02
-2.388055e+09 -2.188053e+09 -2.348055e+09 3.058691e+03 -3.489473e+03 2.680257e+03
-1.584177e+09 -1.384177e+09 -1.544176e+09 -1.661858e+03 4.633781e+02 5.802333e+01
-2.005288e+09 -1.805287e+09 -1.965286e+09 2.049408e+03 -1.883088e+03 1.556551e+03
-1.796424e+09 -1.596429e+09 -1.756428e+09 -3.256210e+02 4.397499e+01 -1.156467e+03
-3.294889e+09 -3.094890e+09 -3.254890e+09 1.283294e+03 -1.197279e+03 4.152764e+02
-3.406389e+09 -3.206389e+09 -3.366391e+09 1.390493e+03 -1.966094e+03 1.178270e+03
-1.762460e+09 -1.562460e+09 -1.722461e+09 -2.179799e+03 -9.446978e+01 -6.253182e+00
-3.300147e+09 -3.100145e+09 -3.260148e+09 6.040160e+02 -1.864868e+03 1.573320e+03
-2.820419e+09 -2.620413e+09 -2.780425e+09 1.255634e+03 -6.290718e+03 6.285346e+03
-1.802936e+09 -1.602935e+09 -1.762935e+09 2.326346e+03 -1.666217e+03 1.309248e+03
-3.413061e+09 -3.213067e+09 -3.373062e+09 -7.578097e+02 5.038427e+02 -2.642662e+03
-3.623698e+09 -3.423700e+09 -3.583700e+09 2.358667e+02 -3.892996e-01 -1.425644e+02
-3.490722e+09 -3.290723e+09 -3.450723e+09 3.692153e+02 9.989478e+00 1.120498e+00
-2.605357e+09 -2.405357e+09 -2.565358e+09 6.116181e+02 5.304265e+01 7.198903e+00
-2.409301e+09 -2.209299e+09 -2.369300e+09 1.188832e+03 -1.153386e+03 8.612999e+02
-2.841808e+09 -2.641810e+09 -2.801809e+09 3.382203e+02 4.010085e+01 1.762806e+01
-2.791020e+09 -2.591017e+09 -2.751019e+09 -2.112239e+02 -6.575292e+02 5.080381e+02
-2.532964e+09 -2.332968e+09 -2.492967e+09 -3.500003e+01 -2.090496e+01 -8.983159e+01
-3.601676e+09 -3.401677e+09 -3.561677e+09 -5.789892e+02 -3.198589e+01 -6.336473e+00
-2.396112e+09 -2.196110e+09 -2.356111e+09 -1.883228e+02 -5.288517e+02 3.984507e+02
-1.796977e+09 -1.596975e+09 -1.756975e+09 8.433248e+01 -4.395876e+02 2.346476e+02
-2.417664e+09 -2.217662e+09 -2.377663e+09 9.189807e+02 -1.033901e+03 8.257296e+02
-2.104638e+09 -1.904639e+09 -2.064639e+09 1.038369e+03 2.195866e+00 -1.432400e+02
-3.154485e+09 -2.954484e+09 -3.114485e+09 -1.006695e+03 -8.390452e+01 1.878281e+01
-2.602279e+09 -2.402275e+09 -2.562277e+09 4.638684e+02 -8.395160e+02 9.754129e+02
-1.599763e+09 -1.399776e+09 -1.559767e+09 6.681311e+03 -9.694931e+03 3.482762e+03
-3.492800e+09 -3.292807e+09 -3.452806e+09 -4.933167e+02 -3.739346e+03 1.486881e+02
-3.192667e+09 -2.992665e+09 -3.152667e+09 -2.426273e+02 -9.312915e+02 8.114721e+02
-2.812369e+09 -2.612366e+09 -2.772368e+09 2.950534e+02 -1.030717e+03 9.688873e+02
-3.402454e+09 -3.202452e+09 -3.362453e+09 9.437671e+02 -1.031643e+03 9.986946e+02
-3.407365e+09 -3.207363e+09 -3.367364e+09 2.069195e+02 -5.959541e+02 5.749288e+02
-3.405966e+09 -3.205963e+09 -3.365965e+09 -4.661293e+02 -4.643639e+02 5.522553e+02
-3.294609e+09 -3.094612e+09 -3.254609e+09 -1.164349e+03 2.518194e+02 5.267381e+01
-2.589313e+09 -2.389314e+09 -2.549312e+09 -1.563151e+03 3.960519e+02 -1.126323e+01
-2.771642e+09 -2.571644e+09 -2.731642e+09 -1.881004e+03 4.099325e+02 1.223635e+02
-1.763487e+09 -1.563489e+09 -1.723486e+09 -1.612943e+03 3.849420e+02 -4.221640e+01
-3.415215e+09 -3.215217e+09 -3.375214e+09 -1.395797e+03 2.693437e+02 -1.297278e+01
-1.593785e+09 -1.393789e+09 -1.553785e+09 -1.722493e+03 3.959004e+02 -3.364631e+01
-2.676938e+09 -2.476940e+09 -2.636937e+09 -1.322858e+03 1.533222e+02 6.898037e-01
-2.055519e+09 -1.855522e+09 -2.015521e+09 -2.627197e+02 -1.823006e+01 2.143114e+01
-2.725929e+09 -2.525907e+09 -2.685952e+09 -2.710130e+03 1.501344e+04 1.202742e+04
-3.606616e+09 -3.406598e+09 -3.566636e+09 -3.208425e+03 1.391974e+03 -8.439790e+02
-3.595589e+09 -3.395571e+09 -3.555557e+09 -1.958093e+03 9.365704e+03 -1.105864e+04
-1.787886e+09 -1.587884e+09 -1.747885e+09 -1.402120e+03 -3.434457e+02 5.537013e+02
-3.324385e+09 -3.124386e+09 -3.284386e+09 -2.742471e+03 6.797745e+02 -8.334551e+02
-3.362168e+09 -3.162172e+09 -3.322171e+09 -2.120843e+02 4.807649e+01 -6.391093e+02
-3.388633e+09 -3.188632e+09 -3.348633e+09 -1.740419e+03 -1.978448e+02 3.332763e+02
-1.584578e+09 -1.384573e+09 -1.544575e+09 -5.662527e+02 -9.539757e+01 1.019654e+03
-3.591298e+09 -3.391299e+09 -3.551298e+09 -2.591123e+03 5.357725e+02 -3.628297e+02
-3.412754e+09 -3.212757e+09 -3.372756e+09 2.209146e+02 5.748801e+01 -3.155966e+02
-1.798943e+09 -1.598942e+09 -1.758943e+09 7.459283e+02 1.121961e+02 -1.007849e+02
-1.981664e+09 -1.781667e+09 -1.941667e+09 -5.242223e+02 -2.040625e+00 -3.196686e+02
-1.605099e+09 -1.405100e+09 -1.565100e+09 6.936297e+02 1.133651e+02 -5.881836e+00
-1.605099e+09 -1.405100e+09 -1.565100e+09 8.607594e+02 9.426476e+01 -1.302655e+01
-1.582788e+09 -1.382809e+09 -1.542804e+09 8.632723e+03 3.393171e+03 2.754473e+04
-1.795234e+09 -1.595237e+09 -1.755237e+09 -9.239366e+02 1.573451e+01 -9.901973e+01
-1.800478e+09 -1.600477e+09 -1.760477e+09 3.743541e+02 3.901187e+01 -6.502840e+01
-3.578875e+09 -3.378873e+09 -3.538874e+09 -1.113073e+03 2.627498e+02 1.522939e+02
-1.596704e+09 -1.396703e+09 -1.556703e+09 -3.002853e+02 1.338595e+02 -1.735684e+02
-1.902716e+09 -1.702725e+09 -1.862720e+09 3.248033e+03 -5.206508e+03 1.764563e+03
-3.201026e+09 -3.001026e+09 -3.161031e+09 2.812089e+03 -4.747276e+03 3.327786e+03
-2.492393e+09 -2.292403e+09 -2.452403e+09 -5.026806e+03 -9.465814e+03 -1.943297e+03
-1.799601e+09 -1.599616e+09 -1.759606e+09 -1.774927e+03 -7.883817e+03 -1.190130e+03
-1.899176e+09 -1.699188e+09 -1.859180e+09 -4.020089e+03 -5.496417e+03 -8.841394e+02
-1.897732e+09 -1.697743e+09 -1.857735e+09 -2.648542e+03 -4.351319e+03 -9.682112e+02
-3.165879e+09 -2.965877e+09 -3.125878e+09 -1.872686e+03 6.238903e+02 4.257512e+02
-3.581260e+09 -3.381255e+09 -3.541258e+09 -6.005285e+02 -7.185316e+01 2.829147e+02
-3.586058e+09 -3.386054e+09 -3.546056e+09 2.576772e+02 8.400259e+01 3.383476e+01
-3.149537e+09 -2.949533e+09 -3.109535e+09 -1.293722e+03 3.444153e+02 3.962981e+02
-3.162335e+09 -2.962332e+09 -3.122334e+09 -1.494711e+03 4.592174e+02 6.655863e+02
-1.977644e+09 -1.777643e+09 -1.937643e+09 -1.272306e+03 2.565690e+02 -2.809503e+00
-1.690828e+09 -1.490843e+09 -1.650833e+09 1.280174e+03 -5.185594e+03 5.575065e+02
-2.472977e+09 -2.272982e+09 -2.432985e+09 -5.740777e+03 -9.392203e+03 -3.612480e+03
-3.185628e+09 -2.985622e+09 -3.145646e+09 5.082459e+03 1.020599e+04 -7.799355e+03
-2.760501e+09 -2.560474e+09 -2.720542e+09 3.183857e+03 1.603897e+04 -1.261331e+04
-2.193102e+09 -1.993115e+09 -2.153106e+09 -1.036265e+03 -5.152135e+03 -2.885064e+01
-3.492792e+09 -3.292798e+09 -3.452797e+09 -1.514662e+03 -3.614440e+03 -2.522981e+02
-3.364646e+09 -3.164657e+09 -3.324660e+09 7.100211e+02 9.183035e+03 1.957171e+02
-2.449916e+09 -2.249927e+09 -2.409924e+09 -4.419205e+03 7.694855e+03 2.856320e+03
-2.812163e+09 -2.612176e+09 -2.772176e+09 2.101296e+02 1.021205e+04 4.715827e+02
-2.577311e+09 -2.377329e+09 -2.537342e+09 1.406932e+03 2.475824e+04 -2.216147e+02
-2.865645e+09 -2.665654e+09 -2.825665e+09 -3.745701e+03 1.540042e+04 5.033485e+03
-1.690830e+09 -1.490845e+09 -1.650834e+09 7.218387e+00 -4.920973e+03 2.557952e+02
-3.389223e+09 -3.189225e+09 -3.349242e+09 -3.453002e+03 1.052219e+04 2.728476e+03
-2.978535e+09 -2.778540e+09 -2.938535e+09 1.171724e+03 3.570289e+02 -2.420211e+01
-1.867065e+09 -1.667070e+09 -1.827065e+09 1.240812e+03 4.215533e+02 -7.714483e+01
-2.991642e+09 -2.791641e+09 -2.951641e+09 3.837405e+01 3.938954e+01 -5.876725e+01
-1.564717e+09 -1.364722e+09 -1.524717e+09 1.374089e+03 2.514071e+02 -7.137902e+00
-3.552207e+09 -3.352206e+09 -3.512206e+09 -3.341183e+02 6.953085e+00 -3.088511e+01
-3.253972e+09 -3.053972e+09 -3.213971e+09 -4.361879e+02 3.668179e-01 -9.374646e+01
-1.606509e+09 -1.406514e+09 -1.566509e+09 2.163252e+03 6.407261e+02 -1.355427e+02
-2.392441e+09 -2.192441e+09 -2.352441e+09 5.119524e+02 7.593936e+01 -7.162855e+00
-2.979170e+09 -2.779176e+09 -2.939171e+09 1.266707e+03 4.440761e+02 -5.176436e+01
-3.418608e+09 -3.218607e+09 -3.378607e+09 6.989460e+02 5.073822e+01 -4.159469e+01
-2.440161e+09 -2.240160e+09 -2.400160e+09 1.293688e+02 9.072946e+01 -5.026136e+01
-2.736524e+09 -2.536523e+09 -2.696523e+09 5.471537e+02 1.111644e+02 -1.700435e+01
-2.374708e+09 -2.174713e+09 -2.334708e+09 1.730386e+03 4.829577e+02 -9.924241e+01
-3.277173e+09 -3.077178e+09 -3.237173e+09 1.192252e+03 2.560115e+02 8.360300e+01
-2.099403e+09 -1.899401e+09 -2.059401e+09 2.497772e+02 -3.794286e+02 2.803231e+02
-2.483563e+09 -2.283561e+09 -2.443561e+09 -1.596354e+01 5.320699e+01 -8.728348e+01
-1.688694e+09 -1.488695e+09 -1.648695e+09 2.060572e+02 3.523177e+01 3.939706e+01
-2.186736e+09 -1.986738e+09 -2.146738e+09 -2.545171e+02 -1.995542e+01 2.462853e+01
-2.457677e+09 -2.257679e+09 -2.417679e+09 3.119096e+02 2.976356e+01 -1.253651e+02
-3.313165e+09 -3.113163e+09 -3.273164e+09 -1.452440e+02 -2.611102e+02 3.744337e+01
-3.601870e+09 -3.401872e+09 -3.561871e+09 1.172912e+03 -8.026217e+01 -4.698725e+02
-2.815758e+09 -2.615756e+09 -2.775757e+09 -2.263820e+02 -4.219617e+02 2.370762e+02
-2.048966e+09 -1.848966e+09 -2.008967e+09 1.283481e+03 -5.382859e+00 -4.357301e+02
-3.602612e+09 -3.402592e+09 -3.562578e+09 -6.955710e+02 -1.747687e+04 -4.005487e+03
-1.581667e+09 -1.381602e+09 -1.541696e+09 -3.846560e+04 2.626399e+03 -2.186865e+04
-2.033654e+09 -1.833677e+09 -1.993675e+09 -8.717446e+03 3.115699e+04 6.202145e+03
-3.611396e+09 -3.411395e+09 -3.571395e+09 -1.986379e+02 -1.907779e+02 5.493730e+01
-2.586843e+09 -2.386841e+09 -2.546842e+09 -7.162479e+02 -3.191956e+02 4.254123e+02
-3.606610e+09 -3.406597e+09 -3.566632e+09 3.049283e+02 1.024857e+04 4.590816e+03
-3.596467e+09 -3.396467e+09 -3.556464e+09 -2.950545e+03 1.169750e+03 -1.146572e+03
-2.658912e+09 -2.458908e+09 -2.618908e+09 -9.080547e+03 6.346107e+03 -1.733826e+03
-1.879140e+09 -1.679139e+09 -1.839139e+09 -4.146056e+02 -1.610697e+02 -6.204789e+00
-3.214568e+09 -3.014566e+09 -3.174567e+09 -2.311467e+02 -4.570250e+02 2.910469e+02
-3.412283e+09 -3.212281e+09 -3.372282e+09 -3.544629e+02 -4.258004e+02 2.149418e+02
-2.347672e+09 -2.147670e+09 -2.307671e+09 -7.568647e+02 -2.435077e+02 4.590842e+01
-3.567334e+09 -3.367331e+09 -3.527332e+09 -6.600351e+02 1.216057e+02 4.297852e+01
-1.795558e+09 -1.595556e+09 -1.755557e+09 -2.212873e+02 -5.210959e+02 3.676446e+02
-2.598121e+09 -2.398119e+09 -2.558120e+09 -5.205128e+02 -4.494421e+02 1.671115e+02
-2.220336e+09 -2.020337e+09 -2.180335e+09 -8.285890e+02 8.165708e+00 -5.997427e+01
-3.567334e+09 -3.367332e+09 -3.527332e+09 -3.973852e+02 1.365371e+02 1.501035e+01
-3.587600e+09 -3.387599e+09 -3.547599e+09 -5.101534e+01 6.784759e+00 -3.591299e+01
-1.900845e+09 -1.700845e+09 -1.860844e+09 -1.120836e+01 3.130173e+01 -8.956666e+01
-2.074756e+09 -1.874755e+09 -2.034755e+09 8.477415e+01 1.127351e+01 -2.899377e+01
-3.213863e+09 -3.013865e+09 -3.173863e+09 -1.425179e+03 2.333223e+02 -2.258670e+01
-2.373504e+09 -2.173502e+09 -2.333502e+09 -1.278241e+03 3.882574e+02 1.541829e+02
-3.562552e+09 -3.362556e+09 -3.522553e+09 -1.704132e+03 2.007040e+02 2.360984e+01
-3.147376e+09 -2.947378e+09 -3.107375e+09 -1.099869e+03 8.321240e+01 -7.316439e+01
-1.587371e+09 -1.387370e+09 -1.547370e+09 8.326540e+01 4.708820e+01 -4.499121e+01
-1.690822e+09 -1.490821e+09 -1.650821e+09 9.326375e+01 4.255933e+01 -7.333430e+01
-1.774654e+09 -1.574656e+09 -1.734654e+09 -2.292645e+03 7.917757e+02 1.042160e+02
-3.133748e+09 -2.933747e+09 -3.093747e+09 1.659689e+02 6.065052e+01 -3.941829e+01
-3.588135e+09 -3.388133e+09 -3.548133e+09 8.507280e+01 -9.494187e+00 -3.543668e+01
-2.849143e+09 -2.649145e+09 -2.809143e+09 -9.345089e+02 1.572933e+02 -8.217174e+01
-1.809742e+09 -1.609742e+09 -1.769741e+09 -1.265642e+03 2.560331e+02 -7.439483e+01
-2.608610e+09 -2.408611e+09 -2.568609e+09 -1.210993e+03 2.425695e+02 -4.685270e+00
-1.591160e+09 -1.391160e+09 -1.551159e+09 1.425792e+03 -1.134061e+03 5.714079e+02
-2.599689e+09 -2.399689e+09 -2.559688e+09 -1.094147e+03 2.697324e+02 -1.927129e+01
-2.582610e+09 -2.382611e+09 -2.542609e+09 -7.361296e+02 1.090472e+02 -9.323148e+01
-3.027547e+09 -2.827548e+09 -2.987546e+09 -7.850686e+02 9.819456e+01 -7.499146e+01
-2.465880e+09 -2.265882e+09 -2.425880e+09 -1.176709e+03 1.856968e+02 -4.624787e+01
-3.589520e+09 -3.389519e+09 -3.549519e+09 -7.591678e+01 -4.352746e+00 -2.734904e+01
-2.042850e+09 -1.842851e+09 -2.002849e+09 -1.166494e+03 1.722752e+02 -1.062796e+01
-3.411536e+09 -3.211535e+09 -3.371535e+09 1.331151e+02 4.698176e+01 -3.362027e+01
-3.358285e+09 -3.158284e+09 -3.318284e+09 2.872316e+01 4.203051e+01 -8.872768e+01
-3.599571e+09 -3.399570e+09 -3.559569e+09 -3.545049e+02 3.745961e+01 -2.573719e+01
-3.602527e+09 -3.402526e+09 -3.562526e+09 2.344833e+02 1.608708e+01 -4.736380e+01
-2.396280e+09 -2.196280e+09 -2.356279e+09 -1.103128e+03 1.705535e+02 -5.496785e+01
-3.587600e+09 -3.387599e+09 -3.547599e+09 1.015565e+02 1.046843e+01 -3.751128e+01
-3.069778e+09 -2.869780e+09 -3.029778e+09 -1.313791e+03 2.727346e+02 1.515393e+01
-3.612774e+09 -3.412773e+09 -3.572773e+09 -9.569674e+02 1.545651e+02 6.170812e+01
-1.796299e+09 -1.596298e+09 -1.756298e+09 -1.514235e+02 1.436990e+02 -6.802717e+01
-1.959508e+09 -1.759507e+09 -1.919507e+09 -1.728499e+02 3.373377e+00 -8.435690e+01
-2.586208e+09 -2.386207e+09 -2.546207e+09 3.627910e+00 3.559829e+01 -5.957821e+01
-2.584744e+09 -2.384743e+09 -2.544742e+09 -1.393762e+03 5.126695e+02 1.476294e+02
-1.690839e+09 -1.490838e+09 -1.650838e+09 -4.523445e+02 -1.667436e+02 -5.597940e+01
-2.969749e+09 -2.769750e+09 -2.929748e+09 -9.903351e+02 2.132339e+02 -3.301451e+01
-3.599950e+09 -3.399947e+09 -3.559950e+09 4.102275e+02 -1.135154e+03 1.343338e+03
-3.492799e+09 -3.292797e+09 -3.452798e+09 -5.383640e+02 -4.519301e+01 -3.042080e+01
-2.940793e+09 -2.740791e+09 -2.900792e+09 -5.018508e+02 -1.179591e+02 -8.768485e+00
-2.813172e+09 -2.613171e+09 -2.773171e+09 4.738984e+02 4.172891e+00 -1.226661e+02
-3.427337e+09 -3.227337e+09 -3.387336e+09 -1.320133e+03 1.724579e+02 -5.649316e+01
-1.787629e+09 -1.587630e+09 -1.747628e+09 -1.078078e+03 1.289172e+01 -1.241120e+02
-3.492735e+09 -3.292734e+09 -3.452734e+09 -5.105284e+02 -2.516337e+01 -3.560807e+01
-1.789838e+09 -1.589837e+09 -1.749838e+09 -1.101088e+03 -2.829202e+02 1.078336e+02
-3.310347e+09 -3.110346e+09 -3.270346e+09 1.176414e+02 1.926890e+01 -5.323972e+01
-3.416666e+09 -3.216667e+09 -3.376667e+09 -8.731036e+02 -2.116583e+01 -4.191197e+00
-2.005059e+09 -1.805061e+09 -1.965060e+09 -7.411240e+02 -4.607339e+01 7.491525e+00
-1.997953e+09 -1.797954e+09 -1.957954e+09 -7.476189e+02 -5.204699e+01 1.182804e+01
-2.778267e+09 -2.578268e+09 -2.738267e+09 -7.730231e+02 -2.864722e+01 6.318432e+00
-3.191309e+09 -2.991317e+09 -3.151312e+09 -1.843948e+02 1.175731e+03 4.933882e+00
-3.401999e+09 -3.201999e+09 -3.361999e+09 -8.645883e+02 -5.958026e+01 7.153228e+01
-1.690840e+09 -1.490845e+09 -1.650840e+09 -1.143141e+03 1.476202e+02 -1.459243e+01
-3.596259e+09 -3.396266e+09 -3.556261e+09 3.233923e+02 6.231977e+02 -8.327368e+01
-1.690825e+09 -1.490832e+09 -1.650826e+09 5.927901e+02 3.983975e+02 -2.872986e+01
-3.297120e+09 -3.097126e+09 -3.257121e+09 1.130793e+03 7.940204e+02 -1.049862e+02
-2.652306e+09 -2.452306e+09 -2.612305e+09 -1.354935e+03 1.726152e+02 2.047751e+01
-2.180305e+09 -1.980304e+09 -2.140304e+09 -5.954508e+02 2.490928e+02 -8.959130e+00
-1.998330e+09 -1.798330e+09 -1.958329e+09 -1.103112e+03 1.224608e+02 -4.046496e+01
-1.897235e+09 -1.697240e+09 -1.857235e+09 1.452291e+03 3.518113e+02 -1.172213e+02
-2.836993e+09 -2.636992e+09 -2.796992e+09 -7.256544e+02 5.258808e+01 -7.198950e+01
-1.571751e+09 -1.371759e+09 -1.531746e+09 -1.371272e+04 6.932829e+03 5.412585e+03
-2.819134e+09 -2.619132e+09 -2.779133e+09 -6.361589e+02 1.577782e+02 6.149125e+01
-2.559100e+09 -2.359100e+09 -2.519099e+09 -7.843807e+02 3.474206e+01 -1.222696e+02
-3.608869e+09 -3.408867e+09 -3.568873e+09 -3.505534e+03 3.647914e+03 2.581085e+03
-3.558881e+09 -3.358882e+09 -3.518889e+09 -3.443388e+03 5.999077e+03 2.214095e+03
-3.401481e+09 -3.201482e+09 -3.361482e+09 5.194156e+02 2.865444e+01 -2.534514e+01
-3.386003e+09 -3.186002e+09 -3.346002e+09 -2.102721e+02 1.080828e+02 -1.563368e+01
-2.988535e+09 -2.788536e+09 -2.948536e+09 3.659183e+02 4.688456e+01 4.236502e+00
-3.586263e+09 -3.386264e+09 -3.546264e+09 7.524520e+02 2.163475e+01 1.979218e+01
-3.032152e+09 -2.832151e+09 -2.992152e+09 5.718453e+02 3.350602e+01 -3.059432e+01
-2.329562e+09 -2.129562e+09 -2.289562e+09 5.775219e+02 5.943424e+01 -1.667033e+01
-3.589186e+09 -3.389187e+09 -3.549187e+09 6.016983e+02 1.830025e+01 1.428958e+01
-1.915992e+09 -1.715992e+09 -1.875992e+09 3.480305e+02 5.491322e+01 1.726655e-01
-3.588170e+09 -3.388169e+09 -3.548170e+09 -1.429293e+03 -1.418720e+02 1.028470e+02
-2.619616e+09 -2.419615e+09 -2.579615e+09 -6.412882e+02 1.139606e+02 -2.674870e+01
-3.490324e+09 -3.290325e+09 -3.450325e+09 -4.672982e+02 -1.730594e+01 1.423531e+01
-3.213212e+09 -3.013211e+09 -3.173211e+09 -5.478229e+02 1.249991e+02 -4.682838e+01
-1.596794e+09 -1.396795e+09 -1.556795e+09 -5.760595e+02 -5.146907e+01 5.327947e+01
-3.608589e+09 -3.408591e+09 -3.568591e+09 -1.624526e+02 2.275923e+00 -1.137906e+00
-3.196858e+09 -2.996860e+09 -3.156860e+09 -7.464421e+02 -5.523143e+01 -1.015312e+01
-2.855719e+09 -2.655718e+09 -2.815718e+09 -1.102085e+03 2.277208e+02 6.641861e+01
-2.340735e+09 -2.140734e+09 -2.300734e+09 -6.787908e+02 1.083984e+02 -8.929733e+01
-2.410659e+09 -2.210660e+09 -2.370660e+09 -8.972149e+02 -6.285936e+01 3.401379e+01
-1.784821e+09 -1.584821e+09 -1.744819e+09 -8.852825e+02 2.144837e+02 -7.273303e+01
-2.157086e+09 -1.957087e+09 -2.117087e+09 -5.552186e+02 -2.495134e+01 -1.125991e+01
-2.627996e+09 -2.428003e+09 -2.588005e+09 2.205006e+03 -1.028541e+04 4.164967e+03
-3.596789e+09 -3.396783e+09 -3.556805e+09 -1.928564e+03 -6.604018e+03 3.387263e+03
-3.074105e+09 -2.874112e+09 -3.034123e+09 1.831644e+03 -1.264770e+04 3.116558e+03
-3.595713e+09 -3.395711e+09 -3.555726e+09 -9.369274e+02 -8.225649e+03 3.027952e+03
-3.382485e+09 -3.182485e+09 -3.342484e+09 -9.094772e+02 3.948368e+01 -6.080211e+01
-3.579685e+09 -3.379676e+09 -3.539696e+09 -2.123726e+03 -9.192007e+03 8.824321e+02
-2.381706e+09 -2.181706e+09 -2.341705e+09 -1.529379e+03 5.036546e+02 -2.257589e+01
-2.811369e+09 -2.611367e+09 -2.771367e+09 -1.245084e+03 2.865385e+02 1.382795e+02
-3.422011e+09 -3.222010e+09 -3.382010e+09 -5.788295e+02 1.599267e+02 -9.288111e+00
-1.787332e+09 -1.587330e+09 -1.747340e+09 -1.396204e+04 -1.727694e+04 -9.508117e+03
-3.183166e+09 -2.983165e+09 -3.143165e+09 2.368197e+01 6.415970e+01 -4.948154e+01
-2.559163e+09 -2.359162e+09 -2.519162e+09 -1.052440e+02 4.061537e+01 -7.560604e+01
-2.585476e+09 -2.385475e+09 -2.545475e+09 -8.659301e+01 6.660060e+01 -7.286897e+01
-3.137116e+09 -2.937115e+09 -3.097114e+09 -1.555376e+02 5.962852e+01 -8.461499e+01
-3.606701e+09 -3.406692e+09 -3.566702e+09 2.500989e+03 -1.895313e+03 -2.867494e+03
-2.644880e+09 -2.444880e+09 -2.604879e+09 -2.961748e+02 1.761372e+01 -6.030466e+01
-1.833748e+09 -1.633748e+09 -1.793748e+09 -8.624971e+02 -1.183873e+02 -6.257915e+01
-3.350683e+09 -3.150682e+09 -3.310682e+09 -1.719657e+02 6.338314e+01 -5.112598e+01
-3.052445e+09 -2.852445e+09 -3.012444e+09 -2.847569e+02 7.388528e+01 -6.757933e+01
-3.291278e+09 -3.091278e+09 -3.251277e+09 -9.513424e+01 3.563952e+01 -3.352400e+01
-3.591406e+09 -3.391405e+09 -3.551406e+09 -9.574229e+02 -1.791715e+02 1.344069e+02
-1.982955e+09 -1.782954e+09 -1.942954e+09 -2.172151e+01 6.039112e+00 -7.583479e+01
-2.129895e+09 -1.929894e+09 -2.089894e+09 -1.604698e+02 2.871885e+01 -9.866535e+01
-3.369760e+09 -3.169767e+09 -3.329763e+09 -7.620542e+02 1.093706e+03 2.961479e+01
-2.186343e+09 -1.986342e+09 -2.146342e+09 -8.415552e+01 1.103751e+01 -6.689782e+01
-1.690840e+09 -1.490846e+09 -1.650841e+09 -7.544294e+02 2.567008e+02 -1.041314e+02
-3.594160e+09 -3.394163e+09 -3.554162e+09 -2.008716e+01 6.774815e+00 -3.921555e+01
-1.801713e+09 -1.601712e+09 -1.761712e+09 -6.579936e+02 2.378308e+02 -6.298502e+01
-2.116388e+09 -1.916387e+09 -2.076386e+09 -4.577764e+02 1.300387e+01 -9.391213e+01
-2.232242e+09 -2.032242e+09 -2.192241e+09 -5.395935e+02 1.209317e+01 -4.263385e+01
-1.590497e+09 -1.390499e+09 -1.550498e+09 -3.960740e+02 -3.374194e+01 6.324462e+01
-2.052655e+09 -1.852654e+09 -2.012654e+09 -3.812658e+02 4.296324e+01 -1.132396e+02
-3.607675e+09 -3.407677e+09 -3.567676e+09 6.172982e+02 3.021331e+01 4.591483e+01
-2.346598e+09 -2.146597e+09 -2.306597e+09 -1.705843e+02 1.214268e+02 -6.445785e+01
-1.960828e+09 -1.760832e+09 -1.920833e+09 -2.537311e+03 -1.596699e+01 -6.605513e+02
-3.617947e+09 -3.417950e+09 -3.577949e+09 6.633451e+02 -1.874101e+01 -3.571516e+02
-2.691223e+09 -2.491222e+09 -2.651222e+09 3.247609e+01 5.129928e+01 -2.687621e+01
-1.574983e+09 -1.374983e+09 -1.534982e+09 -5.195646e+02 3.558564e+01 -8.749741e+01
-3.492810e+09 -3.292809e+09 -3.452808e+09 -4.012648e+02 2.218379e+01 -4.532812e+01
-2.560488e+09 -2.360489e+09 -2.520487e+09 -1.094315e+03 5.632945e+01 -1.121090e+02
-1.882235e+09 -1.682236e+09 -1.842234e+09 -7.746775e+02 5.255832e-01 -1.151768e+02
-3.598204e+09 -3.398203e+09 -3.558203e+09 1.298052e+02 -4.918192e+00 -1.120684e+01
-2.473827e+09 -2.273827e+09 -2.433826e+09 -7.486663e+02 9.926178e+01 -6.512047e+01
-1.759397e+09 -1.559397e+09 -1.719395e+09 -6.888849e+02 5.415548e+00 -1.120727e+02
-3.492794e+09 -3.292793e+09 -3.452793e+09 7.488748e+01 3.807941e-01 -2.827839e+01
-2.697726e+09 -2.497725e+09 -2.657725e+09 -8.611767e+01 1.245366e+01 -5.395061e+01
-2.561505e+09 -2.361505e+09 -2.521504e+09 -2.388994e+02 2.669840e+01 -9.876523e+01
-2.183288e+09 -1.983286e+09 -2.143287e+09 1.099654e+02 7.654780e+01 -9.493343e+01
-2.828633e+09 -2.628631e+09 -2.788632e+09 8.179904e+02 -1.180298e+03 8.057538e+02
-1.596704e+09 -1.396703e+09 -1.556703e+09 -4.675393e+02 1.747238e+02 -1.769717e+02
-3.294891e+09 -3.094891e+09 -3.254891e+09 1.412273e+03 -1.193060e+03 9.326399e+02
-3.090657e+09 -2.890654e+09 -3.050658e+09 1.420585e+03 -2.889234e+03 2.503856e+03
-1.600227e+09 -1.400226e+09 -1.560226e+09 -1.000039e+03 2.494767e+02 -1.604621e+02
-2.074809e+09 -1.874805e+09 -2.034806e+09 2.397936e+03 -2.665199e+03 2.315165e+03
-3.588441e+09 -3.388442e+09 -3.548442e+09 5.844374e+02 -5.260361e+00 -1.265096e+01
-2.807238e+09 -2.607235e+09 -2.767237e+09 1.682638e+02 -1.162641e+03 1.107235e+03
-1.970640e+09 -1.770637e+09 -1.930638e+09 7.653065e+02 -1.496960e+03 1.156392e+03
-1.688353e+09 -1.488354e+09 -1.648354e+09 -4.694759e+02 -6.042496e+01 1.443627e+01
-2.368346e+09 -2.168343e+09 -2.328345e+09 4.344258e+02 -9.371250e+02 9.499999e+02
-2.095302e+09 -1.895302e+09 -2.055301e+09 1.617784e+03 -1.133185e+03 7.449017e+02
-1.573914e+09 -1.373916e+09 -1.533916e+09 -3.391931e+02 -2.911436e+01 5.417226e+01
-2.604349e+09 -2.404349e+09 -2.564351e+09 4.237046e+03 -4.898970e+03 3.662525e+03
-2.414389e+09 -2.214388e+09 -2.374388e+09 2.047130e+03 -1.857055e+03 1.406410e+03
-3.195094e+09 -2.995091e+09 -3.155094e+09 1.710577e+02 -1.207601e+03 1.278527e+03
-2.457238e+09 -2.257240e+09 -2.417239e+09 -1.038589e+03 -1.419251e+01 2.416528e+01
-3.594010e+09 -3.394009e+09 -3.554010e+09 7.080264e+02 -6.356539e+02 4.644625e+02
-2.619528e+09 -2.419526e+09 -2.579527e+09 -1.822298e+02 -3.876567e+02 3.319298e+02
-2.899939e+09 -2.699939e+09 -2.859930e+09 -3.885647e+03 2.913505e+03 -6.773312e+03
-1.572167e+09 -1.372168e+09 -1.532166e+09 -1.816161e+03 4.124087e+02 9.171346e+00
-1.601925e+09 -1.401925e+09 -1.561924e+09 -1.228485e+03 2.615687e+02 -4.611697e+01
-3.346773e+09 -3.146771e+09 -3.306772e+09 -6.567480e+02 -9.704306e+01 -3.110393e+01
-2.631811e+09 -2.431811e+09 -2.591804e+09 -2.275176e+03 4.801867e+03 -9.895042e+03
-3.197954e+09 -2.997954e+09 -3.157947e+09 -4.414960e+03 3.214877e+03 -7.955546e+03
-2.660934e+09 -2.460921e+09 -2.620934e+09 -3.694520e+03 1.831158e+03 2.762374e+03
-1.690434e+09 -1.490433e+09 -1.650434e+09 -4.168795e+02 -6.266215e+01 -4.159103e+01
-1.881143e+09 -1.681142e+09 -1.841143e+09 -4.978580e+02 -5.499688e+01 -4.747369e+01
-3.600545e+09 -3.400544e+09 -3.560545e+09 -7.430563e+02 -9.477052e+01 6.322753e+01
-3.226665e+09 -3.026666e+09 -3.186662e+09 -3.567145e+03 2.295969e+03 -2.117080e+03
-2.815495e+09 -2.615491e+09 -2.775479e+09 5.575297e+03 -7.832386e+03 -1.029917e+04
-2.453120e+09 -2.253077e+09 -2.413063e+09 -1.614075e+04 1.168416e+04 -4.642556e+04
-2.061761e+09 -1.861762e+09 -2.021762e+09 -4.996979e+02 -3.278021e+01 -2.194440e+00
-3.490323e+09 -3.290324e+09 -3.450324e+09 -3.974478e+02 -1.610122e+01 7.677531e+00
-2.886422e+09 -2.686413e+09 -2.846423e+09 -6.062612e+03 1.194681e+03 2.577049e+03
-1.861594e+09 -1.661596e+09 -1.821595e+09 -5.305127e+02 -5.867362e+01 5.045993e+01
-1.596794e+09 -1.396795e+09 -1.556795e+09 -5.296191e+02 -5.929026e+01 5.404461e+01
-3.491467e+09 -3.291460e+09 -3.451466e+09 -2.768096e+02 1.059075e+03 -2.253215e+03
-1.592587e+09 -1.392575e+09 -1.552583e+09 8.534194e+03 4.585221e+03 -6.362861e+03
-2.463700e+09 -2.263699e+09 -2.423691e+09 1.241486e+03 -1.984613e+03 -8.130477e+03
-2.013919e+09 -1.813907e+09 -1.973914e+09 -1.430560e+03 7.675570e+02 5.084113e+03
-1.807830e+09 -1.607829e+09 -1.767815e+09 8.348992e+03 -6.711806e+03 -1.998863e+04
-3.414947e+09 -3.214951e+09 -3.374945e+09 -3.144855e+03 1.967152e+03 -4.313690e+03
-3.592482e+09 -3.392477e+09 -3.552490e+09 3.927229e+03 6.379407e+03 -4.591572e+03
-3.097856e+09 -2.897855e+09 -3.057856e+09 1.347462e+03 -1.209629e+03 7.899597e+02
-2.446760e+09 -2.246753e+09 -2.406764e+09 4.992268e+03 -5.954645e+03 8.134815e+03
-3.294403e+09 -3.094407e+09 -3.254406e+09 2.513675e+03 -2.936236e+03 1.670986e+03
-2.479315e+09 -2.279324e+09 -2.439330e+09 3.767596e+03 -1.609857e+04 6.859925e+03
-1.815173e+09 -1.615176e+09 -1.775188e+09 8.669267e+03 -1.511252e+04 1.065876e+04
-2.060806e+09 -1.860795e+09 -2.020816e+09 2.265073e+03 -1.036936e+04 1.200351e+04
-3.586701e+09 -3.386705e+09 -3.546709e+09 7.508582e+02 -5.382410e+03 1.476177e+03
-3.187988e+09 -2.987986e+09 -3.147987e+09 -9.871587e+02 -2.487642e+02 2.066873e+02
-3.603033e+09 -3.403039e+09 -3.563043e+09 -5.803115e+01 -5.496627e+03 6.445558e+02
-3.304796e+09 -3.104804e+09 -3.264803e+09 1.226297e+03 -4.373416e+03 1.325156e+03
-2.847894e+09 -2.647888e+09 -2.807908e+09 -1.195037e+03 -9.713520e+03 8.051251e+03
-2.037504e+09 -1.837518e+09 -1.997521e+09 8.868970e+02 -1.991390e+04 2.403615e+03
-1.588279e+09 -1.388294e+09 -1.548284e+09 -1.227251e+03 -5.962401e+03 5.168932e+01
-2.971735e+09 -2.771746e+09 -2.931742e+09 3.948802e+03 2.192361e+03 8.975654e+03
-3.602605e+09 -3.402586e+09 -3.562572e+09 2.785560e+03 -1.372494e+04 -1.265000e+03
-3.442543e+09 -3.242539e+09 -3.402539e+09 -3.865121e+03 2.269270e+03 -4.418845e+03
-3.611130e+09 -3.411127e+09 -3.571108e+09 -4.940603e+03 -1.043749e+04 9.297141e+03
-3.395696e+09 -3.195690e+09 -3.355644e+09 -9.160866e+03 -2.191869e+04 1.629771e+04
-2.822308e+09 -2.622295e+09 -2.782317e+09 -1.103966e+04 -2.689380e+03 -3.918340e+03
-2.030903e+09 -1.830895e+09 -1.990907e+09 4.991908e+03 -1.206008e+04 9.832454e+03
-2.817713e+09 -2.617708e+09 -2.777723e+09 1.157357e+03 -9.992161e+03 6.603563e+03
-1.789881e+09 -1.589878e+09 -1.749879e+09 1.143943e+03 -1.480486e+03 1.314899e+03
-3.599949e+09 -3.399945e+09 -3.559950e+09 -4.402162e+02 -8.646854e+02 1.675829e+03
-3.610175e+09 -3.410172e+09 -3.570176e+09 -2.169158e+03 -3.375263e+02 1.214451e+03
-1.601220e+09 -1.401219e+09 -1.561218e+09 2.181709e+03 -1.802755e+03 1.257569e+03
-2.814260e+09 -2.614252e+09 -2.774261e+09 4.550798e+03 5.798066e+03 -6.473925e+03
-1.593368e+09 -1.393367e+09 -1.553364e+09 1.069929e+04 5.799792e+03 -4.557762e+03
-3.591133e+09 -3.391130e+09 -3.551133e+09 -2.907999e+03 3.958648e+02 1.076940e+03
-3.591889e+09 -3.391883e+09 -3.551890e+09 -1.387825e+03 -9.485762e+02 2.222335e+03
-1.604638e+09 -1.404632e+09 -1.564636e+09 -2.615373e+02 -9.749849e+02 1.931424e+03
-3.088368e+09 -2.888368e+09 -3.048367e+09 -8.345532e+01 5.368853e+01 -5.888885e+01
-2.633478e+09 -2.433478e+09 -2.593480e+09 5.580094e+03 4.174214e+03 -2.497306e+03
-1.588301e+09 -1.388303e+09 -1.548301e+09 1.418509e+04 1.127377e+04 -8.272457e+03
-2.534521e+09 -2.334517e+09 -2.494535e+09 1.092452e+04 1.965788e+04 -1.500720e+04
-1.932061e+09 -1.732061e+09 -1.892062e+09 -1.696121e+03 -1.707334e+02 7.678314e+01
-2.578576e+09 -2.378583e+09 -2.538583e+09 5.796719e+03 8.813219e+03 -4.223552e+03
-2.978476e+09 -2.778476e+09 -2.938476e+09 -1.000528e+03 -1.169458e+02 1.450579e+01
-1.583805e+09 -1.383804e+09 -1.543805e+09 -5.845691e+02 -2.017199e+02 -2.864652e+01
-1.785015e+09 -1.585033e+09 -1.745021e+09 3.705952e+03 7.836977e+03 -1.136166e+03
-2.378587e+09 -2.178601e+09 -2.338593e+09 3.837204e+03 6.201349e+03 -1.102092e+03
-1.588845e+09 -1.388843e+09 -1.548844e+09 -3.417649e+02 -5.304669e+02 2.592143e+02
-1.594156e+09 -1.394176e+09 -1.554164e+09 1.130058e+04 1.502307e+04 -4.776021e+03
-2.002793e+09 -1.802792e+09 -1.962792e+09 4.484566e+03 -5.889543e+03 4.653507e+03
-1.577370e+09 -1.377369e+09 -1.537369e+09 -8.327836e+02 -2.442542e+02 4.391998e+01
-3.352042e+09 -3.152046e+09 -3.312042e+09 -1.770266e+03 4.220833e+02 8.264262e+01
-3.090621e+09 -2.890625e+09 -3.050631e+09 -3.755973e+03 -7.391425e+03 -2.321282e+03
-2.779026e+09 -2.579033e+09 -2.739037e+09 -2.317922e+03 -9.852215e+03 -1.093710e+03
-3.596258e+09 -3.396266e+09 -3.556261e+09 5.034216e+01 6.424463e+02 3.619332e+01
-2.776975e+09 -2.576985e+09 -2.736983e+09 -1.135370e+03 -7.574358e+03 -7.012683e+01
-1.582278e+09 -1.382285e+09 -1.542280e+09 -8.984263e+02 7.359572e+02 4.609995e+01
-3.370514e+09 -3.170521e+09 -3.330516e+09 -8.857039e+02 4.546985e+02 -4.530161e+01
-3.403516e+09 -3.203519e+09 -3.363530e+09 -4.000895e+03 -9.465100e+03 -2.134580e+03
-2.356584e+09 -2.156598e+09 -2.316594e+09 -1.427294e+03 -1.013452e+04 1.877450e+02
-1.537818e+09 -1.337823e+09 -1.497818e+09 -2.307501e+03 7.354298e+02 2.667202e+02
-2.777296e+09 -2.577305e+09 -2.737306e+09 -2.223967e+03 -9.849056e+03 -1.100381e+03
-1.777895e+09 -1.577903e+09 -1.737896e+09 7.035448e+02 9.868969e+02 -5.233727e+01
-2.739772e+09 -2.539760e+09 -2.699777e+09 -1.524131e+03 -3.815051e+03 -5.155556e+03
-2.772332e+09 -2.572334e+09 -2.732336e+09 -7.875142e+03 -6.568829e+03 9.401855e+03
-2.876758e+09 -2.676749e+09 -2.836761e+09 5.221398e+03 2.839650e+03 -1.763586e+03
-2.447259e+09 -2.247260e+09 -2.407260e+09 8.205876e+02 6.192833e+01 -5.364832e+01
-1.876327e+09 -1.676326e+09 -1.836327e+09 1.907163e+02 2.042114e+01 -3.024005e+01
-3.598350e+09 -3.398338e+09 -3.558349e+09 4.184827e+03 9.680455e+01 -1.579553e+03
-3.367296e+09 -3.167285e+09 -3.327295e+09 5.125420e+03 2.053344e+03 -6.708190e+02
-3.559074e+09 -3.359082e+09 -3.519065e+09 6.543189e+03 4.158171e+03 1.046449e+04
-3.591011e+09 -3.391001e+09 -3.551019e+09 -4.576256e+02 -4.811956e+03 -4.586359e+03
-3.231012e+09 -3.031001e+09 -3.191016e+09 -1.095612e+03 -2.631044e+03 -5.241569e+03
-1.579736e+09 -1.379738e+09 -1.539735e+09 -1.601133e+03 3.042939e+02 -3.792212e+01
-2.349071e+09 -2.149070e+09 -2.309070e+09 -6.850964e+02 8.262318e+01 -7.683648e+01
-3.230411e+09 -3.030406e+09 -3.190417e+09 -3.213658e+03 -4.228019e+03 -4.341685e+03
-2.819669e+09 -2.619662e+09 -2.779668e+09 -2.024600e+03 -1.850240e+03 -3.319764e+03
-3.428456e+09 -3.228449e+09 -3.388462e+09 -1.621081e+03 -3.769743e+03 -3.063818e+03
-3.244642e+09 -3.044636e+09 -3.204643e+09 -1.217547e+03 -3.501809e+03 -2.854991e+03
-2.475908e+09 -2.275910e+09 -2.435911e+09 -3.567137e+03 -4.513662e+03 -1.756638e+03
-2.733076e+09 -2.533075e+09 -2.693075e+09 -2.999650e+02 4.389020e+01 -4.927428e+01
-3.592841e+09 -3.392843e+09 -3.552841e+09 -1.667183e+03 1.270373e+02 6.696593e+01
-2.792859e+09 -2.592858e+09 -2.752865e+09 -4.212770e+03 -7.518522e+03 -4.217323e+03
-2.826180e+09 -2.626179e+09 -2.786190e+09 -3.600660e+03 -1.057340e+04 -4.439610e+03
-3.262298e+09 -3.062296e+09 -3.222300e+09 -2.599921e+03 -3.091327e+03 -1.985796e+03
-2.015562e+09 -1.815562e+09 -1.975566e+09 -7.106498e+03 -1.056949e+04 -6.751186e+03
-2.644250e+09 -2.444250e+09 -2.604249e+09 -5.118743e+02 5.291620e+01 -6.588409e+01
-3.407634e+09 -3.207633e+09 -3.367632e+09 -7.887344e+02 9.689936e+01 -3.443259e+01
-3.232123e+09 -3.032129e+09 -3.192124e+09 -5.953296e+02 2.792245e+02 -9.473674e+01
-2.013524e+09 -1.813523e+09 -1.973523e+09 -9.245613e+02 1.252714e+02 -4.903354e+01
-2.456483e+09 -2.256485e+09 -2.416484e+09 5.799789e+02 4.611871e+01 -3.058023e+01
-1.954300e+09 -1.754299e+09 -1.914299e+09 -3.804017e+02 2.173740e+02 -5.982916e+01
-3.112478e+09 -2.912480e+09 -3.072478e+09 -1.235614e+03 1.261905e+02 -6.020315e+01
-3.419808e+09 -3.219806e+09 -3.379807e+09 -5.245253e+02 -2.478406e+02 1.804583e+02
-3.147166e+09 -2.947165e+09 -3.107165e+09 -2.959427e+02 7.297020e+01 -8.922429e+01
-3.065323e+09 -2.865323e+09 -3.025322e+09 -5.074766e+02 8.579265e+01 -8.610593e+01
-3.537272e+09 -3.337271e+09 -3.497271e+09 -5.197211e+02 -7.385494e+01 -1.541681e+01
-3.580534e+09 -3.380536e+09 -3.540534e+09 -2.139906e+03 3.924112e+02 1.796698e+02
-1.906101e+09 -1.706101e+09 -1.866100e+09 -6.987909e+02 3.578644e+01 -1.307033e+02
-1.870422e+09 -1.670422e+09 -1.830421e+09 -4.637697e+02 3.806894e+00 -1.185163e+02
-2.753799e+09 -2.553797e+09 -2.713797e+09 -1.883485e+03 7.875626e+02 3.751138e+02
-1.584176e+09 -1.384177e+09 -1.544176e+09 -1.667882e+03 5.170673e+02 -5.193716e+01
-1.601482e+09 -1.401487e+09 -1.561482e+09 -4.680100e+03 2.762512e+03 1.477880e+03
-2.809536e+09 -2.609540e+09 -2.769539e+09 -4.888506e+02 1.213722e+00 -1.916489e+02
-2.625438e+09 -2.425437e+09 -2.585436e+09 -5.667713e+02 1.106127e+02 -5.113171e+01
-3.613486e+09 -3.413484e+09 -3.573484e+09 -5.623218e+02 8.983788e+01 -1.134931e+01
-3.136405e+09 -2.936404e+09 -3.096404e+09 -4.809792e+02 4.185783e+01 -9.902479e+01
-1.601925e+09 -1.401925e+09 -1.561924e+09 -1.213094e+03 3.006503e+02 -1.082641e+02
-3.592197e+09 -3.392194e+09 -3.552196e+09 -2.318180e+03 1.002515e+03 9.282602e+02
-3.435215e+09 -3.235213e+09 -3.395213e+09 -7.020823e+02 2.409066e+02 7.355029e+01
-3.327879e+09 -3.127879e+09 -3.287878e+09 -4.917412e+02 1.049296e+02 -1.415012e+01
-2.554214e+09 -2.354214e+09 -2.514213e+09 -2.639228e+03 6.895361e+02 3.834863e+02
-1.964405e+09 -1.764405e+09 -1.924404e+09 -6.763988e+02 6.954811e+01 -1.020465e+02
-3.596036e+09 -3.396043e+09 -3.556038e+09 -2.637145e+02 5.123311e+02 1.855835e+01
-2.587211e+09 -2.387218e+09 -2.547213e+09 3.469074e+02 6.460991e+02 -2.722288e+01
-1.968614e+09 -1.768612e+09 -1.928613e+09 -1.539998e+02 -8.497620e+02 5.218452e+02
-1.781979e+09 -1.581976e+09 -1.741976e+09 1.183021e+03 -1.148863e+03 1.087026e+03
-3.492797e+09 -3.292804e+09 -3.452798e+09 5.955635e+02 3.332082e+02 -3.835170e+01
-3.619704e+09 -3.419706e+09 -3.579705e+09 6.100746e+02 -6.205497e+00 -9.709717e+01
-1.980987e+09 -1.780984e+09 -1.940985e+09 4.320398e+02 -6.854914e+02 7.460854e+02
-2.482616e+09 -2.282615e+09 -2.442616e+09 1.965942e+03 -2.928659e+03 2.247541e+03
-1.591160e+09 -1.391159e+09 -1.551159e+09 1.093952e+03 -9.339034e+02 5.347278e+02
-1.690841e+09 -1.490842e+09 -1.650840e+09 1.408016e+03 -9.951273e+02 4.127425e+02
-3.404980e+09 -3.204979e+09 -3.364981e+09 1.837729e+03 -1.825376e+03 1.560372e+03
-3.179407e+09 -2.979404e+09 -3.139407e+09 -3.414105e+02 -7.992362e+02 1.454642e+03
-3.386189e+09 -3.186186e+09 -3.346189e+09 1.304881e+01 -9.037701e+02 9.725031e+02
-3.370502e+09 -3.170499e+09 -3.330502e+09 -1.002995e+03 -5.014751e+02 7.729513e+02
-2.767349e+09 -2.567348e+09 -2.727347e+09 -1.857540e+03 4.657185e+02 2.361460e+02
-2.801417e+09 -2.601407e+09 -2.761419e+09 3.249977e+03 4.573841e+03 -5.813464e+03
-3.588010e+09 -3.388012e+09 -3.548012e+09 5.338497e+02 2.407925e+01 -2.848868e+00
-1.923518e+09 -1.723523e+09 -1.883519e+09 -1.807876e+03 5.004340e+02 8.287107e+01
-3.367346e+09 -3.167351e+09 -3.327348e+09 -2.206477e+03 9.965301e+02 2.951688e+02
-3.598906e+09 -3.398908e+09 -3.558908e+09 3.426271e+02 2.452461e+01 3.783072e+01
-3.176892e+09 -2.976890e+09 -3.136891e+09 -1.053259e+03 2.935941e+02 1.499533e+02
-3.492807e+09 -3.292813e+09 -3.452812e+09 1.480693e+03 -3.187840e+03 9.572358e+02
-1.981437e+09 -1.781437e+09 -1.941435e+09 -1.554753e+03 2.779791e+02 -3.068770e+01
-3.592636e+09 -3.392640e+09 -3.552641e+09 1.674274e+03 -3.366651e+03 1.316216e+03
-3.490611e+09 -3.290603e+09 -3.450610e+09 2.136224e+03 2.002727e+03 -2.446190e+03
-2.560268e+09 -2.360270e+09 -2.520268e+09 -2.547339e+03 8.170578e+02 3.071102e+02
-2.863554e+09 -2.663546e+09 -2.823551e+09 -1.463344e+03 -4.356043e+02 -2.095586e+03
-1.806934e+09 -1.606933e+09 -1.766932e+09 -9.973975e+02 6.298967e+01 -1.161535e+02
-3.453335e+09 -3.253330e+09 -3.413336e+09 2.694320e+03 2.744212e+03 -2.097361e+03
-3.590290e+09 -3.390290e+09 -3.550303e+09 3.902750e+03 9.473376e+03 -3.573980e+03
-2.392799e+09 -2.192800e+09 -2.352798e+09 -1.594381e+03 4.225006e+02 1.034661e+01
-3.378487e+09 -3.178486e+09 -3.338486e+09 -1.569570e+03 2.284401e+02 9.745771e+01
-3.380099e+09 -3.180099e+09 -3.340099e+09 -2.018640e+03 6.408301e+02 2.622936e+02
-2.118761e+09 -1.918764e+09 -2.078763e+09 -2.512855e+01 -1.510565e+00 -1.796690e+02
-3.224630e+09 -3.024630e+09 -3.184629e+09 -1.307965e+03 1.897702e+02 9.116107e+00
-2.548736e+09 -2.348735e+09 -2.508735e+09 -1.705321e+03 3.738807e+02 1.052420e+02
-3.427505e+09 -3.227507e+09 -3.387506e+09 3.254810e+02 -1.583969e-01 -8.162727e+01
-1.602730e+09 -1.402732e+09 -1.562732e+09 1.851233e+02 2.647897e+01 8.414326e+00
-2.360030e+09 -2.160030e+09 -2.320030e+09 -2.162744e+03 8.123594e+02 2.567607e+02
-1.786263e+09 -1.586263e+09 -1.746263e+09 5.172431e+02 3.811927e+01 -3.749089e+01
-2.558631e+09 -2.358629e+09 -2.518630e+09 -9.466948e+02 -2.241325e+02 2.018537e+02
-2.331362e+09 -2.131362e+09 -2.291361e+09 -5.158207e+02 5.237237e+00 -7.334114e+01
-1.811416e+09 -1.611415e+09 -1.771415e+09 3.678148e+02 4.584059e+01 -7.042935e+01
-2.007396e+09 -1.807398e+09 -1.967397e+09 9.802468e+02 2.454711e+01 -1.001124e+02
-3.492803e+09 -3.292802e+09 -3.452802e+09 -3.225400e+01 -6.074998e-01 -3.477516e+01
-1.690835e+09 -1.490835e+09 -1.650834e+09 -3.740320e+02 -1.892950e+01 -1.073357e+02
-1.791038e+09 -1.591040e+09 -1.751040e+09 1.023367e+03 7.166288e+01 -2.413524e+02
-1.936803e+09 -1.736802e+09 -1.896801e+09 -2.491140e+02 6.188487e+01 -1.258164e+02
-2.436010e+09 -2.236011e+09 -2.396011e+09 1.703621e+03 -8.491100e+01 -4.715929e+02
-3.287739e+09 -3.087738e+09 -3.247738e+09 1.788031e+03 -2.147387e+02 -7.342934e+02
-2.823930e+09 -2.623934e+09 -2.783933e+09 1.043827e+03 -2.882671e+01 -6.206051e+02
-2.013248e+09 -1.813250e+09 -1.973250e+09 1.181999e+03 6.245063e+00 -5.687074e+02
-1.963858e+09 -1.763859e+09 -1.923859e+09 1.278236e+03 -7.668356e+00 -2.111605e+02
-1.579812e+09 -1.379812e+09 -1.539811e+09 -8.352145e+02 1.382227e+02 -1.708641e+02
-2.847483e+09 -2.647483e+09 -2.807483e+09 1.473005e+03 -3.434331e+01 -3.130954e+02
-3.492811e+09 -3.292810e+09 -3.452810e+09 -5.043349e+02 -7.871649e+01 -1.849214e+01
-2.056891e+09 -1.856889e+09 -2.016891e+09 -1.884609e+03 3.081583e+01 4.975639e+01
-2.807976e+09 -2.607976e+09 -2.767976e+09 5.697855e+02 1.771893e+01 -6.574898e+01
-1.690842e+09 -1.490840e+09 -1.650840e+09 -2.696474e+02 -2.314095e+02 -4.469447e+01
-2.784795e+09 -2.584795e+09 -2.744795e+09 5.025911e+02 6.331104e+00 -1.287986e+02
-2.802595e+09 -2.602594e+09 -2.762595e+09 -8.476629e+02 -6.164251e+01 -2.629566e+01
-3.576997e+09 -3.376996e+09 -3.536996e+09 -9.864541e+02 -1.277074e+02 2.684516e+01
-2.546700e+09 -2.346700e+09 -2.506700e+09 6.715669e+02 3.293287e+01 -4.553887e+01
-1.590264e+09 -1.390262e+09 -1.550262e+09 2.527039e+02 -5.524169e+02 2.664155e+02
-3.192469e+09 -2.992469e+09 -3.152469e+09 6.189222e+02 6.342974e+01 1.657260e+01
-3.370454e+09 -3.170454e+09 -3.330454e+09 6.642699e+02 1.472695e+01 -3.566021e+01
-1.832051e+09 -1.632054e+09 -1.792051e+09 -1.296718e+03 2.837850e+02 -1.025536e+02
-3.194578e+09 -2.994579e+09 -3.154577e+09 -7.078567e+02 5.936249e+01 -9.186948e+01
-1.820076e+09 -1.620075e+09 -1.780075e+09 4.153157e+02 4.841286e+01 -2.455844e+01
-1.537818e+09 -1.337822e+09 -1.497818e+09 -1.792203e+03 6.222238e+02 1.528911e+01
-3.395910e+09 -3.195910e+09 -3.355910e+09 6.741106e+02 3.252140e+01 -1.416784e+01
-3.491012e+09 -3.291009e+09 -3.451013e+09 3.372688e+03 -4.572013e+02 -9.361353e+02
-2.276101e+09 -2.076093e+09 -2.236103e+09 5.094840e+03 1.883161e+03 -2.278401e+03
-3.401347e+09 -3.201347e+09 -3.361347e+09 5.110781e+02 4.548500e+01 -1.910737e+01
-3.152449e+09 -2.952440e+09 -3.112461e+09 -3.088579e+03 -4.170243e+03 -3.553447e+03
-2.061068e+09 -1.860998e+09 -2.021049e+09 -2.937027e+03 1.622963e+04 -2.058065e+04
-2.696414e+09 -2.496414e+09 -2.656429e+09 2.734173e+03 -1.173451e+04 6.200409e+03
-2.656272e+09 -2.456274e+09 -2.616296e+09 -1.508987e+03 -1.744701e+04 3.445337e+03
-1.734714e+09 -1.534751e+09 -1.694741e+09 3.896360e+03 -3.724744e+04 6.580116e+03
-3.552207e+09 -3.352206e+09 -3.512206e+09 -2.893136e+02 1.738843e+01 -4.868256e+01
-3.582246e+09 -3.382244e+09 -3.542244e+09 -4.306655e+02 1.086892e+02 9.940216e+00
-2.815304e+09 -2.615295e+09 -2.775323e+09 -2.319107e+03 -7.427783e+03 8.678133e+03
-3.390771e+09 -3.190770e+09 -3.350770e+09 -2.581521e+02 1.587510e+01 -9.250699e+01
-1.969252e+09 -1.769251e+09 -1.929251e+09 -1.984710e+02 1.228950e+02 -2.324387e+01
-3.566717e+09 -3.366717e+09 -3.526716e+09 -6.189309e+02 2.438465e+01 -4.260155e+01
-2.446317e+09 -2.246293e+09 -2.406318e+09 -3.330982e+03 1.036380e+04 -5.521214e+03
-1.786859e+09 -1.586870e+09 -1.746888e+09 3.431738e+03 -2.601070e+04 7.790560e+03
-1.771773e+09 -1.571772e+09 -1.731773e+09 -9.960288e+02 -2.564481e+02 1.906103e+02
-2.364861e+09 -2.164861e+09 -2.324861e+09 -1.449750e+03 -2.331609e+02 7.956714e+01
-1.980428e+09 -1.780428e+09 -1.940428e+09 -1.097777e+03 -1.433431e+02 5.109265e+01
-1.568000e+09 -1.368001e+09 -1.527999e+09 -6.423501e+02 1.405525e+02 -9.970321e+01
-1.581508e+09 -1.381507e+09 -1.541507e+09 -1.750644e+02 6.467639e+01 -1.097572e+02
-2.577515e+09 -2.377514e+09 -2.537514e+09 -1.142677e+03 -2.139475e+02 -1.396844e+01
-1.794407e+09 -1.594417e+09 -1.754409e+09 -2.444956e+03 2.836437e+03 3.256874e+02
-3.492809e+09 -3.292816e+09 -3.452810e+09 -2.697892e+02 2.275519e+02 3.327890e+01
-2.108285e+09 -1.908287e+09 -2.068287e+09 -5.904640e+01 8.072663e+00 -2.676620e+01
-2.587083e+09 -2.387083e+09 -2.547084e+09 -1.299233e+03 -1.703143e+02 1.609445e+02
-1.765232e+09 -1.565231e+09 -1.725231e+09 -1.474898e+02 9.911138e+01 -8.379864e+01
-2.374148e+09 -2.174147e+09 -2.334146e+09 -3.478617e+02 1.247539e+02 -9.203657e+01
-3.338640e+09 -3.138639e+09 -3.298639e+09 -2.666979e+02 3.551307e+01 -6.903632e+01
-2.184660e+09 -1.984661e+09 -2.144659e+09 -7.248458e+02 2.878758e+01 -6.093330e+01
-1.773891e+09 -1.573891e+09 -1.733891e+09 -8.113529e+02 -5.765898e+01 2.768812e+01
-1.767470e+09 -1.567470e+09 -1.727471e+09 -7.541476e+02 -7.714874e+01 5.226832e+01
-1.773901e+09 -1.573901e+09 -1.733901e+09 -8.615823e+02 -9.892733e+01 -1.886952e+01
-3.357686e+09 -3.157687e+09 -3.317687e+09 -8.471528e+02 -4.890085e+01 4.187838e+01
-3.112655e+09 -2.912656e+09 -3.072656e+09 -6.312000e+02 -5.251280e+01 1.954683e+01
-3.577285e+09 -3.377289e+09 -3.537286e+09 -2.155775e+03 7.160339e+02 2.727474e+02
-2.864122e+09 -2.664111e+09 -2.824126e+09 -9.525329e+02 -4.062066e+03 -5.895980e+03
-3.594532e+09 -3.394532e+09 -3.554535e+09 1.381750e+03 -1.982297e+03 1.178341e+03
-2.359528e+09 -2.159529e+09 -2.319529e+09 -7.389499e+02 -7.597923e+01 -2.546315e+01
-2.754349e+09 -2.554349e+09 -2.714349e+09 -9.390777e+02 -5.091573e+01 -1.279210e+01
-1.972827e+09 -1.772828e+09 -1.932828e+09 -7.338913e+02 -4.696885e+01 3.717905e+01
-3.492812e+09 -3.292813e+09 -3.452813e+09 1.223152e+03 -1.242216e+03 5.673182e+02
-2.396768e+09 -2.196769e+09 -2.356769e+09 6.635453e+02 4.119917e+01 -1.794523e+01
-3.588011e+09 -3.388012e+09 -3.548012e+09 7.148368e+02 2.480539e+01 -2.528105e+01
-1.797923e+09 -1.597924e+09 -1.757924e+09 8.729045e+02 1.025278e+02 -5.286541e+01
-2.557709e+09 -2.357711e+09 -2.517714e+09 -5.081310e+03 2.664202e+03 -3.381769e+03
-3.206630e+09 -3.006631e+09 -3.166631e+09 7.918024e+02 5.556110e+01 -3.788052e+01
-2.481763e+09 -2.281765e+09 -2.441764e+09 6.632028e+02 4.307560e+01 -6.417891e+01
-1.594735e+09 -1.394740e+09 -1.554741e+09 -3.187517e+03 7.138256e+02 -2.585232e+03
-3.261658e+09 -3.061660e+09 -3.221659e+09 -1.948789e+03 1.888646e+02 -1.361027e+02
-2.822658e+09 -2.622659e+09 -2.782659e+09 7.950447e+02 6.212192e+00 -6.789537e+01
-3.622410e+09 -3.422410e+09 -3.582410e+09 9.539848e+02 1.305045e+01 -1.219671e+02
-2.382555e+09 -2.182556e+09 -2.342556e+09 6.377053e+02 7.752285e+01 -3.693401e+01
-2.769612e+09 -2.569615e+09 -2.729614e+09 -2.519681e+02 -1.482172e+01 7.109101e+01
-2.369333e+09 -2.169335e+09 -2.329335e+09 9.564113e+01 2.613323e+01 -1.574723e+01
-2.044735e+09 -1.844738e+09 -2.004737e+09 1.175143e+02 2.940346e+01 4.479409e+01
-1.948301e+09 -1.748304e+09 -1.908303e+09 -5.922250e+02 -4.358558e+01 -2.172891e+01
-1.775731e+09 -1.575733e+09 -1.735733e+09 -5.499881e+02 -2.304967e+01 -1.276204e+01
-1.596233e+09 -1.396234e+09 -1.556232e+09 -1.291243e+03 2.232904e+02 -8.347676e+01
-3.226949e+09 -3.026949e+09 -3.186948e+09 -1.369459e+03 3.383464e+02 8.999572e+00
-3.585193e+09 -3.385192e+09 -3.545192e+09 -8.394963e+02 9.958978e+01 -8.499390e+00
-1.774715e+09 -1.574714e+09 -1.734714e+09 -4.679643e+02 6.445218e+01 -7.177708e+01
-3.084916e+09 -2.884918e+09 -3.044918e+09 -2.698546e+02 3.562601e+01 -3.769839e+01
-2.447016e+09 -2.246960e+09 -2.406919e+09 -2.045124e+04 4.347350e+04 -2.192085e+04
-3.410516e+09 -3.210488e+09 -3.370457e+09 1.014062e+03 2.132214e+04 -3.480977e+03
-1.582365e+09 -1.382345e+09 -1.542366e+09 -1.520009e+03 -3.677653e+03 -6.431045e+03
-3.411469e+09 -3.211460e+09 -3.371438e+09 -8.547201e+03 -1.421530e+04 9.446275e+03
-3.144946e+09 -2.944957e+09 -3.104919e+09 7.201930e+03 6.465595e+03 1.982112e+04
-3.606698e+09 -3.406689e+09 -3.566701e+09 3.925981e+03 7.092709e+02 -1.293679e+03
-2.635031e+09 -2.435026e+09 -2.595039e+09 -4.545360e+03 -8.175104e+03 -5.380810e+03
-2.670270e+09 -2.470260e+09 -2.630273e+09 -1.654756e+03 -3.695138e+03 -5.155260e+03
-3.326105e+09 -3.126084e+09 -3.286088e+09 8.622298e+03 1.321878e+04 5.708876e+02
-3.589520e+09 -3.389520e+09 -3.549519e+09 -1.922979e+02 -1.860363e+01 -4.114575e+01
-3.221506e+09 -3.021479e+09 -3.181433e+09 -1.333920e+04 -3.771441e+04 2.310437e+03
-2.427359e+09 -2.227259e+09 -2.387239e+09 1.237391e+04 -6.260796e+04 -5.122893e+02
-1.579812e+09 -1.379813e+09 -1.539811e+09 -9.120211e+02 1.322623e+02 -1.431222e+02
-3.414512e+09 -3.214497e+09 -3.374427e+09 -1.197502e+03 -9.094584e+03 1.295239e+04
-2.664086e+09 -2.464088e+09 -2.624086e+09 -3.071996e+03 1.862386e+03 -2.501961e+03
-3.584506e+09 -3.384502e+09 -3.544509e+09 1.959182e+02 -2.311996e+03 2.365522e+03
-3.103018e+09 -2.903025e+09 -3.063020e+09 -1.517839e+02 5.956676e+02 -7.389125e+00
-2.770693e+09 -2.570700e+09 -2.730695e+09 -1.894276e+03 1.703111e+03 2.951609e+02
-3.408030e+09 -3.208024e+09 -3.368034e+09 -1.087005e+00 -3.505323e+03 4.240342e+03
-1.582538e+09 -1.382541e+09 -1.542537e+09 -3.144302e+03 1.425507e+03 4.075440e+02
-1.811897e+09 -1.611893e+09 -1.771900e+09 6.738427e+03 -1.234852e+04 1.042782e+04
-2.157975e+09 -1.957975e+09 -2.117975e+09 3.111764e+03 -1.247471e+03 -2.205835e+03
-2.709116e+09 -2.509117e+09 -2.669116e+09 2.807521e+03 -1.078034e+03 -2.396558e+03
-2.492197e+09 -2.292195e+09 -2.452197e+09 2.324141e+03 -7.577675e+02 -9.740981e+02
-3.427460e+09 -3.227457e+09 -3.387458e+09 2.419161e+03 -4.977310e+02 -7.410824e+02
-3.384690e+09 -3.184689e+09 -3.344689e+09 2.798754e+01 4.273145e+01 -3.269564e+01
-3.251604e+09 -3.051603e+09 -3.211606e+09 5.248195e+03 2.459452e+03 1.341213e+03
-3.502165e+09 -3.302177e+09 -3.462166e+09 2.007216e+03 1.595532e+03 7.920564e+03
-1.582662e+09 -1.382601e+09 -1.542662e+09 4.543767e+04 5.616394e+04 4.659724e+04
-1.956664e+09 -1.756663e+09 -1.916663e+09 -6.427226e+01 1.955310e+01 -7.506419e+01
-1.790984e+09 -1.590983e+09 -1.750983e+09 1.541673e+02 5.083029e+01 -7.699726e+01
-2.660943e+09 -2.460942e+09 -2.620942e+09 4.081714e+01 4.182828e+00 -6.752382e+01
-2.066890e+09 -1.866889e+09 -2.026889e+09 -3.470882e+01 8.271587e+01 -6.121539e+01
-3.374033e+09 -3.174032e+09 -3.334032e+09 3.048059e+01 7.161154e+01 -3.526189e+01
-3.599457e+09 -3.399455e+09 -3.559456e+09 -6.870989e+02 -9.234850e+01 5.208954e+01
-3.423565e+09 -3.223577e+09 -3.383537e+09 -3.704981e+03 -6.029890e+03 2.440511e+04
-2.955734e+09 -2.755734e+09 -2.915733e+09 -2.865199e+02 5.575167e+01 -9.298899e+01
-2.371081e+09 -2.171093e+09 -2.331095e+09 3.421748e+03 -5.409548e+02 6.543808e+03
-3.070168e+09 -2.870167e+09 -3.030167e+09 4.039197e+01 5.925945e+01 -6.058297e+01
-3.614981e+09 -3.414980e+09 -3.574980e+09 2.313386e+02 3.032891e+01 -4.157927e+01
-3.386076e+09 -3.186075e+09 -3.346075e+09 -4.950244e+01 2.138552e+01 -5.457770e+01
-2.763284e+09 -2.563283e+09 -2.723282e+09 -7.971180e+01 3.841377e+00 -5.600259e+01
-1.593785e+09 -1.393790e+09 -1.553786e+09 -1.228053e+03 6.388732e+02 -1.335735e+02
-2.610396e+09 -2.410396e+09 -2.570396e+09 -6.389472e+02 -5.950375e+01 5.101113e+01
-3.196432e+09 -2.996409e+09 -3.156460e+09 -3.132052e+03 -4.899472e+03 -7.791540e+03
-2.623065e+09 -2.423027e+09 -2.583002e+09 9.332145e+03 -4.041075e+04 -2.825404e+04
-2.715931e+09 -2.515932e+09 -2.675932e+09 -6.387808e+02 -3.048133e+01 2.019605e+01
-2.037681e+09 -1.837625e+09 -1.997490e+09 2.376581e+03 -4.693034e+04 -4.876222e+04
-3.578039e+09 -3.378038e+09 -3.538039e+09 -1.619858e+03 -5.196340e+01 1.196203e+02
-2.410609e+09 -2.210536e+09 -2.370559e+09 -1.940914e+03 -4.380299e+04 1.428503e+03
-2.628265e+09 -2.428258e+09 -2.588302e+09 8.300754e+02 1.985945e+04 -1.896430e+03
-2.632960e+09 -2.432965e+09 -2.592945e+09 -2.268118e+03 4.089635e+03 -1.970341e+04
-3.414109e+09 -3.214101e+09 -3.374132e+09 -1.380265e+03 1.030174e+04 1.822864e+03
-1.886229e+09 -1.686228e+09 -1.846228e+09 -4.619869e+02 -1.481917e+02 -3.000392e+01
-3.415008e+09 -3.214989e+09 -3.374984e+09 3.765599e+03 -1.329371e+04 -8.456161e+03
-3.400185e+09 -3.200169e+09 -3.360170e+09 -7.098683e+03 -1.256668e+04 5.000490e+03
-3.600545e+09 -3.400544e+09 -3.560545e+09 -7.319934e+02 -8.097009e+01 3.597606e+01
-2.000642e+09 -1.800635e+09 -1.960642e+09 -3.709036e+03 1.113842e+03 1.972519e+03
-1.780283e+09 -1.580284e+09 -1.740285e+09 -2.605325e+03 7.758812e+02 -5.426564e+02
-2.028940e+09 -1.828940e+09 -1.988939e+09 -6.099843e+02 7.041961e+01 -8.205593e+01
-3.566717e+09 -3.366717e+09 -3.526716e+09 -6.500247e+02 2.714371e+01 -5.512745e+01
-2.736670e+09 -2.536672e+09 -2.696670e+09 -2.887533e+03 1.638282e+03 -1.751773e+03
-3.136166e+09 -2.936169e+09 -3.096167e+09 -2.893909e+03 1.063679e+03 -1.827304e+03
-3.043505e+09 -2.843503e+09 -3.003504e+09 -2.774160e+03 7.243772e+02 2.677064e+02
-3.141661e+09 -2.941666e+09 -3.101658e+09 -4.256976e+02 2.695735e+02 -5.356652e+03
-2.990229e+09 -2.790238e+09 -2.950236e+09 1.569333e+03 -4.858215e+03 9.680292e+02
-2.615657e+09 -2.415656e+09 -2.575657e+09 1.049700e+03 -1.271251e+03 7.799162e+02
-1.992017e+09 -1.792015e+09 -1.952015e+09 3.746893e+02 -4.265936e+02 3.230910e+02
-2.809634e+09 -2.609634e+09 -2.769635e+09 1.937674e+03 -2.267954e+03 1.406543e+03
-2.412315e+09 -2.212323e+09 -2.372328e+09 6.511355e+03 -1.293569e+04 6.093083e+03
-3.597651e+09 -3.397652e+09 -3.557656e+09 1.646555e+03 -3.441719e+03 2.042208e+03
-2.536236e+09 -2.336232e+09 -2.496235e+09 -4.767622e+03 3.408932e+03 -2.708353e+03
-3.208269e+09 -3.008269e+09 -3.168270e+09 -4.065531e+03 1.758779e+03 -8.619528e+02
-2.045189e+09 -1.845192e+09 -2.005192e+09 -3.319737e+03 2.383695e+03 -3.155623e+03
-2.458874e+09 -2.258882e+09 -2.418879e+09 -2.081188e+03 8.875497e+02 -4.342896e+03
-2.649457e+09 -2.449465e+09 -2.609460e+09 -2.368624e+02 2.058552e+02 -5.613364e+03
-3.222799e+09 -3.022794e+09 -3.182794e+09 -4.900071e+03 5.268912e+03 -2.732555e+03
-2.825733e+09 -2.625735e+09 -2.785735e+09 -9.564833e+02 -4.884911e+01 -9.094318e+01
-1.690835e+09 -1.490835e+09 -1.650834e+09 -1.535233e+02 6.767027e+01 -1.220520e+02
-2.370012e+09 -2.170015e+09 -2.330014e+09 -9.649638e+02 4.929840e+01 -2.353396e+02
-3.584063e+09 -3.384067e+09 -3.544067e+09 3.025582e+03 2.384150e+03 -7.567019e+02
-3.552207e+09 -3.352207e+09 -3.512206e+09 -4.388702e+02 -5.431973e+00 -4.636300e+01
-3.577478e+09 -3.377476e+09 -3.537476e+09 -1.170558e+02 2.883140e+01 -3.321191e+01
-3.166811e+09 -2.966810e+09 -3.126810e+09 -1.504494e+02 7.203635e+01 -7.768392e+01
-2.493071e+09 -2.293070e+09 -2.453070e+09 -1.331315e+02 5.078960e+01 -7.105178e+01
-2.788046e+09 -2.588044e+09 -2.748044e+09 -1.052756e+03 2.557992e+02 1.447234e+02
-3.576575e+09 -3.376576e+09 -3.536535e+09 4.417554e+03 5.780607e+03 1.474858e+04
-2.896485e+09 -2.696492e+09 -2.856486e+09 8.313540e+02 4.236206e+02 -9.532958e+00
-3.599571e+09 -3.399569e+09 -3.559569e+09 -4.529141e+02 4.148606e+01 -3.107100e+01
-1.690838e+09 -1.490837e+09 -1.650836e+09 -3.503302e+02 5.611663e+01 -1.248326e+02
-1.568588e+09 -1.368594e+09 -1.528589e+09 -8.829693e+02 1.993788e+02 -8.375211e+01
-2.577577e+09 -2.377586e+09 -2.537581e+09 2.526392e+03 2.521074e+03 -7.336722e+02
-2.600746e+09 -2.400753e+09 -2.560747e+09 7.623466e+02 8.555058e+02 -2.664500e+02
-2.720096e+09 -2.520102e+09 -2.680097e+09 -1.704767e+03 9.994806e+02 2.160079e+02
-1.561673e+09 -1.361680e+09 -1.521674e+09 2.755544e+03 1.427568e+03 -2.792784e+02
-3.102335e+09 -2.902342e+09 -3.062337e+09 8.968909e+02 6.557186e+02 1.370702e+01
-2.556923e+09 -2.356928e+09 -2.516924e+09 2.353654e+03 9.883466e+02 -1.856823e+02
-3.380365e+09 -3.180365e+09 -3.340366e+09 -2.955657e+03 1.529289e+03 8.476914e+02
-2.790285e+09 -2.590294e+09 -2.750288e+09 1.166853e+03 1.760304e+03 -3.676676e+02
-1.568588e+09 -1.368595e+09 -1.528589e+09 -9.408086e+02 6.371162e+02 -5.903010e+01
-2.063006e+09 -1.863011e+09 -2.023006e+09 -1.225859e+03 1.486754e+02 -8.246395e+01
-1.794775e+09 -1.594782e+09 -1.754776e+09 1.527807e+03 9.835544e+02 -1.404313e+02
-2.631105e+09 -2.431107e+09 -2.591107e+09 5.574717e+02 1.199917e+01 -1.263409e+00
-3.167056e+09 -2.967057e+09 -3.127057e+09 3.361059e+02 2.136339e+01 -2.138091e+01
-2.769756e+09 -2.569758e+09 -2.729757e+09 3.882668e+02 7.487263e+00 2.239684e+01
-1.798558e+09 -1.598567e+09 -1.758560e+09 9.052585e+02 1.580395e+03 -2.105757e+02
-3.596634e+09 -3.396634e+09 -3.556634e+09 9.077446e+02 2.064491e+01 -1.393160e+02
-3.607675e+09 -3.407677e+09 -3.567676e+09 7.356213e+02 1.464271e+01 -1.200857e+02
-1.783430e+09 -1.583429e+09 -1.743429e+09 -4.180588e+02 -2.956793e+02 -3.919882e+01
-1.586609e+09 -1.386621e+09 -1.546610e+09 1.013096e+03 2.165562e+03 -1.057163e+02
-2.726619e+09 -2.526625e+09 -2.686622e+09 3.008923e+03 3.120883e+03 -4.435349e+02
-1.586589e+09 -1.386592e+09 -1.546589e+09 -3.081862e+03 1.326389e+03 5.816129e+02
-2.568443e+09 -2.368440e+09 -2.528441e+09 -2.391753e+03 9.279040e+02 1.153687e+03
-3.589693e+09 -3.389694e+09 -3.549693e+09 -1.803648e+03 2.161778e+02 1.726428e+02
-3.605080e+09 -3.405077e+09 -3.565079e+09 -4.113741e+02 -3.928612e+02 4.643653e+02
-2.642748e+09 -2.442761e+09 -2.602755e+09 4.486198e+02 5.940859e+03 -1.747933e+02
-2.662193e+09 -2.462198e+09 -2.622195e+09 3.151310e+03 1.932955e+03 -7.273610e+02
-1.978483e+09 -1.778486e+09 -1.938483e+09 -1.698849e+03 4.116850e+02 4.002136e+01
-3.130998e+09 -2.931000e+09 -3.090999e+09 -2.829349e+03 1.067373e+03 -9.886545e+02
-2.423862e+09 -2.223868e+09 -2.383866e+09 -2.046822e+03 9.402470e+02 -2.859119e+03
-2.550030e+09 -2.350025e+09 -2.510028e+09 -4.857561e+02 -1.197341e+03 2.095792e+03
-1.684717e+09 -1.484719e+09 -1.644718e+09 -1.888672e+02 -2.081321e+01 5.391545e+01
-1.798610e+09 -1.598612e+09 -1.758612e+09 -6.116154e+02 -6.582463e+01 6.320734e+01
-3.492805e+09 -3.292812e+09 -3.452810e+09 7.131090e+02 -3.636481e+03 5.218630e+02
-2.030985e+09 -1.830983e+09 -1.990986e+09 -4.615447e+03 -5.849913e+03 -4.052244e+03
-3.302395e+09 -3.102397e+09 -3.262401e+09 -4.254634e+03 -5.318403e+03 -2.259187e+03
-3.114856e+09 -2.914862e+09 -3.074862e+09 -3.069454e+03 -4.947353e+03 -1.170383e+03
-3.430447e+09 -3.230445e+09 -3.390455e+09 -2.899952e+03 -6.306002e+03 -3.542924e+03
-2.594063e+09 -2.394067e+09 -2.554070e+09 -5.763452e+03 -9.534562e+03 -4.829635e+03
-2.566400e+09 -2.366411e+09 -2.526409e+09 -1.993797e+03 -8.824422e+03 4.157998e+01
-2.092605e+09 -1.892615e+09 -2.052611e+09 -4.048124e+03 -9.467514e+03 -2.574054e+03
-1.785058e+09 -1.585070e+09 -1.745066e+09 -8.484094e+03 -1.340497e+04 -4.396337e+03
-2.725311e+09 -2.525310e+09 -2.685322e+09 -4.372653e+03 -1.061959e+04 -5.120945e+03
-2.512243e+09 -2.312251e+09 -2.472254e+09 -3.665610e+03 -9.769556e+03 -2.130586e+03
-1.979933e+09 -1.779940e+09 -1.939939e+09 -6.226261e+03 -1.238342e+04 -3.474779e+03
-3.310353e+09 -3.110357e+09 -3.270357e+09 -2.092293e+03 -3.163617e+03 -3.893022e+02
-1.580634e+09 -1.380640e+09 -1.540634e+09 4.492644e+03 2.211575e+03 -7.506627e+02
-1.681419e+09 -1.481431e+09 -1.641423e+09 -6.877374e+03 -7.812404e+03 -2.792673e+03
-3.379815e+09 -3.179813e+09 -3.339815e+09 -8.511773e+02 -3.049146e+02 2.880179e+02
-2.875436e+09 -2.675438e+09 -2.835438e+09 3.838348e+02 3.332681e+01 2.565028e-01
-3.396242e+09 -3.196244e+09 -3.356243e+09 3.885321e+02 2.967338e+01 1.079178e+01
-2.512061e+09 -2.312063e+09 -2.472062e+09 -6.346086e+01 1.916694e+01 -2.343992e+01
-3.490388e+09 -3.290383e+09 -3.450388e+09 3.089832e+03 2.136227e+03 -1.738017e+03
-3.391798e+09 -3.191800e+09 -3.351799e+09 3.306149e+03 1.751306e+03 -4.991239e+02
-3.187242e+09 -2.987244e+09 -3.147243e+09 7.455324e+01 3.544786e+01 -3.504964e+01
-2.715647e+09 -2.515650e+09 -2.675649e+09 4.719038e+02 3.859289e+01 -5.919587e+01
-1.626679e+09 -1.426682e+09 -1.586681e+09 6.216885e+01 3.878582e+01 -3.745645e+01
-2.414459e+09 -2.214461e+09 -2.374460e+09 -4.299651e+02 -1.217086e+01 -5.796632e+01
-2.506852e+09 -2.306855e+09 -2.466854e+09 -1.987481e+02 2.422689e+01 -3.927846e+01
-2.826504e+09 -2.626505e+09 -2.786505e+09 5.484116e+02 2.020665e+01 -1.340245e+01
-2.208523e+09 -2.008523e+09 -2.168522e+09 -4.934329e+02 -1.320840e+01 -1.351896e+02
-2.654631e+09 -2.454635e+09 -2.614634e+09 2.474984e+02 6.639634e+01 -2.629623e+02
-2.595334e+09 -2.395335e+09 -2.555335e+09 9.789681e+02 3.464995e+01 -1.331551e+02
-3.217000e+09 -3.017001e+09 -3.177001e+09 8.437524e+02 7.396643e+01 -5.743146e+01
-2.203252e+09 -2.003251e+09 -2.163251e+09 4.359288e+01 5.353766e+00 -5.278419e+01
-2.003448e+09 -1.803449e+09 -1.963449e+09 -8.979922e+02 -4.993754e+01 4.663732e+00
-3.588135e+09 -3.388134e+09 -3.548134e+09 -3.872389e+01 -1.831485e+01 -3.810733e+01
-1.969443e+09 -1.769455e+09 -1.929446e+09 1.131298e+03 3.944261e+03 -8.784372e+01
-2.403012e+09 -2.203014e+09 -2.363014e+09 -7.465498e+02 -7.981999e+01 2.821826e+01
-1.762800e+09 -1.562802e+09 -1.722801e+09 -6.887022e+02 -7.525877e+01 7.890307e+01
-2.660435e+09 -2.460437e+09 -2.620436e+09 3.740308e+02 1.247784e+01 -3.938320e+01
-2.615284e+09 -2.415286e+09 -2.575286e+09 -5.622679e+02 -4.839436e+01 7.669618e+01
-2.405810e+09 -2.205812e+09 -2.365812e+09 -5.616672e+02 -4.972916e+01 5.642938e+01
-2.284565e+09 -2.084567e+09 -2.244567e+09 -1.875830e+02 -7.917235e+00 1.182215e+01
-2.473052e+09 -2.273053e+09 -2.433053e+09 -4.990856e+02 -2.330505e+01 6.049994e+01
-3.590657e+09 -3.390657e+09 -3.550656e+09 -1.651568e+03 2.977122e+02 1.591368e+02
-1.767928e+09 -1.567928e+09 -1.727927e+09 -1.768429e+03 5.145131e+02 3.036787e+01
-3.603338e+09 -3.403339e+09 -3.563339e+09 4.554642e+02 2.433158e+01 5.067943e+01
-2.488161e+09 -2.288162e+09 -2.448162e+09 4.589854e+02 6.558649e+01 4.684583e+01
-1.983719e+09 -1.783720e+09 -1.943720e+09 8.207882e+02 3.386078e+01 -8.204362e+01
-1.853380e+09 -1.653382e+09 -1.813381e+09 -3.816434e+02 -4.537688e+01 5.336099e+01
-2.963182e+09 -2.763184e+09 -2.923183e+09 -4.411193e+02 -3.693290e+01 3.093477e+01
-3.579414e+09 -3.379414e+09 -3.539414e+09 5.490663e+02 2.561076e+01 2.141454e+01
-3.611712e+09 -3.411715e+09 -3.571714e+09 6.970895e+01 2.356018e+00 -2.452568e+02
-1.582279e+09 -1.382286e+09 -1.542280e+09 -2.809622e+02 7.431340e+02 -5.519262e+01
-1.568745e+09 -1.368751e+09 -1.528746e+09 -1.639656e+03 9.385798e+02 4.210060e+01
-3.595040e+09 -3.395048e+09 -3.555044e+09 6.719315e+02 1.205520e+03 -1.495214e+02
-3.596259e+09 -3.396266e+09 -3.556261e+09 4.702640e+02 7.075610e+02 -1.678191e+01
-2.772660e+09 -2.572662e+09 -2.732662e+09 -7.066366e+02 -3.264936e+01 -1.210379e+01
-3.392456e+09 -3.192458e+09 -3.352458e+09 -6.815558e+02 -1.614395e+01 -2.729907e+01
-2.328003e+09 -2.128005e+09 -2.288005e+09 -5.944190e+02 -3.706128e+01 8.472796e+01
-3.350324e+09 -3.150327e+09 -3.310326e+09 -4.754046e+02 -4.122804e+01 2.941371e+01
-2.660347e+09 -2.460346e+09 -2.620346e+09 -8.268957e+02 -8.235793e+01 -1.515656e+01
-3.399903e+09 -3.199905e+09 -3.359905e+09 -7.414088e+02 -5.543128e+01 6.783670e+01
-1.690842e+09 -1.490841e+09 -1.650841e+09 6.550182e+02 -6.041864e+02 1.969657e+02
-2.885222e+09 -2.685224e+09 -2.845224e+09 -1.877115e+02 -1.512547e+01 3.946452e+01
-3.582065e+09 -3.382067e+09 -3.542070e+09 -3.374409e+03 3.657440e+03 1.499534e+03
-1.790606e+09 -1.590605e+09 -1.750604e+09 -2.986495e+03 1.173137e+03 7.072684e+02
-1.755241e+09 -1.555247e+09 -1.715244e+09 -9.163227e+03 8.097949e+03 3.757107e+03
-3.584311e+09 -3.384318e+09 -3.544321e+09 -2.907464e+03 5.748036e+03 1.528894e+03
-1.775998e+09 -1.576000e+09 -1.736000e+09 -3.950663e+02 -3.830202e+01 8.961480e+01
-2.759669e+09 -2.559669e+09 -2.719669e+09 1.905787e+03 -3.610233e+02 -6.247141e+02
-3.237463e+09 -3.037462e+09 -3.197463e+09 1.516323e+03 -9.624911e+01 -3.243452e+02
-2.601257e+09 -2.401256e+09 -2.561256e+09 1.111928e+03 2.713472e+01 -1.580977e+02
-3.400676e+09 -3.200676e+09 -3.360676e+09 1.215148e+03 4.593975e+01 -1.206413e+02
-3.393960e+09 -3.193957e+09 -3.353959e+09 1.118034e+03 -1.876512e+02 -2.477852e+02
-3.492807e+09 -3.292806e+09 -3.452806e+09 -1.947635e+02 -3.284747e+00 -4.037920e+01
-3.565522e+09 -3.365528e+09 -3.525523e+09 -9.717891e+02 4.708184e+02 2.837539e+01
-2.953138e+09 -2.753136e+09 -2.913140e+09 5.420089e+03 2.098079e+03 1.638113e+03
-1.875350e+09 -1.675352e+09 -1.835353e+09 2.578248e+03 -4.820702e+02 -2.297460e+03
-2.672992e+09 -2.472992e+09 -2.632992e+09 1.739323e+03 -1.860629e+02 -9.881957e+02
-2.675114e+09 -2.475110e+09 -2.635112e+09 1.752352e+03 -4.362403e+02 -4.317723e+02
-3.061912e+09 -2.861915e+09 -3.021914e+09 -2.203914e+03 3.458087e+02 -7.468880e+02
-2.817950e+09 -2.617956e+09 -2.777951e+09 -6.223743e+02 6.502527e+02 -4.352197e+03
-1.892558e+09 -1.692558e+09 -1.852557e+09 1.462086e+03 -1.066412e+03 5.301083e+02
-2.733715e+09 -2.533716e+09 -2.693717e+09 -2.756388e+03 2.641164e+02 -4.957314e+02
-3.131103e+09 -2.931104e+09 -3.091103e+09 -2.720308e+03 3.136745e+02 -7.356596e+02
-1.594738e+09 -1.394738e+09 -1.554739e+09 -4.530609e+03 2.643327e+03 -2.340507e+03
-2.787198e+09 -2.587198e+09 -2.747199e+09 -2.609020e+03 2.644862e+02 -1.156414e+02
-3.403080e+09 -3.203082e+09 -3.363079e+09 -2.192176e+03 1.025465e+03 -1.803128e+03
-2.604751e+09 -2.404755e+09 -2.564754e+09 -2.057274e+03 7.258694e+02 -1.901451e+03
-1.853079e+09 -1.653082e+09 -1.813082e+09 -1.587025e+03 2.203644e+01 -1.470405e+02
-2.436329e+09 -2.236333e+09 -2.396332e+09 -1.538989e+03 2.582318e+02 -6.733499e+02
-1.921810e+09 -1.721811e+09 -1.881808e+09 3.322962e+03 1.219605e+03 -6.599981e+02
-3.597993e+09 -3.397991e+09 -3.557996e+09 3.782000e+03 2.826182e+03 -1.911015e+03
-3.231323e+09 -3.031322e+09 -3.191323e+09 3.882335e+03 2.740892e+03 -1.711013e+03
-1.739959e+09 -1.539960e+09 -1.699961e+09 -2.019704e+03 -3.156857e+01 4.036642e+01
-1.865607e+09 -1.665611e+09 -1.825610e+09 -1.375657e+03 2.303383e+02 -7.326361e+02
-2.815300e+09 -2.615306e+09 -2.775303e+09 -1.165355e+03 4.005527e+02 -2.598598e+03
-3.398015e+09 -3.198016e+09 -3.358016e+09 -2.800189e+03 3.933984e+02 -1.992557e+02
-1.754500e+09 -1.554503e+09 -1.714503e+09 -2.072296e+03 6.019963e+02 -8.115849e+02
-1.590134e+09 -1.390135e+09 -1.550133e+09 2.411945e+03 -1.768935e+03 9.298357e+02
-3.377866e+09 -3.177869e+09 -3.337868e+09 -2.361962e+03 3.105784e+02 -8.514363e+02
-1.780058e+09 -1.580061e+09 -1.740062e+09 -3.386124e+03 7.859828e+02 -1.416494e+03
-2.580759e+09 -2.380763e+09 -2.540762e+09 -2.198175e+03 7.320969e+02 -1.934976e+03
-2.361740e+09 -2.161744e+09 -2.321744e+09 -2.595032e+03 5.877018e+02 -1.649905e+03
-3.598843e+09 -3.398845e+09 -3.558845e+09 1.117489e+02 5.649260e+00 2.499929e+01
-3.296300e+09 -3.096302e+09 -3.256302e+09 2.006491e+03 -1.988903e+03 1.297128e+03
-3.592635e+09 -3.392638e+09 -3.552641e+09 1.460976e+03 -3.818823e+03 1.712007e+03
-3.588440e+09 -3.388442e+09 -3.548442e+09 3.681239e+02 9.618831e+00 3.963606e+01
-2.203073e+09 -2.003079e+09 -2.163075e+09 2.141496e+03 -2.871125e+03 8.492722e+02
-2.195088e+09 -1.995091e+09 -2.155088e+09 2.082441e+03 -1.837975e+03 8.210389e+02
-2.998066e+09 -2.798069e+09 -2.958068e+09 1.937642e+03 -2.032852e+03 9.272536e+02
-1.592151e+09 -1.392153e+09 -1.552153e+09 5.763261e+01 1.618686e+01 -7.440474e+00
-3.602902e+09 -3.402902e+09 -3.562904e+09 1.322102e+03 -1.981517e+03 1.549639e+03
-1.590241e+09 -1.390245e+09 -1.550241e+09 3.375866e+03 -2.681843e+03 1.371268e+03
-2.815118e+09 -2.615117e+09 -2.775118e+09 1.718216e+03 -2.210597e+03 1.492746e+03
-3.167925e+09 -2.967923e+09 -3.127924e+09 -1.156421e+03 -2.759243e+02 4.087357e+02
-3.490297e+09 -3.290299e+09 -3.450299e+09 -1.117827e+02 -2.774771e+00 8.957564e+00
-3.605080e+09 -3.405078e+09 -3.565079e+09 7.991933e+01 -6.032510e+02 5.507208e+02
-2.498376e+09 -2.298375e+09 -2.458375e+09 7.005227e+02 -7.559589e+02 4.719449e+02
-2.806604e+09 -2.606602e+09 -2.766603e+09 1.679327e+02 -6.454224e+02 4.913203e+02
-3.208252e+09 -3.008250e+09 -3.168251e+09 1.662814e+02 -6.073656e+02 5.436813e+02
-3.467380e+09 -3.267382e+09 -3.427381e+09 -2.861273e+01 6.488209e+00 1.384320e+01
-2.593519e+09 -2.393517e+09 -2.553517e+09 -5.306472e+02 -2.283022e+02 1.819180e+02
-3.191748e+09 -2.991746e+09 -3.151747e+09 -8.011887e+02 -3.867032e+02 3.738863e+02
-3.490706e+09 -3.290707e+09 -3.450707e+09 3.052326e+02 4.261390e+00 1.134496e+01
-2.607804e+09 -2.407802e+09 -2.567803e+09 3.223596e+02 -7.019943e+02 4.529246e+02
-2.131479e+09 -1.931481e+09 -2.091481e+09 -3.158586e+02 -1.891374e+01 7.336976e+00
-1.774237e+09 -1.574236e+09 -1.734236e+09 -8.466300e+02 -2.364391e+02 -5.073692e+00
-3.486689e+09 -3.286691e+09 -3.446690e+09 -2.281457e+02 -4.000520e+00 1.869902e+01
-3.608589e+09 -3.408591e+09 -3.568591e+09 -2.573179e+02 -3.154805e+01 3.431633e+01
-1.601423e+09 -1.401469e+09 -1.561454e+09 1.903693e+04 4.064520e+04 -1.545264e+04
-1.990542e+09 -1.790516e+09 -1.950539e+09 -1.236519e+04 9.631740e+03 1.679710e+04
-1.589084e+09 -1.389125e+09 -1.549101e+09 8.288613e+03 2.687226e+04 -4.281159e+03
-3.215741e+09 -3.015706e+09 -3.175735e+09 6.156266e+02 -1.949831e+04 -3.285132e+02
-3.550895e+09 -3.350897e+09 -3.510897e+09 1.791392e+02 8.714807e+00 4.481294e+01
-1.551113e+09 -1.351142e+09 -1.511122e+09 3.505228e+03 1.230511e+04 -5.105572e+02
-2.248486e+09 -2.048488e+09 -2.208485e+09 -9.289544e+02 6.489847e+01 -5.814759e+01
-2.568395e+09 -2.368418e+09 -2.528415e+09 2.782178e+03 2.238980e+04 -2.609407e+03
-3.406208e+09 -3.206206e+09 -3.366225e+09 -3.907853e+03 1.138457e+04 4.924393e+03
-3.140840e+09 -2.940823e+09 -3.100850e+09 -4.287102e+03 1.116716e+03 7.937751e+03
-2.635765e+09 -2.435768e+09 -2.595782e+09 -4.825972e+03 1.886867e+04 3.192262e+03
-2.361110e+09 -2.161108e+09 -2.321109e+09 -1.998335e+02 1.542640e+02 -4.761901e+01
-3.588338e+09 -3.388338e+09 -3.548337e+09 -9.841839e+02 2.288679e+01 -2.618045e+01
-2.991416e+09 -2.791415e+09 -2.951414e+09 -5.348758e+02 7.302272e+01 -8.934781e+01
-3.380581e+09 -3.180589e+09 -3.340604e+09 -3.211390e+03 1.528994e+04 2.591388e+03
-1.999475e+09 -1.799502e+09 -1.959518e+09 -7.064408e+02 5.023913e+04 -5.407584e+03
-3.528488e+09 -3.328489e+09 -3.488487e+09 -7.310361e+02 1.396869e+01 -3.820680e+01
-1.598744e+09 -1.398827e+09 -1.558810e+09 -1.616463e+04 5.922313e+04 1.921516e+02
-2.362879e+09 -2.162888e+09 -2.322881e+09 1.393842e+02 1.492668e+03 5.288132e+01
-3.492811e+09 -3.292812e+09 -3.452810e+09 -6.621891e+02 2.736278e+01 -4.846576e+01
-3.492812e+09 -3.292813e+09 -3.452811e+09 -9.630025e+02 -2.907539e+01 -9.263099e+01
-3.367105e+09 -3.167091e+09 -3.327126e+09 3.938726e+03 5.115541e+03 -1.124982e+04
-2.996167e+09 -2.796172e+09 -2.956170e+09 1.969413e+03 -2.913564e+03 9.589419e+02
-1.590133e+09 -1.390133e+09 -1.550132e+09 2.232817e+03 -1.620526e+03 9.105744e+02
-2.401523e+09 -2.201482e+09 -2.361540e+09 -1.191518e+04 -4.728336e+03 -1.793715e+03
-2.003394e+09 -1.803397e+09 -1.963394e+09 3.245409e+03 -2.855698e+03 1.673607e+03
-3.592636e+09 -3.392638e+09 -3.552641e+09 1.433548e+03 -3.489733e+03 1.354391e+03
-3.296298e+09 -3.096301e+09 -3.256301e+09 1.597777e+03 -2.082502e+03 6.060796e+02
-1.764070e+09 -1.564099e+09 -1.724090e+09 -4.023454e+03 2.848680e+04 2.004395e+02
-3.290105e+09 -3.090106e+09 -3.250104e+09 -9.795635e+02 -2.358075e+01 -7.888404e+01
-1.643636e+09 -1.443638e+09 -1.603635e+09 -1.163432e+03 1.203145e+02 -1.141600e+02
-1.851453e+09 -1.651455e+09 -1.811452e+09 -1.164564e+03 1.892901e+02 -1.143615e+02
-1.993257e+09 -1.793257e+09 -1.953256e+09 -2.813604e+02 2.563705e+01 -7.944456e+01
-3.101453e+09 -2.901453e+09 -3.061452e+09 -8.511755e+02 1.261672e+02 -2.516960e+01
-3.202654e+09 -3.002650e+09 -3.162672e+09 5.797771e+03 1.024753e+04 -7.813593e+03
-2.390536e+09 -2.190536e+09 -2.350536e+09 5.469617e+02 5.120489e+01 1.648824e+01
-1.789025e+09 -1.589025e+09 -1.749025e+09 4.403815e+02 3.217849e+01 3.013426e+00
-3.220129e+09 -3.020129e+09 -3.180128e+09 -1.188276e+03 1.836492e+02 8.487722e+00
-3.304160e+09 -3.104160e+09 -3.264159e+09 -6.491113e+02 1.104579e+01 -5.443542e+01
-2.703217e+09 -2.503219e+09 -2.663217e+09 -1.275282e+03 2.592178e+02 -2.002562e+01
-3.199864e+09 -2.999865e+09 -3.159865e+09 7.126872e+02 4.186608e+01 -1.141775e+02
-2.552203e+09 -2.352204e+09 -2.512204e+09 5.921883e+02 3.974297e+01 -8.022862e+00
-1.986678e+09 -1.786678e+09 -1.946678e+09 6.381644e+02 5.116613e+01 -3.594379e+01
-1.940654e+09 -1.740654e+09 -1.900654e+09 5.684618e+02 6.843585e+01 2.685976e+01
-1.774445e+09 -1.574445e+09 -1.734445e+09 6.092716e+02 6.024509e+01 -9.461335e+00
-1.819232e+09 -1.619232e+09 -1.779232e+09 6.858527e+02 6.774842e+01 -4.368912e+01
-3.598505e+09 -3.398494e+09 -3.558507e+09 1.802150e+02 1.965060e+03 -3.341652e+03
-1.836627e+09 -1.636618e+09 -1.796622e+09 4.663938e+03 2.313747e+03 -4.835066e+03
-1.581066e+09 -1.381074e+09 -1.541068e+09 9.665270e+03 7.686713e+03 -3.501135e+03
-3.598907e+09 -3.398908e+09 -3.558908e+09 5.114151e+02 1.158597e+01 -6.280416e+00
-2.815560e+09 -2.615560e+09 -2.775560e+09 8.138703e+02 -3.294846e+00 -9.126079e+01
-3.395910e+09 -3.195910e+09 -3.355910e+09 6.326233e+02 1.597033e+01 -1.350819e+01
-3.408484e+09 -3.208484e+09 -3.368484e+09 8.095476e+02 5.136069e+01 -2.841984e+01
-3.497294e+09 -3.297296e+09 -3.457296e+09 1.703021e+02 3.291335e+00 1.127656e+01
-3.490665e+09 -3.290667e+09 -3.450667e+09 1.933685e+02 -1.136022e+00 1.692415e+01
-1.765834e+09 -1.565833e+09 -1.725832e+09 -1.528611e+03 5.423027e+02 1.169129e+02
-2.568792e+09 -2.368790e+09 -2.528791e+09 -8.158315e+02 5.793315e+01 -6.426900e+01
-3.490535e+09 -3.290537e+09 -3.450537e+09 3.969786e+01 -1.087869e+00 1.302402e+01
-2.003519e+09 -1.803518e+09 -1.963547e+09 -1.384859e+01 -2.521688e+04 1.097898e+04
-3.001742e+09 -2.801740e+09 -2.961741e+09 4.378944e+02 8.560473e+01 -5.846740e+01
-1.781884e+09 -1.581883e+09 -1.741883e+09 -1.123913e+03 2.194011e+02 9.371144e+01
-2.733557e+09 -2.533554e+09 -2.693555e+09 -1.498459e+03 3.571153e+02 2.196928e+02
-3.400338e+09 -3.200345e+09 -3.360340e+09 7.221849e+02 5.402067e+02 -4.790604e+01
-1.769854e+09 -1.569854e+09 -1.729853e+09 -2.576760e+03 1.008780e+03 2.850900e+02
-3.492734e+09 -3.292740e+09 -3.452735e+09 1.007547e+03 2.746495e+02 -5.100047e+01
-3.378322e+09 -3.178319e+09 -3.338320e+09 -5.041694e+02 2.618054e+02 1.674373e+02
-3.493040e+09 -3.293047e+09 -3.453042e+09 9.337411e+02 3.836347e+02 -8.494135e+01
-3.415132e+09 -3.215130e+09 -3.375131e+09 1.342518e+02 1.893253e+02 7.304892e+01
-3.289893e+09 -3.089892e+09 -3.249892e+09 -4.397764e+01 5.791915e+00 -5.691188e+01
-1.598430e+09 -1.398429e+09 -1.558429e+09 -1.246736e+00 3.252428e+01 -1.008658e+02
-3.453268e+09 -3.253270e+09 -3.413270e+09 -4.103520e+02 -8.222206e+00 1.562018e+01
-3.490321e+09 -3.290323e+09 -3.450322e+09 -2.713218e+02 -3.229376e+00 9.933746e+00
-3.490325e+09 -3.290326e+09 -3.450326e+09 -4.917319e+02 -8.577466e+00 1.466065e+01
-2.231080e+09 -2.031080e+09 -2.191081e+09 -4.660520e+02 -2.206527e+01 2.272715e+00
-3.601676e+09 -3.401678e+09 -3.561677e+09 -5.309731e+02 -9.418610e+00 -2.483900e+01
-3.208803e+09 -3.008805e+09 -3.168804e+09 -6.464238e+02 -4.660575e+01 4.066623e+01
-3.593768e+09 -3.393769e+09 -3.553768e+09 -5.957270e+02 -1.302917e+01 -7.427375e-01
-1.884807e+09 -1.684805e+09 -1.844806e+09 2.805379e+01 1.814208e+02 -2.052950e+01
-2.340135e+09 -2.140134e+09 -2.300134e+09 -5.119236e+02 -6.301945e+01 -5.861943e+01
-2.337720e+09 -2.137718e+09 -2.297719e+09 -1.862957e+03 5.874430e+02 4.597840e+02
-1.595129e+09 -1.395127e+09 -1.555128e+09 -2.540954e+02 -3.791413e+02 2.542228e+01
-1.600227e+09 -1.400225e+09 -1.560226e+09 -5.792289e+02 3.064260e+02 7.141962e-01
-3.338378e+09 -3.138377e+09 -3.298377e+09 -6.877538e+02 -6.294962e+01 -2.978090e+01
-1.576717e+09 -1.376715e+09 -1.536716e+09 -5.283506e+02 -2.314568e+02 -6.550724e+01
-2.327264e+09 -2.127262e+09 -2.287263e+09 -5.078365e+02 -4.105976e+01 -5.215038e+01
-3.358799e+09 -3.158797e+09 -3.318797e+09 -1.023135e+03 2.146015e+02 7.360668e+01
-2.533647e+09 -2.333646e+09 -2.493646e+09 -1.829370e+03 7.498857e+02 4.397935e+02
-3.378689e+09 -3.178689e+09 -3.338689e+09 -9.366422e+02 -5.393541e+01 2.677391e+01
-1.690763e+09 -1.490762e+09 -1.650762e+09 -5.020325e+02 -8.385803e+01 -4.307184e+01
-3.594600e+09 -3.394599e+09 -3.554599e+09 -5.980377e+02 -1.920526e+01 -8.110181e+00
-1.892690e+09 -1.692688e+09 -1.852688e+09 1.908464e+02 -3.636631e+02 1.085156e+02
-3.164240e+09 -2.964240e+09 -3.124240e+09 -9.356013e+02 -8.438849e+01 9.093647e+00
-1.796999e+09 -1.597000e+09 -1.757000e+09 -9.255993e+02 -1.021892e+02 1.538062e+01
-2.599350e+09 -2.399352e+09 -2.559352e+09 -8.162651e+02 -6.168181e+01 8.660210e+01
-2.798018e+09 -2.598020e+09 -2.758019e+09 -7.460936e+02 -4.250406e+01 -4.558909e+00
-1.783409e+09 -1.583408e+09 -1.743408e+09 -1.853564e+01 1.524559e+01 -8.332356e+01
-3.598204e+09 -3.398203e+09 -3.558203e+09 6.072372e+01 1.999020e+01 -1.763654e+01
-1.789572e+09 -1.589574e+09 -1.749574e+09 -7.850395e+02 -6.283547e+01 7.985408e+01
-3.396557e+09 -3.196555e+09 -3.356557e+09 -4.234007e+03 1.482017e+03 1.736030e+02
-1.791505e+09 -1.591506e+09 -1.751505e+09 -6.640036e+02 -5.080454e+01 -6.608687e+00
-1.961062e+09 -1.761060e+09 -1.921061e+09 -7.548821e+02 -1.790758e+02 2.580115e+01
-1.953152e+09 -1.753154e+09 -1.913153e+09 -4.877757e+02 -2.799081e+01 4.620170e+01
-2.769721e+09 -2.569720e+09 -2.729721e+09 -1.040984e+03 -1.743635e+02 6.297274e+01
-2.349148e+09 -2.149147e+09 -2.309148e+09 -7.216498e+02 -2.692993e+02 1.152885e+02
-1.689043e+09 -1.489034e+09 -1.649041e+09 1.296849e+03 1.691925e+02 -1.659216e+03
-2.990724e+09 -2.790716e+09 -2.950725e+09 9.401896e+01 -1.117562e+03 -3.142289e+03
-1.773584e+09 -1.573582e+09 -1.733583e+09 -5.683507e+02 -3.212606e+02 1.843117e+02
-1.700177e+09 -1.500197e+09 -1.660199e+09 1.236775e+03 2.229692e+02 1.090748e+04
-2.730417e+09 -2.530400e+09 -2.690437e+09 -2.618250e+02 -1.067149e+03 -9.361409e+03
-1.980297e+09 -1.780295e+09 -1.940296e+09 -6.126649e+02 -3.275099e+02 1.036788e+02
-1.880815e+09 -1.680814e+09 -1.840814e+09 -4.684716e+02 -5.769618e+01 -7.840349e+00
-1.791473e+09 -1.591473e+09 -1.751473e+09 -1.158307e+03 -1.964841e+02 -4.869676e+00
-3.026768e+09 -2.826767e+09 -2.986768e+09 -3.880913e+02 -3.160586e+01 -1.329579e+01
-3.625735e+09 -3.425734e+09 -3.585734e+09 -4.689532e+02 -2.824338e+01 -2.127189e+01
-2.842369e+09 -2.642369e+09 -2.802369e+09 -6.257298e+02 -2.479641e+01 3.217735e+01
-2.727633e+09 -2.527631e+09 -2.687632e+09 -2.689021e+02 -3.093739e+02 4.472893e+01
-1.576717e+09 -1.376715e+09 -1.536716e+09 -3.564291e+02 -2.586110e+02 2.531098e+01
-3.599457e+09 -3.399455e+09 -3.559456e+09 -6.205009e+02 -1.584468e+02 9.420298e+01
-1.777852e+09 -1.577851e+09 -1.737852e+09 -6.254242e+02 -1.028971e+02 1.047259e+01
-1.584683e+09 -1.384682e+09 -1.544682e+09 -5.137510e+02 -1.217333e+02 -6.461375e+00
-3.583248e+09 -3.383247e+09 -3.543248e+09 -6.772138e+02 -4.498514e+01 -1.696451e+01
-2.409983e+09 -2.209982e+09 -2.369982e+09 -8.321466e+02 -1.920349e+02 -2.792519e+01
-2.388386e+09 -2.188386e+09 -2.348386e+09 -1.099938e+03 -2.192268e+02 7.521415e+01
-1.798745e+09 -1.598743e+09 -1.758745e+09 -1.120794e+03 -4.076368e+02 3.201871e+02
-1.847683e+09 -1.647682e+09 -1.807683e+09 -1.001589e+03 -1.811758e+02 1.284870e+02
-3.384298e+09 -3.184296e+09 -3.344297e+09 -1.002628e+03 -1.666319e+02 5.742619e+01
-3.374123e+09 -3.174122e+09 -3.334123e+09 -1.089625e+03 -1.961608e+02 1.314396e+01
-3.174485e+09 -2.974483e+09 -3.134484e+09 -9.899906e+02 -2.213396e+02 1.495909e+02
-2.099624e+09 -1.899623e+09 -2.059623e+09 1.293329e+02 -5.029754e-01 -3.230007e+01
-2.733115e+09 -2.533114e+09 -2.693114e+09 2.966352e+02 1.032809e+01 -8.075047e+00
-3.596684e+09 -3.396683e+09 -3.556683e+09 2.632755e+02 1.820368e+01 1.901603e+01
-1.866736e+09 -1.666742e+09 -1.826736e+09 1.380077e+03 1.814617e+02 -3.174738e+01
-3.192078e+09 -2.992082e+09 -3.152077e+09 1.249013e+03 1.540292e+02 1.261286e+01
-2.865225e+09 -2.665229e+09 -2.825225e+09 2.187818e+03 5.947880e+02 -1.919969e+02
-2.834960e+09 -2.634964e+09 -2.794960e+09 1.866499e+03 5.042790e+02 -1.239739e+02
-2.374761e+09 -2.174760e+09 -2.334760e+09 2.971409e+02 5.223534e+01 -3.713788e+01
-3.211873e+09 -3.011873e+09 -3.171873e+09 3.649177e+02 4.011445e+01 -3.287530e+01
-3.111255e+09 -2.911254e+09 -3.071254e+09 2.148457e+02 2.529985e+01 -2.441330e+01
-1.888334e+09 -1.688333e+09 -1.848333e+09 1.231502e+02 1.982405e+01 -4.953628e+01
-3.218331e+09 -3.018330e+09 -3.178331e+09 1.799492e+02 3.118105e+01 -3.220262e+01
-2.598558e+09 -2.398557e+09 -2.558557e+09 9.978406e+01 2.815919e+01 -7.996006e+01
-2.201103e+09 -2.001102e+09 -2.161102e+09 1.472704e+02 1.422939e+01 -3.279247e+01
-2.080306e+09 -1.880313e+09 -2.040307e+09 6.423028e+02 4.561619e+02 -2.054521e+01
-2.169084e+09 -1.969090e+09 -2.129084e+09 1.147875e+03 3.356285e+02 -4.693130e+01
-2.805071e+09 -2.605079e+09 -2.765073e+09 8.404946e+02 1.080611e+03 -3.548662e+01
-3.595466e+09 -3.395472e+09 -3.555469e+09 1.644255e+03 9.078610e+02 -2.751577e+02
-3.575482e+09 -3.375488e+09 -3.535483e+09 1.577927e+03 4.873129e+02 -7.857757e+01
-3.595122e+09 -3.395129e+09 -3.555124e+09 1.164399e+03 7.125661e+02 -7.166098e+01
-3.104673e+09 -2.904672e+09 -3.064672e+09 1.446268e+02 2.945842e+01 -5.159679e+01
-2.073933e+09 -1.873932e+09 -2.033933e+09 3.053763e+02 1.996776e+01 -1.411531e+01
-2.608319e+09 -2.408318e+09 -2.568318e+09 1.850209e+02 2.619036e+01 -1.153723e+01
-3.431524e+09 -3.231524e+09 -3.391524e+09 3.469729e+02 2.543952e+01 -3.463774e+01
-1.761587e+09 -1.561587e+09 -1.721587e+09 2.892507e+02 4.244033e+01 9.600626e+00
-2.576757e+09 -2.376755e+09 -2.536756e+09 -2.415996e+02 -5.803533e+02 5.051851e+02
-2.249558e+09 -2.049573e+09 -2.209564e+09 1.066272e+03 7.370049e+03 -1.482637e+03
-3.136004e+09 -2.936010e+09 -3.096007e+09 2.977768e+03 2.344214e+03 -3.503328e+02
-2.292915e+09 -2.092916e+09 -2.252914e+09 -2.715736e+03 -2.305761e+03 -9.089164e+02
-2.063639e+09 -1.863644e+09 -2.023639e+09 3.117532e+03 1.378616e+03 -2.222972e+02
-3.490821e+09 -3.290823e+09 -3.450823e+09 -2.229708e+03 -2.188987e+03 -7.233975e+02
-1.692153e+09 -1.492156e+09 -1.652153e+09 -4.041877e+03 -3.300202e+03 -1.421040e+03
-3.494123e+09 -3.294124e+09 -3.454126e+09 -2.468977e+03 -2.411669e+03 -1.028787e+03
-2.385503e+09 -2.185517e+09 -2.345510e+09 7.072448e+03 9.149684e+03 -3.149226e+03
-1.992481e+09 -1.792481e+09 -1.952480e+09 -2.700472e+03 -1.977154e+03 -7.803552e+02
-3.193796e+09 -2.993796e+09 -3.153797e+09 -2.909121e+03 -2.529936e+03 -1.312314e+03
-2.140902e+09 -1.940920e+09 -2.100910e+09 8.171926e+02 8.993010e+03 4.504193e+02
-3.166776e+09 -2.966786e+09 -3.126787e+09 3.269793e+03 6.342152e+03 -1.099400e+03
-2.766817e+09 -2.566825e+09 -2.726822e+09 4.593223e+03 5.930428e+03 -1.919990e+03
-1.986686e+09 -1.786694e+09 -1.946694e+09 9.042667e+03 1.572809e+04 -7.139262e+03
-3.588414e+09 -3.388418e+09 -3.548424e+09 3.484238e+03 6.932634e+03 -2.085990e+03
-2.678740e+09 -2.478750e+09 -2.638745e+09 -1.941826e+03 3.533574e+03 6.327331e+02
-3.117306e+09 -2.917307e+09 -3.077306e+09 4.040462e+02 3.452825e+01 1.370437e+01
-1.580782e+09 -1.380791e+09 -1.540784e+09 6.116646e+03 4.087647e+03 -1.862986e+03
-1.871421e+09 -1.671427e+09 -1.831422e+09 2.749011e+03 1.199482e+03 -3.104686e+02
-3.490763e+09 -3.290757e+09 -3.450764e+09 7.698493e+02 -1.889963e+03 -2.506798e+03
-2.531729e+09 -2.331729e+09 -2.491731e+09 -5.190486e+03 -6.313646e+03 -3.838702e+03
-2.097528e+09 -1.897523e+09 -2.057527e+09 -3.412669e+03 -2.787316e+03 -2.713483e+03
-1.955673e+09 -1.755684e+09 -1.915677e+09 3.288051e+03 4.010084e+03 -6.790944e+02
-3.273394e+09 -3.073396e+09 -3.233394e+09 2.821231e+03 9.695879e+02 -4.158178e+02
-2.770420e+09 -2.570425e+09 -2.730422e+09 4.436388e+03 3.806630e+03 -1.681247e+03
-3.276845e+09 -3.076850e+09 -3.236845e+09 1.372702e+03 4.294837e+02 -2.355108e+02
-3.194795e+09 -2.994801e+09 -3.154796e+09 6.927516e+02 3.500398e+02 6.953329e+01
-1.690762e+09 -1.490768e+09 -1.650763e+09 1.002808e+03 3.440409e+02 2.137265e+00
-3.393388e+09 -3.193388e+09 -3.353388e+09 2.569796e+02 7.819645e+00 -5.171938e+01
-3.202042e+09 -3.002043e+09 -3.162043e+09 5.671849e+02 3.697375e+01 -3.679577e+01
-2.029024e+09 -1.829024e+09 -1.989024e+09 4.833905e+02 3.978869e+01 2.000835e+01
-1.858733e+09 -1.658733e+09 -1.818733e+09 4.260224e+02 3.234473e+01 6.395684e+00
-1.721010e+09 -1.521010e+09 -1.681010e+09 5.185011e+02 5.957467e+01 -2.813908e+01
-2.548136e+09 -2.348137e+09 -2.508137e+09 4.211321e+02 5.879704e+01 -4.732569e-02
-2.915449e+09 -2.715449e+09 -2.875449e+09 5.205224e+02 4.798403e+01 -2.088540e+01
-3.385746e+09 -3.185746e+09 -3.345746e+09 5.987152e+02 2.027423e+01 -1.332168e+01
-3.101151e+09 -2.901152e+09 -3.061152e+09 5.251862e+02 3.465441e+01 -7.844477e+00
-2.374527e+09 -2.174528e+09 -2.334528e+09 5.820458e+02 5.614352e+01 -1.812746e+01
-3.466657e+09 -3.266650e+09 -3.426660e+09 2.575760e+03 -1.140551e+03 -1.894202e+03
-3.315109e+09 -3.115100e+09 -3.275111e+09 4.105665e+02 -1.480137e+03 -3.385191e+03
-3.579414e+09 -3.379414e+09 -3.539414e+09 4.652646e+02 1.374431e+01 1.709077e+01
-2.839730e+09 -2.639715e+09 -2.799738e+09 -8.962491e+02 -4.311917e+03 -8.594238e+03
-3.133182e+09 -2.933182e+09 -3.093182e+09 3.570438e+02 3.263930e+01 7.623392e+00
-3.610340e+09 -3.410340e+09 -3.570340e+09 4.178592e+02 1.433247e+01 1.026948e+01
-3.010131e+09 -2.810135e+09 -2.970134e+09 -2.825712e+03 -3.148686e+03 -8.511598e+02
-3.310189e+09 -3.110189e+09 -3.270189e+09 3.395840e+02 1.814561e+01 -2.897571e+01
-3.279133e+09 -3.079133e+09 -3.239133e+09 3.873291e+02 1.413337e+01 -2.656198e+01
-2.200147e+09 -2.000150e+09 -2.160148e+09 -3.739187e+03 -3.566926e+03 -1.727797e+03
-1.690842e+09 -1.490841e+09 -1.650841e+09 1.010608e+02 -3.543573e+02 4.884003e+01
-1.583805e+09 -1.383804e+09 -1.543805e+09 -6.507182e+02 -1.709316e+02 -8.189193e+01
-3.313165e+09 -3.113163e+09 -3.273164e+09 -2.493685e+02 -2.565904e+02 1.162525e+02
-1.721010e+09 -1.521010e+09 -1.681010e+09 5.358915e+02 5.062466e+01 -2.592347e+01
-2.590636e+09 -2.390634e+09 -2.550635e+09 -4.258626e+02 -2.587034e+02 -1.157879e+01
-2.461864e+09 -2.261866e+09 -2.421866e+09 7.799965e+02 3.315990e+01 -2.817109e+02
-1.793557e+09 -1.593556e+09 -1.753557e+09 7.102635e+02 7.431873e+01 -5.252435e+01
-1.889734e+09 -1.689732e+09 -1.849733e+09 7.471302e+02 1.200772e+02 -1.044315e+02
-2.812123e+09 -2.612105e+09 -2.772134e+09 -5.952387e+03 -1.589087e+03 -3.244329e+03
-3.419080e+09 -3.219076e+09 -3.379080e+09 -1.447675e+03 -5.217504e+02 9.916331e+02
-1.962538e+09 -1.762537e+09 -1.922538e+09 -7.239833e+02 -2.043820e+02 9.300442e+01
-2.109860e+09 -1.909859e+09 -2.069860e+09 5.486550e+02 5.476236e+01 -7.187688e+01
-2.697340e+09 -2.497339e+09 -2.657339e+09 3.796286e+02 4.525431e+01 -9.764511e+01
-1.879143e+09 -1.679141e+09 -1.839142e+09 -2.481453e+02 -2.234111e+02 2.812000e+01
-1.690842e+09 -1.490841e+09 -1.650841e+09 3.700359e+01 -3.275303e+02 5.482669e+01
-3.497163e+09 -3.297162e+09 -3.457162e+09 5.893452e+02 7.825892e+01 -5.127788e+01
-2.537359e+09 -2.337358e+09 -2.497358e+09 1.595724e+02 7.005614e+01 -5.322259e+01
-3.229448e+09 -3.029447e+09 -3.189447e+09 9.234202e+02 3.076024e+01 -1.164942e+02
-3.607194e+09 -3.407192e+09 -3.567193e+09 4.370476e+02 3.856215e+01 -1.851412e+01
-1.802178e+09 -1.602177e+09 -1.762177e+09 4.137061e+02 7.612884e+01 -5.130765e+01
-2.847702e+09 -2.647702e+09 -2.807702e+09 9.229902e+02 2.337697e+01 -1.083214e+02
-2.378305e+09 -2.178300e+09 -2.338302e+09 -2.473310e+03 -8.696047e+01 8.984746e+02
-3.201128e+09 -3.001122e+09 -3.161124e+09 -1.027188e+03 -1.656233e+02 7.943666e+02
-1.773327e+09 -1.573324e+09 -1.733326e+09 7.933937e+02 -1.765602e+02 -2.270179e+02
-3.241892e+09 -3.041885e+09 -3.201893e+09 1.686413e+03 2.734672e+03 -2.792518e+03
-2.998287e+09 -2.798286e+09 -2.958286e+09 1.614059e+02 3.137506e+01 -2.779848e+01
-3.398921e+09 -3.198917e+09 -3.358919e+09 1.015962e+02 1.860587e+02 1.156837e+02
-3.394123e+09 -3.194119e+09 -3.354121e+09 -6.906929e+01 1.664009e+02 2.296245e+02
-2.778398e+09 -2.578394e+09 -2.738396e+09 5.839591e+01 1.489396e+02 -2.123030e+01
-1.786877e+09 -1.586876e+09 -1.746876e+09 1.606013e+02 1.969179e+01 -3.175464e+01
-3.004981e+09 -2.804980e+09 -2.964980e+09 1.607730e+02 2.162306e+01 -1.849239e+01
-1.993266e+09 -1.793271e+09 -1.953267e+09 -8.518796e+02 3.059388e+02 -3.067457e+01
-2.799531e+09 -2.599539e+09 -2.759539e+09 8.797011e+02 -8.582344e+03 1.137233e+03
-2.006724e+09 -1.806732e+09 -1.966726e+09 1.566921e+03 1.113991e+03 -2.509487e+02
-3.298025e+09 -3.098032e+09 -3.258027e+09 2.104871e+01 5.487983e+02 2.055445e+02
-1.690838e+09 -1.490845e+09 -1.650839e+09 8.084064e+01 3.666621e+02 -4.939296e+01
-2.594322e+09 -2.394333e+09 -2.554328e+09 6.126559e+02 -5.462400e+03 1.052852e+03
-3.429150e+09 -3.229150e+09 -3.389150e+09 -6.089340e+02 -5.207946e+01 -6.497821e+00
-1.574184e+09 -1.374184e+09 -1.534184e+09 -5.986996e+02 -8.079152e+01 4.504315e+01
-2.135072e+09 -1.935072e+09 -2.095072e+09 -5.833582e+02 -2.863209e+01 1.024306e+01
-1.574184e+09 -1.374184e+09 -1.534184e+09 -7.288670e+02 -8.405780e+01 1.555393e+01
-2.401522e+09 -2.201535e+09 -2.361529e+09 -2.554880e+03 -8.218126e+03 -7.438992e+02
-2.378289e+09 -2.178303e+09 -2.338305e+09 1.713140e+03 -1.528349e+04 2.204529e+03
-2.583162e+09 -2.383174e+09 -2.543176e+09 2.039383e+02 -1.381110e+04 1.995804e+03
-2.082172e+09 -1.882185e+09 -2.042177e+09 -1.157713e+03 -6.107018e+03 1.492347e+01
-2.192225e+09 -1.992226e+09 -2.152225e+09 -4.699614e+02 -2.038621e+01 8.057834e+00
-2.831738e+09 -2.631738e+09 -2.791738e+09 -4.739004e+02 -5.361154e+01 6.505207e+00
-3.077923e+09 -2.877924e+09 -3.037929e+09 -4.071682e+03 -6.179150e+03 -2.243609e+03
-1.980313e+09 -1.780325e+09 -1.940319e+09 4.312243e+03 -9.758522e+03 3.061596e+03
-1.777249e+09 -1.577269e+09 -1.737258e+09 -4.109980e+03 -1.400915e+04 1.103623e+02
-2.997599e+09 -2.797607e+09 -2.957605e+09 -2.257075e+03 -3.905210e+03 -5.769962e+02
-1.791112e+09 -1.591129e+09 -1.751119e+09 -4.786003e+03 -9.495768e+03 -7.374823e+02
-2.540188e+09 -2.340184e+09 -2.500189e+09 -3.150946e+03 -4.432831e+03 -2.741265e+03
-3.398691e+09 -3.198697e+09 -3.358700e+09 2.607343e+02 -5.072064e+03 1.101103e+03
-3.309826e+09 -3.109829e+09 -3.269829e+09 -3.280338e+03 -3.297406e+03 -1.652740e+03
-2.105294e+09 -1.905301e+09 -2.065297e+09 -3.784152e+03 -5.217997e+03 -1.701339e+03
-3.304791e+09 -3.104801e+09 -3.264799e+09 -1.449101e+03 -5.105008e+03 -1.038423e+03
-1.896411e+09 -1.696416e+09 -1.856412e+09 -3.202816e+03 -3.166045e+03 -1.114679e+03
-3.610047e+09 -3.410047e+09 -3.570052e+09 -2.516391e+03 -3.323613e+03 -1.351881e+03
-1.690821e+09 -1.490835e+09 -1.650825e+09 -1.981978e+03 -4.886853e+03 -2.891148e+02
-3.006554e+09 -2.806563e+09 -2.966560e+09 3.783184e+02 -4.384494e+03 4.080939e+02
-3.401783e+09 -3.201790e+09 -3.361793e+09 -8.468879e+02 -5.940980e+03 3.718250e+02
-3.413053e+09 -3.213061e+09 -3.373065e+09 -7.400379e+02 -7.806509e+03 7.265738e+02
-3.098690e+09 -2.898699e+09 -3.058698e+09 -2.055823e+03 -5.538641e+03 -6.165000e+02
-1.988425e+09 -1.788428e+09 -1.948424e+09 2.112545e+03 4.883358e+02 -7.462767e+01
-3.605749e+09 -3.405751e+09 -3.565749e+09 2.449909e+03 3.614445e+02 -2.038335e+02
-2.621881e+09 -2.421884e+09 -2.581881e+09 2.146493e+03 4.506311e+02 3.308054e+01
-3.385691e+09 -3.185693e+09 -3.345695e+09 4.870186e+03 3.410432e+03 -2.133828e+03
-2.816124e+09 -2.616124e+09 -2.776125e+09 -1.360874e+03 -8.383759e+01 -5.842246e+00
-2.739841e+09 -2.539840e+09 -2.699841e+09 -1.670989e+03 -5.818848e+01 1.573762e+02
-1.999468e+09 -1.799481e+09 -1.959473e+09 -2.578706e+03 -7.464502e+03 -7.962423e+02
-1.591245e+09 -1.391264e+09 -1.551252e+09 -3.912155e+03 -9.965911e+03 -1.116706e+03
-2.566382e+09 -2.366391e+09 -2.526395e+09 -4.689807e+03 -1.286923e+04 -1.375546e+03
-2.610394e+09 -2.410394e+09 -2.570394e+09 -1.356263e+03 -1.719202e+02 -6.660135e+00
-3.294196e+09 -3.094204e+09 -3.254203e+09 -1.426169e+02 -4.376508e+03 8.751559e+02
-3.603032e+09 -3.403038e+09 -3.563042e+09 -7.739754e+02 -5.361359e+03 6.736673e+02
-2.381107e+09 -2.181105e+09 -2.341106e+09 -1.163567e+03 -4.030020e+02 3.567102e+02
-2.758452e+09 -2.558451e+09 -2.718452e+09 -1.290637e+03 -1.740762e+02 1.814769e+02
-1.993249e+09 -1.793262e+09 -1.953253e+09 7.792234e+02 -4.669580e+03 4.037212e+02
-2.551870e+09 -2.351870e+09 -2.511871e+09 -1.661496e+03 -1.707931e+02 1.767152e+02
-2.190741e+09 -1.990740e+09 -2.150740e+09 1.141109e+02 8.649856e+00 -4.202012e+01
-1.890686e+09 -1.690700e+09 -1.850691e+09 -5.939978e+02 -5.345909e+03 -2.857699e+02
-3.295851e+09 -3.095857e+09 -3.255857e+09 -3.465432e+03 -4.319162e+03 -1.642304e+03
-2.352245e+09 -2.152244e+09 -2.312244e+09 1.458284e+02 3.700392e+01 -5.807315e+01
-3.289884e+09 -3.089883e+09 -3.249883e+09 5.075155e+01 2.501963e+01 -2.520194e+01
-2.828964e+09 -2.628963e+09 -2.788963e+09 1.799998e+02 1.544194e+01 -2.073122e+01
-3.096216e+09 -2.896215e+09 -3.056215e+09 2.675635e+02 2.776386e+01 -4.228632e+01
-2.030808e+09 -1.830815e+09 -1.990809e+09 -6.559018e+02 4.014106e+02 -8.894210e+00
-2.680015e+09 -2.480014e+09 -2.640014e+09 2.647545e+02 2.534721e+01 -1.763347e+01
-1.771827e+09 -1.571826e+09 -1.731827e+09 2.239606e+02 4.559845e+01 -2.218973e+01
-1.993263e+09 -1.793270e+09 -1.953264e+09 -2.214851e+02 3.928819e+02 -2.379653e+01
-2.819258e+09 -2.619264e+09 -2.779259e+09 2.053770e+03 6.592516e+02 -2.262727e+02
-2.590173e+09 -2.390176e+09 -2.550172e+09 2.614508e+03 7.610752e+02 -1.863820e+02
-2.857373e+09 -2.657375e+09 -2.817373e+09 2.766049e+03 1.112075e+03 -3.900187e+02
-3.403843e+09 -3.203842e+09 -3.363843e+09 1.661879e+02 1.349989e+01 -2.395427e+01
-3.592467e+09 -3.392467e+09 -3.552468e+09 3.236960e+03 2.132878e+03 -8.496558e+02
-1.875801e+09 -1.675800e+09 -1.835800e+09 7.510645e+01 2.143168e+01 -6.744613e+01
-2.382088e+09 -2.182087e+09 -2.342086e+09 -1.787818e+01 6.528992e+01 -8.112028e+01
-2.612014e+09 -2.412013e+09 -2.572013e+09 1.994395e+02 9.862223e+00 -3.990123e+01
-3.135895e+09 -2.935894e+09 -3.095894e+09 2.490282e+02 5.127227e+01 -9.124559e+00
-3.384528e+09 -3.184527e+09 -3.344527e+09 2.659328e+02 3.051591e+01 -4.944812e+01
-2.514673e+09 -2.314675e+09 -2.474675e+09 -8.582891e+02 -2.542612e+01 -3.364678e+01
-1.604941e+09 -1.404745e+09 -1.564804e+09 2.708859e+04 1.041265e+05 3.148929e+04
-1.688416e+09 -1.488418e+09 -1.648415e+09 2.713763e+03 7.044749e+02 -2.292888e+02
-1.966102e+09 -1.766103e+09 -1.926104e+09 -1.493964e+03 1.433010e+01 -9.740672e+01
-1.741549e+09 -1.541550e+09 -1.701550e+09 -1.279614e+03 -1.296643e+02 1.237549e+02
-1.750934e+09 -1.550936e+09 -1.710936e+09 -1.450135e+03 -7.687075e+01 3.437072e+01
-3.490387e+09 -3.290385e+09 -3.450387e+09 3.357126e+03 1.656678e+03 -1.047507e+03
-3.490387e+09 -3.290387e+09 -3.450387e+09 2.978076e+03 1.144288e+03 -5.247385e+02
-2.445608e+09 -2.245610e+09 -2.405609e+09 -1.175028e+03 -1.222045e+02 6.973181e+01
-1.887094e+09 -1.687093e+09 -1.847094e+09 -5.219069e+02 -8.490372e+01 -3.471786e+01
-2.085856e+09 -1.885854e+09 -2.045855e+09 -2.241407e+02 -2.256999e+02 7.854821e+01
-2.215232e+09 -2.015231e+09 -2.175232e+09 -5.238032e+02 -5.157784e+01 -3.957905e+01
-2.197374e+09 -1.997380e+09 -2.157376e+09 -2.961579e+03 -3.476297e+03 -9.127851e+02
-3.380955e+09 -3.180957e+09 -3.340957e+09 -1.226266e+03 -4.895791e+01 5.915974e+01
-1.596769e+09 -1.396782e+09 -1.556773e+09 -3.723543e+03 -5.565500e+03 -1.044764e+03
-2.354076e+09 -2.154077e+09 -2.314077e+09 -1.498679e+03 -1.142131e+02 -1.137035e+00
-3.122598e+09 -2.922597e+09 -3.082597e+09 2.702473e+02 7.023920e+01 -4.032781e+01
-1.770097e+09 -1.570096e+09 -1.730096e+09 -1.801901e+01 4.376574e+01 -9.634437e+01
-1.576503e+09 -1.376511e+09 -1.536504e+09 4.850395e+02 8.995490e+02 -1.446075e+02
-3.215204e+09 -3.015204e+09 -3.175204e+09 5.082530e+02 4.856184e+01 -6.027593e+01
-2.620130e+09 -2.420130e+09 -2.580130e+09 6.436583e+02 5.931747e+01 -3.695806e+01
-1.576502e+09 -1.376510e+09 -1.536504e+09 -3.524662e+01 8.476794e+02 -3.760817e+01
-3.295962e+09 -3.095961e+09 -3.255961e+09 -4.646231e+02 -4.051570e+01 -2.852409e+01
-3.106740e+09 -2.906739e+09 -3.066739e+09 1.678131e+02 4.271139e+01 -6.108850e+01
-3.226230e+09 -3.026229e+09 -3.186230e+09 -5.357346e+02 -7.472014e+01 -1.530537e+01
-3.379572e+09 -3.179572e+09 -3.339572e+09 -5.854659e+02 -6.073004e+01 6.680807e-01
-2.972458e+09 -2.772457e+09 -2.932457e+09 -5.190866e+02 -1.251816e+02 9.447110e-01
-2.558879e+09 -2.358878e+09 -2.518878e+09 2.007154e+02 8.310007e+01 -5.826908e+01
-2.611501e+09 -2.411500e+09 -2.571500e+09 3.316656e+02 7.538952e+01 -3.625900e+01
-1.690840e+09 -1.490846e+09 -1.650841e+09 -4.014140e+02 3.296208e+02 -6.640033e+01
-2.185525e+09 -1.985524e+09 -2.145524e+09 3.717629e+02 7.938451e+01 -6.220135e+01
-1.795371e+09 -1.595370e+09 -1.755370e+09 2.904827e+02 6.406608e+01 -8.282336e+01
-3.297293e+09 -3.097300e+09 -3.257299e+09 -1.419126e+03 -3.876174e+03 8.954992e+01
-2.200139e+09 -2.000150e+09 -2.160143e+09 -2.451051e+03 -4.580519e+03 -6.200465e+02
-2.099041e+09 -1.899052e+09 -2.059046e+09 -2.352432e+03 -6.091707e+03 -7.930699e+02
-3.592438e+09 -3.392445e+09 -3.552448e+09 -1.195983e+03 -4.953608e+03 -1.218173e+02
-3.410757e+09 -3.210739e+09 -3.370740e+09 4.985039e+03 1.269791e+04 4.051057e+03
-2.690539e+09 -2.490538e+09 -2.650538e+09 1.582853e+02 8.674118e+00 -3.486310e+01
-2.961952e+09 -2.761948e+09 -2.921952e+09 -2.607956e+03 -2.362719e+03 -2.291105e+03
-1.692153e+09 -1.492154e+09 -1.652152e+09 -4.320470e+03 -3.346476e+03 -1.399518e+03
-3.228334e+09 -3.028331e+09 -3.188343e+09 -3.519357e+03 -6.253237e+03 -3.370796e+03
-1.867636e+09 -1.667634e+09 -1.827635e+09 -4.229217e+03 -3.194746e+03 -2.133861e+03
-3.426463e+09 -3.226462e+09 -3.386462e+09 2.689826e+02 3.831566e+01 -4.985627e+01
-2.295828e+09 -2.095835e+09 -2.255829e+09 8.313573e+02 3.726659e+02 -2.106494e+01
-3.246609e+09 -3.046619e+09 -3.206615e+09 5.413623e+02 3.990882e+03 9.329038e+00
-2.194872e+09 -1.994879e+09 -2.154873e+09 1.027429e+03 4.438468e+02 -1.861631e+02
-1.691068e+09 -1.491075e+09 -1.651069e+09 9.819922e+02 3.635262e+02 -6.454280e+01
-2.784197e+09 -2.584196e+09 -2.744197e+09 -9.870305e+02 -2.572466e+02 1.999649e+02
-2.087412e+09 -1.887427e+09 -2.047420e+09 -4.532174e+03 9.783411e+03 2.081712e+03
-3.185771e+09 -2.985770e+09 -3.145770e+09 -6.494151e+02 -2.048103e+02 9.281450e+01
-3.254605e+09 -3.054607e+09 -3.214617e+09 -5.232204e+03 7.068107e+03 3.188909e+03
-1.948648e+09 -1.748658e+09 -1.908651e+09 -5.171620e+03 5.951963e+03 2.024021e+03
-1.688356e+09 -1.488356e+09 -1.648356e+09 -4.611886e+02 -6.280134e+01 1.460830e+00
-2.780822e+09 -2.580830e+09 -2.740828e+09 -3.686808e+03 5.922122e+03 1.522869e+03
-2.716640e+09 -2.516639e+09 -2.676639e+09 1.223992e+02 -4.914771e+02 2.675609e+02
-2.429648e+09 -2.229660e+09 -2.389653e+09 3.240809e+02 3.377972e+03 -1.984032e+02
-2.648593e+09 -2.448603e+09 -2.608599e+09 -1.343797e+03 5.638993e+03 3.128225e+02
-2.817948e+09 -2.617961e+09 -2.777960e+09 -1.044641e+03 1.000114e+04 2.861217e+02
-1.765152e+09 -1.565163e+09 -1.725155e+09 -4.985788e+03 5.772281e+03 2.109552e+03
-1.759608e+09 -1.559622e+09 -1.719612e+09 -7.509778e+03 8.253247e+03 2.676760e+03
-3.062761e+09 -2.862735e+09 -3.022753e+09 -2.732563e+03 1.382575e+04 1.552063e+03
-3.375334e+09 -3.175340e+09 -3.335342e+09 -3.890654e+03 5.592619e+03 1.812365e+03
-2.362492e+09 -2.162501e+09 -2.322496e+09 -4.501308e+03 5.026830e+03 1.883389e+03
-3.171579e+09 -2.971578e+09 -3.131577e+09 -2.166846e+02 5.883932e+01 -6.260770e+01
-1.690840e+09 -1.490843e+09 -1.650840e+09 -9.365538e+02 1.447104e+02 -1.320163e+02
-3.093925e+09 -2.893921e+09 -3.053923e+09 7.011590e+02 -2.636296e+02 -1.727920e+01
-2.108657e+09 -1.908656e+09 -2.068657e+09 1.742334e+03 -1.021320e+02 -5.739491e+02
-2.668482e+09 -2.468482e+09 -2.628483e+09 1.348519e+03 -3.420659e+01 -3.982740e+02
-3.594010e+09 -3.394008e+09 -3.554009e+09 3.407437e+02 -5.753153e+02 4.978008e+02
-3.492813e+09 -3.292812e+09 -3.452813e+09 2.936800e+02 -4.075557e+02 2.050044e+02
-3.247295e+09 -3.047298e+09 -3.207297e+09 -4.101878e+02 -1.830310e+01 -2.446269e+01
-3.210330e+09 -3.010328e+09 -3.170329e+09 3.759094e+02 -6.667012e+02 4.858972e+02
-2.332704e+09 -2.132705e+09 -2.292706e+09 2.075861e+03 -9.307936e+00 -4.963560e+02
-1.690841e+09 -1.490843e+09 -1.650840e+09 2.189345e+03 -1.621628e+03 6.703852e+02
-2.615787e+09 -2.415788e+09 -2.575788e+09 1.369565e+03 -4.141693e+01 -6.077835e+02
-1.587427e+09 -1.387425e+09 -1.547425e+09 8.930729e+02 -1.034077e+03 6.316148e+02
-3.098324e+09 -2.898325e+09 -3.058325e+09 9.827748e+02 4.209893e+01 -1.696379e+02
-2.835666e+09 -2.635666e+09 -2.795666e+09 1.121347e+03 1.534847e+01 -1.884430e+02
-2.633623e+09 -2.433622e+09 -2.593623e+09 7.048358e+02 2.059310e+01 -1.861955e+02
-3.014933e+09 -2.814932e+09 -2.974932e+09 -2.045866e+02 -2.929151e+02 1.058765e+02
-1.893585e+09 -1.693585e+09 -1.853584e+09 7.285982e+02 -6.287629e+02 2.589538e+02
-3.003632e+09 -2.803637e+09 -2.963633e+09 -1.003520e+03 3.017281e+02 -3.371710e+01
-1.690840e+09 -1.490844e+09 -1.650840e+09 -9.387764e+02 2.361359e+02 -1.317266e+02
-2.011664e+09 -1.811665e+09 -1.971665e+09 1.189892e+03 6.728418e-01 -3.737165e+02
-2.016428e+09 -1.816428e+09 -1.976429e+09 1.053363e+03 1.269930e+02 -1.220380e+02
-1.784670e+09 -1.584671e+09 -1.744672e+09 1.413157e+03 6.604081e+01 -3.385205e+02
-2.742996e+09 -2.543001e+09 -2.702997e+09 -2.003424e+03 7.328643e+02 2.579932e+02
-3.572381e+09 -3.372380e+09 -3.532381e+09 1.280886e+03 -7.933107e+01 -2.465720e+02
-2.009658e+09 -1.809657e+09 -1.969658e+09 1.132710e+03 -5.339856e+01 -3.075311e+02
-2.769631e+09 -2.569629e+09 -2.729631e+09 1.327077e+03 -1.841445e+02 -3.149330e+02
-1.640730e+09 -1.440734e+09 -1.600730e+09 -1.269786e+03 2.133343e+02 -9.728685e+01
-1.790875e+09 -1.590876e+09 -1.750877e+09 1.863450e+03 -3.582784e+01 -7.538218e+02
-2.786519e+09 -2.586521e+09 -2.746521e+09 1.285257e+03 -1.788830e+01 -3.696287e+02
-2.846239e+09 -2.646242e+09 -2.806239e+09 -1.021097e+03 1.805097e+02 -8.553313e+01
-2.092187e+09 -1.892190e+09 -2.052189e+09 4.611470e+02 3.737091e+00 -6.527193e+00
-1.929460e+09 -1.729463e+09 -1.889462e+09 -6.616317e+02 -3.407672e+01 5.850780e+01
-3.128029e+09 -2.928031e+09 -3.088030e+09 -3.181721e+02 -1.042303e+00 5.080552e+01
-2.085460e+09 -1.885462e+09 -2.045462e+09 -2.805490e+02 -2.232659e+01 7.447891e+00
-2.272468e+09 -2.072470e+09 -2.232469e+09 6.961159e+01 6.134622e+00 -2.528820e+00
-3.196788e+09 -2.996790e+09 -3.156789e+09 1.121201e+02 2.987509e+00 3.633238e+01
-3.611125e+09 -3.411120e+09 -3.571104e+09 -7.745930e+03 -6.670928e+03 7.046286e+03
-1.592151e+09 -1.392153e+09 -1.552153e+09 -1.079481e+02 -7.457096e+00 3.307205e+01
-1.587072e+09 -1.387075e+09 -1.547074e+09 -2.008028e+02 -1.531706e+01 5.659008e+01
-3.592841e+09 -3.392844e+09 -3.552841e+09 -1.395011e+03 1.959933e+02 -2.096416e+01
-3.267981e+09 -3.067983e+09 -3.227981e+09 -1.279271e+03 1.409385e+02 -2.661652e+01
-1.665408e+09 -1.465410e+09 -1.625409e+09 -8.152877e+01 1.288805e-01 3.641215e+01
-1.596232e+09 -1.396234e+09 -1.556232e+09 -1.151139e+03 2.717212e+02 -1.256489e+02
-1.882236e+09 -1.682237e+09 -1.842235e+09 -9.385841e+02 1.357985e+02 -6.521994e+01
-3.588337e+09 -3.388338e+09 -3.548336e+09 -9.369951e+02 6.002261e+01 -4.653598e+01
-2.137457e+09 -1.937458e+09 -2.097456e+09 -1.074852e+03 6.790865e+01 -4.743008e+01
-2.980573e+09 -2.780575e+09 -2.940575e+09 -1.270833e+02 -6.809535e-01 3.243676e+01
-3.420114e+09 -3.220098e+09 -3.380096e+09 9.918967e+01 -7.058816e+03 9.941757e+02
-3.213118e+09 -3.013115e+09 -3.173143e+09 -5.251837e+03 7.540140e+03 4.075621e+03
-2.025231e+09 -1.825197e+09 -1.985205e+09 1.070489e+04 -2.232154e+04 -1.501820e+04
-2.588069e+09 -2.388051e+09 -2.548095e+09 -1.328019e+04 1.448138e+04 7.766509e+03
-3.156016e+09 -2.956001e+09 -3.116023e+09 -2.900285e+02 1.326534e+03 7.779912e+03
-3.492812e+09 -3.292815e+09 -3.452812e+09 -1.046964e+03 1.268217e+02 -1.879862e+01
-3.492812e+09 -3.292813e+09 -3.452811e+09 -8.643246e+02 8.092513e+01 -4.751002e+01
-1.569176e+09 -1.369172e+09 -1.529174e+09 3.407021e+02 -6.727535e+02 8.760700e+02
-1.585794e+09 -1.385858e+09 -1.545824e+09 -1.001904e+04 3.935967e+04 1.922504e+03
-2.689079e+09 -2.489067e+09 -2.649081e+09 -8.906889e+03 4.045642e+03 1.051130e+04
-2.603973e+09 -2.403990e+09 -2.564003e+09 -8.656401e+03 3.056898e+04 8.504114e+03
-3.492810e+09 -3.292813e+09 -3.452813e+09 1.593444e+03 -2.034208e+03 8.268843e+02
-3.184733e+09 -2.984738e+09 -3.144741e+09 5.990027e+03 6.788279e+03 -3.112757e+03
-1.857268e+09 -1.657293e+09 -1.817278e+09 -1.291836e+04 1.370198e+04 4.487387e+03
-3.097891e+09 -2.897895e+09 -3.057894e+09 2.470515e+03 -2.999581e+03 1.474207e+03
-3.501200e+09 -3.301196e+09 -3.461199e+09 -3.279227e+03 -4.722925e+02 -1.425998e+02
-2.608655e+09 -2.408669e+09 -2.568669e+09 4.802669e+03 1.509005e+04 -4.817952e+03
-1.975953e+09 -1.775977e+09 -1.935964e+09 -7.703777e+02 1.521856e+04 9.139125e+02
-1.964744e+09 -1.764773e+09 -1.924764e+09 -3.253707e+03 2.905765e+04 1.110595e+02
-1.582757e+09 -1.382797e+09 -1.542769e+09 5.316801e+03 2.044055e+04 -1.901692e+03
-1.961814e+09 -1.761810e+09 -1.921813e+09 -2.472816e+03 -2.291216e+03 5.416871e+02
-3.583760e+09 -3.383749e+09 -3.543755e+09 -1.788549e+03 4.475898e+02 -2.609760e+03
-2.315519e+09 -2.115511e+09 -2.275521e+09 -8.039177e+03 -5.884367e+03 7.418305e+02
-1.792868e+09 -1.592851e+09 -1.752876e+09 -8.272107e+03 -1.311937e+04 4.421582e+03
-1.834724e+09 -1.634651e+09 -1.794706e+09 -5.566897e+03 -1.205607e+04 -1.522509e+04
-2.587103e+09 -2.387107e+09 -2.547105e+09 -6.982777e+03 -4.905889e+03 5.447113e+03
-3.315185e+09 -3.115187e+09 -3.275185e+09 -9.982994e+02 2.112009e+02 9.016704e+00
-2.395854e+09 -2.195834e+09 -2.355848e+09 -2.463959e+03 -1.145043e+03 -5.144367e+03
-2.571551e+09 -2.371535e+09 -2.531552e+09 1.650040e+03 1.123388e+03 -4.694749e+03
-1.943156e+09 -1.743160e+09 -1.903156e+09 -1.138266e+03 2.874376e+02 -3.534076e+01
-3.613418e+09 -3.413420e+09 -3.573418e+09 -1.245398e+03 4.956192e+01 -3.734203e+01
-1.802096e+09 -1.602127e+09 -1.762124e+09 2.035669e+04 3.924627e+04 -1.376752e+04
-3.628689e+09 -3.428689e+09 -3.588688e+09 -1.285791e+03 1.896071e+02 4.582135e+01
-3.492812e+09 -3.292816e+09 -3.452812e+09 -1.047104e+03 1.346436e+02 7.079433e+00
-2.915979e+09 -2.715984e+09 -2.875980e+09 -1.378429e+03 3.394329e+02 2.259281e+01
-2.020637e+09 -1.820592e+09 -1.980640e+09 4.334370e+03 -1.507001e+03 -1.565778e+04
-2.031008e+09 -1.830994e+09 -1.991063e+09 -5.519458e+03 4.323591e+04 -1.356134e+04
-3.144471e+09 -2.944474e+09 -3.104471e+09 -1.100901e+03 1.120906e+02 -8.549067e+01
-2.161155e+09 -1.961115e+09 -2.121177e+09 -5.209152e+03 5.054026e+03 1.175088e+04
-3.589016e+09 -3.389003e+09 -3.549021e+09 1.903320e+02 2.643915e+03 -4.399765e+03
-2.955845e+09 -2.755836e+09 -2.915843e+09 -2.814849e+03 -7.110028e+02 -1.128925e+03
-2.842224e+09 -2.642213e+09 -2.802220e+09 -9.164693e+03 -1.393742e+04 5.710456e+03
-3.296468e+09 -3.096474e+09 -3.256475e+09 2.055947e+03 -5.645096e+03 2.358024e+03
-2.051783e+09 -1.851755e+09 -2.011771e+09 -1.228880e+04 -1.296837e+04 -2.137996e+03
-1.690837e+09 -1.490847e+09 -1.650839e+09 2.650020e+03 -3.740494e+03 6.633824e+02
-1.801572e+09 -1.601577e+09 -1.761573e+09 5.623464e+03 -4.633953e+03 2.805001e+03
-1.892665e+09 -1.692669e+09 -1.852665e+09 3.492458e+03 -2.694829e+03 1.406201e+03
-1.690839e+09 -1.490845e+09 -1.650840e+09 2.765126e+03 -2.460858e+03 7.903335e+02
-2.015795e+09 -1.815776e+09 -1.975798e+09 -1.159849e+04 -1.502382e+04 5.721489e+03
-3.063207e+09 -2.863191e+09 -3.023198e+09 -7.778232e+03 -9.852525e+03 -1.554186e+03
-3.346746e+09 -3.146727e+09 -3.306747e+09 -2.189039e+03 -3.978628e+03 -5.855425e+03
-2.032637e+09 -1.832629e+09 -1.992622e+09 8.870256e+03 -1.101365e+04 -1.394026e+04
-3.413750e+09 -3.213738e+09 -3.373748e+09 -1.114121e+03 4.568790e+01 3.970870e+03
-1.892665e+09 -1.692668e+09 -1.852665e+09 2.121369e+03 -1.756277e+03 9.053844e+02
-3.212484e+09 -3.012471e+09 -3.172482e+09 -2.786775e+03 2.129205e+03 6.169658e+03
-2.857679e+09 -2.657659e+09 -2.817668e+09 7.235221e+03 -1.157917e+04 -2.123252e+03
-3.419965e+09 -3.219947e+09 -3.379955e+09 2.187572e+03 -4.561391e+03 5.061252e+03
-3.405087e+09 -3.205085e+09 -3.365086e+09 1.648792e+03 -3.396469e+02 -5.140754e+02
-3.630184e+09 -3.430190e+09 -3.590181e+09 -4.913592e+03 -3.817192e+03 5.374307e+03
-2.679627e+09 -2.479599e+09 -2.639582e+09 -6.141026e+03 -1.715577e+04 -1.845924e+03
-3.576322e+09 -3.376324e+09 -3.536323e+09 -3.552037e+01 -4.648889e+00 3.734789e+01
-3.576322e+09 -3.376324e+09 -3.536323e+09 1.045180e+02 9.253478e+00 -8.023233e-01
-1.792068e+09 -1.592066e+09 -1.752068e+09 1.938854e+03 -1.715332e+01 -9.410554e+02
-2.998625e+09 -2.798626e+09 -2.958626e+09 2.571365e+02 2.740216e+01 3.230331e+01
-3.313206e+09 -3.113201e+09 -3.273202e+09 2.334308e+03 -8.657497e+02 -6.177698e+02
-3.092444e+09 -2.892442e+09 -3.052446e+09 -4.293374e+03 3.349574e+03 3.079496e+03
-3.175099e+09 -2.975091e+09 -3.135095e+09 1.797385e+03 -1.063414e+03 -8.203406e+01
-3.424790e+09 -3.224784e+09 -3.384787e+09 1.490516e+03 -6.357206e+02 -2.267616e+02
-3.388795e+09 -3.188790e+09 -3.348791e+09 2.342646e+03 -1.178690e+03 -5.735466e+02
-2.732942e+09 -2.532937e+09 -2.692938e+09 2.273399e+03 -9.307767e+02 -8.201311e+02
-3.288856e+09 -3.088857e+09 -3.248857e+09 4.563683e+02 3.510039e+01 3.563613e+01
-1.794770e+09 -1.594765e+09 -1.754768e+09 2.258590e+02 1.094382e+02 1.282470e+02
-3.298961e+09 -3.098963e+09 -3.258963e+09 2.635377e+02 1.752065e+01 3.813848e+01
-2.554120e+09 -2.354110e+09 -2.514113e+09 6.125382e+02 -8.660100e+02 9.005620e+02
-2.805123e+09 -2.605116e+09 -2.765119e+09 2.773111e+02 -2.922900e+02 6.268520e+02
-2.087729e+09 -1.887727e+09 -2.047729e+09 2.104736e+03 -3.786926e+02 -9.681293e+02
-1.771269e+09 -1.571265e+09 -1.731270e+09 3.479894e+03 -1.463815e+03 -2.147080e+03
-2.630715e+09 -2.430725e+09 -2.590723e+09 -5.257248e+03 8.955622e+03 3.361338e+03
-3.624298e+09 -3.424303e+09 -3.584309e+09 -3.272328e+03 7.557428e+03 1.026877e+03
-3.419808e+09 -3.219807e+09 -3.379811e+09 -4.438463e+03 3.265282e+03 2.772216e+03
-2.452354e+09 -2.252371e+09 -2.412370e+09 -8.828469e+03 1.424382e+04 5.318382e+03
-1.560888e+09 -1.360911e+09 -1.520895e+09 -1.048251e+04 1.570709e+04 3.535538e+03
-1.800798e+09 -1.600795e+09 -1.760796e+09 -5.016544e+02 -6.830377e+02 1.228280e+03
-2.996867e+09 -2.796866e+09 -2.956866e+09 1.961292e+02 -4.705319e+02 2.172347e+02
-1.587426e+09 -1.387424e+09 -1.547425e+09 3.736838e+02 -7.729494e+02 6.359484e+02
-1.573954e+09 -1.373953e+09 -1.533955e+09 -2.372403e+03 -9.144344e+01 -3.795304e+02
-2.738441e+09 -2.538442e+09 -2.698442e+09 -1.927448e+03 2.557527e+00 -1.152353e+02
-2.411086e+09 -2.211087e+09 -2.371088e+09 -1.817390e+03 -4.641728e+01 -5.028808e+01
-1.739155e+09 -1.539156e+09 -1.699157e+09 -2.002042e+03 -5.139177e+00 -1.452679e+02
-3.033685e+09 -2.833684e+09 -2.993685e+09 -1.790453e+03 -2.251581e+02 1.789696e+02
-2.590005e+09 -2.390003e+09 -2.550005e+09 -1.429888e+03 -4.059051e+02 5.163355e+02
-1.864728e+09 -1.664726e+09 -1.824728e+09 -1.499264e+03 -2.880144e+02 2.524979e+02
-2.663632e+09 -2.463630e+09 -2.623631e+09 -1.780252e+03 -2.439720e+02 3.443134e+02
-1.791588e+09 -1.591588e+09 -1.751586e+09 6.228857e+03 -4.597025e+03 4.095644e+03
-1.598229e+09 -1.398238e+09 -1.558231e+09 4.457091e+03 -4.531115e+03 1.795927e+03
-3.108591e+09 -2.908590e+09 -3.068592e+09 1.355421e+03 -1.614842e+03 1.484728e+03
-2.024359e+09 -1.824358e+09 -1.984359e+09 -1.794001e+03 -1.125492e+02 1.359883e+02
-3.492813e+09 -3.292812e+09 -3.452813e+09 8.468338e+02 -7.138596e+02 4.161272e+02
-1.889775e+09 -1.689787e+09 -1.849779e+09 -6.405103e+03 -8.270823e+03 -2.437398e+03
-3.115713e+09 -2.915719e+09 -3.075729e+09 -2.776722e+03 -1.086861e+04 -2.439373e+03
-1.893897e+09 -1.693892e+09 -1.853897e+09 -2.614888e+03 4.088212e+02 1.022737e+03
-3.042541e+09 -2.842533e+09 -3.002552e+09 -3.398039e+02 -5.531013e+03 -1.533175e+03
-2.996657e+09 -2.796658e+09 -2.956658e+09 1.379660e+03 -1.224894e+03 6.436947e+02
-3.594533e+09 -3.394535e+09 -3.554535e+09 1.694748e+03 -2.023076e+03 1.137441e+03
-2.780022e+09 -2.580025e+09 -2.740042e+09 -2.188319e+03 -1.633513e+04 1.224180e+03
-2.699545e+09 -2.499547e+09 -2.659546e+09 2.089555e+03 -2.387555e+03 1.400752e+03
-3.204530e+09 -3.004529e+09 -3.164530e+09 1.111368e+03 -1.067476e+03 8.123244e+02
-2.439876e+09 -2.239879e+09 -2.399876e+09 -1.642137e+03 2.900064e+02 7.088825e+01
-3.592841e+09 -3.392844e+09 -3.552841e+09 -1.317406e+03 1.068108e+02 1.842003e+01
-3.076280e+09 -2.876276e+09 -3.036292e+09 -3.569457e+03 -6.371195e+03 -4.474063e+03
-2.365432e+09 -2.165437e+09 -2.325433e+09 -9.339778e+02 3.112693e+02 -9.838891e+01
-3.492812e+09 -3.292817e+09 -3.452813e+09 -8.238364e+02 2.393714e+02 -1.087665e+01
-1.965951e+09 -1.765956e+09 -1.925951e+09 -1.292018e+03 4.233162e+02 -7.524521e+01
-3.602902e+09 -3.402899e+09 -3.562903e+09 8.727093e+02 -1.710947e+03 1.501916e+03
-3.593122e+09 -3.393121e+09 -3.553123e+09 9.261918e+02 -1.105565e+03 8.353412e+02
-3.593123e+09 -3.393123e+09 -3.553123e+09 1.302204e+03 -1.133509e+03 7.997844e+02
-1.788502e+09 -1.588519e+09 -1.748514e+09 -8.006793e+03 -1.854105e+04 -5.116796e+03
-3.389282e+09 -3.189282e+09 -3.349298e+09 -2.030774e+03 -9.002840e+03 3.699376e+02
-1.789273e+09 -1.589272e+09 -1.749272e+09 2.297863e+02 -5.849489e+02 2.787646e+02
-3.196918e+09 -2.996919e+09 -3.156919e+09 1.892739e+02 1.463898e+01 1.657742e+01
-3.166873e+09 -2.966875e+09 -3.126875e+09 9.248401e+00 1.245434e+01 2.511622e+01
-2.232760e+09 -2.032762e+09 -2.192762e+09 2.220159e+02 1.714017e+01 4.065725e+01
-3.093608e+09 -2.893578e+09 -3.053602e+09 1.325447e+02 1.270064e+04 4.047412e+02
-2.596226e+09 -2.396206e+09 -2.556226e+09 -4.584014e+03 7.788069e+03 -1.255900e+04
-1.565340e+09 -1.365342e+09 -1.525342e+09 1.845611e+01 2.163863e+01 3.025825e+01
-3.390824e+09 -3.190823e+09 -3.350840e+09 6.483874e+02 -8.704919e+03 2.660886e+03
-2.422470e+09 -2.222483e+09 -2.382491e+09 2.478735e+02 -2.109614e+04 1.444893e+03
-3.501197e+09 -3.301194e+09 -3.461197e+09 -5.209053e+03 -3.030598e+03 1.482207e+03
-1.793157e+09 -1.593156e+09 -1.753155e+09 -5.529717e+02 5.115142e+01 -1.117605e+02
-2.034925e+09 -1.834918e+09 -1.994934e+09 -1.241532e+04 -5.524034e+03 8.420333e+03
-3.582245e+09 -3.382244e+09 -3.542244e+09 -1.439029e+02 1.108556e+02 -1.247002e+01
-2.569045e+09 -2.369044e+09 -2.529044e+09 -1.849441e+02 1.098939e+02 -6.099517e+01
-2.585439e+09 -2.385440e+09 -2.545438e+09 -4.537067e+03 -1.935586e+03 5.011023e+03
-3.391221e+09 -3.191208e+09 -3.351218e+09 -1.778473e+03 -3.022919e+02 -3.899633e+03
-1.651001e+09 -1.450989e+09 -1.611001e+09 -2.247041e+03 -1.533727e+03 -1.683782e+03
-3.611396e+09 -3.411394e+09 -3.571395e+09 -4.952482e+02 -2.026438e+02 1.386936e+02
-3.593330e+09 -3.393328e+09 -3.553329e+09 -1.588419e+02 -3.204251e+02 2.673246e+02
-3.295779e+09 -3.095778e+09 -3.255778e+09 6.865579e+02 -7.374446e+02 5.366291e+02
-3.295099e+09 -3.095097e+09 -3.255098e+09 2.660913e+02 -4.199423e+02 1.218764e+02
-2.095433e+09 -1.895432e+09 -2.055432e+09 7.406141e+02 -6.407379e+02 3.495568e+02
-2.113854e+09 -1.913853e+09 -2.073853e+09 1.673748e+02 2.268722e+01 -6.834771e+01
-1.591062e+09 -1.391039e+09 -1.551053e+09 5.690049e+03 3.880138e+03 -8.843679e+03
-1.743036e+09 -1.543034e+09 -1.703035e+09 1.855707e+02 3.105883e+01 -1.048337e+02
-1.995331e+09 -1.795326e+09 -1.955330e+09 9.371018e+03 8.684523e+03 -8.367275e+03
-3.152899e+09 -2.952892e+09 -3.112899e+09 2.359929e+03 1.801102e+03 -2.381758e+03
-2.942314e+09 -2.742304e+09 -2.902312e+09 6.732453e+02 9.931593e+02 -3.233918e+03
-3.194569e+09 -2.994576e+09 -3.154575e+09 1.294818e+03 -3.184675e+03 7.402063e+02
-3.294400e+09 -3.094406e+09 -3.254405e+09 7.878331e+02 -3.332454e+03 1.472359e+02
-3.288467e+09 -3.088475e+09 -3.248474e+09 1.760628e+03 -4.886829e+03 1.189833e+03
-1.984988e+09 -1.785006e+09 -1.945005e+09 6.106712e+02 -2.310966e+04 1.567380e+03
-2.291884e+09 -2.091883e+09 -2.251883e+09 -1.077782e+02 1.154153e+02 -7.954992e+01
-3.291283e+09 -3.091282e+09 -3.251282e+09 -1.959245e+02 -2.002476e+00 -6.849094e+01
-2.002972e+09 -1.802970e+09 -1.962970e+09 9.178267e+02 -1.022870e+03 7.607927e+02
-3.064402e+09 -2.864401e+09 -3.024402e+09 -8.973808e+02 -1.216445e+02 2.835921e+01
-2.620989e+09 -2.420988e+09 -2.580988e+09 -2.231646e+02 -3.231953e+02 5.899790e+01
-2.510167e+09 -2.310169e+09 -2.470170e+09 -3.570249e+03 1.369032e+03 -1.151734e+03
-3.502168e+09 -3.302179e+09 -3.462167e+09 2.510993e+02 3.911307e+02 7.051790e+03
-3.021206e+09 -2.821209e+09 -2.981207e+09 7.809345e+03 7.089704e+03 4.941773e+03
-1.579848e+09 -1.379846e+09 -1.539846e+09 1.268923e+02 1.020601e+02 -8.779035e+01
-3.623243e+09 -3.423250e+09 -3.583222e+09 -3.745937e+03 -6.074206e+03 1.272955e+04
-3.230253e+09 -3.030253e+09 -3.190252e+09 -5.340762e+02 9.354381e+01 -3.682250e+01
-2.516985e+09 -2.316984e+09 -2.476984e+09 -1.926352e+02 7.485412e+01 -6.404030e+01
-3.253969e+09 -3.053969e+09 -3.213968e+09 -3.114357e+02 5.918351e+01 -3.703120e+01
-2.504303e+09 -2.304302e+09 -2.464302e+09 2.670080e+02 8.751622e+01 -5.886051e+01
-2.355077e+09 -2.155077e+09 -2.315076e+09 -2.881854e+02 8.879704e+01 -8.505519e+01
-3.264321e+09 -3.064325e+09 -3.224321e+09 -1.304058e+03 3.687105e+02 1.087338e+02
-2.770653e+09 -2.570652e+09 -2.730652e+09 -2.191029e+02 1.331080e+02 -3.922667e+01
-2.343754e+09 -2.143753e+09 -2.303753e+09 -6.322188e+01 8.548931e+01 -1.009110e+02
-3.580533e+09 -3.380537e+09 -3.540534e+09 -1.807540e+03 4.925928e+02 6.388207e+01
-3.152547e+09 -2.952549e+09 -3.112548e+09 -3.411459e+02 -1.253401e+01 4.570229e+01
-3.185944e+09 -2.985946e+09 -3.145945e+09 -1.677458e+02 -3.680357e+00 3.501338e+01
-2.092164e+09 -1.892163e+09 -2.052163e+09 2.897300e+02 3.586984e+01 -8.005451e+01
-1.688349e+09 -1.488351e+09 -1.648350e+09 -2.399571e+02 -2.421620e+01 5.289596e+01
-2.144637e+09 -1.944639e+09 -2.104639e+09 -3.048331e+02 -2.209681e+01 2.144471e+01
-1.792855e+09 -1.592872e+09 -1.752874e+09 -6.452759e+03 -2.116614e+04 -1.678127e+03
-2.429285e+09 -2.229284e+09 -2.389289e+09 -7.304298e+03 -7.158338e+03 -5.854732e+03
-3.142138e+09 -2.942139e+09 -3.102139e+09 3.633377e+02 2.677599e+01 3.209053e+01
-1.583294e+09 -1.383300e+09 -1.543294e+09 -8.613045e+03 -8.498510e+03 -4.036410e+03
-3.258232e+09 -3.058218e+09 -3.218246e+09 -5.681197e+02 -4.200272e+02 -1.054079e+03
-3.589186e+09 -3.389187e+09 -3.549187e+09 4.874956e+02 1.152166e+01 -5.979004e-01
-2.933892e+09 -2.733898e+09 -2.893893e+09 -6.334981e+02 3.373314e+02 -6.277059e+01
-3.562552e+09 -3.362557e+09 -3.522553e+09 -1.248661e+03 3.317338e+02 6.016528e+01
-1.908557e+09 -1.708563e+09 -1.868558e+09 -7.963800e+02 3.991025e+02 -6.519978e+01
-2.101358e+09 -1.901367e+09 -2.061368e+09 -7.394899e+03 -1.617082e+04 -3.433699e+03
-3.574855e+09 -3.374842e+09 -3.534868e+09 1.111368e+03 9.022549e+03 -7.894055e+03
-3.593331e+09 -3.393329e+09 -3.553330e+09 1.886422e+02 -3.479697e+02 2.238104e+02
-3.492814e+09 -3.292812e+09 -3.452813e+09 -1.062475e+02 -2.317930e+02 1.047541e+02
-3.377085e+09 -3.177055e+09 -3.337082e+09 -1.484908e+04 -2.301164e+04 7.195449e+03
-1.897555e+09 -1.697553e+09 -1.857554e+09 -7.103247e+01 -3.981794e+02 1.431551e+02
-2.199981e+09 -1.999979e+09 -2.159979e+09 -2.328539e+02 -2.468920e+02 9.792114e+01
-2.771778e+09 -2.571742e+09 -2.731784e+09 -7.312078e+03 5.980097e+02 -6.113421e+03
-1.993256e+09 -1.793269e+09 -1.953260e+09 1.793818e+03 -4.558769e+03 6.784635e+02
-1.598229e+09 -1.398236e+09 -1.558230e+09 3.859187e+03 -4.016120e+03 1.658732e+03
-3.103076e+09 -2.903080e+09 -3.063081e+09 3.536453e+03 -4.878245e+03 2.487436e+03
-3.380868e+09 -3.180842e+09 -3.340887e+09 -3.851155e+03 -5.651157e+03 7.203368e+02
-2.002396e+09 -1.802399e+09 -1.962396e+09 -3.826349e+03 1.951571e+03 8.216450e+02
-1.775482e+09 -1.575481e+09 -1.735481e+09 -2.169722e+03 1.004886e+03 3.420075e+02
-1.972827e+09 -1.772829e+09 -1.932826e+09 -2.497181e+03 6.281165e+02 2.414790e+02
-1.954411e+09 -1.754410e+09 -1.914409e+09 -2.027982e+03 4.870698e+02 2.869582e+02
-2.008210e+09 -1.808217e+09 -1.968211e+09 -3.426855e+03 2.148313e+03 8.222027e+02
-1.992587e+09 -1.792590e+09 -1.952587e+09 -4.321740e+03 -3.262889e+03 -1.445229e+03
-2.380991e+09 -2.180990e+09 -2.340990e+09 -2.925507e+03 1.174017e+03 7.422860e+02
-2.037711e+09 -1.837710e+09 -1.997711e+09 -5.206751e+02 -1.092681e+02 -6.228901e+01
-3.590657e+09 -3.390657e+09 -3.550656e+09 -1.723109e+03 3.081208e+02 9.482949e+01
-1.930690e+09 -1.730689e+09 -1.890689e+09 -5.161065e+02 -1.551716e+02 -2.934288e+01
-3.061947e+09 -2.861946e+09 -3.021947e+09 -8.750253e+02 -1.140386e+02 4.728225e+01
-2.930665e+09 -2.730662e+09 -2.890664e+09 3.726799e+03 2.131551e+03 -1.844824e+03
-3.291808e+09 -3.091806e+09 -3.251808e+09 3.451676e+03 1.287428e+03 -1.044920e+03
-1.600891e+09 -1.400891e+09 -1.560893e+09 -3.774930e+03 1.114123e+03 -2.473880e+03
-3.374091e+09 -3.174091e+09 -3.334091e+09 -2.724848e+03 1.274922e+03 7.462317e+02
-1.621812e+09 -1.421814e+09 -1.581811e+09 4.475817e+03 2.234436e+03 -9.640827e+02
-2.348827e+09 -2.148826e+09 -2.308826e+09 -2.031300e+03 7.138694e+02 3.641208e+02
-3.592465e+09 -3.392466e+09 -3.552468e+09 3.440964e+03 2.023066e+03 -1.031013e+03
-1.929369e+09 -1.729373e+09 -1.889369e+09 -2.265039e+03 8.323708e+02 1.484421e+02
-3.194578e+09 -2.994584e+09 -3.154579e+09 -2.726275e+02 2.654772e+02 -2.534123e+01
-1.690825e+09 -1.490832e+09 -1.650826e+09 3.348299e+02 4.616481e+02 -6.668128e+01
-3.297802e+09 -3.097809e+09 -3.257804e+09 -2.575481e+02 5.691134e+02 2.299032e+01
-1.957139e+09 -1.757137e+09 -1.917137e+09 -1.853870e+03 5.804522e+02 2.828466e+02
-2.018744e+09 -1.818744e+09 -1.978743e+09 -9.868040e+02 1.436580e+02 -8.817853e+01
-3.297195e+09 -3.097191e+09 -3.257196e+09 9.878534e+02 -1.937466e+03 1.810512e+03
-3.410264e+09 -3.210261e+09 -3.370264e+09 -2.645954e+03 3.921740e+02 8.692481e+02
-1.953999e+09 -1.753995e+09 -1.913997e+09 -2.451937e+02 -8.492822e+02 1.409681e+03
-3.301226e+09 -3.101224e+09 -3.261225e+09 -3.826162e+02 -1.737818e+02 -2.445543e+00
-3.047451e+09 -2.847449e+09 -3.007450e+09 -4.865140e+02 -1.958538e+02 2.255477e+01
-2.767412e+09 -2.567408e+09 -2.727411e+09 -2.991111e+02 -1.343890e+03 1.556644e+03
-2.497346e+09 -2.297342e+09 -2.457345e+09 1.679331e+03 -1.921718e+03 2.134545e+03
-3.187134e+09 -2.987130e+09 -3.147137e+09 1.541879e+03 -3.433965e+03 3.553137e+03
-1.576717e+09 -1.376716e+09 -1.536716e+09 -2.963775e+02 -3.223423e+02 6.787448e+01
-3.300956e+09 -3.100958e+09 -3.260957e+09 -4.378759e+02 -2.779822e+01 3.056317e+01
-3.293049e+09 -3.093050e+09 -3.253050e+09 -5.228727e+02 -3.878712e+01 4.428631e+01
-1.892285e+09 -1.692286e+09 -1.852286e+09 -5.346344e+02 -5.065499e+01 -1.820491e+01
-1.773070e+09 -1.573070e+09 -1.733070e+09 2.796792e+02 4.090613e+01 -5.952988e+01
-1.588614e+09 -1.388613e+09 -1.548613e+09 3.329565e+02 4.784367e+01 -4.126715e+01
-3.404401e+09 -3.204402e+09 -3.364402e+09 -6.326122e+02 -5.854658e+01 5.285721e+01
-2.993041e+09 -2.793040e+09 -2.953040e+09 -8.636127e+01 3.980534e+01 -7.351948e+01
-3.610341e+09 -3.410340e+09 -3.570340e+09 4.550306e+02 1.817973e+01 1.226904e+01
-2.729551e+09 -2.529550e+09 -2.689549e+09 -1.606695e+02 1.860825e+01 -6.471741e+01
-1.883928e+09 -1.683927e+09 -1.843926e+09 -1.750096e+02 5.716619e+01 -7.548415e+01
-3.413282e+09 -3.213281e+09 -3.373281e+09 4.461805e+02 2.808988e+01 8.515878e+00
-2.406496e+09 -2.206496e+09 -2.366496e+09 5.176060e+02 4.053916e+01 -3.584968e+01
-2.499189e+09 -2.299184e+09 -2.459186e+09 -2.294048e+02 5.666106e+00 3.266557e+02
-3.603034e+09 -3.403041e+09 -3.563043e+09 1.856339e+01 -5.182587e+03 6.216259e+02
-2.380052e+09 -2.180068e+09 -2.340065e+09 1.588092e+02 -1.192604e+04 1.249797e+03
-2.181674e+09 -1.981684e+09 -2.141678e+09 8.480886e+02 -5.378274e+03 3.462034e+02
-3.153058e+09 -2.953060e+09 -3.113050e+09 -4.754446e+03 3.273588e+03 -7.960438e+03
-2.187128e+09 -1.987135e+09 -2.147129e+09 -2.310021e+02 2.833345e+02 -3.168248e+01
-3.427421e+09 -3.227417e+09 -3.387419e+09 3.329180e+02 1.910117e+02 3.366085e+02
-2.999571e+09 -2.799578e+09 -2.959572e+09 -2.346649e+02 6.177724e+02 -5.699603e+01
-1.993249e+09 -1.793256e+09 -1.953250e+09 2.991616e+02 4.464969e+02 -5.133364e+01
-1.878914e+09 -1.678921e+09 -1.838915e+09 3.689043e+02 3.683125e+02 -4.379524e+01
-1.761415e+09 -1.561412e+09 -1.721414e+09 1.261588e+03 -2.216283e+02 -1.401754e+02
-2.683299e+09 -2.483296e+09 -2.643298e+09 9.637369e+02 -1.154360e+02 -2.147993e+02
-3.393267e+09 -3.193275e+09 -3.353272e+09 -1.375579e+02 2.112346e+03 -4.690599e+01
-2.070390e+09 -1.870390e+09 -2.030390e+09 2.243788e+03 -3.861125e+02 -1.284350e+03
-3.161493e+09 -2.961497e+09 -3.121495e+09 4.340258e+02 8.937822e+01 -5.615352e+02
-3.098702e+09 -2.898702e+09 -3.058702e+09 2.481832e+03 -5.243678e+02 -1.207725e+03
-3.095642e+09 -2.895641e+09 -3.055641e+09 1.881438e+03 -2.284759e+02 -6.610057e+02
-2.024941e+09 -1.824941e+09 -1.984941e+09 4.156519e+02 3.004099e+01 1.304633e+01
-3.613418e+09 -3.413419e+09 -3.573417e+09 -1.376413e+03 5.712006e+01 -6.122287e+01
-1.785676e+09 -1.585677e+09 -1.745675e+09 -1.585688e+03 1.623019e+02 -5.693378e+01
-3.329553e+09 -3.129556e+09 -3.289554e+09 -2.472534e+03 1.239632e+01 -2.044630e+03
-1.956864e+09 -1.756867e+09 -1.916864e+09 -1.955448e+03 2.638791e+02 4.678638e+01
-2.454404e+09 -2.254408e+09 -2.414407e+09 6.448362e+02 8.761037e+01 -1.059185e+03
-3.402758e+09 -3.202755e+09 -3.362756e+09 1.879487e+03 -5.914349e+02 -5.238232e+02
-2.630317e+09 -2.430314e+09 -2.590326e+09 4.256688e+03 -7.967691e+03 7.721247e+03
-2.057077e+09 -1.857074e+09 -2.017076e+09 1.437080e+03 -1.085322e+02 -3.847036e+02
-2.960856e+09 -2.760845e+09 -2.920856e+09 -7.268581e+02 -1.692738e+02 -3.296288e+03
-2.788021e+09 -2.588020e+09 -2.748029e+09 6.473353e+03 1.093538e+04 -6.441101e+03
-3.175557e+09 -2.975542e+09 -3.135561e+09 -2.245140e+03 -1.982780e+03 -3.453943e+03
-3.377584e+09 -3.177572e+09 -3.337581e+09 -2.551069e+03 -7.720785e+02 -1.222012e+03
-3.123439e+09 -2.923434e+09 -3.083435e+09 2.385687e+03 -1.152637e+03 -6.054050e+02
-3.583757e+09 -3.383746e+09 -3.543755e+09 -4.281378e+03 -1.993591e+03 -1.586925e+03
-3.583801e+09 -3.383798e+09 -3.543801e+09 -1.279437e+03 -4.728169e+02 5.916685e+02
-1.588845e+09 -1.388844e+09 -1.548844e+09 3.804384e+01 -6.627636e+02 4.341582e+02
-3.611396e+09 -3.411394e+09 -3.571395e+09 -3.505089e+02 -2.943210e+02 2.191829e+02
-2.577485e+09 -2.377483e+09 -2.537484e+09 -1.239562e+03 -3.010853e+02 2.833726e+02
-3.400862e+09 -3.200856e+09 -3.360860e+09 -4.005754e+02 3.824313e+02 9.277195e+02
-2.085145e+09 -1.885148e+09 -2.045148e+09 2.341141e+03 -6.033069e+02 -2.678479e+03
-1.582818e+09 -1.382817e+09 -1.542818e+09 -1.073762e+03 -3.467532e+02 1.943160e+02
-1.999174e+09 -1.799172e+09 -1.959174e+09 -1.145412e+03 -2.828427e+02 2.677363e+02
-1.582829e+09 -1.382832e+09 -1.542832e+09 1.670386e+03 3.291378e+01 -1.003904e+03
-3.372633e+09 -3.172632e+09 -3.332633e+09 -1.747997e+03 6.507250e+02 4.323374e+02
-1.586588e+09 -1.386593e+09 -1.546589e+09 -2.431320e+03 1.420190e+03 1.349987e+02
-1.614056e+09 -1.414055e+09 -1.574058e+09 3.559519e+03 -9.980337e+02 -2.005066e+03
-3.071505e+09 -2.871506e+09 -3.031505e+09 2.103144e+03 -4.243658e+02 -1.073642e+03
-3.349903e+09 -3.149908e+09 -3.309910e+09 -3.896573e+03 5.648281e+03 1.909537e+03
-3.589693e+09 -3.389694e+09 -3.549693e+09 -1.692005e+03 2.065732e+02 5.625440e+01
-2.042773e+09 -1.842775e+09 -2.002773e+09 -1.504156e+03 5.615772e+01 -3.370619e+01
-1.780693e+09 -1.580692e+09 -1.740692e+09 -3.360807e+03 8.927377e+02 8.359288e+02
-2.804314e+09 -2.604318e+09 -2.764317e+09 -3.028544e+03 2.741646e+03 7.495543e+02
-3.613418e+09 -3.413419e+09 -3.573417e+09 -1.253575e+03 1.176444e+02 -4.068458e+01
-3.160842e+09 -2.960846e+09 -3.120847e+09 -4.581127e+03 5.177254e+03 2.205635e+03
-1.780367e+09 -1.580394e+09 -1.740285e+09 3.399270e+04 4.881076e+04 9.207784e+04
-2.521126e+09 -2.321132e+09 -2.481131e+09 -7.027427e+03 6.338500e+03 3.022837e+03
-2.097165e+09 -1.897164e+09 -2.057166e+09 -2.902665e+03 4.606787e+02 2.240230e+01
-3.070758e+09 -2.870764e+09 -3.030770e+09 -5.305486e+03 1.032190e+04 2.887593e+03
-2.749225e+09 -2.549230e+09 -2.709229e+09 -4.619099e+03 5.085242e+03 2.109410e+03
-1.792595e+09 -1.592596e+09 -1.752594e+09 4.040638e+03 -2.957951e+03 2.075650e+03
-2.418372e+09 -2.218359e+09 -2.378372e+09 -8.374661e+03 4.784994e+03 7.245457e+03
-3.098378e+09 -2.898379e+09 -3.058379e+09 1.989377e+03 -1.954938e+03 1.126444e+03
-2.409518e+09 -2.209521e+09 -2.369520e+09 -3.868512e+03 2.458196e+03 1.136002e+03
-2.503998e+09 -2.304013e+09 -2.464012e+09 -4.209171e+03 -1.565265e+04 -1.507740e+03
-2.043771e+09 -1.843772e+09 -2.003772e+09 4.765726e+02 3.488564e+01 1.190445e+02
-3.603338e+09 -3.403339e+09 -3.563339e+09 5.981920e+02 9.909866e+00 5.010829e+00
-2.387861e+09 -2.187868e+09 -2.347865e+09 -3.707802e+03 3.990213e+03 1.092111e+03
-2.055990e+09 -1.856002e+09 -2.015995e+09 -5.520255e+03 9.634255e+03 2.752282e+03
-2.565545e+09 -2.365546e+09 -2.525546e+09 3.634731e+02 2.368929e+01 -1.340265e+00
-3.178748e+09 -2.978749e+09 -3.138748e+09 -2.017331e+03 5.643968e+02 2.712683e+02
-3.183625e+09 -2.983622e+09 -3.143624e+09 -1.995108e+02 2.488980e+02 1.934688e+02
-2.776796e+09 -2.576792e+09 -2.736799e+09 -4.800626e+03 5.238333e+03 4.127187e+03
-2.586398e+09 -2.386400e+09 -2.546399e+09 -3.255567e+03 2.216017e+03 6.991742e+02
-1.795988e+09 -1.595987e+09 -1.755986e+09 -1.393217e+03 1.789951e+02 -6.088084e+01
-3.559078e+09 -3.359085e+09 -3.519066e+09 4.146871e+03 4.471048e+03 1.081740e+04
-3.335057e+09 -3.135068e+09 -3.295054e+09 -6.689318e+03 -4.951221e+03 1.550021e+04
-3.595379e+09 -3.395384e+09 -3.555383e+09 -2.648623e+03 2.211973e+03 5.936817e+02
-2.297336e+09 -2.097320e+09 -2.257306e+09 1.506606e+04 1.253401e+04 1.936091e+04
-2.632436e+09 -2.432414e+09 -2.592455e+09 5.603544e+03 -9.282007e+03 -9.339137e+03
-3.404179e+09 -3.204163e+09 -3.364187e+09 2.578563e+03 -3.388794e+03 -1.039319e+04
-1.569177e+09 -1.369174e+09 -1.529175e+09 1.099547e+03 -1.340603e+03 1.082278e+03
-1.785255e+09 -1.585134e+09 -1.745163e+09 3.741141e+03 -5.205390e+04 1.019831e+04
-3.599488e+09 -3.399485e+09 -3.559488e+09 1.215395e+02 -8.721089e+02 9.708225e+02
-1.995935e+09 -1.795936e+09 -1.955935e+09 3.424748e+03 -3.470517e+03 2.428548e+03
-3.599489e+09 -3.399487e+09 -3.559489e+09 6.739331e+02 -1.106380e+03 9.964962e+02
-2.818698e+09 -2.618706e+09 -2.778722e+09 1.838022e+03 2.100480e+04 -3.972915e+03
-1.802031e+09 -1.601990e+09 -1.762126e+09 -2.430677e+04 2.273911e+04 -2.464799e+04
-3.565522e+09 -3.365527e+09 -3.525523e+09 -1.485536e+03 4.697397e+02 1.323317e+02
-3.016008e+09 -2.816011e+09 -2.976008e+09 -1.358607e+03 3.893486e+02 3.935527e+00
-1.998327e+09 -1.798251e+09 -1.958126e+09 -2.998425e+03 -6.811863e+04 -9.464856e+03
-1.818492e+09 -1.618489e+09 -1.778577e+09 -3.316800e+04 6.487376e+04 3.542849e+04
-2.592778e+09 -2.392785e+09 -2.552779e+09 -2.366026e+02 5.995949e+02 -4.968607e+01
-1.590771e+09 -1.390772e+09 -1.550770e+09 3.860763e+03 -3.029917e+03 2.036628e+03
-1.999799e+09 -1.799745e+09 -1.959862e+09 -7.996931e+03 2.845753e+04 -1.150047e+04
-3.404964e+09 -3.204948e+09 -3.364954e+09 -1.008165e+04 -1.171823e+04 -1.745954e+03
-3.597650e+09 -3.397650e+09 -3.557655e+09 1.320996e+03 -3.391244e+03 2.074315e+03
-3.583304e+09 -3.383288e+09 -3.543328e+09 -3.707234e+02 8.558735e+03 -6.987047e+03
-3.584506e+09 -3.384504e+09 -3.544509e+09 1.045976e+03 -3.027363e+03 2.415531e+03
-3.216431e+09 -3.016431e+09 -3.176431e+09 1.475178e+03 -3.953472e+01 -3.131187e+02
-3.186557e+09 -2.986557e+09 -3.146557e+09 6.726080e+02 2.924646e+01 -9.735437e+01
-3.206361e+09 -3.006355e+09 -3.166387e+09 -2.109991e+03 1.109292e+04 1.326495e+03
-3.607675e+09 -3.407677e+09 -3.567676e+09 8.562701e+02 -1.346580e+01 -9.852353e+01
-2.539745e+09 -2.339726e+09 -2.499778e+09 1.227954e+04 1.541118e+04 -2.233465e+04
-3.593581e+09 -3.393569e+09 -3.553538e+09 -6.018593e+03 -9.890010e+03 7.266494e+03
-3.180599e+09 -2.980611e+09 -3.140599e+09 -4.537462e+03 -3.187111e+03 9.899216e+03
-1.600742e+09 -1.400757e+09 -1.560751e+09 2.039488e+04 2.220816e+04 -1.235488e+04
-1.833260e+09 -1.633253e+09 -1.793283e+09 3.271050e+04 2.040136e+04 -3.097867e+04
-2.567751e+09 -2.367668e+09 -2.527729e+09 -2.413749e+04 -6.404424e+04 1.394287e+04
-3.409956e+09 -3.209924e+09 -3.369889e+09 -3.723355e+03 -3.158732e+04 -9.488048e+03
-3.391163e+09 -3.191133e+09 -3.351127e+09 2.376332e+03 -1.192801e+04 -1.112525e+04
-3.390594e+09 -3.190596e+09 -3.350595e+09 -1.004160e+03 -7.574299e+00 -1.229425e+02
-2.413204e+09 -2.213211e+09 -2.373207e+09 -3.415563e+03 2.792969e+03 9.354212e+02
-2.033111e+09 -1.833113e+09 -1.993113e+09 -1.330226e+03 -4.432932e+01 -1.269619e+02
-3.599949e+09 -3.399946e+09 -3.559950e+09 -1.002948e+03 -1.157428e+03 1.395799e+03
-2.766289e+09 -2.566286e+09 -2.726288e+09 -4.391021e+02 -5.427472e+02 7.856762e+02
-2.946734e+09 -2.746737e+09 -2.906736e+09 -1.217345e+03 9.071714e+01 -3.590784e+02
-2.429348e+09 -2.229338e+09 -2.389346e+09 1.852136e+03 -2.365423e+03 5.093529e+03
-3.577746e+09 -3.377744e+09 -3.537746e+09 -2.384427e+02 -7.844442e+02 8.532832e+02
-3.584804e+09 -3.384803e+09 -3.544803e+09 -2.022874e+03 5.756301e+02 4.392055e+02
-3.224713e+09 -3.024716e+09 -3.184715e+09 -9.754595e+02 4.475141e+01 -1.485640e+02
-3.584803e+09 -3.384803e+09 -3.544803e+09 -2.184323e+03 6.229905e+02 2.933854e+02
-1.960789e+09 -1.760790e+09 -1.920788e+09 -2.252172e+03 3.226420e+02 2.002825e+02
-3.391490e+09 -3.191492e+09 -3.351489e+09 -1.667483e+03 1.796124e+02 6.694208e+01
-3.208561e+09 -3.008562e+09 -3.168562e+09 -1.626006e+03 -1.403638e+01 -1.048743e+02
-2.642543e+09 -2.442545e+09 -2.602545e+09 -1.491640e+03 3.366133e+01 -2.842572e+01
-3.220170e+09 -3.020168e+09 -3.180169e+09 -5.839328e+02 -2.784281e+02 1.177796e+02
-2.598058e+09 -2.398056e+09 -2.558057e+09 1.936342e+02 -5.154235e+02 2.104601e+02
-1.947041e+09 -1.747043e+09 -1.907043e+09 -8.255663e+02 -2.919609e+01 -2.003106e+00
-2.637826e+09 -2.437827e+09 -2.597827e+09 -9.844503e+02 -8.303139e+01 7.549086e+01
-2.030686e+09 -1.830685e+09 -1.990685e+09 -7.801471e+02 -1.129497e+02 -1.306619e+01
-2.059625e+09 -1.859627e+09 -2.019627e+09 -1.010190e+03 -5.126709e+01 -3.552808e+01
-3.562552e+09 -3.362557e+09 -3.522553e+09 -1.345156e+03 4.276088e+02 4.144184e+01
-3.384783e+09 -3.184785e+09 -3.344785e+09 -9.060398e+02 9.393050e+00 2.419097e+01
-1.585882e+09 -1.385892e+09 -1.545884e+09 3.713514e+01 1.727892e+03 -6.690353e+01
-3.577284e+09 -3.377290e+09 -3.537286e+09 -1.628928e+03 6.864925e+02 7.558648e+01
-2.361456e+09 -2.161453e+09 -2.321455e+09 -5.382039e+02 -5.710860e+02 7.438581e+02
-1.768185e+09 -1.568183e+09 -1.728184e+09 2.513738e+02 -8.859070e+02 7.021500e+02
-1.787855e+09 -1.587853e+09 -1.747854e+09 4.983830e+01 -6.319080e+02 4.566418e+02
-2.595607e+09 -2.395608e+09 -2.555608e+09 -4.783290e+02 -4.483405e+01 6.885751e+01
-2.819412e+09 -2.619413e+09 -2.779413e+09 -9.375229e+02 -3.688726e+01 2.988198e+01
-1.948514e+09 -1.748525e+09 -1.908527e+09 -2.013396e+03 -1.486742e+03 6.676511e+03
-3.335059e+09 -3.135071e+09 -3.295057e+09 -9.029045e+02 -4.233891e+01 1.460073e+04
-3.218574e+09 -3.018575e+09 -3.178575e+09 -1.104107e+03 -9.418412e+01 4.948358e+01
-3.392610e+09 -3.192611e+09 -3.352611e+09 -1.123007e+03 -3.723913e+01 3.135963e+01
-3.591368e+09 -3.391372e+09 -3.551325e+09 -4.834696e+03 -5.425305e+03 2.062496e+04
-3.591376e+09 -3.391378e+09 -3.551329e+09 5.132986e+02 1.591720e+03 1.658053e+04
-2.614111e+09 -2.414111e+09 -2.574112e+09 -1.112223e+03 -1.098940e+02 6.938655e+01
-3.177166e+09 -2.977165e+09 -3.137166e+09 -1.356580e+03 -2.139555e+02 1.797033e+02
-2.882314e+09 -2.682316e+09 -2.842316e+09 6.992338e+02 1.802696e+01 -8.712804e+01
-2.454362e+09 -2.254363e+09 -2.414363e+09 5.195313e+02 5.049954e+01 -1.596443e+01
-3.595379e+09 -3.395386e+09 -3.555383e+09 -1.697819e+03 1.688075e+03 1.810882e+02
-1.586608e+09 -1.386617e+09 -1.546610e+09 7.517025e+02 1.564743e+03 -1.486890e+02
-1.981780e+09 -1.781784e+09 -1.941781e+09 -2.669373e+03 1.633090e+03 5.249308e+02
-2.520233e+09 -2.320238e+09 -2.480234e+09 -1.908375e+03 6.672688e+02 1.324361e+02
-1.589485e+09 -1.389492e+09 -1.549486e+09 -3.215199e+03 1.820851e+03 6.558962e+02
-1.992425e+09 -1.792423e+09 -1.952424e+09 -4.515956e+02 -3.948449e+02 2.576386e+02
-3.580487e+09 -3.380488e+09 -3.540487e+09 -2.183042e+03 5.812275e+02 1.948495e+02
-3.392293e+09 -3.192291e+09 -3.352292e+09 -7.824095e+02 -2.881936e+02 3.925782e+02
-3.160038e+09 -2.960041e+09 -3.120039e+09 -2.503021e+03 1.000154e+03 4.474885e+02
-3.580488e+09 -3.380488e+09 -3.540487e+09 -2.307558e+03 5.311584e+02 3.084253e+02
-1.994568e+09 -1.794566e+09 -1.954567e+09 -1.852996e+02 -3.932577e+02 3.594226e+02
-2.450554e+09 -2.250509e+09 -2.410525e+09 -9.634615e+03 3.358804e+04 -2.986946e+04
-1.853640e+09 -1.653622e+09 -1.813632e+09 -9.645002e+02 -1.912584e+03 -4.656862e+03
-3.179733e+09 -2.979731e+09 -3.139733e+09 -1.256555e+03 -2.850030e+02 5.809571e+02
-3.213584e+09 -3.013578e+09 -3.173538e+09 -7.833436e+03 -1.299951e+04 2.290712e+04
-1.811672e+09 -1.611657e+09 -1.771668e+09 -1.957748e+03 -5.499701e+02 5.435210e+03
-3.115450e+09 -2.915449e+09 -3.075449e+09 1.154979e+02 -4.331593e+02 2.437504e+02
-3.591931e+09 -3.391929e+09 -3.551931e+09 -7.801351e+02 -3.327450e+02 3.330218e+02
-1.597484e+09 -1.397462e+09 -1.557475e+09 1.020008e+04 -5.374703e+03 1.160355e+04
-2.460448e+09 -2.260435e+09 -2.420447e+09 -3.216737e+03 1.593742e+03 2.657123e+03
-3.577746e+09 -3.377742e+09 -3.537746e+09 -9.010434e+02 -3.932083e+02 7.215600e+02
-2.554440e+09 -2.354436e+09 -2.514439e+09 -1.132036e+03 -6.161136e+02 8.234619e+02
-3.411020e+09 -3.211014e+09 -3.371021e+09 -1.356612e+03 -8.993284e+02 2.148399e+03
-1.803139e+09 -1.603131e+09 -1.763138e+09 -5.307649e+03 3.885831e+03 -1.303278e+03
-1.771115e+09 -1.571117e+09 -1.731115e+09 -3.331009e+03 1.563301e+03 7.679418e+02
-2.219246e+09 -2.019249e+09 -2.179247e+09 -5.533977e+03 4.334335e+03 2.657846e+03
-1.765544e+09 -1.565547e+09 -1.725544e+09 -1.961403e+03 4.188000e+02 5.604600e+01
-2.603812e+09 -2.403818e+09 -2.563815e+09 -3.474976e+03 3.220928e+03 8.482683e+02
-3.254255e+09 -3.054254e+09 -3.214251e+09 -3.209414e+03 3.203194e+03 -2.751627e+03
-1.589853e+09 -1.389846e+09 -1.549849e+09 6.649301e+03 -4.082648e+03 5.735302e+03
-3.602622e+09 -3.402604e+09 -3.562590e+09 4.174406e+03 -7.834959e+03 -1.033406e+04
-2.604461e+09 -2.404445e+09 -2.564368e+09 1.930173e+04 1.993846e+04 2.240594e+04
-2.570411e+09 -2.370407e+09 -2.530410e+09 2.357099e+03 -9.240984e+02 -9.044452e+02
-1.806486e+09 -1.606486e+09 -1.766486e+09 -1.004315e+03 -8.959001e+01 -2.134348e+01
-1.639028e+09 -1.439027e+09 -1.599027e+09 -8.548366e+02 -1.990891e+02 4.301533e+01
-3.602014e+09 -3.402018e+09 -3.562015e+09 1.118809e+03 -1.910570e+02 -1.528312e+03
-3.607260e+09 -3.407266e+09 -3.567262e+09 -1.221554e+02 1.370664e+02 -1.805271e+03
-3.410628e+09 -3.210632e+09 -3.370628e+09 1.093855e+03 3.207116e+02 -2.206699e+03
-3.603631e+09 -3.403636e+09 -3.563633e+09 1.826689e+02 2.109736e+01 -1.126233e+03
-3.607262e+09 -3.407266e+09 -3.567263e+09 -5.525886e+02 2.064081e+02 -1.670245e+03
-3.591296e+09 -3.391299e+09 -3.551298e+09 -2.372873e+03 3.230467e+02 -7.636459e+02
-2.634621e+09 -2.434625e+09 -2.594624e+09 -1.653089e+03 3.547636e+02 -8.303332e+02
-3.601061e+09 -3.401064e+09 -3.561073e+09 -8.217052e+02 -7.856140e+03 8.332406e+02
-1.585282e+09 -1.385281e+09 -1.545281e+09 -7.110148e+02 -3.297072e+02 8.139609e+01
-3.591406e+09 -3.391405e+09 -3.551406e+09 -9.765115e+02 -2.137331e+02 1.777396e+02
-2.128562e+09 -1.928567e+09 -2.088564e+09 3.081262e+03 -9.236553e+02 -5.318879e+03
-3.593172e+09 -3.393163e+09 -3.553097e+09 -1.336347e+03 -9.232465e+03 1.152399e+04
-1.817850e+09 -1.617839e+09 -1.777857e+09 -5.160816e+03 -1.040756e+04 7.391216e+03
-2.150688e+09 -1.950694e+09 -2.110690e+09 3.659184e+03 -2.060105e+03 -8.897632e+03
-2.587380e+09 -2.387341e+09 -2.547411e+09 -1.320377e+04 6.648165e+03 1.092855e+04
-1.601481e+09 -1.401488e+09 -1.561482e+09 -3.521543e+03 2.963888e+03 6.487799e+02
-3.581105e+09 -3.381109e+09 -3.541107e+09 -2.287568e+03 9.572444e+02 2.316430e+02
-1.570651e+09 -1.370659e+09 -1.530652e+09 -9.746993e+02 1.408238e+03 -2.812399e+01
-3.216429e+09 -3.016433e+09 -3.176429e+09 1.155132e+03 -2.111675e+01 -2.470977e+03
-2.726131e+09 -2.526134e+09 -2.686131e+09 2.062171e+03 -5.338849e+02 -4.262172e+03
-3.578929e+09 -3.378926e+09 -3.538928e+09 -1.239327e+03 -2.421152e+02 4.514322e+02
-2.384294e+09 -2.184293e+09 -2.344293e+09 3.040228e+02 5.110032e+01 -3.351586e+01
-3.571798e+09 -3.371798e+09 -3.531799e+09 -1.952515e+03 2.017711e+01 1.561761e+01
-1.584578e+09 -1.384574e+09 -1.544576e+09 -6.243031e+02 -1.108528e+03 1.152577e+03
-3.583801e+09 -3.383798e+09 -3.543800e+09 -1.892835e+03 -9.454030e+01 5.749337e+02
-2.364291e+09 -2.164294e+09 -2.324291e+09 -2.778746e+03 1.379139e+03 4.585977e+02
-1.970812e+09 -1.770821e+09 -1.930814e+09 -4.507895e+03 4.717273e+03 1.821322e+03
-2.821976e+09 -2.621975e+09 -2.781976e+09 4.679083e+02 4.436298e+01 -2.604276e+01
-2.085416e+09 -1.885415e+09 -2.045415e+09 2.515078e+02 3.444722e+01 -2.663842e+01
-2.084173e+09 -1.884172e+09 -2.044172e+09 2.281283e+02 3.471809e+01 -3.398074e+01
-2.566246e+09 -2.366255e+09 -2.526249e+09 -8.233104e+02 2.035176e+03 2.191558e+02
-3.601984e+09 -3.401983e+09 -3.561986e+09 -3.440003e+03 2.684397e+03 1.703162e+03
-1.605064e+09 -1.404920e+09 -1.564879e+09 3.267249e+04 -1.098016e+05 1.333528e+04
-1.594446e+09 -1.394442e+09 -1.554440e+09 -2.100575e+04 1.234508e+04 1.272964e+04
-2.186908e+09 -1.986907e+09 -2.146907e+09 3.712902e+02 7.260316e+01 -7.683515e+01
-2.644012e+09 -2.444011e+09 -2.604011e+09 2.097329e+01 7.909738e+01 -3.744793e+01
-3.365629e+09 -3.165629e+09 -3.325629e+09 3.831094e+02 2.711459e+01 -3.915883e+01
-3.596111e+09 -3.396111e+09 -3.556085e+09 -9.486162e+02 -1.218959e+03 -1.621138e+04
-3.192438e+09 -2.992437e+09 -3.152437e+09 3.489692e+02 4.436795e+01 -2.868298e+01
-3.605971e+09 -3.405961e+09 -3.565887e+09 2.229199e+03 1.179368e+04 8.490063e+03
-3.000259e+09 -2.800258e+09 -2.960258e+09 7.770636e+01 2.053370e+01 -4.175579e+01
-2.518823e+09 -2.318822e+09 -2.478822e+09 1.883420e+02 5.032845e+01 -2.366554e+01
-1.673113e+09 -1.473117e+09 -1.633117e+09 -1.552382e+03 4.472639e+01 -6.265696e+02
-1.975729e+09 -1.775730e+09 -1.935730e+09 -1.097427e+03 -3.016964e+01 -3.417987e+01
-1.559191e+09 -1.359191e+09 -1.519192e+09 -2.026378e+03 3.870726e+01 -2.231084e+01
-3.513257e+09 -3.313256e+09 -3.473256e+09 9.947347e+01 4.949378e+00 -4.656804e+01
-3.580585e+09 -3.380583e+09 -3.540585e+09 -1.834907e+03 -6.276809e+01 2.039637e+02
-3.179391e+09 -2.979401e+09 -3.139405e+09 5.048448e+03 1.062141e+04 -3.150523e+03
-1.588307e+09 -1.388314e+09 -1.548305e+09 1.787210e+04 1.109130e+04 -8.351398e+03
-3.588115e+09 -3.388114e+09 -3.548122e+09 4.192980e+03 5.790753e+03 -3.060263e+03
-3.070633e+09 -2.870638e+09 -3.030635e+09 3.088466e+03 1.634188e+03 -5.911455e+02
-3.258204e+09 -3.058193e+09 -3.218216e+09 -3.790885e+03 -5.397483e+03 -2.256555e+03
-1.984934e+09 -1.784933e+09 -1.944934e+09 3.055584e+02 2.749397e+01 -4.179918e+01
-2.793870e+09 -2.593869e+09 -2.753869e+09 3.952513e+02 2.588765e+01 -4.873469e+01
-3.395732e+09 -3.195735e+09 -3.355734e+09 -3.968010e+02 7.214906e+00 -1.192364e+01
-3.205877e+09 -3.005874e+09 -3.165881e+09 5.356721e+03 4.509289e+03 -3.380881e+03
-1.581071e+09 -1.381085e+09 -1.541070e+09 1.301354e+04 8.028110e+03 -4.293474e+03
-1.776533e+09 -1.576536e+09 -1.736536e+09 -5.968429e+02 -2.852706e+01 2.433365e+01
-2.145995e+09 -1.945999e+09 -2.105998e+09 -5.490145e+02 1.345097e+02 -5.611989e+02
-3.184586e+09 -2.984586e+09 -3.144587e+09 -2.623354e+03 4.794252e+02 -2.719991e+02
-2.779042e+09 -2.579040e+09 -2.739041e+09 -9.954292e+02 -4.916750e+02 4.482824e+02
-3.176517e+09 -2.976515e+09 -3.136517e+09 -1.620110e+03 -2.936802e+02 3.128828e+02
-3.056484e+09 -2.856488e+09 -3.016488e+09 -1.427086e+03 2.312323e+02 -3.706064e+02
-1.577370e+09 -1.377369e+09 -1.537369e+09 -8.020256e+02 -2.772966e+02 8.908810e+01
-2.542411e+09 -2.342415e+09 -2.502414e+09 -1.386560e+03 3.637215e+02 -7.910487e+02
-1.772351e+09 -1.572354e+09 -1.732354e+09 -1.053506e+03 3.963082e+00 -8.688742e+01
-3.609398e+09 -3.409379e+09 -3.569371e+09 1.407556e+03 1.040356e+04 -3.970713e+02
-1.605047e+09 -1.404975e+09 -1.564830e+09 1.752361e+04 -6.938465e+03 1.069309e+05
-2.068880e+09 -1.868891e+09 -2.028893e+09 9.262216e+03 5.459473e+03 1.158942e+04
-2.300037e+09 -2.100039e+09 -2.260039e+09 -8.203562e+02 -6.129856e+01 -3.370679e+01
-2.210983e+09 -2.010989e+09 -2.170984e+09 -6.865295e+02 3.360763e+02 -1.215057e+02
-3.595380e+09 -3.395385e+09 -3.555383e+09 -2.475758e+03 1.819975e+03 5.748273e+02
-3.384039e+09 -3.184046e+09 -3.344042e+09 -1.640097e+03 1.713704e+03 2.443723e+02
-2.957372e+09 -2.757375e+09 -2.917374e+09 -1.592934e+03 9.366466e+01 -4.276847e+02
-3.102619e+09 -2.902622e+09 -3.062621e+09 -1.210808e+03 1.319543e+02 -1.606641e+02
-1.570650e+09 -1.370658e+09 -1.530652e+09 -1.862767e+03 1.378808e+03 2.707174e+02
-3.076342e+09 -2.876348e+09 -3.036343e+09 -1.202967e+03 5.024779e+02 2.430129e+01
-1.887953e+09 -1.687953e+09 -1.847954e+09 9.737535e+02 7.139876e+01 -1.042052e+02
-3.223407e+09 -3.023410e+09 -3.183409e+09 -8.137317e+02 6.464426e+01 -3.952136e+02
-3.106426e+09 -2.906426e+09 -3.066426e+09 9.237430e+02 3.454901e+01 -8.187908e+01
-1.791297e+09 -1.591295e+09 -1.751296e+09 7.811765e+02 1.709645e+02 -1.566062e+02
-1.985840e+09 -1.785838e+09 -1.945839e+09 1.062718e+03 -7.156564e+01 -2.407098e+02
-2.390520e+09 -2.190519e+09 -2.350520e+09 8.253174e+02 1.045772e+02 -2.040096e+02
-1.983396e+09 -1.783398e+09 -1.943398e+09 9.908364e+01 1.126220e+01 1.876475e+01
-1.695323e+09 -1.495324e+09 -1.655324e+09 2.070843e+02 2.977278e+01 3.829796e+01
-1.772646e+09 -1.572648e+09 -1.732648e+09 -1.209343e+03 9.247140e+00 -2.035459e+02
-3.610016e+09 -3.410017e+09 -3.570017e+09 1.649598e+03 -1.461177e+02 -5.524678e+02
-2.760953e+09 -2.560956e+09 -2.720955e+09 -5.635357e+02 1.770089e+02 -2.502367e+02
-3.601870e+09 -3.401872e+09 -3.561871e+09 1.100267e+03 -7.618824e+01 -3.401243e+02
-3.591631e+09 -3.391634e+09 -3.551632e+09 1.170989e+03 -1.190759e+02 -8.086346e+02
-3.597308e+09 -3.397310e+09 -3.557308e+09 1.972148e+03 -3.509685e+02 -1.201886e+03
-3.605233e+09 -3.405221e+09 -3.565232e+09 5.087003e+03 -2.993333e+03 1.357870e+03
-2.415165e+09 -2.215129e+09 -2.375178e+09 3.244372e+03 -1.117417e+02 -1.101427e+04
-3.607698e+09 -3.407699e+09 -3.567689e+09 2.749942e+03 -3.451246e+03 -8.529751e+03
-3.174680e+09 -2.974640e+09 -3.134674e+09 -6.775975e+03 -1.757199e+04 -1.385229e+04
-3.589775e+09 -3.389763e+09 -3.549782e+09 -1.306241e+02 3.229660e+03 4.142658e+03
-2.765720e+09 -2.565704e+09 -2.725722e+09 8.838956e+01 2.995910e+03 7.620009e+03
-3.384493e+09 -3.184496e+09 -3.344495e+09 -5.997624e+02 2.711447e+01 -3.205650e+02
-1.597723e+09 -1.397727e+09 -1.557727e+09 -3.120236e+02 6.373278e+01 -3.448877e+02
-1.580902e+09 -1.380907e+09 -1.540907e+09 -8.643873e+02 8.221388e+01 -9.463115e+02
-2.189355e+09 -1.989359e+09 -2.149358e+09 2.057482e+02 -4.414400e+01 -5.201011e+02
-3.087512e+09 -2.887513e+09 -3.047513e+09 -1.160128e+03 -5.264173e+01 3.363930e+00
-1.751355e+09 -1.551355e+09 -1.711356e+09 -1.690892e+03 -2.344302e+02 1.592874e+02
-2.330457e+09 -2.130457e+09 -2.290458e+09 -2.312197e+03 3.341818e+02 -1.315241e+02
-3.597761e+09 -3.397761e+09 -3.557762e+09 -2.361332e+03 5.009986e+01 4.664973e+01
-3.591132e+09 -3.391130e+09 -3.551134e+09 -3.085500e+03 -2.491301e+02 7.222906e+02
-3.510327e+09 -3.310325e+09 -3.470327e+09 -2.456940e+03 1.576427e+02 5.356310e+02
-3.595379e+09 -3.395365e+09 -3.555291e+09 -6.397196e+03 1.023557e+04 -1.260429e+04
-3.104121e+09 -2.904122e+09 -3.064122e+09 -9.999024e+02 -6.607749e+01 1.810063e+01
-3.605968e+09 -3.405960e+09 -3.565887e+09 2.691988e+03 1.174432e+04 1.027089e+04
-2.447745e+09 -2.247729e+09 -2.407703e+09 -1.264859e+04 -2.730408e+04 2.795169e+04
-2.717120e+09 -2.517119e+09 -2.677120e+09 -1.196462e+03 -1.010134e+02 5.763017e+00
-3.423561e+09 -3.223561e+09 -3.383561e+09 -1.061324e+03 -7.553950e+01 7.034355e+01
-3.413828e+09 -3.213834e+09 -3.373833e+09 -3.039414e+03 2.825060e+03 9.471358e+02
-1.987766e+09 -1.787767e+09 -1.947767e+09 -8.708140e+02 -8.095158e+01 6.940250e+01
-3.580331e+09 -3.380333e+09 -3.540332e+09 -2.696443e+03 1.161885e+03 3.705806e+02
-3.601982e+09 -3.401983e+09 -3.561986e+09 -3.291568e+03 2.936176e+03 1.270105e+03
-1.787332e+09 -1.587332e+09 -1.747332e+09 -9.216010e+02 -1.282289e+02 7.026201e+01
-1.777902e+09 -1.577933e+09 -1.737913e+09 -2.713957e+02 -1.752801e+04 4.294820e+02
-2.611938e+09 -2.411943e+09 -2.571950e+09 7.194005e+03 -1.216385e+04 5.614706e+03
-1.779623e+09 -1.579617e+09 -1.739620e+09 -2.843070e+02 -3.787380e+02 2.238623e+03
-3.384331e+09 -3.184331e+09 -3.344332e+09 -2.262687e+03 3.913464e+01 2.292850e+02
-3.056677e+09 -2.856677e+09 -3.016678e+09 -2.193492e+03 1.812967e+01 1.410230e+02
-2.615526e+09 -2.415519e+09 -2.575525e+09 3.202883e+02 -2.062089e+03 2.776164e+03
-3.580585e+09 -3.380583e+09 -3.540584e+09 -1.495692e+03 -2.349381e+02 1.986718e+02
-1.559192e+09 -1.359191e+09 -1.519193e+09 -1.404359e+03 -3.739323e+02 4.850906e+02
-1.774982e+09 -1.574980e+09 -1.734982e+09 -1.288521e+03 -2.876114e+02 3.399630e+02
-2.789643e+09 -2.589641e+09 -2.749642e+09 -8.400281e+02 -1.196620e+02 -1.615737e+01
-1.960444e+09 -1.760460e+09 -1.920451e+09 1.899060e+03 -1.039599e+04 1.448331e+03
-3.597509e+09 -3.397511e+09 -3.557511e+09 -3.169119e+03 2.050686e+03 1.105116e+03
-1.602849e+09 -1.402872e+09 -1.562863e+09 1.689656e+04 -2.465220e+04 1.345037e+04
-2.034187e+09 -1.834186e+09 -1.994195e+09 5.454531e+03 -1.418180e+04 9.471932e+03
-3.596494e+09 -3.396501e+09 -3.556499e+09 -1.360658e+03 2.234724e+03 3.963896e+02
-2.805274e+09 -2.605280e+09 -2.765277e+09 -3.579601e+03 3.296963e+03 1.373731e+03
-1.589485e+09 -1.389494e+09 -1.549487e+09 -2.040358e+03 2.245398e+03 1.810176e+02
-2.536149e+09 -2.336155e+09 -2.496151e+09 -1.711010e+03 8.948802e+02 4.484517e+01
-1.594076e+09 -1.394086e+09 -1.554078e+09 -4.501041e+03 3.983231e+03 1.282140e+03
-3.596792e+09 -3.396783e+09 -3.556806e+09 -1.987499e+03 -6.795177e+03 3.319808e+03
-3.612385e+09 -3.412374e+09 -3.572302e+09 -1.072653e+03 3.233592e+03 2.256600e+03
-2.637440e+09 -2.437440e+09 -2.597448e+09 2.116546e+03 -1.109808e+04 7.034945e+03
-2.035423e+09 -1.835383e+09 -1.995404e+09 2.216838e+03 -2.335230e+04 -5.269147e+03
-3.606244e+09 -3.406238e+09 -3.566253e+09 -8.584483e+02 -4.330050e+03 4.503760e+03
-3.592411e+09 -3.392394e+09 -3.552399e+09 4.108977e+03 4.232974e+03 -9.095784e+02
-3.400285e+09 -3.200279e+09 -3.360293e+09 -5.442147e+02 -4.308281e+03 4.138838e+03
-2.615769e+09 -2.415768e+09 -2.575773e+09 2.749681e+03 -6.216570e+03 5.416576e+03
-2.567802e+09 -2.367803e+09 -2.527803e+09 -8.584317e+02 -8.896306e+01 5.648828e+01
-2.582757e+09 -2.382756e+09 -2.542757e+09 -8.408205e+02 -1.069212e+02 -1.321349e+01
-2.449431e+09 -2.249432e+09 -2.409432e+09 -1.118159e+03 -7.971641e+01 -1.371201e+01
-1.772868e+09 -1.572869e+09 -1.732869e+09 -1.105957e+03 -1.220673e+02 6.634430e+01
-1.986777e+09 -1.786791e+09 -1.946785e+09 4.272568e+03 -1.521202e+04 3.831801e+03
-3.396400e+09 -3.196407e+09 -3.356403e+09 1.942466e+03 1.257822e+03 -3.796498e+02
-1.579687e+09 -1.379695e+09 -1.539689e+09 4.059537e+03 2.702379e+03 -5.816521e+02
-2.922457e+09 -2.722458e+09 -2.882457e+09 3.547801e+03 1.471094e+03 -6.383984e+02
-3.602347e+09 -3.402348e+09 -3.562358e+09 1.186809e+03 -7.315418e+03 2.784491e+03
-2.101459e+09 -1.901473e+09 -2.061472e+09 -2.760823e+03 -1.692128e+04 -1.741473e+03
-2.398739e+09 -2.198753e+09 -2.358750e+09 4.496631e+03 -1.184851e+04 3.192913e+03
-1.591249e+09 -1.391274e+09 -1.551255e+09 -4.541737e+03 -1.184694e+04 -1.257879e+03
-3.100455e+09 -2.900464e+09 -3.060462e+09 1.215472e+03 -4.858099e+03 1.196641e+03
-2.356761e+09 -2.156777e+09 -2.316770e+09 1.891420e+03 -9.243425e+03 1.679155e+03
-3.581099e+09 -3.381107e+09 -3.541103e+09 -5.013835e+02 1.252611e+03 1.245276e+02
-3.579703e+09 -3.379710e+09 -3.539706e+09 -8.481574e+02 1.033580e+03 6.273967e+01
-1.768966e+09 -1.568980e+09 -1.728971e+09 3.271230e+03 -9.026464e+03 2.059762e+03
-2.789166e+09 -2.589174e+09 -2.749169e+09 -1.825987e+03 1.980985e+03 4.326861e+02
-3.596035e+09 -3.396042e+09 -3.556037e+09 -7.984638e+02 4.882485e+02 9.830052e+01
-2.582305e+09 -2.382315e+09 -2.542309e+09 1.090965e+03 2.582868e+03 -2.510787e+02
-3.591631e+09 -3.391634e+09 -3.551632e+09 1.279587e+03 -1.144150e+02 -1.016372e+03
-3.198964e+09 -2.998965e+09 -3.158965e+09 1.274324e+03 1.956197e+01 -3.346507e+02
-1.867232e+09 -1.667250e+09 -1.827254e+09 2.685857e+03 -2.130650e+04 4.384937e+03
-3.394998e+09 -3.194997e+09 -3.355007e+09 8.856006e+02 -6.873559e+03 4.192648e+03
-2.030969e+09 -1.830967e+09 -1.990972e+09 6.291028e+03 -8.994992e+03 7.805084e+03
-2.079578e+09 -1.879588e+09 -2.039595e+09 6.275874e+03 -2.232616e+04 7.300200e+03
-1.600756e+09 -1.400768e+09 -1.560763e+09 1.424816e+04 -1.520773e+04 1.056570e+04
-2.262897e+09 -2.062888e+09 -2.222894e+09 -1.503240e+03 -1.551525e+02 -2.675576e+03
-2.745357e+09 -2.545359e+09 -2.705359e+09 -8.947256e+02 -9.007803e+01 3.756263e+01
-2.366861e+09 -2.166863e+09 -2.326862e+09 -8.411687e+02 -6.744792e+01 -5.537312e+00
-3.551639e+09 -3.351635e+09 -3.511636e+09 5.217392e+03 1.473992e+03 1.581104e+03
-2.359355e+09 -2.159355e+09 -2.319355e+09 -9.176150e+02 -1.082533e+02 3.740356e+01
-2.329143e+09 -2.129145e+09 -2.289145e+09 -9.215238e+02 -8.259583e+01 2.407983e+01
-3.191601e+09 -2.991618e+09 -3.151585e+09 4.639190e+02 -5.832425e+02 2.501852e+04
-2.560549e+09 -2.360551e+09 -2.520551e+09 -5.713628e+02 -5.120531e+01 5.484636e+01
-1.746484e+09 -1.546487e+09 -1.706486e+09 -6.015679e+02 -2.400931e+01 -5.492101e+01
-1.585881e+09 -1.385890e+09 -1.545883e+09 -8.306435e+02 1.545379e+03 1.468334e+02
-1.743959e+09 -1.543961e+09 -1.703961e+09 -6.800810e+02 -4.368674e+01 8.788876e+01
-2.540114e+09 -2.340116e+09 -2.500116e+09 -7.260766e+02 -1.484961e+01 -4.725988e+01
-2.526175e+09 -2.326176e+09 -2.486176e+09 -1.029215e+03 -8.909984e+01 3.505195e+01
-3.193784e+09 -2.993793e+09 -3.153791e+09 -3.657148e+03 5.146656e+03 1.540672e+03
-1.969248e+09 -1.769250e+09 -1.929250e+09 -8.379461e+02 -3.730924e+01 1.215597e+00
-3.367041e+09 -3.167044e+09 -3.327043e+09 -7.665494e+02 -3.395369e+01 -1.196626e+01
-1.772760e+09 -1.572759e+09 -1.732760e+09 -7.588573e+02 -2.203088e+02 1.027084e+02
-2.366424e+09 -2.166423e+09 -2.326423e+09 -1.042679e+03 -2.665052e+02 1.255109e+02
-2.216035e+09 -2.016036e+09 -2.176036e+09 -4.441286e+02 -2.564337e+01 -4.767113e+00
-1.595456e+09 -1.395256e+09 -1.555139e+09 -5.022189e+04 -1.556126e+05 9.724303e+03
-2.572539e+09 -2.372539e+09 -2.532539e+09 -9.883622e+02 -9.741391e+01 2.614037e+01
-3.595591e+09 -3.395573e+09 -3.555563e+09 -3.079177e+03 9.768864e+03 -4.827042e+03
-2.350879e+09 -2.150879e+09 -2.310880e+09 -1.307929e+03 -1.493021e+02 9.734472e+01
-2.617043e+09 -2.417043e+09 -2.577043e+09 -1.375088e+03 -1.253193e+02 2.151024e+01
-3.173888e+09 -2.973895e+09 -3.133894e+09 4.580141e+03 4.943477e+03 -1.553338e+03
-2.460328e+09 -2.260340e+09 -2.420333e+09 -2.115862e+03 4.923340e+03 5.665527e+02
-3.609490e+09 -3.409499e+09 -3.569498e+09 -1.145648e+03 3.679083e+03 2.781583e+02
-1.790170e+09 -1.590169e+09 -1.750169e+09 1.006972e+03 -9.018677e+02 6.669570e+02
-3.571798e+09 -3.371798e+09 -3.531799e+09 -1.911186e+03 -7.225863e+01 1.325465e+01
-3.181423e+09 -2.981423e+09 -3.141423e+09 -1.037466e+03 -1.815767e+02 1.172367e+02
-3.395471e+09 -3.195470e+09 -3.355471e+09 -1.228466e+03 -1.184122e+02 1.889508e+02
-3.619703e+09 -3.419706e+09 -3.579705e+09 3.408119e+02 2.001168e+01 5.113580e+01
-3.598843e+09 -3.398846e+09 -3.558845e+09 3.176779e+02 1.969915e+00 -3.217756e+01
-3.347439e+09 -3.147438e+09 -3.307439e+09 -1.103172e+03 -9.646875e+01 4.599777e+01
-3.248300e+09 -3.048299e+09 -3.208300e+09 -9.979460e+02 -9.512294e+01 3.251029e+01
-2.620325e+09 -2.420326e+09 -2.580326e+09 2.425684e+02 3.311676e+01 4.618674e+01
-3.565879e+09 -3.365878e+09 -3.525878e+09 3.683731e+02 2.156102e+01 -4.010593e+01
-2.537116e+09 -2.337115e+09 -2.497115e+09 -6.003993e+02 -1.550421e+02 4.476680e+01
-1.814178e+09 -1.614181e+09 -1.774177e+09 4.582121e+03 2.210229e+03 -1.116290e+03
-3.604901e+09 -3.404900e+09 -3.564901e+09 5.832826e+02 1.610474e+01 -2.179518e+01
-3.029378e+09 -2.829378e+09 -2.989378e+09 4.410358e+02 2.824419e+01 -1.288276e+01
-2.605903e+09 -2.405896e+09 -2.565899e+09 1.582702e+02 -2.958985e+02 5.701373e+02
-3.596330e+09 -3.396319e+09 -3.556327e+09 1.641998e+03 -6.123082e+02 1.578007e+03
-1.594447e+09 -1.394415e+09 -1.554430e+09 -1.715213e+04 1.309028e+03 1.569125e+04
-3.400826e+09 -3.200826e+09 -3.360826e+09 -1.337440e+03 -7.676731e+01 6.735183e+01
-3.188142e+09 -2.988143e+09 -3.148143e+09 -1.391792e+03 -7.871020e+01 4.478148e+01
-2.331751e+09 -2.131751e+09 -2.291752e+09 -1.380653e+03 -7.578656e+01 -5.926982e+01
-2.824389e+09 -2.624384e+09 -2.784387e+09 -4.915750e+03 3.738665e+03 -1.541450e+03
-2.455951e+09 -2.255925e+09 -2.415928e+09 -1.421800e+04 1.186438e+04 -1.222815e+04
-2.265471e+09 -2.065473e+09 -2.225473e+09 -1.627791e+01 2.475044e+00 7.663624e+00
-2.644374e+09 -2.444376e+09 -2.604376e+09 -1.328961e+03 -1.823979e+01 -9.608686e+01
-3.029220e+09 -2.829232e+09 -2.989230e+09 -8.117666e+02 6.069878e+03 3.792674e+02
-2.381353e+09 -2.181353e+09 -2.341353e+09 -1.329770e+03 -2.398449e+02 1.302787e+02
-1.588746e+09 -1.388757e+09 -1.548749e+09 -2.246238e+03 2.542272e+03 4.901609e+02
-3.587815e+09 -3.387824e+09 -3.547821e+09 1.031509e+02 3.281249e+03 -7.810150e+01
-3.596495e+09 -3.396503e+09 -3.556499e+09 -5.371052e+02 2.288201e+03 1.719838e+02
-3.202000e+09 -3.002001e+09 -3.162001e+09 -1.712783e+03 -1.756235e+01 4.534660e+01
-3.407474e+09 -3.207474e+09 -3.367475e+09 -1.550860e+03 -1.344441e+02 1.704065e+02
-3.424053e+09 -3.224053e+09 -3.384054e+09 -1.032300e+03 -4.911609e+01 -4.936764e+01
-3.188042e+09 -2.988043e+09 -3.148043e+09 -8.337850e+02 -7.288363e+01 1.665258e+01
-2.132354e+09 -1.932354e+09 -2.092355e+09 -9.851083e+02 -1.248537e+02 1.333913e+01
-1.565340e+09 -1.365342e+09 -1.525342e+09 1.774735e+02 2.970924e+01 3.531353e+01
-3.427780e+09 -3.227780e+09 -3.387780e+09 -1.400505e+03 -1.068189e+02 -1.511419e+01
-3.075858e+09 -2.875860e+09 -3.035860e+09 -1.188649e+03 -2.305720e+01 -2.715950e+01
-3.119380e+09 -2.919382e+09 -3.079381e+09 -7.674778e+02 -3.383871e+01 -6.700466e+01
-2.789712e+09 -2.589713e+09 -2.749713e+09 -1.377271e+03 -1.261828e+02 -3.624927e+00
-3.109122e+09 -2.909121e+09 -3.069122e+09 -1.182192e+03 -1.269207e+02 6.168754e+01
-1.763189e+09 -1.563190e+09 -1.723190e+09 -1.147527e+03 -1.058654e+02 1.099931e+02
-2.295753e+09 -2.095755e+09 -2.255755e+09 1.374665e+02 6.981843e+00 1.611676e+00
-2.251170e+09 -2.051171e+09 -2.211171e+09 -3.326863e+02 -1.245457e+01 1.628355e+01
-2.691293e+09 -2.491295e+09 -2.651295e+09 -7.632999e+02 -1.215542e+01 -8.038780e+01
-2.024094e+09 -1.824097e+09 -1.984097e+09 -1.750499e+02 5.049594e+00 -2.241702e+02
-2.800808e+09 -2.600810e+09 -2.760810e+09 -1.636099e+03 -1.000656e+02 3.170071e+01
-1.688352e+09 -1.488353e+09 -1.648353e+09 -4.450363e+02 -5.247700e+01 3.151469e+01
-1.978098e+09 -1.778098e+09 -1.938098e+09 -9.188568e+02 -9.228988e+01 3.320166e+00
-2.831792e+09 -2.631793e+09 -2.791793e+09 -1.092238e+03 -4.085141e+01 2.854304e+01
-2.576292e+09 -2.376292e+09 -2.536292e+09 -9.356562e+02 -8.056358e+01 -2.697565e+00
-3.588171e+09 -3.388169e+09 -3.548170e+09 -1.278335e+03 -1.237933e+02 6.948867e+01
-3.586157e+09 -3.386154e+09 -3.546172e+09 -1.163792e+03 -9.442835e+03 1.585609e+03
-1.972164e+09 -1.772173e+09 -1.932166e+09 1.310572e+02 1.106643e+03 1.569122e+02
-1.602289e+09 -1.402290e+09 -1.562290e+09 -1.061333e+03 -9.369563e+01 6.834537e+01
-3.183324e+09 -2.983333e+09 -3.143329e+09 -1.781929e+02 2.044738e+03 -1.887051e+01
-1.588747e+09 -1.388759e+09 -1.548750e+09 -9.306359e+02 2.849267e+03 3.830702e+01
-3.609492e+09 -3.409499e+09 -3.569498e+09 -1.563157e+03 3.624368e+03 3.463450e+02
-3.609123e+09 -3.409116e+09 -3.569137e+09 -2.505700e+03 -8.484118e+03 -3.240492e+03
-3.164706e+09 -2.964705e+09 -3.124706e+09 -1.292314e+03 -2.600878e+02 2.269129e+02
-3.387626e+09 -3.187624e+09 -3.347625e+09 -1.285385e+03 -1.820306e+02 2.607923e+02
-1.993701e+09 -1.793700e+09 -1.953701e+09 -1.324344e+03 -1.291676e+02 5.056369e+01
-2.372200e+09 -2.172198e+09 -2.332199e+09 -1.330978e+03 -3.102737e+02 2.018977e+02
-1.783740e+09 -1.583739e+09 -1.743739e+09 -6.760786e+02 -9.439145e+01 -6.215548e+01
-1.764950e+09 -1.564951e+09 -1.724951e+09 -7.455312e+02 -9.062662e+01 -4.144874e+00
-2.634579e+09 -2.434581e+09 -2.594580e+09 4.428419e+02 5.214981e+01 7.728041e+00
-1.651296e+09 -1.451298e+09 -1.611298e+09 -3.608843e+02 -3.828798e+01 5.310162e+01
-2.743843e+09 -2.543843e+09 -2.703843e+09 -9.072936e+02 -6.848685e+01 -8.008438e+00
-2.994511e+09 -2.794513e+09 -2.954512e+09 -2.458337e+02 -1.890599e+01 1.596653e+01
-2.065528e+09 -1.865529e+09 -2.025529e+09 -5.913776e+02 -2.865014e+01 7.454792e+00
-1.951232e+09 -1.751234e+09 -1.911234e+09 -3.283013e+02 -3.329488e+01 1.063807e+01
-1.835295e+09 -1.635295e+09 -1.795295e+09 -7.580092e+02 -1.509799e+02 4.216393e+01
-2.036638e+09 -1.836637e+09 -1.996638e+09 -1.018312e+03 -1.362688e+02 5.310938e+01
-3.128777e+09 -2.928777e+09 -3.088777e+09 -8.010931e+02 -7.172972e+01 1.370257e+01
-2.178771e+09 -1.978770e+09 -2.138771e+09 -9.954621e+02 -1.062449e+02 1.794202e+01
-1.595501e+09 -1.395537e+09 -1.555522e+09 -3.465057e+03 -2.363110e+04 -6.161830e+02
-2.023373e+09 -1.823372e+09 -1.983372e+09 -8.160699e+02 -1.330790e+02 2.386306e+01
-1.582741e+09 -1.382618e+09 -1.542680e+09 2.674955e+04 6.200657e+04 -2.894207e+03
-1.739170e+09 -1.539208e+09 -1.699182e+09 -8.539877e+03 2.285235e+04 4.328895e+03
-2.616983e+09 -2.416969e+09 -2.576975e+09 7.574858e+02 -2.392254e+03 3.302564e+03
-1.551115e+09 -1.351140e+09 -1.511122e+09 2.638664e+03 1.156879e+04 -8.564276e+02
-1.830463e+09 -1.630471e+09 -1.790475e+09 -2.358165e+04 2.270934e+04 1.205731e+04
-3.383640e+09 -3.183641e+09 -3.343641e+09 -9.115088e+02 -5.788796e+01 -4.493385e+01
-2.326334e+09 -2.126337e+09 -2.286339e+09 -9.802385e+03 7.510431e+03 5.807609e+03
-1.566697e+09 -1.366736e+09 -1.526709e+09 -6.643349e+03 2.129413e+04 2.613220e+03
-1.560884e+09 -1.360901e+09 -1.520890e+09 -1.258252e+04 1.316802e+04 4.377917e+03
-3.192452e+09 -2.992451e+09 -3.152458e+09 -6.803171e+03 5.355597e+03 5.509438e+03
-3.576576e+09 -3.376570e+09 -3.536531e+09 5.915173e+03 1.125593e+04 1.267424e+04
-1.574176e+09 -1.374158e+09 -1.534194e+09 -4.021304e+04 2.489546e+04 3.545724e+04
-1.950785e+09 -1.750732e+09 -1.910819e+09 -2.336398e+04 8.668080e+03 2.058764e+04
-3.254902e+09 -3.054901e+09 -3.214901e+09 -8.880533e+02 -8.280819e+01 3.299858e+00
-3.131639e+09 -2.931632e+09 -3.091637e+09 -2.624393e+03 3.088052e+02 1.943836e+03
-2.158017e+09 -1.958037e+09 -2.118024e+09 2.923621e+03 1.421741e+03 2.291366e+04
-2.118420e+09 -1.918420e+09 -2.078420e+09 -9.516211e+02 -1.049808e+02 7.707847e+00
-3.608467e+09 -3.408461e+09 -3.568472e+09 -2.701504e+03 4.957183e+03 4.672286e+03
-2.568962e+09 -2.368960e+09 -2.528961e+09 9.703196e+02 -1.642214e+02 -4.102401e+02
-1.582957e+09 -1.382956e+09 -1.542957e+09 1.318788e+03 7.995014e+01 -1.961526e+02
-2.019239e+09 -1.819239e+09 -1.979239e+09 6.784322e+02 7.382028e+01 -3.465495e+01
-2.005259e+09 -1.805259e+09 -1.965259e+09 -6.903092e+02 -5.047794e+01 -4.758588e+01
-1.576626e+09 -1.376627e+09 -1.536627e+09 1.111001e+03 9.100401e+01 -1.312867e+02
-3.596633e+09 -3.396634e+09 -3.556634e+09 1.132129e+03 -1.307688e+01 -1.179856e+02
-1.808724e+09 -1.608724e+09 -1.768724e+09 3.180282e+02 3.173745e+01 -4.557905e+01
-2.583003e+09 -2.383002e+09 -2.543002e+09 3.124133e+02 7.920265e+01 -6.439907e+01
-3.393904e+09 -3.193911e+09 -3.353904e+09 -8.051813e+02 6.805786e+02 -3.935944e+03
-2.023858e+09 -1.823860e+09 -1.983860e+09 -1.943869e+03 1.844448e+02 -1.884460e+02
-2.750512e+09 -2.550508e+09 -2.710510e+09 -8.391526e+02 2.762877e+02 4.321964e+02
-2.584818e+09 -2.384817e+09 -2.544816e+09 3.184129e+03 -1.177633e+03 -1.570536e+03
-1.798552e+09 -1.598549e+09 -1.758550e+09 4.742496e+02 -8.226648e+01 -1.279512e+02
-1.793794e+09 -1.593791e+09 -1.753792e+09 -2.451496e+02 2.916748e+02 7.618313e+01
-1.589085e+09 -1.389110e+09 -1.549089e+09 8.624391e+03 1.044122e+04 -3.385714e+03
-3.418848e+09 -3.218843e+09 -3.378870e+09 5.911564e+03 1.202306e+04 -7.149868e+03
-2.771012e+09 -2.571009e+09 -2.731010e+09 -5.370127e+02 1.914485e+02 1.330426e+02
-2.602231e+09 -2.402228e+09 -2.562230e+09 1.566375e+02 2.916712e+02 7.694223e+01
-3.193818e+09 -2.993832e+09 -3.153833e+09 -3.556764e+02 1.043784e+04 -7.276071e+01
-2.584739e+09 -2.384744e+09 -2.544748e+09 9.190596e+03 1.117557e+04 -5.228942e+03
-2.643486e+09 -2.443501e+09 -2.603497e+09 -8.368862e+02 9.428263e+03 5.227781e+02
-3.061555e+09 -2.861565e+09 -3.021562e+09 -1.451955e+03 5.517381e+03 2.470911e+02
-3.393411e+09 -3.193407e+09 -3.353409e+09 1.188834e+02 -7.967804e+01 -7.825918e+01
-3.211096e+09 -3.011089e+09 -3.171093e+09 3.551017e+02 5.858589e+01 9.617030e+02
-2.494746e+09 -2.294741e+09 -2.454741e+09 3.799587e+03 -2.545047e+03 -2.617854e+03
-3.391112e+09 -3.191110e+09 -3.351115e+09 1.422357e+03 -3.119849e+03 2.150064e+03
-2.514600e+09 -2.314595e+09 -2.474599e+09 1.072917e+03 -4.404310e+02 -2.341574e+02
-3.600957e+09 -3.400957e+09 -3.560965e+09 1.327138e+03 -5.832987e+03 2.982249e+03
-3.162102e+09 -2.962099e+09 -3.122100e+09 3.185192e+03 -9.557156e+02 -1.421424e+03
-1.571708e+09 -1.371689e+09 -1.531695e+09 -3.570860e+03 -1.798962e+03 3.119682e+03
-1.965321e+09 -1.765322e+09 -1.925322e+09 -7.547105e+01 -4.503216e+00 3.863286e+01
-3.152549e+09 -2.952550e+09 -3.112550e+09 -3.855433e+02 -2.587430e+01 1.090600e+01
-3.596840e+09 -3.396845e+09 -3.556841e+09 -4.998355e+02 4.810697e+02 -2.709274e+03
-3.602014e+09 -3.402018e+09 -3.562015e+09 1.348520e+03 -1.449796e+02 -1.879459e+03
-3.435733e+09 -3.235732e+09 -3.395733e+09 1.549294e+03 -1.767635e+01 -2.806356e+02
-2.532107e+09 -2.332101e+09 -2.492101e+09 4.594562e+03 -2.283941e+03 -2.707810e+03
-2.358340e+09 -2.158331e+09 -2.318335e+09 3.290669e+02 -4.644301e+02 8.113851e+02
-1.580903e+09 -1.380907e+09 -1.540907e+09 -1.573483e+03 4.204109e+02 -9.129763e+02
-2.458076e+09 -2.258079e+09 -2.418079e+09 -1.250820e+03 -3.890946e+01 2.112547e+01
-3.617226e+09 -3.417224e+09 -3.577224e+09 2.934624e+03 -8.581721e+02 -1.438581e+03
-2.481606e+09 -2.281607e+09 -2.441607e+09 2.034394e+03 -3.465362e+02 -8.967962e+02
-3.188289e+09 -2.988291e+09 -3.148293e+09 5.333344e+03 4.100423e+03 -2.286333e+03
-3.338657e+09 -3.138643e+09 -3.298649e+09 3.159594e+03 -3.921617e+03 3.195800e+03
-2.121709e+09 -1.921709e+09 -2.081710e+09 1.526871e+03 -4.490868e+01 -7.295675e+02
-1.600089e+09 -1.400082e+09 -1.560084e+09 -2.064041e+03 -1.269755e+02 1.249685e+03
-2.062030e+09 -1.862029e+09 -2.022028e+09 5.346450e+03 -3.112663e+03 -5.757454e+03
-2.757799e+09 -2.557790e+09 -2.717794e+09 3.443927e+02 8.405798e+00 1.352945e+03
-2.547391e+09 -2.347387e+09 -2.507386e+09 3.254522e+03 -3.166137e+03 -3.175752e+03
-2.784602e+09 -2.584595e+09 -2.744598e+09 1.780386e+03 -1.230396e+03 -4.360912e+02
-2.805559e+09 -2.605554e+09 -2.765558e+09 -1.043239e+02 4.471292e+02 3.176685e+02
-2.429794e+09 -2.229790e+09 -2.389793e+09 2.493016e+03 -9.044019e+02 -8.282929e+02
-3.043799e+09 -2.843784e+09 -3.003791e+09 2.523047e+03 -4.395911e+03 2.612291e+03
-1.561105e+09 -1.361097e+09 -1.521110e+09 8.138820e+03 -5.203287e+03 -3.077323e+03
-1.583101e+09 -1.383096e+09 -1.543098e+09 7.274294e+02 1.322691e+02 -2.827917e+01
-1.578335e+09 -1.378332e+09 -1.538334e+09 5.687885e+02 -4.970366e+01 -4.601778e+02
-3.402792e+09 -3.202790e+09 -3.362791e+09 6.215346e+02 2.641318e+01 -4.473760e+01
-1.583405e+09 -1.383404e+09 -1.543405e+09 1.590185e+03 -1.624638e+01 -4.921646e+02
-1.983075e+09 -1.783069e+09 -1.943071e+09 -5.163814e+02 1.057406e+01 5.297431e+02
-1.981565e+09 -1.781557e+09 -1.941560e+09 6.651548e+02 -1.507612e+03 -4.341571e+02
-1.581069e+09 -1.381082e+09 -1.541071e+09 8.303784e+03 9.232620e+03 -2.799939e+03
-3.633659e+09 -3.433662e+09 -3.593649e+09 -3.462631e+03 1.655838e+03 -7.600866e+03
-2.417301e+09 -2.217324e+09 -2.377330e+09 1.101724e+03 2.825019e+04 -1.590204e+03
-3.160484e+09 -2.960484e+09 -3.120482e+09 2.912490e+03 -6.668489e+02 -1.602228e+03
-2.787090e+09 -2.587088e+09 -2.747089e+09 2.938480e+03 -1.434970e+03 -1.628917e+03
-3.607153e+09 -3.407149e+09 -3.567157e+09 -6.721667e+03 -9.934779e+02 -4.634761e+03
-3.602755e+09 -3.402757e+09 -3.562754e+09 -2.698104e+03 1.140338e+03 -2.238260e+03
-2.538937e+09 -2.338903e+09 -2.498924e+09 -2.414232e+02 -3.547748e+03 9.587353e+03
-2.425669e+09 -2.225666e+09 -2.385675e+09 6.294153e+03 -8.478473e+03 7.609802e+03
-3.212031e+09 -3.012008e+09 -3.171952e+09 -2.902186e+03 -2.077205e+04 -1.306030e+04
-1.828042e+09 -1.627943e+09 -1.787938e+09 -3.924476e+03 6.135656e+04 -5.215644e+04
-2.090431e+09 -1.890426e+09 -2.050429e+09 9.614564e+02 -7.007657e+02 -2.256841e+02
-3.220305e+09 -3.020299e+09 -3.180303e+09 -5.725338e+02 2.407989e+02 7.196461e+02
-2.322551e+09 -2.122543e+09 -2.282548e+09 -1.965159e+03 5.859476e+02 1.412326e+03
-1.566422e+09 -1.366419e+09 -1.526422e+09 1.984191e+03 -6.471499e+02 -8.271457e+02
-2.464659e+09 -2.264655e+09 -2.424658e+09 7.969036e+02 2.160980e+02 8.155174e+01
-3.119794e+09 -2.919788e+09 -3.079791e+09 1.399516e+03 -8.230732e+02 -1.136337e+02
-2.579011e+09 -2.379025e+09 -2.539023e+09 -7.860696e+01 -1.157072e+04 8.515799e+02
-1.954558e+09 -1.754546e+09 -1.914552e+09 2.392467e+03 -3.309901e+03 -1.610675e+02
-1.788391e+09 -1.588384e+09 -1.748388e+09 -1.326812e+03 1.789187e+02 1.262929e+03
-2.105027e+09 -1.905027e+09 -2.065026e+09 2.651930e+03 -1.877385e+03 -3.093362e+03
-2.424733e+09 -2.224735e+09 -2.384735e+09 1.158431e+03 2.351229e+01 -4.106861e+02
-2.085669e+09 -1.885664e+09 -2.045666e+09 -2.006014e+02 1.071954e+02 2.710926e+02
-3.143976e+09 -2.943979e+09 -3.103978e+09 1.721489e+02 3.239038e+01 -1.241054e+01
-3.221560e+09 -3.021565e+09 -3.181559e+09 -3.038491e+03 2.020709e+03 -4.498966e+03
-3.596466e+09 -3.396467e+09 -3.556464e+09 -3.322703e+03 1.537922e+03 -1.743230e+03
-3.413924e+09 -3.213918e+09 -3.373923e+09 -3.328700e+03 2.316432e+03 6.186721e+02
-1.983714e+09 -1.783711e+09 -1.943712e+09 -1.174308e+02 3.816611e+02 3.919840e+01
-2.465637e+09 -2.265634e+09 -2.425636e+09 1.656365e+03 -5.405112e+02 -4.659161e+02
-3.597652e+09 -3.397656e+09 -3.557652e+09 -2.278863e+03 1.280539e+03 -2.941395e+03
-2.819259e+09 -2.619264e+09 -2.779262e+09 1.335820e+02 9.239160e+01 -1.585094e+03
-2.597118e+09 -2.397124e+09 -2.557121e+09 -1.133472e+03 4.081128e+02 -2.548210e+03
-2.679436e+09 -2.479439e+09 -2.639438e+09 8.415038e+02 1.198899e+01 -2.322991e+02
-1.576626e+09 -1.376627e+09 -1.536627e+09 1.030621e+03 1.496916e+02 -1.551428e+02
-3.189135e+09 -2.989131e+09 -3.149134e+09 4.141854e+01 1.787109e+02 1.424420e+02
-2.446258e+09 -2.246257e+09 -2.406257e+09 5.787875e+02 9.021796e+01 -8.264328e-01
-3.382635e+09 -3.182627e+09 -3.342631e+09 5.029187e+02 3.206191e+02 1.377300e+03
-1.862083e+09 -1.662081e+09 -1.822083e+09 2.188032e+03 -3.882198e+02 -7.887604e+02
-2.571310e+09 -2.371306e+09 -2.531308e+09 -5.294322e+02 2.466119e+02 3.340408e+02
-1.984117e+09 -1.784121e+09 -1.944143e+09 1.782588e+04 4.614183e+04 -2.246223e+04
-1.574159e+09 -1.374167e+09 -1.534165e+09 -2.465788e+04 1.990676e+04 1.185614e+04
-3.088965e+09 -2.888962e+09 -3.048963e+09 9.582163e+02 -1.060821e+02 -2.492042e+02
-1.560890e+09 -1.360923e+09 -1.520888e+09 -1.940921e+04 1.291681e+04 7.636965e+03
-3.197900e+09 -2.997912e+09 -3.157915e+09 -2.264169e+01 8.921304e+03 3.817066e+02
-1.603335e+09 -1.403360e+09 -1.563344e+09 -3.712933e+03 1.222054e+04 1.557105e+03
-2.502609e+09 -2.302620e+09 -2.462618e+09 -3.884705e+03 -1.008691e+04 -1.730075e+03
-1.791030e+09 -1.591048e+09 -1.751036e+09 -2.057801e+03 8.972269e+03 1.611675e+03
-3.398274e+09 -3.198274e+09 -3.358285e+09 -2.390593e+03 -6.675059e+03 -1.428369e+03
-1.580031e+09 -1.380030e+09 -1.540031e+09 7.041139e+02 8.554737e+01 -1.743779e+02
-1.581390e+09 -1.381390e+09 -1.541390e+09 1.048936e+03 1.018577e+02 -1.658078e+02
-2.222402e+09 -2.022399e+09 -2.182400e+09 3.830308e+03 1.976914e+03 -1.702025e+03
-2.496458e+09 -2.296464e+09 -2.456467e+09 -4.731979e+03 -9.997686e+03 -3.736067e+03
-1.582383e+09 -1.382383e+09 -1.542383e+09 7.804037e+02 8.074810e+01 -1.222556e+02
-3.415267e+09 -3.215265e+09 -3.375277e+09 -1.972420e+03 -6.437014e+03 -2.646917e+03
-2.896411e+09 -2.696413e+09 -2.856412e+09 1.372467e+02 1.431229e+01 4.429719e+01
-3.124442e+09 -2.924442e+09 -3.084458e+09 -1.515604e+03 -8.172651e+03 -2.281155e+03
-1.688564e+09 -1.488565e+09 -1.648565e+09 7.201061e+01 1.372770e+01 4.237276e+01
-1.988911e+09 -1.788914e+09 -1.948925e+09 -8.035136e+03 -1.898416e+04 -8.202527e+03
-2.097914e+09 -1.897925e+09 -2.057925e+09 -7.365722e+03 -1.466487e+04 -3.123512e+03
-2.827399e+09 -2.627395e+09 -2.787399e+09 -1.098965e+03 -1.301785e+03 1.542978e+03
-1.995603e+09 -1.795605e+09 -1.955604e+09 2.133062e+02 1.078273e+01 3.434335e+01
-2.261624e+09 -2.061626e+09 -2.221626e+09 -1.137771e+02 -1.337547e+01 2.716207e+01
-3.386651e+09 -3.186648e+09 -3.346651e+09 -3.036721e+02 -1.050505e+03 1.471790e+03
-3.402932e+09 -3.202930e+09 -3.362932e+09 -1.402814e+03 -4.203806e+02 9.263115e+02
-3.070207e+09 -2.870209e+09 -3.030208e+09 -6.433597e+01 2.035354e+01 8.968829e+00
-1.961712e+09 -1.761714e+09 -1.921713e+09 -1.167827e+02 -8.414915e+00 2.556484e+01
-1.965559e+09 -1.765560e+09 -1.925560e+09 4.177379e+01 -4.578300e+00 2.889019e+01
-3.252659e+09 -3.052662e+09 -3.212661e+09 -2.356335e+01 5.927662e+00 -6.090268e+00
-2.597844e+09 -2.397837e+09 -2.557842e+09 -4.166517e+03 2.881927e+03 4.370904e+03
-3.605769e+09 -3.405759e+09 -3.565759e+09 4.615738e+03 -6.335484e+03 -1.692677e+03
-2.633880e+09 -2.433849e+09 -2.593864e+09 1.158037e+04 -1.853112e+04 -6.231664e+03
-3.622361e+09 -3.422360e+09 -3.582347e+09 2.361324e+03 -3.406639e+03 -6.042516e+03
-1.604922e+09 -1.404727e+09 -1.564774e+09 3.996206e+03 1.152812e+05 -3.301910e+04
-3.176852e+09 -2.976858e+09 -3.136864e+09 -2.492840e+03 -8.508140e+03 -4.705439e+02
-2.613999e+09 -2.413993e+09 -2.573998e+09 -1.293447e+03 -7.647621e+02 1.494912e+03
-1.598105e+09 -1.397990e+09 -1.558136e+09 -4.197851e+04 1.415646e+04 4.074519e+04
-1.598122e+09 -1.398109e+09 -1.558195e+09 -4.510113e+04 5.865467e+04 3.851682e+04
-2.560592e+09 -2.360592e+09 -2.520594e+09 -2.522790e+03 3.188789e+02 -1.149415e+02
-1.571707e+09 -1.371685e+09 -1.531695e+09 -2.235797e+03 -2.771121e+03 2.111675e+03
-2.357123e+09 -2.157123e+09 -2.317123e+09 -1.574798e+03 -2.052541e+02 2.288874e+02
-2.423928e+09 -2.223860e+09 -2.383895e+09 -2.686200e+04 -2.645136e+04 2.520970e+03
-2.536679e+09 -2.336682e+09 -2.496682e+09 -1.674640e+03 7.265579e+01 -2.689773e+02
-1.977208e+09 -1.777208e+09 -1.937209e+09 -1.446607e+03 -1.320914e+02 4.546790e+01
-3.396478e+09 -3.196466e+09 -3.356481e+09 2.952013e+03 4.208006e+03 -5.181590e+03
-1.856309e+09 -1.656307e+09 -1.816307e+09 6.280514e+03 3.500156e+03 -3.648707e+03
-3.389552e+09 -3.189551e+09 -3.349558e+09 3.892773e+03 5.671137e+03 -3.081097e+03
-1.828166e+09 -1.628167e+09 -1.788167e+09 1.581734e+03 -4.278973e+01 -6.558847e+02
-2.039203e+09 -1.839206e+09 -1.999207e+09 -2.508004e+03 7.781693e+02 -6.539639e+02
-3.266357e+09 -3.066360e+09 -3.226359e+09 -1.786233e+03 4.707024e+02 -3.671257e+02
-1.576625e+09 -1.376627e+09 -1.536627e+09 1.366375e+03 3.608395e+01 -2.301702e+02
-2.390441e+09 -2.190442e+09 -2.350442e+09 1.192494e+03 3.878781e+01 -2.371966e+02
-1.629044e+09 -1.429044e+09 -1.589045e+09 1.125446e+03 7.551168e+01 -2.726102e+02
-3.231782e+09 -3.031784e+09 -3.191783e+09 7.036053e+02 6.028396e+01 -8.633772e+01
-2.011500e+09 -1.811500e+09 -1.971501e+09 7.996964e+02 -5.156364e-01 -1.714399e+02
-1.568376e+09 -1.368379e+09 -1.528379e+09 -1.479511e+03 9.578519e+01 -2.321163e+02
-3.062424e+09 -2.862425e+09 -3.022425e+09 -2.003550e+03 1.625095e+02 -1.696305e+02
-2.536781e+09 -2.336785e+09 -2.496784e+09 -4.471966e+02 5.454574e+01 -4.653438e+02
-1.570969e+09 -1.370971e+09 -1.530971e+09 -1.367956e+03 -2.494404e+01 1.315739e+01
-3.397315e+09 -3.197317e+09 -3.357317e+09 1.012675e+03 -3.505725e+01 -3.437402e+02
-2.434534e+09 -2.234536e+09 -2.394536e+09 -1.412440e+03 -3.219047e+01 -2.534478e+02
-1.570969e+09 -1.370971e+09 -1.530971e+09 -1.265739e+03 -1.429411e+02 5.386176e+01
-3.154610e+09 -2.954608e+09 -3.114609e+09 -7.242238e+02 2.301235e+02 1.357184e+02
-2.256716e+09 -2.056717e+09 -2.216715e+09 2.795102e+03 9.209991e+02 -3.159973e+02
-1.985017e+09 -1.785015e+09 -1.945016e+09 -1.256323e+03 5.341736e+02 2.303585e+02
-1.886808e+09 -1.686806e+09 -1.846807e+09 4.666947e+02 1.804552e+02 -1.097916e+02
-2.367834e+09 -2.167833e+09 -2.327834e+09 1.059902e+03 9.504340e+00 -2.642578e+02
-3.184130e+09 -2.984127e+09 -3.144128e+09 6.954123e+02 9.219381e+01 -3.280329e+01
-1.592588e+09 -1.392576e+09 -1.552583e+09 9.604715e+03 6.502452e+03 -7.413931e+03
-1.611339e+09 -1.411325e+09 -1.571337e+09 -2.124814e+03 -1.305378e+03 2.007740e+03
-1.636031e+09 -1.436042e+09 -1.596047e+09 -4.674011e+03 -1.881014e+03 5.969250e+03
-2.777531e+09 -2.577516e+09 -2.737532e+09 -2.247704e+03 -1.558140e+03 -3.994371e+03
-2.791363e+09 -2.591361e+09 -2.751362e+09 6.873610e+02 3.157787e+01 -8.716302e+01
-3.606043e+09 -3.406037e+09 -3.566033e+09 -5.669307e+03 -2.337050e+03 1.911861e+03
-3.210144e+09 -3.010142e+09 -3.170143e+09 5.289766e+02 8.359262e+01 -4.669163e+01
-1.777949e+09 -1.577948e+09 -1.737949e+09 1.186152e+03 -1.127388e+01 -2.698826e+02
-2.256995e+09 -2.056994e+09 -2.216994e+09 -4.722799e+02 2.731376e+02 -7.893390e+01
-2.447089e+09 -2.247088e+09 -2.407089e+09 -1.738759e+03 -2.464526e+02 3.841228e+02
-3.597760e+09 -3.397760e+09 -3.557761e+09 -2.755255e+03 1.635927e+02 -1.516615e+02
-2.109255e+09 -1.909256e+09 -2.069258e+09 -3.591012e+03 1.301541e+03 -6.468301e+02
-3.627036e+09 -3.427034e+09 -3.587029e+09 4.226118e+03 -2.565740e+03 -3.712823e+03
-1.911459e+09 -1.711462e+09 -1.871461e+09 3.266130e+03 -1.958604e+03 -8.419744e+03
-3.298913e+09 -3.098908e+09 -3.258910e+09 8.567061e+02 -1.615895e+02 1.582545e+01
-2.567123e+09 -2.367119e+09 -2.527121e+09 4.674912e+01 1.470898e+02 8.948683e+01
-2.495461e+09 -2.295460e+09 -2.455460e+09 3.425975e+02 1.117710e+02 -9.818075e+01
-2.777208e+09 -2.577217e+09 -2.737218e+09 -2.171852e+02 -8.766912e+03 7.957401e+02
-3.430223e+09 -3.230221e+09 -3.390215e+09 3.779379e+03 -2.289015e+03 -3.063687e+03
-3.599657e+09 -3.399657e+09 -3.559654e+09 2.512718e+03 -7.053043e+02 -2.189295e+03
-3.586057e+09 -3.386055e+09 -3.546056e+09 7.008482e+02 1.119618e+02 -7.294006e+01
-2.039160e+09 -1.839162e+09 -1.999162e+09 2.653741e+03 -4.039899e+02 -1.507662e+03
-1.583407e+09 -1.383405e+09 -1.543406e+09 9.231726e+02 2.675087e+02 -1.855966e+02
-3.602014e+09 -3.402018e+09 -3.562015e+09 9.844200e+02 2.783899e+01 -1.748164e+03
-2.515017e+09 -2.315015e+09 -2.475016e+09 5.741772e+02 1.542584e+02 -1.079933e+02
-1.573727e+09 -1.373733e+09 -1.533732e+09 -1.730657e+03 2.666478e+02 -1.814292e+03
-3.623239e+09 -3.423244e+09 -3.583219e+09 -6.300524e+03 -5.298335e+03 1.219046e+04
-2.610464e+09 -2.410464e+09 -2.570477e+09 1.242542e+04 1.578146e+04 -9.754496e+03
-3.473901e+09 -3.273883e+09 -3.433912e+09 -1.552888e+03 -3.527329e+03 -1.859362e+03
-3.623238e+09 -3.423248e+09 -3.583228e+09 1.122576e+03 -1.827824e+03 1.270685e+04
-2.677208e+09 -2.477199e+09 -2.637224e+09 -3.778799e+03 -1.018494e+04 -4.537535e+03
-3.575354e+09 -3.375344e+09 -3.535369e+09 -3.046635e+03 -8.641982e+03 -4.738301e+02
-3.575350e+09 -3.375344e+09 -3.535368e+09 -1.462741e+03 -8.737934e+03 4.372076e+02
-3.551636e+09 -3.351635e+09 -3.511634e+09 7.178950e+03 5.612883e+03 4.286377e+03
-1.996051e+09 -1.796013e+09 -1.956059e+09 -1.323559e+04 1.207611e+04 4.684712e+03
-3.593169e+09 -3.393166e+09 -3.553100e+09 1.150095e+03 4.239684e+03 1.890777e+04
-3.598349e+09 -3.398336e+09 -3.558347e+09 4.957869e+03 4.944208e+03 1.394404e+03
-3.413663e+09 -3.213657e+09 -3.373636e+09 -5.111576e+03 -1.056045e+04 1.051740e+04
-2.519810e+09 -2.319798e+09 -2.479801e+09 -4.709168e+03 3.060215e+03 -4.873220e+03
-1.595530e+09 -1.395339e+09 -1.555336e+09 -3.776212e+04 7.384505e+04 -8.729677e+04
-3.588631e+09 -3.388610e+09 -3.548620e+09 2.516057e+03 -8.017848e+03 -4.562474e+03
-1.620123e+09 -1.420122e+09 -1.580123e+09 1.423070e+03 -1.071002e+02 -4.704500e+02
-1.596456e+09 -1.396458e+09 -1.556458e+09 1.276054e+03 1.381777e+02 -4.851203e+02
-3.434001e+09 -3.233995e+09 -3.393999e+09 -4.848485e+02 1.268875e+01 5.521555e+02
-2.621609e+09 -2.421575e+09 -2.581598e+09 -1.726199e+03 -1.228662e+04 5.514851e+03
-3.211123e+09 -3.011128e+09 -3.171125e+09 -7.956530e+02 2.129338e+02 -1.583553e+03
-1.802794e+09 -1.602741e+09 -1.762691e+09 -1.471414e+02 -6.694958e+03 5.786311e+04
-1.568520e+09 -1.368552e+09 -1.528514e+09 -2.320453e+04 -3.852503e+04 7.693607e+04
-2.025260e+09 -1.825201e+09 -1.985310e+09 -1.493829e+04 -8.231260e+03 -2.112165e+04
-1.566420e+09 -1.366420e+09 -1.526421e+09 2.412887e+03 -3.146517e+02 -1.196972e+03
-2.448024e+09 -2.248017e+09 -2.408017e+09 8.181225e+03 -7.191843e+03 -7.896494e+03
-2.251585e+09 -2.051578e+09 -2.211582e+09 3.519276e+03 2.118796e+03 -2.819177e+03
-2.959625e+09 -2.759622e+09 -2.919626e+09 4.254698e+03 2.611519e+03 -2.230595e+03
-2.442547e+09 -2.242515e+09 -2.402529e+09 1.100972e+04 -1.905933e+04 -4.833957e+03
-3.210757e+09 -3.010749e+09 -3.170760e+09 4.606822e+03 4.660231e+03 -5.353791e+03
-2.057700e+09 -1.857700e+09 -2.017699e+09 6.700493e+03 4.582234e+03 -3.485569e+03
-3.219675e+09 -3.019680e+09 -3.179676e+09 -7.866553e+02 4.949183e+02 -2.562396e+03
-2.830059e+09 -2.630064e+09 -2.790062e+09 5.039424e+02 4.503197e+01 -1.592958e+03
-1.803560e+09 -1.603485e+09 -1.763535e+09 -1.473227e+04 -5.408030e+03 1.744226e+04
-2.882602e+09 -2.682601e+09 -2.842590e+09 5.120546e+03 -5.488662e+03 -9.475184e+03
-1.840877e+09 -1.640873e+09 -1.800868e+09 7.167043e+03 -6.405202e+03 -1.230812e+04
-1.965771e+09 -1.765777e+09 -1.925776e+09 -1.618846e+03 3.510411e+02 -2.056171e+03
-1.566422e+09 -1.366421e+09 -1.526422e+09 1.833911e+03 -2.117378e+02 -7.834693e+02
-3.213003e+09 -3.013008e+09 -3.173005e+09 -1.160369e+03 4.632493e+02 -2.550540e+03
-3.245722e+09 -3.045721e+09 -3.205722e+09 1.187931e+03 1.874745e+01 -1.816230e+02
-1.983012e+09 -1.783017e+09 -1.943016e+09 -1.976821e+03 5.709829e+02 -2.128518e+03
-3.596840e+09 -3.396845e+09 -3.556840e+09 1.016260e+03 -1.440715e+02 -2.858577e+03
-1.992762e+09 -1.792764e+09 -1.952767e+09 -3.817779e+03 1.019395e+03 -1.433207e+03
-1.597026e+09 -1.397029e+09 -1.557030e+09 2.339796e+03 -3.138867e+02 -2.633924e+03
-2.524871e+09 -2.324874e+09 -2.484873e+09 -1.288429e+03 1.107755e+02 -5.291563e+02
-2.159521e+09 -1.959517e+09 -2.119519e+09 2.896097e+03 -1.036236e+03 -1.571313e+03
-3.421037e+09 -3.221036e+09 -3.381036e+09 2.545684e+03 -5.636149e+02 -1.197611e+03
-1.582828e+09 -1.382831e+09 -1.542832e+09 2.443412e+03 -4.313665e+02 -1.212778e+03
-1.922403e+09 -1.722402e+09 -1.882401e+09 3.922179e+03 1.754980e+03 -1.332999e+03
-3.197038e+09 -2.997042e+09 -3.157040e+09 -2.241543e+03 5.426189e+02 -1.888513e+03
-1.853884e+09 -1.653886e+09 -1.813886e+09 -2.171505e+03 4.176271e+02 -5.740547e+02
-1.990909e+09 -1.790907e+09 -1.950908e+09 -1.163551e+03 -2.833124e+02 3.244846e+02
-1.932684e+09 -1.732677e+09 -1.892681e+09 2.603349e+03 1.502561e+03 -2.743106e+03
-1.783546e+09 -1.583546e+09 -1.743547e+09 -1.458606e+03 -1.489400e+02 1.156096e+02
-3.620479e+09 -3.420480e+09 -3.580480e+09 -1.669856e+03 -3.285894e+01 3.745241e-01
-1.763875e+09 -1.563876e+09 -1.723876e+09 -1.436426e+03 -8.730049e+01 -1.098741e+02
-2.791520e+09 -2.591518e+09 -2.751519e+09 -8.009620e+02 -4.256652e+02 3.434252e+02
-2.625191e+09 -2.425191e+09 -2.585192e+09 -1.671742e+03 -6.890168e+01 6.802883e+01
-3.358794e+09 -3.158793e+09 -3.318794e+09 -1.707742e+03 -3.842675e+01 -2.018316e+01
-2.551884e+09 -2.351885e+09 -2.511885e+09 2.067950e+03 -3.676919e+02 -1.027979e+03
-3.406392e+09 -3.206396e+09 -3.366393e+09 -1.022970e+03 3.145309e+02 -1.454970e+03
-3.375165e+09 -3.175164e+09 -3.335165e+09 -1.444095e+03 -1.208435e+02 8.792351e+01
-2.649710e+09 -2.449716e+09 -2.609713e+09 -3.835603e+02 3.031337e+02 -2.591830e+03
-3.211836e+09 -3.011832e+09 -3.171836e+09 -1.199603e+03 -2.600115e+02 1.056378e+03
-2.840065e+09 -2.640067e+09 -2.800065e+09 2.812257e+03 -1.069822e+03 -2.360983e+03
-3.158386e+09 -2.958383e+09 -3.118386e+09 -1.028009e+03 -5.113553e+02 7.237828e+02
-3.407814e+09 -3.207819e+09 -3.367814e+09 1.096574e+03 -1.038242e+02 -2.714357e+03
-1.788604e+09 -1.588626e+09 -1.748614e+09 4.899432e+02 -1.370176e+04 1.973246e+02
-1.583098e+09 -1.383093e+09 -1.543097e+09 2.475994e+03 -7.787762e+02 -6.571063e+02
-3.025946e+09 -2.825947e+09 -2.985945e+09 4.177457e+03 -1.940703e+03 -3.701377e+03
-1.584576e+09 -1.384573e+09 -1.544575e+09 -1.735501e+03 -4.572994e+02 6.361619e+02
-2.797324e+09 -2.597318e+09 -2.757324e+09 -1.752113e+03 -6.176883e+02 2.678685e+03
-2.427742e+09 -2.227743e+09 -2.387743e+09 1.304818e+03 2.852985e+01 -2.905780e+02
-2.673659e+09 -2.473657e+09 -2.633660e+09 -1.969594e+03 -3.111303e+02 6.704795e+02
-3.201707e+09 -3.001712e+09 -3.161709e+09 1.573040e+03 -1.700016e+02 -3.556651e+03
-1.597023e+09 -1.397028e+09 -1.557028e+09 3.612355e+03 -1.198920e+03 -3.655789e+03
-1.806818e+09 -1.606824e+09 -1.766823e+09 3.542099e+03 -1.182389e+03 -4.016585e+03
-1.757838e+09 -1.557834e+09 -1.717836e+09 1.011919e+02 -9.663369e+02 9.583673e+02
-1.765336e+09 -1.565333e+09 -1.725335e+09 -5.671706e+02 -9.925559e+02 1.150648e+03
-2.896308e+09 -2.696306e+09 -2.856297e+09 3.225468e+03 -3.455615e+03 -6.292165e+03
-2.355973e+09 -2.155970e+09 -2.315971e+09 -1.516521e+02 -7.628706e+02 5.569195e+02
-3.387583e+09 -3.187576e+09 -3.347580e+09 9.981378e+02 -3.672097e+01 9.190443e+02
-1.598810e+09 -1.398781e+09 -1.558799e+09 -2.231579e+04 1.498446e+04 2.021292e+04
-1.573730e+09 -1.373732e+09 -1.533733e+09 -2.863138e+03 1.195379e+03 -1.419839e+03
-1.597023e+09 -1.397028e+09 -1.557028e+09 3.511165e+03 -1.162284e+03 -4.123666e+03
-1.596455e+09 -1.396458e+09 -1.556458e+09 1.767116e+03 -8.024866e+01 -5.745268e+02
-1.598816e+09 -1.398753e+09 -1.558789e+09 -1.392160e+04 -1.912635e+02 2.440768e+04
-2.623990e+09 -2.423998e+09 -2.583993e+09 -9.270587e+02 5.933179e+02 -4.120364e+03
-1.680709e+09 -1.480715e+09 -1.640714e+09 4.955207e+03 -2.740829e+03 -7.369262e+03
-1.561104e+09 -1.361102e+09 -1.521104e+09 5.581354e+03 -2.864587e+03 -5.208694e+03
-2.649909e+09 -2.449914e+09 -2.609911e+09 5.334606e+02 8.879797e+01 -3.752096e+03
-3.393092e+09 -3.193098e+09 -3.353092e+09 8.897423e+02 1.336498e+02 -4.273362e+03
-2.437291e+09 -2.237290e+09 -2.397291e+09 1.433005e+03 -1.380938e+02 -5.449295e+02
-3.231271e+09 -3.031268e+09 -3.191269e+09 2.187656e+03 -7.929272e+02 -6.719618e+02
-3.097763e+09 -2.897759e+09 -3.057761e+09 1.723056e+03 -4.046281e+02 -2.768737e+02
-3.525892e+09 -3.325887e+09 -3.485891e+09 -2.840913e+03 1.724758e+03 1.524554e+03
-1.593154e+09 -1.393055e+09 -1.553121e+09 7.986756e+03 -3.505476e+04 4.043783e+02
-3.605768e+09 -3.405767e+09 -3.565762e+09 4.041049e+03 -2.238522e+03 -3.711479e+03
-1.766339e+09 -1.566314e+09 -1.726397e+09 -1.226656e+04 -1.035807e+04 -8.961861e+03
-3.212391e+09 -3.012396e+09 -3.172390e+09 -6.887573e+02 2.486494e+02 -3.435382e+03
-1.593153e+09 -1.393121e+09 -1.553139e+09 8.123629e+02 -9.562882e+03 -9.379499e+03
-3.194428e+09 -2.994425e+09 -3.154409e+09 5.442447e+03 -8.211455e+03 -9.653686e+03
-1.866909e+09 -1.666894e+09 -1.826899e+09 7.104485e+03 -7.499069e+03 -4.374030e+03
-3.199705e+09 -2.999712e+09 -3.159706e+09 -6.242775e+02 6.620563e+02 -4.141595e+03
-3.403454e+09 -3.203459e+09 -3.363454e+09 -5.051304e+02 4.669123e+02 -2.517486e+03
-3.129645e+09 -2.929644e+09 -3.089646e+09 -3.911845e+03 2.043343e+03 -8.645376e+01
-3.128920e+09 -2.928923e+09 -3.088913e+09 -4.139786e+03 3.593911e+03 -6.991099e+03
-2.016592e+09 -1.816598e+09 -1.976596e+09 -2.054525e+03 9.801704e+02 -2.884045e+03
-2.397332e+09 -2.197332e+09 -2.357333e+09 3.705825e+03 -1.855324e+03 -2.657135e+03
-3.445370e+09 -3.245374e+09 -3.405365e+09 -3.462669e+03 2.596829e+03 -5.728981e+03
-2.170947e+09 -1.970925e+09 -2.130924e+09 6.564101e+03 -1.381951e+04 -1.025563e+04
-2.829250e+09 -2.629227e+09 -2.789234e+09 8.227208e+03 -1.964807e+04 -6.566002e+03
-3.238167e+09 -3.038158e+09 -3.198165e+09 -5.939956e+03 2.180997e+03 -4.317931e+02
-3.417029e+09 -3.217033e+09 -3.377023e+09 1.322839e+03 -4.680238e+02 -6.253451e+03
-3.602755e+09 -3.402754e+09 -3.562750e+09 -3.390826e+03 1.644261e+03 -1.347415e+03
-1.853407e+09 -1.653410e+09 -1.813410e+09 5.334770e+03 -3.552222e+03 -8.034842e+03
-2.096349e+09 -1.896358e+09 -2.056353e+09 5.950086e+02 8.888808e+02 -9.037886e+03
-1.744395e+09 -1.544386e+09 -1.704388e+09 3.156057e+03 -3.571791e+03 -2.163489e+03
-2.591112e+09 -2.391105e+09 -2.551108e+09 1.722283e+03 -1.599085e+03 -2.889638e+02
-1.602050e+09 -1.402040e+09 -1.562047e+09 -1.435449e+04 6.858461e+03 9.061076e+03
-3.208712e+09 -3.008720e+09 -3.168723e+09 8.080281e+02 -7.526376e+03 1.652737e+03
-1.561113e+09 -1.361104e+09 -1.521107e+09 2.984700e+03 -2.749264e+03 -2.439533e+03
-3.088987e+09 -2.888975e+09 -3.048980e+09 2.405790e+03 -2.987410e+03 1.950945e+02
-2.671324e+09 -2.471329e+09 -2.631321e+09 -1.576781e+03 1.185362e+03 -6.645780e+03
-3.367507e+09 -3.167511e+09 -3.327519e+09 8.998423e+01 -8.691337e+03 1.436247e+03
-1.580175e+09 -1.380146e+09 -1.540164e+09 1.118096e+04 -1.064870e+04 -3.655941e+03
-3.615495e+09 -3.415494e+09 -3.575487e+09 3.530443e+03 -2.161026e+03 -3.733945e+03
-1.621039e+09 -1.420963e+09 -1.581026e+09 -9.677419e+03 -2.498708e+04 -1.109337e+05
-2.340118e+09 -2.140133e+09 -2.300140e+09 -3.812151e+03 -2.050222e+04 7.374454e+02
-3.199281e+09 -2.999261e+09 -3.159224e+09 -8.606434e+03 7.158388e+03 -3.075075e+04
-2.584081e+09 -2.384081e+09 -2.544074e+09 -2.733274e+03 2.426933e+03 -7.589905e+03
-1.791892e+09 -1.591913e+09 -1.751899e+09 4.973075e+03 -1.369282e+04 3.529207e+03
-2.443470e+09 -2.243416e+09 -2.403431e+09 2.424478e+03 -4.028305e+04 -4.723855e+04
-3.186389e+09 -2.986398e+09 -3.146402e+09 -1.845293e+02 -8.583753e+03 2.090889e+02
-1.895052e+09 -1.695041e+09 -1.855049e+09 3.570673e+03 2.728417e+03 -4.446860e+03
-1.651366e+09 -1.451363e+09 -1.611363e+09 6.159931e+03 3.527232e+03 -2.581206e+03
-1.982518e+09 -1.782533e+09 -1.942535e+09 1.980421e+03 -2.316008e+04 2.130527e+03
-2.600164e+09 -2.400172e+09 -2.560175e+09 4.036100e+03 -9.841641e+03 3.172319e+03
-2.817438e+09 -2.617444e+09 -2.777429e+09 -4.404716e+02 9.784113e+02 -1.432626e+04
-3.154497e+09 -2.954500e+09 -3.114493e+09 -5.720389e+02 4.487873e+02 -6.424966e+03
-1.772018e+09 -1.572039e+09 -1.732026e+09 4.159323e+03 -1.128896e+04 1.751583e+03
-1.595438e+09 -1.395328e+09 -1.555332e+09 -4.347766e+03 6.165579e+04 -4.897752e+04
-3.120225e+09 -2.920225e+09 -3.080219e+09 2.486875e+03 -1.744849e+03 -3.714383e+03
-2.181817e+09 -1.981802e+09 -2.141802e+09 1.157817e+04 -2.011930e+04 -2.162569e+04
-3.363106e+09 -3.163105e+09 -3.323092e+09 6.006005e+03 -8.923756e+03 -1.225506e+04
-3.214836e+09 -3.014826e+09 -3.174809e+09 -6.967326e+03 1.537148e+04 -1.256809e+04
-3.388827e+09 -3.188833e+09 -3.348823e+09 1.266261e+03 -7.454557e+02 -6.721725e+03
-2.751545e+09 -2.551550e+09 -2.711536e+09 -2.407567e+03 1.421866e+03 -1.112453e+04
-2.451271e+09 -2.251274e+09 -2.411273e+09 -3.235702e+03 1.887183e+03 -2.518302e+03
-2.681373e+09 -2.481373e+09 -2.641361e+09 4.629280e+03 -5.922131e+03 -9.906825e+03
-1.621011e+09 -1.420955e+09 -1.580994e+09 1.039029e+04 -3.406769e+04 -1.212070e+04
-3.026893e+09 -2.826878e+09 -2.986849e+09 -4.470816e+03 -3.420651e+03 -1.293206e+04
-3.234290e+09 -3.034269e+09 -3.194280e+09 6.286363e+03 -8.811643e+03 1.023938e+03
-2.398006e+09 -2.197965e+09 -2.358009e+09 -8.952754e+03 -2.272895e+04 4.005746e+03
-3.394212e+09 -3.194196e+09 -3.354153e+09 -9.873114e+03 6.964401e+03 -3.003056e+04
-2.138342e+09 -1.938319e+09 -2.098324e+09 -2.620678e+03 -1.251439e+03 7.328481e+03
-3.408503e+09 -3.208485e+09 -3.368482e+09 1.218523e+04 -1.964763e+04 -1.330972e+04
-2.588266e+09 -2.388254e+09 -2.548247e+09 3.620620e+03 -6.000316e+03 -5.211191e+03
-2.874808e+09 -2.674806e+09 -2.834794e+09 5.263701e+03 -5.525362e+03 -9.362608e+03
-3.439021e+09 -3.239019e+09 -3.399004e+09 1.968027e+03 -3.303004e+03 -5.914542e+03
-3.261539e+09 -3.061538e+09 -3.221531e+09 4.900928e+03 -4.284300e+03 -6.136948e+03
-3.421829e+09 -3.221820e+09 -3.381833e+09 -1.757984e+03 -1.082915e+02 4.036014e+03
-1.580192e+09 -1.380166e+09 -1.540175e+09 1.776330e+03 -3.934809e+03 1.609165e+03
-2.772263e+09 -2.572257e+09 -2.732257e+09 5.720357e+03 -7.224540e+03 -1.189091e+04
-1.858959e+09 -1.658957e+09 -1.818965e+09 -1.175116e+04 -6.486424e+03 7.394344e+03
-1.598091e+09 -1.397899e+09 -1.558134e+09 -1.912129e+04 -9.582819e+04 -4.369456e+04
-3.084737e+09 -2.884735e+09 -3.044753e+09 2.639110e+03 -1.192159e+04 4.263783e+03
-2.398226e+09 -2.198243e+09 -2.358243e+09 -2.463887e+03 -1.529186e+04 -1.010623e+03
-2.109187e+09 -1.909177e+09 -2.069203e+09 -1.155372e+04 -1.100411e+04 -9.875001e+03
-2.031576e+09 -1.831578e+09 -1.991604e+09 -6.775360e+03 -2.482304e+04 -6.838468e+03
-2.632128e+09 -2.432111e+09 -2.592110e+09 5.385219e+03 -9.790439e+03 -1.355517e+03
-2.717929e+09 -2.517888e+09 -2.677914e+09 -5.885642e+03 1.032475e+04 -6.079835e+03
-3.253743e+09 -3.053741e+09 -3.213732e+09 5.063593e+03 -4.421468e+03 -5.863713e+03
-1.814873e+09 -1.614843e+09 -1.774855e+09 4.179103e+03 -1.184206e+04 -1.293952e+04
-1.951363e+09 -1.751360e+09 -1.911361e+09 3.762706e+03 1.963324e+03 -2.063862e+03
-3.201536e+09 -3.001525e+09 -3.161546e+09 -1.879316e+03 -1.008624e+03 4.950584e+03
-1.632464e+09 -1.432455e+09 -1.592461e+09 4.092081e+03 2.454351e+03 -3.132105e+03
-2.493150e+09 -2.293134e+09 -2.453157e+09 -3.138989e+03 -6.730662e+02 3.884616e+03
-2.368527e+09 -2.168519e+09 -2.328524e+09 5.993342e+02 -3.252669e+02 8.786456e+02
-3.586156e+09 -3.386155e+09 -3.546173e+09 -5.791906e+02 -9.787303e+03 1.792687e+03
-1.576723e+09 -1.376713e+09 -1.536718e+09 -2.271243e+02 -5.328257e+02 1.349339e+03
-1.602849e+09 -1.402847e+09 -1.562854e+09 2.007430e+04 -1.840523e+04 1.431298e+04
-1.576638e+09 -1.376666e+09 -1.536659e+09 8.379495e+03 -2.898799e+04 1.058728e+04
-2.466262e+09 -2.266194e+09 -2.426248e+09 -2.411179e+03 3.979568e+04 -1.594239e+04
-1.789390e+09 -1.589410e+09 -1.749398e+09 -7.681141e+03 -1.382856e+04 -2.898489e+03
-2.510453e+09 -2.310460e+09 -2.470458e+09 -3.853569e+03 -5.465866e+03 -1.531613e+03
-1.690593e+09 -1.490588e+09 -1.650596e+09 8.697725e+03 8.554798e+03 4.632849e+03
-2.260303e+09 -2.060321e+09 -2.220315e+09 -2.601328e+03 -1.362516e+03 8.589546e+03
-1.636036e+09 -1.436032e+09 -1.596038e+09 -9.395304e+03 -9.219099e+03 7.184296e+03
-1.836547e+09 -1.636531e+09 -1.796557e+09 -6.632127e+03 -1.244890e+04 -8.068587e+03
-1.741398e+09 -1.541357e+09 -1.701413e+09 -2.933926e+02 -7.305605e+03 -1.336494e+04
-1.986290e+09 -1.786247e+09 -1.946300e+09 -3.345268e+03 -1.165472e+04 -1.074257e+04
-1.937838e+09 -1.737826e+09 -1.897851e+09 -8.084296e+03 -1.360571e+04 -8.185907e+03
-2.087588e+09 -1.887583e+09 -2.047606e+09 -3.971164e+03 -2.116604e+04 -7.730723e+03
-2.166171e+09 -1.966161e+09 -2.126189e+09 -3.463474e+03 -1.874210e+04 -6.094379e+03
-1.924069e+09 -1.724070e+09 -1.884070e+09 3.889977e+02 3.489347e+01 -4.985512e+00
-2.061011e+09 -1.861013e+09 -2.021013e+09 3.565602e+02 3.287778e+01 6.716875e+01
-2.193734e+09 -1.993735e+09 -2.153735e+09 3.787593e+02 3.036179e+01 1.917304e+01
-1.908501e+09 -1.708503e+09 -1.868502e+09 3.744111e+02 2.837890e+01 -7.175402e+00
-2.063646e+09 -1.863647e+09 -2.023647e+09 3.600589e+02 2.816808e+01 1.827058e+01
-1.952278e+09 -1.752279e+09 -1.912279e+09 3.520793e+02 3.753711e+01 1.351365e+01
-1.942694e+09 -1.742695e+09 -1.902695e+09 3.076680e+02 3.639125e+01 2.110627e+01
-1.792534e+09 -1.592535e+09 -1.752535e+09 2.831307e+02 3.598090e+01 2.245064e+01
-2.008302e+09 -1.808303e+09 -1.968303e+09 3.227312e+02 3.032815e+01 3.719579e+01
-1.853240e+09 -1.653243e+09 -1.813242e+09 9.237431e+02 -3.860020e+01 -3.647847e+02
-1.955030e+09 -1.755033e+09 -1.915033e+09 9.369017e+02 -8.694907e+00 -4.487079e+02
-1.838076e+09 -1.638079e+09 -1.798079e+09 1.141845e+03 -8.756423e+01 -4.398087e+02
-1.955329e+09 -1.755333e+09 -1.915332e+09 7.520886e+02 3.207479e+01 -5.438175e+02
-2.058187e+09 -1.858190e+09 -2.018189e+09 7.195147e+02 1.848846e+00 -5.629180e+02
-2.177184e+09 -1.977187e+09 -2.137186e+09 7.503835e+02 2.137007e+01 -6.202955e+02
-1.931218e+09 -1.731217e+09 -1.891211e+09 -5.134148e+03 4.902196e+03 -1.025087e+04
-2.147793e+09 -1.947793e+09 -2.107790e+09 -3.375979e+03 3.293012e+03 -6.282486e+03
-2.257449e+09 -2.057449e+09 -2.217446e+09 -4.508104e+03 2.694041e+03 -5.781069e+03
-2.061200e+09 -1.861200e+09 -2.021199e+09 -6.072258e+03 5.591207e+03 -7.152118e+03
-2.126758e+09 -1.926758e+09 -2.086758e+09 -5.451656e+03 4.800461e+03 -7.380539e+03
-2.261984e+09 -2.061983e+09 -2.221981e+09 -6.774595e+03 4.663918e+03 -6.255824e+03
-1.794524e+09 -1.594531e+09 -1.754517e+09 -2.979138e+03 5.032460e+03 -1.557335e+04
-1.949090e+09 -1.749103e+09 -1.909089e+09 -5.760858e+03 3.900366e+03 -1.445023e+04
-1.832448e+09 -1.632463e+09 -1.792445e+09 -2.882435e+03 4.251632e+03 -1.457070e+04
-1.869631e+09 -1.669618e+09 -1.829621e+09 -5.967612e+03 3.123798e+03 -5.327575e+03
-1.752984e+09 -1.552973e+09 -1.712975e+09 -5.275425e+03 3.614446e+03 -6.107008e+03
-1.506630e+09 -1.306617e+09 -1.466611e+09 -2.478278e+03 -2.991635e+03 -1.134572e+04
-1.915139e+09 -1.715141e+09 -1.875135e+09 -4.644117e+03 4.595358e+03 -1.174917e+04
-2.048241e+09 -1.848239e+09 -2.008237e+09 -3.929822e+03 4.340707e+03 -7.354144e+03
-2.256010e+09 -2.056011e+09 -2.216008e+09 -3.881100e+03 3.218196e+03 -6.373081e+03
-1.935332e+09 -1.735334e+09 -1.895334e+09 -3.850933e+03 2.630182e+03 -7.650129e+03
-2.025069e+09 -1.825069e+09 -1.985068e+09 -3.600944e+03 2.658177e+03 -8.208174e+03
-1.891967e+09 -1.691971e+09 -1.851966e+09 -4.131153e+03 2.845794e+03 -1.272472e+04
-1.630012e+09 -1.429956e+09 -1.590035e+09 -1.507833e+04 -1.535939e+03 -2.523023e+02
-1.856615e+09 -1.656578e+09 -1.816620e+09 -1.985222e+04 1.161085e+04 -4.008503e+03
-1.966758e+09 -1.766719e+09 -1.926732e+09 -8.187212e+03 7.447827e+03 -1.278055e+04
-1.485358e+09 -1.285360e+09 -1.445360e+09 3.435074e+02 3.488137e+01 2.256518e+01
-1.701127e+09 -1.501128e+09 -1.661128e+09 3.291588e+02 4.852100e+01 3.228100e+01
-1.604182e+09 -1.404183e+09 -1.564183e+09 3.327090e+02 4.496091e+01 3.562906e+01
-1.937484e+09 -1.737490e+09 -1.897489e+09 2.128482e+02 1.526624e+02 -1.585274e+03
-2.018597e+09 -1.818603e+09 -1.978602e+09 -1.767020e+02 1.222300e+02 -1.771035e+03
-2.163829e+09 -1.963835e+09 -2.123834e+09 -1.368528e+02 2.804409e+02 -1.614707e+03
-1.610584e+09 -1.410562e+09 -1.570588e+09 -2.395167e+03 -6.110706e+03 -1.327266e+04
-1.841734e+09 -1.641712e+09 -1.801737e+09 -3.649658e+03 -7.144273e+03 -1.045633e+04
-1.965356e+09 -1.765346e+09 -1.925355e+09 1.007525e+02 -4.454303e+03 -5.787968e+03
-1.708430e+09 -1.508437e+09 -1.668473e+09 -8.477259e+03 -3.524517e+04 -2.776103e+03
-1.867541e+09 -1.667544e+09 -1.827581e+09 -9.401261e+03 -3.568281e+04 -5.698913e+03
-1.756704e+09 -1.556728e+09 -1.716740e+09 4.345674e+03 -3.142782e+04 6.536073e+03
-1.826411e+09 -1.626416e+09 -1.786450e+09 -8.476312e+03 -3.541774e+04 -3.018136e+03
-2.054494e+09 -1.854503e+09 -2.014524e+09 -7.780176e+03 -2.682865e+04 -4.983193e+03
-2.146748e+09 -1.946750e+09 -2.106773e+09 -3.577856e+03 -2.819044e+04 -4.362536e+03
-1.938763e+09 -1.738740e+09 -1.898811e+09 -9.061900e+03 -2.258194e+04 -1.185744e+04
-2.115792e+09 -1.915761e+09 -2.075830e+09 -9.438624e+03 -1.330644e+04 -1.207808e+04
-2.252621e+09 -2.052593e+09 -2.212654e+09 -3.583147e+03 -1.386310e+04 -4.454585e+03
-1.825853e+09 -1.625855e+09 -1.785854e+09 4.407708e+02 2.489233e+01 1.556061e+01
-1.713221e+09 -1.513223e+09 -1.673222e+09 4.042019e+02 3.425403e+01 2.859644e+01
-1.927538e+09 -1.727541e+09 -1.887540e+09 3.112946e+02 1.913508e+01 -2.140661e+01
-1.591457e+09 -1.391458e+09 -1.551458e+09 4.415000e+02 2.330603e+01 2.337056e+01
-1.797158e+09 -1.597159e+09 -1.757159e+09 4.388793e+02 4.134297e+01 3.384689e+01
-1.930401e+09 -1.730403e+09 -1.890403e+09 4.393749e+02 3.694364e+01 3.026690e+01
-2.093459e+09 -1.893460e+09 -2.053459e+09 3.168902e+02 1.201085e+01 2.873712e+00
-2.195388e+09 -1.995389e+09 -2.155389e+09 3.179601e+02 2.241019e+01 1.128193e+01
-2.391315e+09 -2.191316e+09 -2.351316e+09 3.300146e+02 1.027511e+01 -4.531007e+00
-1.510253e+09 -1.310202e+09 -1.470281e+09 -1.314953e+04 -8.485588e+03 -1.837012e+04
-1.755139e+09 -1.555112e+09 -1.715150e+09 -3.095484e+03 3.083800e+03 -3.203271e+03
-1.510242e+09 -1.310213e+09 -1.470247e+09 -2.178370e+03 8.557222e+02 -4.852440e+03
-1.843576e+09 -1.643584e+09 -1.803582e+09 -4.074385e+03 3.029563e+03 -7.223447e+03
-1.734346e+09 -1.534353e+09 -1.694352e+09 -3.984094e+03 2.274470e+03 -6.834830e+03
-1.959210e+09 -1.759218e+09 -1.919214e+09 -4.722020e+03 2.874271e+03 -7.538635e+03
-1.940119e+09 -1.740127e+09 -1.900126e+09 -5.299903e+02 3.504424e+02 -4.905034e+03
-2.071811e+09 -1.871818e+09 -2.031815e+09 -2.273273e+02 1.817099e+02 -5.530160e+03
-2.196940e+09 -1.996947e+09 -2.156943e+09 4.297137e+02 1.580477e+02 -6.448846e+03
-2.002899e+09 -1.802887e+09 -1.962931e+09 -8.081364e+03 -1.818592e+04 -1.059740e+04
-2.111004e+09 -1.910974e+09 -2.071052e+09 2.675640e+03 -9.557525e+03 -3.921848e+03
-2.214764e+09 -2.014726e+09 -2.174802e+09 1.407293e+03 -1.305230e+04 -7.114831e+03
-1.938105e+09 -1.738095e+09 -1.898155e+09 -8.527226e+03 -1.808781e+04 -1.690169e+03
-2.049134e+09 -1.849113e+09 -2.009169e+09 -6.534472e+03 -1.850805e+04 -8.539824e+03
-1.945380e+09 -1.745360e+09 -1.905425e+09 -8.362537e+03 -1.714325e+04 -8.702202e+03
-1.889698e+09 -1.689689e+09 -1.849718e+09 -1.242408e+04 -2.362490e+04 -8.191166e+03
-1.781639e+09 -1.581656e+09 -1.741658e+09 -3.138673e+04 -2.340895e+04 -1.427115e+04
-2.026539e+09 -1.826540e+09 -1.986552e+09 -1.468839e+04 -2.200513e+04 -8.626786e+03
-1.612470e+09 -1.412447e+09 -1.572474e+09 -1.221796e+03 1.394492e+03 4.781097e+03
-1.839077e+09 -1.639055e+09 -1.799076e+09 -4.014782e+03 -1.897162e+03 3.052127e+03
-1.983131e+09 -1.783103e+09 -1.943131e+09 -4.228398e+03 1.110495e+03 4.584387e+03
-1.816341e+09 -1.616330e+09 -1.776357e+09 8.194988e+03 -1.618833e+04 1.307080e+04
-1.942891e+09 -1.742885e+09 -1.902901e+09 -5.571019e+03 -6.005276e+03 5.219873e+02
-1.827487e+09 -1.627491e+09 -1.787497e+09 8.228055e+03 -1.800365e+04 1.015251e+04
-1.625847e+09 -1.425832e+09 -1.585839e+09 -1.457987e+03 3.196315e+03 2.470135e+03
-1.874761e+09 -1.674745e+09 -1.834756e+09 8.033365e+02 -7.518662e+02 3.900484e+03
-2.001892e+09 -1.801888e+09 -1.961888e+09 -1.355251e+03 7.880609e+02 -4.705466e+03
-1.771916e+09 -1.571923e+09 -1.731922e+09 -9.485674e+02 4.201039e+02 -2.385610e+03
-1.868169e+09 -1.668174e+09 -1.828173e+09 -3.772718e+02 5.131013e+01 -2.288329e+03
-1.780451e+09 -1.580457e+09 -1.740456e+09 -1.645856e+03 3.675704e+02 -2.026751e+03
-1.999877e+09 -1.799883e+09 -1.959881e+09 9.711061e+02 -8.299544e+01 -2.766949e+03
-2.073873e+09 -1.873879e+09 -2.033877e+09 1.121845e+03 -1.243475e+02 -2.738106e+03
-1.931540e+09 -1.731547e+09 -1.891544e+09 9.272008e+02 5.248428e+01 -3.220600e+03
-1.982195e+09 -1.782199e+09 -1.942198e+09 7.496906e+02 -3.714475e+01 -9.083685e+02
-2.085187e+09 -1.885191e+09 -2.045190e+09 7.652393e+02 -3.158663e+01 -8.474571e+02
-2.174895e+09 -1.974900e+09 -2.134899e+09 6.514218e+02 -2.983535e+01 -9.024125e+02
-1.858116e+09 -1.658120e+09 -1.818120e+09 5.747565e+02 3.248446e+01 -6.753933e+02
-1.732303e+09 -1.532307e+09 -1.692307e+09 1.727941e+02 1.055434e+02 -7.630666e+02
-1.947824e+09 -1.747829e+09 -1.907828e+09 1.558017e+02 1.198670e+02 -7.081720e+02
-1.636316e+09 -1.436328e+09 -1.596320e+09 -3.561159e+03 3.454167e+03 -1.384568e+04
-1.867067e+09 -1.667074e+09 -1.827060e+09 -1.588903e+03 2.338309e+03 -1.618145e+04
-1.930368e+09 -1.730379e+09 -1.890366e+09 -1.593599e+03 2.183773e+03 -1.652998e+04
-1.976744e+09 -1.776745e+09 -1.936745e+09 3.909755e+02 3.934444e+01 2.605900e+01
-2.045713e+09 -1.845714e+09 -2.005714e+09 4.308190e+02 2.597204e+01 7.419914e+00
-2.264364e+09 -2.064365e+09 -2.224365e+09 4.187254e+02 3.100350e+01 3.098756e+01
-1.793624e+09 -1.593625e+09 -1.753625e+09 3.895708e+02 4.092260e+01 4.056739e+00
-1.862111e+09 -1.662112e+09 -1.822112e+09 3.443999e+02 4.349212e+01 2.213022e+01
-2.012275e+09 -1.812276e+09 -1.972275e+09 3.497978e+02 4.223840e+01 1.959470e+01
-1.897971e+09 -1.697964e+09 -1.857993e+09 -7.792427e+03 -2.483536e+04 -6.746068e+03
-2.069114e+09 -1.869111e+09 -2.029137e+09 -4.384839e+03 -2.806239e+04 -3.812410e+03
-1.951147e+09 -1.751171e+09 -1.911171e+09 2.252591e+03 -3.275148e+04 -2.497331e+03
-1.830692e+09 -1.630666e+09 -1.790731e+09 -9.809105e+03 -1.568467e+04 -1.719510e+04
-1.969112e+09 -1.769090e+09 -1.929141e+09 -9.174867e+02 -1.430555e+04 -6.229637e+03
-1.859414e+09 -1.659345e+09 -1.819435e+09 -4.526417e+03 -2.293081e+03 -1.858893e+04
-1.872854e+09 -1.672856e+09 -1.832855e+09 4.548185e+02 7.918713e+01 -6.815295e+01
-1.763439e+09 -1.563442e+09 -1.723441e+09 4.458905e+02 6.613407e+01 -4.553555e+01
-1.512249e+09 -1.312252e+09 -1.472251e+09 4.255865e+02 6.168991e+01 -8.850867e+01
-1.616247e+09 -1.416252e+09 -1.576252e+09 1.178562e+03 -7.541047e+01 -1.888697e+03
-1.843318e+09 -1.643323e+09 -1.803322e+09 1.053188e+03 -7.579311e+01 -1.724471e+03
-1.950596e+09 -1.750600e+09 -1.910600e+09 1.150316e+03 -1.123947e+02 -1.902585e+03
-1.801684e+09 -1.601690e+09 -1.761689e+09 2.264382e+02 2.828103e+02 -1.722684e+03
-1.693706e+09 -1.493712e+09 -1.653712e+09 -3.192253e+02 2.726310e+02 -1.751950e+03
-1.882796e+09 -1.682802e+09 -1.842801e+09 -5.030887e+02 1.558589e+02 -1.698144e+03
-1.603009e+09 -1.403017e+09 -1.563016e+09 8.052478e+02 -1.063127e+02 -3.888550e+03
-1.812804e+09 -1.612812e+09 -1.772810e+09 1.050317e+03 -1.310597e+02 -4.182648e+03
-1.959357e+09 -1.759364e+09 -1.919362e+09 1.083172e+03 -2.144178e+02 -4.504359e+03
-1.951119e+09 -1.751122e+09 -1.911121e+09 8.089463e+02 5.799365e+01 -7.088667e+02
-2.074418e+09 -1.874422e+09 -2.034421e+09 8.097096e+02 3.031776e+01 -8.319505e+02
-1.955421e+09 -1.755425e+09 -1.915424e+09 7.822877e+02 -1.480582e+01 -7.837551e+02
-1.928144e+09 -1.728152e+09 -1.888150e+09 1.257264e+03 -1.730172e+02 -3.875632e+03
-2.070476e+09 -1.870483e+09 -2.030481e+09 1.313244e+03 -2.290299e+02 -3.792989e+03
-2.194367e+09 -1.994374e+09 -2.154372e+09 1.353826e+03 -2.183489e+02 -4.199950e+03
-1.510148e+09 -1.310153e+09 -1.470153e+09 1.484074e+02 1.066821e+02 -9.136180e+02
-1.725670e+09 -1.525675e+09 -1.685674e+09 5.907766e+01 1.331755e+02 -8.802769e+02
-1.833647e+09 -1.633652e+09 -1.793651e+09 5.535022e+01 2.200654e+02 -9.693965e+02
-1.951295e+09 -1.751300e+09 -1.911299e+09 9.635956e+02 -4.859864e+01 -1.825781e+03
-2.064298e+09 -1.864303e+09 -2.024302e+09 8.425143e+02 -7.554435e+01 -1.954390e+03
-2.166117e+09 -1.966122e+09 -2.126120e+09 8.161320e+02 -4.013337e+01 -2.258682e+03
-1.961885e+09 -1.761874e+09 -1.921888e+09 -6.319304e+03 -6.305636e+03 -8.837952e+03
-2.090056e+09 -1.890045e+09 -2.050057e+09 -5.941231e+03 -6.496576e+03 -9.044074e+03
-1.975878e+09 -1.775866e+09 -1.935882e+09 -7.648516e+03 -7.890442e+03 -9.547926e+03
-1.977982e+09 -1.777988e+09 -1.937985e+09 -3.426043e+03 2.868920e+03 -7.419389e+03
-2.093616e+09 -1.893622e+09 -2.053618e+09 -3.678361e+03 2.558730e+03 -7.369126e+03
-2.216390e+09 -2.016394e+09 -2.176384e+09 -1.229163e+03 2.275511e+03 -1.094669e+04
-1.631357e+09 -1.431359e+09 -1.591358e+09 4.372113e+02 5.763642e+01 -1.730779e+01
-1.882547e+09 -1.682549e+09 -1.842548e+09 4.513289e+02 6.505741e+01 1.426443e+01
-1.973027e+09 -1.773030e+09 -1.933029e+09 3.752909e+02 4.394012e+01 -4.646723e+01
-1.500834e+09 -1.300846e+09 -1.460845e+09 4.630164e+02 1.004094e+02 -6.588307e+03
-1.500834e+09 -1.300846e+09 -1.460845e+09 1.663578e+03 -3.509644e+02 -6.965487e+03
-1.740064e+09 -1.540076e+09 -1.700073e+09 2.193428e+03 -5.650195e+02 -7.476792e+03
-1.945137e+09 -1.745142e+09 -1.905141e+09 7.340930e+02 5.958864e+01 -1.467981e+03
-2.060718e+09 -1.860723e+09 -2.020721e+09 6.530961e+02 -1.642639e+01 -1.377950e+03
-1.964359e+09 -1.764363e+09 -1.924363e+09 7.578038e+02 1.502994e+01 -1.199067e+03
-1.817031e+09 -1.617039e+09 -1.777038e+09 -1.842778e+03 1.335018e+03 -4.161606e+03
-1.710753e+09 -1.510761e+09 -1.670760e+09 -1.859797e+03 9.579437e+02 -3.706179e+03
-1.491852e+09 -1.291860e+09 -1.451860e+09 -1.676578e+03 8.699290e+02 -3.608178e+03
-1.496380e+09 -1.296385e+09 -1.456387e+09 -4.310124e+03 2.706177e+03 -5.237120e+03
-1.496378e+09 -1.296379e+09 -1.456383e+09 -7.720097e+03 5.607392e+03 -6.835779e+03
-1.721244e+09 -1.521246e+09 -1.681248e+09 -6.432287e+03 3.905829e+03 -5.107738e+03
-1.516725e+09 -1.316722e+09 -1.476723e+09 -6.222094e+03 -5.759606e+03 -4.612384e+03
-1.746631e+09 -1.546626e+09 -1.706629e+09 -5.081417e+03 -4.525681e+03 -3.975895e+03
-1.854966e+09 -1.654961e+09 -1.814964e+09 -4.752674e+03 -4.488708e+03 -3.939107e+03
-1.940896e+09 -1.740864e+09 -1.900926e+09 -5.917952e+03 -1.251300e+04 -4.352397e+03
-2.042532e+09 -1.842494e+09 -2.002555e+09 -5.033969e+03 -1.170926e+04 -1.617494e+03
-1.912514e+09 -1.712491e+09 -1.872548e+09 -5.131290e+03 -5.451700e+03 4.684477e+03
-1.925902e+09 -1.725877e+09 -1.885927e+09 -6.984799e+03 -1.024955e+04 2.141463e+03
-2.055926e+09 -1.855886e+09 -2.015939e+09 -1.020074e+04 -1.517075e+04 -3.311174e+03
-2.182658e+09 -1.982634e+09 -2.142655e+09 -1.339046e+04 -5.814853e+03 -1.309771e+04
-1.485469e+09 -1.285470e+09 -1.445469e+09 4.843033e+02 4.034234e+01 5.274876e+00
-1.485469e+09 -1.285470e+09 -1.445469e+09 4.578502e+02 4.573348e+01 1.447704e+01
-1.706781e+09 -1.506782e+09 -1.666782e+09 4.661317e+02 5.566725e+01 1.161790e+01
-1.890791e+09 -1.690798e+09 -1.850796e+09 -1.050608e+02 1.287753e+02 -2.378825e+03
-2.036024e+09 -1.836030e+09 -1.996029e+09 5.075458e+01 2.331787e+02 -2.375429e+03
-1.962273e+09 -1.762280e+09 -1.922278e+09 -1.337968e+02 3.328604e+02 -2.530169e+03
-1.490500e+09 -1.290504e+09 -1.450504e+09 3.683016e+02 7.220904e+01 -4.630887e+02
-1.712654e+09 -1.512658e+09 -1.672657e+09 3.728109e+02 9.664542e+01 -4.286431e+02
-1.838467e+09 -1.638471e+09 -1.798470e+09 3.933512e+02 1.508992e+02 -4.950609e+02
-1.973027e+09 -1.773033e+09 -1.933032e+09 8.900053e+02 -9.660497e+01 -2.057251e+03
-2.100060e+09 -1.900065e+09 -2.060064e+09 8.757867e+02 -1.184360e+02 -2.095222e+03
-2.174055e+09 -1.974060e+09 -2.134059e+09 1.126784e+03 -1.674240e+02 -2.515461e+03
-1.919312e+09 -1.719318e+09 -1.879317e+09 -8.672600e+01 2.164688e+02 -2.635036e+03
-2.103179e+09 -1.903184e+09 -2.063183e+09 -4.315690e+02 3.255022e+02 -2.170616e+03
-2.006926e+09 -1.806933e+09 -1.966931e+09 -4.131243e+02 2.992513e+02 -2.842964e+03
-1.929710e+09 -1.729713e+09 -1.889713e+09 6.440755e+02 9.655328e+00 -2.435091e+02
-2.060532e+09 -1.860535e+09 -2.020534e+09 6.802314e+02 3.620183e+00 -2.654988e+02
-1.909780e+09 -1.709783e+09 -1.869782e+09 6.439055e+02 3.246018e+01 -3.194345e+02
-1.849701e+09 -1.649710e+09 -1.809707e+09 -6.834633e+02 8.394926e+01 -7.490123e+03
-1.735600e+09 -1.535609e+09 -1.695606e+09 -8.935250e+02 1.580767e+02 -7.564878e+03
-1.497629e+09 -1.297640e+09 -1.457636e+09 3.402701e+02 5.432054e+02 -1.063958e+04
-1.606427e+09 -1.406431e+09 -1.566430e+09 1.098239e+03 -8.304001e+01 -8.010904e+02
-1.827514e+09 -1.627517e+09 -1.787517e+09 1.128924e+03 -7.595569e+01 -8.121917e+02
-1.955730e+09 -1.755734e+09 -1.915733e+09 1.117552e+03 -7.989128e+01 -7.842274e+02
-1.487266e+09 -1.287269e+09 -1.447268e+09 1.208065e+03 -4.484314e+01 -4.850700e+02
-1.708352e+09 -1.508355e+09 -1.668355e+09 1.193906e+03 -1.660871e+01 -5.051612e+02
-1.825306e+09 -1.625309e+09 -1.785309e+09 1.104352e+03 -2.654837e+00 -6.183218e+02
-1.978944e+09 -1.778946e+09 -1.938946e+09 5.374703e+02 6.556862e+01 -7.106021e+01
-2.107797e+09 -1.907799e+09 -2.067799e+09 4.740175e+02 3.748480e+01 -1.536229e+02
-2.210444e+09 -2.010446e+09 -2.170446e+09 4.780182e+02 3.892170e+01 -1.897782e+02
-2.097471e+09 -1.897465e+09 -2.057470e+09 -2.430212e+03 -3.124037e+03 -4.084827e+03
-2.177191e+09 -1.977185e+09 -2.137190e+09 -2.215310e+03 -3.007849e+03 -3.985237e+03
-2.369166e+09 -2.169160e+09 -2.329166e+09 -1.738474e+03 -2.554791e+03 -3.856115e+03
-1.984838e+09 -1.784841e+09 -1.944840e+09 7.012548e+02 5.875905e+01 -3.004985e+01
-2.089837e+09 -1.889839e+09 -2.049839e+09 7.506491e+02 2.362291e+01 -1.221966e+02
-2.183422e+09 -1.983424e+09 -2.143424e+09 7.591509e+02 2.951560e+01 -1.252298e+02
-2.098193e+09 -1.898188e+09 -2.058193e+09 -2.178392e+03 -2.847805e+03 -3.859575e+03
-2.177913e+09 -1.977907e+09 -2.137912e+09 -1.956852e+03 -2.800004e+03 -3.748342e+03
-2.005845e+09 -1.805837e+09 -1.965844e+09 -4.137059e+03 -4.373299e+03 -5.269943e+03
-1.935809e+09 -1.735812e+09 -1.895812e+09 6.278900e+02 2.662622e+01 -1.643564e+02
-2.193132e+09 -1.993135e+09 -2.153135e+09 6.730344e+02 1.475218e+01 -2.736902e+02
-2.090485e+09 -1.890488e+09 -2.050488e+09 6.526303e+02 2.281455e+01 -2.293668e+02
-1.713703e+09 -1.513713e+09 -1.673742e+09 1.230985e+03 -2.307850e+04 1.698819e+03
-1.598645e+09 -1.398686e+09 -1.558680e+09 1.385929e+04 -3.764301e+04 8.304192e+03
-1.598648e+09 -1.398689e+09 -1.558681e+09 8.755896e+03 -3.802366e+04 8.148956e+03
-1.494901e+09 -1.294809e+09 -1.454979e+09 -8.469231e+03 -4.028130e+03 -3.720650e+04
-1.720983e+09 -1.520927e+09 -1.680961e+09 -2.873569e+04 2.389701e+04 -4.219309e+04
-1.834553e+09 -1.634545e+09 -1.794585e+09 -5.456540e+03 -1.120233e+04 -1.118104e+04
-2.381494e+09 -2.181462e+09 -2.341528e+09 -6.584105e+03 -1.393478e+04 -1.517039e+04
-1.925201e+09 -1.725185e+09 -1.885238e+09 -4.646377e+03 -1.795960e+04 -7.684100e+03
-2.033321e+09 -1.833291e+09 -1.993361e+09 -1.434575e+04 -1.655261e+04 -1.886870e+04
-2.210355e+09 -2.010323e+09 -2.170391e+09 -7.527654e+03 -1.299109e+04 -1.448686e+04
-2.102236e+09 -1.902215e+09 -2.062272e+09 -5.276338e+03 -1.724396e+04 -7.845453e+03
-2.273376e+09 -2.073351e+09 -2.233404e+09 -6.605984e+03 -1.445143e+04 -1.207612e+04
-2.096344e+09 -1.896327e+09 -2.056372e+09 -8.621845e+03 -1.883184e+04 -1.396491e+04
-2.204460e+09 -2.004429e+09 -2.164500e+09 -9.194712e+03 -1.736671e+04 -1.771632e+04
-1.957146e+09 -1.757127e+09 -1.917187e+09 -6.018839e+03 -1.662095e+04 -5.915054e+03
-2.058784e+09 -1.858760e+09 -2.018821e+09 -2.263845e+03 -1.784473e+04 4.148153e+02
-2.156224e+09 -1.956204e+09 -2.116266e+09 -2.020141e+03 -2.067999e+04 1.602476e+03
-1.824518e+09 -1.624510e+09 -1.784518e+09 -7.332149e+03 -8.117443e+03 -8.820969e+03
-1.913292e+09 -1.713294e+09 -1.873296e+09 -6.043930e+03 -9.184559e+03 -8.002780e+03
-1.822594e+09 -1.622599e+09 -1.782598e+09 -6.854151e+03 -1.088775e+04 -7.348467e+03
-1.918193e+09 -1.718183e+09 -1.878202e+09 -1.123123e+04 -1.074858e+04 -1.126730e+04
-2.023455e+09 -1.823457e+09 -1.983468e+09 -1.193470e+04 -1.535472e+04 -1.279996e+04
-1.883004e+09 -1.683004e+09 -1.843015e+09 -1.317594e+04 -1.601826e+04 -1.115572e+04
-1.907698e+09 -1.707699e+09 -1.867699e+09 4.896370e+02 5.081090e+01 -3.437952e+01
-2.020177e+09 -1.820178e+09 -1.980178e+09 4.965127e+02 3.693846e+01 -4.965232e+01
-2.143525e+09 -1.943526e+09 -2.103526e+09 4.802611e+02 3.868281e+01 2.539286e+00
-1.917930e+09 -1.717932e+09 -1.877931e+09 5.110639e+02 4.769025e+01 -4.863549e+01
-2.030409e+09 -1.830411e+09 -1.990410e+09 5.311784e+02 4.654111e+01 -1.019464e+02
-1.923162e+09 -1.723164e+09 -1.883163e+09 5.505379e+02 4.355736e+01 -8.247552e+01
-1.604836e+09 -1.404837e+09 -1.564837e+09 4.819400e+02 2.751283e+01 1.092935e+01
-1.826148e+09 -1.626149e+09 -1.786149e+09 4.899202e+02 4.628962e+01 1.759559e+01
-1.962981e+09 -1.762982e+09 -1.922982e+09 4.921505e+02 3.706155e+01 2.388045e+01
-1.597601e+09 -1.397622e+09 -1.557643e+09 -1.134935e+04 -3.654228e+04 -6.984549e+03
-1.546484e+09 -1.346541e+09 -1.506512e+09 -5.874192e+03 -3.192658e+04 -6.497778e+02
-1.546476e+09 -1.346512e+09 -1.506508e+09 -3.301623e+03 -2.564497e+04 -8.399614e+01
-1.957306e+09 -1.757291e+09 -1.917304e+09 -2.708973e+03 -6.597108e+03 -7.273269e+02
-2.228503e+09 -2.028492e+09 -2.188493e+09 -5.002114e+03 2.978965e+02 -5.147072e+03
-2.101362e+09 -1.901346e+09 -2.061358e+09 -6.261395e+03 -4.478568e+02 1.129878e+02
-1.843458e+09 -1.643427e+09 -1.803458e+09 -9.703152e+03 -1.289227e+04 -1.229550e+04
-1.744608e+09 -1.544524e+09 -1.704617e+09 -2.634764e+04 3.213911e+04 -2.522565e+04
-1.970180e+09 -1.770160e+09 -1.930147e+09 -1.648466e+04 1.390517e+04 -3.075395e+04
-1.888087e+09 -1.688076e+09 -1.848087e+09 -2.438065e+03 -2.581481e+03 -4.706005e+03
-1.770288e+09 -1.570280e+09 -1.730287e+09 -2.257732e+03 -2.951322e+03 -4.356884e+03
-1.996094e+09 -1.796080e+09 -1.956096e+09 8.188149e+01 -1.995563e+03 -5.325266e+03
-1.715581e+09 -1.515600e+09 -1.675624e+09 -1.366584e+04 -3.922506e+04 -8.347718e+03
-1.825695e+09 -1.625722e+09 -1.785731e+09 -1.354866e+04 -3.727548e+04 -8.651606e+03
-1.943664e+09 -1.743668e+09 -1.903695e+09 -3.697581e+03 -2.696643e+04 -6.625068e+03
-1.929723e+09 -1.729724e+09 -1.889723e+09 4.811156e+02 5.179663e+01 1.055473e+01
-2.199278e+09 -1.999279e+09 -2.159279e+09 5.001354e+02 3.399378e+01 2.609373e+01
-2.066556e+09 -1.866557e+09 -2.026556e+09 5.009630e+02 3.102333e+01 4.769004e+01
-1.814476e+09 -1.614477e+09 -1.774477e+09 5.693409e+02 5.895656e+01 -5.499770e+00
-1.703936e+09 -1.503937e+09 -1.663937e+09 5.702265e+02 5.437589e+01 6.671867e+00
-1.937824e+09 -1.737825e+09 -1.897825e+09 5.682365e+02 4.587394e+01 3.170561e+00
-1.736377e+09 -1.536381e+09 -1.696380e+09 4.888951e+02 5.187970e+01 -5.775267e+02
-1.610564e+09 -1.410568e+09 -1.570568e+09 4.402257e+02 -4.781455e+01 -5.345790e+02
-1.610564e+09 -1.410568e+09 -1.570568e+09 1.731222e+02 6.131782e+01 -6.146114e+02
-1.817648e+09 -1.617651e+09 -1.777650e+09 5.384617e+02 5.332769e+01 -8.504095e+01
-1.972324e+09 -1.772327e+09 -1.932326e+09 5.218404e+02 5.469888e+01 -8.771760e+01
-1.860559e+09 -1.660561e+09 -1.820561e+09 3.888646e+02 4.958230e+01 -4.778279e+01
-1.805249e+09 -1.605251e+09 -1.765251e+09 7.905674e+02 6.936676e+01 -2.158510e+02
-1.950699e+09 -1.750702e+09 -1.910701e+09 8.553209e+02 4.297575e+01 -2.009078e+02
-1.831403e+09 -1.631405e+09 -1.791405e+09 9.927412e+02 5.830319e+01 -2.198309e+02
-1.838647e+09 -1.638649e+09 -1.798649e+09 8.100391e+02 4.891053e+01 -5.319274e+01
-1.720485e+09 -1.520487e+09 -1.680487e+09 8.645535e+02 8.626474e+01 -7.561642e+01
-1.932232e+09 -1.732234e+09 -1.892234e+09 8.315422e+02 8.752603e+01 -3.735313e+01
-1.864838e+09 -1.664834e+09 -1.824861e+09 -1.519391e+04 -1.928891e+04 -1.219111e+04
-1.743016e+09 -1.543030e+09 -1.703047e+09 -9.613671e+03 -2.935488e+04 -1.266742e+04
-1.498125e+09 -1.298154e+09 -1.458165e+09 -1.266167e+04 -4.242739e+04 -1.122083e+04
-1.816906e+09 -1.616898e+09 -1.776913e+09 -7.264625e+03 -1.282940e+04 -9.920101e+03
-1.721769e+09 -1.521743e+09 -1.681765e+09 -1.230515e+04 -8.659271e+03 -1.635952e+04
-1.490615e+09 -1.290589e+09 -1.450620e+09 -9.203894e+03 -9.883189e+03 -1.911052e+04
-1.838090e+09 -1.638088e+09 -1.798090e+09 -8.056427e+03 3.979800e+03 -1.260555e+04
-1.733231e+09 -1.533215e+09 -1.693252e+09 -1.610549e+04 1.261814e+04 -1.269469e+04
-1.979577e+09 -1.779587e+09 -1.939575e+09 -1.047492e+04 1.593463e+04 -1.772852e+04
-1.995178e+09 -1.795181e+09 -1.955180e+09 4.653113e+02 2.467205e+01 1.870373e+00
-2.077043e+09 -1.877045e+09 -2.037044e+09 4.464658e+02 5.495204e+01 7.566142e+01
-2.178728e+09 -1.978731e+09 -2.138730e+09 3.136294e+02 3.757833e+01 3.688577e-01
-1.587127e+09 -1.387128e+09 -1.547128e+09 6.898544e+02 5.949126e+01 -4.114667e+01
-1.800250e+09 -1.600251e+09 -1.760251e+09 6.694976e+02 7.525378e+01 2.026802e+00
-1.913542e+09 -1.713544e+09 -1.873544e+09 7.029887e+02 6.766033e+01 -1.251850e+01
-1.643460e+09 -1.443461e+09 -1.603461e+09 3.867843e+02 4.166714e+01 5.148690e+00
-1.561783e+09 -1.361784e+09 -1.521784e+09 3.948102e+02 4.856589e+01 1.261073e+01
-1.561783e+09 -1.361784e+09 -1.521784e+09 3.413571e+02 4.652390e+01 -4.237181e+00
-1.514568e+09 -1.314518e+09 -1.474584e+09 -2.012660e+04 2.303178e+03 -1.757643e+04
-1.740150e+09 -1.540109e+09 -1.700118e+09 -1.326898e+04 1.738741e+04 -4.086780e+04
-1.514580e+09 -1.314501e+09 -1.474608e+09 -3.091891e+04 1.069811e+04 -4.045366e+04
-1.499219e+09 -1.299128e+09 -1.459297e+09 -4.758321e+04 9.285758e+03 -2.426058e+04
-1.729273e+09 -1.529215e+09 -1.689263e+09 -1.038085e+04 2.648500e+04 -3.673080e+03
-1.618475e+09 -1.418356e+09 -1.578458e+09 -2.388185e+04 3.325496e+04 -3.142676e+04
-1.838907e+09 -1.638879e+09 -1.798927e+09 -9.015883e+03 -2.080548e+04 -8.999789e+03
-1.844552e+09 -1.644453e+09 -1.804561e+09 -1.462859e+04 2.520853e+04 -2.724862e+04
-1.955393e+09 -1.755384e+09 -1.915417e+09 -1.171804e+04 -1.361708e+04 -9.417655e+03
-1.848478e+09 -1.648479e+09 -1.808479e+09 4.208185e+02 5.680994e+01 1.788042e+01
-1.744078e+09 -1.544079e+09 -1.704078e+09 4.297383e+02 5.483602e+01 2.068553e+01
-1.491988e+09 -1.291989e+09 -1.451989e+09 4.576829e+02 5.413137e+01 -2.127984e+01
-1.679530e+09 -1.479531e+09 -1.639535e+09 -1.312787e+04 -1.644811e+04 -1.068308e+04
-1.588830e+09 -1.388834e+09 -1.548837e+09 -1.449376e+04 -1.614340e+04 -1.024899e+04
-1.588829e+09 -1.388833e+09 -1.548838e+09 -1.385078e+04 -1.761776e+04 -1.026752e+04
-1.941916e+09 -1.741918e+09 -1.901918e+09 6.929021e+02 3.561778e+01 -1.587520e+02
-2.092846e+09 -1.892848e+09 -2.052848e+09 7.066746e+02 1.000982e+01 -1.239454e+02
-1.990514e+09 -1.790516e+09 -1.950516e+09 6.333909e+02 7.951215e+00 -1.011352e+02
-1.936459e+09 -1.736461e+09 -1.896460e+09 6.047826e+02 3.198370e+01 -1.695574e+01
-2.171059e+09 -1.971061e+09 -2.131060e+09 5.821352e+02 2.746359e+01 -1.943655e+01
-2.089195e+09 -1.889197e+09 -2.049196e+09 5.952407e+02 1.942540e+01 -4.732074e+01
-2.047095e+09 -1.847096e+09 -2.007095e+09 3.453722e+02 2.836327e+01 -9.344973e+00
-2.260391e+09 -2.060393e+09 -2.220392e+09 3.619558e+02 2.386015e+01 2.484313e+00
-2.149024e+09 -1.949025e+09 -2.109025e+09 3.557292e+02 3.411858e+01 -2.291479e+00
-1.826580e+09 -1.626581e+09 -1.786581e+09 3.944748e+02 3.801415e+01 2.113273e+01
-1.813873e+09 -1.613874e+09 -1.773874e+09 4.183767e+02 2.767409e+01 1.608109e+01
-1.895550e+09 -1.695551e+09 -1.855550e+09 4.248944e+02 2.662455e+01 1.487297e+01
-1.807390e+09 -1.607392e+09 -1.767391e+09 4.297910e+02 5.255363e+01 1.077411e+01
-1.694758e+09 -1.494760e+09 -1.654760e+09 4.137362e+02 6.267235e+01 3.311451e+01
-1.489057e+09 -1.289059e+09 -1.449059e+09 3.878510e+02 5.316155e+01 -2.576104e+00
-1.855899e+09 -1.655892e+09 -1.815901e+09 -7.951450e+03 -8.361243e+03 -6.931088e+03
-1.744271e+09 -1.544272e+09 -1.704272e+09 -1.076937e+04 -1.004837e+04 -6.542702e+03
-1.510503e+09 -1.310505e+09 -1.470503e+09 -1.118446e+04 -9.445839e+03 -6.893862e+03
-1.876815e+09 -1.676812e+09 -1.836814e+09 -2.939423e+03 -2.870433e+03 -2.965826e+03
-1.918635e+09 -1.718632e+09 -1.878634e+09 -2.937795e+03 -2.921024e+03 -2.951628e+03
-2.068791e+09 -1.868786e+09 -2.028789e+09 -2.591694e+03 -2.996414e+03 -2.997616e+03
-1.839804e+09 -1.639794e+09 -1.799803e+09 -5.089228e+03 -4.856487e+03 -8.244563e+03
-1.719829e+09 -1.519810e+09 -1.679825e+09 -7.395804e+03 -3.418918e+03 -7.522747e+03
-1.494020e+09 -1.294001e+09 -1.454017e+09 -6.976355e+03 -3.591543e+03 -7.805524e+03
-1.506073e+09 -1.306075e+09 -1.466074e+09 8.304664e+02 5.791636e+01 -6.176945e+01
-1.717820e+09 -1.517821e+09 -1.677821e+09 7.925055e+02 6.192535e+01 -2.551888e+01
-1.818079e+09 -1.618081e+09 -1.778081e+09 8.074998e+02 2.936057e+01 -1.334430e+01
-1.969157e+09 -1.769167e+09 -1.929161e+09 -2.905770e+03 2.160800e+03 -1.082955e+04
-2.155236e+09 -1.955245e+09 -2.115234e+09 -3.840325e+02 1.694044e+03 -1.383482e+04
-2.091934e+09 -1.891940e+09 -2.051928e+09 -2.639899e+02 1.837453e+03 -1.337056e+04
-1.818419e+09 -1.618413e+09 -1.778421e+09 -6.644574e+03 4.007083e+03 -3.614930e+03
-1.707308e+09 -1.507290e+09 -1.667303e+09 -5.502022e+03 6.163649e+03 -4.191817e+02
-1.953653e+09 -1.753636e+09 -1.913646e+09 -7.458720e+03 5.677611e+03 5.592934e+02
-1.623296e+09 -1.423284e+09 -1.583296e+09 -8.811243e+01 -5.000994e+02 1.755422e+03
-1.869634e+09 -1.669623e+09 -1.829623e+09 -2.853091e+03 2.196877e+03 -4.591924e+03
-1.505064e+09 -1.305046e+09 -1.465056e+09 -1.235145e+03 3.729221e+03 -1.384926e+03
-1.828732e+09 -1.628719e+09 -1.788760e+09 -2.158267e+03 -1.864109e+04 7.518376e+03
-1.811115e+09 -1.611136e+09 -1.771144e+09 1.017720e+04 -3.753937e+04 1.573861e+04
-1.926176e+09 -1.726171e+09 -1.886206e+09 -6.480038e+02 -2.387292e+04 8.293701e+03
-1.507520e+09 -1.307522e+09 -1.467521e+09 4.357831e+02 5.643487e+01 1.109071e+00
-1.721837e+09 -1.521839e+09 -1.681839e+09 3.617305e+02 3.149163e+01 -6.391776e+01
-1.507520e+09 -1.307522e+09 -1.467521e+09 4.340405e+02 5.062488e+01 6.502907e+00
-2.010168e+09 -1.810156e+09 -1.970166e+09 -3.174315e+03 -1.806451e+03 -5.751704e+03
-2.118171e+09 -1.918161e+09 -2.078176e+09 -3.083638e+02 -2.437329e+03 -5.283485e+03
-2.246342e+09 -2.046331e+09 -2.206344e+09 -5.958816e+02 -1.550014e+03 -5.480388e+03
-1.856426e+09 -1.656419e+09 -1.816449e+09 -1.321569e+04 -1.900603e+04 -1.195088e+04
-1.734606e+09 -1.534619e+09 -1.694636e+09 -1.017601e+04 -2.963860e+04 -1.304218e+04
-1.935008e+09 -1.735004e+09 -1.895035e+09 -7.661327e+03 -1.861802e+04 -8.159908e+03
-2.032879e+09 -1.832868e+09 -1.992877e+09 -4.764422e+03 -3.781635e+03 -6.877490e+03
-2.148846e+09 -1.948838e+09 -2.108846e+09 -4.979845e+03 -5.670352e+03 -7.738259e+03
-2.256670e+09 -2.056661e+09 -2.216670e+09 -3.738100e+03 -4.246597e+03 -6.414925e+03
-2.061673e+09 -1.861665e+09 -2.021674e+09 -3.086549e+03 -4.292320e+03 -5.065462e+03
-2.173780e+09 -1.973773e+09 -2.133782e+09 -3.170347e+03 -4.782224e+03 -5.255457e+03
-2.345848e+09 -2.145843e+09 -2.305851e+09 -3.753619e+02 -3.533991e+03 -3.544798e+03
-1.712076e+09 -1.512078e+09 -1.672077e+09 5.651044e+02 6.019115e+01 1.086633e+01
-1.601536e+09 -1.401538e+09 -1.561537e+09 6.120369e+02 6.732594e+01 6.842269e+00
-1.601536e+09 -1.401538e+09 -1.561537e+09 5.448675e+02 7.671953e+01 3.485920e+01
-1.810530e+09 -1.610532e+09 -1.770532e+09 6.458289e+02 5.446855e+01 -9.978286e+00
-1.699990e+09 -1.499992e+09 -1.659992e+09 6.550556e+02 6.078906e+01 -1.183471e+01
-1.486867e+09 -1.286869e+09 -1.446868e+09 6.831949e+02 4.743395e+01 -4.634768e+01
-1.610180e+09 -1.410181e+09 -1.570181e+09 5.228406e+02 3.377958e+01 -1.268983e+01
-1.844068e+09 -1.644069e+09 -1.804069e+09 5.207648e+02 4.423880e+01 2.256513e+00
-1.490813e+09 -1.290814e+09 -1.450814e+09 5.518013e+02 2.746161e+01 -5.780291e+01
-1.844068e+09 -1.644069e+09 -1.804069e+09 4.065774e+02 5.097102e+01 2.784376e+01
-1.724701e+09 -1.524702e+09 -1.684702e+09 3.498911e+02 4.841095e+01 2.498508e+01
-1.490812e+09 -1.290814e+09 -1.450814e+09 3.568534e+02 3.620401e+01 -5.702443e+01
-1.499230e+09 -1.299139e+09 -1.459299e+09 -1.815634e+04 1.177001e+04 -1.630933e+04
-1.729251e+09 -1.529206e+09 -1.689258e+09 -2.793405e+04 2.796783e+04 -3.901379e+04
-1.828108e+09 -1.628083e+09 -1.788128e+09 -5.637000e+03 -3.955741e+03 -6.347863e+03
-1.700911e+09 -1.500896e+09 -1.660929e+09 1.051591e+04 -1.743484e+04 1.290955e+04
-1.600881e+09 -1.400867e+09 -1.560897e+09 1.383910e+04 -1.913663e+04 1.391443e+04
-1.600885e+09 -1.400885e+09 -1.560903e+09 1.869162e+04 -2.653696e+04 1.373867e+04
-1.510501e+09 -1.310498e+09 -1.470501e+09 -9.527034e+03 -8.652777e+03 -6.638982e+03
-1.510501e+09 -1.310498e+09 -1.470501e+09 -8.712400e+03 -8.992588e+03 -5.902600e+03
-1.744268e+09 -1.544266e+09 -1.704270e+09 -9.076766e+03 -9.589923e+03 -6.514364e+03
-1.679539e+09 -1.479523e+09 -1.639539e+09 -4.394110e+03 1.037740e+03 -6.185362e+03
-1.573712e+09 -1.373699e+09 -1.533710e+09 -7.878846e+03 -4.715207e+03 -9.485553e+03
-1.573705e+09 -1.373689e+09 -1.533720e+09 -1.178195e+03 -7.193025e+03 -1.107272e+04
-1.799512e+09 -1.599505e+09 -1.759516e+09 -3.585351e+03 -6.350327e+02 -5.476738e+03
-1.453736e+09 -1.253721e+09 -1.413737e+09 -7.914041e+03 -5.463849e+03 -8.481275e+03
-1.453732e+09 -1.253711e+09 -1.413735e+09 -4.536408e+03 -2.194103e+02 -8.054840e+03
-1.799511e+09 -1.599501e+09 -1.759513e+09 -1.809193e+03 -2.578646e+03 -6.679713e+03
-1.679538e+09 -1.479521e+09 -1.639537e+09 -5.425644e+03 -1.031279e+03 -5.957769e+03
-1.821815e+09 -1.621817e+09 -1.781819e+09 -5.916631e+03 4.749261e+03 -7.617017e+03
-1.721244e+09 -1.521246e+09 -1.681247e+09 -4.925608e+03 3.515269e+03 -6.388510e+03
-1.496381e+09 -1.296380e+09 -1.456383e+09 -5.109052e+03 4.987054e+03 -7.868687e+03
-1.616259e+09 -1.416264e+09 -1.576265e+09 -3.331934e+03 2.266453e+03 -4.924277e+03
-1.854227e+09 -1.654233e+09 -1.814233e+09 -3.381720e+03 1.949670e+03 -4.675221e+03
-1.946457e+09 -1.746462e+09 -1.906463e+09 -2.120635e+03 1.376542e+03 -3.315103e+03
-1.827337e+09 -1.627345e+09 -1.787343e+09 -2.510370e+03 1.147055e+03 -4.389124e+03
-1.721059e+09 -1.521066e+09 -1.681065e+09 -2.597840e+03 8.795209e+02 -3.854036e+03
-1.927388e+09 -1.727395e+09 -1.887393e+09 -2.454199e+03 1.220630e+03 -3.981460e+03
-1.804927e+09 -1.604928e+09 -1.764928e+09 3.256300e+02 3.497401e+01 3.895232e+01
-1.707981e+09 -1.507983e+09 -1.667982e+09 3.221296e+02 3.094601e+01 4.290377e+01
-1.492213e+09 -1.292215e+09 -1.452214e+09 2.777237e+02 4.096320e+01 -4.280763e+00
-1.811549e+09 -1.611552e+09 -1.771551e+09 5.397060e+02 5.949723e+01 -2.088487e+02
-1.727958e+09 -1.527961e+09 -1.687960e+09 3.993713e+02 4.760043e+01 -1.740798e+02
-1.494078e+09 -1.294081e+09 -1.454081e+09 3.707066e+02 8.590463e+01 -1.966759e+02
-1.860782e+09 -1.660785e+09 -1.820784e+09 5.021126e+02 2.877848e+01 -6.678183e+01
-1.751368e+09 -1.551370e+09 -1.711370e+09 4.578313e+02 1.009201e+01 -7.257208e+01
-1.989635e+09 -1.789638e+09 -1.949637e+09 4.488429e+02 2.116959e+01 -7.938609e+01
-1.500178e+09 -1.300180e+09 -1.460180e+09 4.974476e+02 3.408392e+01 -9.629082e+01
-1.626679e+09 -1.426682e+09 -1.586681e+09 3.750133e+02 3.451771e+01 -5.911872e+01
-1.738445e+09 -1.538448e+09 -1.698447e+09 4.854398e+02 5.221028e+01 -9.767189e+01
-1.489057e+09 -1.289059e+09 -1.449059e+09 4.012585e+02 5.176372e+01 3.357615e+01
-1.694758e+09 -1.494760e+09 -1.654760e+09 4.018286e+02 6.618782e+01 5.328713e+01
-1.489057e+09 -1.289059e+09 -1.449059e+09 4.029827e+02 5.928741e+01 5.524357e+01
-1.964826e+09 -1.764827e+09 -1.924827e+09 3.492963e+02 5.469508e+01 2.615020e+01
-1.731482e+09 -1.531483e+09 -1.691483e+09 3.717715e+02 5.043375e+01 2.479558e+01
-1.947250e+09 -1.747252e+09 -1.907251e+09 3.760548e+02 5.547112e+01 -1.819316e+00
-2.084193e+09 -1.884194e+09 -2.044194e+09 3.961301e+02 5.973655e+01 3.179031e+01
-1.868424e+09 -1.668426e+09 -1.828426e+09 4.057459e+02 5.121064e+01 2.668682e+01
-1.749057e+09 -1.549059e+09 -1.709058e+09 3.509813e+02 4.768850e+01 2.143429e+01
-1.612114e+09 -1.412116e+09 -1.572115e+09 3.624052e+02 4.720763e+01 2.191700e+01
-1.827883e+09 -1.627884e+09 -1.787884e+09 3.497630e+02 5.741034e+01 2.459007e+01
-1.726661e+09 -1.526657e+09 -1.686659e+09 -4.916726e+03 -4.311839e+03 -3.756953e+03
-1.618326e+09 -1.418321e+09 -1.578324e+09 -5.201727e+03 -4.253873e+03 -3.806823e+03
-1.618327e+09 -1.418323e+09 -1.578325e+09 -5.591071e+03 -4.921435e+03 -3.937836e+03
-1.924087e+09 -1.724088e+09 -1.884088e+09 6.454893e+02 3.135255e+01 -1.838121e+01
-2.188310e+09 -1.988311e+09 -2.148311e+09 6.584881e+02 9.949768e+00 -3.787287e+01
-2.037379e+09 -1.837381e+09 -1.997381e+09 6.504688e+02 3.580407e+01 -5.636123e+01
-1.953368e+09 -1.753356e+09 -1.913375e+09 -8.130527e+03 -1.475794e+04 -1.036767e+04
-2.084948e+09 -1.884933e+09 -2.044955e+09 -4.898117e+03 -1.009447e+04 -8.757801e+03
-2.199125e+09 -1.999112e+09 -2.159129e+09 -2.703749e+03 -8.127347e+03 -7.956606e+03
-1.589043e+09 -1.389044e+09 -1.549044e+09 4.495758e+02 5.106504e+01 4.523813e+00
-1.965390e+09 -1.765391e+09 -1.925391e+09 4.512134e+02 5.354568e+01 1.984076e+01
-1.810355e+09 -1.610356e+09 -1.770356e+09 4.525057e+02 6.466888e+01 -1.591538e+00
-1.953326e+09 -1.753330e+09 -1.913329e+09 9.630563e+02 -1.753105e+01 -1.013252e+03
-2.184534e+09 -1.984538e+09 -2.144538e+09 9.828286e+02 -8.083317e+01 -9.452366e+02
-2.081542e+09 -1.881547e+09 -2.041546e+09 9.712690e+02 -8.353274e+01 -9.882854e+02
-1.824961e+09 -1.624961e+09 -1.784961e+09 -6.781229e+03 6.699235e+03 -6.752477e+03
-1.724390e+09 -1.524390e+09 -1.684389e+09 -5.935551e+03 5.317597e+03 -5.899329e+03
-1.926635e+09 -1.726635e+09 -1.886635e+09 -5.436088e+03 5.518575e+03 -5.527461e+03
-2.229809e+09 -2.029798e+09 -2.189820e+09 -4.402951e+03 -1.099156e+04 -1.094116e+04
-1.869000e+09 -1.668995e+09 -1.829006e+09 -6.487169e+03 -1.006635e+04 -9.825738e+03
-2.009454e+09 -1.809442e+09 -1.969461e+09 -9.376652e+03 -1.360680e+04 -1.202747e+04
-2.141033e+09 -1.941020e+09 -2.101042e+09 -5.485390e+03 -9.315924e+03 -1.050146e+04
-2.000580e+09 -1.800568e+09 -1.960587e+09 -4.865231e+03 -9.809682e+03 -9.620561e+03
-2.089356e+09 -1.889346e+09 -2.049364e+09 -4.660239e+03 -9.478206e+03 -1.040945e+04
-1.957776e+09 -1.757772e+09 -1.917783e+09 -7.393321e+03 -1.006032e+04 -1.062763e+04
-2.098227e+09 -1.898217e+09 -2.058237e+09 -5.823572e+03 -1.355334e+04 -1.153652e+04
-1.488673e+09 -1.288674e+09 -1.448674e+09 6.845151e+02 6.370558e+01 -4.048819e+01
-1.700419e+09 -1.500421e+09 -1.660421e+09 7.106678e+02 5.713280e+01 -1.993332e+01
-1.600160e+09 -1.400161e+09 -1.560161e+09 7.049475e+02 9.236476e+01 -2.814208e+01
-1.964129e+09 -1.764136e+09 -1.924134e+09 -1.390999e+02 4.146993e+02 -3.406846e+03
-2.067691e+09 -1.867698e+09 -2.027696e+09 -3.740617e+02 4.647501e+02 -3.624794e+03
-2.203474e+09 -2.003480e+09 -2.163477e+09 2.898630e+02 2.642176e+02 -4.251176e+03
-1.941435e+09 -1.741445e+09 -1.901444e+09 -2.335211e+03 1.285772e+03 -4.738217e+03
-2.165356e+09 -1.965364e+09 -2.125362e+09 -2.135657e+03 1.340372e+03 -4.525220e+03
-2.073127e+09 -1.873135e+09 -2.033133e+09 -3.181424e+03 1.601845e+03 -5.688641e+03
-1.489719e+09 -1.289734e+09 -1.449730e+09 -1.758845e+04 -2.327114e+04 -1.264580e+04
-1.690118e+09 -1.490126e+09 -1.650128e+09 -1.229863e+04 -1.499576e+04 -9.066034e+03
-1.780821e+09 -1.580826e+09 -1.740828e+09 -1.211843e+04 -1.517895e+04 -9.853466e+03
-1.736286e+09 -1.536289e+09 -1.696289e+09 8.589407e+02 4.344583e+01 -3.192281e+02
-1.616990e+09 -1.416992e+09 -1.576992e+09 1.000935e+03 6.394092e+01 -3.430292e+02
-1.616990e+09 -1.416992e+09 -1.576992e+09 9.494049e+02 7.458890e+01 -3.273772e+02
-1.596167e+09 -1.396171e+09 -1.556170e+09 3.837229e+02 6.281966e+01 -2.943281e+02
-1.818321e+09 -1.618325e+09 -1.778324e+09 4.016363e+02 8.486486e+01 -2.708015e+02
-1.950111e+09 -1.750115e+09 -1.910114e+09 4.302887e+02 7.567476e+01 -2.205013e+02
-2.238716e+09 -2.038684e+09 -2.198743e+09 -1.059650e+04 -2.020801e+04 -1.233443e+03
-1.911811e+09 -1.711784e+09 -1.871849e+09 -1.388959e+04 -1.875982e+04 -4.043024e+03
-2.028287e+09 -1.828262e+09 -1.988324e+09 -1.596188e+04 -1.647633e+04 -6.458975e+03
-2.127697e+09 -1.927669e+09 -2.087733e+09 -1.070457e+04 -2.061119e+04 2.187639e+03
-2.022836e+09 -1.822800e+09 -1.982866e+09 -1.030299e+04 -2.045236e+04 -3.701821e+03
-2.139318e+09 -1.939284e+09 -2.099347e+09 -1.163361e+04 -1.854260e+04 -2.397587e+03
-2.011199e+09 -1.811183e+09 -1.971247e+09 -7.801354e+03 -2.093282e+04 -1.488977e+03
-2.122236e+09 -1.922204e+09 -2.082266e+09 -9.914477e+03 -2.030008e+04 -3.682592e+03
-1.638806e+09 -1.438803e+09 -1.598804e+09 -4.954412e+03 -6.071761e+03 -4.941784e+03
-1.980397e+09 -1.780393e+09 -1.940396e+09 -4.403807e+03 -4.827693e+03 -4.298230e+03
-1.872572e+09 -1.672569e+09 -1.832571e+09 -5.523256e+03 -6.034548e+03 -5.491345e+03
-1.933369e+09 -1.733358e+09 -1.893369e+09 -2.494292e+03 -3.210786e+03 -5.158249e+03
-2.115941e+09 -1.915935e+09 -2.075942e+09 1.886929e+02 -2.574466e+03 -3.554314e+03
-1.965062e+09 -1.765051e+09 -1.925063e+09 6.627539e+02 -2.290712e+03 -3.974516e+03
-1.494078e+09 -1.294081e+09 -1.454081e+09 3.757081e+02 3.978020e+01 -2.937514e+02
-1.727958e+09 -1.527961e+09 -1.687960e+09 4.272873e+02 2.355674e+01 -1.840802e+02
-1.494078e+09 -1.294081e+09 -1.454081e+09 4.070729e+02 3.188180e+01 -2.030870e+02
-1.502154e+09 -1.302162e+09 -1.462163e+09 -4.452990e+03 1.732212e+03 -4.329243e+03
-1.708488e+09 -1.508494e+09 -1.668494e+09 -2.548656e+03 1.068469e+03 -2.882390e+03
-1.502159e+09 -1.302164e+09 -1.462165e+09 -2.757512e+03 7.989626e+02 -2.818202e+03
-1.989859e+09 -1.789855e+09 -1.949859e+09 -1.426321e+03 -2.529464e+03 -3.790518e+03
-1.838982e+09 -1.638974e+09 -1.798980e+09 -2.382349e+03 -1.901179e+03 -4.028439e+03
-1.538607e+09 -1.338599e+09 -1.498605e+09 -2.417032e+03 -1.767151e+03 -4.005751e+03
-1.503829e+09 -1.303782e+09 -1.463865e+09 -1.085517e+04 1.215449e+03 -3.623849e+03
-1.730433e+09 -1.530406e+09 -1.690455e+09 -1.793030e+04 1.507577e+04 -6.672525e+03
-1.835301e+09 -1.635280e+09 -1.795300e+09 -6.954411e+03 7.651304e+03 -6.389489e+02
-1.942502e+09 -1.742481e+09 -1.902530e+09 -7.340137e+03 -1.056250e+04 -1.117798e+03
-2.179207e+09 -1.979190e+09 -2.139210e+09 -5.687915e+03 -4.122505e+03 -1.024467e+04
-2.069066e+09 -1.869055e+09 -2.029086e+09 -8.347968e+03 -2.846040e+03 -5.903970e+03
-1.506574e+09 -1.306576e+09 -1.466576e+09 8.553959e+02 6.236086e+01 -1.572892e+02
-1.602825e+09 -1.402827e+09 -1.562827e+09 8.384341e+02 1.045612e+02 -9.881462e+01
-1.720987e+09 -1.520989e+09 -1.680988e+09 7.743271e+02 7.677322e+01 -7.767318e+01
-1.506574e+09 -1.306576e+09 -1.466576e+09 9.624679e+02 7.943318e+00 -2.344899e+02
-1.720986e+09 -1.520988e+09 -1.680988e+09 9.804844e+02 4.590839e+01 -1.150378e+02
-1.804114e+09 -1.604116e+09 -1.764116e+09 7.864754e+02 3.737461e+01 -1.747730e+02
-1.489713e+09 -1.289734e+09 -1.449731e+09 -1.315027e+04 -2.614822e+04 -1.301170e+04
-1.690114e+09 -1.490125e+09 -1.650126e+09 -1.281779e+04 -1.504970e+04 -1.110433e+04
-1.489706e+09 -1.289731e+09 -1.449721e+09 -1.380512e+04 -2.553628e+04 -1.739468e+04
-1.910915e+09 -1.710918e+09 -1.870918e+09 7.095713e+02 3.113389e+01 -2.826313e+02
-2.061667e+09 -1.861670e+09 -2.021669e+09 6.859758e+02 9.502280e-01 -3.148088e+02
-2.184578e+09 -1.984581e+09 -2.144581e+09 7.100676e+02 3.540035e+01 -3.552240e+02
-1.711907e+09 -1.511913e+09 -1.671912e+09 1.343798e+02 1.132436e+02 -1.183323e+03
-1.603930e+09 -1.403935e+09 -1.563934e+09 2.113674e+02 -8.161127e+01 -1.099550e+03
-1.603930e+09 -1.403935e+09 -1.563934e+09 -4.013366e+02 1.621471e+02 -1.167816e+03
-1.507572e+09 -1.307576e+09 -1.467576e+09 1.452201e+03 -2.106518e+02 -1.105367e+03
-1.734643e+09 -1.534647e+09 -1.694646e+09 1.478150e+03 -1.851760e+02 -1.091915e+03
-1.837161e+09 -1.637165e+09 -1.797164e+09 1.148975e+03 -2.280501e+02 -1.097660e+03
-2.254693e+09 -2.054696e+09 -2.214696e+09 7.551225e+02 -2.085586e+01 -3.775710e+02
-1.897135e+09 -1.697138e+09 -1.857137e+09 7.630307e+02 -2.908356e+01 -3.965219e+02
-1.999992e+09 -1.799995e+09 -1.959995e+09 7.122982e+02 -1.024628e+01 -4.311632e+02
-2.131782e+09 -1.931785e+09 -2.091784e+09 7.314311e+02 -1.063227e+01 -3.365483e+02
-2.028924e+09 -1.828928e+09 -1.988927e+09 7.296226e+02 -2.879873e+01 -3.363804e+02
-2.151836e+09 -1.951839e+09 -2.111838e+09 7.650265e+02 -1.044480e+01 -3.764793e+02
-2.020046e+09 -1.820049e+09 -1.980049e+09 7.963394e+02 -1.804079e+01 -3.882123e+02
-2.122903e+09 -1.922907e+09 -2.082906e+09 7.574140e+02 -3.521938e+01 -4.045039e+02
-1.487265e+09 -1.287268e+09 -1.447268e+09 1.140734e+03 -4.725068e+01 -7.339960e+02
-1.487265e+09 -1.287268e+09 -1.447268e+09 1.194981e+03 -1.748233e+01 -7.430523e+02
-1.708351e+09 -1.508355e+09 -1.668355e+09 1.228474e+03 -1.394504e+01 -7.635577e+02
-1.864843e+09 -1.664846e+09 -1.824863e+09 -9.304101e+03 -7.989583e+03 -1.304888e+04
-1.755151e+09 -1.555114e+09 -1.715153e+09 -1.648329e+04 3.813696e+03 -2.532454e+04
-1.510253e+09 -1.310203e+09 -1.470282e+09 -7.632978e+03 -7.752406e+03 -2.639400e+04
-1.679811e+09 -1.479738e+09 -1.639826e+09 -6.490281e+03 2.748988e+04 -8.070229e+03
-1.560200e+09 -1.360161e+09 -1.520238e+09 -2.077654e+04 -1.369910e+04 -1.940025e+04
-1.786265e+09 -1.586229e+09 -1.746287e+09 -9.551589e+02 1.200099e+04 -2.831521e+03
-1.679812e+09 -1.479750e+09 -1.639819e+09 -5.542126e+03 9.664832e+03 -8.436319e+03
-1.560188e+09 -1.360107e+09 -1.520270e+09 5.102749e+03 -6.733568e+03 2.170220e+03
-1.786271e+09 -1.586227e+09 -1.746284e+09 -1.377600e+03 1.995413e+04 8.517647e+03
-1.453740e+09 -1.253702e+09 -1.413779e+09 -1.302181e+04 -2.077938e+04 -1.242859e+04
-1.453712e+09 -1.253617e+09 -1.413742e+09 -1.215501e+04 1.526099e+04 -8.743829e+03
-1.675467e+09 -1.475472e+09 -1.635472e+09 1.459831e+03 -4.493142e+01 -1.590957e+03
-1.550914e+09 -1.350919e+09 -1.510919e+09 1.292584e+03 -9.920424e+01 -1.696409e+03
-1.550914e+09 -1.350919e+09 -1.510919e+09 1.280495e+03 -1.051428e+02 -1.779675e+03
-1.777985e+09 -1.577990e+09 -1.737990e+09 1.240092e+03 -6.156677e+01 -1.552010e+03
-1.777986e+09 -1.577990e+09 -1.737990e+09 1.107267e+03 -5.921668e+01 -1.561918e+03
-1.675467e+09 -1.475472e+09 -1.635472e+09 1.511399e+03 -1.252020e+02 -1.579840e+03
-1.448397e+09 -1.248401e+09 -1.408401e+09 1.542126e+03 -1.532728e+02 -1.423308e+03
-1.448396e+09 -1.248401e+09 -1.408401e+09 1.390612e+03 -6.115549e+01 -1.525524e+03
-1.787647e+09 -1.587654e+09 -1.747653e+09 -9.127668e+02 5.583224e+02 -2.962582e+03
-1.694809e+09 -1.494815e+09 -1.654815e+09 -1.083082e+03 5.245173e+02 -2.855358e+03
-1.913710e+09 -1.713716e+09 -1.873715e+09 -1.309490e+03 6.118906e+02 -2.634883e+03
-1.513727e+09 -1.313734e+09 -1.473733e+09 1.792905e+03 -3.243544e+02 -2.525479e+03
-1.723523e+09 -1.523529e+09 -1.683528e+09 1.854880e+03 -3.088131e+02 -2.521621e+03
-1.816201e+09 -1.616207e+09 -1.776206e+09 1.453335e+03 -3.959341e+02 -2.625101e+03
-1.947943e+09 -1.747952e+09 -1.907950e+09 -7.438354e+02 3.804931e+02 -4.210519e+03
-2.080895e+09 -1.880904e+09 -2.040900e+09 4.692622e+02 2.490273e+02 -5.952125e+03
-1.938958e+09 -1.738966e+09 -1.898963e+09 -2.151506e+02 3.561658e+02 -4.247309e+03
-1.935042e+09 -1.735049e+09 -1.895048e+09 -5.684202e+01 3.045869e+02 -3.291241e+03
-2.022656e+09 -1.822664e+09 -1.982662e+09 -3.683482e+02 3.511345e+02 -3.477568e+03
-2.148719e+09 -1.948726e+09 -2.108724e+09 -3.624529e+02 3.716156e+02 -3.582817e+03
-1.522796e+09 -1.322811e+09 -1.482805e+09 -1.139192e+03 1.455279e+03 -1.433183e+04
-1.522795e+09 -1.322811e+09 -1.482803e+09 1.504868e+03 3.912864e+02 -1.559148e+04
-1.753541e+09 -1.553558e+09 -1.713548e+09 1.848894e+03 -3.680542e+02 -1.558128e+04
-1.632032e+09 -1.432044e+09 -1.592040e+09 4.233322e+02 6.758124e+02 -1.108233e+04
-1.870004e+09 -1.670013e+09 -1.830010e+09 -7.755517e+02 2.840099e+02 -8.072441e+03
-1.991522e+09 -1.791531e+09 -1.951525e+09 1.139088e+03 -8.062789e+01 -1.005813e+04
-1.656584e+09 -1.456593e+09 -1.616591e+09 1.781217e+03 -4.082275e+01 -3.737695e+03
-1.539468e+09 -1.339476e+09 -1.499474e+09 1.456384e+03 -2.333651e+02 -3.674396e+03
-1.539467e+09 -1.339476e+09 -1.499475e+09 1.425037e+03 -2.744362e+02 -3.453220e+03
-1.749262e+09 -1.549271e+09 -1.709269e+09 1.594533e+03 -1.527604e+02 -3.754413e+03
-1.749263e+09 -1.549271e+09 -1.709270e+09 1.289884e+03 -1.684043e+02 -3.718651e+03
-1.656585e+09 -1.456593e+09 -1.616591e+09 1.831123e+03 -2.056170e+02 -3.631278e+03
-1.446791e+09 -1.246798e+09 -1.406797e+09 1.947372e+03 -3.116947e+02 -3.008153e+03
-1.446789e+09 -1.246797e+09 -1.406796e+09 1.434116e+03 -6.352730e+01 -3.412461e+03
-1.500838e+09 -1.300847e+09 -1.460845e+09 1.456459e+03 -6.502269e+02 -4.998299e+03
-1.861995e+09 -1.662003e+09 -1.822000e+09 1.602645e+03 -5.390599e+02 -5.237667e+03
-1.622765e+09 -1.422774e+09 -1.582772e+09 9.691604e+02 -1.851810e+02 -4.322545e+03
-1.852905e+09 -1.652915e+09 -1.812912e+09 -6.513799e+02 5.770806e+02 -7.284105e+03
-1.738805e+09 -1.538815e+09 -1.698812e+09 -7.606547e+02 8.046090e+02 -7.440350e+03
-1.978035e+09 -1.778045e+09 -1.938040e+09 1.262899e+01 6.545957e+02 -8.152214e+03
-1.478184e+09 -1.278191e+09 -1.438190e+09 -3.862048e+02 2.857509e+02 -1.822335e+03
-1.667274e+09 -1.467281e+09 -1.627280e+09 -4.963872e+02 1.440139e+02 -1.786589e+03
-1.754990e+09 -1.554997e+09 -1.714997e+09 -6.001095e+02 2.488404e+02 -1.879837e+03
-1.961650e+09 -1.761648e+09 -1.921648e+09 -6.458984e+03 6.648574e+03 -7.204966e+03
-2.234979e+09 -2.034977e+09 -2.194977e+09 -6.211337e+03 4.909703e+03 -5.760562e+03
-2.169420e+09 -1.969419e+09 -2.129417e+09 -6.718211e+03 5.845920e+03 -6.471020e+03
-1.665213e+09 -1.465220e+09 -1.625219e+09 -5.092820e+02 1.801177e+02 -1.970496e+03
-1.577497e+09 -1.377503e+09 -1.537502e+09 -3.808696e+02 -6.581463e+01 -1.930475e+03
-1.577497e+09 -1.377503e+09 -1.537502e+09 -1.552046e+03 4.838794e+02 -1.907919e+03
-1.501911e+09 -1.301918e+09 -1.461913e+09 -2.579085e+03 8.662236e+02 -1.378198e+04
-1.699623e+09 -1.499628e+09 -1.659621e+09 -2.549446e+03 6.250025e+02 -1.372205e+04
-1.791394e+09 -1.591399e+09 -1.751391e+09 -4.381970e+03 3.483580e+03 -1.343113e+04
-1.507619e+09 -1.307593e+09 -1.467615e+09 3.306406e+03 2.967757e+03 7.459420e+03
-1.756530e+09 -1.556505e+09 -1.716529e+09 1.805131e+03 9.962015e+02 7.655858e+03
-1.507617e+09 -1.307588e+09 -1.467614e+09 8.423352e+02 3.938207e+03 7.169909e+03
-1.849701e+09 -1.649710e+09 -1.809707e+09 -3.811554e+03 2.760039e+03 -7.280677e+03
-1.740471e+09 -1.540479e+09 -1.700478e+09 -3.772179e+03 2.228861e+03 -6.552685e+03
-1.502503e+09 -1.302510e+09 -1.462510e+09 -3.725339e+03 2.534199e+03 -6.792276e+03
-1.677875e+09 -1.477881e+09 -1.637873e+09 -4.335958e+01 2.273187e+03 -1.642100e+04
-1.586101e+09 -1.386112e+09 -1.546104e+09 3.337676e+02 1.740003e+03 -1.690947e+04
-1.586108e+09 -1.386113e+09 -1.546104e+09 1.926325e+03 -1.196625e+02 -1.534017e+04
-1.506628e+09 -1.306602e+09 -1.466661e+09 -1.215599e+04 1.086975e+04 -1.731709e+04
-1.506623e+09 -1.306619e+09 -1.466629e+09 -4.629374e+03 -1.906960e+03 -2.545556e+04
-1.752969e+09 -1.552970e+09 -1.712979e+09 -4.455794e+03 2.898634e+03 -2.438326e+04
-1.835296e+09 -1.635265e+09 -1.795294e+09 -1.802324e+03 1.095873e+03 -9.560561e+02
-1.719889e+09 -1.519865e+09 -1.679887e+09 9.346122e+03 -9.215800e+03 7.815911e+03
-1.493283e+09 -1.293257e+09 -1.453285e+09 1.177211e+04 -6.490168e+03 9.733847e+03
-1.499530e+09 -1.299520e+09 -1.459527e+09 -6.383966e+03 5.054298e+03 -3.128829e+03
-1.590656e+09 -1.390642e+09 -1.550656e+09 -7.584597e+03 5.674754e+03 -8.773225e+02
-1.701776e+09 -1.501769e+09 -1.661774e+09 -4.745400e+03 3.930386e+03 -2.379757e+03
-1.824539e+09 -1.624540e+09 -1.784568e+09 -5.057472e+03 -2.484248e+04 2.808375e+03
-1.598640e+09 -1.398685e+09 -1.558678e+09 -4.945159e+02 -3.851025e+04 7.994796e+03
-1.713703e+09 -1.513709e+09 -1.673741e+09 -8.437039e+03 -2.355118e+04 1.253778e+03
-1.813690e+09 -1.613664e+09 -1.773714e+09 -2.212389e+03 -1.492405e+04 5.273340e+03
-1.600881e+09 -1.400883e+09 -1.560902e+09 1.575186e+04 -2.674859e+04 1.766959e+04
-1.700897e+09 -1.500891e+09 -1.660924e+09 3.923403e+03 -1.699279e+04 1.270209e+04
-1.494018e+09 -1.294011e+09 -1.454016e+09 -3.059331e+03 -4.039305e+03 -4.537273e+03
-1.494013e+09 -1.293999e+09 -1.454013e+09 9.495628e+02 -1.244237e+03 -4.569467e+03
-1.719821e+09 -1.519808e+09 -1.679820e+09 7.847607e+02 -9.116550e+02 -4.002056e+03
-1.485979e+09 -1.285960e+09 -1.445995e+09 -1.771758e+04 -2.210284e+04 -1.134562e+04
-1.581129e+09 -1.381114e+09 -1.541142e+09 -1.455211e+04 -1.894534e+04 -1.070653e+04
-1.538211e+09 -1.338181e+09 -1.498223e+09 -1.181351e+04 -2.012689e+04 -1.245651e+04
-1.660035e+09 -1.460002e+09 -1.620049e+09 -1.283169e+04 -2.033107e+04 -1.153837e+04
-1.541716e+09 -1.341703e+09 -1.501734e+09 -1.706268e+04 -2.425697e+04 -1.171716e+04
-1.636864e+09 -1.436852e+09 -1.596879e+09 -1.518062e+04 -1.923351e+04 -1.138918e+04
-1.715774e+09 -1.515764e+09 -1.675793e+09 -1.233673e+04 -2.492661e+04 -1.138078e+04
-1.762426e+09 -1.562414e+09 -1.722447e+09 -1.115755e+04 -2.344954e+04 -9.122419e+03
-1.540757e+09 -1.340758e+09 -1.500758e+09 4.066000e+02 4.218482e+01 3.457712e+01
-1.637702e+09 -1.437703e+09 -1.597703e+09 4.035156e+02 4.059395e+01 1.696496e+01
-1.714367e+09 -1.514368e+09 -1.674368e+09 3.992843e+02 4.567471e+01 3.540204e+01
-1.765424e+09 -1.565426e+09 -1.725425e+09 3.919946e+02 3.904116e+01 5.365078e+01
-1.476435e+09 -1.276437e+09 -1.436436e+09 3.825963e+02 4.316388e+01 1.373226e+01
-1.488240e+09 -1.288242e+09 -1.448241e+09 3.980231e+02 4.107150e+01 1.686342e+01
-1.533559e+09 -1.333561e+09 -1.493560e+09 3.822330e+02 4.588622e+01 2.089772e+01
-1.541480e+09 -1.341481e+09 -1.501481e+09 3.910352e+02 4.594058e+01 1.901414e+01
-1.637134e+09 -1.437135e+09 -1.597135e+09 3.847167e+02 4.782435e+01 6.494824e+00
-1.699297e+09 -1.499298e+09 -1.659298e+09 3.842909e+02 2.668717e+01 1.551313e+01
-1.638425e+09 -1.438426e+09 -1.598426e+09 3.877469e+02 3.607591e+01 4.555664e+00
-1.482198e+09 -1.282199e+09 -1.442199e+09 3.590013e+02 4.271468e+01 1.246006e+01
-1.499243e+09 -1.299244e+09 -1.459244e+09 3.249703e+02 4.046526e+01 1.591248e+01
-1.545427e+09 -1.345428e+09 -1.505428e+09 3.591035e+02 4.012387e+01 1.628118e+01
-1.553741e+09 -1.353743e+09 -1.513742e+09 3.345131e+02 4.056627e+01 2.001099e+01
-1.657541e+09 -1.457542e+09 -1.617542e+09 3.368555e+02 3.753473e+01 2.754482e+01
-1.714342e+09 -1.514343e+09 -1.674342e+09 3.443501e+02 3.401551e+01 1.451673e+01
-1.649827e+09 -1.449829e+09 -1.609828e+09 3.558296e+02 4.130437e+01 3.089592e+01
-1.530934e+09 -1.330935e+09 -1.490935e+09 3.798087e+02 4.439732e+01 1.726888e+01
-1.634509e+09 -1.434510e+09 -1.594509e+09 3.812707e+02 4.870383e+01 1.715262e+01
-1.703526e+09 -1.503527e+09 -1.663527e+09 3.677370e+02 4.863836e+01 -1.014424e+01
-1.745973e+09 -1.545974e+09 -1.705973e+09 3.753292e+02 3.135232e+01 1.528696e+01
-1.516980e+09 -1.316981e+09 -1.476981e+09 3.607818e+02 4.459486e+01 1.708040e+01
-1.620555e+09 -1.420556e+09 -1.580556e+09 3.641903e+02 5.193440e+01 1.230809e+01
-1.690173e+09 -1.490174e+09 -1.650174e+09 3.650643e+02 4.353984e+01 3.236133e+01
-1.754687e+09 -1.554688e+09 -1.714688e+09 3.520723e+02 3.645987e+01 1.375728e+01
-1.511094e+09 -1.311095e+09 -1.471095e+09 3.183023e+02 3.565199e+01 2.326062e+01
-1.661254e+09 -1.461255e+09 -1.621255e+09 3.138424e+02 3.310576e+01 2.254867e+01
-1.586174e+09 -1.386175e+09 -1.546175e+09 3.031229e+02 3.473560e+01 2.371960e+01
-1.689974e+09 -1.489975e+09 -1.649975e+09 3.284492e+02 3.447480e+01 2.956416e+01
-1.505618e+09 -1.305621e+09 -1.465621e+09 7.869667e+02 3.434668e+01 -3.027325e+02
-1.624915e+09 -1.424918e+09 -1.584917e+09 8.409718e+02 8.897014e+00 -3.312113e+02
-1.684633e+09 -1.484636e+09 -1.644636e+09 8.374898e+02 3.930006e+01 -3.685178e+02
-1.624662e+09 -1.424665e+09 -1.584664e+09 9.041539e+02 1.000163e+00 -3.744497e+02
-1.554368e+09 -1.354371e+09 -1.514371e+09 7.539264e+02 3.237175e+01 -3.190250e+02
-1.673664e+09 -1.473667e+09 -1.633667e+09 7.366156e+02 5.606633e+01 -4.096659e+02
-1.718519e+09 -1.518522e+09 -1.678521e+09 7.371009e+02 2.274222e+01 -4.005340e+02
-1.786723e+09 -1.586726e+09 -1.746726e+09 7.666614e+02 4.772670e+01 -4.232581e+02
-1.547362e+09 -1.347363e+09 -1.507361e+09 -7.406097e+03 5.712793e+03 -9.133009e+03
-1.639134e+09 -1.439134e+09 -1.599130e+09 -6.281477e+03 5.526234e+03 -9.812917e+03
-1.740606e+09 -1.540605e+09 -1.700603e+09 -5.758331e+03 5.236446e+03 -8.424423e+03
-1.789482e+09 -1.589482e+09 -1.749480e+09 -7.000726e+03 4.599718e+03 -8.033623e+03
-1.568109e+09 -1.368108e+09 -1.528107e+09 -6.749984e+03 5.869003e+03 -9.320207e+03
-1.704796e+09 -1.504795e+09 -1.664794e+09 -6.637785e+03 6.062491e+03 -8.976928e+03
-1.748146e+09 -1.548146e+09 -1.708146e+09 -5.446285e+03 5.615263e+03 -8.667464e+03
-1.808833e+09 -1.608833e+09 -1.768831e+09 -6.491177e+03 5.437254e+03 -8.357996e+03
-1.479591e+09 -1.279597e+09 -1.439591e+09 -4.872950e+03 6.617604e+03 -1.303255e+04
-1.571362e+09 -1.371367e+09 -1.531358e+09 -4.020261e+03 6.165429e+03 -1.393508e+04
-1.652788e+09 -1.452795e+09 -1.612787e+09 -5.747655e+03 5.084677e+03 -1.296652e+04
-1.596811e+09 -1.396823e+09 -1.556813e+09 -5.018255e+03 6.824042e+03 -1.385463e+04
-1.434035e+09 -1.234022e+09 -1.394025e+09 -4.048297e+03 7.656826e+03 -6.612661e+03
-1.448974e+09 -1.248957e+09 -1.408964e+09 -1.260712e+03 6.451211e+03 -5.426399e+03
-1.494597e+09 -1.294584e+09 -1.454588e+09 -4.706015e+03 7.312285e+03 -6.675355e+03
-1.448972e+09 -1.248959e+09 -1.408960e+09 -1.265084e+03 5.162627e+03 -7.526030e+03
-1.448969e+09 -1.248953e+09 -1.408958e+09 -2.586533e+03 3.151565e+03 -6.999064e+03
-1.567202e+09 -1.367192e+09 -1.527193e+09 -3.294098e+03 7.677176e+03 -8.673229e+03
-1.612829e+09 -1.412816e+09 -1.572818e+09 -3.766979e+03 6.650456e+03 -7.519720e+03
-1.440753e+09 -1.240744e+09 -1.400749e+09 -6.402503e+03 7.522037e+03 -6.935945e+03
-1.444381e+09 -1.244377e+09 -1.404380e+09 -6.095839e+03 6.428325e+03 -8.740709e+03
-1.440748e+09 -1.240746e+09 -1.400744e+09 -5.027534e+03 6.340607e+03 -1.036520e+04
-1.496728e+09 -1.296723e+09 -1.456723e+09 -5.568214e+03 6.596316e+03 -8.054875e+03
-1.613372e+09 -1.413363e+09 -1.573368e+09 -6.804596e+03 3.760383e+03 -7.055657e+03
-1.557395e+09 -1.357391e+09 -1.517394e+09 -6.138063e+03 5.486077e+03 -7.958418e+03
-1.440747e+09 -1.240744e+09 -1.400745e+09 -6.012298e+03 6.227456e+03 -9.588573e+03
-1.434031e+09 -1.234023e+09 -1.394020e+09 -3.066020e+03 5.548666e+03 -9.800134e+03
-1.552263e+09 -1.352254e+09 -1.512253e+09 -3.179274e+03 4.847379e+03 -1.004411e+04
-1.506638e+09 -1.306632e+09 -1.466629e+09 -3.277982e+03 6.586877e+03 -1.040937e+04
-1.506636e+09 -1.306631e+09 -1.466622e+09 -9.279833e+02 3.694635e+03 -1.243602e+04
-1.486381e+09 -1.286370e+09 -1.446373e+09 -6.035012e+03 7.520816e+03 -5.982809e+03
-1.604612e+09 -1.404599e+09 -1.564603e+09 -6.176472e+03 5.639599e+03 -6.195606e+03
-1.558985e+09 -1.358978e+09 -1.518975e+09 -5.421047e+03 6.079883e+03 -8.153270e+03
-1.675635e+09 -1.475625e+09 -1.635626e+09 -5.467737e+03 5.585502e+03 -5.771406e+03
-1.536900e+09 -1.336900e+09 -1.496899e+09 -6.862530e+03 5.861222e+03 -9.436241e+03
-1.628667e+09 -1.428669e+09 -1.588665e+09 -5.882360e+03 5.287843e+03 -1.127597e+04
-1.694029e+09 -1.494028e+09 -1.654027e+09 -5.909780e+03 5.533338e+03 -8.357029e+03
-1.785203e+09 -1.585202e+09 -1.745200e+09 -6.266859e+03 5.298876e+03 -8.299684e+03
-1.470680e+09 -1.270683e+09 -1.430683e+09 -5.227721e+03 4.428728e+03 -1.056925e+04
-1.469131e+09 -1.269132e+09 -1.429133e+09 -6.032302e+03 5.823764e+03 -9.755204e+03
-1.516193e+09 -1.316195e+09 -1.476195e+09 -5.335650e+03 4.840515e+03 -1.035951e+04
-1.512899e+09 -1.312903e+09 -1.472902e+09 -5.213647e+03 5.223971e+03 -1.149041e+04
-1.604668e+09 -1.404671e+09 -1.564667e+09 -5.223416e+03 4.212519e+03 -1.233045e+04
-1.670029e+09 -1.470030e+09 -1.630031e+09 -5.048566e+03 4.271633e+03 -9.012307e+03
-1.616767e+09 -1.416769e+09 -1.576770e+09 -5.256215e+03 4.538297e+03 -9.076110e+03
-1.501748e+09 -1.301753e+09 -1.461753e+09 -4.158029e+03 3.222542e+03 -1.011900e+04
-1.501311e+09 -1.301319e+09 -1.461317e+09 -3.599490e+03 2.697835e+03 -9.961521e+03
-1.559934e+09 -1.359940e+09 -1.519939e+09 -4.080384e+03 3.508896e+03 -1.069153e+04
-1.559564e+09 -1.359570e+09 -1.519569e+09 -4.288855e+03 3.430188e+03 -1.006235e+04
-1.667540e+09 -1.467545e+09 -1.627544e+09 -4.229116e+03 2.328780e+03 -8.597298e+03
-1.726332e+09 -1.526337e+09 -1.686335e+09 -3.785526e+03 2.598930e+03 -9.519560e+03
-1.673449e+09 -1.473456e+09 -1.633452e+09 -4.097838e+03 2.871748e+03 -1.146878e+04
-1.525774e+09 -1.325778e+09 -1.485777e+09 -5.363742e+03 4.733725e+03 -1.157651e+04
-1.626347e+09 -1.426351e+09 -1.586351e+09 -5.171158e+03 4.110401e+03 -1.044289e+04
-1.679610e+09 -1.479613e+09 -1.639611e+09 -4.258350e+03 3.655546e+03 -1.059342e+04
-1.749354e+09 -1.549358e+09 -1.709355e+09 -3.872046e+03 3.908989e+03 -1.176816e+04
-1.540259e+09 -1.340261e+09 -1.500261e+09 -5.183837e+03 4.436122e+03 -9.668087e+03
-1.640832e+09 -1.440834e+09 -1.600834e+09 -5.146128e+03 3.859335e+03 -8.954272e+03
-1.715837e+09 -1.515840e+09 -1.675837e+09 -4.369391e+03 3.946773e+03 -1.149051e+04
-1.768720e+09 -1.568722e+09 -1.728721e+09 -3.989654e+03 3.596529e+03 -9.454122e+03
-1.495832e+09 -1.295816e+09 -1.455860e+09 -8.504191e+03 -1.805832e+04 -5.751444e+02
-1.495833e+09 -1.295791e+09 -1.455864e+09 -1.311169e+04 -1.741455e+04 5.953241e+03
-1.611254e+09 -1.411236e+09 -1.571271e+09 -1.308036e+04 -2.488307e+03 -5.095600e+03
-1.686538e+09 -1.486508e+09 -1.646552e+09 -1.480941e+04 -6.182405e+03 -7.732108e+03
-1.431116e+09 -1.231117e+09 -1.391117e+09 3.822914e+02 4.109318e+01 3.665750e+01
-1.431116e+09 -1.231117e+09 -1.391117e+09 3.696963e+02 3.451163e+01 2.335893e+01
-1.528061e+09 -1.328063e+09 -1.488062e+09 3.631004e+02 4.381387e+01 3.034291e+01
-1.485358e+09 -1.285360e+09 -1.445360e+09 3.583143e+02 4.115026e+01 3.608120e+01
-1.550146e+09 -1.350152e+09 -1.510152e+09 4.710992e+02 1.513123e+02 -1.453802e+03
-1.658123e+09 -1.458129e+09 -1.618129e+09 4.936992e+02 1.441561e+02 -1.454581e+03
-1.697688e+09 -1.497694e+09 -1.657693e+09 2.542083e+02 1.423839e+02 -1.641206e+03
-1.790270e+09 -1.590276e+09 -1.750275e+09 2.161137e+02 1.142332e+02 -1.519263e+03
-1.486224e+09 -1.286215e+09 -1.446223e+09 -9.930821e+03 -8.961169e+03 -1.020264e+04
-1.486224e+09 -1.286208e+09 -1.446225e+09 -7.718482e+03 -8.025159e+03 -1.217901e+04
-1.588408e+09 -1.388391e+09 -1.548407e+09 -8.342770e+03 -8.081823e+03 -1.100902e+04
-1.669383e+09 -1.469371e+09 -1.629380e+09 -6.883995e+03 -6.639544e+03 -9.299632e+03
-1.466021e+09 -1.266039e+09 -1.426066e+09 -1.277811e+04 -4.398236e+04 -8.635790e+03
-1.517141e+09 -1.317157e+09 -1.477187e+09 -1.320495e+04 -4.293217e+04 -8.606480e+03
-1.604398e+09 -1.404409e+09 -1.564439e+09 -1.437650e+04 -4.294855e+04 -8.493071e+03
-1.550367e+09 -1.350394e+09 -1.510413e+09 -9.691795e+03 -4.204839e+04 -5.673780e+03
-1.523117e+09 -1.323135e+09 -1.483159e+09 -1.111183e+04 -4.192858e+04 -7.550536e+03
-1.574237e+09 -1.374253e+09 -1.534280e+09 -1.191056e+04 -4.154946e+04 -7.405089e+03
-1.668637e+09 -1.468652e+09 -1.628676e+09 -1.251450e+04 -3.461247e+04 -6.016383e+03
-1.722370e+09 -1.522383e+09 -1.682408e+09 -8.180383e+03 -3.585402e+04 -4.614824e+03
-1.536592e+09 -1.336578e+09 -1.496625e+09 -1.149180e+04 -3.481744e+04 -1.360908e+04
-1.643068e+09 -1.443053e+09 -1.603106e+09 -1.166811e+04 -3.398922e+04 -1.459190e+04
-1.706543e+09 -1.506517e+09 -1.666579e+09 -1.355986e+04 -2.494690e+04 -1.618331e+04
-1.761580e+09 -1.561557e+09 -1.721612e+09 -9.007878e+03 -2.496763e+04 -1.269462e+04
-1.507007e+09 -1.307009e+09 -1.467009e+09 5.130992e+02 3.780342e+01 9.666580e+00
-1.619639e+09 -1.419641e+09 -1.579640e+09 5.166886e+02 3.688315e+01 1.566031e+01
-1.559893e+09 -1.359895e+09 -1.519895e+09 4.922587e+02 3.066229e+01 2.770682e+01
-1.679000e+09 -1.479002e+09 -1.639002e+09 4.528748e+02 2.192064e+01 -7.382602e-01
-1.492869e+09 -1.292870e+09 -1.452870e+09 4.655556e+02 5.254789e+01 4.577472e+01
-1.492869e+09 -1.292870e+09 -1.452870e+09 4.568845e+02 3.883572e+01 2.387439e+01
-1.593513e+09 -1.393515e+09 -1.553514e+09 4.606907e+02 4.934154e+01 4.242350e+01
-1.650445e+09 -1.450447e+09 -1.610447e+09 4.625855e+02 4.392692e+01 6.051701e+01
-1.601805e+09 -1.401806e+09 -1.561805e+09 3.150521e+02 1.941844e+01 2.024029e+01
-1.751965e+09 -1.551966e+09 -1.711966e+09 3.148633e+02 1.853283e+01 1.498250e+01
-1.781285e+09 -1.581286e+09 -1.741286e+09 3.223302e+02 2.511323e+01 3.727738e+00
-1.868220e+09 -1.668221e+09 -1.828221e+09 3.185700e+02 1.525986e+01 9.181497e+00
-1.443064e+09 -1.243058e+09 -1.403076e+09 -2.061952e+04 -2.306055e+04 -8.064560e+03
-1.443067e+09 -1.243055e+09 -1.403076e+09 -1.741555e+04 -2.413540e+04 -1.017342e+04
-1.443067e+09 -1.243045e+09 -1.403090e+09 -1.370458e+04 -1.646733e+04 -1.074783e+04
-1.564886e+09 -1.364872e+09 -1.524896e+09 -1.419330e+04 -1.419520e+04 -5.648324e+03
-1.490714e+09 -1.290725e+09 -1.450722e+09 -4.727921e+03 3.373580e+03 -8.986695e+03
-1.599946e+09 -1.399955e+09 -1.559953e+09 -4.561990e+03 3.297780e+03 -8.319226e+03
-1.552356e+09 -1.352365e+09 -1.512364e+09 -4.349781e+03 2.777723e+03 -7.732332e+03
-1.660330e+09 -1.460339e+09 -1.620337e+09 -4.989812e+03 3.488259e+03 -8.631910e+03
-1.540947e+09 -1.340955e+09 -1.500954e+09 -1.108849e+03 3.975012e+02 -5.295641e+03
-1.647225e+09 -1.447234e+09 -1.607233e+09 -1.079941e+03 4.834934e+02 -5.043695e+03
-1.716619e+09 -1.516627e+09 -1.676625e+09 -1.013383e+03 4.449697e+02 -5.367112e+03
-1.780067e+09 -1.580076e+09 -1.740073e+09 -5.648044e+02 3.890383e+02 -6.087354e+03
-1.544129e+09 -1.344127e+09 -1.504173e+09 -1.057406e+04 -4.099292e+04 -1.375043e+04
-1.662106e+09 -1.462108e+09 -1.622146e+09 -1.057400e+04 -3.115730e+04 -1.106476e+04
-1.711472e+09 -1.511457e+09 -1.671523e+09 -8.946458e+01 -3.564215e+04 -9.953066e+03
-1.777722e+09 -1.577706e+09 -1.737765e+09 -7.449946e+03 -3.333438e+04 -1.144857e+04
-1.486317e+09 -1.286322e+09 -1.446369e+09 -9.604375e+03 -4.397850e+04 -8.018319e+03
-1.487026e+09 -1.287038e+09 -1.447073e+09 -1.407695e+04 -4.629541e+04 -9.329904e+03
-1.540342e+09 -1.340345e+09 -1.500395e+09 -8.199768e+03 -4.352054e+04 -8.293298e+03
-1.538887e+09 -1.338886e+09 -1.498938e+09 -1.104301e+04 -4.539697e+04 -4.828341e+03
-1.645362e+09 -1.445362e+09 -1.605410e+09 -9.437175e+03 -3.702673e+04 -8.735424e+03
-1.711605e+09 -1.511601e+09 -1.671644e+09 -1.048550e+04 -3.393647e+04 -8.989406e+03
-1.651167e+09 -1.451170e+09 -1.611215e+09 -9.994002e+03 -3.108561e+04 -7.667614e+03
-1.500836e+09 -1.300838e+09 -1.460898e+09 -6.946547e+03 -4.580147e+04 -5.371910e+03
-1.498408e+09 -1.298402e+09 -1.458475e+09 -6.013225e+03 -3.744874e+04 -3.373313e+03
-1.557373e+09 -1.357374e+09 -1.517439e+09 -7.768518e+03 -4.315342e+04 -1.927978e+03
-1.551967e+09 -1.351971e+09 -1.512036e+09 -6.944440e+03 -4.226570e+04 -3.880310e+03
-1.667040e+09 -1.467041e+09 -1.627097e+09 -7.630078e+03 -2.378322e+04 -3.175870e+03
-1.727144e+09 -1.527139e+09 -1.687198e+09 -1.158083e+04 -2.933855e+04 -6.579993e+03
-1.670934e+09 -1.470934e+09 -1.630995e+09 -8.408655e+03 -3.362997e+04 -5.149986e+03
-1.545194e+09 -1.345189e+09 -1.505246e+09 -7.628469e+03 -4.570648e+04 -2.737922e+03
-1.656015e+09 -1.456005e+09 -1.616059e+09 -7.397037e+03 -2.863300e+04 -3.629609e+03
-1.716448e+09 -1.516429e+09 -1.676489e+09 -8.444740e+03 -3.417716e+04 -5.766060e+03
-1.778156e+09 -1.578137e+09 -1.738206e+09 -8.927027e+03 -3.131039e+04 -3.956104e+03
-1.546877e+09 -1.346881e+09 -1.506937e+09 -8.327544e+03 -4.511166e+04 -4.150493e+03
-1.657700e+09 -1.457698e+09 -1.617751e+09 -7.585643e+03 -2.785941e+04 -4.156742e+03
-1.725223e+09 -1.525219e+09 -1.685283e+09 -5.146875e+03 -2.977846e+04 -3.108624e+03
-1.781433e+09 -1.581423e+09 -1.741485e+09 -8.710081e+03 -2.458120e+04 -4.524889e+03
-1.492013e+09 -1.292032e+09 -1.452050e+09 -1.246119e+04 -4.946890e+04 -8.436293e+03
-1.600069e+09 -1.400071e+09 -1.560099e+09 -1.361354e+04 -3.489165e+04 -8.575770e+03
-1.545407e+09 -1.345431e+09 -1.505439e+09 -2.567991e+04 -3.958175e+04 -1.311294e+04
-1.655114e+09 -1.455123e+09 -1.615139e+09 -1.280653e+04 -3.558145e+04 -9.678463e+03
-1.488162e+09 -1.288142e+09 -1.448159e+09 -1.935680e+03 2.555962e+03 3.170503e+03
-1.488160e+09 -1.288139e+09 -1.448158e+09 -6.470018e+02 3.198508e+03 3.665861e+03
-1.593017e+09 -1.392999e+09 -1.553016e+09 -1.889209e+03 1.015902e+02 3.456348e+03
-1.666966e+09 -1.466942e+09 -1.626967e+09 -2.577790e+03 2.090733e+03 4.726980e+03
-1.478459e+09 -1.278445e+09 -1.438476e+09 1.131709e+04 -2.385017e+04 1.653947e+04
-1.578489e+09 -1.378471e+09 -1.538506e+09 8.032934e+03 -1.768275e+04 1.460323e+04
-1.654764e+09 -1.454751e+09 -1.614781e+09 9.941840e+02 -1.226786e+04 8.242499e+03
-1.603888e+09 -1.403880e+09 -1.563904e+09 1.109959e+04 -2.014118e+04 1.437629e+04
-1.503467e+09 -1.303455e+09 -1.463459e+09 3.801610e+03 1.379991e+03 -1.118468e+03
-1.503474e+09 -1.303457e+09 -1.463466e+09 1.554094e+03 2.712877e+03 3.152398e+03
-1.622674e+09 -1.422656e+09 -1.582668e+09 1.829154e+03 2.243645e+03 4.782505e+03
-1.686402e+09 -1.486392e+09 -1.646395e+09 1.317330e+03 1.650722e+03 -1.829907e+03
-1.485303e+09 -1.285310e+09 -1.445309e+09 -2.497943e+02 2.665146e+02 -2.230183e+03
-1.578141e+09 -1.378149e+09 -1.538148e+09 -3.804639e+02 3.284747e+02 -2.372532e+03
-1.615688e+09 -1.415695e+09 -1.575694e+09 -9.911700e+01 8.565136e+01 -2.194944e+03
-1.568962e+09 -1.368969e+09 -1.528968e+09 -7.653062e+02 3.885685e+02 -2.195393e+03
-1.502172e+09 -1.302179e+09 -1.462178e+09 5.028381e+02 5.180669e+01 -2.123681e+03
-1.482969e+09 -1.282976e+09 -1.442975e+09 4.305295e+02 -4.196345e+01 -2.336924e+03
-1.555857e+09 -1.355865e+09 -1.515864e+09 5.454103e+02 -1.198483e+01 -2.207741e+03
-1.532972e+09 -1.332979e+09 -1.492978e+09 4.044606e+02 7.733118e+01 -2.313370e+03
-1.625650e+09 -1.425657e+09 -1.585655e+09 5.905873e+02 8.887145e+01 -3.001543e+03
-1.700113e+09 -1.500119e+09 -1.660118e+09 7.936607e+02 -2.389842e+01 -2.550450e+03
-1.671197e+09 -1.471204e+09 -1.631203e+09 6.424228e+02 -5.099729e+01 -2.478244e+03
-1.529522e+09 -1.329528e+09 -1.489527e+09 7.092529e+02 2.365690e+01 -1.867080e+03
-1.520393e+09 -1.320399e+09 -1.480398e+09 7.888010e+02 6.413157e+01 -1.672318e+03
-1.593199e+09 -1.393206e+09 -1.553205e+09 6.957410e+02 4.287159e+01 -1.864257e+03
-1.596729e+09 -1.396735e+09 -1.556735e+09 7.398555e+02 4.740356e+01 -1.779764e+03
-1.732529e+09 -1.532536e+09 -1.692535e+09 7.719306e+02 -4.569845e+01 -2.115375e+03
-1.789543e+09 -1.589549e+09 -1.749548e+09 9.684237e+02 -9.214871e+00 -2.150970e+03
-1.718519e+09 -1.518526e+09 -1.678525e+09 8.200140e+02 9.478682e+01 -2.391442e+03
-1.566949e+09 -1.366957e+09 -1.526956e+09 5.961132e+02 3.219643e+01 -2.312081e+03
-1.682289e+09 -1.482296e+09 -1.642295e+09 6.081422e+02 7.897941e-01 -2.356725e+03
-1.711205e+09 -1.511211e+09 -1.671210e+09 7.832254e+02 1.375100e+01 -2.429177e+03
-1.786522e+09 -1.586529e+09 -1.746528e+09 7.994797e+02 1.270802e+02 -2.538572e+03
-1.593284e+09 -1.393291e+09 -1.553290e+09 6.925821e+02 -2.113194e+01 -1.964559e+03
-1.708624e+09 -1.508630e+09 -1.668629e+09 6.962691e+02 -3.727597e+01 -1.968710e+03
-1.770181e+09 -1.570188e+09 -1.730187e+09 8.188335e+02 2.560482e+01 -2.384950e+03
-1.841204e+09 -1.641211e+09 -1.801210e+09 9.434940e+02 -6.728199e+01 -2.178415e+03
-1.573162e+09 -1.373167e+09 -1.533166e+09 7.569165e+02 -3.825772e+01 -7.078423e+02
-1.692325e+09 -1.492329e+09 -1.652328e+09 7.765076e+02 -4.471832e+00 -7.945437e+02
-1.765664e+09 -1.565668e+09 -1.725668e+09 7.884432e+02 -1.793087e+01 -7.917416e+02
-1.821682e+09 -1.621686e+09 -1.781686e+09 7.483199e+02 -5.627676e+01 -8.245215e+02
-1.520689e+09 -1.320694e+09 -1.480693e+09 6.331098e+02 7.110661e+01 -7.832145e+02
-1.646502e+09 -1.446506e+09 -1.606506e+09 6.514890e+02 6.371705e+01 -7.484224e+02
-1.580781e+09 -1.380785e+09 -1.540785e+09 4.564161e+02 9.282311e+01 -8.244078e+02
-1.702520e+09 -1.502524e+09 -1.662524e+09 5.363920e+02 4.414022e+01 -7.292682e+02
-1.513511e+09 -1.313522e+09 -1.473517e+09 -4.399274e+03 3.303883e+03 -1.156908e+04
-1.513510e+09 -1.313522e+09 -1.473518e+09 -4.727151e+03 4.006604e+03 -1.205871e+04
-1.647916e+09 -1.447925e+09 -1.607917e+09 -3.712870e+03 3.265803e+03 -1.327177e+04
-1.694502e+09 -1.494513e+09 -1.654506e+09 -3.763920e+03 3.095529e+03 -1.363964e+04
-1.570994e+09 -1.370995e+09 -1.530995e+09 3.433495e+02 3.481607e+01 2.582804e+01
-1.675395e+09 -1.475396e+09 -1.635396e+09 3.445105e+02 4.578059e+01 3.703058e+01
-1.693843e+09 -1.493844e+09 -1.653843e+09 3.882064e+02 3.628705e+01 2.455458e+01
-1.799737e+09 -1.599738e+09 -1.759737e+09 3.868098e+02 3.382372e+01 3.372365e+01
-1.507765e+09 -1.307766e+09 -1.467766e+09 3.352724e+02 4.594612e+01 2.441459e+01
-1.589442e+09 -1.389443e+09 -1.549443e+09 3.615952e+02 4.163085e+01 1.139846e+01
-1.620254e+09 -1.420255e+09 -1.580255e+09 3.516151e+02 4.778742e+01 2.577890e+01
-1.695336e+09 -1.495337e+09 -1.655337e+09 3.425290e+02 4.204556e+01 2.452551e+01
-1.500194e+09 -1.300210e+09 -1.460227e+09 -1.895884e+04 -4.742304e+04 -1.234323e+04
-1.608250e+09 -1.408251e+09 -1.568278e+09 -1.240966e+04 -3.497447e+04 -9.956764e+03
-1.671565e+09 -1.471568e+09 -1.631594e+09 -9.866673e+03 -3.869951e+04 -7.567089e+03
-1.614477e+09 -1.414499e+09 -1.574507e+09 -1.165134e+04 -4.405766e+04 -7.971772e+03
-1.481916e+09 -1.281902e+09 -1.441954e+09 -1.571926e+04 -3.484270e+04 -1.379458e+04
-1.588392e+09 -1.388377e+09 -1.548436e+09 -1.565730e+04 -3.328864e+04 -1.536715e+04
-1.653515e+09 -1.453502e+09 -1.613550e+09 -5.875521e+03 -2.851073e+04 -1.201086e+04
-1.604597e+09 -1.404551e+09 -1.564632e+09 -1.501417e+04 -2.678745e+04 -2.027986e+04
-1.448208e+09 -1.248210e+09 -1.408210e+09 5.485996e+02 6.602605e+01 -2.220054e+00
-1.442266e+09 -1.242268e+09 -1.402267e+09 5.352395e+02 7.538902e+01 2.102231e+01
-1.502061e+09 -1.302063e+09 -1.462063e+09 5.517188e+02 6.496723e+01 2.439022e+01
-1.442266e+09 -1.242268e+09 -1.402267e+09 5.508909e+02 6.440043e+01 2.502746e+01
-1.442266e+09 -1.242268e+09 -1.402267e+09 4.883246e+02 6.315886e+01 -3.451764e+01
-1.566102e+09 -1.366105e+09 -1.526104e+09 5.135257e+02 7.785600e+01 3.968894e+00
-1.625898e+09 -1.425900e+09 -1.585900e+09 5.418528e+02 7.244985e+01 1.446474e+01
-1.448286e+09 -1.248288e+09 -1.408288e+09 5.625900e+02 5.140698e+01 -7.684543e+00
-1.437592e+09 -1.237595e+09 -1.397594e+09 5.717428e+02 4.868218e+01 -5.387485e+01
-1.448286e+09 -1.248288e+09 -1.408288e+09 5.713226e+02 5.014154e+01 -6.158805e+00
-1.497466e+09 -1.297468e+09 -1.457468e+09 5.704851e+02 4.962932e+01 -5.526934e+00
-1.606880e+09 -1.406882e+09 -1.566882e+09 5.327215e+02 5.526917e+01 -5.052945e+01
-1.557700e+09 -1.357702e+09 -1.517702e+09 5.127307e+02 5.256452e+01 -5.641905e+01
-1.448286e+09 -1.248288e+09 -1.408288e+09 5.024838e+02 4.772219e+01 -7.678887e+01
-1.448208e+09 -1.248210e+09 -1.408210e+09 5.608298e+02 5.030389e+01 4.433646e+00
-1.572045e+09 -1.372047e+09 -1.532047e+09 5.638523e+02 5.438297e+01 1.139903e+01
-1.512249e+09 -1.312252e+09 -1.472251e+09 5.270575e+02 5.106382e+01 9.111518e-01
-1.512249e+09 -1.312252e+09 -1.472251e+09 5.006978e+02 6.111256e+01 -1.510318e+01
-1.508082e+09 -1.308084e+09 -1.468084e+09 5.620186e+02 5.202462e+01 1.427905e+00
-1.631919e+09 -1.431921e+09 -1.591920e+09 5.626205e+02 5.688488e+01 5.492021e+00
-1.572123e+09 -1.372125e+09 -1.532125e+09 4.904386e+02 5.391487e+01 -3.822941e+01
-1.681537e+09 -1.481539e+09 -1.641539e+09 5.101074e+02 6.089447e+01 -4.013904e+00
-1.496597e+09 -1.296602e+09 -1.456602e+09 7.614600e+02 -2.622525e+01 -1.630084e+03
-1.496597e+09 -1.296602e+09 -1.456602e+09 8.783237e+02 -7.223067e+01 -1.651316e+03
-1.599115e+09 -1.399120e+09 -1.559120e+09 9.370400e+02 -1.235163e+02 -1.700122e+03
-1.679924e+09 -1.479930e+09 -1.639929e+09 9.739354e+02 -9.311395e+01 -1.787063e+03
-1.481839e+09 -1.281845e+09 -1.441845e+09 4.577201e+02 1.749053e+02 -1.494692e+03
-1.589816e+09 -1.389822e+09 -1.549822e+09 5.056269e+02 1.861289e+02 -1.518460e+03
-1.539603e+09 -1.339609e+09 -1.499609e+09 1.824746e+02 2.267818e+02 -1.590153e+03
-1.629380e+09 -1.429386e+09 -1.589386e+09 1.348282e+02 1.803429e+02 -1.616601e+03
-1.489551e+09 -1.289560e+09 -1.449559e+09 3.993055e+02 -1.594451e+02 -3.241662e+03
-1.489551e+09 -1.289560e+09 -1.449559e+09 4.153849e+02 -7.878604e+01 -3.284534e+03
-1.582229e+09 -1.382238e+09 -1.542236e+09 7.755953e+02 -1.757829e+02 -3.742315e+03
-1.663278e+09 -1.463286e+09 -1.623285e+09 7.462563e+02 -1.902261e+02 -3.741270e+03
-1.487208e+09 -1.287212e+09 -1.447211e+09 7.667011e+02 1.992104e+01 -4.028954e+02
-1.497132e+09 -1.297136e+09 -1.457135e+09 7.618563e+02 3.461607e+01 -3.315645e+02
-1.547180e+09 -1.347183e+09 -1.507183e+09 7.568782e+02 2.758657e+01 -3.680004e+02
-1.547073e+09 -1.347076e+09 -1.507076e+09 7.834603e+02 1.405259e+01 -3.427008e+02
-1.649162e+09 -1.449165e+09 -1.609165e+09 7.653656e+02 5.725613e+00 -4.372530e+02
-1.717367e+09 -1.517370e+09 -1.677369e+09 7.870594e+02 4.065259e+01 -4.512763e+02
-1.664134e+09 -1.464137e+09 -1.624137e+09 7.588229e+02 6.115322e+01 -4.436591e+02
-1.510876e+09 -1.310880e+09 -1.470879e+09 7.818665e+02 1.550338e+01 -4.759797e+02
-1.497935e+09 -1.297938e+09 -1.457938e+09 7.670295e+02 7.067644e+00 -5.567158e+02
-1.576597e+09 -1.376601e+09 -1.536601e+09 7.848958e+02 6.833329e+00 -4.706565e+02
-1.560320e+09 -1.360324e+09 -1.520323e+09 7.550781e+02 2.545709e+01 -5.084052e+02
-1.659175e+09 -1.459178e+09 -1.619178e+09 8.208409e+02 1.056041e+01 -6.867456e+02
-1.741185e+09 -1.541188e+09 -1.701188e+09 8.324330e+02 -1.276058e+01 -6.763560e+02
-1.702410e+09 -1.502414e+09 -1.662413e+09 7.833218e+02 -1.059706e+01 -6.490681e+02
-1.547288e+09 -1.347291e+09 -1.507291e+09 7.628077e+02 -1.900724e+00 -4.015906e+02
-1.664242e+09 -1.464245e+09 -1.624245e+09 7.635020e+02 4.353367e+01 -5.002874e+02
-1.717475e+09 -1.517478e+09 -1.677478e+09 8.038755e+02 7.466732e+00 -4.769450e+02
-1.793347e+09 -1.593351e+09 -1.753350e+09 7.927779e+02 -4.033486e+00 -4.839518e+02
-1.559733e+09 -1.359737e+09 -1.519736e+09 7.780526e+02 1.251927e+01 -4.301765e+02
-1.676687e+09 -1.476690e+09 -1.636690e+09 7.702748e+02 5.846745e+01 -5.349616e+02
-1.753643e+09 -1.553646e+09 -1.713646e+09 7.401478e+02 2.521181e+01 -5.200295e+02
-1.792417e+09 -1.592421e+09 -1.752420e+09 7.782486e+02 3.454970e+01 -5.356702e+02
-1.543238e+09 -1.343245e+09 -1.503245e+09 5.790709e+02 -1.325070e+02 -2.735991e+03
-1.635915e+09 -1.435923e+09 -1.595922e+09 8.292788e+02 -1.249105e+02 -3.567265e+03
-1.710378e+09 -1.510386e+09 -1.670384e+09 1.058527e+03 -2.503289e+02 -3.106440e+03
-1.778619e+09 -1.578626e+09 -1.738625e+09 1.088404e+03 -2.042378e+02 -3.282286e+03
-1.436350e+09 -1.236355e+09 -1.396355e+09 5.181157e+02 4.751338e+01 -9.113971e+02
-1.438621e+09 -1.238627e+09 -1.398626e+09 4.500674e+02 7.946848e+01 -1.172924e+03
-1.436350e+09 -1.236355e+09 -1.396355e+09 4.746916e+02 5.905141e+01 -8.988370e+02
-1.486563e+09 -1.286568e+09 -1.446568e+09 4.706100e+02 6.562986e+01 -9.330237e+02
-1.594540e+09 -1.394545e+09 -1.554544e+09 3.311577e+02 1.617578e+02 -1.081570e+03
-1.544327e+09 -1.344332e+09 -1.504332e+09 3.051033e+02 8.482967e+01 -9.885138e+02
-1.436350e+09 -1.236355e+09 -1.396355e+09 3.211448e+02 8.831406e+01 -1.014434e+03
-1.447171e+09 -1.247176e+09 -1.407175e+09 5.507058e+02 6.576471e+01 -7.773668e+02
-1.454968e+09 -1.254972e+09 -1.414972e+09 5.975339e+02 8.561027e+01 -7.346969e+02
-1.513729e+09 -1.313734e+09 -1.473733e+09 5.538290e+02 6.831129e+01 -7.554720e+02
-1.454968e+09 -1.254972e+09 -1.414972e+09 5.853395e+02 7.058049e+01 -7.444823e+02
-1.454968e+09 -1.254972e+09 -1.414972e+09 4.193622e+02 1.070476e+02 -8.665693e+02
-1.576707e+09 -1.376711e+09 -1.536711e+09 4.975399e+02 6.195674e+01 -7.853268e+02
-1.635468e+09 -1.435473e+09 -1.595472e+09 5.108363e+02 7.164855e+01 -8.056095e+02
-1.495112e+09 -1.295117e+09 -1.455116e+09 5.131674e+02 5.085076e+01 -7.792259e+02
-1.495112e+09 -1.295117e+09 -1.455116e+09 3.342896e+02 7.820071e+01 -8.699168e+02
-1.603089e+09 -1.403094e+09 -1.563093e+09 3.336993e+02 6.443175e+01 -8.644152e+02
-1.676887e+09 -1.476892e+09 -1.636891e+09 3.926032e+02 4.636162e+01 -7.387624e+02
-1.447171e+09 -1.247176e+09 -1.407175e+09 5.381435e+02 5.253297e+01 -7.737906e+02
-1.447171e+09 -1.247176e+09 -1.407175e+09 3.577360e+02 8.221975e+01 -8.560283e+02
-1.568910e+09 -1.368915e+09 -1.528914e+09 4.443311e+02 7.285708e+01 -7.851810e+02
-1.510149e+09 -1.310153e+09 -1.470153e+09 4.498375e+02 5.846361e+01 -7.669730e+02
-1.546810e+09 -1.346815e+09 -1.506815e+09 8.595174e+02 -3.381066e+01 -1.511628e+03
-1.649327e+09 -1.449333e+09 -1.609332e+09 8.935546e+02 -2.575005e+01 -1.796795e+03
-1.712794e+09 -1.512799e+09 -1.672799e+09 9.483461e+02 -1.155851e+02 -1.703241e+03
-1.787901e+09 -1.587907e+09 -1.747906e+09 9.649232e+02 -3.616885e+01 -1.857976e+03
-1.485918e+09 -1.285907e+09 -1.445917e+09 -1.039796e+04 -8.121165e+03 -9.411799e+03
-1.492876e+09 -1.292867e+09 -1.452876e+09 -1.181452e+04 -9.705643e+03 -1.095387e+04
-1.544715e+09 -1.344705e+09 -1.504716e+09 -9.621003e+03 -7.902725e+03 -9.163471e+03
-1.542570e+09 -1.342559e+09 -1.502571e+09 -1.030723e+04 -7.740674e+03 -1.030224e+04
-1.654202e+09 -1.454191e+09 -1.614203e+09 -1.017092e+04 -8.990826e+03 -1.080878e+04
-1.728527e+09 -1.528516e+09 -1.688527e+09 -9.688003e+03 -8.961583e+03 -1.021370e+04
-1.664693e+09 -1.464682e+09 -1.624694e+09 -9.815394e+03 -9.016826e+03 -1.026529e+04
-1.509959e+09 -1.309948e+09 -1.469957e+09 -9.271464e+03 -6.425363e+03 -8.447665e+03
-1.499871e+09 -1.299861e+09 -1.459868e+09 -7.744006e+03 -5.708403e+03 -6.718315e+03
-1.570672e+09 -1.370661e+09 -1.530670e+09 -7.719422e+03 -5.039641e+03 -7.458205e+03
-1.559910e+09 -1.359899e+09 -1.519908e+09 -6.980374e+03 -5.656696e+03 -6.564816e+03
-1.665508e+09 -1.465497e+09 -1.625508e+09 -7.113156e+03 -7.289458e+03 -7.578260e+03
-1.736855e+09 -1.536843e+09 -1.696854e+09 -7.168805e+03 -6.796566e+03 -7.518955e+03
-1.692754e+09 -1.492742e+09 -1.652755e+09 -7.738076e+03 -6.896660e+03 -7.484498e+03
-1.547413e+09 -1.347401e+09 -1.507412e+09 -9.178825e+03 -6.305872e+03 -8.818406e+03
-1.667390e+09 -1.467378e+09 -1.627390e+09 -8.818142e+03 -8.319255e+03 -1.035216e+04
-1.731223e+09 -1.531211e+09 -1.691224e+09 -8.691465e+03 -8.170717e+03 -1.021088e+04
-1.803606e+09 -1.603594e+09 -1.763607e+09 -7.737464e+03 -6.480288e+03 -8.609949e+03
-1.557756e+09 -1.357745e+09 -1.517755e+09 -8.538036e+03 -6.331071e+03 -8.068625e+03
-1.677733e+09 -1.477722e+09 -1.637734e+09 -8.110609e+03 -8.507195e+03 -9.569004e+03
-1.752014e+09 -1.552004e+09 -1.712017e+09 -7.089004e+03 -7.155438e+03 -7.931312e+03
-1.796115e+09 -1.596104e+09 -1.756116e+09 -6.453329e+03 -7.023607e+03 -7.556938e+03
-1.557643e+09 -1.357653e+09 -1.517650e+09 -4.517820e+03 3.363360e+03 -9.110764e+03
-1.666874e+09 -1.466883e+09 -1.626881e+09 -4.481464e+03 3.333392e+03 -8.510825e+03
-1.727259e+09 -1.527268e+09 -1.687265e+09 -4.473359e+03 3.682628e+03 -8.869032e+03
-1.806939e+09 -1.606946e+09 -1.766941e+09 -3.819461e+03 3.317453e+03 -1.037794e+04
-1.501114e+09 -1.301116e+09 -1.461116e+09 5.557857e+02 6.946725e+01 1.407715e+01
-1.501114e+09 -1.301116e+09 -1.461116e+09 4.991804e+02 6.033760e+01 -1.038542e+01
-1.624951e+09 -1.424953e+09 -1.584953e+09 5.264724e+02 7.416126e+01 3.400782e+01
-1.690205e+09 -1.490207e+09 -1.650207e+09 4.828151e+02 5.841664e+01 -4.519641e+00
-1.447250e+09 -1.247261e+09 -1.407260e+09 -6.109952e+02 3.677468e+02 -6.121517e+03
-1.447250e+09 -1.247261e+09 -1.407260e+09 -6.780547e+02 6.432851e+02 -6.208375e+03
-1.447249e+09 -1.247261e+09 -1.407260e+09 3.967314e+02 -7.306072e+01 -6.702406e+03
-1.559684e+09 -1.359696e+09 -1.519695e+09 2.699950e+02 1.628601e+02 -6.506749e+03
-1.514183e+09 -1.314187e+09 -1.474187e+09 6.874950e+02 1.047534e+01 -8.587262e+02
-1.507441e+09 -1.307445e+09 -1.467445e+09 7.716847e+02 -7.768376e+00 -7.716747e+02
-1.580741e+09 -1.380745e+09 -1.540745e+09 6.735404e+02 9.719823e+00 -7.626977e+02
-1.574452e+09 -1.374457e+09 -1.534456e+09 7.834850e+02 -1.872759e+01 -7.964898e+02
-1.702480e+09 -1.502484e+09 -1.662484e+09 6.579917e+02 -2.453881e+01 -8.780667e+02
-1.762880e+09 -1.562885e+09 -1.722884e+09 7.599476e+02 -2.144410e+01 -1.050021e+03
-1.693614e+09 -1.493619e+09 -1.653618e+09 8.194891e+02 1.088166e+01 -9.833880e+02
-1.490871e+09 -1.290876e+09 -1.450875e+09 6.787928e+02 6.626488e+01 -1.020522e+03
-1.483132e+09 -1.283137e+09 -1.443137e+09 6.890329e+02 2.434523e+01 -1.211642e+03
-1.541083e+09 -1.341089e+09 -1.501088e+09 6.965263e+02 3.054152e+01 -1.064573e+03
-1.537653e+09 -1.337658e+09 -1.497658e+09 6.546504e+02 6.255706e+01 -1.111417e+03
-1.640171e+09 -1.440176e+09 -1.600175e+09 6.729246e+02 9.956385e+01 -1.397511e+03
-1.703637e+09 -1.503643e+09 -1.663642e+09 7.537766e+02 1.901826e+01 -1.326753e+03
-1.649060e+09 -1.449065e+09 -1.609065e+09 6.777395e+02 -1.164305e+01 -1.272271e+03
-1.562124e+09 -1.362128e+09 -1.522128e+09 7.049622e+02 -4.660650e+00 -9.001269e+02
-1.670101e+09 -1.470105e+09 -1.630105e+09 6.818266e+02 -6.811740e+01 -9.663022e+02
-1.804299e+09 -1.604304e+09 -1.764303e+09 7.542803e+02 -3.334224e+01 -1.028378e+03
-1.743899e+09 -1.543903e+09 -1.703903e+09 6.696554e+02 -4.351210e+01 -8.696695e+02
-1.557882e+09 -1.357887e+09 -1.517887e+09 6.829013e+02 5.053580e+01 -1.050714e+03
-1.665859e+09 -1.465864e+09 -1.625864e+09 6.583263e+02 -1.270720e+01 -1.133691e+03
-1.720437e+09 -1.520441e+09 -1.680441e+09 7.336375e+02 3.145957e+01 -1.210510e+03
-1.785078e+09 -1.585083e+09 -1.745082e+09 7.312778e+02 4.626897e+01 -1.231039e+03
-1.441807e+09 -1.241816e+09 -1.401815e+09 -5.672850e+02 3.469021e+02 -3.453480e+03
-1.440894e+09 -1.240902e+09 -1.400901e+09 -2.528588e+02 3.042217e+02 -2.953139e+03
-1.494297e+09 -1.294305e+09 -1.454305e+09 -5.077869e+02 3.133495e+02 -2.981982e+03
-1.440894e+09 -1.240902e+09 -1.400902e+09 -4.573232e+02 3.387161e+02 -2.953618e+03
-1.440894e+09 -1.240902e+09 -1.400901e+09 -7.238280e+02 5.188753e+02 -3.229767e+03
-1.544341e+09 -1.344350e+09 -1.504349e+09 -7.168860e+02 4.593301e+02 -3.184977e+03
-1.597745e+09 -1.397753e+09 -1.557752e+09 -6.981238e+02 4.770524e+02 -3.209098e+03
-1.448529e+09 -1.248538e+09 -1.408537e+09 -9.110684e+02 4.753562e+02 -4.069429e+03
-1.433110e+09 -1.233120e+09 -1.393119e+09 -1.266967e+03 7.333172e+02 -4.973592e+03
-1.448530e+09 -1.248539e+09 -1.408538e+09 -1.343155e+03 6.988455e+02 -4.046333e+03
-1.493237e+09 -1.293247e+09 -1.453246e+09 -1.310381e+03 7.537959e+02 -4.272853e+03
-1.599515e+09 -1.399525e+09 -1.559523e+09 -1.609532e+03 1.055334e+03 -4.641160e+03
-1.554808e+09 -1.354817e+09 -1.514816e+09 -1.500987e+03 7.853648e+02 -4.221429e+03
-1.448529e+09 -1.248539e+09 -1.408537e+09 -1.449008e+03 7.357975e+02 -4.140310e+03
-1.441808e+09 -1.241816e+09 -1.401815e+09 -8.947485e+02 4.356269e+02 -3.480311e+03
-1.545256e+09 -1.345264e+09 -1.505263e+09 -7.061618e+02 4.114077e+02 -3.313914e+03
-1.491853e+09 -1.291861e+09 -1.451860e+09 -7.202321e+02 3.304693e+02 -3.278533e+03
-1.491853e+09 -1.291861e+09 -1.451860e+09 -1.413214e+03 7.026163e+02 -3.492703e+03
-1.501933e+09 -1.301942e+09 -1.461942e+09 -8.995736e+02 4.557856e+02 -3.505027e+03
-1.605381e+09 -1.405390e+09 -1.565389e+09 -7.274261e+02 4.451599e+02 -3.359770e+03
-1.551979e+09 -1.351987e+09 -1.511986e+09 -1.415694e+03 7.130131e+02 -3.623735e+03
-1.658257e+09 -1.458265e+09 -1.618264e+09 -1.428145e+03 7.390464e+02 -3.660077e+03
-1.443125e+09 -1.243134e+09 -1.403133e+09 -5.080311e+03 3.666950e+03 -7.852980e+03
-1.443127e+09 -1.243134e+09 -1.403135e+09 -4.378706e+03 2.873315e+03 -6.999378e+03
-1.443126e+09 -1.243132e+09 -1.403132e+09 -6.201526e+03 4.572460e+03 -7.941207e+03
-1.551103e+09 -1.351109e+09 -1.511111e+09 -5.309223e+03 3.447684e+03 -6.320231e+03
-1.430997e+09 -1.230990e+09 -1.390994e+09 -4.505882e+03 -3.630027e+03 -3.870423e+03
-1.444290e+09 -1.244284e+09 -1.404288e+09 -4.019435e+03 -3.191862e+03 -3.166096e+03
-1.430997e+09 -1.230991e+09 -1.390994e+09 -4.760664e+03 -3.732898e+03 -3.936807e+03
-1.486867e+09 -1.286861e+09 -1.446864e+09 -4.151272e+03 -3.130730e+03 -3.467909e+03
-1.595202e+09 -1.395198e+09 -1.555200e+09 -4.145366e+03 -3.787646e+03 -3.524812e+03
-1.539331e+09 -1.339325e+09 -1.499329e+09 -4.631947e+03 -3.867857e+03 -3.594722e+03
-1.430997e+09 -1.230991e+09 -1.390995e+09 -4.944091e+03 -4.164830e+03 -4.015014e+03
-1.451208e+09 -1.251200e+09 -1.411204e+09 -5.472267e+03 -4.208560e+03 -4.475505e+03
-1.451778e+09 -1.251770e+09 -1.411775e+09 -6.440029e+03 -5.182034e+03 -5.180636e+03
-1.514564e+09 -1.314557e+09 -1.474561e+09 -5.350105e+03 -4.260571e+03 -4.604204e+03
-1.451778e+09 -1.251770e+09 -1.411775e+09 -6.496451e+03 -5.228589e+03 -5.204946e+03
-1.451778e+09 -1.251773e+09 -1.411776e+09 -6.663915e+03 -6.155995e+03 -5.165974e+03
-1.580081e+09 -1.380074e+09 -1.540078e+09 -5.685244e+03 -4.676368e+03 -4.474488e+03
-1.642869e+09 -1.442862e+09 -1.602866e+09 -5.451828e+03 -4.542188e+03 -4.560449e+03
-1.493784e+09 -1.293777e+09 -1.453781e+09 -4.466021e+03 -3.644966e+03 -4.049453e+03
-1.493784e+09 -1.293779e+09 -1.453782e+09 -4.859867e+03 -4.207838e+03 -4.200943e+03
-1.602118e+09 -1.402113e+09 -1.562116e+09 -4.602037e+03 -3.898876e+03 -3.777158e+03
-1.687845e+09 -1.487840e+09 -1.647843e+09 -4.728440e+03 -3.809856e+03 -3.967368e+03
-1.451208e+09 -1.251201e+09 -1.411205e+09 -5.667737e+03 -4.383370e+03 -4.601014e+03
-1.451208e+09 -1.251202e+09 -1.411205e+09 -5.944771e+03 -4.874869e+03 -4.572911e+03
-1.579512e+09 -1.379506e+09 -1.539510e+09 -5.888345e+03 -4.812933e+03 -4.642437e+03
-1.516725e+09 -1.316719e+09 -1.476722e+09 -6.172246e+03 -4.935527e+03 -4.645025e+03
-1.475405e+09 -1.275382e+09 -1.435452e+09 1.691404e+03 -2.681873e+04 1.165993e+04
-1.473118e+09 -1.273083e+09 -1.433156e+09 4.692276e+03 -1.851642e+04 1.262013e+04
-1.520972e+09 -1.320948e+09 -1.481016e+09 -1.059765e+03 -2.598714e+04 1.202379e+04
-1.518383e+09 -1.318361e+09 -1.478426e+09 3.123358e+03 -2.526651e+04 1.224278e+04
-1.618412e+09 -1.418389e+09 -1.578445e+09 8.347729e+02 -9.453109e+03 8.508213e+03
-1.678096e+09 -1.478067e+09 -1.638132e+09 -5.374639e+03 -1.473920e+04 5.400079e+03
-1.619794e+09 -1.419770e+09 -1.579837e+09 -5.757338e+02 -2.075624e+04 7.657365e+03
-1.495896e+09 -1.295881e+09 -1.455951e+09 6.248867e+02 -3.268705e+04 1.004098e+04
-1.493044e+09 -1.293031e+09 -1.453103e+09 -2.832649e+03 -3.260312e+04 4.824920e+03
-1.548973e+09 -1.348958e+09 -1.509027e+09 -1.568803e+03 -3.472155e+04 8.540460e+03
-1.546281e+09 -1.346260e+09 -1.506334e+09 -6.214194e+03 -3.280606e+04 6.189667e+03
-1.657107e+09 -1.457086e+09 -1.617154e+09 -5.958431e+03 -2.338583e+04 -1.467876e+03
-1.718336e+09 -1.518309e+09 -1.678380e+09 -5.955443e+03 -2.138873e+04 2.625223e+03
-1.661757e+09 -1.461742e+09 -1.621802e+09 -1.245294e+03 -1.762983e+04 6.332984e+03
-1.529660e+09 -1.329642e+09 -1.489712e+09 -2.447084e+03 -3.274367e+04 1.051851e+04
-1.628480e+09 -1.428465e+09 -1.588528e+09 -3.144954e+03 -2.194998e+04 7.268329e+03
-1.686780e+09 -1.486757e+09 -1.646818e+09 -2.911152e+03 -1.410407e+04 9.010693e+03
-1.754311e+09 -1.554286e+09 -1.714351e+09 -4.552096e+03 -1.572777e+04 4.706233e+03
-1.537638e+09 -1.337615e+09 -1.497684e+09 -8.696507e+02 -3.316522e+04 1.089554e+04
-1.636457e+09 -1.436436e+09 -1.596501e+09 -2.359637e+03 -2.226950e+04 8.315678e+03
-1.707512e+09 -1.507489e+09 -1.667551e+09 -7.678576e+02 -1.866372e+04 8.277293e+03
-1.764088e+09 -1.564054e+09 -1.724129e+09 -5.851901e+03 -2.330062e+04 5.235217e+03
-1.529649e+09 -1.329624e+09 -1.489677e+09 -3.726462e+02 -1.774693e+04 1.032360e+04
-1.629682e+09 -1.429655e+09 -1.589710e+09 -1.022186e+03 -1.196661e+04 8.526519e+03
-1.689366e+09 -1.489334e+09 -1.649397e+09 -7.253295e+03 -1.714279e+04 5.078469e+03
-1.769972e+09 -1.569948e+09 -1.729994e+09 -7.797713e+03 -1.217637e+04 -1.896504e+02
-1.429043e+09 -1.229045e+09 -1.389044e+09 4.330813e+02 4.201276e+01 3.204620e-01
-1.429043e+09 -1.229045e+09 -1.389044e+09 4.655064e+02 4.623922e+01 1.299301e+01
-1.429043e+09 -1.229045e+09 -1.389044e+09 4.433194e+02 4.332690e+01 1.672298e+01
-1.526098e+09 -1.326100e+09 -1.486099e+09 4.561561e+02 4.429263e+01 1.243251e+00
-1.494605e+09 -1.294612e+09 -1.454612e+09 2.932817e+02 3.929139e+01 -2.083390e+03
-1.488817e+09 -1.288824e+09 -1.448823e+09 2.860986e+02 -7.528890e+01 -2.390087e+03
-1.541331e+09 -1.341338e+09 -1.501337e+09 2.020893e+02 -3.559946e+00 -2.121070e+03
-1.552580e+09 -1.352587e+09 -1.512586e+09 1.711149e+02 5.027237e+01 -2.170905e+03
-1.667919e+09 -1.467926e+09 -1.627925e+09 9.003533e+01 1.807862e+02 -2.429101e+03
-1.701951e+09 -1.501958e+09 -1.661957e+09 2.225177e+02 5.912703e+01 -2.274933e+03
-1.629047e+09 -1.429055e+09 -1.589053e+09 1.446673e+02 -1.779877e+01 -2.281583e+03
-1.515785e+09 -1.315792e+09 -1.475791e+09 3.876826e+02 1.176764e+02 -1.887677e+03
-1.499933e+09 -1.299939e+09 -1.459939e+09 4.626168e+02 1.740878e+02 -1.636539e+03
-1.584093e+09 -1.384099e+09 -1.544099e+09 3.177384e+02 1.682324e+02 -1.703369e+03
-1.550975e+09 -1.350981e+09 -1.510980e+09 3.835362e+02 1.371486e+02 -1.679917e+03
-1.640751e+09 -1.440758e+09 -1.600757e+09 2.552451e+02 1.746334e+02 -1.983767e+03
-1.733333e+09 -1.533340e+09 -1.693339e+09 2.199387e+02 1.513990e+02 -1.889156e+03
-1.719893e+09 -1.519900e+09 -1.679899e+09 2.555417e+02 1.657827e+02 -1.906029e+03
-1.570942e+09 -1.370949e+09 -1.530948e+09 2.381126e+02 9.791985e+01 -2.002395e+03
-1.658659e+09 -1.458666e+09 -1.618665e+09 1.597507e+02 6.136374e+00 -2.163106e+03
-1.731562e+09 -1.531569e+09 -1.691568e+09 2.175972e+02 9.616966e+01 -2.210213e+03
-1.803600e+09 -1.603607e+09 -1.763606e+09 1.997390e+02 1.619091e+02 -1.868778e+03
-1.558222e+09 -1.358228e+09 -1.518228e+09 3.352885e+02 7.212695e+01 -1.952362e+03
-1.645938e+09 -1.445945e+09 -1.605944e+09 2.240291e+02 -1.943671e+01 -2.144182e+03
-1.739303e+09 -1.539309e+09 -1.699308e+09 1.673342e+02 9.701803e+01 -1.971364e+03
-1.752743e+09 -1.552750e+09 -1.712749e+09 1.361119e+02 7.580732e+01 -1.951758e+03
-1.448491e+09 -1.248494e+09 -1.408494e+09 6.135468e+02 4.856040e+01 -4.221221e+02
-1.454132e+09 -1.254136e+09 -1.414135e+09 5.921753e+02 4.967928e+01 -5.753564e+02
-1.448491e+09 -1.248494e+09 -1.408494e+09 6.050770e+02 4.313001e+01 -4.271923e+02
-1.514212e+09 -1.314216e+09 -1.474215e+09 6.038511e+02 4.224799e+01 -4.340124e+02
-1.640024e+09 -1.440028e+09 -1.600028e+09 5.331992e+02 8.651720e+01 -5.158338e+02
-1.574303e+09 -1.374307e+09 -1.534306e+09 4.898220e+02 7.599920e+01 -5.196606e+02
-1.448490e+09 -1.248494e+09 -1.408494e+09 4.875542e+02 6.690186e+01 -5.375636e+02
-1.438351e+09 -1.238355e+09 -1.398354e+09 6.147913e+02 6.164146e+01 -3.483439e+02
-1.437161e+09 -1.237164e+09 -1.397164e+09 6.191606e+02 7.439598e+01 -2.452073e+02
-1.487101e+09 -1.287104e+09 -1.447104e+09 6.260048e+02 5.581870e+01 -2.605328e+02
-1.437161e+09 -1.237164e+09 -1.397164e+09 6.267176e+02 5.655123e+01 -2.569468e+02
-1.437161e+09 -1.237164e+09 -1.397164e+09 5.111451e+02 7.547066e+01 -3.679418e+02
-1.539250e+09 -1.339254e+09 -1.499253e+09 5.536480e+02 8.402043e+01 -2.957583e+02
-1.589191e+09 -1.389194e+09 -1.549194e+09 5.956998e+02 7.834147e+01 -3.013053e+02
-1.498431e+09 -1.298435e+09 -1.458434e+09 6.165493e+02 4.682588e+01 -3.540305e+02
-1.600521e+09 -1.400524e+09 -1.560524e+09 6.397779e+02 4.463568e+01 -3.453462e+02
-1.550580e+09 -1.350584e+09 -1.510584e+09 5.022461e+02 6.221859e+01 -4.092082e+02
-1.676393e+09 -1.476397e+09 -1.636396e+09 5.282220e+02 6.396321e+01 -3.580208e+02
-1.438351e+09 -1.238355e+09 -1.398354e+09 6.232469e+02 4.928201e+01 -3.451480e+02
-1.540441e+09 -1.340444e+09 -1.500444e+09 6.449417e+02 4.474163e+01 -3.327974e+02
-1.490500e+09 -1.290504e+09 -1.450504e+09 5.842905e+02 3.623216e+01 -3.244358e+02
-1.490500e+09 -1.290504e+09 -1.450504e+09 5.132300e+02 7.188817e+01 -3.496935e+02
-1.570606e+09 -1.370612e+09 -1.530611e+09 7.831570e+02 4.158443e+01 -1.488968e+03
-1.678583e+09 -1.478589e+09 -1.638588e+09 7.989056e+02 -1.962746e+00 -1.614625e+03
-1.764171e+09 -1.564176e+09 -1.724176e+09 7.739390e+02 -7.176021e+01 -1.735222e+03
-1.821184e+09 -1.621190e+09 -1.781189e+09 8.468087e+02 5.903850e+01 -1.827232e+03
-1.538988e+09 -1.338995e+09 -1.498994e+09 1.484895e+02 4.199576e+01 -2.428909e+03
-1.654328e+09 -1.454335e+09 -1.614333e+09 1.349908e+02 1.249875e+02 -2.506101e+03
-1.731028e+09 -1.531034e+09 -1.691033e+09 5.404033e+00 1.220158e+02 -2.268084e+03
-1.693481e+09 -1.493488e+09 -1.653487e+09 -3.591314e+01 1.612413e+02 -2.671192e+03
-1.474229e+09 -1.274232e+09 -1.434231e+09 6.488504e+02 7.801393e+01 -1.886386e+02
-1.468570e+09 -1.268573e+09 -1.428572e+09 6.728881e+02 4.711188e+01 -2.673046e+02
-1.519396e+09 -1.319398e+09 -1.479398e+09 6.583675e+02 5.494607e+01 -1.984891e+02
-1.509008e+09 -1.309011e+09 -1.469011e+09 6.465741e+02 5.738595e+01 -2.052456e+02
-1.592136e+09 -1.392139e+09 -1.552138e+09 6.575974e+02 4.733471e+01 -2.842359e+02
-1.662811e+09 -1.462814e+09 -1.622813e+09 6.695955e+02 3.869592e+01 -2.843381e+02
-1.625062e+09 -1.425065e+09 -1.585065e+09 6.641964e+02 3.382838e+01 -2.765291e+02
-1.497287e+09 -1.297289e+09 -1.457289e+09 6.515779e+02 6.713279e+01 -1.436699e+02
-1.480830e+09 -1.280833e+09 -1.440832e+09 6.252179e+02 7.278029e+01 -1.071015e+02
-1.555068e+09 -1.355070e+09 -1.515070e+09 6.212930e+02 6.967292e+01 -1.203265e+02
-1.532586e+09 -1.332588e+09 -1.492588e+09 6.368786e+02 5.443683e+01 -9.765164e+01
-1.616177e+09 -1.416180e+09 -1.576179e+09 6.187439e+02 4.961654e+01 -1.630699e+02
-1.699701e+09 -1.499704e+09 -1.659703e+09 6.291396e+02 4.967676e+01 -1.891651e+02
-1.673229e+09 -1.473232e+09 -1.633231e+09 6.100889e+02 7.992739e+01 -2.151796e+02
-1.531348e+09 -1.331351e+09 -1.491351e+09 6.579090e+02 6.093145e+01 -1.928614e+02
-1.637015e+09 -1.437018e+09 -1.597017e+09 6.493972e+02 4.174395e+01 -2.338824e+02
-1.674764e+09 -1.474767e+09 -1.634766e+09 6.649642e+02 4.831125e+01 -2.458252e+02
-1.752487e+09 -1.552489e+09 -1.712489e+09 6.399073e+02 6.758133e+01 -1.752481e+02
-1.542665e+09 -1.342668e+09 -1.502668e+09 6.584931e+02 5.446161e+01 -1.445122e+02
-1.648332e+09 -1.448335e+09 -1.608334e+09 6.529757e+02 3.532936e+01 -1.874683e+02
-1.721115e+09 -1.521117e+09 -1.681117e+09 6.434648e+02 4.474444e+01 -1.731175e+02
-1.747587e+09 -1.547589e+09 -1.707589e+09 6.494713e+02 2.921820e+01 -1.648264e+02
-1.430443e+09 -1.230454e+09 -1.390453e+09 -2.795473e+03 1.591634e+03 -7.563350e+03
-1.435989e+09 -1.235999e+09 -1.395999e+09 -3.636983e+03 2.183665e+03 -8.486236e+03
-1.478034e+09 -1.278045e+09 -1.438044e+09 -2.525486e+03 1.757840e+03 -7.993446e+03
-1.435987e+09 -1.235999e+09 -1.395998e+09 -2.894315e+03 1.981618e+03 -9.308098e+03
-1.435987e+09 -1.235999e+09 -1.395996e+09 -1.846116e+03 1.102554e+03 -1.003473e+04
-1.545220e+09 -1.345230e+09 -1.505229e+09 -2.560170e+03 1.029797e+03 -7.827541e+03
-1.587264e+09 -1.387274e+09 -1.547273e+09 -2.400989e+03 1.341110e+03 -8.183972e+03
-1.437658e+09 -1.237668e+09 -1.397667e+09 -1.892217e+03 1.217105e+03 -6.697360e+03
-1.437387e+09 -1.237398e+09 -1.397396e+09 -1.261458e+03 8.621717e+02 -6.032857e+03
-1.437656e+09 -1.237668e+09 -1.397667e+09 -1.433622e+03 1.129027e+03 -7.391335e+03
-1.486645e+09 -1.286655e+09 -1.446654e+09 -1.135660e+03 9.639862e+02 -6.393898e+03
-1.600745e+09 -1.400755e+09 -1.560753e+09 -1.043639e+03 4.727181e+02 -6.529617e+03
-1.551759e+09 -1.351769e+09 -1.511768e+09 -1.296019e+03 7.116358e+02 -6.579935e+03
-1.437657e+09 -1.237668e+09 -1.397666e+09 -8.070179e+02 1.054844e+03 -8.168102e+03
-1.430441e+09 -1.230454e+09 -1.390452e+09 -2.147486e+03 1.554984e+03 -8.707820e+03
-1.539671e+09 -1.339684e+09 -1.499682e+09 -2.343078e+03 1.467031e+03 -8.456453e+03
-1.497628e+09 -1.297640e+09 -1.457638e+09 -1.895588e+03 1.123446e+03 -8.482359e+03
-1.497628e+09 -1.297641e+09 -1.457638e+09 -9.685236e+02 1.196112e+03 -9.363088e+03
-1.479703e+09 -1.279713e+09 -1.439712e+09 -1.776473e+03 1.269854e+03 -6.973414e+03
-1.588933e+09 -1.388943e+09 -1.548941e+09 -1.531566e+03 1.107802e+03 -7.280668e+03
-1.546888e+09 -1.346899e+09 -1.506896e+09 -7.303834e+02 1.080844e+03 -8.388077e+03
-1.660991e+09 -1.461000e+09 -1.620998e+09 -1.131517e+03 7.758414e+02 -6.924752e+03
-1.484686e+09 -1.284690e+09 -1.444690e+09 8.013918e+02 1.523106e+01 -6.927043e+02
-1.484686e+09 -1.284690e+09 -1.444690e+09 8.930378e+02 -2.078225e+01 -7.192967e+02
-1.583540e+09 -1.383544e+09 -1.543544e+09 9.366649e+02 -1.444845e+01 -7.656850e+02
-1.658900e+09 -1.458904e+09 -1.618903e+09 9.373288e+02 1.467044e+00 -7.413565e+02
-1.437268e+09 -1.237271e+09 -1.397271e+09 8.070827e+02 3.323030e+01 -3.548844e+02
-1.448383e+09 -1.248386e+09 -1.408386e+09 8.004264e+02 4.181540e+01 -3.117965e+02
-1.437268e+09 -1.237271e+09 -1.397271e+09 7.940911e+02 5.623226e+01 -3.286940e+02
-1.497240e+09 -1.297243e+09 -1.457242e+09 8.015143e+02 4.797102e+01 -3.528300e+02
-1.614193e+09 -1.414197e+09 -1.574196e+09 8.896756e+02 4.591151e+01 -4.176128e+02
-1.554222e+09 -1.354225e+09 -1.514225e+09 9.045285e+02 4.087055e+01 -3.789052e+02
-1.437268e+09 -1.237271e+09 -1.397271e+09 9.326975e+02 6.290239e+00 -4.132213e+02
-1.450796e+09 -1.250800e+09 -1.410800e+09 7.821632e+02 3.074124e+01 -4.529023e+02
-1.432213e+09 -1.232217e+09 -1.392217e+09 7.625455e+02 1.744252e+01 -5.309537e+02
-1.494599e+09 -1.294602e+09 -1.454602e+09 7.797891e+02 3.769021e+01 -4.812330e+02
-1.432213e+09 -1.232217e+09 -1.392217e+09 7.770149e+02 3.822933e+01 -5.152043e+02
-1.432213e+09 -1.232217e+09 -1.392217e+09 9.452926e+02 -3.737630e+01 -4.995810e+02
-1.531068e+09 -1.331071e+09 -1.491071e+09 9.418100e+02 -1.226413e+01 -5.290667e+02
-1.593453e+09 -1.393457e+09 -1.553456e+09 9.899972e+02 -5.059168e+01 -5.063106e+02
-1.499653e+09 -1.299657e+09 -1.459656e+09 7.985093e+02 3.878138e+01 -3.938590e+02
-1.499653e+09 -1.299657e+09 -1.459656e+09 9.169333e+02 1.623320e+01 -4.666210e+02
-1.616607e+09 -1.416611e+09 -1.576610e+09 9.224733e+02 3.192014e+01 -4.884235e+02
-1.666605e+09 -1.466608e+09 -1.626608e+09 9.045005e+02 4.048124e+01 -4.670866e+02
-1.450796e+09 -1.250800e+09 -1.410799e+09 7.954143e+02 3.565518e+01 -4.487291e+02
-1.517861e+09 -1.317865e+09 -1.477864e+09 9.025410e+02 4.905559e+01 -4.630681e+02
-1.481392e+09 -1.281396e+09 -1.441396e+09 8.910486e+02 1.243272e+01 -4.685689e+02
-1.419007e+09 -1.219010e+09 -1.379010e+09 8.735862e+02 2.317405e+01 -4.734594e+02
-1.419007e+09 -1.219010e+09 -1.379010e+09 9.066472e+02 4.292998e+01 -4.787220e+02
-1.580247e+09 -1.380250e+09 -1.540250e+09 9.177025e+02 1.763072e+01 -4.598385e+02
-1.517861e+09 -1.317865e+09 -1.477864e+09 8.886544e+02 4.048648e+01 -4.597335e+02
-1.481392e+09 -1.281396e+09 -1.441396e+09 9.231335e+02 5.742878e+00 -4.907869e+02
-1.580247e+09 -1.380250e+09 -1.540250e+09 9.189202e+02 3.019889e+01 -4.693081e+02
-1.546493e+09 -1.346495e+09 -1.506495e+09 5.872205e+02 6.561097e+01 -6.562776e+01
-1.655907e+09 -1.455909e+09 -1.615909e+09 5.883993e+02 5.507272e+01 -6.925851e+01
-1.718493e+09 -1.518495e+09 -1.678495e+09 5.326586e+02 4.529383e+01 -1.298838e+02
-1.785534e+09 -1.585537e+09 -1.745536e+09 5.383328e+02 5.783434e+01 -1.253495e+02
-1.594461e+09 -1.394455e+09 -1.554459e+09 -3.237326e+03 -2.611993e+03 -3.295455e+03
-1.744649e+09 -1.544643e+09 -1.704647e+09 -3.118223e+03 -2.902182e+03 -3.566255e+03
-1.777890e+09 -1.577884e+09 -1.737888e+09 -2.881836e+03 -2.943567e+03 -3.615896e+03
-1.872174e+09 -1.672168e+09 -1.832172e+09 -2.675090e+03 -2.576393e+03 -3.529353e+03
-1.557455e+09 -1.357457e+09 -1.517457e+09 6.857084e+02 4.730459e+01 -6.060356e+01
-1.666869e+09 -1.466871e+09 -1.626871e+09 6.819168e+02 3.117406e+01 -8.781950e+01
-1.735850e+09 -1.535853e+09 -1.695852e+09 6.941856e+02 4.259223e+01 -1.029966e+02
-1.795730e+09 -1.595732e+09 -1.755732e+09 6.983001e+02 3.354853e+01 -1.038897e+02
-1.522358e+09 -1.322350e+09 -1.482355e+09 -5.246838e+03 -3.913025e+03 -4.798533e+03
-1.519415e+09 -1.319406e+09 -1.479412e+09 -6.062823e+03 -4.638538e+03 -5.561950e+03
-1.589993e+09 -1.389985e+09 -1.549991e+09 -4.325367e+03 -4.535893e+03 -4.953594e+03
-1.582201e+09 -1.382191e+09 -1.542198e+09 -5.139531e+03 -4.353868e+03 -5.411198e+03
-1.710505e+09 -1.510496e+09 -1.670503e+09 -5.150307e+03 -4.610942e+03 -5.631069e+03
-1.798026e+09 -1.598018e+09 -1.758024e+09 -4.418459e+03 -3.783013e+03 -5.110768e+03
-1.740871e+09 -1.540863e+09 -1.700870e+09 -4.369901e+03 -4.021484e+03 -5.024273e+03
-1.489777e+09 -1.289771e+09 -1.449775e+09 -4.314947e+03 -3.169112e+03 -4.047712e+03
-1.519384e+09 -1.319380e+09 -1.479382e+09 -3.633222e+03 -2.843121e+03 -3.316952e+03
-1.545647e+09 -1.345641e+09 -1.505645e+09 -3.682340e+03 -2.865505e+03 -3.769044e+03
-1.578163e+09 -1.378159e+09 -1.538162e+09 -3.103224e+03 -3.083837e+03 -3.398292e+03
-1.728351e+09 -1.528346e+09 -1.688350e+09 -3.174640e+03 -2.943660e+03 -3.497415e+03
-1.761592e+09 -1.561587e+09 -1.721590e+09 -2.995066e+03 -2.954735e+03 -3.560920e+03
-1.653982e+09 -1.453976e+09 -1.613980e+09 -3.553902e+03 -3.557384e+03 -3.867650e+03
-1.564934e+09 -1.364926e+09 -1.524932e+09 -4.448946e+03 -3.728257e+03 -4.756382e+03
-1.673268e+09 -1.473260e+09 -1.633266e+09 -4.327171e+03 -3.490177e+03 -4.493417e+03
-1.781569e+09 -1.581561e+09 -1.741568e+09 -3.988612e+03 -3.966454e+03 -5.006177e+03
-1.838724e+09 -1.638716e+09 -1.798723e+09 -4.034693e+03 -3.643229e+03 -5.012733e+03
-1.560926e+09 -1.360920e+09 -1.520925e+09 -3.228794e+03 -4.110740e+03 -4.161839e+03
-1.669260e+09 -1.469254e+09 -1.629259e+09 -3.121554e+03 -3.747811e+03 -3.857339e+03
-1.776871e+09 -1.576866e+09 -1.736869e+09 -2.821243e+03 -3.135949e+03 -3.594002e+03
-1.868968e+09 -1.668964e+09 -1.828968e+09 -2.125167e+03 -4.216080e+03 -4.055958e+03
-1.531950e+09 -1.331953e+09 -1.491952e+09 6.317110e+02 6.536945e+01 -1.056607e+02
-1.615541e+09 -1.415544e+09 -1.575543e+09 6.119720e+02 5.514375e+01 -1.178865e+02
-1.759711e+09 -1.559714e+09 -1.719713e+09 6.410245e+02 5.306713e+01 -1.687993e+02
-1.692669e+09 -1.492672e+09 -1.652671e+09 6.478686e+02 4.180607e+01 -2.053085e+02
-1.441877e+09 -1.241908e+09 -1.401936e+09 1.961837e+03 -4.361863e+04 2.201534e+03
-1.556944e+09 -1.356953e+09 -1.516996e+09 -1.927047e+03 -3.027007e+04 1.152907e+03
-1.503493e+09 -1.303532e+09 -1.463545e+09 5.746589e+03 -4.101409e+04 5.622044e+03
-1.503493e+09 -1.303530e+09 -1.463545e+09 6.814987e+03 -4.179158e+04 5.675619e+03
-1.447273e+09 -1.247270e+09 -1.407333e+09 -1.164379e+04 -3.853040e+04 -9.326471e+03
-1.444936e+09 -1.244931e+09 -1.405005e+09 -1.060697e+04 -3.423604e+04 -5.634432e+03
-1.447275e+09 -1.247266e+09 -1.407337e+09 -1.141666e+04 -3.705765e+04 -6.216898e+03
-1.503809e+09 -1.303800e+09 -1.463874e+09 -1.362691e+04 -3.517768e+04 -4.877080e+03
-1.617378e+09 -1.417382e+09 -1.577437e+09 -9.428689e+03 -3.061593e+04 -6.826750e+03
-1.560839e+09 -1.360816e+09 -1.520894e+09 -2.276969e+04 -1.759712e+04 -2.230731e+04
-1.447278e+09 -1.247234e+09 -1.407364e+09 -1.460894e+04 -3.156703e+04 -1.708334e+04
-1.440269e+09 -1.240271e+09 -1.400320e+09 -1.347038e+04 -3.915343e+04 -1.076159e+04
-1.432994e+09 -1.233011e+09 -1.393036e+09 -1.646919e+04 -4.090095e+04 -1.388578e+04
-1.484857e+09 -1.284856e+09 -1.444904e+09 -1.438532e+04 -3.973387e+04 -7.729117e+03
-1.432994e+09 -1.232995e+09 -1.393038e+09 -1.333450e+04 -4.070737e+04 -9.847627e+03
-1.433005e+09 -1.232981e+09 -1.393079e+09 -1.364452e+04 -3.326205e+04 -2.180451e+04
-1.539469e+09 -1.339463e+09 -1.499496e+09 -2.134596e+04 -2.056882e+04 -2.697012e+04
-1.591338e+09 -1.391347e+09 -1.551381e+09 -9.017769e+03 -3.484875e+04 -1.029104e+04
-1.499142e+09 -1.299132e+09 -1.459194e+09 -1.385206e+04 -3.928481e+04 -6.732276e+03
-1.605623e+09 -1.405618e+09 -1.565665e+09 -7.244481e+03 -3.919397e+04 -7.338387e+03
-1.553759e+09 -1.353710e+09 -1.513834e+09 -6.878785e+03 -3.131169e+04 -4.591037e+03
-1.667318e+09 -1.467292e+09 -1.627357e+09 -1.295554e+04 -1.669406e+04 -9.292471e+03
-1.440274e+09 -1.240263e+09 -1.400324e+09 -1.336627e+04 -3.967694e+04 -6.800769e+03
-1.546752e+09 -1.346748e+09 -1.506792e+09 -7.623504e+03 -3.879941e+04 -8.759550e+03
-1.494883e+09 -1.294847e+09 -1.454924e+09 -1.302832e+04 -1.975614e+04 -1.776830e+04
-1.494880e+09 -1.294828e+09 -1.454927e+09 -1.474221e+04 -2.106761e+04 -1.528358e+04
-1.544766e+09 -1.344767e+09 -1.504809e+09 -8.969916e+03 -4.108789e+04 -7.295025e+03
-1.810417e+09 -1.610399e+09 -1.770458e+09 -6.034643e+03 -3.059916e+04 -1.022004e+04
-1.634247e+09 -1.434250e+09 -1.594290e+09 -9.528512e+03 -3.452537e+04 -6.184052e+03
-1.683625e+09 -1.483609e+09 -1.643670e+09 -1.563109e+04 -3.449399e+04 -1.233855e+04
-1.747108e+09 -1.547088e+09 -1.707146e+09 -6.860961e+03 -2.879483e+04 -9.998434e+03
-1.697728e+09 -1.497720e+09 -1.657768e+09 -8.211398e+03 -3.181867e+04 -6.538137e+03
-1.761040e+09 -1.561027e+09 -1.721073e+09 -8.018292e+03 -2.937270e+04 -6.964626e+03
-1.697561e+09 -1.497560e+09 -1.657597e+09 -1.432502e+04 -3.308194e+04 -9.700725e+03
-1.746934e+09 -1.546920e+09 -1.706980e+09 -1.069464e+04 -3.571267e+04 -1.049295e+04
-1.546518e+09 -1.346503e+09 -1.506580e+09 -6.324077e+03 -3.684551e+04 -5.746927e+01
-1.657344e+09 -1.457330e+09 -1.617400e+09 -6.187506e+03 -2.908734e+04 -2.196131e+03
-1.718569e+09 -1.518547e+09 -1.678620e+09 -6.151064e+03 -2.475592e+04 6.879452e+02
-1.780573e+09 -1.580553e+09 -1.740626e+09 -6.155190e+03 -2.587240e+04 1.257649e+03
-1.478167e+09 -1.278163e+09 -1.438167e+09 -1.041874e+04 -1.163075e+04 -1.007229e+04
-1.589797e+09 -1.389791e+09 -1.549798e+09 -1.012274e+04 -1.029172e+04 -9.590723e+03
-1.634844e+09 -1.434845e+09 -1.594846e+09 -8.189561e+03 -1.095443e+04 -1.000359e+04
-1.590753e+09 -1.390752e+09 -1.550755e+09 -8.636855e+03 -1.183699e+04 -1.018525e+04
-1.484075e+09 -1.284069e+09 -1.444086e+09 -1.936179e+04 -1.827826e+04 -1.425621e+04
-1.487074e+09 -1.287068e+09 -1.447090e+09 -2.075790e+04 -2.098417e+04 -1.443425e+04
-1.539810e+09 -1.339806e+09 -1.499825e+09 -1.750787e+04 -1.975927e+04 -1.375002e+04
-1.539513e+09 -1.339506e+09 -1.499529e+09 -1.662468e+04 -1.804738e+04 -1.314085e+04
-1.641101e+09 -1.441096e+09 -1.601113e+09 -1.688241e+04 -1.609900e+04 -1.200566e+04
-1.693038e+09 -1.493029e+09 -1.653055e+09 -1.559853e+04 -1.823780e+04 -1.290429e+04
-1.634662e+09 -1.434654e+09 -1.594678e+09 -1.653137e+04 -1.855283e+04 -1.341318e+04
-1.488052e+09 -1.288050e+09 -1.448059e+09 -1.594056e+04 -1.548299e+04 -1.330899e+04
-1.471516e+09 -1.271511e+09 -1.431521e+09 -1.355675e+04 -1.380132e+04 -1.170411e+04
-1.532140e+09 -1.332138e+09 -1.492147e+09 -1.361570e+04 -1.377215e+04 -1.200163e+04
-1.527996e+09 -1.327992e+09 -1.488001e+09 -1.340361e+04 -1.382760e+04 -1.220653e+04
-1.630179e+09 -1.430175e+09 -1.590185e+09 -1.331987e+04 -1.344081e+04 -1.146724e+04
-1.681876e+09 -1.481874e+09 -1.641884e+09 -1.324376e+04 -1.424008e+04 -1.163784e+04
-1.622839e+09 -1.422837e+09 -1.582847e+09 -1.350291e+04 -1.432562e+04 -1.157675e+04
-1.540554e+09 -1.340548e+09 -1.500564e+09 -1.427680e+04 -1.467500e+04 -1.263491e+04
-1.641848e+09 -1.441841e+09 -1.601858e+09 -1.419344e+04 -1.472509e+04 -1.211544e+04
-1.700820e+09 -1.500816e+09 -1.660827e+09 -1.366605e+04 -1.258722e+04 -1.166952e+04
-1.739485e+09 -1.539475e+09 -1.699500e+09 -1.103440e+04 -1.573097e+04 -1.180812e+04
-1.531261e+09 -1.331260e+09 -1.491270e+09 -1.450806e+04 -1.640656e+04 -1.342888e+04
-1.632554e+09 -1.432553e+09 -1.592562e+09 -1.451781e+04 -1.577051e+04 -1.310523e+04
-1.680039e+09 -1.480038e+09 -1.640048e+09 -1.344116e+04 -1.437213e+04 -1.227489e+04
-1.739076e+09 -1.539075e+09 -1.699085e+09 -1.324388e+04 -1.423496e+04 -1.257605e+04
-1.544872e+09 -1.344874e+09 -1.504874e+09 4.813693e+02 6.182215e+01 2.502038e+01
-1.645517e+09 -1.445518e+09 -1.605518e+09 4.801953e+02 5.585927e+01 2.041050e+01
-1.710590e+09 -1.510591e+09 -1.670591e+09 4.924713e+02 5.704324e+01 -7.273876e+00
-1.760985e+09 -1.560987e+09 -1.720987e+09 4.927862e+02 4.894739e+01 2.210337e+01
-1.477349e+09 -1.277351e+09 -1.437350e+09 5.430240e+02 5.483641e+01 -4.586240e+00
-1.488803e+09 -1.288805e+09 -1.448804e+09 5.828665e+02 4.287282e+01 -1.840047e+01
-1.537094e+09 -1.337096e+09 -1.497096e+09 5.498520e+02 4.941882e+01 9.675831e+00
-1.534912e+09 -1.334914e+09 -1.494914e+09 5.645807e+02 4.887193e+01 5.440989e+00
-1.633366e+09 -1.433368e+09 -1.593368e+09 5.722832e+02 4.551879e+01 -1.814978e+01
-1.705354e+09 -1.505355e+09 -1.665355e+09 5.715306e+02 3.995360e+01 -3.066148e+01
-1.649726e+09 -1.449728e+09 -1.609728e+09 5.521887e+02 4.297928e+01 -8.320195e+00
-1.492281e+09 -1.292283e+09 -1.452282e+09 5.179661e+02 5.992088e+01 -2.101281e+00
-1.485884e+09 -1.285885e+09 -1.445885e+09 4.915717e+02 6.343937e+01 8.057107e+00
-1.544285e+09 -1.344287e+09 -1.504286e+09 5.089704e+02 6.088214e+01 1.770976e+01
-1.533967e+09 -1.333969e+09 -1.493969e+09 4.992009e+02 5.855895e+01 2.843257e+01
-1.634612e+09 -1.434613e+09 -1.594613e+09 4.955943e+02 5.966942e+01 -1.394613e+01
-1.699685e+09 -1.499686e+09 -1.659686e+09 5.020249e+02 5.988506e+01 -2.527809e+01
-1.654825e+09 -1.454827e+09 -1.614826e+09 5.040523e+02 6.864208e+01 -2.860017e+01
-1.533133e+09 -1.333135e+09 -1.493135e+09 5.433231e+02 5.050842e+01 1.265156e+01
-1.645765e+09 -1.445767e+09 -1.605767e+09 5.419319e+02 4.728853e+01 2.176187e+00
-1.701393e+09 -1.501394e+09 -1.661394e+09 5.546555e+02 4.388400e+01 -1.244080e+01
-1.765823e+09 -1.565825e+09 -1.725825e+09 5.442786e+02 4.976231e+01 1.220528e+01
-1.535108e+09 -1.335110e+09 -1.495109e+09 5.303662e+02 5.001344e+01 1.258484e+01
-1.647740e+09 -1.447741e+09 -1.607741e+09 5.290679e+02 4.551132e+01 3.531966e+00
-1.715453e+09 -1.515455e+09 -1.675454e+09 5.234965e+02 4.865533e+01 1.582984e+01
-1.760313e+09 -1.560314e+09 -1.720314e+09 5.137268e+02 4.449875e+01 1.237496e+01
-1.481560e+09 -1.281561e+09 -1.441561e+09 4.736634e+02 4.398373e+01 3.936697e+01
-1.481560e+09 -1.281561e+09 -1.441561e+09 4.692371e+02 3.818070e+01 1.897002e+01
-1.578615e+09 -1.378616e+09 -1.538616e+09 4.698141e+02 3.561805e+01 1.362980e+01
-1.657353e+09 -1.457354e+09 -1.617354e+09 4.971701e+02 4.349505e+01 3.242619e+01
-1.411994e+09 -1.212020e+09 -1.372037e+09 -1.421821e+04 -4.639384e+04 -1.169631e+04
-1.463115e+09 -1.263139e+09 -1.423159e+09 -1.475170e+04 -4.535356e+04 -1.161669e+04
-1.439541e+09 -1.239581e+09 -1.399584e+09 -1.331088e+04 -4.438337e+04 -9.614303e+03
-1.439537e+09 -1.239572e+09 -1.399580e+09 -1.001983e+04 -4.237279e+04 -8.561647e+03
-1.548719e+09 -1.348703e+09 -1.508708e+09 -1.234846e+02 -2.869703e+02 -1.092571e+03
-1.653576e+09 -1.453562e+09 -1.613572e+09 -7.248040e+02 -3.932565e+03 4.084833e+02
-1.791262e+09 -1.591247e+09 -1.751250e+09 -1.927385e+03 -4.163689e+02 -1.712777e+03
-1.727528e+09 -1.527511e+09 -1.687525e+09 -3.214452e+03 5.635540e+02 2.242046e+03
-1.490499e+09 -1.290484e+09 -1.450529e+09 -1.565329e+02 -1.862062e+04 4.191166e+03
-1.589325e+09 -1.389303e+09 -1.549355e+09 -3.993139e+03 -2.036304e+04 9.415421e+01
-1.543749e+09 -1.343712e+09 -1.503790e+09 -1.458709e+04 -7.221720e+03 -6.756159e+03
-1.669925e+09 -1.469912e+09 -1.629940e+09 -6.946322e+03 -9.545281e+03 -9.972961e+03
-1.492373e+09 -1.292361e+09 -1.452371e+09 -4.750308e+03 -4.298625e+03 -5.311084e+03
-1.610173e+09 -1.410161e+09 -1.570171e+09 -4.417909e+03 -3.911385e+03 -5.309704e+03
-1.556955e+09 -1.356945e+09 -1.516953e+09 -4.155113e+03 -3.982384e+03 -5.063332e+03
-1.662551e+09 -1.462537e+09 -1.622550e+09 -3.283259e+03 -3.860919e+03 -5.807957e+03
-1.469091e+09 -1.269117e+09 -1.429133e+09 -1.344515e+04 -4.526562e+04 -1.134183e+04
-1.520212e+09 -1.320236e+09 -1.480255e+09 -1.432657e+04 -4.484182e+04 -1.119342e+04
-1.557516e+09 -1.357551e+09 -1.517561e+09 -1.052281e+04 -4.296597e+04 -9.392276e+03
-1.614604e+09 -1.414620e+09 -1.574648e+09 -8.600604e+03 -3.794450e+04 -8.937582e+03
-1.538684e+09 -1.338685e+09 -1.498685e+09 4.545995e+02 5.873252e+01 5.766639e+01
-1.635739e+09 -1.435741e+09 -1.595740e+09 4.592836e+02 4.022313e+01 9.992711e+00
-1.765534e+09 -1.565536e+09 -1.725535e+09 4.711540e+02 4.724834e+01 6.832821e+01
-1.714477e+09 -1.514478e+09 -1.674478e+09 4.697467e+02 5.431881e+01 5.505677e+01
-1.499405e+09 -1.299407e+09 -1.459407e+09 5.251889e+02 5.736442e+01 2.616404e+01
-1.609945e+09 -1.409947e+09 -1.569947e+09 5.375520e+02 6.396813e+01 1.421935e+01
-1.557942e+09 -1.357943e+09 -1.517943e+09 5.520356e+02 5.284692e+01 1.381448e+01
-1.660341e+09 -1.460343e+09 -1.620342e+09 5.231135e+02 6.496790e+01 4.278288e+01
-1.454132e+09 -1.254136e+09 -1.414135e+09 5.606404e+02 2.144805e+01 -5.888326e+02
-1.579944e+09 -1.379948e+09 -1.539948e+09 5.684488e+02 3.091917e+01 -5.862581e+02
-1.514223e+09 -1.314227e+09 -1.474227e+09 5.337705e+02 -1.304907e+01 -5.782858e+02
-1.514223e+09 -1.314227e+09 -1.474226e+09 3.969172e+02 3.922146e+01 -6.348035e+02
-1.474169e+09 -1.274172e+09 -1.434171e+09 6.094411e+02 7.102955e+01 -8.344187e+01
-1.557760e+09 -1.357763e+09 -1.517762e+09 5.846999e+02 6.626478e+01 -9.317463e+01
-1.634888e+09 -1.434891e+09 -1.594891e+09 5.385274e+02 6.638433e+01 -1.054051e+02
-1.583769e+09 -1.383771e+09 -1.543771e+09 5.280494e+02 6.843556e+01 -1.032810e+02
-1.480638e+09 -1.280641e+09 -1.440641e+09 7.674960e+02 6.387786e+01 -2.489500e+02
-1.563766e+09 -1.363769e+09 -1.523768e+09 7.658084e+02 4.801106e+01 -2.577482e+02
-1.648071e+09 -1.448074e+09 -1.608073e+09 7.996793e+02 5.344159e+01 -2.684308e+02
-1.590836e+09 -1.390839e+09 -1.550838e+09 8.667737e+02 7.276598e+01 -2.914627e+02
-1.508275e+09 -1.308277e+09 -1.468277e+09 7.135644e+02 7.513945e+01 -5.205677e+01
-1.626436e+09 -1.426439e+09 -1.586438e+09 7.470124e+02 6.582994e+01 -5.990623e+01
-1.568655e+09 -1.368658e+09 -1.528657e+09 7.768244e+02 7.278990e+01 -7.201220e+01
-1.686316e+09 -1.486318e+09 -1.646317e+09 7.526783e+02 7.641910e+01 -4.698196e+01
-1.437206e+09 -1.237229e+09 -1.397242e+09 -1.739262e+04 -4.017879e+04 -1.274374e+04
-1.437337e+09 -1.237359e+09 -1.397376e+09 -1.745393e+04 -4.454350e+04 -1.159598e+04
-1.486127e+09 -1.286149e+09 -1.446163e+09 -1.288441e+04 -4.395392e+04 -1.099502e+04
-1.437335e+09 -1.237361e+09 -1.397376e+09 -1.697076e+04 -4.507446e+04 -1.108203e+04
-1.437338e+09 -1.237369e+09 -1.397384e+09 -1.627112e+04 -4.977998e+04 -1.083527e+04
-1.547037e+09 -1.347054e+09 -1.507074e+09 -1.301971e+04 -3.581530e+04 -1.182704e+04
-1.595823e+09 -1.395833e+09 -1.555855e+09 -1.574059e+04 -3.221401e+04 -1.256420e+04
-1.445652e+09 -1.245666e+09 -1.405683e+09 -1.864327e+04 -3.666556e+04 -1.431336e+04
-1.443064e+09 -1.243071e+09 -1.403090e+09 -1.733638e+04 -3.166635e+04 -1.245989e+04
-1.445649e+09 -1.245661e+09 -1.405679e+09 -1.701763e+04 -3.463987e+04 -1.336444e+04
-1.500293e+09 -1.300302e+09 -1.460321e+09 -1.539905e+04 -3.423497e+04 -1.351899e+04
-1.622114e+09 -1.422115e+09 -1.582140e+09 -1.555826e+04 -2.689070e+04 -1.279951e+04
-1.567475e+09 -1.367486e+09 -1.527505e+09 -1.228988e+04 -3.281606e+04 -1.346863e+04
-1.445654e+09 -1.245674e+09 -1.405687e+09 -1.500078e+04 -4.268332e+04 -1.284845e+04
-1.437204e+09 -1.237221e+09 -1.397241e+09 -1.523961e+04 -3.829591e+04 -1.320222e+04
-1.546904e+09 -1.346917e+09 -1.506937e+09 -1.659922e+04 -3.294071e+04 -1.415916e+04
-1.498123e+09 -1.298147e+09 -1.458162e+09 -1.558904e+04 -3.953239e+04 -1.379214e+04
-1.498121e+09 -1.298146e+09 -1.458157e+09 -1.362026e+04 -3.791803e+04 -1.182147e+04
-1.494440e+09 -1.294453e+09 -1.454472e+09 -1.601312e+04 -3.893974e+04 -1.265629e+04
-1.604141e+09 -1.404148e+09 -1.564170e+09 -1.706097e+04 -3.353297e+04 -1.252655e+04
-1.555360e+09 -1.355377e+09 -1.515391e+09 -1.903624e+04 -3.917580e+04 -1.258700e+04
-1.677181e+09 -1.477189e+09 -1.637208e+09 -1.436480e+04 -2.993245e+04 -1.259114e+04
-1.444906e+09 -1.244898e+09 -1.404911e+09 -1.520716e+04 -1.363242e+04 -1.369020e+04
-1.427425e+09 -1.227416e+09 -1.387426e+09 -1.307384e+04 -1.161159e+04 -1.111318e+04
-1.483904e+09 -1.283898e+09 -1.443908e+09 -1.252581e+04 -1.219450e+04 -1.162757e+04
-1.427425e+09 -1.227417e+09 -1.387427e+09 -1.335248e+04 -1.144580e+04 -1.098746e+04
-1.427428e+09 -1.227411e+09 -1.387432e+09 -1.212623e+04 -1.176535e+04 -1.458240e+04
-1.529612e+09 -1.329596e+09 -1.489612e+09 -1.349680e+04 -1.062649e+04 -1.374340e+04
-1.586087e+09 -1.386082e+09 -1.546092e+09 -1.294382e+04 -1.174028e+04 -1.122090e+04
-1.440866e+09 -1.240856e+09 -1.400876e+09 -1.803292e+04 -1.837731e+04 -1.344487e+04
-1.431339e+09 -1.231330e+09 -1.391354e+09 -1.942692e+04 -2.110057e+04 -1.347311e+04
-1.440866e+09 -1.240856e+09 -1.400878e+09 -1.788990e+04 -1.678911e+04 -1.222174e+04
-1.483780e+09 -1.283771e+09 -1.443794e+09 -1.491398e+04 -1.881874e+04 -1.213073e+04
-1.578928e+09 -1.378918e+09 -1.538942e+09 -1.496136e+04 -1.905067e+04 -1.230228e+04
-1.536019e+09 -1.335999e+09 -1.496028e+09 -1.749675e+04 -1.890364e+04 -1.297818e+04
-1.440868e+09 -1.240849e+09 -1.400877e+09 -1.601326e+04 -1.949449e+04 -1.572291e+04
-1.444906e+09 -1.244895e+09 -1.404910e+09 -1.461283e+04 -1.394949e+04 -1.320866e+04
-1.547089e+09 -1.347084e+09 -1.507092e+09 -1.449283e+04 -1.224927e+04 -1.169409e+04
-1.490610e+09 -1.290593e+09 -1.450611e+09 -1.228451e+04 -1.082427e+04 -1.396695e+04
-1.490609e+09 -1.290589e+09 -1.450611e+09 -1.211434e+04 -1.133039e+04 -1.390878e+04
-1.497346e+09 -1.297337e+09 -1.457354e+09 -1.273115e+04 -1.521076e+04 -1.181317e+04
-1.599529e+09 -1.399525e+09 -1.559537e+09 -1.251857e+04 -1.363316e+04 -1.049527e+04
-1.543044e+09 -1.343031e+09 -1.503056e+09 -7.925824e+03 -1.459193e+04 -1.289357e+04
-1.638194e+09 -1.438179e+09 -1.598207e+09 -9.054340e+03 -1.461685e+04 -1.030902e+04
-1.494215e+09 -1.294214e+09 -1.454215e+09 -1.813596e+03 7.508603e+03 -8.397908e+03
-1.599069e+09 -1.399066e+09 -1.559069e+09 -4.418437e+03 3.301182e+03 -8.184638e+03
-1.553819e+09 -1.353814e+09 -1.513834e+09 -8.868149e+03 6.933645e+03 -7.332473e+03
-1.672051e+09 -1.472056e+09 -1.632048e+09 -4.630254e+03 9.248169e+03 -1.155884e+04
-1.560860e+09 -1.360862e+09 -1.520862e+09 5.312297e+02 5.916023e+01 3.512174e+01
-1.684697e+09 -1.484699e+09 -1.644698e+09 5.310887e+02 5.748370e+01 3.261241e+01
-1.743476e+09 -1.543478e+09 -1.703477e+09 5.304519e+02 6.042146e+01 5.315813e+01
-1.802837e+09 -1.602839e+09 -1.762839e+09 4.639148e+02 4.535185e+01 1.318211e+01
-1.485837e+09 -1.285839e+09 -1.445838e+09 6.104033e+02 6.573149e+01 -1.269644e+01
-1.485837e+09 -1.285839e+09 -1.445838e+09 6.388435e+02 5.348906e+01 -2.933175e+01
-1.584291e+09 -1.384293e+09 -1.544292e+09 6.239820e+02 6.395341e+01 -3.913919e+00
-1.643906e+09 -1.443908e+09 -1.603908e+09 6.459241e+02 5.899682e+01 -1.208515e+01
-1.432683e+09 -1.232684e+09 -1.392684e+09 3.411642e+02 4.152834e+01 2.619123e+01
-1.514360e+09 -1.314361e+09 -1.474361e+09 3.670004e+02 3.694677e+01 1.412964e+01
-1.470090e+09 -1.270091e+09 -1.430091e+09 3.755087e+02 4.433466e+01 1.715538e+01
-1.470090e+09 -1.270091e+09 -1.430091e+09 3.521581e+02 4.734062e+01 1.519667e+01
-1.444943e+09 -1.244927e+09 -1.404972e+09 -3.233302e+03 -2.088427e+04 1.440488e+03
-1.444928e+09 -1.244882e+09 -1.404966e+09 -1.362533e+04 -4.043142e+03 -6.585068e+03
-1.444929e+09 -1.244891e+09 -1.404955e+09 -1.900196e+04 -1.343399e+04 -5.549226e+03
-1.571111e+09 -1.371082e+09 -1.531119e+09 -9.169458e+03 -7.837710e+03 -1.313190e+04
-1.439978e+09 -1.239980e+09 -1.400036e+09 -1.931164e+04 -4.036613e+04 -1.049288e+03
-1.439974e+09 -1.239937e+09 -1.400036e+09 -2.083134e+04 -2.590396e+04 -1.008764e+04
-1.439976e+09 -1.239932e+09 -1.400036e+09 -3.154483e+04 -2.553373e+04 -6.053181e+03
-1.550807e+09 -1.350776e+09 -1.510838e+09 -2.324596e+04 -1.944132e+04 -1.021679e+04
-1.496509e+09 -1.296497e+09 -1.456569e+09 -1.550869e+04 -3.532062e+04 -2.793589e+03
-1.610084e+09 -1.410070e+09 -1.570132e+09 -9.072693e+03 -3.390018e+04 -4.370201e+03
-1.553537e+09 -1.353479e+09 -1.513594e+09 -1.778002e+04 -1.728361e+04 -1.323114e+04
-1.664368e+09 -1.464332e+09 -1.624409e+09 -1.897198e+04 -1.924000e+04 -1.135083e+04
-1.423196e+09 -1.223197e+09 -1.383197e+09 4.007088e+02 5.808933e+01 2.924982e+01
-1.445538e+09 -1.245539e+09 -1.405538e+09 4.234425e+02 6.152125e+01 3.543864e+01
-1.480320e+09 -1.280321e+09 -1.440321e+09 4.014384e+02 5.955797e+01 3.536068e+01
-1.445538e+09 -1.245539e+09 -1.405538e+09 3.997580e+02 6.088524e+01 3.686706e+01
-1.445538e+09 -1.245539e+09 -1.405538e+09 4.357084e+02 5.197028e+01 1.315978e+01
-1.549112e+09 -1.349113e+09 -1.509113e+09 4.279219e+02 5.626760e+01 1.765639e+01
-1.583894e+09 -1.383896e+09 -1.543895e+09 4.163825e+02 5.515138e+01 2.347875e+01
-1.427699e+09 -1.227700e+09 -1.387700e+09 3.790870e+02 5.197864e+01 3.216611e+01
-1.451643e+09 -1.251644e+09 -1.411643e+09 3.597652e+02 4.495514e+01 1.125123e+01
-1.427699e+09 -1.227700e+09 -1.387700e+09 3.637084e+02 5.102422e+01 3.376787e+01
-1.490928e+09 -1.290929e+09 -1.450929e+09 3.671555e+02 4.644473e+01 1.890979e+01
-1.595329e+09 -1.395330e+09 -1.555330e+09 3.558914e+02 4.784740e+01 3.168482e+01
-1.532100e+09 -1.332101e+09 -1.492101e+09 3.914876e+02 5.015301e+01 2.352324e+01
-1.427699e+09 -1.227700e+09 -1.387700e+09 4.065695e+02 4.851314e+01 -2.163901e+00
-1.423196e+09 -1.223197e+09 -1.383197e+09 3.804861e+02 5.451722e+01 3.416140e+01
-1.526770e+09 -1.326771e+09 -1.486771e+09 3.915263e+02 5.819614e+01 2.426575e+01
-1.491988e+09 -1.291989e+09 -1.451989e+09 4.099638e+02 6.163621e+01 2.005202e+01
-1.491988e+09 -1.291989e+09 -1.451989e+09 4.005911e+02 6.159453e+01 2.344695e+01
-1.462481e+09 -1.262483e+09 -1.422482e+09 3.813512e+02 5.377328e+01 3.549159e+01
-1.566056e+09 -1.366057e+09 -1.526057e+09 3.961085e+02 5.699312e+01 2.676787e+01
-1.531274e+09 -1.331275e+09 -1.491275e+09 4.135729e+02 5.408911e+01 2.142802e+01
-1.635674e+09 -1.435675e+09 -1.595675e+09 4.036944e+02 5.326945e+01 3.499112e+01
-1.432514e+09 -1.232511e+09 -1.392518e+09 -1.310489e+04 -1.444230e+04 -1.081736e+04
-1.523212e+09 -1.323211e+09 -1.483216e+09 -1.300704e+04 -1.448471e+04 -1.120691e+04
-1.479121e+09 -1.279120e+09 -1.439125e+09 -1.387904e+04 -1.484491e+04 -1.082781e+04
-1.479121e+09 -1.279120e+09 -1.439126e+09 -1.338066e+04 -1.573774e+04 -1.078905e+04
-1.490046e+09 -1.290048e+09 -1.450048e+09 6.281413e+02 5.459665e+01 -1.622742e+01
-1.499045e+09 -1.299047e+09 -1.459047e+09 5.991511e+02 5.910157e+01 -2.544655e+01
-1.546826e+09 -1.346828e+09 -1.506827e+09 6.336830e+02 5.505211e+01 1.870770e+01
-1.558841e+09 -1.358843e+09 -1.518843e+09 6.096216e+02 6.260435e+01 5.755731e+00
-1.682678e+09 -1.482680e+09 -1.642679e+09 6.088574e+02 6.590221e+01 -1.264009e+01
-1.729085e+09 -1.529086e+09 -1.689086e+09 6.502199e+02 5.226718e+01 -5.233402e+01
-1.647085e+09 -1.447087e+09 -1.607087e+09 6.520022e+02 4.226393e+01 -6.093543e+01
-1.508485e+09 -1.308487e+09 -1.468487e+09 6.365056e+02 1.994245e+01 -3.067178e+01
-1.499674e+09 -1.299676e+09 -1.459676e+09 6.398194e+02 2.853701e+01 -6.597048e+01
-1.570567e+09 -1.370569e+09 -1.530569e+09 6.499928e+02 3.180906e+01 -2.207362e+01
-1.559548e+09 -1.359550e+09 -1.519549e+09 6.401077e+02 2.862035e+01 -2.255951e+01
-1.688227e+09 -1.488229e+09 -1.648229e+09 6.494455e+02 2.425841e+01 -1.168365e+02
-1.737442e+09 -1.537444e+09 -1.697444e+09 6.511731e+02 6.209163e+00 -1.071638e+02
-1.668962e+09 -1.468964e+09 -1.628964e+09 6.260030e+02 2.105383e+01 -7.940219e+01
-1.550245e+09 -1.350247e+09 -1.510247e+09 6.286522e+02 5.517467e+01 -8.697321e+00
-1.650505e+09 -1.450507e+09 -1.610506e+09 6.479625e+02 3.857900e+01 -5.748417e+01
-1.732504e+09 -1.532506e+09 -1.692506e+09 6.596336e+02 4.969330e+01 -2.636023e+01
-1.790368e+09 -1.590370e+09 -1.750370e+09 6.685810e+02 6.431287e+01 -2.370562e+01
-1.568281e+09 -1.368283e+09 -1.528283e+09 6.378710e+02 2.147175e+01 -1.274944e+01
-1.692118e+09 -1.492120e+09 -1.652119e+09 6.377399e+02 2.278535e+01 -3.990722e+01
-1.799198e+09 -1.599200e+09 -1.759199e+09 6.378064e+02 1.821447e+01 -4.015716e+01
-1.749982e+09 -1.549984e+09 -1.709984e+09 6.459053e+02 3.596321e+01 -3.878835e+01
-1.542656e+09 -1.342658e+09 -1.502657e+09 5.898295e+02 4.782599e+01 -9.069573e+00
-1.641110e+09 -1.441112e+09 -1.601111e+09 5.910313e+02 4.663777e+01 -8.454998e+00
-1.783081e+09 -1.583083e+09 -1.743083e+09 6.009796e+02 4.043489e+01 9.458737e+00
-1.724302e+09 -1.524304e+09 -1.684304e+09 6.006902e+02 4.631252e+01 1.919581e+01
-1.574323e+09 -1.374324e+09 -1.534324e+09 3.291833e+02 3.592350e+01 1.266947e+01
-1.724483e+09 -1.524484e+09 -1.684484e+09 3.274636e+02 3.453881e+01 8.181253e+00
-1.753203e+09 -1.553204e+09 -1.713204e+09 3.390407e+02 3.455818e+01 2.016741e+01
-1.810003e+09 -1.610004e+09 -1.770004e+09 3.463515e+02 3.114987e+01 8.012989e+00
-1.495912e+09 -1.295913e+09 -1.455913e+09 3.469131e+02 3.222316e+01 2.437972e+01
-1.600313e+09 -1.400314e+09 -1.560314e+09 3.494749e+02 4.158141e+01 3.383472e+01
-1.574491e+09 -1.374492e+09 -1.534492e+09 3.940701e+02 3.236369e+01 1.977090e+01
-1.618761e+09 -1.418762e+09 -1.578762e+09 3.939069e+02 3.105742e+01 1.961776e+01
-1.436497e+09 -1.236498e+09 -1.396498e+09 4.855102e+02 6.329537e+01 3.066089e+01
-1.433880e+09 -1.233882e+09 -1.393881e+09 4.764278e+02 6.506986e+01 3.017776e+01
-1.481964e+09 -1.281965e+09 -1.441965e+09 4.856399e+02 6.324081e+01 4.267296e+01
-1.433880e+09 -1.233882e+09 -1.393881e+09 4.834459e+02 5.969802e+01 3.214810e+01
-1.433880e+09 -1.233882e+09 -1.393881e+09 4.399276e+02 5.895847e+01 2.261960e+01
-1.534524e+09 -1.334526e+09 -1.494526e+09 4.465654e+02 6.708930e+01 3.163515e+01
-1.582608e+09 -1.382610e+09 -1.542609e+09 4.552694e+02 6.423851e+01 2.423362e+01
-1.431240e+09 -1.231241e+09 -1.391241e+09 5.088302e+02 6.225504e+01 3.478730e+01
-1.448158e+09 -1.248160e+09 -1.408160e+09 5.209670e+02 4.885507e+01 1.344184e+01
-1.431240e+09 -1.231241e+09 -1.391241e+09 5.220117e+02 5.654923e+01 3.452262e+01
-1.490985e+09 -1.290987e+09 -1.450987e+09 5.159555e+02 4.974984e+01 2.886932e+01
-1.603617e+09 -1.403619e+09 -1.563619e+09 4.985555e+02 5.054330e+01 1.068598e+01
-1.543871e+09 -1.343873e+09 -1.503873e+09 4.833028e+02 4.657294e+01 2.909583e+01
-1.431239e+09 -1.231241e+09 -1.391241e+09 4.691274e+02 5.100423e+01 -5.579259e+00
-1.436496e+09 -1.236498e+09 -1.396498e+09 5.023557e+02 5.260310e+01 3.627461e+01
-1.537141e+09 -1.337143e+09 -1.497142e+09 4.913935e+02 4.960365e+01 3.142285e+01
-1.489057e+09 -1.289059e+09 -1.449059e+09 4.821573e+02 5.151734e+01 3.588576e+01
-1.489057e+09 -1.289059e+09 -1.449059e+09 4.624713e+02 4.807204e+01 2.938749e+01
-1.479323e+09 -1.279325e+09 -1.439325e+09 5.100831e+02 6.173243e+01 4.174430e+01
-1.658395e+09 -1.458397e+09 -1.618397e+09 4.656277e+02 4.748038e+01 3.509953e+01
-1.536030e+09 -1.336031e+09 -1.496031e+09 4.914725e+02 5.586711e+01 2.722479e+01
-1.648661e+09 -1.448663e+09 -1.608663e+09 4.906194e+02 4.676145e+01 2.565710e+01
-1.706479e+09 -1.506481e+09 -1.666480e+09 4.851389e+02 5.166360e+01 3.685767e+01
-1.487946e+09 -1.287948e+09 -1.447947e+09 4.711663e+02 5.034623e+01 1.856381e+01
-1.600578e+09 -1.400580e+09 -1.560579e+09 4.716381e+02 4.752816e+01 2.974387e+01
-1.593847e+09 -1.393849e+09 -1.553849e+09 4.880149e+02 4.593202e+01 2.302362e+01
-1.545763e+09 -1.345765e+09 -1.505765e+09 4.597670e+02 4.464627e+01 2.832529e+01
-1.438120e+09 -1.238113e+09 -1.398119e+09 -1.082391e+04 -8.754631e+03 -8.236283e+03
-1.434077e+09 -1.234072e+09 -1.394077e+09 -1.244040e+04 -1.148548e+04 -9.730655e+03
-1.438119e+09 -1.238113e+09 -1.398118e+09 -1.163177e+04 -8.863033e+03 -8.519529e+03
-1.483770e+09 -1.283763e+09 -1.443770e+09 -1.055527e+04 -8.858861e+03 -8.518146e+03
-1.438120e+09 -1.238118e+09 -1.398122e+09 -1.168313e+04 -1.144287e+04 -8.917537e+03
-1.549751e+09 -1.349749e+09 -1.509753e+09 -1.157028e+04 -1.158981e+04 -9.152461e+03
-1.595401e+09 -1.395396e+09 -1.555403e+09 -1.031336e+04 -1.036446e+04 -8.805127e+03
-1.449918e+09 -1.249911e+09 -1.409915e+09 -9.829529e+03 -7.038254e+03 -6.827406e+03
-1.449137e+09 -1.249129e+09 -1.409134e+09 -8.534883e+03 -6.691421e+03 -5.819243e+03
-1.449918e+09 -1.249910e+09 -1.409915e+09 -9.493603e+03 -7.035246e+03 -6.949340e+03
-1.510632e+09 -1.310625e+09 -1.470629e+09 -9.045636e+03 -6.471110e+03 -6.589774e+03
-1.632714e+09 -1.432708e+09 -1.592711e+09 -8.545690e+03 -7.190683e+03 -6.234805e+03
-1.571998e+09 -1.371994e+09 -1.531996e+09 -8.690610e+03 -7.460116e+03 -5.755308e+03
-1.449918e+09 -1.249915e+09 -1.409916e+09 -9.587512e+03 -8.332058e+03 -6.951862e+03
-1.499614e+09 -1.299605e+09 -1.459612e+09 -9.477772e+03 -6.756241e+03 -7.468504e+03
-1.499612e+09 -1.299607e+09 -1.459613e+09 -9.584425e+03 -7.825011e+03 -7.754270e+03
-1.683628e+09 -1.483620e+09 -1.643629e+09 -8.016854e+03 -7.772336e+03 -6.852966e+03
-1.611244e+09 -1.411239e+09 -1.571245e+09 -9.248827e+03 -9.172387e+03 -8.125965e+03
-1.449919e+09 -1.249911e+09 -1.409915e+09 -1.065175e+04 -7.079668e+03 -7.812584e+03
-1.449918e+09 -1.249914e+09 -1.409916e+09 -1.129861e+04 -8.101500e+03 -7.996144e+03
-1.449918e+09 -1.249914e+09 -1.409917e+09 -1.089701e+04 -8.445621e+03 -7.835676e+03
-1.571999e+09 -1.371992e+09 -1.531995e+09 -1.046710e+04 -6.166926e+03 -6.641974e+03
-1.519367e+09 -1.319363e+09 -1.479365e+09 -3.221724e+03 -2.639842e+03 -2.859491e+03
-1.627702e+09 -1.427698e+09 -1.587700e+09 -3.012921e+03 -2.653935e+03 -2.980200e+03
-1.646908e+09 -1.446904e+09 -1.606906e+09 -3.143224e+03 -2.829384e+03 -2.912378e+03
-1.721986e+09 -1.521981e+09 -1.681984e+09 -2.992900e+03 -2.799760e+03 -2.977028e+03
-1.448463e+09 -1.248452e+09 -1.408461e+09 -9.466701e+03 -6.655785e+03 -8.479612e+03
-1.439156e+09 -1.239144e+09 -1.399153e+09 -8.184093e+03 -5.327250e+03 -7.022233e+03
-1.499195e+09 -1.299185e+09 -1.459193e+09 -7.653127e+03 -5.857881e+03 -7.181625e+03
-1.439156e+09 -1.239146e+09 -1.399154e+09 -8.552451e+03 -4.757040e+03 -6.642130e+03
-1.439157e+09 -1.239141e+09 -1.399153e+09 -8.079115e+03 -4.514033e+03 -7.123064e+03
-1.544753e+09 -1.344737e+09 -1.504750e+09 -7.714151e+03 -4.893503e+03 -7.181295e+03
-1.604791e+09 -1.404779e+09 -1.564790e+09 -7.189848e+03 -5.670260e+03 -7.664832e+03
-1.436222e+09 -1.236210e+09 -1.396220e+09 -1.029649e+04 -7.663495e+03 -9.321807e+03
-1.447224e+09 -1.247214e+09 -1.407223e+09 -1.157459e+04 -9.522689e+03 -1.076288e+04
-1.436222e+09 -1.236212e+09 -1.396221e+09 -1.062715e+04 -7.210073e+03 -8.911883e+03
-1.495019e+09 -1.295011e+09 -1.455019e+09 -9.426637e+03 -8.114619e+03 -9.388943e+03
-1.614997e+09 -1.414986e+09 -1.574996e+09 -8.945845e+03 -8.113205e+03 -1.004947e+04
-1.556200e+09 -1.356185e+09 -1.516197e+09 -1.012106e+04 -7.577622e+03 -1.014150e+04
-1.436223e+09 -1.236208e+09 -1.396221e+09 -9.839154e+03 -7.462992e+03 -1.023838e+04
-1.448462e+09 -1.248452e+09 -1.408461e+09 -9.070663e+03 -5.793024e+03 -7.911750e+03
-1.554059e+09 -1.354050e+09 -1.514058e+09 -8.706410e+03 -5.903718e+03 -7.847081e+03
-1.494020e+09 -1.294006e+09 -1.454017e+09 -8.232562e+03 -5.198474e+03 -7.324399e+03
-1.494020e+09 -1.294006e+09 -1.454018e+09 -7.806876e+03 -3.441520e+03 -7.167631e+03
-1.496260e+09 -1.296250e+09 -1.456258e+09 -8.272669e+03 -6.331282e+03 -8.250520e+03
-1.675577e+09 -1.475566e+09 -1.635576e+09 -5.704657e+03 -5.889449e+03 -7.885927e+03
-1.557843e+09 -1.357830e+09 -1.517841e+09 -7.724090e+03 -6.456139e+03 -9.033473e+03
-1.677820e+09 -1.477807e+09 -1.637820e+09 -7.536602e+03 -7.653191e+03 -9.500861e+03
-1.735617e+09 -1.535607e+09 -1.695616e+09 -6.561278e+03 -6.912738e+03 -7.813253e+03
-1.497802e+09 -1.297790e+09 -1.457801e+09 -6.948602e+03 -5.557194e+03 -8.408139e+03
-1.617779e+09 -1.417765e+09 -1.577777e+09 -6.428646e+03 -6.230469e+03 -8.469064e+03
-1.615640e+09 -1.415631e+09 -1.575641e+09 -6.382632e+03 -7.682686e+03 -7.980660e+03
-1.555600e+09 -1.355588e+09 -1.515600e+09 -5.291174e+03 -5.914745e+03 -8.036621e+03
-1.430250e+09 -1.230252e+09 -1.390252e+09 6.411231e+02 5.006010e+01 -8.444256e-01
-1.445192e+09 -1.245194e+09 -1.405194e+09 6.247958e+02 5.963751e+01 -3.825000e+00
-1.430250e+09 -1.230252e+09 -1.390252e+09 6.227950e+02 7.006159e+01 -1.543444e+00
-1.487030e+09 -1.287032e+09 -1.447032e+09 6.305969e+02 6.367593e+01 1.448082e+01
-1.587290e+09 -1.387292e+09 -1.547291e+09 7.015838e+02 4.783794e+01 -7.045535e+00
-1.530510e+09 -1.330512e+09 -1.490512e+09 6.994289e+02 6.023701e+01 -1.887850e+01
-1.430250e+09 -1.230252e+09 -1.390252e+09 7.119377e+02 6.286228e+01 -3.597827e+01
-1.448611e+09 -1.248614e+09 -1.408613e+09 6.588901e+02 4.474376e+01 -1.686292e+01
-1.450494e+09 -1.250496e+09 -1.410496e+09 6.829951e+02 5.479000e+01 -2.898107e+01
-1.510693e+09 -1.310695e+09 -1.470695e+09 6.723253e+02 5.657123e+01 -1.062826e+01
-1.450494e+09 -1.250496e+09 -1.410496e+09 6.586890e+02 6.489685e+01 -2.376404e+01
-1.450494e+09 -1.250496e+09 -1.410496e+09 7.402437e+02 4.795220e+01 -5.603494e+01
-1.568154e+09 -1.368156e+09 -1.528156e+09 7.158440e+02 4.934368e+01 -3.800072e+01
-1.628353e+09 -1.428356e+09 -1.588355e+09 7.352827e+02 2.835554e+01 -1.945126e+01
-1.490449e+09 -1.290451e+09 -1.450451e+09 6.430393e+02 5.124288e+01 3.585041e+00
-1.490449e+09 -1.290451e+09 -1.450451e+09 7.008033e+02 5.945744e+01 -2.376163e+01
-1.590709e+09 -1.390711e+09 -1.550711e+09 6.954619e+02 5.607799e+01 -1.495410e+01
-1.666532e+09 -1.466534e+09 -1.626533e+09 7.021077e+02 6.122503e+01 7.298678e+00
-1.448612e+09 -1.248614e+09 -1.408613e+09 6.345854e+02 5.513646e+01 -2.454274e+01
-1.540154e+09 -1.340156e+09 -1.500155e+09 6.886312e+02 8.275472e+01 -2.186432e+01
-1.482692e+09 -1.282695e+09 -1.442694e+09 6.831590e+02 5.255463e+01 -4.017452e+01
-1.422493e+09 -1.222495e+09 -1.382495e+09 6.912415e+02 7.453581e+01 -2.729243e+01
-1.422493e+09 -1.222495e+09 -1.382495e+09 6.894153e+02 8.348064e+01 -2.659401e+01
-1.600353e+09 -1.400355e+09 -1.560354e+09 7.050178e+02 6.848317e+01 -1.611245e+01
-1.540154e+09 -1.340156e+09 -1.500155e+09 6.936502e+02 8.129216e+01 -2.239448e+01
-1.482692e+09 -1.282695e+09 -1.442694e+09 7.037052e+02 5.716455e+01 -4.020700e+01
-1.600353e+09 -1.400355e+09 -1.560354e+09 6.909889e+02 7.063487e+01 -1.502505e+01
-1.568238e+09 -1.368248e+09 -1.528245e+09 -3.742455e+03 2.933566e+03 -1.034392e+04
-1.676213e+09 -1.476222e+09 -1.636217e+09 -3.783617e+03 3.019058e+03 -1.060134e+04
-1.802479e+09 -1.602489e+09 -1.762483e+09 -3.089940e+03 2.761307e+03 -1.240100e+04
-1.755893e+09 -1.555901e+09 -1.715894e+09 -3.090192e+03 2.948389e+03 -1.204458e+04
-1.500342e+09 -1.300336e+09 -1.460341e+09 -9.405149e+03 6.896378e+03 -6.839002e+03
-1.611461e+09 -1.411457e+09 -1.571463e+09 -7.548391e+03 5.568633e+03 -5.695449e+03
-1.555506e+09 -1.355495e+09 -1.515502e+09 -8.404868e+03 7.223606e+03 -4.763035e+03
-1.672151e+09 -1.472142e+09 -1.632148e+09 -9.191207e+03 6.357250e+03 -4.436518e+03
-1.440755e+09 -1.240744e+09 -1.400749e+09 -4.505257e+03 5.981680e+03 -6.083286e+03
-1.444382e+09 -1.244376e+09 -1.404379e+09 -5.057540e+03 5.065951e+03 -8.554107e+03
-1.496726e+09 -1.296717e+09 -1.456722e+09 -6.680838e+03 7.367169e+03 -8.156584e+03
-1.444383e+09 -1.244373e+09 -1.404376e+09 -5.848682e+03 7.741517e+03 -8.064719e+03
-1.444388e+09 -1.244377e+09 -1.404382e+09 -3.681812e+03 5.133876e+03 -5.491930e+03
-1.561034e+09 -1.361026e+09 -1.521029e+09 -4.089895e+03 3.041414e+03 -4.700416e+03
-1.613374e+09 -1.413369e+09 -1.573370e+09 -5.780484e+03 4.773975e+03 -7.288837e+03
-1.434039e+09 -1.234023e+09 -1.394028e+09 -1.814568e+03 4.792617e+03 -4.491798e+03
-1.448978e+09 -1.248959e+09 -1.408967e+09 1.974880e+03 1.953716e+03 -3.022851e+03
-1.494602e+09 -1.294586e+09 -1.454591e+09 -2.034850e+03 4.290027e+03 -4.328053e+03
-1.448976e+09 -1.248958e+09 -1.408966e+09 -1.446141e+03 4.209422e+03 -3.627860e+03
-1.612832e+09 -1.412818e+09 -1.572821e+09 -2.637883e+03 4.663165e+03 -6.045256e+03
-1.567207e+09 -1.367192e+09 -1.527199e+09 -4.456747e+01 2.725070e+03 -4.143169e+03
-1.448982e+09 -1.248964e+09 -1.408978e+09 1.369580e+03 3.661170e+02 8.061325e+02
-1.440757e+09 -1.240740e+09 -1.400746e+09 -5.267826e+03 8.648810e+03 -6.269595e+03
-1.557404e+09 -1.357389e+09 -1.517393e+09 -4.807517e+03 7.378708e+03 -6.077820e+03
-1.505060e+09 -1.305041e+09 -1.465049e+09 -4.041377e+03 6.279892e+03 -4.695929e+03
-1.505060e+09 -1.305043e+09 -1.465050e+09 -3.229527e+03 5.843937e+03 -4.025486e+03
-1.486379e+09 -1.286365e+09 -1.446371e+09 -6.355658e+03 8.143004e+03 -6.029406e+03
-1.604612e+09 -1.404600e+09 -1.564603e+09 -6.525420e+03 6.697049e+03 -6.551782e+03
-1.675633e+09 -1.475620e+09 -1.635625e+09 -6.666015e+03 6.724660e+03 -5.768864e+03
-1.623289e+09 -1.423274e+09 -1.583282e+09 -4.509595e+03 5.359864e+03 -4.058025e+03
-1.494958e+09 -1.294964e+09 -1.455011e+09 1.539148e+03 -4.074433e+04 7.661860e+03
-1.607738e+09 -1.407726e+09 -1.567781e+09 -3.657432e+03 -2.792316e+04 6.662794e+03
-1.616288e+09 -1.416302e+09 -1.576337e+09 5.435637e+03 -3.932314e+04 1.258668e+04
-1.669744e+09 -1.469735e+09 -1.629789e+09 -2.578152e+03 -3.002196e+04 7.214137e+03
-1.447261e+09 -1.247263e+09 -1.407263e+09 5.330450e+02 4.881624e+01 -2.609229e+00
-1.447261e+09 -1.247263e+09 -1.407263e+09 4.947299e+02 5.661551e+01 1.345818e+01
-1.566368e+09 -1.366370e+09 -1.526370e+09 4.628739e+02 4.017342e+01 -9.626837e+00
-1.447261e+09 -1.247263e+09 -1.407263e+09 4.949660e+02 4.966099e+01 2.406371e+01
-1.553088e+09 -1.353076e+09 -1.513085e+09 -5.247304e+03 -3.772568e+03 -6.439245e+03
-1.670888e+09 -1.470876e+09 -1.630885e+09 -5.184707e+03 -3.312423e+03 -6.500894e+03
-1.723265e+09 -1.523252e+09 -1.683265e+09 -3.584980e+03 -3.635756e+03 -6.307346e+03
-1.794612e+09 -1.594599e+09 -1.754611e+09 -3.069066e+03 -4.190563e+03 -6.384146e+03
-1.498795e+09 -1.298790e+09 -1.458818e+09 -1.280799e+04 -2.545147e+04 -1.157665e+04
-1.620619e+09 -1.420614e+09 -1.580643e+09 -1.341194e+04 -2.474593e+04 -1.198767e+04
-1.565979e+09 -1.365984e+09 -1.526007e+09 -1.103593e+04 -3.013174e+04 -1.305388e+04
-1.667271e+09 -1.467266e+09 -1.627297e+09 -1.074121e+04 -2.388153e+04 -1.038058e+04
-1.565713e+09 -1.365701e+09 -1.525710e+09 -5.910906e+03 -4.964055e+03 -6.680767e+03
-1.683513e+09 -1.483501e+09 -1.643510e+09 -5.848024e+03 -4.520099e+03 -6.747632e+03
-1.752375e+09 -1.552365e+09 -1.712372e+09 -5.326188e+03 -5.384539e+03 -6.949092e+03
-1.819964e+09 -1.619953e+09 -1.779961e+09 -4.769523e+03 -4.537563e+03 -6.782168e+03
-1.572632e+09 -1.372622e+09 -1.532631e+09 -4.623585e+03 -5.286621e+03 -5.562998e+03
-1.690432e+09 -1.490422e+09 -1.650431e+09 -4.708720e+03 -4.790336e+03 -5.640552e+03
-1.765518e+09 -1.565508e+09 -1.725517e+09 -4.577119e+03 -4.693033e+03 -5.607562e+03
-1.853037e+09 -1.653029e+09 -1.813037e+09 -3.251213e+03 -3.887666e+03 -4.714917e+03
-1.440417e+09 -1.240418e+09 -1.400418e+09 5.294966e+02 5.609282e+01 2.787417e+01
-1.550957e+09 -1.350958e+09 -1.510958e+09 5.432431e+02 6.145447e+01 1.833245e+01
-1.498953e+09 -1.298955e+09 -1.458954e+09 5.688171e+02 6.237333e+01 9.808879e+00
-1.498953e+09 -1.298955e+09 -1.458954e+09 5.399249e+02 6.186578e+01 2.419621e+01
-1.434522e+09 -1.234524e+09 -1.394524e+09 5.772982e+02 6.201667e+01 1.300952e+01
-1.429057e+09 -1.229059e+09 -1.389059e+09 6.033523e+02 5.906587e+01 8.489897e+00
-1.475167e+09 -1.275168e+09 -1.435168e+09 5.785094e+02 6.434677e+01 1.481456e+01
-1.429057e+09 -1.229059e+09 -1.389059e+09 5.755496e+02 6.733944e+01 1.292770e+01
-1.429057e+09 -1.229059e+09 -1.389059e+09 6.316249e+02 4.190018e+01 -3.081776e+01
-1.527511e+09 -1.327513e+09 -1.487513e+09 6.070176e+02 5.727470e+01 1.816581e+00
-1.573621e+09 -1.373622e+09 -1.533622e+09 5.968455e+02 5.338772e+01 5.801997e-02
-1.444198e+09 -1.244199e+09 -1.404199e+09 5.592134e+02 6.287485e+01 2.447736e+01
-1.440417e+09 -1.240418e+09 -1.400418e+09 5.466540e+02 6.703019e+01 1.962010e+01
-1.444198e+09 -1.244199e+09 -1.404199e+09 5.426944e+02 6.632855e+01 3.526851e+01
-1.496201e+09 -1.296203e+09 -1.456203e+09 5.425646e+02 6.636150e+01 3.136090e+01
-1.606741e+09 -1.406743e+09 -1.566743e+09 5.670580e+02 6.262913e+01 1.090772e+01
-1.554738e+09 -1.354739e+09 -1.514739e+09 5.876110e+02 6.347070e+01 1.795343e+00
-1.444198e+09 -1.244199e+09 -1.404199e+09 6.006345e+02 5.674160e+01 -9.107300e+00
-1.434522e+09 -1.234524e+09 -1.394524e+09 5.565442e+02 6.317894e+01 2.969759e+01
-1.532976e+09 -1.332978e+09 -1.492978e+09 5.740809e+02 6.042823e+01 1.737721e+01
-1.486867e+09 -1.286869e+09 -1.446868e+09 5.990895e+02 6.862221e+01 1.413293e+01
-1.486867e+09 -1.286869e+09 -1.446868e+09 5.877942e+02 7.530837e+01 1.931317e+01
-1.490307e+09 -1.290308e+09 -1.450308e+09 5.554344e+02 6.382459e+01 2.276916e+01
-1.588761e+09 -1.388763e+09 -1.548762e+09 5.750823e+02 5.940134e+01 1.688090e+01
-1.542652e+09 -1.342653e+09 -1.502653e+09 6.025440e+02 6.081243e+01 6.779090e+00
-1.653192e+09 -1.453193e+09 -1.613193e+09 5.792414e+02 7.088157e+01 3.445326e+01
-1.428776e+09 -1.228778e+09 -1.388778e+09 4.982798e+02 5.435038e+01 1.807469e+01
-1.447402e+09 -1.247403e+09 -1.407403e+09 5.179144e+02 4.971529e+01 2.114516e+01
-1.487765e+09 -1.287767e+09 -1.447766e+09 4.946058e+02 5.291052e+01 2.996053e+01
-1.447402e+09 -1.247403e+09 -1.407403e+09 4.949089e+02 5.212994e+01 4.151434e+01
-1.447402e+09 -1.247403e+09 -1.407403e+09 5.322907e+02 3.396314e+01 -1.382860e+01
-1.549801e+09 -1.349803e+09 -1.509802e+09 5.168834e+02 3.906071e+01 4.261178e+00
-1.590164e+09 -1.390166e+09 -1.550166e+09 5.009574e+02 5.055394e+01 2.281156e+01
-1.434016e+09 -1.234017e+09 -1.394017e+09 4.776797e+02 5.614494e+01 3.121014e+01
-1.440930e+09 -1.240931e+09 -1.400931e+09 4.607126e+02 5.647488e+01 4.436405e+01
-1.486533e+09 -1.286534e+09 -1.446534e+09 4.537461e+02 5.203549e+01 4.620102e+01
-1.440930e+09 -1.240931e+09 -1.400931e+09 4.575326e+02 5.528179e+01 4.894775e+01
-1.605900e+09 -1.405902e+09 -1.565901e+09 4.595720e+02 5.769144e+01 3.847281e+01
-1.560297e+09 -1.360299e+09 -1.520298e+09 5.028542e+02 5.703653e+01 3.172558e+01
-1.440930e+09 -1.240931e+09 -1.400931e+09 4.988440e+02 4.656660e+01 -3.515531e+00
-1.428777e+09 -1.228778e+09 -1.388778e+09 4.762536e+02 5.522708e+01 3.887330e+01
-1.531176e+09 -1.331177e+09 -1.491177e+09 4.733948e+02 5.952802e+01 4.635611e+01
-1.490813e+09 -1.290814e+09 -1.450814e+09 5.011468e+02 4.420847e+01 2.313073e+01
-1.490813e+09 -1.290814e+09 -1.450814e+09 4.926799e+02 4.873065e+01 3.116173e+01
-1.474379e+09 -1.274381e+09 -1.434380e+09 4.755776e+02 5.587327e+01 3.533810e+01
-1.576779e+09 -1.376780e+09 -1.536780e+09 4.732087e+02 6.035292e+01 4.237383e+01
-1.610180e+09 -1.410181e+09 -1.570181e+09 4.905180e+02 5.057049e+01 2.718669e+01
-1.655783e+09 -1.455784e+09 -1.615784e+09 4.626006e+02 5.733905e+01 5.211457e+01
-1.434016e+09 -1.234017e+09 -1.394017e+09 4.140454e+02 4.951158e+01 3.076583e+01
-1.440930e+09 -1.240932e+09 -1.400931e+09 4.011913e+02 4.561476e+01 3.798863e+01
-1.486533e+09 -1.286534e+09 -1.446534e+09 4.157694e+02 4.842984e+01 4.173530e+01
-1.440930e+09 -1.240932e+09 -1.400931e+09 4.156372e+02 4.835112e+01 5.158165e+01
-1.440930e+09 -1.240932e+09 -1.400931e+09 3.857711e+02 3.145172e+01 8.909318e-01
-1.560297e+09 -1.360299e+09 -1.520298e+09 4.049209e+02 4.506456e+01 2.972636e+01
-1.605900e+09 -1.405902e+09 -1.565901e+09 4.100904e+02 5.094299e+01 3.504144e+01
-1.428776e+09 -1.228778e+09 -1.388778e+09 4.381618e+02 5.637155e+01 2.570994e+01
-1.447402e+09 -1.247403e+09 -1.407403e+09 4.522651e+02 5.839799e+01 3.651908e+01
-1.487765e+09 -1.287767e+09 -1.447766e+09 4.573420e+02 4.944573e+01 4.403951e+01
-1.447402e+09 -1.247403e+09 -1.407403e+09 4.579274e+02 5.597542e+01 4.807654e+01
-1.590164e+09 -1.390166e+09 -1.550166e+09 4.485784e+02 5.527875e+01 2.215290e+01
-1.549801e+09 -1.349803e+09 -1.509802e+09 4.088607e+02 5.049786e+01 -2.475955e-01
-1.447402e+09 -1.247403e+09 -1.407403e+09 4.120419e+02 4.530370e+01 -1.668038e+00
-1.474379e+09 -1.274381e+09 -1.434380e+09 4.317319e+02 4.809733e+01 4.312722e+01
-1.576779e+09 -1.376780e+09 -1.536780e+09 4.342533e+02 5.190219e+01 4.874828e+01
-1.655783e+09 -1.455784e+09 -1.615784e+09 4.372358e+02 5.124070e+01 5.321726e+01
-1.610180e+09 -1.410181e+09 -1.570181e+09 4.126467e+02 3.746984e+01 3.494586e+01
-1.428776e+09 -1.228778e+09 -1.388778e+09 4.406478e+02 5.514103e+01 3.616964e+01
-1.531176e+09 -1.331177e+09 -1.491177e+09 4.461599e+02 5.711503e+01 4.608471e+01
-1.490813e+09 -1.290814e+09 -1.450814e+09 4.241073e+02 4.571886e+01 3.039277e+01
-1.490813e+09 -1.290814e+09 -1.450814e+09 4.156176e+02 4.821835e+01 2.646288e+01
-1.430142e+09 -1.230130e+09 -1.390185e+09 1.148624e+03 -2.470754e+04 7.805229e+03
-1.433975e+09 -1.233950e+09 -1.394014e+09 1.750295e+03 -1.665074e+04 9.657316e+03
-1.430146e+09 -1.230120e+09 -1.390184e+09 6.096036e+02 -2.573243e+04 9.188583e+03
-1.475705e+09 -1.275679e+09 -1.435745e+09 -6.711265e+03 -1.932645e+04 8.667736e+03
-1.574531e+09 -1.374511e+09 -1.534572e+09 -3.363012e+03 -1.471944e+04 5.661475e+03
-1.528950e+09 -1.328927e+09 -1.488995e+09 -1.514856e+04 -4.360806e+03 -9.556729e+03
-1.430143e+09 -1.230091e+09 -1.390220e+09 -1.020987e+04 -2.231884e+04 5.208157e+03
-1.441638e+09 -1.241631e+09 -1.401689e+09 -1.345315e+03 -3.061652e+04 5.667863e+03
-1.439976e+09 -1.239985e+09 -1.400039e+09 -7.879939e+02 -4.444039e+04 2.492902e+03
-1.493206e+09 -1.293194e+09 -1.453256e+09 -7.351438e+03 -3.340506e+04 3.197893e+03
-1.439981e+09 -1.239971e+09 -1.400041e+09 -1.639439e+02 -4.417119e+04 6.976471e+03
-1.439972e+09 -1.239938e+09 -1.400040e+09 -7.048253e+03 -3.113788e+04 2.819809e+02
-1.550792e+09 -1.350783e+09 -1.510837e+09 -1.213763e+04 -1.618326e+04 -1.003251e+04
-1.604048e+09 -1.404053e+09 -1.564092e+09 2.673346e+03 -3.112034e+04 9.953024e+02
-1.483378e+09 -1.283361e+09 -1.443418e+09 -3.976271e+03 -2.814405e+04 5.964985e+03
-1.483372e+09 -1.283317e+09 -1.443440e+09 -1.368451e+04 -2.524251e+04 1.075153e+04
-1.582187e+09 -1.382158e+09 -1.542225e+09 -1.259149e+04 -2.787377e+03 1.099582e+03
-1.651289e+09 -1.451249e+09 -1.611319e+09 -1.328896e+04 -6.844223e+03 -2.966586e+02
-1.441642e+09 -1.241629e+09 -1.401689e+09 -3.154271e+03 -2.914985e+04 6.563994e+03
-1.532587e+09 -1.332541e+09 -1.492623e+09 -6.225337e+03 -1.512198e+04 -4.666526e+02
-1.474986e+09 -1.274953e+09 -1.435045e+09 -9.540833e+03 -2.277571e+04 2.155067e+03
-1.421755e+09 -1.221720e+09 -1.381809e+09 -8.191558e+03 -1.987355e+04 2.342581e+03
-1.421752e+09 -1.221698e+09 -1.381806e+09 -1.522726e+04 -1.790679e+04 4.864910e+03
-1.585827e+09 -1.385775e+09 -1.545868e+09 -3.808178e+03 -1.677646e+04 8.097692e+03
-1.532587e+09 -1.332533e+09 -1.492626e+09 -9.337076e+03 -1.131633e+04 9.825931e+02
-1.474998e+09 -1.274940e+09 -1.435066e+09 -1.028552e+04 -2.785697e+04 1.470732e+04
-1.585820e+09 -1.385777e+09 -1.545857e+09 -4.321225e+03 -1.794621e+04 2.048169e+03
-1.427567e+09 -1.227550e+09 -1.387586e+09 1.217126e+04 -2.389668e+04 1.765911e+04
-1.527596e+09 -1.327572e+09 -1.487614e+09 9.163157e+03 -1.788789e+04 1.593539e+04
-1.488462e+09 -1.288445e+09 -1.448480e+09 1.241635e+04 -2.030013e+04 1.691263e+04
-1.488465e+09 -1.288459e+09 -1.448485e+09 1.634401e+04 -2.532746e+04 1.690906e+04
-1.449137e+09 -1.249128e+09 -1.409135e+09 -8.195489e+03 -7.185237e+03 -6.318570e+03
-1.571218e+09 -1.371210e+09 -1.531215e+09 -7.833891e+03 -7.012120e+03 -6.422712e+03
-1.510502e+09 -1.310495e+09 -1.470500e+09 -8.642694e+03 -7.557782e+03 -6.055567e+03
-1.510502e+09 -1.310497e+09 -1.470500e+09 -8.544179e+03 -8.266018e+03 -6.058902e+03
-1.447223e+09 -1.247214e+09 -1.407222e+09 -1.131016e+04 -8.288062e+03 -9.793680e+03
-1.543637e+09 -1.343623e+09 -1.503636e+09 -8.729080e+03 -4.751533e+03 -9.267350e+03
-1.482460e+09 -1.282449e+09 -1.442459e+09 -1.027005e+04 -7.753412e+03 -1.070012e+04
-1.482457e+09 -1.282443e+09 -1.442462e+09 -7.342620e+03 -8.281159e+03 -1.074555e+04
-1.602434e+09 -1.402424e+09 -1.562435e+09 -8.126716e+03 -5.174133e+03 -8.929868e+03
-1.423662e+09 -1.223649e+09 -1.383662e+09 -1.026803e+04 -8.067788e+03 -1.012794e+04
-1.423660e+09 -1.223644e+09 -1.383661e+09 -8.958934e+03 -5.398018e+03 -9.909257e+03
-1.602434e+09 -1.402422e+09 -1.562433e+09 -7.796394e+03 -6.204308e+03 -9.522738e+03
-1.543636e+09 -1.343622e+09 -1.503634e+09 -9.228682e+03 -5.976369e+03 -9.097434e+03
-1.446652e+09 -1.246658e+09 -1.406658e+09 -4.895352e+03 3.914722e+03 -1.003313e+04
-1.443124e+09 -1.243134e+09 -1.403133e+09 -4.195437e+03 3.828929e+03 -9.825435e+03
-1.501377e+09 -1.301383e+09 -1.461384e+09 -5.619045e+03 4.245260e+03 -9.662150e+03
-1.443126e+09 -1.243132e+09 -1.403132e+09 -4.909541e+03 5.000736e+03 -1.022246e+04
-1.443127e+09 -1.243133e+09 -1.403132e+09 -4.327209e+03 4.705410e+03 -9.971590e+03
-1.551102e+09 -1.351109e+09 -1.511108e+09 -4.107640e+03 3.591181e+03 -8.809603e+03
-1.609354e+09 -1.409361e+09 -1.569360e+09 -4.171400e+03 3.451417e+03 -8.735840e+03
-1.426908e+09 -1.226912e+09 -1.386913e+09 -5.925679e+03 4.941627e+03 -1.030897e+04
-1.433915e+09 -1.233915e+09 -1.393917e+09 -6.286773e+03 5.815170e+03 -9.734840e+03
-1.426911e+09 -1.226911e+09 -1.386912e+09 -6.884123e+03 6.347720e+03 -9.748074e+03
-1.472422e+09 -1.272423e+09 -1.432425e+09 -7.222112e+03 6.115837e+03 -9.673496e+03
-1.572996e+09 -1.372996e+09 -1.532999e+09 -6.649312e+03 5.693519e+03 -8.903898e+03
-1.527485e+09 -1.327485e+09 -1.487487e+09 -5.867429e+03 5.173640e+03 -8.171815e+03
-1.426913e+09 -1.226913e+09 -1.386916e+09 -5.956361e+03 5.080218e+03 -8.508499e+03
-1.446655e+09 -1.246656e+09 -1.406657e+09 -5.988515e+03 5.601821e+03 -9.370926e+03
-1.554631e+09 -1.354631e+09 -1.514633e+09 -5.444617e+03 5.316627e+03 -8.694394e+03
-1.496379e+09 -1.296381e+09 -1.456382e+09 -5.114217e+03 5.299240e+03 -8.684398e+03
-1.496379e+09 -1.296379e+09 -1.456380e+09 -6.492709e+03 6.571190e+03 -9.318875e+03
-1.485162e+09 -1.285164e+09 -1.445166e+09 -6.524278e+03 5.397559e+03 -9.713140e+03
-1.650243e+09 -1.450245e+09 -1.610247e+09 -7.297906e+03 5.405673e+03 -8.873457e+03
-1.538455e+09 -1.338457e+09 -1.498459e+09 -6.354291e+03 5.375361e+03 -9.546757e+03
-1.639027e+09 -1.439030e+09 -1.599031e+09 -6.514256e+03 4.884895e+03 -9.399356e+03
-1.708496e+09 -1.508497e+09 -1.668500e+09 -6.309049e+03 4.662970e+03 -8.370638e+03
-1.480204e+09 -1.280205e+09 -1.440207e+09 -7.016411e+03 5.945966e+03 -9.438062e+03
-1.580776e+09 -1.380778e+09 -1.540780e+09 -7.163580e+03 5.408117e+03 -8.954574e+03
-1.607924e+09 -1.407925e+09 -1.567927e+09 -5.844202e+03 4.907262e+03 -8.770556e+03
-1.549670e+09 -1.349671e+09 -1.509674e+09 -7.392237e+03 5.867098e+03 -9.200911e+03
-1.489403e+09 -1.289413e+09 -1.449413e+09 -1.791870e+03 1.064992e+03 -5.261744e+03
-1.489404e+09 -1.289413e+09 -1.449412e+09 -2.442283e+03 1.659297e+03 -5.204113e+03
-1.603505e+09 -1.403514e+09 -1.563513e+09 -2.373629e+03 1.477201e+03 -5.040900e+03
-1.668272e+09 -1.468281e+09 -1.628280e+09 -2.315383e+03 1.250524e+03 -4.939871e+03
-1.485126e+09 -1.285135e+09 -1.445134e+09 -1.822401e+03 1.020512e+03 -5.024111e+03
-1.591405e+09 -1.391414e+09 -1.551413e+09 -1.892465e+03 1.067486e+03 -4.689375e+03
-1.546698e+09 -1.346706e+09 -1.506705e+09 -1.854023e+03 7.959536e+02 -4.289588e+03
-1.660449e+09 -1.460458e+09 -1.620456e+09 -2.357098e+03 1.054132e+03 -4.856896e+03
-1.442912e+09 -1.242913e+09 -1.402913e+09 3.316060e+02 4.886674e+01 2.482751e+01
-1.436014e+09 -1.236015e+09 -1.396015e+09 3.116221e+02 4.196151e+01 3.510940e+01
-1.490512e+09 -1.290514e+09 -1.450513e+09 3.303504e+02 4.983204e+01 2.254275e+01
-1.436014e+09 -1.236015e+09 -1.396015e+09 3.287340e+02 4.905867e+01 2.351381e+01
-1.436014e+09 -1.236015e+09 -1.396015e+09 2.978434e+02 3.972208e+01 1.545618e+01
-1.539814e+09 -1.339815e+09 -1.499814e+09 3.210486e+02 4.111539e+01 3.118199e+01
-1.594312e+09 -1.394314e+09 -1.554313e+09 3.364528e+02 4.732625e+01 2.580904e+01
-1.441653e+09 -1.241654e+09 -1.401654e+09 3.557197e+02 4.995497e+01 3.457626e+01
-1.431116e+09 -1.231117e+09 -1.391117e+09 3.708148e+02 3.890950e+01 4.160921e+01
-1.441653e+09 -1.241654e+09 -1.401654e+09 3.713192e+02 5.004079e+01 3.301717e+01
-1.484356e+09 -1.284357e+09 -1.444357e+09 3.632312e+02 4.512731e+01 3.953827e+01
-1.581301e+09 -1.381302e+09 -1.541302e+09 3.581919e+02 3.961467e+01 3.448892e+01
-1.538598e+09 -1.338599e+09 -1.498599e+09 3.526537e+02 3.705229e+01 4.026385e+01
-1.441653e+09 -1.241654e+09 -1.401654e+09 3.294741e+02 4.383882e+01 6.193947e+00
-1.442912e+09 -1.242913e+09 -1.402913e+09 3.542076e+02 4.912746e+01 2.938553e+01
-1.546712e+09 -1.346713e+09 -1.506713e+09 3.436168e+02 5.242558e+01 2.129828e+01
-1.492213e+09 -1.292215e+09 -1.452214e+09 3.299230e+02 4.737772e+01 2.643520e+01
-1.492213e+09 -1.292215e+09 -1.452214e+09 3.325719e+02 5.083571e+01 2.702521e+01
-1.496152e+09 -1.296153e+09 -1.456153e+09 3.558168e+02 4.989054e+01 3.070018e+01
-1.599952e+09 -1.399953e+09 -1.559952e+09 3.431163e+02 5.284900e+01 2.296508e+01
-1.545453e+09 -1.345454e+09 -1.505454e+09 3.239360e+02 4.752101e+01 1.964337e+01
-1.642398e+09 -1.442399e+09 -1.602399e+09 3.471528e+02 4.237831e+01 5.004662e+01
-1.440167e+09 -1.240170e+09 -1.400170e+09 5.988091e+02 7.789871e+01 -1.248797e+02
-1.423049e+09 -1.223052e+09 -1.383052e+09 5.985104e+02 8.077306e+01 -9.757301e+01
-1.440168e+09 -1.240170e+09 -1.400170e+09 6.060069e+02 7.454928e+01 -7.367116e+01
-1.474805e+09 -1.274808e+09 -1.434807e+09 6.160363e+02 6.122401e+01 -9.129343e+01
-1.440167e+09 -1.240170e+09 -1.400170e+09 5.151500e+02 7.658977e+01 -1.776805e+02
-1.523759e+09 -1.323761e+09 -1.483761e+09 5.196415e+02 7.329858e+01 -1.364117e+02
-1.558396e+09 -1.358399e+09 -1.518398e+09 5.992296e+02 5.503141e+01 -1.482581e+02
-1.433790e+09 -1.233793e+09 -1.393793e+09 5.973480e+02 8.040560e+01 -1.354338e+02
-1.433578e+09 -1.233581e+09 -1.393581e+09 5.979996e+02 6.641067e+01 -1.896183e+02
-1.433790e+09 -1.233793e+09 -1.393793e+09 6.077215e+02 6.738689e+01 -1.395742e+02
-1.478957e+09 -1.278960e+09 -1.438960e+09 6.039688e+02 6.431223e+01 -1.460581e+02
-1.584624e+09 -1.384627e+09 -1.544626e+09 5.260547e+02 9.883957e+01 -2.108740e+02
-1.539457e+09 -1.339460e+09 -1.499459e+09 5.190908e+02 6.855317e+01 -1.736274e+02
-1.433790e+09 -1.233793e+09 -1.393793e+09 5.144370e+02 7.078813e+01 -1.963559e+02
-1.485546e+09 -1.285549e+09 -1.445548e+09 6.202765e+02 6.412785e+01 -1.159683e+02
-1.591213e+09 -1.391215e+09 -1.551215e+09 5.930303e+02 5.743875e+01 -1.642195e+02
-1.629425e+09 -1.429428e+09 -1.589427e+09 5.922783e+02 4.466896e+01 -1.002689e+02
-1.545834e+09 -1.345837e+09 -1.505836e+09 5.889767e+02 4.800095e+01 -1.375658e+02
-1.433791e+09 -1.233793e+09 -1.393793e+09 5.924211e+02 8.044831e+01 -8.026418e+01
-1.433790e+09 -1.233793e+09 -1.393793e+09 5.183272e+02 6.795828e+01 -1.223777e+02
-1.539457e+09 -1.339460e+09 -1.499460e+09 5.342864e+02 6.462086e+01 -1.161991e+02
-1.494079e+09 -1.294081e+09 -1.454081e+09 5.369624e+02 5.236185e+01 -8.598880e+01
-1.488712e+09 -1.288714e+09 -1.448714e+09 5.549371e+02 3.094121e+01 -6.787584e+01
-1.598126e+09 -1.398128e+09 -1.558128e+09 5.586816e+02 2.812927e+01 -6.992913e+01
-1.548946e+09 -1.348949e+09 -1.508948e+09 5.265370e+02 1.422709e+01 -7.653568e+01
-1.660712e+09 -1.460714e+09 -1.620714e+09 4.975766e+02 2.386538e+01 -9.596179e+01
-1.439532e+09 -1.239534e+09 -1.399534e+09 5.720931e+02 5.107050e+01 -8.165011e+01
-1.439532e+09 -1.239534e+09 -1.399534e+09 5.419203e+02 3.789386e+01 -8.936711e+01
-1.500178e+09 -1.300180e+09 -1.460180e+09 4.983725e+02 5.176880e+01 -1.021497e+02
-1.551297e+09 -1.351300e+09 -1.511300e+09 5.106162e+02 4.946063e+01 -1.051233e+02
-1.433880e+09 -1.233882e+09 -1.393881e+09 4.676585e+02 6.412110e+01 4.044457e+01
-1.433880e+09 -1.233882e+09 -1.393881e+09 4.410530e+02 5.882491e+01 3.488185e+01
-1.534524e+09 -1.334526e+09 -1.494526e+09 4.469950e+02 6.560011e+01 5.207193e+01
-1.433880e+09 -1.233882e+09 -1.393881e+09 4.405705e+02 5.807301e+01 3.752543e+01
-1.483633e+09 -1.283634e+09 -1.443634e+09 3.946927e+02 5.076608e+01 3.851472e+01
-1.483633e+09 -1.283634e+09 -1.443634e+09 3.759909e+02 3.940741e+01 1.884309e+01
-1.657243e+09 -1.457244e+09 -1.617244e+09 3.850854e+02 5.107127e+01 3.711604e+01
-1.580578e+09 -1.380579e+09 -1.540579e+09 3.783185e+02 5.341416e+01 2.697863e+01
-1.444290e+09 -1.244286e+09 -1.404288e+09 -4.393733e+03 -3.621065e+03 -3.365594e+03
-1.552625e+09 -1.352621e+09 -1.512623e+09 -4.302579e+03 -3.784137e+03 -3.466643e+03
-1.496754e+09 -1.296748e+09 -1.456751e+09 -4.518827e+03 -3.747931e+03 -3.514716e+03
-1.496754e+09 -1.296750e+09 -1.456752e+09 -4.984739e+03 -4.418471e+03 -3.740401e+03
-1.539690e+09 -1.339692e+09 -1.499691e+09 6.150968e+02 4.918749e+01 -1.616097e+01
-1.638144e+09 -1.438146e+09 -1.598145e+09 6.144781e+02 5.167175e+01 -1.859159e+01
-1.721336e+09 -1.521338e+09 -1.681338e+09 6.191900e+02 5.525767e+01 8.049846e+00
-1.767743e+09 -1.567745e+09 -1.727745e+09 6.452833e+02 3.462294e+01 -1.664979e+01
-1.531876e+09 -1.331866e+09 -1.491877e+09 -1.080762e+04 -9.506917e+03 -1.012254e+04
-1.634060e+09 -1.434051e+09 -1.594062e+09 -1.000100e+04 -1.196879e+04 -1.006597e+04
-1.706689e+09 -1.506678e+09 -1.666691e+09 -8.944653e+03 -9.035501e+03 -9.681720e+03
-1.781014e+09 -1.581002e+09 -1.741015e+09 -8.787948e+03 -9.270550e+03 -9.591951e+03
-1.486168e+09 -1.286169e+09 -1.446168e+09 4.171199e+02 5.827590e+01 1.671959e+01
-1.486167e+09 -1.286169e+09 -1.446168e+09 4.338320e+02 5.214113e+01 1.306085e+01
-1.646167e+09 -1.446168e+09 -1.606168e+09 4.243330e+02 5.559183e+01 1.160543e+01
-1.583223e+09 -1.383224e+09 -1.543223e+09 4.442953e+02 5.067182e+01 -3.921716e+00
-1.550407e+09 -1.350411e+09 -1.510411e+09 8.327826e+02 3.727328e+00 -6.893711e+02
-1.649261e+09 -1.449265e+09 -1.609265e+09 8.989344e+02 -1.246273e+01 -8.722911e+02
-1.797961e+09 -1.597965e+09 -1.757964e+09 9.332059e+02 -3.804623e+01 -8.469332e+02
-1.724621e+09 -1.524625e+09 -1.684624e+09 9.312218e+02 -6.035838e+00 -7.914155e+02
-1.489875e+09 -1.289876e+09 -1.449875e+09 -6.467212e+03 6.300653e+03 -9.042587e+03
-1.590449e+09 -1.390449e+09 -1.550450e+09 -7.285515e+03 6.508090e+03 -7.753497e+03
-1.544938e+09 -1.344938e+09 -1.504938e+09 -6.549615e+03 6.144956e+03 -7.506171e+03
-1.656057e+09 -1.456058e+09 -1.616057e+09 -6.136873e+03 6.343606e+03 -7.138271e+03
-1.517167e+09 -1.317161e+09 -1.477169e+09 -9.361489e+03 -9.250997e+03 -1.038123e+04
-1.619351e+09 -1.419344e+09 -1.579354e+09 -9.295135e+03 -1.140930e+04 -1.041585e+04
-1.737025e+09 -1.537021e+09 -1.697031e+09 -6.249212e+03 -1.115470e+04 -1.014242e+04
-1.691980e+09 -1.491969e+09 -1.651983e+09 -9.197121e+03 -8.690460e+03 -1.009683e+04
-1.445192e+09 -1.245194e+09 -1.405194e+09 6.097201e+02 6.367121e+01 -1.436441e+01
-1.519454e+09 -1.319456e+09 -1.479455e+09 6.545201e+02 6.047451e+01 -2.407811e+01
-1.475974e+09 -1.275976e+09 -1.435975e+09 6.538497e+02 5.239601e+01 -2.838925e+01
-1.475974e+09 -1.275976e+09 -1.435975e+09 6.473978e+02 4.724657e+01 -8.468390e+00
-1.576234e+09 -1.376235e+09 -1.536235e+09 6.552600e+02 5.348078e+01 -1.931087e+01
-1.419194e+09 -1.219196e+09 -1.379196e+09 6.732242e+02 5.854167e+01 -1.124494e+01
-1.419194e+09 -1.219196e+09 -1.379196e+09 6.413926e+02 5.927863e+01 -1.462645e+01
-1.576233e+09 -1.376235e+09 -1.536235e+09 6.629070e+02 5.961561e+01 -1.546682e+01
-1.519454e+09 -1.319456e+09 -1.479455e+09 6.663075e+02 7.047201e+01 -2.488143e+01
-1.554849e+09 -1.354857e+09 -1.514856e+09 6.580082e+01 1.990928e+02 -2.968987e+03
-1.670189e+09 -1.470196e+09 -1.630195e+09 5.399466e+01 2.797651e+02 -3.034948e+03
-1.719952e+09 -1.519959e+09 -1.679958e+09 -1.224942e+02 2.741799e+02 -3.321790e+03
-1.789389e+09 -1.589396e+09 -1.749395e+09 -1.220745e+02 4.261900e+02 -3.260162e+03
-1.534111e+09 -1.334121e+09 -1.494120e+09 -1.907797e+03 1.096324e+03 -5.182364e+03
-1.640389e+09 -1.440400e+09 -1.600399e+09 -1.929561e+03 1.186381e+03 -4.981042e+03
-1.774550e+09 -1.574559e+09 -1.734558e+09 -2.296592e+03 1.140251e+03 -5.335159e+03
-1.709783e+09 -1.509792e+09 -1.669791e+09 -2.312393e+03 1.309149e+03 -5.385161e+03
-1.431570e+09 -1.231570e+09 -1.391574e+09 -1.631605e+04 -1.558066e+04 -1.179948e+04
-1.432515e+09 -1.232513e+09 -1.392518e+09 -1.401684e+04 -1.413512e+04 -1.019242e+04
-1.431569e+09 -1.231568e+09 -1.391574e+09 -1.574171e+04 -1.544242e+04 -1.169342e+04
-1.475658e+09 -1.275659e+09 -1.435663e+09 -1.430514e+04 -1.401143e+04 -1.105522e+04
-1.566357e+09 -1.366358e+09 -1.526363e+09 -1.392413e+04 -1.438822e+04 -1.071843e+04
-1.522266e+09 -1.322269e+09 -1.482272e+09 -1.355705e+04 -1.431156e+04 -1.048154e+04
-1.431570e+09 -1.231576e+09 -1.391576e+09 -1.525957e+04 -1.735998e+04 -1.169911e+04
-1.431634e+09 -1.231634e+09 -1.391643e+09 -1.871517e+04 -1.809328e+04 -1.281733e+04
-1.444158e+09 -1.244158e+09 -1.404172e+09 -2.047786e+04 -2.135622e+04 -1.270318e+04
-1.487369e+09 -1.287372e+09 -1.447381e+09 -1.678135e+04 -1.965544e+04 -1.229969e+04
-1.444159e+09 -1.244160e+09 -1.404173e+09 -2.095994e+04 -2.281327e+04 -1.367902e+04
-1.444162e+09 -1.244169e+09 -1.404177e+09 -1.979496e+04 -2.525873e+04 -1.333567e+04
-1.545447e+09 -1.345447e+09 -1.505459e+09 -1.589135e+04 -1.684291e+04 -1.114270e+04
-1.588660e+09 -1.388656e+09 -1.548670e+09 -1.621880e+04 -1.662489e+04 -1.171602e+04
-1.474778e+09 -1.274781e+09 -1.434785e+09 -1.462449e+04 -1.657883e+04 -1.156928e+04
-1.576071e+09 -1.376072e+09 -1.536078e+09 -1.465442e+04 -1.605759e+04 -1.153232e+04
-1.532862e+09 -1.332868e+09 -1.492869e+09 -1.555659e+04 -1.725718e+04 -1.176196e+04
-1.623557e+09 -1.423561e+09 -1.583565e+09 -1.343258e+04 -1.446735e+04 -1.059208e+04
-1.431634e+09 -1.231635e+09 -1.391643e+09 -1.859179e+04 -1.952853e+04 -1.382339e+04
-1.532926e+09 -1.332925e+09 -1.492934e+09 -1.862642e+04 -1.842657e+04 -1.370425e+04
-1.489715e+09 -1.289719e+09 -1.449724e+09 -1.904443e+04 -1.924375e+04 -1.301294e+04
-1.489715e+09 -1.289721e+09 -1.449724e+09 -1.866201e+04 -1.923417e+04 -1.288603e+04
-1.445647e+09 -1.245650e+09 -1.405649e+09 7.643053e+02 6.920207e+01 -2.907610e+02
-1.564943e+09 -1.364946e+09 -1.524946e+09 8.083550e+02 5.004284e+01 -3.146906e+02
-1.507708e+09 -1.307711e+09 -1.467711e+09 8.373328e+02 7.154822e+01 -3.356845e+02
-1.507708e+09 -1.307711e+09 -1.467711e+09 8.456755e+02 7.944108e+01 -3.372597e+02
-1.482328e+09 -1.282331e+09 -1.442330e+09 6.197745e+02 7.351966e+01 -1.922491e+02
-1.482327e+09 -1.282331e+09 -1.442330e+09 5.114180e+02 7.390250e+01 -2.734853e+02
-1.584417e+09 -1.384420e+09 -1.544420e+09 5.506621e+02 8.574961e+01 -1.859275e+02
-1.641334e+09 -1.441338e+09 -1.601337e+09 5.539021e+02 8.426239e+01 -1.809582e+02
-1.549977e+09 -1.349966e+09 -1.510040e+09 -1.435217e+04 -3.759243e+04 -3.791500e+02
-1.815882e+09 -1.615854e+09 -1.775929e+09 -1.395180e+04 -3.033299e+04 -7.848460e+02
-1.637964e+09 -1.437954e+09 -1.598021e+09 -1.476034e+04 -2.923281e+04 -3.420947e+03
-1.692261e+09 -1.492248e+09 -1.652317e+09 -1.104928e+04 -3.188414e+04 -2.413752e+03
-1.755779e+09 -1.555756e+09 -1.715830e+09 -1.150774e+04 -2.625735e+04 1.729473e+03
-1.698071e+09 -1.498052e+09 -1.658121e+09 -1.353124e+04 -3.013836e+04 -4.081484e+03
-1.752366e+09 -1.552342e+09 -1.712416e+09 -1.411109e+04 -3.237240e+04 -2.393663e+03
-1.701473e+09 -1.501458e+09 -1.661532e+09 -1.018456e+04 -2.618553e+04 2.432744e+02
-1.761585e+09 -1.561561e+09 -1.721633e+09 -1.309290e+04 -2.863018e+04 -3.738324e+03
-1.512492e+09 -1.312484e+09 -1.472489e+09 -5.661280e+03 -5.351350e+03 -5.113356e+03
-1.634574e+09 -1.434566e+09 -1.594570e+09 -5.202987e+03 -4.884625e+03 -5.631332e+03
-1.573860e+09 -1.373854e+09 -1.533857e+09 -5.981431e+03 -6.266170e+03 -5.823877e+03
-1.702162e+09 -1.502155e+09 -1.662159e+09 -5.097944e+03 -4.767731e+03 -5.129586e+03
-1.509275e+09 -1.309263e+09 -1.469273e+09 -4.731385e+03 -4.741881e+03 -5.610957e+03
-1.627076e+09 -1.427064e+09 -1.587074e+09 -4.538219e+03 -4.409573e+03 -5.640621e+03
-1.724733e+09 -1.524725e+09 -1.684733e+09 -2.898361e+03 -3.785259e+03 -4.731344e+03
-1.657097e+09 -1.457085e+09 -1.617096e+09 -2.608285e+03 -3.991736e+03 -5.080966e+03
-1.433578e+09 -1.233581e+09 -1.393581e+09 6.163609e+02 5.876468e+01 -1.925704e+02
-1.433578e+09 -1.233581e+09 -1.393581e+09 5.100707e+02 6.296299e+01 -2.618539e+02
-1.539245e+09 -1.339248e+09 -1.499247e+09 5.555459e+02 6.646747e+01 -2.149685e+02
-1.494078e+09 -1.294081e+09 -1.454081e+09 5.382042e+02 4.005355e+01 -1.796277e+02
-1.440418e+09 -1.240427e+09 -1.400426e+09 -1.732177e+03 1.030775e+03 -5.030151e+03
-1.440417e+09 -1.240427e+09 -1.400426e+09 -2.690651e+03 1.544812e+03 -4.988948e+03
-1.554172e+09 -1.354180e+09 -1.514179e+09 -2.369326e+03 1.105093e+03 -4.537192e+03
-1.440420e+09 -1.240428e+09 -1.400428e+09 -1.911032e+03 8.698452e+02 -3.883708e+03
-1.447200e+09 -1.247193e+09 -1.407197e+09 -4.059698e+03 -2.861738e+03 -4.019426e+03
-1.463513e+09 -1.263507e+09 -1.423510e+09 -3.530614e+03 -2.263849e+03 -3.295504e+03
-1.522292e+09 -1.322286e+09 -1.482290e+09 -2.933193e+03 -2.643809e+03 -3.402928e+03
-1.463513e+09 -1.263506e+09 -1.423510e+09 -3.376315e+03 -2.244063e+03 -3.300707e+03
-1.463513e+09 -1.263506e+09 -1.423511e+09 -3.053900e+03 -2.017813e+03 -3.761844e+03
-1.613701e+09 -1.413693e+09 -1.573698e+09 -3.169126e+03 -2.055312e+03 -3.700923e+03
-1.672480e+09 -1.472474e+09 -1.632478e+09 -2.851365e+03 -2.424726e+03 -3.474795e+03
-1.459571e+09 -1.259561e+09 -1.419567e+09 -5.015639e+03 -3.606903e+03 -4.707943e+03
-1.456058e+09 -1.256048e+09 -1.416054e+09 -5.873999e+03 -4.290824e+03 -5.667569e+03
-1.459570e+09 -1.259561e+09 -1.419568e+09 -4.734853e+03 -3.434957e+03 -4.612469e+03
-1.527205e+09 -1.327197e+09 -1.487203e+09 -3.922819e+03 -4.152090e+03 -4.977320e+03
-1.678084e+09 -1.478076e+09 -1.638082e+09 -3.842651e+03 -3.543680e+03 -5.021786e+03
-1.610449e+09 -1.410439e+09 -1.570446e+09 -4.191041e+03 -3.512770e+03 -5.048314e+03
-1.459571e+09 -1.259561e+09 -1.419568e+09 -4.381741e+03 -3.261093e+03 -4.911956e+03
-1.447199e+09 -1.247191e+09 -1.407197e+09 -3.395015e+03 -3.083065e+03 -4.051590e+03
-1.597387e+09 -1.397381e+09 -1.557385e+09 -3.335881e+03 -2.383062e+03 -3.478046e+03
-1.538607e+09 -1.338599e+09 -1.498604e+09 -3.113946e+03 -2.075769e+03 -3.717500e+03
-1.538607e+09 -1.338598e+09 -1.498604e+09 -2.718129e+03 -1.962133e+03 -3.887900e+03
-1.518349e+09 -1.318341e+09 -1.478347e+09 -2.994218e+03 -3.467442e+03 -4.169917e+03
-1.668536e+09 -1.468531e+09 -1.628534e+09 -2.631176e+03 -3.006975e+03 -3.594378e+03
-1.609755e+09 -1.409748e+09 -1.569755e+09 -1.498712e+03 -3.062189e+03 -4.065153e+03
-1.760633e+09 -1.560626e+09 -1.720633e+09 -1.411958e+03 -3.164154e+03 -4.149819e+03
-1.433992e+09 -1.233965e+09 -1.393995e+09 -4.954573e+02 1.694675e+03 4.585895e+03
-1.433661e+09 -1.233638e+09 -1.393670e+09 -6.291561e+02 1.126630e+03 2.350615e+03
-1.433990e+09 -1.233965e+09 -1.393990e+09 -4.557401e+02 -3.165863e+02 1.916879e+03
-1.479242e+09 -1.279215e+09 -1.439242e+09 -1.364257e+03 3.711207e+01 4.703090e+03
-1.584099e+09 -1.384074e+09 -1.544101e+09 -4.442399e+02 2.554213e+03 3.027706e+03
-1.538841e+09 -1.338818e+09 -1.498859e+09 -7.585956e+03 4.754831e+03 -1.045449e+03
-1.433989e+09 -1.233957e+09 -1.394014e+09 -6.612123e+03 -2.433386e+03 4.463139e+03
-1.447268e+09 -1.247243e+09 -1.407277e+09 -7.852865e+02 -5.052397e+03 5.319804e+03
-1.439305e+09 -1.239289e+09 -1.399322e+09 3.425689e+03 -1.290844e+04 7.681658e+03
-1.498157e+09 -1.298133e+09 -1.458170e+09 -5.720672e+03 -8.089585e+03 4.836375e+03
-1.439309e+09 -1.239282e+09 -1.399321e+09 2.516619e+03 -1.430956e+04 8.742656e+03
-1.439301e+09 -1.239264e+09 -1.399332e+09 -5.956835e+03 -1.399320e+04 9.797688e+03
-1.554719e+09 -1.354706e+09 -1.514739e+09 -8.270084e+03 -5.241419e+02 -1.973947e+03
-1.613591e+09 -1.413576e+09 -1.573601e+09 -2.568078e+02 -3.557900e+03 2.043440e+03
-1.492850e+09 -1.292820e+09 -1.452853e+09 -6.099580e+03 -2.910606e+03 3.489938e+03
-1.492850e+09 -1.292812e+09 -1.452862e+09 -8.507901e+03 -4.735490e+03 6.699390e+03
-1.597705e+09 -1.397675e+09 -1.557711e+09 -8.439142e+03 4.485949e+03 2.707506e+03
-1.667553e+09 -1.467521e+09 -1.627556e+09 -8.376123e+03 2.820382e+03 2.115878e+03
-1.447267e+09 -1.247243e+09 -1.407276e+09 -7.018555e+02 -5.586495e+03 4.888997e+03
-1.533924e+09 -1.333896e+09 -1.493937e+09 -4.199515e+03 -1.832328e+03 -1.679558e+02
-1.477358e+09 -1.277328e+09 -1.437376e+09 -3.984660e+03 -5.431389e+03 4.968865e+03
-1.418496e+09 -1.218465e+09 -1.378513e+09 -6.878519e+03 -1.606626e+03 2.577045e+03
-1.418495e+09 -1.218465e+09 -1.378509e+09 -5.765438e+03 -4.075721e+03 1.649655e+03
-1.592794e+09 -1.392756e+09 -1.552801e+09 -9.500293e+02 -3.349906e+03 6.180775e+03
-1.533924e+09 -1.333890e+09 -1.493940e+09 -6.851227e+03 -1.017777e+03 1.882081e+03
-1.477359e+09 -1.277326e+09 -1.437376e+09 -4.181085e+03 -6.782853e+03 6.400882e+03
-1.592786e+09 -1.392757e+09 -1.552794e+09 -1.362196e+03 -3.251804e+03 1.484335e+03
-1.534968e+09 -1.334950e+09 -1.494999e+09 -3.100653e+03 -1.717727e+04 3.621000e+03
-1.635003e+09 -1.434983e+09 -1.595035e+09 -3.624577e+03 -1.216577e+04 2.468345e+03
-1.786571e+09 -1.586551e+09 -1.746596e+09 -7.643493e+03 -1.260466e+04 -3.932110e+03
-1.711287e+09 -1.511273e+09 -1.671311e+09 -3.764133e+03 -7.348802e+03 -1.322667e+03
-1.446193e+09 -1.246195e+09 -1.406195e+09 7.015862e+02 8.410657e+01 -4.852834e+01
-1.446193e+09 -1.246195e+09 -1.406195e+09 7.644927e+02 7.203026e+01 -1.100681e+02
-1.506574e+09 -1.306576e+09 -1.466576e+09 7.578754e+02 8.671084e+01 -7.649074e+01
-1.564355e+09 -1.364357e+09 -1.524357e+09 7.227007e+02 8.554692e+01 -6.265490e+01
-1.445531e+09 -1.245534e+09 -1.405533e+09 7.194264e+02 7.737882e+01 -9.675725e+01
-1.446193e+09 -1.246195e+09 -1.406195e+09 7.173725e+02 8.914126e+01 -6.313900e+01
-1.503312e+09 -1.303315e+09 -1.463314e+09 6.977414e+02 7.760318e+01 -7.647189e+01
-1.446193e+09 -1.246195e+09 -1.406195e+09 6.977460e+02 8.658551e+01 -6.976738e+01
-1.621474e+09 -1.421476e+09 -1.581476e+09 7.610304e+02 4.531852e+01 -1.053897e+02
-1.564354e+09 -1.364357e+09 -1.524356e+09 8.163331e+02 7.787551e+01 -8.800242e+01
-1.446193e+09 -1.246195e+09 -1.406195e+09 8.093650e+02 6.103662e+01 -1.551886e+02
-1.428850e+09 -1.228853e+09 -1.388853e+09 7.469828e+02 7.426745e+01 -1.586985e+02
-1.423403e+09 -1.223406e+09 -1.383406e+09 7.516342e+02 4.843923e+01 -2.325376e+02
-1.428850e+09 -1.228853e+09 -1.388853e+09 7.300424e+02 7.481965e+01 -1.679093e+02
-1.463842e+09 -1.263844e+09 -1.423844e+09 7.106522e+02 6.052198e+01 -1.846218e+02
-1.428850e+09 -1.228853e+09 -1.388853e+09 8.369859e+02 2.733779e+01 -3.331178e+02
-1.511978e+09 -1.311981e+09 -1.471980e+09 8.470034e+02 5.760965e+01 -2.311321e+02
-1.546969e+09 -1.346972e+09 -1.506972e+09 7.443238e+02 4.749560e+01 -2.296414e+02
-1.445531e+09 -1.245534e+09 -1.405533e+09 7.196550e+02 8.140255e+01 -1.352442e+02
-1.445531e+09 -1.245534e+09 -1.405533e+09 7.689859e+02 5.996455e+01 -1.780021e+02
-1.506573e+09 -1.306576e+09 -1.466576e+09 7.956903e+02 7.770502e+01 -1.279079e+02
-1.563693e+09 -1.363695e+09 -1.523695e+09 7.182624e+02 7.529578e+01 -1.398714e+02
-1.485970e+09 -1.285972e+09 -1.445972e+09 7.328571e+02 7.006228e+01 -1.341706e+02
-1.485970e+09 -1.285972e+09 -1.445972e+09 7.496256e+02 4.400594e+01 -1.885311e+02
-1.646820e+09 -1.446823e+09 -1.606822e+09 7.298690e+02 8.198386e+01 -1.216941e+02
-1.569097e+09 -1.369100e+09 -1.529099e+09 7.581934e+02 7.409353e+01 -1.544923e+02
-1.444155e+09 -1.244158e+09 -1.404170e+09 -1.589719e+04 -2.297371e+04 -1.413067e+04
-1.444159e+09 -1.244170e+09 -1.404177e+09 -1.442160e+04 -2.733693e+04 -1.315202e+04
-1.545442e+09 -1.345445e+09 -1.505453e+09 -1.532524e+04 -1.683949e+04 -1.434659e+04
-1.444154e+09 -1.244169e+09 -1.404171e+09 -1.460311e+04 -2.775631e+04 -1.650873e+04
-1.525805e+09 -1.325808e+09 -1.485807e+09 6.921045e+02 6.089778e+01 -2.759867e+02
-1.608932e+09 -1.408935e+09 -1.568935e+09 6.987707e+02 4.814998e+01 -3.011370e+02
-1.679608e+09 -1.479611e+09 -1.639610e+09 7.140138e+02 2.574122e+01 -2.675201e+02
-1.753738e+09 -1.553741e+09 -1.713740e+09 7.185174e+02 4.695712e+01 -3.248402e+02
-1.438621e+09 -1.238627e+09 -1.398626e+09 3.440881e+02 8.759313e+01 -1.171582e+03
-1.546598e+09 -1.346604e+09 -1.506603e+09 3.681651e+02 9.422939e+01 -1.174289e+03
-1.496386e+09 -1.296391e+09 -1.456390e+09 3.816095e+02 -5.683160e+01 -1.102681e+03
-1.496386e+09 -1.296391e+09 -1.456390e+09 5.670030e+01 1.146312e+02 -1.203772e+03
-1.455421e+09 -1.255426e+09 -1.415425e+09 7.532820e+02 1.546892e+01 -8.082328e+02
-1.440883e+09 -1.240887e+09 -1.400887e+09 8.160254e+02 2.508618e+01 -7.169409e+02
-1.507894e+09 -1.307899e+09 -1.467898e+09 7.401045e+02 1.610091e+01 -8.020395e+02
-1.440883e+09 -1.240887e+09 -1.400887e+09 7.662324e+02 3.182206e+01 -7.623905e+02
-1.627057e+09 -1.427061e+09 -1.587061e+09 9.109641e+02 -2.664081e+01 -8.476530e+02
-1.560045e+09 -1.360049e+09 -1.520049e+09 1.063830e+03 7.496105e+00 -8.269000e+02
-1.440883e+09 -1.240887e+09 -1.400887e+09 1.035103e+03 -2.603744e+01 -8.432144e+02
-1.442930e+09 -1.242935e+09 -1.402934e+09 7.280911e+02 3.513070e+01 -9.580838e+02
-1.432920e+09 -1.232925e+09 -1.392924e+09 7.009827e+02 8.258432e+00 -1.143372e+03
-1.487440e+09 -1.287445e+09 -1.447445e+09 7.123915e+02 4.882485e+01 -1.099212e+03
-1.432920e+09 -1.232925e+09 -1.392924e+09 7.147239e+02 3.783622e+01 -1.109020e+03
-1.432920e+09 -1.232925e+09 -1.392924e+09 9.602310e+02 -6.546594e+01 -1.130223e+03
-1.535438e+09 -1.335443e+09 -1.495442e+09 9.783987e+02 -4.813821e+01 -1.256724e+03
-1.589958e+09 -1.389963e+09 -1.549963e+09 9.454454e+02 -3.354698e+01 -1.310583e+03
-1.455421e+09 -1.255426e+09 -1.415425e+09 7.481912e+02 2.743453e+01 -9.597113e+02
-1.455421e+09 -1.255426e+09 -1.415425e+09 8.454109e+02 6.793997e-01 -1.021494e+03
-1.507571e+09 -1.307576e+09 -1.467576e+09 1.017719e+03 2.577471e+01 -9.827399e+02
-1.574583e+09 -1.374588e+09 -1.534587e+09 8.191004e+02 2.450043e+01 -1.008884e+03
-1.509942e+09 -1.309946e+09 -1.469946e+09 7.327269e+02 3.959018e+00 -9.807431e+02
-1.612460e+09 -1.412464e+09 -1.572464e+09 8.321501e+02 1.814644e+01 -1.040734e+03
-1.557939e+09 -1.357943e+09 -1.517943e+09 8.544063e+02 -1.051306e+01 -1.045598e+03
-1.677101e+09 -1.477106e+09 -1.637105e+09 8.350047e+02 4.226252e+01 -1.041896e+03
-1.539563e+09 -1.339566e+09 -1.499566e+09 7.447471e+02 1.798352e+01 -2.918962e+02
-1.802221e+09 -1.602224e+09 -1.762223e+09 7.726698e+02 7.934374e+00 -3.135873e+02
-1.626319e+09 -1.426322e+09 -1.586322e+09 7.409622e+02 8.302332e+00 -3.218565e+02
-1.671174e+09 -1.471177e+09 -1.631176e+09 7.230699e+02 1.887115e+01 -3.306203e+02
-1.728091e+09 -1.528094e+09 -1.688094e+09 7.546601e+02 8.185115e+00 -2.705645e+02
-1.683237e+09 -1.483240e+09 -1.643239e+09 7.157306e+02 1.318092e+01 -2.652114e+02
-1.757366e+09 -1.557370e+09 -1.717369e+09 7.636871e+02 1.859406e+01 -3.345909e+02
-1.700449e+09 -1.500452e+09 -1.660452e+09 7.789943e+02 1.562660e+01 -3.353269e+02
-1.745304e+09 -1.545307e+09 -1.705306e+09 7.725469e+02 -1.506389e+00 -3.293378e+02
-1.432213e+09 -1.232217e+09 -1.392217e+09 7.880437e+02 3.350535e+01 -6.907142e+02
-1.432213e+09 -1.232217e+09 -1.392217e+09 9.009428e+02 3.701264e+00 -6.914261e+02
-1.432213e+09 -1.232217e+09 -1.392217e+09 9.547909e+02 -1.596495e+01 -7.002494e+02
-1.531067e+09 -1.331071e+09 -1.491071e+09 9.771957e+02 3.983923e+00 -7.154876e+02
-1.445650e+09 -1.245650e+09 -1.405672e+09 -1.701458e+04 -2.756280e+04 -1.593292e+04
-1.443060e+09 -1.243057e+09 -1.403074e+09 -1.671802e+04 -2.290079e+04 -1.314784e+04
-1.500289e+09 -1.300290e+09 -1.460310e+09 -1.265938e+04 -2.634116e+04 -1.305715e+04
-1.443058e+09 -1.243057e+09 -1.403075e+09 -1.583683e+04 -2.228681e+04 -1.345816e+04
-1.443065e+09 -1.243044e+09 -1.403088e+09 -1.312265e+04 -1.586731e+04 -2.157887e+04
-1.564891e+09 -1.364873e+09 -1.524901e+09 -1.671678e+04 -1.271952e+04 -2.004043e+04
-1.622118e+09 -1.422128e+09 -1.582140e+09 -1.164305e+04 -2.180484e+04 -1.317873e+04
-1.437201e+09 -1.237199e+09 -1.397229e+09 -1.773586e+04 -2.777839e+04 -1.634888e+04
-1.437331e+09 -1.237326e+09 -1.397364e+09 -1.833065e+04 -3.237302e+04 -1.605134e+04
-1.437202e+09 -1.237194e+09 -1.397229e+09 -1.719949e+04 -2.868595e+04 -1.487305e+04
-1.486117e+09 -1.286111e+09 -1.446149e+09 -1.433305e+04 -3.118569e+04 -1.445497e+04
-1.595827e+09 -1.395833e+09 -1.555857e+09 -1.098531e+04 -2.303475e+04 -1.599195e+04
-1.546914e+09 -1.346894e+09 -1.506936e+09 -2.465538e+04 -1.861310e+04 -2.470512e+04
-1.437209e+09 -1.237175e+09 -1.397256e+09 -1.675669e+04 -3.404403e+04 -2.576809e+04
-1.445650e+09 -1.245646e+09 -1.405676e+09 -1.537153e+04 -2.518091e+04 -1.353972e+04
-1.445651e+09 -1.245618e+09 -1.405693e+09 -1.717145e+04 -2.759230e+04 -2.168076e+04
-1.567470e+09 -1.367463e+09 -1.527503e+09 -3.844473e+03 -2.085308e+04 -1.056440e+04
-1.510245e+09 -1.310215e+09 -1.470264e+09 -1.040567e+04 -1.267637e+04 -1.725983e+04
-1.494435e+09 -1.294431e+09 -1.454458e+09 -1.415573e+04 -2.608049e+04 -1.496958e+04
-1.494435e+09 -1.294404e+09 -1.454480e+09 -1.218756e+04 -3.186276e+04 -2.125887e+04
-1.604137e+09 -1.404119e+09 -1.564164e+09 -1.368640e+04 -1.768911e+04 -1.748478e+04
-1.677174e+09 -1.477165e+09 -1.637195e+09 -9.349498e+03 -1.469393e+04 -1.303846e+04
-1.433005e+09 -1.233011e+09 -1.393035e+09 -2.394918e+04 -4.433319e+04 -1.196311e+04
-1.527293e+09 -1.327263e+09 -1.487322e+09 -2.188771e+04 -1.794243e+04 -1.458744e+04
-1.465407e+09 -1.265403e+09 -1.425452e+09 -2.406012e+04 -3.994492e+04 -1.728836e+04
-1.571867e+09 -1.371858e+09 -1.531900e+09 -1.466214e+04 -2.238599e+04 -1.047354e+04
-1.527291e+09 -1.327263e+09 -1.487317e+09 -2.060612e+04 -2.629387e+04 -1.489603e+04
-1.465401e+09 -1.265374e+09 -1.425459e+09 -1.251047e+04 -3.426844e+04 -6.468250e+03
-1.571871e+09 -1.371861e+09 -1.531899e+09 -1.712830e+04 -1.877437e+04 -6.205894e+03
-1.420823e+09 -1.220803e+09 -1.380864e+09 -2.156019e+04 -3.626953e+04 -1.395481e+04
-1.420816e+09 -1.220781e+09 -1.380851e+09 -2.465876e+04 -2.213688e+04 -1.311114e+04
-1.432919e+09 -1.232924e+09 -1.392924e+09 7.999426e+02 1.348203e+01 -1.499837e+03
-1.432919e+09 -1.232924e+09 -1.392924e+09 9.254040e+02 -3.376691e+01 -1.513297e+03
-1.432919e+09 -1.232924e+09 -1.392924e+09 1.044644e+03 -5.232307e+01 -1.559041e+03
-1.535437e+09 -1.335442e+09 -1.495442e+09 1.087792e+03 -6.774602e+00 -1.588089e+03
-1.491066e+09 -1.291073e+09 -1.451073e+09 -2.467290e+02 3.188052e+02 -2.659878e+03
-1.583905e+09 -1.383912e+09 -1.543912e+09 -3.748346e+02 3.655254e+02 -2.787631e+03
-1.533734e+09 -1.333741e+09 -1.493741e+09 -6.334643e+02 4.796038e+02 -2.733450e+03
-1.637182e+09 -1.437189e+09 -1.597189e+09 -6.487624e+02 4.349563e+02 -2.704199e+03
-1.453185e+09 -1.253191e+09 -1.413191e+09 6.066930e+02 4.467070e+01 -1.896078e+03
-1.452086e+09 -1.252092e+09 -1.412091e+09 7.835539e+02 5.235784e+01 -1.645351e+03
-1.516863e+09 -1.316869e+09 -1.476868e+09 5.950607e+02 5.853000e+01 -1.893234e+03
-1.452085e+09 -1.252091e+09 -1.412091e+09 7.057115e+02 6.929042e+01 -1.790171e+03
-1.642183e+09 -1.442189e+09 -1.602189e+09 1.224584e+03 -1.902378e+02 -1.955431e+03
-1.577406e+09 -1.377412e+09 -1.537411e+09 1.210568e+03 -3.867401e+01 -1.947018e+03
-1.452085e+09 -1.252091e+09 -1.412091e+09 1.143159e+03 -8.288348e+01 -1.866608e+03
-1.438410e+09 -1.238416e+09 -1.398416e+09 4.391025e+02 4.966633e+01 -2.128566e+03
-1.429283e+09 -1.229290e+09 -1.389290e+09 3.236446e+02 -1.179943e+02 -2.487379e+03
-1.479286e+09 -1.279293e+09 -1.439293e+09 3.392817e+02 9.111362e+01 -2.354599e+03
-1.429283e+09 -1.229290e+09 -1.389290e+09 3.867650e+02 -1.289646e+01 -2.440447e+03
-1.429284e+09 -1.229291e+09 -1.389290e+09 7.002686e+02 -1.301208e+02 -2.428308e+03
-1.521961e+09 -1.321968e+09 -1.481967e+09 8.151733e+02 -6.610084e+01 -2.923712e+03
-1.571964e+09 -1.371971e+09 -1.531970e+09 9.307990e+02 -1.061741e+02 -2.833926e+03
-1.453184e+09 -1.253191e+09 -1.413190e+09 6.041691e+02 5.739668e+01 -2.299460e+03
-1.453184e+09 -1.253191e+09 -1.413190e+09 6.577966e+02 4.971288e+01 -2.324958e+03
-1.513727e+09 -1.313734e+09 -1.473733e+09 1.099699e+03 1.345790e+01 -2.429727e+03
-1.578504e+09 -1.378511e+09 -1.538510e+09 8.666681e+02 3.319400e+01 -2.464322e+03
-1.503187e+09 -1.303194e+09 -1.463193e+09 5.400525e+02 3.237465e+01 -2.309611e+03
-1.595865e+09 -1.395872e+09 -1.555871e+09 7.783011e+02 -3.749690e+01 -2.373692e+03
-1.545862e+09 -1.345869e+09 -1.505868e+09 3.925052e+02 1.137102e+02 -2.353425e+03
-1.671182e+09 -1.471189e+09 -1.631188e+09 7.262430e+02 5.320407e+01 -2.572141e+03
-1.491292e+09 -1.291301e+09 -1.451300e+09 -9.104040e+01 2.122441e+02 -3.568069e+03
-1.501163e+09 -1.301171e+09 -1.461171e+09 1.703425e+02 1.751739e+02 -3.119825e+03
-1.551562e+09 -1.351570e+09 -1.511570e+09 -8.648741e+01 2.328362e+02 -3.472598e+03
-1.554567e+09 -1.354575e+09 -1.514574e+09 7.684242e+01 1.599864e+02 -3.201075e+03
-1.658015e+09 -1.458022e+09 -1.618021e+09 2.513627e+01 1.929839e+02 -3.690428e+03
-1.727451e+09 -1.527459e+09 -1.687458e+09 6.681543e+01 3.031247e+02 -3.707719e+03
-1.673488e+09 -1.473496e+09 -1.633495e+09 -6.859077e+01 3.500852e+02 -3.877371e+03
-1.497908e+09 -1.297917e+09 -1.457916e+09 -3.268994e+02 2.372863e+02 -4.135349e+03
-1.491960e+09 -1.291969e+09 -1.451968e+09 -9.380339e+02 4.012958e+02 -5.033611e+03
-1.556758e+09 -1.356767e+09 -1.516766e+09 -3.746704e+02 2.018835e+02 -4.305627e+03
-1.552087e+09 -1.352096e+09 -1.512095e+09 -1.112319e+03 5.522889e+02 -4.272286e+03
-1.669192e+09 -1.469201e+09 -1.629199e+09 -2.132660e+02 6.368700e+01 -5.152970e+03
-1.726091e+09 -1.526100e+09 -1.686098e+09 -5.681946e+02 3.645342e+02 -5.585612e+03
-1.658365e+09 -1.458374e+09 -1.618373e+09 -1.228546e+03 6.643264e+02 -4.638251e+03
-1.551419e+09 -1.351427e+09 -1.511426e+09 -1.825778e+02 1.723326e+02 -3.660228e+03
-1.673344e+09 -1.473353e+09 -1.633352e+09 -1.420536e+02 2.493600e+02 -4.013851e+03
-1.727308e+09 -1.527316e+09 -1.687315e+09 7.845748e+00 2.215296e+02 -3.844663e+03
-1.780183e+09 -1.580191e+09 -1.740189e+09 -2.465640e+02 3.683760e+02 -4.424225e+03
-1.547393e+09 -1.347402e+09 -1.507401e+09 -4.190256e+02 3.228146e+02 -3.908403e+03
-1.669319e+09 -1.469328e+09 -1.629327e+09 -3.427405e+02 3.926636e+02 -4.297662e+03
-1.789169e+09 -1.589177e+09 -1.749175e+09 -7.651844e+02 5.872263e+02 -4.843619e+03
-1.732269e+09 -1.532278e+09 -1.692276e+09 -4.639251e+02 3.079158e+02 -4.343325e+03
-1.544751e+09 -1.344759e+09 -1.504758e+09 1.370720e+02 1.182478e+02 -2.864692e+03
-1.660091e+09 -1.460098e+09 -1.620097e+09 1.257791e+02 2.018007e+02 -2.951355e+03
-1.699244e+09 -1.499252e+09 -1.659251e+09 -3.530945e+01 2.024744e+02 -3.091088e+03
-1.752521e+09 -1.552529e+09 -1.712527e+09 -4.607516e+01 2.267862e+02 -3.248542e+03
-1.455322e+09 -1.255335e+09 -1.415332e+09 -2.827742e+03 1.927651e+03 -1.196040e+04
-1.455322e+09 -1.255335e+09 -1.415332e+09 -3.376361e+03 2.896202e+03 -1.232677e+04
-1.455321e+09 -1.255335e+09 -1.415330e+09 -8.206662e+02 8.040805e+02 -1.355848e+04
-1.589724e+09 -1.389738e+09 -1.549732e+09 -3.692446e+02 3.344639e+02 -1.395602e+04
-1.502918e+09 -1.302927e+09 -1.462927e+09 -3.636333e+03 2.129582e+03 -8.675067e+03
-1.502915e+09 -1.302927e+09 -1.462924e+09 -1.948708e+03 1.139017e+03 -1.058807e+04
-1.612148e+09 -1.412158e+09 -1.572157e+09 -2.573488e+03 1.102286e+03 -8.402843e+03
-1.698962e+09 -1.498971e+09 -1.658969e+09 -1.103279e+03 5.681704e+02 -9.762197e+03
-1.429282e+09 -1.229290e+09 -1.389289e+09 4.406508e+02 -1.028086e+02 -3.115121e+03
-1.429282e+09 -1.229290e+09 -1.389289e+09 4.497995e+02 -1.850745e+01 -3.149554e+03
-1.429282e+09 -1.229290e+09 -1.389289e+09 8.426393e+02 -1.059417e+02 -3.261983e+03
-1.521960e+09 -1.321968e+09 -1.481966e+09 1.070804e+03 -6.435214e+01 -3.550742e+03
-1.437889e+09 -1.237898e+09 -1.397897e+09 -1.319927e+02 2.072903e+02 -3.565192e+03
-1.448675e+09 -1.248683e+09 -1.408682e+09 2.325518e+02 5.584933e+01 -3.015080e+03
-1.498159e+09 -1.298167e+09 -1.458166e+09 -1.436716e+02 2.638445e+02 -3.489157e+03
-1.448673e+09 -1.248682e+09 -1.408682e+09 1.552521e+02 9.703327e+01 -3.375494e+03
-1.620085e+09 -1.420093e+09 -1.580092e+09 2.161865e+02 1.922811e+02 -3.646412e+03
-1.570600e+09 -1.370608e+09 -1.530607e+09 7.319139e+02 -9.207888e+01 -3.669025e+03
-1.448674e+09 -1.248682e+09 -1.408682e+09 6.526746e+02 -1.256571e+02 -3.500342e+03
-1.437782e+09 -1.237791e+09 -1.397790e+09 -5.001024e+02 2.576945e+02 -4.279294e+03
-1.447252e+09 -1.247262e+09 -1.407261e+09 -8.416187e+02 1.912736e+02 -4.901100e+03
-1.496631e+09 -1.296641e+09 -1.456640e+09 -5.755840e+02 2.667630e+02 -4.484113e+03
-1.447251e+09 -1.247262e+09 -1.407260e+09 -5.161292e+02 1.856612e+02 -5.062960e+03
-1.447252e+09 -1.247262e+09 -1.407260e+09 1.079281e+02 -2.998110e+02 -5.112642e+03
-1.559687e+09 -1.359697e+09 -1.519695e+09 -2.698349e+01 -1.672535e+02 -4.897988e+03
-1.609066e+09 -1.409075e+09 -1.569074e+09 7.031778e+01 -2.018687e+02 -4.684208e+03
-1.487267e+09 -1.287276e+09 -1.447275e+09 -2.156513e+02 2.201137e+02 -3.766953e+03
-1.609193e+09 -1.409202e+09 -1.569201e+09 1.200054e+02 1.499440e+02 -4.031916e+03
-1.672143e+09 -1.472152e+09 -1.632151e+09 5.962777e+01 1.345766e+02 -4.028398e+03
-1.622765e+09 -1.422773e+09 -1.582772e+09 4.437617e+02 -5.049411e+01 -4.033625e+03
-1.437781e+09 -1.237791e+09 -1.397790e+09 -2.009549e+02 1.856134e+02 -4.388379e+03
-1.550216e+09 -1.350225e+09 -1.510224e+09 2.067379e+02 -1.950932e+01 -4.566136e+03
-1.500837e+09 -1.300847e+09 -1.460845e+09 -5.715858e+01 7.649107e+01 -4.708688e+03
-1.500837e+09 -1.300847e+09 -1.460845e+09 5.529269e+02 -1.975737e+02 -4.902757e+03
-1.496236e+09 -1.296247e+09 -1.456245e+09 -1.142676e+03 7.302260e+02 -6.341542e+03
-1.610338e+09 -1.410348e+09 -1.570346e+09 -1.053578e+03 6.992136e+02 -6.469574e+03
-1.561352e+09 -1.361362e+09 -1.521361e+09 -1.291417e+03 1.017561e+03 -6.520735e+03
-1.673786e+09 -1.473797e+09 -1.633794e+09 -6.425073e+02 7.641904e+02 -7.317006e+03
-1.430843e+09 -1.230850e+09 -1.390849e+09 1.206061e+02 4.279018e+01 -1.962975e+03
-1.435131e+09 -1.235139e+09 -1.395138e+09 -6.877053e+01 1.233280e+01 -2.211085e+03
-1.430843e+09 -1.230850e+09 -1.390849e+09 -4.251005e+01 5.394694e+01 -1.934931e+03
-1.477568e+09 -1.277575e+09 -1.437575e+09 -1.022135e+02 7.712466e+00 -1.883021e+03
-1.565285e+09 -1.365292e+09 -1.525291e+09 -1.793069e+02 4.997673e+01 -1.974965e+03
-1.518559e+09 -1.318567e+09 -1.478566e+09 -2.344645e+02 2.373316e+01 -1.953286e+03
-1.430843e+09 -1.230850e+09 -1.390849e+09 -2.538697e+02 1.620565e+02 -2.072772e+03
-1.439449e+09 -1.239455e+09 -1.399455e+09 3.192222e+02 1.120348e+02 -1.842437e+03
-1.431626e+09 -1.231632e+09 -1.391632e+09 4.188764e+02 1.842001e+02 -1.598728e+03
-1.482667e+09 -1.282674e+09 -1.442673e+09 3.013180e+02 1.275775e+02 -1.617372e+03
-1.431626e+09 -1.231632e+09 -1.391632e+09 3.534168e+02 1.693185e+02 -1.585379e+03
-1.431626e+09 -1.231632e+09 -1.391632e+09 1.139570e+02 2.551289e+02 -1.688063e+03
-1.521403e+09 -1.321409e+09 -1.481409e+09 8.077629e+01 2.033497e+02 -1.691686e+03
-1.572444e+09 -1.372451e+09 -1.532450e+09 5.333484e+01 2.475337e+02 -1.739342e+03
-1.481885e+09 -1.281891e+09 -1.441891e+09 9.134324e+01 5.984275e+01 -1.753638e+03
-1.481884e+09 -1.281891e+09 -1.441891e+09 -2.652012e+02 1.622505e+02 -1.898806e+03
-1.569601e+09 -1.369608e+09 -1.529608e+09 -2.100052e+02 2.117242e+01 -1.788380e+03
-1.616943e+09 -1.416949e+09 -1.576949e+09 -1.610436e+02 1.000646e+01 -1.626061e+03
-1.439449e+09 -1.239455e+09 -1.399455e+09 1.850474e+02 1.049475e+02 -1.763649e+03
-1.439448e+09 -1.239455e+09 -1.399455e+09 -1.798876e+02 2.102289e+02 -1.872955e+03
-1.529226e+09 -1.329232e+09 -1.489232e+09 -2.732089e+01 1.831643e+02 -1.716514e+03
-1.478185e+09 -1.278191e+09 -1.438190e+09 2.149461e+01 1.423158e+02 -1.686957e+03
-1.557645e+09 -1.357645e+09 -1.517643e+09 -6.295643e+03 5.936102e+03 -9.430488e+03
-1.658220e+09 -1.458218e+09 -1.618219e+09 -6.799706e+03 6.698825e+03 -8.270652e+03
-1.792746e+09 -1.592745e+09 -1.752744e+09 -6.123042e+03 5.985993e+03 -7.515007e+03
-1.749394e+09 -1.549393e+09 -1.709392e+09 -7.128192e+03 6.372177e+03 -8.193693e+03
-1.435131e+09 -1.235139e+09 -1.395138e+09 -3.500362e+02 1.614460e+02 -2.189775e+03
-1.522849e+09 -1.322856e+09 -1.482855e+09 -1.636367e+02 1.683037e+01 -2.023506e+03
-1.476123e+09 -1.276130e+09 -1.436130e+09 -2.245760e+02 -2.490471e+01 -2.002455e+03
-1.476123e+09 -1.276130e+09 -1.436130e+09 -8.404680e+02 3.149638e+02 -2.164954e+03
-1.443494e+09 -1.243501e+09 -1.403498e+09 -5.324642e+03 3.935707e+03 -1.156383e+04
-1.446584e+09 -1.246594e+09 -1.406590e+09 -4.433695e+03 3.188373e+03 -1.089384e+04
-1.501680e+09 -1.301688e+09 -1.461684e+09 -5.319629e+03 4.289243e+03 -1.209877e+04
-1.446582e+09 -1.246593e+09 -1.406589e+09 -4.101574e+03 3.198985e+03 -1.226889e+04
-1.615196e+09 -1.415203e+09 -1.575199e+09 -4.838293e+03 3.372614e+03 -1.219508e+04
-1.560100e+09 -1.360108e+09 -1.520103e+09 -4.073839e+03 2.818395e+03 -1.232721e+04
-1.446582e+09 -1.246592e+09 -1.406589e+09 -4.151181e+03 2.966314e+03 -1.224482e+04
-1.432170e+09 -1.232176e+09 -1.392173e+09 -5.876311e+03 5.222131e+03 -1.176285e+04
-1.423616e+09 -1.223619e+09 -1.383617e+09 -6.696271e+03 6.461828e+03 -1.128731e+04
-1.467386e+09 -1.267392e+09 -1.427389e+09 -5.535686e+03 5.238639e+03 -1.175355e+04
-1.423613e+09 -1.223620e+09 -1.383614e+09 -5.705030e+03 5.494737e+03 -1.342089e+04
-1.423614e+09 -1.223620e+09 -1.383612e+09 -4.661350e+03 4.600872e+03 -1.378556e+04
-1.515384e+09 -1.315389e+09 -1.475384e+09 -4.735829e+03 4.006571e+03 -1.271244e+04
-1.559155e+09 -1.359160e+09 -1.519155e+09 -4.949688e+03 3.798906e+03 -1.222656e+04
-1.443492e+09 -1.243500e+09 -1.403496e+09 -4.477844e+03 3.680940e+03 -1.337242e+04
-1.443493e+09 -1.243501e+09 -1.403496e+09 -3.847686e+03 3.596725e+03 -1.352978e+04
-1.501912e+09 -1.301922e+09 -1.461915e+09 -2.454797e+03 2.506621e+03 -1.407456e+04
-1.557008e+09 -1.357017e+09 -1.517011e+09 -3.405411e+03 3.414929e+03 -1.393670e+04
-1.487265e+09 -1.287271e+09 -1.447267e+09 -5.512365e+03 4.946071e+03 -1.273088e+04
-1.579035e+09 -1.379041e+09 -1.539035e+09 -5.239021e+03 4.292811e+03 -1.254542e+04
-1.535265e+09 -1.335272e+09 -1.495265e+09 -5.347444e+03 5.320660e+03 -1.256934e+04
-1.648780e+09 -1.448787e+09 -1.608779e+09 -4.527783e+03 4.609150e+03 -1.336211e+04
-1.442912e+09 -1.242895e+09 -1.402910e+09 2.229352e+03 4.611287e+03 4.386903e+03
-1.442913e+09 -1.242892e+09 -1.402909e+09 2.664087e+03 4.812278e+03 4.085662e+03
-1.562112e+09 -1.362088e+09 -1.522109e+09 2.284221e+03 3.805064e+03 7.076506e+03
-1.442915e+09 -1.242891e+09 -1.402912e+09 2.140549e+03 3.441877e+03 6.721816e+03
-1.437657e+09 -1.237668e+09 -1.397667e+09 -2.242008e+03 1.420663e+03 -6.760267e+03
-1.437387e+09 -1.237397e+09 -1.397396e+09 -1.588592e+03 1.005897e+03 -5.925966e+03
-1.486645e+09 -1.286654e+09 -1.446654e+09 -2.109971e+03 1.346116e+03 -6.146962e+03
-1.437388e+09 -1.237397e+09 -1.397396e+09 -2.041293e+03 1.356586e+03 -5.944514e+03
-1.437387e+09 -1.237397e+09 -1.397395e+09 -2.238143e+03 1.618519e+03 -6.235987e+03
-1.551488e+09 -1.351498e+09 -1.511497e+09 -2.167196e+03 1.435185e+03 -6.067353e+03
-1.600745e+09 -1.400755e+09 -1.560754e+09 -2.176160e+03 1.622211e+03 -6.277219e+03
-1.430442e+09 -1.230454e+09 -1.390453e+09 -3.278824e+03 2.009016e+03 -7.727289e+03
-1.435988e+09 -1.235999e+09 -1.395999e+09 -3.998869e+03 2.744611e+03 -8.894858e+03
-1.430444e+09 -1.230453e+09 -1.390452e+09 -4.136035e+03 2.647585e+03 -7.983490e+03
-1.478034e+09 -1.278044e+09 -1.438043e+09 -4.041551e+03 2.787607e+03 -8.336522e+03
-1.587263e+09 -1.387274e+09 -1.547273e+09 -4.088829e+03 2.792702e+03 -8.541675e+03
-1.539674e+09 -1.339684e+09 -1.499683e+09 -4.043085e+03 2.435412e+03 -7.695703e+03
-1.430444e+09 -1.230454e+09 -1.390453e+09 -4.096855e+03 2.472679e+03 -7.865008e+03
-1.437659e+09 -1.237668e+09 -1.397667e+09 -3.009087e+03 2.016210e+03 -7.073577e+03
-1.551760e+09 -1.351769e+09 -1.511768e+09 -2.352541e+03 1.777694e+03 -6.291106e+03
-1.502503e+09 -1.302512e+09 -1.462511e+09 -2.490396e+03 1.532851e+03 -6.210153e+03
-1.502503e+09 -1.302511e+09 -1.462510e+09 -3.885836e+03 2.397110e+03 -7.058051e+03
-1.479701e+09 -1.279711e+09 -1.439711e+09 -3.237883e+03 1.966669e+03 -7.167633e+03
-1.674582e+09 -1.474590e+09 -1.634590e+09 -3.888953e+03 2.348587e+03 -7.348406e+03
-1.542549e+09 -1.342560e+09 -1.502559e+09 -3.267838e+03 2.068617e+03 -7.269504e+03
-1.651780e+09 -1.451790e+09 -1.611789e+09 -2.919423e+03 2.066825e+03 -7.852737e+03
-1.723839e+09 -1.523848e+09 -1.683848e+09 -2.505911e+03 1.786186e+03 -6.570672e+03
-1.493294e+09 -1.293303e+09 -1.453302e+09 -4.014138e+03 2.422472e+03 -7.544287e+03
-1.602524e+09 -1.402533e+09 -1.562532e+09 -4.029969e+03 2.423381e+03 -7.539691e+03
-1.614610e+09 -1.414618e+09 -1.574618e+09 -2.358050e+03 1.803822e+03 -6.655003e+03
-1.565352e+09 -1.365360e+09 -1.525359e+09 -3.949377e+03 2.418167e+03 -7.501942e+03
-1.423615e+09 -1.223620e+09 -1.383618e+09 -4.015237e+03 7.442915e+03 -1.359015e+04
-1.508640e+09 -1.308649e+09 -1.468642e+09 -1.750695e+03 4.346046e+03 -1.536820e+04
-1.452091e+09 -1.252094e+09 -1.412090e+09 -2.986867e+03 6.077490e+03 -1.388046e+04
-1.543860e+09 -1.343864e+09 -1.503857e+09 -3.794005e+03 5.124986e+03 -1.399335e+04
-1.508640e+09 -1.308648e+09 -1.468643e+09 -3.936445e+03 6.519203e+03 -1.485642e+04
-1.452087e+09 -1.252095e+09 -1.412088e+09 -2.280329e+03 5.477722e+03 -1.583066e+04
-1.543856e+09 -1.343863e+09 -1.503857e+09 -2.173463e+03 3.424849e+03 -1.534077e+04
-1.416871e+09 -1.216877e+09 -1.376869e+09 -4.917888e+03 7.578105e+03 -1.675290e+04
-1.416871e+09 -1.216879e+09 -1.376871e+09 -1.149695e+03 4.131038e+03 -1.621995e+04
-1.448968e+09 -1.248957e+09 -1.408969e+09 -5.680126e+02 7.608763e+03 -1.120102e+04
-1.448964e+09 -1.248945e+09 -1.408980e+09 -6.399891e+03 7.564539e+03 -1.034068e+04
-1.448961e+09 -1.248953e+09 -1.408964e+09 -3.336398e+03 4.002748e+03 -1.425124e+04
-1.567199e+09 -1.367195e+09 -1.527205e+09 -1.335008e+03 1.059450e+04 -1.640835e+04
-1.434004e+09 -1.233979e+09 -1.394001e+09 8.274165e+03 -6.111243e+03 7.933855e+03
-1.433671e+09 -1.233652e+09 -1.393664e+09 8.932427e+03 -3.963545e+03 1.789861e+03
-1.479244e+09 -1.279222e+09 -1.439241e+09 4.480896e+03 -3.712663e+03 3.369093e+03
-1.433671e+09 -1.233646e+09 -1.393660e+09 9.301532e+03 -3.002890e+02 3.618682e+03
-1.433677e+09 -1.233653e+09 -1.393670e+09 1.199039e+04 -4.639089e+03 7.017756e+03
-1.538534e+09 -1.338512e+09 -1.498528e+09 1.112719e+04 -7.267485e+03 6.734696e+03
-1.584099e+09 -1.384075e+09 -1.544098e+09 3.595589e+03 -2.746754e+03 2.283329e+03
-1.447283e+09 -1.247260e+09 -1.407289e+09 9.219997e+03 -1.412837e+04 1.069699e+04
-1.439320e+09 -1.239302e+09 -1.399339e+09 1.208070e+04 -2.301391e+04 1.531307e+04
-1.447279e+09 -1.247262e+09 -1.407290e+09 1.119801e+04 -1.598286e+04 1.328802e+04
-1.498173e+09 -1.298155e+09 -1.458186e+09 6.828953e+03 -1.867758e+04 1.099607e+04
-1.613592e+09 -1.413565e+09 -1.573603e+09 2.753709e+03 -9.078781e+03 5.179912e+03
-1.562714e+09 -1.362694e+09 -1.522727e+09 1.069482e+04 -1.823029e+04 1.074939e+04
-1.447284e+09 -1.247269e+09 -1.407302e+09 1.238847e+04 -2.003677e+04 1.565083e+04
-1.434003e+09 -1.233979e+09 -1.393999e+09 8.949788e+03 -5.953575e+03 9.081061e+03
-1.538851e+09 -1.338824e+09 -1.498846e+09 5.286155e+03 -3.221380e+02 4.992676e+03
-1.493284e+09 -1.293263e+09 -1.453278e+09 1.210553e+04 -5.734684e+03 8.305123e+03
-1.493284e+09 -1.293263e+09 -1.453281e+09 1.385776e+04 -6.990285e+03 9.585403e+03
-1.492860e+09 -1.292835e+09 -1.452862e+09 2.722009e+03 -1.083387e+04 6.438956e+03
-1.597706e+09 -1.397676e+09 -1.557706e+09 -1.865549e+03 -3.193854e+03 2.045496e+03
-1.552128e+09 -1.352115e+09 -1.512144e+09 8.190524e+02 -1.421526e+04 6.035032e+03
-1.667557e+09 -1.467535e+09 -1.627561e+09 9.578701e+02 -7.770892e+03 2.389214e+03
-1.444367e+09 -1.244361e+09 -1.404365e+09 -7.970660e+03 7.870690e+03 -6.681258e+03
-1.444368e+09 -1.244361e+09 -1.404366e+09 -7.109394e+03 6.648503e+03 -5.934837e+03
-1.499527e+09 -1.299519e+09 -1.459526e+09 -8.183303e+03 7.418218e+03 -4.423030e+03
-1.555488e+09 -1.355482e+09 -1.515486e+09 -5.881831e+03 5.924495e+03 -5.140107e+03
-1.441965e+09 -1.241989e+09 -1.402014e+09 -4.789563e+03 -4.722026e+04 7.362579e+02
-1.441879e+09 -1.241907e+09 -1.401936e+09 -1.761944e+03 -4.454054e+04 4.131612e+03
-1.441961e+09 -1.241989e+09 -1.402013e+09 4.058529e+02 -4.755017e+04 2.823668e+03
-1.495431e+09 -1.295460e+09 -1.455486e+09 -1.399216e+03 -4.382782e+04 5.399710e+03
-1.441970e+09 -1.242007e+09 -1.402025e+09 4.180084e+03 -5.503968e+04 5.685215e+03
-1.557047e+09 -1.357081e+09 -1.517099e+09 -5.337339e+03 -4.318639e+04 5.292913e+03
-1.610499e+09 -1.410504e+09 -1.570548e+09 -9.263057e+03 -3.153334e+04 3.672967e+03
-1.434453e+09 -1.234477e+09 -1.394494e+09 -9.816040e+03 -4.700585e+04 -1.114629e+03
-1.442441e+09 -1.242475e+09 -1.402487e+09 -1.432576e+04 -4.666275e+04 -5.053859e+03
-1.434455e+09 -1.234490e+09 -1.394500e+09 -1.183681e+04 -5.161667e+04 -2.156426e+03
-1.488487e+09 -1.288519e+09 -1.448530e+09 -7.721341e+03 -4.717662e+04 -4.724280e+03
-1.599308e+09 -1.399323e+09 -1.559350e+09 -1.067714e+04 -4.036460e+04 -4.378939e+03
-1.545277e+09 -1.345308e+09 -1.505325e+09 -6.030951e+03 -3.950145e+04 -1.610881e+03
-1.434458e+09 -1.234502e+09 -1.394507e+09 -1.186068e+04 -5.677739e+04 -2.804224e+03
-1.441965e+09 -1.241992e+09 -1.402015e+09 -4.879284e+03 -4.832277e+04 1.068031e+03
-1.441976e+09 -1.242024e+09 -1.402033e+09 -4.132615e+02 -6.008391e+04 4.076692e+03
-1.441973e+09 -1.242020e+09 -1.402024e+09 -6.575743e+02 -5.697384e+04 3.931027e+03
-1.557045e+09 -1.357073e+09 -1.517097e+09 -4.038722e+03 -4.083137e+04 5.249861e+03
-1.488009e+09 -1.288033e+09 -1.448050e+09 -4.784999e+03 -4.866034e+04 9.813472e+02
-1.488019e+09 -1.288062e+09 -1.448067e+09 -2.815794e+03 -5.974600e+04 1.815557e+03
-1.598837e+09 -1.398863e+09 -1.558879e+09 -3.765072e+03 -3.902971e+04 1.654177e+03
-1.667877e+09 -1.467901e+09 -1.627920e+09 -3.520132e+03 -4.041391e+04 4.027069e+03
-1.433677e+09 -1.233673e+09 -1.393703e+09 8.326877e+03 -2.782906e+04 1.444163e+04
-1.427562e+09 -1.227549e+09 -1.387584e+09 1.181035e+04 -2.381166e+04 1.687702e+04
-1.433680e+09 -1.233675e+09 -1.393704e+09 1.186070e+04 -2.793917e+04 1.543437e+04
-1.472824e+09 -1.272817e+09 -1.432847e+09 1.021101e+04 -2.712853e+04 1.740559e+04
-1.433688e+09 -1.233685e+09 -1.393716e+09 1.547787e+04 -3.434447e+04 1.932543e+04
-1.533718e+09 -1.333715e+09 -1.493742e+09 8.665198e+03 -2.452925e+04 1.605900e+04
-1.572848e+09 -1.372830e+09 -1.532872e+09 2.462256e+03 -1.730576e+04 1.483772e+04
-1.442669e+09 -1.242672e+09 -1.402711e+09 5.369332e+03 -3.892280e+04 1.472821e+04
-1.441490e+09 -1.241504e+09 -1.401547e+09 2.249704e+03 -4.357301e+04 1.030506e+04
-1.442667e+09 -1.242680e+09 -1.402713e+09 5.010881e+03 -4.140840e+04 1.625330e+04
-1.495752e+09 -1.295760e+09 -1.455802e+09 2.995565e+03 -4.345230e+04 9.095260e+03
-1.608525e+09 -1.408508e+09 -1.568567e+09 2.831692e+02 -2.509376e+04 6.731913e+03
-1.555459e+09 -1.355460e+09 -1.515504e+09 8.492235e+03 -3.352873e+04 1.315324e+04
-1.442673e+09 -1.242689e+09 -1.402723e+09 6.948078e+03 -4.655202e+04 1.864347e+04
-1.433675e+09 -1.233677e+09 -1.393706e+09 8.965602e+03 -3.022760e+04 1.483981e+04
-1.433687e+09 -1.233697e+09 -1.393722e+09 1.508956e+04 -3.951512e+04 1.984475e+04
-1.433685e+09 -1.233695e+09 -1.393713e+09 1.469422e+04 -3.797757e+04 1.955389e+04
-1.533713e+09 -1.333711e+09 -1.493738e+09 1.138956e+04 -2.306547e+04 1.828225e+04
-1.487934e+09 -1.287933e+09 -1.447972e+09 3.248130e+03 -3.820299e+04 1.035458e+04
-1.487944e+09 -1.287953e+09 -1.447985e+09 8.651874e+03 -4.617735e+04 1.420827e+04
-1.655500e+09 -1.455491e+09 -1.615533e+09 2.301193e+03 -2.916164e+04 8.361593e+03
-1.587970e+09 -1.387963e+09 -1.548004e+09 4.294915e+03 -2.872012e+04 1.265275e+04
-1.439155e+09 -1.239144e+09 -1.399153e+09 -5.414271e+03 -5.028526e+03 -5.584177e+03
-1.439156e+09 -1.239147e+09 -1.399153e+09 -5.024822e+03 -5.280894e+03 -5.374515e+03
-1.439154e+09 -1.239140e+09 -1.399152e+09 -3.390930e+03 -4.001408e+03 -5.349362e+03
-1.544750e+09 -1.344737e+09 -1.504748e+09 -3.300190e+03 -3.665686e+03 -5.339684e+03
