# vtk DataFile Version 2.0
Simplicial Mesh Example
ASCII
DATASET UNSTRUCTURED_GRID
POINTS 9196 double
3.320296e+05 -1.479713e+05 -5.000000e+04
3.230490e+05 -1.698867e+05 -2.450301e+04
3.473967e+05 -1.610091e+05 -2.499295e+04
3.230191e+05 -1.453594e+05 -2.376374e+04
3.000000e+05 -1.659466e+05 0.000000e+00
3.323841e+05 -1.500853e+05 0.000000e+00
3.000000e+05 -1.298234e+05 -5.000000e+04
3.211390e+05 -1.219510e+05 -2.456343e+04
3.000000e+05 -1.488492e+05 -2.774542e+04
3.000000e+05 -1.638587e+05 -5.000000e+04
-3.410447e+05 -3.313729e+05 -5.000000e+04
-3.562722e+05 -3.568159e+05 -2.596779e+04
-3.399470e+05 -3.173800e+05 -2.518749e+04
-3.709613e+05 -3.293268e+05 -2.460153e+04
8.320003e+04 -3.000000e+05 -2.235380e+04
1.000000e+05 -3.000000e+05 0.000000e+00
8.376766e+04 -3.323560e+05 0.000000e+00
1.022059e+05 -3.232166e+05 -2.436054e+04
9.218191e+04 -3.479439e+05 -2.506288e+04
7.450652e+04 -3.246631e+05 -2.586070e+04
8.376391e+04 -3.320935e+05 -5.000000e+04
1.000000e+05 -3.000000e+05 -5.000000e+04
6.666667e+04 -3.000000e+05 -5.000000e+04
4.909161e+04 -3.211949e+05 -2.159753e+04
-3.000000e+05 -2.284991e+05 -5.000000e+04
-3.319474e+05 -2.124896e+05 -5.000000e+04
-3.218152e+05 -2.373449e+05 -2.716838e+04
-3.186433e+05 -2.130922e+05 -3.089857e+04
3.680760e+05 -6.909438e+04 0.000000e+00
3.760404e+05 -8.535114e+04 -2.432411e+04
3.481610e+05 -6.095230e+04 -2.499963e+04
3.758419e+05 -5.047205e+04 -2.434620e+04
-3.000000e+05 -2.326501e+05 0.000000e+00
-3.000000e+05 -2.125115e+05 -2.265069e+04
-3.000000e+05 -1.989752e+05 0.000000e+00
-3.227151e+05 -1.919352e+05 -2.817559e+04
-3.324295e+05 -2.170264e+05 0.000000e+00
-2.490803e+05 -3.000000e+05 -2.221961e+04
-2.515393e+05 -3.324613e+05 0.000000e+00
-2.666667e+05 -3.000000e+05 0.000000e+00
-2.738346e+05 -3.252416e+05 -2.491374e+04
3.676956e+05 -6.866168e+04 -5.000000e+04
4.000000e+05 -8.695652e+04 -5.000000e+04
4.000000e+05 -5.217391e+04 -5.000000e+04
4.000000e+05 -6.957979e+04 -2.232138e+04
-2.333333e+05 -3.000000e+05 -5.000000e+04
-2.666667e+05 -3.000000e+05 -5.000000e+04
-2.512538e+05 -3.321783e+05 -5.000000e+04
-2.508504e+05 -3.238766e+05 -2.894778e+04
-2.288410e+05 -3.237531e+05 -2.554757e+04
-2.332968e+05 -3.501801e+05 -2.524712e+04
-1.499969e+05 -3.000000e+05 -2.764283e+04
-1.666667e+05 -3.000000e+05 0.000000e+00
-1.716166e+05 -3.233333e+05 -2.542063e+04
-1.478789e+05 -3.226382e+05 -2.533861e+04
-1.507909e+05 -3.323848e+05 0.000000e+00
-1.630826e+05 -3.498393e+05 -2.503121e+04
-1.507405e+05 -3.321164e+05 -5.000000e+04
-1.194653e+05 -3.220088e+05 -2.222167e+04
-1.333333e+05 -3.000000e+05 -5.000000e+04
-1.666667e+05 -3.000000e+05 -5.000000e+04
-1.043477e+05 4.000000e+05 -2.232281e+04
-1.038755e+05 3.680862e+05 0.000000e+00
-1.217391e+05 4.000000e+05 0.000000e+00
-1.224620e+05 3.788441e+05 -2.436654e+04
-1.217391e+05 4.000000e+05 -5.000000e+04
-9.211340e+04 3.779330e+05 -2.656844e+04
-6.923876e+04 -3.678233e+05 -5.000000e+04
-8.695652e+04 -4.000000e+05 -5.000000e+04
-5.217391e+04 -4.000000e+05 -5.000000e+04
-6.956714e+04 -4.000000e+05 -2.232106e+04
-1.249943e+05 3.519836e+05 -2.486759e+04
-1.038072e+05 3.678091e+05 -5.000000e+04
-1.739130e+04 -4.000000e+05 -5.000000e+04
-3.460350e+04 -3.678269e+05 -5.000000e+04
-3.478387e+04 -4.000000e+05 -2.232106e+04
-1.651509e+04 -3.754742e+05 -2.442335e+04
-8.376345e+04 3.320934e+05 -5.000000e+04
-1.000000e+05 3.000000e+05 -5.000000e+04
-8.343627e+04 3.000000e+05 -2.764981e+04
-1.026187e+05 3.239050e+05 -2.445309e+04
-6.666667e+04 3.000000e+05 -5.000000e+04
-5.147032e+04 3.217565e+05 -2.303829e+04
4.000000e+05 3.304348e+05 -5.000000e+04
4.000000e+05 3.130499e+05 -2.232112e+04
4.000000e+05 3.478935e+05 -2.235349e+04
3.674886e+05 3.295924e+05 -2.467361e+04
-6.033593e+04 3.477011e+05 -2.439908e+04
-7.701272e+04 3.234532e+05 -1.862781e+04
-8.379954e+04 3.323534e+05 0.000000e+00
-9.028036e+04 3.505284e+05 -2.483995e+04
3.000000e+05 -8.185378e+04 -2.769067e+04
3.000000e+05 -6.540655e+04 0.000000e+00
3.219834e+05 -9.262369e+04 -2.356665e+04
3.212381e+05 -6.353317e+04 -2.568389e+04
3.320030e+05 -7.972620e+04 -5.000000e+04
3.000000e+05 -4.823862e+04 -2.768751e+04
3.000000e+05 -6.175270e+04 -5.000000e+04
3.319980e+05 -4.560520e+04 -5.000000e+04
1.000000e+05 3.000000e+05 0.000000e+00
1.285319e+05 3.220153e+05 -2.330358e+04
1.166485e+05 3.000000e+05 -2.764255e+04
9.924408e+04 3.212454e+05 -2.557582e+04
1.172876e+05 3.321041e+05 -5.000000e+04
1.000000e+05 3.000000e+05 -5.000000e+04
1.172617e+05 3.323725e+05 0.000000e+00
1.739130e+04 -4.000000e+05 -5.000000e+04
3.478141e+04 -4.000000e+05 -2.232106e+04
3.460470e+04 -3.678270e+05 -5.000000e+04
1.646691e+04 -3.753828e+05 -2.432691e+04
9.656745e+04 3.481700e+05 -2.494853e+04
3.680819e+05 1.387484e+05 0.000000e+00
3.789347e+05 1.274418e+05 -2.657151e+04
3.531101e+05 1.597755e+05 -2.518599e+04
3.792098e+05 1.574583e+05 -2.441774e+04
4.000000e+05 1.565217e+05 0.000000e+00
4.000000e+05 1.391303e+05 -2.231930e+04
6.857177e+00 3.678309e+05 -5.000000e+04
1.673721e+04 3.320840e+05 -5.000000e+04
3.460423e+04 3.678269e+05 -5.000000e+04
2.880282e+04 3.508021e+05 -2.489257e+04
-3.461370e+04 -3.681008e+05 0.000000e+00
-1.739130e+04 -4.000000e+05 0.000000e+00
-1.676283e+04 3.320851e+05 -5.000000e+04
1.537478e+03 3.361402e+05 -2.528450e+04
3.679848e+05 1.390962e+05 -5.000000e+04
-4.999978e+04 -3.000000e+05 -2.235748e+04
-1.678469e+04 -3.000000e+05 -2.764887e+04
-1.676668e+04 -3.323444e+05 0.000000e+00
-5.499684e+04 -3.228669e+05 -2.776930e+04
4.000000e+05 1.565217e+05 -5.000000e+04
3.676239e+05 -2.421373e+05 -5.000000e+04
4.000000e+05 -2.434785e+05 -2.767896e+04
3.747803e+05 -2.281317e+05 -2.552755e+04
3.782485e+05 -2.607848e+05 -2.580555e+04
-3.128530e+05 -3.661813e+05 -5.000000e+04
-2.847026e+05 -3.321560e+05 -5.000000e+04
-3.161470e+05 -3.277621e+05 -5.000000e+04
-3.120399e+05 -3.401367e+05 -2.465985e+04
3.512666e+05 -2.655302e+05 -2.501422e+04
3.679951e+05 -2.423193e+05 0.000000e+00
4.000000e+05 -2.608696e+05 0.000000e+00
-1.455192e-10 3.000000e+05 -5.000000e+04
-1.665884e+04 3.000000e+05 -2.764283e+04
1.678621e+04 3.000000e+05 -2.764891e+04
3.000000e+05 -2.490234e+05 -2.248769e+04
3.324577e+05 -2.511100e+05 0.000000e+00
3.238293e+05 -2.640014e+05 -2.441041e+04
3.212088e+05 -2.325011e+05 -2.423874e+04
3.320637e+05 -2.503757e+05 -5.000000e+04
3.463683e+05 -2.303855e+05 -2.500317e+04
-3.698054e+05 -3.472763e+05 0.000000e+00
-3.663396e+05 -3.129808e+05 0.000000e+00
-3.315797e+05 -3.410949e+05 0.000000e+00
3.000000e+05 -2.319293e+05 -5.000000e+04
1.730839e+05 3.678997e+05 -5.000000e+04
1.571942e+05 3.749461e+05 -2.554585e+04
1.947972e+05 3.532715e+05 -2.489915e+04
1.912984e+05 3.786912e+05 -2.581857e+04
1.913043e+05 4.000000e+05 -5.000000e+04
1.739026e+05 4.000000e+05 -2.767885e+04
3.704421e+05 3.503181e+05 -5.000000e+04
-3.674293e+05 -2.066073e+05 -5.000000e+04
-3.494471e+05 -2.292202e+05 -2.526698e+04
-3.497009e+05 -1.977915e+05 -2.539897e+04
1.731007e+05 3.680556e+05 0.000000e+00
1.913043e+05 4.000000e+05 0.000000e+00
4.000000e+05 2.956522e+05 0.000000e+00
4.000000e+05 2.782599e+05 -2.232106e+04
3.700232e+05 2.952130e+05 -2.459328e+04
-2.177434e+05 -3.321524e+05 -5.000000e+04
-2.166738e+05 -3.000000e+05 -2.767207e+04
-2.002275e+05 -3.215730e+05 -2.585451e+04
-1.985707e+05 -3.482959e+05 -2.510962e+04
-2.179099e+05 -3.324288e+05 0.000000e+00
-2.000000e+05 -3.000000e+05 0.000000e+00
-4.000000e+05 -1.739130e+04 -5.000000e+04
-4.000000e+05 1.362271e+00 -2.232106e+04
-4.000000e+05 -3.478139e+04 -2.232106e+04
-3.764375e+05 -1.615686e+04 -2.441389e+04
-1.172644e+05 3.321057e+05 -5.000000e+04
-1.165333e+05 3.000000e+05 -2.235380e+04
-1.172626e+05 3.323723e+05 0.000000e+00
-1.351151e+05 3.242796e+05 -2.432698e+04
-1.000000e+05 3.000000e+05 0.000000e+00
3.000000e+05 -1.154172e+05 -2.769106e+04
3.000000e+05 -9.891990e+04 0.000000e+00
3.323674e+05 -1.164140e+05 0.000000e+00
3.494970e+05 -9.661460e+04 -2.478315e+04
3.320115e+05 -1.138445e+05 -5.000000e+04
3.000000e+05 -9.578803e+04 -5.000000e+04
-3.683842e+05 -3.117444e+05 -5.000000e+04
-3.704229e+05 -3.502942e+05 -5.000000e+04
-3.000000e+05 -1.676695e+04 -5.000000e+04
-3.000000e+05 -3.162526e+04 0.000000e+00
-3.000000e+05 1.537267e+03 0.000000e+00
-3.215156e+05 -1.436666e+04 -2.547447e+04
-2.627419e+05 -3.499829e+05 -2.513924e+04
-3.324526e+05 -2.845988e+05 0.000000e+00
-3.280582e+05 -3.160567e+05 0.000000e+00
-2.333333e+05 -3.000000e+05 0.000000e+00
-1.731007e+05 -3.680556e+05 0.000000e+00
-1.545447e+05 -3.761882e+05 -2.496605e+04
-1.738957e+05 -4.000000e+05 -2.758994e+04
-1.892592e+05 -3.758330e+05 -2.503546e+04
-2.077253e+05 -3.680332e+05 0.000000e+00
-2.238681e+05 -3.761511e+05 -2.500739e+04
-1.913043e+05 -4.000000e+05 -5.000000e+04
-2.086560e+05 -4.000000e+05 -2.240978e+04
-1.730589e+05 -3.677722e+05 -5.000000e+04
6.957979e+04 4.000000e+05 -2.232138e+04
5.217391e+04 4.000000e+05 0.000000e+00
3.478536e+04 4.000000e+05 -2.232108e+04
5.076709e+04 3.763881e+05 -2.432357e+04
5.217391e+04 4.000000e+05 -5.000000e+04
1.674987e+04 3.323474e+05 0.000000e+00
3.500461e+04 3.242904e+05 -2.486949e+04
3.461320e+04 3.681000e+05 0.000000e+00
4.999984e+04 3.000000e+05 -2.235747e+04
3.333333e+04 3.000000e+05 0.000000e+00
1.624297e+04 3.760050e+05 -2.438535e+04
-3.680268e+05 2.424010e+05 0.000000e+00
-3.501061e+05 2.289790e+05 -2.510660e+04
-3.680500e+05 2.077851e+05 0.000000e+00
-3.762767e+05 2.231686e+05 -2.569080e+04
6.044606e+04 3.500124e+05 -2.491520e+04
-1.731195e+05 3.680519e+05 0.000000e+00
-1.545405e+05 3.762789e+05 -2.429555e+04
-1.611352e+05 3.500581e+05 -2.482426e+04
-1.910310e+05 3.748826e+05 -2.441742e+04
-1.384382e+05 3.677954e+05 -5.000000e+04
-4.000000e+05 2.260870e+05 0.000000e+00
-4.000000e+05 2.086964e+05 -2.767894e+04
-1.565217e+05 4.000000e+05 -5.000000e+04
-1.391303e+05 4.000000e+05 -2.231930e+04
-1.739120e+05 4.000000e+05 -2.232105e+04
-2.883046e+05 -3.320639e+05 0.000000e+00
-3.323717e+05 -1.156481e+05 0.000000e+00
-3.489067e+05 -1.010526e+05 -2.439261e+04
-3.250615e+05 -9.110468e+04 -2.328549e+04
-3.294786e+05 -1.230635e+05 -2.464286e+04
-3.323844e+05 -1.494568e+05 0.000000e+00
-3.251662e+05 -1.633665e+05 -2.029037e+04
-3.493991e+05 -1.624016e+05 -2.470273e+04
-3.321718e+05 -1.418788e+05 -5.000000e+04
-3.535719e+05 -1.283076e+05 -2.471630e+04
-3.323741e+05 -4.867882e+04 0.000000e+00
-3.507639e+05 -2.517161e+04 -2.606585e+04
-3.447307e+05 -6.638987e+04 -2.623303e+04
-3.715224e+05 -5.077856e+04 -2.457192e+04
-2.789348e+05 -3.000000e+05 -2.516856e+04
-3.117835e+05 -3.117170e+05 -2.490518e+04
3.680861e+05 1.041109e+05 0.000000e+00
4.000000e+05 1.217391e+05 0.000000e+00
4.000000e+05 1.043477e+05 -2.232281e+04
-3.000000e+05 -4.500521e+04 -2.807319e+04
-3.312611e+05 -3.126792e+04 -5.000000e+04
3.681214e+05 1.733599e+05 0.000000e+00
3.679731e+05 1.735700e+05 -5.000000e+04
-4.000000e+05 2.608696e+05 0.000000e+00
-4.000000e+05 2.434785e+05 -2.767896e+04
-3.761850e+05 2.579568e+05 -2.567278e+04
3.679758e+05 1.045869e+05 -5.000000e+04
3.542163e+05 1.255098e+05 -2.318739e+04
3.780932e+05 9.342279e+04 -2.671696e+04
1.731179e+05 -3.680539e+05 0.000000e+00
1.590065e+05 -3.755910e+05 -2.431570e+04
1.921834e+05 -3.514106e+05 -2.482512e+04
1.937411e+05 -3.768166e+05 -2.430761e+04
2.077389e+05 -3.680332e+05 0.000000e+00
2.249631e+05 -3.503403e+05 -2.482026e+04
2.280611e+05 -3.764668e+05 -2.428637e+04
2.077249e+05 -3.678896e+05 -5.000000e+04
-3.699376e+05 -3.483507e+04 -5.000000e+04
-4.000000e+05 -5.217391e+04 -5.000000e+04
3.324653e+05 -2.846969e+05 0.000000e+00
3.471939e+05 -3.015214e+05 -2.502024e+04
3.280142e+05 -3.160947e+05 0.000000e+00
3.230773e+05 -2.953671e+05 -2.471242e+04
2.260870e+05 -4.000000e+05 0.000000e+00
2.086945e+05 -4.000000e+05 -2.232106e+04
2.333333e+05 -3.000000e+05 0.000000e+00
2.515884e+05 -3.324527e+05 0.000000e+00
2.178294e+05 -3.324303e+05 0.000000e+00
2.354343e+05 -3.240295e+05 -2.430907e+04
2.260870e+05 -4.000000e+05 -5.000000e+04
-2.260870e+05 4.000000e+05 -5.000000e+04
-2.076192e+05 3.677470e+05 -5.000000e+04
-2.086945e+05 4.000000e+05 -2.232106e+04
-2.257532e+05 3.773261e+05 -2.432666e+04
1.833235e+05 -3.000000e+05 -2.235694e+04
1.666667e+05 -3.000000e+05 0.000000e+00
1.507941e+05 -3.323846e+05 0.000000e+00
1.843081e+05 -3.324053e+05 0.000000e+00
-2.247510e+05 3.506342e+05 -2.483671e+04
-2.077411e+05 3.680376e+05 0.000000e+00
-2.260870e+05 4.000000e+05 0.000000e+00
-3.323592e+05 1.803079e+04 0.000000e+00
-3.323564e+05 -1.534688e+04 0.000000e+00
-3.681082e+05 1.584064e+02 0.000000e+00
-3.499222e+05 9.638674e+03 -2.484513e+04
-2.423250e+05 3.677158e+05 -5.000000e+04
-2.591693e+05 3.567428e+05 -2.484547e+04
3.323394e+05 1.192487e+05 0.000000e+00
3.492097e+05 9.367534e+04 -2.451329e+04
3.233561e+05 9.668107e+04 -2.095070e+04
3.283039e+05 1.308820e+05 -1.528225e+04
3.323858e+05 1.225850e+05 -5.000000e+04
3.000000e+05 1.021602e+05 0.000000e+00
-3.323756e+05 1.180902e+05 0.000000e+00
-3.503100e+05 1.247204e+05 -2.485119e+04
-3.323866e+05 1.514636e+05 0.000000e+00
-3.238339e+05 1.306448e+05 -2.452175e+04
-4.000000e+05 -1.217391e+05 0.000000e+00
-3.680643e+05 -1.036683e+05 0.000000e+00
-3.680322e+05 -1.383008e+05 0.000000e+00
-3.773165e+05 -1.197244e+05 -2.420089e+04
-3.699370e+05 -1.043474e+05 -5.000000e+04
-4.000000e+05 -1.217391e+05 -5.000000e+04
-3.674150e+05 -1.372841e+05 -5.000000e+04
-3.715920e+05 -8.556254e+04 -2.440160e+04
-4.000000e+05 -1.043477e+05 -2.232281e+04
-3.762678e+05 -1.541489e+05 -2.427729e+04
-3.324359e+05 1.785952e+05 -5.000000e+04
-3.237573e+05 2.000894e+05 -2.512409e+04
-3.501261e+05 1.944142e+05 -2.511071e+04
-3.239067e+05 1.650476e+05 -2.444106e+04
3.321875e+05 -2.161325e+05 -5.000000e+04
3.511920e+05 -1.938369e+05 -2.495695e+04
3.320469e+05 -1.820848e+05 -5.000000e+04
3.239752e+05 -2.010392e+05 -2.433316e+04
-3.000000e+05 1.780292e+05 -2.268827e+04
-3.000000e+05 1.944110e+05 -5.000000e+04
-3.000000e+05 1.423985e+05 -2.254379e+04
-3.000000e+05 1.592147e+05 -5.000000e+04
-3.324506e+05 1.434761e+05 -5.000000e+04
2.594116e+05 -3.508692e+05 -2.486125e+04
-3.502296e+05 1.597583e+05 -2.502195e+04
1.333333e+05 3.000000e+05 0.000000e+00
1.499967e+05 3.000000e+05 -2.764283e+04
1.613539e+05 3.216644e+05 -2.321070e+04
1.507909e+05 3.323848e+05 0.000000e+00
1.320399e+05 3.492346e+05 -2.480488e+04
1.507840e+05 3.322475e+05 -5.000000e+04
1.333333e+05 3.000000e+05 -5.000000e+04
-3.324024e+05 -1.833258e+05 0.000000e+00
-1.038414e+05 -3.678096e+05 -5.000000e+04
-8.534369e+04 -3.758700e+05 -2.429891e+04
-9.465254e+04 -3.474012e+05 -2.463900e+04
-1.199906e+05 -3.760737e+05 -2.431669e+04
-1.384781e+05 -3.680720e+05 0.000000e+00
-1.392358e+05 -4.000000e+05 -2.236131e+04
-1.038578e+05 -3.680873e+05 0.000000e+00
-1.301767e+05 -3.497555e+05 -2.467841e+04
-1.043576e+05 -4.000000e+05 -2.231937e+04
-1.217391e+05 -4.000000e+05 0.000000e+00
2.422782e+05 -3.677182e+05 -5.000000e+04
2.178587e+05 -3.321663e+05 -5.000000e+04
1.384965e+05 -3.680708e+05 0.000000e+00
1.565217e+05 -4.000000e+05 0.000000e+00
1.391303e+05 -4.000000e+05 -2.231930e+04
1.245671e+05 -3.763617e+05 -2.445221e+04
1.577684e+05 -3.458215e+05 -2.481822e+04
-3.322711e+05 2.135664e+05 -5.000000e+04
-3.678157e+05 2.070248e+05 -5.000000e+04
1.384711e+05 -3.677967e+05 -5.000000e+04
1.565217e+05 -4.000000e+05 -5.000000e+04
1.729917e+05 -3.679133e+05 -5.000000e+04
-4.000000e+05 1.739026e+05 -2.767885e+04
-4.000000e+05 1.565217e+05 0.000000e+00
-4.000000e+05 1.390093e+05 -2.763094e+04
-3.763249e+05 1.536796e+05 -2.567657e+04
-3.678240e+05 1.721958e+05 -5.000000e+04
-4.000000e+05 1.565217e+05 -5.000000e+04
-3.678127e+05 1.373449e+05 -5.000000e+04
-3.680901e+05 1.385746e+05 0.000000e+00
-3.762230e+05 1.189521e+05 -2.495058e+04
1.217391e+05 -4.000000e+05 -5.000000e+04
1.038118e+05 -3.678090e+05 -5.000000e+04
8.989897e+04 -3.761815e+05 -2.599342e+04
1.043477e+05 -4.000000e+05 -2.232281e+04
1.227640e+05 -3.494292e+05 -2.487453e+04
1.038746e+05 -3.680839e+05 0.000000e+00
1.217391e+05 -4.000000e+05 0.000000e+00
1.674277e+04 -3.323442e+05 0.000000e+00
3.463000e+04 -3.680990e+05 0.000000e+00
7.744455e+00 -3.681012e+05 0.000000e+00
2.894128e+04 -3.476093e+05 -2.453581e+04
-4.000000e+05 -1.391303e+05 -2.231930e+04
-4.000000e+05 -1.565217e+05 -5.000000e+04
-3.674551e+05 -1.718549e+05 -5.000000e+04
-4.000000e+05 -1.739120e+05 -2.232105e+04
-4.000000e+05 -1.565217e+05 0.000000e+00
-3.680143e+05 -1.729566e+05 0.000000e+00
1.739130e+04 4.000000e+05 0.000000e+00
1.362271e+00 4.000000e+05 -2.232106e+04
-1.676146e+04 3.753089e+05 -2.433371e+04
1.739130e+04 4.000000e+05 -5.000000e+04
3.325804e+05 1.861647e+05 0.000000e+00
3.503729e+05 1.965396e+05 -2.495717e+04
3.263981e+05 1.637456e+05 -2.756290e+04
3.000000e+05 1.829512e+05 -2.715993e+04
3.238781e+05 2.033175e+05 -2.558966e+04
3.323849e+05 1.551193e+05 -5.000000e+04
3.000000e+05 1.710792e+05 -5.000000e+04
3.000000e+05 1.388490e+05 -5.000000e+04
3.323963e+05 1.876480e+05 -5.000000e+04
-3.283254e+05 -6.941844e+04 -5.000000e+04
-3.218137e+05 -6.326416e+04 -2.003260e+04
5.026435e+04 -3.320894e+05 -5.000000e+04
5.010263e+04 -3.000000e+05 -2.764981e+04
-3.323820e+05 -8.213181e+04 0.000000e+00
-3.000000e+05 1.240184e+05 -5.000000e+04
-3.324516e+05 1.083255e+05 -5.000000e+04
-3.000000e+05 8.882203e+04 -5.000000e+04
-3.233020e+05 9.822691e+04 -2.682725e+04
-3.000000e+05 1.010248e+05 0.000000e+00
-3.323572e+05 8.476518e+04 0.000000e+00
-3.321230e+05 2.488342e+05 -5.000000e+04
-3.237270e+05 2.697227e+05 -2.427586e+04
-3.499119e+05 2.637136e+05 -2.497206e+04
-3.240139e+05 2.346234e+05 -2.504356e+04
-3.322040e+05 2.835976e+05 -5.000000e+04
-3.133980e+05 3.113905e+05 -2.511436e+04
-3.487618e+05 2.980619e+05 -2.525585e+04
-3.000000e+05 2.823494e+05 -2.286031e+04
-3.320733e+05 2.883554e+05 0.000000e+00
-5.068809e+04 -3.766011e+05 -2.436488e+04
-6.923637e+04 -3.680930e+05 0.000000e+00
-5.217391e+04 -4.000000e+05 0.000000e+00
-2.960819e+04 -3.480955e+05 -2.514930e+04
-6.057399e+04 -3.516746e+05 -2.518176e+04
3.680896e+05 6.946960e+04 0.000000e+00
4.000000e+05 6.956410e+04 -2.232106e+04
4.000000e+05 5.217391e+04 0.000000e+00
3.778196e+05 5.859678e+04 -2.658269e+04
3.678447e+05 7.006155e+04 -5.000000e+04
4.000000e+05 8.695652e+04 -5.000000e+04
4.000000e+05 8.695652e+04 0.000000e+00
1.739130e+04 -4.000000e+05 0.000000e+00
-1.208557e+00 -4.000000e+05 -2.232106e+04
2.165659e+05 -3.000000e+05 -2.235602e+04
2.000000e+05 -3.000000e+05 0.000000e+00
2.040081e+05 -3.239700e+05 -2.438171e+04
2.000000e+05 -3.000000e+05 -5.000000e+04
-2.000000e+05 3.000000e+05 0.000000e+00
-2.177787e+05 3.324359e+05 0.000000e+00
-1.843648e+05 3.324029e+05 0.000000e+00
-2.020740e+05 3.233539e+05 -2.430331e+04
-3.681034e+05 -3.444502e+04 0.000000e+00
-2.354124e+05 3.243590e+05 -2.435018e+04
-3.659266e+05 -2.927995e+05 -2.460185e+04
-3.493719e+05 -2.608610e+05 -2.515913e+04
-3.250266e+05 -2.720343e+05 -2.511175e+04
-2.178179e+05 3.321595e+05 -5.000000e+04
-1.932232e+05 3.477370e+05 -2.478718e+04
-2.165659e+05 3.000000e+05 -2.235602e+04
-1.842705e+05 3.321319e+05 -5.000000e+04
-2.000000e+05 3.000000e+05 -5.000000e+04
-1.833231e+05 3.000000e+05 -2.235694e+04
3.680524e+05 -1.383766e+05 0.000000e+00
4.000000e+05 -1.390093e+05 -2.763094e+04
4.000000e+05 -1.565217e+05 0.000000e+00
3.738336e+05 -1.640422e+05 -2.568353e+04
3.676656e+05 -1.379454e+05 -5.000000e+04
3.497742e+05 -1.295958e+05 -2.490070e+04
4.000000e+05 -1.739026e+05 -2.767885e+04
3.680364e+05 -1.730173e+05 0.000000e+00
4.000000e+05 -1.565217e+05 -5.000000e+04
5.217391e+04 -4.000000e+05 -5.000000e+04
5.103685e+04 -3.761483e+05 -2.433112e+04
6.925236e+04 -3.680933e+05 0.000000e+00
5.217391e+04 -4.000000e+05 0.000000e+00
6.097771e+04 -3.498672e+05 -2.491189e+04
2.517054e+05 -3.321795e+05 -5.000000e+04
2.492201e+05 -3.000000e+05 -2.223204e+04
2.694196e+05 -3.245456e+05 -2.468699e+04
3.323341e+05 8.558297e+04 0.000000e+00
3.227600e+05 7.100118e+04 -2.700122e+04
3.000000e+05 5.599414e+04 -2.229711e+04
3.322706e+05 3.642439e+04 -2.462118e+04
3.319747e+05 5.662831e+04 -5.000000e+04
3.000000e+05 8.469062e+04 -2.741458e+04
3.000000e+05 6.864685e+04 0.000000e+00
2.789500e+05 3.000000e+05 -2.482908e+04
2.492185e+05 3.000000e+05 -2.777191e+04
2.666667e+05 3.000000e+05 0.000000e+00
2.719602e+05 3.240499e+05 -2.492981e+04
2.512541e+05 3.321782e+05 -5.000000e+04
2.666667e+05 3.000000e+05 -5.000000e+04
2.846999e+05 3.321568e+05 -5.000000e+04
2.679531e+05 3.496532e+05 -2.425198e+04
2.515361e+05 3.324615e+05 0.000000e+00
1.384766e+05 3.678066e+05 -5.000000e+04
1.565217e+05 4.000000e+05 -5.000000e+04
1.390093e+05 4.000000e+05 -2.763094e+04
1.565217e+05 4.000000e+05 0.000000e+00
1.384781e+05 3.680720e+05 0.000000e+00
1.646956e+05 3.475355e+05 -2.484826e+04
3.000000e+05 -2.659647e+05 -5.000000e+04
3.000000e+05 -2.830545e+05 -2.279782e+04
3.320365e+05 -2.842315e+05 -5.000000e+04
3.000000e+05 -2.329733e+05 0.000000e+00
3.324280e+05 -2.174304e+05 0.000000e+00
3.000000e+05 2.018902e+05 0.000000e+00
3.326080e+05 2.191835e+05 0.000000e+00
3.324118e+05 2.202420e+05 -5.000000e+04
3.000000e+05 2.181861e+05 -2.776808e+04
3.000000e+05 2.033094e+05 -5.000000e+04
2.769794e+05 3.676731e+05 -5.000000e+04
2.995283e+05 3.535940e+05 -2.774146e+04
2.956522e+05 4.000000e+05 -5.000000e+04
2.679982e+05 3.761038e+05 -2.827783e+04
-4.000000e+05 -2.260870e+05 0.000000e+00
-3.680029e+05 -2.076147e+05 0.000000e+00
-3.679763e+05 -2.422690e+05 0.000000e+00
-3.761060e+05 -2.231915e+05 -2.438802e+04
-3.760815e+05 -1.887885e+05 -2.437679e+04
-4.000000e+05 -2.086945e+05 -2.232106e+04
-4.000000e+05 -2.260870e+05 -5.000000e+04
-4.000000e+05 -2.434771e+05 -2.232106e+04
1.172667e+05 -3.321072e+05 -5.000000e+04
1.166553e+05 -3.000000e+05 -2.235713e+04
3.680656e+05 -1.037356e+05 0.000000e+00
4.000000e+05 -1.044411e+05 -2.235722e+04
3.761296e+05 -1.203726e+05 -2.496304e+04
4.000000e+05 -1.217391e+05 -5.000000e+04
4.000000e+05 -1.217391e+05 0.000000e+00
6.666667e+04 -3.000000e+05 0.000000e+00
5.025498e+04 -3.323480e+05 0.000000e+00
3.333333e+04 -3.000000e+05 0.000000e+00
2.423612e+05 -3.680038e+05 0.000000e+00
2.609781e+05 -3.774227e+05 -2.431448e+04
2.434771e+05 -4.000000e+05 -2.232106e+04
3.000000e+05 2.208180e+04 -2.263338e+04
3.000000e+05 4.035329e+04 -5.000000e+04
2.608696e+05 -4.000000e+05 0.000000e+00
2.608696e+05 -4.000000e+05 -5.000000e+04
-4.000000e+05 2.608696e+05 -5.000000e+04
-4.000000e+05 2.782520e+05 -2.767911e+04
-3.678653e+05 2.770869e+05 0.000000e+00
-3.675472e+05 2.418345e+05 -5.000000e+04
2.770113e+05 -3.678523e+05 0.000000e+00
2.990547e+05 -3.557935e+05 -2.482263e+04
2.769653e+05 -3.676200e+05 -5.000000e+04
2.782599e+05 -4.000000e+05 -2.232106e+04
-3.674166e+05 -1.849439e+03 -5.000000e+04
-3.761718e+05 1.851347e+04 -2.429879e+04
-4.000000e+05 -1.739130e+04 0.000000e+00
4.000000e+05 -8.695652e+04 0.000000e+00
-3.000000e+05 1.086860e+05 -2.215615e+04
-3.509091e+05 8.515295e+04 -2.410316e+04
-3.000000e+05 8.137578e+04 -2.801972e+04
-3.321712e+05 7.306662e+04 -5.000000e+04
-3.000000e+05 1.341874e+05 0.000000e+00
-6.666667e+04 3.000000e+05 0.000000e+00
-5.025707e+04 3.323515e+05 0.000000e+00
-3.000000e+05 2.152102e+05 -2.772961e+04
-3.000000e+05 2.005124e+05 0.000000e+00
-3.000000e+05 2.336749e+05 0.000000e+00
-3.324312e+05 2.182807e+05 0.000000e+00
-3.333333e+04 3.000000e+05 0.000000e+00
-5.026427e+04 3.320896e+05 -5.000000e+04
-2.897358e+04 3.474711e+05 -2.463066e+04
-5.001574e+04 3.000000e+05 -2.764258e+04
4.000000e+05 -3.304348e+05 -5.000000e+04
3.696852e+05 -3.469675e+05 -5.000000e+04
4.000000e+05 -3.652174e+05 -5.000000e+04
3.777847e+05 -3.413064e+05 -2.627807e+04
3.661946e+05 -3.127901e+05 -5.000000e+04
3.663474e+05 -3.132902e+05 0.000000e+00
3.461527e+05 -3.388059e+05 -2.491601e+04
4.000000e+05 -3.304348e+05 0.000000e+00
4.000000e+05 -3.129524e+05 -2.768053e+04
3.503160e+05 -3.704280e+05 -5.000000e+04
3.727510e+05 -3.742247e+05 -2.442896e+04
3.694761e+05 -3.502454e+05 0.000000e+00
4.000000e+05 -3.652174e+05 0.000000e+00
4.000000e+05 -3.471153e+05 -2.775934e+04
3.000000e+05 -1.324332e+05 0.000000e+00
-8.321226e+04 -3.000000e+05 -2.764622e+04
-6.666667e+04 -3.000000e+05 0.000000e+00
-8.379869e+04 -3.323535e+05 0.000000e+00
-8.373929e+04 -3.320940e+05 -5.000000e+04
-6.666667e+04 -3.000000e+05 -5.000000e+04
-3.333333e+04 -3.000000e+05 -5.000000e+04
-3.333333e+04 -3.000000e+05 0.000000e+00
-5.025687e+04 -3.323516e+05 0.000000e+00
-1.687162e+05 3.237281e+05 -2.429760e+04
-1.507685e+05 3.321206e+05 -5.000000e+04
-1.666667e+05 3.000000e+05 -5.000000e+04
-1.499876e+05 3.000000e+05 -2.235711e+04
3.000000e+05 -1.401640e+04 -2.758025e+04
3.238500e+05 1.918295e+03 -2.504954e+04
3.323395e+05 -1.540013e+04 0.000000e+00
3.237441e+05 -3.221080e+04 -2.567385e+04
3.319790e+05 2.259202e+04 -5.000000e+04
3.501319e+05 7.681204e+03 -2.481192e+04
3.323331e+05 1.824617e+04 0.000000e+00
3.000000e+05 1.620150e+03 0.000000e+00
3.000000e+05 6.317960e+03 -5.000000e+04
3.319836e+05 -1.148350e+04 -5.000000e+04
-4.000000e+05 2.260870e+05 -5.000000e+04
3.498507e+05 -2.452112e+04 -2.502180e+04
-1.000000e+05 -3.000000e+05 -5.000000e+04
-1.172397e+05 -3.321035e+05 -5.000000e+04
-1.166485e+05 -3.000000e+05 -2.764255e+04
-4.000000e+05 3.478536e+04 -2.232108e+04
-4.000000e+05 5.217391e+04 0.000000e+00
-3.681122e+05 3.476335e+04 0.000000e+00
-3.760873e+05 5.326244e+04 -2.425450e+04
-3.674598e+05 3.273510e+04 -5.000000e+04
-3.674737e+05 6.753718e+04 -5.000000e+04
-3.781265e+05 8.619362e+04 -2.408459e+04
-4.000000e+05 6.957979e+04 -2.232138e+04
-4.000000e+05 5.217391e+04 -5.000000e+04
3.681472e+05 2.079604e+05 0.000000e+00
3.681188e+05 2.425277e+05 0.000000e+00
4.000000e+05 2.260870e+05 0.000000e+00
3.737946e+05 2.335855e+05 -2.431228e+04
4.000000e+05 2.260870e+05 -5.000000e+04
3.679488e+05 2.080638e+05 -5.000000e+04
4.000000e+05 2.086945e+05 -2.232106e+04
3.680460e+05 2.771856e+05 0.000000e+00
4.000000e+05 2.434771e+05 -2.232106e+04
3.677806e+05 2.771319e+05 -5.000000e+04
3.679115e+05 2.425609e+05 -5.000000e+04
3.504390e+05 2.635740e+05 -2.500318e+04
3.475308e+05 2.297118e+05 -2.486822e+04
-1.730920e+05 3.677751e+05 -5.000000e+04
-1.913043e+05 4.000000e+05 -5.000000e+04
-1.913043e+05 4.000000e+05 0.000000e+00
3.000000e+05 -1.812272e+05 -2.243815e+04
3.324042e+05 -1.837572e+05 0.000000e+00
3.000000e+05 3.513350e+04 0.000000e+00
-6.956410e+04 4.000000e+05 -2.232106e+04
-6.925390e+04 3.680922e+05 0.000000e+00
-8.695652e+04 4.000000e+05 0.000000e+00
-1.384959e+05 3.680704e+05 0.000000e+00
-6.923740e+04 3.678235e+05 -5.000000e+04
-5.576916e+04 3.762795e+05 -2.604232e+04
3.326450e+05 2.521588e+05 0.000000e+00
3.239358e+05 2.702911e+05 -2.480100e+04
3.234958e+05 2.370624e+05 -2.489401e+04
3.000000e+05 2.345935e+05 0.000000e+00
3.324543e+05 2.529173e+05 -5.000000e+04
3.000000e+05 2.355396e+05 -5.000000e+04
3.000000e+05 2.504516e+05 -2.190148e+04
3.680898e+05 1.877167e+02 0.000000e+00
3.744947e+05 2.126666e+04 -2.449476e+04
3.762693e+05 -1.547825e+04 -2.434879e+04
3.680838e+05 -3.445303e+04 0.000000e+00
3.677188e+05 7.287769e+02 -5.000000e+04
4.000000e+05 -1.362271e+00 -2.232106e+04
4.000000e+05 -1.739130e+04 0.000000e+00
4.000000e+05 -3.478536e+04 -2.232108e+04
-3.318978e+05 -2.482288e+05 -5.000000e+04
-3.000000e+05 -2.483605e+05 -2.772840e+04
2.882149e+05 -3.318438e+05 -5.000000e+04
3.108914e+05 -3.236644e+05 -2.499399e+04
2.789502e+05 -3.000000e+05 -2.517088e+04
2.666667e+05 -3.000000e+05 -5.000000e+04
2.666667e+05 -3.000000e+05 0.000000e+00
2.882915e+05 -3.320621e+05 0.000000e+00
-4.000000e+05 1.217391e+05 -5.000000e+04
-3.676427e+05 1.022915e+05 -5.000000e+04
-4.000000e+05 1.217391e+05 0.000000e+00
-3.681035e+05 1.039715e+05 0.000000e+00
-4.000000e+05 1.044411e+05 -2.235722e+04
4.000000e+05 1.913043e+05 0.000000e+00
4.000000e+05 1.739120e+05 -2.232105e+04
3.764012e+05 1.898610e+05 -2.430996e+04
4.000000e+05 1.913043e+05 -5.000000e+04
1.666667e+05 3.000000e+05 0.000000e+00
1.951616e+05 3.233433e+05 -2.341676e+04
1.833301e+05 3.000000e+05 -2.764286e+04
1.842465e+05 3.321498e+05 -5.000000e+04
1.843130e+05 3.324055e+05 0.000000e+00
-4.000000e+05 3.129524e+05 -2.768053e+04
-3.686836e+05 3.117864e+05 0.000000e+00
-4.000000e+05 2.956522e+05 0.000000e+00
-3.757502e+05 2.931409e+05 -2.570837e+04
-4.000000e+05 2.956522e+05 -5.000000e+04
-3.676696e+05 2.766747e+05 -5.000000e+04
3.677042e+05 -3.389078e+04 -5.000000e+04
-2.076669e+05 -3.677464e+05 -5.000000e+04
-2.422763e+05 -3.677157e+05 -5.000000e+04
-2.260870e+05 -4.000000e+05 -5.000000e+04
-1.913043e+05 -4.000000e+05 0.000000e+00
-2.423632e+05 -3.680118e+05 0.000000e+00
-2.260870e+05 -4.000000e+05 0.000000e+00
-2.433455e+05 -4.000000e+05 -2.762913e+04
-3.000000e+05 -1.038360e+05 -2.320079e+04
-3.000000e+05 -6.478778e+04 0.000000e+00
-3.439419e+05 -8.692451e+04 -5.000000e+04
1.217391e+05 4.000000e+05 -5.000000e+04
1.044411e+05 4.000000e+05 -2.235722e+04
1.204511e+05 3.759608e+05 -2.495633e+04
1.217391e+05 4.000000e+05 0.000000e+00
1.038578e+05 3.680873e+05 0.000000e+00
8.554820e+04 3.758900e+05 -2.433776e+04
1.038119e+05 3.678075e+05 -5.000000e+04
-1.333333e+05 3.000000e+05 0.000000e+00
-1.507965e+05 3.323846e+05 0.000000e+00
4.000000e+05 -2.260870e+05 -5.000000e+04
4.000000e+05 -2.086964e+05 -2.767894e+04
3.677676e+05 -2.073069e+05 -5.000000e+04
3.680174e+05 -2.076594e+05 0.000000e+00
4.000000e+05 -2.260870e+05 0.000000e+00
3.675924e+05 -2.768653e+05 -5.000000e+04
4.000000e+05 -2.608696e+05 -5.000000e+04
-3.000000e+05 -2.642495e+05 -5.000000e+04
-3.315612e+05 -2.870977e+05 -5.000000e+04
-3.000000e+05 -2.822320e+05 -2.302012e+04
-2.608696e+05 -4.000000e+05 0.000000e+00
-2.782401e+05 -4.000000e+05 -2.767902e+04
-2.582196e+05 -3.761066e+05 -2.561565e+04
-2.771049e+05 -3.678525e+05 0.000000e+00
-2.926873e+05 -3.661492e+05 -2.544359e+04
-2.608696e+05 -4.000000e+05 -5.000000e+04
-2.769789e+05 -3.676730e+05 -5.000000e+04
2.179096e+05 3.324288e+05 0.000000e+00
2.298367e+05 3.461034e+05 -2.499425e+04
2.177452e+05 3.321517e+05 -5.000000e+04
2.000000e+05 3.000000e+05 0.000000e+00
2.166042e+05 3.000000e+05 -2.764239e+04
2.000000e+05 3.000000e+05 -5.000000e+04
-1.333333e+05 -3.000000e+05 0.000000e+00
-1.739130e+04 4.000000e+05 -5.000000e+04
-1.000000e+05 -3.000000e+05 0.000000e+00
-1.172617e+05 -3.323725e+05 0.000000e+00
-3.000000e+05 2.648037e+05 -5.000000e+04
-3.000000e+05 2.478684e+05 -2.246818e+04
-3.324670e+05 2.517626e+05 0.000000e+00
1.172807e+05 -3.323682e+05 0.000000e+00
-3.000000e+05 2.296073e+05 -5.000000e+04
4.000000e+05 -5.217391e+04 0.000000e+00
-3.324074e+05 1.848350e+05 0.000000e+00
-2.492201e+05 3.000000e+05 -2.223204e+04
-2.513373e+05 3.324609e+05 0.000000e+00
-2.333333e+05 3.000000e+05 0.000000e+00
-2.517034e+05 3.321732e+05 -5.000000e+04
-2.333333e+05 3.000000e+05 -5.000000e+04
-2.711912e+05 3.266701e+05 -2.489217e+04
4.000000e+05 1.217391e+05 -5.000000e+04
8.695652e+04 -4.000000e+05 0.000000e+00
-4.000000e+05 1.913043e+05 0.000000e+00
-3.680735e+05 1.731789e+05 0.000000e+00
-3.763062e+05 1.884434e+05 -2.569324e+04
4.000000e+05 -2.956522e+05 -5.000000e+04
4.000000e+05 -2.782520e+05 -2.767911e+04
3.756501e+05 -2.916852e+05 -2.561711e+04
6.923751e+04 -3.678235e+05 -5.000000e+04
6.956410e+04 -4.000000e+05 -2.232106e+04
8.695652e+04 -4.000000e+05 -5.000000e+04
-1.470007e+02 -3.368097e+05 -2.527620e+04
6.340486e-01 -3.678326e+05 -5.000000e+04
3.000000e+05 -2.150509e+05 -2.248841e+04
3.000000e+05 -1.978940e+05 -5.000000e+04
-3.674131e+05 -2.416500e+05 -5.000000e+04
-3.758368e+05 -2.577759e+05 -2.445071e+04
-3.679440e+05 -2.770299e+05 0.000000e+00
-4.000000e+05 -2.782599e+05 -2.232106e+04
-4.000000e+05 -2.608696e+05 0.000000e+00
6.923623e+04 3.680926e+05 0.000000e+00
8.695652e+04 4.000000e+05 0.000000e+00
2.422827e+05 3.677158e+05 -5.000000e+04
2.608696e+05 4.000000e+05 -5.000000e+04
2.608696e+05 4.000000e+05 0.000000e+00
2.771027e+05 3.678569e+05 0.000000e+00
2.423629e+05 3.680119e+05 0.000000e+00
3.128480e+05 3.662080e+05 -5.000000e+04
2.956522e+05 4.000000e+05 0.000000e+00
2.782520e+05 4.000000e+05 -2.767911e+04
3.121717e+05 3.686941e+05 0.000000e+00
-3.694624e+05 3.502041e+05 -5.000000e+04
-3.724225e+05 3.729664e+05 -3.466954e+04
-3.701471e+05 3.317097e+05 -2.552564e+04
-3.496816e+05 3.515437e+05 -2.475937e+04
-3.470017e+05 3.709660e+05 -5.000000e+04
-3.314625e+05 3.409752e+05 -5.000000e+04
-3.330689e+05 3.737089e+05 -2.580206e+04
-3.709768e+05 3.470258e+05 0.000000e+00
-3.732688e+05 3.723178e+05 -1.558399e+04
-3.367413e+05 3.238052e+05 -2.484433e+04
-3.166313e+05 3.433127e+05 -2.384237e+04
-3.410676e+05 3.315303e+05 0.000000e+00
3.679565e+05 -2.771494e+05 0.000000e+00
4.000000e+05 -2.956522e+05 0.000000e+00
2.260870e+05 4.000000e+05 -5.000000e+04
2.434785e+05 4.000000e+05 -2.767896e+04
2.242946e+05 3.755057e+05 -2.561391e+04
2.260870e+05 4.000000e+05 0.000000e+00
2.077253e+05 3.680332e+05 0.000000e+00
2.086964e+05 4.000000e+05 -2.767894e+04
-3.000000e+05 -1.653002e+05 0.000000e+00
-3.000000e+05 -1.829901e+05 -2.729017e+04
-3.321594e+05 -1.771591e+05 -5.000000e+04
-1.842416e+05 -3.321326e+05 -5.000000e+04
-1.833367e+05 -3.000000e+05 -2.764282e+04
-3.681074e+05 6.936799e+04 0.000000e+00
-4.000000e+05 8.695652e+04 0.000000e+00
-2.882575e+05 3.318080e+05 -5.000000e+04
-2.666667e+05 3.000000e+05 -5.000000e+04
-2.847890e+05 3.324722e+05 0.000000e+00
-2.789502e+05 3.000000e+05 -2.517088e+04
-2.666667e+05 3.000000e+05 0.000000e+00
8.374139e+04 3.320925e+05 -5.000000e+04
6.666667e+04 3.000000e+05 -5.000000e+04
8.321226e+04 3.000000e+05 -2.764622e+04
6.828130e+04 3.238767e+05 -2.505696e+04
6.666667e+04 3.000000e+05 0.000000e+00
8.379885e+04 3.323535e+05 0.000000e+00
3.321360e+05 2.887407e+05 -5.000000e+04
3.000000e+05 2.677698e+05 -5.000000e+04
3.415372e+05 3.094832e+05 -2.509776e+04
3.113248e+05 3.129502e+05 -2.525417e+04
3.324998e+05 2.850782e+05 0.000000e+00
3.000000e+05 2.791997e+05 -2.519777e+04
3.000000e+05 2.672967e+05 0.000000e+00
-5.217391e+04 4.000000e+05 0.000000e+00
-3.463078e+04 3.680998e+05 0.000000e+00
-3.460566e+04 3.678289e+05 -5.000000e+04
-5.217391e+04 4.000000e+05 -5.000000e+04
3.280905e+05 -3.158678e+05 -5.000000e+04
3.315439e+05 -3.410357e+05 -5.000000e+04
-8.695652e+04 4.000000e+05 -5.000000e+04
-3.478139e+04 4.000000e+05 -2.232106e+04
-4.000000e+05 1.739130e+04 0.000000e+00
1.499999e+05 -3.000000e+05 -2.235712e+04
1.333333e+05 -3.000000e+05 0.000000e+00
1.323830e+05 -3.229520e+05 -2.430599e+04
1.507705e+05 -3.321290e+05 -5.000000e+04
-1.565217e+05 -4.000000e+05 0.000000e+00
3.677284e+05 3.544677e+04 -5.000000e+04
4.000000e+05 3.478139e+04 -2.232106e+04
4.000000e+05 1.739130e+04 0.000000e+00
4.000000e+05 1.739130e+04 -5.000000e+04
3.000000e+05 -3.189320e+04 0.000000e+00
3.000000e+05 -2.771737e+04 -5.000000e+04
-4.000000e+05 -1.913043e+05 -5.000000e+04
-9.455174e+00 3.681012e+05 0.000000e+00
-1.739130e+04 4.000000e+05 0.000000e+00
3.000000e+05 -3.000000e+05 -5.000000e+04
3.000000e+05 -3.000000e+05 0.000000e+00
3.333333e+04 3.000000e+05 -5.000000e+04
5.025790e+04 3.323481e+05 0.000000e+00
5.023841e+04 3.320888e+05 -5.000000e+04
-3.662634e+05 3.129802e+05 -5.000000e+04
-3.284472e+05 3.156462e+05 -5.000000e+04
3.676798e+05 -1.033106e+05 -5.000000e+04
3.558571e+05 3.577578e+05 -2.572528e+04
3.411148e+05 3.316594e+05 -5.000000e+04
3.503283e+05 3.704446e+05 0.000000e+00
3.315896e+05 3.411665e+05 0.000000e+00
3.299911e+05 3.700883e+05 -2.554228e+04
-3.321756e+05 2.845820e+03 -5.000000e+04
-3.439778e+05 -5.218004e+04 -5.000000e+04
-3.000000e+05 1.673499e+05 0.000000e+00
3.501648e+05 5.942959e+04 -2.528813e+04
6.923633e+04 3.678232e+05 -5.000000e+04
-4.000000e+05 3.471153e+05 -2.775934e+04
-4.000000e+05 4.000000e+05 0.000000e+00
-3.823443e+05 4.000000e+05 -2.731890e+04
-3.652174e+05 4.000000e+05 0.000000e+00
-3.478935e+05 4.000000e+05 -2.235349e+04
-4.000000e+05 3.785390e+05 -2.489047e+04
-4.000000e+05 3.652174e+05 0.000000e+00
-2.956522e+05 -4.000000e+05 0.000000e+00
-3.121750e+05 -3.686897e+05 0.000000e+00
-3.293325e+05 -3.671216e+05 -2.536873e+04
-2.956522e+05 -4.000000e+05 -5.000000e+04
2.882639e+05 3.320922e+05 0.000000e+00
5.093170e-11 -3.000000e+05 0.000000e+00
-3.226610e+05 2.105968e+04 -2.290067e+04
-3.000000e+05 3.469979e+04 0.000000e+00
-3.323555e+05 5.137996e+04 0.000000e+00
-3.220015e+05 5.817008e+04 -2.498712e+04
-3.000000e+05 1.842938e+04 -5.000000e+04
-3.497577e+05 4.496463e+04 -2.465259e+04
-3.321690e+05 3.790543e+04 -5.000000e+04
-3.469745e+05 -3.696720e+05 -5.000000e+04
-3.471153e+05 -4.000000e+05 -2.775934e+04
-3.503254e+05 -3.704403e+05 0.000000e+00
-3.304348e+05 -4.000000e+05 0.000000e+00
3.323437e+05 -4.907221e+04 0.000000e+00
3.323539e+05 -8.274308e+04 0.000000e+00
-3.502322e+05 3.694716e+05 0.000000e+00
-4.000000e+05 3.304348e+05 -5.000000e+04
3.260797e+05 3.364898e+05 -2.536868e+04
3.161196e+05 3.280247e+05 -5.000000e+04
3.323919e+05 8.996816e+04 -5.000000e+04
3.323321e+05 5.191321e+04 0.000000e+00
-3.652174e+05 -4.000000e+05 -5.000000e+04
-4.000000e+05 -4.000000e+05 0.000000e+00
-3.785390e+05 -4.000000e+05 -2.489047e+04
-4.000000e+05 -3.823443e+05 -2.731890e+04
-3.764460e+05 -3.742999e+05 -2.129766e+04
-4.000000e+05 -3.478935e+05 -2.235349e+04
-3.652174e+05 -4.000000e+05 0.000000e+00
-4.000000e+05 8.695652e+04 -5.000000e+04
-3.680872e+05 -6.905149e+04 0.000000e+00
-4.000000e+05 -6.956410e+04 -2.232106e+04
-3.699902e+05 -6.956816e+04 -5.000000e+04
4.000000e+05 -4.000000e+05 -5.000000e+04
3.652174e+05 -4.000000e+05 -5.000000e+04
3.823443e+05 -4.000000e+05 -2.731890e+04
3.652174e+05 -4.000000e+05 0.000000e+00
4.000000e+05 -4.000000e+05 0.000000e+00
-4.000000e+05 -3.304348e+05 -5.000000e+04
-3.000000e+05 -3.000000e+05 0.000000e+00
3.278659e+05 3.164259e+05 0.000000e+00
-2.945006e+05 3.670894e+05 -2.446398e+04
-2.768680e+05 3.676148e+05 -5.000000e+04
-2.434771e+05 4.000000e+05 -2.232106e+04
-2.782599e+05 4.000000e+05 -2.232106e+04
-2.423601e+05 3.680073e+05 0.000000e+00
-2.608696e+05 4.000000e+05 0.000000e+00
-2.771013e+05 3.679669e+05 0.000000e+00
-3.000000e+05 3.000000e+05 -5.000000e+04
-3.000000e+05 3.000000e+05 0.000000e+00
-3.161332e+05 3.279792e+05 0.000000e+00
-3.131889e+05 3.663436e+05 0.000000e+00
-3.304348e+05 4.000000e+05 -5.000000e+04
-3.130499e+05 4.000000e+05 -2.232112e+04
-3.304348e+05 4.000000e+05 0.000000e+00
-1.333333e+05 3.000000e+05 -5.000000e+04
3.315091e+05 -3.410604e+05 0.000000e+00
3.118095e+05 -3.686794e+05 0.000000e+00
3.316857e+05 -3.715572e+05 -2.469333e+04
3.130499e+05 -4.000000e+05 -2.232112e+04
1.739120e+05 -4.000000e+05 -2.232105e+04
1.842645e+05 -3.323929e+05 -5.000000e+04
3.680906e+05 3.482819e+04 0.000000e+00
1.666667e+05 3.000000e+05 -5.000000e+04
-1.673681e+04 -3.320845e+05 -5.000000e+04
2.910383e-11 -3.000000e+05 -5.000000e+04
-5.023842e+04 -3.320889e+05 -5.000000e+04
3.469444e+05 -3.709697e+05 0.000000e+00
-1.676046e+04 3.323412e+05 0.000000e+00
-3.673718e+05 -2.765155e+05 -5.000000e+04
-4.000000e+05 -2.956522e+05 -5.000000e+04
3.323491e+05 1.528569e+05 0.000000e+00
-3.000000e+05 5.362570e+04 -5.000000e+04
-3.000000e+05 6.786232e+04 0.000000e+00
3.662367e+05 3.129724e+05 0.000000e+00
3.685626e+05 3.120601e+05 -5.000000e+04
4.000000e+05 2.956522e+05 -5.000000e+04
4.000000e+05 4.000000e+05 0.000000e+00
4.000000e+05 3.652174e+05 0.000000e+00
3.652174e+05 4.000000e+05 0.000000e+00
3.762454e+05 3.750883e+05 -2.155808e+04
3.652174e+05 4.000000e+05 -5.000000e+04
4.000000e+05 3.652174e+05 -5.000000e+04
4.000000e+05 3.823443e+05 -2.731890e+04
3.698059e+05 3.472734e+05 0.000000e+00
3.785390e+05 4.000000e+05 -2.489047e+04
-8.695652e+04 -4.000000e+05 0.000000e+00
4.000000e+05 -1.739130e+04 -5.000000e+04
1.667182e+04 -3.000000e+05 -2.764257e+04
4.000000e+05 -1.913043e+05 0.000000e+00
3.676538e+05 -1.727396e+05 -5.000000e+04
-4.000000e+05 3.652174e+05 -5.000000e+04
-3.652174e+05 4.000000e+05 -5.000000e+04
-4.000000e+05 4.000000e+05 -5.000000e+04
-1.666667e+05 3.000000e+05 0.000000e+00
-2.956522e+05 4.000000e+05 -5.000000e+04
-3.115858e+05 3.684755e+05 -5.000000e+04
4.000000e+05 -1.913043e+05 -5.000000e+04
-3.324502e+05 -2.508874e+05 0.000000e+00
1.676292e+04 -3.320847e+05 -5.000000e+04
3.333333e+04 -3.000000e+05 -5.000000e+04
-1.565217e+05 -4.000000e+05 -5.000000e+04
-1.384500e+05 -3.677932e+05 -5.000000e+04
-1.843130e+05 -3.324055e+05 0.000000e+00
-1.565217e+05 4.000000e+05 0.000000e+00
3.304348e+05 -4.000000e+05 -5.000000e+04
3.478935e+05 -4.000000e+05 -2.235349e+04
3.471153e+05 4.000000e+05 -2.775934e+04
3.304348e+05 4.000000e+05 0.000000e+00
3.129524e+05 4.000000e+05 -2.768053e+04
3.304348e+05 4.000000e+05 -5.000000e+04
3.000000e+05 -2.664866e+05 0.000000e+00
2.077156e+05 3.677497e+05 -5.000000e+04
-5.093170e-11 3.000000e+05 0.000000e+00
1.913043e+05 -4.000000e+05 0.000000e+00
1.333333e+05 -3.000000e+05 -5.000000e+04
-2.000000e+05 -3.000000e+05 -5.000000e+04
3.000000e+05 3.000000e+05 -5.000000e+04
3.000000e+05 -1.994599e+05 0.000000e+00
-4.000000e+05 1.739130e+04 -5.000000e+04
-3.312555e+05 -1.078189e+05 -5.000000e+04
-1.217391e+05 -4.000000e+05 -5.000000e+04
2.333333e+05 -3.000000e+05 -5.000000e+04
-4.000000e+05 -8.695652e+04 0.000000e+00
-4.000000e+05 -8.695652e+04 -5.000000e+04
-4.000000e+05 -3.130499e+05 -2.232112e+04
-3.000000e+05 -8.715961e+04 -5.000000e+04
3.119848e+05 -3.684872e+05 -5.000000e+04
-3.000000e+05 -3.000000e+05 -5.000000e+04
-3.304348e+05 -4.000000e+05 -5.000000e+04
-3.129520e+05 -4.000000e+05 -2.768053e+04
8.695652e+04 4.000000e+05 -5.000000e+04
2.333333e+05 3.000000e+05 0.000000e+00
-2.956522e+05 4.000000e+05 0.000000e+00
3.472622e+05 3.698070e+05 -5.000000e+04
-3.000000e+05 -2.663251e+05 0.000000e+00
4.000000e+05 4.000000e+05 -5.000000e+04
4.000000e+05 -3.785390e+05 -2.489047e+04
3.304348e+05 -4.000000e+05 0.000000e+00
1.666667e+05 -3.000000e+05 -5.000000e+04
-3.333333e+04 3.000000e+05 -5.000000e+04
-3.000000e+05 -7.176096e+04 -2.210995e+04
-4.000000e+05 -3.652174e+05 -5.000000e+04
-4.000000e+05 -4.000000e+05 -5.000000e+04
4.000000e+05 3.304348e+05 0.000000e+00
-2.608696e+05 4.000000e+05 -5.000000e+04
-4.000000e+05 1.913043e+05 -5.000000e+04
4.000000e+05 2.608696e+05 0.000000e+00
4.000000e+05 5.217391e+04 -5.000000e+04
2.956522e+05 -4.000000e+05 -5.000000e+04
3.000000e+05 3.000000e+05 0.000000e+00
-3.000000e+05 -5.196328e+04 -5.000000e+04
1.913043e+05 -4.000000e+05 -5.000000e+04
-3.000000e+05 -1.223559e+05 -5.000000e+04
-4.000000e+05 -1.913043e+05 0.000000e+00
2.956522e+05 -4.000000e+05 0.000000e+00
-4.000000e+05 -3.652174e+05 0.000000e+00
2.333333e+05 3.000000e+05 -5.000000e+04
-4.000000e+05 -2.608696e+05 -5.000000e+04
-4.000000e+05 -5.217391e+04 0.000000e+00
-4.000000e+05 -3.304348e+05 0.000000e+00
-3.000000e+05 2.668375e+05 0.000000e+00
-4.000000e+05 -2.956522e+05 0.000000e+00
3.000000e+05 1.356736e+05 0.000000e+00
4.000000e+05 2.608696e+05 -5.000000e+04
-4.000000e+05 3.304348e+05 0.000000e+00
-3.063457e+05 -2.024790e+05 -4.426077e+04
-3.000000e+05 -2.026301e+05 -3.632534e+04
-3.111463e+05 -1.950475e+05 -3.897904e+04
-3.000000e+05 -1.878693e+05 -3.864508e+04
-3.160797e+05 -1.849538e+05 -5.000000e+04
-3.000000e+05 -2.106238e+05 -5.000000e+04
-3.000000e+05 -1.720696e+05 -3.031175e+04
-3.116603e+05 -1.675784e+05 -4.089358e+04
-3.000000e+05 -1.751504e+05 -5.000000e+04
-3.000000e+05 -1.575523e+05 -5.000000e+04
-3.000000e+05 -1.593507e+05 -4.166667e+04
-3.159737e+05 -2.026191e+05 -5.000000e+04
-3.000000e+05 -8.485563e+04 -1.105497e+04
-3.118670e+05 -9.380434e+04 -1.203731e+04
-3.130891e+05 -7.897049e+04 -1.053248e+04
-3.161910e+05 -9.004106e+04 0.000000e+00
-3.000000e+05 -8.136905e+04 0.000000e+00
-3.000000e+05 -1.008931e+05 -1.160040e+04
-3.000000e+05 -1.166929e+05 -1.993373e+04
-3.161858e+05 -1.067992e+05 0.000000e+00
-3.115039e+05 -1.218258e+05 -8.346628e+03
-3.000000e+05 -1.147878e+05 0.000000e+00
-3.000000e+05 -1.316253e+05 0.000000e+00
-3.000000e+05 -1.305875e+05 -8.333333e+03
3.146143e+05 1.349445e+05 -1.624165e+04
3.106134e+05 1.510628e+05 -4.369146e+03
3.000000e+05 1.366305e+05 -8.333333e+03
3.000000e+05 1.524302e+05 0.000000e+00
3.150459e+05 1.625460e+05 -1.122399e+04
3.000000e+05 1.760691e+05 -1.357997e+04
3.162902e+05 1.776758e+05 0.000000e+00
3.161745e+05 1.610219e+05 0.000000e+00
3.104026e+05 1.535879e+05 -2.404985e+04
3.000000e+05 1.602694e+05 -2.191330e+04
3.000000e+05 1.855385e+05 0.000000e+00
3.101809e+05 7.329692e+04 -3.945893e+04
3.000000e+05 6.519138e+04 -3.614855e+04
3.159874e+05 6.550846e+04 -5.000000e+04
3.000000e+05 7.953962e+04 -3.870729e+04
3.161959e+05 8.217839e+04 -5.000000e+04
3.000000e+05 9.050372e+04 -5.000000e+04
3.000000e+05 1.063034e+05 -4.166667e+04
3.000000e+05 1.066188e+05 -5.000000e+04
3.125659e+05 9.981851e+04 -3.875643e+04
3.000000e+05 9.533933e+04 -3.037395e+04
3.000000e+05 5.737095e+04 -5.000000e+04
-3.115493e+05 -1.610683e+05 -2.398051e+04
-3.144704e+05 -1.432229e+05 -2.146171e+04
-3.129051e+05 -1.523282e+05 -3.728779e+04
-3.094561e+05 -1.356463e+05 -3.213334e+04
-3.000000e+05 -1.632247e+05 -1.666667e+04
-3.000000e+05 -1.474250e+05 -8.333333e+03
-3.000000e+05 -1.417526e+05 -4.166667e+04
-3.000000e+05 -1.259528e+05 -3.333333e+04
-3.139054e+05 -1.267224e+05 -2.329475e+04
-3.158757e+05 -1.378130e+05 -8.840615e+03
3.000000e+05 1.382182e+05 -3.333333e+04
3.125257e+05 1.177269e+05 -2.993614e+04
3.000000e+05 1.040741e+05 -1.666667e+04
3.000000e+05 1.198738e+05 -8.333333e+03
3.000000e+05 1.224185e+05 -4.166667e+04
3.000000e+05 1.543333e+05 -3.333333e+04
3.158643e+05 1.130119e+05 -3.901411e+04
3.112403e+05 1.036372e+05 -2.695839e+04
-3.000000e+05 -1.976893e+05 -4.316267e+04
-3.030729e+05 -1.980668e+05 -4.723608e+04
-3.053768e+05 -1.954590e+05 -4.414253e+04
-3.000000e+05 -1.927486e+05 -5.000000e+04
-3.000000e+05 -1.903090e+05 -4.432254e+04
-3.080399e+05 -1.888512e+05 -5.000000e+04
-3.000000e+05 -2.016862e+05 -5.000000e+04
-3.000000e+05 -1.848487e+05 -4.583333e+04
-3.062955e+05 -1.781563e+05 -4.384648e+04
-3.000000e+05 -1.824091e+05 -4.015588e+04
-3.000000e+05 -1.769489e+05 -4.166667e+04
-3.000000e+05 -1.760497e+05 -4.583333e+04
-3.000000e+05 -1.839495e+05 -5.000000e+04
-3.079869e+05 -1.976838e+05 -5.000000e+04
-3.053514e+05 -9.518209e+04 -7.031331e+03
-3.000000e+05 -9.140297e+04 -5.527487e+03
-3.064560e+05 -8.860147e+04 -5.251857e+03
-3.000000e+05 -9.795031e+04 0.000000e+00
-3.080955e+05 -9.399569e+04 0.000000e+00
-3.000000e+05 -8.965968e+04 0.000000e+00
-3.000000e+05 -1.058502e+05 -4.166667e+03
-3.059791e+05 -1.119808e+05 -6.158372e+03
-3.000000e+05 -1.073216e+05 -9.966865e+03
-3.000000e+05 -1.137500e+05 -8.333333e+03
-3.000000e+05 -9.942173e+04 -5.800198e+03
-3.080929e+05 -1.023748e+05 0.000000e+00
-3.000000e+05 -1.142689e+05 -4.166667e+03
-3.000000e+05 -1.063690e+05 0.000000e+00
3.000000e+05 1.612870e+05 -4.166667e+03
3.057350e+05 1.547934e+05 -7.475251e+03
3.000000e+05 1.529087e+05 -4.166667e+03
3.000000e+05 1.533872e+05 -8.333333e+03
3.000000e+05 1.608086e+05 0.000000e+00
3.045112e+05 1.590589e+05 -3.088817e+03
3.000000e+05 1.691869e+05 0.000000e+00
3.000000e+05 1.726280e+05 -6.789983e+03
3.067972e+05 1.637620e+05 -6.236619e+03
3.081451e+05 1.734313e+05 0.000000e+00
3.080873e+05 1.651044e+05 0.000000e+00
3.000000e+05 1.647281e+05 -1.095665e+04
3.080360e+05 1.585959e+05 -1.311263e+04
3.000000e+05 1.773627e+05 0.000000e+00
3.000000e+05 6.979000e+04 -4.307428e+04
3.047677e+05 7.402522e+04 -4.470344e+04
3.079937e+05 6.994854e+04 -5.000000e+04
3.000000e+05 7.438862e+04 -5.000000e+04
3.000000e+05 7.696412e+04 -4.435364e+04
3.080980e+05 7.828350e+04 -5.000000e+04
3.000000e+05 8.228847e+04 -4.583333e+04
3.069023e+05 9.098978e+04 -4.261236e+04
3.000000e+05 9.034602e+04 -4.583333e+04
3.000000e+05 9.018833e+04 -4.166667e+04
3.000000e+05 8.244617e+04 -5.000000e+04
3.000000e+05 8.486397e+04 -4.018698e+04
3.000000e+05 6.587979e+04 -5.000000e+04
-3.000000e+05 -1.690490e+05 -3.750000e+04
-3.000000e+05 -1.745093e+05 -3.598921e+04
-3.038440e+05 -1.709227e+05 -3.911852e+04
-3.053278e+05 -1.630005e+05 -3.668382e+04
-3.000000e+05 -1.666094e+05 -3.182254e+04
-3.000000e+05 -1.611492e+05 -3.333333e+04
-3.000000e+05 -1.681498e+05 -4.166667e+04
-3.000000e+05 -1.602499e+05 -3.750000e+04
-3.000000e+05 -1.532493e+05 -2.916667e+04
-3.064631e+05 -1.466763e+05 -3.079909e+04
-3.069327e+05 -1.513839e+05 -2.386303e+04
-3.000000e+05 -1.453495e+05 -2.500000e+04
-3.047602e+05 -1.596486e+05 -2.726066e+04
-3.054439e+05 -1.557992e+05 -3.361296e+04
-3.000000e+05 -1.542871e+05 -2.083333e+04
-3.000000e+05 -1.621869e+05 -2.500000e+04
-3.000000e+05 -1.435510e+05 -3.333333e+04
-3.000000e+05 -1.514509e+05 -3.750000e+04
-3.000000e+05 -1.216499e+05 -1.250000e+04
-3.000000e+05 -1.152214e+05 -1.413353e+04
-3.037297e+05 -1.190352e+05 -1.075928e+04
-3.056822e+05 -1.266812e+05 -1.273478e+04
-3.000000e+05 -1.231213e+05 -1.830020e+04
-3.000000e+05 -1.295497e+05 -1.666667e+04
-3.000000e+05 -1.221688e+05 -8.333333e+03
-3.000000e+05 -1.300686e+05 -1.250000e+04
-3.000000e+05 -1.374496e+05 -2.083333e+04
-3.054367e+05 -1.434107e+05 -2.045846e+04
-3.048275e+05 -1.400009e+05 -2.640946e+04
-3.036705e+05 -1.331873e+05 -2.543463e+04
-3.072707e+05 -1.359191e+05 -2.121872e+04
-3.000000e+05 -1.463872e+05 -1.666667e+04
-3.000000e+05 -1.384874e+05 -1.250000e+04
-3.000000e+05 -1.356511e+05 -2.916667e+04
-3.000000e+05 -1.277513e+05 -2.500000e+04
-3.081167e+05 -1.345386e+05 -1.397709e+04
-3.063282e+05 -1.286818e+05 -2.243935e+04
3.000000e+05 1.454873e+05 -1.250000e+04
3.000000e+05 1.450088e+05 -8.333333e+03
3.052121e+05 1.457290e+05 -1.130647e+04
3.062475e+05 1.362732e+05 -1.694122e+04
3.000000e+05 1.371090e+05 -1.250000e+04
3.000000e+05 1.375875e+05 -1.666667e+04
3.059867e+05 1.502481e+05 -1.558613e+04
3.000000e+05 1.568283e+05 -1.512332e+04
3.000000e+05 1.489284e+05 -1.928998e+04
3.044346e+05 1.471034e+05 -1.983256e+04
3.000000e+05 1.379029e+05 -2.500000e+04
3.000000e+05 1.296876e+05 -2.083333e+04
3.056034e+05 1.285055e+05 -2.285373e+04
3.000000e+05 1.208308e+05 -1.666667e+04
3.000000e+05 1.217878e+05 -2.500000e+04
3.000000e+05 1.287307e+05 -1.250000e+04
3.000000e+05 1.300030e+05 -2.916667e+04
3.000000e+05 1.459604e+05 -2.500000e+04
3.000000e+05 9.808819e+04 -3.750000e+04
3.000000e+05 9.824588e+04 -4.166667e+04
3.042573e+05 9.809898e+04 -3.894066e+04
3.055312e+05 1.018170e+05 -3.439599e+04
3.000000e+05 1.061457e+05 -3.750000e+04
3.000000e+05 1.059880e+05 -3.333333e+04
3.000000e+05 9.276383e+04 -3.602031e+04
3.000000e+05 1.006637e+05 -3.185364e+04
3.000000e+05 1.138879e+05 -2.916667e+04
3.000000e+05 1.129309e+05 -2.083333e+04
3.069821e+05 1.199990e+05 -2.690572e+04
3.042169e+05 1.142399e+05 -3.220802e+04
3.000000e+05 1.050311e+05 -2.500000e+04
3.000000e+05 1.221031e+05 -3.333333e+04
3.000000e+05 1.142033e+05 -3.750000e+04
3.075285e+05 1.109811e+05 -3.529712e+04
3.051107e+05 1.067999e+05 -3.027558e+04
3.096386e+05 1.505806e+05 -9.414214e+03
2.562683e+05 2.817341e+05 -2.080825e+04
2.491748e+05 2.712996e+05 0.000000e+00
2.314192e+05 2.780028e+05 -2.568996e+04
2.443854e+05 2.542921e+05 -2.770822e+04
2.490982e+05 2.712545e+05 -5.000000e+04
-8.333333e+04 1.518124e+05 -5.000000e+04
-8.259936e+04 1.673410e+05 -2.575249e+04
-1.065579e+05 1.374959e+05 -2.487347e+04
-7.349950e+04 1.420611e+05 -2.561559e+04
2.166667e+05 2.703625e+05 0.000000e+00
2.181222e+05 2.432338e+05 -2.563096e+04
1.997458e+05 2.704747e+05 -2.555728e+04
2.168493e+05 2.700948e+05 -5.000000e+04
-6.402843e-10 1.814500e+05 -5.000000e+04
1.645022e+04 1.494383e+05 -5.000000e+04
1.535892e+04 1.812041e+05 -2.467325e+04
-1.457577e+03 1.550816e+05 -2.383390e+04
-4.440329e+03 1.333028e+05 0.000000e+00
-3.851716e+04 1.340912e+05 -2.469542e+04
-3.276955e+04 1.523143e+05 0.000000e+00
2.617409e+04 1.466127e+05 0.000000e+00
-4.649752e+02 1.773997e+05 0.000000e+00
3.259688e+04 1.810684e+05 0.000000e+00
2.508610e+04 1.290281e+05 -2.520656e+04
4.162990e+04 1.658137e+05 -2.496788e+04
-1.805754e+03 1.277363e+05 -2.654526e+04
-1.666667e+05 2.407250e+05 0.000000e+00
-1.836304e+05 2.106403e+05 0.000000e+00
-1.945805e+05 2.270925e+05 -2.494419e+04
-1.681519e+05 2.206054e+05 -2.498534e+04
-1.611522e+05 1.855929e+05 -2.495419e+04
-1.953832e+05 1.949756e+05 -2.502918e+04
-1.445503e+05 2.514532e+05 -2.468530e+04
-1.397181e+05 2.217940e+05 -2.493913e+04
-1.837086e+05 2.096875e+05 -5.000000e+04
-1.666667e+05 2.407250e+05 -5.000000e+04
-1.814500e+05 8.882203e+04 -5.000000e+04
-1.711624e+05 8.472404e+04 -2.311892e+04
-1.514294e+05 1.071215e+05 -5.000000e+04
-1.674965e+05 1.147045e+05 -2.480597e+04
-1.805080e+05 1.271344e+05 -5.000000e+04
-1.525031e+05 1.501422e+05 -5.000000e+04
-1.672796e+05 1.468614e+05 -2.320592e+04
-1.814500e+05 1.010248e+05 0.000000e+00
-1.566202e+05 9.415578e+04 0.000000e+00
-1.812661e+05 1.357516e+05 0.000000e+00
-1.499531e+05 1.255588e+05 0.000000e+00
-1.954322e+05 1.020407e+05 -2.516173e+04
-1.968569e+05 1.284006e+05 -2.302923e+04
-2.703625e+05 1.839312e+05 0.000000e+00
-2.780670e+05 1.631223e+05 -2.429646e+04
-3.026807e+04 9.140770e+04 -5.000000e+04
1.879872e+03 1.085313e+05 -5.000000e+04
-3.242458e+04 1.222501e+05 -5.000000e+04
-1.896044e+04 1.072142e+05 -2.199370e+04
-2.703625e+05 1.416165e+05 -5.000000e+04
-2.551761e+05 1.372754e+05 -2.233478e+04
-2.699094e+05 1.958583e+05 -2.530759e+04
-2.520710e+05 1.715264e+05 -2.502087e+04
-2.703625e+05 1.768129e+05 -5.000000e+04
-5.231270e+04 9.927616e+04 -2.489966e+04
-2.080725e+04 7.556144e+04 -2.539636e+04
-9.162195e+02 7.047971e+04 -5.000000e+04
-2.357562e+04 3.576812e+04 -3.198959e+04
7.015630e+03 5.258977e+04 -3.086120e+04
-4.363361e+04 4.863366e+04 0.000000e+00
-5.272342e+04 6.205594e+04 -2.506856e+04
-3.989880e+04 8.273880e+04 0.000000e+00
2.405359e+05 1.742632e+05 0.000000e+00
2.529559e+05 1.495400e+05 -3.308225e+04
2.211237e+05 1.522442e+05 -2.724220e+04
2.627322e+05 1.734398e+05 -2.793481e+04
2.699346e+05 1.549641e+05 -5.000000e+04
2.398692e+05 1.710792e+05 -5.000000e+04
2.546368e+05 1.964845e+05 -2.539731e+04
2.716218e+05 1.881165e+05 0.000000e+00
2.699346e+05 1.871943e+05 -5.000000e+04
-1.500000e+05 2.703625e+05 -5.000000e+04
-1.833333e+05 2.703625e+05 -5.000000e+04
-1.747431e+05 2.531362e+05 -2.482298e+04
-1.651713e+05 2.777210e+05 -2.437590e+04
-1.998886e+05 2.687206e+05 -2.459581e+04
-1.500000e+05 2.703625e+05 0.000000e+00
-1.253060e+05 2.743116e+05 -2.296491e+04
-1.833333e+05 2.703625e+05 0.000000e+00
-9.097190e+04 1.558896e+05 0.000000e+00
-1.221382e+05 1.448832e+05 0.000000e+00
-1.136436e+05 1.685487e+05 -2.316662e+04
-1.012490e+05 1.812578e+05 0.000000e+00
-1.348429e+05 1.804690e+05 0.000000e+00
-1.371329e+05 1.552702e+05 -2.461951e+04
-1.347750e+05 1.936405e+05 -2.487624e+04
-1.000000e+05 1.814500e+05 -5.000000e+04
-1.064177e+05 1.981639e+05 -2.485862e+04
-1.350849e+05 1.810571e+05 -5.000000e+04
1.500000e+05 2.703625e+05 -5.000000e+04
1.323838e+05 2.792368e+05 -2.579762e+04
1.500000e+05 2.703625e+05 0.000000e+00
1.609616e+05 2.629908e+05 -2.435433e+04
1.245577e+05 2.552088e+05 -2.515724e+04
1.166667e+05 2.703625e+05 0.000000e+00
1.008401e+05 2.778981e+05 -2.567952e+04
1.166667e+05 2.703625e+05 -5.000000e+04
8.333333e+04 2.703625e+05 0.000000e+00
8.950622e+04 2.524853e+05 -2.455762e+04
8.333333e+04 2.703625e+05 -5.000000e+04
6.783126e+04 2.781831e+05 -2.491412e+04
1.508365e+05 2.101142e+05 -5.000000e+04
1.333333e+05 2.407250e+05 -5.000000e+04
1.345315e+05 2.069889e+05 -2.489749e+04
1.493866e+05 2.327074e+05 -2.479093e+04
1.524543e+05 2.032776e+05 0.000000e+00
1.680396e+05 2.104440e+05 -2.494549e+04
1.115530e+05 2.295083e+05 -2.793499e+04
1.340169e+05 2.394802e+05 0.000000e+00
-2.110875e+05 1.176061e+05 0.000000e+00
-2.273276e+05 1.065790e+05 -2.314917e+04
-1.941083e+05 1.609177e+05 -2.483814e+04
-2.099412e+05 1.516432e+05 0.000000e+00
-2.253174e+05 1.415379e+05 -2.449008e+04
-1.510068e+05 2.098216e+05 -5.000000e+04
-1.666667e+04 2.703625e+05 -5.000000e+04
-2.475802e+04 2.544402e+05 -2.513319e+04
1.453793e+02 2.710597e+05 -2.543969e+04
-3.470246e+04 2.780027e+05 -2.565696e+04
-5.000000e+04 2.703625e+05 0.000000e+00
-1.666667e+04 2.703625e+05 0.000000e+00
-5.791441e+04 2.522326e+05 -2.505588e+04
-7.443148e+04 2.764361e+05 -2.591612e+04
-5.000000e+04 2.703625e+05 -5.000000e+04
-2.025945e+05 -2.109948e+04 0.000000e+00
-1.866415e+05 -2.748899e+04 -2.418469e+04
-2.179610e+05 -4.488037e+04 -3.092332e+04
-2.019580e+05 -5.180400e+03 -2.458827e+04
-1.699494e+05 -7.605757e+03 0.000000e+00
-1.753169e+05 6.264671e+03 -2.299061e+04
-2.007136e+05 1.294712e+04 0.000000e+00
-2.278189e+05 -1.820373e+04 -2.734942e+04
-2.367691e+05 -1.169208e+03 0.000000e+00
-1.954766e+05 3.069078e+04 -2.575605e+04
-2.266711e+05 1.729095e+04 -2.533725e+04
-1.166667e+05 2.703625e+05 -5.000000e+04
-9.203684e+04 2.530021e+05 -2.489551e+04
-8.333333e+04 2.703625e+05 0.000000e+00
2.325910e+04 1.108585e+05 0.000000e+00
1.163402e+04 9.210283e+04 -2.558792e+04
-8.319851e+03 9.679865e+04 0.000000e+00
-6.774293e+04 7.985803e+03 -5.000000e+04
-3.616399e+04 2.204566e+04 -5.000000e+04
-6.400812e+04 4.209094e+04 -5.000000e+04
-6.028528e+04 2.420841e+04 -2.920596e+04
-2.707613e+05 2.523762e+05 0.000000e+00
-2.566033e+05 2.252522e+05 -2.602117e+04
-2.735929e+05 2.514045e+05 -2.762997e+04
-2.462450e+05 2.490909e+05 -2.322479e+04
-2.523724e+05 2.703929e+05 -5.000000e+04
-2.704325e+05 2.465880e+05 -5.000000e+04
-2.172610e+05 2.694316e+05 0.000000e+00
-2.356323e+05 2.736327e+05 -2.623761e+04
-2.202462e+05 2.403052e+05 -2.501189e+04
-2.354180e+05 2.382308e+05 -5.000000e+04
2.711043e+05 2.569482e+05 -2.190121e+04
2.831340e+05 2.846265e+05 -1.755270e+04
5.000000e+04 2.703625e+05 -5.000000e+04
1.666667e+04 2.703625e+05 -5.000000e+04
2.613357e+04 2.530679e+05 -2.506021e+04
3.450789e+04 2.779470e+05 -2.477230e+04
5.757832e+04 2.550654e+05 -2.481563e+04
2.699346e+05 2.194245e+05 -5.000000e+04
2.505927e+05 2.249762e+05 -2.434169e+04
2.781565e+05 2.077714e+05 -2.578599e+04
2.696873e+05 2.193028e+05 0.000000e+00
1.666667e+04 2.703625e+05 0.000000e+00
5.000000e+04 2.703625e+05 0.000000e+00
6.666667e+04 2.407250e+05 -5.000000e+04
5.686891e+04 2.260549e+05 -2.499966e+04
8.333333e+04 2.110875e+05 -5.000000e+04
9.011412e+04 2.157238e+05 -2.417942e+04
1.006800e+05 1.811701e+05 -5.000000e+04
9.601281e+04 1.762845e+05 -2.322036e+04
1.117797e+05 1.976531e+05 -2.519598e+04
6.993128e+04 1.947135e+05 -2.478885e+04
1.172380e+05 2.126404e+05 0.000000e+00
8.467502e+04 2.097123e+05 0.000000e+00
1.166667e+05 2.110875e+05 -5.000000e+04
-9.932188e+04 8.872423e+04 0.000000e+00
-1.261497e+05 1.083583e+05 0.000000e+00
-9.558707e+04 1.228294e+05 0.000000e+00
-1.062141e+05 1.049122e+05 -2.498841e+04
1.496862e+05 1.824751e+05 -2.344920e+04
1.495749e+05 1.670979e+05 0.000000e+00
1.351783e+05 1.439753e+05 -2.389841e+04
1.212025e+05 1.709463e+05 -2.582528e+04
1.750901e+05 1.784593e+05 -5.000000e+04
1.623622e+05 1.594854e+05 -2.672844e+04
1.880667e+05 1.899048e+05 -2.546807e+04
1.277153e+05 1.584745e+05 -5.000000e+04
1.362781e+05 1.814245e+05 -5.000000e+04
-1.575227e+05 -2.834125e+02 -5.000000e+04
-1.638435e+05 2.732111e+04 -2.695825e+04
-1.414674e+05 -1.536250e+02 -2.357663e+04
-1.309008e+05 -2.013390e+04 -5.000000e+04
-1.657831e+05 -1.458550e+04 -1.943733e+04
-1.067915e+05 2.051395e+04 0.000000e+00
-1.165696e+05 3.403648e+04 -2.722950e+04
-1.200645e+05 -4.194086e+03 -2.447906e+04
-1.519659e+05 3.403267e+04 -5.000000e+04
-1.458849e+05 5.478014e+04 -2.613205e+04
-1.325786e+05 -2.633326e+04 -3.155163e+04
-2.793712e+05 -1.287870e+04 -2.447600e+04
-2.690150e+05 -1.588985e+04 0.000000e+00
-2.776150e+05 -4.734155e+04 -2.588260e+04
-2.692014e+05 -7.034586e+04 -5.000000e+04
-1.166667e+05 2.110875e+05 0.000000e+00
-2.372010e+05 -5.415727e+04 -5.000000e+04
-2.694149e+05 -6.856777e+04 -2.621697e+04
-2.501991e+05 -3.501523e+04 -2.332730e+04
-2.703625e+05 -3.436512e+04 -5.000000e+04
2.089980e+05 1.611125e+05 0.000000e+00
1.811538e+05 1.811578e+05 0.000000e+00
2.119881e+05 1.946749e+05 0.000000e+00
1.930116e+05 1.623900e+05 -2.659031e+04
1.206060e+05 1.865350e+05 0.000000e+00
1.779255e+05 1.524171e+05 -5.000000e+04
3.333333e+04 2.407250e+05 -5.000000e+04
1.774190e+05 1.470526e+05 0.000000e+00
1.831355e+05 2.109135e+05 -5.000000e+04
2.015528e+05 2.137264e+05 -2.346026e+04
2.098039e+05 1.871943e+05 -5.000000e+04
2.705524e+05 2.536129e+05 -5.000000e+04
2.706845e+05 2.531006e+05 0.000000e+00
2.743069e+05 2.803982e+05 -3.585086e+04
1.057730e+05 1.343550e+05 -2.548924e+04
1.254656e+05 1.264501e+05 -5.000000e+04
1.024469e+05 9.225141e+04 -3.157805e+04
1.312812e+05 1.061581e+05 -3.173865e+04
8.268218e+04 1.048731e+05 0.000000e+00
7.511471e+04 1.180395e+05 -2.520561e+04
8.641699e+04 1.389782e+05 0.000000e+00
-2.494326e+05 2.704780e+05 0.000000e+00
-2.754293e+05 2.772388e+05 -2.329152e+04
7.500503e+04 1.565390e+05 -2.413361e+04
-2.085686e+05 8.244010e+04 0.000000e+00
-1.793847e+05 5.889076e+04 -2.289567e+04
-2.052275e+05 4.664276e+04 0.000000e+00
-2.080532e+05 7.613015e+04 -2.716654e+04
-1.679243e+05 2.728852e+04 0.000000e+00
-1.668074e+05 6.250164e+04 0.000000e+00
-1.517020e+05 7.095084e+04 -5.000000e+04
-1.814500e+05 5.362570e+04 -5.000000e+04
-2.698465e+05 1.780353e+04 0.000000e+00
-2.535557e+05 -2.038048e+03 -2.486846e+04
-2.407250e+05 -1.676695e+04 -5.000000e+04
-2.385624e+05 3.327850e+04 0.000000e+00
-2.701582e+05 2.366609e+04 -2.512549e+04
-1.280794e+05 1.264709e+05 -5.000000e+04
-1.390269e+05 1.232790e+05 -2.341238e+04
-1.534183e+05 1.543868e+05 0.000000e+00
-3.333333e+04 2.407250e+05 0.000000e+00
-1.164153e-10 2.407250e+05 0.000000e+00
-2.699372e+04 2.266246e+05 -2.498908e+04
-3.090995e+02 2.403921e+05 -2.503408e+04
1.662067e+05 2.401366e+05 0.000000e+00
2.490570e+04 2.252702e+05 -2.498998e+04
-2.910383e-10 2.407250e+05 -5.000000e+04
-5.973752e+02 2.095920e+05 -2.493431e+04
-1.666667e+04 2.110875e+05 -5.000000e+04
-3.950861e+04 1.979618e+05 -2.508125e+04
-1.710258e+04 1.811807e+05 -2.493953e+04
-1.820902e+05 1.950823e+04 -5.000000e+04
-1.348873e+05 4.067018e+04 0.000000e+00
-2.703625e+05 8.312113e+02 -5.000000e+04
-2.343287e+05 -3.522485e+04 0.000000e+00
-5.000000e+04 2.110875e+05 -5.000000e+04
-5.891147e+04 2.233319e+05 -2.497249e+04
-1.666667e+04 2.110875e+05 0.000000e+00
-5.000000e+04 2.110875e+05 0.000000e+00
-3.333333e+04 2.407250e+05 -5.000000e+04
-2.703625e+05 5.128106e+04 0.000000e+00
-2.798290e+05 5.506578e+04 -2.489869e+04
1.833333e+05 2.703625e+05 0.000000e+00
1.998325e+05 2.422965e+05 0.000000e+00
1.847083e+05 2.389609e+05 -2.599037e+04
1.833333e+05 2.703625e+05 -5.000000e+04
2.001060e+05 2.421104e+05 -5.000000e+04
-2.703625e+05 3.602754e+04 -5.000000e+04
-2.407250e+05 1.240184e+05 -5.000000e+04
-2.110875e+05 1.064202e+05 -5.000000e+04
-2.128706e+05 -3.244956e+04 -5.000000e+04
-1.376758e+05 9.083834e+04 -2.408383e+04
-1.309008e+05 7.466438e+04 0.000000e+00
-1.197176e+05 8.569992e+04 -5.000000e+04
-2.703625e+05 2.170937e+05 0.000000e+00
-2.689793e+05 2.130584e+05 -5.000000e+04
3.072872e+04 8.427050e+04 -5.000000e+04
3.916909e+04 6.614649e+04 -3.008516e+04
4.400215e+04 1.042739e+05 -2.544703e+04
5.857286e+04 6.422522e+04 -5.000000e+04
6.913616e+04 8.052587e+04 -2.847609e+04
6.230767e+04 9.833036e+04 -5.000000e+04
-6.774293e+04 1.027841e+05 0.000000e+00
-7.972768e+04 1.172079e+05 -2.704644e+04
-1.120848e+05 6.884120e+04 -2.528609e+04
-8.229706e+04 8.068071e+04 -2.350244e+04
-8.777997e+04 9.515647e+04 -5.000000e+04
2.236379e+05 1.824909e+05 -2.510566e+04
5.148906e+04 1.379008e+05 -2.513646e+04
5.483804e+04 1.249184e+05 0.000000e+00
3.446554e+04 1.190107e+05 -5.000000e+04
5.075494e+04 1.521113e+05 -5.000000e+04
-1.761679e+05 1.743429e+05 -5.000000e+04
-6.489412e+04 1.194287e+05 -5.000000e+04
-6.395353e+04 1.382147e+05 0.000000e+00
-1.166667e+05 2.703625e+05 0.000000e+00
-8.333333e+04 2.703625e+05 -5.000000e+04
-1.165936e+05 2.391494e+05 -2.488480e+04
-1.763357e+05 1.764619e+05 0.000000e+00
-2.094809e+05 1.434237e+05 -5.000000e+04
9.388661e+04 1.123902e+05 -5.000000e+04
5.110323e+04 9.081322e+04 0.000000e+00
2.393627e+05 2.394240e+05 0.000000e+00
2.186711e+05 2.259031e+05 0.000000e+00
-1.000453e+05 1.219057e+05 -5.000000e+04
-1.509606e+05 2.098502e+05 0.000000e+00
-1.333333e+05 2.407250e+05 -5.000000e+04
-1.333333e+05 2.407250e+05 0.000000e+00
-1.166667e+05 2.110875e+05 -5.000000e+04
1.952429e+04 7.675336e+04 0.000000e+00
6.690228e+04 1.308474e+05 -5.000000e+04
-2.405446e+05 1.958355e+05 -5.000000e+04
-2.278011e+05 2.061059e+05 -2.526675e+04
-2.393400e+05 2.355274e+05 0.000000e+00
-2.414691e+05 2.003343e+05 0.000000e+00
-2.227528e+05 1.729379e+05 -2.505302e+04
-2.407250e+05 1.673499e+05 0.000000e+00
-2.407250e+05 1.592147e+05 -5.000000e+04
-2.407250e+05 1.341874e+05 0.000000e+00
-2.703625e+05 7.122387e+04 -5.000000e+04
-2.537135e+05 4.904656e+04 -2.529400e+04
-2.703625e+05 8.444358e+04 0.000000e+00
-2.534101e+05 8.302106e+04 -2.725342e+04
-2.407250e+05 5.362570e+04 -5.000000e+04
5.856177e+04 1.579786e+05 0.000000e+00
-2.407250e+05 8.882203e+04 -5.000000e+04
-2.397487e+05 6.722644e+04 0.000000e+00
-2.245560e+05 5.185892e+04 -2.884848e+04
-3.242917e+04 5.615080e+04 -5.000000e+04
-7.521256e+04 3.457380e+04 0.000000e+00
-8.457916e+04 4.767689e+04 -2.499021e+04
-9.116235e+04 8.958910e+03 -2.666876e+04
-2.110875e+05 3.602754e+04 -5.000000e+04
-2.407250e+05 1.842938e+04 -5.000000e+04
-2.110875e+05 7.122387e+04 -5.000000e+04
-1.030567e+05 5.461909e+04 0.000000e+00
-9.185226e+04 6.213623e+04 -5.000000e+04
-7.147775e+04 6.867894e+04 0.000000e+00
-6.052385e+04 7.784392e+04 -5.000000e+04
-9.558707e+04 2.803109e+04 -5.000000e+04
-3.333333e+04 1.814500e+05 -5.000000e+04
-1.575966e+04 1.497571e+05 -5.000000e+04
-1.383705e+05 6.454096e+03 0.000000e+00
1.458401e+05 1.329928e+05 0.000000e+00
1.595932e+05 1.254949e+05 -2.818214e+04
1.553833e+05 1.422223e+05 -5.000000e+04
1.533097e+05 1.064048e+05 -5.000000e+04
-2.102373e+05 1.782508e+05 -5.000000e+04
3.804907e+04 1.980717e+05 -2.512835e+04
6.087195e+04 1.870660e+05 0.000000e+00
-2.121763e+05 1.505844e+03 -5.000000e+04
-2.703625e+05 1.507686e+05 0.000000e+00
-1.232919e+05 4.862786e+04 -5.000000e+04
2.398692e+05 2.033094e+05 -5.000000e+04
2.117219e+05 2.186801e+05 -5.000000e+04
2.275578e+05 2.130834e+05 -2.505380e+04
-1.269280e+05 1.381290e+04 -5.000000e+04
-2.105485e+05 1.837023e+05 0.000000e+00
6.795329e+04 1.800893e+05 -5.000000e+04
9.466892e+04 1.478433e+05 -5.000000e+04
1.179959e+05 1.530381e+05 0.000000e+00
9.008787e+04 1.733604e+05 0.000000e+00
-1.867256e+05 -1.222473e+04 -5.000000e+04
-2.407250e+05 1.010248e+05 0.000000e+00
-2.676121e+05 1.128856e+05 -2.584794e+04
1.834589e+05 1.197429e+05 -5.000000e+04
1.905888e+05 1.301068e+05 -3.122723e+04
-1.205466e+04 6.269351e+04 0.000000e+00
-6.666667e+04 2.407250e+05 0.000000e+00
1.851315e+05 2.146542e+05 0.000000e+00
1.666667e+05 2.407250e+05 -5.000000e+04
-1.000000e+05 2.407250e+05 0.000000e+00
-8.806960e+04 2.266199e+05 -2.499853e+04
-8.333333e+04 2.110875e+05 -5.000000e+04
-7.286281e+04 1.960529e+05 -2.493157e+04
-8.333333e+04 2.110875e+05 0.000000e+00
-6.556847e+04 1.789563e+05 0.000000e+00
-4.582304e+04 1.652038e+05 -2.491916e+04
-3.328794e+04 1.822590e+05 0.000000e+00
-6.666667e+04 1.814500e+05 -5.000000e+04
-2.151905e+05 2.120171e+05 0.000000e+00
-2.133345e+05 2.126040e+05 -5.000000e+04
1.666667e+04 2.110875e+05 -5.000000e+04
3.333333e+04 1.814500e+05 -5.000000e+04
2.091881e+05 1.572329e+05 -5.000000e+04
-4.585039e+03 3.610551e+04 -5.000000e+04
-1.000000e+05 2.407250e+05 -5.000000e+04
-6.666667e+04 2.407250e+05 -5.000000e+04
-2.268340e+05 -6.873827e+04 -3.473545e+04
-2.008282e+05 -8.107676e+04 -5.000000e+04
-2.166667e+05 2.703625e+05 -5.000000e+04
9.015180e+04 7.828507e+04 -5.000000e+04
1.179959e+05 5.823978e+04 -5.000000e+04
1.217308e+05 9.234492e+04 -5.000000e+04
1.142611e+05 1.189329e+05 0.000000e+00
-1.998848e+05 2.409882e+05 -5.000000e+04
-1.165540e+05 1.530675e+05 -5.000000e+04
-2.703625e+05 1.176061e+05 0.000000e+00
-2.703625e+05 1.064202e+05 -5.000000e+04
2.384199e+05 2.384500e+05 -5.000000e+04
-2.361463e+05 -9.404033e+04 -5.000000e+04
1.000000e+05 2.407250e+05 0.000000e+00
-2.007984e+05 2.405741e+05 0.000000e+00
3.333333e+04 2.407250e+05 0.000000e+00
5.000000e+04 2.110875e+05 -5.000000e+04
4.956690e+04 2.122437e+05 0.000000e+00
-5.000000e+04 1.518124e+05 -5.000000e+04
6.666667e+04 2.407250e+05 0.000000e+00
-1.030567e+05 -4.017919e+04 -5.000000e+04
-9.486422e+04 -1.835705e+04 -3.686268e+04
-1.346356e+05 -5.423904e+04 -5.000000e+04
-9.932188e+04 -6.074051e+03 -5.000000e+04
1.666667e+04 2.110875e+05 0.000000e+00
2.413577e+05 2.033496e+05 0.000000e+00
-3.616399e+04 1.168439e+05 0.000000e+00
1.000000e+05 2.407250e+05 -5.000000e+04
-1.941335e+05 -4.846561e+04 -5.000000e+04
-1.624798e+05 -3.419376e+04 -5.000000e+04
-1.741520e+05 -5.072424e+04 -3.533246e+04
5.483804e+04 3.012007e+04 -5.000000e+04
2.699391e+04 5.016536e+04 -5.000000e+04
-7.147775e+04 -2.611934e+04 -5.000000e+04
2.076756e+05 1.323604e+05 -5.000000e+04
2.397255e+05 1.399930e+05 -5.000000e+04
2.127328e+05 1.004193e+05 -5.000000e+04
-1.586768e+05 -3.392644e+04 -2.736708e+04
-1.662146e+05 -6.829890e+04 -5.000000e+04
8.641699e+04 4.417993e+04 -5.000000e+04
-2.689627e+05 -1.058335e+05 -5.000000e+04
-2.660796e+05 -4.965310e+04 0.000000e+00
2.423412e+05 1.131888e+05 -5.000000e+04
2.706313e+05 1.234327e+05 -5.000000e+04
1.495749e+05 7.229963e+04 -5.000000e+04
-8.319851e+03 2.000368e+03 -5.000000e+04
-3.989880e+04 -1.205949e+04 -5.000000e+04
2.325910e+04 1.606022e+04 -5.000000e+04
-2.842105e+05 -1.681205e+05 -5.000000e+04
-2.875353e+05 -8.243103e+04 -1.180110e+04
-2.842105e+05 -7.433912e+04 0.000000e+00
-2.830717e+05 -9.095923e+04 -1.276082e+04
-2.841170e+05 -1.046300e+05 -2.207126e+04
2.821355e+05 1.686130e+05 -1.174490e+04
2.858109e+05 1.786517e+05 0.000000e+00
2.700215e+05 1.716218e+05 0.000000e+00
2.890397e+05 9.836916e+04 -4.556296e+04
2.715075e+05 9.331806e+04 -5.000000e+04
2.857538e+05 8.385334e+04 -5.000000e+04
2.699643e+05 7.682341e+04 -5.000000e+04
2.736304e+05 9.376692e+04 -4.508965e+04
-1.699490e+05 -5.211057e+04 -2.103768e+04
-1.628989e+05 -6.919164e+04 -2.994788e+04
-1.760524e+05 -6.666659e+04 -2.991992e+04
-1.511021e+05 -6.132219e+04 -3.362287e+04
-1.607092e+05 -7.606858e+04 -3.926382e+04
-1.585107e+05 -5.864524e+04 -2.856558e+04
-1.759127e+05 -7.523815e+04 -3.343697e+04
-1.857160e+05 -8.151669e+04 -3.544577e+04
-1.672337e+05 -8.593111e+04 -3.923615e+04
-1.560273e+05 -1.124267e+05 -5.000000e+04
-1.587584e+05 -9.632724e+04 -4.587615e+04
-1.402379e+05 -1.053968e+05 -5.000000e+04
-1.699494e+05 -1.024040e+05 -5.000000e+04
-1.383705e+05 -8.834419e+04 -5.000000e+04
-1.427686e+05 -8.407712e+04 -4.356656e+04
-1.449173e+05 -7.092331e+04 -3.841578e+04
-1.390158e+05 -5.412337e+04 -3.189530e+04
-1.252027e+05 -8.406209e+04 -4.604069e+04
-1.268561e+05 -6.574710e+04 -4.009215e+04
-1.689602e+05 -1.068857e+05 -4.571121e+04
-1.784032e+05 -9.669604e+04 -4.282308e+04
-1.244484e+05 -9.836683e+04 -5.000000e+04
-9.203264e+04 -1.855297e+04 -2.228698e+04
-8.501618e+04 -3.282426e+04 -3.194395e+04
-9.697649e+04 -3.111083e+04 -2.611264e+04
-7.107278e+04 -2.122843e+04 -2.894474e+04
-6.950658e+04 -3.473941e+04 -4.222411e+04
-6.163895e+04 -2.088628e+04 -3.256661e+04
-5.565510e+04 -3.514660e+04 -3.928757e+04
-4.106935e+04 -3.555905e+04 -4.222495e+04
-5.402731e+04 -4.820824e+04 -4.427564e+04
-4.363361e+04 -4.616463e+04 -5.000000e+04
-3.966626e+04 -4.857964e+04 -4.561551e+04
-4.550102e+04 -6.321720e+04 -5.000000e+04
-7.153492e+04 -5.728119e+04 -4.556985e+04
-7.521256e+04 -6.022448e+04 -5.000000e+04
-6.129049e+04 -7.024712e+04 -5.000000e+04
-8.611245e+04 -4.550887e+04 -4.119206e+04
-7.707996e+04 -7.727705e+04 -5.000000e+04
-9.961059e+04 -4.112032e+04 -3.226573e+04
-4.821214e+04 -1.828983e+04 -3.610288e+04
-8.653353e+04 -3.203996e+04 -4.252309e+04
-1.015624e+05 -5.237698e+04 -4.050548e+04
-8.718067e+04 -6.125634e+04 -4.401432e+04
-1.896501e+05 -5.107624e+04 -1.731236e+04
-1.791623e+05 -4.182043e+04 -1.396995e+04
-1.956316e+05 -4.242117e+04 -1.201657e+04
-1.521849e+05 -4.554132e+04 -2.131148e+04
-1.649523e+05 -4.268344e+04 -1.462171e+04
-1.806930e+05 -3.565176e+04 -9.581415e+03
-1.662218e+05 -3.529752e+04 -1.265893e+04
-1.523072e+05 -3.779581e+04 -1.425900e+04
-8.208066e+04 2.012686e+03 -1.440843e+04
-7.275563e+04 -8.722225e+03 -2.295801e+04
-9.165084e+04 -6.981273e+03 -1.460814e+04
-1.065223e+05 -2.360609e+04 -2.116335e+04
-1.206195e+05 -1.722874e+04 -1.430014e+04
-1.043349e+05 -1.228990e+04 -1.601934e+04
-1.031344e+05 -1.350865e+03 -1.143611e+04
-1.145602e+05 -9.070460e+03 -1.064516e+04
-2.824415e+05 -1.498588e+05 -4.542189e+04
-2.808738e+05 -1.350427e+05 -4.085605e+04
-2.849853e+05 -1.175263e+05 -3.232416e+04
2.766625e+05 1.420468e+05 -2.532877e+04
2.630660e+05 1.514279e+05 -1.748738e+04
2.809587e+05 1.529519e+05 -2.570590e+04
2.712499e+05 1.638060e+05 -1.533849e+04
2.858597e+05 1.490268e+05 -3.553626e+04
2.852327e+05 1.296164e+05 -3.695721e+04
2.596444e+05 1.317495e+05 -2.832376e+04
2.686224e+05 1.202891e+05 -3.642912e+04
2.863219e+05 1.125346e+05 -4.194412e+04
2.730201e+05 1.078901e+05 -4.088016e+04
2.914896e+05 1.188267e+05 -4.734395e+04
-2.714066e+05 -8.161811e+04 -1.563325e+04
-2.672504e+05 -6.677178e+04 0.000000e+00
-2.670180e+05 -9.279765e+04 -2.009568e+04
-2.538493e+05 -8.665310e+04 -2.271534e+04
-2.496726e+05 -6.943879e+04 -1.488265e+04
-2.514609e+05 -5.974185e+04 0.000000e+00
-2.859646e+05 -7.378111e+04 -1.272826e+04
-2.337210e+05 -5.883113e+04 -1.081812e+04
-2.107430e+05 -5.080814e+04 -1.651001e+04
-2.315838e+05 -6.754217e+04 -1.712003e+04
-2.136243e+05 -6.471334e+04 -1.708296e+04
-2.441615e+05 -5.441347e+04 -1.490316e+04
-2.355854e+05 -5.252773e+04 0.000000e+00
-2.331258e+05 -8.462777e+04 -2.693577e+04
-2.167998e+05 -7.803294e+04 -2.377160e+04
-2.197960e+05 -4.549780e+04 0.000000e+00
-2.039267e+05 -7.204135e+04 -2.513991e+04
-1.951341e+05 -6.728651e+04 -2.960425e+04
-2.039288e+05 -3.843511e+04 0.000000e+00
-1.881393e+05 -3.140519e+04 0.000000e+00
-1.721451e+05 -3.162841e+04 -7.007634e+03
-1.718168e+05 -2.465833e+04 0.000000e+00
-1.559797e+05 -2.091105e+04 -9.933429e+03
-1.511181e+05 -2.967507e+04 -1.302243e+04
-1.560273e+05 -1.762840e+04 0.000000e+00
-1.431729e+05 -1.885002e+04 -7.534027e+03
-1.381456e+05 -2.444814e+04 -1.381161e+04
-1.234853e+05 -2.700135e+04 -1.820103e+04
-1.335184e+05 -1.425293e+04 -1.008270e+04
-1.402379e+05 -1.059847e+04 0.000000e+00
-1.412604e+05 -3.483194e+04 -1.731490e+04
-1.244484e+05 -3.568547e+03 0.000000e+00
-1.086589e+05 3.461379e+03 0.000000e+00
-9.286944e+04 1.049131e+04 0.000000e+00
-5.826106e+04 -4.012730e+02 -2.410455e+04
-6.934707e+04 8.241237e+03 -1.396741e+04
-7.707996e+04 1.752123e+04 0.000000e+00
-6.129049e+04 2.455116e+04 0.000000e+00
-5.562660e+04 1.922304e+04 -1.342821e+04
-1.726311e+04 3.094201e+04 -1.698825e+04
-2.200603e+04 1.411825e+04 -2.376876e+04
-3.895990e+04 2.490002e+04 -1.685613e+04
-4.550102e+04 3.158109e+04 0.000000e+00
-2.971154e+04 3.861101e+04 0.000000e+00
-3.911873e+04 4.834726e+03 -2.708819e+04
-4.811315e+03 3.681347e+04 -1.511798e+04
-1.392207e+04 4.564094e+04 0.000000e+00
9.064416e+03 4.778502e+04 -1.354978e+04
1.085901e+04 2.721855e+04 -2.640049e+04
1.867406e+03 5.267087e+04 0.000000e+00
-6.449795e+03 1.667316e+04 -2.583420e+04
2.616286e+04 3.566423e+04 -2.439539e+04
1.765688e+04 5.970079e+04 0.000000e+00
2.771651e+04 5.301990e+04 -1.496408e+04
4.159577e+04 4.292141e+04 -2.329300e+04
4.687048e+04 5.937650e+04 -1.691769e+04
3.344635e+04 6.673072e+04 0.000000e+00
7.467631e+04 7.332960e+04 -1.487639e+04
5.959893e+04 6.760383e+04 -1.247816e+04
6.502530e+04 8.079057e+04 0.000000e+00
4.923583e+04 7.376065e+04 0.000000e+00
5.707188e+04 4.708137e+04 -2.470262e+04
7.017186e+04 5.685028e+04 -2.389392e+04
5.285884e+04 7.413392e+04 -1.608761e+04
8.081477e+04 8.782050e+04 0.000000e+00
8.926099e+04 8.307805e+04 -1.466184e+04
8.798357e+04 6.289054e+04 -2.557697e+04
1.025228e+05 7.057095e+04 -2.336943e+04
1.081630e+05 8.678854e+04 -1.727448e+04
9.660425e+04 9.485042e+04 0.000000e+00
1.221011e+05 9.311717e+04 -1.526119e+04
1.123937e+05 1.018804e+05 0.000000e+00
1.349552e+05 1.039782e+05 -1.448332e+04
1.314171e+05 8.263749e+04 -2.469122e+04
1.197854e+05 7.391580e+04 -2.587420e+04
1.281832e+05 1.089103e+05 0.000000e+00
1.439727e+05 1.159402e+05 0.000000e+00
1.507165e+05 1.123230e+05 -1.206426e+04
1.653059e+05 1.174245e+05 -1.397052e+04
1.609923e+05 1.026405e+05 -2.083188e+04
1.507103e+05 9.009298e+04 -2.584659e+04
1.597621e+05 1.229701e+05 0.000000e+00
2.014866e+05 1.280832e+05 -1.731031e+04
1.806454e+05 1.215050e+05 -1.462939e+04
1.913411e+05 1.370300e+05 0.000000e+00
1.755516e+05 1.300001e+05 0.000000e+00
1.759024e+05 1.072958e+05 -2.150328e+04
1.937913e+05 1.107354e+05 -2.389693e+04
2.130487e+05 1.174099e+05 -2.595406e+04
2.243066e+05 1.296362e+05 -2.197943e+04
2.125023e+05 1.399224e+05 -1.178346e+04
1.985356e+05 1.467317e+05 -1.439325e+04
2.287970e+05 1.446957e+05 -1.353646e+04
2.229200e+05 1.510898e+05 0.000000e+00
2.071306e+05 1.440599e+05 0.000000e+00
2.397392e+05 1.319127e+05 -2.293632e+04
2.441503e+05 1.478577e+05 -1.385344e+04
2.386890e+05 1.576652e+05 0.000000e+00
2.544785e+05 1.646951e+05 0.000000e+00
2.371992e+05 1.550380e+05 -1.645160e+04
2.748579e+05 1.765336e+05 -1.509769e+04
2.544990e+05 7.035141e+04 -5.000000e+04
2.608326e+05 8.544071e+04 -4.603048e+04
2.405769e+05 8.037405e+04 -5.000000e+04
2.416951e+05 8.171580e+04 -4.491126e+04
2.387095e+05 6.332148e+04 -5.000000e+04
2.279846e+05 7.034814e+04 -4.635113e+04
2.229200e+05 5.629156e+04 -5.000000e+04
2.092032e+05 6.917308e+04 -4.446428e+04
2.089980e+05 6.631420e+04 -5.000000e+04
2.071306e+05 4.926163e+04 -5.000000e+04
1.966441e+05 5.728405e+04 -4.604431e+04
1.913411e+05 4.223170e+04 -5.000000e+04
1.779028e+05 5.529898e+04 -4.449348e+04
1.774190e+05 5.225435e+04 -5.000000e+04
1.755516e+05 3.520178e+04 -5.000000e+04
1.597621e+05 2.817185e+04 -5.000000e+04
1.439727e+05 2.114192e+04 -5.000000e+04
1.470366e+05 4.111781e+04 -4.421110e+04
1.458401e+05 3.819449e+04 -5.000000e+04
1.650438e+05 4.313572e+04 -4.606920e+04
1.333891e+05 2.822238e+04 -4.637258e+04
1.281832e+05 1.411200e+04 -5.000000e+04
1.157887e+05 2.670543e+04 -4.452082e+04
1.142611e+05 2.413464e+04 -5.000000e+04
1.123937e+05 7.082069e+03 -5.000000e+04
1.017459e+05 1.427086e+04 -4.654062e+04
9.660425e+04 5.214249e+01 -5.000000e+04
8.351520e+04 1.302001e+04 -4.424542e+04
8.268218e+04 1.007479e+04 -5.000000e+04
8.081477e+04 -6.977784e+03 -5.000000e+04
7.008969e+04 1.681421e+02 -4.638205e+04
6.502530e+04 -1.400771e+04 -5.000000e+04
5.202968e+04 -1.288029e+03 -4.429861e+04
5.110323e+04 -3.985067e+03 -5.000000e+04
4.923583e+04 -2.103764e+04 -5.000000e+04
3.853263e+04 -1.406740e+04 -4.627197e+04
3.344635e+04 -2.806756e+04 -5.000000e+04
2.083218e+04 -1.542610e+04 -4.428684e+04
1.952429e+04 -1.804492e+04 -5.000000e+04
1.765688e+04 -3.509749e+04 -5.000000e+04
1.867406e+03 -4.212742e+04 -5.000000e+04
7.804193e+03 -2.611603e+04 -4.586039e+04
-1.205466e+04 -3.210477e+04 -5.000000e+04
-1.238853e+04 -3.018082e+04 -4.486417e+04
-1.392207e+04 -4.915734e+04 -5.000000e+04
-2.971154e+04 -5.618727e+04 -5.000000e+04
-2.700395e+04 -4.032422e+04 -4.575582e+04
-1.031388e+05 -7.017306e+04 -4.531080e+04
-1.067915e+05 -7.428433e+04 -5.000000e+04
-9.286944e+04 -8.430698e+04 -5.000000e+04
-1.086589e+05 -9.133690e+04 -5.000000e+04
-1.155678e+05 -7.840146e+04 -4.396283e+04
-1.718168e+05 -1.194566e+05 -5.000000e+04
-1.881112e+05 -1.261865e+05 -5.000000e+04
-1.808363e+05 -1.128420e+05 -4.645522e+04
-2.025382e+05 -1.158637e+05 -5.000000e+04
-2.030981e+05 -1.158515e+05 -4.439060e+04
-2.039007e+05 -1.332164e+05 -5.000000e+04
-2.169778e+05 -1.255575e+05 -4.504510e+04
-2.200945e+05 -1.401080e+05 -5.000000e+04
-2.285990e+05 -1.330801e+05 -4.680813e+04
-2.349258e+05 -1.296470e+05 -5.000000e+04
-2.358840e+05 -1.471379e+05 -5.000000e+04
-2.528794e+05 -1.529157e+05 -5.000000e+04
-2.445883e+05 -1.386177e+05 -4.606604e+04
-2.689166e+05 -1.412024e+05 -5.000000e+04
-2.686688e+05 -1.599456e+05 -5.000000e+04
-2.648036e+05 -1.414049e+05 -4.464223e+04
-1.149718e+05 -5.987820e+04 -3.865306e+04
-1.242049e+05 -5.194732e+04 -3.181006e+04
-1.152276e+05 -4.387444e+04 -3.052608e+04
-1.271413e+05 -3.909561e+04 -2.380720e+04
-1.101493e+05 -3.429503e+04 -2.640718e+04
-1.406482e+05 -4.531747e+04 -2.237761e+04
-2.479650e+05 -1.078427e+05 -3.339880e+04
-2.651381e+05 -1.094264e+05 -3.483897e+04
-2.487583e+05 -9.559436e+04 -3.207324e+04
-2.659178e+05 -9.582545e+04 -2.995931e+04
-2.460743e+05 -1.203147e+05 -4.322871e+04
-2.667470e+05 -1.261109e+05 -3.965595e+04
3.508658e+04 3.278543e+03 -4.245430e+04
3.280122e+04 2.102543e+04 -3.576664e+04
5.071935e+04 1.241883e+04 -4.005839e+04
5.044908e+04 3.133620e+04 -3.385442e+04
3.614783e+04 3.739027e+04 -3.348103e+04
6.831505e+04 3.331686e+04 -3.493782e+04
6.818810e+04 1.828000e+04 -4.181180e+04
1.963883e+04 1.143161e+04 -3.449991e+04
6.482008e+04 5.119885e+04 -3.880442e+04
8.213140e+04 2.629602e+04 -3.993647e+04
8.213695e+04 4.403884e+04 -3.344765e+04
1.003437e+05 3.536305e+04 -4.227388e+04
9.691283e+04 4.933229e+04 -3.230377e+04
9.847478e+04 6.292993e+04 -3.569302e+04
1.134752e+05 5.562409e+04 -3.594361e+04
1.310998e+05 4.596450e+04 -4.202961e+04
1.165697e+05 3.894447e+04 -3.997210e+04
1.306159e+05 6.141287e+04 -3.463012e+04
1.628691e+05 7.550006e+04 -3.526866e+04
1.441058e+05 7.202668e+04 -3.313048e+04
1.280161e+05 7.818609e+04 -3.912583e+04
1.627460e+05 6.018140e+04 -4.023640e+04
1.452908e+05 5.417794e+04 -3.999504e+04
1.619448e+05 9.389136e+04 -3.431069e+04
1.769413e+05 1.025948e+05 -3.276461e+04
1.781429e+05 8.620427e+04 -3.565800e+04
1.811538e+05 8.635949e+04 -5.000000e+04
1.964556e+05 8.746915e+04 -3.525411e+04
1.930810e+05 9.994063e+04 -3.217634e+04
1.768904e+05 6.841462e+04 -4.078279e+04
1.948331e+05 7.402002e+04 -4.008565e+04
1.639077e+05 8.661916e+04 -4.470110e+04
2.076584e+05 9.893236e+04 -3.422314e+04
2.250432e+05 8.846077e+04 -4.208037e+04
2.080971e+05 8.192996e+04 -4.045692e+04
2.247560e+05 1.039943e+05 -3.495573e+04
1.952363e+05 9.913668e+04 -4.446813e+04
2.201233e+05 1.220889e+05 -3.897893e+04
2.403421e+05 9.653852e+04 -4.107755e+04
2.406504e+05 1.135274e+05 -3.510201e+04
2.566227e+05 1.173791e+05 -3.251916e+04
2.579548e+05 1.018830e+05 -4.263273e+04
-2.759369e+05 -1.280823e+05 -4.668560e+04
2.847887e+03 2.102633e+04 -3.955430e+04
1.931626e+04 -2.232536e+03 -3.980697e+04
-1.151094e+04 2.399561e+02 -3.467597e+04
4.883777e+03 5.282083e+03 -3.461499e+04
3.566817e+03 -1.075566e+04 -4.235980e+04
-2.471259e+04 5.431665e+03 -3.310605e+04
-2.788681e+04 -8.637612e+03 -3.587569e+04
-2.622351e+04 -2.471017e+04 -4.076809e+04
-1.225181e+04 -1.564377e+04 -3.946700e+04
-6.756416e+04 -7.809530e+03 -3.811605e+04
2.328644e+05 9.436537e+04 -4.714352e+04
1.920185e+05 6.925138e+04 -4.740142e+04
1.604178e+05 5.526737e+04 -4.738633e+04
1.387474e+05 5.291339e+04 -4.695651e+04
7.551954e+04 2.487723e+04 -4.690969e+04
4.379720e+04 1.074112e+04 -4.689893e+04
1.236283e+04 -3.571132e+03 -4.684306e+04
-2.058569e+05 -8.443402e+04 -3.153860e+04
-2.184186e+05 -9.171506e+04 -3.396999e+04
-2.148869e+05 -1.056903e+05 -3.983080e+04
-2.328361e+05 -1.014874e+05 -3.664747e+04
-2.012194e+05 -9.779631e+04 -4.129999e+04
-2.258501e+05 -1.152561e+05 -4.216818e+04
-1.555710e+05 -5.063153e+04 -3.779400e+04
-1.236814e+05 -4.220733e+04 -3.885694e+04
-2.921053e+05 -1.892336e+05 -5.000000e+04
-2.921053e+05 -1.813338e+05 -4.583333e+04
-2.842105e+05 -1.857187e+05 -5.000000e+04
-2.921053e+05 -1.804345e+05 -5.000000e+04
-2.921053e+05 -9.443535e+04 0.000000e+00
-2.936553e+05 -8.926094e+04 -5.791761e+03
-2.921053e+05 -8.614472e+04 0.000000e+00
-2.842105e+05 -9.092038e+04 0.000000e+00
-2.896512e+05 -9.417821e+04 -6.482321e+03
-2.924531e+05 -1.017339e+05 -3.767804e+03
-2.849063e+05 -1.055174e+05 -7.535608e+03
-2.924531e+05 -1.096337e+05 -7.934471e+03
-2.921084e+05 -1.022732e+05 -8.391467e+03
-2.845584e+05 -9.821889e+04 -3.767804e+03
2.921053e+05 1.656719e+05 0.000000e+00
2.850107e+05 1.704043e+05 0.000000e+00
2.920324e+05 1.683369e+05 -4.877679e+03
2.842105e+05 1.621570e+05 0.000000e+00
2.929055e+05 1.739193e+05 0.000000e+00
2.921053e+05 1.577721e+05 -4.166667e+03
2.946967e+05 8.576506e+04 -4.650062e+04
2.928769e+05 7.912098e+04 -5.000000e+04
2.921053e+05 7.087365e+04 -5.000000e+04
2.924464e+05 7.833463e+04 -4.614491e+04
2.842105e+05 6.735869e+04 -5.000000e+04
2.845516e+05 7.481967e+04 -4.614491e+04
2.849821e+05 7.560602e+04 -5.000000e+04
2.848927e+05 8.228065e+04 -4.228983e+04
2.871967e+05 8.401583e+04 -4.551770e+04
2.924464e+05 8.623449e+04 -4.197825e+04
-1.602225e+05 -6.889674e+04 -1.750000e+04
-1.547800e+05 -7.832338e+04 -2.375000e+04
-1.628804e+05 -7.663243e+04 -2.095593e+04
-1.602485e+05 -7.042183e+04 -2.450847e+04
-1.493375e+05 -8.775002e+04 -3.000000e+04
-1.574379e+05 -8.605907e+04 -2.720593e+04
-1.568573e+05 -7.829770e+04 -2.813091e+04
-1.655383e+05 -8.436813e+04 -2.441186e+04
-1.634835e+05 -7.666630e+04 -2.716906e+04
-1.487615e+05 -8.092905e+04 -2.653765e+04
-1.518323e+05 -7.482326e+04 -3.158565e+04
-1.540791e+05 -7.364192e+04 -2.776131e+04
-1.481854e+05 -7.410809e+04 -2.307531e+04
-1.559654e+05 -8.156642e+04 -3.352474e+04
-1.647693e+05 -7.967616e+04 -3.012410e+04
-1.647147e+05 -8.584421e+04 -3.156725e+04
-1.587553e+05 -8.774725e+04 -3.419466e+04
-1.475294e+05 -9.642484e+04 -3.500000e+04
-1.517097e+05 -1.002660e+05 -4.186673e+04
-1.451966e+05 -9.481296e+04 -4.100157e+04
-1.457214e+05 -1.050997e+05 -4.000000e+04
-1.460856e+05 -8.591058e+04 -3.679316e+04
-1.543231e+05 -9.051609e+04 -3.775399e+04
-1.471206e+05 -7.981172e+04 -3.324531e+04
-1.456116e+05 -7.337729e+04 -2.989295e+04
-1.427082e+05 -8.479848e+04 -3.000000e+04
-1.381623e+05 -8.497057e+04 -3.713357e+04
-1.403383e+05 -7.856062e+04 -3.405208e+04
-1.360790e+05 -8.184694e+04 -3.000000e+04
-1.543376e+05 -9.261705e+04 -3.139288e+04
-1.525295e+05 -1.012919e+05 -3.639288e+04
-1.593377e+05 -9.748409e+04 -3.278577e+04
-1.593952e+05 -9.726814e+04 -3.906748e+04
-1.421322e+05 -7.797751e+04 -2.653765e+04
-1.542039e+05 -7.150241e+04 -2.028765e+04
-1.624380e+05 -9.092611e+04 -2.859881e+04
-1.641679e+05 -9.189611e+04 -3.719892e+04
-1.299319e+05 -9.806974e+04 -4.000000e+04
-1.378266e+05 -1.015847e+05 -4.000000e+04
-1.396347e+05 -9.290988e+04 -3.500000e+04
-1.355031e+05 -9.283348e+04 -4.260548e+04
-1.330054e+05 -8.995834e+04 -3.500000e+04
-8.067130e+04 -3.347828e+04 -1.750000e+04
-7.522883e+04 -4.290492e+04 -2.375000e+04
-8.111214e+04 -4.035426e+04 -2.102311e+04
-8.058791e+04 -3.363378e+04 -2.460171e+04
-6.978636e+04 -5.233156e+04 -3.000000e+04
-7.566966e+04 -4.978090e+04 -2.727311e+04
-7.713653e+04 -4.192244e+04 -3.056870e+04
-8.155297e+04 -4.723023e+04 -2.454623e+04
-8.506437e+04 -3.819476e+04 -2.641910e+04
-6.530647e+04 -4.383099e+04 -2.656850e+04
-6.387885e+04 -3.150186e+04 -3.131800e+04
-7.179659e+04 -3.373584e+04 -2.860547e+04
-6.082659e+04 -3.533041e+04 -2.313700e+04
-6.896632e+04 -4.171376e+04 -3.554241e+04
-7.074895e+04 -3.440435e+04 -2.031850e+04
-6.269735e+04 -5.154288e+04 -3.124873e+04
-5.310177e+04 -5.024358e+04 -3.939110e+04
-5.465910e+04 -4.259205e+04 -3.678922e+04
-5.560835e+04 -5.075420e+04 -3.249746e+04
-6.255882e+04 -4.367645e+04 -3.421732e+04
-6.184544e+04 -4.998409e+04 -3.724021e+04
-6.418187e+04 -5.931611e+04 -3.500000e+04
-6.364769e+04 -6.319323e+04 -4.329975e+04
-5.672769e+04 -5.813000e+04 -4.239914e+04
-5.857739e+04 -6.630067e+04 -4.000000e+04
-6.924250e+04 -5.405856e+04 -3.825078e+04
-7.690960e+04 -4.885521e+04 -3.625210e+04
-6.647213e+04 -6.981563e+04 -4.000000e+04
-7.436686e+04 -7.333059e+04 -4.000000e+04
-7.207661e+04 -6.283108e+04 -3.500000e+04
-7.398981e+04 -6.407930e+04 -4.150626e+04
-5.709287e+04 -5.852743e+04 -3.624873e+04
-8.359678e+04 -4.639147e+04 -3.141410e+04
-5.909242e+04 -3.510287e+04 -3.154746e+04
-5.821747e+04 -4.304231e+04 -2.781723e+04
-7.822371e+04 -4.062810e+04 -3.683374e+04
-8.304488e+04 -5.823464e+04 -3.000000e+04
-8.229893e+04 -5.273243e+04 -2.727311e+04
-7.641562e+04 -5.528310e+04 -3.000000e+04
-8.540785e+04 -5.342563e+04 -3.537973e+04
-7.744884e+04 -5.713939e+04 -3.722133e+04
-7.870587e+04 -6.578262e+04 -3.500000e+04
-1.711074e+05 -5.004346e+04 -5.000000e+03
-1.656649e+05 -5.947010e+04 -1.125000e+04
-1.737653e+05 -5.777915e+04 -8.455930e+03
-1.703291e+05 -5.269597e+04 -1.258222e+04
-1.683228e+05 -6.720579e+04 -1.470593e+04
-1.658826e+05 -6.198066e+04 -1.997661e+04
-1.764232e+05 -6.551485e+04 -1.191186e+04
-1.739014e+05 -5.925360e+04 -1.516040e+04
-1.650889e+05 -5.264913e+04 -7.787654e+03
-1.590704e+05 -5.525481e+04 -1.057531e+04
-1.596464e+05 -6.207577e+04 -1.403765e+04
-1.637227e+05 -5.527863e+04 -1.557772e+04
-1.796463e+05 -5.147528e+04 -3.750000e+03
-1.847148e+05 -4.824673e+04 -8.248428e+03
-1.801140e+05 -5.291767e+04 -1.194792e+04
-1.881853e+05 -5.290710e+04 -2.500000e+03
-1.748983e+05 -4.754296e+04 -9.864544e+03
-1.633897e+05 -4.972577e+04 -1.192898e+04
-1.677702e+05 -4.718759e+04 -8.902547e+03
-1.723958e+05 -4.587718e+04 -2.500000e+03
-1.717516e+05 -4.796032e+04 -3.750000e+03
-1.802905e+05 -4.939214e+04 -2.500000e+03
-1.768185e+05 -4.515913e+04 -7.404479e+03
-1.823042e+05 -5.921098e+04 -7.205930e+03
-1.687303e+05 -4.348620e+04 -8.589789e+03
-1.578489e+05 -4.414038e+04 -5.000000e+03
-1.584596e+05 -4.969759e+04 -7.787654e+03
-1.644781e+05 -4.709192e+04 -5.000000e+03
-1.608497e+05 -4.410895e+04 -9.738941e+03
-1.651223e+05 -4.500878e+04 -3.750000e+03
-9.155625e+04 -1.462500e+04 -5.000000e+03
-8.611378e+04 -2.405164e+04 -1.125000e+04
-9.199708e+04 -2.150098e+04 -8.523114e+03
-9.005054e+04 -1.698216e+04 -1.295341e+04
-8.655461e+04 -3.092762e+04 -1.477311e+04
-8.561813e+04 -2.490547e+04 -1.890656e+04
-9.243792e+04 -2.837695e+04 -1.204623e+04
-9.337878e+04 -2.331885e+04 -1.618530e+04
-7.171153e+04 -1.647713e+04 -1.063700e+04
-7.619142e+04 -2.497771e+04 -1.406850e+04
-8.163389e+04 -1.555107e+04 -7.818502e+03
-7.979011e+04 -1.812638e+04 -1.720658e+04
-8.525181e+04 -7.078170e+03 -2.500000e+03
-7.848167e+04 -1.177765e+04 -6.568502e+03
-8.840403e+04 -1.085159e+04 -3.750000e+03
-8.818963e+04 -8.461736e+03 -7.661016e+03
-8.263186e+04 -1.116720e+04 -1.350395e+04
-9.145924e+04 -1.190628e+04 -8.802398e+03
-9.818551e+04 -1.757654e+04 -5.000000e+03
-9.862635e+04 -2.445251e+04 -8.523114e+03
-1.048148e+05 -2.052808e+04 -5.000000e+03
-9.807407e+04 -1.927096e+04 -1.233278e+04
-1.032800e+05 -1.715375e+04 -9.855212e+03
-9.667406e+04 -1.394252e+04 -1.058049e+04
-9.314655e+04 -1.059313e+04 -2.500000e+03
-9.629877e+04 -1.436655e+04 -3.750000e+03
-1.010413e+05 -1.410810e+04 -2.500000e+03
-9.690638e+04 -9.275043e+03 -8.376405e+03
-1.029280e+05 -1.731809e+04 -3.750000e+03
-1.025685e+05 -1.278518e+04 -8.883518e+03
-2.921053e+05 -1.734339e+05 -4.166667e+04
-2.921053e+05 -1.655341e+05 -3.750000e+04
-2.842105e+05 -1.699190e+05 -4.166667e+04
-2.919832e+05 -1.660575e+05 -4.214913e+04
-2.922691e+05 -1.569250e+05 -3.292081e+04
-2.908677e+05 -1.557016e+05 -3.856166e+04
-2.896301e+05 -1.466760e+05 -3.698107e+04
-2.845382e+05 -1.527009e+05 -3.250829e+04
-2.922691e+05 -1.490252e+05 -2.875415e+04
-2.843744e+05 -1.613099e+05 -3.708748e+04
-2.924531e+05 -1.175336e+05 -1.210114e+04
-2.849063e+05 -1.213171e+05 -1.586894e+04
-2.924531e+05 -1.254334e+05 -1.626780e+04
-2.921000e+05 -1.194729e+05 -1.858089e+04
-2.922691e+05 -1.332255e+05 -2.042081e+04
-2.845382e+05 -1.369012e+05 -2.417496e+04
-2.922691e+05 -1.411253e+05 -2.458748e+04
-2.919600e+05 -1.332514e+05 -2.859300e+04
-2.847222e+05 -1.291091e+05 -2.002195e+04
-2.914750e+05 -1.244495e+05 -2.393637e+04
2.842105e+05 1.463573e+05 -8.333333e+03
2.921053e+05 1.498722e+05 -8.333333e+03
2.921053e+05 1.419724e+05 -1.250000e+04
2.893239e+05 1.539360e+05 -1.470242e+04
2.824145e+05 1.517424e+05 -1.780069e+04
2.790775e+05 1.436404e+05 -1.639048e+04
2.872203e+05 1.392690e+05 -1.989046e+04
2.880121e+05 1.454963e+05 -2.011563e+04
2.916052e+05 1.438662e+05 -2.585035e+04
2.911025e+05 1.344738e+05 -2.648407e+04
2.827651e+05 1.303865e+05 -1.641747e+04
2.834878e+05 1.383719e+05 -1.237540e+04
2.913826e+05 1.339870e+05 -1.654207e+04
2.787828e+05 1.356200e+05 -2.131746e+04
2.823070e+05 1.290666e+05 -2.682529e+04
2.913826e+05 1.260871e+05 -2.070873e+04
2.915057e+05 1.243725e+05 -2.991791e+04
2.935722e+05 9.267877e+04 -4.365514e+04
2.947856e+05 1.011961e+05 -3.891993e+04
2.924464e+05 9.413435e+04 -3.781158e+04
2.848927e+05 9.808036e+04 -3.395650e+04
2.924464e+05 1.020342e+05 -3.364491e+04
2.883775e+05 9.904934e+04 -3.917351e+04
2.827651e+05 1.145868e+05 -2.475080e+04
2.913826e+05 1.181873e+05 -2.487540e+04
2.913826e+05 1.102874e+05 -2.904207e+04
2.853814e+05 1.135417e+05 -3.305655e+04
2.944072e+05 1.165566e+05 -3.328321e+04
2.932224e+05 1.080646e+05 -3.674991e+04
2.863687e+05 1.046665e+05 -3.744796e+04
2.957628e+05 1.112088e+05 -4.005786e+04
2.838289e+05 1.063336e+05 -2.935365e+04
-2.763158e+05 -8.740542e+04 0.000000e+00
-2.842105e+05 -8.262975e+04 0.000000e+00
-2.858589e+05 -8.483192e+04 -5.235651e+03
-2.781902e+05 -8.508653e+04 -5.741107e+03
-2.763158e+05 -7.911479e+04 0.000000e+00
-2.684211e+05 -8.389046e+04 0.000000e+00
-2.821987e+05 -9.084898e+04 -5.937834e+03
-2.753468e+05 -8.915597e+04 -6.244676e+03
-2.766637e+05 -9.470393e+04 -3.767804e+03
-2.687689e+05 -9.118897e+04 -3.767804e+03
-2.691168e+05 -9.848748e+04 -7.535608e+03
-2.763589e+05 -9.460975e+04 -1.050662e+04
-2.703689e+05 -8.413501e+04 -7.849619e+03
-2.678357e+05 -7.533112e+04 0.000000e+00
-2.615287e+05 -9.564929e+04 -7.820552e+03
-2.692912e+05 -9.093582e+04 -1.046642e+04
-2.611809e+05 -8.835078e+04 -4.052748e+03
-2.539407e+05 -9.281111e+04 -8.105497e+03
-2.617049e+05 -8.730124e+04 -1.055413e+04
-2.526316e+05 -7.686053e+04 0.000000e+00
-2.532861e+05 -8.483582e+04 -4.052748e+03
-2.605263e+05 -8.037549e+04 0.000000e+00
-2.600203e+05 -7.790532e+04 -8.684716e+03
-2.599410e+05 -7.181615e+04 0.000000e+00
-2.368421e+05 -6.983060e+04 0.000000e+00
-2.374966e+05 -7.780589e+04 -4.052748e+03
-2.447368e+05 -7.334557e+04 0.000000e+00
-2.414281e+05 -7.073502e+04 -7.118589e+03
-2.381512e+05 -8.578119e+04 -8.105497e+03
-2.453914e+05 -8.132086e+04 -4.052748e+03
-2.444219e+05 -7.777624e+04 -1.140449e+04
-2.501747e+05 -7.243681e+04 -6.248615e+03
-2.520462e+05 -6.830119e+04 0.000000e+00
-2.441515e+05 -6.478623e+04 0.000000e+00
-2.289474e+05 -6.631564e+04 0.000000e+00
-2.248135e+05 -6.571031e+04 -9.368687e+03
-2.275710e+05 -6.126705e+04 -6.848656e+03
-2.210526e+05 -6.280068e+04 0.000000e+00
-2.341832e+05 -6.446386e+04 -4.789609e+03
-2.330415e+05 -6.892021e+04 -7.891705e+03
-2.400278e+05 -6.366861e+04 -7.577210e+03
-2.362138e+05 -6.117917e+04 0.000000e+00
-2.357938e+05 -7.572090e+04 -1.115719e+04
-2.303664e+05 -7.413199e+04 -3.789402e+03
-2.238906e+05 -7.843339e+04 -7.578803e+03
-2.310209e+05 -8.210729e+04 -7.842150e+03
-2.277133e+05 -7.432475e+04 -1.292136e+04
-2.224716e+05 -7.061703e+04 -3.789402e+03
-2.283190e+05 -5.766420e+04 0.000000e+00
-1.967242e+05 -5.433893e+04 -1.250000e+03
-1.889750e+05 -5.454643e+04 -9.614856e+03
-1.927520e+05 -4.929981e+04 -6.506340e+03
-1.995265e+05 -4.853287e+04 -5.005710e+03
-1.969804e+05 -5.441621e+04 -8.440751e+03
-2.052632e+05 -5.577075e+04 0.000000e+00
-1.894737e+05 -4.874082e+04 0.000000e+00
-1.888295e+05 -5.082396e+04 -1.250000e+03
-1.973684e+05 -5.225579e+04 0.000000e+00
-1.910576e+05 -4.429369e+04 -6.060877e+03
-1.993821e+05 -6.207462e+04 -4.705930e+03
-1.908432e+05 -6.064280e+04 -5.955930e+03
-1.935011e+05 -6.837850e+04 -9.411859e+03
-1.926658e+05 -6.015139e+04 -1.239999e+04
-2.131579e+05 -5.928571e+04 0.000000e+00
-2.170882e+05 -5.670945e+04 -6.333835e+03
-2.164244e+05 -6.254784e+04 -8.174508e+03
-2.086207e+05 -6.122461e+04 -8.000435e+03
-2.062520e+05 -5.474647e+04 -8.733918e+03
-2.066822e+05 -6.358710e+04 -3.789402e+03
-2.081012e+05 -7.140346e+04 -7.578803e+03
-2.145769e+05 -6.710207e+04 -3.789402e+03
-2.106213e+05 -6.761416e+04 -1.093093e+04
-2.204243e+05 -5.414924e+04 0.000000e+00
-2.125296e+05 -5.063428e+04 0.000000e+00
-2.008011e+05 -6.989098e+04 -8.495331e+03
-2.039890e+05 -6.483321e+04 -1.311239e+04
-1.990393e+05 -6.260696e+04 -1.499472e+04
-1.967012e+05 -4.358797e+04 0.000000e+00
-2.045960e+05 -4.710293e+04 0.000000e+00
-2.031744e+05 -4.628466e+04 -7.690373e+03
-1.736842e+05 -4.171090e+04 0.000000e+00
-1.730400e+05 -4.379404e+04 -1.250000e+03
-1.815789e+05 -4.522586e+04 0.000000e+00
-1.756058e+05 -3.840783e+04 -4.310886e+03
-1.809347e+05 -4.730900e+04 -1.250000e+03
-1.778780e+05 -4.208392e+04 -5.791265e+03
-1.839792e+05 -4.133050e+04 -3.998341e+03
-1.712713e+05 -4.115056e+04 -6.970932e+03
-1.690920e+05 -3.762596e+04 -5.323832e+03
-1.664107e+05 -4.084250e+04 -1.250000e+03
-1.591373e+05 -3.997410e+04 -2.500000e+03
-1.657665e+05 -4.292564e+04 -2.500000e+03
-1.637254e+05 -3.837484e+04 -7.059844e+03
-1.888065e+05 -4.007301e+04 0.000000e+00
-1.809118e+05 -3.655804e+04 0.000000e+00
-1.711214e+05 -3.600438e+04 -2.584889e+03
-1.727505e+05 -3.318461e+04 0.000000e+00
-1.657895e+05 -3.819593e+04 0.000000e+00
-1.616657e+05 -3.381248e+04 -5.819370e+03
-1.661257e+05 -3.181054e+04 -4.204312e+03
-1.578947e+05 -3.468097e+04 0.000000e+00
-1.585160e+05 -3.732754e+04 -1.250000e+03
-1.648558e+05 -2.966965e+04 0.000000e+00
-1.500000e+05 -3.116601e+04 0.000000e+00
-1.563325e+05 -2.711881e+04 -4.099000e+03
-1.539730e+05 -3.101787e+04 -5.598011e+03
-1.467777e+05 -2.839008e+04 -5.579189e+03
-1.475619e+05 -2.389943e+04 -5.445407e+03
-1.421053e+05 -2.765104e+04 0.000000e+00
-1.427265e+05 -3.029761e+04 -1.250000e+03
-1.433478e+05 -3.294417e+04 -2.500000e+03
-1.506213e+05 -3.381257e+04 -1.250000e+03
-1.489074e+05 -3.223880e+04 -7.433084e+03
-1.569610e+05 -2.615469e+04 0.000000e+00
-1.490663e+05 -2.263972e+04 0.000000e+00
-1.400476e+05 -2.529556e+04 -6.097977e+03
-1.425586e+05 -2.303802e+04 -3.682626e+03
-1.360973e+05 -2.734607e+04 -1.250000e+03
-1.342485e+05 -2.649891e+04 -7.126703e+03
-1.331558e+05 -2.214822e+04 -5.833994e+03
-1.300893e+05 -2.704110e+04 -2.500000e+03
-1.376751e+05 -2.017783e+04 -3.744349e+03
-1.411716e+05 -1.912476e+04 0.000000e+00
-1.367185e+05 -2.999264e+04 -2.500000e+03
-1.410632e+05 -2.936995e+04 -7.477226e+03
-1.342105e+05 -2.413608e+04 0.000000e+00
-1.288844e+05 -1.675277e+04 -5.039439e+03
-1.332768e+05 -1.560980e+04 0.000000e+00
-1.263158e+05 -2.062112e+04 0.000000e+00
-1.282025e+05 -2.383111e+04 -1.250000e+03
-9.473684e+04 -6.561265e+03 0.000000e+00
-9.788906e+04 -1.033468e+04 -1.250000e+03
-1.026316e+05 -1.007623e+04 0.000000e+00
-9.767893e+04 -2.978003e+03 -6.274501e+03
-1.057838e+05 -1.384964e+04 -1.250000e+03
-1.030176e+05 -9.117297e+03 -6.158780e+03
-1.105263e+05 -1.359119e+04 0.000000e+00
-1.055916e+05 -6.437536e+03 -3.999867e+03
-1.124131e+05 -1.680118e+04 -1.250000e+03
-1.117742e+05 -1.059382e+04 -4.446765e+03
-1.076705e+05 -1.705963e+04 -2.500000e+03
-1.070692e+05 -1.308702e+04 -6.019838e+03
-1.142998e+05 -2.001117e+04 -2.500000e+03
-1.138759e+05 -1.556446e+04 -5.476683e+03
-1.184211e+05 -1.710615e+04 0.000000e+00
-1.253821e+05 -1.209483e+04 0.000000e+00
-1.205347e+05 -1.444127e+04 -4.665209e+03
-1.174873e+05 -8.579869e+03 0.000000e+00
-1.203078e+05 -2.031615e+04 -1.250000e+03
-1.016979e+05 -1.549943e+03 0.000000e+00
-1.095926e+05 -5.064906e+03 0.000000e+00
-7.894737e+04 4.686618e+02 0.000000e+00
-7.217723e+04 -4.230819e+03 -4.068502e+03
-8.209959e+04 -3.304754e+03 -1.250000e+03
-7.940217e+04 4.397748e+02 -6.570683e+03
-6.540709e+04 -8.930299e+03 -8.137004e+03
-7.532945e+04 -8.004235e+03 -5.318502e+03
-7.215268e+04 -5.667528e+03 -1.173936e+04
-8.400908e+04 -4.305587e+03 -7.435205e+03
-8.684211e+04 -3.046302e+03 0.000000e+00
-8.999433e+04 -6.819718e+03 -1.250000e+03
-8.896876e+04 -2.771207e+02 -5.398910e+03
-9.380314e+04 1.965020e+03 0.000000e+00
-8.590840e+04 5.479984e+03 0.000000e+00
-6.839633e+04 -6.922238e+02 -1.005219e+04
-7.270899e+04 3.166220e+03 -5.548726e+03
-7.801367e+04 8.994947e+03 0.000000e+00
-7.105263e+04 3.983625e+03 0.000000e+00
-6.590388e+04 7.786991e+03 -6.883015e+03
-7.011893e+04 1.250991e+04 0.000000e+00
-6.315789e+04 7.498588e+03 0.000000e+00
-6.428249e+04 -7.158553e+02 -4.068502e+03
-5.526316e+04 1.101355e+04 0.000000e+00
-6.222419e+04 1.602487e+04 0.000000e+00
-5.838523e+04 1.280205e+04 -6.177779e+03
-5.022516e+04 1.474725e+04 -6.078840e+03
-5.432946e+04 1.953984e+04 0.000000e+00
-4.736842e+04 1.452851e+04 0.000000e+00
-4.849302e+04 6.314071e+03 -4.068502e+03
-4.961762e+04 -1.900372e+03 -8.137004e+03
-5.638776e+04 2.799108e+03 -4.068502e+03
-5.198457e+04 7.118770e+03 -1.273643e+04
-3.157895e+04 2.155844e+04 0.000000e+00
-3.232212e+04 1.354126e+04 -4.054031e+03
-3.947368e+04 1.804348e+04 0.000000e+00
-3.329625e+04 2.371292e+04 -9.287039e+03
-3.306529e+04 5.524071e+03 -8.108063e+03
-4.021686e+04 1.002629e+04 -4.054031e+03
-3.678417e+04 1.507454e+04 -1.023548e+04
-4.306219e+04 1.988332e+04 -7.176555e+03
-4.643472e+04 2.305480e+04 0.000000e+00
-3.853998e+04 2.656976e+04 0.000000e+00
-4.358697e+04 1.130243e+04 -1.087650e+04
-4.134145e+04 1.811849e+03 -8.122533e+03
-1.578947e+04 2.858837e+04 0.000000e+00
-1.653265e+04 2.057118e+04 -4.054031e+03
-2.368421e+04 2.507340e+04 0.000000e+00
-1.543894e+04 2.849358e+04 -7.509542e+03
-1.727582e+04 1.255400e+04 -8.108063e+03
-2.442738e+04 1.705622e+04 -4.054031e+03
-1.716208e+04 2.085640e+04 -1.234979e+04
-2.518924e+04 2.669681e+04 -6.960561e+03
-3.064524e+04 3.008473e+04 0.000000e+00
-2.275051e+04 3.359969e+04 0.000000e+00
-8.940004e+03 3.134478e+04 -5.971826e+03
-1.485577e+04 3.711465e+04 0.000000e+00
-1.309672e-10 3.561829e+04 0.000000e+00
-7.172497e+02 2.761207e+04 -4.054340e+03
-7.894737e+03 3.210333e+04 0.000000e+00
-2.170304e+03 3.616359e+04 -7.326856e+03
-1.434499e+03 1.960584e+04 -8.108679e+03
-8.611987e+03 2.409710e+04 -4.054340e+03
-4.286261e+03 2.795842e+04 -1.079533e+04
-6.961034e+03 4.062962e+04 0.000000e+00
-9.355158e+03 1.607992e+04 -8.108371e+03
-9.576182e+03 2.330505e+04 -1.172019e+04
1.578947e+04 4.264822e+04 0.000000e+00
1.507222e+04 3.464199e+04 -4.054340e+03
7.894737e+03 3.913326e+04 0.000000e+00
1.355677e+04 4.304681e+04 -6.161595e+03
1.435497e+04 2.663576e+04 -8.108679e+03
7.177487e+03 3.112703e+04 -4.054340e+03
1.249306e+04 3.555775e+04 -1.282267e+04
5.286617e+03 4.093065e+04 -6.289377e+03
9.337029e+02 4.414458e+04 0.000000e+00
8.828440e+03 4.765954e+04 0.000000e+00
2.294981e+04 3.814982e+04 -4.054075e+03
3.011014e+04 3.365142e+04 -8.108150e+03
2.223256e+04 3.014359e+04 -8.108415e+03
2.064036e+04 3.955433e+04 -1.062817e+04
1.672318e+04 5.117451e+04 0.000000e+00
2.163906e+04 4.753496e+04 -6.795342e+03
2.914854e+04 4.205499e+04 -1.045684e+04
2.368421e+04 4.616318e+04 0.000000e+00
3.022147e+04 4.962115e+04 -6.428556e+03
2.461791e+04 5.468947e+04 0.000000e+00
3.157895e+04 4.967815e+04 0.000000e+00
3.084454e+04 4.166478e+04 -4.054075e+03
3.947368e+04 5.319311e+04 0.000000e+00
3.251265e+04 5.820443e+04 0.000000e+00
3.831819e+04 5.423047e+04 -7.426284e+03
4.888840e+04 5.686993e+04 -7.595805e+03
4.040739e+04 6.171940e+04 0.000000e+00
4.736842e+04 5.670807e+04 0.000000e+00
3.873928e+04 4.517975e+04 -4.054075e+03
4.663402e+04 4.869471e+04 -4.054075e+03
4.589961e+04 4.068134e+04 -8.108150e+03
4.566901e+04 4.848957e+04 -1.153537e+04
5.526316e+04 6.022304e+04 0.000000e+00
6.186432e+04 6.375365e+04 -5.650703e+03
5.619686e+04 6.874932e+04 0.000000e+00
6.315789e+04 6.373800e+04 0.000000e+00
4.830212e+04 6.523436e+04 0.000000e+00
5.481677e+04 6.172513e+04 -5.063665e+03
5.454529e+04 5.221751e+04 -4.053825e+03
5.450517e+04 5.140247e+04 -1.206870e+04
5.903040e+04 5.667258e+04 -1.018462e+04
6.172217e+04 4.772695e+04 -8.107649e+03
6.244003e+04 5.573248e+04 -4.053825e+03
5.178450e+04 6.452371e+04 -8.007932e+03
5.381089e+04 4.420415e+04 -8.107900e+03
7.105263e+04 6.725296e+04 0.000000e+00
6.409160e+04 7.226429e+04 0.000000e+00
6.924871e+04 6.804046e+04 -6.654235e+03
7.726636e+04 7.040550e+04 -6.307827e+03
7.198633e+04 7.577925e+04 0.000000e+00
7.894737e+04 7.076793e+04 0.000000e+00
7.033477e+04 5.924744e+04 -4.053825e+03
7.822951e+04 6.276240e+04 -4.053825e+03
7.751164e+04 5.475688e+04 -8.107649e+03
7.593399e+04 6.243049e+04 -1.108059e+04
7.988107e+04 7.929421e+04 0.000000e+00
8.407622e+04 7.597595e+04 -6.987132e+03
8.612648e+04 6.627841e+04 -4.053799e+03
8.394616e+04 6.704431e+04 -1.193861e+04
9.110151e+04 7.104761e+04 -1.184582e+04
9.330558e+04 6.178889e+04 -8.107598e+03
8.684211e+04 7.428289e+04 0.000000e+00
9.181569e+04 7.849046e+04 -6.518781e+03
8.777581e+04 8.280918e+04 0.000000e+00
9.473684e+04 7.779785e+04 0.000000e+00
9.402121e+04 6.979337e+04 -4.053799e+03
8.540861e+04 5.827288e+04 -8.107624e+03
1.026316e+05 8.131282e+04 0.000000e+00
9.567054e+04 8.632414e+04 0.000000e+00
1.000473e+05 8.303116e+04 -7.487551e+03
1.106217e+05 8.460187e+04 -7.808931e+03
1.035653e+05 8.983910e+04 0.000000e+00
1.105263e+05 8.482778e+04 0.000000e+00
1.019159e+05 7.330833e+04 -4.053799e+03
1.098107e+05 7.682330e+04 -4.053799e+03
1.090951e+05 6.881882e+04 -8.107598e+03
1.075654e+05 7.716246e+04 -1.125070e+04
1.175439e+05 8.740417e+04 -6.263577e+03
1.114600e+05 9.335407e+04 0.000000e+00
1.184211e+05 8.834274e+04 0.000000e+00
1.177056e+05 8.033838e+04 -4.053787e+03
1.263158e+05 9.185771e+04 0.000000e+00
1.256004e+05 8.385334e+04 -4.053787e+03
1.241487e+05 9.211765e+04 -7.192450e+03
1.248849e+05 7.584897e+04 -8.107574e+03
1.234419e+05 8.413301e+04 -1.239773e+04
1.177789e+05 7.921741e+04 -1.313376e+04
1.193548e+05 9.686903e+04 0.000000e+00
1.169900e+05 7.233389e+04 -8.107586e+03
1.342105e+05 9.537267e+04 0.000000e+00
1.334951e+05 8.736830e+04 -4.053787e+03
1.312345e+05 9.742972e+04 -5.985239e+03
1.421053e+05 9.888763e+04 0.000000e+00
1.413898e+05 9.088327e+04 -4.053787e+03
1.397895e+05 9.943808e+04 -6.396267e+03
1.406744e+05 8.287890e+04 -8.107574e+03
1.372472e+05 9.192056e+04 -1.065256e+04
1.272495e+05 1.003840e+05 0.000000e+00
1.351442e+05 1.038990e+05 0.000000e+00
1.430390e+05 1.074139e+05 0.000000e+00
1.500000e+05 1.024026e+05 0.000000e+00
1.492840e+05 9.439818e+04 -4.053677e+03
1.466103e+05 1.047273e+05 -6.475897e+03
1.578947e+05 1.059176e+05 0.000000e+00
1.571787e+05 9.791314e+04 -4.053677e+03
1.559639e+05 1.076347e+05 -7.006018e+03
1.564627e+05 8.990872e+04 -8.107353e+03
1.521908e+05 9.994239e+04 -8.237477e+03
1.485686e+05 8.639381e+04 -8.107464e+03
1.476737e+05 9.629357e+04 -1.265791e+04
1.509337e+05 1.109289e+05 0.000000e+00
1.657895e+05 1.094325e+05 0.000000e+00
1.650735e+05 1.014281e+05 -4.053677e+03
1.632960e+05 1.119379e+05 -5.672750e+03
1.736842e+05 1.129475e+05 0.000000e+00
1.729682e+05 1.049431e+05 -4.053677e+03
1.706333e+05 1.155581e+05 -6.540589e+03
1.722522e+05 9.693864e+04 -8.107353e+03
1.686715e+05 1.067231e+05 -1.055512e+04
1.588284e+05 1.144438e+05 0.000000e+00
1.667232e+05 1.179588e+05 0.000000e+00
1.815789e+05 1.164625e+05 0.000000e+00
1.865283e+05 1.185394e+05 -8.005319e+03
1.825127e+05 1.249887e+05 0.000000e+00
1.894737e+05 1.199774e+05 0.000000e+00
1.746179e+05 1.214738e+05 0.000000e+00
1.779752e+05 1.168112e+05 -6.017735e+03
1.801393e+05 1.004527e+05 -8.106056e+03
1.751022e+05 1.098312e+05 -9.726059e+03
1.808553e+05 1.084571e+05 -4.052380e+03
1.880263e+05 1.039667e+05 -8.104759e+03
1.828677e+05 1.104296e+05 -1.009515e+04
1.887500e+05 1.119720e+05 -4.052380e+03
1.973684e+05 1.234924e+05 0.000000e+00
1.904074e+05 1.285037e+05 0.000000e+00
1.942330e+05 1.246827e+05 -7.830067e+03
2.046531e+05 1.268842e+05 -7.866048e+03
1.983021e+05 1.320187e+05 0.000000e+00
2.052632e+05 1.270073e+05 0.000000e+00
1.966448e+05 1.154870e+05 -4.052380e+03
2.045395e+05 1.190020e+05 -4.052380e+03
2.038158e+05 1.109966e+05 -8.104759e+03
2.017564e+05 1.191006e+05 -1.120190e+04
2.124115e+05 1.224857e+05 -4.063514e+03
2.105702e+05 1.215924e+05 -1.288928e+04
2.134833e+05 1.278426e+05 -9.005550e+03
2.195599e+05 1.179641e+05 -8.127028e+03
2.097447e+05 1.333247e+05 -5.219637e+03
2.027531e+05 1.364292e+05 -6.955264e+03
2.131579e+05 1.305223e+05 0.000000e+00
2.210526e+05 1.340373e+05 0.000000e+00
2.203063e+05 1.260007e+05 -4.063514e+03
2.184903e+05 1.354786e+05 -7.475617e+03
2.140916e+05 1.390486e+05 0.000000e+00
2.061969e+05 1.355336e+05 0.000000e+00
2.116879e+05 1.144803e+05 -8.115893e+03
2.289474e+05 1.375522e+05 0.000000e+00
2.282010e+05 1.295156e+05 -4.063514e+03
2.263172e+05 1.395792e+05 -5.651054e+03
2.368421e+05 1.410672e+05 0.000000e+00
2.360957e+05 1.330306e+05 -4.063514e+03
2.346488e+05 1.416213e+05 -6.645216e+03
2.353494e+05 1.249940e+05 -8.127028e+03
2.319976e+05 1.340100e+05 -1.087595e+04
2.219863e+05 1.425636e+05 0.000000e+00
2.298811e+05 1.460785e+05 0.000000e+00
2.432678e+05 1.285602e+05 -8.105581e+03
2.390113e+05 1.367097e+05 -9.681976e+03
2.440141e+05 1.365968e+05 -4.042067e+03
2.418458e+05 1.446081e+05 -5.808187e+03
2.511862e+05 1.321264e+05 -8.084134e+03
2.476617e+05 1.388870e+05 -1.135517e+04
2.377656e+05 1.493662e+05 0.000000e+00
2.447368e+05 1.445822e+05 0.000000e+00
2.483772e+05 1.466148e+05 -6.477150e+03
2.456603e+05 1.528812e+05 0.000000e+00
2.526316e+05 1.480971e+05 0.000000e+00
2.519089e+05 1.401117e+05 -4.042067e+03
2.377267e+05 1.478382e+05 -7.405355e+03
2.763158e+05 1.586420e+05 0.000000e+00
2.854836e+05 1.639993e+05 -6.224381e+03
2.771160e+05 1.668894e+05 0.000000e+00
2.692213e+05 1.633744e+05 0.000000e+00
2.765736e+05 1.613581e+05 -4.768901e+03
2.684211e+05 1.551270e+05 0.000000e+00
2.763158e+05 1.507422e+05 -4.166667e+03
2.842105e+05 1.542571e+05 -4.166667e+03
2.827180e+05 1.567251e+05 -9.457731e+03
2.734151e+05 1.480353e+05 -1.159681e+04
2.755373e+05 1.538835e+05 -1.231532e+04
2.723483e+05 1.583607e+05 -7.762304e+03
2.663104e+05 1.523907e+05 -7.977462e+03
2.669757e+05 1.391563e+05 -8.084134e+03
2.676984e+05 1.471417e+05 -4.042067e+03
2.755931e+05 1.427568e+05 -8.208733e+03
2.654304e+05 1.440379e+05 -1.346268e+04
2.605263e+05 1.516121e+05 0.000000e+00
2.535550e+05 1.563961e+05 0.000000e+00
2.564220e+05 1.498401e+05 -8.086826e+03
2.614498e+05 1.599111e+05 0.000000e+00
2.598036e+05 1.436267e+05 -4.042067e+03
2.734099e+05 1.649464e+05 -7.525087e+03
2.763158e+05 6.384373e+04 -5.000000e+04
2.766569e+05 7.130471e+04 -4.614491e+04
2.770874e+05 7.209105e+04 -5.000000e+04
2.684211e+05 6.032876e+04 -5.000000e+04
2.687622e+05 6.778974e+04 -4.614491e+04
2.691927e+05 6.857609e+04 -5.000000e+04
2.691033e+05 7.525072e+04 -4.228983e+04
2.710187e+05 7.714679e+04 -4.583755e+04
2.629132e+05 7.311682e+04 -4.647528e+04
2.614600e+05 6.534009e+04 -5.000000e+04
2.615368e+05 7.218531e+04 -4.212982e+04
2.611957e+05 6.472433e+04 -4.598490e+04
2.539704e+05 6.911989e+04 -4.196981e+04
2.540911e+05 6.809667e+04 -4.665664e+04
2.605263e+05 5.681380e+04 -5.000000e+04
2.526316e+05 5.329884e+04 -5.000000e+04
2.533010e+05 6.120937e+04 -4.598490e+04
2.535653e+05 6.182512e+04 -5.000000e+04
2.447368e+05 4.978387e+04 -5.000000e+04
2.454063e+05 5.769440e+04 -4.598490e+04
2.456705e+05 5.831016e+04 -5.000000e+04
2.368421e+05 4.626891e+04 -5.000000e+04
2.375115e+05 5.417944e+04 -4.598490e+04
2.377758e+05 5.479520e+04 -5.000000e+04
2.381809e+05 6.208997e+04 -4.196981e+04
2.389899e+05 6.349669e+04 -4.559110e+04
2.303728e+05 5.861530e+04 -4.196888e+04
2.326681e+05 5.805508e+04 -4.633364e+04
2.297033e+05 5.070477e+04 -4.598397e+04
2.298811e+05 5.128023e+04 -5.000000e+04
2.225646e+05 5.514064e+04 -4.196795e+04
2.234034e+05 5.532686e+04 -4.608197e+04
2.289474e+05 4.275395e+04 -5.000000e+04
2.210526e+05 3.923898e+04 -5.000000e+04
2.218086e+05 4.718981e+04 -4.598397e+04
2.219863e+05 4.776527e+04 -5.000000e+04
2.131579e+05 3.572402e+04 -5.000000e+04
2.139139e+05 4.367485e+04 -4.598397e+04
2.140916e+05 4.425031e+04 -5.000000e+04
2.052632e+05 3.220906e+04 -5.000000e+04
2.060191e+05 4.015989e+04 -4.598397e+04
2.061969e+05 4.073534e+04 -5.000000e+04
2.067751e+05 4.811071e+04 -4.196795e+04
2.075242e+05 4.965515e+04 -4.560404e+04
1.988918e+05 4.460109e+04 -4.196782e+04
2.011883e+05 4.410159e+04 -4.631144e+04
1.981358e+05 3.665027e+04 -4.598385e+04
1.983021e+05 3.722038e+04 -5.000000e+04
1.910085e+05 4.109147e+04 -4.196769e+04
1.918518e+05 4.132150e+04 -4.607548e+04
1.973684e+05 2.869409e+04 -5.000000e+04
1.894737e+05 2.517913e+04 -5.000000e+04
1.902411e+05 3.313530e+04 -4.598385e+04
1.904074e+05 3.370542e+04 -5.000000e+04
1.815789e+05 2.166417e+04 -5.000000e+04
1.823464e+05 2.962034e+04 -4.598385e+04
1.825127e+05 3.019045e+04 -5.000000e+04
1.736842e+05 1.814920e+04 -5.000000e+04
1.744516e+05 2.610538e+04 -4.598385e+04
1.746179e+05 2.667549e+04 -5.000000e+04
1.752191e+05 3.406155e+04 -4.196769e+04
1.759751e+05 3.562414e+04 -4.560932e+04
1.657895e+05 1.463424e+04 -5.000000e+04
1.665581e+05 2.259100e+04 -4.598383e+04
1.667232e+05 2.316053e+04 -5.000000e+04
1.578947e+05 1.111928e+04 -5.000000e+04
1.586634e+05 1.907604e+04 -4.598383e+04
1.588284e+05 1.964556e+04 -5.000000e+04
1.594321e+05 2.703279e+04 -4.196766e+04
1.616497e+05 2.819785e+04 -4.567197e+04
1.673256e+05 3.054717e+04 -4.196768e+04
1.697788e+05 3.011262e+04 -4.632801e+04
1.500000e+05 7.604315e+03 -5.000000e+04
1.507687e+05 1.556107e+04 -4.598383e+04
1.509337e+05 1.613060e+04 -5.000000e+04
1.421053e+05 4.089352e+03 -5.000000e+04
1.428739e+05 1.204611e+04 -4.598383e+04
1.430390e+05 1.261564e+04 -5.000000e+04
1.436426e+05 2.000287e+04 -4.196766e+04
1.446214e+05 2.141732e+04 -4.568526e+04
1.357478e+05 1.648794e+04 -4.196761e+04
1.380675e+05 1.590370e+04 -4.631446e+04
1.349791e+05 8.531182e+03 -4.598378e+04
1.351442e+05 9.100674e+03 -5.000000e+04
1.278529e+05 1.297301e+04 -4.196757e+04
1.287556e+05 1.315740e+04 -4.607050e+04
1.342105e+05 5.743884e+02 -5.000000e+04
1.263158e+05 -2.940575e+03 -5.000000e+04
1.270844e+05 5.016218e+03 -4.598378e+04
1.272495e+05 5.585710e+03 -5.000000e+04
1.184211e+05 -6.455538e+03 -5.000000e+04
1.191896e+05 1.501255e+03 -4.598378e+04
1.193548e+05 2.070747e+03 -5.000000e+04
1.105263e+05 -9.970501e+03 -5.000000e+04
1.112949e+05 -2.013708e+03 -4.598378e+04
1.114600e+05 -1.444216e+03 -5.000000e+04
1.120634e+05 5.943085e+03 -4.196757e+04
1.127673e+05 7.459690e+03 -4.558847e+04
1.041673e+05 2.428204e+03 -4.196719e+04
1.064207e+05 1.892708e+03 -4.629733e+04
1.033987e+05 -5.528589e+03 -4.598341e+04
1.035653e+05 -4.959179e+03 -5.000000e+04
9.627111e+04 -1.086677e+03 -4.196681e+04
9.713233e+04 -8.822267e+02 -4.606169e+04
1.026316e+05 -1.348546e+04 -5.000000e+04
9.473684e+04 -1.700043e+04 -5.000000e+04
9.550397e+04 -9.043553e+03 -4.598341e+04
9.567054e+04 -8.474143e+03 -5.000000e+04
8.684211e+04 -2.051539e+04 -5.000000e+04
8.760924e+04 -1.255852e+04 -4.598341e+04
8.777581e+04 -1.198911e+04 -5.000000e+04
7.894737e+04 -2.403035e+04 -5.000000e+04
7.971450e+04 -1.607348e+04 -4.598341e+04
7.988107e+04 -1.550407e+04 -5.000000e+04
8.048163e+04 -8.116604e+03 -4.196681e+04
8.116269e+04 -6.603496e+03 -4.560756e+04
7.258825e+04 -1.163227e+04 -4.196750e+04
7.483946e+04 -1.218192e+04 -4.629987e+04
7.182112e+04 -1.958915e+04 -4.598409e+04
7.198633e+04 -1.901903e+04 -5.000000e+04
6.469486e+04 -1.514794e+04 -4.196819e+04
6.556123e+04 -1.495164e+04 -4.606758e+04
7.105263e+04 -2.754532e+04 -5.000000e+04
6.315789e+04 -3.106028e+04 -5.000000e+04
6.392638e+04 -2.310411e+04 -4.598409e+04
6.409160e+04 -2.253400e+04 -5.000000e+04
5.526316e+04 -3.457524e+04 -5.000000e+04
5.603164e+04 -2.661907e+04 -4.598409e+04
5.619686e+04 -2.604896e+04 -5.000000e+04
4.736842e+04 -3.809021e+04 -5.000000e+04
4.813691e+04 -3.013404e+04 -4.598409e+04
4.830212e+04 -2.956392e+04 -5.000000e+04
4.890539e+04 -2.217786e+04 -4.196819e+04
4.960526e+04 -2.065762e+04 -4.561244e+04
4.100915e+04 -2.569238e+04 -4.196760e+04
4.344332e+04 -2.619898e+04 -4.632750e+04
4.024066e+04 -3.364855e+04 -4.598350e+04
4.040739e+04 -3.307889e+04 -5.000000e+04
3.311290e+04 -2.920689e+04 -4.196701e+04
3.537859e+04 -2.809478e+04 -4.567332e+04
3.234593e+04 -3.716351e+04 -4.598350e+04
3.947368e+04 -4.160517e+04 -5.000000e+04
3.157895e+04 -4.512013e+04 -5.000000e+04
3.251265e+04 -3.659385e+04 -5.000000e+04
1.732343e+04 -3.623682e+04 -4.196701e+04
2.445119e+04 -4.067848e+04 -4.598350e+04
1.655645e+04 -4.419344e+04 -4.598350e+04
1.890287e+04 -3.453730e+04 -4.575318e+04
2.368421e+04 -4.863510e+04 -5.000000e+04
2.461791e+04 -4.010881e+04 -5.000000e+04
1.578947e+04 -5.215006e+04 -5.000000e+04
1.672318e+04 -4.362378e+04 -5.000000e+04
1.074269e+04 -3.884750e+04 -4.642686e+04
8.828440e+03 -4.713874e+04 -5.000000e+04
9.437618e+03 -3.973076e+04 -4.195801e+04
8.670640e+03 -4.768738e+04 -4.597451e+04
1.551807e+03 -4.322469e+04 -4.194902e+04
3.362293e+03 -4.345884e+04 -4.633259e+04
5.093170e-11 -5.917999e+04 -5.000000e+04
7.759035e+02 -5.120234e+04 -4.597451e+04
7.894737e+03 -5.566502e+04 -5.000000e+04
9.337029e+02 -5.065370e+04 -5.000000e+04
-1.578947e+04 -6.620991e+04 -5.000000e+04
-1.501357e+04 -5.823227e+04 -4.597451e+04
-7.894737e+03 -6.269495e+04 -5.000000e+04
-1.485577e+04 -5.768363e+04 -5.000000e+04
-1.423767e+04 -5.025462e+04 -4.194902e+04
-7.118833e+03 -5.471730e+04 -4.597451e+04
-1.206534e+04 -4.863562e+04 -4.560665e+04
-6.961034e+03 -5.416867e+04 -5.000000e+04
-2.219969e+04 -6.195165e+04 -4.624873e+04
-2.275051e+04 -6.119859e+04 -5.000000e+04
-2.860990e+04 -5.769338e+04 -4.249746e+04
-2.142379e+04 -5.397400e+04 -4.222324e+04
-2.793346e+04 -5.624825e+04 -4.564925e+04
-1.983634e+04 -5.408639e+04 -4.652453e+04
-2.368421e+04 -6.972488e+04 -5.000000e+04
-3.157895e+04 -7.323984e+04 -5.000000e+04
-3.009443e+04 -6.546661e+04 -4.624873e+04
-3.064524e+04 -6.471356e+04 -5.000000e+04
-5.297291e+04 -7.328522e+04 -4.500000e+04
-5.219939e+04 -6.615128e+04 -4.505018e+04
-5.838333e+04 -7.033694e+04 -4.637515e+04
-5.432946e+04 -7.525845e+04 -5.000000e+04
-4.643472e+04 -7.174348e+04 -5.000000e+04
-4.736842e+04 -8.026977e+04 -5.000000e+04
-5.526316e+04 -8.378473e+04 -5.000000e+04
-6.315789e+04 -8.729969e+04 -5.000000e+04
-6.086764e+04 -7.680018e+04 -4.500000e+04
-6.222419e+04 -7.877341e+04 -5.000000e+04
-4.439938e+04 -6.472331e+04 -4.249746e+04
-4.588390e+04 -7.249654e+04 -4.624873e+04
-5.148838e+04 -6.551199e+04 -4.124873e+04
-4.429929e+04 -6.256780e+04 -4.637419e+04
-3.947368e+04 -7.675480e+04 -5.000000e+04
-3.798916e+04 -6.898157e+04 -4.624873e+04
-3.853998e+04 -6.822852e+04 -5.000000e+04
-7.105263e+04 -9.081466e+04 -5.000000e+04
-6.876238e+04 -8.031514e+04 -4.500000e+04
-7.011893e+04 -8.228837e+04 -5.000000e+04
-7.894737e+04 -9.432962e+04 -5.000000e+04
-7.665712e+04 -8.383011e+04 -4.500000e+04
-7.801367e+04 -8.580334e+04 -5.000000e+04
-7.513831e+04 -7.448638e+04 -4.542720e+04
-8.328638e+04 -8.678164e+04 -4.500000e+04
-8.762539e+04 -7.923367e+04 -4.000000e+04
-8.099613e+04 -7.628213e+04 -4.000000e+04
-8.274367e+04 -7.881899e+04 -4.465261e+04
-8.890241e+04 -8.372667e+04 -4.620416e+04
-8.590840e+04 -8.931830e+04 -5.000000e+04
-8.684211e+04 -9.784458e+04 -5.000000e+04
-9.473684e+04 -1.013595e+05 -5.000000e+04
-9.118111e+04 -9.029661e+04 -4.500000e+04
-9.380314e+04 -9.283326e+04 -5.000000e+04
-1.105263e+05 -1.083895e+05 -5.000000e+04
-1.184211e+05 -1.119044e+05 -5.000000e+04
-1.202291e+05 -1.032296e+05 -4.500000e+04
-1.174873e+05 -1.033782e+05 -5.000000e+04
-1.263158e+05 -1.154194e+05 -5.000000e+04
-1.281238e+05 -1.067446e+05 -4.500000e+04
-1.253821e+05 -1.068931e+05 -5.000000e+04
-1.258678e+05 -9.782777e+04 -4.494117e+04
-1.135999e+05 -1.002781e+05 -4.500000e+04
-1.233026e+05 -9.511821e+04 -4.000000e+04
-1.166734e+05 -9.216667e+04 -4.000000e+04
-1.180240e+05 -9.608600e+04 -4.587188e+04
-1.026316e+05 -1.048745e+05 -5.000000e+04
-9.907585e+04 -9.381157e+04 -4.500000e+04
-1.016979e+05 -9.634823e+04 -5.000000e+04
-1.069706e+05 -9.732653e+04 -4.500000e+04
-1.095926e+05 -9.986319e+04 -5.000000e+04
-1.034149e+05 -8.626359e+04 -4.000000e+04
-1.041507e+05 -8.822132e+04 -4.537857e+04
-1.100441e+05 -8.921513e+04 -4.000000e+04
-1.125114e+05 -8.985788e+04 -4.378862e+04
-1.439133e+05 -1.137745e+05 -4.500000e+04
-1.422419e+05 -1.040651e+05 -4.502745e+04
-1.495297e+05 -1.094363e+05 -4.614938e+04
-1.490663e+05 -1.174380e+05 -5.000000e+04
-1.411716e+05 -1.139230e+05 -5.000000e+04
-1.421053e+05 -1.224493e+05 -5.000000e+04
-1.507215e+05 -1.099667e+05 -4.139288e+04
-1.489134e+05 -1.186415e+05 -4.639288e+04
-1.557215e+05 -1.148337e+05 -4.278577e+04
-1.564931e+05 -1.150949e+05 -4.691704e+04
-1.342105e+05 -1.189344e+05 -5.000000e+04
-1.360186e+05 -1.102595e+05 -4.500000e+04
-1.332768e+05 -1.104081e+05 -5.000000e+04
-1.500000e+05 -1.259643e+05 -5.000000e+04
-1.578947e+05 -1.294793e+05 -5.000000e+04
-1.568081e+05 -1.221565e+05 -4.639288e+04
-1.569610e+05 -1.209530e+05 -5.000000e+04
-1.657895e+05 -1.329942e+05 -5.000000e+04
-1.647029e+05 -1.256715e+05 -4.639288e+04
-1.648558e+05 -1.244679e+05 -5.000000e+04
-1.736842e+05 -1.365092e+05 -5.000000e+04
-1.725976e+05 -1.291864e+05 -4.639288e+04
-1.727505e+05 -1.279829e+05 -5.000000e+04
-1.715110e+05 -1.218637e+05 -4.278577e+04
-1.705631e+05 -1.198547e+05 -4.600041e+04
-1.787789e+05 -1.236873e+05 -4.659038e+04
-1.808977e+05 -1.313478e+05 -5.000000e+04
-1.795006e+05 -1.243989e+05 -4.224676e+04
-1.805872e+05 -1.317217e+05 -4.585388e+04
-1.874902e+05 -1.269342e+05 -4.170776e+04
-1.869918e+05 -1.276917e+05 -4.609965e+04
-1.815789e+05 -1.400241e+05 -5.000000e+04
-1.894737e+05 -1.435391e+05 -5.000000e+04
-1.884820e+05 -1.352367e+05 -4.585388e+04
-1.887924e+05 -1.348628e+05 -5.000000e+04
-1.973684e+05 -1.470541e+05 -5.000000e+04
-1.963767e+05 -1.387516e+05 -4.585388e+04
-1.966872e+05 -1.383777e+05 -5.000000e+04
-2.052632e+05 -1.505690e+05 -5.000000e+04
-2.042714e+05 -1.422666e+05 -4.585388e+04
-2.045819e+05 -1.418927e+05 -5.000000e+04
-2.032797e+05 -1.339641e+05 -4.170776e+04
-2.023997e+05 -1.333118e+05 -4.609590e+04
-2.115009e+05 -1.378095e+05 -4.180535e+04
-2.124926e+05 -1.461119e+05 -4.595147e+04
-2.197221e+05 -1.416548e+05 -4.190294e+04
-2.134416e+05 -1.367643e+05 -4.511029e+04
-2.184425e+05 -1.420884e+05 -4.648003e+04
-2.126788e+05 -1.453385e+05 -5.000000e+04
-2.203874e+05 -1.496269e+05 -4.595147e+04
-2.131579e+05 -1.540840e+05 -5.000000e+04
-2.210526e+05 -1.575990e+05 -5.000000e+04
-2.205736e+05 -1.488535e+05 -5.000000e+04
-2.355116e+05 -1.486848e+05 -4.190294e+04
-2.282821e+05 -1.531419e+05 -4.595147e+04
-2.361769e+05 -1.566568e+05 -4.595147e+04
-2.342587e+05 -1.469576e+05 -4.548313e+04
-2.289474e+05 -1.611139e+05 -5.000000e+04
-2.284683e+05 -1.523684e+05 -5.000000e+04
-2.368421e+05 -1.646289e+05 -5.000000e+04
-2.363630e+05 -1.558834e+05 -5.000000e+04
-2.429187e+05 -1.506493e+05 -4.610261e+04
-2.448607e+05 -1.587723e+05 -5.000000e+04
-2.526316e+05 -1.716588e+05 -5.000000e+04
-2.527954e+05 -1.630498e+05 -4.542081e+04
-2.447368e+05 -1.681439e+05 -5.000000e+04
-2.527555e+05 -1.622872e+05 -5.000000e+04
-2.529593e+05 -1.544407e+05 -4.084162e+04
-2.449007e+05 -1.595348e+05 -4.542081e+04
-2.530097e+05 -1.552923e+05 -4.636933e+04
-2.442354e+05 -1.515628e+05 -4.137228e+04
-2.842105e+05 -1.778188e+05 -4.583333e+04
-2.763158e+05 -1.822037e+05 -5.000000e+04
-2.842105e+05 -1.769196e+05 -5.000000e+04
-2.763158e+05 -1.743038e+05 -4.583333e+04
-2.847828e+05 -1.687870e+05 -4.620838e+04
-2.684211e+05 -1.786887e+05 -5.000000e+04
-2.763158e+05 -1.734046e+05 -5.000000e+04
-2.685849e+05 -1.700797e+05 -4.542081e+04
-2.764796e+05 -1.656948e+05 -4.125415e+04
-2.687487e+05 -1.614707e+05 -4.084162e+04
-2.742734e+05 -1.658615e+05 -4.608229e+04
-2.605263e+05 -1.751738e+05 -5.000000e+04
-2.685449e+05 -1.693172e+05 -5.000000e+04
-2.606902e+05 -1.665647e+05 -4.542081e+04
-2.668094e+05 -1.600594e+05 -4.487895e+04
-2.606502e+05 -1.658022e+05 -5.000000e+04
-1.294497e+05 -7.889540e+04 -3.000000e+04
-1.333246e+05 -7.538050e+04 -3.567599e+04
-1.313770e+05 -8.234987e+04 -3.841782e+04
-1.236580e+05 -8.089527e+04 -3.786678e+04
-1.243460e+05 -7.285557e+04 -3.508229e+04
-1.228205e+05 -7.594386e+04 -3.000000e+04
-1.355029e+05 -7.502598e+04 -2.653765e+04
-1.349269e+05 -6.820501e+04 -2.307531e+04
-1.288737e+05 -7.207444e+04 -2.653765e+04
-1.301385e+05 -6.647071e+04 -2.995495e+04
-1.263762e+05 -8.700680e+04 -3.500000e+04
-1.197469e+05 -8.405527e+04 -3.500000e+04
-1.213844e+05 -8.916095e+04 -4.287338e+04
-1.095619e+05 -7.004079e+04 -3.000000e+04
-1.131177e+05 -8.110373e+04 -3.500000e+04
-1.161912e+05 -7.299233e+04 -3.000000e+04
-1.131951e+05 -7.461458e+04 -3.771018e+04
-1.171154e+05 -8.344306e+04 -4.044941e+04
-1.188004e+05 -7.797152e+04 -3.644463e+04
-1.155132e+05 -6.593317e+04 -2.643597e+04
-1.169330e+05 -6.987870e+04 -3.454745e+04
-1.221425e+05 -6.888471e+04 -2.643597e+04
-1.214644e+05 -6.182556e+04 -2.287193e+04
-1.224481e+05 -6.534995e+04 -3.051571e+04
-1.281957e+05 -6.501529e+04 -2.297362e+04
-9.630341e+04 -6.413771e+04 -3.000000e+04
-9.555745e+04 -5.863551e+04 -2.727311e+04
-8.967414e+04 -6.118618e+04 -3.000000e+04
-9.999721e+04 -5.977186e+04 -3.496778e+04
-9.481150e+04 -5.313331e+04 -2.454623e+04
-8.892819e+04 -5.568397e+04 -2.727311e+04
-9.753483e+04 -5.290290e+04 -3.152246e+04
-9.125406e+04 -5.733023e+04 -3.462249e+04
-8.385351e+04 -6.158598e+04 -3.753897e+04
-9.182611e+04 -6.355275e+04 -3.692950e+04
-9.196440e+04 -7.168569e+04 -3.500000e+04
-8.533514e+04 -6.873415e+04 -3.500000e+04
-8.730042e+04 -7.051984e+04 -4.185094e+04
-9.350573e+04 -7.630286e+04 -4.331958e+04
-9.810081e+04 -6.856284e+04 -3.806210e+04
-9.552012e+04 -8.274863e+04 -4.000000e+04
-9.985913e+04 -7.520065e+04 -3.500000e+04
-1.036492e+05 -7.708546e+04 -4.152805e+04
-1.029327e+05 -6.708925e+04 -3.000000e+04
-1.064884e+05 -7.815219e+04 -3.500000e+04
-1.073355e+05 -6.987401e+04 -3.731873e+04
-1.022547e+05 -6.003010e+04 -2.643597e+04
-1.052333e+05 -6.371032e+04 -3.446908e+04
-1.088839e+05 -6.298163e+04 -2.643597e+04
-1.126727e+05 -6.533382e+04 -3.361478e+04
-1.082059e+05 -5.592248e+04 -2.287193e+04
-1.115608e+05 -5.862645e+04 -3.045097e+04
-1.073171e+05 -5.368678e+04 -3.034130e+04
-9.727848e+04 -6.212134e+04 -4.051652e+04
-1.015087e+05 -5.452789e+04 -2.370908e+04
-1.052556e+05 -2.740405e+04 -8.523114e+03
-1.114440e+05 -2.347962e+04 -5.000000e+03
-1.043004e+05 -2.222636e+04 -1.311044e+04
-1.056964e+05 -3.428003e+04 -1.204623e+04
-1.118849e+05 -3.035559e+04 -8.523114e+03
-1.063048e+05 -2.858040e+04 -1.485670e+04
-1.180733e+05 -2.643115e+04 -5.000000e+03
-1.129686e+05 -2.503437e+04 -1.254024e+04
-1.108840e+05 -1.980811e+04 -1.072833e+04
-1.195144e+05 -2.302141e+04 -9.220789e+03
-1.095573e+05 -2.026963e+04 -3.750000e+03
-1.161866e+05 -2.322116e+04 -3.750000e+03
-1.169112e+05 -1.910694e+04 -7.499084e+03
-1.240813e+05 -2.673613e+04 -3.750000e+03
-1.269638e+05 -2.211099e+04 -7.881867e+03
-1.275049e+05 -2.637169e+04 -9.936739e+03
-1.204594e+05 -2.756486e+04 -1.047297e+04
-1.307106e+05 -2.968766e+04 -3.750000e+03
-1.247026e+05 -2.938269e+04 -5.000000e+03
-1.313318e+05 -3.233423e+04 -5.000000e+03
-1.278750e+05 -3.058103e+04 -1.189861e+04
-1.221945e+05 -2.352614e+04 -2.500000e+03
-1.185821e+05 -3.175018e+04 -7.685965e+03
-1.190909e+05 -3.706920e+04 -1.037193e+04
-1.252113e+05 -3.470171e+04 -7.685965e+03
-1.207597e+05 -3.219367e+04 -1.279716e+04
-1.135061e+05 -3.010567e+04 -1.526436e+04
-1.123937e+05 -3.567461e+04 -1.120908e+04
-1.445903e+05 -3.823730e+04 -5.000000e+03
-1.452011e+05 -4.379452e+04 -7.787654e+03
-1.512196e+05 -4.118884e+04 -5.000000e+03
-1.491442e+05 -3.894487e+04 -8.361086e+03
-1.458118e+05 -4.935173e+04 -1.057531e+04
-1.518304e+05 -4.674606e+04 -7.787654e+03
-1.493391e+05 -4.267203e+04 -1.187230e+04
-1.544591e+05 -4.116061e+04 -8.679837e+03
-1.518638e+05 -3.910570e+04 -3.750000e+03
-1.584931e+05 -4.205724e+04 -3.750000e+03
-1.561214e+05 -3.794376e+04 -8.839390e+03
-1.439691e+05 -3.559074e+04 -3.750000e+03
-1.512425e+05 -3.645914e+04 -2.500000e+03
-1.478651e+05 -3.518960e+04 -8.073440e+03
-1.373398e+05 -3.263920e+04 -3.750000e+03
-1.421365e+05 -3.292996e+04 -9.910167e+03
-1.379611e+05 -3.528577e+04 -5.000000e+03
-1.356588e+05 -3.428160e+04 -1.088515e+04
-1.432836e+05 -3.760654e+04 -9.956293e+03
-1.318406e+05 -3.765325e+04 -7.685965e+03
-1.323494e+05 -4.297228e+04 -1.037193e+04
-1.384699e+05 -4.060479e+04 -7.685965e+03
-1.377656e+05 -4.037217e+04 -1.302484e+04
-1.390806e+05 -4.616200e+04 -1.047362e+04
-1.443142e+05 -4.281182e+04 -1.324230e+04
-2.773594e+05 -1.093010e+05 -1.130341e+04
-2.849063e+05 -1.134173e+05 -1.170227e+04
-2.851663e+05 -1.045707e+05 -1.385673e+04
-2.698125e+05 -1.130845e+05 -1.507122e+04
-2.773594e+05 -1.172008e+05 -1.547008e+04
-2.772686e+05 -1.098313e+05 -1.814815e+04
-2.870139e+05 -1.138142e+05 -1.757895e+04
-2.770115e+05 -1.020024e+05 -7.535608e+03
-2.694647e+05 -1.057860e+05 -1.130341e+04
-2.747488e+05 -1.004057e+05 -1.389767e+04
-2.771754e+05 -1.249928e+05 -1.962309e+04
-2.832878e+05 -1.188274e+05 -2.232037e+04
-2.696285e+05 -1.208765e+05 -1.922422e+04
-2.756468e+05 -1.162514e+05 -2.255732e+04
-2.694445e+05 -1.286686e+05 -2.337723e+04
-2.751602e+05 -1.234999e+05 -2.906199e+04
-2.622245e+05 -1.102463e+05 -1.535616e+04
-2.687316e+05 -1.031769e+05 -1.691718e+04
-2.618766e+05 -1.029478e+05 -1.158836e+04
-2.668509e+05 -9.634882e+04 -1.335677e+04
-2.546364e+05 -1.074081e+05 -1.564110e+04
-2.609168e+05 -9.906260e+04 -1.745398e+04
-2.588471e+05 -1.104915e+05 -2.385698e+04
-2.604978e+05 -1.033924e+05 -2.339416e+04
-2.683467e+05 -1.046656e+05 -2.231866e+04
-2.685385e+05 -1.121561e+05 -2.510637e+04
-2.609047e+05 -1.179985e+05 -1.975488e+04
-2.533166e+05 -1.151603e+05 -2.003983e+04
-2.519968e+05 -1.229126e+05 -2.443855e+04
-2.575329e+05 -1.171392e+05 -2.967315e+04
-2.660912e+05 -1.203463e+05 -2.663323e+04
-2.607207e+05 -1.257906e+05 -2.390789e+04
3.727047e+04 2.915301e+04 -1.216223e+04
2.939289e+04 2.564519e+04 -1.216249e+04
2.798810e+04 3.556950e+04 -1.615131e+04
4.443080e+04 2.465461e+04 -1.621630e+04
3.655322e+04 2.114679e+04 -1.621657e+04
3.435501e+04 2.828572e+04 -1.872225e+04
2.867564e+04 1.763896e+04 -1.621683e+04
2.662609e+04 2.567762e+04 -2.042540e+04
3.630091e+04 3.846991e+04 -1.500056e+04
4.123130e+04 3.333780e+04 -1.871118e+04
3.800487e+04 3.716638e+04 -8.108150e+03
4.516521e+04 3.266798e+04 -1.216223e+04
4.599404e+04 4.026934e+04 -1.556932e+04
5.234208e+04 2.817742e+04 -1.621605e+04
5.307648e+04 3.619078e+04 -1.216198e+04
6.025336e+04 3.170022e+04 -1.621580e+04
5.010841e+04 3.426391e+04 -1.983415e+04
4.593369e+04 1.692458e+04 -2.064632e+04
4.002385e+04 1.471393e+04 -2.821547e+04
4.770995e+04 1.963531e+04 -2.809076e+04
4.743658e+04 9.194546e+03 -2.507634e+04
4.715002e+04 2.822299e+04 -2.423175e+04
3.796405e+04 2.374315e+04 -2.577074e+04
3.865990e+04 3.171910e+04 -2.432994e+04
5.559200e+04 2.954640e+04 -2.388036e+04
5.382708e+04 2.044025e+04 -2.064563e+04
6.173835e+04 2.396305e+04 -2.064538e+04
6.322335e+04 1.622588e+04 -2.507496e+04
5.751129e+04 2.235722e+04 -3.010094e+04
3.805611e+04 1.341675e+04 -2.064658e+04
3.036550e+04 1.896637e+04 -2.437975e+04
5.532996e+04 1.271021e+04 -2.507565e+04
6.889904e+04 4.323639e+04 -1.216147e+04
6.501628e+04 5.330583e+04 -1.558001e+04
6.153909e+04 4.652498e+04 -1.594174e+04
6.614577e+04 4.079313e+04 -2.039568e+04
7.212297e+04 4.672431e+04 -1.912638e+04
7.607591e+04 3.874582e+04 -1.621530e+04
6.961690e+04 5.124191e+04 -8.107649e+03
7.679378e+04 4.675135e+04 -1.216147e+04
7.641904e+04 5.443129e+04 -1.584091e+04
6.098776e+04 3.971358e+04 -1.216172e+04
6.816464e+04 3.522302e+04 -1.621555e+04
5.691472e+04 3.843162e+04 -2.033065e+04
8.397289e+04 4.226183e+04 -1.621527e+04
8.469075e+04 5.026736e+04 -1.216145e+04
9.186986e+04 4.577784e+04 -1.621525e+04
8.139802e+04 4.807633e+04 -2.002468e+04
6.315231e+04 3.245109e+04 -2.536245e+04
7.246819e+04 3.529806e+04 -2.505955e+04
6.964963e+04 2.748585e+04 -2.064513e+04
7.756091e+04 3.100866e+04 -2.064488e+04
7.904591e+04 2.327149e+04 -2.507446e+04
7.241986e+04 2.676134e+04 -2.902839e+04
7.075187e+04 4.379870e+04 -2.725323e+04
7.966046e+04 3.258642e+04 -2.763536e+04
7.972072e+04 4.110473e+04 -2.389018e+04
8.545708e+04 3.452354e+04 -2.064526e+04
9.483824e+04 3.030125e+04 -2.507522e+04
8.694207e+04 2.678637e+04 -2.507484e+04
8.838946e+04 3.480086e+04 -2.990249e+04
9.335405e+04 3.803954e+04 -2.064523e+04
8.813759e+04 4.348089e+04 -2.446004e+04
1.004847e+05 5.729937e+04 -1.216140e+04
9.788068e+04 6.636347e+04 -1.373412e+04
9.222156e+04 6.146695e+04 -1.603483e+04
9.715549e+04 5.521133e+04 -1.995435e+04
1.036767e+05 6.114535e+04 -1.847108e+04
1.076638e+05 5.280985e+04 -1.621520e+04
1.012003e+05 6.530385e+04 -8.107598e+03
1.083794e+05 6.081433e+04 -1.216140e+04
1.074454e+05 6.853156e+04 -1.500239e+04
9.258772e+04 5.378336e+04 -1.216142e+04
9.976683e+04 4.929384e+04 -1.621522e+04
8.766571e+04 5.273329e+04 -2.048482e+04
1.155587e+05 5.632493e+04 -1.621518e+04
1.162744e+05 6.432941e+04 -1.216139e+04
1.234537e+05 5.984001e+04 -1.621517e+04
1.126645e+05 6.211701e+04 -2.003943e+04
1.012510e+05 4.155555e+04 -2.064521e+04
9.514352e+04 4.783483e+04 -2.316550e+04
1.091480e+05 4.507156e+04 -2.064518e+04
1.024556e+05 4.970747e+04 -2.327693e+04
1.106322e+05 3.733326e+04 -2.507517e+04
1.033213e+05 4.312263e+04 -2.871669e+04
1.008752e+05 5.767303e+04 -2.577179e+04
1.170428e+05 4.858648e+04 -2.064523e+04
1.093581e+05 5.406912e+04 -2.568335e+04
1.264219e+05 4.436312e+04 -2.507526e+04
1.185270e+05 4.084819e+04 -2.507521e+04
1.202013e+05 4.788795e+04 -3.024650e+04
1.110476e+05 4.485424e+04 -2.909803e+04
1.249378e+05 5.210156e+04 -2.064521e+04
1.195779e+05 5.652681e+04 -2.511153e+04
1.327797e+05 7.936394e+04 -8.107574e+03
1.320643e+05 7.135957e+04 -1.216136e+04
1.297494e+05 7.846146e+04 -1.524628e+04
1.399590e+05 7.487453e+04 -1.216136e+04
1.368283e+05 8.404244e+04 -1.646289e+04
1.392436e+05 6.687016e+04 -1.621515e+04
1.347595e+05 7.423640e+04 -1.931132e+04
1.241612e+05 7.363096e+04 -1.632272e+04
1.291143e+05 6.841136e+04 -2.048204e+04
1.241693e+05 6.784449e+04 -1.216137e+04
1.313486e+05 6.335509e+04 -1.621516e+04
1.194997e+05 6.647327e+04 -2.034431e+04
1.471377e+05 7.038507e+04 -1.621504e+04
1.478531e+05 7.838944e+04 -1.216125e+04
1.550319e+05 7.389998e+04 -1.621493e+04
1.439508e+05 7.622791e+04 -1.999279e+04
1.328327e+05 5.561664e+04 -2.064520e+04
1.271428e+05 6.118437e+04 -2.378598e+04
1.407277e+05 5.913172e+04 -2.064519e+04
1.355572e+05 6.332932e+04 -2.487324e+04
1.422118e+05 5.139327e+04 -2.507523e+04
1.352211e+05 5.491375e+04 -2.891922e+04
1.502093e+05 7.143699e+04 -2.370536e+04
1.424542e+05 6.912801e+04 -2.381406e+04
1.334938e+05 7.104693e+04 -2.719291e+04
1.486212e+05 6.264610e+04 -2.064521e+04
1.579987e+05 5.842203e+04 -2.507527e+04
1.501053e+05 5.490765e+04 -2.507525e+04
1.521193e+05 6.414967e+04 -2.988847e+04
1.427680e+05 6.083065e+04 -2.758737e+04
1.565153e+05 6.616100e+04 -2.064510e+04
1.643574e+05 9.342368e+04 -8.107353e+03
1.636414e+05 8.541926e+04 -1.216103e+04
1.583357e+05 9.737928e+04 -1.282493e+04
1.715362e+05 8.893422e+04 -1.216103e+04
1.669860e+05 9.895012e+04 -1.339502e+04
1.708202e+05 8.092980e+04 -1.621471e+04
1.643265e+05 9.137950e+04 -1.755674e+04
1.557473e+05 8.190435e+04 -1.216114e+04
1.629260e+05 7.741489e+04 -1.621482e+04
1.508197e+05 8.102423e+04 -2.088214e+04
1.549008e+05 8.984890e+04 -1.598720e+04
1.601253e+05 8.346418e+04 -2.045388e+04
1.787072e+05 8.444382e+04 -1.621341e+04
1.727237e+05 9.464142e+04 -1.795792e+04
1.794233e+05 9.244824e+04 -1.215973e+04
1.755497e+05 1.027311e+05 -1.421446e+04
1.865943e+05 8.795783e+04 -1.621211e+04
1.815732e+05 9.822649e+04 -1.865553e+04
1.576773e+05 7.462435e+04 -2.561415e+04
1.675521e+05 7.782061e+04 -2.569168e+04
1.644095e+05 6.967591e+04 -2.064499e+04
1.723036e+05 7.319082e+04 -2.064488e+04
1.737870e+05 6.545184e+04 -2.507505e+04
1.673339e+05 6.907191e+04 -2.911412e+04
1.642904e+05 8.684564e+04 -2.585987e+04
1.720604e+05 9.320759e+04 -2.425037e+04
1.744282e+05 8.476782e+04 -2.567677e+04
1.829403e+05 8.557382e+04 -2.482905e+04
1.812614e+05 9.375313e+04 -2.416647e+04
1.748863e+05 7.501527e+04 -2.832411e+04
1.801869e+05 7.670044e+04 -2.064500e+04
1.880740e+05 8.021446e+04 -2.064371e+04
1.895536e+05 7.247108e+04 -2.507530e+04
1.844783e+05 7.812321e+04 -3.040451e+04
1.816703e+05 6.896146e+04 -2.507517e+04
1.680197e+05 8.450005e+04 -3.141257e+04
1.873103e+05 9.596225e+04 -1.215844e+04
1.944814e+05 9.147185e+04 -1.621082e+04
1.895909e+05 9.829661e+04 -1.845299e+04
1.951974e+05 9.947627e+04 -1.215714e+04
1.895626e+05 1.071479e+05 -1.489036e+04
2.023685e+05 9.498586e+04 -1.620952e+04
1.976369e+05 1.011132e+05 -1.916833e+04
1.959211e+05 1.074816e+05 -8.104759e+03
2.030922e+05 1.029912e+05 -1.215714e+04
2.014089e+05 1.101640e+05 -1.531795e+04
2.102405e+05 9.846961e+04 -1.622065e+04
2.109642e+05 1.064750e+05 -1.216827e+04
2.181126e+05 1.019534e+05 -1.623179e+04
2.069954e+05 1.041250e+05 -2.018629e+04
1.891029e+05 9.514612e+04 -2.542409e+04
1.910220e+05 8.779897e+04 -2.629822e+04
2.002297e+05 8.977129e+04 -2.572685e+04
1.965174e+05 9.476370e+04 -2.468651e+04
1.959610e+05 8.372847e+04 -2.064241e+04
2.038481e+05 8.724249e+04 -2.064111e+04
2.053278e+05 7.949911e+04 -2.507271e+04
1.993487e+05 8.224042e+04 -2.910063e+04
2.116563e+05 9.071715e+04 -2.064204e+04
2.042783e+05 9.722918e+04 -2.435391e+04
2.209441e+05 8.644844e+04 -2.507457e+04
2.131360e+05 8.297378e+04 -2.507364e+04
2.144941e+05 9.043073e+04 -2.991353e+04
2.061182e+05 8.810121e+04 -2.783928e+04
2.195284e+05 9.420090e+04 -2.065318e+04
2.141040e+05 9.910504e+04 -2.480577e+04
1.998923e+05 9.527560e+04 -3.054316e+04
2.267083e+05 1.134425e+05 -1.219054e+04
2.196215e+05 1.248438e+05 -1.362953e+04
2.179528e+05 1.177867e+05 -1.643191e+04
2.233557e+05 1.119418e+05 -2.081800e+04
2.275361e+05 1.187587e+05 -1.831106e+04
2.338566e+05 1.089208e+05 -1.625406e+04
2.274546e+05 1.214791e+05 -8.127028e+03
2.346030e+05 1.169574e+05 -1.219054e+04
2.304767e+05 1.262715e+05 -1.412162e+04
2.188362e+05 1.099587e+05 -1.217941e+04
2.259846e+05 1.054371e+05 -1.624292e+04
2.137509e+05 1.091385e+05 -2.033532e+04
2.417750e+05 1.124870e+05 -1.623261e+04
2.370101e+05 1.202417e+05 -1.861651e+04
2.425214e+05 1.205236e+05 -1.216909e+04
2.394376e+05 1.294141e+05 -1.477901e+04
2.496935e+05 1.160532e+05 -1.621116e+04
2.454198e+05 1.234576e+05 -2.141828e+04
2.274004e+05 9.768464e+04 -2.066431e+04
2.217133e+05 1.036235e+05 -2.396253e+04
2.352724e+05 1.011684e+05 -2.067545e+04
2.299659e+05 1.062494e+05 -2.528032e+04
2.366882e+05 9.341594e+04 -2.509684e+04
2.297189e+05 9.724132e+04 -2.914402e+04
2.272840e+05 1.151718e+05 -2.766630e+04
2.371626e+05 1.029684e+05 -2.810117e+04
2.372560e+05 1.132953e+05 -2.457828e+04
2.428388e+05 1.042338e+05 -2.083546e+04
2.507573e+05 1.078000e+05 -2.081401e+04
2.462871e+05 1.158308e+05 -2.519669e+04
2.518210e+05 9.954676e+04 -2.541686e+04
2.454108e+05 1.049250e+05 -2.934047e+04
2.442546e+05 9.648135e+04 -2.525685e+04
2.655303e+05 1.231855e+05 -1.616827e+04
2.662530e+05 1.311709e+05 -1.212620e+04
2.741477e+05 1.267860e+05 -1.629287e+04
2.618194e+05 1.268965e+05 -2.092031e+04
2.748704e+05 1.347714e+05 -1.225080e+04
2.648771e+05 1.355322e+05 -1.748332e+04
2.707634e+05 1.307047e+05 -2.183718e+04
2.756702e+05 1.252069e+05 -2.463971e+04
2.672319e+05 1.215140e+05 -2.559109e+04
2.741477e+05 1.188861e+05 -2.045953e+04
2.827651e+05 1.224866e+05 -2.058413e+04
2.767586e+05 1.179120e+05 -3.043219e+04
2.665941e+05 1.149323e+05 -2.077111e+04
2.752115e+05 1.106329e+05 -2.506238e+04
2.676579e+05 1.066791e+05 -2.537396e+04
2.679257e+05 1.133820e+05 -2.961059e+04
2.504398e+05 1.240898e+05 -1.214765e+04
2.576119e+05 1.196193e+05 -1.618971e+04
2.533238e+05 1.251361e+05 -2.009420e+04
2.583582e+05 1.276559e+05 -1.212620e+04
2.543084e+05 1.338569e+05 -1.769935e+04
2.590809e+05 1.356413e+05 -8.084134e+03
2.586757e+05 1.113661e+05 -2.079256e+04
2.543022e+05 1.179964e+05 -2.342257e+04
2.611324e+05 1.191758e+05 -2.315629e+04
2.609784e+05 1.119161e+05 -2.862977e+04
-2.768073e+05 -1.484767e+05 -3.209577e+04
-2.813663e+05 -1.444912e+05 -3.597399e+04
-2.818207e+05 -1.510068e+05 -3.851172e+04
-2.738047e+05 -1.486265e+05 -3.841495e+04
-2.743944e+05 -1.416042e+05 -3.706429e+04
-2.690764e+05 -1.442526e+05 -3.168325e+04
-2.768073e+05 -1.405769e+05 -2.792910e+04
-2.845382e+05 -1.448010e+05 -2.834162e+04
-2.837214e+05 -1.352279e+05 -3.296149e+04
-2.766435e+05 -1.570858e+05 -3.667496e+04
-2.689126e+05 -1.528616e+05 -3.626244e+04
-2.753597e+05 -1.574716e+05 -4.324042e+04
-2.769913e+05 -1.327849e+05 -2.377610e+04
-2.692605e+05 -1.364606e+05 -2.753024e+04
-2.738931e+05 -1.326811e+05 -3.161335e+04
-2.608540e+05 -1.579557e+05 -4.084162e+04
-2.683542e+05 -1.512041e+05 -4.136479e+04
-2.610178e+05 -1.493467e+05 -3.626244e+04
-2.653310e+05 -1.426623e+05 -3.783029e+04
-2.595190e+05 -1.498918e+05 -4.263318e+04
-2.603526e+05 -1.413746e+05 -3.221391e+04
-2.516288e+05 -1.384966e+05 -3.274456e+04
-2.522940e+05 -1.464687e+05 -3.679309e+04
-2.562493e+05 -1.409027e+05 -3.887831e+04
-2.656616e+05 -1.273993e+05 -3.099545e+04
-2.678324e+05 -1.363331e+05 -3.515667e+04
-2.605366e+05 -1.335826e+05 -2.806090e+04
-2.593641e+05 -1.344485e+05 -3.646365e+04
-2.701297e+05 -1.364754e+05 -3.963544e+04
1.363772e+04 1.862954e+04 -1.216302e+04
6.460237e+03 2.312080e+04 -8.108679e+03
1.377675e+04 2.584537e+04 -1.676509e+04
1.292047e+04 1.062331e+04 -1.621736e+04
5.742988e+03 1.511457e+04 -1.216302e+04
9.799068e+03 1.823139e+04 -1.999626e+04
2.482390e+03 2.419396e+04 -1.610327e+04
-2.177671e+03 1.158865e+04 -1.216271e+04
-4.005083e+03 1.883303e+04 -1.682525e+04
4.999816e+03 7.097386e+03 -1.621705e+04
2.987846e+03 1.234331e+04 -2.044853e+04
-2.920843e+03 3.571466e+03 -1.621674e+04
-6.667145e+03 1.037328e+04 -1.939663e+04
2.151531e+04 2.213736e+04 -1.216275e+04
2.079806e+04 1.413113e+04 -1.621709e+04
1.953472e+04 1.949690e+04 -2.105822e+04
3.017853e+04 9.908926e+03 -2.064685e+04
2.512070e+04 1.319825e+04 -2.545753e+04
3.168142e+04 2.178893e+03 -2.507687e+04
2.230095e+04 6.401100e+03 -2.064711e+04
2.450374e+04 5.141321e+03 -2.892906e+04
1.675862e+04 1.180683e+04 -2.415561e+04
8.338580e+03 1.461333e+04 -2.787252e+04
1.440470e+04 2.886585e+03 -2.064652e+04
2.378517e+04 -1.335621e+03 -2.507628e+04
1.588893e+04 -4.850136e+03 -2.507569e+04
1.642892e+04 3.638259e+03 -2.764554e+04
1.156386e+03 4.785150e+03 -2.372246e+04
9.416362e+03 6.953321e+03 -2.493750e+04
6.484044e+03 -6.393348e+02 -2.064621e+04
8.766672e+03 -1.417597e+03 -2.890480e+04
-1.801899e+04 4.536812e+03 -1.216209e+04
-2.517055e+04 9.039034e+03 -8.108063e+03
-1.882911e+04 1.214409e+04 -1.514464e+04
-1.876216e+04 -3.480374e+03 -1.621613e+04
-2.591373e+04 1.021848e+03 -1.216209e+04
-2.284642e+04 5.245066e+03 -1.825145e+04
-2.982682e+04 1.181479e+04 -1.434961e+04
-3.653653e+04 6.964754e+03 -1.704445e+04
-2.972246e+04 -1.505352e+03 -2.079864e+04
-3.418989e+04 -2.690373e+03 -1.217656e+04
-2.703832e+04 -7.192595e+03 -1.623060e+04
-3.531449e+04 -1.090482e+04 -1.624507e+04
-3.938967e+04 -3.729681e+03 -2.064505e+04
-1.009833e+04 8.062732e+03 -1.216240e+04
-1.084150e+04 4.554627e+01 -1.621643e+04
-1.336087e+04 5.818786e+03 -2.012312e+04
-6.543598e+03 2.164231e+03 -2.439774e+04
-1.583278e+04 -6.508804e+02 -2.400150e+04
-1.436615e+03 -4.165255e+03 -2.064591e+04
4.761247e+01 -1.190198e+04 -2.507507e+04
-9.357274e+03 -7.691175e+03 -2.064560e+04
-6.730734e+03 -7.599264e+03 -2.883611e+04
-2.482157e+04 2.781124e+03 -2.450950e+04
-2.280204e+04 -5.585120e+03 -2.587073e+04
-3.145140e+04 -9.337752e+03 -2.442628e+04
-2.872196e+04 -4.409075e+02 -2.882018e+04
-1.724309e+04 -1.118511e+04 -2.063660e+04
-1.572401e+04 -1.888985e+04 -2.505708e+04
-2.551925e+04 -1.489733e+04 -2.065107e+04
-2.324236e+04 -1.535483e+04 -2.917034e+04
-1.538208e+04 -9.588214e+03 -2.782825e+04
-7.838199e+03 -1.539591e+04 -2.506607e+04
2.769980e+05 7.876569e+04 -4.228983e+04
2.773391e+05 8.622666e+04 -3.843474e+04
2.790875e+05 8.637548e+04 -4.383418e+04
2.694444e+05 8.271170e+04 -3.843474e+04
2.708532e+05 8.466624e+04 -4.262220e+04
2.697855e+05 9.017268e+04 -3.457966e+04
2.719468e+05 9.322057e+04 -3.921355e+04
2.848927e+05 9.018051e+04 -3.812316e+04
2.773391e+05 9.412652e+04 -3.426808e+04
2.806349e+05 9.619260e+04 -3.952295e+04
2.786787e+05 1.028234e+05 -3.775954e+04
2.704638e+05 9.945515e+04 -3.659632e+04
2.762753e+05 1.023797e+05 -2.966523e+04
2.687217e+05 9.842589e+04 -2.997681e+04
2.721225e+05 1.078111e+05 -3.215074e+04
2.638182e+05 8.062336e+04 -4.309956e+04
2.654866e+05 8.743517e+04 -4.011019e+04
2.622190e+05 8.710727e+04 -3.441965e+04
2.618779e+05 7.964629e+04 -3.827473e+04
2.546526e+05 8.404185e+04 -3.425964e+04
2.580494e+05 8.540034e+04 -3.954728e+04
2.597395e+05 1.031129e+05 -2.539541e+04
2.608033e+05 9.485972e+04 -2.999826e+04
2.550709e+05 1.022110e+05 -3.279806e+04
2.646723e+05 1.032201e+05 -3.307046e+04
2.629403e+05 9.372896e+04 -3.853059e+04
2.532368e+05 9.179431e+04 -2.983825e+04
2.547321e+05 9.259270e+04 -3.764377e+04
2.655845e+05 9.291128e+04 -4.231251e+04
-5.634670e+04 -2.682984e+04 -1.970551e+04
-6.744686e+04 -2.741954e+04 -2.402432e+04
-6.120874e+04 -2.598160e+04 -2.623370e+04
-5.683511e+04 -2.083473e+04 -2.595661e+04
-6.253828e+04 -2.126157e+04 -2.227815e+04
-5.186682e+04 -1.832926e+04 -1.627401e+04
-6.178918e+04 -1.740320e+04 -1.345551e+04
-6.626906e+04 -2.590377e+04 -1.688700e+04
-7.038570e+04 -1.973882e+04 -1.933447e+04
-5.510020e+04 -2.701936e+04 -2.795459e+04
-4.942135e+04 -1.826408e+04 -2.494943e+04
-4.925770e+04 -2.604116e+04 -2.095424e+04
-4.664858e+04 -3.375305e+04 -2.563446e+04
-5.373758e+04 -3.454173e+04 -2.438573e+04
-4.838953e+04 -2.812026e+04 -2.936797e+04
-5.863695e+04 -1.362978e+04 -1.220551e+04
-6.855931e+04 -1.270372e+04 -9.387004e+03
-6.562700e+04 -9.597467e+03 -1.569023e+04
-6.339915e+04 -1.471440e+04 -1.986612e+04
-7.217851e+04 -1.263765e+04 -1.621368e+04
-6.267498e+04 -3.514732e+03 -1.571174e+04
-5.603698e+04 -1.008712e+04 -1.926999e+04
-5.074222e+04 -1.011482e+04 -1.220551e+04
-5.751236e+04 -5.415336e+03 -8.137004e+03
-5.147099e+04 -2.396049e+03 -1.590087e+04
-4.246605e+04 -6.402595e+03 -1.219104e+04
-4.359065e+04 -1.461704e+04 -1.625954e+04
-4.643324e+04 -9.011528e+03 -2.056891e+04
-3.992423e+04 -1.298351e+04 -2.544177e+04
-3.379541e+04 -1.860955e+04 -2.066554e+04
-3.227634e+04 -2.631429e+04 -2.508602e+04
-4.207158e+04 -2.232178e+04 -2.068001e+04
-4.003544e+04 -2.387292e+04 -2.953301e+04
-5.983179e+04 -1.392419e+04 -2.699577e+04
-3.946246e+04 -3.003367e+04 -2.536024e+04
2.543115e+05 7.658087e+04 -3.811472e+04
2.470862e+05 8.097644e+04 -3.409963e+04
2.499417e+05 8.307327e+04 -3.982596e+04
2.467451e+05 7.351546e+04 -3.795471e+04
2.473958e+05 7.317352e+04 -4.403943e+04
2.395198e+05 7.791102e+04 -3.393962e+04
2.415509e+05 8.014347e+04 -3.895097e+04
2.460757e+05 6.560493e+04 -4.196981e+04
2.388504e+05 7.000050e+04 -3.795471e+04
2.394651e+05 7.138716e+04 -4.238703e+04
2.317116e+05 7.443636e+04 -3.393869e+04
2.337108e+05 7.425453e+04 -3.969271e+04
2.310422e+05 6.652583e+04 -3.795378e+04
2.316810e+05 6.559895e+04 -4.354160e+04
2.239034e+05 7.096170e+04 -3.393776e+04
2.247429e+05 7.168326e+04 -4.055914e+04
2.302320e+05 8.217973e+04 -2.950709e+04
2.224238e+05 7.870507e+04 -2.950616e+04
2.243899e+05 8.816315e+04 -3.239012e+04
2.323739e+05 8.145599e+04 -3.818684e+04
2.226583e+05 7.839523e+04 -3.819672e+04
2.288162e+05 8.993219e+04 -2.508570e+04
2.381040e+05 8.566348e+04 -2.951823e+04
2.329311e+05 8.979447e+04 -3.320719e+04
2.389100e+05 9.588582e+04 -3.246169e+04
2.390778e+05 8.658905e+04 -3.667915e+04
2.456704e+05 8.872889e+04 -2.967824e+04
2.469969e+05 8.829754e+04 -3.798044e+04
2.367412e+05 8.625586e+04 -4.065603e+04
2.232340e+05 6.305117e+04 -3.795285e+04
2.160952e+05 6.748703e+04 -3.393683e+04
2.173268e+05 6.782773e+04 -3.965209e+04
2.154258e+05 5.957650e+04 -3.795192e+04
2.164973e+05 6.076936e+04 -4.400722e+04
2.082870e+05 6.401237e+04 -3.393590e+04
2.089651e+05 6.649614e+04 -3.884598e+04
2.146698e+05 5.162568e+04 -4.196795e+04
2.075311e+05 5.606154e+04 -3.795192e+04
2.081407e+05 5.771555e+04 -4.234218e+04
2.004038e+05 6.050275e+04 -3.393577e+04
2.027757e+05 6.023823e+04 -4.004752e+04
1.996478e+05 5.255192e+04 -3.795179e+04
2.003859e+05 5.180716e+04 -4.349932e+04
1.925205e+05 5.699313e+04 -3.393564e+04
1.936198e+05 5.780145e+04 -4.023007e+04
1.974407e+05 7.598510e+04 -2.507400e+04
1.989203e+05 6.824172e+04 -2.950560e+04
1.936134e+05 7.353763e+04 -3.195802e+04
2.068074e+05 7.175574e+04 -2.950430e+04
2.021078e+05 7.516863e+04 -3.270651e+04
2.001969e+05 6.601221e+04 -3.719992e+04
1.910370e+05 6.473211e+04 -2.950547e+04
1.914778e+05 6.406205e+04 -3.746864e+04
2.146156e+05 7.523040e+04 -2.950523e+04
2.077284e+05 8.147154e+04 -3.215237e+04
2.154776e+05 7.430430e+04 -3.707883e+04
2.080103e+05 7.225247e+04 -3.591996e+04
2.018029e+05 6.655757e+04 -4.137291e+04
1.917645e+05 4.904230e+04 -3.795167e+04
1.846372e+05 5.348351e+04 -3.393551e+04
1.858547e+05 5.382381e+04 -3.958547e+04
1.838812e+05 4.553268e+04 -3.795154e+04
1.849800e+05 4.682601e+04 -4.398968e+04
1.767539e+05 4.997389e+04 -3.393539e+04
1.774370e+05 5.256960e+04 -3.885811e+04
1.831138e+05 3.757651e+04 -4.196769e+04
1.759865e+05 4.201772e+04 -3.795154e+04
1.766155e+05 4.369755e+04 -4.235105e+04
1.688604e+05 4.645951e+04 -3.393537e+04
1.711925e+05 4.623749e+04 -4.004414e+04
1.680930e+05 3.850334e+04 -3.795152e+04
1.689233e+05 3.772967e+04 -4.350993e+04
1.609669e+05 4.294514e+04 -3.393535e+04
1.620565e+05 4.372119e+04 -4.027764e+04
1.673763e+05 5.419796e+04 -2.950533e+04
1.594828e+05 5.068358e+04 -2.950531e+04
1.617763e+05 5.969625e+04 -3.203624e+04
1.685192e+05 5.210271e+04 -3.720682e+04
1.598534e+05 4.998487e+04 -3.750587e+04
1.658929e+05 6.193694e+04 -2.507516e+04
1.752705e+05 5.771287e+04 -2.950522e+04
1.703279e+05 6.158826e+04 -3.280893e+04
1.762852e+05 6.793639e+04 -3.238279e+04
1.764302e+05 5.847067e+04 -3.601741e+04
1.831538e+05 6.122249e+04 -2.950534e+04
1.839478e+05 6.047787e+04 -3.691240e+04
1.701306e+05 5.254262e+04 -4.142735e+04
1.515373e+05 2.351783e+04 -4.196766e+04
1.523060e+05 3.147459e+04 -3.795149e+04
1.541339e+05 3.266007e+04 -4.404004e+04
1.444113e+05 2.795963e+04 -3.795149e+04
1.452235e+05 2.956012e+04 -4.231137e+04
1.451800e+05 3.591638e+04 -3.393531e+04
1.472940e+05 3.837567e+04 -3.873501e+04
1.601995e+05 3.498896e+04 -3.795150e+04
1.530734e+05 3.943076e+04 -3.393533e+04
1.547704e+05 3.968629e+04 -3.957456e+04
1.372851e+05 3.240146e+04 -3.393527e+04
1.393719e+05 3.216770e+04 -3.969241e+04
1.365164e+05 2.444470e+04 -3.795144e+04
1.372193e+05 2.358072e+04 -4.355175e+04
1.293903e+05 2.888653e+04 -3.393523e+04
1.304438e+05 2.941609e+04 -4.049329e+04
1.358009e+05 4.013975e+04 -2.950529e+04
1.279061e+05 3.662482e+04 -2.950524e+04
1.301511e+05 4.588581e+04 -3.230173e+04
1.379850e+05 3.919096e+04 -3.824009e+04
1.285276e+05 3.598467e+04 -3.816897e+04
1.343168e+05 4.787820e+04 -2.507524e+04
1.436959e+05 4.365483e+04 -2.950527e+04
1.385687e+05 4.752272e+04 -3.290093e+04
1.515894e+05 4.716920e+04 -2.950529e+04
1.445213e+05 5.389599e+04 -3.209291e+04
1.526002e+05 4.620731e+04 -3.664758e+04
1.442566e+05 4.427413e+04 -3.610318e+04
1.423510e+05 4.430662e+04 -4.018676e+04
1.286216e+05 2.092977e+04 -3.795140e+04
1.214954e+05 2.537160e+04 -3.393518e+04
1.232494e+05 2.559501e+04 -3.964909e+04
1.207267e+05 1.741484e+04 -3.795135e+04
1.220856e+05 1.857659e+04 -4.392151e+04
1.136006e+05 2.185667e+04 -3.393514e+04
1.157523e+05 2.423665e+04 -3.877182e+04
1.199582e+05 9.458048e+03 -4.196757e+04
1.128320e+05 1.389988e+04 -3.795135e+04
1.135160e+05 1.556626e+04 -4.231155e+04
1.057044e+05 1.834179e+04 -3.393476e+04
1.077019e+05 1.833682e+04 -3.971562e+04
1.049358e+05 1.038500e+04 -3.795097e+04
1.055183e+05 9.599102e+03 -4.358866e+04
9.780823e+04 1.482691e+04 -3.393438e+04
9.856248e+04 1.564571e+04 -4.069368e+04
1.042194e+05 2.607896e+04 -2.950518e+04
9.632324e+04 2.256408e+04 -2.950480e+04
9.872790e+04 3.310700e+04 -3.244728e+04
1.066341e+05 2.609558e+04 -3.840699e+04
9.689850e+04 2.276687e+04 -3.820957e+04
1.027352e+05 3.381725e+04 -2.507519e+04
1.121164e+05 2.959497e+04 -2.950515e+04
1.074215e+05 3.507119e+04 -3.300430e+04
1.200112e+05 3.310989e+04 -2.950520e+04
1.153970e+05 3.883315e+04 -3.205999e+04
1.216828e+05 3.191974e+04 -3.685047e+04
1.136276e+05 3.039276e+04 -3.629677e+04
1.118883e+05 3.091539e+04 -4.033004e+04
9.703967e+04 6.870116e+03 -3.795059e+04
8.991207e+04 1.131203e+04 -3.393400e+04
9.154805e+04 1.170268e+04 -3.962806e+04
8.914350e+04 3.355235e+03 -3.795022e+04
9.035149e+04 4.596896e+03 -4.393578e+04
8.201590e+04 7.797147e+03 -3.393362e+04
8.403205e+04 1.028721e+04 -3.876990e+04
8.837637e+04 -4.601641e+03 -4.196681e+04
8.124877e+04 -1.597284e+02 -3.795022e+04
8.185778e+04 1.499872e+03 -4.226448e+04
7.412251e+04 4.281480e+03 -3.393431e+04
7.611512e+04 4.094116e+03 -3.967500e+04
7.335538e+04 -3.675395e+03 -3.795090e+04
7.393613e+04 -4.509660e+03 -4.353980e+04
6.622913e+04 7.658136e+02 -3.393500e+04
6.708188e+04 1.405033e+03 -4.051070e+04
7.113463e+04 1.974868e+04 -2.507471e+04
7.261962e+04 1.201151e+04 -2.950429e+04
6.700268e+04 1.765102e+04 -3.248114e+04
8.053090e+04 1.553432e+04 -2.950404e+04
7.550929e+04 1.944583e+04 -3.294736e+04
7.477146e+04 1.117190e+04 -3.818646e+04
6.472624e+04 8.495847e+03 -2.950498e+04
6.519742e+04 8.179123e+03 -3.815575e+04
8.142314e+04 2.574205e+04 -3.204459e+04
8.121821e+04 1.613107e+04 -3.602968e+04
8.842707e+04 1.904920e+04 -2.950442e+04
8.965083e+04 1.823676e+04 -3.686912e+04
7.909630e+04 1.636921e+04 -4.012781e+04
6.546200e+04 -7.191062e+03 -3.795159e+04
5.833574e+04 -2.749853e+03 -3.393569e+04
5.992204e+04 -2.454159e+03 -3.955402e+04
5.756861e+04 -1.070673e+04 -3.795228e+04
5.877830e+04 -9.506488e+03 -4.390253e+04
5.044236e+04 -6.265520e+03 -3.393637e+04
5.233935e+04 -3.865408e+03 -3.874084e+04
5.680013e+04 -1.866290e+04 -4.196819e+04
4.967387e+04 -1.422169e+04 -3.795228e+04
5.027353e+04 -1.260731e+04 -4.228287e+04
4.254612e+04 -9.780034e+03 -3.393578e+04
4.447398e+04 -1.004618e+04 -3.968633e+04
4.177763e+04 -1.773621e+04 -3.795169e+04
4.248631e+04 -1.867317e+04 -4.350369e+04
3.464987e+04 -1.329455e+04 -3.393519e+04
3.556225e+04 -1.280049e+04 -4.043265e+04
4.893947e+04 1.464513e+03 -2.950636e+04
4.982328e+04 1.192515e+04 -3.249108e+04
4.156651e+04 6.862497e+03 -3.346359e+04
4.276385e+04 -3.081927e+03 -3.838256e+04
4.916383e+04 2.198614e+03 -3.619531e+04
3.955900e+04 5.686720e+03 -2.507660e+04
4.106189e+04 -2.043313e+03 -2.950662e+04
3.373859e+04 2.689012e+03 -3.269676e+04
5.683285e+04 4.980180e+03 -2.950567e+04
5.799986e+04 4.120020e+03 -3.682455e+04
3.316564e+04 -5.557828e+03 -2.950603e+04
3.325748e+04 -6.214473e+03 -3.837582e+04
4.739149e+04 2.163913e+03 -4.038186e+04
3.388139e+04 -2.125072e+04 -3.795110e+04
2.675363e+04 -1.680906e+04 -3.393460e+04
2.835324e+04 -1.650820e+04 -3.959670e+04
2.598514e+04 -2.476524e+04 -3.795051e+04
2.793103e+04 -2.367990e+04 -4.401984e+04
1.885739e+04 -2.032358e+04 -3.393401e+04
2.094157e+04 -1.792287e+04 -3.874390e+04
1.809041e+04 -2.828020e+04 -3.795051e+04
2.521817e+04 -3.272186e+04 -4.196701e+04
1.917871e+04 -2.632750e+04 -4.229954e+04
1.168757e+04 -3.077276e+04 -4.282679e+04
1.355693e+04 -2.389245e+04 -3.964391e+04
1.097157e+04 -2.381752e+04 -3.392502e+04
1.020460e+04 -3.177414e+04 -3.794152e+04
3.085763e+03 -2.731145e+04 -3.391602e+04
5.900888e+03 -2.618161e+04 -3.945519e+04
2.526940e+04 -9.072343e+03 -2.950544e+04
1.737316e+04 -1.258686e+04 -2.950485e+04
1.804663e+04 -3.023452e+03 -3.193783e+04
2.626846e+04 -1.017486e+04 -3.696730e+04
1.743941e+04 -1.226593e+04 -3.608989e+04
7.968271e+03 -8.376056e+03 -2.507538e+04
1.175400e+04 -8.900469e+03 -3.316746e+04
9.452499e+03 -1.611278e+04 -2.950454e+04
1.158079e+04 -1.762186e+04 -3.848733e+04
2.596788e+03 -9.942679e+03 -3.276398e+04
1.566688e+03 -1.960671e+04 -2.949555e+04
3.408329e+03 -2.031925e+04 -3.667795e+04
1.612776e+04 -1.176234e+04 -4.054658e+04
2.318785e+03 -3.526807e+04 -3.793252e+04
-4.800048e+03 -3.080539e+04 -3.390703e+04
-1.714319e+03 -2.891581e+04 -3.929503e+04
-5.567026e+03 -3.876201e+04 -3.792353e+04
-4.737552e+03 -3.897440e+04 -4.414757e+04
-1.268586e+04 -3.429933e+04 -3.389804e+04
-1.213689e+04 -3.166984e+04 -3.889197e+04
-1.346176e+04 -4.227697e+04 -3.792353e+04
-6.342930e+03 -4.673966e+04 -4.194902e+04
-1.349617e+04 -4.038260e+04 -4.235391e+04
-2.064788e+04 -4.599635e+04 -3.819775e+04
-2.064366e+04 -4.667248e+04 -4.366770e+04
-2.705810e+04 -4.173808e+04 -3.444648e+04
-1.987198e+04 -3.801871e+04 -3.417226e+04
-2.572332e+04 -4.032957e+04 -3.924649e+04
-1.855462e+04 -3.800296e+04 -3.988917e+04
-1.420494e+04 -2.659459e+04 -2.947756e+04
-2.400017e+04 -2.260207e+04 -2.507155e+04
-1.946124e+04 -2.289382e+04 -3.275636e+04
-2.248110e+04 -3.030681e+04 -2.949203e+04
-2.073137e+04 -3.221968e+04 -3.710469e+04
-2.940237e+04 -2.427309e+04 -3.253981e+04
-1.328542e+04 -1.657157e+04 -3.179233e+04
-1.226993e+04 -2.647024e+04 -3.516792e+04
-6.319124e+03 -2.310065e+04 -2.948655e+04
-4.243940e+03 -2.496350e+04 -3.691627e+04
-2.966722e+04 -3.402619e+04 -2.976625e+04
-2.880881e+04 -3.375733e+04 -3.802200e+04
-1.967537e+04 -3.190271e+04 -4.144029e+04
-4.851934e+04 -4.996552e+04 -3.374619e+04
-4.886939e+04 -4.412895e+04 -3.734165e+04
-4.643682e+04 -4.973448e+04 -3.925489e+04
-4.011130e+04 -4.973388e+04 -3.980865e+04
-4.104637e+04 -4.341854e+04 -3.804646e+04
-4.143033e+04 -4.917684e+04 -3.499492e+04
-4.291486e+04 -5.695007e+04 -3.874619e+04
-5.000386e+04 -5.773875e+04 -3.749746e+04
-4.381256e+04 -5.527113e+04 -4.276962e+04
-4.403945e+04 -4.146495e+04 -3.031469e+04
-5.112846e+04 -4.225363e+04 -2.906596e+04
-4.457408e+04 -3.518655e+04 -3.387004e+04
-3.502012e+04 -5.343511e+04 -3.874619e+04
-2.783400e+04 -4.971573e+04 -3.847197e+04
-3.501867e+04 -5.324832e+04 -4.306214e+04
-3.424422e+04 -4.545746e+04 -3.472070e+04
-3.377521e+04 -4.520149e+04 -3.998355e+04
-3.650464e+04 -6.120834e+04 -4.249746e+04
-3.685334e+04 -3.774557e+04 -3.004047e+04
-3.358220e+04 -3.904995e+04 -3.830100e+04
-2.174149e+05 -8.273478e+04 -1.136820e+04
-2.245452e+05 -8.640868e+04 -1.163155e+04
-2.202644e+05 -7.869779e+04 -1.502736e+04
-2.109391e+05 -8.703617e+04 -1.515761e+04
-2.180694e+05 -9.071007e+04 -1.542095e+04
-2.135079e+05 -8.265270e+04 -1.793167e+04
-2.251997e+05 -9.438397e+04 -1.568430e+04
-2.214620e+05 -8.593451e+04 -1.995702e+04
-2.095202e+05 -7.921981e+04 -1.136820e+04
-2.159959e+05 -7.491842e+04 -7.578803e+03
-2.115723e+05 -7.486668e+04 -1.554683e+04
-2.022201e+05 -7.770733e+04 -1.228473e+04
-1.963391e+05 -8.401121e+04 -1.699066e+04
-2.036391e+05 -8.552369e+04 -1.607413e+04
-2.062580e+05 -8.096721e+04 -1.952482e+04
-2.009697e+05 -8.516868e+04 -2.366466e+04
-2.080626e+05 -8.660028e+04 -2.220095e+04
-2.085284e+05 -9.461693e+04 -1.972208e+04
-2.142998e+05 -8.942494e+04 -2.337932e+04
-2.061177e+05 -1.021977e+05 -2.428656e+04
-2.156587e+05 -9.829083e+04 -1.998543e+04
-2.129947e+05 -9.855109e+04 -2.845311e+04
-2.218851e+05 -9.258715e+04 -2.338860e+04
-2.061353e+05 -9.298593e+04 -2.652145e+04
-2.012284e+05 -9.310445e+04 -2.063861e+04
-1.575296e+05 -1.061589e+05 -3.778577e+04
-1.643378e+05 -1.023511e+05 -3.417865e+04
-1.629682e+05 -1.034190e+05 -4.013083e+04
-1.625297e+05 -1.110260e+05 -3.917865e+04
-1.632035e+05 -1.114855e+05 -4.441183e+04
-1.693378e+05 -1.072182e+05 -3.557153e+04
-1.686968e+05 -1.066459e+05 -3.990204e+04
-1.674380e+05 -9.579315e+04 -2.999170e+04
-1.683090e+05 -9.929836e+04 -3.787617e+04
-1.724381e+05 -1.006602e+05 -3.138458e+04
-1.746235e+05 -1.028076e+05 -3.827569e+04
-1.755384e+05 -9.410221e+04 -2.719762e+04
-1.767293e+05 -9.541628e+04 -3.484878e+04
-1.636163e+05 -1.183487e+05 -4.278577e+04
-1.704244e+05 -1.145409e+05 -3.917865e+04
-1.702408e+05 -1.132403e+05 -4.297718e+04
-1.781845e+05 -1.169387e+05 -4.329420e+04
-1.760269e+05 -1.093343e+05 -4.069562e+04
-1.773274e+05 -1.097534e+05 -3.503253e+04
-1.784140e+05 -1.170762e+05 -3.863964e+04
-1.853170e+05 -1.122887e+05 -3.449352e+04
-1.828150e+05 -1.131289e+05 -4.011982e+04
-1.804277e+05 -1.031955e+05 -3.084557e+04
-1.846159e+05 -1.052708e+05 -3.935698e+04
-2.542885e+05 -1.001096e+05 -1.187330e+04
-2.470483e+05 -1.045699e+05 -1.592605e+04
-2.530250e+05 -9.834938e+04 -1.790897e+04
-2.467005e+05 -9.727144e+04 -1.215825e+04
-2.542915e+05 -8.987162e+04 -1.475446e+04
-2.394603e+05 -1.017318e+05 -1.621099e+04
-2.463987e+05 -9.464494e+04 -1.876684e+04
-2.388057e+05 -9.375648e+04 -1.215825e+04
-2.460459e+05 -8.929615e+04 -8.105497e+03
-2.446880e+05 -8.615628e+04 -1.479302e+04
-2.362429e+05 -8.288032e+04 -1.607102e+04
-2.384808e+05 -9.312648e+04 -2.124922e+04
-2.316754e+05 -9.008258e+04 -1.189490e+04
-2.323300e+05 -9.805787e+04 -1.594765e+04
-2.301897e+05 -9.093879e+04 -2.093108e+04
-2.532167e+05 -1.007029e+05 -2.529629e+04
-2.510874e+05 -1.082366e+05 -2.510010e+04
-2.432670e+05 -1.064398e+05 -2.350506e+04
-2.446342e+05 -1.002629e+05 -2.374920e+04
-2.457285e+05 -1.123222e+05 -2.032477e+04
-2.381405e+05 -1.094840e+05 -2.060971e+04
-2.368207e+05 -1.172362e+05 -2.500844e+04
-2.429175e+05 -1.120970e+05 -2.899268e+04
-2.227890e+05 -1.019647e+05 -2.024878e+04
-2.283595e+05 -9.752896e+04 -2.412022e+04
-2.203782e+05 -1.095455e+05 -2.481326e+04
-2.299192e+05 -1.056386e+05 -2.051212e+04
-2.274780e+05 -1.070673e+05 -2.961149e+04
-2.371403e+05 -1.012402e+05 -2.606893e+04
-2.285995e+05 -1.133908e+05 -2.491085e+04
-2.354793e+05 -1.103540e+05 -2.973381e+04
-1.864036e+05 -1.196115e+05 -3.810064e+04
-1.933066e+05 -1.148240e+05 -3.395452e+04
-1.912818e+05 -1.148444e+05 -3.988672e+04
-1.943932e+05 -1.221467e+05 -3.756164e+04
-1.943154e+05 -1.225501e+05 -4.267594e+04
-2.012962e+05 -1.173592e+05 -3.341552e+04
-2.023986e+05 -1.161146e+05 -3.869392e+04
-1.953850e+05 -1.304492e+05 -4.170776e+04
-2.022880e+05 -1.256617e+05 -3.756164e+04
-2.051125e+05 -1.256530e+05 -4.181247e+04
-2.095175e+05 -1.212046e+05 -3.351311e+04
-2.105092e+05 -1.295070e+05 -3.765923e+04
-2.177387e+05 -1.250499e+05 -3.361070e+04
-2.114451e+05 -1.214512e+05 -3.845539e+04
-2.037070e+05 -1.097785e+05 -2.885104e+04
-2.132480e+05 -1.058716e+05 -2.454991e+04
-2.085753e+05 -1.052618e+05 -3.232080e+04
-2.108372e+05 -1.134524e+05 -2.911439e+04
-2.081990e+05 -1.128832e+05 -3.555375e+04
-2.174424e+05 -1.068060e+05 -3.153524e+04
-2.037278e+05 -9.912281e+04 -3.159561e+04
-2.012272e+05 -1.082413e+05 -3.608809e+04
-1.988177e+05 -1.006852e+05 -2.520309e+04
-1.915176e+05 -9.917274e+04 -2.611962e+04
-1.964069e+05 -1.082660e+05 -2.976757e+04
-1.943262e+05 -1.001243e+05 -3.387837e+04
-1.884173e+05 -1.057307e+05 -3.030657e+04
-1.934463e+05 -1.083534e+05 -3.774134e+04
-2.190585e+05 -1.172977e+05 -2.921198e+04
-2.150892e+05 -1.159876e+05 -3.733618e+04
-2.187304e+05 -1.333524e+05 -3.775682e+04
-2.259599e+05 -1.288953e+05 -3.370829e+04
-2.159614e+05 -1.262508e+05 -3.970479e+04
-2.269516e+05 -1.371977e+05 -3.785441e+04
-2.204911e+05 -1.332460e+05 -4.231358e+04
-2.341811e+05 -1.327406e+05 -3.380588e+04
-2.247030e+05 -1.283311e+05 -3.915436e+04
-2.258822e+05 -1.384458e+05 -4.388527e+04
-2.313839e+05 -1.310042e+05 -4.034790e+04
-2.348464e+05 -1.407127e+05 -3.785441e+04
-2.276169e+05 -1.451698e+05 -4.190294e+04
-2.336121e+05 -1.393616e+05 -4.276322e+04
-2.413257e+05 -1.429506e+05 -4.268816e+04
-2.388909e+05 -1.360266e+05 -3.992065e+04
-2.429049e+05 -1.356186e+05 -3.327522e+04
-2.435702e+05 -1.435907e+05 -3.732375e+04
-2.472434e+05 -1.376934e+05 -3.852902e+04
-2.444088e+05 -1.200744e+05 -2.472349e+04
-2.430890e+05 -1.278266e+05 -2.912221e+04
-2.479593e+05 -1.216114e+05 -3.242949e+04
-2.355009e+05 -1.249884e+05 -2.940716e+04
-2.387631e+05 -1.201016e+05 -3.336422e+04
-2.409196e+05 -1.289681e+05 -3.900906e+04
-2.518128e+05 -1.307046e+05 -2.859155e+04
-2.515661e+05 -1.303435e+05 -3.784694e+04
-2.272797e+05 -1.211431e+05 -2.930957e+04
-2.302503e+05 -1.158079e+05 -3.225783e+04
-2.221210e+05 -1.218857e+05 -3.763421e+04
-2.319102e+05 -1.240220e+05 -3.769137e+04
-2.382985e+05 -1.312144e+05 -4.305854e+04
-1.709807e+05 -7.494149e+04 -1.816186e+04
-1.790811e+05 -7.325055e+04 -1.536779e+04
-1.758295e+05 -6.631657e+04 -1.987002e+04
-1.736386e+05 -8.267719e+04 -2.161779e+04
-1.716474e+05 -7.509379e+04 -2.476985e+04
-1.817390e+05 -8.098625e+04 -1.882372e+04
-1.807774e+05 -7.328246e+04 -2.270397e+04
-1.724314e+05 -8.413202e+04 -3.088353e+04
-1.724764e+05 -7.985267e+04 -2.929004e+04
-1.765949e+05 -7.735771e+04 -2.630486e+04
-1.824762e+05 -8.178848e+04 -2.652125e+04
-1.705383e+05 -8.923517e+04 -2.580474e+04
-1.786387e+05 -8.754423e+04 -2.301067e+04
-1.793720e+05 -8.908774e+04 -2.934669e+04
-1.849621e+05 -6.694667e+04 -1.066186e+04
-1.876200e+05 -7.468237e+04 -1.411779e+04
-1.867271e+05 -6.435524e+04 -1.861729e+04
-1.949201e+05 -7.619485e+04 -1.320126e+04
-1.975178e+05 -7.157627e+04 -1.787174e+04
-1.890390e+05 -8.249873e+04 -1.790719e+04
-1.915405e+05 -7.793054e+04 -2.188733e+04
-2.003973e+05 -7.845021e+04 -2.086571e+04
-1.928241e+05 -6.686167e+04 -2.062283e+04
-1.890391e+05 -7.358822e+04 -2.343518e+04
-1.935768e+05 -8.354998e+04 -2.631691e+04
-1.939283e+05 -9.159197e+04 -2.155514e+04
-1.866283e+05 -9.007949e+04 -2.247167e+04
-1.882395e+05 -9.143691e+04 -3.128099e+04
-1.835280e+05 -9.663747e+04 -2.665862e+04
-1.795821e+05 -7.574348e+04 -2.855685e+04
-8.699544e+04 -3.780359e+04 -1.829623e+04
-9.287875e+04 -3.525292e+04 -1.556934e+04
-9.332440e+04 -3.070939e+04 -1.997347e+04
-8.743628e+04 -4.467956e+04 -2.181934e+04
-9.077806e+04 -3.809404e+04 -2.396226e+04
-9.331958e+04 -4.212890e+04 -1.909245e+04
-9.733392e+04 -3.606170e+04 -2.092542e+04
-9.002909e+04 -4.364427e+04 -2.881998e+04
-9.649398e+04 -4.211826e+04 -2.441892e+04
-9.406554e+04 -4.763110e+04 -2.181934e+04
-8.818223e+04 -5.018177e+04 -2.454623e+04
-9.715202e+04 -4.793877e+04 -2.685088e+04
-9.906718e+04 -3.132849e+04 -1.204623e+04
-9.950801e+04 -3.820446e+04 -1.556934e+04
-1.006651e+05 -3.202241e+04 -1.803965e+04
-1.007628e+05 -4.902569e+04 -2.098219e+04
-1.067140e+05 -4.491807e+04 -1.741816e+04
-1.000168e+05 -4.352349e+04 -1.825531e+04
-1.038509e+05 -4.396449e+04 -2.375205e+04
-1.071324e+05 -3.429723e+04 -1.837963e+04
-1.024357e+05 -3.904987e+04 -2.168385e+04
-1.062052e+05 -3.959905e+04 -1.473219e+04
-1.104213e+05 -3.921103e+04 -2.036455e+04
-1.002619e+05 -3.715024e+04 -2.599039e+04
-1.476094e+05 -6.728713e+04 -1.961296e+04
-1.543344e+05 -6.607138e+04 -2.532474e+04
-1.512359e+05 -6.768955e+04 -2.918431e+04
-1.482107e+05 -6.208112e+04 -2.494536e+04
-1.524204e+05 -6.055337e+04 -2.258897e+04
-1.470333e+05 -6.046616e+04 -1.615061e+04
-1.443173e+05 -6.568817e+04 -2.776680e+04
-1.429383e+05 -5.683576e+04 -2.281924e+04
-1.415561e+05 -7.115655e+04 -2.307531e+04
-1.409801e+05 -6.433559e+04 -1.961296e+04
-1.373402e+05 -6.278889e+04 -2.718236e+04
-1.530518e+05 -5.786049e+04 -1.336296e+04
-1.536279e+05 -6.468145e+04 -1.682531e+04
-1.583685e+05 -5.717399e+04 -1.960065e+04
-1.575172e+05 -5.064612e+04 -1.535265e+04
-1.510476e+05 -5.404237e+04 -1.851804e+04
-1.464226e+05 -5.490895e+04 -1.336296e+04
-1.524411e+05 -5.230327e+04 -1.057531e+04
-1.487508e+05 -4.851220e+04 -1.541482e+04
-1.342489e+05 -6.114586e+04 -1.951127e+04
-1.403021e+05 -5.727643e+04 -1.604893e+04
-1.335709e+05 -5.408671e+04 -1.594724e+04
-1.357727e+05 -5.531234e+04 -2.367071e+04
-1.396914e+05 -5.171922e+04 -1.326127e+04
-1.420505e+05 -4.651854e+04 -1.579909e+04
-1.379305e+05 -5.057809e+04 -1.842802e+04
-1.442128e+05 -5.235943e+04 -1.832961e+04
-1.495144e+05 -5.555461e+04 -2.659918e+04
-1.148352e+05 -5.887402e+04 -2.287193e+04
-1.141572e+05 -5.181486e+04 -1.930790e+04
-1.157249e+05 -5.466755e+04 -2.562253e+04
-1.207864e+05 -5.476640e+04 -1.930790e+04
-1.225618e+05 -5.805131e+04 -2.732110e+04
-1.201084e+05 -4.770725e+04 -1.574386e+04
-1.208034e+05 -5.075167e+04 -2.311629e+04
-1.275177e+05 -5.795613e+04 -1.940958e+04
-1.268397e+05 -5.089698e+04 -1.584555e+04
-1.287237e+05 -5.192933e+04 -2.242135e+04
-1.130794e+05 -5.000059e+04 -2.561795e+04
-1.174146e+05 -4.603319e+04 -2.224122e+04
-1.074600e+05 -5.042028e+04 -2.014504e+04
-1.134112e+05 -4.631266e+04 -1.658101e+04
-1.106062e+05 -4.470330e+04 -2.388346e+04
-1.195997e+05 -4.238822e+04 -1.305790e+04
-1.257201e+05 -4.002074e+04 -1.037193e+04
-1.219694e+05 -3.721129e+04 -1.647534e+04
-1.262289e+05 -4.533976e+04 -1.305790e+04
-1.239512e+05 -4.467941e+04 -1.892040e+04
-1.307374e+05 -4.089801e+04 -1.530353e+04
-1.129024e+05 -4.099364e+04 -1.389504e+04
-1.160700e+05 -4.230400e+04 -1.982023e+04
-1.329601e+05 -4.852949e+04 -1.315958e+04
-1.316867e+05 -4.780559e+04 -1.968788e+04
-1.215451e+05 -4.597626e+04 -2.598299e+04
-2.911424e+05 -1.739126e+05 -4.575050e+04
-2.841219e+05 -1.593567e+05 -4.236386e+04
-2.919892e+05 -1.105386e+05 -1.374129e+04
-2.851960e+05 -9.808004e+04 -9.730497e+03
-2.839416e+05 -1.272458e+05 -2.728079e+04
-2.886273e+05 -1.147863e+05 -2.300045e+04
-2.598273e+05 -9.366873e+04 -1.327775e+04
2.923307e+05 1.593180e+05 -1.124558e+04
2.880081e+05 1.714683e+05 -6.498724e+03
2.722285e+05 1.397288e+05 -1.605783e+04
2.961220e+05 9.603726e+04 -4.508711e+04
2.858646e+05 9.185700e+04 -4.240156e+04
2.796810e+05 7.889883e+04 -4.655337e+04
2.559613e+05 7.712183e+04 -4.377725e+04
2.834353e+05 8.946887e+04 -4.572377e+04
2.785330e+05 1.099014e+05 -3.170242e+04
-1.673774e+05 -6.967144e+04 -2.279960e+04
-1.597586e+05 -6.428765e+04 -2.180642e+04
-1.717561e+05 -8.997819e+04 -3.269316e+04
-1.712758e+05 -7.599321e+04 -3.085829e+04
-1.820889e+05 -5.908569e+04 -1.591981e+04
-1.386189e+05 -6.990354e+04 -3.135932e+04
-1.571703e+05 -1.059601e+05 -4.359481e+04
-1.330893e+05 -1.023543e+05 -4.580717e+04
-1.286189e+05 -9.031807e+04 -4.145644e+04
-1.630826e+05 -1.187718e+05 -4.626912e+04
-1.659407e+05 -1.002263e+05 -4.344698e+04
-1.307702e+05 -5.947770e+04 -2.586339e+04
-1.312401e+05 -5.916200e+04 -3.180185e+04
-1.547215e+05 -4.591757e+04 -1.221878e+04
-1.854498e+05 -9.927510e+04 -3.296953e+04
-1.095264e+05 -8.273420e+04 -4.142487e+04
-1.173087e+05 -8.563289e+04 -4.445794e+04
-8.776030e+04 -3.086999e+04 -2.178307e+04
-7.621858e+04 -2.637238e+04 -2.278213e+04
-9.213565e+04 -3.749222e+04 -2.870434e+04
-9.039310e+04 -4.975747e+04 -3.091972e+04
-9.964113e+04 -2.702783e+04 -1.591165e+04
-9.689575e+04 -2.587523e+04 -2.069978e+04
-5.163800e+04 -3.588204e+04 -3.135782e+04
-7.679485e+04 -9.080633e+03 -1.181373e+04
-5.003996e+04 -5.702042e+04 -4.235284e+04
-6.706206e+04 -7.100492e+04 -4.483674e+04
-8.077695e+04 -6.760999e+04 -4.098094e+04
-3.636376e+04 -5.977092e+04 -4.584150e+04
-3.488254e+04 -3.124900e+04 -3.332616e+04
-1.049618e+05 -4.883288e+04 -2.752344e+04
-8.232161e+04 -5.562363e+04 -4.053922e+04
-9.702091e+04 -8.438811e+04 -4.476039e+04
-1.836380e+05 -4.449250e+04 -6.502285e+03
-1.625725e+05 -4.142116e+04 -7.479795e+03
-2.053347e+05 -7.159892e+04 -1.541762e+04
-1.993591e+05 -6.683911e+04 -2.157651e+04
-1.356653e+05 -4.490705e+04 -1.636844e+04
-1.447038e+05 -4.377254e+04 -1.798027e+04
-1.566083e+05 -3.511580e+04 -6.937355e+03
-6.879003e+04 -4.557701e+03 -1.750145e+04
-5.934471e+04 1.554564e+03 -1.140216e+04
-9.253136e+04 -5.603239e+03 -6.244242e+03
-1.153371e+05 -3.483989e+04 -1.698347e+04
-1.089665e+05 -1.594430e+04 -8.614052e+03
-1.239064e+05 -1.886663e+04 -5.557123e+03
-2.905076e+05 -1.409828e+05 -3.142011e+04
-2.593316e+05 -1.588921e+05 -4.537736e+04
-2.711953e+05 -1.536948e+05 -4.543924e+04
-2.567900e+05 -1.259456e+05 -3.249751e+04
2.849576e+05 1.217952e+05 -2.838542e+04
2.924951e+05 1.212715e+05 -3.701219e+04
2.562395e+05 1.410869e+05 -1.137971e+04
2.530344e+05 1.096222e+05 -2.762593e+04
2.677543e+05 1.093754e+05 -3.625330e+04
-2.518676e+05 -8.029153e+04 -1.039574e+04
-2.493620e+05 -1.155806e+05 -2.700824e+04
-2.435601e+05 -8.096777e+04 -1.848203e+04
-2.281495e+05 -8.215968e+04 -1.660536e+04
-2.190069e+05 -7.077948e+04 -1.234496e+04
-2.208477e+05 -1.007046e+05 -2.741817e+04
-2.276241e+05 -9.287275e+04 -2.834796e+04
-1.977553e+05 -9.195638e+04 -2.961054e+04
-1.350091e+05 -2.968530e+04 -1.008994e+04
-1.473619e+05 -3.382345e+04 -1.237169e+04
-1.288972e+05 -3.578098e+04 -1.248239e+04
-4.337176e+04 9.088452e+02 -1.559410e+04
-2.619764e+04 1.833718e+04 -1.124827e+04
-1.179948e+04 1.483370e+04 -1.481409e+04
-4.549323e+04 -6.519298e+03 -2.679658e+04
-3.197136e+04 -1.733431e+04 -2.841402e+04
5.020314e+03 3.012614e+04 -1.196845e+04
2.105612e+04 2.949576e+04 -1.529265e+04
-1.114114e+04 8.560892e+03 -2.553752e+04
7.194748e+02 -2.899215e+03 -2.787926e+04
3.753790e+04 4.589356e+04 -1.177523e+04
3.248840e+04 1.072412e+04 -2.949856e+04
2.301400e+04 1.849296e+04 -2.886881e+04
5.303557e+04 4.466300e+04 -1.544864e+04
4.826586e+04 4.747486e+04 -1.840754e+04
6.821501e+04 5.988450e+04 -1.134346e+04
5.936405e+04 5.248356e+04 -1.819137e+04
8.356561e+04 5.921576e+04 -1.566706e+04
7.789991e+04 6.204438e+04 -1.845317e+04
6.537715e+04 2.441918e+04 -2.760972e+04
9.871954e+04 7.490973e+04 -1.136874e+04
1.145187e+05 7.342780e+04 -1.572913e+04
1.097161e+05 7.534993e+04 -1.876395e+04
9.510910e+04 3.995123e+04 -2.724584e+04
8.960839e+04 5.042146e+04 -2.699793e+04
1.309256e+05 8.653263e+04 -1.052005e+04
1.458926e+05 8.743145e+04 -1.603230e+04
1.268513e+05 5.328357e+04 -2.814677e+04
1.218582e+05 6.309066e+04 -2.787787e+04
1.617730e+05 1.048529e+05 -9.944673e+03
1.590493e+05 1.148443e+05 -7.263287e+03
1.827179e+05 1.036424e+05 -1.361174e+04
1.734553e+05 1.114619e+05 -1.475588e+04
1.601258e+05 6.659378e+04 -2.757961e+04
1.938235e+05 1.154026e+05 -1.130536e+04
1.917064e+05 1.199377e+05 -1.475101e+04
1.923532e+05 8.009437e+04 -2.759324e+04
2.083728e+05 1.154136e+05 -1.566966e+04
2.029038e+05 1.173755e+05 -1.883596e+04
2.156023e+05 1.240003e+05 -1.858237e+04
2.244482e+05 1.311839e+05 -1.015348e+04
2.217611e+05 1.427197e+05 -6.914585e+03
2.463125e+05 1.301613e+05 -1.571210e+04
2.364832e+05 1.380839e+05 -1.473892e+04
2.214476e+05 9.560552e+04 -2.799512e+04
2.157714e+05 1.056362e+05 -2.792710e+04
2.470378e+05 6.485894e+04 -4.585197e+04
2.480003e+05 9.680310e+04 -3.331393e+04
2.479026e+05 9.119725e+04 -4.101775e+04
2.250211e+05 6.350669e+04 -4.262004e+04
2.322630e+05 6.293578e+04 -4.725094e+04
2.156606e+05 5.125358e+04 -4.568242e+04
2.167704e+05 8.282030e+04 -3.310115e+04
1.936276e+05 4.961547e+04 -4.254124e+04
2.007949e+05 4.910346e+04 -4.721728e+04
1.841071e+05 3.722207e+04 -4.567627e+04
1.856005e+05 6.917731e+04 -3.305904e+04
1.624243e+05 3.563183e+04 -4.248392e+04
1.692440e+05 3.503546e+04 -4.723229e+04
1.538108e+05 2.346864e+04 -4.644854e+04
1.305254e+05 2.139486e+04 -4.261885e+04
1.377072e+05 2.077498e+04 -4.725016e+04
1.538853e+05 5.513120e+04 -3.284102e+04
1.209863e+05 9.051779e+03 -4.568197e+04
1.230983e+05 4.030049e+04 -3.296272e+04
9.883631e+04 7.410984e+03 -4.265904e+04
1.060233e+05 6.757550e+03 -4.727340e+04
8.938009e+04 -4.983007e+03 -4.567337e+04
9.077638e+04 2.713895e+04 -3.309891e+04
6.726787e+04 -6.690579e+03 -4.262068e+04
7.443125e+04 -7.328903e+03 -4.725232e+04
5.780797e+04 -1.904595e+04 -4.567353e+04
5.917752e+04 1.314558e+04 -3.307561e+04
3.606474e+04 -2.073830e+04 -4.252683e+04
4.288520e+04 -2.141732e+04 -4.724014e+04
2.762947e+04 -3.277141e+04 -4.648315e+04
2.725495e+04 -2.211834e+03 -3.301077e+04
3.834400e+03 -3.466134e+04 -4.363492e+04
-4.081378e+03 -4.705386e+04 -4.653522e+04
-3.975289e+03 -1.562977e+04 -3.265716e+04
-5.262242e+03 -2.078231e+04 -4.074793e+04
-2.924606e+04 -4.816456e+04 -4.274689e+04
-1.724279e+04 -4.306622e+04 -4.569181e+04
-3.183250e+04 -5.078528e+04 -4.586162e+04
-3.011452e+04 -3.595082e+04 -4.144287e+04
-1.078170e+05 -8.172815e+04 -4.499053e+04
-1.172972e+05 -6.190894e+04 -2.908255e+04
-1.859623e+05 -1.199843e+05 -4.421713e+04
-1.954045e+05 -1.296381e+05 -4.539315e+04
-2.111468e+05 -1.309698e+05 -4.281482e+04
-2.074324e+05 -1.276103e+05 -4.530946e+04
-2.253384e+05 -1.459931e+05 -4.645705e+04
-2.257981e+05 -1.409141e+05 -4.744262e+04
-2.223412e+05 -1.137477e+05 -3.300285e+04
-2.168026e+05 -1.207778e+05 -4.184833e+04
-2.500138e+05 -1.462057e+05 -4.294412e+04
-2.512038e+05 -1.345431e+05 -4.206815e+04
-1.310393e+05 -4.961247e+04 -2.617963e+04
-1.146810e+05 -4.067326e+04 -2.530156e+04
-1.358851e+05 -4.072512e+04 -1.860773e+04
-2.347511e+05 -1.132457e+05 -3.674399e+04
7.474905e+04 2.520515e+04 -3.575163e+04
2.613306e+04 2.998937e+03 -3.588752e+04
9.325804e+04 4.003548e+04 -3.326994e+04
1.106411e+05 4.157388e+04 -3.605879e+04
1.253668e+05 5.202394e+04 -3.455377e+04
1.376692e+05 5.313904e+04 -3.577328e+04
1.692140e+05 6.728436e+04 -3.570429e+04
2.012690e+05 8.066281e+04 -3.540494e+04
2.194743e+05 9.470434e+04 -3.413288e+04
2.318789e+05 9.547790e+04 -3.619309e+04
2.477965e+05 1.028352e+05 -3.644222e+04
1.102100e+04 -3.158030e+03 -3.580891e+04
-5.010398e+03 -1.004820e+04 -3.577921e+04
-2.043239e+04 -1.725607e+04 -3.580306e+04
-3.662609e+04 -2.655437e+04 -3.682420e+04
-2.102583e+05 -9.956941e+04 -3.547688e+04
-2.234509e+05 -1.083844e+05 -3.631193e+04
2.781980e+05 -8.664309e+04 -2.519877e+04
2.764835e+05 -6.304615e+04 -2.589186e+04
2.683706e+05 -8.216322e+04 0.000000e+00
2.516019e+05 -8.728864e+04 -2.490888e+04
-8.908158e+04 -1.431928e+05 0.000000e+00
-5.673485e+04 -1.327840e+05 0.000000e+00
-6.995364e+04 -1.501863e+05 -2.463426e+04
-5.913298e+04 -1.055009e+05 -1.915174e+04
2.680523e+05 -7.877036e+04 -5.000000e+04
2.798573e+05 -1.083348e+05 -2.356746e+04
2.680523e+05 -1.128057e+05 -5.000000e+04
2.778113e+05 -1.325329e+05 -2.518513e+04
2.683706e+05 -1.156766e+05 0.000000e+00
-1.798842e+05 -2.072977e+05 -5.000000e+04
-1.890417e+05 -2.188041e+05 -2.468679e+04
-1.643616e+05 -1.834159e+05 -2.540407e+04
-1.948040e+05 -1.761086e+05 -2.930523e+04
-2.001020e+05 -1.599234e+05 0.000000e+00
-2.245289e+05 -1.857424e+05 -2.656005e+04
-2.194980e+05 -1.579623e+05 -1.503715e+04
-1.837836e+05 -1.550349e+05 -1.898219e+04
-1.698616e+05 -1.693762e+05 0.000000e+00
-1.982572e+05 -1.997024e+05 0.000000e+00
-2.417854e+04 -8.005048e+04 0.000000e+00
7.400407e+03 -6.599062e+04 0.000000e+00
3.781307e+03 -1.034650e+05 0.000000e+00
2.107820e+03 -7.805101e+04 -2.205785e+04
1.017100e+04 -1.245181e+05 -5.000000e+04
-6.300966e+03 -1.504308e+05 -2.511870e+04
6.821828e+03 -1.634485e+05 -5.000000e+04
2.355556e+04 -1.541157e+05 -2.515951e+04
1.743738e+04 -1.367855e+05 0.000000e+00
4.599138e+04 -1.240425e+05 -2.533313e+04
8.426920e+03 -1.289642e+05 -2.157148e+04
-1.655136e+04 -1.393247e+05 0.000000e+00
-1.261176e+04 -1.189934e+05 -2.687902e+04
1.912451e+04 -1.051441e+05 -2.647537e+04
-2.140795e+04 -1.385779e+05 -5.000000e+04
-6.670018e+04 -1.713993e+05 0.000000e+00
-3.729304e+04 -1.442141e+05 -2.427463e+04
-2.507811e+04 -1.739847e+05 -5.000000e+04
-3.415489e+04 -1.703024e+05 0.000000e+00
-7.086409e+03 -1.841033e+05 -2.514625e+04
2.361510e+05 -6.540655e+04 0.000000e+00
2.190626e+05 -3.670651e+04 -2.461624e+04
2.499991e+05 -5.321788e+04 -2.513046e+04
2.169677e+05 -6.519458e+04 -2.489170e+04
2.039231e+05 -8.216322e+04 0.000000e+00
2.189720e+05 -9.342175e+04 -2.504063e+04
1.866299e+05 -8.529821e+04 -2.501476e+04
2.021175e+05 -7.678993e+04 -5.000000e+04
2.009787e+05 -4.046259e+04 -5.000000e+04
1.899811e+05 -5.520611e+04 -2.324420e+04
1.708398e+05 -1.795586e+04 -5.000000e+04
2.024209e+05 -3.900806e+03 -5.000000e+04
1.809136e+05 9.063497e+03 -1.695897e+04
1.873056e+05 -2.654710e+04 -2.560357e+04
1.686142e+05 -5.451437e+04 -5.000000e+04
1.671706e+05 4.151734e+03 0.000000e+00
1.695670e+05 -3.130073e+04 0.000000e+00
1.549193e+05 -5.677904e+03 -2.011001e+04
2.039231e+05 -4.864987e+04 0.000000e+00
1.553688e+05 -5.197943e+04 -2.511881e+04
-2.518143e+05 -2.692901e+05 0.000000e+00
-2.166667e+05 -2.684836e+05 0.000000e+00
-2.373674e+05 -2.752639e+05 -2.497878e+04
-2.168265e+05 -2.670634e+05 -5.000000e+04
-2.021667e+05 -2.668053e+05 -2.511220e+04
-2.257437e+05 -2.470428e+05 -2.498658e+04
-2.519854e+05 -2.692705e+05 -5.000000e+04
-2.575607e+05 -2.516954e+05 -2.522548e+04
-2.739442e+05 -2.752193e+05 -3.417194e+04
-2.345763e+05 -1.683034e+05 0.000000e+00
-2.508344e+05 -1.883280e+05 -1.871083e+04
-2.204466e+05 -2.128163e+05 -2.534858e+04
-2.081075e+05 -1.866741e+05 -5.000000e+04
-2.393846e+05 -2.008286e+05 -5.000000e+04
3.892148e+04 -1.460198e+05 -5.000000e+04
3.852126e+04 -1.767266e+05 -5.000000e+04
5.546740e+04 -1.554368e+05 -2.525168e+04
-9.313226e-10 -1.716781e+05 0.000000e+00
4.929741e+04 -1.377476e+05 0.000000e+00
3.333333e+04 -1.716781e+05 0.000000e+00
2.797288e+04 -1.876554e+05 -2.504051e+04
2.776045e+05 -2.373768e+05 -2.644193e+04
2.683706e+05 -2.162166e+05 0.000000e+00
2.502438e+05 -2.236836e+05 -2.524014e+04
2.767875e+05 -2.032594e+05 -2.433356e+04
2.695501e+05 -2.484215e+05 0.000000e+00
2.718531e+05 -2.706386e+05 -3.359181e+04
2.692785e+05 -2.476265e+05 -5.000000e+04
2.530146e+05 -2.517994e+05 -2.495135e+04
2.715924e+05 -2.707578e+05 -1.553015e+04
2.366136e+05 -2.759180e+05 -2.436273e+04
2.517402e+05 -2.693272e+05 0.000000e+00
2.166667e+05 -2.684836e+05 -5.000000e+04
2.223319e+05 -2.483833e+05 -2.494600e+04
2.013405e+05 -2.770029e+05 -2.424284e+04
2.518754e+05 -2.693153e+05 -5.000000e+04
-9.070175e+04 -1.291095e+05 -2.549393e+04
-1.666667e+04 -2.684836e+05 -5.000000e+04
-3.230778e+04 -2.476565e+05 -2.504951e+04
-5.000000e+04 -2.684836e+05 -5.000000e+04
-2.804159e+04 -2.769248e+05 -2.316783e+04
-1.666667e+04 -2.684836e+05 0.000000e+00
5.055099e+03 -2.485815e+05 -2.485868e+04
6.015694e+03 -2.778775e+05 -2.330826e+04
-5.000000e+04 -2.684836e+05 0.000000e+00
-5.749085e+04 -2.570364e+05 -2.664278e+04
-1.477237e+05 -1.000191e+05 0.000000e+00
-1.248160e+05 -1.419990e+05 -2.201822e+04
-1.504554e+05 -1.373289e+05 0.000000e+00
-1.582233e+05 -1.441961e+05 -2.116796e+04
2.499589e+05 -1.213221e+05 -2.494419e+04
2.683706e+05 -1.513652e+04 0.000000e+00
2.766494e+05 3.133014e+03 -2.469162e+04
2.680469e+05 -1.069970e+04 -5.000000e+04
2.499524e+05 -1.942515e+04 -2.470480e+04
2.763582e+05 -3.106753e+04 -2.572759e+04
2.515562e+05 1.614901e+04 -2.241695e+04
-2.777610e+05 -2.245159e+05 -2.234764e+04
-2.811033e+05 -1.890931e+05 -1.854895e+04
-2.682710e+05 -2.158126e+05 0.000000e+00
1.680027e+05 -2.764412e+05 -2.434030e+04
1.500000e+05 -2.684836e+05 0.000000e+00
1.353689e+05 -2.677185e+05 -2.458444e+04
1.609230e+05 -2.501723e+05 -2.483559e+04
1.833333e+05 -2.684836e+05 -5.000000e+04
1.500000e+05 -2.684836e+05 -5.000000e+04
2.683706e+05 1.837683e+04 0.000000e+00
2.683718e+05 5.189018e+04 0.000000e+00
2.805598e+05 3.781491e+04 -2.917830e+04
2.664044e+05 2.419918e+04 -5.000000e+04
2.638716e+05 5.289838e+04 -1.586240e+04
2.166667e+05 -2.684836e+05 0.000000e+00
1.906394e+05 -2.528001e+05 -2.475008e+04
-6.666667e+04 -2.362260e+05 0.000000e+00
3.897935e+04 -5.193077e+04 0.000000e+00
3.088215e+04 -4.866725e+04 -1.615273e+04
6.074171e+04 -5.088295e+04 -2.099755e+04
2.749902e+04 -7.565152e+04 -2.847749e+04
4.174994e+04 -1.565995e+04 0.000000e+00
7.055830e+04 -3.787092e+04 0.000000e+00
-3.333333e+04 -2.362260e+05 0.000000e+00
-5.000000e+04 -2.039587e+05 0.000000e+00
-5.759296e+04 -2.199699e+05 -2.509653e+04
-1.068422e+05 -2.782256e+05 -2.317618e+04
-1.441346e+05 -2.787467e+05 -2.240372e+04
-1.166667e+05 -2.684836e+05 0.000000e+00
-1.392418e+05 -2.510924e+05 -2.494972e+04
-1.166667e+05 -2.684836e+05 -5.000000e+04
1.332961e+05 -4.614655e+04 0.000000e+00
1.006008e+05 -6.081302e+04 0.000000e+00
1.214868e+05 -2.088696e+04 -1.868336e+04
1.194132e+05 -5.786391e+04 -2.601221e+04
-1.500000e+05 -2.684836e+05 0.000000e+00
-1.724158e+05 -2.534775e+05 -2.523013e+04
-7.419721e+04 -2.759222e+05 -2.197527e+04
-8.333333e+04 -2.684836e+05 0.000000e+00
-1.065146e+05 -2.502626e+05 -2.486930e+04
-8.333333e+04 -2.684836e+05 -5.000000e+04
-8.127505e+04 -2.450213e+05 -2.535288e+04
2.680477e+05 -2.149117e+05 -5.000000e+04
2.508543e+05 -1.897025e+05 -2.488701e+04
2.680523e+05 -1.808763e+05 -5.000000e+04
2.680523e+05 -1.468410e+05 -5.000000e+04
2.551658e+05 -1.577354e+05 -2.510743e+04
2.683706e+05 -1.491899e+05 0.000000e+00
2.683706e+05 -4.864987e+04 0.000000e+00
2.680498e+05 -4.473503e+04 -5.000000e+04
2.035165e+05 -1.518932e+05 0.000000e+00
1.882928e+05 -1.222937e+05 -2.518119e+04
2.198759e+05 -1.215877e+05 -2.504352e+04
2.227807e+05 -1.479641e+05 -2.518521e+04
2.359410e+05 -1.298234e+05 -5.000000e+04
2.026370e+05 -1.469433e+05 -5.000000e+04
2.345953e+05 -1.674597e+05 0.000000e+00
2.196091e+05 -1.776350e+05 -2.509315e+04
2.361510e+05 -1.324332e+05 0.000000e+00
-2.697733e+05 -2.144548e+05 -5.000000e+04
1.686591e+05 -1.280451e+05 -5.000000e+04
1.543808e+05 -1.001159e+05 -2.402603e+04
1.554756e+05 -1.386677e+05 -2.558534e+04
-2.682695e+05 -1.821377e+05 0.000000e+00
-2.493722e+05 -2.236608e+05 -2.421857e+04
-5.282335e+04 -1.547010e+05 -5.000000e+04
-5.095017e+04 -2.002954e+05 -5.000000e+04
-4.116985e+04 -1.846797e+05 -2.492375e+04
-7.381614e+04 -1.863303e+05 -2.495690e+04
-8.333333e+04 -2.039587e+05 0.000000e+00
-1.045733e+05 -1.910315e+05 -2.468957e+04
-1.012411e+05 -1.706303e+05 0.000000e+00
-8.309057e+04 -1.683601e+05 -5.000000e+04
-1.025164e+05 -1.579992e+05 -2.585448e+04
1.385524e+05 -1.144767e+05 0.000000e+00
1.228792e+05 -1.246449e+05 -2.349363e+04
9.920121e+04 -9.899617e+04 0.000000e+00
1.178071e+05 -9.300365e+04 -2.466471e+04
8.746659e+04 -7.652085e+04 -2.475267e+04
1.366838e+05 -8.133611e+04 0.000000e+00
1.022323e+05 -1.210628e+05 -5.000000e+04
8.573598e+04 -1.154142e+05 -2.519733e+04
1.049078e+05 -8.233852e+04 -5.000000e+04
-1.333333e+05 -2.362260e+05 0.000000e+00
1.666667e+04 -2.684836e+05 -5.000000e+04
3.754437e+04 -2.525651e+05 -2.483752e+04
4.012857e+04 -2.785029e+05 -2.354254e+04
1.666667e+04 -2.684836e+05 0.000000e+00
5.000000e+04 -2.684836e+05 0.000000e+00
7.329301e+04 -2.494653e+05 -2.519095e+04
7.963997e+04 -2.779501e+05 -2.796504e+04
-1.500000e+05 -2.684836e+05 -5.000000e+04
-1.845072e+05 -2.662907e+05 -5.000000e+04
1.166667e+05 -2.684836e+05 0.000000e+00
1.079507e+05 -2.529282e+05 -2.526747e+04
8.333333e+04 -2.684836e+05 0.000000e+00
1.166667e+05 -2.684836e+05 -5.000000e+04
8.333333e+04 -2.684836e+05 -5.000000e+04
5.000000e+04 -2.684836e+05 -5.000000e+04
2.198338e+05 -4.285345e+03 -2.090091e+04
2.341320e+05 9.864746e+03 -5.000000e+04
2.076459e+05 2.210630e+04 -1.841390e+04
2.358292e+05 3.525121e+04 0.000000e+00
2.024488e+05 1.878369e+04 0.000000e+00
-2.809351e+04 -1.140718e+05 0.000000e+00
-2.788863e+04 -9.474160e+04 -2.118348e+04
2.361510e+05 -3.189320e+04 0.000000e+00
2.348621e+05 -2.662133e+04 -5.000000e+04
2.361479e+05 1.620150e+03 0.000000e+00
2.042769e+05 -1.804034e+05 -5.000000e+04
1.869635e+05 -1.593479e+05 -2.532456e+04
1.683078e+05 -1.685229e+05 -5.000000e+04
1.816397e+05 -1.922664e+05 -2.697769e+04
1.500000e+05 -2.039551e+05 -5.000000e+04
1.517435e+05 -1.743714e+05 -2.522348e+04
1.528536e+05 -2.031824e+05 0.000000e+00
1.458027e+05 -2.198463e+05 -2.570908e+04
1.816390e+05 -2.040111e+05 -5.000000e+04
1.850534e+05 -2.235206e+05 -2.490667e+04
1.993796e+05 -1.994472e+05 0.000000e+00
-1.166667e+05 -2.039587e+05 0.000000e+00
-9.163361e+04 -2.192121e+05 -2.501753e+04
-1.158105e+05 -1.794687e+05 -5.000000e+04
-1.140579e+05 -2.075682e+05 -5.000000e+04
-8.356611e+04 -2.038239e+05 -5.000000e+04
-1.335212e+05 -1.694951e+05 0.000000e+00
3.586278e+04 -9.277130e+04 0.000000e+00
4.174994e+04 -1.104582e+05 -5.000000e+04
-6.666667e+04 -2.362260e+05 -5.000000e+04
-9.989695e+04 -2.364853e+05 -5.000000e+04
-1.242204e+05 -2.191498e+05 -2.555923e+04
-1.000000e+05 -2.362260e+05 0.000000e+00
1.345130e+05 -1.051402e+05 -5.000000e+04
1.325931e+05 -1.417881e+05 -5.000000e+04
-1.449497e+05 -1.585544e+05 -5.000000e+04
-1.133707e+05 -1.444945e+05 -5.000000e+04
1.728196e+05 -1.318989e+05 0.000000e+00
1.501999e+05 -1.491176e+05 0.000000e+00
1.214373e+05 -1.578675e+05 -2.504140e+04
1.744151e+05 -1.721815e+05 0.000000e+00
-1.522311e+05 -2.033914e+05 0.000000e+00
-1.566745e+05 -2.225336e+05 -2.673612e+04
-1.477766e+05 -1.970206e+05 -5.000000e+04
-1.335737e+05 -2.355388e+05 -5.000000e+04
-1.678299e+05 -2.349983e+05 0.000000e+00
-2.691718e+05 -2.458672e+05 -5.000000e+04
1.333333e+05 -2.362260e+05 0.000000e+00
1.680967e+05 -2.346965e+05 0.000000e+00
1.333333e+05 -2.362260e+05 -5.000000e+04
1.068864e+05 -2.195420e+05 -2.507950e+04
1.166667e+05 -2.039587e+05 -5.000000e+04
1.666667e+05 -2.362260e+05 -5.000000e+04
2.359381e+05 -1.981416e+05 -5.000000e+04
2.179648e+05 -2.128828e+05 -2.557936e+04
7.610298e+04 -6.013542e+04 -5.000000e+04
5.629110e+04 -8.960082e+04 -2.611218e+04
6.567672e+04 -1.094376e+05 0.000000e+00
2.344271e+05 -2.357114e+05 -5.000000e+04
2.340719e+05 -2.341391e+05 0.000000e+00
2.359405e+05 -9.578803e+04 -5.000000e+04
1.294509e+04 -8.825513e+04 -5.000000e+04
7.332889e+04 -9.639838e+04 -5.000000e+04
-1.794183e+05 -1.191546e+05 0.000000e+00
-2.098504e+05 -1.269821e+05 0.000000e+00
-2.000000e+05 -2.360683e+05 0.000000e+00
-2.361833e+05 -2.364538e+05 -5.000000e+04
-2.361770e+05 -1.998784e+05 0.000000e+00
-1.544007e+04 -2.031974e+05 -5.000000e+04
-5.820766e-11 -2.362260e+05 -5.000000e+04
7.936489e+03 -2.164666e+05 -2.499119e+04
-2.330621e+04 -2.181243e+05 -2.511128e+04
-3.333333e+04 -2.362260e+05 -5.000000e+04
-2.328306e-10 -2.362260e+05 0.000000e+00
-1.666667e+04 -2.039587e+05 0.000000e+00
1.251706e+05 -1.892003e+05 -2.506781e+04
1.332085e+05 -1.727140e+05 0.000000e+00
1.337090e+05 -1.731654e+05 -5.000000e+04
2.039231e+05 -1.156766e+05 0.000000e+00
2.361510e+05 -9.891990e+04 0.000000e+00
2.026043e+05 -1.119494e+05 -5.000000e+04
2.032105e+05 -1.487035e+04 0.000000e+00
2.353380e+05 -6.131522e+04 -5.000000e+04
1.000000e+05 -2.362260e+05 0.000000e+00
2.066817e+05 -2.135690e+05 -5.000000e+04
2.359410e+05 -1.638587e+05 -5.000000e+04
-1.833333e+05 -2.684836e+05 0.000000e+00
1.704017e+05 -6.488255e+04 0.000000e+00
1.994222e+05 -2.383919e+05 -5.000000e+04
1.671104e+05 -9.096646e+04 -5.000000e+04
1.716797e+05 -9.891990e+04 0.000000e+00
3.333333e+04 -2.362260e+05 0.000000e+00
3.333333e+04 -2.362260e+05 -5.000000e+04
4.195041e+04 -2.208811e+05 -2.496574e+04
-1.863386e+04 -1.023150e+05 -5.000000e+04
-5.021281e+04 -1.163748e+05 -5.000000e+04
2.307544e+05 3.700125e+04 -1.905585e+04
1.166667e+05 -2.039587e+05 0.000000e+00
1.000000e+05 -1.716778e+05 0.000000e+00
9.350245e+04 -1.873544e+05 -2.507169e+04
1.000203e+05 -1.674616e+05 -5.000000e+04
-8.179176e+04 -1.304347e+05 -5.000000e+04
2.683726e+05 8.540353e+04 0.000000e+00
2.009048e+05 5.434093e+04 0.000000e+00
6.666667e+04 -2.362260e+05 -5.000000e+04
-2.332910e+05 -2.346820e+05 0.000000e+00
-2.077167e+05 -2.260550e+05 -5.000000e+04
-1.670131e+05 -2.354630e+05 -5.000000e+04
4.452403e+04 -7.419527e+04 -5.000000e+04
-2.717847e+05 -2.734067e+05 -1.584975e+04
-2.693583e+05 -2.481586e+05 0.000000e+00
-1.765286e+05 -1.726142e+05 -5.000000e+04
1.833333e+05 -2.684836e+05 0.000000e+00
2.000000e+05 -2.362268e+05 0.000000e+00
2.361519e+05 -1.994599e+05 0.000000e+00
2.683706e+05 -1.827033e+05 0.000000e+00
8.333333e+04 -2.039587e+05 -5.000000e+04
6.084584e+04 -1.878184e+05 -2.491494e+04
7.445832e+04 -2.173690e+05 -2.499594e+04
8.333333e+04 -2.039587e+05 0.000000e+00
6.666667e+04 -1.716781e+05 0.000000e+00
-2.140795e+04 -4.377965e+04 0.000000e+00
-2.584202e+04 -6.970932e+04 -1.589369e+04
-5.575749e+04 -9.411033e+04 0.000000e+00
7.150617e+04 -1.345130e+05 -5.000000e+04
6.693048e+04 -1.713711e+05 -5.000000e+04
8.883009e+04 -1.531614e+05 -2.507915e+04
8.350105e+04 -1.387004e+05 0.000000e+00
1.076819e+05 -4.607557e+04 -5.000000e+04
1.392609e+05 -3.201571e+04 -5.000000e+04
8.949547e+04 -3.502462e+04 -1.936484e+04
1.364868e+05 -6.827867e+04 -5.000000e+04
1.021372e+05 -2.381106e+04 0.000000e+00
1.000000e+05 -2.362260e+05 -5.000000e+04
1.155665e+05 -1.383501e+05 0.000000e+00
-1.186449e+05 -1.263820e+05 0.000000e+00
6.779393e+04 -7.415570e+04 0.000000e+00
1.348102e+05 -1.019000e+04 0.000000e+00
5.000000e+04 -2.039587e+05 0.000000e+00
5.047375e+04 -2.050185e+05 -5.000000e+04
6.666667e+04 -2.362260e+05 0.000000e+00
-8.733643e+04 -1.081702e+05 0.000000e+00
2.352080e+05 6.897589e+04 0.000000e+00
1.666667e+04 -2.039587e+05 0.000000e+00
1.668760e+04 -2.032390e+05 -5.000000e+04
-2.344210e+05 -1.402319e+05 0.000000e+00
1.364868e+05 2.651961e+04 0.000000e+00
1.686127e+05 4.022864e+04 0.000000e+00
-2.681010e+05 -1.494123e+05 0.000000e+00
-5.298690e+04 -5.783951e+04 0.000000e+00
1.049078e+05 1.245976e+04 0.000000e+00
1.017100e+04 -2.971980e+04 0.000000e+00
-8.456585e+04 -7.189936e+04 0.000000e+00
7.332889e+04 -1.600093e+03 0.000000e+00
-2.896728e+05 -1.894584e+05 -3.667673e+04
-2.848867e+05 -2.036017e+05 -5.000000e+04
-2.690972e+05 -1.965718e+05 -5.000000e+04
-2.729462e+05 -1.834673e+05 -3.418907e+04
-2.921131e+05 -2.143408e+05 -4.241448e+04
-2.901575e+05 -1.751196e+05 -2.793348e+04
-2.676128e+05 -1.177050e+05 -4.550316e+03
-2.849565e+05 -1.085837e+05 0.000000e+00
-2.852416e+05 -1.265337e+05 -7.186674e+03
-2.699129e+05 -1.192170e+05 0.000000e+00
-2.691670e+05 -1.015537e+05 0.000000e+00
2.842105e+05 1.454003e+05 0.000000e+00
2.856651e+05 5.463942e+04 -3.797796e+04
2.857062e+05 6.913173e+04 -3.573497e+04
2.842105e+05 5.034103e+04 -5.000000e+04
2.836605e+05 8.114740e+04 -2.913730e+04
-1.224101e+05 -1.084991e+05 -2.454691e+04
-1.479702e+05 -9.802005e+04 -1.526011e+04
-1.430941e+05 -1.181261e+05 -2.694068e+04
-1.574140e+05 -5.992712e+04 -3.144204e+03
-1.430532e+05 -7.840244e+04 -1.173319e+04
-1.417842e+05 -6.184574e+04 -7.122015e+03
-1.449497e+05 -6.375611e+04 0.000000e+00
-1.627181e+05 -7.889240e+04 -6.687078e+03
-1.278684e+05 -7.007753e+04 -1.288257e+04
-1.073442e+05 -9.768281e+04 -2.501573e+04
-1.209416e+05 -8.313183e+04 -1.520520e+04
-1.301146e+05 -9.257420e+04 -1.717713e+04
-1.161448e+05 -8.595921e+04 0.000000e+00
-1.594296e+05 -1.066830e+05 -2.130564e+04
-1.695512e+05 -9.503905e+04 -1.108963e+04
-1.370832e+05 -8.747953e+04 -4.929623e+03
-6.586679e+04 -7.414021e+04 -2.437831e+04
-5.465870e+04 -8.671686e+04 -3.178420e+04
-6.057293e+04 -7.106842e+04 -1.834303e+04
-4.702905e+04 -7.683368e+04 -2.429406e+04
-7.642022e+04 -6.559954e+04 -1.362152e+04
-9.121939e+04 -7.184903e+04 -1.718840e+04
-8.115433e+04 -8.066127e+04 -2.321048e+04
-9.083207e+04 -5.669695e+04 -1.093384e+04
-9.149226e+04 -4.261091e+04 -5.151057e+03
-8.179176e+04 -3.563640e+04 0.000000e+00
-7.123910e+04 -4.535070e+04 -9.354288e+03
-4.398428e+04 -6.660796e+04 -2.721403e+04
-4.538330e+04 -5.123715e+04 -1.802514e+04
-5.752601e+04 -5.628651e+04 -1.525504e+04
-5.360662e+04 -3.726879e+04 -7.630284e+03
-8.856026e+04 -2.483117e+04 -2.428929e+03
-6.494082e+04 -2.557761e+04 -4.184212e+03
-6.891982e+04 -9.736301e+04 -2.967409e+04
-1.431035e+05 -4.963112e+04 -2.320796e+03
-1.751081e+05 -5.991056e+04 0.000000e+00
-1.908975e+05 -6.694049e+04 0.000000e+00
-1.729544e+05 -6.468959e+04 -2.818560e+03
-1.765319e+05 -7.811023e+04 0.000000e+00
-1.593169e+05 -5.273350e+04 0.000000e+00
-1.810091e+05 -8.264091e+04 -6.933164e+03
-8.036956e+04 -1.758387e+04 0.000000e+00
-1.016478e+05 -3.158301e+04 -3.801831e+03
-9.615904e+04 -2.461380e+04 0.000000e+00
-2.699786e+05 -1.527357e+05 -1.492567e+04
-2.859604e+05 -1.592899e+05 -1.971775e+04
-2.757509e+05 -1.668213e+05 -2.507840e+04
-2.869682e+05 -1.462598e+05 -8.508133e+03
-2.873942e+05 -1.674009e+05 -1.126394e+04
-2.725877e+05 -1.348295e+05 -1.105219e+04
2.679995e+05 1.188956e+05 -6.164134e+03
2.861066e+05 1.118534e+05 -1.355647e+04
2.861441e+05 1.273883e+05 -4.741628e+03
2.681888e+05 1.191711e+05 0.000000e+00
2.683049e+05 1.371491e+05 0.000000e+00
2.841525e+05 9.139519e+04 -1.931834e+04
2.701575e+05 1.024243e+05 -1.185094e+04
-2.382645e+05 -8.788259e+04 0.000000e+00
-2.540540e+05 -9.491252e+04 0.000000e+00
-2.373873e+05 -1.050944e+05 -5.820686e+03
-2.396870e+05 -1.059346e+05 0.000000e+00
-2.529823e+05 -1.114267e+05 -5.389837e+03
-2.066854e+05 -7.382328e+04 0.000000e+00
-2.224748e+05 -8.085321e+04 0.000000e+00
-2.083923e+05 -8.874615e+04 -4.042984e+03
-2.081075e+05 -9.187582e+04 0.000000e+00
-2.234566e+05 -9.318036e+04 -3.631020e+03
-1.940392e+05 -8.677024e+04 -6.338070e+03
-1.435275e+05 -4.570358e+04 0.000000e+00
-1.119485e+05 -3.164372e+04 0.000000e+00
-1.277380e+05 -3.867365e+04 0.000000e+00
-1.143473e+05 -3.784592e+04 -2.090472e+03
-1.133707e+05 -4.969626e+04 0.000000e+00
-1.299341e+05 -4.294567e+04 -3.444552e+03
-4.879061e+04 -3.524018e+03 0.000000e+00
-6.458009e+04 -1.055394e+04 0.000000e+00
-4.781496e+04 -1.927152e+04 -3.784064e+03
-5.021281e+04 -2.157655e+04 0.000000e+00
-1.787595e+04 -4.557910e+03 -4.244691e+03
-3.300114e+04 3.505909e+03 0.000000e+00
-3.458024e+04 -1.302409e+04 -5.545940e+03
-1.863386e+04 -7.516698e+03 0.000000e+00
-1.721167e+04 1.053584e+04 0.000000e+00
1.436728e+04 2.459569e+04 0.000000e+00
-1.422194e+03 1.756576e+04 0.000000e+00
1.195203e+04 9.844656e+03 -3.860883e+03
1.294509e+04 6.543155e+03 0.000000e+00
-2.606299e+03 3.132855e+02 -5.835707e+03
2.755446e+04 1.747406e+04 -4.678240e+03
3.015675e+04 3.162561e+04 0.000000e+00
4.452403e+04 2.060301e+04 0.000000e+00
4.299336e+04 2.021734e+04 -4.756988e+03
4.594623e+04 3.865554e+04 0.000000e+00
6.210360e+04 2.861646e+04 -4.958288e+03
6.173570e+04 4.568547e+04 0.000000e+00
7.610298e+04 3.466286e+04 0.000000e+00
7.687795e+04 3.968682e+04 -3.657675e+03
7.752517e+04 5.271539e+04 0.000000e+00
9.331465e+04 5.974532e+04 0.000000e+00
1.076819e+05 4.872271e+04 0.000000e+00
8.915378e+04 4.442226e+04 -5.443803e+03
1.078057e+05 4.828291e+04 -4.888864e+03
1.091041e+05 6.677525e+04 0.000000e+00
1.248936e+05 7.380517e+04 0.000000e+00
1.392609e+05 6.278257e+04 0.000000e+00
1.226119e+05 5.492582e+04 -5.960762e+03
1.402017e+05 6.941849e+04 -3.057833e+03
1.406831e+05 8.083510e+04 0.000000e+00
1.564725e+05 8.786503e+04 0.000000e+00
1.708398e+05 7.684242e+04 0.000000e+00
1.520102e+05 7.318463e+04 -4.843270e+03
1.717118e+05 7.720796e+04 -4.653414e+03
1.722620e+05 9.489495e+04 0.000000e+00
1.881180e+05 1.017766e+05 0.000000e+00
2.025519e+05 9.060577e+04 0.000000e+00
1.863259e+05 8.366090e+04 -5.466088e+03
2.032287e+05 9.414941e+04 -3.937654e+03
2.039075e+05 1.088066e+05 0.000000e+00
2.200167e+05 1.158113e+05 0.000000e+00
2.347702e+05 1.046153e+05 0.000000e+00
2.177609e+05 9.676472e+04 -5.901468e+03
2.396029e+05 1.069502e+05 -5.142800e+03
2.358062e+05 1.228413e+05 0.000000e+00
2.525155e+05 1.301191e+05 0.000000e+00
2.505648e+05 1.126217e+05 -6.629788e+03
2.755839e+05 5.064124e+04 -4.233618e+04
2.691647e+05 5.834894e+04 -3.232257e+04
2.516232e+05 3.523405e+04 -5.000000e+04
2.674127e+05 4.226397e+04 -5.000000e+04
2.513189e+05 4.815035e+04 -3.304908e+04
2.667860e+05 7.344837e+04 -2.624895e+04
2.493343e+05 6.637419e+04 -2.319145e+04
2.335379e+05 4.160790e+04 -3.535672e+04
2.458029e+05 3.069878e+04 -3.613243e+04
2.354871e+05 2.806683e+04 -5.000000e+04
2.196976e+05 2.103690e+04 -5.000000e+04
2.208521e+05 3.360060e+04 -3.603860e+04
2.337296e+05 5.914200e+04 -2.418773e+04
2.175262e+05 5.107047e+04 -2.556674e+04
2.067680e+05 2.664615e+04 -3.417680e+04
2.058249e+05 4.878123e+04 -2.437718e+04
1.901527e+05 3.779225e+04 -2.425499e+04
1.916237e+05 1.919215e+04 -3.549982e+04
1.880526e+05 7.124199e+03 -5.000000e+04
2.038420e+05 1.415413e+04 -5.000000e+04
1.779067e+05 1.493636e+04 -3.221867e+04
1.758850e+05 3.602407e+04 -2.407978e+04
1.653846e+05 2.660679e+04 -2.514455e+04
1.662881e+05 1.199348e+04 -3.326036e+04
1.513559e+05 1.720959e+04 -2.772154e+04
1.722620e+05 9.667189e+01 -5.000000e+04
1.502051e+05 1.004205e+03 -3.528631e+04
1.564725e+05 -6.933255e+03 -5.000000e+04
1.351492e+05 9.627242e+03 -2.423909e+04
1.355016e+05 -5.290945e+03 -3.373421e+04
1.172379e+05 4.082265e+03 -2.449226e+04
1.406831e+05 -1.396318e+04 -5.000000e+04
1.180080e+05 -1.451313e+04 -3.490587e+04
1.248936e+05 -2.099311e+04 -5.000000e+04
1.028962e+05 -5.269929e+03 -2.582208e+04
1.033780e+05 -1.956650e+04 -3.409068e+04
8.559321e+04 -1.050116e+04 -2.492622e+04
9.331465e+04 -3.505296e+04 -5.000000e+04
1.091041e+05 -2.802303e+04 -5.000000e+04
8.483215e+04 -2.805034e+04 -3.518900e+04
7.164967e+04 -2.011614e+04 -2.692643e+04
7.205829e+04 -3.359974e+04 -3.558633e+04
5.718732e+04 -2.866068e+04 -2.808580e+04
7.752517e+04 -4.208289e+04 -5.000000e+04
5.744575e+04 -4.383906e+04 -3.714688e+04
6.173570e+04 -4.911281e+04 -5.000000e+04
4.594623e+04 -5.614274e+04 -5.000000e+04
4.119724e+04 -4.206112e+04 -3.240325e+04
2.521938e+04 -3.084826e+04 -2.211179e+04
2.353416e+04 -5.284384e+04 -3.423998e+04
4.362357e+04 -2.438519e+04 -2.569321e+04
3.015675e+04 -6.317267e+04 -5.000000e+04
2.029304e+04 -6.140795e+04 -4.215509e+04
1.039781e+04 -6.106523e+04 -3.505616e+04
1.436728e+04 -7.020259e+04 -5.000000e+04
8.320412e+03 -4.577010e+04 -2.628205e+04
-6.755857e+03 -7.052048e+04 -3.443139e+04
-1.422194e+03 -7.723252e+04 -5.000000e+04
-2.846617e+03 -5.479120e+04 -2.923015e+04
-2.171799e+04 -6.628265e+04 -3.391030e+04
-2.154954e+04 -7.677156e+04 -3.704310e+04
-3.668423e+04 -8.926427e+04 -3.489437e+04
-1.721167e+04 -8.426245e+04 -5.000000e+04
-3.300114e+04 -9.129237e+04 -5.000000e+04
-3.340375e+04 -5.844190e+04 -2.501730e+04
-1.690606e+04 -5.442839e+04 -2.491033e+04
-3.416741e+04 -7.329978e+04 -3.270017e+04
-4.879061e+04 -9.832230e+04 -5.000000e+04
-4.629072e+04 -9.079100e+04 -2.089901e+04
-6.458009e+04 -1.053522e+05 -5.000000e+04
-8.321318e+04 -1.087864e+05 -3.453472e+04
-8.036956e+04 -1.123822e+05 -5.000000e+04
-8.575591e+04 -9.931359e+04 -2.378218e+04
-9.326973e+04 -8.862010e+04 -2.427247e+04
-9.723187e+04 -1.088318e+05 -3.154280e+04
-9.793430e+04 -1.185996e+05 -3.875050e+04
-9.615904e+04 -1.194121e+05 -5.000000e+04
-1.021439e+05 -7.743968e+04 -1.891925e+04
-1.310634e+05 -1.345551e+05 -3.679997e+04
-1.186918e+05 -1.242990e+05 -3.201965e+04
-1.077314e+05 -1.154271e+05 -1.901694e+04
-1.277380e+05 -1.334719e+05 -5.000000e+04
-1.119485e+05 -1.264420e+05 -5.000000e+04
-1.474580e+05 -1.315968e+05 -3.602798e+04
-1.435275e+05 -1.405019e+05 -5.000000e+04
-1.593169e+05 -1.475318e+05 -5.000000e+04
-1.671624e+05 -1.396858e+05 -3.569899e+04
-1.656200e+05 -1.215405e+05 -2.457508e+04
-1.796966e+05 -1.312387e+05 -2.776057e+04
-1.796759e+05 -1.447676e+05 -3.517418e+04
-1.935723e+05 -1.387245e+05 -2.585789e+04
-1.751064e+05 -1.545617e+05 -5.000000e+04
-1.908959e+05 -1.615916e+05 -5.000000e+04
-1.927088e+05 -1.541225e+05 -3.627041e+04
-1.999610e+05 -1.600101e+05 -4.206529e+04
-2.085098e+05 -1.544742e+05 -3.254958e+04
-2.066854e+05 -1.686216e+05 -5.000000e+04
-2.107350e+05 -1.362670e+05 -2.225717e+04
-2.296624e+05 -1.435322e+05 -2.164812e+04
-2.272025e+05 -1.630948e+05 -3.324451e+04
-2.224748e+05 -1.756515e+05 -5.000000e+04
-2.320351e+05 -1.738646e+05 -4.100874e+04
-2.421903e+05 -1.733300e+05 -3.268399e+04
-2.381134e+05 -1.827287e+05 -5.000000e+04
-2.452581e+05 -1.556464e+05 -2.441884e+04
-2.587120e+05 -1.675835e+05 -2.673762e+04
-2.570809e+05 -1.841399e+05 -3.720638e+04
-2.539028e+05 -1.897586e+05 -5.000000e+04
-2.552811e+05 -1.975752e+05 -4.186057e+04
-1.320562e+05 -5.738041e+04 -7.421624e+03
-1.199050e+05 -5.278760e+04 -5.907034e+03
-1.154403e+05 -6.896215e+04 -1.409951e+04
-1.018425e+05 -6.158998e+04 -1.381761e+04
-1.225025e+05 -7.055007e+04 -4.179986e+03
-1.029644e+05 -4.873731e+04 -7.998635e+03
-1.022348e+05 -6.954035e+04 -5.128619e+03
-2.420556e+05 -1.166164e+05 -1.020612e+04
-2.539771e+05 -1.234128e+05 -9.461003e+03
-2.545131e+05 -1.389303e+05 -1.300941e+04
-2.386693e+05 -1.307932e+05 -1.418697e+04
6.501486e+04 -4.433555e+03 -1.568575e+04
5.661367e+04 1.060749e+04 -8.824480e+03
4.348515e+04 -1.235495e+04 -1.473715e+04
4.289618e+04 6.402817e+03 -9.851718e+03
7.448648e+04 2.251475e+04 -7.939566e+03
7.857050e+04 5.713302e+03 -1.395050e+04
2.642589e+04 4.626492e+02 -7.209665e+03
9.675114e+04 1.096387e+04 -1.552804e+04
9.178958e+04 2.758035e+04 -6.481520e+03
1.098124e+05 2.071074e+04 -1.457523e+04
1.069363e+05 3.528919e+04 -9.868526e+03
1.255244e+05 2.658312e+04 -1.637233e+04
1.194057e+05 3.950459e+04 -9.698128e+03
1.398412e+05 3.126980e+04 -1.401066e+04
1.367474e+05 4.918865e+04 -7.792084e+03
1.551007e+05 5.441865e+04 -6.621544e+03
1.704853e+05 4.695418e+04 -1.491046e+04
1.697103e+05 6.351016e+04 -1.081339e+04
1.570991e+05 3.954280e+04 -1.515749e+04
1.879450e+05 5.512015e+04 -1.646845e+04
1.826887e+05 6.767392e+04 -9.460141e+03
1.997030e+05 7.746812e+04 -8.374860e+03
2.018062e+05 5.889554e+04 -1.492349e+04
2.155414e+05 7.815284e+04 -7.803620e+03
2.199813e+05 6.546397e+04 -1.709103e+04
2.404590e+05 8.795373e+04 -1.312946e+04
2.333221e+05 7.120874e+04 -1.760397e+04
2.560876e+05 9.260724e+04 -1.573006e+04
-2.498559e+05 -1.576521e+05 -1.417758e+04
-2.521896e+05 -1.501789e+05 -5.779792e+03
-2.679479e+05 -1.725969e+05 -1.695614e+04
9.649097e+03 -5.646137e+03 -8.804093e+03
-6.599455e+03 -1.548107e+04 -8.872315e+03
1.285137e+04 -2.073880e+04 -1.421271e+04
2.921644e+04 -1.467905e+04 -1.626488e+04
-3.818358e+04 -3.244143e+04 -1.005648e+04
-2.262244e+04 -1.908430e+04 -8.617169e+03
-1.822591e+04 -3.797937e+04 -1.472005e+04
-4.049870e+03 -1.039950e+04 -2.153090e+03
1.483633e+03 -3.053901e+04 -1.573817e+04
2.638787e+05 8.212923e+04 -1.501973e+04
2.464959e+05 7.651102e+04 -1.768060e+04
-3.137873e+04 -4.613974e+04 -1.859757e+04
-4.348185e+04 -3.672271e+04 -3.397210e+03
1.553124e+05 2.244241e+04 -1.717152e+04
1.677898e+05 2.218496e+04 -1.191589e+04
1.242928e+05 9.399712e+03 -1.046263e+04
9.432591e+04 -7.593415e+03 -1.078147e+04
6.298933e+04 -2.269036e+04 -1.375328e+04
4.539394e+02 -5.011539e+04 -1.291786e+04
-3.447016e+04 -5.496989e+04 -1.074679e+04
-2.160762e+05 -1.058862e+05 -7.265816e+03
-2.292325e+05 -1.145215e+05 -1.129597e+04
-2.085365e+05 -1.208814e+05 -1.436542e+04
-1.881573e+05 -1.174030e+05 -1.528371e+04
-2.001537e+05 -1.010667e+05 -9.296437e+03
-1.846737e+05 -9.659399e+04 -1.034119e+04
-1.947932e+05 -9.600776e+04 -2.295087e+03
-1.735971e+05 -1.080196e+05 -1.776300e+04
-2.235699e+05 -1.282109e+05 -1.657521e+04
-2.326406e+05 -1.194096e+05 -4.081098e+03
-1.794812e+05 -1.360740e+05 -1.744914e+04
-2.259266e+05 -1.381870e+05 -9.348163e+03
-1.719699e+05 -9.774895e+04 -3.557476e+03
-2.942317e+05 -1.900965e+05 -4.499560e+04
-2.924433e+05 -1.981751e+05 -5.000000e+04
-2.868254e+05 -1.873441e+05 -4.310910e+04
-2.845486e+05 -1.946602e+05 -5.000000e+04
-2.960565e+05 -2.035447e+05 -4.620724e+04
-2.941219e+05 -1.835091e+05 -4.128226e+04
-2.847606e+05 -1.056664e+05 -3.278625e+03
-2.924782e+05 -1.032670e+05 0.000000e+00
-2.924636e+05 -1.130795e+05 -4.988970e+03
-2.845835e+05 -9.975203e+04 0.000000e+00
2.921053e+05 1.572936e+05 0.000000e+00
2.933784e+05 6.583287e+04 -4.463341e+04
2.927192e+05 7.234208e+04 -4.387556e+04
2.921053e+05 6.236482e+04 -5.000000e+04
2.907490e+05 7.852770e+04 -4.128325e+04
-1.373624e+05 -9.833141e+04 -2.915888e+04
-1.489820e+05 -9.217381e+04 -2.406941e+04
-1.462325e+05 -1.022067e+05 -2.964394e+04
-1.550212e+05 -7.379566e+04 -1.472648e+04
-1.462052e+05 -8.320473e+04 -2.177784e+04
-1.460973e+05 -7.424450e+04 -1.656267e+04
-1.553172e+05 -8.355335e+04 -1.934635e+04
-1.378789e+05 -7.871993e+04 -2.161163e+04
-1.280155e+05 -9.617617e+04 -2.987681e+04
-1.342646e+05 -8.734744e+04 -2.562007e+04
-1.395471e+05 -9.142918e+04 -2.590571e+04
-1.540474e+05 -9.644256e+04 -2.744965e+04
-1.582849e+05 -9.190450e+04 -2.175131e+04
-1.418007e+05 -9.027323e+04 -1.846954e+04
-5.771558e+04 -6.877672e+04 -2.772660e+04
-6.314059e+04 -7.024881e+04 -3.204299e+04
-6.787204e+04 -6.423106e+04 -2.972939e+04
-6.418281e+04 -6.354028e+04 -2.626905e+04
-7.135322e+04 -5.987618e+04 -2.247023e+04
-7.930220e+04 -6.278498e+04 -2.475493e+04
-7.463498e+04 -6.750572e+04 -2.892325e+04
-7.942774e+04 -5.476691e+04 -2.024060e+04
-7.611315e+04 -4.828442e+04 -1.828444e+04
-6.948074e+04 -4.849978e+04 -2.056450e+04
-5.619362e+04 -6.228590e+04 -2.887920e+04
-5.698688e+04 -5.209396e+04 -2.535911e+04
-6.310649e+04 -5.583761e+04 -2.428110e+04
-6.205262e+04 -4.582726e+04 -1.966005e+04
-7.591107e+04 -4.000918e+04 -1.418479e+04
-6.618501e+04 -3.921155e+04 -1.596895e+04
-6.988031e+04 -7.176860e+04 -3.073232e+04
-1.651845e+05 -5.506262e+04 -5.357773e+03
-1.608374e+05 -6.523711e+04 -9.231513e+03
-1.580286e+05 -5.767776e+04 -7.063828e+03
-1.691082e+05 -6.334457e+04 -7.871089e+03
-1.586049e+05 -5.071135e+04 -4.844041e+03
-1.729309e+05 -5.446141e+04 -2.798128e+03
-1.792316e+05 -5.766289e+04 -3.913245e+03
-1.719865e+05 -5.727791e+04 -4.852742e+03
-1.653136e+05 -5.219024e+04 -3.153309e+03
-1.774329e+05 -6.394931e+04 -6.242630e+03
-9.047904e+04 -1.915051e+04 -4.629120e+03
-9.223209e+04 -2.713588e+04 -6.921263e+03
-8.228786e+04 -3.024709e+04 -8.934522e+03
-8.021065e+04 -1.995716e+04 -6.350844e+03
-8.657683e+04 -1.474545e+04 -3.125187e+03
-9.793628e+04 -2.167781e+04 -4.424021e+03
-9.578262e+04 -1.722551e+04 -2.658702e+03
-2.946804e+05 -1.674928e+05 -3.110654e+04
-2.933205e+05 -1.758169e+05 -3.594840e+04
-2.860543e+05 -1.702179e+05 -3.434181e+04
-2.867140e+05 -1.547936e+05 -2.667150e+04
-2.875620e+05 -1.623609e+05 -3.058945e+04
-2.924182e+05 -1.598962e+05 -2.744788e+04
-2.938123e+05 -1.534732e+05 -2.342088e+04
-2.932618e+05 -1.643497e+05 -2.372699e+04
-2.849143e+05 -1.225763e+05 -1.133254e+04
-2.931452e+05 -1.209362e+05 -9.210737e+03
-2.924659e+05 -1.277822e+05 -1.295676e+04
-2.929638e+05 -1.371894e+05 -1.330169e+04
-2.927044e+05 -1.454581e+05 -1.829330e+04
-2.858285e+05 -1.400115e+05 -1.699856e+04
-2.855501e+05 -1.321693e+05 -1.470222e+04
2.918556e+05 1.411745e+05 -8.571028e+03
2.842735e+05 1.278853e+05 -1.109967e+04
2.936891e+05 1.253012e+05 -1.663006e+04
2.929264e+05 1.322548e+05 -1.157272e+04
2.829102e+05 1.379714e+05 -6.927086e+03
2.917862e+05 9.536140e+04 -3.108235e+04
2.841706e+05 1.128277e+05 -1.931824e+04
2.937325e+05 1.089981e+05 -2.359618e+04
2.914176e+05 1.181899e+05 -1.871215e+04
2.907919e+05 1.001311e+05 -2.336724e+04
2.874214e+05 1.048526e+05 -2.510368e+04
-2.699783e+05 -9.963875e+04 -3.374867e+03
-2.687940e+05 -9.272210e+04 0.000000e+00
-2.766888e+05 -9.623707e+04 0.000000e+00
-2.533428e+05 -8.588652e+04 0.000000e+00
-2.612375e+05 -8.940149e+04 0.000000e+00
-2.537555e+05 -9.209186e+04 -3.416657e+03
-2.617127e+05 -9.834263e+04 -4.256322e+03
-2.375533e+05 -7.885660e+04 0.000000e+00
-2.454481e+05 -8.237156e+04 0.000000e+00
-2.378952e+05 -8.744424e+04 -4.282794e+03
-2.217637e+05 -7.182694e+04 0.000000e+00
-2.296585e+05 -7.534191e+04 0.000000e+00
-2.218998e+05 -7.927944e+04 -4.048682e+03
-2.304354e+05 -8.084227e+04 -3.620529e+03
-1.901856e+05 -5.784066e+04 0.000000e+00
-1.980803e+05 -6.135562e+04 0.000000e+00
-1.869071e+05 -6.021197e+04 -2.311245e+03
-1.919137e+05 -6.949252e+04 -5.265133e+03
-2.059743e+05 -6.479702e+04 0.000000e+00
-2.138690e+05 -6.831198e+04 0.000000e+00
-2.070435e+05 -6.932487e+04 -2.976931e+03
-2.008358e+05 -6.944044e+04 -4.846033e+03
-1.743961e+05 -5.081073e+04 0.000000e+00
-1.822909e+05 -5.432569e+04 0.000000e+00
-1.740805e+05 -5.153451e+04 -1.449750e+03
-1.662401e+05 -4.820412e+04 -1.719936e+03
-1.665006e+05 -4.722220e+04 0.000000e+00
-1.613858e+05 -4.451668e+04 -1.318136e+03
-1.586058e+05 -4.370724e+04 0.000000e+00
-1.428164e+05 -3.667731e+04 0.000000e+00
-1.507111e+05 -4.019227e+04 0.000000e+00
-1.430472e+05 -3.642786e+04 -1.311818e+03
-1.270269e+05 -2.964738e+04 0.000000e+00
-1.349216e+05 -3.316235e+04 0.000000e+00
-1.305136e+05 -3.143492e+04 -1.421582e+03
-1.358232e+05 -3.532862e+04 -1.993775e+03
-9.544794e+04 -1.558753e+04 0.000000e+00
-1.033427e+05 -1.910249e+04 0.000000e+00
-1.002045e+05 -1.799652e+04 -1.299509e+03
-1.065885e+05 -2.263418e+04 -2.259407e+03
-1.112374e+05 -2.261746e+04 0.000000e+00
-1.191321e+05 -2.613242e+04 0.000000e+00
-1.125889e+05 -2.266090e+04 -1.319302e+03
-7.175668e+04 -1.272098e+04 -3.377834e+03
-7.965847e+04 -8.557605e+03 0.000000e+00
-8.210394e+04 -1.218554e+04 -1.805720e+03
-8.755320e+04 -1.207257e+04 0.000000e+00
-6.386899e+04 -1.527678e+03 0.000000e+00
-7.176373e+04 -5.042641e+03 0.000000e+00
-6.310734e+04 -9.315089e+03 -4.182319e+03
-4.807952e+04 5.502248e+03 0.000000e+00
-5.597425e+04 1.987285e+03 0.000000e+00
-4.875872e+04 6.185343e+02 -3.124348e+03
-3.464488e+04 5.427310e+03 -3.831781e+03
-4.018478e+04 9.017212e+03 0.000000e+00
-4.163361e+04 -9.494868e+01 -4.919074e+03
-3.229004e+04 1.253218e+04 0.000000e+00
-1.650057e+04 1.956210e+04 0.000000e+00
-2.439531e+04 1.604714e+04 0.000000e+00
-1.779914e+04 1.410153e+04 -3.208362e+03
-7.110969e+02 2.659203e+04 0.000000e+00
-8.605834e+03 2.307706e+04 0.000000e+00
-1.151312e+03 1.828467e+04 -3.831004e+03
-1.059684e+04 1.594773e+04 -4.611714e+03
1.507838e+04 3.362195e+04 0.000000e+00
7.183640e+03 3.010699e+04 0.000000e+00
1.388687e+04 2.821505e+04 -3.204648e+03
2.088649e+04 3.017431e+04 -4.576655e+03
2.297311e+04 3.713692e+04 0.000000e+00
3.013997e+04 3.223794e+04 -3.911160e+03
3.086785e+04 4.065188e+04 0.000000e+00
4.665732e+04 4.768181e+04 0.000000e+00
3.876259e+04 4.416684e+04 0.000000e+00
4.552889e+04 4.212265e+04 -3.250048e+03
5.268508e+04 4.403151e+04 -4.616875e+03
5.455206e+04 5.119677e+04 0.000000e+00
6.221341e+04 4.656839e+04 -3.747993e+03
6.244680e+04 5.471173e+04 0.000000e+00
7.034153e+04 5.822670e+04 0.000000e+00
7.717991e+04 5.627994e+04 -3.486032e+03
7.823627e+04 6.174166e+04 0.000000e+00
8.445811e+04 5.504212e+04 -5.236568e+03
8.613101e+04 6.525662e+04 0.000000e+00
9.334012e+04 6.239708e+04 -3.425962e+03
9.402575e+04 6.877159e+04 0.000000e+00
1.083473e+05 6.811250e+04 -3.598263e+03
1.098152e+05 7.580151e+04 0.000000e+00
1.019205e+05 7.228655e+04 0.000000e+00
1.166405e+05 6.924149e+04 -4.662575e+03
1.177100e+05 7.931648e+04 0.000000e+00
1.259739e+05 7.612584e+04 -3.426460e+03
1.256047e+05 8.283144e+04 0.000000e+00
1.403457e+05 8.455583e+04 -3.453124e+03
1.413942e+05 8.986137e+04 0.000000e+00
1.334994e+05 8.634640e+04 0.000000e+00
1.475284e+05 8.321476e+04 -5.252906e+03
1.492889e+05 9.337633e+04 0.000000e+00
1.569286e+05 9.061511e+04 -3.596867e+03
1.571836e+05 9.689129e+04 0.000000e+00
1.720971e+05 9.792369e+04 -3.512975e+03
1.729731e+05 1.039212e+05 0.000000e+00
1.650784e+05 1.004063e+05 0.000000e+00
1.796212e+05 9.723528e+04 -5.119799e+03
1.809011e+05 1.073621e+05 0.000000e+00
1.881806e+05 1.046318e+05 -3.405063e+03
1.887959e+05 1.108770e+05 0.000000e+00
2.029933e+05 1.105222e+05 -3.678523e+03
2.045853e+05 1.179069e+05 0.000000e+00
1.966906e+05 1.143920e+05 0.000000e+00
2.112929e+05 1.114616e+05 -4.720435e+03
2.126399e+05 1.214093e+05 0.000000e+00
2.199805e+05 1.184956e+05 -3.443593e+03
2.205347e+05 1.249243e+05 0.000000e+00
2.353029e+05 1.242532e+05 -3.596380e+03
2.363241e+05 1.319542e+05 0.000000e+00
2.284294e+05 1.284393e+05 0.000000e+00
2.436649e+05 1.254572e+05 -4.770161e+03
2.446788e+05 1.355932e+05 0.000000e+00
2.527705e+05 1.314106e+05 -4.226765e+03
2.525735e+05 1.391081e+05 0.000000e+00
2.842105e+05 1.537786e+05 0.000000e+00
2.763158e+05 1.502637e+05 0.000000e+00
2.856874e+05 1.458024e+05 -3.789980e+03
2.693822e+05 1.391039e+05 -4.350904e+03
2.765519e+05 1.441100e+05 -3.789955e+03
2.683630e+05 1.461381e+05 0.000000e+00
2.604683e+05 1.426231e+05 0.000000e+00
2.859674e+05 6.947491e+04 -4.217979e+04
2.873724e+05 6.187762e+04 -4.312954e+04
2.781788e+05 5.804459e+04 -4.507954e+04
2.775820e+05 6.451420e+04 -4.294218e+04
2.842105e+05 5.884986e+04 -5.000000e+04
2.763158e+05 5.533490e+04 -5.000000e+04
2.763573e+05 7.094422e+04 -4.008342e+04
2.726148e+05 5.583453e+04 -4.638020e+04
2.697565e+05 6.014748e+04 -4.130756e+04
2.600222e+05 4.778141e+04 -5.000000e+04
2.610438e+05 5.504625e+04 -4.340437e+04
2.679169e+05 5.129637e+04 -5.000000e+04
2.689780e+05 6.862244e+04 -3.605267e+04
2.597493e+05 6.251253e+04 -3.840015e+04
2.532348e+05 5.136785e+04 -4.196925e+04
2.521274e+05 4.426644e+04 -5.000000e+04
2.442327e+05 4.075148e+04 -5.000000e+04
2.439654e+05 4.664417e+04 -4.229363e+04
2.444136e+05 5.683452e+04 -3.671006e+04
2.411362e+05 3.808469e+04 -4.348758e+04
2.348930e+05 4.527895e+04 -4.330279e+04
2.361646e+05 3.716787e+04 -5.000000e+04
2.282699e+05 3.365291e+04 -5.000000e+04
2.289267e+05 4.092119e+04 -4.422493e+04
2.361866e+05 5.242914e+04 -3.771197e+04
2.274176e+05 4.785627e+04 -3.957700e+04
2.222733e+05 3.758047e+04 -4.308987e+04
2.203751e+05 3.013794e+04 -5.000000e+04
2.124804e+05 2.662298e+04 -5.000000e+04
2.134261e+05 3.394135e+04 -4.370156e+04
2.126562e+05 4.160003e+04 -3.767096e+04
2.058175e+05 3.965757e+04 -3.575022e+04
2.066276e+05 3.036110e+04 -4.251828e+04
1.982435e+05 3.403500e+04 -3.909382e+04
1.985257e+05 2.649240e+04 -4.398467e+04
1.966579e+05 1.966663e+04 -5.000000e+04
2.045526e+05 2.318159e+04 -5.000000e+04
1.830567e+05 2.795684e+04 -3.773020e+04
1.829582e+05 1.997792e+04 -4.379621e+04
1.917560e+05 2.342705e+04 -4.292800e+04
1.887631e+05 1.615167e+04 -5.000000e+04
1.808684e+05 1.263670e+04 -5.000000e+04
1.769923e+05 1.757740e+04 -4.146819e+04
1.753291e+05 2.708288e+04 -3.524905e+04
1.636427e+05 1.906715e+04 -4.027987e+04
1.695802e+05 2.234236e+04 -3.889910e+04
1.694358e+05 1.568381e+04 -4.249801e+04
1.729731e+05 9.122938e+03 -5.000000e+04
1.621436e+05 1.091719e+04 -4.134596e+04
1.650784e+05 5.607975e+03 -5.000000e+04
1.447417e+05 1.145448e+04 -3.932557e+04
1.464587e+05 3.378129e+03 -4.394252e+04
1.532889e+05 8.194029e+03 -4.212037e+04
1.571836e+05 2.093012e+03 -5.000000e+04
1.492889e+05 -1.421951e+03 -5.000000e+04
1.313439e+05 3.934821e+03 -3.786049e+04
1.384752e+05 6.672286e+03 -3.972780e+04
1.384997e+05 5.932096e+02 -4.308721e+04
1.413942e+05 -4.936915e+03 -5.000000e+04
1.325696e+05 -3.315795e+03 -4.363218e+04
1.334994e+05 -8.451878e+03 -5.000000e+04
1.135406e+05 -2.979859e+03 -3.916515e+04
1.149636e+05 -1.095492e+04 -4.381592e+04
1.244638e+05 -7.093698e+03 -4.171605e+04
1.256047e+05 -1.196684e+04 -5.000000e+04
1.177100e+05 -1.548180e+04 -5.000000e+04
1.068954e+05 -7.695324e+03 -3.985930e+04
9.954141e+04 -1.028075e+04 -3.819624e+04
1.068264e+05 -1.358741e+04 -4.323413e+04
1.019205e+05 -2.251173e+04 -5.000000e+04
1.007613e+05 -1.746250e+04 -4.367545e+04
1.098152e+05 -1.899677e+04 -5.000000e+04
9.196680e+04 -2.138673e+04 -4.141888e+04
9.402575e+04 -2.602669e+04 -5.000000e+04
8.613101e+04 -2.954166e+04 -5.000000e+04
8.303431e+04 -2.494045e+04 -4.397358e+04
8.165539e+04 -1.709546e+04 -3.936587e+04
6.817990e+04 -2.458616e+04 -3.903086e+04
7.522972e+04 -2.180866e+04 -4.027324e+04
7.514843e+04 -2.757229e+04 -4.383304e+04
7.823627e+04 -3.305662e+04 -5.000000e+04
6.944170e+04 -3.165907e+04 -4.426858e+04
7.034153e+04 -3.657158e+04 -5.000000e+04
5.200527e+04 -3.402018e+04 -4.070436e+04
5.341680e+04 -4.032949e+04 -4.464864e+04
6.159395e+04 -3.610797e+04 -4.276903e+04
6.244680e+04 -4.008655e+04 -5.000000e+04
5.455206e+04 -4.360151e+04 -5.000000e+04
4.665732e+04 -4.711647e+04 -5.000000e+04
4.384817e+04 -3.894091e+04 -4.240209e+04
3.534176e+04 -3.492051e+04 -3.746902e+04
3.657874e+04 -4.393105e+04 -4.281291e+04
4.504333e+04 -3.058765e+04 -3.694847e+04
3.876259e+04 -5.063144e+04 -5.000000e+04
1.859875e+04 -4.355530e+04 -3.810618e+04
2.075967e+04 -5.234936e+04 -4.360842e+04
2.888030e+04 -4.841589e+04 -4.216843e+04
3.086785e+04 -5.414640e+04 -5.000000e+04
2.297311e+04 -5.766136e+04 -5.000000e+04
1.810462e+04 -5.664225e+04 -4.661805e+04
1.336322e+04 -5.532379e+04 -4.305519e+04
1.507838e+04 -6.117633e+04 -5.000000e+04
1.264741e+04 -4.889360e+04 -3.981040e+04
7.183640e+03 -6.469129e+04 -5.000000e+04
6.828407e+03 -5.942663e+04 -4.397842e+04
5.871809e+03 -5.198207e+04 -3.867246e+04
-1.522891e+03 -6.354009e+04 -4.183555e+04
-7.110969e+02 -6.820625e+04 -5.000000e+04
-8.605834e+03 -7.172122e+04 -5.000000e+04
-1.167135e+04 -6.778013e+04 -4.269718e+04
-1.081246e+04 -5.951019e+04 -3.925634e+04
-1.927655e+04 -7.084450e+04 -4.376282e+04
-1.905528e+04 -6.540260e+04 -4.289097e+04
-2.439531e+04 -7.875114e+04 -5.000000e+04
-2.416766e+04 -7.520360e+04 -4.489768e+04
-1.650057e+04 -7.523618e+04 -5.000000e+04
-2.449831e+04 -6.195453e+04 -3.968564e+04
-1.720310e+04 -5.967568e+04 -3.830775e+04
-2.569024e+04 -6.910193e+04 -4.193829e+04
-5.823152e+04 -7.596662e+04 -3.766332e+04
-5.273979e+04 -7.375025e+04 -3.409122e+04
-4.501586e+04 -7.772576e+04 -3.634729e+04
-5.139904e+04 -8.102012e+04 -4.065100e+04
-4.537177e+04 -7.209069e+04 -3.845117e+04
-4.535411e+04 -6.519219e+04 -3.568547e+04
-5.128941e+04 -6.715027e+04 -3.457763e+04
-5.800265e+04 -8.570828e+04 -4.250848e+04
-3.119429e+04 -8.018835e+04 -4.282211e+04
-3.229004e+04 -8.226611e+04 -5.000000e+04
-4.018478e+04 -8.578107e+04 -5.000000e+04
-4.241117e+04 -8.521507e+04 -4.259608e+04
-3.943177e+04 -7.635850e+04 -4.158928e+04
-3.250616e+04 -7.274151e+04 -4.226098e+04
-3.915564e+04 -6.860702e+04 -3.886248e+04
-4.807952e+04 -8.929603e+04 -5.000000e+04
-4.678715e+04 -8.309535e+04 -3.394141e+04
-5.597425e+04 -9.281100e+04 -5.000000e+04
-8.451272e+04 -7.863164e+04 -3.101215e+04
-7.885671e+04 -8.654538e+04 -3.609672e+04
-7.800051e+04 -7.506830e+04 -3.181822e+04
-7.263887e+04 -8.277854e+04 -3.435214e+04
-7.354818e+04 -9.699989e+04 -4.145837e+04
-6.519298e+04 -9.065226e+04 -4.135788e+04
-6.386899e+04 -9.632596e+04 -5.000000e+04
-7.176373e+04 -9.984092e+04 -5.000000e+04
-7.965847e+04 -1.033559e+05 -5.000000e+04
-8.241153e+04 -1.012207e+05 -4.058978e+04
-8.197026e+04 -9.455412e+04 -3.435898e+04
-8.612239e+04 -8.952611e+04 -3.634946e+04
-8.870756e+04 -1.059846e+05 -4.213659e+04
-9.115697e+04 -1.007245e+05 -3.614089e+04
-8.755320e+04 -1.068709e+05 -5.000000e+04
-9.375031e+04 -9.382444e+04 -3.616475e+04
-9.163848e+04 -8.352921e+04 -3.231771e+04
-7.918677e+04 -9.959929e+04 -3.329566e+04
-1.162638e+05 -1.073634e+05 -3.728254e+04
-1.284103e+05 -1.058497e+05 -3.273145e+04
-1.225602e+05 -1.122826e+05 -3.949897e+04
-1.086667e+05 -1.021726e+05 -3.826841e+04
-1.144669e+05 -9.289379e+04 -3.075809e+04
-1.195736e+05 -1.003488e+05 -3.476016e+04
-9.794085e+04 -1.043236e+05 -3.963095e+04
-9.558216e+04 -1.091592e+05 -4.370360e+04
-1.035032e+05 -1.131754e+05 -4.450905e+04
-1.023994e+05 -1.086351e+05 -4.043828e+04
-9.544794e+04 -1.103858e+05 -5.000000e+04
-1.033427e+05 -1.139008e+05 -5.000000e+04
-1.005214e+05 -9.821188e+04 -3.949573e+04
-1.044107e+05 -8.994535e+04 -3.324542e+04
-1.202220e+05 -1.185528e+05 -4.305230e+04
-1.135246e+05 -1.155076e+05 -3.922933e+04
-1.077575e+05 -1.104029e+05 -3.438987e+04
-1.191321e+05 -1.209307e+05 -5.000000e+04
-1.112374e+05 -1.174157e+05 -5.000000e+04
-1.311123e+05 -1.154785e+05 -3.829760e+04
-1.439306e+05 -1.114475e+05 -3.547716e+04
-1.407165e+05 -1.205741e+05 -4.006921e+04
-1.489619e+05 -1.167489e+05 -3.802577e+04
-1.276668e+05 -1.237225e+05 -4.184403e+04
-1.365298e+05 -1.282634e+05 -4.367526e+04
-1.270269e+05 -1.244457e+05 -5.000000e+04
-1.349216e+05 -1.279606e+05 -5.000000e+04
-1.428164e+05 -1.314756e+05 -5.000000e+04
-1.450470e+05 -1.258520e+05 -4.390713e+04
-1.507111e+05 -1.349906e+05 -5.000000e+04
-1.513523e+05 -1.298382e+05 -4.395375e+04
-1.509854e+05 -1.229310e+05 -3.915193e+04
-1.602938e+05 -1.334388e+05 -4.154045e+04
-1.586058e+05 -1.385055e+05 -5.000000e+04
-1.665006e+05 -1.420205e+05 -5.000000e+04
-1.695012e+05 -1.373190e+05 -4.395352e+04
-1.706244e+05 -1.295162e+05 -3.960963e+04
-1.838628e+05 -1.362132e+05 -3.874258e+04
-1.769064e+05 -1.338129e+05 -4.021372e+04
-1.772141e+05 -1.396915e+05 -4.341102e+04
-1.743953e+05 -1.455354e+05 -5.000000e+04
-1.822900e+05 -1.490504e+05 -5.000000e+04
-1.830599e+05 -1.436870e+05 -4.378058e+04
-1.903302e+05 -1.474641e+05 -4.215010e+04
-1.901848e+05 -1.525654e+05 -5.000000e+04
-1.980795e+05 -1.560803e+05 -5.000000e+04
-1.978776e+05 -1.519102e+05 -4.443320e+04
-1.994056e+05 -1.455264e+05 -4.012423e+04
-2.022902e+05 -1.549497e+05 -4.638077e+04
-2.060815e+05 -1.516207e+05 -4.222545e+04
-2.059743e+05 -1.595953e+05 -5.000000e+04
-2.061006e+05 -1.431748e+05 -3.625939e+04
-2.150758e+05 -1.487989e+05 -3.821884e+04
-2.134589e+05 -1.560020e+05 -4.348746e+04
-2.138690e+05 -1.631103e+05 -5.000000e+04
-2.324345e+05 -1.540189e+05 -3.663601e+04
-2.313319e+05 -1.635625e+05 -4.313550e+04
-2.214973e+05 -1.594758e+05 -4.211339e+04
-2.217637e+05 -1.666252e+05 -5.000000e+04
-2.296585e+05 -1.701402e+05 -5.000000e+04
-2.344807e+05 -1.688939e+05 -4.599286e+04
-2.394376e+05 -1.674238e+05 -4.205357e+04
-2.374777e+05 -1.736788e+05 -5.000000e+04
-2.400207e+05 -1.602566e+05 -3.859216e+04
-2.476223e+05 -1.637946e+05 -3.723857e+04
-2.453725e+05 -1.771938e+05 -5.000000e+04
-2.466829e+05 -1.731094e+05 -4.254731e+04
-2.766539e+05 -1.911452e+05 -5.000000e+04
-2.777110e+05 -1.849294e+05 -4.355708e+04
-2.706630e+05 -1.796223e+05 -4.268789e+04
-2.687591e+05 -1.876303e+05 -5.000000e+04
-2.801206e+05 -1.770650e+05 -3.832338e+04
-2.722126e+05 -1.713528e+05 -3.765354e+04
-2.559413e+05 -1.748804e+05 -4.240200e+04
-2.532672e+05 -1.807087e+05 -5.000000e+04
-2.611619e+05 -1.842237e+05 -5.000000e+04
-2.616821e+05 -1.804728e+05 -4.499524e+04
-2.640907e+05 -1.737265e+05 -4.064883e+04
-2.609387e+05 -1.877688e+05 -4.630717e+04
-1.300469e+05 -7.693370e+04 -2.254082e+04
-1.247745e+05 -7.164362e+04 -2.199736e+04
-1.319320e+05 -7.005117e+04 -1.908110e+04
-1.184178e+05 -8.531401e+04 -2.807201e+04
-1.228510e+05 -7.892325e+04 -2.380542e+04
-1.285387e+05 -8.362643e+04 -2.384685e+04
-1.134443e+05 -7.951162e+04 -2.307119e+04
-1.257124e+05 -6.536371e+04 -1.801102e+04
-1.187396e+05 -6.608243e+04 -1.998376e+04
-1.180865e+05 -7.254748e+04 -2.308367e+04
-1.115296e+05 -6.868078e+04 -2.208730e+04
-1.214390e+05 -7.422314e+04 -1.754345e+04
-9.342893e+04 -6.836041e+04 -2.570822e+04
-8.896952e+04 -7.283474e+04 -2.937558e+04
-8.636660e+04 -6.542933e+04 -2.338103e+04
-9.337934e+04 -6.105386e+04 -2.243583e+04
-9.488017e+04 -7.647179e+04 -2.986817e+04
-9.988984e+04 -7.073973e+04 -2.610462e+04
-1.008458e+05 -8.056482e+04 -3.096531e+04
-1.060937e+05 -7.641569e+04 -2.618893e+04
-9.881095e+04 -6.275786e+04 -2.304853e+04
-1.063217e+05 -5.922738e+04 -1.822284e+04
-1.052185e+05 -6.666550e+04 -2.371413e+04
-9.965682e+04 -5.537999e+04 -1.900465e+04
-9.778115e+04 -6.941323e+04 -1.988176e+04
-1.032876e+05 -2.570060e+04 -4.964199e+03
-1.107524e+05 -2.819574e+04 -5.384179e+03
-1.041315e+05 -3.276751e+04 -7.241954e+03
-1.105405e+05 -2.636481e+04 -3.402743e+03
-1.146449e+05 -2.723387e+04 -2.239214e+03
-1.242047e+05 -3.000720e+04 -2.747710e+03
-1.165240e+05 -3.107652e+04 -4.198763e+03
-1.252040e+05 -3.480310e+04 -4.094658e+03
-1.158786e+05 -3.798363e+04 -6.925202e+03
-1.088016e+05 -3.596747e+04 -7.647492e+03
-1.439578e+05 -4.311654e+04 -4.268620e+03
-1.514067e+05 -4.741644e+04 -4.431925e+03
-1.430564e+05 -5.035160e+04 -6.729967e+03
-1.535649e+05 -4.355868e+04 -2.530375e+03
-1.439314e+05 -4.004362e+04 -2.358848e+03
-1.314671e+05 -3.746700e+04 -4.717941e+03
-1.385805e+05 -3.840229e+04 -3.355093e+03
-1.376016e+05 -3.966849e+04 -5.257636e+03
-1.312622e+05 -4.322582e+04 -6.519359e+03
-1.366788e+05 -4.631920e+04 -7.134953e+03
-2.683310e+05 -1.157896e+05 -1.006537e+04
-2.776351e+05 -1.110992e+05 -5.704454e+03
-2.762238e+05 -1.213867e+05 -1.192893e+04
-2.701936e+05 -1.073318e+05 -6.837064e+03
-2.690123e+05 -1.247570e+05 -1.483423e+04
-2.624519e+05 -1.058344e+05 -7.491661e+03
-2.614276e+05 -1.114374e+05 -1.064560e+04
-2.540408e+05 -1.068712e+05 -9.823288e+03
-2.560176e+05 -1.140095e+05 -1.340390e+04
-2.625142e+05 -1.177423e+05 -1.340109e+04
-2.618509e+05 -1.254882e+05 -1.458871e+04
-2.536979e+05 -1.209272e+05 -1.676791e+04
4.420650e+04 2.211100e+04 -1.031813e+04
3.547569e+04 2.670495e+04 -7.621861e+03
3.510887e+04 1.862747e+04 -1.117079e+04
4.513035e+04 3.359962e+04 -5.821481e+03
5.360951e+04 3.477414e+04 -6.713264e+03
5.274983e+04 2.675638e+04 -1.092881e+04
6.097164e+04 3.225139e+04 -1.035042e+04
5.226271e+04 1.130348e+04 -1.850317e+04
4.440531e+04 9.963302e+03 -1.731373e+04
4.253986e+04 1.663855e+04 -1.428413e+04
5.037964e+04 1.821550e+04 -1.375524e+04
5.847101e+04 2.348144e+04 -1.345018e+04
6.150841e+04 1.376626e+04 -1.649953e+04
3.580004e+04 1.168422e+04 -1.273245e+04
6.769055e+04 4.208963e+04 -7.115692e+03
7.621189e+04 4.029183e+04 -9.926628e+03
7.580384e+04 4.815687e+04 -6.393005e+03
6.897103e+04 3.504636e+04 -1.085971e+04
8.278087e+04 4.829306e+04 -8.136551e+03
8.274426e+04 4.283948e+04 -1.119356e+04
9.070649e+04 4.586975e+04 -1.059820e+04
6.657687e+04 2.611177e+04 -1.269959e+04
7.460167e+04 3.173781e+04 -1.272776e+04
7.631599e+04 2.475935e+04 -1.623344e+04
8.440144e+04 2.638156e+04 -1.794701e+04
8.335142e+04 3.441340e+04 -1.180359e+04
9.380838e+04 2.865849e+04 -1.621088e+04
9.179536e+04 3.926506e+04 -1.251636e+04
1.077464e+05 5.294158e+04 -1.030590e+04
1.071581e+05 5.996379e+04 -7.272574e+03
9.966474e+04 5.624714e+04 -5.945903e+03
1.000096e+05 4.698884e+04 -1.190120e+04
1.150718e+05 6.120363e+04 -8.263134e+03
1.154246e+05 5.464894e+04 -1.146240e+04
1.218438e+05 5.915392e+04 -1.100371e+04
9.823962e+04 3.965813e+04 -1.467815e+04
1.074868e+05 3.876597e+04 -1.751019e+04
1.054751e+05 4.530448e+04 -1.429219e+04
1.150639e+05 4.001350e+04 -1.899195e+04
1.126057e+05 4.660326e+04 -1.417798e+04
1.240412e+05 4.210277e+04 -1.697447e+04
1.209625e+05 5.154840e+04 -1.415972e+04
1.139633e+05 4.847583e+04 -9.264251e+03
1.392191e+05 6.867066e+04 -9.673084e+03
1.390871e+05 7.669286e+04 -6.198723e+03
1.317527e+05 7.156522e+04 -7.035352e+03
1.304093e+05 6.248416e+04 -9.791878e+03
1.458125e+05 7.667575e+04 -7.996509e+03
1.457750e+05 7.100162e+04 -1.096876e+04
1.537216e+05 7.405866e+04 -9.667764e+03
1.290678e+05 5.376549e+04 -1.291974e+04
1.372765e+05 5.970469e+04 -1.207644e+04
1.393507e+05 5.253296e+04 -1.619518e+04
1.464246e+05 6.232039e+04 -1.137445e+04
1.572707e+05 5.816405e+04 -1.623417e+04
1.547454e+05 6.736844e+04 -1.158081e+04
1.486843e+05 5.278870e+04 -1.782922e+04
1.621926e+05 7.600048e+04 -1.134285e+04
1.709834e+05 8.138050e+04 -1.009911e+04
1.616713e+05 8.353145e+04 -7.028950e+03
1.704986e+05 8.938564e+04 -6.689787e+03
1.781287e+05 8.975808e+04 -8.265147e+03
1.789385e+05 8.297378e+04 -1.122413e+04
1.867393e+05 8.833346e+04 -1.036600e+04
1.606058e+05 6.822741e+04 -1.446428e+04
1.704596e+05 6.689512e+04 -1.755988e+04
1.683820e+05 7.361290e+04 -1.400882e+04
1.781329e+05 6.813315e+04 -1.888986e+04
1.757879e+05 7.487097e+04 -1.377197e+04
1.843373e+05 7.980426e+04 -1.389252e+04
1.871023e+05 7.022688e+04 -1.700667e+04
1.775106e+05 7.703801e+04 -8.957236e+03
2.024312e+05 9.545939e+04 -1.012925e+04
2.021776e+05 1.025858e+05 -7.044799e+03
1.946036e+05 9.927532e+04 -5.772294e+03
1.949858e+05 9.093338e+04 -1.074907e+04
2.098530e+05 1.032498e+05 -8.159605e+03
2.100105e+05 9.606091e+04 -1.183819e+04
2.196752e+05 9.920050e+04 -1.077673e+04
1.923162e+05 8.203196e+04 -1.311531e+04
2.003675e+05 8.720270e+04 -1.296907e+04
2.020004e+05 8.017101e+04 -1.662495e+04
2.085754e+05 8.752051e+04 -1.202432e+04
2.096388e+05 8.083363e+04 -1.814730e+04
2.171022e+05 9.113859e+04 -1.522303e+04
2.179623e+05 8.108150e+04 -1.738509e+04
2.366933e+05 1.075425e+05 -1.126889e+04
2.350072e+05 1.160637e+05 -7.268417e+03
2.273034e+05 1.125645e+05 -5.886894e+03
2.285929e+05 1.024200e+05 -1.174633e+04
2.428749e+05 1.178705e+05 -8.455013e+03
2.421630e+05 1.108875e+05 -1.232440e+04
2.500683e+05 1.132714e+05 -1.229072e+04
2.371832e+05 9.910353e+04 -1.632979e+04
2.458903e+05 9.894755e+04 -1.643406e+04
2.474190e+05 1.054684e+05 -1.525193e+04
2.671426e+05 1.212545e+05 -1.225018e+04
2.751369e+05 1.153855e+05 -1.632964e+04
2.766141e+05 1.238289e+05 -1.233464e+04
2.678186e+05 1.300991e+05 -6.407150e+03
2.674963e+05 1.131707e+05 -1.619664e+04
2.597014e+05 1.261361e+05 -8.245035e+03
2.590951e+05 1.166921e+05 -1.156292e+04
-2.805469e+05 -1.601835e+05 -2.964376e+04
-2.789188e+05 -1.521728e+05 -2.471111e+04
-2.685926e+05 -1.480892e+05 -2.217580e+04
-2.729456e+05 -1.552409e+05 -2.863037e+04
-2.797741e+05 -1.445912e+05 -2.115308e+04
-2.715172e+05 -1.628846e+05 -3.326087e+04
-2.720693e+05 -1.307442e+05 -1.693137e+04
-2.777618e+05 -1.365275e+05 -1.890106e+04
-2.696607e+05 -1.387534e+05 -2.172044e+04
-2.565543e+05 -1.509223e+05 -2.984948e+04
-2.468132e+05 -1.539975e+05 -3.389778e+04
-2.500479e+05 -1.456039e+05 -2.864669e+04
-2.558709e+05 -1.601469e+05 -3.526153e+04
-2.646197e+05 -1.570017e+05 -3.059435e+04
-2.633015e+05 -1.669834e+05 -3.570949e+04
-2.641505e+05 -1.346573e+05 -1.881260e+04
-2.605145e+05 -1.428941e+05 -2.352530e+04
-2.523941e+05 -1.371662e+05 -2.371677e+04
-2.586559e+05 -1.521958e+05 -2.302787e+04
-2.684087e+05 -1.586684e+05 -2.437830e+04
1.346464e+04 2.025126e+04 -5.764212e+03
4.341679e+03 1.341466e+04 -7.261794e+03
1.363901e+04 1.105361e+04 -9.942867e+03
5.210235e+03 6.457959e+03 -1.103716e+04
2.138547e+04 2.165978e+04 -6.920701e+03
2.118329e+04 1.394892e+04 -1.078630e+04
2.825769e+04 1.917726e+04 -1.023251e+04
2.682036e+04 1.101574e+04 -1.331936e+04
1.909069e+04 5.204581e+03 -1.259625e+04
2.954367e+04 5.308177e+02 -1.643308e+04
1.063222e+04 3.635019e+03 -1.286884e+04
3.050054e+03 -2.341667e+03 -1.345810e+04
1.246452e+04 -3.179962e+03 -1.674667e+04
2.046039e+04 -1.578826e+03 -1.842569e+04
1.492477e+04 3.596688e+03 -8.946198e+03
-1.828186e+04 -2.082113e+03 -9.825962e+03
-2.791552e+04 -1.661201e+02 -6.494388e+03
-2.669103e+04 -7.289608e+03 -1.083982e+04
-1.808287e+04 6.058828e+03 -5.598184e+03
-9.995547e+03 6.917148e+03 -6.913861e+03
-1.041639e+04 -9.432022e+02 -1.119449e+04
-2.139770e+03 3.015141e+03 -1.106901e+04
-5.355814e+03 -4.266336e+03 -1.365257e+04
-1.372842e+04 -9.249357e+03 -1.300695e+04
-2.081552e+03 -1.366919e+04 -1.677997e+04
-2.816129e+04 -1.470805e+04 -1.333730e+04
-2.121046e+04 -1.038866e+04 -1.304895e+04
-1.948840e+04 -1.745469e+04 -1.667713e+04
-1.150643e+04 -6.093795e+03 -8.550793e+03
-1.134787e+04 -1.613277e+04 -1.843327e+04
2.760088e+05 8.490315e+04 -3.240669e+04
2.768553e+05 7.762968e+04 -3.624963e+04
2.852216e+05 8.264721e+04 -3.647931e+04
2.842239e+05 9.039639e+04 -3.167883e+04
2.821329e+05 9.512999e+04 -2.607202e+04
2.771376e+05 8.963939e+04 -2.743999e+04
2.685798e+05 1.052517e+05 -1.884162e+04
2.706367e+05 9.595965e+04 -2.447946e+04
2.793959e+05 1.019337e+05 -2.355971e+04
2.682931e+05 7.605789e+04 -3.432644e+04
2.672678e+05 8.184140e+04 -3.129258e+04
2.597277e+05 7.746235e+04 -2.984879e+04
2.539140e+05 9.449716e+04 -2.200473e+04
2.575993e+05 8.802763e+04 -2.609342e+04
2.627699e+05 9.260135e+04 -2.397789e+04
2.575211e+05 1.013284e+05 -1.796631e+04
2.678609e+05 8.600047e+04 -2.417913e+04
2.560651e+05 8.060111e+04 -2.482821e+04
-5.389080e+04 -2.683910e+04 -1.139982e+04
-5.612564e+04 -3.839246e+04 -1.657546e+04
-4.970289e+04 -3.269591e+04 -1.697337e+04
-5.871513e+04 -2.160270e+04 -1.047588e+04
-7.010664e+04 -2.199105e+04 -7.601731e+03
-6.226137e+04 -3.057309e+04 -1.389969e+04
-6.414600e+04 -1.639506e+04 -7.461784e+03
-5.009261e+04 -7.968453e+03 -4.593782e+03
-5.646651e+04 -1.409436e+04 -7.115928e+03
-4.901204e+04 -1.841814e+04 -9.910340e+03
-3.426392e+04 -1.091107e+04 -1.058010e+04
-4.377927e+04 -8.760589e+03 -7.945732e+03
-4.258529e+04 -1.589437e+04 -1.124082e+04
-3.539718e+04 -2.001900e+04 -1.334435e+04
-4.540398e+04 -2.509847e+04 -1.401577e+04
-3.492281e+04 -2.974306e+04 -1.801016e+04
-4.291124e+04 -3.142325e+04 -1.924252e+04
-4.788482e+04 -2.717303e+04 -9.123287e+03
2.424035e+05 7.065440e+04 -2.967008e+04
2.441752e+05 6.503888e+04 -3.442876e+04
2.528533e+05 6.675335e+04 -3.294280e+04
2.510351e+05 7.495439e+04 -2.967610e+04
2.367254e+05 6.185267e+04 -3.355075e+04
2.351619e+05 6.904359e+04 -3.010591e+04
2.277453e+05 6.365188e+04 -3.093308e+04
2.276586e+05 8.623234e+04 -1.805844e+04
2.400022e+05 8.292013e+04 -2.473930e+04
2.379474e+05 9.104738e+04 -1.933205e+04
2.260661e+05 7.767688e+04 -2.257785e+04
2.291755e+05 7.211529e+04 -2.702467e+04
2.364547e+05 7.651681e+04 -2.460984e+04
2.499580e+05 8.690474e+04 -2.407988e+04
2.485099e+05 8.094844e+04 -2.539774e+04
2.443640e+05 7.645671e+04 -2.629582e+04
2.420130e+05 7.299333e+04 -2.263492e+04
2.125823e+05 5.747088e+04 -3.097301e+04
2.123596e+05 5.019018e+04 -3.444325e+04
2.209944e+05 5.240064e+04 -3.390682e+04
2.196525e+05 6.174850e+04 -3.021497e+04
2.059385e+05 4.929277e+04 -3.263765e+04
2.066366e+05 5.700780e+04 -3.071129e+04
2.009597e+05 5.472086e+04 -2.985772e+04
1.952682e+05 6.598123e+04 -2.206740e+04
1.970595e+05 5.974774e+04 -2.674138e+04
2.060159e+05 6.194066e+04 -2.490347e+04
2.036166e+05 7.173918e+04 -1.971700e+04
2.122211e+05 7.253485e+04 -2.112293e+04
2.139236e+05 6.535497e+04 -2.653175e+04
2.222887e+05 6.921720e+04 -2.579580e+04
1.831725e+05 4.434288e+04 -3.086999e+04
1.821130e+05 3.655857e+04 -3.478649e+04
1.913380e+05 3.856495e+04 -3.414972e+04
1.933760e+05 5.001033e+04 -2.873584e+04
1.747965e+05 3.614340e+04 -3.265284e+04
1.757101e+05 4.374323e+04 -3.057463e+04
1.700725e+05 4.140448e+04 -2.980971e+04
1.636788e+05 5.209162e+04 -2.196574e+04
1.749338e+05 4.879261e+04 -2.486751e+04
1.722103e+05 5.863107e+04 -2.018710e+04
1.656249e+05 4.633262e+04 -2.687233e+04
1.808998e+05 5.998824e+04 -2.121961e+04
1.833827e+05 5.226298e+04 -2.632561e+04
1.897239e+05 5.783245e+04 -2.557624e+04
1.636209e+05 2.639992e+04 -3.480447e+04
1.564612e+05 2.136546e+04 -3.630905e+04
1.481513e+05 2.708623e+04 -3.251557e+04
1.560449e+05 3.053222e+04 -3.152586e+04
1.465185e+05 1.847400e+04 -3.522239e+04
1.635318e+05 3.645979e+04 -2.884604e+04
1.402745e+05 2.572183e+04 -3.015796e+04
1.325129e+05 3.798469e+04 -2.179323e+04
1.347030e+05 3.146117e+04 -2.663509e+04
1.437421e+05 3.354404e+04 -2.453067e+04
1.406572e+05 4.419274e+04 -1.891326e+04
1.488524e+05 4.404471e+04 -2.227362e+04
1.531384e+05 3.690704e+04 -2.548382e+04
1.585455e+05 4.366831e+04 -2.510272e+04
1.521796e+05 2.874541e+04 -2.623430e+04
1.331267e+05 1.247426e+04 -3.486985e+04
1.236936e+05 8.482801e+03 -3.559194e+04
1.150631e+05 1.370933e+04 -3.044398e+04
1.240051e+05 1.613359e+04 -3.049908e+04
1.331047e+05 2.108726e+04 -2.918266e+04
1.144472e+05 4.331329e+03 -3.431812e+04
1.071716e+05 1.123021e+04 -3.123620e+04
1.016326e+05 2.440674e+04 -2.184430e+04
1.054998e+05 1.774127e+04 -2.626176e+04
1.121008e+05 2.312456e+04 -2.458492e+04
1.095040e+05 3.096364e+04 -2.004976e+04
1.180377e+05 3.207624e+04 -2.121567e+04
1.214128e+05 2.417685e+04 -2.608917e+04
1.273070e+05 2.954906e+04 -2.546034e+04
1.201852e+05 1.643707e+04 -2.232773e+04
1.012714e+05 5.807649e+03 -3.054305e+04
9.236715e+04 1.654744e+03 -3.081821e+04
1.014858e+05 -1.983321e+03 -3.529196e+04
9.202780e+04 -5.790462e+03 -3.583270e+04
8.349628e+04 -6.219154e+02 -3.051613e+04
8.279453e+04 -9.926880e+03 -3.448620e+04
7.557865e+04 -2.965445e+03 -3.128414e+04
7.012937e+04 1.006563e+04 -2.152726e+04
8.080853e+04 8.632192e+03 -2.424243e+04
7.829349e+04 1.643774e+04 -1.918714e+04
7.396679e+04 3.350468e+03 -2.608905e+04
8.734807e+04 1.754166e+04 -2.050373e+04
9.058331e+04 9.503554e+03 -2.593507e+04
9.813248e+04 1.423834e+04 -2.507031e+04
8.906958e+04 1.468216e+03 -2.235127e+04
7.010184e+04 -1.637181e+04 -3.575910e+04
6.125199e+04 -2.098670e+04 -3.686258e+04
5.366374e+04 -1.768925e+04 -3.227582e+04
6.150830e+04 -1.322622e+04 -3.150364e+04
5.427653e+04 -2.651037e+04 -3.737383e+04
6.979608e+04 -8.584347e+03 -3.072543e+04
4.540563e+04 -2.262418e+04 -3.452276e+04
4.655058e+04 -1.545447e+04 -3.154201e+04
3.994893e+04 -1.776620e+04 -2.995381e+04
4.608518e+04 1.470210e+03 -1.990848e+04
5.536908e+04 2.487837e+03 -2.051078e+04
5.888613e+04 -5.506357e+03 -2.591404e+04
4.843692e+04 -1.005828e+04 -2.439533e+04
6.653947e+04 -3.503759e+02 -2.509742e+04
3.739641e+04 -4.628557e+03 -2.195183e+04
3.911491e+04 -1.159315e+04 -2.638533e+04
5.858274e+04 -1.513513e+04 -2.431447e+04
2.202840e+04 -2.554325e+04 -3.010957e+04
2.073608e+04 -3.586297e+04 -3.229035e+04
2.841902e+04 -2.945957e+04 -3.358682e+04
3.184247e+04 -2.110347e+04 -2.815416e+04
1.279056e+04 -2.897108e+04 -2.805874e+04
1.418619e+04 -1.127777e+04 -1.955916e+04
6.022226e+03 -1.731891e+04 -2.175284e+04
1.657755e+04 -1.998331e+04 -2.449648e+04
2.289265e+04 -9.969012e+03 -2.094948e+04
2.437418e+04 -1.764041e+04 -2.625895e+04
3.158339e+04 -1.296409e+04 -2.543955e+04
8.406435e+03 -2.300425e+04 -2.670055e+04
6.184237e+03 -3.501907e+04 -2.875918e+04
-1.801349e+03 -4.029210e+04 -3.095085e+04
6.926068e+03 -4.362786e+04 -3.518243e+04
-1.155581e+03 -4.851288e+04 -3.687356e+04
-8.097785e+03 -4.577795e+04 -3.232741e+04
-7.598039e+03 -5.372706e+04 -3.730707e+04
-2.382989e+04 -4.783830e+04 -3.009117e+04
-1.510177e+04 -5.107347e+04 -3.416355e+04
-1.547880e+04 -4.319979e+04 -2.947439e+04
-1.738562e+04 -2.589352e+04 -1.929775e+04
-2.541458e+04 -3.267747e+04 -2.199289e+04
-1.468641e+04 -3.459922e+04 -2.446001e+04
-8.079067e+03 -2.462038e+04 -2.051619e+04
-4.740303e+03 -3.296746e+04 -2.575716e+04
1.975153e+03 -2.751923e+04 -2.526751e+04
-2.157979e+04 -4.011222e+04 -2.662562e+04
-6.929035e+03 -4.305349e+04 -2.346118e+04
-4.401841e+04 -5.777684e+04 -3.070674e+04
-4.312148e+04 -4.832380e+04 -2.707062e+04
-5.026190e+04 -4.998807e+04 -2.722644e+04
-4.711943e+04 -4.045582e+04 -2.072650e+04
-3.779978e+04 -5.364262e+04 -3.103914e+04
-2.975477e+04 -5.744317e+04 -3.420611e+04
-3.080178e+04 -4.981152e+04 -3.082950e+04
-3.817253e+04 -6.162313e+04 -3.460952e+04
-3.915015e+04 -3.948907e+04 -2.234382e+04
-3.584681e+04 -4.680689e+04 -2.801519e+04
-2.930484e+04 -4.249567e+04 -2.658621e+04
-3.776323e+04 -5.087162e+04 -2.385542e+04
-2.089844e+05 -7.791794e+04 -4.654547e+03
-2.159628e+05 -8.318488e+04 -6.884486e+03
-2.089344e+05 -8.588087e+04 -9.103997e+03
-2.174487e+05 -8.908379e+04 -9.537480e+03
-2.255120e+05 -8.642666e+04 -6.624036e+03
-2.236002e+05 -9.355445e+04 -1.007887e+04
-2.010270e+05 -7.836007e+04 -6.755886e+03
-2.023675e+05 -8.627664e+04 -1.093851e+04
-1.949776e+05 -8.316110e+04 -1.129397e+04
-2.141761e+05 -9.467430e+04 -1.130050e+04
-2.210835e+05 -1.001611e+05 -1.227160e+04
-2.106967e+05 -1.016142e+05 -1.586087e+04
-2.028071e+05 -9.986064e+04 -1.748237e+04
-2.066462e+05 -9.360449e+04 -1.229608e+04
-1.986128e+05 -9.147672e+04 -1.440264e+04
-2.034217e+05 -9.116134e+04 -8.460866e+03
-1.553223e+05 -1.117379e+05 -3.388428e+04
-1.589250e+05 -1.013754e+05 -2.828500e+04
-1.638642e+05 -1.077538e+05 -3.042895e+04
-1.690522e+05 -1.001813e+05 -2.522841e+04
-1.591973e+05 -1.175747e+05 -3.452729e+04
-1.689433e+05 -1.137874e+05 -3.149184e+04
-1.690893e+05 -1.228547e+05 -3.489349e+04
-1.760681e+05 -1.164198e+05 -3.178557e+04
-1.764461e+05 -1.013353e+05 -2.442629e+04
-1.714137e+05 -1.062248e+05 -2.778497e+04
-1.782981e+05 -1.096752e+05 -2.722974e+04
-1.667918e+05 -1.105643e+05 -2.464428e+04
-2.385482e+05 -9.490115e+04 -8.029955e+03
-2.468466e+05 -9.784712e+04 -6.069130e+03
-2.380974e+05 -1.024019e+05 -1.152573e+04
-2.465508e+05 -1.053862e+05 -1.119392e+04
-2.301252e+05 -9.812190e+04 -9.993258e+03
-2.491654e+05 -1.127448e+05 -1.356279e+04
-2.421018e+05 -1.083784e+05 -1.359446e+04
-2.400166e+05 -1.148675e+05 -1.737305e+04
-2.294002e+05 -1.023800e+05 -1.309703e+04
-2.355473e+05 -1.081384e+05 -1.479433e+04
-2.242069e+05 -1.117430e+05 -1.724337e+04
-2.328337e+05 -1.141939e+05 -1.918428e+04
-2.373685e+05 -1.094880e+05 -1.075697e+04
-1.820286e+05 -1.283750e+05 -3.567050e+04
-1.904234e+05 -1.318739e+05 -3.544076e+04
-1.983112e+05 -1.272167e+05 -2.871057e+04
-1.903234e+05 -1.246711e+05 -3.131004e+04
-1.821038e+05 -1.207706e+05 -3.011010e+04
-1.975202e+05 -1.379577e+05 -3.575873e+04
-2.056079e+05 -1.345734e+05 -3.291221e+04
-2.063984e+05 -1.267940e+05 -2.903219e+04
-2.148297e+05 -1.325012e+05 -2.986851e+04
-2.077209e+05 -1.093481e+05 -1.901132e+04
-2.151174e+05 -1.158170e+05 -2.160735e+04
-2.044007e+05 -1.178439e+05 -2.439597e+04
-1.991461e+05 -1.088921e+05 -2.003149e+04
-1.933994e+05 -1.174421e+05 -2.569472e+04
-1.911114e+05 -1.062851e+05 -2.192315e+04
-1.851360e+05 -1.133209e+05 -2.533265e+04
-2.125667e+05 -1.228161e+05 -2.604702e+04
-1.902349e+05 -1.267980e+05 -2.518819e+04
-2.235817e+05 -1.339118e+05 -2.930251e+04
-2.330031e+05 -1.374852e+05 -2.889731e+04
-2.226888e+05 -1.438592e+05 -3.221990e+04
-2.326844e+05 -1.451657e+05 -3.339755e+04
-2.420532e+05 -1.424125e+05 -2.736461e+04
-2.471942e+05 -1.280057e+05 -2.026822e+04
-2.429891e+05 -1.350759e+05 -2.543544e+04
-2.361753e+05 -1.295667e+05 -2.443891e+04
-2.382343e+05 -1.224530e+05 -1.996019e+04
-2.301100e+05 -1.219542e+05 -2.127521e+04
-2.285897e+05 -1.298998e+05 -2.612282e+04
-2.200333e+05 -1.256822e+05 -2.517255e+04
-2.314716e+05 -1.331964e+05 -2.097610e+04
-1.708177e+05 -7.178807e+04 -9.230941e+03
-1.723503e+05 -8.087842e+04 -1.408433e+04
-1.636543e+05 -8.042901e+04 -1.536455e+04
-1.664713e+05 -8.874044e+04 -1.669321e+04
-1.769516e+05 -8.876413e+04 -1.620884e+04
-1.722786e+05 -9.470311e+04 -1.995331e+04
-1.803933e+05 -7.204889e+04 -7.777960e+03
-1.798853e+05 -8.111122e+04 -1.280809e+04
-1.873544e+05 -7.601982e+04 -9.381388e+03
-1.878479e+05 -8.330950e+04 -1.281235e+04
-1.915568e+05 -9.048147e+04 -1.455797e+04
-1.877382e+05 -9.624549e+04 -1.932005e+04
-1.840604e+05 -8.825197e+04 -1.571196e+04
-1.798014e+05 -9.570683e+04 -1.911363e+04
-1.795095e+05 -8.926080e+04 -1.192684e+04
-9.222899e+04 -5.585035e+04 -1.884059e+04
-8.609794e+04 -5.023831e+04 -1.812444e+04
-9.269110e+04 -4.871480e+04 -1.623543e+04
-8.286786e+04 -4.510773e+04 -1.465791e+04
-9.128140e+04 -4.267899e+04 -1.342554e+04
-9.195788e+04 -3.507558e+04 -9.227138e+03
-9.859817e+04 -3.908494e+04 -9.881897e+03
-9.748793e+04 -5.039456e+04 -1.670109e+04
-9.817512e+04 -4.405064e+04 -1.347239e+04
-1.042979e+05 -4.715460e+04 -1.363468e+04
-1.060274e+05 -4.076272e+04 -1.022835e+04
-9.466793e+04 -4.754055e+04 -1.070721e+04
-1.504349e+05 -6.073649e+04 -9.200767e+03
-1.455848e+05 -6.734717e+04 -1.488140e+04
-1.442311e+05 -6.146371e+04 -1.297428e+04
-1.384668e+05 -6.640197e+04 -1.517180e+04
-1.445278e+05 -5.577539e+04 -9.657078e+03
-1.381970e+05 -5.828551e+04 -1.235822e+04
-1.192866e+05 -5.971698e+04 -1.591916e+04
-1.252953e+05 -5.885369e+04 -1.400374e+04
-1.260999e+05 -5.248456e+04 -1.255266e+04
-1.202774e+05 -5.088623e+04 -1.160395e+04
-1.128325e+05 -5.476859e+04 -1.620324e+04
-1.318577e+05 -5.504283e+04 -1.248620e+04
-1.114821e+05 -4.955466e+04 -1.236967e+04
-1.199390e+05 -4.391153e+04 -7.945818e+03
-1.257436e+05 -4.651948e+04 -9.161257e+03
-1.319563e+05 -5.042116e+04 -9.130498e+03
-2.876352e+05 -1.786527e+05 -3.898852e+04
-2.948695e+05 -1.832155e+05 -3.732604e+04
-2.783008e+05 -1.679967e+05 -3.425255e+04
-2.807681e+05 -1.735210e+05 -3.206517e+04
-2.863277e+05 -1.143329e+05 -7.086886e+03
-2.780405e+05 -1.018838e+05 -3.912965e+03
-2.795768e+05 -1.281225e+05 -1.463190e+04
-2.781302e+05 -1.258754e+05 -9.957262e+03
-2.555023e+05 -1.001492e+05 -6.594175e+03
2.928950e+05 1.491954e+05 -4.523416e+03
2.767561e+05 1.344343e+05 -7.991303e+03
2.801318e+05 1.396191e+05 -2.833340e+03
2.923784e+05 8.836278e+04 -3.517588e+04
2.887562e+05 5.684327e+04 -4.625859e+04
2.836026e+05 7.603886e+04 -3.910600e+04
2.771205e+05 7.091394e+04 -3.501365e+04
2.609393e+05 7.103214e+04 -3.478483e+04
2.882549e+05 7.791336e+04 -3.636396e+04
2.773329e+05 1.086612e+05 -2.014481e+04
-1.538287e+05 -6.499718e+04 -1.096290e+04
-1.623648e+05 -7.291048e+04 -1.255010e+04
-1.648927e+05 -9.450008e+04 -2.300304e+04
-1.611713e+05 -9.682774e+04 -1.777859e+04
-1.845521e+05 -6.552326e+04 -6.376258e+03
-1.385953e+05 -7.279582e+04 -1.878939e+04
-1.363363e+05 -1.075285e+05 -3.411067e+04
-1.513224e+05 -1.065001e+05 -3.370445e+04
-1.241988e+05 -9.012851e+04 -2.797275e+04
-1.305909e+05 -7.873592e+04 -1.697245e+04
-1.592231e+05 -1.257213e+05 -3.970559e+04
-1.320806e+05 -6.180944e+04 -1.416846e+04
-1.505932e+05 -5.387033e+04 -6.452301e+03
-1.833688e+05 -1.038888e+05 -2.201281e+04
-1.315258e+05 -9.972671e+04 -2.414661e+04
-1.097477e+05 -8.344715e+04 -2.945031e+04
-8.350598e+04 -3.725643e+04 -1.267072e+04
-7.195027e+04 -3.182332e+04 -1.217419e+04
-8.514486e+04 -5.758012e+04 -2.153425e+04
-8.484052e+04 -5.248370e+04 -1.356793e+04
-9.853119e+04 -2.961075e+04 -8.086816e+03
-5.427863e+04 -4.423203e+04 -2.204968e+04
-6.098436e+04 -4.398938e+04 -1.332118e+04
-7.529578e+04 -1.619786e+04 -5.424209e+03
-5.073737e+04 -5.846411e+04 -2.889261e+04
-6.456414e+04 -7.993839e+04 -3.646042e+04
-8.221206e+04 -6.922756e+04 -2.891853e+04
-3.158381e+04 -6.541198e+04 -3.818694e+04
-3.295614e+04 -3.513066e+04 -2.379602e+04
-1.052655e+05 -5.219109e+04 -1.641128e+04
-9.723735e+04 -5.533590e+04 -1.400481e+04
-9.787113e+04 -8.726491e+04 -3.484941e+04
-1.801106e+05 -5.587741e+04 -1.818727e+03
-1.588086e+05 -4.885756e+04 -2.628729e+03
-1.945336e+05 -7.610876e+04 -8.606900e+03
-1.380804e+05 -5.321437e+04 -9.831189e+03
-1.525287e+05 -4.007529e+04 -1.165669e+03
-5.643528e+04 -3.311760e+03 -3.446557e+03
-9.133854e+04 -1.496804e+04 -1.411661e+03
-1.116588e+05 -4.357428e+04 -1.004781e+04
-1.040441e+05 -4.131621e+04 -6.782880e+03
-1.029708e+05 -2.122370e+04 -3.133186e+03
-1.226264e+05 -2.788393e+04 -1.215941e+03
-1.070135e+05 -2.938069e+04 -2.201384e+03
-2.861658e+05 -1.481762e+05 -2.125486e+04
-2.926765e+05 -1.544624e+05 -1.740016e+04
-2.787443e+05 -1.430813e+05 -1.428194e+04
-2.537455e+05 -1.680583e+05 -3.895079e+04
-2.684743e+05 -1.698024e+05 -3.148732e+04
-2.555742e+05 -1.297073e+05 -1.979373e+04
-2.664117e+05 -1.316209e+05 -1.214781e+04
2.845652e+05 1.215655e+05 -1.583675e+04
2.602956e+05 1.365530e+05 -3.562394e+03
2.587087e+05 1.088772e+05 -1.564778e+04
-2.467326e+05 -8.876627e+04 -4.251690e+03
-2.469824e+05 -1.109312e+05 -9.374904e+03
-2.458219e+05 -1.198399e+05 -1.840812e+04
-2.313714e+05 -9.177015e+04 -7.191655e+03
-2.147268e+05 -7.330471e+04 -3.280507e+03
-2.270096e+05 -8.493618e+04 -2.832611e+03
-2.165115e+05 -1.074150e+05 -1.730257e+04
-2.274786e+05 -1.050659e+05 -9.673434e+03
-1.949544e+05 -9.926185e+04 -1.730466e+04
-1.891136e+05 -8.774688e+04 -1.022395e+04
-1.310243e+05 -3.456818e+04 -2.876485e+03
-1.358486e+05 -4.148877e+04 -2.184442e+03
-1.240525e+05 -3.954769e+04 -6.395689e+03
-3.586480e+04 -2.763505e+03 -7.204345e+03
-4.246221e+04 -8.570608e+03 -4.703745e+03
-2.611000e+04 8.394331e+03 -3.375036e+03
-3.601138e+03 1.055927e+04 -8.019237e+03
-2.694978e+04 -2.392788e+04 -1.661431e+04
6.833358e+03 2.254551e+04 -4.193512e+03
2.776462e+04 2.503214e+04 -7.762227e+03
5.909619e+03 -9.174614e+03 -1.800804e+04
-4.294950e+02 -4.024216e+03 -9.991013e+03
3.830820e+04 3.633427e+04 -4.233431e+03
3.781920e+04 4.286137e+03 -1.797880e+04
3.006287e+04 1.422169e+04 -8.378926e+03
5.987493e+04 3.882237e+04 -7.661295e+03
7.007647e+04 5.081767e+04 -4.208096e+03
8.062536e+04 5.222328e+04 -2.942012e+03
9.050018e+04 5.367240e+04 -7.071968e+03
6.823507e+04 2.959689e+04 -8.325626e+03
6.961903e+04 1.873106e+04 -1.756132e+04
1.001613e+05 6.600311e+04 -4.173020e+03
1.241153e+05 6.672967e+04 -6.515823e+03
1.013305e+05 3.292168e+04 -1.837961e+04
1.007629e+05 3.808566e+04 -9.573731e+03
1.334250e+05 7.933773e+04 -4.151338e+03
1.437661e+05 8.065598e+04 -2.904415e+03
1.534165e+05 8.180653e+04 -7.061657e+03
1.323750e+05 4.655876e+04 -1.755541e+04
1.650386e+05 9.229238e+04 -4.641552e+03
1.755229e+05 9.341503e+04 -2.940788e+03
1.858251e+05 9.574509e+04 -6.901348e+03
1.638473e+05 8.740138e+04 -2.907196e+03
1.642657e+05 6.121328e+04 -1.853592e+04
1.633820e+05 6.668420e+04 -9.754849e+03
1.949347e+05 1.083490e+05 -4.121928e+03
1.937278e+05 8.481472e+04 -8.610279e+03
1.953452e+05 7.454676e+04 -1.781642e+04
2.177786e+05 1.092962e+05 -7.090218e+03
2.268535e+05 1.221001e+05 -4.188314e+03
2.517205e+05 1.222721e+05 -7.292845e+03
2.275481e+05 9.468580e+04 -1.562139e+04
2.516338e+05 5.964999e+04 -3.865779e+04
2.471492e+05 9.285462e+04 -2.193948e+04
2.503069e+05 8.304745e+04 -1.920440e+04
2.290770e+05 5.646453e+04 -3.470357e+04
2.198729e+05 4.552450e+04 -3.971369e+04
2.187688e+05 7.680865e+04 -2.338717e+04
2.235693e+05 6.167244e+04 -2.480340e+04
2.244561e+05 3.006049e+04 -4.610078e+04
1.987920e+05 4.527795e+04 -3.442133e+04
1.903032e+05 3.221454e+04 -3.929769e+04
1.874914e+05 6.432424e+04 -2.300176e+04
1.936790e+05 1.592299e+04 -4.588877e+04
1.685602e+05 3.231092e+04 -3.453716e+04
1.553253e+05 1.471357e+04 -4.079802e+04
1.390921e+05 1.671533e+04 -3.534612e+04
1.553257e+05 5.021519e+04 -2.089743e+04
1.376873e+05 3.926853e+03 -3.341405e+04
1.252474e+05 3.907044e+02 -3.942342e+04
1.246484e+05 3.617476e+04 -2.292459e+04
1.274418e+05 -1.343061e+04 -4.547652e+04
1.074902e+05 2.348872e+03 -3.566413e+04
1.054209e+05 -1.072509e+04 -3.397823e+04
9.336894e+04 -1.392649e+04 -3.952723e+04
9.397355e+04 2.180435e+04 -2.250924e+04
7.590282e+04 -1.187314e+04 -3.587550e+04
7.382730e+04 -2.490089e+04 -3.493823e+04
6.262816e+04 -2.866195e+04 -4.054309e+04
6.223249e+04 7.286669e+03 -2.251689e+04
5.158404e+04 -3.479720e+04 -3.481138e+04
3.730695e+04 -2.732759e+04 -3.299156e+04
2.774724e+04 -4.045414e+04 -3.820268e+04
2.957933e+04 -5.941597e+03 -2.280718e+04
1.193360e+04 -3.879375e+04 -3.440934e+04
1.138910e+04 -5.155558e+04 -3.457956e+04
1.952438e+02 -5.617574e+04 -4.027287e+04
-1.448424e+03 -2.023960e+04 -2.264646e+04
-2.275001e+04 -5.495864e+04 -3.537524e+04
-9.824423e+03 -5.717689e+04 -3.240375e+04
-2.390895e+04 -4.481559e+04 -2.259748e+04
-1.128870e+05 -6.186421e+04 -1.795811e+04
-1.771302e+05 -1.240755e+05 -3.592091e+04
-1.781907e+05 -1.361163e+05 -3.514651e+04
-1.901375e+05 -1.396184e+05 -3.953499e+04
-1.997901e+05 -1.461554e+05 -3.419097e+04
-2.136928e+05 -1.397679e+05 -3.383659e+04
-2.235161e+05 -1.510329e+05 -3.860999e+04
-2.229581e+05 -1.181306e+05 -2.292370e+04
-2.202282e+05 -1.330125e+05 -2.320794e+04
-2.400699e+05 -1.493642e+05 -3.194588e+04
-2.414457e+05 -1.623605e+05 -3.279717e+04
-2.522099e+05 -1.740949e+05 -3.597289e+04
-2.431062e+05 -1.377889e+05 -2.011843e+04
-1.141922e+05 -4.424056e+04 -6.260977e+03
-2.466929e+05 -1.233310e+05 -1.418003e+04
1.488006e+05 4.348673e+04 -1.554349e+04
1.598709e+05 4.975958e+04 -1.533538e+04
-3.341388e+05 2.564093e+04 -8.227186e+04
-3.667056e+05 3.907194e+04 -8.004233e+04
-3.530941e+05 1.280604e+04 -7.481803e+04
-3.493110e+05 5.114256e+04 -6.739683e+04
-3.539819e+05 8.151274e+04 -7.288184e+04
-3.412989e+05 6.492339e+04 -9.643316e+04
-3.212965e+05 5.792288e+04 -7.558431e+04
7.590404e+04 -3.337728e+05 -1.144597e+05
9.040226e+04 -3.494598e+05 -1.408225e+05
1.046048e+05 -3.259536e+05 -1.366260e+05
1.042419e+05 -3.520940e+05 -1.207785e+05
1.062773e+05 -3.717853e+05 -9.235972e+04
1.023186e+05 -3.833297e+05 -1.087319e+05
8.271869e+04 -3.723975e+05 -1.221108e+05
7.896055e+04 -3.482451e+05 -9.590900e+04
1.227850e+05 -3.567303e+05 -1.393138e+05
1.272733e+05 -3.220524e+05 -1.344329e+05
1.370776e+05 -3.361677e+05 -1.143125e+05
1.101500e+05 -3.818110e+05 -1.359921e+05
1.290453e+05 -3.647187e+05 -1.089023e+05
-4.000000e+05 1.742320e+04 -9.927559e+04
-3.737244e+05 1.424868e+04 -1.042235e+05
-3.750197e+05 4.315852e+04 -1.039103e+05
-4.000000e+05 3.481145e+04 -7.886354e+04
-3.800879e+05 6.535091e+04 -8.386412e+04
-3.403895e+05 1.074401e+05 -1.125813e+05
-3.533489e+05 9.584199e+04 -9.309787e+04
-3.238404e+05 1.033238e+05 -7.258147e+04
-3.480529e+05 1.309430e+05 -9.342338e+04
-3.234200e+05 1.188187e+05 -1.034093e+05
-4.000000e+05 8.698509e+04 -9.927827e+04
-4.000000e+05 1.043478e+05 -1.280850e+05
-4.000000e+05 1.217663e+05 -9.927598e+04
-3.755403e+05 1.148484e+05 -1.131170e+05
-3.783900e+05 1.485984e+05 -8.283396e+04
-3.547571e+05 1.623943e+05 -9.881063e+04
-3.557957e+05 1.531919e+05 -7.208140e+04
-3.222581e+05 1.374025e+05 -7.419343e+04
-3.404138e+05 1.385027e+05 -1.110586e+05
3.000000e+05 -1.132552e+05 -8.357752e+04
3.000000e+05 -7.930021e+04 -8.358651e+04
3.274908e+05 -7.829351e+04 -7.735422e+04
2.936400e+05 -3.793458e+05 -7.765646e+04
2.699243e+05 -3.515312e+05 -7.534882e+04
3.045935e+05 -3.579859e+05 -8.418688e+04
3.109766e+05 -3.364616e+05 -7.435601e+04
3.338454e+05 -3.558050e+05 -7.301842e+04
2.928836e+05 -3.655048e+05 -1.066323e+05
3.277621e+05 -3.757798e+05 -8.509764e+04
2.814252e+05 -3.263403e+05 -9.482346e+04
3.431255e+05 2.772280e+05 -1.185999e+05
3.245083e+05 2.496245e+05 -1.075998e+05
3.204661e+05 2.647775e+05 -1.375275e+05
3.581654e+05 2.527641e+05 -1.087124e+05
3.562283e+05 2.575043e+05 -1.384346e+05
3.611554e+05 2.872715e+05 -1.358438e+05
3.788434e+05 2.606907e+05 -1.239637e+05
3.775102e+05 2.257422e+05 -1.381498e+05
3.813434e+05 2.384238e+05 -1.042346e+05
-1.163554e+05 1.388634e+05 -1.200000e+05
-8.333333e+04 1.380126e+05 -1.200000e+05
-1.023403e+05 1.228602e+05 -1.405136e+05
-1.149398e+05 1.560297e+05 -1.385731e+05
-3.045569e+05 3.768147e+05 -1.110781e+05
-2.803501e+05 3.583052e+05 -1.063451e+05
-2.727748e+05 3.685000e+05 -1.254354e+05
-2.771567e+05 3.823103e+05 -9.408175e+04
-2.782569e+05 4.000000e+05 -7.878860e+04
-2.938606e+05 3.781098e+05 -7.799845e+04
-2.945883e+05 4.000000e+05 -9.902611e+04
-2.782176e+05 4.000000e+05 -1.283450e+05
-2.607573e+05 4.000000e+05 -9.928420e+04
3.702780e+05 -2.749910e+04 -8.841303e+04
3.709600e+05 -5.354659e+04 -1.067024e+05
3.602761e+05 -3.193351e+04 -1.285488e+05
3.813107e+05 -1.358329e+04 -1.137461e+05
4.000000e+05 -5.220474e+04 -9.927827e+04
4.000000e+05 -1.742320e+04 -9.927559e+04
-6.956522e+04 2.395442e+05 -1.600000e+05
-9.533602e+04 2.561800e+05 -1.415132e+05
-7.475226e+04 2.204091e+05 -1.395019e+05
-6.382278e+04 2.557554e+05 -1.406845e+05
3.746308e+05 2.422632e+04 -1.122574e+05
3.677722e+05 -3.355109e+03 -9.478067e+04
3.690448e+05 -4.943007e+03 -1.358184e+05
4.000000e+05 1.739649e+04 -9.927617e+04
-4.000000e+05 -3.304348e+05 -1.600000e+05
-3.623088e+05 -3.273270e+05 -1.403155e+05
-3.681566e+05 -3.130435e+05 -1.600000e+05
-3.760508e+05 -3.217442e+05 -1.267819e+05
3.775219e+05 -1.186470e+05 -1.139664e+05
3.521935e+05 -1.319206e+05 -9.616733e+04
3.809033e+05 -1.202540e+05 -8.414172e+04
3.556304e+05 -9.885056e+04 -9.787918e+04
3.534400e+05 -1.459449e+05 -6.928615e+04
3.520186e+05 -1.189443e+05 -7.124974e+04
3.303124e+05 -1.254666e+05 -9.237750e+04
3.496054e+05 -9.225588e+04 -7.189501e+04
-5.471991e+04 3.284938e+05 -9.071215e+04
-5.660514e+04 3.507757e+05 -7.546367e+04
-3.359639e+04 3.263311e+05 -7.100303e+04
-2.460869e+04 3.538581e+05 -7.590474e+04
-4.609231e+04 3.704601e+05 -1.074821e+05
-4.710501e+04 3.802584e+05 -8.371835e+04
-7.864774e+03 3.658365e+05 -1.087372e+05
-2.199056e+04 3.301055e+05 -9.632152e+04
-6.055654e+01 3.394853e+05 -7.316881e+04
-1.673804e+04 3.793506e+05 -8.059419e+04
-1.762330e+05 -3.342690e+05 -1.149119e+05
-1.917158e+05 -3.163047e+05 -1.393024e+05
-1.660139e+05 -3.195823e+05 -1.381908e+05
-1.896773e+05 -3.529697e+05 -1.396979e+05
-1.739130e+05 -3.681566e+05 -1.600000e+05
-2.086957e+05 -3.681566e+05 -1.600000e+05
-1.898515e+05 -3.719356e+05 -1.296368e+05
-1.913043e+05 -3.362016e+05 -1.600000e+05
-2.250667e+05 -3.583771e+05 -1.398106e+05
-1.881623e+05 -3.681907e+05 -1.075486e+05
-2.063864e+05 -3.420682e+05 -1.241786e+05
-2.075055e+05 -3.686153e+05 -1.291122e+05
6.956522e+04 -3.681566e+05 -1.600000e+05
1.043478e+05 -3.681566e+05 -1.600000e+05
1.217391e+05 -4.000000e+05 -1.600000e+05
8.695652e+04 -4.000000e+05 -1.600000e+05
-3.303957e+05 -4.434418e+04 -1.114753e+05
-3.444185e+05 -5.146976e+04 -9.740293e+04
-3.675572e+05 -3.964373e+04 -9.787116e+04
-3.614134e+05 -5.460655e+04 -1.304350e+05
-3.089821e+05 -3.281249e+05 -7.338010e+04
-2.725804e+05 -3.503006e+05 -7.283334e+04
-3.120481e+05 -3.525773e+05 -8.589394e+04
-2.984802e+05 -3.356507e+05 -1.088096e+05
-3.190022e+05 -3.216923e+05 -1.040063e+05
-3.200418e+05 -3.500556e+05 -1.125919e+05
-3.212803e+05 -3.785594e+05 -9.110508e+04
-3.513059e+05 -3.519423e+05 -1.068557e+05
-3.395469e+05 -3.284215e+05 -8.389988e+04
-3.312709e+05 -3.508983e+05 -7.453722e+04
-1.398440e+05 8.944303e+04 -1.600000e+05
-1.402315e+05 5.217391e+04 -1.600000e+05
-1.049093e+05 7.202634e+04 -1.600000e+05
-1.203890e+05 5.782671e+04 -1.392568e+05
1.760294e+05 -3.267193e+05 -1.043321e+05
1.442875e+05 -3.302458e+05 -7.882335e+04
1.341194e+05 -3.214957e+05 -8.850150e+04
-3.229808e+05 1.535477e+05 -1.016232e+05
-3.000000e+05 1.666667e+05 -1.200000e+05
-3.172961e+05 1.921060e+05 -1.053001e+05
-3.421251e+05 1.765741e+05 -1.146765e+05
-3.000000e+05 1.333333e+05 -1.200000e+05
-3.192469e+05 1.626624e+05 -1.382210e+05
-1.833382e+05 -3.000000e+05 -8.603968e+04
-2.108917e+05 -3.387415e+05 -9.489681e+04
-1.762687e+05 -3.432383e+05 -7.438007e+04
-1.928429e+05 -3.166995e+05 -7.012550e+04
-2.168930e+05 -3.000000e+05 -8.327552e+04
-2.440147e+05 -3.355623e+05 -9.390731e+04
-1.383437e+05 3.308029e+05 -1.100971e+05
-1.039092e+05 3.265653e+05 -1.019817e+05
-1.095865e+05 3.287667e+05 -8.170973e+04
-1.240026e+05 3.124550e+05 -1.009283e+05
3.215564e+05 -2.373438e+04 -6.853587e+04
3.000000e+05 -1.148347e+04 -8.361060e+04
3.506732e+05 -3.047152e+04 -7.301808e+04
3.313953e+05 -3.972192e+04 -9.073268e+04
3.000000e+05 -4.532930e+04 -8.359831e+04
3.193489e+05 -5.801588e+04 -9.208351e+04
2.270076e+05 2.729557e+05 -1.600000e+05
1.942726e+05 2.522901e+05 -1.392916e+05
2.091380e+05 2.390844e+05 -1.600000e+05
2.333609e+05 2.558656e+05 -1.424160e+05
-3.369378e+05 -2.096157e+05 -8.180000e+04
-3.509013e+05 -1.876827e+05 -7.940496e+04
-3.198897e+05 -1.853826e+05 -7.073183e+04
-3.000000e+05 -2.150717e+05 -8.612403e+04
-3.243112e+05 -1.965185e+05 -9.700915e+04
3.514617e+05 -3.359393e+05 -7.301943e+04
3.532977e+05 -3.262610e+05 -9.863928e+04
3.274583e+05 -3.022963e+05 -7.470439e+04
3.517930e+05 -3.028616e+05 -7.311503e+04
3.315473e+05 -2.993444e+05 -1.090839e+05
3.471541e+05 -2.674803e+05 -7.316281e+04
3.477286e+05 -2.791356e+05 -9.374954e+04
3.785186e+05 -2.949543e+05 -7.224349e+04
-3.708643e+05 1.482920e+05 -1.134412e+05
-3.582850e+05 1.563135e+05 -1.381212e+05
-1.378368e+05 8.355785e+04 -1.200000e+05
-1.559706e+05 7.759752e+04 -1.387612e+05
-1.232593e+05 9.958164e+04 -1.386536e+05
-1.405259e+05 4.000000e+05 -1.298366e+05
-1.289609e+05 3.627909e+05 -1.100422e+05
-1.525533e+05 3.596109e+05 -1.378606e+05
-1.165350e+05 3.768530e+05 -1.247017e+05
-8.674306e+04 4.000000e+05 -1.107005e+05
-7.879910e+04 3.679582e+05 -1.112727e+05
-1.044485e+05 3.723968e+05 -9.553540e+04
-8.695652e+04 4.000000e+05 -1.600000e+05
-1.043457e+05 4.000000e+05 -1.313395e+05
-1.043478e+05 3.681566e+05 -1.600000e+05
-8.726732e+04 3.606497e+05 -1.395029e+05
1.748484e+05 2.384997e+05 -1.600000e+05
1.851880e+05 2.190570e+05 -1.406938e+05
-1.151815e+05 3.549788e+05 -1.282008e+05
-1.218925e+05 4.000000e+05 -1.107028e+05
-3.787295e+05 1.807886e+05 -1.127811e+05
-3.520859e+05 1.983443e+05 -9.928831e+04
-3.798809e+05 1.874889e+05 -8.422150e+04
-3.260428e+05 1.730976e+05 -8.315845e+04
-3.301411e+05 -3.781628e+05 -1.265926e+05
-3.764501e+05 -3.750861e+05 -1.338206e+05
-3.483331e+05 -3.758072e+05 -9.850281e+04
-1.387996e+05 1.191100e+05 -1.200000e+05
-1.346767e+05 1.346077e+05 -1.600000e+05
-2.666667e+05 3.000000e+05 -1.200000e+05
-2.929745e+05 3.278980e+05 -1.039849e+05
-2.526831e+05 3.000000e+05 -8.595526e+04
-2.546616e+05 3.374722e+05 -9.271075e+04
-4.000000e+05 -3.680273e+05 -1.051488e+05
-3.701072e+05 -3.677545e+05 -7.863674e+04
-3.680197e+05 -4.000000e+05 -1.051716e+05
1.076749e+04 -3.685738e+05 -1.060918e+05
4.255183e+04 -3.714099e+05 -1.068300e+05
2.899544e+04 -3.492243e+05 -7.207938e+04
1.743523e+04 -3.778675e+05 -7.597812e+04
5.007608e+04 -3.798337e+05 -8.233351e+04
2.000060e+05 2.356097e+05 -1.200000e+05
1.980870e+05 1.978571e+05 -1.200000e+05
1.678503e+05 2.343986e+05 -1.200000e+05
5.197702e+01 -3.287631e+05 -7.435279e+04
-2.655909e+01 -4.000000e+05 -7.886343e+04
1.739649e+04 -4.000000e+05 -9.927617e+04
-3.799683e+05 1.202217e+05 -8.441357e+04
-3.550522e+05 1.169575e+05 -7.366913e+04
-3.795459e+05 9.557837e+04 -8.487657e+04
-3.240072e+05 8.499528e+04 -1.050587e+05
-3.712678e+05 8.231320e+04 -1.101459e+05
-3.564025e+05 2.058553e+05 -6.673998e+04
3.502330e+05 -4.000000e+05 -1.288831e+05
3.291802e+05 -3.794961e+05 -1.290640e+05
3.243637e+05 -4.000000e+05 -1.049024e+05
3.535351e+05 -3.733314e+05 -1.082499e+05
4.000000e+05 -3.680197e+05 -1.051716e+05
3.798330e+05 -3.460289e+05 -9.900801e+04
3.608265e+05 -3.514935e+05 -1.236441e+05
3.609164e+05 -3.530763e+05 -7.997330e+04
3.311737e+05 -3.585054e+05 -1.099914e+05
3.343289e+05 -3.565347e+05 -1.371108e+05
3.722926e+05 -3.723870e+05 -1.334391e+05
1.833333e+05 2.678710e+05 -1.200000e+05
1.500000e+05 2.678710e+05 -1.200000e+05
1.808808e+05 2.875283e+05 -1.405176e+05
1.608518e+05 2.525032e+05 -1.404517e+05
4.000000e+05 2.434429e+05 -7.886194e+04
3.785193e+05 2.627594e+05 -7.758894e+04
4.000000e+05 2.607573e+05 -9.928420e+04
3.615355e+05 2.178521e+05 -1.011317e+05
3.573871e+05 2.398432e+05 -8.508132e+04
3.813154e+05 2.226700e+05 -8.166393e+04
-8.949834e+04 1.398020e+05 -1.600000e+05
-1.093100e+05 1.090522e+05 -1.600000e+05
-7.194872e+04 1.050311e+05 -1.600000e+05
4.000000e+05 2.434783e+05 -1.280850e+05
1.062500e+05 -3.301584e+05 -1.058184e+05
1.147641e+05 -3.388882e+05 -8.770154e+04
8.340940e+04 -3.000000e+05 -8.329152e+04
6.919787e+04 -3.264191e+05 -7.176189e+04
5.633544e+04 -3.287309e+05 -8.984890e+04
3.681566e+05 -1.043478e+05 -1.600000e+05
3.555367e+05 -1.267585e+05 -1.375712e+05
3.640905e+05 -8.557395e+04 -1.371035e+05
3.280674e+05 -1.037829e+05 -1.374208e+05
3.362016e+05 -1.217391e+05 -1.600000e+05
3.041301e+05 -1.043478e+05 -1.600000e+05
3.247182e+05 -1.373176e+05 -1.384248e+05
3.362016e+05 -8.695652e+04 -1.600000e+05
-7.756879e+04 3.386264e+05 -9.352008e+04
-8.051801e+04 3.778494e+05 -8.694469e+04
-8.586274e+04 3.556735e+05 -7.272505e+04
-5.255098e+04 4.000000e+05 -9.946212e+04
-1.043478e+05 4.000000e+05 -8.191444e+04
2.978034e+05 3.379508e+05 -1.089699e+05
3.263608e+05 3.537693e+05 -1.371938e+05
2.915876e+05 3.598025e+05 -1.365890e+05
3.270008e+05 3.579631e+05 -1.104777e+05
2.922097e+05 3.766513e+05 -1.117259e+05
3.276035e+05 3.780433e+05 -1.271110e+05
-3.666473e+05 -2.511135e+05 -1.003011e+05
-3.821239e+05 -2.769186e+05 -9.663716e+04
-3.662967e+05 -2.712300e+05 -1.249490e+05
-3.597704e+05 -2.689182e+05 -9.360834e+04
-3.000000e+05 -1.079904e+05 -8.381692e+04
-3.000000e+05 -7.997200e+04 -8.619990e+04
-3.000000e+05 -1.000000e+05 -1.200000e+05
-3.290457e+05 -7.122324e+04 -9.708520e+04
-3.381770e+05 -2.934302e+05 -1.079475e+05
-3.774555e+05 -2.955500e+05 -1.175914e+05
1.666667e+05 3.000000e+05 -1.200000e+05
-3.294087e+05 -2.765577e+05 -1.208430e+05
-3.295211e+05 -2.615007e+05 -9.357377e+04
-1.891464e+05 3.802059e+05 -8.419331e+04
-1.563047e+05 3.786883e+05 -7.082963e+04
-1.818534e+05 3.548570e+05 -7.297487e+04
-1.543488e+05 3.569033e+05 -7.104189e+04
-1.506206e+05 3.290934e+05 -9.351332e+04
-1.954181e+05 3.282329e+05 -8.694853e+04
-2.086109e+05 3.534692e+05 -7.858256e+04
-3.357190e+05 -9.527970e+04 -8.917356e+04
-3.638850e+05 -1.160646e+05 -9.889427e+04
-3.708667e+05 -8.823477e+04 -9.848397e+04
-3.348099e+05 -1.084607e+05 -1.057005e+05
3.561537e+05 2.223696e+05 -7.226579e+04
3.324642e+05 2.224786e+05 -9.328193e+04
3.313172e+05 2.364118e+05 -7.130302e+04
1.391304e+05 2.395442e+05 -1.600000e+05
1.217391e+05 2.068996e+05 -1.600000e+05
1.580089e+05 2.069782e+05 -1.600000e+05
1.439407e+05 2.202913e+05 -1.399933e+05
-3.698177e+05 2.202227e+05 -1.102264e+05
-3.319382e+05 2.246704e+05 -8.569668e+04
-3.766542e+05 2.172327e+05 -8.510883e+04
-3.543959e+05 2.380375e+05 -7.968660e+04
-3.257011e+05 2.144203e+05 -1.129925e+05
-3.576698e+05 1.907268e+05 -1.378665e+05
3.000000e+05 3.000000e+05 -8.447793e+04
3.254320e+05 2.766150e+05 -8.759455e+04
3.287632e+05 3.070558e+05 -1.097909e+05
3.475197e+05 2.997044e+05 -8.332525e+04
3.000000e+05 3.000000e+05 -1.200000e+05
3.000000e+05 2.666667e+05 -1.200000e+05
3.271738e+05 3.163139e+05 -7.249922e+04
1.356993e+05 3.432184e+05 -7.333829e+04
1.492615e+05 3.796175e+05 -8.345307e+04
1.434782e+05 3.634767e+05 -1.048534e+05
1.702351e+05 3.565956e+05 -8.609425e+04
1.782547e+05 3.331680e+05 -1.115251e+05
1.962041e+05 3.323180e+05 -8.993129e+04
1.811044e+05 3.699402e+05 -1.037112e+05
1.872281e+05 3.793328e+05 -8.111610e+04
1.898586e+05 3.548601e+05 -7.332346e+04
-3.000000e+05 3.000000e+05 -8.477016e+04
-3.282169e+05 3.096733e+05 -7.413200e+04
3.505272e+05 4.000000e+05 -8.132527e+04
4.000000e+05 4.000000e+05 -8.686567e+04
3.720513e+05 3.712938e+05 -7.914049e+04
-3.344744e+05 3.362564e+05 -8.392459e+04
-3.559350e+05 3.207378e+05 -1.064217e+05
-3.256661e+05 3.182586e+05 -1.084444e+05
-3.050270e+05 3.490506e+05 -7.219476e+04
-1.391304e+05 -2.395442e+05 -1.600000e+05
-1.749066e+05 -2.384977e+05 -1.600000e+05
-1.620126e+05 -2.533392e+05 -1.409474e+05
-1.435330e+05 -2.200255e+05 -1.400964e+05
-1.333333e+05 -2.356282e+05 -1.200000e+05
-1.296239e+05 -2.548942e+05 -1.403221e+05
-1.581117e+05 -2.067848e+05 -1.600000e+05
-1.641289e+05 -1.881903e+05 -1.398096e+05
-1.860642e+05 -2.206214e+05 -1.406176e+05
-1.677958e+05 -2.344463e+05 -1.200000e+05
-2.228879e+05 -3.672488e+05 -1.114918e+05
-1.996310e+05 -3.753570e+05 -7.985720e+04
-2.272053e+05 -3.719416e+05 -7.958977e+04
-2.100158e+05 -3.828764e+05 -1.008271e+05
-2.086686e+05 -4.000000e+05 -7.886305e+04
-2.261070e+05 -4.000000e+05 -9.928569e+04
-1.913303e+05 -4.000000e+05 -9.927549e+04
-2.333333e+05 -3.000000e+05 -1.200000e+05
-2.349723e+05 -3.192292e+05 -1.383811e+05
-2.086957e+05 -3.041301e+05 -1.600000e+05
-1.795847e+05 -2.865200e+05 -1.406450e+05
-2.085291e+05 -2.823477e+05 -1.396807e+05
-2.000000e+05 -3.000000e+05 -1.200000e+05
-1.666667e+05 -3.000000e+05 -1.200000e+05
2.833104e+05 3.526715e+05 -7.332917e+04
3.042821e+05 3.378425e+05 -7.801239e+04
2.765905e+05 3.219558e+05 -8.543112e+04
2.699739e+05 3.499211e+05 -9.558762e+04
-5.000000e+04 1.380126e+05 -1.200000e+05
-4.501050e+04 1.579575e+05 -1.407262e+05
-1.735598e+04 1.298668e+05 -1.400506e+05
-6.837447e+04 1.267808e+05 -1.397621e+05
4.000000e+05 -1.391011e+05 -7.886349e+04
3.723473e+05 -1.555865e+05 -7.831524e+04
-7.887679e+04 1.562738e+05 -1.400031e+05
-6.896416e+04 1.033511e+05 -1.200000e+05
-2.380535e+05 -3.360998e+05 -1.160614e+05
-2.209814e+05 -3.214284e+05 -1.020184e+05
2.395442e+05 -1.043478e+05 -1.600000e+05
2.212546e+05 -1.105057e+05 -1.398087e+05
2.537705e+05 -9.229529e+04 -1.407240e+05
2.221525e+05 -7.816634e+04 -1.402411e+05
2.068996e+05 -1.217391e+05 -1.600000e+05
1.870636e+05 -9.142906e+04 -1.389791e+05
1.721038e+05 -1.057896e+05 -1.600000e+05
1.889486e+05 -1.303201e+05 -1.399050e+05
3.806351e+05 -8.462439e+04 -8.387554e+04
3.472585e+05 -6.178227e+04 -7.816919e+04
2.068996e+05 -8.695652e+04 -1.600000e+05
1.738276e+05 -6.956522e+04 -1.600000e+05
3.787980e+05 -5.213195e+04 -7.280995e+04
-3.140961e+05 -4.000000e+05 -7.845318e+04
-2.946250e+05 -4.000000e+05 -9.901240e+04
-2.959946e+05 -3.791697e+05 -8.233253e+04
-2.783777e+05 -4.000000e+05 -7.878626e+04
-2.672573e+05 -3.800996e+05 -8.637079e+04
3.323527e+05 3.280949e+05 -9.277541e+04
3.331264e+05 3.497539e+05 -7.739036e+04
3.645834e+05 3.505442e+05 -1.078514e+05
3.328939e+05 -1.667507e+05 -8.674222e+04
3.000000e+05 -1.472095e+05 -8.357005e+04
3.497026e+05 3.689762e+05 -1.304033e+05
-3.362016e+05 -2.608696e+05 -1.600000e+05
-3.039924e+05 -2.775377e+05 -1.600000e+05
-3.035529e+05 -2.439984e+05 -1.600000e+05
-3.163362e+05 -2.614791e+05 -1.389361e+05
3.262578e+05 3.787252e+05 -8.672984e+04
3.469428e+05 3.755770e+05 -1.061601e+05
-3.593271e+04 3.331281e+05 -1.155525e+05
-1.166667e+05 -2.678710e+05 -1.200000e+05
-1.000000e+05 -2.356282e+05 -1.200000e+05
-6.785710e+04 3.358941e+05 -7.172171e+04
2.032595e+05 5.000000e+04 -1.200000e+05
2.232034e+05 7.951566e+04 -1.397213e+05
2.233190e+05 4.706524e+04 -1.408580e+05
1.905129e+05 6.309421e+04 -1.405858e+05
2.068996e+05 8.695652e+04 -1.600000e+05
1.878933e+05 9.439470e+04 -1.397216e+05
1.738276e+05 6.956522e+04 -1.600000e+05
2.068996e+05 5.217391e+04 -1.600000e+05
1.738276e+05 3.478261e+04 -1.600000e+05
1.836253e+05 2.419331e+04 -1.410810e+05
-2.992655e+05 3.249468e+05 -1.332438e+05
-3.398621e+05 3.390967e+05 -1.089212e+05
-3.222929e+05 3.563342e+05 -1.100655e+05
-3.312037e+05 3.547830e+05 -1.364314e+05
-3.527273e+05 3.767041e+05 -1.082723e+05
-3.723532e+05 3.718054e+05 -1.336968e+05
-3.540388e+05 3.586125e+05 -8.786143e+04
-3.767612e+05 3.487046e+05 -1.099469e+05
2.549990e+05 -3.615251e+05 -1.068395e+05
2.699412e+05 -3.634161e+05 -1.288986e+05
2.768203e+05 -3.824774e+05 -9.512908e+04
2.782176e+05 -4.000000e+05 -1.283450e+05
-3.631394e+05 -4.711432e+04 -7.086801e+04
2.607573e+05 -4.000000e+05 -9.928420e+04
2.782569e+05 -4.000000e+05 -7.878860e+04
2.579962e+05 -3.793488e+05 -8.447198e+04
2.945883e+05 -4.000000e+05 -9.902611e+04
1.043457e+05 -4.000000e+05 -1.313395e+05
1.218925e+05 -4.000000e+05 -1.107028e+05
1.043478e+05 -4.000000e+05 -8.191444e+04
7.151458e+04 -3.800798e+05 -9.860675e+04
6.817304e+04 -4.000000e+05 -1.298395e+05
8.674306e+04 -4.000000e+05 -1.107005e+05
-2.761556e+05 -3.261682e+05 -8.988170e+04
-2.788932e+05 -3.526979e+05 -9.704945e+04
-3.363066e+05 -3.098910e+05 -7.433048e+04
3.251419e+05 -2.765126e+05 -8.596847e+04
3.360678e+05 2.080915e+05 -1.150845e+05
3.685513e+05 1.940603e+05 -1.370754e+05
3.362016e+05 2.260870e+05 -1.600000e+05
3.278602e+05 2.353954e+05 -1.363208e+05
3.041301e+05 2.086957e+05 -1.600000e+05
3.433464e+05 2.085870e+05 -1.392086e+05
3.362016e+05 1.913043e+05 -1.600000e+05
3.161781e+05 1.919635e+05 -1.370911e+05
3.681566e+05 2.086957e+05 -1.600000e+05
-8.333333e+04 -2.678710e+05 -1.200000e+05
-9.189294e+04 -2.524259e+05 -1.401433e+05
1.678879e+05 3.290144e+05 -7.142946e+04
2.320865e+05 3.542019e+05 -7.331743e+04
2.256257e+05 3.325744e+05 -8.669518e+04
2.241427e+05 3.789395e+05 -8.217795e+04
-2.667050e+05 3.384803e+05 -1.254327e+05
-2.567575e+05 3.213764e+05 -1.401709e+05
-2.495432e+05 2.884069e+05 -1.398345e+05
-2.782921e+05 3.040519e+05 -1.600000e+05
-2.260870e+05 3.362016e+05 -1.600000e+05
-2.267583e+05 3.147901e+05 -1.381187e+05
-2.246534e+05 3.573084e+05 -1.385102e+05
-2.440843e+05 3.311728e+05 -1.115493e+05
-2.510845e+05 3.610282e+05 -1.356187e+05
-2.440810e+05 3.035467e+05 -1.600000e+05
-3.686829e+05 -3.543778e+04 -1.212012e+05
-3.480711e+05 -2.913304e+04 -1.380967e+05
-3.341013e+05 -7.590050e+04 -1.166505e+05
-3.237456e+05 -3.742742e+04 -1.389367e+05
-3.681566e+05 -3.478261e+04 -1.600000e+05
-4.000000e+05 -3.469557e+04 -1.283199e+05
-3.362016e+05 -5.217391e+04 -1.600000e+05
-3.533285e+05 -8.954520e+04 -1.389589e+05
-3.164589e+05 -7.686886e+04 -1.430457e+05
-3.800231e+05 -6.258985e+04 -1.118455e+05
-4.000000e+05 -6.817304e+04 -1.298395e+05
-3.806323e+05 -8.714127e+04 -1.261515e+05
-1.201484e+05 -3.558831e+05 -7.401891e+04
-1.523048e+05 -3.558157e+05 -7.230390e+04
-1.335830e+05 -3.349010e+05 -7.310735e+04
-1.499762e+05 -3.000000e+05 -8.326915e+04
-1.639932e+05 -3.234492e+05 -8.964893e+04
-1.263854e+05 -3.332328e+05 -9.032530e+04
-1.166148e+05 -3.000000e+05 -8.327753e+04
-9.998724e+04 -3.242618e+05 -7.133484e+04
-3.346111e+05 -1.567166e+05 -8.373992e+04
-3.000000e+05 -1.771271e+05 -8.396113e+04
-3.682060e+05 -1.462722e+05 -1.073807e+05
-3.779889e+05 -1.535325e+05 -8.193313e+04
-3.494783e+05 -1.290365e+05 -8.621830e+04
-3.000000e+05 -1.414990e+05 -8.388101e+04
-3.211523e+05 -1.190447e+05 -7.511940e+04
-3.366207e+05 -1.390533e+05 -1.161852e+05
1.574511e+05 3.304174e+05 -9.272754e+04
1.499881e+05 3.000000e+05 -8.604035e+04
1.832863e+05 3.000000e+05 -8.327200e+04
-3.111299e+05 -3.056411e+05 -1.600000e+05
-2.783150e+05 -3.040582e+05 -1.600000e+05
-2.875071e+05 -2.882104e+05 -1.425344e+05
3.532921e+05 -3.229224e+05 -1.341708e+05
3.792462e+05 -3.285106e+05 -1.302429e+05
3.341729e+05 -3.308775e+05 -1.245851e+05
3.317230e+05 -3.379784e+05 -8.761139e+04
3.184187e+05 -3.170841e+05 -1.095771e+05
-3.710224e+05 -1.889287e+04 -7.387377e+04
-3.342650e+05 -1.899623e+04 -8.449193e+04
-3.000000e+05 -2.666667e+05 -1.200000e+05
-2.666667e+05 -3.000000e+05 -1.200000e+05
-3.000000e+05 -3.000000e+05 -1.200000e+05
-1.500199e+05 3.000000e+05 -8.329324e+04
-1.167392e+05 3.000000e+05 -8.329156e+04
-1.913043e+05 -2.719249e+05 -1.600000e+05
-1.955028e+05 -2.533827e+05 -1.401581e+05
-1.163532e+05 -2.891809e+05 -1.408800e+05
-1.333333e+05 3.000000e+05 -1.200000e+05
3.764891e+05 -2.953711e+05 -1.135458e+05
3.441759e+05 -2.710687e+05 -1.233767e+05
3.631339e+05 -2.502601e+05 -1.000750e+05
3.689637e+05 -2.665267e+05 -1.251194e+05
3.773827e+05 -2.677073e+05 -8.275623e+04
3.357970e+05 -2.577401e+05 -9.164133e+04
3.362016e+05 1.565217e+05 -1.600000e+05
3.041301e+05 1.391304e+05 -1.600000e+05
3.231262e+05 1.317401e+05 -1.395569e+05
3.154306e+05 1.574487e+05 -1.362685e+05
-3.583562e+05 -3.309931e+05 -6.516351e+04
-3.547227e+05 -3.090221e+05 -9.434982e+04
-3.460886e+05 -2.698477e+05 -7.617337e+04
-3.000000e+05 -3.000000e+05 -8.477016e+04
-3.762514e+05 -1.213445e+05 -7.383178e+04
-3.514532e+05 -1.139176e+05 -7.250819e+04
-3.725134e+05 -8.750805e+04 -7.073321e+04
3.041301e+05 1.043478e+05 -1.600000e+05
2.902605e+05 1.070378e+05 -1.379789e+05
-4.000000e+05 -1.043478e+05 -8.191444e+04
-4.000000e+05 -1.218925e+05 -1.107028e+05
-3.000000e+05 -1.666667e+05 -1.200000e+05
-3.338002e+05 -1.747110e+05 -1.128664e+05
-3.340023e+05 -2.076674e+05 -1.166477e+05
-3.773567e+05 -1.790523e+05 -1.100154e+05
-3.646277e+05 -2.172552e+05 -1.081540e+05
-3.813694e+05 -1.841637e+05 -8.302681e+04
3.000000e+05 6.666667e+04 -1.200000e+05
3.000000e+05 1.000000e+05 -1.200000e+05
3.430932e+05 6.766006e+04 -1.221785e+05
3.221443e+05 7.664251e+04 -1.425819e+05
3.657084e+05 -1.831482e+05 -1.056144e+05
3.485705e+05 -1.774599e+05 -7.041783e+04
3.792009e+05 -1.868822e+05 -8.232744e+04
3.520585e+05 -2.153832e+05 -7.657591e+04
-2.434889e+05 -4.000000e+05 -7.885642e+04
-4.000000e+05 -7.100429e+04 -8.036529e+04
-3.647043e+05 -6.148592e+04 -9.086403e+04
-4.000000e+05 -5.255098e+04 -9.946212e+04
-4.000000e+05 3.505272e+05 -8.132527e+04
-3.791298e+05 3.219418e+05 -8.942379e+04
-4.000000e+05 3.243565e+05 -1.049219e+05
-4.000000e+05 3.501965e+05 -1.288965e+05
-3.787713e+05 3.303610e+05 -1.342773e+05
-3.000000e+05 -2.333333e+05 -1.200000e+05
-3.157867e+05 -2.262601e+05 -1.377360e+05
-2.856292e+05 -2.475933e+05 -1.375260e+05
-3.362016e+05 -2.260870e+05 -1.600000e+05
-3.220200e+05 -2.972328e+05 -1.370882e+05
-3.378229e+05 -2.953198e+05 -1.600000e+05
-3.307828e+05 -3.540605e+05 -1.364479e+05
-3.243565e+05 -4.000000e+05 -1.049219e+05
-3.688221e+05 -3.500681e+05 -1.600000e+05
-3.799835e+05 -3.491799e+05 -1.319838e+05
-3.777861e+05 -3.280736e+05 -9.184864e+04
3.751815e+05 1.336168e+05 -1.039765e+05
3.802133e+05 1.164249e+05 -1.236315e+05
3.691627e+05 1.037456e+05 -9.496149e+04
3.522912e+05 1.115837e+05 -1.138111e+05
3.000000e+05 -6.666667e+04 -1.200000e+05
3.345453e+05 -7.672619e+04 -1.076216e+05
3.263723e+05 1.030471e+05 -1.375253e+05
3.307112e+05 -4.188274e+04 -1.289933e+05
3.000000e+05 -3.333333e+04 -1.200000e+05
1.208981e+05 3.295614e+05 -9.516294e+04
1.009990e+05 3.292041e+05 -7.053900e+04
1.037422e+05 3.528338e+05 -8.123783e+04
1.166101e+05 3.000000e+05 -8.325382e+04
9.270726e+04 3.264649e+05 -9.360781e+04
8.337478e+04 3.000000e+05 -8.611467e+04
6.121851e+04 3.424872e+05 -7.298073e+04
3.000000e+05 1.837778e+05 -8.595623e+04
3.217115e+05 1.548983e+05 -1.018165e+05
3.344391e+05 1.776011e+05 -9.788738e+04
3.287895e+05 1.696432e+05 -7.274053e+04
2.166916e+05 2.677851e+05 -1.200000e+05
3.000000e+05 1.333333e+05 -1.200000e+05
3.331105e+05 1.327133e+05 -1.150217e+05
-1.217391e+05 -2.719249e+05 -1.600000e+05
-1.043478e+05 -2.395442e+05 -1.600000e+05
3.000000e+05 1.506042e+05 -8.594365e+04
3.365786e+05 1.509890e+05 -8.498207e+04
3.000000e+05 1.174198e+05 -8.592366e+04
3.000000e+05 1.666667e+05 -1.200000e+05
3.359018e+05 1.709279e+05 -1.157309e+05
-3.681566e+05 2.782609e+05 -1.600000e+05
-3.362016e+05 2.608696e+05 -1.600000e+05
-3.673074e+05 2.643274e+05 -1.288309e+05
-3.659299e+05 2.490781e+05 -1.346750e+05
-1.695534e+05 1.357959e+05 -1.200000e+05
-1.886319e+05 1.296265e+05 -1.402268e+05
-1.722842e+05 1.404513e+05 -1.600000e+05
-1.542263e+05 1.143737e+05 -1.367396e+05
-4.000000e+05 2.782143e+05 -1.283436e+05
-4.000000e+05 2.608696e+05 -1.600000e+05
-4.000000e+05 2.434775e+05 -1.283328e+05
-3.701471e+05 2.514317e+05 -1.004025e+05
-3.320316e+05 2.685599e+05 -1.229134e+05
-3.386499e+05 2.422523e+05 -1.119362e+05
-3.608477e+05 2.256205e+05 -1.386072e+05
-2.723131e+05 3.432662e+05 -7.392162e+04
-4.000000e+05 2.434889e+05 -7.885642e+04
-3.464665e+05 2.678316e+05 -7.312708e+04
-3.282059e+05 2.513063e+05 -9.267304e+04
-3.476234e+05 2.832669e+05 -9.379917e+04
-3.803174e+05 2.690836e+05 -8.086857e+04
-3.402895e+05 7.389033e+04 -1.208629e+05
-3.303506e+05 1.020195e+05 -1.345526e+05
-3.159621e+05 8.362069e+04 -1.393302e+05
-3.681566e+05 1.043478e+05 -1.600000e+05
-3.585543e+05 8.757860e+04 -1.389333e+05
-3.362016e+05 8.695652e+04 -1.600000e+05
3.832911e+05 2.968004e+03 -6.999708e+04
4.000000e+05 -2.655909e+01 -7.886343e+04
3.691015e+05 2.549241e+04 -7.820993e+04
4.000000e+05 3.490296e+04 -7.889057e+04
3.378260e+05 -1.836047e+03 -7.503968e+04
4.000000e+05 -2.434889e+05 -7.885642e+04
3.797653e+05 -2.191658e+05 -8.620880e+04
3.539577e+05 -2.444577e+05 -8.109538e+04
3.298314e+05 -2.385772e+05 -1.127947e+05
3.659868e+05 -2.184948e+05 -1.063525e+05
3.290552e+05 -2.271398e+05 -8.814079e+04
-1.581177e+05 2.067783e+05 -1.600000e+05
-1.217391e+05 2.068996e+05 -1.600000e+05
-1.462677e+05 2.215562e+05 -1.405466e+05
-1.283569e+05 1.876353e+05 -1.398899e+05
4.000000e+05 5.255098e+04 -9.946212e+04
-1.527779e+05 1.499367e+05 -1.438162e+05
-1.899908e+05 1.662932e+05 -1.394599e+05
3.364638e+05 1.937533e+04 -8.350583e+04
2.198726e+05 3.712756e+05 -1.108021e+05
2.476541e+05 3.701718e+05 -1.061304e+05
2.514777e+05 3.317046e+05 -8.798892e+04
2.638403e+05 3.794969e+05 -8.421205e+04
3.505277e+05 -4.000000e+05 -8.131819e+04
4.000000e+05 -3.505272e+05 -8.132527e+04
3.757607e+05 -3.746051e+05 -7.639562e+04
3.793140e+05 -3.244353e+05 -8.713168e+04
3.732751e+05 -1.462263e+05 -1.043119e+05
3.281685e+05 -1.527154e+05 -1.125923e+05
3.555375e+05 8.759486e+04 -7.330741e+04
3.793923e+05 8.698011e+04 -7.407004e+04
4.000000e+05 1.043478e+05 -8.191444e+04
4.000000e+05 8.674306e+04 -1.107005e+05
3.674316e+05 8.022251e+04 -1.089704e+05
3.606710e+05 5.555707e+04 -7.554768e+04
3.293339e+05 -1.980132e+05 -8.920431e+04
-3.000000e+05 1.426288e+05 -8.383372e+04
-3.000000e+05 3.737808e+04 -8.404538e+04
-3.000000e+05 7.265549e+04 -8.395592e+04
-3.000000e+05 6.666667e+04 -1.200000e+05
3.000000e+05 2.529144e+05 -8.582382e+04
3.000000e+05 2.171651e+05 -8.596990e+04
3.285599e+05 2.002712e+05 -7.251982e+04
3.486107e+05 2.717368e+05 -7.415093e+04
-1.357700e+05 1.673367e+05 -1.200000e+05
3.077994e+05 -3.372990e+05 -1.146846e+05
-1.666667e+04 -2.032595e+05 -1.200000e+05
-5.000000e+04 -2.032595e+05 -1.200000e+05
-3.333333e+04 -1.707417e+05 -1.200000e+05
-2.454693e+04 -1.842966e+05 -1.395608e+05
1.166667e+05 2.678710e+05 -1.200000e+05
1.266143e+05 2.531719e+05 -1.392515e+05
1.468861e+05 2.873594e+05 -1.394947e+05
3.000000e+05 -3.000000e+05 -8.495216e+04
1.947951e+05 -3.293734e+05 -9.056746e+04
2.055786e+05 -3.526835e+05 -8.598289e+04
1.876248e+05 -3.524675e+05 -7.333211e+04
2.191741e+05 -3.712512e+05 -1.089046e+05
2.401431e+05 -3.419276e+05 -7.611501e+04
2.290885e+05 -3.273956e+05 -8.918546e+04
1.901796e+05 -3.806472e+05 -8.261454e+04
4.000000e+05 -9.262680e-02 -1.280849e+05
4.000000e+05 -3.478257e+04 -1.280850e+05
3.681566e+05 -3.478261e+04 -1.600000e+05
3.362016e+05 -1.739130e+04 -1.600000e+05
3.409571e+05 -1.040866e+04 -1.095925e+05
3.225132e+05 -9.466482e+03 -1.389363e+05
3.571062e+05 1.784162e+04 -1.390859e+05
-4.000000e+05 2.946250e+05 -9.901240e+04
-3.746843e+05 3.009386e+05 -1.051552e+05
-3.691820e+05 2.960899e+05 -7.168998e+04
-4.000000e+05 3.140961e+05 -7.845318e+04
-1.040158e+05 1.038876e+05 -1.200000e+05
-8.370551e+04 7.792756e+04 -1.426682e+05
3.744845e+05 -8.504371e+04 -1.072511e+05
3.681566e+05 -2.782609e+05 -1.600000e+05
3.362016e+05 -2.608696e+05 -1.600000e+05
3.622858e+05 -2.470916e+05 -1.314283e+05
-3.681566e+05 1.739130e+05 -1.600000e+05
-3.362016e+05 1.565217e+05 -1.600000e+05
-3.362016e+05 1.913043e+05 -1.600000e+05
4.000000e+05 -2.608696e+05 -1.600000e+05
4.000000e+05 -2.782143e+05 -1.283436e+05
4.000000e+05 -2.434775e+05 -1.283328e+05
3.572537e+05 -2.276895e+05 -1.388697e+05
4.000000e+05 -3.652174e+05 -1.600000e+05
4.000000e+05 -3.501965e+05 -1.288965e+05
3.688242e+05 -3.500640e+05 -1.600000e+05
-3.373571e+05 -2.370947e+05 -1.146821e+05
-3.212142e+05 2.353289e+05 -1.375721e+05
4.000000e+05 -3.304348e+05 -1.600000e+05
0.000000e+00 -1.738276e+05 -1.600000e+05
1.739130e+04 -1.402315e+05 -1.600000e+05
-1.739130e+04 -1.402315e+05 -1.600000e+05
2.328923e+02 -1.516741e+05 -1.385880e+05
-3.000000e+05 -2.000000e+05 -1.200000e+05
-3.243379e+05 -2.289507e+05 -9.341133e+04
4.000000e+05 -2.783777e+05 -7.878626e+04
4.000000e+05 -3.140961e+05 -7.845318e+04
4.000000e+05 -2.946250e+05 -9.901240e+04
-2.512900e+05 -3.666929e+05 -1.091936e+05
2.215888e+05 -3.764167e+05 -8.542567e+04
-2.608696e+05 3.362016e+05 -1.600000e+05
-2.434783e+05 4.000000e+05 -1.280850e+05
-2.176997e+05 3.687819e+05 -1.045564e+05
-2.608696e+05 4.000000e+05 -1.600000e+05
6.984919e-10 -1.707417e+05 -1.200000e+05
-2.970628e+03 -2.109943e+05 -1.393211e+05
-2.782609e+05 3.681566e+05 -1.600000e+05
-5.001457e+04 3.000000e+05 -8.328945e+04
-3.477740e+05 -2.336251e+05 -7.738749e+04
-4.525383e+04 -1.573702e+05 -1.390893e+05
-3.000000e+05 -2.521358e+05 -8.616184e+04
-3.350722e+05 3.885278e+03 -1.097407e+05
-3.698652e+05 -1.514522e+04 -1.039508e+05
2.608696e+05 -3.362016e+05 -1.600000e+05
2.783186e+05 -3.040552e+05 -1.600000e+05
2.440764e+05 -3.035382e+05 -1.600000e+05
2.786424e+05 -3.241317e+05 -1.291620e+05
-3.753421e+05 -1.328565e+04 -1.382935e+05
-3.567053e+05 2.019063e+04 -1.387623e+05
-3.681566e+05 -2.328306e-10 -1.600000e+05
-3.362016e+05 -1.739130e+04 -1.600000e+05
-3.362016e+05 1.739130e+04 -1.600000e+05
-3.247186e+05 -1.336629e+03 -1.370265e+05
-3.000000e+05 -3.333333e+04 -1.200000e+05
3.368438e+05 3.308135e+05 -1.241722e+05
2.953940e+05 3.798756e+05 -8.116227e+04
3.140961e+05 4.000000e+05 -7.845318e+04
2.946250e+05 4.000000e+05 -9.901240e+04
2.783777e+05 4.000000e+05 -7.878626e+04
-2.915182e+05 -3.794334e+05 -1.123217e+05
-2.704982e+05 -3.661461e+05 -1.281402e+05
-2.750707e+05 -3.267194e+05 -1.350808e+05
1.913043e+05 3.362016e+05 -1.600000e+05
1.930142e+05 3.142204e+05 -1.368911e+05
2.086957e+05 3.041301e+05 -1.600000e+05
2.083371e+05 3.389308e+05 -1.386836e+05
2.102408e+05 3.362911e+05 -1.154099e+05
1.772410e+05 3.355218e+05 -1.397028e+05
1.923862e+05 3.662077e+05 -1.363302e+05
2.277380e+05 3.587784e+05 -1.386324e+05
2.331527e+05 3.193952e+05 -1.364033e+05
2.363113e+05 3.369553e+05 -1.175311e+05
-2.782609e+05 -3.681566e+05 -1.600000e+05
-2.608696e+05 -3.362016e+05 -1.600000e+05
-2.518079e+05 -3.601170e+05 -1.363143e+05
-2.608696e+05 -4.000000e+05 -1.600000e+05
-2.782143e+05 -4.000000e+05 -1.283436e+05
-2.434775e+05 -4.000000e+05 -1.283328e+05
2.434783e+05 -4.000000e+05 -1.280850e+05
2.086957e+05 -4.000000e+05 -1.280849e+05
2.260443e+05 -4.000000e+05 -9.927425e+04
-3.000000e+05 2.000000e+05 -1.200000e+05
-3.000000e+05 2.333333e+05 -1.200000e+05
-2.847117e+05 2.100296e+05 -1.404363e+05
-4.000000e+05 3.680197e+05 -1.051716e+05
-3.742802e+05 3.722268e+05 -7.599621e+04
2.260870e+05 -3.362016e+05 -1.600000e+05
2.250990e+05 -3.579192e+05 -1.385666e+05
2.340993e+05 -3.215902e+05 -1.359762e+05
-3.505277e+05 4.000000e+05 -8.131819e+04
-3.332349e+05 3.628973e+05 -6.953782e+04
-3.274319e+05 3.787235e+05 -8.884811e+04
-3.000000e+05 2.129565e+05 -8.376949e+04
-3.000000e+05 1.776184e+05 -8.379031e+04
-5.217391e+04 -2.068996e+05 -1.600000e+05
-3.478261e+04 -1.738276e+05 -1.600000e+05
-6.956522e+04 -1.738276e+05 -1.600000e+05
-6.248953e+04 -1.903911e+05 -1.400155e+05
-3.241054e+05 2.054218e+05 -1.380056e+05
-4.000000e+05 -2.608696e+05 -1.600000e+05
-4.000000e+05 -2.782176e+05 -1.283450e+05
-3.681566e+05 -2.782609e+05 -1.600000e+05
-3.613538e+05 -2.505791e+05 -1.315295e+05
-3.466543e+04 -2.181602e+05 -1.404224e+05
-3.558262e+05 -2.297935e+05 -1.387320e+05
-1.113036e+05 -3.335707e+05 -1.207207e+05
-1.130399e+05 -3.231912e+05 -1.421775e+05
-1.226624e+05 -3.669132e+05 -1.376710e+05
-1.381005e+05 -3.290059e+05 -1.375651e+05
-1.333333e+05 -3.000000e+05 -1.200000e+05
-1.391304e+05 -3.041301e+05 -1.600000e+05
-1.461696e+05 -3.327904e+05 -1.122145e+05
-1.565228e+05 -3.631847e+05 -1.388805e+05
-1.565217e+05 -3.362016e+05 -1.600000e+05
3.612913e+05 8.616436e+04 -1.367144e+05
3.560424e+05 1.198592e+05 -1.390663e+05
3.393707e+05 1.200982e+05 -8.860822e+04
3.340923e+05 9.909111e+04 -1.000678e+05
3.500648e+05 3.688250e+05 -1.600000e+05
3.572063e+05 3.261870e+05 -1.370374e+05
3.732521e+05 3.743505e+05 -1.326627e+05
3.501965e+05 4.000000e+05 -1.288965e+05
3.243565e+05 4.000000e+05 -1.049219e+05
3.652174e+05 4.000000e+05 -1.600000e+05
2.434783e+05 -3.681566e+05 -1.600000e+05
2.086957e+05 -3.041301e+05 -1.600000e+05
3.304348e+05 4.000000e+05 -1.600000e+05
1.574620e+05 -3.736425e+05 -8.257754e+04
1.239203e+05 -3.791949e+05 -7.279705e+04
1.293872e+05 -3.539365e+05 -7.349330e+04
1.376571e+05 -4.000000e+05 -8.037280e+04
1.497014e+05 -3.720707e+05 -1.054490e+05
7.842308e+04 3.654356e+05 -1.078838e+05
8.070185e+04 3.803832e+05 -8.281993e+04
1.103594e+05 3.288344e+05 -1.111813e+05
1.147762e+05 3.687440e+05 -1.028752e+05
1.201940e+05 3.785880e+05 -8.424829e+04
2.693215e+05 3.651160e+05 -1.219452e+05
2.640179e+05 3.256754e+05 -1.332373e+05
-3.378557e+05 -3.232122e+05 -1.231080e+05
-3.045138e+05 -3.246566e+05 -1.354513e+05
-3.238850e+05 2.788280e+05 -8.824390e+04
-7.514226e+04 3.325278e+05 -1.182302e+05
-8.335315e+04 3.000000e+05 -8.338916e+04
-2.356282e+05 6.666667e+04 -1.200000e+05
-2.177089e+05 7.605615e+04 -1.375699e+05
-2.527319e+05 5.891821e+04 -1.401266e+05
-2.549722e+05 9.601381e+04 -1.403912e+05
-2.678710e+05 8.333333e+04 -1.200000e+05
-2.826208e+05 7.227413e+04 -1.405711e+05
-2.719249e+05 8.695652e+04 -1.600000e+05
-2.395442e+05 6.956522e+04 -1.600000e+05
1.333333e+05 -3.000000e+05 -1.200000e+05
1.500160e+05 -3.000000e+05 -8.329323e+04
1.166851e+05 -3.000000e+05 -8.329322e+04
1.666667e+05 -3.000000e+05 -1.200000e+05
-4.000000e+05 -2.782569e+05 -7.878860e+04
-3.801072e+05 -2.580205e+05 -8.194563e+04
-3.786804e+05 -2.927158e+05 -8.549658e+04
-4.000000e+05 -2.945883e+05 -9.902611e+04
-4.000000e+05 -2.607573e+05 -9.928420e+04
-8.333333e+04 2.032595e+05 -1.200000e+05
-6.666667e+04 1.707417e+05 -1.200000e+05
-9.240686e+04 1.879445e+05 -1.395075e+05
-6.015780e+04 1.894764e+05 -1.398766e+05
-5.217391e+04 2.068996e+05 -1.600000e+05
-3.478261e+04 1.738276e+05 -1.600000e+05
-2.462946e+04 1.844445e+05 -1.401020e+05
-3.415773e+04 2.210329e+05 -1.389349e+05
-8.695652e+04 2.068996e+05 -1.600000e+05
-6.956522e+04 1.738276e+05 -1.600000e+05
3.681566e+05 -2.434783e+05 -1.600000e+05
-2.086956e+05 -4.000000e+05 -1.280850e+05
-1.499481e+05 -3.678492e+05 -1.067177e+05
-1.739130e+05 -4.000000e+05 -1.280850e+05
-1.014285e+05 6.872078e+04 -1.200000e+05
-1.049358e+05 3.333333e+04 -1.200000e+05
-9.281672e+04 4.241584e+04 -1.351910e+05
-1.666667e+04 -1.380126e+05 -1.200000e+05
-5.217391e+04 -1.402315e+05 -1.600000e+05
-2.538292e+04 -1.264180e+05 -1.410184e+05
-6.482558e+04 -1.288556e+05 -1.395949e+05
-3.650838e+04 -1.045550e+05 -1.600000e+05
-8.944324e+04 -1.398423e+05 -1.600000e+05
-7.202360e+04 -1.049081e+05 -1.600000e+05
-9.717694e+04 -1.222894e+05 -1.388982e+05
-8.333333e+04 -1.380126e+05 -1.200000e+05
-6.860613e+04 -1.033445e+05 -1.200000e+05
3.362016e+05 -2.260870e+05 -1.600000e+05
-2.463658e+05 3.660828e+05 -9.950303e+04
-2.574255e+05 3.727610e+05 -7.594860e+04
-1.227056e+05 3.787655e+05 -7.154868e+04
-1.230100e+05 3.532281e+05 -7.256050e+04
-1.376571e+05 4.000000e+05 -8.037280e+04
8.773983e+04 -3.608001e+05 -7.184877e+04
5.404569e+04 -3.539007e+05 -7.333544e+04
5.007046e+04 -3.000000e+05 -8.338765e+04
3.490296e+04 -4.000000e+05 -7.889057e+04
-1.670464e+04 -3.723948e+05 -7.765124e+04
2.119905e+05 -3.293066e+05 -1.117088e+05
1.892308e+05 -3.756589e+05 -1.120792e+05
3.000000e+05 -3.000000e+05 -1.200000e+05
3.269858e+05 -3.039293e+05 -1.344659e+05
1.413249e+05 3.373432e+05 -1.203126e+05
1.565245e+05 3.699009e+05 -1.389790e+05
1.739130e+05 3.681566e+05 -1.600000e+05
1.565217e+05 3.362016e+05 -1.600000e+05
2.168706e+05 3.000000e+05 -8.338121e+04
1.545792e+05 3.186341e+05 -1.392854e+05
1.739130e+05 3.041301e+05 -1.600000e+05
-4.000000e+05 9.262680e-02 -1.280849e+05
-4.000000e+05 1.739130e+04 -1.600000e+05
3.506790e+05 3.989326e+04 -9.954368e+04
3.285874e+05 7.164863e+04 -9.648133e+04
3.315700e+05 3.164535e+04 -1.141163e+05
3.731482e+05 6.134264e+04 -1.029368e+05
3.217529e+05 6.070648e+04 -7.696031e+04
3.767123e+05 4.977010e+04 -1.245563e+05
3.591659e+05 3.276433e+05 -7.492319e+04
4.000000e+05 3.680273e+05 -1.051488e+05
3.795622e+05 3.303552e+05 -8.873753e+04
4.000000e+05 -2.261070e+05 -9.928569e+04
4.000000e+05 -2.086956e+05 -1.280850e+05
4.000000e+05 3.243637e+05 -1.049024e+05
3.705281e+05 3.203533e+05 -1.105524e+05
4.000000e+05 3.502330e+05 -1.288831e+05
3.563795e+05 1.555055e+05 -7.276706e+04
3.716619e+05 1.579453e+05 -1.098917e+05
2.969455e+05 -3.583921e+05 -1.354118e+05
-3.680273e+05 4.000000e+05 -1.051488e+05
-3.243637e+05 4.000000e+05 -1.049024e+05
-9.213892e+04 -3.673154e+05 -7.878447e+04
-9.597364e+04 -3.290661e+05 -9.711638e+04
-8.337721e+04 -3.000000e+05 -8.611476e+04
-2.297599e+05 3.507667e+05 -7.442660e+04
-2.196375e+05 3.808134e+05 -8.528314e+04
-1.834238e+05 3.730225e+05 -1.056314e+05
-2.117108e+05 3.305355e+05 -1.083620e+05
-2.311673e+05 3.281324e+05 -9.150690e+04
-2.434429e+05 4.000000e+05 -7.886194e+04
-3.244399e+05 -5.760197e+04 -7.454715e+04
-3.309748e+05 -8.818710e+04 -6.908665e+04
-3.488108e+05 -6.813939e+04 -7.286586e+04
2.608696e+05 3.362016e+05 -1.600000e+05
2.782609e+05 3.681566e+05 -1.600000e+05
2.516214e+05 3.573209e+05 -1.369814e+05
4.000000e+05 -3.125173e+05 -1.301628e+05
3.659292e+05 -2.918947e+05 -1.374439e+05
2.782143e+05 4.000000e+05 -1.283436e+05
2.608696e+05 4.000000e+05 -1.600000e+05
2.434775e+05 4.000000e+05 -1.283328e+05
-4.000000e+05 -3.490296e+04 -7.889057e+04
-4.000000e+05 -1.739649e+04 -9.927617e+04
-3.566732e+05 3.315981e+05 -1.384142e+05
-3.502330e+05 4.000000e+05 -1.288831e+05
-3.304924e+05 3.796102e+05 -1.313111e+05
3.041301e+05 -3.478261e+04 -1.600000e+05
-3.383812e+05 2.966534e+05 -1.083372e+05
-3.281603e+05 3.093461e+05 -1.374219e+05
-3.536949e+05 3.352394e+05 -6.797096e+04
-4.000000e+05 -3.652174e+05 -1.600000e+05
-4.000000e+05 -3.502330e+05 -1.288831e+05
2.214501e+05 1.109134e+05 -1.399124e+05
-4.000000e+05 -3.243637e+05 -1.049024e+05
3.275952e+05 -1.132801e+05 -1.078695e+05
2.068171e+05 -1.581054e+05 -1.600000e+05
1.888170e+05 -1.640517e+05 -1.401840e+05
2.213710e+05 -1.456013e+05 -1.397731e+05
1.693969e+05 -1.358438e+05 -1.200000e+05
1.723503e+05 -1.404896e+05 -1.600000e+05
1.538763e+05 -1.138649e+05 -1.365500e+05
2.032595e+05 -1.166667e+05 -1.200000e+05
3.681566e+05 1.739130e+05 -1.600000e+05
3.352355e+05 1.791015e+05 -1.395183e+05
3.041301e+05 1.739130e+05 -1.600000e+05
3.671343e+05 1.558048e+05 -1.342166e+05
3.737421e+05 1.843302e+05 -1.092982e+05
2.067812e+05 1.581076e+05 -1.600000e+05
1.722540e+05 1.406055e+05 -1.600000e+05
2.068996e+05 1.217391e+05 -1.600000e+05
1.878436e+05 1.286582e+05 -1.398186e+05
1.561033e+05 -4.000000e+05 -9.947019e+04
1.736685e+05 -4.000000e+05 -7.888604e+04
3.361297e+05 2.960439e+05 -1.600000e+05
3.056438e+05 3.111328e+05 -1.600000e+05
3.040554e+05 2.783185e+05 -1.600000e+05
3.194875e+05 3.019328e+05 -1.380983e+05
-3.000000e+05 -6.666667e+04 -1.200000e+05
-2.889945e+05 -4.597707e+04 -1.387736e+05
-2.844586e+05 -7.616262e+04 -1.398142e+05
-3.207242e+05 -1.123871e+05 -1.370312e+05
-3.041301e+05 -6.956522e+04 -1.600000e+05
-3.191552e+05 -1.924082e+05 -1.352226e+05
-2.032595e+05 8.333333e+04 -1.200000e+05
-1.707417e+05 6.666667e+04 -1.200000e+05
-2.032595e+05 5.000000e+04 -1.200000e+05
-1.870585e+05 5.622081e+04 -1.388692e+05
-1.978658e+05 1.980874e+05 -1.200000e+05
-1.639737e+05 1.886022e+05 -1.402205e+05
-1.707431e+05 1.715793e+05 -1.200000e+05
-3.000000e+05 3.000000e+05 -1.200000e+05
-2.069497e+05 1.580081e+05 -1.600000e+05
-2.395442e+05 1.391304e+05 -1.600000e+05
-2.068996e+05 1.217391e+05 -1.600000e+05
-2.214116e+05 1.455355e+05 -1.398072e+05
-2.389559e+05 2.099792e+05 -1.600000e+05
-2.016184e+05 2.015286e+05 -1.600000e+05
-2.091376e+05 2.390795e+05 -1.600000e+05
-2.150307e+05 2.199044e+05 -1.422189e+05
-3.630852e+05 -2.947825e+05 -1.396683e+05
-3.780299e+05 -2.214823e+05 -8.168989e+04
-1.721062e+05 1.058906e+05 -1.600000e+05
3.000000e+05 -2.666667e+05 -1.200000e+05
3.166057e+05 -2.575323e+05 -1.387318e+05
3.039911e+05 -2.775321e+05 -1.600000e+05
2.868666e+05 -2.478473e+05 -1.381193e+05
3.148552e+05 -2.269354e+05 -1.377770e+05
3.035370e+05 -2.439911e+05 -1.600000e+05
-3.000000e+05 -4.553558e+04 -8.579556e+04
3.245413e+05 1.001683e+05 -6.921245e+04
3.566332e+05 1.875304e+05 -7.276918e+04
3.777028e+05 2.903835e+05 -1.093009e+05
3.000000e+05 2.333333e+05 -1.200000e+05
-1.754526e+05 1.747151e+05 -1.600000e+05
2.535298e+05 -3.579729e+05 -1.349707e+05
2.454382e+05 -3.298672e+05 -1.137109e+05
2.608696e+05 -4.000000e+05 -1.600000e+05
2.782609e+05 -3.681566e+05 -1.600000e+05
-1.404230e+05 1.722861e+05 -1.600000e+05
-3.829041e+05 1.316860e+04 -8.068962e+04
-3.000000e+05 1.000000e+05 -1.200000e+05
-3.000000e+05 1.076556e+05 -8.388880e+04
-3.212714e+05 1.273275e+05 -1.354903e+05
-3.501965e+05 -4.000000e+05 -1.288965e+05
-1.000000e+05 1.707417e+05 -1.200000e+05
3.027452e+05 1.716633e+04 -1.387122e+05
3.178026e+05 4.644877e+03 -1.057288e+05
3.000000e+05 3.333333e+04 -1.200000e+05
3.000000e+05 2.166876e+04 -8.350450e+04
1.014276e+05 -6.872055e+04 -1.200000e+05
8.176132e+04 -7.579700e+04 -1.416088e+05
1.050118e+05 -7.193059e+04 -1.600000e+05
1.248113e+05 -1.011748e+05 -1.386234e+05
-1.217391e+05 3.362016e+05 -1.600000e+05
-8.695652e+04 3.362016e+05 -1.600000e+05
-1.040101e+05 3.248975e+05 -1.370718e+05
1.400516e+05 -5.239500e+04 -1.600000e+05
1.045284e+05 -3.653090e+04 -1.600000e+05
1.264467e+05 -6.074142e+04 -1.390975e+05
-1.391304e+05 3.681566e+05 -1.600000e+05
-1.217391e+05 4.000000e+05 -1.600000e+05
-1.565217e+05 3.362016e+05 -1.600000e+05
-1.239116e+05 3.162190e+05 -1.368903e+05
-4.000000e+05 2.783777e+05 -7.878626e+04
1.707417e+05 -6.666667e+04 -1.200000e+05
1.707417e+05 -1.000000e+05 -1.200000e+05
1.548794e+05 -7.592928e+04 -1.398748e+05
1.378370e+05 -8.355805e+04 -1.200000e+05
-8.698509e+04 -4.000000e+05 -9.927827e+04
-7.923069e+04 -3.736280e+05 -1.075896e+05
-1.181919e+05 -3.720764e+05 -1.106381e+05
-6.956677e+04 -4.000000e+05 -7.886432e+04
-5.152184e+04 -3.772657e+05 -8.177394e+04
-6.766572e+04 -3.428974e+05 -7.276943e+04
4.000000e+05 -1.565486e+05 -9.927571e+04
1.346492e+05 -1.345454e+05 -1.600000e+05
1.397935e+05 -8.944397e+04 -1.600000e+05
-1.191065e+05 -1.387833e+05 -1.200000e+05
-1.346052e+05 -1.346505e+05 -1.600000e+05
-1.140298e+05 -1.542375e+05 -1.369460e+05
-1.058975e+05 -1.721035e+05 -1.600000e+05
-9.194348e+04 -1.866169e+05 -1.389413e+05
-7.468856e+04 -1.540058e+05 -1.399096e+05
-1.504261e+05 -1.535296e+05 -1.447036e+05
-1.358416e+05 -1.693970e+05 -1.200000e+05
-1.297363e+05 -1.886396e+05 -1.389487e+05
-1.405423e+05 -1.722713e+05 -1.600000e+05
-8.695652e+04 2.719249e+05 -1.600000e+05
-1.108504e+05 2.912030e+05 -1.413730e+05
-8.150999e+04 2.880753e+05 -1.419302e+05
-1.217391e+05 2.719249e+05 -1.600000e+05
-1.290848e+05 2.554200e+05 -1.404664e+05
-1.043478e+05 2.395442e+05 -1.600000e+05
3.362016e+05 2.608696e+05 -1.600000e+05
3.035218e+05 2.440674e+05 -1.600000e+05
2.819232e+05 2.813861e+05 -1.427011e+05
1.666667e+04 1.380126e+05 -1.200000e+05
3.458726e+04 1.545844e+05 -1.410361e+05
1.739130e+04 1.402315e+05 -1.600000e+05
7.586578e+01 1.523296e+05 -1.381456e+05
5.000000e+04 1.380126e+05 -1.200000e+05
6.001897e+04 1.210100e+05 -1.378431e+05
2.418742e+04 1.209865e+05 -1.376048e+05
6.956522e+04 1.738276e+05 -1.600000e+05
5.239457e+04 1.400489e+05 -1.600000e+05
7.480433e+04 1.533141e+05 -1.382794e+05
6.666667e+04 1.707417e+05 -1.200000e+05
-4.000000e+05 -3.126723e+05 -1.301611e+05
-2.719249e+05 -5.217391e+04 -1.600000e+05
-2.532115e+05 -5.649048e+04 -1.384994e+05
1.523952e+05 -2.026607e+05 -1.200000e+05
1.455444e+05 -2.214351e+05 -1.398221e+05
1.285968e+05 -1.878367e+05 -1.398461e+05
1.640523e+05 -1.882351e+05 -1.399705e+05
1.815964e+05 -2.172007e+05 -1.404591e+05
1.580297e+05 -2.069484e+05 -1.600000e+05
2.016386e+05 -2.015772e+05 -1.600000e+05
6.666667e+04 -2.356282e+05 -1.200000e+05
7.792016e+04 -2.219704e+05 -1.401372e+05
9.342384e+04 -2.549533e+05 -1.416625e+05
6.150959e+04 -2.546753e+05 -1.402732e+05
5.000000e+04 -2.032595e+05 -1.200000e+05
3.563657e+04 -2.234097e+05 -1.392513e+05
6.956522e+04 -2.395442e+05 -1.600000e+05
5.217391e+04 -2.068996e+05 -1.600000e+05
1.738276e+05 -3.478261e+04 -1.600000e+05
1.541180e+05 -3.479234e+04 -1.404933e+05
1.882086e+05 -5.799527e+04 -1.387523e+05
1.851959e+05 -2.699848e+04 -1.375068e+05
1.565217e+05 4.000000e+05 -1.600000e+05
1.739130e+05 4.000000e+05 -1.280850e+05
1.391304e+05 4.000000e+05 -1.280850e+05
-2.032595e+05 -1.166667e+05 -1.200000e+05
-2.032595e+05 -8.333333e+04 -1.200000e+05
-1.707390e+05 -1.000178e+05 -1.200000e+05
-1.824760e+05 -8.563152e+04 -1.392723e+05
4.000000e+05 -1.043478e+05 -1.280850e+05
3.333333e+04 1.049358e+05 -1.200000e+05
4.252135e+04 9.102074e+04 -1.376062e+05
3.643424e+04 1.045196e+05 -1.600000e+05
8.355658e+04 1.378391e+05 -1.200000e+05
9.742439e+04 1.230520e+05 -1.389977e+05
6.872326e+04 1.014265e+05 -1.200000e+05
-6.666667e+04 3.000000e+05 -1.200000e+05
2.690028e+05 -2.516963e+05 -1.200000e+05
2.686869e+05 -2.686612e+05 -1.600000e+05
2.546065e+05 -2.329483e+05 -1.418467e+05
2.834492e+05 -2.857655e+05 -1.442453e+05
-2.069555e+05 -1.580129e+05 -1.600000e+05
-1.722874e+05 -1.402878e+05 -1.600000e+05
-2.068996e+05 -1.217391e+05 -1.600000e+05
-1.868685e+05 -1.265149e+05 -1.389859e+05
-2.000000e+05 3.000000e+05 -1.200000e+05
-2.002254e+05 3.199891e+05 -1.379257e+05
-2.333333e+05 3.000000e+05 -1.200000e+05
-2.150008e+05 2.875338e+05 -1.402148e+05
2.086956e+05 4.000000e+05 -1.280850e+05
1.913303e+05 4.000000e+05 -9.927549e+04
-1.634344e+05 3.221862e+05 -1.381749e+05
-1.739130e+05 3.041301e+05 -1.600000e+05
-1.797281e+05 2.865790e+05 -1.418414e+05
-1.468550e+05 2.855875e+05 -1.416729e+05
-1.913043e+05 3.362016e+05 -1.600000e+05
-1.666667e+05 3.000000e+05 -1.200000e+05
7.076409e+04 -1.689796e+04 -1.200000e+05
7.152041e+04 -1.990616e+04 -1.600000e+05
8.320346e+04 -2.660058e+02 -1.392325e+05
9.108732e+04 -4.264433e+04 -1.376870e+05
7.153091e+04 -4.999401e+04 -1.200000e+05
6.697243e+04 -6.709626e+04 -1.600000e+05
1.565486e+05 4.000000e+05 -9.927571e+04
3.478261e+04 3.041301e+05 -1.600000e+05
1.739130e+04 2.719249e+05 -1.600000e+05
3.774304e+04 2.828879e+05 -1.399406e+05
1.748531e+04 3.089714e+05 -1.415114e+05
-5.093170e-11 3.000000e+05 -1.200000e+05
-1.461034e+04 3.133722e+05 -1.386679e+05
4.924647e+03 3.281592e+05 -1.117687e+05
-1.833333e+05 -2.678710e+05 -1.200000e+05
-1.999895e+05 -2.356494e+05 -1.200000e+05
-1.090331e+05 -1.092915e+05 -1.600000e+05
-1.258091e+05 -1.017210e+05 -1.419828e+05
-1.025121e+05 -1.048189e+05 -1.200000e+05
6.666667e+04 3.000000e+05 -1.200000e+05
8.050916e+04 2.881328e+05 -1.403394e+05
5.000000e+04 2.678710e+05 -1.200000e+05
6.069366e+04 2.537547e+05 -1.406609e+05
1.728735e+04 2.479678e+05 -1.402810e+05
1.666667e+04 2.678710e+05 -1.200000e+05
-3.590736e+05 2.936555e+05 -1.391505e+05
-4.000000e+05 3.125173e+05 -1.301628e+05
-4.000000e+05 2.607512e+05 -9.928644e+04
-2.032595e+05 -5.000000e+04 -1.200000e+05
-1.851519e+05 -5.589732e+04 -1.396339e+05
-2.167839e+05 -3.475496e+04 -1.407589e+05
-1.852305e+05 -2.717218e+04 -1.410537e+05
-2.032595e+05 -1.666667e+04 -1.200000e+05
-2.191661e+05 -7.683632e+04 -1.367961e+05
-2.356282e+05 -6.666667e+04 -1.200000e+05
4.000000e+05 1.405259e+05 -1.298366e+05
4.000000e+05 1.565217e+05 -1.600000e+05
4.000000e+05 1.739894e+05 -1.283231e+05
3.681566e+05 1.391304e+05 -1.600000e+05
-2.796287e+05 2.806843e+05 -1.427192e+05
-2.686814e+05 2.686452e+05 -1.600000e+05
-2.270144e+05 2.729494e+05 -1.600000e+05
-2.517645e+05 2.689526e+05 -1.200000e+05
2.678710e+05 -8.333333e+04 -1.200000e+05
2.545756e+05 -6.156412e+04 -1.407680e+05
2.678710e+05 -5.000000e+04 -1.200000e+05
2.863423e+05 -8.051017e+04 -1.381678e+05
3.041301e+05 -6.956522e+04 -1.600000e+05
2.719249e+05 -5.217391e+04 -1.600000e+05
2.769542e+05 -4.394578e+04 -1.403086e+05
-5.000000e+04 2.678710e+05 -1.200000e+05
-4.963462e+04 2.893076e+05 -1.409278e+05
-7.894620e+04 3.198269e+05 -1.394928e+05
-6.956522e+04 3.041301e+05 -1.600000e+05
-5.217391e+04 2.719249e+05 -1.600000e+05
8.695652e+04 3.362016e+05 -1.600000e+05
5.217473e+04 3.578955e+05 -1.390309e+05
5.217391e+04 3.362016e+05 -1.600000e+05
8.459382e+04 3.169918e+05 -1.382326e+05
6.956517e+04 4.000000e+05 -1.280850e+05
8.697766e+04 3.581055e+05 -1.391197e+05
5.217391e+04 4.000000e+05 -1.600000e+05
3.478261e+04 3.681566e+05 -1.600000e+05
6.956522e+04 3.681566e+05 -1.600000e+05
4.642010e+04 3.708854e+05 -1.074608e+05
3.218715e+04 3.431666e+05 -7.347079e+04
4.536627e+04 3.792859e+05 -8.460160e+04
1.321152e+04 3.781269e+05 -8.474907e+04
1.742320e+04 4.000000e+05 -9.927559e+04
5.220474e+04 4.000000e+05 -9.927827e+04
3.481145e+04 4.000000e+05 -7.886354e+04
6.956677e+04 4.000000e+05 -7.886432e+04
-3.362016e+05 -8.695652e+04 -1.600000e+05
-3.362016e+05 -1.217391e+05 -1.600000e+05
-3.572627e+05 -1.189378e+05 -1.354148e+05
-3.681566e+05 -1.043478e+05 -1.600000e+05
-3.681566e+05 -6.956522e+04 -1.600000e+05
1.707417e+05 1.000000e+05 -1.200000e+05
1.558483e+05 7.788376e+04 -1.380979e+05
1.534619e+05 1.111547e+05 -1.381228e+05
1.673258e+05 1.357752e+05 -1.200000e+05
1.507649e+05 1.536758e+05 -1.446214e+05
1.388648e+05 1.163560e+05 -1.200000e+05
1.345503e+05 1.346733e+05 -1.600000e+05
1.247908e+05 1.015719e+05 -1.416919e+05
2.678710e+05 1.666667e+04 -1.200000e+05
2.719249e+05 1.739130e+04 -1.600000e+05
2.444055e+05 1.886634e+04 -1.400693e+05
2.823774e+05 3.482447e+04 -1.390450e+05
2.678710e+05 5.000000e+04 -1.200000e+05
2.356282e+05 3.333333e+04 -1.200000e+05
2.509551e+05 5.152337e+04 -1.397684e+05
2.395442e+05 3.478261e+04 -1.600000e+05
2.068996e+05 1.739130e+04 -1.600000e+05
-1.058741e+05 1.720765e+05 -1.600000e+05
2.356493e+05 -1.999894e+05 -1.200000e+05
2.344454e+05 -1.677972e+05 -1.200000e+05
2.514965e+05 -1.935939e+05 -1.390579e+05
2.187696e+05 -1.861343e+05 -1.404673e+05
2.196922e+05 -2.153686e+05 -1.422176e+05
2.389380e+05 -2.098709e+05 -1.600000e+05
-2.166667e+05 -2.678710e+05 -1.200000e+05
2.720042e+05 -2.275154e+05 -1.600000e+05
-3.382852e+04 3.629223e+04 -1.200000e+05
1.718808e+02 3.768899e+04 -1.200000e+05
1.719833e+00 3.550959e+04 -1.600000e+05
1.973497e+02 5.957020e+04 -1.397196e+05
-7.318652e+04 -3.349156e+05 -1.176329e+05
-8.800956e+04 -3.592050e+05 -1.388753e+05
-1.191642e+05 -3.810734e+05 -8.293511e+04
-4.000000e+05 1.739130e+05 -1.280850e+05
-4.000000e+05 1.565217e+05 -1.600000e+05
-4.000000e+05 1.391304e+05 -1.280850e+05
-3.611794e+05 1.270259e+05 -1.402582e+05
-2.678710e+05 1.666667e+04 -1.200000e+05
-2.356282e+05 -2.328306e-10 -1.200000e+05
-2.634746e+05 1.089198e+03 -1.395771e+05
-2.364159e+05 1.616203e+04 -1.389152e+05
-2.719249e+05 1.739130e+04 -1.600000e+05
-2.752544e+05 3.906050e+04 -1.404882e+05
-2.395442e+05 3.478261e+04 -1.600000e+05
-2.068996e+05 1.739130e+04 -1.600000e+05
-2.170629e+05 3.591787e+04 -1.395671e+05
1.707417e+05 3.333333e+04 -1.200000e+05
1.570920e+05 4.535056e+04 -1.403970e+05
1.524451e+05 -9.252872e+01 -1.391984e+05
-3.481145e+04 -4.000000e+05 -7.886354e+04
1.380126e+05 -1.666667e+04 -1.200000e+05
1.402315e+05 -1.739130e+04 -1.600000e+05
1.268868e+05 1.455745e+04 -1.389654e+05
1.707417e+05 -3.333333e+04 -1.200000e+05
1.402315e+05 1.739130e+04 -1.600000e+05
1.380126e+05 1.666667e+04 -1.200000e+05
-1.707417e+05 -8.149073e-10 -1.200000e+05
-1.738276e+05 -2.328306e-10 -1.600000e+05
-1.835884e+05 2.613655e+04 -1.399191e+05
-1.544325e+05 -1.628269e+03 -1.370209e+05
1.990620e+04 7.150684e+04 -1.600000e+05
4.144918e+04 4.128015e+04 -1.600000e+05
-1.707417e+05 3.333333e+04 -1.200000e+05
-1.523505e+05 3.572834e+04 -1.387081e+05
-1.707417e+05 -3.333333e+04 -1.200000e+05
-1.380126e+05 -1.666667e+04 -1.200000e+05
-1.579512e+05 -4.577390e+04 -1.391547e+05
-1.402315e+05 -1.739130e+04 -1.600000e+05
-1.279925e+05 -2.370233e+04 -1.403155e+05
-1.738276e+05 -3.478261e+04 -1.600000e+05
-2.356282e+05 -1.333333e+05 -1.200000e+05
-2.478980e+05 -1.261857e+05 -1.409912e+05
-2.226845e+05 -1.526927e+05 -1.386494e+05
-2.395442e+05 -1.391304e+05 -1.600000e+05
-2.026604e+05 -1.523941e+05 -1.200000e+05
-1.873166e+05 -1.639739e+05 -1.401574e+05
-1.999896e+05 2.356494e+05 -1.200000e+05
-1.938164e+05 2.518565e+05 -1.390821e+05
-2.319824e+05 2.568730e+05 -1.413989e+05
-1.851342e+05 2.191031e+05 -1.406714e+05
-2.191244e+05 1.845182e+05 -1.402669e+05
-2.356194e+05 2.000184e+05 -1.200000e+05
-2.566014e+05 2.332969e+05 -1.425677e+05
-2.332829e+05 2.346082e+05 -1.200000e+05
-1.666667e+04 7.133223e+04 -1.200000e+05
-5.226908e+04 7.188379e+04 -1.200000e+05
-4.139530e+04 4.128208e+04 -1.600000e+05
-2.328306e-10 2.395442e+05 -1.600000e+05
3.601121e+02 2.129965e+05 -1.397027e+05
3.502385e+04 2.178083e+05 -1.405985e+05
5.217391e+04 2.719249e+05 -1.600000e+05
3.478261e+04 2.395442e+05 -1.600000e+05
3.333333e+04 2.356282e+05 -1.200000e+05
2.356282e+05 -3.333333e+04 -1.200000e+05
2.218403e+05 -3.590586e+04 -1.392607e+05
2.525854e+05 -2.516988e+04 -1.400305e+05
2.719249e+05 -1.739130e+04 -1.600000e+05
2.602117e+05 1.172752e+03 -1.404146e+05
2.395442e+05 0.000000e+00 -1.600000e+05
2.395442e+05 -3.478261e+04 -1.600000e+05
-5.000000e+04 -2.678710e+05 -1.200000e+05
-5.775842e+04 -2.530759e+05 -1.393395e+05
-1.740089e+04 -2.501268e+05 -1.390884e+05
-4.596114e+04 -2.878879e+05 -1.401622e+05
-5.217391e+04 -2.719249e+05 -1.600000e+05
-1.666667e+04 -2.678710e+05 -1.200000e+05
-8.158380e+03 -2.854068e+05 -1.412794e+05
-3.478261e+04 -2.395442e+05 -1.600000e+05
-4.000000e+05 -1.912075e+05 -9.927319e+04
-4.000000e+05 -2.086957e+05 -1.280849e+05
-3.607874e+05 -1.904216e+05 -1.378878e+05
-4.000000e+05 2.655909e+01 -7.886343e+04
-3.378862e+05 2.955357e+05 -1.600000e+05
-3.039601e+05 2.776001e+05 -1.600000e+05
-4.000000e+05 2.086686e+05 -7.886305e+04
-4.000000e+05 1.913303e+05 -9.927549e+04
-4.000000e+05 2.261070e+05 -9.928569e+04
4.627355e+04 3.397754e+05 -9.578471e+04
4.997895e+04 3.000000e+05 -8.611758e+04
1.894571e+05 -3.624497e+05 -1.379311e+05
1.999624e+05 -3.222923e+05 -1.399056e+05
-1.739130e+04 1.402315e+05 -1.600000e+05
-3.333333e+04 1.707417e+05 -1.200000e+05
-1.666667e+04 1.380126e+05 -1.200000e+05
3.621117e+04 3.371749e+04 -1.200000e+05
1.000000e+05 3.000000e+05 -1.200000e+05
6.484835e+04 3.375301e+05 -1.171911e+05
3.962635e+04 3.229885e+05 -1.397482e+05
3.593511e+04 3.283950e+05 -1.173265e+05
3.469557e+04 -4.000000e+05 -1.283199e+05
3.478261e+04 -3.681566e+05 -1.600000e+05
1.738498e+04 -3.588912e+05 -1.373386e+05
5.654179e+04 -3.573995e+05 -1.371291e+05
5.217391e+04 -4.000000e+05 -1.600000e+05
2.028207e+05 1.522474e+05 -1.200000e+05
2.191406e+05 1.850954e+05 -1.406565e+05
2.213621e+05 1.455719e+05 -1.398040e+05
1.893582e+05 1.661013e+05 -1.407400e+05
2.016214e+05 2.015328e+05 -1.600000e+05
3.788042e+05 1.560676e+05 -7.078823e+04
4.000000e+05 2.086957e+05 -1.280849e+05
-1.707433e+05 -1.715771e+05 -1.200000e+05
-1.978701e+05 -1.980850e+05 -1.200000e+05
-1.523021e+05 -2.029314e+05 -1.200000e+05
2.032595e+05 1.666667e+04 -1.200000e+05
2.027242e+05 -1.525522e+03 -1.396844e+05
1.707417e+05 5.820766e-10 -1.200000e+05
1.738276e+05 0.000000e+00 -1.600000e+05
4.000000e+05 3.652174e+05 -1.600000e+05
3.688712e+05 3.466760e+05 -1.600000e+05
-2.689869e+05 -2.516625e+05 -1.200000e+05
-2.487110e+05 -2.693404e+05 -1.200000e+05
-2.686858e+05 -2.686614e+05 -1.600000e+05
-2.353389e+05 -2.545615e+05 -1.426264e+05
2.032595e+05 -5.000000e+04 -1.200000e+05
2.068996e+05 -5.217391e+04 -1.600000e+05
2.068996e+05 -1.739130e+04 -1.600000e+05
-2.339822e+05 -2.341240e+05 -1.200000e+05
2.168889e+05 -3.000000e+05 -8.329682e+04
2.526822e+05 -3.000000e+05 -8.596383e+04
5.093170e-11 -3.000000e+05 -1.200000e+05
1.666667e+04 -2.678710e+05 -1.200000e+05
-1.522496e+05 2.028205e+05 -1.200000e+05
-3.362016e+05 5.217391e+04 -1.600000e+05
-3.585614e+05 5.538595e+04 -1.394359e+05
-3.263667e+05 3.550668e+04 -1.391443e+05
-3.681566e+05 3.478261e+04 -1.600000e+05
-4.000000e+05 3.478257e+04 -1.280850e+05
-1.739130e+04 -2.068996e+05 -1.600000e+05
-2.068996e+05 -1.739130e+04 -1.600000e+05
-2.137480e+05 7.137603e+01 -1.404126e+05
8.944607e+04 1.398009e+05 -1.600000e+05
1.038957e+05 1.040933e+05 -1.200000e+05
7.201007e+04 1.050251e+05 -1.600000e+05
-3.333333e+04 -3.000000e+05 -1.200000e+05
-6.868599e+03 -3.289488e+05 -1.161676e+05
-4.710295e+04 -3.316378e+05 -1.155236e+05
-1.104185e+04 -3.202840e+05 -1.401030e+05
1.138567e+05 1.539089e+05 -1.365367e+05
-3.478257e+04 -4.000000e+05 -1.280850e+05
-4.698030e+04 -3.725057e+05 -1.114064e+05
-2.618487e+04 -3.605274e+05 -1.100236e+05
-5.274562e+04 -3.590468e+05 -1.386183e+05
-9.262680e-02 -4.000000e+05 -1.280849e+05
-2.071321e+04 -3.590472e+05 -1.393029e+05
-1.999279e+04 -3.359303e+05 -9.721410e+04
-3.324096e+04 -3.428711e+05 -7.405499e+04
-6.666667e+04 -3.000000e+05 -1.200000e+05
-7.884209e+04 -3.206556e+05 -1.390479e+05
-6.956522e+04 -3.041301e+05 -1.600000e+05
-4.813527e+04 -3.206893e+05 -1.389672e+05
-3.000000e+05 2.666667e+05 -1.200000e+05
-3.000000e+05 2.504440e+05 -8.401070e+04
1.400419e+05 5.238884e+04 -1.600000e+05
1.266757e+05 6.840106e+04 -1.394566e+05
1.707417e+05 6.666667e+04 -1.200000e+05
1.380126e+05 5.000000e+04 -1.200000e+05
4.000000e+05 -8.698509e+04 -9.927827e+04
4.000000e+05 -1.391304e+05 -1.280850e+05
4.000000e+05 -1.043221e+05 -7.886357e+04
3.039805e+05 -3.222205e+05 -1.383408e+05
1.380126e+05 -5.000000e+04 -1.200000e+05
1.173070e+05 -2.308375e+04 -1.368265e+05
3.186875e+05 4.758140e+04 -1.387402e+05
3.362016e+05 5.217391e+04 -1.600000e+05
3.041301e+05 6.956522e+04 -1.600000e+05
-6.666667e+04 -1.707417e+05 -1.200000e+05
-5.330862e+04 3.579719e+05 -1.389776e+05
-3.469557e+04 4.000000e+05 -1.283199e+05
-1.918872e+04 3.566719e+05 -1.387588e+05
2.686633e+05 2.686880e+05 -1.600000e+05
2.454756e+05 2.826385e+05 -1.412202e+05
2.516313e+05 2.688963e+05 -1.200000e+05
2.333333e+05 3.000000e+05 -1.200000e+05
2.150325e+05 2.879067e+05 -1.407093e+05
2.440477e+05 3.035535e+05 -1.600000e+05
2.666667e+05 3.000000e+05 -1.200000e+05
2.032595e+05 -8.333333e+04 -1.200000e+05
8.695652e+04 2.068996e+05 -1.600000e+05
9.165338e+04 1.874818e+05 -1.401966e+05
5.975297e+04 1.895958e+05 -1.383447e+05
5.000000e+04 2.032595e+05 -1.200000e+05
3.333333e+04 1.707417e+05 -1.200000e+05
2.459482e+04 1.854304e+05 -1.413047e+05
8.333333e+04 2.032595e+05 -1.200000e+05
1.666667e+04 2.032595e+05 -1.200000e+05
6.956522e+04 2.395442e+05 -1.600000e+05
5.217391e+04 2.068996e+05 -1.600000e+05
7.741677e+04 2.223115e+05 -1.390586e+05
6.666667e+04 2.356282e+05 -1.200000e+05
2.395442e+05 -6.956522e+04 -1.600000e+05
2.032595e+05 -1.666667e+04 -1.200000e+05
2.356282e+05 -6.666667e+04 -1.200000e+05
2.270575e+05 -2.729148e+05 -1.600000e+05
2.197569e+05 -2.500601e+05 -1.385134e+05
2.169098e+05 -2.894060e+05 -1.412815e+05
2.455623e+05 -2.823611e+05 -1.376892e+05
1.756384e+05 -2.838453e+05 -1.392162e+05
2.000000e+05 -3.000000e+05 -1.200000e+05
1.833333e+05 -2.678710e+05 -1.200000e+05
1.957705e+05 -2.537404e+05 -1.402772e+05
-1.719407e+05 3.305254e+05 -1.060143e+05
-1.833668e+05 3.000000e+05 -8.329350e+04
-5.471771e+04 -3.352991e+05 -9.857151e+04
-3.333333e+04 -2.356282e+05 -1.200000e+05
0.000000e+00 -2.395442e+05 -1.600000e+05
-6.956522e+04 -2.395442e+05 -1.600000e+05
-7.955419e+04 -2.232062e+05 -1.398341e+05
-6.666667e+04 -2.356282e+05 -1.200000e+05
4.000000e+05 7.100429e+04 -8.036529e+04
-1.907127e+05 3.578176e+05 -1.343028e+05
3.478261e+04 -2.395442e+05 -1.600000e+05
2.550113e+04 -2.531053e+05 -1.403459e+05
1.043478e+05 -2.395442e+05 -1.600000e+05
1.118616e+05 -2.220110e+05 -1.401277e+05
8.695652e+04 -2.068996e+05 -1.600000e+05
8.333333e+04 -2.032595e+05 -1.200000e+05
5.701229e+04 -1.875576e+05 -1.375174e+05
1.666667e+04 -2.032595e+05 -1.200000e+05
2.287014e+04 -1.834216e+05 -1.363969e+05
-3.041301e+05 -1.043478e+05 -1.600000e+05
2.956522e+05 4.000000e+05 -1.600000e+05
3.125173e+05 4.000000e+05 -1.301628e+05
-2.678710e+05 -5.000000e+04 -1.200000e+05
-2.678710e+05 -8.333333e+04 -1.200000e+05
-2.493055e+05 -8.754529e+04 -1.407095e+05
-2.719249e+05 -8.695652e+04 -1.600000e+05
-2.898769e+05 -1.167929e+05 -1.410565e+05
3.000000e+05 -1.000000e+05 -1.200000e+05
3.238648e+05 -8.232955e+04 -1.381376e+05
2.678710e+05 -1.166667e+05 -1.200000e+05
2.850545e+05 -1.432436e+05 -1.396395e+05
2.545976e+05 -1.289765e+05 -1.394516e+05
2.859596e+05 -1.115168e+05 -1.403328e+05
2.719249e+05 -8.695652e+04 -1.600000e+05
2.719249e+05 -1.217391e+05 -1.600000e+05
1.089297e+05 -1.091614e+05 -1.600000e+05
1.012964e+05 -1.264575e+05 -1.415875e+05
-8.333333e+04 2.678710e+05 -1.200000e+05
-1.166667e+05 2.678710e+05 -1.200000e+05
-1.000000e+05 3.000000e+05 -1.200000e+05
-1.043478e+05 3.041301e+05 -1.600000e+05
-1.391304e+05 3.041301e+05 -1.600000e+05
3.316974e+05 -1.804167e+05 -1.142213e+05
3.576306e+05 -1.565296e+05 -1.389700e+05
3.216057e+05 -1.689538e+05 -1.372341e+05
3.571458e+05 -1.909394e+05 -1.390063e+05
3.196203e+05 -1.999654e+05 -1.365805e+05
3.288256e+05 -2.123369e+05 -1.141709e+05
-1.043221e+05 -4.000000e+05 -7.886357e+04
-1.674171e+05 -1.357689e+05 -1.200000e+05
-1.561992e+05 -1.154133e+05 -1.386265e+05
-3.466457e+02 4.560365e+02 -1.200000e+05
-1.912075e+05 4.000000e+05 -9.927319e+04
-1.561033e+05 4.000000e+05 -9.947019e+04
-2.086377e+05 4.000000e+05 -7.886463e+04
2.678710e+05 8.333333e+04 -1.200000e+05
2.356282e+05 6.666667e+04 -1.200000e+05
2.557495e+05 9.693364e+04 -1.399209e+05
2.719249e+05 8.695652e+04 -1.600000e+05
2.889469e+05 8.169242e+04 -1.404970e+05
2.395442e+05 6.956522e+04 -1.600000e+05
4.000000e+05 -6.956517e+04 -1.280850e+05
-1.739649e+04 4.000000e+05 -9.927617e+04
-3.490296e+04 4.000000e+05 -7.889057e+04
-2.356282e+05 3.333333e+04 -1.200000e+05
-8.695652e+04 -2.719249e+05 -1.600000e+05
-8.271264e+04 -2.891514e+05 -1.407987e+05
1.624641e+05 -3.189256e+05 -1.393094e+05
1.565217e+05 -3.362016e+05 -1.600000e+05
1.562835e+05 -3.584435e+05 -1.372106e+05
1.913043e+05 -3.362016e+05 -1.600000e+05
1.739130e+05 -3.041301e+05 -1.600000e+05
-1.045588e+05 3.651038e+04 -1.600000e+05
-8.264964e+04 6.653411e+01 -1.379693e+05
-7.157111e+04 1.986197e+04 -1.600000e+05
-1.049358e+05 -3.333333e+04 -1.200000e+05
-7.033455e+04 -1.712183e+04 -1.200000e+05
-9.665966e+04 -4.099597e+04 -1.434505e+05
-2.275922e+05 -2.719319e+05 -1.600000e+05
-2.100029e+05 -2.389328e+05 -1.600000e+05
-3.554287e+04 1.464614e+02 -1.600000e+05
-7.150436e+04 -1.973126e+04 -1.600000e+05
8.698509e+04 4.000000e+05 -9.927827e+04
1.043221e+05 4.000000e+05 -7.886357e+04
-1.217663e+05 -4.000000e+05 -9.927598e+04
-1.391304e+05 -4.000000e+05 -1.280850e+05
-3.000000e+05 -5.093170e-11 -1.200000e+05
-2.948314e+05 -1.681621e+04 -1.393541e+05
-2.949668e+05 1.655967e+04 -1.396769e+05
-2.719249e+05 -1.739130e+04 -1.600000e+05
-2.395442e+05 -2.328306e-10 -1.600000e+05
-2.523970e+05 -2.357161e+04 -1.399305e+05
-2.678710e+05 -1.666667e+04 -1.200000e+05
-2.878524e+05 -2.153226e+05 -1.406579e+05
-8.695652e+04 -2.068996e+05 -1.600000e+05
-1.104787e+05 -2.212556e+05 -1.397903e+05
-8.333333e+04 -2.032595e+05 -1.200000e+05
-2.395442e+05 -3.478261e+04 -1.600000e+05
-2.395442e+05 -6.956522e+04 -1.600000e+05
-2.356282e+05 -1.000000e+05 -1.200000e+05
-2.395442e+05 -1.043478e+05 -1.600000e+05
-2.068996e+05 -8.695652e+04 -1.600000e+05
-1.166667e+05 2.032595e+05 -1.200000e+05
-1.107942e+05 2.213757e+05 -1.398187e+05
-1.333333e+05 2.356282e+05 -1.200000e+05
-1.000000e+05 2.356282e+05 -1.200000e+05
3.322610e+05 3.352834e+05 -1.600000e+05
3.074845e+05 3.254312e+05 -1.371682e+05
-2.027714e+05 1.524483e+05 -1.200000e+05
3.000000e+05 -2.518394e+05 -8.371149e+04
-1.974795e+04 7.152023e+04 -1.600000e+05
2.286435e+03 8.367578e+04 -1.417287e+05
1.718538e+04 7.022077e+04 -1.200000e+05
-1.217391e+05 -3.362016e+05 -1.600000e+05
-3.035270e+05 2.439898e+05 -1.600000e+05
-2.834514e+05 2.447546e+05 -1.392572e+05
-2.068996e+05 -5.217391e+04 -1.600000e+05
-2.032595e+05 1.666667e+04 -1.200000e+05
-3.802233e+05 -1.213951e+05 -1.267885e+05
-1.739130e+04 -2.719249e+05 -1.600000e+05
3.000000e+05 -2.152852e+05 -8.356192e+04
3.000000e+05 -1.811940e+05 -8.356352e+04
-2.416021e+05 2.453027e+05 -1.600000e+05
2.678710e+05 -2.166667e+05 -1.200000e+05
1.191105e+05 1.388027e+05 -1.200000e+05
1.357944e+05 1.695537e+05 -1.200000e+05
1.403667e+05 1.723665e+05 -1.600000e+05
1.284947e+05 1.877554e+05 -1.383883e+05
1.662651e+05 1.900617e+05 -1.394611e+05
2.416515e+05 -2.451064e+05 -1.600000e+05
1.715751e+05 1.707361e+05 -1.200000e+05
1.746658e+05 1.755961e+05 -1.600000e+05
-3.000000e+05 -1.333333e+05 -1.200000e+05
-2.678710e+05 -1.166667e+05 -1.200000e+05
-2.860684e+05 -1.452653e+05 -1.413341e+05
2.395442e+05 1.043478e+05 -1.600000e+05
2.356282e+05 1.000000e+05 -1.200000e+05
2.032595e+05 8.333333e+04 -1.200000e+05
6.666667e+04 -3.000000e+05 -1.200000e+05
8.274343e+04 -3.181396e+05 -1.392412e+05
4.769775e+04 -3.193546e+05 -1.364893e+05
-2.449095e+05 -2.813512e+05 -1.375228e+05
3.000000e+05 -2.333333e+05 -1.200000e+05
2.356282e+05 2.328306e-10 -1.200000e+05
1.387858e+05 -1.191167e+05 -1.200000e+05
1.040177e+05 -1.038868e+05 -1.200000e+05
1.049358e+05 -3.333333e+04 -1.200000e+05
-3.333333e+04 3.000000e+05 -1.200000e+05
-1.667104e+04 3.000000e+05 -8.338912e+04
2.340650e+05 -2.340612e+05 -1.200000e+05
2.000185e+05 -2.356194e+05 -1.200000e+05
1.980863e+05 -1.978837e+05 -1.200000e+05
1.092636e+04 3.369543e+05 -9.179482e+04
1.000000e+05 -1.707417e+05 -1.200000e+05
9.442448e+04 -1.879186e+05 -1.397291e+05
7.580921e+04 -1.551259e+05 -1.408100e+05
1.146238e+05 -1.558549e+05 -1.384938e+05
1.163598e+05 -1.388761e+05 -1.200000e+05
1.537436e+05 -1.507256e+05 -1.446285e+05
1.058206e+05 -1.720939e+05 -1.600000e+05
1.404758e+05 -1.722527e+05 -1.600000e+05
8.333333e+04 2.678710e+05 -1.200000e+05
9.223221e+04 2.524619e+05 -1.405555e+05
8.695652e+04 2.719249e+05 -1.600000e+05
1.166667e+05 2.032595e+05 -1.200000e+05
1.000000e+05 1.707417e+05 -1.200000e+05
1.107910e+05 2.213958e+05 -1.398270e+05
8.333333e+04 -2.678710e+05 -1.200000e+05
1.108407e+05 -2.887971e+05 -1.387373e+05
8.132621e+04 -2.880592e+05 -1.386804e+05
1.217391e+05 -2.719249e+05 -1.600000e+05
1.282857e+05 -2.539847e+05 -1.417735e+05
8.695652e+04 -2.719249e+05 -1.600000e+05
-1.176414e+05 1.892513e+04 -1.380897e+05
-1.380126e+05 5.000000e+04 -1.200000e+05
1.043478e+05 2.395442e+05 -1.600000e+05
1.333333e+05 2.356282e+05 -1.200000e+05
1.000000e+05 2.356282e+05 -1.200000e+05
-3.286699e+05 4.437471e+04 -1.083803e+05
1.333333e+05 3.000000e+05 -1.200000e+05
1.165761e+05 2.893093e+05 -1.409244e+05
-3.478261e+04 2.395442e+05 -1.600000e+05
-1.730072e+04 2.479969e+05 -1.403055e+05
-1.666667e+04 2.678710e+05 -1.200000e+05
-2.927569e+02 2.775160e+05 -1.405275e+05
-2.328306e-10 2.356282e+05 -1.200000e+05
-1.739130e+04 2.719249e+05 -1.600000e+05
1.712955e+04 -7.053013e+04 -1.200000e+05
5.229088e+04 -7.184117e+04 -1.200000e+05
1.985018e+04 -7.157278e+04 -1.600000e+05
4.125781e+04 -4.141257e+04 -1.600000e+05
3.041301e+05 3.478261e+04 -1.600000e+05
2.719249e+05 5.217391e+04 -1.600000e+05
2.031588e+05 1.169132e+05 -1.200000e+05
2.678710e+05 1.166667e+05 -1.200000e+05
2.546066e+05 1.291268e+05 -1.403230e+05
-1.913043e+05 4.000000e+05 -1.600000e+05
-2.086957e+05 4.000000e+05 -1.280849e+05
-2.086957e+05 3.681566e+05 -1.600000e+05
-5.217391e+04 1.402315e+05 -1.600000e+05
-1.565217e+05 4.000000e+05 -1.600000e+05
-1.739894e+05 4.000000e+05 -1.283231e+05
-1.739130e+05 3.681566e+05 -1.600000e+05
2.486724e+05 -2.693333e+05 -1.200000e+05
-2.260870e+05 -3.362016e+05 -1.600000e+05
1.057864e+05 1.721070e+05 -1.600000e+05
2.960439e+05 -3.361296e+05 -1.600000e+05
3.126723e+05 -4.000000e+05 -1.301611e+05
3.135024e+05 -3.674392e+05 -1.600000e+05
2.956522e+05 -4.000000e+05 -1.600000e+05
1.217391e+05 -2.068996e+05 -1.600000e+05
1.169197e+05 -2.031629e+05 -1.200000e+05
2.678710e+05 -1.833333e+05 -1.200000e+05
2.873674e+05 -2.144020e+05 -1.405381e+05
2.846437e+05 -1.767696e+05 -1.401917e+05
1.715846e+05 -1.707494e+05 -1.200000e+05
1.357905e+05 -1.674204e+05 -1.200000e+05
1.524483e+05 2.027705e+05 -1.200000e+05
2.156549e+05 2.192828e+05 -1.422134e+05
2.666667e+05 -3.000000e+05 -1.200000e+05
-2.928161e+05 3.580182e+05 -1.381051e+05
-2.607512e+05 -4.000000e+05 -9.928644e+04
2.166861e+05 -2.677974e+05 -1.200000e+05
3.681566e+05 -6.956522e+04 -1.600000e+05
4.000000e+05 -8.695652e+04 -1.600000e+05
2.719249e+05 1.217391e+05 -1.600000e+05
1.749878e+05 -1.755568e+05 -1.600000e+05
2.029307e+05 -1.523046e+05 -1.200000e+05
2.385089e+05 -1.749478e+05 -1.600000e+05
1.565217e+05 2.719249e+05 -1.600000e+05
1.391304e+05 3.041301e+05 -1.600000e+05
1.217391e+05 2.719249e+05 -1.600000e+05
2.389676e+05 2.100898e+05 -1.600000e+05
2.356490e+05 1.999842e+05 -1.200000e+05
2.385113e+05 1.749207e+05 -1.600000e+05
-2.356044e+05 -1.999995e+05 -1.200000e+05
-2.196071e+05 -1.851284e+05 -1.399900e+05
-2.153511e+05 -2.196972e+05 -1.422266e+05
-2.016233e+05 -2.015700e+05 -1.600000e+05
-2.392910e+05 -2.089820e+05 -1.600000e+05
-2.574755e+05 -2.316283e+05 -1.403093e+05
-2.453042e+05 -2.415858e+05 -1.600000e+05
3.041301e+05 -2.086957e+05 -1.600000e+05
3.041301e+05 -1.739130e+05 -1.600000e+05
2.719249e+05 -1.565217e+05 -1.600000e+05
2.719249e+05 -1.913043e+05 -1.600000e+05
-1.166667e+05 -2.032595e+05 -1.200000e+05
3.000000e+05 -2.000000e+05 -1.200000e+05
-1.560556e+05 -3.811650e+05 -8.422280e+04
1.678514e+05 -2.343965e+05 -1.200000e+05
-2.678710e+05 -1.500000e+05 -1.200000e+05
-2.514750e+05 -1.588342e+05 -1.391740e+05
-2.878008e+05 -1.813372e+05 -1.413069e+05
-3.041301e+05 -1.739130e+05 -1.600000e+05
-3.188707e+05 -1.598539e+05 -1.379730e+05
-2.719249e+05 -1.913043e+05 -1.600000e+05
-2.514623e+05 -1.933404e+05 -1.389330e+05
-1.738834e+05 -4.000000e+05 -7.886346e+04
-1.391011e+05 -4.000000e+05 -7.886349e+04
-1.565486e+05 -4.000000e+05 -9.927571e+04
-1.000000e+05 -1.707417e+05 -1.200000e+05
-1.217391e+05 -2.068996e+05 -1.600000e+05
-3.125173e+05 -4.000000e+05 -1.301628e+05
-2.939530e+05 -3.596410e+05 -1.387542e+05
-3.133062e+05 -3.676789e+05 -1.600000e+05
-2.960438e+05 -3.361295e+05 -1.600000e+05
-1.871331e+05 9.131661e+04 -1.390918e+05
-2.032595e+05 1.166667e+05 -1.200000e+05
-1.707417e+05 1.000000e+05 -1.200000e+05
-2.220031e+05 1.118226e+05 -1.401117e+05
2.000000e+05 3.000000e+05 -1.200000e+05
3.550533e+05 5.220725e+04 -1.375786e+05
3.362016e+05 8.695652e+04 -1.600000e+05
2.836702e+05 1.417480e+05 -1.388322e+05
2.678710e+05 1.500000e+05 -1.200000e+05
2.533124e+05 1.619709e+05 -1.404727e+05
2.888396e+05 1.829561e+05 -1.405095e+05
2.719249e+05 1.565217e+05 -1.600000e+05
4.000000e+05 -2.260870e+05 -1.600000e+05
3.681566e+05 -2.086957e+05 -1.600000e+05
-1.391304e+05 2.395442e+05 -1.600000e+05
-1.624519e+05 2.536520e+05 -1.411624e+05
-1.748442e+05 2.384935e+05 -1.600000e+05
2.356282e+05 -1.000000e+05 -1.200000e+05
2.395442e+05 -1.391304e+05 -1.600000e+05
2.678710e+05 -1.500000e+05 -1.200000e+05
2.530256e+05 -1.615729e+05 -1.407509e+05
-1.565217e+05 -2.719249e+05 -1.600000e+05
2.895038e+05 2.436858e+05 -1.388764e+05
2.719263e+05 2.275942e+05 -1.600000e+05
2.678710e+05 2.166667e+05 -1.200000e+05
2.693803e+05 2.487090e+05 -1.200000e+05
-2.356282e+05 1.000000e+05 -1.200000e+05
-2.531646e+05 1.267525e+05 -1.396557e+05
-2.719249e+05 1.565217e+05 -1.600000e+05
-2.539544e+05 1.631984e+05 -1.401750e+05
-2.356282e+05 1.333333e+05 -1.200000e+05
1.565217e+05 -2.719249e+05 -1.600000e+05
1.631591e+05 -2.539466e+05 -1.401930e+05
1.391304e+05 -2.395442e+05 -1.600000e+05
1.333333e+05 -2.356282e+05 -1.200000e+05
-2.719249e+05 -1.217391e+05 -1.600000e+05
6.956522e+04 -1.738276e+05 -1.600000e+05
3.333333e+04 -1.707417e+05 -1.200000e+05
3.478261e+04 -1.738276e+05 -1.600000e+05
3.139008e+05 -4.000000e+05 -7.844374e+04
1.739130e+04 3.362016e+05 -1.600000e+05
2.019556e+04 3.551592e+05 -1.375521e+05
3.478257e+04 4.000000e+05 -1.280850e+05
1.901770e+04 3.593006e+05 -1.113459e+05
1.739130e+04 4.000000e+05 -1.600000e+05
9.262680e-02 4.000000e+05 -1.280849e+05
-2.328306e-10 3.681566e+05 -1.600000e+05
-2.086957e+05 3.041301e+05 -1.600000e+05
-1.913043e+05 2.719249e+05 -1.600000e+05
-1.397986e+05 -8.949262e+04 -1.600000e+05
-1.050304e+05 -7.194551e+04 -1.600000e+05
-1.230083e+05 -6.116605e+04 -1.426551e+05
-1.546627e+05 -7.828831e+04 -1.392561e+05
2.333333e+05 -3.000000e+05 -1.200000e+05
-2.328306e-10 3.041301e+05 -1.600000e+05
3.333333e+04 3.000000e+05 -1.200000e+05
6.956522e+04 3.041301e+05 -1.600000e+05
-1.043478e+05 -3.041301e+05 -1.600000e+05
-8.695652e+04 -3.362016e+05 -1.600000e+05
-1.000000e+05 -3.000000e+05 -1.200000e+05
-5.000000e+04 -1.380126e+05 -1.200000e+05
-1.668807e+04 -3.000000e+05 -8.612083e+04
2.076845e+04 -3.182160e+05 -9.893260e+04
4.155822e+04 -3.285990e+05 -1.127337e+05
1.739130e+04 2.068996e+05 -1.600000e+05
-2.328306e-10 1.738276e+05 -1.600000e+05
3.478261e+04 1.738276e+05 -1.600000e+05
-5.820766e-10 1.707417e+05 -1.200000e+05
2.260870e+05 3.362016e+05 -1.600000e+05
3.680273e+05 -4.000000e+05 -1.051488e+05
3.466752e+05 -3.688682e+05 -1.600000e+05
5.238855e+04 -1.400419e+05 -1.600000e+05
3.640706e+04 -1.045471e+05 -1.600000e+05
1.787792e+04 -1.170008e+05 -1.378620e+05
6.764556e+04 -1.273611e+05 -1.398936e+05
5.000000e+04 -1.380126e+05 -1.200000e+05
3.333333e+04 -1.049358e+05 -1.200000e+05
2.095476e-09 -1.049358e+05 -1.200000e+05
0.000000e+00 -1.063301e+05 -1.600000e+05
6.017362e+01 -8.318351e+04 -1.369948e+05
3.000000e+05 -1.666667e+05 -1.200000e+05
-3.681566e+05 -1.391304e+05 -1.600000e+05
-3.661712e+05 -1.557079e+05 -1.350986e+05
-3.362016e+05 -1.565217e+05 -1.600000e+05
-2.395442e+05 1.043478e+05 -1.600000e+05
-2.068996e+05 8.695652e+04 -1.600000e+05
4.000000e+05 2.945883e+05 -9.902611e+04
3.815059e+05 2.922257e+05 -8.251481e+04
4.000000e+05 3.126723e+05 -1.301611e+05
3.378269e+05 -2.952146e+05 -1.600000e+05
2.527419e+05 3.000000e+05 -8.594652e+04
-1.402315e+05 1.739130e+04 -1.600000e+05
-1.380126e+05 -5.000000e+04 -1.200000e+05
-1.063301e+05 -2.328306e-10 -1.600000e+05
-1.045294e+05 -3.653312e+04 -1.600000e+05
-1.402315e+05 -5.217391e+04 -1.600000e+05
-2.328306e-10 1.063301e+05 -1.600000e+05
-2.444722e-09 1.049358e+05 -1.200000e+05
1.720917e+05 1.058328e+05 -1.600000e+05
1.398299e+05 8.943766e+04 -1.600000e+05
1.380126e+05 8.333333e+04 -1.200000e+05
4.000000e+05 1.376571e+05 -8.037280e+04
3.569389e+05 1.212700e+05 -7.308732e+04
1.432946e+05 -2.864422e+05 -1.404625e+05
1.500000e+05 -2.678710e+05 -1.200000e+05
1.748500e+05 -2.384967e+05 -1.600000e+05
1.912075e+05 -4.000000e+05 -9.927319e+04
1.049358e+05 2.095476e-09 -1.200000e+05
3.000000e+05 -1.333333e+05 -1.200000e+05
-3.333333e+04 -1.049358e+05 -1.200000e+05
-1.666667e+04 -7.134108e+04 -1.200000e+05
-1.969860e+04 -7.157166e+04 -1.600000e+05
-1.182563e+03 -5.835648e+04 -1.382396e+05
-1.472496e+05 3.687230e+05 -1.016938e+05
-1.500000e+05 -2.678710e+05 -1.200000e+05
-4.000000e+05 -2.434783e+05 -1.280850e+05
-4.000000e+05 -2.260443e+05 -9.927425e+04
-5.217391e+04 -3.362016e+05 -1.600000e+05
-1.425030e+05 -2.845689e+05 -1.400232e+05
-3.478261e+04 3.041301e+05 -1.600000e+05
2.346123e+05 2.332952e+05 -1.200000e+05
-2.856174e+05 1.778809e+05 -1.405217e+05
-3.041301e+05 1.739130e+05 -1.600000e+05
-3.333333e+04 2.356282e+05 -1.200000e+05
-6.666667e+04 2.356282e+05 -1.200000e+05
-2.863030e+05 1.454156e+05 -1.405686e+05
4.000000e+05 -4.000000e+05 -1.234328e+05
-3.466305e+05 -3.688687e+05 -1.600000e+05
-3.505272e+05 -4.000000e+05 -8.132527e+04
4.000000e+05 4.000000e+05 -1.600000e+05
2.090048e+05 -2.392770e+05 -1.600000e+05
3.681566e+05 3.478261e+04 -1.600000e+05
3.362016e+05 1.739130e+04 -1.600000e+05
3.681566e+05 0.000000e+00 -1.600000e+05
2.953182e+05 3.378247e+05 -1.600000e+05
4.000000e+05 1.561033e+05 -9.947019e+04
4.000000e+05 1.218925e+05 -1.107028e+05
2.678710e+05 -1.666667e+04 -1.200000e+05
3.000000e+05 5.093170e-11 -1.200000e+05
4.000000e+05 -6.956677e+04 -7.886432e+04
4.000000e+05 -5.217391e+04 -1.600000e+05
3.041301e+05 0.000000e+00 -1.600000e+05
3.681566e+05 -1.739130e+05 -1.600000e+05
3.681566e+05 -1.391304e+05 -1.600000e+05
3.362016e+05 -1.565217e+05 -1.600000e+05
-1.043478e+05 -4.000000e+05 -1.280850e+05
-1.043478e+05 -3.681566e+05 -1.600000e+05
1.217391e+05 -3.362016e+05 -1.600000e+05
1.391304e+05 -3.041301e+05 -1.600000e+05
5.000000e+04 -2.678710e+05 -1.200000e+05
-2.260870e+05 -4.000000e+05 -1.600000e+05
-2.434783e+05 -3.681566e+05 -1.600000e+05
1.565217e+05 -4.000000e+05 -1.600000e+05
1.739894e+05 -4.000000e+05 -1.283231e+05
1.739130e+05 -3.681566e+05 -1.600000e+05
-1.913043e+05 -4.000000e+05 -1.600000e+05
-2.343955e+05 -1.678482e+05 -1.200000e+05
-2.385126e+05 -1.748481e+05 -1.600000e+05
-4.000000e+05 -1.736685e+05 -7.888604e+04
-2.719249e+05 -1.565217e+05 -1.600000e+05
-6.817304e+04 4.000000e+05 -1.298395e+05
-2.678710e+05 -1.833333e+05 -1.200000e+05
-2.260870e+05 4.000000e+05 -1.600000e+05
-3.653383e+04 1.045305e+05 -1.600000e+05
7.110224e+04 1.684749e+04 -1.200000e+05
1.049358e+05 3.333333e+04 -1.200000e+05
3.041301e+05 -1.391304e+05 -1.600000e+05
-2.385189e+05 1.749640e+05 -1.600000e+05
1.739130e+04 -4.000000e+05 -1.600000e+05
0.000000e+00 -3.681566e+05 -1.600000e+05
-5.000809e+04 -3.000000e+05 -8.610262e+04
-2.343997e+05 1.678521e+05 -1.200000e+05
-2.678710e+05 1.166667e+05 -1.200000e+05
3.000000e+05 5.166536e+04 -8.627700e+04
4.000000e+05 4.000000e+05 -1.234328e+05
1.391011e+05 4.000000e+05 -7.886349e+04
1.217663e+05 4.000000e+05 -9.927598e+04
1.738834e+05 4.000000e+05 -7.886346e+04
-5.217391e+04 4.000000e+05 -1.600000e+05
-6.956522e+04 3.681566e+05 -1.600000e+05
-2.719228e+05 2.275803e+05 -1.600000e+05
-2.541081e+05 1.966254e+05 -1.401040e+05
-2.677974e+05 2.166861e+05 -1.200000e+05
2.775699e+05 3.039950e+05 -1.600000e+05
2.086957e+05 3.681566e+05 -1.600000e+05
1.913043e+05 4.000000e+05 -1.600000e+05
3.681566e+05 2.434783e+05 -1.600000e+05
3.681566e+05 2.782609e+05 -1.600000e+05
-1.739130e+04 2.068996e+05 -1.600000e+05
-3.333333e+04 1.049358e+05 -1.200000e+05
2.328306e-10 -2.356282e+05 -1.200000e+05
3.333333e+04 -2.356282e+05 -1.200000e+05
1.739130e+04 -2.068996e+05 -1.600000e+05
1.833667e+05 -3.000000e+05 -8.329350e+04
-3.041301e+05 -3.478261e+04 -1.600000e+05
-3.041301e+05 -2.328306e-10 -1.600000e+05
-2.356282e+05 -3.333333e+04 -1.200000e+05
-3.693033e+05 3.467098e+05 -1.600000e+05
-3.681566e+05 3.130435e+05 -1.600000e+05
-3.342262e+05 3.338343e+05 -1.600000e+05
2.498395e+05 1.919093e+05 -1.383482e+05
1.043478e+05 -3.041301e+05 -1.600000e+05
1.000000e+05 -3.000000e+05 -1.200000e+05
-4.000000e+05 -4.000000e+05 -8.686567e+04
2.719249e+05 1.913043e+05 -1.600000e+05
-6.956517e+04 -4.000000e+05 -1.280850e+05
1.913043e+05 -2.719249e+05 -1.600000e+05
-4.000000e+05 -1.739130e+04 -1.600000e+05
-1.677950e+05 2.344432e+05 -1.200000e+05
-4.000000e+05 -3.139008e+05 -7.844374e+04
-4.000000e+05 -1.561033e+05 -9.947019e+04
-3.139008e+05 4.000000e+05 -7.844374e+04
-3.119811e+05 3.063039e+05 -1.600000e+05
-4.000000e+05 -2.086377e+05 -7.886463e+04
4.000000e+05 1.739130e+04 -1.600000e+05
4.000000e+05 3.469557e+04 -1.283199e+05
-4.000000e+05 -4.000000e+05 -1.234328e+05
4.000000e+05 3.505277e+05 -8.131819e+04
4.000000e+05 3.304348e+05 -1.600000e+05
4.000000e+05 2.956522e+05 -1.600000e+05
3.674401e+05 3.135020e+05 -1.600000e+05
-3.041301e+05 -1.391304e+05 -1.600000e+05
-1.738276e+05 6.956522e+04 -1.600000e+05
-3.000000e+05 -8.463223e+02 -8.584540e+04
-3.000000e+05 3.333333e+04 -1.200000e+05
-2.678710e+05 1.833333e+05 -1.200000e+05
-2.168888e+05 3.000000e+05 -8.329679e+04
-3.041301e+05 2.086957e+05 -1.600000e+05
3.352865e+05 -3.322238e+05 -1.600000e+05
3.681566e+05 -3.130435e+05 -1.600000e+05
3.362016e+05 -1.913043e+05 -1.600000e+05
4.000000e+05 1.912075e+05 -9.927319e+04
4.000000e+05 2.260443e+05 -9.927425e+04
5.255098e+04 -4.000000e+05 -9.946212e+04
-3.352637e+05 -3.322868e+05 -1.600000e+05
7.100429e+04 -4.000000e+05 -8.036529e+04
-1.742320e+04 -4.000000e+05 -9.927559e+04
-5.220474e+04 -4.000000e+05 -9.927827e+04
-3.304348e+05 -4.000000e+05 -1.600000e+05
-4.000000e+05 1.565486e+05 -9.927571e+04
-4.000000e+05 1.391011e+05 -7.886349e+04
-4.000000e+05 1.738834e+05 -7.886346e+04
-1.739130e+05 -3.041301e+05 -1.600000e+05
6.956522e+04 -3.041301e+05 -1.600000e+05
4.295217e+04 -2.860976e+05 -1.401923e+05
-3.041301e+05 6.956522e+04 -1.600000e+05
3.333333e+04 -3.000000e+05 -1.200000e+05
1.683785e+04 -3.081194e+05 -1.377135e+05
5.217391e+04 -3.362016e+05 -1.600000e+05
-4.000000e+05 2.086956e+05 -1.280850e+05
2.543327e+05 2.324406e+05 -1.409441e+05
-3.681566e+05 2.086957e+05 -1.600000e+05
-3.362016e+05 2.260870e+05 -1.600000e+05
-1.739130e+04 -3.362016e+05 -1.600000e+05
1.739130e+04 -3.362016e+05 -1.600000e+05
-7.149951e+04 4.972950e+04 -1.200000e+05
-2.678710e+05 5.000000e+04 -1.200000e+05
-1.217391e+05 -4.000000e+05 -1.600000e+05
-2.677786e+05 -2.166944e+05 -1.200000e+05
4.000000e+05 -2.607512e+05 -9.928644e+04
-4.000000e+05 -8.674306e+04 -1.107005e+05
4.000000e+05 -2.956522e+05 -1.600000e+05
1.913043e+05 2.719249e+05 -1.600000e+05
-2.678710e+05 1.500000e+05 -1.200000e+05
1.091743e+05 1.089504e+05 -1.600000e+05
-2.719249e+05 1.913043e+05 -1.600000e+05
-4.460349e+04 3.218434e+05 -1.377175e+05
-2.719249e+05 1.217391e+05 -1.600000e+05
4.000000e+05 -1.738834e+05 -7.886346e+04
4.000000e+05 -1.739130e+05 -1.280850e+05
4.000000e+05 1.217391e+05 -1.600000e+05
3.681566e+05 1.043478e+05 -1.600000e+05
-4.000000e+05 1.913043e+05 -1.600000e+05
-2.863098e+05 1.112407e+05 -1.400891e+05
4.000000e+05 2.782176e+05 -1.283450e+05
6.896267e+04 -1.033480e+05 -1.200000e+05
7.208942e+04 -1.048952e+05 -1.600000e+05
2.260870e+05 4.000000e+05 -1.600000e+05
2.434783e+05 3.681566e+05 -1.600000e+05
-1.384128e+05 -1.165380e+05 -1.200000e+05
-1.754511e+05 -1.747225e+05 -1.600000e+05
3.745283e+04 -2.816634e+02 -1.200000e+05
5.826581e+04 -1.514664e+03 -1.384577e+05
-2.260443e+05 4.000000e+05 -9.927425e+04
-1.013863e+05 -6.891233e+04 -1.200000e+05
-8.156753e+04 -8.232407e+04 -1.434904e+05
-2.526823e+05 -3.000000e+05 -8.595515e+04
-8.695652e+04 -4.000000e+05 -1.600000e+05
1.657547e+04 -3.000000e+05 -8.336044e+04
3.813321e+05 1.869559e+05 -8.273240e+04
4.000000e+05 -3.243565e+05 -1.049219e+05
4.000000e+05 -4.000000e+05 -8.686567e+04
-3.041301e+05 3.478261e+04 -1.600000e+05
3.000000e+05 2.000000e+05 -1.200000e+05
-1.739130e+04 3.362016e+05 -1.600000e+05
4.000000e+05 1.043457e+05 -1.313395e+05
4.000000e+05 8.695652e+04 -1.600000e+05
4.000000e+05 6.817304e+04 -1.298395e+05
4.000000e+05 -1.913303e+05 -9.927549e+04
4.000000e+05 -2.086686e+05 -7.886305e+04
3.500528e+04 -1.518763e+05 -1.387488e+05
1.666667e+04 -1.380126e+05 -1.200000e+05
-1.739130e+04 -4.000000e+05 -1.600000e+05
2.356282e+05 1.333333e+05 -1.200000e+05
2.395442e+05 1.391304e+05 -1.600000e+05
0.000000e+00 -3.041301e+05 -1.600000e+05
-3.478261e+04 -3.041301e+05 -1.600000e+05
8.943287e+04 -1.398293e+05 -1.600000e+05
3.652174e+05 -4.000000e+05 -1.600000e+05
6.666667e+04 -1.707417e+05 -1.200000e+05
3.478261e+04 -3.041301e+05 -1.600000e+05
-3.041301e+05 -2.086957e+05 -1.600000e+05
3.304348e+05 -4.000000e+05 -1.600000e+05
-3.681566e+05 -2.434783e+05 -1.600000e+05
-3.681566e+05 -2.086957e+05 -1.600000e+05
-4.000000e+05 -2.260870e+05 -1.600000e+05
4.972630e+04 7.148924e+04 -1.200000e+05
6.709380e+04 6.696860e+04 -1.600000e+05
8.231200e+04 8.102750e+04 -1.434162e+05
2.344438e+05 1.677931e+05 -1.200000e+05
3.362016e+05 -5.217391e+04 -1.600000e+05
3.362016e+05 1.217391e+05 -1.600000e+05
2.678710e+05 1.833333e+05 -1.200000e+05
4.000000e+05 2.086377e+05 -7.886463e+04
4.000000e+05 -1.217391e+05 -1.600000e+05
4.000000e+05 1.736685e+05 -7.888604e+04
-3.500253e+05 3.687974e+05 -1.600000e+05
-3.133237e+05 3.678989e+05 -1.600000e+05
8.333333e+04 -1.380126e+05 -1.200000e+05
1.125931e+05 3.198529e+05 -1.390001e+05
1.217391e+05 3.362016e+05 -1.600000e+05
1.233851e+05 3.593391e+05 -1.389171e+05
-2.719249e+05 5.217391e+04 -1.600000e+05
-1.833333e+05 2.678710e+05 -1.200000e+05
-1.738276e+05 -6.956522e+04 -1.600000e+05
-1.707417e+05 -6.666667e+04 -1.200000e+05
-2.692466e+05 2.486538e+05 -1.200000e+05
-5.225433e+04 -7.189412e+04 -1.200000e+05
1.000000e+05 -2.356282e+05 -1.200000e+05
3.111347e+05 -3.056378e+05 -1.600000e+05
-1.666667e+04 2.032595e+05 -1.200000e+05
-5.000000e+04 2.032595e+05 -1.200000e+05
-3.759525e+04 -1.001944e+02 -1.200000e+05
-1.803418e+04 -2.138046e+04 -1.392745e+05
1.434252e+04 -1.386000e+04 -1.374660e+05
1.994575e+02 -3.749067e+04 -1.200000e+05
8.069815e+01 -3.564421e+04 -1.600000e+05
-1.374810e+05 -8.373833e+04 -1.200000e+05
-3.373680e+04 -3.616091e+04 -1.200000e+05
-4.125419e+04 -4.138280e+04 -1.600000e+05
2.747606e+02 -5.813291e+02 -1.600000e+05
3.518316e+04 -3.527438e+04 -1.200000e+05
3.560177e+04 7.008440e+01 -1.600000e+05
1.812420e+04 1.388282e+04 -1.415426e+05
-4.000000e+05 4.000000e+05 -8.686567e+04
7.187047e+04 5.226037e+04 -1.200000e+05
1.033538e+05 6.893700e+04 -1.200000e+05
1.045436e+05 3.640608e+04 -1.600000e+05
3.680197e+05 4.000000e+05 -1.051716e+05
-2.959249e+05 3.361641e+05 -1.600000e+05
-3.126723e+05 4.000000e+05 -1.301611e+05
-1.500000e+05 2.678710e+05 -1.200000e+05
-1.565217e+05 2.719249e+05 -1.600000e+05
-7.100429e+04 4.000000e+05 -8.036529e+04
3.000000e+05 8.438818e+04 -8.609555e+04
-3.041301e+05 1.043478e+05 -1.600000e+05
-3.041301e+05 1.391304e+05 -1.600000e+05
8.695652e+04 -3.362016e+05 -1.600000e+05
-3.478261e+04 -3.681566e+05 -1.600000e+05
-5.217391e+04 -4.000000e+05 -1.600000e+05
-6.956522e+04 -3.681566e+05 -1.600000e+05
1.405259e+05 -4.000000e+05 -1.298366e+05
2.086957e+05 -3.681566e+05 -1.600000e+05
1.166667e+05 -2.678710e+05 -1.200000e+05
2.356282e+05 -1.333333e+05 -1.200000e+05
-2.729443e+05 -2.270052e+05 -1.600000e+05
-3.652174e+05 4.000000e+05 -1.600000e+05
-4.000000e+05 4.000000e+05 -1.234328e+05
-4.000000e+05 4.000000e+05 -1.600000e+05
-4.000000e+05 2.956522e+05 -1.600000e+05
-4.000000e+05 3.304348e+05 -1.600000e+05
-5.217391e+04 3.362016e+05 -1.600000e+05
4.000000e+05 -1.739130e+04 -1.600000e+05
-2.068996e+05 5.217391e+04 -1.600000e+05
-1.738276e+05 3.478261e+04 -1.600000e+05
2.607512e+05 4.000000e+05 -9.928644e+04
2.261070e+05 4.000000e+05 -9.928569e+04
4.000000e+05 2.782569e+05 -7.878860e+04
4.000000e+05 3.139008e+05 -7.844374e+04
1.043478e+05 3.041301e+05 -1.600000e+05
1.391304e+05 -3.681566e+05 -1.600000e+05
-1.720780e+05 -1.058531e+05 -1.600000e+05
-4.000000e+05 -5.217391e+04 -1.600000e+05
4.000000e+05 -1.217663e+05 -9.927598e+04
5.217391e+04 -2.719249e+05 -1.600000e+05
1.739130e+04 -2.719249e+05 -1.600000e+05
7.158057e+04 1.970622e+04 -1.600000e+05
1.063301e+05 0.000000e+00 -1.600000e+05
1.049003e+05 7.208962e+04 -1.600000e+05
-4.000000e+05 -8.695652e+04 -1.600000e+05
-6.696770e+04 -6.708310e+04 -1.600000e+05
-6.708374e+04 6.697873e+04 -1.600000e+05
-1.380126e+05 1.666667e+04 -1.200000e+05
2.655909e+01 4.000000e+05 -7.886343e+04
-4.000000e+05 -1.913043e+05 -1.600000e+05
-4.000000e+05 1.217391e+05 -1.600000e+05
-3.681566e+05 1.391304e+05 -1.600000e+05
-4.000000e+05 5.220474e+04 -9.927827e+04
-2.440698e+05 -3.035211e+05 -1.600000e+05
-4.000000e+05 -2.956522e+05 -1.600000e+05
-4.000000e+05 1.043221e+05 -7.886357e+04
-4.000000e+05 -2.434429e+05 -7.886194e+04
-1.736685e+05 4.000000e+05 -7.888604e+04
2.434429e+05 -4.000000e+05 -7.886194e+04
-2.434783e+05 3.681566e+05 -1.600000e+05
-3.304348e+05 4.000000e+05 -1.600000e+05
2.086377e+05 -4.000000e+05 -7.886463e+04
8.695652e+04 4.000000e+05 -1.600000e+05
4.000000e+05 -3.481145e+04 -7.886354e+04
2.260870e+05 -4.000000e+05 -1.600000e+05
2.434889e+05 4.000000e+05 -7.885642e+04
2.086686e+05 4.000000e+05 -7.886305e+04
3.681566e+05 6.956522e+04 -1.600000e+05
-4.000000e+05 8.695652e+04 -1.600000e+05
-4.000000e+05 6.956517e+04 -1.280850e+05
-4.000000e+05 2.260870e+05 -1.600000e+05
-3.681566e+05 2.434783e+05 -1.600000e+05
2.416112e+05 2.453977e+05 -1.600000e+05
1.913043e+05 -4.000000e+05 -1.600000e+05
1.676484e+04 3.000000e+05 -8.327257e+04
-7.024570e+04 1.715146e+04 -1.200000e+05
4.000000e+05 5.217391e+04 -1.600000e+05
1.391304e+05 3.681566e+05 -1.600000e+05
-4.000000e+05 -1.043457e+05 -1.313395e+05
-4.000000e+05 6.956677e+04 -7.886432e+04
-4.000000e+05 3.652174e+05 -1.600000e+05
3.130435e+05 3.681566e+05 -1.600000e+05
-3.652174e+05 -4.000000e+05 -1.600000e+05
-4.000000e+05 -1.376571e+05 -8.037280e+04
-4.000000e+05 -1.739894e+05 -1.283231e+05
-3.362016e+05 -1.913043e+05 -1.600000e+05
-4.000000e+05 -1.565217e+05 -1.600000e+05
-4.000000e+05 -1.405259e+05 -1.298366e+05
-3.362016e+05 1.217391e+05 -1.600000e+05
1.043478e+05 4.000000e+05 -1.280850e+05
-3.478261e+04 3.681566e+05 -1.600000e+05
4.000000e+05 1.913043e+05 -1.600000e+05
-3.681566e+05 -1.739130e+05 -1.600000e+05
-4.000000e+05 -1.217391e+05 -1.600000e+05
4.000000e+05 -1.565217e+05 -1.600000e+05
-1.391304e+05 -3.681566e+05 -1.600000e+05
1.217391e+05 4.000000e+05 -1.600000e+05
1.043478e+05 3.681566e+05 -1.600000e+05
-4.000000e+05 -3.505277e+05 -8.131819e+04
-1.739130e+04 4.000000e+05 -1.600000e+05
4.000000e+05 2.608696e+05 -1.600000e+05
-3.681566e+05 6.956522e+04 -1.600000e+05
-7.153514e+04 -4.999860e+04 -1.200000e+05
-2.956522e+05 -4.000000e+05 -1.600000e+05
-1.565217e+05 -4.000000e+05 -1.600000e+05
4.000000e+05 -4.000000e+05 -1.600000e+05
-2.166667e+05 2.678710e+05 -1.200000e+05
-4.000000e+05 5.217391e+04 -1.600000e+05
4.000000e+05 2.260870e+05 -1.600000e+05
-4.000000e+05 -4.000000e+05 -1.600000e+05
-2.956522e+05 4.000000e+05 -1.600000e+05
-1.049358e+05 -2.211891e-09 -1.200000e+05
4.000000e+05 -1.913043e+05 -1.600000e+05
-3.099448e+05 -1.890656e+05 -6.036592e+04
-3.000000e+05 -2.039101e+05 -6.806201e+04
-3.000000e+05 -1.849378e+05 -6.698057e+04
3.122706e+05 8.727847e+04 -5.960623e+04
3.000000e+05 7.938840e+04 -6.804778e+04
3.108764e+05 6.754755e+04 -6.348016e+04
3.215299e+05 7.042289e+04 -5.674008e+04
3.000000e+05 6.302699e+04 -6.813850e+04
-3.000000e+05 -1.983294e+05 -5.903101e+04
-3.049724e+05 -1.909071e+05 -5.518296e+04
-3.000000e+05 -1.888432e+05 -5.849028e+04
3.000000e+05 7.688851e+04 -5.902389e+04
3.061353e+05 8.083355e+04 -5.480311e+04
3.054382e+05 7.096808e+04 -5.674008e+04
3.107649e+05 7.240575e+04 -5.337004e+04
3.000000e+05 6.870780e+04 -5.906925e+04
2.432442e+05 -2.556875e+05 -9.830595e+04
2.441949e+05 -2.243046e+05 -9.698985e+04
2.721473e+05 -2.276514e+05 -9.634604e+04
2.483071e+05 -1.838452e+05 -9.742153e+04
2.374747e+05 -2.469813e+05 -7.411637e+04
2.488613e+05 -2.101111e+05 -7.389140e+04
2.671073e+05 -2.333209e+05 -7.338313e+04
2.191835e+05 -2.141279e+05 -7.057029e+04
2.180345e+05 -2.315131e+05 -9.268226e+04
2.165991e+05 -2.046579e+05 -9.646980e+04
8.823057e+04 -8.297662e+04 -8.333335e+04
9.150342e+04 -4.506137e+04 -9.635253e+04
6.323416e+04 -7.307905e+04 -8.720565e+04
6.083696e+04 -4.575684e+04 -8.169930e+04
8.873907e+04 -4.927303e+04 -7.461156e+04
2.873849e+04 -5.345256e+04 -9.641849e+04
3.486126e+04 -8.743682e+04 -8.514277e+04
3.204863e+04 -6.225301e+04 -7.380883e+04
8.861342e+04 -1.125063e+05 -8.433524e+04
6.039622e+04 -1.079344e+05 -7.204645e+04
3.259935e+04 -1.220255e+05 -7.170500e+04
5.431015e+04 -1.122860e+05 -9.655547e+04
-6.518759e+04 -1.247908e+05 -9.283775e+04
-4.552199e+04 -1.311816e+05 -7.233216e+04
-4.736676e+04 -9.729969e+04 -8.157833e+04
-7.550336e+04 -1.075218e+05 -7.335229e+04
-1.339847e+05 2.690453e+05 -8.312235e+04
-1.434659e+05 2.340318e+05 -9.667088e+04
-1.197029e+05 2.484413e+05 -9.909762e+04
-1.038505e+05 2.728217e+05 -9.960436e+04
-1.803829e+05 1.933789e+05 -7.296114e+04
-2.261049e+05 2.066253e+05 -7.135086e+04
-1.207630e+05 2.204556e+05 -9.861229e+04
-9.081192e+04 2.359397e+05 -9.555051e+04
-9.887597e+04 2.657372e+05 -7.490121e+04
2.758249e+03 -7.785682e+04 -8.795419e+04
-3.194674e+03 -5.942696e+04 -7.596208e+04
2.043363e+05 -9.147999e+04 -9.916633e+04
1.894744e+05 -5.481961e+04 -9.801150e+04
1.812899e+05 -8.519433e+04 -7.954866e+04
2.058953e+04 2.369356e+05 -7.366110e+04
4.898152e+04 2.378517e+05 -9.444016e+04
3.227063e+04 2.649870e+05 -9.558699e+04
3.948734e+04 2.608083e+05 -7.017010e+04
6.558354e+04 2.702001e+05 -7.332683e+04
5.914665e+04 2.251992e+05 -7.106153e+04
7.866312e+04 2.428936e+05 -7.202292e+04
-1.998308e+05 -2.745769e+05 -9.015315e+04
-2.156120e+05 -2.494535e+05 -9.811072e+04
-1.735729e+05 -1.438940e+05 -7.627876e+04
-1.595414e+05 -1.685811e+05 -8.598203e+04
-1.908398e+05 -1.743470e+05 -6.976115e+04
-1.757059e+05 -2.004302e+05 -8.717220e+04
-1.929013e+05 -2.168187e+05 -7.146995e+04
-2.094041e+05 -1.925172e+05 -9.071790e+04
-2.493207e+05 9.775342e+04 -7.331010e+04
-2.737645e+05 1.241352e+05 -8.301746e+04
-2.342909e+05 1.178279e+05 -9.549508e+04
-2.659445e+05 9.771980e+04 -9.777634e+04
-2.518240e+05 1.397802e+05 -9.984420e+04
-2.499610e+05 6.536098e+04 -9.182324e+04
-2.788417e+05 6.897642e+04 -9.897790e+04
-2.734448e+05 8.491434e+04 -7.507431e+04
-2.760743e+05 2.068058e+04 -8.780060e+04
-2.217143e+05 2.017187e+05 -9.399214e+04
-1.910235e+05 2.171656e+05 -9.074227e+04
-2.503303e+05 3.489388e+04 -9.605898e+04
-2.740118e+05 5.245035e+04 -7.682147e+04
-2.768723e+05 4.315320e+04 -1.010848e+05
-5.363633e+04 2.681339e+04 -8.255496e+04
-8.145922e+03 1.477450e+04 -7.356813e+04
-4.378995e+04 -2.361021e+03 -8.494824e+04
-2.411725e+05 -2.581636e+05 -7.378194e+04
-5.400687e+04 -3.454097e+04 -8.814256e+04
-2.350181e+04 -2.566105e+04 -8.652714e+04
-2.465290e+05 -2.572301e+05 -9.911194e+04
-6.171439e+04 -4.492638e+03 -7.020308e+04
1.192091e+05 5.118275e+03 -9.809096e+04
1.200290e+05 -3.335454e+04 -9.898024e+04
9.432076e+04 -1.717218e+04 -7.567945e+04
9.077134e+04 -5.313728e+03 -9.836986e+04
6.682755e+04 -5.954851e+03 -7.973657e+04
7.000771e+04 3.848443e+04 -8.487048e+04
1.921946e+05 -2.207792e+04 -9.535771e+04
2.137915e+05 -3.463183e+04 -7.569135e+04
2.181008e+05 -4.401443e+04 -1.014868e+05
-2.251961e+05 -2.184605e+05 -8.556316e+04
-2.556719e+05 -2.288471e+05 -9.503705e+04
2.221908e+05 -8.414988e+03 -9.851620e+04
2.160595e+05 -6.337296e+04 -8.156696e+04
2.449598e+05 -7.225560e+04 -9.511491e+04
2.516536e+05 -4.074154e+04 -7.177676e+04
2.453436e+05 -3.727952e+04 -9.644191e+04
2.196315e+05 2.141950e+05 -7.230338e+04
2.480383e+05 2.384951e+05 -7.139438e+04
2.302185e+05 2.304763e+05 -8.868656e+04
2.177983e+05 2.474033e+05 -6.971737e+04
1.917434e+05 2.525589e+05 -8.113140e+04
2.020509e+05 2.764434e+05 -8.220893e+04
2.591861e+05 1.322199e+05 -7.308862e+04
2.592884e+05 1.587734e+05 -9.424017e+04
-8.912039e+04 3.850264e+04 -9.411457e+04
-1.347419e+05 2.893377e+04 -9.550707e+04
-1.286551e+05 3.947568e+04 -7.333402e+04
-1.090141e+05 5.831822e+04 -8.468242e+04
-2.474889e+05 2.411186e+05 -7.180701e+04
-2.706557e+05 2.285254e+05 -8.315121e+04
-2.440177e+05 2.204305e+05 -9.584125e+04
2.339895e+05 2.733394e+05 -7.251981e+04
-2.519283e+05 6.479431e+04 -6.761719e+04
-2.082360e+05 6.250177e+04 -8.175386e+04
-1.920163e+05 2.777929e+04 -7.272778e+04
-2.274197e+05 4.586175e+04 -7.313766e+04
-2.246765e+05 1.512682e+04 -7.788494e+04
-2.221225e+05 8.203618e+04 -7.122687e+04
-1.956386e+05 3.856827e+04 -9.559380e+04
-2.199998e+05 4.876451e+04 -1.011429e+05
-2.528420e+05 3.419332e+04 -7.055328e+04
1.053382e+05 2.562583e+05 -1.000484e+05
8.560258e+04 2.336306e+05 -9.592702e+04
1.193903e+05 2.216320e+05 -9.797331e+04
1.460334e+05 2.346421e+05 -9.514217e+04
1.415183e+05 1.882413e+05 -9.583253e+04
1.324286e+05 2.070012e+05 -7.175995e+04
9.899434e+04 2.026069e+05 -1.016333e+05
-2.505047e+05 1.371752e+05 -7.322133e+04
-2.245245e+05 1.510092e+05 -8.110857e+04
-2.191192e+05 1.149577e+05 -7.266851e+04
-2.290130e+05 8.714474e+04 -9.798932e+04
1.909107e+05 1.295753e+05 -7.290093e+04
1.112373e+05 -6.173108e+04 -7.279551e+04
1.835240e+05 7.031151e+04 -9.699314e+04
1.605285e+05 9.197172e+04 -9.989182e+04
1.912104e+05 9.658404e+04 -7.475332e+04
1.875710e+05 1.094679e+05 -9.957760e+04
1.619202e+05 1.161759e+05 -8.754122e+04
1.702466e+05 1.526310e+05 -8.394086e+04
1.224530e+05 -8.079620e+04 -9.174352e+04
2.157351e+05 1.147303e+05 -9.725818e+04
1.978421e+05 1.426841e+05 -9.856824e+04
2.044708e+05 -2.481496e+05 -7.430237e+04
1.890367e+05 -2.226393e+05 -7.180287e+04
1.889065e+05 -2.269502e+05 -9.598676e+04
2.109612e+05 -2.528192e+05 -9.850478e+04
-8.014033e+04 6.670158e+03 -9.767168e+04
-1.164149e+05 -8.999016e+03 -9.724047e+04
-8.713868e+04 2.637840e+03 -7.203543e+04
-1.098834e+05 1.576239e+04 -7.845310e+04
-1.445162e+05 -4.318129e+02 -9.036868e+04
-8.759455e+04 3.997404e+04 -7.012623e+04
1.467484e+05 -1.110337e+05 -8.564339e+04
1.510473e+05 -8.566403e+04 -8.541146e+04
1.586846e+05 -6.564522e+04 -9.854908e+04
1.104174e+05 -9.772104e+04 -6.926463e+04
-2.493865e+05 -1.833516e+05 -8.071574e+04
-2.180933e+05 -1.657981e+05 -8.102217e+04
-1.912817e+05 -2.271526e+05 -9.388788e+04
4.555434e+04 2.161424e+04 -7.171144e+04
1.509737e+04 4.102224e+04 -8.340631e+04
3.999602e+04 6.237672e+04 -7.126447e+04
4.059973e+04 5.385092e+04 -9.796718e+04
7.005456e+04 7.490381e+04 -9.679083e+04
4.662262e+04 1.511833e+04 -9.723326e+04
3.894825e+04 8.420824e+04 -8.711537e+04
-2.626895e+05 -1.537164e+05 -9.531897e+04
-2.594157e+05 -1.585247e+05 -7.284731e+04
-2.828893e+05 -1.674894e+05 -7.634614e+04
1.199745e+05 -2.784684e+04 -7.451889e+04
1.358747e+05 -2.199274e+05 -9.664581e+04
1.645984e+05 -2.142166e+05 -9.505179e+04
1.699884e+05 -2.481737e+05 -7.313355e+04
1.524851e+05 -2.193162e+05 -7.145022e+04
1.525536e+05 -2.430123e+05 -9.630990e+04
1.464732e+05 -2.703274e+05 -8.502985e+04
1.778465e+05 -2.574871e+05 -9.877313e+04
1.153963e+05 -1.269679e+05 -8.619401e+04
-8.800374e+04 1.818463e+05 -7.334031e+04
2.204974e+04 -2.525974e+05 -9.960299e+04
1.265783e+05 2.725353e+05 -9.736929e+04
1.163260e+05 2.399874e+05 -7.437300e+04
9.876946e+04 2.668378e+05 -7.456495e+04
-1.636782e+05 2.704070e+05 -9.787047e+04
6.991588e+04 2.653816e+05 -9.678244e+04
2.790759e+05 2.365364e+05 -9.916994e+04
2.518438e+05 2.308190e+05 -9.815406e+04
2.219320e+05 2.070791e+05 -9.750657e+04
2.615261e+05 1.965173e+05 -9.744330e+04
2.473252e+05 1.995948e+05 -7.444082e+04
2.740846e+05 2.252928e+05 -7.633655e+04
-2.460686e+05 -2.601028e+03 -9.783330e+04
-2.531899e+05 3.491339e+03 -7.401903e+04
-1.379776e+05 -1.503097e+05 -9.138417e+04
-4.527299e+04 -2.137560e+05 -9.830970e+04
-4.351557e+04 -2.407250e+05 -9.525822e+04
-1.892235e+04 -2.198109e+05 -9.455065e+04
-2.744727e+05 -2.405804e+05 -7.751739e+04
-2.743301e+05 -2.045986e+05 -7.382519e+04
-6.705355e+04 -2.483751e+05 -7.438411e+04
-3.285886e+04 -2.647387e+05 -7.372989e+04
-3.635331e+04 -2.680338e+05 -9.830986e+04
-7.666405e+04 -2.513792e+05 -9.976775e+04
-1.170726e+04 -2.493993e+05 -1.003868e+05
1.562310e+03 -2.736757e+05 -8.758908e+04
2.658896e+04 -2.460833e+05 -7.454859e+04
-7.740302e+03 -2.453246e+05 -7.591012e+04
3.586321e+04 -2.728297e+05 -8.232603e+04
-2.494182e+05 1.736627e+05 -7.178793e+04
-2.250398e+05 1.767392e+05 -7.324324e+04
-1.977910e+05 1.723181e+05 -7.443959e+04
-2.219306e+05 -7.382662e+04 -9.841095e+04
-2.108736e+05 -4.416585e+04 -9.667215e+04
-2.366072e+05 -4.153322e+04 -8.252173e+04
-2.072787e+05 1.777143e+05 -9.944146e+04
-2.450644e+05 1.712716e+05 -9.619550e+04
-1.915869e+05 1.414850e+05 -8.713587e+04
-1.759291e+05 1.855759e+05 -9.798708e+04
-1.402401e+05 1.919929e+05 -9.678877e+04
-1.625890e+05 2.139111e+05 -8.674709e+04
-1.591100e+05 2.392950e+05 -7.600818e+04
-1.870635e+05 2.495221e+05 -9.619633e+04
-1.351186e+05 2.080716e+05 -7.388838e+04
-2.161166e+05 2.397692e+05 -8.176475e+04
-2.510988e+05 2.444381e+05 -9.868312e+04
-2.378605e+05 2.678963e+05 -9.303801e+04
-2.648452e+05 1.956817e+05 -8.578040e+04
1.995058e+05 -2.759357e+05 -8.724222e+04
2.319301e+05 2.610406e+05 -9.501035e+04
2.077942e+05 2.346055e+05 -9.701110e+04
2.744137e+05 1.104575e+05 -9.406541e+04
2.462894e+05 9.790722e+04 -9.487053e+04
2.556021e+05 9.508248e+04 -7.131149e+04
2.771139e+05 7.649065e+04 -8.283293e+04
2.458472e+05 1.246360e+05 -9.833245e+04
2.307120e+05 -2.734230e+05 -8.024762e+04
2.710570e+05 -2.703921e+05 -8.405785e+04
7.057691e+03 -2.045404e+04 -8.586883e+04
1.985568e+04 -3.547210e+04 -7.284555e+04
4.662055e+04 -1.860565e+04 -8.266123e+04
2.766318e+04 -2.129334e+03 -7.324580e+04
-2.735493e+05 1.605046e+05 -8.444317e+04
2.489327e+05 -7.404733e+04 -7.009220e+04
2.475915e+05 -1.090414e+05 -7.882538e+04
4.994064e+04 -1.511666e+05 -7.538412e+04
5.067662e+04 -1.704407e+05 -9.728679e+04
8.031910e+04 -1.413332e+05 -8.124198e+04
-1.073748e+05 -1.315937e+05 -9.845521e+04
-1.030164e+05 -9.634227e+04 -7.844799e+04
-1.001970e+05 -1.323675e+05 -7.372324e+04
-8.683306e+04 -1.110609e+05 -9.678960e+04
-7.706836e+04 -7.619930e+04 -7.844053e+04
1.276535e+05 -2.468558e+05 -7.426533e+04
1.241501e+05 -2.545715e+05 -9.878682e+04
1.006838e+05 -2.742971e+05 -8.769679e+04
6.974400e+04 -2.739399e+05 -8.727096e+04
8.712923e+04 -2.494987e+05 -9.897709e+04
-1.560565e+05 -2.258410e+05 -8.121843e+04
-1.220136e+05 -2.276918e+05 -9.524356e+04
-1.372831e+05 -2.494453e+05 -7.379445e+04
-1.195943e+05 -2.170604e+05 -7.372004e+04
-1.447639e+05 -2.510012e+05 -9.821281e+04
-1.737002e+05 -2.545667e+05 -7.251006e+04
-1.795890e+05 -2.529894e+05 -9.828140e+04
1.090233e+05 -1.631853e+05 -9.662155e+04
7.973003e+04 -1.677984e+05 -8.582780e+04
1.147177e+05 -1.669928e+05 -7.212284e+04
-1.931293e+05 -1.116613e+05 -9.600815e+04
-2.273423e+05 -1.392901e+05 -9.654106e+04
-1.891807e+05 -1.489870e+05 -9.699353e+04
-2.226783e+05 -1.358717e+05 -7.551892e+04
-1.779139e+05 -1.818243e+05 -1.005661e+05
-8.501289e+04 -2.064904e+04 -9.232184e+04
-1.905324e+04 4.339102e+04 -7.827854e+04
-1.924572e+04 9.910962e+03 -9.712397e+04
-3.204363e+03 2.750306e+04 -9.972363e+04
1.619846e+04 1.301065e+04 -9.311716e+04
2.680273e+05 2.657839e+05 -8.487908e+04
9.570213e+04 1.778930e+04 -7.427612e+04
-2.205928e+05 -1.077924e+05 -7.244379e+04
-2.253828e+05 -1.073741e+05 -9.864940e+04
9.746705e+04 2.575084e+04 -9.842115e+04
-3.021558e+04 -6.598628e+04 -9.661357e+04
-1.802654e+04 -9.280832e+04 -9.979826e+04
-1.855429e+04 -1.148012e+05 -7.414752e+04
1.122144e+04 -1.056394e+05 -9.054271e+04
-2.902471e+04 -1.196191e+05 -9.947332e+04
-1.068482e+05 8.452037e+04 -7.731695e+04
-1.309612e+05 6.552520e+04 -6.863247e+04
-1.346952e+05 6.544848e+04 -9.522098e+04
-1.356915e+05 1.025752e+05 -8.465405e+04
-1.091924e+05 1.034027e+05 -9.806897e+04
-7.963145e+04 7.806733e+04 -8.579869e+04
-8.621532e+04 1.179921e+05 -7.337653e+04
2.719319e+05 -9.498290e+04 -8.608007e+04
2.753790e+05 -1.299038e+05 -8.453390e+04
-1.134935e+05 1.165421e+05 -7.100237e+04
2.738192e+05 -1.655631e+05 -8.331920e+04
5.369805e+04 -2.502248e+05 -9.919057e+04
5.863564e+04 -2.464962e+05 -7.496690e+04
1.778235e+05 2.375652e+05 -9.436057e+04
1.825149e+05 2.100134e+05 -9.779836e+04
1.661370e+05 2.078668e+05 -7.426477e+04
1.884554e+05 1.768004e+05 -9.531918e+04
1.923942e+05 2.238737e+05 -7.125100e+04
1.937568e+05 1.861438e+05 -7.263540e+04
-2.014247e+05 2.736185e+05 -8.591363e+04
-2.276135e+04 -8.369150e+04 -7.095305e+04
2.749423e+05 -1.978561e+05 -8.323073e+04
7.380777e+03 2.334748e+05 -9.727637e+04
2.558348e+04 2.012919e+05 -9.684753e+04
-2.274966e+05 -2.765911e+05 -9.238806e+04
2.438401e+04 -8.247922e+03 -1.002247e+05
1.386288e+05 -1.236415e+04 -9.225295e+04
1.569096e+05 -3.387586e+04 -8.564184e+04
1.648519e+05 -9.406651e+03 -9.312176e+04
1.511216e+05 1.270254e+04 -9.686388e+04
1.488823e+05 -1.051631e+04 -7.174559e+04
-1.190921e+05 -2.000170e+04 -7.262316e+04
-9.026022e+04 -4.120230e+04 -7.222092e+04
-1.205650e+05 -4.589985e+04 -9.090945e+04
2.780207e+05 1.863433e+05 -7.058964e+04
2.548311e+05 1.632938e+05 -6.910312e+04
1.562716e+05 2.422092e+05 -7.163669e+04
2.018563e+04 1.737151e+05 -7.911763e+04
5.282051e+04 1.739159e+05 -9.636712e+04
5.856880e+04 1.920489e+05 -7.312930e+04
6.051612e+04 1.557682e+05 -7.190114e+04
8.433596e+04 1.723125e+05 -7.390601e+04
6.471949e+04 2.092169e+05 -9.494634e+04
7.861920e+04 1.840688e+05 -9.875859e+04
2.523566e+05 -1.445330e+05 -7.486504e+04
2.438951e+05 -1.350834e+05 -9.784490e+04
2.428369e+05 -1.809127e+05 -7.117935e+04
1.081947e+05 1.655194e+05 -9.711603e+04
1.196248e+05 1.633010e+05 -7.306034e+04
1.413378e+05 1.470948e+05 -9.700613e+04
1.437956e+05 1.332267e+05 -7.196300e+04
1.135424e+05 1.278011e+05 -9.539205e+04
1.940553e+05 1.547955e+05 -7.158389e+04
-1.604544e+05 -2.749647e+05 -8.822940e+04
-1.285249e+05 -2.750310e+05 -8.770422e+04
9.329300e+04 -2.420621e+05 -7.406391e+04
2.215231e+05 4.961047e+04 -7.529364e+04
2.488117e+05 1.240762e+04 -7.952590e+04
2.602820e+05 4.898994e+04 -9.669670e+04
2.565905e+05 4.010247e+04 -7.614367e+04
2.707179e+05 1.560802e+04 -1.012411e+05
2.650118e+05 -1.368373e+04 -8.296400e+04
-5.550127e+04 2.366323e+05 -9.574142e+04
2.198653e+05 -9.382135e+04 -7.596590e+04
1.832218e+05 -4.883154e+04 -7.335821e+04
-2.697819e+05 -9.630661e+04 -8.453607e+04
-2.611237e+05 -1.240402e+05 -9.643109e+04
-2.432646e+05 -9.018467e+04 -8.899494e+04
-2.454515e+05 -1.209359e+05 -7.481500e+04
-2.587686e+05 -6.321326e+04 -7.329780e+04
-2.618668e+05 -6.244038e+04 -9.832476e+04
-2.171036e+05 -7.620228e+04 -7.430532e+04
-1.655185e+05 5.189988e+04 -9.552059e+04
-1.629870e+05 8.641135e+04 -9.679789e+04
-1.880739e+05 6.635502e+04 -1.021836e+05
-1.842600e+05 6.945149e+04 -7.647789e+04
-1.954165e+05 9.935641e+04 -9.496881e+04
-1.837511e+05 1.005556e+05 -7.139332e+04
-1.574115e+05 7.843596e+04 -7.180545e+04
-2.015812e+04 -1.573015e+05 -7.353280e+04
1.281702e+04 -1.633119e+05 -8.985173e+04
6.957232e+02 -1.329759e+05 -8.771393e+04
1.718407e+04 -1.465210e+05 -6.961235e+04
2.881031e+04 -1.353751e+05 -9.736618e+04
2.227126e+05 -9.619809e+03 -7.428750e+04
2.189874e+05 2.168038e+04 -7.505172e+04
1.915078e+05 7.415140e+03 -8.543320e+04
-1.036360e+05 1.983480e+05 -9.615053e+04
1.594359e+05 1.377773e+04 -7.480058e+04
1.817941e+05 -8.022218e+03 -6.826262e+04
1.268994e+05 5.767451e+03 -7.684676e+04
2.226525e+05 1.495597e+05 -7.698213e+04
2.261296e+05 1.764016e+05 -9.158920e+04
-1.250967e+04 1.133135e+05 -9.552458e+04
5.302827e+03 1.431592e+05 -9.842630e+04
-3.449638e+03 1.471032e+05 -7.460552e+04
1.968012e+04 1.221381e+05 -8.281289e+04
-2.407964e+04 1.190491e+05 -7.363060e+04
3.059618e+04 1.441902e+05 -6.968187e+04
3.757042e+04 1.434196e+05 -9.573631e+04
1.245006e+04 9.475240e+04 -7.393236e+04
2.097291e+05 -1.741265e+05 -8.657250e+04
2.139984e+05 -1.456165e+05 -9.262481e+04
2.297716e+05 -1.543353e+05 -7.815830e+04
2.235033e+05 -1.252434e+05 -7.338043e+04
2.494926e+05 7.108344e+04 -7.744270e+04
2.107110e+05 4.845931e+04 -9.549302e+04
3.563624e+04 2.099573e+05 -7.211559e+04
1.437095e+05 -1.879688e+05 -8.288426e+04
1.480032e+05 -1.476338e+05 -8.920251e+04
1.113330e+04 9.641596e+04 -9.923992e+04
-2.056048e+04 8.232702e+04 -7.989725e+04
1.008901e+05 1.321446e+05 -7.211018e+04
7.400270e+04 1.491266e+05 -9.632363e+04
7.991755e+04 1.154288e+05 -8.386949e+04
5.007270e+04 1.092084e+05 -9.264388e+04
-7.226344e+03 -5.090579e+04 -9.882177e+04
-7.441348e+02 2.060184e+05 -7.650003e+04
-1.594546e+05 4.549816e+04 -7.274416e+04
-4.626265e+04 1.037192e+05 -9.653889e+04
-1.533903e+05 1.667738e+05 -8.147882e+04
-1.333133e+05 1.409077e+05 -8.328890e+04
-1.628403e+05 1.222215e+05 -8.683944e+04
-1.156258e+05 1.689146e+05 -9.647698e+04
-1.182300e+05 1.806303e+05 -7.253639e+04
-1.726535e+05 1.753424e+04 -9.606622e+04
-1.786089e+05 -2.088113e+04 -9.345927e+04
-1.473660e+05 -2.752300e+04 -9.615027e+04
-1.531501e+05 -1.378501e+04 -7.025518e+04
1.605488e+05 8.269582e+04 -7.442311e+04
5.154558e+04 1.284684e+05 -7.536610e+04
-2.065991e+05 7.476249e+03 -9.926879e+04
-9.598938e+04 1.507690e+05 -7.373468e+04
-6.384860e+04 1.406743e+05 -9.432249e+04
-6.053265e+04 1.755454e+05 -7.222407e+04
-5.934154e+04 1.310445e+05 -7.025376e+04
-2.837917e+04 1.428206e+05 -9.631565e+04
-3.666053e+04 1.510828e+05 -7.118112e+04
-5.408648e+04 9.758685e+04 -7.098116e+04
-7.861903e+04 1.100363e+05 -9.637814e+04
-5.694666e+04 -6.324221e+04 -7.691865e+04
-8.661486e+04 -4.721850e+04 -9.737930e+04
7.909873e+04 -1.916903e+05 -9.846949e+04
9.140497e+04 -1.935541e+05 -7.531040e+04
1.111155e+05 -1.930945e+05 -9.601851e+04
1.165188e+05 -2.148291e+05 -7.316479e+04
1.053374e+05 -2.223692e+05 -9.673738e+04
-2.725869e+05 2.704481e+05 -8.518816e+04
-6.422171e+04 -2.772954e+05 -8.926731e+04
1.081183e+04 -2.173787e+05 -7.246654e+04
-3.827419e+04 -2.221050e+05 -7.287327e+04
-4.341799e+03 -1.903775e+05 -7.401056e+04
8.201471e+03 -2.221095e+05 -9.816292e+04
-1.617066e+05 1.315422e+04 -7.137317e+04
7.303129e+04 7.953787e+04 -7.196265e+04
1.032120e+05 9.213480e+04 -8.461092e+04
-3.790161e+04 -1.854700e+05 -8.803598e+04
-6.877722e+04 -1.908423e+05 -8.312049e+04
-6.391623e+04 -1.540320e+05 -8.654907e+04
-9.936491e+04 -1.978713e+05 -9.452899e+04
-9.300077e+04 -1.662618e+05 -8.511519e+04
-1.017269e+05 -1.923142e+05 -7.021952e+04
9.689805e+04 2.055129e+05 -7.654211e+04
-9.566321e+04 -2.750467e+05 -8.847642e+04
-1.116153e+05 -2.512926e+05 -9.958415e+04
-7.140321e+04 -2.235876e+05 -9.735530e+04
-9.617769e+04 -2.273388e+05 -9.461565e+04
-1.050799e+05 -2.472890e+05 -7.463598e+04
-8.183201e+04 -2.169929e+05 -7.173090e+04
2.741504e+05 -6.326758e+04 -8.150196e+04
1.809746e+05 -1.567353e+05 -8.315310e+04
1.900121e+05 -1.225596e+05 -8.676536e+04
2.193737e+05 -1.191694e+05 -9.898030e+04
-2.657327e+05 -2.602696e+04 -8.371400e+04
1.748474e+05 -1.879945e+05 -9.715892e+04
1.840537e+05 -1.928801e+05 -7.356220e+04
-2.073542e+05 -2.551438e+05 -7.400642e+04
-2.746292e+04 -1.496886e+05 -9.666064e+04
-2.741691e+05 -2.735184e+05 -8.471404e+04
1.470633e+05 -6.097370e+04 -7.526771e+04
-1.057374e+05 -7.237767e+04 -8.436298e+04
-1.267684e+05 -9.965810e+04 -9.832990e+04
-1.262559e+05 -1.067465e+05 -7.418786e+04
-1.332884e+05 -7.389313e+04 -8.420896e+04
-1.552078e+05 -4.959129e+04 -7.230100e+04
-1.010517e+05 1.368700e+05 -9.519183e+04
-1.220006e+05 -1.723953e+05 -8.684360e+04
-2.162867e+05 -1.609685e+04 -9.583325e+04
-2.252057e+05 -1.734801e+04 -7.357080e+04
1.354051e+05 7.412614e+04 -9.620379e+04
1.348904e+05 1.063337e+05 -9.624535e+04
1.328740e+05 4.030541e+04 -9.685414e+04
1.295564e+05 6.650659e+04 -7.141669e+04
1.007383e+05 5.474840e+04 -8.485188e+04
-1.212918e+04 5.722273e+04 -9.998991e+04
1.155011e+04 6.880058e+04 -8.478092e+04
3.872734e+04 -2.249767e+05 -9.671991e+04
2.329572e+04 -1.932473e+05 -9.653754e+04
4.949180e+04 -2.104817e+05 -7.676744e+04
7.329909e+04 -2.234801e+05 -9.206882e+04
-1.410790e+05 -2.011810e+05 -9.510024e+04
-1.581075e+05 -9.671912e+04 -9.928080e+04
-1.789982e+05 -1.134602e+05 -7.306502e+04
-1.456215e+05 -1.314257e+05 -8.137922e+04
-1.628777e+05 -5.564668e+04 -9.779518e+04
-1.542023e+05 -9.159270e+04 -7.572237e+04
6.008360e+04 -1.840484e+05 -7.104730e+04
-1.177996e+05 2.381523e+05 -7.407927e+04
-7.356500e+04 2.691536e+05 -9.769505e+04
-8.632180e+03 -1.857690e+05 -9.899663e+04
1.330354e+05 2.661026e+04 -6.776367e+04
2.145560e+05 8.261068e+04 -9.630073e+04
2.243668e+05 8.368000e+04 -7.186582e+04
1.932298e+05 6.480730e+04 -7.370165e+04
1.603160e+05 4.693499e+04 -7.997437e+04
1.903915e+05 3.131880e+04 -7.629948e+04
-1.946241e+05 -1.079683e+04 -7.283659e+04
-1.008478e+05 2.117340e+05 -7.270844e+04
3.284359e+04 -1.881121e+05 -7.359825e+04
-2.723508e+05 -1.969662e+05 -9.848454e+04
-5.432324e+04 5.881588e+04 -8.255445e+04
-3.561191e+04 -6.090801e+04 -7.374919e+04
-3.770754e+04 2.135423e+05 -7.371256e+04
-4.618454e+04 2.439673e+05 -7.155942e+04
-2.637166e+04 2.379517e+05 -9.732459e+04
-6.920994e+04 2.053913e+05 -9.048789e+04
-7.687026e+04 2.358748e+05 -7.265980e+04
-2.842954e+04 2.052375e+05 -9.532828e+04
-1.126984e+04 1.741097e+05 -9.732635e+04
-2.020513e+04 1.789076e+05 -7.343739e+04
-8.284261e+04 1.703730e+05 -9.706646e+04
-6.358057e+04 2.675585e+05 -7.345275e+04
1.329067e+05 1.024596e+05 -7.174304e+04
-1.692347e+05 2.691845e+05 -7.270355e+04
-1.990130e+05 -4.112469e+04 -7.539050e+04
-1.549580e+04 2.373310e+05 -7.369544e+04
-7.132821e+03 2.684148e+05 -9.715611e+04
3.346100e+03 2.661092e+05 -7.376619e+04
-3.048688e+04 2.678402e+05 -7.343007e+04
1.520973e+05 1.742221e+05 -7.151552e+04
-1.859580e+05 -7.500263e+04 -8.763215e+04
-4.088552e+04 2.693656e+05 -9.761099e+04
1.343146e+05 2.683322e+05 -7.314232e+04
1.657301e+05 2.690688e+05 -9.125839e+04
-2.293616e+05 2.696782e+05 -7.070058e+04
2.261713e+05 1.150687e+05 -7.338582e+04
1.825502e+05 3.224044e+04 -9.908509e+04
-1.883399e+05 2.474855e+05 -7.000448e+04
-4.629085e+04 1.739348e+05 -9.505895e+04
-2.930377e+05 -1.788787e+05 -6.091784e+04
-2.771461e+05 -1.756894e+05 -6.410242e+04
-2.885140e+05 -1.953021e+05 -6.304560e+04
-2.708729e+05 -1.928808e+05 -6.190359e+04
2.790975e+05 5.952100e+04 -6.296239e+04
2.882485e+05 7.313379e+04 -6.592042e+04
2.735470e+05 7.248880e+04 -6.014556e+04
2.627731e+05 6.479031e+04 -5.724671e+04
2.608724e+05 5.081579e+04 -6.328030e+04
2.622245e+05 7.516410e+04 -6.045588e+04
2.465771e+05 4.351727e+04 -6.289862e+04
2.429331e+05 5.847321e+04 -6.388515e+04
2.416309e+05 2.814318e+04 -6.627129e+04
2.294073e+05 3.206529e+04 -6.228465e+04
2.130006e+05 3.411222e+04 -6.352419e+04
2.281318e+05 4.872475e+04 -6.522593e+04
2.099925e+05 4.407448e+04 -5.700836e+04
2.305011e+05 6.546370e+04 -6.306092e+04
2.001355e+05 3.002718e+04 -6.315745e+04
1.990179e+05 4.766975e+04 -6.327720e+04
1.807542e+05 2.622676e+04 -6.351753e+04
1.760288e+05 8.566892e+03 -5.616557e+04
1.665819e+05 1.264899e+04 -6.199813e+04
1.809927e+05 1.085253e+04 -6.695134e+04
1.658209e+05 3.251068e+04 -6.401017e+04
1.486455e+05 1.241501e+04 -6.178834e+04
1.442446e+05 -2.701417e+03 -6.016038e+04
1.278585e+05 -1.130953e+04 -6.322671e+04
1.349606e+05 6.576374e+03 -6.364142e+04
1.172821e+05 -4.017886e+02 -6.394862e+04
1.404949e+05 1.005483e+04 -5.464789e+04
1.137892e+05 -1.725397e+04 -6.229786e+04
8.592121e+04 -1.931262e+04 -6.230558e+04
1.028107e+05 -1.597180e+04 -6.260900e+04
1.026043e+05 4.103284e+03 -6.260914e+04
7.482903e+04 -1.538398e+04 -6.366447e+04
7.230288e+04 -3.597374e+04 -6.503604e+04
6.410567e+04 -2.443889e+04 -6.419851e+04
4.858868e+04 -2.651136e+04 -6.362362e+04
5.314828e+04 -4.090623e+04 -6.593616e+04
8.657252e+04 -3.749147e+04 -6.266841e+04
6.894007e+04 -4.194731e+03 -5.899310e+04
4.288221e+04 -4.499741e+04 -6.064298e+04
3.348848e+04 -3.507034e+04 -6.188507e+04
1.632520e+04 -4.427316e+04 -6.059393e+04
2.528703e+04 -5.759620e+04 -6.206840e+04
8.054213e+03 -5.848641e+04 -6.301761e+04
-9.901857e+03 -6.039512e+04 -6.333026e+04
-2.041834e+04 -7.741033e+04 -5.998092e+04
-3.180541e+04 -6.440915e+04 -6.252645e+04
-4.304020e+04 -7.244473e+04 -5.983775e+04
-3.628705e+04 -7.970020e+04 -6.077750e+04
-5.398158e+04 -6.877571e+04 -6.207741e+04
-4.565242e+04 -8.645410e+04 -6.600825e+04
-6.295830e+04 -8.149571e+04 -6.413717e+04
-5.859697e+04 -9.488567e+04 -6.110576e+04
-7.479521e+04 -8.126673e+04 -6.064402e+04
-7.681665e+04 -9.746985e+04 -6.304031e+04
-4.569332e+04 -6.078567e+04 -6.404447e+04
-6.406474e+04 -7.000313e+04 -6.582646e+04
-9.176435e+04 -9.084270e+04 -6.302902e+04
-1.052792e+05 -1.027997e+05 -6.326515e+04
-9.422730e+04 -1.096691e+05 -6.239866e+04
-1.035202e+05 -1.193802e+05 -6.323701e+04
-1.178608e+05 -1.099346e+05 -6.179704e+04
-1.346576e+05 -1.125493e+05 -6.187227e+04
-1.420954e+05 -1.280970e+05 -6.457797e+04
-1.523350e+05 -1.362037e+05 -6.036179e+04
-1.563501e+05 -1.219725e+05 -6.177521e+04
-1.500294e+05 -1.096782e+05 -6.496103e+04
-1.740281e+05 -1.228867e+05 -6.115002e+04
-1.720642e+05 -1.382856e+05 -6.281913e+04
-1.945060e+05 -1.466022e+05 -6.462089e+04
-1.813630e+05 -1.147824e+05 -5.682933e+04
-2.012975e+05 -1.571815e+05 -5.601149e+04
-2.101960e+05 -1.620996e+05 -6.322490e+04
-2.138183e+05 -1.457523e+05 -6.338507e+04
-2.280406e+05 -1.636168e+05 -6.588234e+04
-2.323142e+05 -1.491338e+05 -6.219858e+04
-2.174279e+05 -1.318486e+05 -5.676318e+04
-2.498949e+05 -1.609522e+05 -6.245182e+04
-2.412559e+05 -1.751892e+05 -6.636553e+04
-2.647917e+05 -1.696828e+05 -5.891371e+04
-2.595504e+05 -1.788975e+05 -6.268651e+04
-2.849651e+05 -1.912429e+05 -5.633281e+04
-2.882594e+05 -1.821272e+05 -5.552898e+04
-2.957644e+05 -1.850966e+05 -5.457997e+04
-2.934217e+05 -1.920020e+05 -5.600366e+04
2.892561e+05 6.365211e+04 -5.752987e+04
2.855279e+05 7.093196e+04 -5.664447e+04
2.937931e+05 7.230789e+04 -5.841808e+04
2.804510e+05 6.173629e+04 -5.397373e+04
2.730692e+05 6.063110e+04 -5.448020e+04
2.776126e+05 6.880755e+04 -5.455465e+04
2.688245e+05 6.676182e+04 -5.394271e+04
2.627355e+05 6.031888e+04 -5.110997e+04
2.663430e+05 5.653012e+04 -5.734025e+04
2.650987e+05 6.732713e+04 -5.394594e+04
2.564558e+05 5.213849e+04 -5.540270e+04
2.593158e+05 5.848317e+04 -5.375550e+04
2.495277e+05 4.781489e+04 -5.596547e+04
2.425813e+05 4.604343e+04 -5.657092e+04
2.497998e+05 5.655866e+04 -5.670731e+04
2.398924e+05 5.259459e+04 -5.576940e+04
2.391762e+05 3.746452e+04 -5.806904e+04
2.230396e+05 4.376260e+04 -5.643032e+04
2.252207e+05 3.616418e+04 -6.022932e+04
2.318784e+05 3.874738e+04 -5.594448e+04
2.335177e+05 4.674362e+04 -5.805747e+04
2.334080e+05 5.544216e+04 -5.649504e+04
2.187050e+05 3.134155e+04 -5.635653e+04
2.153852e+05 4.038854e+04 -5.127752e+04
2.084073e+05 3.969210e+04 -5.237136e+04
2.105052e+05 3.316314e+04 -5.490645e+04
2.037887e+05 3.099685e+04 -5.581719e+04
2.022716e+05 4.003641e+04 -5.597025e+04
1.939020e+05 2.735454e+04 -5.694910e+04
1.854032e+05 2.483033e+04 -5.630545e+04
1.764383e+05 2.285050e+04 -5.644981e+04
1.745692e+05 1.363078e+04 -5.289201e+04
1.702830e+05 1.386284e+04 -5.540352e+04
1.764628e+05 1.480290e+04 -5.831927e+04
1.690715e+05 2.503782e+04 -5.661510e+04
1.626750e+05 1.326998e+04 -5.567297e+04
1.547945e+05 1.157828e+04 -5.671139e+04
1.447802e+05 8.750496e+03 -5.520802e+04
1.301871e+05 2.146949e+03 -5.671187e+04
1.357748e+05 -3.850717e+03 -5.657898e+04
1.419141e+05 7.951365e+02 -5.432232e+04
1.384483e+05 5.294267e+03 -5.617474e+04
1.413423e+05 6.652375e+03 -5.174673e+04
1.261676e+05 -8.088722e+03 -5.586773e+04
1.222829e+05 -1.521018e+03 -5.649599e+04
1.137444e+05 -5.496200e+03 -5.619686e+04
1.200546e+05 -9.114285e+03 -5.676202e+04
1.159832e+05 -1.565435e+04 -5.728159e+04
9.929524e+04 -1.489560e+04 -5.551643e+04
1.074793e+05 -1.404866e+04 -5.561399e+04
1.062247e+05 -2.941880e+03 -5.607470e+04
1.182764e+05 -1.073760e+04 -6.108472e+04
9.126121e+04 -1.810202e+04 -5.657971e+04
8.312509e+04 -2.057952e+04 -5.491705e+04
7.752390e+04 -2.935760e+04 -5.737142e+04
7.839444e+04 -1.864172e+04 -5.565254e+04
7.245562e+04 -2.461196e+04 -5.710147e+04
6.607496e+04 -2.610468e+04 -5.523266e+04
6.855908e+04 -3.225027e+04 -5.655890e+04
8.337296e+04 -3.051575e+04 -5.610389e+04
7.431262e+04 -1.389609e+04 -5.435482e+04
6.017542e+04 -3.596309e+04 -5.735628e+04
5.720982e+04 -2.828324e+04 -5.694746e+04
4.865700e+04 -3.216341e+04 -5.546760e+04
5.006001e+04 -3.818489e+04 -5.753631e+04
4.464308e+04 -4.071018e+04 -5.453984e+04
4.109868e+04 -3.510068e+04 -5.568218e+04
3.192272e+04 -4.018800e+04 -5.560073e+04
3.895382e+04 -4.409164e+04 -5.499146e+04
3.124571e+04 -5.051171e+04 -5.676468e+04
2.530198e+04 -4.567757e+04 -5.619698e+04
1.800017e+04 -4.626834e+04 -5.511914e+04
2.121023e+04 -5.319571e+04 -5.551350e+04
1.307823e+04 -5.576148e+04 -5.602362e+04
4.486201e+03 -5.720905e+04 -5.578105e+04
1.314078e+04 -4.226995e+04 -5.333525e+04
-3.468738e+03 -5.948789e+04 -5.691936e+04
-1.312950e+04 -6.262788e+04 -5.632496e+04
-1.694431e+04 -7.121872e+04 -5.535331e+04
-2.229971e+04 -6.368846e+04 -5.686294e+04
-3.001555e+04 -6.821758e+04 -5.620576e+04
-2.537665e+04 -7.317939e+04 -5.615925e+04
-3.330628e+04 -7.810290e+04 -5.516462e+04
-3.741070e+04 -7.392488e+04 -5.396018e+04
-4.359894e+04 -7.329547e+04 -5.528875e+04
-4.024617e+04 -7.789560e+04 -5.513968e+04
-4.518693e+04 -8.134847e+04 -5.804816e+04
-5.143485e+04 -7.328308e+04 -5.535134e+04
-5.367177e+04 -8.062965e+04 -5.891157e+04
-5.206030e+04 -8.768540e+04 -5.553646e+04
-5.997403e+04 -8.406580e+04 -5.512555e+04
-5.902321e+04 -8.961797e+04 -5.590243e+04
-5.757197e+04 -7.474374e+04 -5.786683e+04
-6.733158e+04 -9.254574e+04 -5.596436e+04
-6.741004e+04 -8.438720e+04 -5.615521e+04
-7.567809e+04 -8.709138e+04 -5.303311e+04
-7.696907e+04 -9.477105e+04 -5.544820e+04
-8.380769e+04 -9.024947e+04 -5.578729e+04
-9.362050e+04 -9.622580e+04 -5.527341e+04
-8.585252e+04 -1.001365e+05 -5.584706e+04
-9.290662e+04 -1.056656e+05 -5.634511e+04
-9.829881e+04 -1.014711e+05 -5.771326e+04
-1.063449e+05 -1.043662e+05 -5.587602e+04
-1.018596e+05 -1.079629e+05 -5.612123e+04
-1.060272e+05 -1.134391e+05 -5.687769e+04
-1.125036e+05 -1.103426e+05 -5.571680e+04
-1.212232e+05 -1.116132e+05 -5.585511e+04
-1.095755e+05 -1.027436e+05 -5.726573e+04
-1.291703e+05 -1.141499e+05 -5.621680e+04
-1.379871e+05 -1.162534e+05 -5.494678e+04
-1.458858e+05 -1.308260e+05 -5.433220e+04
-1.397343e+05 -1.246638e+05 -5.724461e+04
-1.478331e+05 -1.230047e+05 -5.472567e+04
-1.456365e+05 -1.161557e+05 -5.710614e+04
-1.556826e+05 -1.235032e+05 -5.490080e+04
-1.531686e+05 -1.312453e+05 -5.443322e+04
-1.621525e+05 -1.343189e+05 -5.545646e+04
-1.644454e+05 -1.257826e+05 -5.555034e+04
-1.725340e+05 -1.289828e+05 -5.483854e+04
-1.722291e+05 -1.364746e+05 -5.570785e+04
-1.818505e+05 -1.408936e+05 -5.615374e+04
-1.767547e+05 -1.248788e+05 -5.325241e+04
-1.900216e+05 -1.451311e+05 -5.789020e+04
-2.009314e+05 -1.485083e+05 -5.635098e+04
-2.075933e+05 -1.570419e+05 -5.523441e+04
-2.037613e+05 -1.536149e+05 -5.178744e+04
-2.088057e+05 -1.489340e+05 -5.636328e+04
-2.151736e+05 -1.579775e+05 -5.675541e+04
-2.174522e+05 -1.507338e+05 -5.576730e+04
-2.112574e+05 -1.418459e+05 -5.365640e+04
-2.229503e+05 -1.612189e+05 -5.851021e+04
-2.318399e+05 -1.626139e+05 -5.821808e+04
-2.249997e+05 -1.529017e+05 -5.704500e+04
-2.343369e+05 -1.564096e+05 -5.632112e+04
-2.422819e+05 -1.616192e+05 -5.691395e+04
-2.385991e+05 -1.690093e+05 -5.836653e+04
-2.536112e+05 -1.678664e+05 -5.492326e+04
-2.481141e+05 -1.724520e+05 -5.874102e+04
-2.797819e+05 -1.800694e+05 -5.602442e+04
-2.765060e+05 -1.874083e+05 -5.631446e+04
-2.678340e+05 -1.856028e+05 -5.594699e+04
-2.702581e+05 -1.764835e+05 -5.769377e+04
-2.605650e+05 -1.726420e+05 -5.344093e+04
-2.653067e+05 -1.719066e+05 -5.393940e+04
-2.565461e+05 -1.772919e+05 -5.526809e+04
-2.637743e+05 -1.780191e+05 -5.536911e+04
-2.745669e+05 -1.700921e+05 -5.418581e+04
-1.317425e+05 -1.074869e+05 -5.309760e+04
-6.930987e+04 -7.907141e+04 -5.326064e+04
1.524084e+05 1.852901e+04 -5.303182e+04
2.440576e+04 -4.000084e+04 -5.601732e+04
-5.552115e+03 -5.196133e+04 -5.320045e+04
-3.869978e+04 -6.870817e+04 -5.479010e+04
-1.004852e+05 -9.620820e+04 -5.746801e+04
-1.939946e+05 -1.364809e+05 -5.336079e+04
-2.274394e+05 -1.479924e+05 -5.340687e+04
-2.547969e+05 -1.614150e+05 -5.353818e+04
-1.487615e+05 -8.092905e+04 -2.653765e+04
-1.481854e+05 -7.410809e+04 -2.307531e+04
-1.421322e+05 -7.797751e+04 -2.653765e+04
-1.542039e+05 -7.150241e+04 -2.028765e+04
-8.111214e+04 -4.035426e+04 -2.102311e+04
-7.566966e+04 -4.978090e+04 -2.727311e+04
-8.155297e+04 -4.723023e+04 -2.454623e+04
-8.229893e+04 -5.273243e+04 -2.727311e+04
-1.650889e+05 -5.264913e+04 -7.787654e+03
-1.590704e+05 -5.525481e+04 -1.057531e+04
-1.596464e+05 -6.207577e+04 -1.403765e+04
-1.584596e+05 -4.969759e+04 -7.787654e+03
-9.199708e+04 -2.150098e+04 -8.523114e+03
-8.655461e+04 -3.092762e+04 -1.477311e+04
-9.243792e+04 -2.837695e+04 -1.204623e+04
-9.862635e+04 -2.445251e+04 -8.523114e+03
-1.355029e+05 -7.502598e+04 -2.653765e+04
-1.349269e+05 -6.820501e+04 -2.307531e+04
-1.288737e+05 -7.207444e+04 -2.653765e+04
-1.155132e+05 -6.593317e+04 -2.643597e+04
-1.221425e+05 -6.888471e+04 -2.643597e+04
-1.214644e+05 -6.182556e+04 -2.287193e+04
-1.281957e+05 -6.501529e+04 -2.297362e+04
-9.555745e+04 -5.863551e+04 -2.727311e+04
-9.481150e+04 -5.313331e+04 -2.454623e+04
-8.892819e+04 -5.568397e+04 -2.727311e+04
-1.022547e+05 -6.003010e+04 -2.643597e+04
-1.088839e+05 -6.298163e+04 -2.643597e+04
-1.082059e+05 -5.592248e+04 -2.287193e+04
-1.015087e+05 -5.452789e+04 -2.370908e+04
-1.052556e+05 -2.740405e+04 -8.523114e+03
-1.056964e+05 -3.428003e+04 -1.204623e+04
-1.118849e+05 -3.035559e+04 -8.523114e+03
-1.185821e+05 -3.175018e+04 -7.685965e+03
-1.190909e+05 -3.706920e+04 -1.037193e+04
-1.252113e+05 -3.470171e+04 -7.685965e+03
-1.123937e+05 -3.567461e+04 -1.120908e+04
-1.452011e+05 -4.379452e+04 -7.787654e+03
-1.458118e+05 -4.935173e+04 -1.057531e+04
-1.518304e+05 -4.674606e+04 -7.787654e+03
-1.318406e+05 -3.765325e+04 -7.685965e+03
-1.323494e+05 -4.297228e+04 -1.037193e+04
-1.384699e+05 -4.060479e+04 -7.685965e+03
-1.390806e+05 -4.616200e+04 -1.047362e+04
-8.699544e+04 -3.780359e+04 -1.829623e+04
-9.287875e+04 -3.525292e+04 -1.556934e+04
-8.743628e+04 -4.467956e+04 -2.181934e+04
-9.331958e+04 -4.212890e+04 -1.909245e+04
-9.406554e+04 -4.763110e+04 -2.181934e+04
-8.818223e+04 -5.018177e+04 -2.454623e+04
-9.906718e+04 -3.132849e+04 -1.204623e+04
-9.950801e+04 -3.820446e+04 -1.556934e+04
-1.007628e+05 -4.902569e+04 -2.098219e+04
-1.067140e+05 -4.491807e+04 -1.741816e+04
-1.000168e+05 -4.352349e+04 -1.825531e+04
-1.062052e+05 -3.959905e+04 -1.473219e+04
-1.476094e+05 -6.728713e+04 -1.961296e+04
-1.470333e+05 -6.046616e+04 -1.615061e+04
-1.415561e+05 -7.115655e+04 -2.307531e+04
-1.409801e+05 -6.433559e+04 -1.961296e+04
-1.530518e+05 -5.786049e+04 -1.336296e+04
-1.536279e+05 -6.468145e+04 -1.682531e+04
-1.464226e+05 -5.490895e+04 -1.336296e+04
-1.524411e+05 -5.230327e+04 -1.057531e+04
-1.342489e+05 -6.114586e+04 -1.951127e+04
-1.403021e+05 -5.727643e+04 -1.604893e+04
-1.335709e+05 -5.408671e+04 -1.594724e+04
-1.396914e+05 -5.171922e+04 -1.326127e+04
-1.148352e+05 -5.887402e+04 -2.287193e+04
-1.141572e+05 -5.181486e+04 -1.930790e+04
-1.207864e+05 -5.476640e+04 -1.930790e+04
-1.201084e+05 -4.770725e+04 -1.574386e+04
-1.275177e+05 -5.795613e+04 -1.940958e+04
-1.268397e+05 -5.089698e+04 -1.584555e+04
-1.074600e+05 -5.042028e+04 -2.014504e+04
-1.134112e+05 -4.631266e+04 -1.658101e+04
-1.195997e+05 -4.238822e+04 -1.305790e+04
-1.257201e+05 -4.002074e+04 -1.037193e+04
-1.262289e+05 -4.533976e+04 -1.305790e+04
-1.129024e+05 -4.099364e+04 -1.389504e+04
-1.329601e+05 -4.852949e+04 -1.315958e+04
CELLS 17893 89465
4  6098 6099 6100 6101
4  611 6099 612 6101
4  612 6102 553 6101
4  6103 6098 6104 6101
4  553 6102 6104 6101
4  6105 6106 6107 6108
4  6109 6110 6111 6108
4  6109 6111 6112 6108
4  6113 6114 6107 6108
4  6115 6114 6113 6108
4  6111 6110 6116 6108
4  6115 6113 6117 6108
4  6118 6119 6120 6099
4  6120 6098 6103 6099
4  880 6098 6100 6101
4  6121 6118 6120 6099
4  615 6121 6122 6099
4  615 611 6121 6099
4  6123 6124 6125 6126
4  6123 6125 6127 6126
4  6128 6129 6130 6131
4  6132 6133 6134 6126
4  6135 6127 6125 6126
4  6136 6135 6133 6126
4  189 6137 6138 6139
4  544 6140 6141 6142
4  544 6141 6143 6142
4  998 6143 6144 6142
4  6145 6140 6146 6142
4  6147 6143 6141 6142
4  6145 6147 6141 6142
4  6148 6149 6150 6151
4  6148 6152 6153 6151
4  6154 6155 6156 6151
4  6157 6158 6159 6160
4  6161 6162 6163 6164
4  6165 6166 6167 6164
4  6168 6161 6163 6164
4  6168 6163 6169 6164
4  6170 6171 6172 6173
4  6174 6170 6175 6173
4  6176 6177 6178 6179
4  6180 6181 6182 6173
4  6175 6181 6183 6173
4  6170 6172 6181 6173
4  6184 6185 6186 6187
4  6188 6189 6190 6191
4  464 6190 6192 6193
4  0 6192 6194 6193
4  6190 6189 6192 6193
4  6190 6195 6191 6193
4  6196 6197 6198 6199
4  6200 6201 6197 6199
4  6202 6203 6204 6199
4  822 6197 6201 6199
4  117 6204 123 6199
4  123 6204 6198 6199
4  822 6205 117 6199
4  6206 6207 6208 6209
4  6210 6211 6212 6209
4  6211 6213 6214 6209
4  6206 6215 6216 6212
4  6215 6217 6216 6212
4  6216 6217 6214 6209
4  6218 6106 6111 6116
4  6219 6106 6218 6116
4  6220 6219 6221 6116
4  6222 6223 6224 6225
4  135 6226 6227 6228
4  6229 6230 6231 6228
4  6232 6231 6233 6228
4  6234 6235 6233 6228
4  6234 6231 6230 6228
4  6236 6237 6238 6239
4  135 6235 6226 6228
4  6240 6115 6241 6242
4  6136 6133 6135 6243
4  6136 6135 6127 6243
4  6244 6245 6246 6243
4  6247 6136 6127 6243
4  6246 6136 6248 6243
4  6244 6246 6248 6243
4  6247 6244 6248 6243
4  6249 6250 6251 6252
4  170 6251 6250 6252
4  170 6250 6253 6252
4  170 6253 6250 6254
4  6249 6253 6250 6252
4  987 170 6253 6252
4  6255 6256 6257 6258
4  839 600 601 6259
4  839 6260 600 6259
4  98 6261 6262 6259
4  98 6262 6263 6259
4  98 6263 6262 6264
4  6263 6262 6260 6259
4  839 98 97 6263
4  6265 6266 6267 6268
4  25 6269 6270 6271
4  25 6272 6269 6271
4  6272 6273 6269 6271
4  6274 6275 6276 6277
4  824 6274 6276 6277
4  6278 6276 6275 6277
4  501 824 6276 6277
4  709 501 6279 6277
4  6278 6280 6276 6277
4  709 6279 6281 6277
4  6279 6276 6280 6277
4  6246 6136 6282 6283
4  6284 6285 6286 6239
4  6287 6288 6289 6290
4  6291 6292 6293 6290
4  6294 6295 6296 6297
4  6296 6297 6295 6290
4  6298 6299 6267 6266
4  6293 6292 6300 6290
4  6287 6301 6288 6290
4  6302 6303 6304 6133
4  6135 6134 6133 6126
4  6246 6305 6303 6133
4  6246 6133 6136 6243
4  6136 6133 6282 6126
4  6306 6233 6307 6308
4  6309 6310 6157 6159
4  6232 6235 6233 6308
4  6311 6312 6313 6314
4  6315 6233 6316 6308
4  6317 6315 6316 6308
4  6318 6319 6320 6321
4  108 6320 6322 6321
4  6323 6324 6325 6299
4  756 6326 6320 6321
4  6327 6328 6318 6321
4  6318 6320 6326 6321
4  6329 6330 6124 6126
4  335 374 6134 6330
4  374 6132 6134 6330
4  335 6135 413 6330
4  665 6102 6331 6330
4  413 6125 6102 6330
4  6103 6125 6332 6124
4  6125 6124 6102 6330
4  6123 6332 6125 6124
4  6123 6131 6124 6126
4  6333 6102 6103 6124
4  323 372 6334 6134
4  6304 6134 6132 6133
4  6304 6305 6134 6133
4  6132 6134 6330 6126
4  6125 6124 6330 6126
4  335 6134 6135 6330
4  6135 6134 6305 6133
4  323 6334 6305 6134
4  6335 6336 6337 6338
4  6339 6340 6341 6338
4  6342 6343 6275 6338
4  6344 6345 6341 6338
4  6344 6343 6336 6338
4  6346 6347 6348 6349
4  6335 6345 6336 6338
4  6350 6351 6352 6156
4  6353 6149 6354 6151
4  6350 6355 6351 6156
4  6356 6357 6358 6159
4  6355 6354 6351 6156
4  6359 6154 6155 6156
4  6359 6352 6154 6156
4  6360 6109 6361 6112
4  6362 6363 6364 6112
4  6362 6361 6363 6112
4  6365 6366 6367 6368
4  6369 6370 6371 6368
4  6369 6371 6366 6368
4  6365 6367 6372 6368
4  6200 6373 6197 6374
4  6200 6292 6373 6374
4  6293 6375 6373 6374
4  6376 6292 6200 6374
4  6377 6293 6291 6374
4  6376 6291 6292 6374
4  6378 6379 6380 6381
4  6382 6380 6383 6381
4  6384 6385 6386 6387
4  6388 6389 6390 6391
4  6392 6386 6393 6387
4  6346 6347 6394 6348
4  6384 6395 6396 6387
4  6392 6396 6395 6387
4  629 6397 6398 6399
4  589 6400 6401 6399
4  454 6402 6403 6399
4  6404 6405 6406 6407
4  629 6400 589 6399
4  6353 6408 6355 6354
4  6409 6149 6410 6354
4  6411 6412 6413 6414
4  6351 6156 6354 6151
4  626 6351 6355 6354
4  6304 6334 6305 6303
4  6246 6303 6305 6245
4  6415 6416 6417 6303
4  6416 6417 6334 6418
4  6419 6416 6303 6245
4  6246 6420 6302 6303
4  6415 6302 6420 6303
4  813 814 6421 6422
4  813 814 988 6421
4  6423 6148 6424 6422
4  6425 6148 6423 6422
4  6426 6149 6148 6422
4  6426 6148 6425 6422
4  813 6421 6424 6422
4  813 6424 6421 6427
4  493 155 6428 6429
4  6430 6429 6428 6431
4  6432 6433 6434 6431
4  155 6435 6436 6431
4  6434 6436 6435 6431
4  422 919 6437 6438
4  952 6439 6440 6441
4  422 849 919 6438
4  6442 6443 6444 6438
4  6312 6445 6442 6438
4  849 6442 6445 6438
4  6446 6447 6448 6449
4  6450 6451 6448 6449
4  6452 6453 6454 6449
4  6455 6447 6454 6449
4  6456 6457 6458 6459
4  6250 6456 6457 6458
4  6460 6458 6457 6459
4  6461 6456 6458 6459
4  6460 6457 6462 6459
4  6463 6216 6464 6207
4  6465 6466 6467 6207
4  6468 6467 6466 6207
4  6469 6208 6206 6207
4  6469 6468 6466 6207
4  771 490 6470 6471
4  6378 6472 6471 6473
4  6474 6475 6476 6477
4  464 6190 6478 6479
4  6474 6480 6475 6477
4  6356 6159 6358 6477
4  6158 6481 6159 6477
4  6482 6254 6250 6483
4  6484 6485 6486 6487
4  6249 6253 6468 6250
4  6488 6489 6490 6491
4  6463 6482 6216 6483
4  6463 6216 6468 6483
4  41 6492 6195 6493
4  6494 6495 6490 6489
4  98 6262 6261 6493
4  6262 6170 6261 6493
4  6170 6496 6261 6493
4  6497 6498 6232 6499
4  871 6500 6497 6499
4  720 6227 6501 6499
4  871 720 6500 6499
4  6502 6503 6504 6381
4  0 6505 6506 6194
4  6379 6504 6507 6381
4  6508 6509 6510 6511
4  1005 6503 6512 6441
4  6504 6513 6507 6381
4  822 6198 6197 6199
4  6514 6196 6203 6199
4  6515 6450 6516 6451
4  6196 6197 6517 6198
4  822 562 6197 6198
4  6518 6519 6520 6521
4  6522 6523 6524 6521
4  6525 6526 6527 6521
4  6518 6520 6527 6521
4  6312 6528 6529 6530
4  6312 6445 6161 6530
4  6529 6531 6532 6530
4  6529 6531 6533 6532
4  6529 6530 6532 6534
4  6529 6532 6535 6534
4  6145 6536 6537 6538
4  6539 6145 6537 6538
4  274 273 903 6540
4  6539 6537 6541 6538
4  6542 6543 6140 6538
4  6542 6140 6544 6538
4  6219 6113 6106 6116
4  6545 6110 6546 6116
4  6547 6548 6109 6110
4  6109 6548 6111 6110
4  6106 6116 6113 6108
4  6545 6221 6549 6111
4  6545 6111 6550 6110
4  6547 6109 6546 6110
4  6546 6109 6117 6110
4  999 136 137 6226
4  6227 6226 6551 6552
4  6229 6226 6230 6228
4  6234 6553 6226 6230
4  137 6234 6553 6226
4  501 843 6554 6276
4  6555 6353 6556 6155
4  6557 6558 6559 6560
4  6561 6559 6562 6560
4  6563 6155 6557 6560
4  6555 6558 6155 6560
4  6515 6516 6564 6565
4  676 6433 6566 6436
4  723 6567 6568 6436
4  676 723 6433 6436
4  6433 6566 6436 6431
4  983 6569 6567 6436
4  6311 6528 6570 6571
4  6311 6572 6573 6571
4  6574 6575 6576 6571
4  6577 6570 6578 6571
4  6574 6579 6575 6571
4  6222 6225 6580 6581
4  6582 6222 6583 6225
4  6584 6580 6585 6225
4  6586 6587 6588 6225
4  6585 6580 6589 6225
4  6590 6589 6591 6225
4  6455 6448 6447 6449
4  973 6592 6593 6594
4  6595 6596 6597 6594
4  6598 6597 6599 6594
4  6598 6595 6597 6594
4  6597 6592 6599 6594
4  973 605 6592 6594
4  390 797 6270 6600
4  1046 6600 6601 6271
4  6602 6603 6270 6600
4  319 6600 6603 6604
4  1046 244 6605 6600
4  6605 6606 6607 6600
4  244 6606 6600 6604
4  6608 6428 6566 6431
4  6609 6610 6608 6566
4  6611 6612 6509 6613
4  6609 6608 6428 6566
4  6610 6433 6608 6566
4  934 676 6610 6566
4  6614 6341 6615 6275
4  6616 6617 6275 6618
4  6278 6616 6275 6618
4  6617 6275 6342 6343
4  256 6619 6620 6540
4  6617 6274 6342 6275
4  6621 6622 6623 6613
4  589 180 926 6624
4  180 6625 6624 6257
4  6255 6288 6256 6300
4  6626 6627 6466 6448
4  6515 6451 6565 6628
4  6629 6255 6401 6258
4  6629 6401 6624 6258
4  6278 6630 6631 6280
4  6632 6633 6634 6280
4  6632 6635 6631 6280
4  6636 6637 6638 6639
4  10 6640 191 6553
4  6392 6641 6642 6387
4  6234 6641 6553 6230
4  6643 6553 6392 6230
4  10 137 6234 6553
4  999 137 712 6553
4  999 712 6643 6553
4  6405 6644 6602 6604
4  319 6644 6645 6604
4  6406 6645 6646 6644
4  317 6646 6645 6644
4  317 6645 319 6644
4  6406 6405 6645 6644
4  6647 6638 6637 6648
4  6649 6650 6405 6644
4  319 390 6603 6600
4  6601 6651 6652 6600
4  6653 6273 6270 6269
4  6601 6652 6273 6600
4  6607 6602 6600 6604
4  6653 6654 6655 6270
4  719 6500 720 6501
4  390 162 6656 6270
4  6657 6658 6659 6660
4  6652 6602 6654 6270
4  6661 6479 6505 6662
4  6505 6479 6192 6662
4  961 0 6192 6662
4  706 6663 6664 6662
4  706 6664 329 6662
4  6460 6461 6665 6458
4  6406 6582 6587 6225
4  6580 6224 6589 6225
4  6585 6589 6580 6224
4  6666 6667 6406 6589
4  6406 6589 6667 6225
4  6668 6667 6589 6224
4  6590 6585 6589 6225
4  6666 6668 6667 6589
4  6669 6670 6671 6535
4  6672 6671 6673 6535
4  6672 6673 6533 6535
4  6670 6443 6535 6534
4  6674 6675 6676 6511
4  6677 6510 6675 6511
4  6621 6623 6395 6678
4  6508 6395 6679 6511
4  6621 6676 6509 6511
4  6680 6306 6231 6233
4  6232 6233 6306 6308
4  6681 6232 6306 6308
4  6234 6235 6640 6316
4  6682 6307 6680 6233
4  6315 6233 6307 6683
4  6234 6640 6684 6316
4  6234 6233 6231 6228
4  6235 6316 6233 6308
4  98 97 6263 6264
4  6685 6686 6687 6688
4  6689 6138 6690 6264
4  6658 6691 6660 6648
4  6689 6692 6693 6264
4  6690 6262 6692 6264
4  6693 6262 6263 6264
4  6694 6695 6428 6696
4  6697 6698 6699 6695
4  6698 6700 6695 6696
4  103 6428 6697 6695
4  6699 6698 6700 6695
4  6701 6702 6703 6704
4  6346 6705 6323 6266
4  6706 6707 6638 6639
4  6708 6709 6446 6451
4  6710 6711 6712 6702
4  6706 6710 6712 6702
4  6713 6714 6703 6702
4  6714 6639 6707 6702
4  6715 6716 6717 6718
4  6719 6720 6721 6722
4  6715 6723 6724 6717
4  6724 6723 6725 6717
4  6726 6717 6727 6718
4  6728 6729 6415 6718
4  6725 6415 6729 6718
4  913 6730 802 6445
4  6312 6161 6445 6162
4  6437 6312 6444 6438
4  6437 6445 6312 6438
4  780 849 6442 6445
4  919 802 6437 6438
4  6309 6310 6159 6286
4  802 6445 6437 6438
4  6731 6417 6726 6418
4  6726 6732 6733 6734
4  6726 6732 6735 6418
4  418 6732 6733 6418
4  541 6417 6731 6418
4  6123 6332 6736 6737
4  6736 6332 6738 6737
4  6739 6740 6741 6737
4  6123 6736 6740 6737
4  684 6170 6261 6742
4  958 837 6743 6742
4  6183 6744 6181 6742
4  6183 6180 6181 6744
4  837 6744 6745 6742
4  837 6745 6743 6742
4  6743 6181 6170 6742
4  6743 6745 6183 6742
4  6746 6181 6744 6742
4  837 652 6744 6742
4  6747 6748 6632 6749
4  6750 6632 6751 6749
4  6750 6752 6635 6749
4  6751 6748 6664 6749
4  149 6752 6664 6749
4  413 6102 665 6330
4  413 6125 553 6102
4  6131 6329 6124 6126
4  6103 6102 6125 6124
4  6333 6331 6122 6102
4  612 6122 6331 6102
4  612 6331 665 6102
4  553 6125 6104 6102
4  6753 6754 6755 6756
4  6757 6180 6183 6744
4  6719 6758 6721 6759
4  6180 6760 6181 6744
4  837 652 834 6744
4  723 6568 6433 6436
4  6761 6567 6569 6436
4  6762 6569 6761 6567
4  6762 6763 6764 6567
4  6763 6470 6764 6567
4  488 6470 6763 6567
4  723 488 6568 6567
4  6761 6568 6567 6436
4  6765 6337 6146 6338
4  6765 6146 6342 6338
4  6766 6340 6767 6342
4  6768 6340 6342 6275
4  6766 6768 6340 6342
4  574 6767 6765 6342
4  566 6767 574 6342
4  6340 6342 6275 6338
4  6616 6275 6617 6343
4  6190 6191 6189 6193
4  6505 6192 6479 6189
4  6190 6479 6192 6189
4  6769 6188 6366 6189
4  6770 6505 6769 6189
4  262 6771 6687 6772
4  6773 6687 6774 6772
4  6774 6687 6775 6772
4  6687 6771 6775 6772
4  436 6776 6771 6772
4  850 6195 6190 6193
4  850 189 6195 6193
4  6769 6505 6479 6189
4  6661 6663 6479 6662
4  6661 6505 6777 6662
4  961 6192 6479 6662
4  189 0 6194 6193
4  961 464 6479 6192
4  6778 6135 6127 6125
4  412 413 6135 6125
4  6135 6330 6134 6126
4  6136 6123 6127 6126
4  880 6779 6098 6104
4  6103 6104 6125 6102
4  414 6780 6104 6125
4  6779 6780 6781 6104
4  553 6104 880 6101
4  414 6780 943 6104
4  6780 6332 6104 6125
4  6782 6783 6409 6410
4  6783 6409 6410 6784
4  6785 6410 6149 6354
4  626 645 6785 6410
4  6785 6149 6410 6422
4  6409 6408 6410 6784
4  6617 6144 6143 6142
4  6719 6786 6309 6758
4  6787 6343 6617 6142
4  998 544 6143 6142
4  6788 6789 6790 6791
4  544 6141 658 6143
4  6792 6347 6793 6794
4  658 6795 843 6143
4  843 824 6143 6276
4  998 825 6144 6143
4  825 824 6617 6143
4  357 6796 6797 6798
4  6799 6800 6801 6797
4  272 6797 6802 6798
4  6803 6180 6182 6173
4  6172 6182 6181 6173
4  6804 6803 6182 6173
4  6805 6806 6172 6182
4  6180 6181 6807 6182
4  6807 6181 6172 6182
4  6170 6172 6807 6181
4  6807 6172 6808 6182
4  6806 6809 6808 6182
4  6806 6692 6172 6808
4  6810 6735 6811 6812
4  6810 6811 6670 6812
4  6735 6812 6732 6734
4  683 6732 6735 6812
4  682 6813 848 6812
4  95 6195 6139 6493
4  6814 6159 6815 6286
4  6194 6139 6195 6191
4  189 6139 95 6195
4  41 6496 6492 6493
4  6690 6139 6191 6493
4  6816 6191 6492 6493
4  6190 6195 6492 6191
4  6817 6818 6633 6819
4  6820 6821 6822 6283
4  6823 6817 6824 6633
4  6823 6824 6825 6633
4  6632 6633 6631 6819
4  6750 6826 6751 6819
4  6825 6751 6826 6819
4  6416 6305 6334 6303
4  6827 6828 6829 6345
4  6674 6830 6653 6675
4  6716 6831 6727 6718
4  6832 6829 6828 6615
4  6339 6341 6345 6338
4  6833 6834 6835 6836
4  6339 6340 6828 6341
4  6615 6341 6340 6275
4  6837 6838 6272 6273
4  749 6839 6840 6281
4  6278 6280 6554 6276
4  6840 6841 6768 6281
4  6841 6634 6630 6281
4  6461 6456 6842 6458
4  6665 6842 6501 6458
4  6254 6227 6501 6458
4  170 47 6254 6458
4  685 6250 6457 6458
4  685 170 6250 6458
4  6482 6456 6250 6458
4  6799 6843 6800 6797
4  6844 6576 6578 6571
4  6577 6576 6575 6571
4  6845 6576 6846 6578
4  6847 6845 6163 6578
4  6848 6791 6833 6849
4  6850 6847 6163 6578
4  6850 6163 6844 6578
4  6257 6375 6517 6373
4  562 6851 6517 6198
4  6196 6517 6197 6373
4  639 6375 6197 6517
4  639 6197 562 6517
4  656 6838 6396 6852
4  6790 6791 6853 6836
4  25 6272 6838 6269
4  6674 6653 6830 6838
4  6837 6674 6653 6675
4  6837 6653 6674 6838
4  6621 6674 6830 6838
4  6621 6396 6854 6838
4  6855 6222 6856 6581
4  6857 6858 6859 6860
4  6584 6861 6580 6581
4  6855 6861 6862 6581
4  6863 6862 6861 6581
4  6863 6861 6584 6581
4  6864 6865 6862 6866
4  6864 6866 6862 6581
4  6867 6222 6866 6583
4  6635 6554 6631 6280
4  6421 6502 6378 6471
4  6378 6502 6868 6381
4  6470 6471 6473 6869
4  6470 6473 6764 6869
4  6870 6871 6512 6869
4  6872 6764 6871 6869
4  6254 6501 6227 6552
4  6229 6873 6874 6552
4  6254 6551 6875 6552
4  6254 6227 6551 6552
4  6876 6877 6878 6879
4  6880 6877 6881 6879
4  6880 6882 6761 6883
4  6880 6882 6883 6879
4  6878 6877 6884 6879
4  6885 6883 6884 6879
4  6885 6880 6883 6879
4  6886 6887 6874 6888
4  6889 6886 6890 6874
4  6889 6890 6891 6874
4  6892 6893 6894 6799
4  6842 6874 6875 6888
4  6482 6214 6456 6888
4  6891 6456 6214 6888
4  6529 6443 6442 6534
4  6895 6896 6897 6831
4  6898 6535 6533 6532
4  775 6670 6899 6534
4  6900 6901 6857 6902
4  779 6903 6904 6534
4  6905 6532 6530 6534
4  6898 6899 6535 6532
4  775 6899 779 6534
4  6416 6305 6303 6245
4  323 6906 6907 6305
4  6907 6305 6906 6245
4  6906 6419 6895 6245
4  6908 6909 6910 6911
4  6419 6303 6246 6245
4  6244 6912 6246 6245
4  6419 6246 6912 6245
4  6244 6895 6912 6245
4  6907 6245 6244 6243
4  6913 6914 6915 6386
4  6830 6384 6655 6916
4  6913 6386 6915 6916
4  6384 6395 6386 6916
4  6788 6917 6791 6849
4  6508 6511 6918 6916
4  6830 6918 6675 6511
4  6915 6386 6508 6916
4  6919 6920 6921 6922
4  6923 6924 6920 6922
4  6925 6926 6208 6922
4  6927 6924 6208 6922
4  6775 6686 6928 6688
4  6928 6929 6691 6688
4  6685 6687 6930 6688
4  6931 6691 6707 6688
4  6685 6930 6707 6688
4  332 6907 323 6906
4  6246 6305 6133 6243
4  334 6778 6135 6305
4  6719 6721 6758 6722
4  6778 6135 6305 6243
4  6932 6933 6934 6507
4  6935 6936 6383 6513
4  6933 6504 6934 6507
4  6934 6504 6513 6507
4  6937 6935 6932 6934
4  6938 6857 6900 6901
4  6900 6859 6939 6902
4  6932 6935 6940 6383
4  366 365 6941 6942
4  378 6109 6943 6942
4  6944 6941 6945 6942
4  6547 6546 6109 6942
4  6944 6945 6546 6942
4  6946 6947 6700 6696
4  6946 6698 6948 6696
4  701 6428 103 6695
4  6948 6698 6694 6696
4  6949 6428 6950 6696
4  6378 6951 6952 6473
4  6378 6952 6472 6473
4  6763 6764 6470 6473
4  6470 6471 6472 6473
4  6953 6641 6234 6230
4  6392 6553 6641 6230
4  6234 6230 6226 6228
4  6643 6229 6226 6230
4  6953 6954 6678 6230
4  6953 6231 6954 6230
4  6728 6726 6733 6727
4  6732 6955 6734 6438
4  6733 6955 6727 6734
4  6256 6293 6257 6373
4  6200 6956 6196 6373
4  6957 6851 6196 6517
4  6256 6292 6293 6373
4  6957 6196 6956 6373
4  6958 6959 6960 6961
4  6962 6960 6963 6961
4  6964 6960 6965 6961
4  6962 6958 6960 6961
4  6823 6817 6633 6819
4  6966 6115 6360 6114
4  6115 6360 6361 6242
4  832 986 6967 6241
4  521 6361 6968 6242
4  6969 6966 6115 6242
4  6967 6240 6241 6242
4  6970 6971 6972 6385
4  6970 6972 6973 6385
4  6393 6386 6385 6387
4  6914 6393 6386 6385
4  6914 6386 6974 6385
4  6975 6976 6977 6978
4  6979 6980 6981 6978
4  6979 6981 6982 6978
4  6983 6977 6984 6978
4  6817 6985 6818 6819
4  6986 6217 6215 6212
4  6206 6926 6987 6212
4  6988 6215 6987 6212
4  6989 6990 6239 6991
4  6848 6790 6992 6836
4  6988 6926 6210 6212
4  6993 6853 6994 6995
4  6993 6994 6996 6995
4  6997 6998 6999 6995
4  7000 6999 7001 6995
4  6985 7002 6818 6826
4  6914 6974 6973 6385
4  7003 6570 6314 6162
4  7003 6163 6162 6164
4  6166 7004 6162 6164
4  6730 6166 7004 6162
4  7003 6314 7004 6162
4  233 230 6398 7005
4  230 72 7006 7005
4  233 7007 65 7005
4  6319 6322 6548 6112
4  6362 6105 6360 6112
4  6362 6360 6361 6112
4  752 7008 7009 6363
4  6362 7010 6364 6363
4  20 6361 7008 6363
4  108 409 7009 6320
4  108 6322 7011 6321
4  6318 6326 7012 6321
4  756 6326 970 6320
4  6319 7009 6364 6320
4  6319 6322 7009 6320
4  7013 7014 6799 6797
4  272 6843 6802 6797
4  357 6796 6801 6797
4  932 6796 357 6798
4  6796 6241 6941 6798
4  367 6941 832 6798
4  7014 6941 6802 6798
4  7014 6796 6941 6798
4  7015 6278 6795 6618
4  6795 6618 6278 6276
4  7015 7016 6278 6618
4  6278 6618 6275 6276
4  6278 7016 6616 6618
4  6607 6600 6606 6604
4  319 6603 6644 6604
4  319 6645 244 6604
4  6404 6407 6606 6604
4  6602 6603 6600 6604
4  6405 6607 6407 6604
4  6405 6645 6644 6604
4  6432 7017 7018 6881
4  7019 7018 7020 6881
4  723 7021 6433 6568
4  6880 6881 6882 6879
4  6432 6880 6877 6881
4  7019 6882 7018 6881
4  7020 7017 7022 6881
4  7023 7022 6877 6881
4  6876 7023 6877 6881
4  6855 6119 6862 6861
4  6585 6856 6580 6861
4  6863 6862 7024 6861
4  7025 7024 6863 6862
4  7024 6862 6119 6861
4  6180 6760 6744 7026
4  834 6776 6745 6744
4  7027 7028 6659 7026
4  7027 6659 7029 7026
4  6873 6306 6232 6231
4  7027 6776 7030 7026
4  6757 6776 7029 6744
4  6760 7030 6776 7026
4  7029 6180 6744 7026
4  7028 6180 7031 7026
4  6502 6503 7032 6504
4  7033 7034 6441 6504
4  6825 7035 7036 6751
4  6933 6379 6504 6507
4  7033 7037 7034 6504
4  7038 6502 7032 6504
4  7039 6934 6933 6504
4  7039 7038 7037 6504
4  258 7040 403 6704
4  6711 7040 6703 6704
4  6711 7041 6703 7040
4  6701 6703 6784 6704
4  404 6701 406 6704
4  6711 6703 6702 6704
4  404 6710 6701 6704
4  7042 6336 6344 6343
4  6340 6275 6341 6338
4  6344 6336 6345 6338
4  6787 6145 6343 6142
4  1046 797 6600 6271
4  6830 6396 6838 6852
4  6655 6852 6838 6269
4  6903 7043 7044 6532
4  25 6838 6852 6269
4  6601 6273 6272 6271
4  346 6592 605 6599
4  6597 6592 7045 6599
4  6598 7046 7047 6599
4  6825 6751 7036 6826
4  605 6598 604 6599
4  287 7048 7049 6403
4  6846 7049 7048 6403
4  7050 6403 6402 6399
4  7051 7052 6402 6403
4  454 7052 7048 6403
4  6161 6166 6445 6162
4  6312 6445 6730 6162
4  7053 7003 7049 7004
4  913 6730 6166 7004
4  1016 913 6165 7004
4  6169 7003 7004 6164
4  7053 6169 7003 7004
4  407 7054 7055 7056
4  6391 6223 6667 7056
4  6406 6391 6667 7056
4  6406 6667 6646 7056
4  903 6646 6667 7056
4  6404 6646 7055 7056
4  6404 6391 6406 7056
4  7054 6540 6223 7056
4  7057 6951 7058 7059
4  7060 6630 7061 6615
4  7058 7062 7063 6951
4  7063 7062 7064 6951
4  6762 6951 6952 7059
4  6885 6883 6761 7059
4  7064 6761 6883 7059
4  7065 7066 6619 6224
4  6620 6223 6540 6224
4  6585 6856 7066 6224
4  7065 6619 6540 6224
4  6667 6224 6223 6225
4  6620 6540 6619 6224
4  6667 6540 6223 6224
4  6529 7067 6443 6535
4  6670 6535 6899 6534
4  6529 6535 6443 6534
4  7068 6533 7069 6532
4  6898 7043 6899 6532
4  7068 7069 7044 6532
4  6689 7070 6693 6692
4  6903 6899 6532 6534
4  6903 7044 6905 6532
4  7071 6444 7072 6443
4  6529 6444 6442 6443
4  7071 6443 6811 6438
4  6811 6673 6670 6443
4  7073 6812 6670 6438
4  1016 7053 301 7004
4  6953 6234 6641 6233
4  6234 6684 6641 6233
4  6315 6684 6316 6233
4  7074 7075 6307 6683
4  6522 7076 6523 6519
4  6284 6814 6989 6286
4  7074 6682 6184 6683
4  7075 6187 6684 6683
4  7075 6187 7077 6684
4  189 6194 6139 6195
4  6139 6195 6191 6493
4  7078 6188 6367 6191
4  6690 6191 6816 6493
4  6188 6492 6816 6191
4  6188 6190 6492 6191
4  7078 6194 6189 6191
4  7079 7080 7081 6491
4  7082 7083 7084 6491
4  6488 6485 6489 6491
4  7085 6485 7081 6491
4  7079 7083 7080 6491
4  7086 6556 6561 7087
4  7088 6562 6639 7087
4  6636 6561 7088 7087
4  7086 6636 7089 7087
4  6555 7087 6562 6560
4  6555 6556 6714 7087
4  6714 6556 7090 7089
4  7091 7092 7093 7094
4  7095 6802 7014 6941
4  6945 6941 6943 6942
4  366 6941 6944 6942
4  6944 7095 6945 6941
4  366 7096 6944 6941
4  7097 7098 7099 7100
4  7101 7102 7103 6588
4  6390 7104 6582 6588
4  6586 7105 6583 6588
4  7101 6583 7102 6588
4  7105 7103 7102 6588
4  6651 6652 7106 6273
4  6653 7106 6652 6273
4  6601 6652 6651 6273
4  7107 7108 7109 7110
4  6273 6270 6269 6271
4  6837 6653 6838 6273
4  7111 7112 7113 6759
4  7071 6444 6443 6438
4  6312 6442 6444 6438
4  6529 7072 6444 6443
4  6437 6312 7114 6444
4  7114 7072 7071 6444
4  7115 7116 7117 7118
4  6234 6641 6640 6553
4  7119 7120 7121 7122
4  6392 6393 7123 6187
4  6953 7123 6185 6187
4  6393 6972 6684 6641
4  6392 6187 6953 6641
4  6393 6684 6187 6641
4  656 25 24 6838
4  656 6854 6396 6838
4  162 25 6852 6269
4  759 7124 162 6852
4  6721 7125 6310 6722
4  6384 6396 6852 6387
4  6830 6653 6655 6838
4  6830 6655 6384 6852
4  6384 7124 6971 6852
4  7126 6631 7016 7127
4  7126 7128 7129 7127
4  7002 6826 7130 7127
4  7002 7130 7131 7127
4  6856 6620 6619 6224
4  6222 6223 6620 6224
4  6582 6223 6222 6225
4  256 6620 7132 7054
4  7132 6620 6222 7054
4  891 1079 307 7133
4  6391 6582 6667 6223
4  6391 7054 6223 7056
4  6701 6703 6783 6784
4  6703 7134 6409 6784
4  6409 7134 6408 6784
4  621 7134 406 6784
4  508 6783 506 6784
4  6148 7135 6785 6151
4  626 6785 6351 6354
4  6558 6150 6149 6151
4  7136 6558 6150 6149
4  645 6410 6782 6422
4  7136 6555 6558 6149
4  6426 7136 6150 6149
4  7136 6782 6409 6149
4  7120 7137 6753 7112
4  6536 6860 6537 7138
4  7139 6536 6799 7138
4  6892 6799 6536 7138
4  7140 6537 7141 7138
4  7140 6892 6537 7138
4  6786 6758 7142 6160
4  7141 6537 6857 7138
4  652 601 6746 6261
4  41 98 6261 6493
4  41 684 6496 6261
4  98 601 6261 6259
4  6170 6746 6261 6742
4  6170 6171 6496 6493
4  6249 6250 6206 6251
4  798 6251 170 6252
4  685 6250 170 6251
4  7142 6721 6310 6758
4  57 6596 6593 6251
4  209 57 6593 6251
4  209 6457 685 6251
4  209 798 57 6251
4  6856 7143 6619 6100
4  6119 6100 6098 6099
4  546 6619 7143 6100
4  611 6100 6099 6101
4  6119 7143 6100 6099
4  880 6098 856 6100
4  611 880 6100 6101
4  611 6100 7143 6099
4  7144 6123 6332 6127
4  7145 6778 6127 6125
4  6136 6123 7146 6127
4  6247 6136 7146 6127
4  7144 6247 7146 6127
4  6778 6247 6127 6243
4  6781 6738 6736 6332
4  7144 6738 6332 6737
4  6781 6736 6103 6332
4  374 665 6329 6330
4  6123 6736 6332 6124
4  414 6104 553 6125
4  6331 6124 6329 6330
4  7144 6332 6123 6737
4  6547 6550 6548 6110
4  6549 6111 6319 6548
4  7008 6548 6322 6112
4  6549 6550 6111 6548
4  6319 6548 6111 6112
4  454 6402 7052 6403
4  6314 6730 7004 6162
4  6846 7048 7052 6403
4  7003 6846 7049 7048
4  741 6314 6730 7048
4  741 454 7052 7048
4  287 7049 6397 6403
4  946 7032 6424 6427
4  852 7032 946 6427
4  6502 7032 6503 6427
4  890 6503 6427 6471
4  6317 7147 6307 6308
4  852 890 6503 6427
4  6421 6424 6502 6427
4  7148 6158 6157 6160
4  6421 6427 6502 6471
4  813 6421 988 6427
4  813 988 890 6427
4  7028 7149 6808 7150
4  7151 7149 7028 7150
4  7151 7028 7152 7150
4  7153 7154 7155 7156
4  6260 6760 6807 7150
4  6260 7152 6760 7150
4  7157 7158 6297 7159
4  7160 7161 7155 7162
4  7163 7164 6287 6290
4  7165 7157 6289 7166
4  6301 6291 6293 6290
4  6288 6300 6289 6290
4  7163 6296 7164 6290
4  7163 7165 7157 6289
4  6803 6183 6180 6173
4  6180 6760 6807 6181
4  6760 6746 6181 6744
4  6743 6183 6181 6742
4  652 6746 6744 6742
4  6170 6181 6746 6742
4  6282 6329 6131 6126
4  334 6135 335 6305
4  6136 6131 6123 6126
4  413 6135 6125 6330
4  6136 6127 6135 6126
4  412 414 413 6125
4  334 412 335 6135
4  6828 6340 6615 6341
4  682 7167 6813 6812
4  6341 6275 6343 6338
4  6344 6341 6343 6338
4  7168 6489 7169 7170
4  6751 6663 6661 6664
4  329 6664 6777 6662
4  7168 7169 7171 7170
4  327 6777 329 6664
4  149 6635 6752 6749
4  6751 6748 6663 6664
4  327 149 6752 6664
4  131 6748 6747 6749
4  7172 7173 7174 7045
4  7175 7176 7173 7045
4  68 346 67 7045
4  583 7177 7045 6599
4  7173 7176 7177 7045
4  67 583 7177 7045
4  335 6305 6135 6134
4  6246 6303 6302 6133
4  6415 6417 6416 6418
4  6416 6334 6417 6303
4  541 363 6334 6418
4  372 6304 6334 6134
4  364 372 6304 6334
4  363 418 6416 6418
4  363 6416 323 6334
4  6229 6552 6226 6228
4  6953 6231 6234 6233
4  6953 6680 6954 6231
4  329 6505 0 6662
4  6769 6479 6190 6189
4  6769 6190 6188 6189
4  7077 6187 6393 6684
4  7178 6769 6661 6479
4  329 6777 6505 6662
4  683 422 418 6732
4  7179 7180 7156 7084
4  7181 7182 6999 7183
4  7184 7185 7186 7183
4  7181 7187 7182 7183
4  7188 7189 7190 7183
4  7184 7189 7185 7183
4  7191 7192 6177 7193
4  7194 7195 7196 6177
4  7191 6177 6176 6179
4  7191 6177 6179 7193
4  7197 7198 6558 6150
4  6148 7100 6153 6150
4  6152 6150 6558 6151
4  7097 7100 7099 6150
4  6426 7199 7100 6150
4  7200 7201 7202 7203
4  7204 7205 7206 7201
4  7207 7208 7209 7201
4  7208 7205 7209 7201
4  7210 7209 7204 7201
4  6184 6186 7211 6187
4  7032 6441 7034 6504
4  7038 6502 6424 7032
4  988 490 890 6471
4  6502 6424 7032 6427
4  6131 6329 6331 6124
4  6129 6131 6333 6740
4  6123 6333 6131 6740
4  7212 7103 7213 7102
4  7214 7215 7216 7217
4  7214 7218 7215 7217
4  7219 7218 7220 7217
4  7221 7222 7223 7224
4  7221 7225 7222 7226
4  709 6634 6839 6281
4  7227 7222 7228 7226
4  7221 7222 7224 7226
4  6667 6223 6540 7056
4  7229 7230 7231 7232
4  903 694 6646 7056
4  903 6667 6666 6540
4  7233 7234 7235 7018
4  274 7065 273 6540
4  7236 7237 7238 7239
4  850 6492 6190 6195
4  6770 6769 6366 6189
4  7240 6188 6816 6367
4  6188 6816 6367 6191
4  6389 7054 6391 7055
4  407 1022 6389 7054
4  256 1022 407 7054
4  7241 7206 7205 7242
4  7208 7206 7243 7205
4  7244 7245 7246 7205
4  7204 7241 7206 7205
4  6200 6197 6201 6374
4  6200 6196 6197 6373
4  6200 6292 6956 6373
4  77 6257 6375 6517
4  6200 6197 6196 6199
4  7247 6956 6957 6196
4  7247 6514 6956 6196
4  7248 7249 7250 7129
4  7128 7249 7251 7129
4  7126 7128 7251 7129
4  7126 7251 7248 7129
4  244 6645 6606 6604
4  318 6649 317 6644
4  991 244 6645 6606
4  7252 7253 7254 7255
4  318 317 319 6644
4  7256 7051 7257 6575
4  7258 6575 7259 6572
4  6311 6570 6577 6571
4  6311 7258 6572 6571
4  7234 7260 7261 6434
4  6577 6578 6576 6571
4  6629 6255 7166 7262
4  6255 6289 7166 7262
4  7263 7262 7264 7265
4  7266 7263 7262 7257
4  7267 7262 7264 7257
4  7268 7269 7270 7271
4  7153 7162 7155 7271
4  7272 7273 7269 7271
4  7126 6631 6278 7016
4  7274 7234 7261 6434
4  7272 7154 7273 7271
4  7155 7273 7154 7271
4  7275 7276 7277 7278
4  7279 7280 7281 7278
4  6919 6597 7174 7046
4  6923 6925 6919 6597
4  6598 6923 6919 6597
4  6595 6596 6925 6597
4  6184 7211 7075 6187
4  6597 6593 6592 6594
4  6997 6993 6998 6995
4  7001 6999 6998 6995
4  7282 7283 6455 6627
4  7182 7284 7285 6999
4  7181 7285 7286 6999
4  6161 6445 6905 6530
4  7000 7181 6999 7183
4  7182 6997 7284 6999
4  7287 7288 7289 7277
4  7289 7290 7291 7277
4  7292 7277 7276 7278
4  7289 7291 7292 7277
4  6625 6957 6256 6257
4  6255 6256 6288 6257
4  6256 6956 7159 6300
4  6293 6373 6292 6374
4  6957 6256 6257 6373
4  7067 6673 6443 6535
4  6442 6443 6670 6534
4  6811 6812 6735 6734
4  6732 6734 6812 6438
4  7293 7067 6673 6443
4  7294 6811 7293 6673
4  7294 6671 6811 6673
4  6723 6811 7295 6717
4  7294 6811 6723 7293
4  6671 6670 6811 6673
4  6810 7295 6811 6735
4  7295 6717 6811 6735
4  7296 7297 7298 7299
4  7296 7298 7300 7299
4  7296 7301 7298 7297
4  7302 7296 7301 7298
4  7303 6685 7041 7089
4  7304 7303 7305 7089
4  6714 7090 7041 7089
4  6636 6639 7089 7087
4  7305 7041 7090 7089
4  7303 6685 7089 6686
4  7304 7306 7303 7089
4  6311 7307 6573 6572
4  6573 7307 7308 6572
4  6579 7309 7259 6572
4  7310 7308 7307 6572
4  6579 6572 6575 6571
4  7311 7312 7313 7314
4  7315 7316 7314 7317
4  6689 7314 7313 7317
4  7318 7193 7247 7319
4  7247 7320 7321 7193
4  7321 7193 7322 7319
4  7323 7324 7325 7326
4  7327 7328 6946 7324
4  7329 7330 7331 7324
4  7331 7323 7328 7324
4  6425 6423 6148 7100
4  6148 6149 6785 6422
4  538 6731 7167 6735
4  7197 6558 6152 6150
4  645 6785 6410 6422
4  7332 7333 7334 7335
4  7336 7332 7334 7335
4  7337 7336 7332 7334
4  860 6947 6700 7334
4  214 119 7338 7334
4  214 7338 7339 7334
4  7340 6587 7341 7104
4  6407 7342 6587 7104
4  6728 6415 6726 6718
4  7343 6587 7344 6591
4  6406 6582 6407 6587
4  6222 6224 6580 6225
4  7344 6591 6587 6225
4  7340 6586 6587 6588
4  7345 6523 7346 7347
4  7348 7092 7094 7347
4  7348 7349 7092 7347
4  7350 7351 7349 7347
4  7350 7352 7351 7347
4  7353 7354 7355 7356
4  7357 7358 7359 7355
4  7357 7353 7355 7356
4  7360 6520 7361 7355
4  6157 6310 6758 6160
4  7362 6756 7142 6160
4  7148 6756 6977 6160
4  6158 6480 6159 6160
4  7362 6480 6977 6160
4  7148 6480 6158 6160
4  7363 7364 7365 7366
4  7363 7367 7368 7250
4  7282 7369 7283 6627
4  7370 7365 7368 7250
4  7363 7365 7368 7366
4  7371 7372 7373 7374
4  7375 7173 6919 7376
4  7174 6592 6987 7377
4  6925 6596 6987 6597
4  6919 7376 6921 6920
4  6923 6919 6925 6922
4  7375 6919 7173 7046
4  6919 6921 6925 6922
4  6919 6925 7174 6597
4  6246 6302 6420 6283
4  6822 6283 6821 6248
4  7378 6420 6302 6283
4  7379 6820 7378 6283
4  7380 6282 7381 6283
4  6820 6822 6420 6283
4  7015 7126 6795 6278
4  501 6276 6279 6277
4  6617 6618 6143 6276
4  6279 6280 6281 6277
4  6787 6617 6143 6142
4  6795 6278 6554 6276
4  7382 7383 7384 7385
4  7386 7384 7385 7387
4  7388 7389 7390 7385
4  7386 7385 7388 7387
4  7391 7392 6527 7393
4  69 74 7394 7176
4  7395 7396 7397 7393
4  7398 7232 7230 7393
4  6526 7392 7399 7393
4  7391 7400 7392 7393
4  7400 7397 7392 7393
4  7401 7402 7403 7404
4  7405 7373 7406 7374
4  7407 7403 7408 7404
4  7409 7410 7411 7404
4  7412 7411 7413 7404
4  7409 7411 7299 7404
4  7414 7299 7411 7404
4  7414 7411 7412 7404
4  629 589 457 6399
4  7415 7416 7254 7417
4  7418 7254 7416 7417
4  7419 7417 7255 7420
4  7419 7236 7255 7417
4  7415 7236 7419 7417
4  7421 7422 7121 7423
4  7421 7424 7111 7122
4  6804 6174 6175 6173
4  7111 7120 7425 7122
4  7120 7424 7121 7122
4  7119 7425 7120 7122
4  771 1005 852 6503
4  7426 7427 7428 7122
4  7429 7371 7430 7431
4  7432 7433 7434 7291
4  7435 7436 7290 7291
4  7436 7434 7290 7291
4  7289 7290 7437 7291
4  7438 7312 7439 7440
4  7313 7312 7438 7440
4  7441 7442 7443 7440
4  7316 7444 7312 7440
4  7445 7446 7447 7448
4  7449 7447 7446 7448
4  7450 7448 7447 7451
4  7449 7452 7446 7447
4  6378 6382 6471 6381
4  6503 6441 6504 6513
4  1005 6512 6439 6441
4  771 6512 1005 6503
4  771 6512 6503 6471
4  509 771 6470 6869
4  6382 6471 6512 6869
4  6871 6382 6512 6869
4  6936 6871 6382 6512
4  7453 7124 6655 6656
4  6655 6656 7124 6270
4  7454 7455 6655 6918
4  6653 6655 6654 7455
4  6119 7143 6856 6100
4  612 6122 6102 6101
4  7066 6619 6856 7143
4  6856 6619 6620 6100
4  990 7456 6121 7143
4  990 546 7456 7143
4  7457 6727 7458 7072
4  6529 7067 6531 7072
4  6529 7072 6531 6528
4  7114 6528 7072 6444
4  7459 7460 6417 6304
4  6731 6726 6735 6418
4  7460 6415 7461 6417
4  7461 6415 6726 6417
4  602 364 7459 6417
4  602 7459 6731 6417
4  6946 6700 6947 7334
4  860 7339 6947 7334
4  6699 7462 7463 6700
4  847 6700 7463 7333
4  119 6700 847 7333
4  860 701 6700 6947
4  701 6700 6947 6696
4  6699 6698 7462 6700
4  7013 6799 7014 7464
4  7013 6902 6901 7465
4  7139 6799 7013 6901
4  6980 6475 7466 7203
4  7467 6475 6981 7203
4  7467 7468 6475 7203
4  6976 7467 6475 6978
4  7372 7469 7373 7374
4  6976 6474 6480 6475
4  7470 7471 6948 7326
4  7287 7471 7326 7472
4  7471 7324 7328 7326
4  7471 7473 7332 7324
4  7471 6946 6948 7328
4  7471 6946 7332 7462
4  7474 7475 7476 7477
4  6549 7478 7474 7477
4  6549 6218 7478 7477
4  7479 7480 7481 7482
4  7091 7480 7483 7482
4  6324 7480 7479 7482
4  7090 7040 7041 7484
4  7485 7090 6353 6556
4  7090 6703 7041 7040
4  6555 7090 6714 6556
4  6555 6714 7090 6703
4  7486 7187 6453 7420
4  7487 7488 6454 6453
4  6452 7189 6453 6449
4  7361 6520 6525 6527
4  7489 7490 7491 6527
4  7489 6518 6520 6527
4  7361 7492 7490 6527
4  6868 6933 6379 6504
4  6932 6383 6379 6507
4  7493 7494 7039 6934
4  7495 7496 7497 7498
4  6685 7041 7040 7484
4  6711 7041 6685 6707
4  7499 7231 7398 7232
4  7500 7231 7439 7232
4  7501 7490 7492 7232
4  7500 7229 7231 7232
4  6206 6926 6212 6209
4  6468 6206 6216 6207
4  6216 6212 6217 6209
4  6211 6217 6212 6209
4  6206 6987 6215 6212
4  7369 7496 7502 7498
4  6206 6215 6250 6216
4  6536 6800 6799 6843
4  357 7503 993 6801
4  993 7503 7504 6801
4  6536 6147 6800 6141
4  7504 6800 7139 6147
4  272 6800 6843 6797
4  272 357 6800 6797
4  7505 7450 7506 7451
4  6482 6842 6254 6875
4  686 6501 6227 6458
4  47 6227 136 6551
4  7065 6666 6667 6540
4  176 273 274 7065
4  7120 6753 7424 7112
4  6753 6755 7424 7112
4  7111 7424 7507 7112
4  7508 7509 6862 7510
4  7025 7511 7512 6862
4  7511 7508 7509 6862
4  7024 6119 6856 6861
4  7025 6863 7511 6862
4  6909 6911 6791 6853
4  6789 6911 6790 6791
4  7513 6833 6791 6849
4  6908 6909 6911 6791
4  7514 7299 7402 7515
4  7409 7297 7299 7411
4  7296 7409 7297 7299
4  7300 7401 7299 7515
4  7516 7209 7208 7205
4  7244 7517 7246 7245
4  7518 7205 7243 7242
4  7519 7520 7521 7522
4  7351 7516 7245 7523
4  7244 7245 7209 7523
4  7524 7525 7526 7527
4  7528 7526 6318 7529
4  7526 7530 7531 7012
4  7532 7533 7534 7535
4  7526 6318 7530 7012
4  7521 7520 7526 7529
4  7536 6727 6733 6955
4  7071 6727 6955 6734
4  7375 7521 7527 7535
4  6437 7114 7536 6955
4  6811 6443 6670 6438
4  418 7537 6733 6955
4  7537 7536 6733 6955
4  6526 7492 6527 7393
4  7399 7392 7397 7393
4  6524 7346 7538 7392
4  7538 7539 7397 7392
4  7540 7541 7346 7392
4  7541 7539 7346 7392
4  7542 6816 6188 6492
4  7240 7543 6188 6366
4  6505 6194 6192 6189
4  464 6190 6479 6192
4  526 464 850 6190
4  6194 6191 6195 6193
4  7544 7542 6190 6492
4  526 6478 464 6190
4  6539 7141 6537 7042
4  6787 7042 6344 6343
4  6787 6344 7042 7545
4  6787 6145 6860 7042
4  6787 7042 6860 7545
4  7492 7230 7229 7232
4  7546 7547 7395 7230
4  7160 7547 7162 7230
4  6495 7160 7170 7230
4  7546 7168 7170 7230
4  7160 7162 7170 7230
4  7151 7356 7548 7149
4  7549 6660 7550 7548
4  6908 6917 7513 6791
4  7551 6911 7186 6853
4  7551 6790 6911 6853
4  6909 6853 6791 6836
4  6200 6956 6292 7552
4  7553 7554 6200 7552
4  6514 6200 7554 7552
4  7555 6265 6268 7556
4  7557 7199 7555 7556
4  7558 6705 7559 7556
4  7560 6884 7559 7556
4  7561 7558 6884 7556
4  6494 6489 6487 7231
4  7562 6489 7168 7231
4  7168 6489 7170 7231
4  6494 6495 6489 7231
4  7563 7207 7564 7565
4  7566 7565 7567 7568
4  7569 7564 7210 7565
4  7210 7564 7209 7565
4  7570 7433 7434 7568
4  7571 7572 7573 7434
4  7574 7573 7566 7434
4  7570 7434 7566 7568
4  7432 7434 7436 7291
4  7566 7434 7565 7568
4  7501 7439 7490 7232
4  7444 7443 7501 7439
4  7575 7500 6487 7439
4  7499 7576 7439 7232
4  7500 7501 7229 7232
4  7499 7168 7398 7231
4  7499 7577 6487 7439
4  7578 7579 7580 7581
4  6939 7580 7582 7465
4  7583 7582 7584 7580
4  7578 7585 7580 7579
4  7586 7050 6402 6399
4  7267 7586 7587 6401
4  457 6401 6402 6399
4  6255 6257 6401 6258
4  7173 7525 7588 7176
4  7267 6255 7586 6401
4  7589 7446 6917 7447
4  7452 7590 7513 6917
4  7513 6791 6917 6849
4  7591 6908 7592 6917
4  6789 6917 7592 6911
4  6908 7513 6909 6791
4  6788 6917 6789 6791
4  7593 7592 6789 6917
4  834 596 6776 6744
4  1019 6776 436 6772
4  7029 7031 6180 7026
4  7594 7029 6757 6776
4  1019 6745 834 6776
4  7256 7051 7586 7257
4  7587 7586 6402 6401
4  7051 7050 7586 7595
4  6255 6401 6257 7006
4  7596 7226 7590 7597
4  7598 7599 7600 7222
4  7225 7601 7222 7602
4  7225 7226 7603 7604
4  7228 7226 7602 7604
4  7105 7605 7103 6588
4  7606 7607 7062 6380
4  6390 7605 7104 6588
4  7608 7213 7609 7103
4  7609 7213 7610 7103
4  7611 7605 7612 7103
4  7611 7612 7610 7103
4  7613 7614 6370 7314
4  7615 7616 7617 7618
4  77 81 6957 6517
4  7619 6486 7618 7314
4  7615 6486 7311 7618
4  7613 6689 7614 7314
4  7620 6486 7617 7618
4  7180 7156 7170 7162
4  7179 7621 7622 7156
4  7180 7170 7156 7084
4  7179 7180 7621 7156
4  7623 6177 7624 7192
4  7623 7624 7625 7192
4  7321 7320 7626 7193
4  7626 7320 7192 7193
4  7627 7265 7194 7192
4  7626 7159 7166 7192
4  7625 7166 7159 7192
4  7321 7626 7191 7193
4  7628 6770 6769 7629
4  7628 7630 7631 7632
4  7633 6661 7628 6777
4  7175 7172 7634 7045
4  7635 7253 7255 7636
4  7637 7371 7372 7373
4  7252 7255 7417 7420
4  7252 7253 7255 7420
4  7236 7254 7239 7255
4  59 6595 6598 6594
4  7174 6592 7377 7045
4  973 6593 57 6594
4  346 973 6592 7377
4  6987 6597 6596 6593
4  57 6593 6596 6594
4  6987 6597 6593 6592
4  7051 6402 7050 6403
4  7638 7049 6846 6397
4  7639 6397 7050 6398
4  7639 7638 7050 6397
4  630 629 287 6397
4  630 287 7640 6397
4  7641 7642 7643 7359
4  7644 7643 7359 7645
4  7644 7643 7646 7359
4  7647 7240 6816 6367
4  7647 6816 6174 6171
4  6690 6367 6816 6191
4  6174 6171 6816 6492
4  6816 6492 6171 6493
4  72 6293 6377 6374
4  7648 6200 6205 6201
4  6514 6200 6956 6196
4  562 6851 81 6517
4  6202 6205 6200 6199
4  7648 6200 6202 6205
4  639 822 6197 6201
4  639 6197 6375 6374
4  822 6201 6205 6199
4  7649 7648 6205 6201
4  7650 6960 6958 7390
4  6958 6960 6959 7390
4  7591 7592 6565 7446
4  7651 7446 6565 7652
4  6564 6565 7593 7446
4  7651 7591 6565 7446
4  6966 6115 6114 7653
4  7654 6114 7655 7653
4  6240 7464 7653 7465
4  7656 7657 7653 7465
4  6969 7653 7582 7465
4  7658 7659 7660 6991
4  7661 7659 7662 7663
4  7664 6627 7665 7498
4  7662 7666 7667 7659
4  7337 7332 6946 7334
4  6946 6700 6698 6696
4  701 807 6700 6695
4  6946 7462 6698 6700
4  7337 6946 7668 6947
4  1002 860 7339 6947
4  1002 7339 7669 6947
4  7670 7174 7671 6987
4  7671 6988 6987 6926
4  6206 6987 6596 6251
4  7671 6987 7174 6921
4  7174 6987 6925 6921
4  7672 7384 7673 7674
4  7675 7676 7384 7677
4  7383 7384 7676 7677
4  7672 7382 7384 7674
4  7678 7384 7383 7677
4  6621 6395 6830 6511
4  6510 6676 6675 6511
4  6510 7679 6675 6676
4  6837 6675 6653 7106
4  6677 6918 6675 7106
4  6837 7679 6675 7106
4  7591 7452 6908 6917
4  6709 7680 7681 7592
4  7593 6565 7592 7446
4  7682 7592 7185 6911
4  7682 6789 7592 6911
4  7680 7185 7681 7592
4  7683 7213 7684 7298
4  7685 7254 7686 7687
4  7236 7239 7687 7301
4  7685 7236 7687 7301
4  7684 7610 7301 7213
4  7684 7610 7687 7301
4  7688 6977 6756 7689
4  7690 7195 7691 7689
4  7691 6975 7689 6178
4  7688 6756 6755 7689
4  6423 6153 6148 7100
4  7097 6153 6933 7100
4  7197 7097 7099 6150
4  6426 7199 6425 7100
4  6425 7199 7098 7100
4  7692 7693 7098 7100
4  7120 7425 7115 6759
4  7694 7118 7425 6759
4  7115 7118 6720 6759
4  7137 6721 6758 6759
4  7575 6487 7312 7439
4  6494 6489 6485 6487
4  7499 7438 7577 7439
4  6494 6487 7500 7231
4  7499 7577 7562 6487
4  6635 6279 6554 6280
4  7126 6278 6631 6554
4  501 6554 6279 6276
4  501 149 6279 6554
4  843 6795 6554 6276
4  499 501 843 6554
4  149 7695 6635 6554
4  7126 6635 7695 6554
4  7696 7405 7697 7374
4  7241 7698 7697 7242
4  6927 7699 6924 6922
4  7700 6897 7701 6831
4  7243 7697 7405 7242
4  7698 7697 7405 7374
4  7676 7298 7515 7677
4  7684 7213 7301 7298
4  541 363 364 6334
4  7300 7401 7409 7299
4  7684 7301 7702 7298
4  7514 7414 7402 7299
4  7389 7402 7403 7515
4  7514 7298 7299 7515
4  7703 7403 7401 7515
4  6650 6591 6406 7704
4  6649 6650 6406 6405
4  6666 6406 6667 6646
4  6406 6667 6391 6582
4  6406 6587 6407 7342
4  7705 7447 7448 7451
4  327 7706 7707 6777
4  7421 7121 7122 7423
4  7309 7423 7259 6572
4  7308 7427 7708 7423
4  7308 7708 7309 7423
4  7248 7250 7709 7129
4  7708 7427 7122 7423
4  7710 7349 7351 7523
4  7711 7712 7713 7714
4  7249 7715 7578 7581
4  7711 7712 7349 7523
4  7716 7482 7349 7714
4  7092 7349 7351 7347
4  7348 7094 7092 7482
4  7716 7348 7349 7482
4  7717 7349 7092 7482
4  6390 7612 7605 7103
4  7105 7605 7611 7103
4  7718 7104 6390 7612
4  7719 7612 7416 7720
4  7721 7643 7076 6519
4  7721 7076 6522 6519
4  7093 7481 7094 7076
4  7722 7723 7076 6519
4  6362 6364 6105 6112
4  7724 7725 6105 7726
4  6105 6107 6106 7725
4  6360 6112 6105 6108
4  6319 6111 6105 6112
4  6319 6105 6364 6112
4  7369 6467 7727 7498
4  7369 7283 6627 7498
4  7664 6467 6627 7498
4  7126 7248 7728 7129
4  7594 7029 6776 6772
4  7443 7501 7439 7490
4  7358 7489 6520 7355
4  7354 7443 7442 7355
4  7729 7443 7490 7355
4  7576 7398 7491 7232
4  7491 7490 7492 6527
4  7576 7490 7439 7232
4  7391 6527 7392 6521
4  7489 7361 7490 6527
4  7730 7622 7731 7156
4  7546 7170 7162 7230
4  850 6190 464 6193
4  7153 7731 7154 7156
4  7732 7547 7162 7271
4  7160 7547 7161 7162
4  7546 7732 7547 7162
4  7733 7734 7281 6203
4  7735 7736 7737 7367
4  6203 6196 6198 6199
4  123 7734 1011 6198
4  7281 7738 6202 6203
4  7734 7738 6203 6204
4  526 7544 6478 6190
4  7733 7281 6514 6203
4  6851 6203 6514 6196
4  7739 7740 7741 7742
4  258 403 406 6704
4  7743 7622 7179 7742
4  7743 7179 7744 7742
4  7745 7216 7746 7742
4  7739 7216 7740 7742
4  7289 7288 7290 7277
4  7747 7748 7574 7290
4  7571 7573 7748 7290
4  7749 7290 7748 7288
4  7435 7276 7436 7291
4  7749 7571 7748 7290
4  7750 7751 7564 7713
4  6412 7713 6414 7752
4  7711 7713 7712 7523
4  6412 7564 7713 7752
4  356 6800 6141 6543
4  6144 6343 6146 6142
4  6787 6147 6143 6618
4  544 356 6141 6543
4  6795 6143 6618 6276
4  658 474 661 6147
4  658 474 6147 6141
4  998 6140 544 6142
4  7753 7223 7754 7755
4  7756 7757 7598 7223
4  7758 7223 7227 7224
4  7753 7224 7223 7755
4  6237 7658 6239 7759
4  7760 6239 6990 7759
4  6990 7759 6239 6991
4  7761 7563 7752 7573
4  7761 7752 7748 7573
4  7762 6414 7750 7752
4  7763 7752 7569 7573
4  457 590 7587 6624
4  6119 7764 6120 6098
4  6855 6119 7764 6862
4  7512 7509 6120 6862
4  6792 7470 7765 7766
4  6781 7764 6736 7510
4  7764 6103 6120 6098
4  7767 6179 6982 7768
4  7769 7770 7771 7768
4  7322 6179 7767 7768
4  7772 7432 7770 7768
4  7353 7354 7356 7149
4  6657 7357 7645 7356
4  7773 7774 7775 7776
4  6657 7548 7151 7356
4  7777 7356 7354 7149
4  7550 7645 7778 7356
4  6482 6250 6216 6483
4  6939 6859 7580 6902
4  987 6253 6249 6252
4  6206 6215 6987 6251
4  685 6457 6250 6251
4  60 987 6249 6252
4  7779 6523 7345 7094
4  7779 6523 7094 7076
4  7779 7479 7481 7094
4  7091 7092 7094 7482
4  7717 7349 7482 7714
4  7479 7348 7716 7482
4  6647 6691 6638 6648
4  6658 6638 6691 6648
4  7780 7643 7781 6648
4  7782 7783 7784 7595
4  7641 6648 6658 7645
4  6647 6648 7644 7645
4  6984 7785 6980 6475
4  7786 7787 7788 6289
4  7197 6557 6152 6558
4  6976 6474 6158 6480
4  6474 6158 6480 6477
4  6356 6159 6480 6160
4  7362 6356 6480 6160
4  6984 6977 6480 6978
4  6622 6482 6875 6464
4  6622 6463 6464 7727
4  6887 6464 6875 6888
4  7628 6777 6661 6505
4  7789 7715 7579 7250
4  7790 6216 6213 6207
4  6206 6208 6926 6209
4  6482 6216 6214 6464
4  7516 7209 7245 7523
4  7751 7564 7713 7523
4  7791 7564 7209 7523
4  7248 7709 7728 7129
4  7710 7351 7245 7523
4  7141 6857 6537 7042
4  7140 6938 6892 7138
4  6857 7792 6860 7042
4  6311 6313 7258 6577
4  7793 7042 6145 6336
4  7793 7794 7795 7042
4  7140 7141 6938 7138
4  6892 6536 6541 6537
4  6145 6141 6536 6538
4  6539 6544 6145 6538
4  7793 7795 6539 7042
4  7796 7215 7219 7216
4  7745 7740 7216 7742
4  7797 7740 7739 7216
4  7219 7746 7216 7217
4  7798 7799 7365 7800
4  7801 7802 7744 7217
4  7803 6414 6299 7714
4  6323 6324 6299 7804
4  7483 6299 6413 7714
4  7803 6299 6324 7714
4  7015 7545 7016 6618
4  6616 7016 7545 6618
4  6145 6537 6860 7042
4  7794 6344 7042 6336
4  7015 7805 6860 6147
4  7015 6860 6787 6147
4  6787 6616 6344 7545
4  658 6141 6147 6143
4  6787 6143 6617 6618
4  6313 6314 6312 6730
4  6161 7806 6163 6162
4  301 7049 7048 7004
4  6311 6314 6577 6570
4  301 741 6730 7048
4  741 6314 6313 6730
4  6227 6552 6499 6228
4  6842 6875 6874 6552
4  135 6232 6235 6228
4  686 6227 47 6458
4  720 135 6227 6499
4  7807 6874 6873 6501
4  6498 7807 6873 6501
4  6501 6499 6227 6552
4  6498 6873 6232 6499
4  6842 6874 6501 6552
4  6229 6874 6875 6552
4  135 6227 6499 6228
4  136 6643 6551 6226
4  6229 6873 6552 6228
4  6989 6239 6238 6991
4  7760 6239 7759 7408
4  6236 6286 6285 6239
4  7760 6285 6239 7408
4  6284 6286 6989 6239
4  6236 6238 6286 6239
4  6709 6451 6565 7681
4  6516 6565 7681 7592
4  6516 7593 6565 7592
4  6708 6709 6451 6565
4  6564 6628 6565 7652
4  7789 7579 7715 7581
4  7789 7579 7735 7250
4  7808 7580 7585 7579
4  7808 7579 7789 7581
4  7647 7809 7810 6367
4  6690 6692 6367 7614
4  7240 7810 6365 6367
4  6690 6692 6171 6367
4  7747 7574 7289 7290
4  6792 6793 7763 7748
4  7763 7574 7748 7573
4  7763 7748 7752 7573
4  7619 7575 6486 7312
4  7615 7617 6486 7618
4  7620 6484 7617 6486
4  7613 7618 7311 7314
4  7615 7311 7613 7618
4  7811 7781 7721 7643
4  7811 7781 7643 6648
4  7721 7643 7781 7076
4  7644 6648 7643 7645
4  7802 7743 7744 7742
4  7801 7744 7082 7080
4  7082 7083 7744 7084
4  7801 7744 7080 7217
4  7214 7216 7802 7217
4  6577 6846 6576 6578
4  7214 7802 7801 7217
4  7812 7744 7746 7217
4  7746 7744 7179 7742
4  6488 7081 6485 6491
4  7813 7081 7080 6491
4  7364 7814 7366 7081
4  7813 7081 7366 7080
4  7815 6793 6349 6794
4  6792 7765 6794 7766
4  7765 7816 7022 6794
4  7816 7817 6794 7766
4  7818 7483 7480 7804
4  7091 7481 7480 7482
4  7819 7480 6324 7804
4  6324 7483 7480 7482
4  7820 7480 7091 7481
4  6256 7159 7166 6300
4  6625 6257 6256 6258
4  7625 7166 6629 6258
4  7625 6625 6256 6258
4  6956 6292 6297 6300
4  6256 6292 6956 6300
4  7626 7320 7159 7192
4  7487 7821 7822 7823
4  7824 7822 7825 7823
4  7502 7826 7823 7498
4  7487 7824 6454 7823
4  7827 7665 7823 7498
4  7283 7502 7823 7498
4  7828 7632 7799 7130
4  6750 6632 6635 6631
4  7283 6454 7665 7823
4  7220 7366 7079 7080
4  7363 7367 7737 7366
4  7737 7813 7366 7080
4  7829 7830 7831 7800
4  7364 7814 7365 7366
4  6516 7832 7682 7681
4  6709 6565 7591 7592
4  6709 7591 7680 7592
4  6446 6451 7681 6449
4  6709 6446 6451 7681
4  7488 6453 7189 6449
4  6516 6565 6451 7681
4  7728 7799 7130 7129
4  6818 6819 6826 7127
4  7126 7728 6750 7127
4  7833 7799 7632 7130
4  7833 7632 7633 7130
4  7002 6826 7632 7130
4  7175 7173 7172 7045
4  6215 6457 7834 6251
4  7584 7835 7736 7585
4  6987 6593 6596 6251
4  60 57 798 6251
4  6596 6593 6597 6594
4  6987 7834 6593 6251
4  6213 6216 6214 6209
4  7790 6213 6216 6214
4  6887 6875 6874 6888
4  6456 6216 6217 6214
4  7790 6887 6214 6464
4  7836 7837 7838 7720
4  7839 7840 7838 7720
4  7841 7842 7837 7838
4  6651 7836 7838 7720
4  6383 6507 6513 6381
4  6378 6868 6379 6381
4  7038 7032 7034 6504
4  988 6472 490 6471
4  6868 6502 6504 6381
4  6378 6868 6423 7693
4  7670 7174 6987 7377
4  972 7843 209 7834
4  209 7834 6457 6251
4  973 7834 6593 7377
4  7844 7670 7834 7377
4  209 6593 7834 6251
4  7843 7845 6215 7834
4  7846 7185 7189 7183
4  7847 7185 7189 7681
4  7188 7187 7190 6453
4  7486 7187 7188 6453
4  6452 7189 7190 6453
4  6452 7847 7189 6449
4  7824 6454 6452 6453
4  7848 7849 7850 6306
4  6890 6874 6886 7849
4  6887 6874 6875 7849
4  7851 6887 6875 7849
4  6229 6875 7849 6954
4  7851 6680 7849 6954
4  7115 7117 6720 7118
4  7111 7694 7425 6759
4  7125 6720 7852 6722
4  7853 7854 7852 6720
4  7853 7118 6720 7855
4  7115 6720 6721 6759
4  7853 6720 7852 7855
4  6346 6266 6348 7559
4  7856 7559 6877 6884
4  6878 6348 7559 6877
4  6346 6348 7856 7559
4  6657 7550 7548 7356
4  6657 7550 6660 7548
4  6659 6928 7857 6660
4  6659 6660 7857 7548
4  6658 6691 6659 6660
4  6659 6691 6928 6660
4  7858 6691 6647 6660
4  7778 7644 7646 7359
4  7641 7359 7643 7645
4  7641 7357 7359 7645
4  7550 6660 6647 7645
4  7777 7550 7778 7356
4  7780 7781 7859 6648
4  7780 7641 7643 6648
4  7550 6647 7644 7645
4  6657 6658 6660 7645
4  6311 6528 6573 7307
4  6706 6639 6638 7859
4  7860 7781 7861 7859
4  7088 7862 7863 7859
4  7860 7861 7862 7859
4  60 6249 6251 6252
4  6468 6216 6250 6483
4  6460 6461 6458 6459
4  7843 6215 6462 6457
4  6468 6206 6250 6216
4  6206 6212 6216 6209
4  6988 6986 6215 6212
4  6215 6456 6250 6216
4  6206 6987 6925 6596
4  7864 6825 7036 6826
4  7633 7632 6826 7130
4  7633 7631 6826 7632
4  6750 7633 6751 6826
4  7002 6818 6826 7127
4  7864 7865 6985 6826
4  7036 6751 7631 6826
4  7866 7196 7195 7689
4  7690 6755 7195 7689
4  7507 7424 6755 7112
4  77 6957 6257 6517
4  7866 7867 7868 6755
4  7690 7867 7195 6755
4  7619 6486 7620 7618
4  7869 6486 6485 6487
4  6484 7870 7617 6485
4  7871 7617 7615 7616
4  7870 7872 7617 7081
4  7873 6446 6448 6451
4  6446 7681 7847 6449
4  6709 7847 6446 7681
4  6516 6451 6450 7681
4  6515 6451 6516 6565
4  6446 6448 6451 6449
4  7099 7199 7555 7874
4  7198 7875 6559 7874
4  7876 6559 7875 7874
4  7876 7136 6559 7874
4  7877 7555 7199 7874
4  7136 6558 6559 7874
4  7198 7874 6558 6150
4  6763 6472 6952 6473
4  6885 6762 6763 6473
4  6502 6427 6503 6471
4  6378 6380 6382 6381
4  7038 6868 6502 6504
4  6378 6471 6502 6381
4  771 6512 6471 6869
4  6425 6378 6421 6423
4  7536 6728 6727 6831
4  7536 7700 7701 6831
4  6895 6897 6912 6831
4  6728 6831 6729 6718
4  6895 6912 6419 6831
4  6419 6912 6729 6831
4  7878 7879 7855 6961
4  7116 7118 7879 7855
4  7880 7116 7881 7879
4  7882 7879 7881 7118
4  7598 7223 7757 7599
4  7883 7884 7885 7757
4  7885 7757 7215 7599
4  7886 7884 7757 7215
4  7887 7416 7686 7610
4  7415 7685 7254 7416
4  7686 7418 7254 7416
4  7836 7719 7416 7720
4  7418 7416 7837 7417
4  7600 7222 7740 7602
4  7600 7740 7888 7602
4  7225 7889 7602 7604
4  7890 7228 7602 7604
4  574 6146 6144 6342
4  7368 7367 7715 7250
4  7074 6184 7075 6683
4  998 6144 6146 6142
4  7891 6544 6140 6146
4  6145 6146 6336 6343
4  566 6766 6767 6342
4  6146 6343 6342 6338
4  6337 6336 6146 6338
4  7892 7893 7280 7278
4  7473 7281 7893 7472
4  7894 7332 7895 7893
4  7473 7893 7324 7472
4  7896 7897 7898 7893
4  7473 7895 7332 7893
4  7330 7325 7324 7893
4  7899 7900 7264 7259
4  7267 7264 7262 7265
4  7267 7264 7256 7257
4  7901 7285 7902 7903
4  7901 7904 7285 7903
4  7901 7285 7904 7636
4  7789 7715 7249 7581
4  6597 7045 7046 6599
4  7808 7585 7736 7579
4  7805 6902 7905 7581
4  7805 7251 6858 7581
4  6858 7251 7249 7581
4  7805 7789 7251 7581
4  7892 7280 7906 7278
4  7907 7281 7473 7472
4  7287 7473 7471 7472
4  7325 7908 7326 7472
4  7325 7893 7892 7472
4  6903 6532 6905 6534
4  779 6899 6903 6534
4  780 6442 6904 6445
4  6442 7073 6904 6534
4  923 967 6904 6905
4  779 6903 923 6904
4  780 6442 7073 6904
4  6923 6208 6924 6922
4  6924 6920 7909 6628
4  7910 6920 7376 7533
4  7911 6920 6923 6628
4  7910 7909 6920 7533
4  7551 7185 7186 6911
4  7184 7186 6997 7183
4  6910 6993 7186 6853
4  7912 6853 7186 6995
4  7551 7186 7912 6853
4  7126 7129 7728 7127
4  7913 7520 7505 7914
4  7913 7519 7520 7530
4  7520 7915 6318 7476
4  7520 7476 7529 7522
4  7520 6318 7914 7530
4  6795 7126 7695 6554
4  7572 7434 7916 7568
4  7437 7566 7570 7434
4  7771 7437 7433 7291
4  7916 7433 7917 7568
4  7917 7201 7918 7568
4  7566 7210 7567 7565
4  7570 7919 7433 7568
4  7139 6901 7013 6902
4  7905 7139 7013 6902
4  6939 7582 7657 7465
4  7583 6902 7013 7465
4  6900 6901 6902 7465
4  6900 6902 6939 7465
4  207 7843 6460 6457
4  6555 6155 6556 6560
4  6394 6348 7022 6877
4  6215 6457 6456 6459
4  6394 7022 6432 6877
4  6876 6882 6881 6879
4  7920 6878 6884 6879
4  7023 6348 6878 6877
4  6765 6767 7921 6338
4  6145 6336 7042 6343
4  6617 6343 6144 6142
4  7922 6344 6336 6345
4  6335 7921 6345 6338
4  7923 7924 7925 7926
4  7927 7925 7928 7926
4  7929 7925 7930 7931
4  6835 7930 6994 7925
4  7930 7925 7924 7931
4  7126 6750 6631 7127
4  7002 6826 7631 7632
4  7633 7628 7631 7632
4  7728 7799 7833 7130
4  7932 7630 7632 7800
4  7833 7632 7799 7800
4  7933 7934 7935 7342
4  7341 7935 6607 7342
4  6406 6407 6405 7342
4  6607 7342 6407 7104
4  7340 6587 7104 6588
4  7343 6587 6591 7342
4  7933 7342 7343 7704
4  6750 6751 6752 6749
4  903 6667 6540 7056
4  995 903 317 6646
4  6404 7055 6391 7056
4  6391 7055 7054 7056
4  991 6645 7055 6606
4  694 991 6645 7055
4  7936 7937 7855 6959
4  7117 7937 7852 7855
4  7853 7852 7107 7855
4  7117 6720 7118 7855
4  7878 7855 7107 6959
4  7692 6868 6933 6379
4  6868 6504 6379 6381
4  7938 7038 7939 7034
4  7038 7032 7939 7034
4  6502 6471 6503 6381
4  6423 6868 7038 6933
4  7940 6153 7038 6933
4  6423 7038 6153 6933
4  569 6840 6768 6281
4  6824 6633 6817 7061
4  6818 6633 6631 7061
4  7941 6818 6631 7061
4  6630 6614 7061 6615
4  6716 6717 6727 7293
4  6716 6727 7457 7293
4  6715 6723 6717 7293
4  7071 6727 6717 7293
4  656 6396 711 6642
4  7071 7293 6811 6443
4  6382 6764 6951 6473
4  6378 6471 6382 6473
4  7561 6952 6763 6472
4  488 6763 6470 6472
4  7561 6763 7942 6472
4  7943 7412 7413 7404
4  7944 7413 7661 7903
4  7661 7903 7413 7663
4  7945 7413 7946 7663
4  7947 7946 7413 7903
4  7243 7205 7206 7242
4  7208 7202 7243 7206
4  7370 7368 7715 7250
4  7200 7202 7206 6476
4  7948 7243 7206 7697
4  7200 7206 7949 6476
4  7241 7949 7206 7697
4  7950 7951 7346 7347
4  7350 7952 7352 7347
4  7391 7541 7540 7392
4  7391 7491 7400 7393
4  7541 7952 7346 7539
4  7952 7352 7346 7539
4  6526 6524 7392 6521
4  125 7953 7954 7484
4  744 6773 262 7954
4  891 7954 6771 7133
4  6751 6661 6777 6664
4  262 891 7954 6771
4  262 6773 6687 7954
4  744 262 125 7954
4  262 7954 6687 6771
4  7883 7582 7884 7955
4  7956 7757 7884 7955
4  7835 7884 7886 7215
4  7885 7757 7884 7215
4  7835 7957 7884 7215
4  7958 6843 6799 6802
4  7014 6802 6797 6798
4  7139 6799 6901 7138
4  7139 6801 6799 6800
4  7013 7014 6240 7464
4  6893 7014 6799 7464
4  7546 7153 7732 7162
4  7396 7547 7160 7230
4  7959 7547 7732 7270
4  7395 7547 7959 7397
4  7732 7270 7547 7271
4  7395 7396 7547 7397
4  7871 7615 7960 7616
4  7960 7616 7615 7618
4  7829 7800 7630 7616
4  7829 7830 7800 7616
4  7960 6371 7630 7616
4  7930 7924 7775 7931
4  7773 7774 7924 7775
4  7961 7962 7929 7931
4  7775 7963 7931 7964
4  7773 7931 7962 7964
4  7267 7586 7262 7257
4  7786 6287 7787 6289
4  7787 7050 7595 6289
4  7165 6289 7595 7262
4  6255 6289 6288 6300
4  7165 7166 6289 7262
4  6255 7166 6289 6300
4  6287 6288 7965 6289
4  7786 7163 6287 6289
4  6103 6122 6099 6101
4  6120 6103 6122 6099
4  6855 6098 6119 6100
4  6109 7008 6361 6112
4  6446 6452 6447 6449
4  6130 7380 6282 6131
4  7966 6448 6450 6451
4  7967 7454 7968 6655
4  6450 6448 6455 6449
4  6643 6396 6392 6642
4  6455 6454 6447 6627
4  7910 7969 7534 7533
4  7966 6466 6448 7970
4  6626 6447 6627 6448
4  7819 7818 7480 7804
4  7818 7483 7820 7480
4  6324 7480 7483 7804
4  6323 7804 6267 6268
4  7601 7739 7797 7740
4  6298 7483 6267 6299
4  7733 7971 7772 7319
4  6323 6299 6267 7804
4  7972 6324 6323 7804
4  7313 7577 7438 7312
4  7575 7444 7500 7439
4  6723 7295 6725 6717
4  682 848 683 6812
4  7577 7312 6487 7439
4  7577 6486 7869 6487
4  7619 7312 6486 7314
4  7313 7314 7312 7317
4  7619 7316 7312 7314
4  6244 7973 6248 6912
4  541 418 363 6418
4  6822 6248 7974 6912
4  7318 7975 7976 6179
4  7974 7973 6248 7977
4  6247 7146 6136 6248
4  7207 7565 7918 7201
4  7978 7921 6339 6345
4  6246 6136 6283 6248
4  6247 7146 6248 7977
4  6634 6281 6279 6280
4  7131 7370 7249 7129
4  6953 6680 6231 6233
4  7979 6306 6680 6307
4  7980 6232 6681 6308
4  881 6232 7980 6308
4  6439 6512 6936 6513
4  6873 7849 6306 6231
4  7850 7849 6680 6306
4  6325 6299 7803 6414
4  6229 7849 6873 6231
4  6681 6498 6873 6232
4  6992 6853 6994 6836
4  7000 7186 6999 6995
4  6910 6993 6997 7186
4  7981 6937 7493 6934
4  6909 6835 6853 6836
4  6790 6853 6992 6836
4  6910 6911 6909 6853
4  7853 7107 7878 7855
4  7000 7912 7186 6995
4  7805 6860 6858 7251
4  7139 6902 6860 7138
4  6339 6767 6340 6338
4  7111 7113 7694 6759
4  390 6656 6603 6270
4  6770 7078 6366 6371
4  7139 6860 6536 7138
4  7792 6858 6860 7545
4  131 6279 149 6749
4  6892 6536 6537 7138
4  6145 6147 6536 6141
4  7131 7130 7799 7129
4  7079 7366 7081 7080
4  7368 7365 7814 7366
4  7805 7139 7905 6902
4  7737 7218 7220 7367
4  7932 6770 6506 6505
4  7736 7218 7737 7367
4  7736 7585 7982 7579
4  7735 7736 7367 7579
4  6325 6266 6298 6349
4  7983 7984 7985 6809
4  6413 6299 6414 7714
4  7803 7713 6414 7714
4  7803 7716 7711 7714
4  7716 7349 7711 7714
4  7986 7098 7692 7693
4  7483 6413 7717 7714
4  7953 7987 7988 6685
4  7803 6324 7716 7714
4  7803 7711 7713 7714
4  7989 7990 7441 7442
4  6714 7041 6711 6707
4  7313 7312 7440 7317
4  7353 7354 7442 7355
4  7560 6265 7555 7556
4  7833 7628 7707 6777
4  7991 6174 7542 6492
4  365 378 521 6943
4  752 20 378 7008
4  7729 7490 7489 7355
4  444 993 357 7503
4  7989 7438 7729 7440
4  7992 7647 6804 7809
4  6787 6147 6145 6142
4  7993 7354 7442 7149
4  7989 7442 7441 7440
4  7729 7442 7443 7355
4  7994 7995 7996 7629
4  7353 7990 7442 7149
4  6986 6217 6456 6459
4  7997 7376 7998 6921
4  106 7011 6327 6321
4  7999 7654 8000 6114
4  8001 7224 7753 7755
4  8002 6211 8003 6214
4  6249 6206 6596 6251
4  6482 6216 6456 6214
4  8002 6891 6986 6214
4  8004 8005 8006 7655
4  6927 6926 6208 6209
4  6988 6210 8007 6212
4  6211 6214 6217 6209
4  7525 7531 7588 7176
4  8007 6210 6211 6212
4  8008 8009 7822 7842
4  7780 6658 7641 6648
4  840 8010 390 6656
4  7887 8011 7416 7720
4  7723 6523 7076 6519
4  7836 7416 7837 7720
4  8012 7553 6200 7552
4  7841 7842 8009 7837
4  8013 7837 7842 7838
4  8011 7838 7837 7720
4  7051 6576 7595 7257
4  286 301 1016 7053
4  7266 7595 6576 7257
4  7624 6177 7195 7192
4  7563 7564 7752 7573
4  7784 7783 8014 6576
4  7956 7884 7582 7955
4  6577 6576 7051 6575
4  6844 6574 6576 6571
4  7784 7266 7595 6576
4  7952 7346 7352 7347
4  7783 7595 6846 6576
4  7613 7078 6371 6368
4  7678 7675 7102 7673
4  372 374 6132 6134
4  7466 8015 7948 6476
4  7078 6366 6371 6368
4  6770 6371 7629 7630
4  7959 8016 8017 7270
4  7830 7620 7617 7616
4  7180 7160 7155 7162
4  6370 7620 8018 7618
4  7996 6371 8018 7630
4  7853 7882 7118 7855
4  8019 7881 7116 7118
4  8020 8021 7528 7476
4  7047 7532 8022 7588
4  8000 7657 7883 7955
4  6490 7179 7083 7084
4  8023 7425 7694 7118
4  687 6665 686 6458
4  7389 7515 7390 7385
4  8024 7879 7878 6961
4  535 7152 8025 7030
4  7116 7936 7117 7855
4  7772 7767 7432 7768
4  7722 7781 7643 7076
4  7882 7881 8023 7118
4  7709 7365 7799 7250
4  7828 7799 7632 7800
4  7728 7129 7130 7127
4  7131 7799 7370 7129
4  8026 7039 7033 6934
4  7131 7828 7799 7130
4  7287 7472 7908 7277
4  7728 7709 7833 7799
4  493 6428 6950 6429
4  6495 7170 7231 7230
4  8027 6950 8028 6429
4  7274 6434 6435 6429
4  8028 6430 7274 6429
4  6818 6631 6633 6819
4  494 155 493 6429
4  494 8029 155 6429
4  7351 7352 7951 7347
4  7710 7351 7350 7352
4  7710 7350 7517 7352
4  8030 6294 8031 8012
4  8032 7427 6897 8033
4  7119 8019 7425 8033
4  8032 7119 7427 8033
4  8034 7427 7426 8033
4  489 7942 488 6472
4  7057 7560 8035 6952
4  8036 8037 7019 6882
4  6148 6150 6152 6151
4  6785 6354 6149 6151
4  7561 6885 7558 6763
4  6426 6150 6148 6149
4  6152 6558 6155 6151
4  117 119 118 7333
4  8038 8039 6152 6154
4  7906 7276 7275 7278
4  6577 6846 7051 6576
4  8032 7119 7708 7427
4  8039 6153 6152 6154
4  7906 7772 7276 7770
4  6557 6155 6152 6558
4  7856 6610 7021 6433
4  8040 7917 7916 7433
4  8041 7430 8015 7696
4  8038 6152 6557 6155
4  8042 7226 8043 7597
4  6789 6917 6911 6791
4  7625 7159 7320 7192
4  881 192 10 6235
4  7590 7513 6917 6849
4  8044 6833 6849 7604
4  932 8045 357 6796
4  7513 6833 6909 6791
4  544 474 658 6141
4  7589 6917 6788 6849
4  7603 6849 6848 7604
4  7561 6885 6763 6952
4  6626 7873 6447 6448
4  6227 6226 6552 6228
4  7987 7090 7041 7484
4  7037 7038 7034 6504
4  7282 6466 6467 6627
4  7283 7665 6454 6627
4  6626 7664 6467 6627
4  7369 6627 6467 7498
4  6743 6175 6170 6181
4  7283 7823 7665 7498
4  621 406 506 6784
4  7369 7502 7283 7498
4  7415 7254 7236 7417
4  7683 7213 7298 7677
4  6586 7105 8046 6583
4  8047 7673 7384 7674
4  7382 7387 7384 7674
4  7685 7687 7610 7301
4  7383 7676 7384 7385
4  7608 8048 7213 7677
4  8049 8050 8051 7067
4  6719 7694 7113 6759
4  6494 7500 6495 7231
4  7212 7213 7677 7102
4  8046 7102 7675 7673
4  41 850 95 6195
4  7171 7730 7731 7156
4  7818 7480 7820 8052
4  7212 7213 7683 7677
4  6500 6501 6498 6499
4  6115 6360 6114 6108
4  8053 6107 6114 7754
4  8054 6114 6107 7754
4  6975 6976 7148 6977
4  8055 6317 6315 6316
4  6559 8056 7088 7862
4  6966 7955 6114 7754
4  8057 7997 7172 7173
4  7999 8053 6107 6114
4  7797 7216 7215 7599
4  7499 7439 6487 7231
4  7219 7215 7218 7217
4  8053 7756 7758 7754
4  8058 7585 7957 7884
4  7956 7886 7835 7884
4  7157 7166 7159 6300
4  7885 7884 7957 7215
4  7885 7215 7796 7599
4  7574 7569 7566 7573
4  191 6684 6972 6641
4  7590 8044 7513 6849
4  6973 6393 6972 6684
4  940 6971 6642 6972
4  7361 6525 6526 6527
4  407 991 694 7055
4  7025 8059 6863 7024
4  6867 7102 6583 7673
4  8060 7868 7422 7867
4  941 8061 6970 6972
4  856 6098 6620 6100
4  941 6970 940 6972
4  8062 6654 6603 6656
4  7453 6655 6654 6656
4  7332 7895 7333 7335
4  826 72 6377 6374
4  8062 7453 6654 6656
4  6165 8063 6167 6166
4  8051 7072 8064 6528
4  840 390 162 6656
4  919 849 802 6438
4  840 162 8065 6656
4  7761 6411 6793 7752
4  848 6813 6670 6812
4  6792 7762 7763 6793
4  7763 6793 7762 7752
4  7817 6793 6794 7766
4  7762 6793 6349 6414
4  6690 6171 6816 6367
4  7647 6816 6171 6367
4  7151 7152 7990 7150
4  6690 6264 6139 6493
4  6174 6171 6492 6496
4  8066 6803 8067 6182
4  98 6264 6262 6493
4  7099 8035 7555 7199
4  850 7544 6190 6492
4  42 7544 850 6492
4  6174 6816 7542 6492
4  6945 6943 6117 6942
4  377 6944 6547 6942
4  832 521 6241 6943
4  8068 7075 6315 6307
4  161 953 83 8069
4  377 6547 378 6942
4  521 6361 6943 7008
4  852 813 890 6427
4  645 814 813 6422
4  521 6361 6241 6943
4  7198 7555 7875 7874
4  6109 6943 6361 7008
4  6582 7104 6587 6588
4  8070 8071 7940 8072
4  645 646 814 6782
4  7340 7605 7105 6588
4  7341 7104 6607 7840
4  7719 7610 7416 7612
4  6773 7988 6774 6687
4  7940 7938 7038 7135
4  7718 8073 7612 7720
4  7718 7104 8073 7840
4  7718 6407 6390 7104
4  481 6776 596 7030
4  1010 932 832 8045
4  658 6147 6795 6143
4  7999 8000 8053 6114
4  8045 6967 6969 6240
4  7341 6587 7342 7104
4  7013 6799 6801 6797
4  7341 7342 6607 7104
4  6494 6490 6488 6489
4  7562 6485 6489 6487
4  825 6617 824 6274
4  7082 7080 7083 6491
4  7085 7082 7169 6491
4  7562 6487 6489 7231
4  6495 7170 6489 7231
4  6490 6489 6495 7170
4  154 758 327 7706
4  7117 7852 7125 6720
4  7937 7852 7855 6959
4  8074 7125 7852 6285
4  709 501 149 6279
4  832 6967 8045 6241
4  519 8065 162 7124
4  6272 6273 6838 6269
4  7107 7852 7108 7110
4  7107 6959 7852 7110
4  8055 6317 8068 6315
4  6867 6855 6222 6620
4  6867 6222 6855 6866
4  301 454 741 7048
4  8075 6098 6855 6620
4  6865 6862 6866 7510
4  8076 6866 6855 7510
4  878 880 6779 6098
4  77 6957 78 6257
4  6867 8075 6855 6620
4  8077 7973 6897 8033
4  7256 8078 7587 6402
4  6895 8077 7973 6897
4  825 658 824 6143
4  7364 7366 7813 7081
4  6478 6190 6769 6479
4  7870 6488 7079 7081
4  8034 6897 7427 8033
4  8079 7973 6897 6912
4  6616 6341 6614 6275
4  8080 6616 6344 6614
4  356 6800 474 6141
4  6832 8081 6829 6615
4  6829 8081 6614 6615
4  6337 6336 6145 6146
4  8080 6614 7941 7016
4  474 993 661 7504
4  499 843 6795 6554
4  626 6355 6408 6354
4  6353 6354 6355 6156
4  626 6410 6785 6354
4  7994 8082 7631 7629
4  8083 8084 6353 6355
4  6785 6351 6354 6151
4  327 7706 758 7707
4  6549 8085 6550 6548
4  6353 6354 6156 6151
4  60 6249 6596 6251
4  6516 6450 7832 7681
4  60 6595 57 6596
4  6215 6250 6457 6251
4  135 10 137 6235
4  6682 6680 8086 6185
4  7773 7776 7775 7964
4  8087 6550 8085 6548
4  521 21 986 6968
4  7851 8086 6680 6954
4  7394 8088 8089 7176
4  881 6316 6235 6308
4  7848 6873 7849 6306
4  6653 6838 6273 6269
4  8090 7979 7147 6306
4  7716 7348 7711 7349
4  8090 7850 7979 6306
4  323 6334 6416 6305
4  8091 6302 6304 6132
4  6130 6282 8091 6132
4  373 374 8092 6132
4  6413 7713 7712 7714
4  7763 7762 7750 7752
4  373 8093 372 6132
4  7790 6464 6216 6207
4  6469 6925 6206 6208
4  6986 6217 6211 6214
4  6210 6212 6926 6209
4  6210 6926 6927 6209
4  645 506 646 6410
4  6213 6208 8094 6207
4  7724 7755 8095 8096
4  7915 7477 7476 7726
4  7426 7119 7425 8033
4  6781 8097 6738 6963
4  7690 7507 8060 6755
4  7724 6105 7915 7726
4  8098 7726 7915 8099
4  8100 7725 8095 7726
4  6384 6655 7124 6852
4  6158 6159 6480 6477
4  6356 6358 7785 6477
4  8101 6725 7461 6415
4  6481 6358 6159 6477
4  6309 6159 6814 6286
4  6310 6357 6356 6159
4  6500 6665 7807 6501
4  7028 7031 6659 7026
4  8067 6180 6809 6182
4  7028 6180 6807 6809
4  8067 6809 6180 7031
4  7876 7875 8052 8102
4  6437 6311 7114 6312
4  7876 8056 7862 8052
4  8103 6420 8104 6729
4  8056 7818 7820 8052
4  7819 8052 7818 8102
4  6780 7145 7144 6332
4  8105 7529 7476 7522
4  8020 7528 7474 7476
4  7915 6319 7476 7477
4  8100 8106 7476 7726
4  7475 8100 7476 7477
4  6989 7430 8107 6815
4  8076 8108 7382 7387
4  8021 8105 7529 7476
4  6779 7764 6098 6104
4  7145 6778 6247 6127
4  7528 7529 6318 7476
4  7474 6318 6319 7476
4  8020 7474 7475 7476
4  7024 6856 6585 6861
4  7047 7911 7375 7046
4  7375 7527 7533 7535
4  7375 7173 7525 7588
4  6665 6461 7807 6842
4  7173 7588 7046 7177
4  7997 8109 7671 6921
4  7173 7174 6919 7376
4  6915 6679 6508 7123
4  6649 6405 6406 6644
4  8110 7826 7495 6676
4  7532 7375 7533 7535
4  6630 6634 6633 6280
4  6824 6630 8111 6633
4  274 903 6666 6540
4  1000 7980 881 6232
4  7933 7341 7343 7342
4  871 6497 135 6499
4  6825 8111 6632 6633
4  8112 6406 6591 6589
4  8113 7060 6824 7061
4  6823 6985 6817 6819
4  6630 6633 6631 6280
4  6278 6631 7061 7016
4  6131 6331 6333 6124
4  8081 7061 7941 6614
4  6750 6632 6631 6819
4  6750 6826 6819 7127
4  6817 6633 6818 7061
4  413 665 374 6330
4  6855 6866 6862 7510
4  990 615 611 6121
4  6136 6123 6131 7381
4  6985 6826 6818 6819
4  6878 6348 8114 7559
4  7815 6349 6348 6794
4  7023 7022 7816 6794
4  6394 7022 6348 6794
4  7856 6348 6394 6877
4  329 9 6506 7707
4  6394 6348 6347 6794
4  373 372 374 6132
4  6244 7973 8115 7977
4  6939 8058 7657 7582
4  6939 8058 7582 7580
4  7808 7580 7584 7585
4  6969 7582 7653 7955
4  7263 7264 7262 7257
4  327 7706 6777 6752
4  8058 7582 7585 7884
4  735 6906 363 6416
4  589 7006 6401 6400
4  6895 8034 8077 6897
4  6244 6895 7973 6912
4  6244 6248 7973 7977
4  7516 7518 8116 7245
4  7691 7976 6975 6178
4  77 81 78 6957
4  8117 7973 7880 7881
4  8115 8023 7882 7881
4  6514 6956 7552 8118
4  286 301 7053 7049
4  7853 7694 6720 7118
4  8023 7881 8019 7118
4  837 834 6745 6744
4  8115 7881 7879 7977
4  8119 7879 7880 7977
4  8077 7426 8023 8033
4  7863 7862 8056 7861
4  8115 7973 7881 7977
4  8117 8019 8033 7881
4  8117 8033 7973 7881
4  8120 7178 6663 6479
4  7543 6769 6366 7629
4  7543 8121 6769 7629
4  125 262 307 7954
4  8122 7306 8123 6686
4  6661 6769 6505 6479
4  8121 6661 6769 7629
4  6626 6467 6466 6627
4  6469 6466 6208 6207
4  8094 7873 6626 6466
4  7728 7633 6750 7130
4  6773 6685 6687 7954
4  625 626 645 6785
4  6773 6685 7988 6687
4  6931 6930 6687 6688
4  6359 6154 8038 6155
4  952 1007 953 6441
4  7560 7555 8035 7556
4  771 890 490 6471
4  7027 7029 6775 6771
4  961 706 329 6662
4  7029 6775 6771 6772
4  6309 6157 6310 6758
4  6719 6758 6309 6722
4  6713 6701 6710 6702
4  7137 6721 7142 6758
4  7258 8078 7051 7052
4  7974 7973 8079 6912
4  7137 6758 7142 7112
4  6786 6756 7142 7112
4  8124 8101 7378 6420
4  7113 6786 6758 7112
4  7142 6758 6310 6160
4  6719 6721 6720 6759
4  8024 7977 7879 8125
4  6238 6239 7658 6991
4  6780 7144 6781 6332
4  8126 6352 7938 7135
4  6329 6132 6330 6126
4  7389 7403 7390 7515
4  7731 8127 7154 7622
4  546 611 856 6100
4  6779 8076 8075 6855
4  6896 7701 6897 6831
4  7272 7774 7273 7154
4  7153 7774 7272 7154
4  418 7537 6416 6733
4  735 418 731 7537
4  7678 7675 7384 7677
4  8128 7155 7273 7154
4  373 374 664 8092
4  8127 8128 7774 7154
4  7057 6884 6952 7059
4  7064 6951 6762 7059
4  8129 7064 7260 6883
4  8130 7064 8129 6883
4  7940 8071 8126 6153
4  7145 6127 6332 6125
4  6778 6127 6135 6243
4  6423 7038 6868 6502
4  8124 6820 8103 6420
4  8039 6153 7197 6152
4  961 0 464 6192
4  6335 6337 7921 6338
4  7260 6761 6882 6883
4  6539 7140 6892 6537
4  7635 8131 7187 7636
4  474 993 7504 6800
4  42 526 850 7544
4  7188 7635 7181 7187
4  7635 7187 7253 7636
4  7253 8132 7187 7420
4  7486 7635 7188 7187
4  521 986 6241 6242
4  7635 7255 7253 7420
4  8132 7190 7187 6453
4  6846 7050 6397 6403
4  658 661 843 6795
4  301 7048 6730 7004
4  7268 8133 8016 8134
4  7796 7745 7600 7740
4  7475 8100 8106 7476
4  7003 6314 7052 7048
4  7638 8135 6846 7049
4  8068 7074 7075 6307
4  7053 7003 8135 7049
4  7654 8000 6114 7653
4  286 7640 287 7049
4  6215 7834 6987 6251
4  6621 6613 6509 6676
4  8136 7902 8137 7285
4  286 7053 7640 7049
4  7445 7589 7450 7447
4  47 8138 6254 6551
4  47 6254 6227 6551
4  584 583 7047 7177
4  6873 6232 6499 6228
4  8057 8139 7997 7376
4  7910 7376 7527 7533
4  8140 7505 8098 7914
4  6229 6551 6226 6552
4  136 6551 6227 6226
4  6770 7078 6194 6189
4  7864 7036 7865 6826
4  6643 6229 6551 6226
4  131 6747 6634 6749
4  46 136 6643 6551
4  999 6643 136 6226
4  6622 6254 8138 6551
4  7088 7862 6639 6562
4  6561 6562 7088 7087
4  6365 6372 6369 6368
4  6706 6707 6639 6702
4  7577 7869 7562 6487
4  6637 6638 6639 7859
4  6707 7089 6638 6639
4  7419 7822 7417 7420
4  8009 7825 7824 7822
4  7794 8080 7792 6344
4  8008 8009 7842 7837
4  7419 7487 7822 7420
4  8008 7822 8009 7417
4  6957 6257 6517 6373
4  621 6408 6355 8141
4  6851 6196 6517 6198
4  6766 6840 8142 6768
4  639 77 6375 6517
4  8143 6339 7978 7921
4  562 6517 6197 6198
4  822 123 6198 6199
4  6865 7510 6866 7674
4  8076 8144 7387 7674
4  8076 7764 6781 7510
4  565 6840 6766 6768
4  6736 7509 6738 7510
4  6865 8144 7510 7674
4  6840 6839 6841 6281
4  7508 8097 6738 7510
4  7733 8118 6514 7280
4  7136 6783 8145 6555
4  7906 7971 7772 7280
4  7279 7733 7280 7770
4  7281 7280 7893 7278
4  7281 7554 7893 7280
4  8146 8118 7971 7280
4  6693 6807 6692 6808
4  6170 6692 6807 6172
4  7984 7993 6808 7149
4  6693 6807 6808 7150
4  72 7006 6293 6375
4  958 652 837 6742
4  262 436 6771 6772
4  8147 8148 8149 6928
4  744 437 262 6773
4  72 6375 6293 6374
4  6256 6293 6288 6257
4  601 6746 6261 6259
4  6293 6300 6288 6290
4  6291 6293 6292 6374
4  7540 7392 7346 6521
4  6803 6175 6183 6173
4  7960 6137 6506 6194
4  7078 6189 6188 6191
4  706 6663 6748 6664
4  7932 7960 6506 6770
4  6293 6288 7006 7005
4  8120 8150 8151 6663
4  72 6293 7006 7005
4  6301 6288 6293 7005
4  7912 6994 6853 6995
4  7628 6770 7629 7630
4  6833 6909 6791 6836
4  7889 8152 7604 6836
4  7793 6539 6544 6145
4  6833 7604 8152 6836
4  8120 7178 8150 6663
4  749 6840 569 6281
4  154 149 499 7695
4  7889 8153 8152 6836
4  6835 6834 7925 6836
4  7105 7102 6583 6588
4  366 367 1023 7096
4  7524 8088 7528 7526
4  73 74 756 7012
4  8005 7014 7464 7655
4  544 356 474 6141
4  6867 6583 6866 7673
4  6586 6225 6583 6581
4  6855 6856 6222 6620
4  7101 6582 6222 6583
4  73 69 74 7394
4  756 6327 7012 6321
4  6867 7101 6583 7102
4  8154 7528 8021 7529
4  469 752 8087 6322
4  7096 7958 7095 6802
4  7824 7665 6454 7823
4  7665 6447 6454 6627
4  7487 7488 6455 6454
4  7824 6452 8132 6453
4  754 6547 8087 7008
4  6220 6221 6545 6116
4  7283 7487 6455 6454
4  6447 6452 6454 6449
4  521 20 21 6362
4  752 108 409 7009
4  7394 6327 8088 7012
4  7863 7861 7781 7859
4  7011 8087 8085 6322
4  378 20 521 7008
4  8155 7481 7781 7076
4  7780 7722 7781 7643
4  8155 7781 7722 7076
4  7139 6901 6902 7138
4  8156 7781 7861 7481
4  7780 7859 6706 6648
4  7811 7859 7781 6648
4  8106 8157 7522 8099
4  7060 6841 6824 6630
4  7505 8099 7522 7451
4  8105 8158 7535 7522
4  8127 7928 7924 7926
4  7013 6796 7014 6797
4  6539 7141 7140 6537
4  7978 6335 7921 6345
4  8159 7923 7741 7926
4  6359 7485 8084 6156
4  626 6350 6355 6351
4  749 709 6839 6281
4  7978 8160 6335 6345
4  7923 7925 6834 8152
4  8159 7622 8128 7926
4  8127 8128 7622 7926
4  7923 7741 7926 8152
4  7889 8153 7927 8152
4  7890 7602 8152 7604
4  7524 7527 7526 7529
4  7888 7602 7741 8152
4  8161 7927 7741 8152
4  937 584 8022 7177
4  7888 7741 7923 8152
4  8053 7754 7758 7755
4  8054 7753 7754 7755
4  8095 8162 7726 8096
4  8054 7725 7724 7755
4  7574 7748 7573 7290
4  992 7844 973 7377
4  7495 7497 7826 7498
4  7487 6453 7824 7420
4  7173 7177 7046 7045
4  7747 7763 7574 7748
4  7571 7761 7748 7573
4  7437 7290 7434 7291
4  68 992 346 7634
4  583 605 604 6599
4  7634 7172 7670 7377
4  7524 8057 7525 7527
4  7574 7566 7437 7434
4  7574 7290 7573 7434
4  7569 7750 7564 7752
4  7566 7573 7569 7565
4  7569 7573 7564 7565
4  8080 7792 6344 7545
4  6837 8110 6674 7679
4  6677 6675 8163 7106
4  7792 7042 6344 7545
4  7821 7825 7823 7826
4  8163 6510 7679 6675
4  6829 8080 6344 6614
4  6336 6343 6146 6338
4  7519 7521 7535 7522
4  6335 7922 8164 6336
4  8165 8166 8167 6918
4  8164 7922 7794 6336
4  7791 7209 7516 7523
4  7386 7675 7676 7384
4  7101 7103 6390 6588
4  7210 7564 7751 7209
4  7751 7244 7209 7523
4  7751 7710 7244 7523
4  7207 7918 7208 7201
4  6837 6674 6272 6838
4  7204 7209 7244 7205
4  7207 7208 7516 7209
4  8168 8169 7405 7242
4  7980 6317 6316 6308
4  8168 7405 8169 7406
4  7948 7405 7243 7697
4  7698 8168 7405 7242
4  766 6470 488 6567
4  7518 8169 8170 7242
4  6152 6155 6154 6151
4  8168 8170 8169 7242
4  7876 7877 7136 7874
4  7940 8126 7135 6153
4  7241 7205 7246 7242
4  6925 6921 6926 6922
4  6469 6923 6925 6208
4  878 6779 8075 6098
4  6736 6120 6333 7509
4  508 646 506 6783
4  766 488 723 6567
4  611 7143 6121 6099
4  6103 6099 6098 6101
4  6736 7764 6120 7509
4  6781 8097 8144 7510
4  6855 6866 6222 6581
4  6855 7764 6119 6098
4  406 6784 7134 6704
4  8171 7820 7480 8052
4  8172 6367 6692 7614
4  6931 6928 6691 6688
4  8123 7306 8173 6929
4  6657 6659 7028 7548
4  7981 7493 8026 6934
4  6365 6369 6366 6368
4  403 404 406 6704
4  625 645 813 6785
4  7240 6188 6367 6366
4  7860 8171 8174 7861
4  7613 6371 6370 6368
4  7876 7862 8174 8052
4  7305 7987 8083 7090
4  7543 6769 6188 6366
4  620 6350 8175 6355
4  7240 6365 8176 6366
4  258 8141 8177 7484
4  7543 8176 7995 6366
4  8178 6531 7069 6533
4  7777 7354 7993 7149
4  6803 6183 8067 6180
4  7729 7443 7439 7490
4  6442 6904 6530 6534
4  6481 8041 8015 6477
4  7044 7069 6905 6532
4  7168 7231 7170 7230
4  7608 7213 7103 7102
4  8046 7212 7675 7102
4  8179 8178 6531 7069
4  327 149 7706 6752
4  7932 6770 7628 7630
4  8179 6531 7806 7069
4  7500 6487 7439 7231
4  43 41 684 6496
4  7985 7984 6806 6809
4  7178 8121 8150 6661
4  6161 7069 7806 6530
4  7710 7350 7351 7349
4  404 508 406 6701
4  6541 6536 6543 6538
4  6892 6938 6901 7138
4  7860 6706 7780 7859
4  7778 7644 7359 7645
4  7357 7355 7359 7356
4  8159 7622 7741 7742
4  6864 8046 8047 7673
4  7890 7602 7888 8152
4  6760 6776 6744 7026
4  7927 8180 7741 7926
4  7780 7641 7722 7643
4  8180 7622 7741 7926
4  7780 7722 8155 7781
4  8161 7741 7739 7740
4  7745 8159 7888 7741
4  7144 6247 8024 8125
4  7739 7741 8180 7742
4  7765 8181 7816 7766
4  7401 7410 7409 7404
4  8182 7017 8183 8181
4  332 334 323 6907
4  7899 7900 7263 7264
4  8144 7387 8184 6963
4  7765 8181 7017 7022
4  8185 8060 7422 7867
4  7470 6948 8181 7326
4  7765 7470 8181 7766
4  6260 6262 6807 6746
4  535 600 7152 6760
4  7386 7388 8184 7387
4  7678 7383 8048 7677
4  6130 6329 6282 6132
4  585 8022 7913 7531
4  6804 6182 6172 6173
4  6719 7113 6786 6758
4  7066 6856 6119 7143
4  7702 7298 7297 7299
4  6262 6170 6746 6261
4  878 193 856 8075
4  8010 8062 6603 6656
4  995 317 6649 6646
4  273 6619 256 6540
4  6585 6580 6856 6224
4  6262 6170 6807 6746
4  652 6746 596 6744
4  652 684 6261 6742
4  7883 7757 7756 7955
4  412 6135 6778 6125
4  7584 7585 7582 7884
4  8048 7300 7296 7298
4  6390 7609 7719 7612
4  6867 7678 7608 7102
4  7808 7584 7736 7585
4  7736 7982 7367 7579
4  7808 7736 7735 7579
4  214 119 397 7338
4  8058 7580 7578 7585
4  8058 7578 7982 7585
4  7736 7982 7585 7218
4  7300 7299 7298 7515
4  7414 7299 7297 7411
4  7687 7239 8186 7297
4  8186 7297 7904 7411
4  8187 7904 7239 7297
4  7428 7122 7427 7423
4  7237 8187 7239 7297
4  756 935 970 6326
4  6623 6954 6611 6613
4  6612 6954 6875 6613
4  6622 6612 6613 7727
4  6623 6509 6611 6678
4  7225 7603 7889 7604
4  7928 7925 7929 7931
4  7495 7497 6613 6676
4  6621 6509 6678 6511
4  8042 7589 6849 7447
4  6509 6613 7497 6676
4  7601 7740 7599 7222
4  8188 7307 7308 7701
4  7961 7001 8189 6996
4  7536 6311 7310 7307
4  6968 6360 6966 6242
4  8064 6573 6528 7307
4  7114 6528 6311 7307
4  6579 6573 6572 6571
4  6105 6112 6111 6108
4  8190 7221 7601 7222
4  6579 6573 7308 6572
4  7458 7308 7307 7701
4  8064 7458 6573 7307
4  7805 7248 7126 7251
4  7728 7709 7799 7129
4  7128 7131 7249 7129
4  7015 7126 7128 7251
4  7561 6425 6426 7199
4  6859 6858 7249 7581
4  7432 7767 8040 6982
4  7905 6902 7580 7581
4  7917 7466 7202 7203
4  7015 7545 6860 7251
4  7015 7128 8191 7251
4  8192 7919 7467 6981
4  7976 8193 6975 6178
4  7015 8191 7545 7251
4  7637 8194 7666 8195
4  8044 7226 7228 7604
4  7449 7446 7652 7448
4  970 936 971 8140
4  7637 8196 8197 8195
4  8197 8195 8198 7964
4  8199 8136 7286 7285
4  8200 8201 8194 8195
4  8198 8196 8202 8195
4  8180 8127 7731 7622
4  8203 8204 7776 8196
4  8054 7754 7725 7755
4  8197 8196 8198 8195
4  7637 8203 8197 8196
4  7637 8205 8133 8196
4  7637 8202 8205 8196
4  7930 6834 7924 7925
4  8133 7469 8204 8205
4  8133 8204 7469 8134
4  7469 8204 7406 8134
4  7637 7469 8133 8205
4  7773 7775 7931 7964
4  6804 7647 6171 6172
4  7730 7179 7743 7622
4  7469 7373 7406 8205
4  7171 7731 7153 7156
4  7637 7373 7372 8205
4  7637 7372 7469 8205
4  7168 7398 7231 7230
4  7492 7396 7229 7230
4  7601 8161 7740 7602
4  7773 8203 7774 7776
4  7492 7396 7230 7393
4  8161 7741 7740 7602
4  7600 7888 7228 7602
4  7888 7740 7741 7602
4  7796 7745 7740 7216
4  7601 7740 7797 7599
4  7169 7730 7171 7084
4  7745 7741 7740 7742
4  970 8140 7914 6326
4  775 7073 6670 6534
4  779 6904 7073 6534
4  8206 6898 7043 6899
4  7948 7696 7405 7697
4  6867 7132 8075 6620
4  7268 7776 8203 8134
4  8016 7469 8207 7406
4  567 574 566 6767
4  7860 8155 8171 7861
4  574 6765 6146 6342
4  6526 6524 7538 7392
4  7950 7951 6524 7346
4  574 6144 6274 6342
4  566 574 6274 6342
4  7180 7155 7621 7156
4  8204 8205 8202 8196
4  967 6905 6166 6445
4  7959 7268 8016 7270
4  8208 8017 8207 8209
4  8143 6766 6339 6767
4  6725 6717 6726 6718
4  6474 7468 8041 6476
4  6934 6504 6441 6513
4  8041 7948 7949 7697
4  161 7032 6503 6441
4  6309 6286 6284 6722
4  161 8069 7034 6441
4  7650 7109 7703 7390
4  6512 6441 6503 6513
4  7853 6719 7854 6720
4  6440 8210 7033 6441
4  8127 7924 8128 7926
4  8161 7602 7889 8152
4  6980 7785 7466 6475
4  7890 7228 7888 7602
4  6848 6849 6833 7604
4  6848 7889 7604 6836
4  8044 7228 7890 7604
4  8043 7603 7225 7226
4  6844 8211 6570 7806
4  967 8063 6166 6905
4  8212 7806 6161 7069
4  6848 6791 6790 6836
4  7784 6574 7266 6576
4  6629 7267 6624 6401
4  8044 6833 7513 6849
4  7051 6576 7257 6575
4  7586 7965 6255 6289
4  7783 7050 6846 7595
4  919 802 803 6437
4  7782 7787 7783 7595
4  6907 6895 6244 6245
4  6715 7457 8050 7293
4  7182 6997 6999 7183
4  6165 6167 6169 6164
4  6577 6570 7003 6578
4  7051 6846 7050 7595
4  7787 7965 7050 6289
4  7623 7192 7625 7193
4  7586 7965 7050 6399
4  6851 6203 6196 6198
4  7279 7733 7734 7281
4  7782 7788 7787 7595
4  7897 7893 6202 7554
4  7896 7330 7894 7893
4  7728 6750 7633 6752
4  7895 6202 7738 7335
4  317 903 694 6646
4  7941 7016 6631 7127
4  7895 7738 7333 7335
4  6632 6635 6279 6749
4  7281 6202 7893 7554
4  6824 6841 8111 6630
4  7336 7895 7332 7335
4  7866 7868 6753 6755
4  8060 7424 7868 6755
4  8213 7195 7867 7265
4  7900 7264 7422 7867
4  7900 7422 7868 7867
4  8214 7264 7867 7265
4  1079 6712 307 7133
4  307 6930 7954 7133
4  6804 6805 6172 6182
4  7354 7359 7355 7356
4  7311 6486 7577 7312
4  7027 6771 7133 7030
4  6931 6771 6930 7133
4  7151 7353 7356 7149
4  848 6812 7073 6438
4  7577 7438 7312 7439
4  8147 8123 6928 6686
4  7028 7857 6809 7548
4  6745 6757 6183 6744
4  6174 6171 6170 6173
4  7550 7644 7778 7645
4  7989 7440 7441 7317
4  6707 6929 6691 6638
4  6658 6707 6691 6638
4  149 7695 7706 6752
4  848 780 849 7073
4  8173 6647 6691 6638
4  6647 6660 6691 6648
4  683 6735 7167 6812
4  7806 7069 6531 6530
4  501 824 843 6276
4  6312 7806 6528 6530
4  6670 6443 6673 6535
4  6667 6223 6582 6225
4  7806 6531 6528 6530
4  474 6800 7504 6147
4  993 6801 7504 6800
4  6529 7067 7072 6443
4  6312 6442 6529 6444
4  8051 6531 7072 6528
4  407 694 857 7056
4  639 6201 6197 6374
4  8215 6376 6201 6374
4  6293 6375 6257 6373
4  8012 6292 6291 6297
4  8012 6200 6376 6292
4  6514 6956 6200 7552
4  6291 6297 6292 6290
4  596 6760 535 7030
4  596 6776 6760 7030
4  436 891 6771 6776
4  7027 7030 7028 7026
4  8165 6677 8166 6918
4  7028 7030 6760 7026
4  6391 6222 6582 6223
4  8165 8167 7967 6918
4  7027 7029 6776 7026
4  8025 7027 8216 7030
4  6653 6654 6652 7455
4  535 6760 7152 7030
4  8025 7028 7027 7030
4  8217 6964 8125 6963
4  8218 8119 7977 8125
4  7144 8125 6962 6963
4  7144 8217 7146 8125
4  8119 7879 7977 8125
4  6360 6107 6114 6108
4  7654 6113 7655 6114
4  6966 6114 8054 7754
4  7487 7824 7822 7420
4  7225 7602 7226 7604
4  6360 6105 6107 6108
4  6966 6360 8054 6114
4  8219 6107 8053 7725
4  6129 7380 6130 6131
4  7047 7375 7532 7588
4  7997 7174 7173 7376
4  67 583 937 7177
4  7598 7600 7227 7222
4  8057 7376 7173 7527
4  8220 8105 7969 7529
4  8221 8139 8057 8222
4  6404 7055 6645 6606
4  991 7055 997 6606
4  968 961 8120 6663
4  6607 6606 6407 6604
4  7718 6407 6607 6606
4  6605 7718 6607 6606
4  6219 7999 8219 6113
4  7520 7915 7476 8099
4  6221 6218 6111 6116
4  997 6388 1024 6606
4  8005 7095 7958 7014
4  1024 6605 244 6606
4  6577 7003 6846 6578
4  8001 7224 7755 8096
4  8223 6546 7095 6945
4  6844 6578 6570 6571
4  8224 7656 8006 7464
4  6311 6313 6577 6314
4  6313 7052 6577 6314
4  7583 6240 6969 7465
4  6577 6846 7003 7052
4  7915 6319 6364 6320
4  6577 6314 7003 6570
4  7101 7608 7609 7103
4  6966 8225 7955 7754
4  7212 7683 7675 7677
4  1010 8045 832 6967
4  8048 7298 7213 7677
4  6900 6939 7656 7465
4  7611 7610 7684 7213
4  6894 6541 6536 6543
4  7237 7239 7301 7297
4  7683 7684 7702 7298
4  6966 7653 6114 7955
4  973 209 57 6593
4  7302 7213 8048 7298
4  7609 7302 7610 7213
4  7364 7872 7814 7081
4  8226 7081 7085 6485
4  7798 7365 7364 7872
4  7798 7363 7364 7365
4  7798 7365 7872 7800
4  7702 7297 7414 7299
4  7830 7620 7870 7617
4  8011 7841 8009 7837
4  7871 7872 7617 7616
4  8165 6508 6677 6918
4  7911 6515 6564 6628
4  7871 7798 7872 7800
4  7831 7814 7365 7872
4  8227 7827 7825 7826
4  6987 6592 6593 7377
4  6643 6623 6392 6395
4  7172 7174 7670 7377
4  7997 7671 7174 6921
4  546 856 256 6620
4  8228 8229 8230 6533
4  7172 7174 7377 7045
4  7173 7046 7174 7045
4  7173 6919 7174 7046
4  372 8093 6304 6132
4  6715 8050 8231 7293
4  346 7377 6592 7045
4  59 57 6595 6594
4  8104 8079 7700 6831
4  6787 6860 6145 6147
4  6857 6860 6859 6902
4  8080 7016 8191 7545
4  8191 6858 7545 7251
4  6302 6132 6282 6133
4  7295 6726 6725 6717
4  8231 8050 8232 7294
4  8080 6344 6616 7545
4  6780 6332 6781 6104
4  6787 6616 6617 6343
4  6787 6344 6616 6343
4  6623 6622 6875 6613
4  6229 6954 6231 6230
4  6623 6678 6954 6230
4  8086 6611 6678 6954
4  6611 6954 6612 6613
4  7088 8056 7863 7862
4  6623 6954 6229 6230
4  6623 6875 6229 6954
4  6434 6429 6430 6431
4  6432 6430 6608 6431
4  7990 7993 7441 7442
4  7151 7990 7149 7150
4  7234 6434 6430 7018
4  6432 6434 6882 7018
4  6782 6410 6149 6422
4  645 6782 814 6422
4  7135 6785 6351 7939
4  6714 6556 7089 7087
4  7641 7643 6648 7645
4  7086 6636 7306 7089
4  7557 7561 6426 7199
4  946 6785 6424 7939
4  7895 7281 6202 7893
4  626 6408 6410 6354
4  6353 6155 6558 6151
4  946 813 6424 6785
4  625 626 6785 6351
4  7898 8146 7892 7554
4  7015 7126 6278 7016
4  8233 7158 7321 7320
4  8080 6616 6614 7016
4  8080 6616 7016 7545
4  7015 6787 7545 6618
4  7267 7256 7586 7257
4  7892 8146 7906 7280
4  7941 7128 7016 7127
4  7898 7892 7330 7893
4  7897 7648 7553 6202
4  123 142 7734 6204
4  7613 7614 6690 6368
4  68 7634 346 7045
4  7557 7877 7972 8102
4  7375 7173 7376 7527
4  6837 8013 7679 7838
4  6642 6971 6852 6387
4  6674 8110 7495 6676
4  7910 7527 7969 7533
4  8221 8220 8222 7527
4  7340 7104 7605 6588
4  8222 7910 7376 7527
4  8057 7173 7525 7527
4  7075 6684 6315 6683
4  8234 6803 8066 6182
4  6803 6180 8067 6182
4  684 98 601 6261
4  7441 7443 7444 7440
4  192 909 191 6684
4  7542 7240 6188 6816
4  7992 6804 8234 6805
4  192 6684 6640 6316
4  6693 7989 7990 7441
4  8149 7031 6775 6928
4  7315 7316 7619 7314
4  6234 6684 6640 6641
4  7932 7960 7630 7616
4  192 191 6640 6684
4  850 189 95 6195
4  7542 6188 6190 6492
4  6658 6706 6712 6707
4  7729 7443 7442 7440
4  6693 6808 7990 7150
4  652 684 601 6261
4  8061 6973 6972 6684
4  6779 7764 6855 6098
4  6973 7077 6393 6684
4  191 8061 6972 6684
4  6736 6333 6740 7509
4  8144 8184 8097 6963
4  8235 7110 7390 7403
4  7109 7390 7110 7403
4  7109 7110 7407 7403
4  7407 7403 7110 7408
4  6741 6738 8217 6737
4  7678 7382 7383 7384
4  8047 7384 7386 7674
4  7389 7514 7402 7515
4  8235 8236 7110 7403
4  6544 6145 6140 6146
4  6145 6860 6536 6147
4  7139 6799 6536 6800
4  7887 7416 7612 7720
4  7792 6860 7042 7545
4  6539 6537 6145 7042
4  7657 8058 7883 7582
4  7746 7083 7179 7744
4  7015 6795 6147 6618
4  7794 7792 7042 6344
4  825 6617 6144 6143
4  8000 7883 7756 7955
4  825 6617 6274 6144
4  7796 7219 7746 7216
4  6872 8237 6871 6764
4  6544 6337 6145 6146
4  6617 6274 6144 6342
4  976 6765 7891 6146
4  7064 8238 7260 6761
4  574 976 998 6146
4  8069 7033 7037 7034
4  7039 6933 7038 6504
4  1005 161 852 6503
4  6425 6378 6423 7693
4  7038 6424 7939 7032
4  7938 7038 7135 7939
4  161 83 946 7034
4  7063 6951 7064 7059
4  7136 6558 7874 6150
4  6713 6714 8145 6703
4  161 7034 7032 6441
4  6855 6620 6098 6100
4  947 1035 625 8239
4  6503 6441 7032 6504
4  6425 8035 6952 7693
4  946 7939 7032 7034
4  8240 7938 7939 7034
4  7039 7940 7038 6933
4  946 6424 813 6427
4  6421 6378 6472 6471
4  83 8069 8240 7034
4  852 6503 161 7032
4  7536 7114 6311 7307
4  83 8240 946 7034
4  8117 8019 7119 8033
4  7691 7195 6177 7689
4  7688 7148 6786 6756
4  7853 7694 6719 6720
4  6595 6925 6923 6597
4  6356 6480 6159 6477
4  7688 6786 7507 6756
4  7116 7881 7879 7118
4  7969 7534 7533 7535
4  8117 7119 8032 8033
4  8145 7862 6559 6562
4  7534 7909 7533 7652
4  7876 7136 8145 6559
4  7911 6920 7909 7533
4  7876 8174 7819 8052
4  6426 7136 7877 7874
4  7911 7375 6919 7533
4  7557 7972 6705 6268
4  7532 7534 7533 7652
4  390 6270 6603 6600
4  6837 7106 6653 6273
4  6637 7088 7863 7859
4  6561 6559 7088 6562
4  6713 8174 8145 7862
4  244 6606 6605 6600
4  8173 6636 6637 6638
4  6559 7862 7088 6562
4  6605 6607 6651 6600
4  7863 7862 7861 7859
4  7819 7818 7804 8102
4  7432 7916 7434 7433
4  7289 7292 7907 7277
4  6653 6652 6654 6270
4  7101 6582 6583 6588
4  7194 6177 7191 7192
4  7532 7652 7445 7448
4  7534 7449 7652 7448
4  7909 7651 6628 7652
4  7323 7908 8241 7326
4  7570 7919 8192 7433
4  8192 7467 8193 6981
4  7733 7971 8118 7280
4  7911 7909 6628 7652
4  7651 6565 6628 7652
4  6980 6475 6981 6978
4  8223 6117 7655 6113
4  7999 6113 7654 6114
4  7771 7433 7432 7291
4  7769 7975 7318 7768
4  6989 6814 6481 6815
4  8242 7655 7654 6113
4  6115 7655 6113 6114
4  6219 8219 6106 6113
4  6220 8223 6113 6116
4  7771 7432 6982 7768
4  6220 6113 6219 6116
4  230 7006 6400 7005
4  230 6400 6398 7005
4  7237 8187 7238 7239
4  7174 6925 6987 6597
4  6508 6510 6677 6511
4  7965 7006 6288 7005
4  7050 6398 6397 6399
4  7639 7050 7965 6398
4  6542 6541 6543 6538
4  7254 8243 7687 7239
4  8163 8227 7841 7679
4  1020 544 998 6140
4  6989 6815 8107 6991
4  7488 6454 6453 6449
4  998 6146 6140 6142
4  574 998 6144 6146
4  7851 6611 8086 6954
4  8123 7306 6929 6686
4  6931 6687 6775 6688
4  6685 6929 6686 6688
4  6928 6686 6929 6688
4  7360 7646 6525 6520
4  6685 6929 7089 6686
4  7641 7357 7642 7359
4  8147 6928 6774 6686
4  6774 6775 6687 6686
4  6693 7441 7070 7317
4  8122 8147 7303 6686
4  6372 7315 6370 7614
4  6636 6929 7089 6638
4  149 7695 6752 6635
4  8123 7858 6928 6929
4  7883 7957 7885 7884
4  8122 8123 8147 6686
4  6714 7041 6707 7089
4  6714 6711 7041 6703
4  7619 6484 7620 6486
4  6117 6113 6116 6108
4  7813 7085 7081 6491
4  8219 7477 6106 7725
4  7591 6908 7680 7592
4  7756 7885 7598 7757
4  7221 7225 7601 7222
4  7756 7955 7757 7754
4  7596 8044 7590 7226
4  6117 6116 6110 6108
4  6218 7477 6111 6106
4  6221 6219 6218 6116
4  7603 6848 7889 7604
4  7603 7226 6849 7604
4  6105 6111 6106 6108
4  6993 6835 6996 6994
4  8219 6113 7999 6107
4  6910 7186 6911 6853
4  8244 6584 6585 6225
4  7079 7083 7812 7080
4  704 706 968 8151
4  8059 6863 7024 6861
4  6584 6580 6225 6581
4  8180 7741 7622 7742
4  7730 7743 7179 7744
4  6864 6586 6583 6581
4  6584 6585 6580 6861
4  8059 6585 6584 6861
4  7642 7357 7358 7359
4  7619 7575 6484 6486
4  7996 7629 6366 6371
4  7316 7444 7575 7312
4  7613 6138 7078 6690
4  7311 7577 7313 7312
4  7444 7439 7312 7440
4  7989 7729 7442 7440
4  7613 6370 7614 6368
4  6137 6194 7078 6139
4  6484 6494 6485 6487
4  7960 7078 6137 6194
4  7960 7078 6770 6371
4  7561 6421 6425 6472
4  6425 6952 6378 7693
4  7575 6487 6486 7312
4  7313 7438 7989 7440
4  6885 6952 6762 6473
4  7672 7384 7678 7673
4  7511 6865 7508 6862
4  7986 6952 8035 7693
4  8184 7388 6965 6960
4  6885 6952 6884 7059
4  6867 7101 7132 6222
4  6378 6951 6382 6380
4  8184 6965 6964 6960
4  7986 6380 6952 7693
4  6282 6133 6132 6126
4  407 1022 997 6389
4  6885 6884 6883 7059
4  7341 8073 7605 7104
4  6965 6960 6959 6961
4  6478 8245 6769 6190
4  6138 7078 6690 6139
4  7960 6770 7078 6194
4  6965 8235 7937 6959
4  0 6505 6194 6192
4  7919 7917 6981 7433
4  6652 6602 6607 7934
4  7771 6982 7432 7433
4  6176 6979 7767 6982
4  7960 6506 6770 6194
4  6719 7113 6758 6759
4  189 0 6137 6194
4  7885 7957 7219 7215
4  7957 7220 7219 7218
4  189 0 6 6137
4  8001 7597 7224 8096
4  7886 7797 7214 7215
4  7802 7216 7739 7742
4  7596 7224 7226 7597
4  7220 7079 7812 7080
4  6490 7084 7083 6491
4  7745 7179 8159 7742
4  8001 8043 7224 7597
4  7506 7450 8042 7447
4  7589 6917 6849 7447
4  7506 8042 8043 7597
4  7001 8189 6996 6998
4  8246 7224 7596 7597
4  7227 7600 7228 7222
4  7445 7446 7589 7447
4  7452 6917 7446 7447
4  7678 8048 7608 7677
4  8247 7447 7705 7451
4  8074 6285 7852 7110
4  7824 7665 6447 6454
4  7937 6959 8235 7110
4  7997 7671 7670 7174
4  7937 7852 6959 7110
4  6516 7682 7593 7592
4  8042 7603 7226 6849
4  6719 7854 6720 6722
4  7272 7273 7774 7776
4  7109 7390 6959 7110
4  625 6351 6785 7939
4  7796 7746 7745 7216
4  7812 7083 7746 7744
4  7745 7746 7179 7742
4  946 7939 6424 7032
4  7938 7037 7038 7034
4  6352 7938 7135 7939
4  7362 6310 6356 6160
4  6176 6179 6178 6982
4  7971 7322 7772 7319
4  6975 6977 6178 6978
4  947 8239 625 7939
4  7111 7507 7113 7112
4  947 946 8240 7939
4  7919 7917 7568 7203
4  7432 8040 7916 7433
4  8192 7919 6981 7433
4  6629 7267 7262 7265
4  7263 7627 7262 7265
4  7263 7264 8214 7265
4  8214 7867 7195 7265
4  8213 8185 7264 7867
4  6835 7930 6996 6994
4  7415 7837 7416 7417
4  7901 7947 7904 7903
4  8213 8185 7267 7264
4  6186 6679 7123 6185
4  6666 8112 6668 6589
4  7658 7945 7660 7659
4  6392 6393 6187 6641
4  7937 8074 7125 7852
4  6157 6159 6310 6160
4  6682 6307 6233 6683
4  8086 6680 6953 6185
4  6895 6897 7973 6912
4  6953 6187 6185 6233
4  6237 7943 7759 7408
4  6184 6185 6187 6683
4  7676 7683 7514 7298
4  6962 6960 8108 6963
4  7658 6239 7759 6991
4  6184 6682 6186 6185
4  7747 7290 7289 7288
4  7470 7326 8241 7288
4  7908 7275 7435 7277
4  8241 7749 7766 7288
4  7470 7766 7747 7288
4  7444 7501 7500 7439
4  7546 7171 7153 7162
4  7269 8248 8204 8134
4  7470 7287 7326 7288
4  7399 7538 7397 7392
4  824 6617 6143 6276
4  7491 7492 7232 7393
4  7396 7399 8249 7397
4  7395 7732 7959 7547
4  7538 8250 8209 7539
4  7774 8128 7924 7273
4  7718 6390 7719 7612
4  8017 8248 8249 7270
4  7468 7949 8041 6476
4  6787 6617 6616 6618
4  7015 6147 6787 6618
4  6309 6310 6286 6722
4  7793 6145 6337 6336
4  7139 6800 6536 6147
4  6157 6158 6814 6159
4  7853 7854 7107 7852
4  574 825 6274 6144
4  6781 6332 6103 6104
4  7917 6980 7466 7203
4  6158 6481 6814 6159
4  6481 7430 6358 8015
4  6779 8076 6855 7764
4  7975 8193 7976 6982
4  6123 7381 7146 6737
4  8213 8060 8185 7867
4  6833 7890 8152 7604
4  6736 6333 6120 6103
4  6736 6333 6103 6124
4  7923 8128 7924 7926
4  8157 8099 8247 7451
4  8251 7344 6590 6591
4  7551 7912 6790 6853
4  7519 7448 7450 7451
4  7505 7506 8099 7451
4  7429 7371 7431 7374
4  6671 6810 6811 6670
4  7373 8204 7406 8205
4  8189 6996 8252 7963
4  6238 8253 6358 6815
4  7067 6533 6673 6535
4  8049 6673 7067 6533
4  8159 7741 7622 7926
4  6669 6898 6899 6535
4  8254 7943 7413 7404
4  7963 8198 8201 7964
4  6671 6670 6673 6535
4  7922 6829 6344 6345
4  6653 6655 7455 6918
4  824 6274 6617 6276
4  6828 6829 6345 6341
4  8160 6829 7922 6345
4  6598 6919 7911 7046
4  6617 6342 6144 6343
4  7979 8086 6682 6680
4  686 720 47 6227
4  6829 6614 6344 6341
4  7794 7922 6344 6336
4  6393 6972 6641 6387
4  8068 6317 7147 6307
4  6202 6514 6203 6199
4  6376 6200 7648 6201
4  7648 6202 7335 6205
4  728 117 822 6205
4  728 7649 8255 6205
4  7967 7968 6384 6655
4  6913 8165 8167 7967
4  6312 6529 6442 6530
4  940 191 6641 6553
4  7065 6668 7066 6224
4  176 546 273 6619
4  7968 6384 7124 6971
4  6396 6642 6852 6387
4  6620 7054 6540 6223
4  991 997 1024 6606
4  6739 7381 6740 6737
4  6864 6586 8046 6583
4  6779 6781 8076 7764
4  176 7456 546 6619
4  8167 8166 8256 7454
4  6404 6407 6406 6582
4  6865 8047 8144 7674
4  7968 6974 6384 6971
4  8257 8258 7379 7380
4  364 6304 6417 6334
4  1029 759 940 6971
4  8259 6120 6333 6122
4  8257 6129 6739 7381
4  1029 940 6970 6971
4  8094 6626 6465 6466
4  8260 6467 7664 7727
4  6463 6467 6464 7727
4  7283 6454 6455 6627
4  6626 7665 7664 6627
4  6463 7369 6467 7727
4  7145 6247 7144 6127
4  6463 6464 6467 6207
4  8092 6130 8091 6132
4  6723 6810 7295 6811
4  7974 6248 7973 6912
4  6906 6416 6419 6245
4  6282 6132 6329 6126
4  8091 6302 7460 6304
4  7132 7101 6389 6391
4  6331 6102 6124 6330
4  6437 7114 7071 6444
4  363 6416 6334 6418
4  7460 6302 6415 6304
4  7114 6727 7071 7072
4  1017 372 8093 6304
4  7294 6810 6723 6811
4  6715 8231 6723 7293
4  8050 7294 7293 6673
4  1017 8093 7459 6304
4  6135 6125 6330 6126
4  6123 6131 6333 6124
4  374 6329 6132 6330
4  665 6331 6329 6330
4  8261 6915 6914 7123
4  664 665 8262 6329
4  6509 6676 6510 6511
4  317 991 319 6645
4  759 162 25 6852
4  664 8262 8092 6329
4  7967 7968 6974 6384
4  6914 7967 6974 6386
4  8262 6331 6130 6329
4  6601 6837 6272 6273
4  6915 6508 8165 6916
4  519 8263 8065 7124
4  7678 7677 7608 7102
4  389 390 840 8010
4  6679 6953 7123 6185
4  6186 8086 6679 6185
4  7967 6384 6974 6386
4  7105 7103 7212 7102
4  6864 8047 6866 7673
4  695 8027 493 6950
4  6867 7672 7678 7673
4  7672 7673 6866 7674
4  192 6640 6235 6316
4  10 6235 192 6640
4  137 6235 6234 6226
4  6873 6499 6501 6552
4  6388 7055 6404 6606
4  881 7980 6316 6308
4  6432 6882 6880 6881
4  6394 7765 6609 7017
4  10 6234 137 6235
4  676 723 726 6610
4  6986 6456 6461 6459
4  207 209 7843 6457
4  494 8027 8029 6429
4  344 104 103 6697
4  6249 6468 6206 6250
4  7101 6390 6391 6582
4  6462 6457 6215 6459
4  7845 6988 6215 6987
4  6463 6254 6482 6483
4  6482 6250 6456 6216
4  6215 6250 6456 6457
4  519 759 8263 7124
4  6653 6655 6838 6269
4  6830 6838 6655 6852
4  6830 6384 6396 6852
4  6437 6313 6311 6312
4  7068 7044 7043 6532
4  7967 6655 6384 6916
4  519 162 759 7124
4  6653 6270 6655 6269
4  6650 6602 6405 6644
4  6629 7166 6255 6258
4  6601 6600 6273 6271
4  7788 7165 7163 6289
4  966 967 8063 6166
4  8062 6654 6602 6603
4  966 967 923 8063
4  6650 8062 6602 6603
4  389 319 390 6603
4  389 390 8010 6603
4  7325 7324 7893 7472
4  7139 6536 6860 6147
4  8264 7638 7639 6397
4  7783 7787 7638 7050
4  6894 6536 6843 6543
4  7788 7784 7266 7595
4  6377 6301 6291 6293
4  8265 6894 6843 6543
4  77 562 81 6517
4  7157 6289 7166 6300
4  537 8265 356 6543
4  8233 7321 7971 8118
4  8030 7553 8012 7552
4  6145 6141 6140 6142
4  7252 7255 7254 7417
4  7267 7256 7587 7586
4  6847 8266 8014 6845
4  913 741 802 6730
4  7824 7252 7822 7420
4  7486 7419 7635 7420
4  7486 7635 7187 7420
4  6437 6730 6312 6445
4  8267 7068 8178 7069
4  8008 7419 7487 7822
4  7824 8132 7252 7420
4  6844 6570 6163 7806
4  8212 6168 6167 6161
4  6577 7051 6846 7052
4  6168 6169 6167 6164
4  7486 7487 7419 7420
4  357 6801 6800 6797
4  301 7053 7049 7004
4  7095 7014 6945 6941
4  7958 6799 7014 6802
4  7095 7958 7014 6802
4  230 7006 589 6400
4  822 123 562 6198
4  1023 367 272 6802
4  1023 272 8268 6802
4  7777 7548 7356 7149
4  6388 6390 7718 6407
4  7051 7050 6846 6403
4  7777 7778 7354 7356
4  7649 8215 6376 6201
4  8269 7327 7331 7328
4  7028 7548 6809 7149
4  8012 6376 6291 6292
4  7028 6809 6807 6808
4  6693 7993 7070 7441
4  6295 6291 6301 6290
4  6255 7166 6256 6258
4  639 77 72 6375
4  6693 6692 7070 6808
4  7990 7993 7442 7149
4  7151 7990 7353 7149
4  6825 6632 6751 6819
4  7151 7548 7028 7149
4  8060 7424 7421 7422
4  6651 6607 6652 6600
4  7111 7120 7112 6759
4  7120 6753 7868 7424
4  7111 7120 7424 7112
4  7028 6180 6809 7031
4  7111 7424 7120 7122
4  43 7991 41 6496
4  6706 7859 6638 6648
4  8060 7507 7424 6755
4  752 7009 7008 6322
4  7008 6322 7009 6112
4  42 7991 7544 6492
4  958 43 684 8270
4  7990 7152 6260 7150
4  6350 8239 6352 6351
4  6806 7070 6692 6808
4  952 1005 6439 6441
4  6319 7009 6322 6112
4  8085 6319 6322 6548
4  108 7009 6322 6320
4  6328 6319 6318 6321
4  6937 6940 6932 6935
4  8085 6319 6328 6322
4  469 8087 7011 6322
4  409 970 7914 6320
4  6364 6363 7009 6112
4  752 20 7008 6363
4  752 108 7009 6322
4  6328 6322 6319 6321
4  469 108 752 6322
4  6707 6691 6929 6688
4  7858 8173 6647 6691
4  6713 6639 6706 7859
4  6658 6706 6707 6638
4  6647 6637 7811 6648
4  6637 7859 7811 6648
4  8036 7260 6882 6883
4  8173 6929 6636 6638
4  952 953 161 6441
4  8242 8006 7654 7655
4  6967 6966 6969 6242
4  357 6801 993 6800
4  233 8264 7007 6398
4  589 180 6401 7006
4  356 357 474 6800
4  457 589 6624 6401
4  8271 8224 6893 6901
4  8045 6969 7583 6240
4  6893 7958 6894 6799
4  947 8240 8239 7939
4  7965 6401 6400 6399
4  233 629 8264 6398
4  7965 6400 7006 7005
4  457 589 6401 6399
4  130 125 258 7484
4  7050 7965 6398 6399
4  287 454 6403 6399
4  7135 6424 6785 7939
4  1035 8239 6350 6351
4  6352 6351 6154 6156
4  7485 7305 7090 6556
4  8239 6352 6351 7939
4  1035 6350 626 6351
4  6751 6664 6752 6749
4  437 1019 436 6772
4  8150 6751 7035 6748
4  7035 6751 6632 6748
4  6658 6712 8216 6931
4  6747 6632 6634 6749
4  704 706 8151 6748
4  1019 834 436 6776
4  569 825 824 6274
4  7794 7922 8080 6344
4  7038 6424 7135 7939
4  998 7891 6140 6146
4  749 565 569 6840
4  7340 7105 6586 6588
4  8059 6584 6863 6861
4  7485 8083 8084 6353
4  704 8151 6747 6748
4  8087 6322 7008 6548
4  6450 7832 7681 6449
4  8087 8085 6322 6548
4  6549 6319 8085 6548
4  6545 6549 6550 6111
4  988 6427 6421 6471
4  490 6472 6470 6471
4  489 988 6421 6472
4  6359 8084 6352 6156
4  6508 6395 6511 6916
4  488 6470 490 6472
4  8090 7147 7848 6306
4  687 686 685 6458
4  6378 6952 6951 6380
4  488 7942 6763 6472
4  952 161 1005 6441
4  6762 6764 6763 6473
4  6426 6425 6421 6422
4  406 6701 508 6784
4  6762 6764 6569 6567
4  983 6435 6569 6436
4  7261 6761 8238 6569
4  8238 6761 6762 6569
4  8272 6762 6764 6569
4  766 8272 6764 6569
4  789 766 983 6569
4  343 6609 6428 6566
4  7563 7564 7573 7565
4  7241 8168 7698 7242
4  789 8273 8272 6569
4  41 6195 95 6493
4  95 6139 98 6493
4  6262 6171 6170 6493
4  6174 6170 6171 6496
4  43 8270 7991 6496
4  43 684 8270 6496
4  6312 6529 6528 6444
4  81 6851 6957 6517
4  7247 6851 6514 6196
4  8012 7553 6376 6200
4  639 562 77 6517
4  728 8255 117 6205
4  900 664 665 8262
4  6437 6444 7071 6438
4  6437 6313 6312 6730
4  6312 7806 6161 6162
4  6570 6163 7806 6162
4  990 611 546 7143
4  6904 6905 6445 6530
4  6311 6312 6570 6528
4  546 6620 6619 6100
4  7246 8170 8168 7242
4  8116 7518 8170 7245
4  8046 6583 7102 7673
4  8116 8170 8250 7352
4  8250 7518 8169 8170
4  8207 8250 8169 8170
4  317 6649 6646 6644
4  7517 8208 8170 7352
4  7343 7341 6587 7342
4  8042 6849 7590 7447
4  45 47 46 8138
4  256 407 857 7054
4  6187 6641 6684 6233
4  8208 8250 7352 7539
4  6353 7134 7090 8141
4  6649 8112 6666 6406
4  258 7134 8141 7484
4  7983 8274 7857 7031
4  125 7954 7040 7484
4  6123 6740 6131 7381
4  7090 7134 7040 7484
4  856 6098 8075 6620
4  6779 6781 7764 6104
4  6711 6685 7041 7040
4  6333 6120 6103 6122
4  6714 7041 7090 6703
4  620 626 6350 6355
4  6353 6149 6409 6354
4  7380 6282 6131 7381
4  8275 6129 8276 6740
4  8083 6355 6353 8141
4  665 6331 8262 6329
4  6957 6517 6196 6373
4  7649 6376 7648 6201
4  621 7134 6408 8141
4  823 639 8215 6201
4  823 728 822 7649
4  6377 6291 8215 6374
4  621 6408 7134 6784
4  6256 6293 6292 6300
4  6375 6197 6517 6373
4  626 506 645 6410
4  826 8215 639 6374
4  6353 6355 6408 8141
4  620 8175 621 6355
4  8277 6725 8101 6729
4  8104 6729 6420 6912
4  8056 7862 8052 7861
4  8104 6729 6912 6831
4  7897 7336 7648 6202
4  6728 6419 6415 6729
4  6716 6729 8104 6831
4  8277 8278 6725 6729
4  8101 6415 6420 6729
4  7505 8098 7914 8099
4  8177 8175 8083 8141
4  596 600 535 6760
4  7010 8098 7915 7914
4  6318 6319 7915 6320
4  981 1005 771 6512
4  8140 7913 7914 6326
4  409 8140 7010 7914
4  7010 7914 7915 6364
4  6931 6775 6928 6688
4  6940 6935 7607 6383
4  7537 6437 7536 6955
4  731 7537 418 6955
4  8274 7549 7857 6928
4  735 7537 6906 6416
4  8213 7867 7264 7265
4  7536 7310 8188 7307
4  6774 6775 7029 6772
4  7460 8101 6415 6302
4  6687 7954 6930 6771
4  307 6711 403 7040
4  8278 6725 6729 6718
4  6822 8079 8104 6912
4  7458 7700 7308 7701
4  735 418 7537 6416
4  6685 7040 7954 7484
4  7871 7872 8226 7617
4  932 832 6796 6798
4  8045 6967 6240 6241
4  7441 7444 7316 7440
4  7956 7835 7584 7884
4  7441 7440 7316 7317
4  7313 7440 7989 7317
4  6693 7990 7993 7441
4  6969 7956 7582 7955
4  7311 7313 6689 7314
4  6689 7315 7314 7317
4  7801 7802 7082 7744
4  7584 7835 7585 7884
4  444 932 1010 8045
4  6689 7315 7070 6692
4  6492 6191 6195 6493
4  6689 6693 7070 7317
4  7709 7363 7365 7250
4  6821 6283 7146 6248
4  6136 7381 6283 7146
4  7144 6123 7146 6737
4  7953 7988 6773 6685
4  8218 6248 7146 7977
4  6247 7146 7977 8125
4  6713 6710 6706 6702
4  1035 626 625 6351
4  8000 7955 7756 7754
4  7883 7884 7757 7955
4  7858 6928 6691 6660
4  7027 6775 6931 6771
4  8000 7653 7657 7955
4  7657 7582 7883 7955
4  7988 6687 6685 6686
4  7583 7584 7808 7580
4  744 125 130 7953
4  7304 7086 7306 7089
4  7956 7584 7582 7884
4  600 6260 6746 6259
4  7287 7907 7473 7472
4  7279 7292 7770 7278
4  262 6687 6773 6772
4  6711 7954 6685 7040
4  7765 7816 8181 7022
4  7323 8241 8181 7326
4  7470 6948 7471 6698
4  7287 7326 7908 7472
4  7470 8241 7766 7288
4  7435 7571 7749 7290
4  7941 6631 6818 7127
4  7785 6476 6475 6477
4  7467 6981 7919 7203
4  7922 6829 8080 6344
4  7917 7202 7918 7201
4  7200 7206 7202 7201
4  7200 7202 6476 7203
4  7567 7201 7200 7203
4  6148 6785 6149 6151
4  6555 6409 6353 6149
4  6335 7922 6336 6345
4  8145 6558 6555 6562
4  8145 6559 6558 6562
4  6353 6156 6155 6151
4  7136 8145 6559 6558
4  7248 7251 7249 7129
4  7197 7099 7198 6150
4  704 6747 131 6748
4  7099 7199 7874 6150
4  8160 8164 6335 7922
4  6750 6751 6632 6819
4  6557 7198 6559 6558
4  8057 7173 8089 7525
4  596 600 6760 6746
4  74 7176 7531 7012
4  8151 8150 7035 6748
4  658 843 824 6143
4  8113 6824 6823 6817
4  8088 7525 7176 7012
4  6839 8111 6841 6634
4  131 6634 6279 6749
4  8089 8088 7525 7176
4  8089 7525 7173 7176
4  69 67 74 7176
4  69 7175 67 7176
4  41 98 684 6261
4  7038 6933 6868 6504
4  6805 7985 6806 6182
4  6423 7693 6868 7100
4  652 596 834 6744
4  7692 6933 6932 6379
4  6932 6379 6933 6507
4  7071 6811 6734 6438
4  848 7073 849 6438
4  7932 7630 7800 7616
4  422 6437 6955 6438
4  848 422 683 6812
4  574 998 825 6144
4  6726 6733 6732 6418
4  541 6735 6732 6418
4  8216 7027 7133 7030
4  7167 6735 6810 6812
4  6437 7071 6955 6438
4  832 6943 6241 6941
4  8004 8006 8242 7655
4  7915 6319 6105 6364
4  832 8045 6796 6241
4  7668 6946 6949 6947
4  7668 6949 8028 6950
4  754 378 6547 7008
4  8028 6949 6430 6950
4  6430 6950 6428 6429
4  7014 6797 6796 6798
4  8005 8223 6945 7655
4  695 701 7669 6950
4  695 7669 8027 6950
4  6360 6117 6109 6108
4  6835 7925 6994 6836
4  8159 8128 7923 7926
4  7730 7179 7622 7156
4  7621 7154 7622 7156
4  537 285 356 8265
4  8268 6894 7958 6843
4  7731 7622 7154 7156
4  8159 7179 7621 7622
4  7699 6921 6920 6922
4  6240 7014 6945 7655
4  6919 7376 7174 6921
4  6206 6216 6207 6209
4  6115 6117 6241 6361
4  7174 6597 6987 6592
4  6417 6334 6304 6303
4  6244 6248 6246 6912
4  6246 6245 6305 6243
4  6220 8223 8004 8242
4  6969 6115 6240 6242
4  6220 8223 8242 6113
4  6857 6537 6860 7138
4  6895 6419 6912 6245
4  6221 6218 6549 6111
4  6893 8224 7464 6901
4  6135 6133 6305 6243
4  8025 7152 7028 7030
4  7875 7555 8279 8102
4  574 905 976 6765
4  6857 6860 6537 7042
4  7795 7140 6539 7141
4  537 544 6542 6543
4  8279 7804 7818 8102
4  6892 6893 6799 6901
4  8279 6267 7818 7804
4  7875 7818 8056 8052
4  8174 8171 8052 7861
4  7972 7819 7804 8102
4  7876 8052 7819 8102
4  7174 7046 6597 7045
4  8057 7172 8089 7173
4  7521 7525 7526 7588
4  7876 7877 7874 8102
4  7998 7376 7699 6921
4  7524 8089 8088 7525
4  7528 8021 7529 7476
4  937 7177 8022 7531
4  8139 8222 7998 7376
4  7578 7982 7585 7579
4  7172 7173 7997 7174
4  8057 8222 8139 7376
4  67 7177 7176 7045
4  8034 8077 6897 8033
4  7002 8082 7828 7632
4  8280 8224 8006 7464
4  7503 7583 7013 6796
4  6969 6240 6115 7653
4  8079 7973 8117 6897
4  6895 6419 6896 6831
4  7584 7580 7582 7585
4  6893 8005 7958 7014
4  6115 6945 6117 7655
4  6419 6420 6729 6912
4  6419 6246 6420 6912
4  499 149 501 6554
4  6822 6821 7974 6248
4  7503 8045 7583 6796
4  7139 7013 6799 6801
4  6761 6433 6568 6436
4  7828 7831 7370 7799
4  6761 6569 6435 6436
4  307 405 403 6710
4  8123 8173 7858 6929
4  8083 6353 7090 8141
4  6353 6703 7090 7134
4  159 983 155 6435
4  6745 6744 6183 6742
4  7876 8056 6559 7862
4  7136 6782 6783 6409
4  6359 6155 7485 6156
4  6561 6562 7087 6560
4  7234 7260 6434 6882
4  6713 7862 8145 6562
4  7096 8268 7958 6802
4  6433 6608 6566 6431
4  7557 7558 7561 7556
4  159 8273 983 6435
4  7557 6705 7558 7556
4  8029 7274 6435 6429
4  494 493 695 8027
4  8182 8241 7816 8181
4  7274 6434 7261 6435
4  6394 6609 6610 6608
4  7023 7815 8114 6348
4  7771 7432 7770 7291
4  7987 8141 7090 7484
4  7303 6685 7987 7041
4  7876 7874 7875 8102
4  6705 6268 7559 7556
4  701 103 807 6695
4  258 7040 7134 7484
4  621 258 7134 8141
4  6353 6408 7134 8141
4  8149 6757 6774 7029
4  6353 6409 6703 7134
4  7984 7777 7993 7149
4  356 272 357 6800
4  7316 7440 7312 7317
4  621 506 6408 6784
4  7353 7442 7354 7149
4  7358 7729 7489 7355
4  506 6410 6408 6784
4  7090 7134 6703 7040
4  7722 7641 7642 7643
4  7479 7481 7094 7482
4  6703 7040 7134 6704
4  7711 7349 7710 7523
4  672 621 8175 8141
4  672 8177 258 8141
4  7489 7391 6518 6527
4  6910 7186 7185 6911
4  7860 8174 6713 7862
4  7680 6908 6910 6911
4  7846 7186 7551 7185
4  7907 7279 8281 7281
4  7276 7772 7432 7770
4  7318 7975 6179 7768
4  7682 7846 7551 7185
4  8192 6981 6982 7433
4  7847 7184 7189 7185
4  7976 6178 6177 6179
4  7847 7680 7185 7681
4  7769 7768 7318 7319
4  7188 7846 7189 7183
4  7772 7322 7768 7319
4  7947 7902 7946 7903
4  7832 7189 7846 7185
4  8227 7842 7679 7826
4  6923 6924 7970 6628
4  6469 6208 6466 7970
4  7253 8132 7190 7187
4  6924 8094 6208 7970
4  7282 7966 6466 6448
4  937 584 585 8022
4  8110 8013 7821 7842
4  7873 6448 6466 7970
4  604 6598 7047 6599
4  7841 7825 8009 7842
4  7593 7446 7592 6917
4  7190 7189 7184 7183
4  6923 6924 6208 7970
4  7389 8236 8235 7403
4  7389 8235 7390 7403
4  7703 7390 7109 7403
4  7853 7878 7882 7855
4  7878 7107 6958 6959
4  7676 7515 7389 7385
4  6741 6740 6738 6737
4  8108 6958 7650 6960
4  6958 6959 7109 7390
4  7882 8023 7694 7118
4  6965 6959 6960 7390
4  7932 7628 7833 7632
4  7079 6488 7083 6491
4  7082 7084 7169 6491
4  7388 7676 7389 7385
4  7633 7631 6751 6826
4  7499 6487 7562 7231
4  7575 7500 6494 6487
4  6965 8235 6959 7390
4  7561 7558 7942 6763
4  7085 7169 7562 6489
4  489 6421 7942 6472
4  7869 6486 7617 6485
4  7200 7241 7949 7206
4  6762 6952 6951 6473
4  7345 7540 7952 7346
4  7917 6981 6980 7203
4  7466 6475 6476 7203
4  6763 6470 6472 6473
4  511 509 6872 6869
4  7437 7434 7570 7433
4  7919 7917 7433 7568
4  6128 6333 6131 6331
4  414 7145 6780 6125
4  6123 6333 6736 6124
4  6412 7713 6413 6414
4  7908 7435 7288 7277
4  8009 7252 7418 7417
4  6990 8282 7659 6991
4  7254 8243 7239 7255
4  7296 8187 7237 7297
4  8236 7402 7943 7408
4  7401 7409 7299 7404
4  414 943 553 6104
4  7105 7611 7212 7103
4  7382 7385 7384 7387
4  7296 7237 7301 7297
4  7676 7514 7389 7515
4  7402 7412 7943 7404
4  7238 7239 7904 7636
4  7703 7390 7515 7385
4  8013 8008 7821 7842
4  7238 7239 8187 7904
4  256 193 1022 7132
4  7296 7409 8187 7297
4  7943 7412 7945 7413
4  7567 7919 7568 7203
4  7702 7687 8186 7297
4  7058 7062 6951 6380
4  7057 6951 6952 6380
4  7391 6527 7491 7393
4  8208 8209 8250 7539
4  7241 7697 7206 7242
4  8017 8209 8249 8248
4  7917 7202 7201 7203
4  7241 7246 8168 7242
4  7204 7244 7246 7205
4  7751 7711 7710 7523
4  6378 6952 6380 7693
4  7791 7712 7713 7523
4  6380 6379 6383 6381
4  7057 7058 6951 6380
4  8149 7029 6775 7031
4  8149 7029 6774 6775
4  8161 8180 7739 7741
4  8127 8128 7154 7622
4  8180 8127 7622 7926
4  7835 7214 7218 7215
4  8159 7179 7622 7742
4  7029 6744 6776 7026
4  6745 6776 6757 6744
4  7219 7812 7746 7217
4  7214 7797 7802 7216
4  7983 7857 6809 7031
4  7028 6809 7857 7031
4  6659 7031 7857 6928
4  1023 8268 7096 6802
4  8283 8274 7983 7031
4  7988 6774 6687 6686
4  6931 6707 6930 6688
4  7268 7269 7776 8134
4  7204 7246 7241 7205
4  7200 7204 7241 7206
4  6711 6930 6685 7954
4  7698 8168 7469 7406
4  307 6930 6711 7954
4  6526 6527 7392 7393
4  7027 6771 6931 7133
4  6712 6931 6707 6930
4  7775 8198 7963 7964
4  285 1023 272 8268
4  20 22 21 6362
4  7268 7270 7269 8134
4  7504 6801 7139 6800
4  474 7504 661 6147
4  6765 6342 6767 6338
4  7928 7773 7774 7924
4  8127 7928 7774 7924
4  378 6943 6109 7008
4  7805 7504 7139 6147
4  661 7504 6795 6147
4  6616 6341 6275 6343
4  7071 6717 6811 7293
4  6529 6528 6531 6530
4  7247 7623 7625 7193
4  454 458 742 8078
4  6442 6904 6445 6530
4  8050 7293 7457 7067
4  6529 7072 6528 6444
4  8034 7427 6897 7701
4  8050 7293 7067 6673
4  6529 6442 6530 6534
4  6845 7783 6846 6576
4  7708 7122 7121 7423
4  8178 8049 7067 6533
4  741 454 8078 7052
4  741 8078 6313 7052
4  823 8215 7649 6201
4  7258 6313 8078 7052
4  180 77 78 6257
4  7051 6846 7052 6403
4  454 7587 8078 6402
4  7646 7359 6519 6520
4  454 6402 8078 7052
4  6629 7267 6255 7262
4  7489 7361 6520 7355
4  7623 7976 6177 6179
4  7626 7194 7191 7192
4  7360 7361 7443 7355
4  8213 7264 7267 7265
4  7625 6625 6957 6256
4  7287 6698 7471 7462
4  7051 7586 7050 6402
4  6296 7157 7158 6297
4  6295 8012 6291 6297
4  7646 6519 6525 6520
4  6525 6527 6520 6521
4  891 7133 6771 7030
4  7391 7392 7540 6521
4  7358 7489 6518 6520
4  7642 6518 6519 6520
4  6726 6717 6735 6734
4  849 7073 6442 6438
4  8149 8274 8283 7031
4  6693 6260 6263 6262
4  6728 6416 6733 6418
4  6731 6726 7295 6735
4  538 7167 683 6735
4  8110 7842 7821 7826
4  8208 8207 7246 8170
4  8227 7497 7826 6676
4  7495 7826 7497 6676
4  481 596 535 7030
4  8110 7679 7826 6676
4  7495 7502 7496 7498
4  6712 6931 6930 7133
4  7827 7823 7826 7498
4  6632 6631 6633 6280
4  6818 7131 7128 7127
4  7036 7631 7865 6826
4  7060 8142 6630 6615
4  569 6768 6274 6277
4  8245 7543 7178 6769
4  190 95 189 6138
4  6839 6634 6841 6281
4  6370 7619 7620 7618
4  6689 6263 6138 6264
4  8142 6768 6630 6615
4  6617 6274 6275 6276
4  329 6506 0 6505
4  7078 6139 6194 6191
4  6478 7178 8120 6479
4  0 6506 6137 6194
4  131 327 706 6664
4  7871 7932 7800 7616
4  7932 6506 7707 6505
4  7577 6486 6487 7312
4  7932 7707 7833 7628
4  7891 6765 6337 6146
4  6335 8164 7793 6336
4  7126 7728 7695 6750
4  6768 6275 6274 6277
4  6767 6342 6340 6338
4  569 6768 566 6274
4  566 6274 6768 6342
4  544 6543 6141 6140
4  8164 7795 7793 7794
4  6616 6344 6614 6341
4  7172 7997 7670 7174
4  6708 7651 6565 6628
4  7233 7235 8284 7018
4  7235 6430 8183 7018
4  7979 6680 6682 6307
4  7017 8183 6430 7018
4  6876 6882 7019 6881
4  7019 6882 7234 7018
4  7850 7851 8086 6680
4  7233 8284 7019 7018
4  6898 6672 6533 6535
4  6830 6918 6511 6916
4  6915 6508 6386 7123
4  162 7124 8065 6656
4  7497 7727 7664 7498
4  8232 8049 6672 6673
4  6898 6533 7043 6532
4  6531 7069 6533 6532
4  6442 6670 7073 6534
4  8285 6590 8112 6591
4  8229 7068 7043 6533
4  8054 6360 6105 6107
4  8232 8050 8049 6673
4  6442 7073 6670 6438
4  8267 8178 8179 7069
4  900 6122 8286 6331
4  7069 6905 6532 6530
4  8228 8287 8178 6533
4  8178 8287 8049 6533
4  8178 7067 6531 6533
4  7024 6118 7066 6119
4  7276 7432 7436 7291
4  7318 7768 6179 7319
4  8288 7607 7606 6380
4  789 8272 766 6569
4  8130 7058 7063 7059
4  6885 6761 6762 7059
4  6421 6423 6378 6502
4  7906 7280 7772 7770
4  7769 7772 7733 7770
4  7058 7606 7063 7062
4  7279 7770 7280 7278
4  988 6421 6472 6471
4  771 852 890 6503
4  8288 6940 7606 7607
4  7907 7292 7279 7278
4  7907 7277 7292 7278
4  7906 7770 7276 7278
4  7292 7771 7770 7291
4  7769 7772 7770 7768
4  8036 8130 8129 6883
4  6823 6825 6985 6819
4  7060 7061 8081 6615
4  6278 6631 6554 6280
4  7856 7559 6348 6877
4  6632 6634 6279 6280
4  710 6747 6839 6634
4  6747 6632 8111 6634
4  7719 7685 7416 7610
4  6830 6396 6384 6395
4  8163 7679 7841 7838
4  6651 7836 8013 7838
4  6651 7838 7840 7720
4  8073 7840 7839 7720
4  8289 7147 7979 6307
4  8086 6611 6679 6678
4  8051 7067 7457 7072
4  6811 7293 6673 6443
4  7609 7610 7719 7612
4  8073 7887 7605 7612
4  6651 7840 7718 7720
4  6762 6951 6764 6473
4  8267 8179 8212 7069
4  6437 7071 7114 6955
4  6899 6535 6532 6534
4  8178 8051 6531 7067
4  6529 6533 6535 6532
4  8237 6951 6382 6764
4  6871 8237 6382 6764
4  7003 6163 6570 6162
4  6871 6764 6382 6869
4  7574 7437 7290 7434
4  511 6870 771 6869
4  6512 6503 6471 6381
4  6382 6764 6473 6869
4  7876 7875 6559 8056
4  8272 6762 8237 6764
4  767 6872 509 6764
4  7561 6885 6952 6884
4  6762 6568 6763 6567
4  509 6470 6764 6869
4  8036 8129 8037 7260
4  6607 7934 6602 7342
4  8290 6603 6650 6644
4  8291 6602 6654 7934
4  967 6166 913 6445
4  7896 7894 7897 7893
4  7003 7048 7049 7004
4  7586 6401 7965 6399
4  7058 6951 7063 7059
4  803 6437 802 6730
4  6577 7052 7003 6314
4  741 6313 803 6730
4  6404 6406 6646 7056
4  7933 7935 7341 7342
4  7344 6586 6584 6225
4  6649 6406 6646 6644
4  997 6389 6388 7055
4  6388 6391 6404 7055
4  6388 6389 6391 7055
4  6584 6586 6864 6581
4  7764 6120 7509 6862
4  6406 6591 6589 6225
4  256 7054 857 6540
4  407 997 991 7055
4  7769 7772 7768 7319
4  7623 6179 6177 7193
4  7733 8118 7971 7319
4  7318 6179 7623 7193
4  7321 7191 7322 7193
4  7321 7971 8118 7319
4  8163 7106 7679 7838
4  7454 7453 7968 6655
4  8290 8062 6650 6603
4  6167 6166 6161 6164
4  7983 7549 6809 7857
4  6165 6169 7004 6164
4  6161 6166 6162 6164
4  8267 8212 7068 7069
4  7344 6590 6591 6225
4  6406 6667 6582 6225
4  6404 6406 6391 6582
4  967 780 6904 6445
4  8211 7806 6531 6528
4  8292 6677 8163 7106
4  7044 7069 6161 6905
4  8292 7935 7455 7840
4  6312 6161 7806 6530
4  7341 7935 8073 7840
4  970 935 936 6326
4  7549 6809 7857 7548
4  7944 7903 7904 7411
4  6690 6262 6171 6692
4  8186 7904 7947 7411
4  8187 7944 7904 7411
4  8005 6945 7014 7655
4  6115 7655 6117 6113
4  7902 7284 8137 7285
4  8223 6117 6945 7655
4  8004 8242 8223 7655
4  8221 8222 8057 7527
4  7525 7531 7176 7012
4  7173 7588 7177 7176
4  6240 6945 6115 7655
4  6115 7655 6114 7653
4  377 365 366 6942
4  7997 8139 7998 7376
4  8293 7933 8294 7934
4  7532 7375 7911 7533
4  7505 7520 7519 7522
4  7524 7528 8154 7529
4  6652 7934 6607 7840
4  8095 7758 8246 7755
4  8291 6654 7455 7934
4  8222 8220 7969 7527
4  7047 7911 7532 7375
4  7521 7526 7527 7529
4  961 6479 6663 6662
4  327 329 706 6664
4  7935 7934 6607 7342
4  6346 6266 6325 6349
4  7978 6339 6828 6345
4  6823 6633 6825 6819
4  6323 6267 6299 6266
4  8114 6298 6266 6349
4  706 6663 8151 6748
4  6346 6705 6266 7559
4  7932 7632 7833 7800
4  913 6166 6165 7004
4  7905 7583 7808 7580
4  7258 6577 6575 6571
4  6165 7004 6166 6164
4  7098 8035 7099 7199
4  7057 6883 6884 7059
4  7197 7198 6557 6558
4  8266 6576 6845 6578
4  7099 7874 7198 6150
4  7557 6426 7877 7199
4  6845 8135 7003 6846
4  378 6547 6109 6942
4  8145 6555 6714 6562
4  8135 7003 6846 7049
4  7920 8036 6876 6879
4  6346 7856 6705 7559
4  6876 8036 7019 6882
4  6394 7017 6609 6608
4  7875 8279 7818 8102
4  7279 7733 7281 7280
4  6609 7017 6694 6608
4  7017 6948 8183 8181
4  7017 6949 6430 8183
4  7429 7431 7696 7374
4  7371 7373 7431 7374
4  7429 7696 7697 7374
4  7718 6607 7104 7840
4  6651 6607 7718 7840
4  6222 6866 6583 6581
4  7882 7878 7879 7855
4  6821 8295 8218 7146
4  8104 6912 8079 6831
4  8257 6739 8258 7381
4  8257 7380 6129 7381
4  7853 7882 7694 7118
4  6244 6895 8077 7973
4  7144 7146 6247 8125
4  8024 7882 7878 7879
4  7108 7852 6285 7110
4  546 856 6620 6100
4  7341 6607 7935 7840
4  6651 6652 7840 7106
4  8292 7840 7455 7106
4  6324 6299 7483 7714
4  8296 7235 8028 6949
4  7839 7838 8011 7720
4  7718 7612 7719 7720
4  8292 7839 7840 7106
4  7020 7022 7023 6881
4  6375 6197 6373 6374
4  377 754 378 6547
4  7561 8035 7560 6952
4  6876 7023 6878 6877
4  6956 6292 7552 6297
4  407 6389 997 7055
4  7105 7212 8046 7102
4  7456 7065 7066 6619
4  7672 7382 7678 7384
4  7836 7837 8013 7838
4  8030 8297 7553 7552
4  8030 8012 8031 7552
4  7815 6411 6349 6793
4  7252 8132 7253 7420
4  7815 7817 6411 6793
4  7836 7415 7837 7416
4  8008 7487 7821 7822
4  7847 7184 7190 7189
4  6411 6349 6793 6414
4  6325 7762 6349 6414
4  7790 6213 6465 6207
4  6211 6213 7790 6214
4  685 686 170 6458
4  8009 7824 7252 7822
4  6986 6215 6217 6459
4  6705 6266 7559 6268
4  7283 7502 7487 7823
4  6323 6299 6325 6266
4  6298 6349 6411 6414
4  6621 6674 7495 6676
4  7495 7826 7502 7498
4  7827 7665 7825 7823
4  7475 6218 8100 7477
4  7452 7513 6908 6917
4  7575 6494 6484 6487
4  7830 7870 7872 7617
4  7883 7885 7756 7757
4  7615 8226 7869 7617
4  7758 7756 7598 7223
4  8161 7741 7602 8152
4  7870 6488 7081 6485
4  7870 7081 7617 6485
4  7085 6489 7562 6485
4  7601 7740 7222 7602
4  7796 7740 7600 7599
4  7886 7797 7215 7599
4  7598 7796 7600 7599
4  7869 6485 7562 6487
4  7885 7219 7796 7215
4  7814 7872 7870 7081
4  8226 7813 7085 7081
4  7876 8145 8174 7862
4  8190 7223 7221 7222
4  7860 8174 7862 7861
4  8174 8052 7862 7861
4  6713 7862 6639 7859
4  7088 6639 7862 7859
4  8247 7596 7590 7597
4  7603 6788 6848 6849
4  8247 8246 7596 7597
4  7912 7961 6994 6995
4  6848 8153 7889 6836
4  7190 7182 7187 7183
4  8044 6849 7226 7604
4  6908 6911 6917 6791
4  7860 7862 6713 7859
4  7282 6467 7369 6627
4  7664 7727 6467 7498
4  6525 6520 6519 6521
4  7353 7729 7358 7355
4  6463 7496 7369 7727
4  6622 8260 6612 7727
4  7499 7576 7438 7439
4  7501 7361 7492 7490
4  6612 7497 6613 7727
4  7360 7359 6520 7355
4  6622 7496 6463 7727
4  7358 6520 7359 7355
4  7283 7665 6627 7498
4  7729 7438 7439 7440
4  6524 7951 7538 7346
4  7496 7727 7497 7498
4  6315 6307 6233 6308
4  7444 7443 7439 7440
4  8068 6315 6317 6307
4  7791 7713 7564 7523
4  7557 7972 6268 8102
4  6682 6680 6185 6233
4  7147 6306 7979 6307
4  8289 7979 6682 6307
4  8289 6682 7074 6307
4  6240 6945 7014 6941
4  7571 7563 7761 7573
4  6240 6241 6945 6941
4  6546 6945 6117 6942
4  7569 7751 7210 7564
4  7917 7201 7568 7203
4  7918 7202 7208 7201
4  8005 7095 7014 6945
4  7483 7717 7482 7714
4  7763 7750 7569 7752
4  7210 7244 7204 7209
4  7698 7405 7697 7242
4  7566 7434 7573 7565
4  8001 7221 7753 7224
4  8223 6546 6945 6117
4  7596 7224 7227 7226
4  7378 6302 6282 6283
4  8042 7226 7590 6849
4  6822 6420 6248 6912
4  8042 7603 8043 7226
4  7598 7227 7223 7222
4  7797 7740 7216 7599
4  6419 6420 6415 6729
4  8101 6415 6302 6420
4  6213 6927 6208 6209
4  8124 8103 8101 6420
4  7236 7254 7255 7417
4  7821 7842 7825 7826
4  7682 7832 7185 7681
4  8008 7822 7821 7842
4  6822 8104 6420 6912
4  7821 7825 7822 7823
4  7487 6454 7824 6453
4  6202 6204 7738 7335
4  6202 6203 7738 6204
4  7473 7281 7895 7893
4  519 840 162 8065
4  7887 7611 7605 7612
4  7687 8243 8186 7239
4  7085 6489 6485 6491
4  6484 6494 6488 6485
4  7473 7895 7281 7738
4  8281 7473 7281 7738
4  7153 7156 7155 7162
4  7491 7398 7395 7393
4  8219 8100 7477 7725
4  7620 6484 7870 7617
4  7907 8281 7473 7281
4  7499 7398 7576 7232
4  7734 7738 7281 6203
4  142 8281 7734 6204
4  7802 7730 7082 7744
4  142 118 8281 6204
4  7169 7084 6489 6491
4  7082 7730 7169 7084
4  6488 6490 7083 6491
4  8281 7333 7738 6204
4  7583 6969 7582 7465
4  7959 7732 7268 7270
4  6240 7655 6115 7653
4  6893 8280 8005 7464
4  7503 6796 7013 6801
4  7774 7273 7775 7776
4  7773 7775 7924 7931
4  6833 8152 6834 6836
4  6240 7464 7014 7655
4  7654 7464 7656 7653
4  7928 7929 7773 7931
4  8005 8280 8006 7464
4  7928 7924 7925 7931
4  6893 7464 6799 6901
4  6707 7089 6929 6638
4  8128 7621 7154 7622
4  6555 6353 7090 6556
4  7927 8153 7925 8152
4  7927 7928 8127 7926
4  7485 6556 6353 6155
4  7927 8127 8180 7926
4  6105 6106 7477 7725
4  7662 8282 7666 7659
4  7001 7286 8137 6999
4  6237 7943 7658 7759
4  6237 7658 6238 6239
4  7430 6358 8015 8253
4  6238 7658 8253 6991
4  6685 6707 7041 7089
4  6490 7180 7179 7084
4  7305 8298 7086 6556
4  8292 7455 6918 7106
4  7180 7170 7160 7162
4  7546 7170 7171 7162
4  8256 8291 7454 7455
4  7396 7161 7160 7547
4  7454 6654 6655 7455
4  8291 8062 6654 6602
4  8299 8291 8256 7455
4  8128 7621 7155 7154
4  7363 7735 7737 7367
4  8023 7111 7694 7425
4  7736 7982 7218 7367
4  6989 6481 7430 6815
4  7737 7218 7214 7217
4  7737 7214 7801 7217
4  7474 7476 6319 7477
4  7982 7957 7585 7218
4  7737 7220 7218 7217
4  7835 7214 7737 7218
4  8198 7666 8201 8195
4  8253 7658 7660 6991
4  7736 7835 7737 7218
4  7430 8107 8253 7431
4  8198 8204 8202 8196
4  8013 8008 7842 7837
4  8261 6184 6186 7211
4  8110 7679 7842 7826
4  8227 7842 7841 7679
4  7841 7679 7842 7838
4  7821 7822 7825 7842
4  7502 7821 7823 7826
4  7979 7850 6680 6306
4  8261 6186 6915 7123
4  8110 7821 7502 7826
4  6915 6186 6679 7123
4  6175 6170 6181 6173
4  6362 8054 6360 6105
4  8300 7343 8251 8285
4  8299 7933 8293 7934
4  7028 6807 6180 6760
4  958 6743 8270 6170
4  6590 6668 8112 6589
4  390 8010 6603 6656
4  7344 7340 6586 6587
4  6807 6760 6746 6181
4  6859 7249 7578 7581
4  8066 8067 7983 6809
4  8066 8067 6809 6182
4  6880 6884 6877 6879
4  8285 8112 6650 6591
4  7558 7856 6880 6884
4  6390 6404 6391 6582
4  8244 6590 7344 6225
4  8244 6585 6590 6225
4  7920 7057 6883 6884
4  7920 6884 6883 6879
4  7561 7558 6885 6884
4  7560 6878 7559 6884
4  7560 6878 6265 7559
4  7214 7215 7797 7216
4  6654 6603 6656 6270
4  8190 7601 7797 7599
4  390 797 162 6270
4  407 857 7054 7056
4  8190 7601 7599 7222
4  389 8010 8290 6603
4  7886 7215 7757 7599
4  7718 7719 7836 7720
4  390 244 797 6600
4  319 6603 8290 6644
4  7933 8300 8294 7704
4  8291 8294 8062 6602
4  7598 7757 7885 7599
4  8225 8190 7886 7757
4  8225 8190 7757 7223
4  6669 6671 6898 6535
4  8229 7043 6898 6533
4  7598 7223 7599 7222
4  8063 7044 6167 6905
4  7457 7458 8064 7072
4  963 8206 6903 6899
4  7225 7222 7226 7602
4  6847 8266 6845 6578
4  848 849 422 6438
4  6891 6214 8003 6888
4  6891 6842 6461 6456
4  6672 6671 7294 6673
4  6665 6461 6842 6458
4  7789 7249 7715 7250
4  6482 6842 6875 6888
4  7003 6314 7048 7004
4  8063 6903 7044 6905
4  8206 7043 6903 6899
4  6669 6813 6671 6670
4  6311 6312 6314 6570
4  6312 6570 7806 6162
4  6529 6533 7067 6535
4  963 964 8206 6899
4  8178 7069 7068 6533
4  6679 6395 7123 6678
4  6482 6464 6214 6888
4  47 6227 6254 6458
4  6842 6254 6501 6458
4  7760 7759 8254 7408
4  6508 6679 6395 7123
4  7454 7453 6655 6654
4  7407 7401 7403 7404
4  8166 6677 8292 6918
4  8263 6974 7968 6971
4  8074 6285 7110 7408
4  7760 7108 6285 7408
4  6384 6852 6971 6387
4  8236 7403 7402 7408
4  65 826 72 6377
4  8074 6237 6285 7408
4  8146 7971 7906 7280
4  8233 8146 7554 8118
4  7247 7320 6956 8118
4  823 822 639 6201
4  823 639 826 8215
4  8233 7320 7321 8118
4  6956 7320 7552 8118
4  6845 8135 6169 7003
4  7164 6295 6287 6290
4  7543 8301 8121 7629
4  7628 6769 6661 7629
4  7051 6846 7595 6576
4  7078 6690 6367 6368
4  741 7052 6313 6314
4  7053 6165 6169 7004
4  7996 6366 6369 6371
4  7995 6366 7996 7629
4  802 6730 6437 6445
4  639 822 562 6197
4  8121 7631 6661 7629
4  8121 8301 7994 7629
4  822 7649 6205 6201
4  8012 7552 6292 6297
4  6935 6513 6383 6507
4  6989 6814 6815 6286
4  6358 6357 6815 6159
4  7430 8253 8107 6815
4  6989 6238 6815 6991
4  509 490 488 6470
4  6481 6358 7430 6815
4  8026 6935 6937 6934
4  6439 6936 8210 6513
4  6814 6481 6815 6159
4  7047 7046 7177 6599
4  7607 6936 6871 6382
4  8288 6940 7607 6383
4  6439 8210 6441 6513
4  7039 7494 8070 6933
4  1005 161 6503 6441
4  6870 6871 6936 6512
4  936 935 585 7913
4  8302 6926 6921 6922
4  8302 6927 6926 6922
4  953 6440 8069 6441
4  7039 7037 7033 6504
4  8109 7998 8302 6921
4  7670 6987 7845 7834
4  953 1007 6440 6441
4  7911 6919 7375 7046
4  7783 7787 7050 7595
4  7521 7529 7527 7535
4  7671 6987 6921 6926
4  7997 7998 8109 6921
4  457 589 590 6624
4  6750 6751 7633 6752
4  7163 6289 7157 6300
4  8150 7036 6751 6661
4  6825 6632 7035 6751
4  7633 6661 6751 7631
4  814 6782 6421 6422
4  7640 8135 7638 7049
4  7913 7519 7505 7520
4  8126 6352 7135 6154
4  7248 7735 7709 7250
4  6350 8084 6355 6156
4  6629 7262 7166 7265
4  6294 8031 8012 6297
4  7965 6401 7006 6400
4  8084 6353 6355 6156
4  6153 6152 6154 6151
4  7485 6353 8084 6156
4  8182 7017 8181 7022
4  8182 7020 7017 7022
4  6804 6171 6174 6173
4  7544 8245 6478 6190
4  42 850 41 6492
4  6478 8245 7178 6769
4  468 961 464 6479
4  8303 8296 8304 8183
4  8121 7994 7631 7629
4  8284 8183 7020 7018
4  7235 6430 6949 8183
4  8303 8304 8284 8183
4  8296 6949 7328 8183
4  8182 8183 7328 8181
4  7363 7368 7367 7366
4  7079 7081 6488 6491
4  7085 7169 6489 6491
4  6886 8003 6887 6888
4  6317 6681 7147 6308
4  7220 7080 7812 7217
4  7364 7737 7813 7366
4  7813 7801 7082 7080
4  7082 7744 7083 7080
4  7737 7801 7813 7080
4  10 6234 6640 6553
4  6653 6675 6918 7106
4  6653 6918 7455 7106
4  7532 7519 7535 7448
4  6837 7679 6674 6675
4  6837 7679 7106 7838
4  6652 7455 7840 7106
4  8261 7211 6186 7123
4  909 8305 8061 6684
4  6651 7106 7840 7838
4  6432 6434 6880 6882
4  6432 6877 7022 6881
4  6432 7018 6882 6881
4  7261 6434 7260 6761
4  8037 7260 7234 6882
4  7330 7892 7325 7893
4  7287 7907 7472 7277
4  7908 7472 7275 7277
4  6876 6881 6877 6879
4  8036 7260 8037 6882
4  8306 8297 7898 7554
4  6202 6514 6200 7554
4  7338 7336 7337 7334
4  8297 8233 7554 7552
4  8233 7554 7552 8118
4  7281 6514 6202 7554
4  7898 7892 7893 7554
4  7892 7554 8146 7280
4  7536 7700 7458 7701
4  6896 8188 8034 7701
4  7536 8188 6896 7701
4  8079 6897 7700 6831
4  8079 8032 7700 6897
4  8208 8250 8170 7352
4  8188 7427 8034 7701
4  7308 8032 7427 7701
4  8108 7650 7382 7387
4  629 287 6397 6399
4  65 6377 72 7005
4  6781 8108 7387 6963
4  8076 7387 7382 7674
4  7386 7387 8144 7674
4  6301 6293 6288 6290
4  7520 6318 7915 7914
4  8184 6960 6964 6963
4  191 6640 6641 6553
4  7053 6169 8135 7003
4  7256 7258 7051 6575
4  72 77 180 7006
4  6327 6318 8088 7012
4  8106 8105 7476 7522
4  454 458 8078 7587
4  230 72 180 7006
4  7586 6255 7965 6401
4  7626 7166 7627 7192
4  6914 6973 6393 6385
4  6914 6386 6393 7123
4  7211 6393 7077 6187
4  6392 6395 6386 6387
4  7023 7816 7815 6794
4  968 961 468 8120
4  704 131 706 6748
4  131 149 327 6664
4  7023 7815 6348 6794
4  937 8022 585 7531
4  7856 6394 6432 6877
4  6817 6818 7941 7061
4  131 706 6748 6664
4  8182 8181 7816 7022
4  6394 6432 7017 6608
4  6630 6281 6280 6277
4  569 824 501 6277
4  256 6620 7054 6540
4  6668 6589 6585 6224
4  8151 7035 6747 6748
4  6121 6120 6122 6099
4  7456 6619 7066 7143
4  6652 6270 6273 6600
4  6855 6856 6620 6100
4  8260 6465 7664 6467
4  6626 6447 7665 6627
4  546 6620 256 6619
4  176 7065 7456 6619
4  7086 6561 6636 7087
4  176 273 7065 6619
4  7471 6948 6946 6698
4  7086 6563 6561 6556
4  6948 7328 6949 8183
4  8296 6949 6946 7328
4  8269 7331 8304 7328
4  8182 7328 7323 8181
4  6200 6205 6201 6199
4  6362 7724 6105 6364
4  8297 8233 8146 7554
4  1010 832 986 6967
4  6968 6362 6360 6361
4  377 366 6944 6942
4  6360 6109 6112 6108
4  6220 6545 8223 6116
4  8100 7477 7725 7726
4  992 972 973 7844
4  7844 7670 7845 7834
4  8031 8233 7552 6297
4  6992 7925 8153 6836
4  6514 7552 7554 8118
4  8233 7552 6297 7320
4  6292 6297 6300 6290
4  8158 7705 7448 7451
4  937 583 584 7177
4  7135 6351 6785 6151
4  7692 6933 6868 7100
4  8126 8039 8307 6154
4  6455 6627 6447 6448
4  8038 6154 6152 6155
4  685 170 798 6251
4  7966 6455 6450 6448
4  992 973 346 7377
4  8126 6153 8039 6154
4  7940 8072 8071 6153
4  605 6599 6592 6594
4  8308 6740 8276 7509
4  7692 7097 6933 7100
4  7494 6932 6933 6934
4  7661 7945 7659 7663
4  7661 7662 8309 7663
4  7902 7946 7903 7663
4  8309 7667 8252 7663
4  180 78 926 6625
4  8221 7524 8220 7527
4  7788 7595 7165 6289
4  72 77 7006 6375
4  180 6624 6401 6257
4  8295 8217 8218 7146
4  7902 8137 8252 7663
4  6246 6248 6420 6912
4  8218 7977 7146 8125
4  7661 8136 7903 7663
4  6128 6122 6333 6331
4  8136 8309 8137 7663
4  412 7145 414 6125
4  6780 7145 6332 6125
4  7724 8095 7726 8096
4  8010 8065 7453 6656
4  8098 8096 7726 8099
4  8157 7522 8099 7451
4  7505 7506 8098 8099
4  7502 7821 7487 7823
4  162 797 25 6270
4  8106 7726 8162 8099
4  519 759 1029 8263
4  797 25 6270 6271
4  6655 6654 6656 6270
4  7505 7520 7522 8099
4  8098 7915 7914 8099
4  7848 6498 6890 6873
4  7505 7914 7520 8099
4  8086 6679 6953 6678
4  7979 7850 8086 6680
4  6679 7123 6953 6678
4  6229 6875 6551 6552
4  1013 8055 8305 6316
4  7211 7123 6393 6187
4  759 656 940 6642
4  474 357 993 6800
4  356 272 6800 6843
4  444 7503 357 8045
4  6186 6185 7123 6187
4  6945 6241 6943 6941
4  7504 7503 7905 6801
4  6392 7123 6395 6678
4  6828 8142 6615 6340
4  7969 7527 7529 7535
4  7969 7529 8105 7535
4  7519 7522 8158 7451
4  8105 8157 8158 7522
4  6765 7921 6337 6338
4  7532 7521 7375 7535
4  8143 7921 6765 6767
4  839 601 98 6259
4  7519 8158 7535 7448
4  6412 7563 7791 7564
4  6412 7564 7791 7713
4  7566 7569 7210 7565
4  7572 7565 7434 7568
4  7207 7209 7564 7565
4  8301 7995 7994 7629
4  468 8120 961 6479
4  7563 7572 7207 7565
4  7791 7564 7207 7209
4  7686 7687 7684 7610
4  7383 7515 8048 7677
4  7302 7685 7610 7301
4  7212 7611 7684 7213
4  6787 6145 7042 6343
4  6840 6841 8142 6768
4  8011 7837 7418 7416
4  7685 7686 7254 7416
4  468 464 6478 6479
4  7503 7583 7905 7013
4  285 272 356 6843
4  7887 7686 7611 7610
4  7887 7416 7610 7612
4  7609 7610 7612 7103
4  135 137 136 6226
4  6390 7609 7612 7103
4  8106 8157 8105 7522
4  7075 7077 6315 6684
4  8090 7848 8310 7850
4  117 6205 6204 6199
4  7074 6307 6682 6683
4  6889 8003 6886 6888
4  117 7335 6204 6205
4  8281 7473 7738 7462
4  117 7333 118 6204
4  8310 7850 7848 7849
4  7738 6204 7333 7335
4  7843 7845 6462 6215
4  521 20 6361 7008
4  687 719 686 6665
4  378 6109 6547 7008
4  754 8087 752 7008
4  752 7009 409 6363
4  8068 7147 8289 6307
4  7795 7794 7141 7042
4  6616 6344 6341 6343
4  6938 6857 6901 7138
4  6361 7008 6363 6112
4  7008 7009 6363 6112
4  6542 6544 6541 6538
4  6141 6140 6543 6538
4  6109 6111 6548 6112
4  6547 8087 7008 6548
4  409 7009 6364 6363
4  7375 7527 7376 7533
4  6293 7006 6257 6375
4  6256 6956 6292 6373
4  77 6257 7006 6375
4  6957 6956 6256 6373
4  8154 7528 8020 8021
4  7375 7525 7173 7527
4  6293 6288 6257 7006
4  7863 7781 7811 7859
4  7863 7861 8156 7781
4  8155 7861 7781 7481
4  7671 8311 6988 6926
4  7851 6612 6611 6954
4  8110 7502 7495 7826
4  8155 8171 7861 7481
4  7495 7497 7496 6613
4  7819 8171 7480 8052
4  6842 6254 6875 6552
4  6509 7497 6510 6676
4  6405 7342 6602 7704
4  7557 7555 7877 8102
4  7875 7818 8052 8102
4  8171 7820 7861 7481
4  7558 6885 6568 6763
4  65 7007 6377 7005
4  8174 8171 7819 8052
4  180 6257 6401 7006
4  180 77 6257 7006
4  6255 6257 6288 7006
4  7953 6685 6773 7954
4  6657 7028 7151 7548
4  891 6771 6776 7030
4  7953 7987 6685 7484
4  7007 6398 7965 7005
4  6658 6931 6659 6691
4  7860 6713 6706 7859
4  7811 8156 7721 7781
4  6301 7965 6288 7005
4  6657 8216 8025 7027
4  6685 6930 6687 7954
4  7506 7450 7447 7451
4  437 262 6773 6772
4  6346 6394 7856 6348
4  6774 6928 6775 6686
4  7761 6793 7748 7752
4  891 307 7954 7133
4  7289 7437 7292 7291
4  437 436 262 6772
4  7817 7749 7748 7766
4  7029 6771 6776 6772
4  6432 6434 6430 6431
4  7274 7234 6434 6430
4  8114 6348 6266 7559
4  8021 8106 8105 7476
4  6372 7614 6370 6368
4  7815 8114 6348 6349
4  6792 7765 6347 6794
4  6792 6347 7762 6793
4  6693 7070 7993 6808
4  6689 7313 6693 7317
4  601 600 6746 6259
4  6689 7315 7614 7314
4  7993 7354 7441 7442
4  6693 7993 7990 6808
4  7070 7441 7316 7317
4  6806 7993 7070 6808
4  7613 6138 6137 7078
4  7830 7617 7872 7616
4  8270 6170 6174 6496
4  7313 7989 6693 7317
4  7991 8270 6174 6496
4  7769 7279 7292 7770
4  7906 7280 7770 7278
4  7470 7287 6699 6698
4  7817 7748 6793 7766
4  7856 6432 6880 6877
4  7763 7748 6793 7752
4  8172 7070 7315 6692
4  6690 7614 6367 6368
4  7571 7573 7290 7434
4  6370 7614 7315 7314
4  494 159 155 8029
4  6372 6367 8172 7614
4  6128 6129 6131 6333
4  123 142 1011 7734
4  7750 7803 7713 6414
4  7761 7563 6412 7752
4  1002 860 214 7339
4  7751 7209 7564 7523
4  7769 7771 7975 7768
4  7771 7770 7432 7768
4  7769 7733 7772 7319
4  7771 6982 7975 7768
4  8259 6333 6128 6122
4  7435 7276 7291 7277
4  7572 7573 7434 7565
4  8286 6122 6128 6331
4  1046 244 1024 6605
4  8009 7418 7837 7417
4  7635 7238 8131 7636
4  7836 7415 8008 7837
4  24 6272 6854 6838
4  6404 6406 6405 6645
4  6830 6655 6653 6918
4  6837 6651 8013 7838
4  8011 7841 7837 7838
4  7453 7968 6655 7124
4  932 367 832 6798
4  6103 6102 6122 6101
4  6121 7143 6118 6099
4  7401 7402 7299 7515
4  7512 6118 6119 6120
4  615 6121 8286 6122
4  7401 7299 7402 7404
4  469 752 754 8087
4  878 880 943 6779
4  7915 6364 7914 6320
4  6318 7914 7530 6326
4  7530 6326 7531 7012
4  935 7531 7913 6326
4  6318 6326 7530 7012
4  106 756 108 6321
4  6430 6949 6428 6950
4  493 6950 8027 6429
4  7650 7388 7390 7385
4  8076 6781 8108 7387
4  6976 7467 6474 6475
4  7468 6476 6475 7203
4  7878 7855 6959 6961
4  8193 6976 6975 6978
4  7219 7220 7812 7217
4  7083 7179 7744 7084
4  7802 7739 7743 7742
4  7758 7598 7227 7223
4  7600 7599 7740 7222
4  377 378 365 6942
4  6949 6694 6428 6696
4  7739 8180 7743 7742
4  7802 7746 7216 7742
4  7982 7220 7957 7218
4  7797 7739 7802 7216
4  7228 7226 7222 7602
4  7600 7228 7222 7602
4  6833 7890 6834 8152
4  7750 6414 7713 7752
4  7937 8235 8074 7110
4  6984 6480 7785 6475
4  6430 6428 6608 6431
4  6697 6428 6694 6695
4  7421 7121 7424 7122
4  6609 6608 6694 6428
4  7113 7507 6786 7112
4  7690 7691 7688 7689
4  343 6428 155 6566
4  7015 6787 6860 7545
4  6536 6141 6800 6543
4  356 6843 6800 6543
4  6857 6902 6901 7138
4  6894 6536 6799 6843
4  8107 6815 8253 6991
4  7504 7905 7139 6801
4  7188 7190 7187 7183
4  8189 7962 7963 8201
4  7486 6453 7487 7420
4  6421 6423 6424 6422
4  6421 6423 6502 6424
4  946 625 6785 7939
4  7445 6564 7593 7446
4  6298 6413 6299 6414
4  7847 7680 7184 7185
4  8042 7589 6788 6849
4  6715 6717 6716 7293
4  8278 6729 6716 6718
4  7591 7592 7446 6917
4  6715 6724 8278 6718
4  7210 7204 7567 7201
4  6811 6735 6717 6734
4  7567 7565 7201 7568
4  8049 8050 7067 6673
4  8231 8050 7294 7293
4  7457 7067 7293 7072
4  7567 7204 7200 7201
4  7572 7918 7207 7565
4  6984 6480 6475 6978
4  7923 7926 7925 8152
4  8231 7294 6723 7293
4  7600 7745 7888 7740
4  7923 7924 6834 7925
4  6909 6835 6993 6853
4  7071 6727 7293 7072
4  6407 6587 6582 7104
4  8161 7927 8180 7741
4  7927 7925 7926 8152
4  7601 8161 7739 7740
4  7745 8159 7741 7742
4  6584 6225 6586 6581
4  8251 8285 7343 6591
4  6406 6591 7342 7704
4  8186 7901 7947 7904
4  7238 7904 8199 7636
4  7207 7209 7565 7201
4  754 752 378 7008
4  7682 7832 7846 7185
4  7402 7414 7412 7404
4  7944 8199 7904 7903
4  7410 7413 7411 7404
4  7944 7413 7903 7411
4  7414 8186 7947 7411
4  74 7177 7531 7176
4  7001 8136 8189 8137
4  7175 8089 7173 7176
4  7430 7371 8107 7431
4  8198 8202 7666 8195
4  7698 7429 7949 7697
4  7246 8207 8168 8170
4  7047 7588 8022 7177
4  6455 6454 7488 6449
4  74 7177 937 7531
4  346 7634 7377 7045
4  7637 7666 7373 8202
4  8306 7898 7896 7897
4  7202 7948 7243 7206
4  7047 7046 7588 7177
4  346 7045 6592 6599
4  6781 7144 6738 6332
4  6736 6103 6332 6124
4  845 7463 8281 7333
4  7144 7146 6123 6127
4  6333 6331 6102 6124
4  457 6624 7587 6401
4  7263 7900 8214 7264
4  413 414 553 6125
4  6781 7387 8144 6963
4  562 1011 81 6851
4  7247 7625 6957 6956
4  6123 6332 6127 6125
4  6482 6456 6842 6888
4  7733 7247 6851 6514
4  7898 7893 7897 7554
4  7247 6957 6851 6196
4  7769 7318 7733 7319
4  6426 6421 6782 6422
4  813 6424 6785 6422
4  7558 6568 7942 6763
4  6842 6501 6254 6552
4  506 6783 646 6410
4  766 509 488 6470
4  7099 7100 7199 6150
4  6426 7100 6148 6150
4  7986 8035 7098 7693
4  6426 7877 7199 7874
4  7136 6783 6555 6409
4  6873 6501 6874 6552
4  6450 7681 6451 6449
4  6710 6711 6702 6704
4  6891 7807 6842 6874
4  6713 6706 6639 6702
4  6782 6410 6409 6149
4  744 125 7953 7954
4  130 7953 125 7484
4  7013 6901 7464 7465
4  7583 7580 6902 7465
4  6859 7578 7580 7581
4  406 508 506 6784
4  6423 6148 7135 6424
4  7905 7808 7789 7581
4  403 6710 404 6704
4  7503 7013 7905 6801
4  7805 6859 6860 6902
4  7978 6827 8312 6345
4  6971 6972 6385 6387
4  6827 6829 8160 6345
4  8309 7662 7667 7663
4  6679 6678 6509 6511
4  7978 8312 8160 6345
4  7967 6918 6655 6916
4  8164 7794 7793 6336
4  6830 6511 6395 6916
4  6621 6509 6623 6678
4  6335 7793 6337 6336
4  6768 6342 6274 6275
4  6621 6678 6395 6511
4  6623 6392 6395 6678
4  6621 6396 6830 6395
4  8299 8293 8291 7934
4  162 6270 25 6269
4  8293 8294 8291 7934
4  7108 7852 7854 6285
4  7454 8291 6654 7455
4  317 694 991 6645
4  6679 6395 6678 6511
4  6677 6675 6918 6511
4  8166 8299 8256 7455
4  8251 7343 7344 6591
4  8117 8032 6897 8033
4  8020 7475 8021 7476
4  8077 7973 8033 7881
4  7310 7427 7308 7423
4  8095 8053 7758 7755
4  7310 7428 7427 7423
4  626 621 6408 6355
4  7119 7708 7427 7122
4  7308 8032 7708 7427
4  6339 7921 6767 6338
4  6768 6615 6340 6275
4  6766 6339 6767 6340
4  6630 6615 6768 6275
4  1035 620 626 6350
4  8142 6841 6630 6768
4  6841 6630 6768 6281
4  6512 6383 6513 6381
4  709 6281 569 6277
4  947 625 946 7939
4  709 6279 6634 6281
4  6766 6768 8142 6340
4  565 6766 566 6768
4  8210 6934 6441 6513
4  8210 6936 6935 6513
4  565 566 569 6768
4  7607 6871 7062 6382
4  7013 6240 7014 6796
4  6799 6802 6843 6797
4  6799 7014 6802 6797
4  8079 8117 8032 6897
4  474 6800 6147 6141
4  6715 8231 6724 6723
4  1017 372 373 8093
4  6145 6536 6860 6537
4  8124 7379 6820 7378
4  6716 7458 7457 6727
4  6731 7461 7295 6726
4  7958 6894 6799 6843
4  6236 6285 6286 6722
4  6906 6896 6895 6419
4  7460 6415 6417 6304
4  7380 7378 6282 6283
4  363 323 364 6334
4  8268 6843 7958 6802
4  285 8268 272 6843
4  8258 8295 6821 7381
4  6739 8295 7381 6737
4  6426 6782 7136 6149
4  285 356 8265 6843
4  7247 6956 6514 8118
4  852 6503 7032 6427
4  7247 7321 7320 8118
4  7158 7159 7626 7320
4  6563 6557 6561 6560
4  7198 6559 6558 7874
4  6713 6639 7862 6562
4  7197 6152 6153 6150
4  7165 7595 7266 7262
4  6850 8266 6847 6578
4  7247 7625 6956 7320
4  8233 6297 7158 7320
4  6850 8211 6844 7806
4  8313 7259 7423 6572
4  7158 6297 7159 7320
4  7783 7638 8135 6846
4  7787 6287 7965 6289
4  7158 7626 7321 7320
4  7788 7266 7165 7595
4  6255 7965 6401 7006
4  7624 7691 7690 7195
4  7762 7803 7750 6414
4  8014 6845 8266 6576
4  7761 6412 6411 7752
4  7762 6793 6414 7752
4  6347 6349 7762 6793
4  6346 6348 6266 6349
4  7051 7595 7586 7257
4  6325 6349 6298 6414
4  6844 6574 8266 6576
4  8313 7259 7422 7423
4  6298 6411 6413 6414
4  209 7843 6457 7834
4  60 6596 57 6251
4  6674 6830 6675 6511
4  6988 6987 6926 6212
4  6325 7803 7762 6414
4  6979 6984 6980 6978
4  8302 7699 6927 6922
4  7532 6564 7445 7652
4  8040 6981 7917 7433
4  8193 7467 6976 6978
4  6708 7651 6709 6565
4  6310 6236 6286 6722
4  8040 6982 6979 6981
4  8192 8193 6982 6981
4  8310 6890 6889 6886
4  7532 7521 8022 7588
4  6211 7790 8003 6214
4  57 6596 6595 6594
4  6987 6593 7834 7377
4  6637 6638 7859 6648
4  8292 6918 6677 7106
4  7641 6658 6657 7645
4  6647 6660 6648 7645
4  7028 7857 6659 7031
4  6657 7151 7357 7356
4  7967 6384 6386 6916
4  8165 6508 6918 6916
4  8167 8166 7454 6918
4  8234 8066 7985 6182
4  8122 8148 8147 8123
4  7151 8025 7152 7028
4  6508 6677 6918 6511
4  7357 7353 7358 7355
4  1079 8216 6712 7133
4  7983 8274 7549 7857
4  7028 6760 6180 7026
4  6657 8025 7151 7028
4  7983 7549 7984 6809
4  8016 8248 7270 8134
4  6406 6587 6591 6225
4  6856 6222 6580 6581
4  6668 6585 7066 6224
4  7764 6103 6098 6104
4  8016 7406 8248 8134
4  8076 6866 7510 7674
4  8016 7469 7406 8134
4  8248 7406 8204 8134
4  8113 8081 7060 7061
4  7760 7407 7108 7408
4  6236 6285 6237 6239
4  7805 6859 6858 6860
4  7793 6544 6337 6145
4  7015 8191 7016 7545
4  6539 6541 6544 6538
4  710 131 6747 6634
4  8113 6824 6817 7061
4  8074 6236 7125 6285
4  7805 7905 7789 7581
4  8081 7061 6614 6615
4  7831 7365 7799 7800
4  7805 6859 6902 7581
4  7792 8191 6858 7545
4  6693 7989 7441 7317
4  7125 6285 6236 6722
4  8074 7110 8236 7408
4  7760 7108 6284 6285
4  7809 8172 6372 6367
4  7628 6769 6770 6505
4  7311 7618 6486 7314
4  6770 6366 7629 6371
4  119 7334 7333 7335
4  7542 7240 8245 6188
4  7473 7332 7895 7462
4  7895 6202 7281 7738
4  117 7333 6204 7335
4  8255 7648 7335 6205
4  7995 6369 7996 6366
4  7336 7648 6202 7335
4  6484 6488 7870 6485
4  7211 6914 6393 7123
4  6384 6386 6395 6387
4  8079 6912 6897 6831
4  602 364 1017 7459
4  6822 7974 8079 6912
4  7537 6896 6906 6416
4  8261 6914 7211 7123
4  6384 6971 6385 6387
4  7945 7667 7659 7663
4  8119 8125 6964 6961
4  8024 8125 7879 6961
4  7974 8117 8079 7973
4  7057 6952 7986 6380
4  7057 7058 8130 7059
4  6392 6386 6395 7123
4  7261 7260 8238 6761
4  6878 6877 7559 6884
4  6913 6915 8165 6916
4  6314 6730 7048 7004
4  7856 6877 6880 6884
4  966 6165 913 6166
4  7558 6705 7856 7559
4  7003 6162 7004 6164
4  8188 7308 7427 7701
4  6579 7308 7309 6572
4  8063 6167 6166 6905
4  6168 6163 6161 7806
4  7628 6661 7631 7629
4  7833 7628 7633 7632
4  7960 6371 6770 7630
4  7457 7293 6727 7072
4  7258 6575 6572 6571
4  7293 7072 7067 6443
4  7003 6570 6163 6578
4  7688 6975 7148 6977
4  7707 6777 7628 6505
4  7829 7632 7630 7800
4  7310 7423 7308 6572
4  6574 7899 7266 7257
4  7932 7960 6770 7630
4  60 798 987 6252
4  6621 7495 6622 6613
4  7613 6690 7078 6368
4  6622 6613 7496 7727
4  7829 7630 8018 7616
4  6510 7497 8227 6676
4  6265 7559 6266 6268
4  7896 7330 7329 7894
4  7670 7671 7845 6987
4  7497 7664 7827 7498
4  6887 8260 6875 6464
4  6213 8094 6465 6207
4  987 798 170 6252
4  7557 7555 6268 7556
4  6325 6299 6298 6266
4  7956 8225 7757 7955
4  7141 7792 6857 7042
4  6939 6859 7578 7580
4  7248 7789 7735 7250
4  8114 6267 6265 6266
4  7363 7737 7364 7366
4  7808 7735 7789 7579
4  7737 7366 7220 7080
4  7883 8058 7957 7884
4  7972 7804 6268 8102
4  7583 6969 7584 7582
4  7598 7885 7796 7599
4  7557 6268 7555 8102
4  6705 6323 6266 6268
4  7972 7804 6323 6268
4  7736 7585 7835 7218
4  7549 7857 6660 7548
4  7268 8203 8133 8134
4  7489 7490 7361 7355
4  7641 6657 7357 7645
4  7974 8218 7880 7977
4  7116 7879 7936 7855
4  8203 8133 8204 8196
4  6779 6855 8075 6098
4  8218 7146 8217 8125
4  7694 6720 7118 6759
4  7389 7402 8236 7403
4  6222 7054 6620 6223
4  6867 6222 7132 6620
4  8117 6897 7973 8033
4  7402 7408 7403 7404
4  7117 7125 6721 6720
4  7690 7688 6755 7689
4  546 7143 611 6100
4  7936 6965 6959 6961
4  8119 7936 7879 6961
4  7974 6248 8218 7977
4  8203 8204 8133 8134
4  7065 6540 6667 6224
4  7854 6309 6284 6722
4  6965 6960 7388 7390
4  856 8075 193 6620
4  256 193 7132 6620
4  6563 6561 6556 6560
4  8074 8236 6237 7408
4  6555 6562 6558 6560
4  7876 6559 8145 7862
4  7786 7788 7163 6289
4  7869 8226 7085 6485
4  7830 7870 7814 7872
4  8226 7872 7364 7081
4  6714 7089 6639 7087
4  7871 7960 7932 7616
4  7578 7715 7579 7581
4  6713 8145 6714 6562
4  6370 7315 7619 7314
4  7136 6555 8145 6558
4  6555 6714 6562 7087
4  327 6752 6777 6664
4  8314 8276 7512 7509
4  6824 8111 6825 6633
4  7368 7220 7982 7367
4  7813 7082 7085 6491
4  7812 7083 7744 7080
4  7814 7870 7079 7081
4  7702 8186 7414 7297
4  7182 7285 7901 7636
4  8276 6740 6333 7509
4  8131 8199 7285 7636
4  7238 7255 7239 7636
4  8308 6741 6740 7509
4  7488 7188 7832 7189
4  7764 6862 7509 7510
4  6526 7392 6527 6521
4  7512 8276 6120 7509
4  7400 8017 7541 7397
4  7360 6525 7361 6520
4  6863 6864 6862 6581
4  8172 6806 6692 6172
4  8315 8298 7485 6563
4  7171 7170 7156 7162
4  6806 6808 6172 6182
4  7361 6526 7492 6527
4  8172 6806 7070 6692
4  7570 7567 7919 7568
4  7771 7570 8192 7433
4  7570 7566 7567 7568
4  6689 6690 6692 6264
4  6411 6412 6414 7752
4  7244 7209 7245 7205
4  7202 7948 7206 6476
4  6171 6692 6172 6367
4  7409 7944 8187 7411
4  6170 6171 6692 6172
4  7773 8203 7776 7964
4  6262 6807 6170 6692
4  7415 7685 7236 7254
4  6997 6998 7284 6999
4  7266 7262 7595 7257
4  6574 7257 6576 6575
4  7414 7947 7412 7411
4  6574 7266 6576 7257
4  7256 7259 7258 6575
4  7586 7595 6289 7262
4  6835 6994 6853 6836
4  7256 7264 7259 7257
4  6788 6791 6848 6849
4  6726 6735 6732 6734
4  7537 6896 6416 6733
4  731 418 422 6955
4  422 6955 6732 6438
4  7961 7929 7930 7931
4  6997 7186 6999 7183
4  7854 6284 6285 6722
4  6956 6297 7159 6300
4  7625 6256 7166 6258
4  6624 6257 6625 6258
4  823 7649 822 6201
4  7625 6256 6957 6956
4  7943 7945 7658 7759
4  78 6957 6625 6257
4  8282 7660 8107 7431
4  826 6377 8215 6374
4  180 78 6625 6257
4  7161 7547 7270 7271
4  7758 7223 7224 7755
4  7724 8098 8001 8096
4  7180 7155 7156 7162
4  7959 8249 7547 7270
4  7153 7154 7272 7271
4  7272 7269 7268 7271
4  8000 8053 6114 7754
4  8000 6114 7955 7754
4  7153 7272 7732 7271
4  7269 8204 7776 8134
4  8054 7753 8225 7754
4  7774 7273 7924 7775
4  7758 7754 7223 7755
4  8190 7886 7757 7599
4  8190 7757 7223 7599
4  7508 6862 6865 7510
4  7211 6914 6973 6393
4  6186 7123 7211 6187
4  6913 7967 6386 6916
4  6970 6973 6974 6385
4  6966 8225 7956 7955
4  8225 7757 7955 7754
4  903 6666 6667 6646
4  6404 6406 6645 6646
4  6770 6194 6505 6189
4  8290 6650 6649 6644
4  189 6138 95 6139
4  8166 8292 8299 7455
4  7363 7735 7367 7250
4  7709 7735 7363 7250
4  8293 7933 8300 8294
4  7370 7831 7365 7799
4  7831 7872 7365 7800
4  7363 7368 7365 7250
4  7982 7715 7367 7579
4  6669 6899 6670 6535
4  802 849 6445 6438
4  6844 6163 6570 6578
4  7248 7249 7789 7250
4  7607 6382 6380 6383
4  7370 7250 7249 7129
4  7101 6390 6389 6391
4  6855 6856 6861 6581
4  7344 6587 6586 6225
4  6586 6588 6583 6225
4  8028 7235 7274 6430
4  6390 7103 7605 6588
4  8284 7235 8183 7018
4  6885 6762 6761 6568
4  6685 6707 7089 6929
4  983 676 155 6436
4  8273 7261 6569 6435
4  6713 8145 6701 6703
4  6636 7088 6639 7087
4  6376 7553 7648 6200
4  6713 6703 6701 6702
4  7306 7089 6636 6929
4  7471 7332 6946 7324
4  6714 6711 6703 6702
4  8306 7898 7897 7554
4  329 9 0 6506
4  611 612 880 6101
4  7986 8288 7058 6380
4  189 6194 6137 6139
4  6506 6505 6770 6194
4  7692 6932 8288 6379
4  488 6763 6568 6567
4  8272 8238 8237 6762
4  6425 6421 6378 6472
4  8130 7063 7064 7059
4  6194 6192 6189 6193
4  0 6505 6192 6662
4  7932 7628 6770 6505
4  7058 7606 7062 6380
4  189 6194 6195 6193
4  170 6254 6250 6458
4  7096 6802 7095 6941
4  367 6802 7096 6941
4  7848 6681 6873 6306
4  6463 6253 6254 6483
4  357 8045 7503 6796
4  932 832 8045 6796
4  46 8138 47 6551
4  6643 6229 6623 6551
4  125 403 258 7040
4  686 6501 720 6227
4  135 6235 137 6226
4  7941 7061 6631 7016
4  7303 7988 7987 6685
4  8111 6632 6633 6634
4  880 6104 6098 6101
4  6841 8111 6630 6634
4  7941 6614 7061 7016
4  620 621 626 6355
4  6824 6630 6633 7061
4  6832 7060 8081 6615
4  6832 6828 7060 6615
4  6701 6710 6702 6704
4  8123 7858 8274 6928
4  8142 6768 6615 6340
4  125 307 403 7040
4  6339 6828 6345 6341
4  6906 6305 6416 6245
4  6415 6417 6304 6303
4  541 364 6417 6334
4  6896 6728 6419 6416
4  7951 7352 8250 7539
4  7538 7346 7951 7539
4  8017 7397 8209 7539
4  7538 8209 7397 7539
4  366 365 367 6941
4  6240 7014 6796 6941
4  1023 7096 367 6802
4  8182 8304 7323 7328
4  1002 695 701 7669
4  7952 8208 7352 7539
4  344 6609 6697 6428
4  7541 7397 8017 7539
4  6629 6255 7267 6401
4  6234 6235 6316 6233
4  6229 6231 6873 6228
4  6953 6234 6231 6230
4  6508 6395 6386 7123
4  710 709 131 6634
4  8086 6953 6679 6185
4  7849 6954 6680 6231
4  7850 7849 7851 6680
4  7147 6306 6307 6308
4  8305 6315 6684 6316
4  6886 6874 6887 7849
4  6405 6602 6607 6604
4  6392 6393 6641 6387
4  6622 6612 6875 6613
4  711 999 712 6643
4  6315 6684 6233 6683
4  711 6396 6643 6642
4  154 327 149 7706
4  893 8055 1014 6316
4  46 136 999 6643
4  7633 6751 6661 6777
4  6750 6635 6632 6749
4  131 149 6664 6749
4  8305 6315 7077 6684
4  720 6501 6500 6499
4  6890 6498 7807 6873
4  46 6643 8138 6551
4  7706 7633 6777 6752
4  646 6783 6782 6410
4  6154 6156 6351 6151
4  7511 6863 6865 6862
4  130 258 672 8177
4  6409 6410 6408 6354
4  645 646 6782 6410
4  759 656 6642 6852
4  6636 6638 7089 6639
4  6392 6642 6641 6553
4  656 6854 711 6396
4  7024 7066 6585 6856
4  7485 8298 7305 6556
4  8262 6130 8092 6329
4  8103 6820 6822 6420
4  7941 7128 8191 7016
4  7015 8191 7128 7016
4  735 332 363 6906
4  6728 6419 6729 6831
4  7941 6818 7128 7127
4  7126 6631 6635 6554
4  7521 7526 7525 7527
4  7913 7520 7914 7530
4  6715 8278 6716 6718
4  6333 6122 6103 6102
4  6728 6727 6831 6718
4  8022 7588 7530 7531
4  8022 7588 7521 7530
4  538 683 541 6735
4  7525 7526 7531 7012
4  6778 6244 6247 6243
4  363 6906 323 6416
4  756 7531 6326 7012
4  323 6416 6906 6305
4  7521 7520 7529 7522
4  8022 7521 7519 7530
4  7519 7521 7520 7530
4  119 6700 7333 7334
4  6778 6907 6244 6243
4  832 521 986 6241
4  7287 6699 6698 7462
4  8059 7024 6585 6861
4  7287 7471 7473 7462
4  7895 7738 7462 7333
4  365 832 367 6941
4  6945 6241 6117 6943
4  6629 6624 6625 6258
4  469 7011 108 6322
4  7634 7172 7377 7045
4  7375 7046 7173 7588
4  365 521 832 6943
4  365 6943 832 6941
4  7047 7046 7375 7588
4  8215 6291 6376 6374
4  366 367 7096 6941
4  7375 7525 7521 7588
4  7532 7375 7521 7588
4  7526 7530 7588 7531
4  7913 8022 7530 7531
4  6294 7164 6296 6295
4  6376 6200 6201 6374
4  413 553 665 6102
4  808 807 6699 6700
4  6697 6694 6948 6698
4  6719 6309 7854 6722
4  6948 6694 6949 6696
4  701 6695 6700 6696
4  7668 6949 6950 6947
4  6697 6694 6698 6695
4  701 6428 6695 6696
4  723 488 7021 6568
4  983 6567 723 6436
4  6762 6761 6568 6567
4  6787 6616 7545 6618
4  569 6281 6768 6277
4  565 567 566 6766
4  6247 6248 6244 7977
4  8034 7426 8077 8033
4  6895 6896 8034 6897
4  8115 7881 7882 7879
4  8295 8217 7146 6737
4  6813 6810 6670 6812
4  6822 6420 6283 6248
4  983 6569 766 6567
4  8314 8308 8276 7509
4  7558 6885 6880 6568
4  7021 6880 6433 6568
4  335 413 374 6330
4  374 6329 8092 6132
4  8290 8010 8062 6603
4  741 742 6313 8078
4  6652 6602 6270 6600
4  454 457 6402 6399
4  301 7049 287 7048
4  8078 6402 7051 7052
4  6649 6650 8112 6406
4  741 454 742 8078
4  848 775 7073 6670
4  418 6733 6732 6955
4  8143 6339 7921 6767
4  6766 8142 6339 6340
4  574 905 6765 6767
4  8312 6827 8160 6345
4  749 569 709 6281
4  710 749 709 6839
4  541 6732 418 6418
4  6813 7167 6810 6812
4  779 780 7073 6904
4  6630 6614 6615 6275
4  780 6442 849 7073
4  6795 6278 7126 6554
4  131 709 149 6279
4  7543 7995 8301 7629
4  848 6670 7073 6812
4  888 6669 775 6670
4  888 775 848 6670
4  6115 6361 6241 6242
4  8054 6360 6107 6114
4  6109 6117 6361 6943
4  6109 6117 6943 6942
4  6804 7809 7647 6172
4  7992 7810 7647 7809
4  6240 6796 6241 6941
4  7992 7809 6804 6805
4  832 6941 6241 6798
4  6690 6816 6171 6493
4  41 6492 850 6195
4  7240 7810 8176 6365
4  8185 8313 7256 7259
4  8185 7422 7264 7867
4  6689 6692 6690 7614
4  6805 6806 8172 6172
4  7141 7794 7792 7042
4  6938 7141 6857 7138
4  932 272 367 6798
4  7899 7259 7264 7257
4  8313 7310 7258 6572
4  357 6796 7503 6801
4  8313 7423 7310 6572
4  285 8265 8268 6843
4  7899 6579 7259 6575
4  8068 8316 7074 6307
4  6579 7259 6575 6572
4  7256 8313 7258 7259
4  155 6428 6429 6431
4  155 676 6566 6436
4  7147 6681 6306 6308
4  6394 6610 6432 6608
4  6394 7765 7017 7022
4  7765 7017 6948 6694
4  940 6642 712 6553
4  7017 6430 6694 6608
4  6610 6433 6432 6608
4  6873 6231 6232 6228
4  135 136 6227 6226
4  6394 7017 6432 7022
4  7795 7141 6539 7042
4  6781 6736 6738 7510
4  6130 6131 6282 6329
4  612 6099 6122 6101
4  972 209 973 7834
4  6886 7851 7850 7849
4  8276 6333 6120 7509
4  6123 6736 6333 6740
4  6128 6131 6130 6331
4  6129 7380 6131 7381
4  8276 6129 6333 6740
4  6463 6467 6468 6207
4  7671 6988 7845 6987
4  155 6429 6435 6431
4  73 756 6327 7012
4  108 970 409 6320
4  155 6566 6428 6431
4  8027 7274 8029 6429
4  6432 6430 7017 6608
4  6327 6318 7012 6321
4  7524 7525 8088 7526
4  936 935 7913 6326
4  8028 7235 6430 6949
4  7506 8247 7597 8096
4  8028 6950 6430 6429
4  7002 7631 8082 7632
4  7015 6860 7805 7251
4  7002 7131 6818 7127
4  8148 8274 8149 6928
4  544 6542 6543 6140
4  7015 6795 7805 6147
4  7303 7988 6685 6686
4  7128 6858 8191 7251
4  6857 7792 6858 6860
4  7793 7794 7042 6336
4  8149 8274 7031 6928
4  7805 7504 7905 7139
4  6278 7061 6614 7016
4  7015 7805 7126 7251
4  6858 6860 7545 7251
4  6857 6860 6902 7138
4  8147 8123 8148 6928
4  569 566 825 6274
4  6828 8142 7060 6615
4  7858 6928 6929 6691
4  6931 6775 6659 6928
4  7558 7559 6884 7556
4  489 490 988 6472
4  7856 7021 6880 6433
4  7549 6928 7858 6660
4  7920 8130 8036 6883
4  7615 7869 7311 6486
4  7869 7617 8226 6485
4  7549 7857 6928 6660
4  684 6170 8270 6496
4  7871 8226 7615 7617
4  961 8120 6663 6479
4  7814 7079 7220 7366
4  7871 7798 7364 7872
4  893 192 881 6316
4  893 1013 192 6316
4  6232 6233 6235 6228
4  7960 7613 6371 7618
4  6770 6366 6769 7629
4  7620 7617 7616 7618
4  7960 7613 6137 7078
4  7989 7353 7990 7442
4  8055 7980 6317 6316
4  7354 7359 7360 7355
4  192 8305 6684 6316
4  7354 7360 7443 7355
4  8056 8052 7820 7861
4  7863 8156 7811 7781
4  8145 6555 6783 6703
4  6783 6703 6555 6409
4  7951 7346 7352 7539
4  508 6701 6783 6784
4  406 6701 6784 6704
4  7907 7279 7281 7278
4  6703 7134 6784 6704
4  6956 6297 7552 7320
4  7749 7571 7761 7748
4  7281 7893 7472 7278
4  7023 6348 7022 6794
4  7163 6289 6300 6290
4  7163 6287 6289 6290
4  7292 7437 7771 7291
4  7747 7289 7287 7288
4  7769 7292 7771 7770
4  8040 6982 6981 7433
4  7733 6851 7734 6203
4  7918 7201 7565 7568
4  7832 7189 7185 7681
4  6287 6301 7965 6288
4  6295 6297 6291 6290
4  6452 7847 7190 7189
4  8132 6453 7187 7420
4  546 256 273 6619
4  6923 6920 6924 6628
4  7847 7681 7189 6449
4  7190 7184 7182 7183
4  6708 6565 6451 6628
4  8276 6333 8259 6120
4  8094 7873 6466 7970
4  6319 6364 7009 6112
4  8246 7224 7597 8096
4  7724 7915 8098 7726
4  6788 6790 6848 6791
4  6545 6221 6111 6116
4  8042 6788 7603 6849
4  7682 7551 6789 6911
4  6968 6361 6360 6242
4  8054 6107 7725 7754
4  7724 8095 7725 7726
4  6319 6105 6111 7477
4  8095 7725 8053 7755
4  7902 7284 6998 8137
4  7753 8190 8225 7223
4  7593 6789 7589 6917
4  7284 6998 8137 6999
4  8136 8309 8189 8137
4  6754 6755 6756 7689
4  7965 6400 6398 6399
4  8060 7111 7421 7424
4  7165 7627 7157 7166
4  7690 8060 7867 6755
4  6845 7003 6163 6578
4  8060 7507 7111 7424
4  8313 7258 7259 6572
4  8189 8309 8252 8137
4  8189 8252 6998 8137
4  8190 7797 7886 7599
4  8136 8137 7902 7663
4  6545 6111 6110 6116
4  7956 8225 7886 7757
4  7001 7286 8136 8137
4  7796 7216 7740 7599
4  6632 6748 6751 6749
4  8225 7223 7757 7754
4  990 546 176 7456
4  149 6279 6635 6749
4  149 6635 6279 6554
4  7835 7957 7585 7884
4  6617 6275 6618 6276
4  7695 6750 6752 6635
4  7945 7946 7667 7663
4  8236 7943 6237 7408
4  6958 7107 7109 6959
4  913 6166 6730 6445
4  780 802 849 6445
4  7650 6960 7388 7387
4  6904 6905 6530 6534
4  848 422 6812 6438
4  6903 6905 6904 6534
4  8235 6959 7390 7110
4  6238 6358 6357 6815
4  6976 6158 7148 6480
4  6730 6445 6166 6162
4  7322 7193 6179 7319
4  7318 7623 7247 7193
4  7322 7191 6179 7193
4  7760 6990 8254 7759
4  7322 6179 7768 7319
4  7107 7854 7108 7852
4  6989 6815 6238 6286
4  7772 7322 7767 7768
4  7976 6178 6179 6982
4  7975 7976 6179 6982
4  6481 6358 6815 6159
4  7108 7854 6284 6285
4  7407 7408 8254 7404
4  7760 6284 6989 6239
4  8166 8292 7455 6918
4  7407 8254 7401 7404
4  6655 7124 6852 6269
4  6309 6814 6284 6286
4  7877 7555 7874 8102
4  162 6852 7124 6269
4  6653 6273 6652 6270
4  6992 6994 7925 6836
4  8153 7929 7928 7925
4  7928 7925 7924 7926
4  7000 7286 7001 6999
4  6652 7455 7934 7840
4  6654 6602 6603 6270
4  7682 7681 7185 7592
4  7775 7776 8198 7964
4  8166 7455 7454 6918
4  8291 8294 6602 7934
4  6655 6270 7124 6269
4  6993 6996 6998 6995
4  7975 6982 6179 7768
4  7410 8254 7413 7404
4  7432 7767 6982 7768
4  8136 7902 7285 7903
4  7771 8192 7975 6982
4  7412 7947 7413 7411
4  6176 6178 6979 6982
4  7911 6919 6920 7533
4  8040 6979 6980 6981
4  7945 7667 7660 7659
4  8189 8309 8200 8201
4  7412 7946 7945 7413
4  7773 8197 8203 7964
4  8193 6982 6981 6978
4  7561 8035 7199 7556
4  7975 8192 8193 6982
4  7773 7962 8197 7964
4  7976 8193 6178 6982
4  7178 6661 6663 6479
4  6992 7929 8153 7925
4  7773 7929 7962 7931
4  7628 7629 7631 7630
4  7833 7706 7633 6777
4  7961 7930 7929 6994
4  7961 7963 7962 7931
4  327 758 329 7707
4  6753 6756 6755 7112
4  7624 7195 7265 7192
4  7196 6177 7689 6178
4  7157 7159 6297 6300
4  6123 6740 7381 6737
4  6136 6123 7381 7146
4  180 926 6624 6625
4  457 590 458 7587
4  7508 8144 8097 7510
4  8295 6741 8217 6737
4  8217 6738 8097 6963
4  6736 6738 6740 6737
4  6781 6738 7144 6963
4  7626 7192 7191 7193
4  7247 7321 8118 7319
4  7553 6202 7648 6200
4  7733 7247 6514 8118
4  940 6972 6642 6641
4  645 813 6785 6422
4  6232 6231 6306 6233
4  6187 6233 6684 6683
4  881 6235 6232 6308
4  6353 6558 6149 6151
4  6878 8114 6265 7559
4  10 6234 6235 6640
4  7780 6706 6658 6648
4  125 7040 258 7484
4  7858 6929 8173 6691
4  6636 7088 6637 6639
4  344 6697 103 6428
4  6946 6948 6949 6696
4  493 6428 701 6950
4  6828 6615 6829 6341
4  7115 7425 7118 6759
4  7120 7115 7137 6759
4  7119 8019 7120 7425
4  6630 6768 6281 6277
4  7015 7128 7126 7016
4  6278 6631 6630 7061
4  8160 7922 6335 6345
4  1020 998 7891 6140
4  998 658 825 6143
4  7782 7788 7786 7787
4  7782 7784 7788 7595
4  6850 6847 6168 6163
4  8317 8179 6850 7806
4  7426 7425 7119 7122
4  7115 7425 8019 7118
4  7426 7111 8023 7425
4  7256 7586 7051 6402
4  454 457 7587 6402
4  287 6403 6397 6399
4  7050 6397 6403 6399
4  7256 7051 8078 6402
4  454 457 458 7587
4  7765 6948 6697 6694
4  6434 6433 6436 6431
4  7856 6432 6610 6433
4  8182 7017 7020 8183
4  6876 8036 6882 6879
4  7144 8217 6738 6737
4  7227 7223 7222 7224
4  8295 7146 7381 6737
4  756 74 935 7531
4  6103 6104 6102 6101
4  7528 6318 7474 7476
4  20 22 6362 6363
4  8219 8095 8100 7725
4  6821 7381 8295 7146
4  409 971 22 7010
4  6136 7381 6282 6283
4  8190 7599 7223 7222
4  7140 8271 6892 6938
4  6541 6537 6536 6538
4  272 6802 367 6798
4  8004 8223 8005 7655
4  7013 6801 6796 6797
4  6736 7764 7509 7510
4  6136 6282 6131 6126
4  6119 6098 6120 6099
4  880 943 6779 6104
4  7508 6738 7509 7510
4  6736 7509 6740 6738
4  553 943 880 6104
4  7039 7033 6934 6504
4  626 6408 506 6410
4  6352 7135 6154 6351
4  8310 6886 7850 7849
4  6323 6267 6266 6268
4  8068 8289 8316 6307
4  719 720 686 6501
4  6460 6462 6461 6459
4  6426 7136 7874 6150
4  6497 6498 6681 6232
4  7849 6680 6306 6231
4  6423 7135 7038 6424
4  6213 6927 8094 6208
4  6891 6456 6986 6214
4  7033 6441 6934 6504
4  625 8239 6351 7939
4  7078 6367 6690 6191
4  6891 7807 6461 6842
4  6372 6367 7614 6368
4  7647 6171 6172 6367
4  7848 6873 6890 7849
4  7984 6808 6809 7149
4  6693 6692 6262 6264
4  8245 7543 6769 6188
4  8277 8124 8103 8101
4  7910 7534 7909 7533
4  6372 8172 7315 7614
4  7561 6884 7560 7556
4  7062 6382 8237 6951
4  6690 6171 6262 6493
4  7969 8158 7534 7535
4  98 6139 97 6264
4  6690 6262 6264 6493
4  6944 7096 7095 6941
4  323 335 372 6134
4  8045 6240 6796 6241
4  7532 7911 6564 7652
4  6821 8218 7974 6248
4  272 6843 8268 6802
4  8045 6240 7583 6796
4  7013 7464 6240 7465
4  7013 6799 7464 6901
4  7807 6842 6874 6501
4  6482 6250 6254 6458
4  7984 6809 7548 7149
4  272 357 6797 6798
4  7777 7548 7550 7356
4  6919 7376 6920 7533
4  7354 7778 7359 7356
4  7997 8139 8109 7998
4  7671 8109 8302 6921
4  8022 7177 7588 7531
4  6598 6597 6919 7046
4  7671 6921 8302 6926
4  7909 7651 6708 6628
4  6923 6925 6208 6922
4  8094 6208 6466 6207
4  7699 6920 6924 6922
4  6923 7970 6515 6628
4  6924 7873 8094 7970
4  6829 8081 8080 6614
4  7920 6878 7560 6884
4  7558 7559 7856 6884
4  6770 6366 7078 6189
4  7628 6661 6769 6505
4  6885 6762 6952 7059
4  327 7707 329 6777
4  6661 6664 6663 6662
4  464 0 189 6193
4  7932 7707 7628 6505
4  7784 7595 7783 6576
4  941 191 909 8061
4  6908 7592 6917 6911
4  6311 7258 7310 6572
4  7899 7309 7900 7259
4  6296 6300 6297 6290
4  7625 6256 6956 7159
4  7247 7625 7320 7193
4  6629 8213 7267 7265
4  7266 7899 7263 7257
4  7866 6753 6754 6755
4  8031 7552 8012 6297
4  7651 7591 6709 6565
4  7553 6202 6200 7554
4  7120 7868 7121 7424
4  8031 6296 7158 6297
4  7836 8008 8013 7837
4  6601 6651 6837 6273
4  8008 7837 7415 7417
4  8008 7419 7822 7417
4  7157 7626 7159 7166
4  6989 6286 6238 6239
4  8008 7415 7419 7417
4  6236 6238 6357 6286
4  7487 7822 7824 7823
4  8009 7825 7822 7842
4  6310 6357 6159 6286
4  6357 6815 6159 6286
4  7883 7582 8058 7884
4  6310 6236 6357 6286
4  8236 7110 7403 7408
4  7758 7756 7223 7754
4  7500 7439 7501 7232
4  7125 7852 6285 6722
4  7729 7439 7576 7490
4  7353 7442 7729 7355
4  7899 7264 7263 7257
4  7263 8214 7627 7265
4  7785 8015 6476 6477
4  6356 7785 6480 6477
4  8185 7264 7422 7259
4  7196 6754 6983 7689
4  8060 7868 7424 7422
4  7691 6975 7688 7689
4  8041 7949 7948 6476
4  7623 7691 7624 6177
4  7318 6179 7193 7319
4  7202 7466 6476 7203
4  8060 7868 7867 6755
4  7572 7918 7565 7568
4  6474 8041 6481 6477
4  7785 6476 7466 6475
4  7432 7916 7436 7434
4  7916 7434 7433 7568
4  7210 7567 7565 7201
4  8041 8015 7948 7696
4  8171 7820 8052 7861
4  6863 6584 6864 6581
4  8171 7480 7820 7481
4  7819 8171 6324 7480
4  7820 7483 7091 7480
4  7721 7781 8156 7076
4  6867 6855 7672 6866
4  7863 7820 8156 7861
4  6864 6866 6583 7673
4  8171 7479 7480 7481
4  6413 7712 7717 7714
4  6864 6583 8046 7673
4  6856 6580 6222 6224
4  8155 7722 7779 7076
4  6582 6583 6588 6225
4  6667 6589 6224 6225
4  8156 7091 7093 7481
4  7452 7590 6917 7447
4  7430 8253 7696 7431
4  7974 7880 7973 7977
4  6790 6791 6911 6853
4  7593 7682 6789 7592
4  7680 7185 7592 6911
4  7880 7881 7973 7977
4  6244 8077 8115 7973
4  7680 7592 6908 6911
4  7936 7855 7879 6961
4  8218 8217 8119 8125
4  7846 7000 7551 7186
4  7501 7492 7229 7232
4  7562 7169 7168 6489
4  6495 7229 7160 7230
4  7880 7879 7881 7977
4  7229 7396 7160 7230
4  8023 8033 8019 7881
4  8115 7879 8024 7977
4  6247 8115 8024 7977
4  8186 7239 7904 7297
4  7208 7202 7206 7201
4  7238 8199 8131 7636
4  7467 7919 7468 7203
4  7567 7200 7919 7203
4  7698 7429 7697 7374
4  8186 7239 8243 7904
4  8187 7904 7297 7411
4  7944 8136 8199 7903
4  7683 7702 7514 7298
4  7236 7254 7687 7239
4  7188 7187 7181 7183
4  7236 7238 7635 7255
4  7253 7182 8243 7636
4  8131 7285 7182 7636
4  7182 7284 7901 7285
4  7253 8243 7255 7636
4  7371 7431 7373 7666
4  7402 7299 7414 7404
4  8199 7904 7285 7636
4  7253 7187 7182 7636
4  8243 7904 7239 7636
4  8186 8243 7901 7904
4  6590 8112 6591 6589
4  7961 6996 8189 7963
4  7902 6998 8252 8137
4  7284 8137 7285 6999
4  7343 7341 7340 6587
4  7066 6856 6619 6224
4  6649 6406 6666 6646
4  8199 7285 7904 7903
4  7286 7285 8137 6999
4  7911 6923 6515 6628
4  8223 6546 6117 6116
4  7896 7898 7330 7893
4  365 6943 6941 6942
4  7785 6475 6480 6477
4  7915 6105 6319 7477
4  7208 7243 7518 7205
4  6549 6319 6111 7477
4  7200 7468 7919 7203
4  7429 7430 7696 7431
4  6218 8219 8100 7477
4  7171 7156 7153 7162
4  6546 6110 6117 6116
4  6546 6117 6109 6942
4  7362 6977 6756 6160
4  6913 8165 7967 6916
4  8261 6915 6913 6914
4  6983 7689 6977 6178
4  6976 7148 6977 6480
4  6605 6651 6601 6600
4  6602 6644 6603 6604
4  7148 6977 6480 6160
4  7036 6751 6661 7631
4  8150 6663 6751 6748
4  8151 6663 8150 6748
4  7865 7631 7002 6826
4  273 256 857 6540
4  7935 7934 7455 7840
4  8082 7631 7630 7632
4  8206 6669 6898 6899
4  7833 7633 7628 6777
4  6898 6671 6672 6535
4  7728 7633 7706 6752
4  967 802 780 6445
4  8228 8230 8287 6533
4  6974 6384 6971 6385
4  759 6642 6971 6852
4  940 6641 6642 6553
4  6317 6307 6315 6308
4  6234 6226 6235 6228
4  656 24 711 6854
4  656 711 712 6642
4  694 6645 6646 7055
4  711 6643 712 6642
4  6621 6830 6396 6838
4  759 8263 7124 6971
4  6621 6643 6854 6396
4  8316 8289 7074 6307
4  6621 6623 6643 6395
4  7211 6973 7077 6393
4  712 6642 6643 6553
4  6665 6842 7807 6501
4  6891 6874 6842 6888
4  6850 6163 6168 7806
4  923 6903 8063 6905
4  7068 7043 6533 6532
4  8212 6167 7044 6161
4  7532 7534 7652 7448
4  966 8063 6165 6166
4  6844 6576 8266 6578
4  6919 7174 6925 6921
4  6887 6214 6464 6888
4  701 6950 6428 6696
4  7733 6514 7281 7280
4  6202 6204 7335 6205
4  7435 7436 7571 7290
4  7730 7179 7156 7084
4  710 131 704 6747
4  7728 7833 7706 7633
4  6262 6170 6171 6692
4  41 7991 6492 6496
4  7809 6172 8172 6367
4  6967 6969 6240 6242
4  7654 7656 7657 7653
4  7692 7098 7097 7100
4  7692 6868 6379 7693
4  367 6802 6941 6798
4  852 161 946 7032
4  8026 7033 8210 6934
4  946 8240 7939 7034
4  161 946 7032 7034
4  8224 7656 7464 6901
4  8006 7464 7654 7655
4  7583 6240 7013 6796
4  7657 7653 7582 7955
4  7583 7013 6240 7465
4  6423 7038 6502 6424
4  8307 8039 8038 6154
4  6426 6782 6149 6422
4  6804 8234 6805 6182
4  629 230 6400 6398
4  8067 7983 6809 7031
4  6377 6301 6293 7005
4  7029 6659 7031 7026
4  8100 8095 8162 7726
4  6598 6923 7911 6919
4  73 6327 7394 7012
4  8274 7857 7031 6928
4  8149 6757 7029 7031
4  6659 6775 7031 6928
4  8149 8283 8067 7031
4  69 7394 7175 7176
4  8147 8149 6774 6928
4  6931 6775 6687 6771
4  6327 7011 6328 6321
4  409 6364 7009 6320
4  106 6327 756 6321
4  6931 6687 6930 6771
4  6658 8216 7027 6931
4  7521 7526 7520 7530
4  756 6320 108 6321
4  7027 7029 6659 6775
4  6658 6931 7027 6659
4  6657 6660 7550 7645
4  7028 6659 7857 7548
4  7549 7858 7550 6660
4  6557 6155 6558 6560
4  6359 8315 7485 6155
4  323 6907 334 6305
4  6561 7087 6556 6560
4  6563 6556 6155 6560
4  7001 6998 6996 6995
4  8315 6563 7485 6155
4  7596 7228 8044 7226
4  7506 7597 8001 8096
4  20 6362 6361 6363
4  6390 6407 6404 6582
4  8219 8053 8095 7725
4  7101 6390 6582 6588
4  7915 7726 7476 8099
4  7340 7341 7605 7104
4  521 6968 986 6242
4  7011 6322 6328 6321
4  6318 7915 6319 7476
4  7474 6318 6328 6319
4  756 970 108 6320
4  8054 6105 7724 7725
4  6969 7653 6966 7955
4  6109 6548 7008 6112
4  6622 6463 6482 6464
4  6549 6111 6218 7477
4  7824 7825 7665 7823
4  6210 6213 6211 6209
4  719 6665 6500 6501
4  409 7914 6364 6320
4  7526 6318 7520 7530
4  7169 7170 6489 7084
4  412 6778 7145 6125
4  7521 7529 7535 7522
4  7010 8140 8098 7914
4  334 6778 412 6135
4  7524 7526 7528 7529
4  8023 7425 8019 8033
4  8103 6822 8104 6420
4  8032 6897 7427 7701
4  8100 7476 7477 7726
4  7657 7582 7653 7465
4  7654 7657 8000 7653
4  6969 6966 7956 7955
4  20 409 22 6363
4  6490 6489 7170 7084
4  6969 7956 7584 7582
4  6969 6240 7653 7465
4  7010 7915 7724 6364
4  8100 8162 8106 7726
4  42 41 43 7991
4  8162 7726 8096 8099
4  7905 7013 7139 6801
4  444 357 932 8045
4  7728 7130 6750 7127
4  6827 6828 6832 6829
4  6893 7958 6799 7014
4  6892 6938 8271 6901
4  7656 7464 6901 7465
4  8271 6938 8224 6901
4  7497 7827 7826 7498
4  8227 7497 7827 7826
4  8080 8191 7792 7545
4  6339 8142 6828 6340
4  8227 7826 7679 6676
4  7978 6828 6827 6345
4  6674 7679 8110 6676
4  6621 6674 6676 6511
4  6674 6675 7679 6676
4  8012 6200 6292 7552
4  639 6375 72 6374
4  8255 7649 7648 6205
4  118 7333 8281 6204
4  6514 6200 6196 6199
4  7435 7290 7749 7288
4  6792 7748 7747 7766
4  7747 7766 7748 7288
4  6825 8111 7035 6632
4  7078 6367 6366 6368
4  7544 7542 8245 6190
4  8241 7908 7749 7288
4  7613 6689 6690 7614
4  7543 6366 7995 7629
4  7078 6690 6139 6191
4  7647 7810 7240 6367
4  8241 7326 7908 7288
4  6792 6794 6793 7766
4  7960 7615 7613 7618
4  526 850 7544 6190
4  6347 6348 6349 6794
4  7078 6367 6188 6366
4  8241 7817 7816 7766
4  8241 7816 8181 7766
4  6726 6727 6717 6734
4  7275 7276 7435 7277
4  6536 6141 6543 6538
4  6723 6811 6717 7293
4  7071 6811 6717 6734
4  6716 6729 6831 6718
4  418 6733 6416 6418
4  541 6735 683 6732
4  7805 6795 7504 6147
4  731 422 6437 6955
4  7536 7114 6727 6955
4  6716 7700 6727 6831
4  6892 6894 6541 6536
4  6145 6140 6141 6538
4  6892 6894 6536 6799
4  6536 6800 6843 6543
4  932 357 272 6798
4  7536 6727 7700 6831
4  7473 7332 7324 7893
4  7908 7435 7749 7288
4  7733 6514 6851 6203
4  8221 7524 8154 8220
4  123 6204 7734 6198
4  7473 7895 7738 7462
4  6144 6342 6146 6343
4  397 117 8255 7335
4  7281 6202 6514 6203
4  7891 6337 6544 6146
4  117 8255 7335 6205
4  7905 7013 7583 6902
4  7793 6539 6145 7042
4  8212 6168 6161 7806
4  6892 8271 6893 6901
4  356 8265 6843 6543
4  6531 7069 6532 6530
4  687 6460 6665 6458
4  8212 6161 7044 7069
4  6167 6161 6166 6905
4  8211 6531 8051 6528
4  8179 8211 7806 6531
4  6161 6166 6905 6445
4  6469 6466 7966 7970
4  8020 7474 7478 7475
4  6953 6641 6187 6233
4  6319 6322 6320 6321
4  940 191 6972 6641
4  7537 7536 6896 6733
4  7068 8212 7044 7069
4  6161 6905 7069 6530
4  7114 8064 6528 7307
4  6311 7310 7307 6572
4  6974 6386 6384 6385
4  6392 6642 6396 6387
4  8188 7310 7308 7307
4  7071 7072 7293 6443
4  7308 7423 7309 6572
4  7536 7458 7114 7307
4  6844 8211 6573 6571
4  6312 6442 6445 6530
4  923 6904 6903 6905
4  7506 7447 8247 7451
4  6709 7681 6565 7592
4  7225 8161 7601 7602
4  605 6598 6599 6594
4  7282 6466 6627 6448
4  7445 7652 7446 7448
4  7705 7590 7452 7447
4  7724 8001 7755 8096
4  8220 8021 8105 7529
4  6184 6187 7075 6683
4  7506 8042 7597 7447
4  409 7914 7010 6364
4  7989 7729 7353 7442
4  7443 7361 7501 7490
4  6392 6393 6386 7123
4  6406 6591 6587 7342
4  7729 7576 7489 7490
4  6666 6406 8112 6589
4  6526 7399 7492 7393
4  7729 7438 7576 7439
4  6524 6523 7346 6521
4  7491 6527 7492 7393
4  7065 6667 6668 6224
4  7396 8249 7547 7397
4  273 7065 6619 6540
4  7608 8048 7302 7213
4  7065 6666 6668 6667
4  7132 7101 6391 6222
4  991 1024 244 6606
4  407 7055 694 7056
4  7608 7302 7609 7213
4  407 7054 6389 7055
4  7132 6222 6391 7054
4  694 7055 6646 7056
4  7919 6981 7917 7203
4  8011 7837 7416 7720
4  8292 7839 7935 7840
4  8011 8009 7418 7837
4  7719 7685 7415 7416
4  6867 7678 7102 7673
4  7916 7917 7918 7568
4  6980 6981 6475 7203
4  7402 7943 7408 7404
4  7388 7389 8235 7390
4  7760 6285 6284 6239
4  7383 7300 8048 7515
4  7401 7403 7402 7515
4  7703 7109 7407 7403
4  7771 7437 7570 7433
4  7437 7434 7433 7291
4  8040 6980 7917 6981
4  7802 7216 7746 7217
4  7432 6982 8040 7433
4  7575 7312 7444 7439
4  7802 7743 7730 7744
4  7771 8192 6982 7433
4  7890 7923 6834 8152
4  6388 6407 7718 6606
4  7383 7703 7515 7385
4  7109 7108 7407 7110
4  317 694 6645 6646
4  6405 6607 6602 7342
4  6404 6606 6645 6604
4  7703 7407 7401 7403
4  6309 6157 6814 6159
4  7467 7468 6474 6475
4  7854 6285 7852 6722
4  6983 7362 6984 6977
4  7933 7934 7342 7704
4  6653 7455 6652 7106
4  6651 6652 6607 7840
4  6481 8041 7430 8015
4  7341 8073 7104 7840
4  7718 7840 8073 7720
4  7785 8015 7466 6476
4  7785 6358 8015 6477
4  7202 7466 7948 6476
4  935 585 7913 7531
4  7961 6996 6994 6995
4  7897 6202 7553 7554
4  7913 7530 7914 6326
4  7184 6997 7182 7183
4  7902 8252 7946 7663
4  7637 7666 8202 8195
4  8189 8200 7962 8201
4  7521 7588 7526 7530
4  8187 7944 8199 7904
4  8189 7963 8252 8201
4  8194 8201 7666 8195
4  583 7047 7177 6599
4  7696 7373 7405 7374
4  7092 7712 7351 7349
4  6237 7759 6239 7408
4  7662 8282 8194 7666
4  8189 8252 8309 8201
4  935 937 585 7531
4  756 74 7531 7012
4  8254 8318 7413 7759
4  8309 8252 7667 8201
4  8309 7662 8200 8201
4  7001 8189 6998 8137
4  6171 6492 6496 6493
4  958 6170 684 6742
4  7661 8309 8136 7663
4  7946 8252 7667 7663
4  6804 6172 6171 6173
4  6804 6803 8234 6182
4  589 926 590 6624
4  7613 6689 6138 6690
4  684 6170 6496 6261
4  6170 6807 6746 6181
4  8172 6172 6692 6367
4  8297 7554 7553 7552
4  6851 7734 6203 6198
4  562 1011 6851 6198
4  7991 7542 7544 6492
4  6180 6807 6809 6182
4  6260 6807 6760 6746
4  6260 6262 6746 6259
4  119 847 118 7333
4  6430 6949 6694 6428
4  7275 7277 7472 7278
4  7020 8183 7017 7018
4  847 7463 845 7333
4  6693 6260 6262 6807
4  6262 6261 6746 6259
4  7258 6577 7051 6575
4  6850 6844 6163 7806
4  405 404 403 6710
4  7246 8170 7518 7245
4  6167 7044 6161 6905
4  6312 7806 6570 6528
4  7114 6312 6311 6528
4  6833 6835 6909 6836
4  8211 6570 6528 6571
4  6311 6577 7258 6571
4  8211 6528 6573 6571
4  6311 6573 6528 6571
4  6388 6404 6407 6606
4  6405 6407 6607 7342
4  7343 7342 6591 7704
4  6388 6390 6404 6391
4  6404 6645 6405 6604
4  6650 8112 6406 6591
4  6650 6405 6602 7704
4  7933 7343 8300 7704
4  8300 8285 8294 7704
4  378 521 6943 7008
4  6219 8219 6218 6106
4  6545 6550 6546 6110
4  22 7010 6362 6363
4  6643 6642 6392 6553
4  7833 7707 7706 6777
4  8306 7553 8297 7554
4  6194 6189 6191 6193
4  7078 6366 6188 6189
4  1000 881 135 6232
4  7543 8176 8301 7995
4  8082 7629 7996 7630
4  6985 7865 7002 6826
4  981 6870 6439 6512
4  8121 7994 8319 7631
4  6823 6825 7864 6985
4  771 6471 6470 6869
4  8121 7036 8150 6661
4  6378 6382 6951 6473
4  6747 7035 6632 6748
4  8082 7996 7829 7630
4  7002 7828 7131 7130
4  7865 8082 7002 7631
4  7994 8082 7865 7631
4  981 771 6870 6512
4  6503 6513 6504 6381
4  6925 6921 6987 6926
4  6936 6512 6382 6383
4  8198 8195 8201 7964
4  7962 8201 8200 7964
4  7962 7963 8201 7964
4  8211 6570 7806 6528
4  7654 7655 7464 7653
4  6117 6241 6361 6943
4  7845 6988 6462 6215
4  8054 6107 6105 7725
4  6213 6207 6216 6209
4  686 47 170 6458
4  7750 7803 7711 7713
4  6969 6115 6966 7653
4  6115 6360 6117 6361
4  8228 8178 7068 6533
4  8232 7294 8050 6673
4  521 6241 6361 6242
4  6968 8054 6966 6360
4  7007 7639 7965 6398
4  8232 6672 7294 6673
4  7586 7050 7965 6289
4  946 625 813 6785
4  7586 7595 7050 6289
4  7163 6300 6296 6290
4  7135 6153 6154 6151
4  6439 6441 6512 6513
4  947 946 83 8240
4  7788 7787 7595 6289
4  7940 8126 7938 7135
4  7787 7639 7050 7965
4  7625 6256 7159 7166
4  230 180 589 7006
4  7114 8064 7072 6528
4  7791 7351 7712 7523
4  7294 6671 6810 6811
4  8145 6783 6701 6703
4  7108 7407 7110 7408
4  6658 6712 6931 6707
4  8126 7135 6153 6154
4  7702 7301 7687 7297
4  6426 6425 6148 7100
4  7135 6154 6351 6151
4  8038 8039 7197 6152
4  6657 7027 7028 6659
4  6353 6409 6408 6354
4  6512 6513 6503 6381
4  8072 7097 8039 6153
4  8038 7197 6557 6152
4  6657 6658 8216 7027
4  8123 6929 6928 6686
4  826 639 72 6374
4  741 7052 6314 7048
4  6168 6845 6169 6163
4  6658 6707 6931 6691
4  8179 8051 8211 6531
4  8317 6850 6168 7806
4  903 6540 857 7056
4  319 244 390 6600
4  6404 6646 6645 7055
4  457 7587 6402 6401
4  301 287 454 7048
4  6845 7783 8135 6846
4  8014 7783 6845 6576
4  8299 7455 7935 7934
4  6652 6654 6602 7934
4  8299 7935 7933 7934
4  6312 6730 6314 6162
4  7256 7257 7259 6575
4  8179 8211 6850 7806
4  8285 6650 8294 7704
4  8098 7506 8001 8096
4  8292 8163 7839 7106
4  6830 6918 6653 6675
4  6837 6651 7106 6273
4  7454 8291 7453 6654
4  7817 7749 7761 7748
4  7724 7726 8098 8096
4  7724 8001 7753 7755
4  7758 7224 8246 7755
4  7753 7221 8190 7223
4  8043 7226 7224 7597
4  7894 7327 7332 7324
4  7289 7574 7437 7290
4  8247 8246 7597 8096
4  7907 8281 7463 7473
4  7323 7328 7324 7326
4  8001 8043 7221 7224
4  7327 8296 7668 6946
4  7227 7224 7222 7226
4  7596 7227 7228 7226
4  8269 8304 8303 8296
4  6708 6451 7970 6628
4  6515 6565 6564 6628
4  8241 7749 7817 7766
4  7323 7325 7908 7326
4  847 808 845 7463
4  7325 7892 7275 7472
4  7470 8241 8181 7766
4  6651 7718 7836 7720
4  7684 7687 7702 7301
4  7911 6628 6564 7652
4  6708 6446 7873 6451
4  6515 7966 6451 7970
4  7534 7651 7909 7652
4  6564 6565 7446 7652
4  6924 7909 6708 6628
4  7248 7789 7249 7251
4  7709 7250 7799 7129
4  7128 7131 7129 7127
4  6369 6370 8018 6371
4  6924 6708 7970 6628
4  7178 8121 6661 6769
4  7029 6659 6775 7031
4  8082 7630 7829 7632
4  6370 8018 6371 7618
4  7152 6760 7028 7030
4  7152 7028 6760 7150
4  7871 7800 7872 7616
4  7027 6659 6931 6775
4  8018 7630 6371 7616
4  6657 7027 8025 7028
4  7028 6807 6760 7150
4  7996 8018 7829 7630
4  7984 7549 7777 7548
4  6741 7508 8097 6738
4  7984 7548 7777 7149
4  7382 7650 7385 7387
4  7721 8156 7093 7076
4  612 665 553 6102
4  8276 6128 8259 6333
4  6739 8308 6741 6740
4  7144 6738 8217 6963
4  6781 6738 8097 7510
4  6741 8097 8217 6738
4  7779 7094 7481 7076
4  8155 7779 7479 7481
4  7820 7091 8156 7481
4  7819 7480 7818 8052
4  6148 6153 6152 6150
4  7625 7624 6629 7192
4  7820 8156 7861 7481
4  7863 8056 7820 7861
4  7860 8155 7861 7781
4  7690 7688 7507 6755
4  8155 7479 8171 7481
4  6892 6901 6799 7138
4  7676 7298 7514 7515
4  8074 6237 6236 6285
4  7212 7677 7675 7102
4  8042 7590 7597 7447
4  6549 7474 6319 7477
4  6129 6131 6740 7381
4  8091 6282 6302 6132
4  8092 8091 8093 6132
4  6136 6131 6282 7381
4  6820 6420 7378 6283
4  8091 7378 6302 6282
4  7368 7982 7715 7367
4  7131 7828 7370 7799
4  6821 6283 7381 7146
4  6821 7146 8218 6248
4  363 332 323 6906
4  6939 7578 8058 7580
4  7370 7715 7249 7250
4  7789 7249 7251 7581
4  7368 7814 7220 7366
4  7735 7579 7367 7250
4  900 8286 8262 6331
4  6136 7146 6283 6248
4  6983 6178 6977 6978
4  7362 6984 6977 6480
4  8092 6329 6130 6132
4  6176 6983 6979 6178
4  7196 7689 6983 6178
4  6786 6157 6309 6758
4  8258 7381 6821 6283
4  6983 6754 6977 7689
4  7721 6522 7646 6519
4  6739 6129 6740 7381
4  7443 7361 7490 7355
4  6246 6282 6302 6283
4  6525 6524 6526 6521
4  7489 6520 7361 6527
4  7722 7642 7723 6519
4  7549 7550 7777 7548
4  372 6132 6304 6134
4  6657 6660 6659 7548
4  6494 6489 6488 6485
4  7500 7229 6495 7231
4  900 612 6122 6331
4  6130 6331 6131 6329
4  7331 7328 7327 7324
4  7330 7324 7894 7893
4  6412 7563 7564 7752
4  7563 7573 7572 7565
4  7569 7750 7751 7564
4  7750 7713 7564 7752
4  7092 7351 7950 7347
4  7414 7297 8186 7411
4  7894 7332 7336 7895
4  7296 7300 7409 7299
4  7687 7301 7239 7297
4  7383 7676 7515 7677
4  8048 7300 7298 7515
4  7702 7298 7301 7297
4  119 7338 7334 7335
4  8254 7413 7943 7759
4  7409 8187 7297 7411
4  8136 7902 7903 7663
4  860 6700 119 7334
4  6992 6994 7929 7925
4  6835 6834 7930 7925
4  6848 6992 8153 6836
4  6848 6833 6791 6836
4  7430 8253 8015 7696
4  8282 8107 7371 7431
4  7332 7462 6700 7333
4  7327 6946 7337 7332
4  7429 7372 7371 7374
4  8168 8207 7469 7406
4  7204 7209 7205 7201
4  7241 7698 7949 7697
4  8017 8016 8207 8248
4  7897 7895 7336 6202
4  8116 8170 7352 7245
4  7516 7208 7518 7205
4  7516 7245 7209 7205
4  7338 7336 7334 7335
4  6412 7791 7712 7713
4  8281 7463 7473 7462
4  8016 8207 8248 7406
4  7698 7405 8168 7406
4  7698 7406 7469 7374
4  8168 8169 8207 7406
4  7897 7895 6202 7893
4  8249 8248 7269 7270
4  6721 6310 6758 6722
4  1046 797 244 6600
4  8281 7463 7462 7333
4  318 8290 6649 6644
4  8281 7462 7738 7333
4  7287 7908 7288 7277
4  7435 7290 7288 7277
4  8010 7453 8062 6656
4  7557 7877 7555 7199
4  7557 7561 7199 7556
4  6426 7874 7199 6150
4  995 274 903 6666
4  7099 7555 7198 7874
4  6406 7342 6405 7704
4  6391 7054 6222 6223
4  7075 6315 6307 6683
4  893 1014 1013 6316
4  6425 7098 8035 7693
4  7561 8035 6425 7199
4  7555 6265 8279 6268
4  8061 7077 6973 6684
4  6184 6682 6185 6683
4  999 6553 6643 6226
4  8061 8305 7077 6684
4  7561 7560 8035 7556
4  7098 7199 7099 7100
4  7525 7526 7588 7531
4  1013 8305 192 6316
4  6873 6499 6552 6228
4  8088 7526 7525 7012
4  6830 6655 6918 6916
4  7075 7211 7077 6187
4  6976 6475 6480 6978
4  192 8305 909 6684
4  6642 6972 6971 6387
4  8154 8021 8220 7529
4  8105 7535 7529 7522
4  8220 7969 7527 7529
4  7520 6318 7529 7476
4  7520 7476 7522 8099
4  8106 7522 7476 8099
4  8193 6178 6982 6978
4  7691 7689 6177 6178
4  7196 6983 6176 6178
4  7623 7976 7691 6177
4  7691 6177 7976 6178
4  6979 6178 6983 6978
4  789 983 8273 6569
4  6979 6983 6984 6978
4  8037 7234 7019 6882
4  7064 8237 8238 6762
4  8193 6975 6178 6978
4  7866 6755 6754 7689
4  7688 6975 6977 7689
4  6984 6475 6980 6978
4  161 953 8069 6441
4  7940 7135 7038 6153
4  8288 6379 6932 6383
4  8306 7897 7553 7554
4  8288 6932 6940 6383
4  771 6870 6512 6869
4  6936 6512 6383 6513
4  509 771 490 6470
4  7986 7692 8288 6379
4  7062 6871 8237 6382
4  767 509 766 6764
4  981 952 1005 6439
4  511 6872 6870 6869
4  6439 6870 6936 6512
4  6379 6507 6383 6381
4  6423 7038 7135 6153
4  6754 7362 6977 6756
4  41 6261 6496 6493
4  8210 6935 6934 6513
4  7866 6754 7196 7689
4  600 6260 7152 6760
4  6693 7990 6260 7150
4  6975 6977 7689 6178
4  905 904 8143 6767
4  6979 6982 6178 6978
4  567 6766 8143 6767
4  8213 7690 8060 7867
4  7194 7195 6177 7192
4  7196 6177 7195 7689
4  7624 7195 8213 7265
4  567 904 905 6767
4  7624 8213 6629 7265
4  7194 8214 7195 7265
4  8214 7867 7866 7195
4  7871 7932 7798 7800
4  7830 7872 7800 7616
4  6278 7061 6630 6614
4  567 905 574 6767
4  6787 6143 6147 6142
4  7829 8018 7830 7616
4  7960 6371 7616 7618
4  74 937 935 7531
4  7828 7831 7799 7800
4  8057 7997 7173 7376
4  8021 7475 8106 7476
4  409 970 971 8140
4  7828 7632 7829 7800
4  7831 7830 7872 7800
4  7915 6105 7477 7726
4  7519 8158 7448 7451
4  7505 7519 7450 7451
4  7534 7449 7651 7652
4  7534 8158 7449 7448
4  7532 7445 7519 7448
4  7753 7221 7223 7224
4  672 258 621 8141
4  7305 7303 7041 7089
4  621 258 406 7134
4  7519 7445 7450 7448
4  7449 7705 7452 7447
4  7593 7589 7446 6917
4  7449 7591 7651 7446
4  373 8092 8093 6132
4  7445 6564 7446 7652
4  6786 7142 6758 7112
4  6778 6305 6907 6243
4  7507 6756 6786 7112
4  7688 6977 7148 6756
4  6728 6733 6726 6418
4  1017 364 372 6304
4  335 374 372 6134
4  323 6305 335 6134
4  7148 6786 6756 6160
4  6753 7142 6756 7112
4  334 6907 6778 6305
4  7379 7378 7380 6283
4  6753 7142 6754 6756
4  840 8065 8010 6656
4  6983 6754 7362 6977
4  6404 6405 6407 6604
4  8291 8062 7453 6654
4  318 319 389 8290
4  8193 6981 7467 6978
4  7728 7833 7633 7130
4  995 6666 903 6646
4  8121 8319 7036 7631
4  8082 7631 7629 7630
4  7996 6369 8018 6371
4  7996 7629 6371 7630
4  6825 6633 6632 6819
4  6582 6588 6587 6225
4  318 319 8290 6644
4  8121 7036 6661 7631
4  719 686 6665 6501
4  720 136 47 6227
4  8319 7865 7036 7631
4  7790 8260 6887 6464
4  8003 7790 6887 6214
4  629 230 589 6400
4  7640 7049 7638 6397
4  943 6780 6779 6104
4  612 553 880 6101
4  6203 6198 6204 6199
4  1011 7734 6851 6198
4  7734 6204 6203 6198
4  639 8215 6201 6374
4  8264 7640 7638 6397
4  7783 7638 6846 7050
4  7126 7016 7128 7127
4  499 7695 149 6554
4  8275 6739 6129 6740
4  6739 6741 8295 6737
4  8308 7508 6741 7509
4  658 661 6795 6147
4  6544 6140 6145 6538
4  7805 7139 6860 6147
4  8093 7460 7459 6304
4  8233 7971 8146 8118
4  6202 6204 6205 6199
4  6218 8219 7477 6106
4  986 6968 6967 6242
4  8031 7158 8233 6297
4  6967 6968 6966 6242
4  7027 7029 6771 6776
4  6745 7594 6757 6776
4  958 6743 6170 6742
4  958 684 652 6742
4  850 464 189 6193
4  6440 8026 7033 8210
4  7778 7646 7360 7359
4  596 6746 6760 6744
4  596 6760 6776 6744
4  8282 7371 8194 7666
4  8069 6440 7033 6441
4  891 6776 481 7030
4  6757 8067 6180 7031
4  6757 8067 6183 6180
4  7360 7359 7646 6520
4  7721 7093 6522 7076
4  7779 7723 6523 7076
4  1019 7594 6745 6776
4  7093 7094 6523 7076
4  7723 6523 6519 6521
4  1079 405 307 6712
4  8149 6775 6774 6928
4  6743 6183 6175 6181
4  6711 6707 6685 6930
4  6685 6707 6929 6688
4  6518 7723 6519 6521
4  7722 7076 7643 6519
4  1019 7594 6776 6772
4  6721 6720 7125 6722
4  8274 7858 7549 6928
4  7303 7089 7306 6686
4  262 436 891 6771
4  7721 7646 7643 6519
4  7642 6519 7643 7359
4  710 6839 709 6634
4  7235 7234 6430 7018
4  537 356 544 6543
4  6946 6949 6947 6696
4  7669 7668 6950 6947
4  6430 6694 6608 6428
4  8265 6542 6541 6543
4  8182 8304 7328 8183
4  7668 6946 8296 6949
4  1020 537 544 6542
4  537 6542 8265 6543
4  8271 8280 6893 8224
4  6946 6949 6948 7328
4  7287 7473 7463 7462
4  7765 6948 7017 8181
4  973 209 6593 7834
4  7471 7328 6948 7326
4  6650 6406 6405 7704
4  6988 8311 8007 6210
4  6856 6580 6861 6581
4  6984 6356 7785 6480
4  6463 6216 6482 6464
4  6855 6856 6119 6861
4  6891 6461 6986 6456
4  6463 6468 6253 6483
4  6680 6307 6306 6233
4  6105 7725 7477 7726
4  7478 6218 7475 7477
4  106 108 7011 6321
4  7528 6328 7474 6318
4  6865 6866 8047 7674
4  6855 6862 6866 6581
4  6312 6314 6570 6162
4  6106 6113 6107 6108
4  970 6326 7914 6320
4  7758 7227 8246 7224
4  7646 6522 6525 6519
4  6109 6117 6110 6108
4  986 6967 6241 6242
4  6318 7914 6326 6320
4  8000 7756 8053 7754
4  8050 7457 8051 7067
4  752 409 20 6363
4  7753 7223 8225 7754
4  7536 6728 6733 6727
4  7972 7819 6324 7804
4  6705 7972 6323 6268
4  8211 8064 6573 6528
4  7114 7458 8064 7307
4  8051 6531 7067 7072
4  7646 7643 6519 7359
4  7569 7752 7564 7573
4  6657 7645 7550 7356
4  7644 7811 7721 7643
4  6298 6413 7483 6299
4  6986 6456 6217 6214
4  7730 7744 7179 7084
4  6324 7483 6299 7804
4  7779 7348 7479 7094
4  6324 7482 7716 7714
4  8171 7479 6324 7480
4  7911 6919 6923 6920
4  7907 7472 7277 7278
4  6948 7328 8181 7326
4  7763 7569 7574 7573
4  7571 7572 7563 7573
4  8302 7998 7699 6921
4  7671 8302 8311 6926
4  7817 7761 6793 7748
4  6514 8118 7554 7280
4  8311 8302 6210 6926
4  6210 6927 6213 6209
4  7386 7676 7388 7385
4  8119 7879 8125 6961
4  8024 7878 6962 6961
4  7546 7732 7395 7547
4  6927 6208 6926 6922
4  7489 7576 7491 7490
4  7492 7399 7396 7393
4  6360 6109 6117 6361
4  7492 7230 7232 7393
4  409 6364 7010 6363
4  8005 8223 7095 6945
4  7576 7491 7490 7232
4  7499 7439 7231 7232
4  7398 7231 7230 7232
4  8223 6117 6113 6116
4  7969 7533 7527 7535
4  7572 7916 7918 7568
4  7210 7565 7209 7201
4  8041 6476 8015 6477
4  6474 6476 8041 6477
4  7526 7520 6318 7529
4  6474 7468 6476 6475
4  7528 7526 8088 6318
4  6595 6469 6925 6596
4  7546 7162 7547 7230
4  7396 8249 7161 7547
4  7161 7269 7273 7271
4  8249 7269 7161 7270
4  67 346 583 7045
4  7546 7398 7168 7230
4  7395 7230 7396 7393
4  7670 6987 7834 7377
4  7644 7721 7646 7643
4  7153 7732 7162 7271
4  7546 7395 7398 7230
4  7499 7562 7168 7231
4  7959 7547 8249 7397
4  7959 8249 8017 7397
4  7155 7162 7161 7271
4  67 7177 74 7176
4  7395 7547 7396 7230
4  74 7394 7176 7012
4  7394 8088 7176 7012
4  7588 7531 7177 7176
4  7961 8189 7962 7963
4  8309 8252 8137 7663
4  7969 8105 8158 7535
4  8189 6996 6998 8252
4  7267 7586 6255 7262
4  7532 7535 7534 7448
4  7769 7733 7279 7770
4  7907 7281 7472 7278
4  7279 7734 8281 7281
4  7961 7930 7963 7931
4  8222 7969 7910 7527
4  6725 6726 6415 6718
4  6731 7461 6726 6417
4  7459 7461 6731 6417
4  6419 6415 6420 6303
4  8121 8301 8319 7994
4  6246 6283 6420 6248
4  7461 6725 6726 6415
4  6103 6104 6332 6125
4  6138 6139 6690 6264
4  8317 6168 8212 7806
4  6804 6805 7809 6172
4  8229 6898 6672 6533
4  8287 6672 8049 6533
4  7985 6809 6806 6182
4  6807 6808 6809 6182
4  6807 6172 6692 6808
4  752 7008 8087 6322
4  6550 6111 6548 6110
4  8219 6106 6107 7725
4  8267 8179 8317 8212
4  7017 6948 6949 8183
4  7260 6761 6434 6882
4  7856 6880 6432 6433
4  8287 8232 8049 6672
4  6434 6761 6880 6882
4  7642 7359 7358 6520
4  7017 6949 6948 6694
4  493 155 343 6428
4  6378 6423 6868 6502
4  7058 8288 7606 6380
4  6382 6473 6471 6869
4  7986 6379 6380 7693
4  7920 7057 8130 6883
4  807 104 6699 6695
4  8036 6883 6882 6879
4  7261 6761 6569 6435
4  8051 7457 8064 7072
4  7536 7307 8188 7701
4  6844 6573 6579 6571
4  7064 6762 6761 7059
4  6726 6733 6727 6734
4  6716 7700 7458 6727
4  6844 6570 8211 6571
4  7536 6896 6728 6831
4  7261 6434 6761 6435
4  6465 6626 7664 6467
4  8272 8238 6762 6569
4  7845 6987 6215 7834
4  7920 6883 8036 6879
4  6249 6468 6469 6206
4  7790 6465 8260 6464
4  7064 6762 8238 6761
4  6432 6880 6434 6433
4  6885 6880 6761 6883
4  7920 6876 6878 6879
4  8318 7659 7945 7759
4  7699 7909 6924 6920
4  7790 6465 6464 6207
4  6206 6925 6926 6208
4  6206 6250 6215 6251
4  6990 8282 8318 7659
4  6825 6826 6985 6819
4  6278 6614 6616 7016
4  6750 7130 6826 7127
4  8107 8253 7660 6991
4  7864 6985 6825 6826
4  6630 6631 6633 7061
4  6832 7060 8113 8081
4  8107 7660 8253 7431
4  6890 6873 7807 6874
4  6465 6466 6626 6467
4  7658 7945 7659 7759
4  8282 8107 7660 6991
4  6469 6206 6925 6596
4  6484 7617 6486 6485
4  6989 8107 6990 6991
4  7709 7798 7833 7799
4  8018 7620 7830 7616
4  8106 7476 7726 8099
4  6870 6872 6871 6869
4  7062 6382 6951 6380
4  8162 8246 8247 8096
4  8288 6380 6379 6383
4  7033 8210 6934 6441
4  8162 8247 8157 8099
4  7524 8220 7527 7529
4  8085 7474 6328 6319
4  8043 7221 7224 7226
4  521 6362 6968 6361
4  6944 7095 6546 6945
4  6547 6550 8087 6548
4  521 21 6968 6362
4  6944 6546 6547 6942
4  7318 7976 7623 6179
4  7191 7196 6176 6177
4  6176 7767 6179 6982
4  7196 6176 6177 6178
4  8070 7494 8072 6933
4  852 946 813 6427
4  7322 7191 6176 6179
4  7571 7436 7572 7434
4  7436 7916 7572 7434
4  7692 6868 7693 7100
4  7292 7770 7276 7291
4  7571 7290 7436 7434
4  6411 6414 6793 7752
4  7091 7483 7717 7482
4  8240 7037 7938 7034
4  6425 6423 6421 6422
4  6382 6383 6512 6381
4  629 6397 8264 6398
4  7007 7639 6301 7965
4  6412 7712 6413 7713
4  6413 6414 7713 7714
4  967 6904 6905 6445
4  6997 7186 6993 6995
4  6850 6844 8266 6578
4  7685 7236 7254 7687
4  7536 7114 7458 6727
4  8131 8199 7286 7285
4  8317 8212 8179 7806
4  8008 8009 7837 7417
4  7718 8073 7104 7612
4  301 741 913 6730
4  7252 7254 7418 7417
4  7254 7253 8243 7255
4  7258 7051 6577 7052
4  7722 7723 7779 7076
4  7258 6577 6313 7052
4  8309 7667 7662 8201
4  6169 6163 7003 6164
4  7662 7659 7667 7663
4  287 454 7048 6403
4  7930 7775 7963 7931
4  6990 7659 8318 7759
4  7661 8318 7662 7659
4  7640 7053 8135 7049
4  7126 6750 6635 6631
4  7243 7405 8169 7242
4  7516 7518 7245 7205
4  7949 7948 7206 7697
4  7126 6750 7695 6635
4  7200 7204 7206 7201
4  499 6795 7695 6554
4  8282 7431 7371 7666
4  8198 7776 8204 8196
4  569 6274 824 6277
4  6630 6275 6768 6277
4  7637 8202 7373 8205
4  7698 7405 7406 7374
4  6278 6630 6280 6277
4  7698 7469 7372 7374
4  7373 8202 8204 8205
4  8166 8256 7454 7455
4  8299 8293 8256 8291
4  6278 6275 6630 6277
4  7343 6591 8285 7704
4  8299 8291 7455 7934
4  6339 6345 7921 6338
4  6818 6631 6819 7127
4  8080 7941 8191 7016
4  7933 8294 7934 7704
4  6490 6495 7180 7170
4  6490 7170 7180 7084
4  656 6396 6642 6852
4  8263 7968 7124 6971
4  8065 7968 7453 7124
4  602 541 364 6417
4  7644 7811 7643 6648
4  6495 7231 7229 7230
4  6304 6305 6334 6134
4  1017 7459 364 6304
4  7546 7168 7171 7170
4  7171 7156 7170 7084
4  7169 7171 7170 7084
4  664 374 665 6329
4  7460 8101 7461 6415
4  6495 7160 7180 7170
4  323 372 364 6334
4  7894 7324 7332 7893
4  1000 135 6497 6232
4  6637 7863 7811 7859
4  8055 6315 8305 6316
4  7339 7337 6947 7334
4  7327 8296 6946 7328
4  6687 6686 6775 6688
4  8203 8197 8198 7964
4  8304 8296 7328 8183
4  7543 8121 7178 6769
4  6751 6777 6752 6664
4  7178 6661 8150 6663
4  6750 7633 6826 7130
4  8203 8198 7776 7964
4  8303 7235 8296 8183
4  7329 7327 7894 7324
4  7932 7630 7628 7632
4  779 923 967 6904
4  775 779 7073 6534
4  7331 7330 7325 7324
4  7305 6556 7086 7089
4  8147 7988 7303 6686
4  8267 8228 8178 7068
4  6712 6707 6711 6930
4  7306 7089 6929 6686
4  6713 6639 6714 6702
4  6706 6712 6707 6702
4  8179 7806 8212 7069
4  8179 8178 8051 6531
4  8287 8229 6672 6533
4  7558 6880 6885 6884
4  6931 6928 6659 6691
4  6714 7089 6707 6639
4  789 767 766 8272
4  8288 7607 6380 6383
4  7062 8237 7064 6951
4  7561 7942 6421 6472
4  995 317 318 6649
4  6806 6809 7984 6808
4  6712 6711 6707 6702
4  6637 6639 7088 7859
4  565 569 6840 6768
4  567 566 6766 6767
4  567 8143 904 6767
4  843 6143 6795 6276
4  566 6768 6766 6342
4  566 574 825 6274
4  6658 6706 6638 6648
4  7984 6809 7549 7548
4  6970 6974 6971 6385
4  7935 6607 7934 7840
4  656 25 6838 6852
4  6622 6463 8138 6254
4  656 24 6854 6838
4  6889 6874 6891 6888
4  118 847 845 7333
4  397 8255 7338 7335
4  7471 6946 7328 7324
4  8076 7510 8144 7674
4  7469 7406 7373 7374
4  7386 8184 8144 7387
4  8047 7675 7384 7673
4  8076 7382 7672 7674
4  8146 7554 8118 7280
4  7508 6865 8144 7510
4  7928 7773 7924 7931
4  6781 6103 7764 6104
4  807 103 104 6695
4  7668 8296 8028 6949
4  8076 7672 6866 7674
4  860 807 847 6700
4  8047 6866 7673 7674
4  7856 6394 6610 6432
4  7765 6697 6609 6694
4  8076 6855 7764 7510
4  6632 6279 6634 6749
4  131 6664 6748 6749
4  709 569 501 6277
4  6632 6279 6635 6280
4  335 412 413 6135
4  6750 6819 6631 7127
4  6278 6616 6614 6275
4  8111 6633 6630 6634
4  6839 6747 8111 6634
4  6525 6519 6522 6521
4  6522 6519 6523 6521
4  7950 7346 6523 7347
4  6522 7093 6523 7076
4  7093 7950 6523 7094
4  7348 7094 7345 7347
4  6390 6407 6582 7104
4  7779 7345 7348 7094
4  8299 8292 7935 7455
4  6498 6501 6873 6499
4  7851 7849 6875 6954
4  6229 6875 6874 7849
4  6482 6875 6464 6888
4  6253 6250 6254 6483
4  6623 6229 6875 6551
4  7302 7301 7213 7298
4  6622 6875 8260 6464
4  941 191 8061 6972
4  7212 7684 7683 7213
4  6643 6226 6553 6230
4  6229 6874 6873 7849
4  7272 7268 7732 7271
4  6953 6185 6680 6233
4  8249 7161 7547 7270
4  1014 8055 1013 6316
4  8017 8016 8248 7270
4  7269 7270 8248 8134
4  6392 7123 6953 6187
4  6970 8061 6973 6972
4  909 8061 191 6684
4  6623 6392 6678 6230
4  10 192 191 6640
4  6623 6611 6509 6613
4  6915 6386 6914 7123
4  6392 6953 7123 6678
4  562 123 1011 6198
4  8086 6953 6680 6954
4  6623 6678 6611 6954
4  683 422 6732 6812
4  397 119 117 7335
4  6419 6416 6415 6303
4  6304 6303 6305 6133
4  6907 6305 6245 6243
4  8255 7648 7336 7335
4  6726 6417 6415 6418
4  988 890 6427 6471
4  6728 6415 6419 6416
4  7114 7071 6727 6955
4  7558 7856 7021 6880
4  6876 7019 7020 6881
4  541 6334 6417 6418
4  8000 6114 7653 7955
4  7295 6726 6717 6735
4  8219 6106 6113 6107
4  6906 6896 6419 6416
4  6115 6117 6360 6108
4  8053 7725 6107 7754
4  6757 6180 7029 7031
4  6716 8104 7700 6831
4  8270 6743 6175 6170
4  958 8270 684 6170
4  7536 7458 7700 6727
4  6715 6716 7457 7293
4  6880 6761 6433 6568
4  6440 6439 8210 6441
4  952 6440 1007 6441
4  6932 6934 6935 6507
4  8026 7493 7039 6934
4  8072 7692 7097 6933
4  6885 6762 6568 6763
4  8122 7303 7306 6686
4  6885 6761 6880 6568
4  8175 8084 8083 6355
4  7633 7628 6661 7631
4  6478 6769 7178 6479
4  961 6663 706 6662
4  8319 7994 7865 7631
4  7864 7036 8319 7865
4  7064 8237 6762 6951
4  7561 6425 8035 6952
4  8273 8238 8272 6569
4  1020 998 976 7891
4  6434 6433 6761 6436
4  766 6764 6470 6567
4  574 6765 976 6146
4  6247 6248 6136 6243
4  976 7891 998 6146
4  1020 6542 544 6140
4  6795 6143 6147 6618
4  998 544 658 6143
4  73 756 106 6327
4  7057 8130 6883 7059
4  7920 7560 7057 6884
4  7866 7195 7867 6755
4  8214 7264 7900 7867
4  7900 7121 7868 7422
4  7428 7421 7122 7423
4  8313 7422 7421 7423
4  7309 7121 7422 7423
4  7175 7394 8089 7176
4  7309 7121 7900 7422
4  8185 7421 8313 7422
4  7987 8083 7090 8141
4  8268 8265 6894 6843
4  130 8177 7953 7484
4  7656 7653 7464 7465
4  7805 6860 7139 6902
4  8006 7656 7654 7464
4  8223 7655 8242 6113
4  8224 6900 7656 6901
4  6889 6891 8002 8003
4  6986 6211 6217 6212
4  6555 6703 6353 6409
4  7086 7089 6556 7087
4  7594 6774 7029 6772
4  621 6355 8175 8141
4  6714 6707 6711 6702
4  6394 6347 7765 6794
4  934 343 676 6566
4  7020 7816 7023 7022
4  8018 7616 6371 7618
4  6693 6807 6262 6692
4  7311 7869 7577 6486
4  130 258 8177 7484
4  7619 7316 7575 7312
4  7664 7665 7827 7498
4  7675 7683 7676 7677
4  307 6712 6710 6711
4  8260 7664 7497 7727
4  7827 7823 7825 7826
4  6462 6986 6461 6459
4  307 6710 403 6711
4  6622 6464 8260 7727
4  7496 6613 7497 7727
4  7101 6582 6391 6222
4  8260 6465 6467 6464
4  6215 6456 6217 6459
4  7851 6887 6612 6875
4  8076 7672 6855 6866
4  6643 6622 8138 6551
4  7369 7727 7496 7498
4  8094 6466 6465 6207
4  6468 7282 6466 6467
4  7024 6119 7066 6856
4  8003 6214 6887 6888
4  8018 7620 7616 7618
4  7613 6370 6371 7618
4  7316 7312 7314 7317
4  6590 6585 6668 6589
4  6855 6119 6856 6100
4  98 6139 6264 6493
4  7647 6172 7809 6367
4  274 6666 7065 6540
4  464 6192 0 6193
4  7311 6486 7312 7314
4  6138 6137 7078 6139
4  6867 7101 6222 6583
4  6864 6583 6866 6581
4  7756 7757 7223 7754
4  7456 7066 6118 7143
4  8246 7755 7224 8096
4  8246 7227 7596 7224
4  8095 8246 8162 8096
4  7506 7597 8247 7447
4  7519 7535 8158 7522
4  7901 7284 7902 7285
4  8098 7506 8096 8099
4  7901 7902 7947 7903
4  8095 7755 8246 8096
4  7506 8247 8096 8099
4  6524 7346 7392 6521
4  7345 7952 7350 7347
4  8199 8136 7285 7903
4  7661 7945 8318 7659
4  7947 7903 7413 7411
4  7286 8136 8137 7285
4  7944 7410 7661 7413
4  7302 7296 7237 7301
4  7611 7610 7213 7103
4  7512 6118 7024 6119
4  7944 7661 8136 7903
4  6148 6153 7135 6151
4  7685 7686 7416 7610
4  6605 7718 6651 6607
4  7212 7611 7213 7103
4  8254 7408 7943 7404
4  7485 6155 6353 6156
4  8254 6990 8318 7759
4  7658 7759 7659 6991
4  6237 6239 6285 7408
4  8235 8236 8074 7110
4  7090 8141 7134 7484
4  6555 6556 7087 6560
4  6714 6639 6562 7087
4  8214 7868 7866 7867
4  7136 6409 6555 6149
4  258 7134 7040 6704
4  7194 8214 7866 7195
4  7194 7866 7196 7195
4  7974 7880 8117 7973
4  8177 8141 7987 7484
4  8145 6714 6555 6703
4  7680 6910 7185 6911
4  7590 7226 8044 6849
4  6353 6408 6409 7134
4  6238 8253 6815 6991
4  8175 6350 8084 6355
4  7760 8254 7407 7408
4  7760 6989 6990 6239
4  8041 7429 7430 7696
4  6555 7090 6353 6703
4  6559 6558 6562 6560
4  6561 6557 6559 6560
4  6474 6481 6158 6477
4  7929 6994 7930 7925
4  6997 6999 7186 6995
4  7153 8127 7774 7154
4  6993 7186 6853 6995
4  6992 7961 7929 6994
4  118 845 8281 7333
4  123 118 142 6204
4  6993 6835 6994 6853
4  7892 7472 7893 7278
4  7961 6996 7930 6994
4  7912 7001 7961 6995
4  6992 7912 6994 6853
4  687 685 6460 6458
4  142 118 845 8281
4  8218 8119 7880 7977
4  8260 6464 6467 7727
4  6249 6206 6469 6596
4  8108 6960 7387 6963
4  7339 7338 7337 7334
4  8217 6964 8119 8125
4  6781 8144 8097 6963
4  6712 8216 6931 7133
4  6781 6962 8108 6963
4  6773 6774 7594 6772
4  8184 7388 6960 7387
4  6964 6963 6960 6961
4  6962 6963 8125 6961
4  7810 7809 6365 6367
4  7647 7240 7542 6816
4  8217 8097 6964 6963
4  8024 6962 8125 6961
4  7647 7542 6174 6816
4  6804 7647 6174 6171
4  8163 6510 8227 7679
4  8242 7654 7999 6113
4  6510 8227 7679 6676
4  8013 7842 7679 7838
4  409 970 8140 7914
4  6111 6116 6106 6108
4  8163 7841 7839 7838
4  7809 6372 6365 6367
4  7240 6367 6365 6366
4  6837 8013 8110 7679
4  7240 7543 8245 6188
4  7960 7613 7078 6371
4  8110 8013 7842 7679
4  8163 6675 7679 7106
4  8227 7825 7842 7826
4  8221 8057 7524 7527
4  7524 8057 8089 7525
4  8227 7825 7841 7842
4  6621 6643 6396 6395
4  759 6971 7124 6852
4  6508 6386 6395 6916
4  7379 8258 6820 6283
4  6830 6395 6384 6916
4  6642 6641 6972 6387
4  8257 8258 7380 7381
4  7144 7146 8217 6737
4  7511 7509 7512 6862
4  6393 6385 6972 6387
4  8258 6739 8295 7381
4  6913 7967 6914 6386
4  8167 7454 7967 6918
4  7967 7454 6655 6918
4  7968 6384 6655 7124
4  7784 8266 6574 6576
4  6574 6579 7899 6575
4  7028 6808 6807 7150
4  7990 6808 7149 7150
4  7994 7996 8082 7629
4  6294 8012 6295 6297
4  7990 6808 7993 7149
4  6806 7984 7993 6808
4  8306 8030 8297 7553
4  6624 6401 6257 6258
4  7733 7772 7280 7770
4  7281 6514 7554 7280
4  8234 7985 6805 6182
4  7733 7318 7247 7319
4  6693 6260 6807 7150
4  7733 7247 8118 7319
4  7729 7439 7443 7440
4  7613 6370 7618 7314
4  8172 6692 7315 7614
4  7441 7354 7443 7442
4  7650 7390 7703 7385
4  364 7459 6417 6304
4  7459 7460 7461 6417
4  7703 7401 7300 7515
4  602 6731 541 6417
4  6425 7098 7693 7100
4  7057 8035 7986 6952
4  7889 8152 7602 7604
4  8153 7925 8152 6836
4  6378 6380 6379 7693
4  6848 7604 6833 6836
4  8161 7889 7927 8152
4  8168 8207 8169 8170
4  7710 7352 7517 7245
4  7210 7751 7244 7209
4  7567 7568 7201 7203
4  7986 7692 6379 7693
4  6425 8035 7098 7199
4  7541 8208 7952 7539
4  7244 7710 7245 7523
4  7246 7245 7518 7205
4  7057 7560 6952 6884
4  7208 7206 7205 7201
4  6423 6868 6933 7100
4  6623 6875 6954 6613
4  8017 8207 8209 8248
4  7246 7205 7518 7242
4  7518 7243 8169 7242
4  940 656 712 6642
4  7517 8208 7246 8170
4  6392 6641 6953 6230
4  8207 8169 8248 7406
4  6234 6316 6684 6233
4  8203 7776 8204 8134
4  7469 7406 8204 8205
4  7167 7295 6810 6735
4  7959 8017 8249 7270
4  8207 8169 8209 8248
4  664 8092 374 6329
4  6508 6679 6509 6511
4  900 665 612 6331
4  940 712 191 6553
4  10 191 712 6553
4  323 334 335 6305
4  6302 6304 6132 6133
4  6392 6953 6678 6230
4  711 6854 6643 6396
4  7532 7519 8022 7521
4  7524 8154 8220 7529
4  7808 7580 7579 7581
4  67 937 74 7177
4  73 7394 74 7012
4  8263 6970 6974 6971
4  756 7012 6326 6321
4  8222 7910 7998 7376
4  8088 6318 7526 7012
4  7379 7380 8258 6283
4  735 363 418 6416
4  8258 6821 6820 6283
4  6327 6328 8088 6318
4  8093 8091 6304 6132
4  422 418 6732 6955
4  8091 7378 7460 6302
4  968 8151 706 6663
4  7633 6751 6777 6752
4  273 857 903 6540
4  7132 6391 6389 7054
4  8285 6591 6650 7704
4  961 329 0 6662
4  968 706 961 6663
4  7986 8288 6380 6379
4  7607 6936 6382 6383
4  6872 8272 8237 6764
4  7400 7395 7397 7393
4  983 8273 6569 6435
4  767 766 8272 6764
4  7696 7431 7373 7374
4  7400 7395 7959 7397
4  8208 8017 8209 7539
4  7023 7022 6348 6877
4  7399 7538 8209 7397
4  8206 6898 8229 7043
4  7396 7399 7397 7393
4  7400 7959 8017 7397
4  7399 8209 8249 7397
4  589 180 6624 6401
4  6255 6288 7965 7006
4  7625 6629 6625 6258
4  7625 7159 6956 7320
4  7163 7157 6296 6300
4  7787 6287 7639 7965
4  7157 7626 7158 7159
4  962 964 963 6899
4  779 963 923 6903
4  7194 7265 7195 7192
4  7627 7166 7265 7192
4  7165 7627 7166 7262
4  7057 7986 7058 6380
4  7982 7220 7218 7367
4  8130 7063 8129 7064
4  8036 8129 7260 6883
4  7057 6952 6951 7059
4  7882 7879 7118 7855
4  7937 8074 7852 7110
4  8130 7064 6883 7059
4  7108 7110 6285 7408
4  7107 7109 6959 7110
4  6965 7388 8235 7390
4  7936 7937 7117 7855
4  7107 7855 7852 6959
4  615 6122 612 6099
4  7936 6965 7937 6959
4  7878 6959 6958 6961
4  7337 6946 6947 7334
4  7734 8281 7281 7738
4  7734 8281 7738 6204
4  808 6699 7463 6700
4  999 137 6553 6226
4  6962 7878 6958 6961
4  6643 6623 6229 6230
4  767 8272 6872 6764
4  767 511 509 6872
4  135 6499 6232 6228
4  8029 7274 7261 6435
4  159 8029 8273 6435
4  7787 7639 7638 7050
4  789 983 159 8273
4  7274 6430 6434 6429
4  983 155 6435 6436
4  7913 7531 7530 6326
4  7607 6382 7062 6380
4  7505 7522 7519 7451
4  8138 6463 6253 6254
4  60 6251 798 6252
4  6215 6456 6216 6217
4  159 155 8029 6435
4  170 47 6253 6254
4  6885 6763 6952 6473
4  45 47 8138 6253
4  7253 7190 7182 7187
4  287 7049 7640 6397
4  8318 8282 7662 7659
4  509 6764 6872 6869
4  287 457 454 6399
4  990 6121 611 7143
4  6121 7456 6118 7143
4  6856 6222 6620 6224
4  162 7124 6270 6269
4  8294 6650 6602 7704
4  7128 7249 6858 7251
4  436 481 891 6776
4  1029 940 941 6970
4  6846 6397 7049 6403
4  1013 909 192 8305
4  630 7640 8264 6397
4  968 8120 8151 6663
4  7854 7852 6720 6722
4  286 287 301 7049
4  521 20 6362 6361
4  881 192 6235 6316
4  7805 7789 7248 7251
4  7147 6681 7848 6306
4  135 6232 881 6235
4  7010 8098 7724 7915
4  1000 6497 7980 6232
4  1000 893 881 7980
4  6547 7008 6109 6548
4  6968 6362 8054 6360
4  8286 6121 8259 6122
4  615 8286 900 6122
4  8066 7983 7985 6809
4  8149 8067 6757 7031
4  6657 6658 7027 6659
4  6294 6296 8031 6297
4  7493 6937 6932 6934
4  6956 7159 6297 7320
4  6255 7965 6288 6289
4  6623 6875 6622 6551
4  46 47 136 6551
4  7981 8026 6937 6934
4  803 6313 6437 6730
4  6923 6920 6919 6922
4  7844 7845 7843 7834
4  972 7844 7843 7834
4  972 207 209 7843
4  6382 6512 6471 6381
4  7494 6932 7692 6933
4  1035 625 8239 6351
4  7843 6462 6460 6457
4  6145 6146 6343 6142
4  8303 8284 7233 7235
4  6118 7066 6119 7143
4  905 8143 6765 6767
4  6115 6117 6945 6241
4  615 612 611 6099
4  6240 7464 7655 7653
4  6482 6842 6456 6458
4  900 8262 665 6331
4  8286 6128 8262 6331
4  6394 7765 7022 6794
4  6622 6875 6254 6551
4  7765 7816 6794 7766
4  685 6457 6460 6458
4  6497 6500 6498 6499
4  6886 6887 7851 7849
4  6643 6623 6622 6551
4  8002 6986 8007 6211
4  8002 8003 6891 6214
4  7699 7910 7909 6920
4  7557 6268 6705 7556
4  7309 7422 7900 7259
4  7966 6448 6451 7970
4  7309 7708 7121 7423
4  6927 6924 8094 6208
4  6463 7369 6468 6467
4  6213 6208 6207 6209
4  987 170 45 6253
4  209 685 798 6251
4  7119 7121 7708 7122
4  7790 6214 6216 6464
4  6469 6468 7282 6466
4  6482 6254 6842 6458
4  8313 7421 7428 7423
4  7900 7422 7264 7259
4  7428 7421 7111 7122
4  6446 7847 6452 6449
4  7650 7388 6960 7390
4  8054 7724 7753 7755
4  8053 7725 7754 7755
4  8162 8096 8247 8099
4  7144 8024 6962 8125
4  8184 7387 6960 6963
4  7070 7316 7315 7317
4  972 973 7844 7834
4  7613 7311 6689 7314
4  6370 7619 7618 7314
4  41 95 98 6493
4  207 685 209 6457
4  7809 6805 8172 6172
4  7724 7725 8095 7755
4  6966 8054 8225 7754
4  6362 7724 8054 6105
4  605 59 604 6598
4  59 57 60 6595
4  7419 7236 7635 7255
4  7832 7189 7681 6449
4  6516 7681 7682 7592
4  6515 7966 6450 6451
4  207 6460 685 6457
4  6183 6181 6180 6173
4  97 6139 6138 6264
4  7873 6451 6448 7970
4  6677 6510 8163 6675
4  6465 6467 6464 6207
4  839 6263 6260 6259
4  7911 7533 7909 7652
4  966 913 967 6166
4  6469 6206 6468 6207
4  6469 6923 6208 7970
4  1016 6165 7053 7004
4  6515 7970 6451 6628
4  6709 7680 7847 7681
4  301 6730 913 7004
4  7256 7258 8078 7051
4  7506 8043 8001 7597
4  7003 7052 6846 7048
4  8043 7225 7221 7226
4  8243 7239 7255 7636
4  7302 7237 7685 7301
4  856 193 256 6620
4  629 6398 6400 6399
4  8076 6781 8144 7510
4  630 8264 629 6397
4  7236 7239 7238 7255
4  7430 6358 8253 6815
4  6238 6815 6357 6286
4  286 630 287 7640
4  6481 8015 6358 6477
4  6390 7104 7605 7612
4  8073 7887 7612 7720
4  7470 8181 8241 7326
4  8182 7816 7020 7022
4  7471 7473 7324 7472
4  8284 8182 7020 8183
4  7410 8254 8318 7413
4  7331 7323 8304 7328
4  6990 8107 8282 6991
4  7946 7413 7903 7663
4  7412 7947 7946 7413
4  8318 7945 7413 7759
4  7894 7895 7897 7893
4  7401 8254 7410 7404
4  7943 7413 7945 7759
4  7410 8318 7661 7413
4  7892 7893 7554 7280
4  7961 7001 6996 6995
4  7000 7001 7912 6995
4  6992 7912 7961 6994
4  6834 8152 7925 6836
4  7961 7930 6996 7963
4  7329 7331 7327 7324
4  7894 7336 7897 7895
4  541 683 418 6732
4  6621 7495 6613 6676
4  7276 7770 7432 7291
4  493 103 701 6428
4  7765 7470 6697 6948
4  7894 7327 7337 7332
4  7329 7894 7330 7324
4  7728 7695 6750 6752
4  6 6137 0 6506
4  6661 6777 6664 6662
4  6278 6614 6630 6275
4  7728 7706 7695 6752
4  154 149 7695 7706
4  7662 7666 8194 8201
4  7662 7667 7666 8201
4  7637 7371 7373 7666
4  652 601 596 6746
4  7662 8194 8200 8201
4  652 6261 6746 6742
4  8155 7779 7481 7076
4  6324 7479 7716 7482
4  190 97 95 6138
4  7348 7092 7349 7482
4  7345 7094 6523 7347
4  7950 6523 7094 7347
4  7028 6809 6808 7149
4  6837 7106 6651 7838
4  97 6138 6263 6264
4  7839 7841 8011 7838
4  7839 7840 7106 7838
4  6829 6615 6614 6341
4  6279 6554 6280 6276
4  8081 7941 8080 6614
4  6829 6344 6345 6341
4  8081 6817 7941 7061
4  7421 7424 7121 7422
4  8313 7428 7310 7423
4  8228 7068 8229 6533
4  135 881 10 6235
4  8287 8230 8229 6533
4  8260 7497 6612 7727
4  47 8138 6253 6254
4  7851 6875 6612 6954
4  8049 6672 6673 6533
4  6622 6612 8260 6875
4  6622 6482 6254 6875
4  6185 6233 6187 6683
4  6890 6873 6874 7849
4  6621 6854 6674 6838
4  8219 7999 8053 6107
4  7980 6681 6317 6308
4  6509 6612 7497 6613
4  6622 7495 7496 6613
4  7999 6107 6113 6114
4  6966 6360 6115 6242
4  6643 6392 6396 6395
4  8317 6850 6847 6168
4  6621 6623 6509 6613
4  7784 8014 8266 6576
4  6388 7718 6605 6606
4  6847 6845 6168 6163
4  7493 6932 7494 6934
4  7887 8011 7418 7416
4  8072 7494 7692 6933
4  8073 7839 8011 7720
4  8073 7605 7104 7612
4  526 468 464 6478
4  7197 6153 7097 6150
4  6378 6379 6868 7693
4  8071 8072 8039 6153
4  6845 6846 7003 6578
4  6425 7693 6423 7100
4  992 346 7634 7377
4  511 981 771 6870
4  8039 7097 7197 6153
4  7233 7019 7234 7018
4  8286 8259 6128 6122
4  6611 6509 6679 6678
4  8303 8284 7235 8183
4  611 880 856 6100
4  6741 7509 7508 6738
4  8262 6128 6130 6331
4  629 457 287 6399
4  6804 6175 6803 6173
4  6689 6693 6263 6264
4  7638 6846 7050 6397
4  7913 8022 7519 7530
4  1016 301 913 7004
4  233 230 629 6398
4  7007 8264 7639 6398
4  7082 7744 7730 7084
4  6689 7315 6692 7614
4  6689 7070 7315 7317
4  7671 8109 8311 8302
4  6598 6597 7046 6599
4  7818 6267 7483 7804
4  8106 8162 8157 8099
4  7331 7325 7323 7324
4  807 6699 6700 6695
4  6369 6372 6370 6368
4  8245 6188 6769 6190
4  8284 7020 7019 7018
4  7995 6365 6369 6366
4  7235 7234 7274 6430
4  7165 7263 7627 7262
4  6948 7328 8183 8181
4  6287 6301 7639 7965
4  8269 8304 8296 7328
4  6432 7022 7017 6881
4  7114 7458 6727 7072
4  7233 7019 8037 7234
4  701 7669 6950 6947
4  7164 6296 6295 6290
4  8297 8031 8233 7552
4  6442 6670 6443 6438
4  6573 7458 7308 7307
4  8097 8184 6964 6963
4  6781 7144 6962 6963
4  6256 6288 6293 6300
4  8030 8031 8297 7552
4  7936 6959 7855 6961
4  7871 7364 8226 7872
4  6790 7912 6992 6853
4  7798 7833 7799 7800
4  7528 8088 6328 6318
4  8158 7522 8157 7451
4  7711 7349 7712 7714
4  7590 6849 6917 7447
4  6564 6516 7593 6565
4  7589 6789 6788 6917
4  7348 7350 7710 7349
4  7506 8247 8099 7451
4  7479 7094 7348 7482
4  6468 7369 7282 6467
4  8094 6466 6208 7970
4  7488 7188 7189 6453
4  7091 7717 7092 7482
4  6708 6451 7873 7970
4  7715 7367 7579 7250
4  7957 7218 7219 7215
4  7956 7886 7884 7757
4  7873 6446 6447 6448
4  6626 6466 7873 6448
4  7116 7117 7118 7855
4  7835 7218 7957 7215
4  7383 7650 7703 7385
4  7650 6958 7109 7390
4  6754 6756 6977 7689
4  7148 6157 6786 6160
4  8213 7690 7867 7195
4  6976 6480 6977 6978
4  7866 7195 6755 7689
4  7125 6236 6310 6722
4  8185 7256 7264 7259
4  7860 7780 8155 7781
4  8156 7481 7093 7076
4  8185 8060 7421 7422
4  8310 6890 6886 7849
4  973 7844 7834 7377
4  60 6249 6595 6596
4  42 41 7991 6492
4  6647 7811 7644 6648
4  95 97 98 6139
4  7676 7683 7298 7677
4  7105 8046 6583 7102
4  95 6138 97 6139
4  1028 488 7942 7021
4  8182 7323 8241 8181
4  723 488 1028 7021
4  7815 6298 8114 6349
4  6346 6325 6347 6349
4  6325 6324 7803 6299
4  7064 6761 7260 6883
4  7950 7346 6524 6523
4  6324 7483 7482 7714
4  766 6569 6764 6567
4  766 509 6470 6764
4  1028 488 489 7942
4  7517 8170 7246 7245
4  6425 6378 6952 6472
4  7717 7712 7349 7714
4  7540 7541 7952 7346
4  7751 7713 7711 7523
4  8159 7621 8128 7622
4  8180 7622 7743 7742
4  8180 7731 7743 7622
4  7730 7743 7731 7622
4  7927 8153 7928 7925
4  8178 8049 8051 7067
4  7621 7155 7154 7156
4  7774 8128 7273 7154
4  8127 7774 8128 7924
4  7153 7731 8127 7154
4  7153 7155 7154 7271
4  923 8063 967 6905
4  8244 7344 6584 6225
4  8251 6590 8285 6591
4  1016 913 966 6165
4  233 65 230 7005
4  8264 6397 7639 6398
4  8300 7343 8285 7704
4  8251 7344 8244 6590
4  6130 7380 8091 6282
4  6754 7142 7362 6756
4  7507 6755 6756 7112
4  7113 7112 6758 6759
4  7339 7337 7668 6947
4  6469 7282 7966 6466
4  6924 6708 7873 7970
4  6949 6950 6947 6696
4  7892 7906 7275 7278
4  6255 6256 7166 6300
4  7256 7587 7586 6402
4  7786 7163 7164 6287
4  7343 7340 7344 6587
4  7327 7668 7337 6946
4  7327 6946 7332 7324
4  6602 7342 7934 7704
4  8203 7776 8198 8196
4  967 913 802 6445
4  6811 6812 6734 6438
4  6529 6531 7067 6533
4  8133 8205 8204 8196
4  7558 7021 7942 6568
4  723 726 6610 7021
4  6885 6884 6880 6879
4  7372 7373 7469 8205
4  1002 7669 701 6947
4  7637 8200 8194 8195
4  888 848 682 6813
4  7325 7326 7324 7472
4  7635 8131 7181 7187
4  7000 6999 7186 7183
4  860 847 119 6700
4  7470 7287 7471 7326
4  7001 8137 6998 6999
4  860 701 807 6700
4  7470 7471 7287 6698
4  7894 7337 7336 7332
4  7471 6698 6946 7462
4  1020 7891 6542 6140
4  8243 7901 7904 7636
4  6542 7891 6544 6140
4  8131 7182 7187 7636
4  744 7953 6773 7954
4  437 7594 1019 6772
4  437 6773 7594 6772
4  125 7954 307 7040
4  7635 7255 7238 7636
4  7181 7182 7285 6999
4  7791 7207 7516 7209
4  7563 7207 7791 7564
4  307 6712 6930 7133
4  7750 7711 7751 7713
4  469 106 108 7011
4  6318 7915 7914 6320
4  7188 7190 7189 6453
4  7635 7253 7187 7420
4  6253 6468 6250 6483
4  45 170 47 6253
4  7419 7255 7635 7420
4  7238 8187 8199 7904
4  7364 7365 7814 7872
4  7627 7166 7262 7265
4  7267 8185 7256 7264
4  7661 7413 7945 7663
4  7586 7595 7262 7257
4  7267 7587 6624 6401
4  7624 7265 6629 7192
4  6990 7659 7759 6991
4  878 856 880 6098
4  8254 7759 7943 7408
4  7899 7259 7257 6575
4  973 57 605 6594
4  6855 6862 7764 7510
4  6463 6468 6216 6207
4  10 712 137 6553
4  6854 6272 6674 6838
4  6595 6249 6469 6596
4  605 59 6598 6594
4  6595 6469 6923 6925
4  973 6593 6592 7377
4  626 621 506 6408
4  6864 8047 6865 6866
4  7561 6425 6952 6472
4  6867 8075 7672 6855
4  8075 8076 7672 6855
4  1024 6388 6605 6606
4  403 7040 6711 6704
4  8122 7303 7304 7306
4  7953 8177 7987 7484
4  6650 6603 6602 6644
4  6148 7135 6424 6785
4  162 7124 6656 6270
4  6682 8086 6186 6185
4  1029 8263 759 6971
4  941 940 191 6972
4  759 6642 940 6971
4  6973 6972 6393 6385
4  728 397 117 8255
4  728 822 7649 6205
4  6419 6420 6246 6303
4  6539 6892 6541 6537
4  6893 8005 7014 7464
4  6907 6906 6895 6245
4  6121 6118 8259 6120
4  7724 7915 6105 6364
4  546 6619 7456 7143
4  8002 6986 6211 6214
4  6246 6302 6282 6133
4  8257 8275 6739 6129
4  8275 8276 8308 6740
4  365 378 6943 6942
4  6549 7474 8085 6319
4  7478 7475 7474 7477
4  7512 6120 6119 6862
4  7435 7291 7290 7277
4  8276 6129 6128 6333
4  117 118 123 6204
4  7467 6981 6475 6978
4  7688 7507 6755 6756
4  7362 6356 6984 6480
4  6310 6159 6356 6160
4  7869 7085 7562 6485
4  7575 6484 6486 6487
4  6267 6299 7483 7804
4  8114 6298 6267 6266
4  6786 7142 6756 6160
4  6346 6323 6325 6266
4  6325 6298 6299 6414
4  8188 7428 8034 7427
4  7282 6455 7966 6448
4  7282 6627 6455 6448
4  8034 7428 7426 7427
4  8188 7310 7428 7427
4  8131 7181 7182 7285
4  6450 6455 7488 6449
4  7824 6447 6452 6454
4  839 98 6263 6259
4  7283 7487 6454 7823
4  8247 7597 7590 7447
4  7309 7422 7259 7423
4  7876 7875 8056 8052
4  8140 7913 7505 7914
4  8279 6268 7804 8102
4  8042 7590 7226 7597
4  8157 8247 7705 7451
4  8158 8157 7705 7451
4  8247 7590 7705 7447
4  7450 7589 8042 7447
4  8279 6267 7804 6268
4  6736 6120 7764 6103
4  7382 7650 7383 7385
4  7650 7388 7385 7387
4  6658 6648 6660 7645
4  7858 6647 7550 6660
4  7383 7703 7300 7515
4  6240 6115 6945 6241
4  7796 7215 7216 7599
4  7898 8297 8146 7554
4  8233 7552 7320 8118
4  7802 7744 7746 7742
4  7637 8194 7371 7666
4  7835 7886 7214 7215
4  7737 7801 7080 7217
4  7471 7332 7473 7462
4  7219 7216 7215 7217
4  7812 7080 7744 7217
4  7737 7080 7220 7217
4  7368 7220 7367 7366
4  723 1028 726 7021
4  489 488 490 6472
4  600 6260 6760 6746
4  7491 7492 7490 7232
4  7491 7232 7398 7393
4  676 723 6610 6433
4  7586 6402 6401 6399
4  7409 7410 7944 7411
4  7947 7904 7903 7411
4  7944 7410 7413 7411
4  7165 7266 7263 7262
4  7949 7206 7948 6476
4  6574 7899 7257 6575
4  8185 7422 8313 7259
4  8041 7696 7948 7697
4  8041 7948 8015 6476
4  8041 7949 7429 7697
4  7243 7206 7697 7242
4  7698 7372 7429 7374
4  7637 8197 8200 8195
4  7200 6476 7468 7203
4  7200 7949 7468 6476
4  8041 7429 7696 7697
4  7667 7666 7660 7659
4  8282 7660 7666 7659
4  8284 8304 8182 8183
4  8296 7235 6949 8183
4  8282 7660 7431 7666
4  7348 7345 7350 7347
4  7287 7907 7463 7473
4  7292 7276 7770 7278
4  7348 7710 7711 7349
4  7017 6430 6949 6694
4  7710 7351 7352 7245
4  7332 7895 7462 7333
4  7091 7093 7481 7094
4  7712 7351 7349 7523
4  808 807 104 6699
4  7717 7712 7092 7349
4  7348 7350 7349 7347
4  7463 6700 7462 7333
4  7470 6699 6697 6698
4  7351 8116 7951 7352
4  847 808 7463 6700
4  7709 7365 7798 7799
4  7370 7799 7250 7129
4  7828 7829 7831 7800
4  7002 7632 7828 7130
4  8082 7829 7828 7632
4  8119 7936 7116 7879
4  6964 6965 7936 6961
4  8115 7882 8024 7879
4  8119 6964 7936 6961
4  6247 7977 8024 8125
4  7880 7116 8019 7881
4  8119 7116 7880 7879
4  190 6138 189 6137
4  8077 8115 7973 7881
4  8077 8023 8115 7881
4  6719 6720 7694 6759
4  190 189 6 6137
4  7700 6897 8032 7701
4  6296 7157 6297 6300
4  8214 7900 7868 7867
4  6629 7265 7166 7192
4  8226 7617 7081 6485
4  7626 7627 7194 7192
4  7625 6629 7166 7192
4  7624 7690 8213 7195
4  8226 7364 7813 7081
4  7627 8214 7194 7265
4  7007 7965 6301 7005
4  8066 6809 7985 6182
4  131 6634 709 6279
4  7131 7130 7129 7127
4  6747 7035 8111 6632
4  7097 6153 7100 6150
4  8216 7027 6931 7133
4  7485 6563 8298 6556
4  7485 8083 6353 7090
4  7304 7305 8298 7086
4  8066 8067 8283 7983
4  7174 6597 6592 7045
4  7699 7376 7910 6920
4  605 57 59 6594
4  346 583 7045 6599
4  7718 6607 6407 7104
4  6715 6717 6724 6718
4  903 857 694 7056
4  319 991 244 6645
4  8093 8091 7460 6304
4  6273 6600 6270 6271
4  538 541 602 6731
4  8294 6650 8062 6602
4  997 7055 6388 6606
4  6724 6725 8278 6718
4  8277 8103 8278 6729
4  24 25 6272 6838
4  7536 6728 6896 6733
4  8101 6725 6415 6729
4  775 6670 6669 6899
4  8165 6918 7967 6916
4  6621 6830 6674 6511
4  6728 6415 6416 6418
4  6728 6726 6727 6718
4  6896 6419 6728 6831
4  8278 8103 8104 6729
4  6295 6301 6287 6290
4  822 117 123 6199
4  759 25 656 6852
4  72 6377 6293 7005
4  7157 7627 7626 7166
4  8273 7261 8238 6569
4  7623 6177 7192 7193
4  7625 7192 7320 7193
4  7321 7322 7971 7319
4  7007 6301 6377 7005
4  8086 6678 6953 6954
4  6643 6392 6623 6230
4  6622 6482 6463 6254
4  7965 6398 6400 7005
4  65 72 230 7005
4  8289 7147 8090 7979
4  6682 6233 6185 6683
4  7101 7608 7103 7102
4  191 6640 6684 6641
4  8090 7848 7850 6306
4  233 6398 7007 7005
4  8294 6602 7934 7704
4  233 629 630 8264
4  8163 7839 7106 7838
4  6388 6404 6390 6407
4  7338 8255 7336 7335
4  397 7338 119 7335
4  6202 6200 6514 6199
4  7325 7275 7908 7472
4  7287 7463 6699 7462
4  7287 7289 7907 7277
4  7892 7275 7472 7278
4  615 900 612 6122
4  7114 8064 7458 7072
4  7400 7397 7541 7392
4  7541 8017 8208 7539
4  8207 8250 8209 8169
4  8208 8207 8250 8209
4  7111 7425 7120 6759
4  8211 8051 8064 6528
4  6247 6244 8115 7977
4  7137 6758 7112 6759
4  6753 7137 7142 7112
4  7144 8217 8125 6963
4  7583 7582 7580 7465
4  7905 7583 7580 6902
4  7362 7142 6310 6160
4  7905 7580 7808 7581
4  7805 6858 6859 7581
4  7120 7137 7112 6759
4  8023 8019 7425 7118
4  7656 6939 7657 7465
4  6859 7580 6902 7581
4  6939 6902 7580 7465
4  193 8075 7132 6620
4  7868 7424 6753 6755
4  7578 7715 7982 7579
4  7445 7447 7450 7448
4  7449 7705 7447 7448
4  7445 7593 7589 7446
4  7868 7121 7424 7422
4  7532 7533 7911 7652
4  7426 7111 7425 7122
4  7778 7645 7359 7356
4  7816 7817 7815 6794
4  7357 7151 7353 7356
4  7642 6519 7359 6520
4  7354 7778 7360 7359
4  676 6433 6610 6566
4  8047 7386 8144 7674
4  7247 7193 7321 7319
4  7322 6176 7767 6179
4  6284 6286 6285 6722
4  6786 6157 6758 6160
4  8076 8144 6781 7387
4  7637 8133 8203 8196
4  7962 8200 8197 7964
4  8200 8195 8197 7964
4  878 8075 856 6098
4  8156 7781 7481 7076
4  7962 7931 7963 7964
4  7722 7643 7642 6519
4  6522 7950 6524 6523
4  7642 6518 7723 6519
4  7637 8202 8196 8195
4  7661 8318 7945 7413
4  7302 8048 7296 7298
4  7514 7702 7414 7299
4  7685 7237 7236 7301
4  7236 7237 7239 7301
4  8282 7660 7659 6991
4  7685 7687 7686 7610
4  7723 7540 7345 6523
4  7540 7346 6523 6521
4  7092 7950 7094 7347
4  7517 7352 8170 7245
4  7351 8116 7352 7245
4  7538 7346 7539 7392
4  7538 7951 8250 7539
4  7951 8116 8250 7352
4  8208 8250 8207 8170
4  7950 7351 7951 7347
4  7246 7518 8170 7242
4  8116 7518 8250 8170
4  1029 6970 8263 6971
4  7345 7540 7346 6523
4  7814 7079 7366 7081
4  7737 7367 7220 7366
4  7802 7746 7744 7217
4  834 481 436 6776
4  8269 8296 7327 7328
4  7370 7799 7365 7250
4  7709 7363 7798 7365
4  7336 6202 7895 7335
4  7669 7668 8028 6950
4  7831 7830 7814 7872
4  6432 7017 6430 7018
4  7765 7470 6948 8181
4  970 936 8140 6326
4  6876 7020 7023 6881
4  6697 6609 6694 6428
4  8243 7182 7901 7636
4  8237 6762 6951 6764
4  6423 7135 6148 6153
4  7486 7188 7488 6453
4  6932 6935 6383 6507
4  6935 6936 7607 6383
4  8131 7182 7181 7187
4  8026 8210 6935 6934
4  7426 7428 7111 7122
4  7426 7425 8023 8033
4  8077 8033 8023 7881
4  7306 6636 8173 6929
4  7115 8019 7116 7118
4  934 6609 343 6566
4  7120 8019 7115 7425
4  771 6503 890 6471
4  6432 6608 6433 6431
4  344 343 934 6609
4  7733 7772 7971 7280
4  8027 8028 7274 6429
4  7194 7196 7191 6177
4  7765 6609 7017 6694
4  723 7021 6610 6433
4  6434 6435 6429 6431
4  847 807 808 6700
4  7624 7691 7195 6177
4  7980 6497 6681 6232
4  6229 6954 7849 6231
4  7471 7324 7326 7472
4  8283 7983 8067 7031
4  7175 8089 7172 7173
4  8148 8283 8149 8274
4  584 7047 8022 7177
4  68 67 69 7175
4  258 406 7134 6704
4  7071 6734 6955 6438
4  7305 7987 7090 7041
4  8173 6691 6929 6638
4  262 891 307 7954
4  7167 6731 7295 6735
4  6930 6771 7954 7133
4  7594 6774 6757 7029
4  7027 6776 6771 7030
4  422 6732 6812 6438
4  538 682 683 7167
4  893 7980 8055 6316
4  719 871 720 6500
4  538 541 6731 6735
4  8147 6774 7988 6686
4  319 244 6600 6604
4  7987 7041 6685 7484
4  7935 7839 8073 7840
4  6222 6583 6225 6581
4  797 6270 6600 6271
4  6652 7455 6654 7934
4  409 971 7010 8140
4  409 7010 22 6363
4  7532 7519 7521 7535
4  403 6711 6710 6704
4  6362 7010 7724 6364
4  7011 8085 6328 6322
4  307 7954 6711 7040
4  7304 7305 7086 7089
4  620 672 621 8175
4  7305 7090 6556 7089
4  8315 8038 6563 6155
4  307 405 6710 6712
4  6352 7135 6351 7939
4  7997 7174 7376 6921
4  6598 7911 7047 7046
4  8113 6817 8081 7061
4  7060 6630 6824 7061
4  7060 8142 6841 6630
4  6630 6281 6634 6280
4  8148 8123 8274 6928
4  7039 7940 7037 7038
4  584 583 604 7047
4  6598 6595 6923 6597
4  346 605 583 6599
4  7046 7045 7177 6599
4  7634 7670 7844 7377
4  7171 7730 7156 7084
4  8070 8072 7940 6933
4  7940 7938 7037 7038
4  161 8069 83 7034
4  6555 6353 6558 6149
4  779 967 780 6904
4  8126 8307 6359 6154
4  8071 8039 8126 6153
4  8307 8038 6359 6154
4  7240 8176 7543 6366
4  8176 6365 7995 6366
4  6168 6167 6161 6164
4  775 963 779 6899
4  117 119 7333 7335
4  214 7339 860 7334
4  832 6241 6796 6798
4  6946 7332 6700 7334
4  8004 8005 8280 8006
4  8278 8104 6716 6729
4  8005 7464 8006 7655
4  6893 8224 8280 7464
4  940 6970 6971 6972
4  6887 8260 6612 6875
4  6896 6728 6416 6733
4  7380 7378 8091 6282
4  686 6665 6501 6458
4  7461 6725 7295 6726
4  541 6731 6735 6418
4  8044 7890 6833 7604
4  6309 6758 6310 6722
4  7890 7888 7923 8152
4  6867 7608 7101 7102
4  8007 6211 6986 6212
4  67 7176 7175 7045
4  7911 7909 6920 6628
4  8239 8240 7938 7939
4  8048 7515 7298 7677
4  7699 6921 7376 6920
4  7998 7910 7699 7376
4  346 973 605 6592
4  7386 7384 7676 7385
4  8047 8046 7675 7673
4  7749 7748 7766 7288
4  6347 6349 6793 6794
4  6347 6325 7762 6349
4  6962 6958 8108 6960
4  6964 8125 6963 6961
4  7817 7761 6411 6793
4  7470 7747 7287 7288
4  7747 7748 7290 7288
4  7815 7817 6793 6794
4  8108 6960 7650 7387
4  6246 6282 6136 6133
4  6792 7747 7470 7766
4  7932 7833 7798 7800
4  7831 7814 7368 7365
4  8150 7036 7035 6751
4  7370 7831 7368 7365
4  8226 7617 7872 7081
4  6792 6793 7748 7766
4  8058 7582 7580 7585
4  6469 7966 6923 7970
4  7591 7446 7452 6917
4  7860 7780 7781 7859
4  7615 7617 7869 6486
4  7117 7852 6720 7855
4  7117 7937 7125 7852
4  8173 6637 6647 6638
4  7357 7359 7645 7356
4  6900 7656 6901 7465
4  6526 7538 7399 7392
4  7491 7395 7400 7393
4  6938 6900 8224 6901
4  8265 6541 6894 6543
4  6518 6527 7391 6521
4  6900 6857 6859 6902
4  7391 7400 7541 7392
4  7541 7397 7539 7392
4  6867 6866 7672 7673
4  344 103 343 6428
4  8047 7675 7386 7384
4  7678 7384 7675 7673
4  6946 7332 7462 6700
4  7953 6685 7954 7484
4  103 6697 104 6695
4  7386 7384 7387 7674
4  104 6697 6699 6695
4  6350 6352 8084 6156
4  6713 6714 6639 6562
4  8177 8083 7987 8141
4  7782 8014 7784 7783
4  7039 8070 7940 6933
4  7493 8070 7039 7494
4  7039 7494 6933 6934
4  8240 8069 7037 7034
4  6935 6934 6513 6507
4  7586 6289 6255 7262
4  7940 8072 6153 6933
4  6844 6579 6574 6571
4  7899 6579 7309 7259
4  6988 6986 6462 6215
4  6462 6215 6986 6459
4  6988 8007 6986 6212
4  6988 8311 6210 6926
4  6210 8302 6927 6926
4  7488 7189 7832 6449
4  7486 7488 7487 6453
4  7536 7458 7307 7701
4  7485 6563 6556 6155
4  8114 6266 6348 6349
4  7023 8114 6878 6348
4  6265 7559 6268 7556
4  6450 7488 7832 6449
4  6452 7190 8132 6453
4  7815 6411 6298 6349
4  7876 7819 7972 8102
4  7876 7972 7877 8102
4  7188 7181 7846 7183
4  7305 7303 7987 7041
4  7875 7874 7555 8102
4  7520 7914 7915 8099
4  7832 7188 7846 7189
4  6105 6111 7477 6106
4  756 7531 935 6326
4  7824 6453 8132 7420
4  7536 7701 6896 6831
4  7700 8032 7308 7701
4  7534 7535 8158 7448
4  8158 7705 7449 7448
4  6923 7966 6515 7970
4  8073 8011 7887 7720
4  7609 7685 7719 7610
4  7836 7719 7415 7416
4  7426 7119 7427 7122
4  8009 7822 7252 7417
4  7426 7427 7119 8033
4  8117 7880 8019 7881
4  7302 7301 7610 7213
4  7887 7418 7686 7416
4  8188 7308 7310 7427
4  6896 8034 6897 7701
4  6490 6489 7084 6491
4  7767 6979 8040 6982
4  329 7707 6506 6505
4  6910 6997 7184 7186
4  6 0 9 6506
4  8131 7286 7181 7285
4  7000 7181 7286 6999
4  329 6777 7707 6505
4  8150 6661 6751 6663
4  7991 6174 6492 6496
4  7345 7346 7952 7347
4  256 7132 1022 7054
4  7091 7094 7481 7482
4  1022 7132 6389 7054
4  995 6649 6666 6646
4  8244 6584 8059 6585
4  7678 7675 7677 7102
4  6118 7143 6119 6099
4  7114 6312 6528 6444
4  6728 6726 6415 6418
4  857 6540 7054 7056
4  731 422 919 6437
4  6733 6732 6955 6734
4  731 6437 7537 6955
4  7071 6717 6727 6734
4  7329 7331 8269 7327
4  68 67 7175 7045
4  8057 8222 7376 7527
4  8302 6921 7699 6922
4  7234 6882 6434 7018
4  7375 7376 6919 7533
4  775 779 780 7073
4  155 8029 6435 6429
4  7470 6697 6948 6698
4  7323 8181 7328 7326
4  888 848 6813 6670
4  511 771 509 6869
4  981 6439 1005 6512
4  888 6813 6669 6670
4  962 775 6669 6899
4  488 7942 7021 6568
4  155 6436 6566 6431
4  494 493 8027 6429
4  6694 6698 6695 6696
4  848 775 780 7073
4  6903 6899 7043 6532
4  962 6669 8206 6899
4  888 962 775 6669
4  7843 6215 6457 7834
4  779 963 6903 6899
4  962 8206 964 6899
4  7669 8028 8027 6950
4  695 493 701 6950
4  7339 7668 7669 6947
4  214 860 119 7334
4  7332 7333 6700 7334
4  701 6947 6950 6696
4  1002 701 860 6947
4  8103 8101 6420 6729
4  682 683 7167 6812
4  1046 6605 6601 6600
4  8277 8101 8103 6729
4  6716 6727 6717 6718
4  6724 8277 8278 6725
4  7378 8101 7460 6302
4  936 7913 8140 6326
4  7375 7521 7525 7527
4  7378 8101 6302 6420
4  68 7175 7634 7045
4  583 604 7047 6599
4  834 596 481 6776
4  6415 6304 6302 6303
4  307 6712 6711 6930
4  8124 7378 6820 6420
4  837 834 1019 6745
4  601 600 596 6746
4  8298 6563 7086 6556
4  8065 8263 7968 7124
4  6741 6740 7509 6738
4  6121 6120 8259 6122
4  8065 7124 7453 6656
4  389 8290 319 6603
4  6652 6607 6602 6600
4  468 6478 8120 6479
4  7542 6188 8245 6190
4  8314 7512 7511 7509
4  8258 7380 7381 6283
4  8275 8308 6739 6740
4  8275 8314 8308 8276
4  8308 7511 7508 7509
4  7512 6119 7024 6862
4  758 9 329 7707
4  6811 6670 6812 6438
4  6813 6810 6671 6670
4  8314 7025 7511 7512
4  7512 8259 6118 6120
4  7025 7512 7024 6862
4  962 963 775 6899
4  506 6783 6410 6784
4  741 803 802 6730
4  741 742 803 6313
4  7514 7298 7702 7299
4  7383 7515 7676 7385
4  7703 7390 7403 7515
4  7225 7889 8161 7602
4  7745 7741 7888 7740
4  7888 8159 7923 7741
4  6845 7003 6169 6163
4  6724 6717 6725 6718
4  8307 8315 6359 8038
4  8072 7097 6153 6933
4  8038 6557 6563 6155
4  672 8175 8177 8141
4  6359 8038 8315 6155
4  7927 7926 7741 8152
4  7449 7452 7591 7446
4  7485 7305 8083 7090
4  7449 7446 7651 7652
4  6783 6703 6409 6784
4  8126 6359 6352 6154
4  7611 7686 7684 7610
4  6423 6933 6153 7100
4  8071 8307 8126 8039
4  8069 7033 7034 6441
4  6148 6785 6424 6422
4  8239 7938 6352 7939
4  7252 7417 7822 7420
4  7887 7610 7611 7612
4  7609 7302 7685 7610
4  871 135 720 6499
4  7101 7609 6390 7103
4  7608 7677 7213 7102
4  871 1000 135 6497
4  7115 6721 7137 6759
4  7115 7117 6721 6720
4  7555 6268 8279 8102
4  8114 6266 6265 7559
4  6265 6267 8279 6268
4  8035 7555 7199 7556
4  720 135 136 6227
4  893 881 7980 6316
4  6547 6546 6550 6110
4  6219 8242 7999 6113
4  7560 7559 6265 7556
4  6221 7478 6549 6218
4  6220 8242 6219 6113
4  6545 6546 8223 6116
4  7145 7144 6332 6127
4  8314 7511 8308 7509
4  8270 6175 6174 6170
4  6757 7029 6180 6744
4  6890 7807 6891 6874
4  8310 7848 6890 7849
4  6889 6891 8003 6888
4  6500 7807 6498 6501
4  6681 6232 6873 6306
4  6891 6842 6456 6888
4  7561 6952 7560 6884
4  934 676 726 6610
4  6792 7763 7747 7748
4  7292 7291 7276 7277
4  983 723 676 6436
4  493 343 103 6428
4  6434 6761 6435 6436
4  7287 7908 7326 7288
4  7020 7018 7017 6881
4  6432 6430 6434 7018
4  6434 6880 6761 6433
4  983 766 723 6567
4  488 7942 6568 6763
4  7161 7162 7547 7271
4  7155 7161 7273 7271
4  7272 7268 7269 7776
4  7835 7585 7957 7218
4  8058 7982 7957 7585
4  7272 8203 7268 7776
4  7351 7516 8116 7245
4  7244 7710 7517 7245
4  7791 7516 7351 7523
4  7813 7080 7082 6491
4  7350 7952 7517 7352
4  7093 7092 7950 7094
4  7846 7000 7186 7183
4  6518 7540 7723 6521
4  6910 6909 6993 6853
4  7682 7185 7551 6911
4  6789 7551 6790 6911
4  7846 7181 7000 7183
4  7642 7358 6518 6520
4  6522 7093 7950 6523
4  7723 7540 6523 6521
4  6525 6522 6524 6521
4  7398 7230 7395 7393
4  7489 7491 7391 6527
4  6518 7391 7540 6521
4  7551 7000 7912 7186
4  7951 7352 7346 7347
4  7952 8208 7517 7352
4  6910 7186 7184 7185
4  7680 6910 7184 7185
4  7846 7186 7185 7183
4  7512 8276 8259 6120
4  7779 7723 7345 6523
4  7272 7269 7273 7776
4  7732 7268 7270 7271
4  8017 8249 8209 7397
4  7161 7270 7269 7271
4  6863 6864 6865 6862
4  7268 8016 7270 8134
4  8029 7261 8273 6435
4  6119 6120 7764 6862
4  6781 6736 7764 6103
4  6889 6886 6874 6888
4  8200 8201 8195 7964
4  7848 6681 6498 6873
4  135 6497 6232 6499
4  8203 8198 8197 8196
4  207 687 685 6460
4  7272 7774 8203 7776
4  8133 7469 8016 8134
4  6206 6925 6987 6926
4  934 6610 6609 6566
4  992 7634 7844 7377
4  6555 6353 6155 6558
4  344 343 6609 6428
4  8175 6355 8083 8141
4  7558 6880 7021 6568
4  343 155 676 6566
4  8320 8321 1048 6271
4  8321 6272 1048 6271
4  1048 6272 25 6271
4  8320 1045 8322 6271
4  1045 1046 8322 6271
4  8322 1046 6601 6271
4  8320 1048 1041 6271
4  1048 25 797 6271
4  1041 1048 797 6271
4  8321 1042 1048 6272
4  1042 24 25 6272
4  1048 1042 25 6272
4  8320 1041 1045 6271
4  1041 797 1045 6271
4  1045 797 1046 6271
4  8320 8322 8321 6271
4  8322 6601 8321 6271
4  8321 6601 6272 6271
4  8323 8324 1077 7133
4  8324 8216 1077 7133
4  1077 8216 1079 7133
4  8323 1077 1076 7133
4  1077 1079 1076 7133
4  1076 1079 891 7133
4  8323 1076 8325 7133
4  1076 891 8325 7133
4  8325 891 7030 7133
4  1082 8325 1074 535
4  8325 7030 1074 535
4  1074 7030 481 535
4  7030 481 891 8326
4  1076 1074 8325 8326
4  8325 1074 7030 8326
4  481 7030 1074 8326
4  1074 1076 481 8326
4  891 481 1076 8326
4  1076 8325 891 8326
4  7030 891 8325 8326
4  8325 8327 8324 7030
4  8327 8025 8324 7030
4  8324 8025 8216 7030
4  8323 8325 8324 7133
4  8325 7030 8324 7133
4  8324 7030 8216 7133
4  1082 8327 8325 535
4  8327 8025 7030 535
4  8325 8327 7030 535
4  8328 8329 1114 1104
4  8329 8328 1114 8320
4  8328 8321 1114 8320
4  1114 8321 1048 8320
4  1113 8329 8330 1104
4  8329 1113 8330 8320
4  1113 1045 8330 8320
4  8330 1045 8322 8320
4  1114 8329 1106 1104
4  8329 1114 1106 8320
4  1114 1048 1041 8320
4  1106 1114 1041 8320
4  1107 8328 1114 1104
4  8328 1107 1114 8321
4  1107 1042 1048 8321
4  1114 1107 1048 8321
4  1106 8329 1113 1104
4  8329 1106 1113 8320
4  1106 1041 1113 8320
4  1113 1041 1045 8320
4  8330 8329 8328 1104
4  8329 8330 8328 8320
4  8330 8322 8328 8320
4  8328 8322 8321 8320
4  8331 8332 1153 1146
4  8332 8331 1153 8323
4  8331 8324 1153 8323
4  1153 8324 1077 8323
4  1153 8332 1148 1146
4  8332 1153 1148 8323
4  1153 1077 1148 8323
4  1148 1077 1076 8323
4  1148 8332 8333 1146
4  8332 1148 8333 8323
4  1148 1076 8333 8323
4  8333 1076 8325 8323
4  8333 1155 1145 1146
4  1155 8333 1145 1082
4  8333 8325 1145 1082
4  1145 8325 1074 1082
4  8333 1145 1148 1146
4  8325 1074 1076 8334
4  1148 1145 8333 8334
4  8333 1145 8325 8334
4  1074 8325 1145 8334
4  1145 1148 1074 8334
4  1076 1074 1148 8334
4  1148 8333 1076 8334
4  8325 1076 8333 8334
4  8335 8333 8331 1146
4  8333 8335 8331 8325
4  8335 8327 8331 8325
4  8331 8327 8324 8325
4  8333 8332 8331 1146
4  8332 8333 8331 8323
4  8333 8325 8331 8323
4  8331 8325 8324 8323
4  8335 1155 8333 1146
4  1155 8335 8333 1082
4  8335 8327 8325 1082
4  8333 8335 8325 1082
4  7248 7735 8336 8337
4  7709 8338 8339 8337
4  8340 8341 8342 8337
4  8343 8340 8344 8337
4  8345 8343 8344 8337
4  8341 8339 8338 8337
4  7153 8346 8347 8348
4  4534 8349 8350 8348
4  7272 8349 8351 8348
4  8352 8351 8353 8348
4  8350 8349 8347 8348
4  4541 8354 4603 8355
4  8356 8357 8352 8355
4  4587 4507 8352 8355
4  8352 8355 8357 8348
4  8358 8359 8360 8361
4  4580 8359 8358 8361
4  8213 8362 8363 8364
4  7624 7691 8365 8364
4  1628 8366 1594 8367
4  7691 8368 8369 8364
4  8365 8370 8362 8364
4  8369 8370 8365 8364
4  8371 8352 8351 8353
4  8372 8371 8351 8353
4  7168 8373 8374 8375
4  7774 8351 8352 8348
4  8349 8353 8351 8348
4  4587 8352 8353 8348
4  8376 8377 8378 8379
4  7463 8378 8380 8379
4  8377 8381 8382 8379
4  1403 8382 8381 8379
4  1393 1453 8376 8379
4  7282 7369 8383 8384
4  1392 8380 1403 8379
4  4590 8385 8386 8387
4  4522 8386 8388 8387
4  4522 8388 4273 8387
4  8389 8388 8390 8387
4  4335 8389 8390 8387
4  8391 8392 8393 8394
4  8024 8393 8395 8394
4  8396 8397 8398 8394
4  8024 7878 8393 8394
4  8076 6779 8075 8399
4  8076 8075 7672 8399
4  8366 8400 8367 8401
4  8402 8399 8403 8404
4  7382 8399 8402 8404
4  7562 7168 7169 8373
4  1377 8405 8406 8407
4  1680 1377 8406 8407
4  4329 4525 4545 8408
4  8200 8194 8409 8410
4  7495 7496 7502 8411
4  8194 8409 8410 8407
4  1680 8406 8410 8407
4  1681 8409 8412 8407
4  8413 8414 8415 8416
4  7268 8417 8347 8416
4  7268 8016 8417 8416
4  8016 8418 8417 8416
4  8374 8419 8420 8421
4  7499 8374 7562 8421
4  7502 8422 8423 8384
4  7576 8424 8419 8421
4  8374 8420 8425 8421
4  7577 8425 8426 8421
4  8426 8427 8428 8425
4  8428 8420 8424 8421
4  8429 8430 8431 8432
4  1512 8433 8434 8432
4  6710 6712 8435 8436
4  8437 8438 8439 8440
4  8441 8367 8442 8443
4  1241 8444 1233 8432
4  1233 8444 8430 8432
4  6781 6779 8076 8404
4  6779 6780 8403 8397
4  7144 6780 6781 8397
4  7144 8397 6962 8394
4  8396 8403 8397 8404
4  8396 8402 8403 8404
4  8396 8445 8398 8403
4  8396 8403 8398 8397
4  1579 8446 8447 8448
4  1579 8449 1580 8448
4  1581 8450 8446 8448
4  8451 8446 8452 8448
4  1580 8449 8453 8448
4  8450 8445 8396 8448
4  8396 8445 8453 8448
4  7763 8454 8455 8456
4  4587 4534 4541 8348
4  8457 8458 8459 8456
4  7763 8460 7750 8456
4  7762 7803 8457 8456
4  8024 8395 8392 8394
4  6780 8398 8397 8394
4  8461 8462 8463 8393
4  8391 8461 8463 8393
4  8024 7882 8395 8393
4  7878 8464 7853 8393
4  8464 8396 8391 8394
4  6780 7145 8398 8394
4  8024 8392 7145 8394
4  1671 1612 1669 8465
4  4534 4607 4462 8466
4  7153 7732 7272 8347
4  8467 8468 8469 8470
4  8465 8471 8472 8470
4  7546 7153 7171 8473
4  7348 8472 8471 8470
4  8474 8465 8475 8470
4  7779 8475 7348 8470
4  8469 8468 8471 8470
4  7735 7737 7736 8345
4  8343 8476 8477 8344
4  8340 8342 8336 8337
4  8340 8336 8344 8337
4  7736 8478 8479 8344
4  8479 8340 8336 8344
4  8480 8481 8482 8483
4  8438 8484 8481 8483
4  1586 8485 8482 8483
4  8437 8485 8439 8483
4  4512 8486 8473 8487
4  4568 8486 4512 8487
4  4568 8375 8486 8487
4  7171 8488 8473 8487
4  7169 7171 8486 8487
4  7169 7171 7730 8486
4  4462 4610 4512 8489
4  7169 8486 8375 8487
4  8008 8490 7821 8390
4  4574 4297 4445 8359
4  4335 8490 8491 8390
4  8492 8422 8389 8390
4  8493 8494 8495 8496
4  8207 8418 8497 8496
4  8207 7469 8498 8496
4  8497 8495 8499 8496
4  8168 8499 7698 8496
4  1936 8500 8501 8502
4  7546 8414 7153 8473
4  8501 8500 8490 8502
4  8350 8347 8503 8466
4  4561 8420 8427 8425
4  7835 7214 8504 8505
4  7171 7153 7731 8473
4  8506 8507 8505 8508
4  7956 8509 8510 8508
4  8478 8510 8506 8508
4  4460 4512 8511 8489
4  8473 8466 8346 8489
4  4610 8473 4512 8489
4  4541 8354 8346 8489
4  4541 4460 8354 8489
4  8473 8354 8511 8489
4  4607 4608 4610 8503
4  4607 8503 4610 8466
4  8347 8414 8503 8466
4  4534 8346 8350 8466
4  1620 1626 1321 8512
4  4462 8346 8466 8489
4  4610 8466 8473 8489
4  7506 8043 8042 8513
4  4534 8350 4607 8466
4  8514 8515 8516 8454
4  7267 8185 8213 8517
4  8455 8516 8382 8515
4  7499 7576 7398 8419
4  6699 8514 8516 8454
4  4462 4460 4541 8489
4  8455 8518 8516 8454
4  6699 8516 8518 8454
4  6792 7762 8514 8454
4  7747 8455 7763 8454
4  7877 7876 8519 8520
4  7557 7972 7877 8520
4  7972 8521 7819 8520
4  7819 8521 8522 8520
4  8521 8523 8522 8520
4  7876 8524 8519 8520
4  8402 8525 8526 8399
4  8108 7382 8402 8404
4  8076 8399 7382 8404
4  7635 8527 8385 8386
4  1500 8526 8075 8399
4  6781 8108 8397 8404
4  7593 7589 8528 8529
4  7589 8530 8528 8529
4  4439 8531 24 8532
4  8533 8534 8535 8529
4  8533 8535 8536 8529
4  8537 8534 8535 8538
4  8539 8540 8513 8538
4  4464 8541 8140 8538
4  7506 8537 7450 8538
4  8140 8098 7505 8538
4  8140 8541 8098 8538
4  7506 8513 8537 8538
4  936 4464 971 8140
4  7153 7732 8347 8414
4  1564 8462 8542 8543
4  1564 8542 1558 8543
4  1594 8544 8462 8543
4  7302 8545 8546 8547
4  7426 7111 8400 8548
4  7426 8549 8023 8548
4  8023 8462 7694 8548
4  8544 8550 8462 8548
4  8366 8400 8401 8548
4  8366 8400 8544 8367
4  7111 8401 8400 8548
4  8551 8544 8366 8548
4  8544 8548 8462 8543
4  7507 8552 8363 8553
4  8060 8554 8401 8553
4  8060 8554 8555 8401
4  8366 8556 8552 8553
4  8060 7507 8363 8553
4  7507 8401 8551 8553
4  7428 8557 8558 8443
4  7428 8559 8558 8557
4  8034 8558 8442 8443
4  7426 8560 8400 8443
4  7428 7426 8400 8443
4  4387 8506 8476 8561
4  7706 7833 7728 8338
4  8045 8510 8506 8561
4  7808 8479 7584 8561
4  7583 7584 6969 8561
4  8045 7583 6969 8561
4  7584 8479 8510 8561
4  726 1512 6610 8434
4  7856 6705 7021 8434
4  8562 8433 8563 8432
4  8562 8430 8444 8432
4  726 1241 1512 8434
4  7021 8562 8444 8434
4  6706 7780 6658 8564
4  6658 7780 7641 8564
4  8565 8566 8567 8564
4  8568 8435 8565 8564
4  1678 8566 8435 8564
4  7905 8336 7808 8569
4  4355 8476 8340 8569
4  7504 8336 7905 8569
4  8340 8336 8570 8569
4  4358 8570 7504 8569
4  993 7503 4355 8569
4  993 7504 7503 8569
4  8391 8398 8392 8394
4  7144 6962 8024 8394
4  1566 8398 8445 8403
4  190 6 4270 6137
4  7144 7145 6780 8394
4  8391 8396 8445 8398
4  8571 8572 8573 8574
4  1909 1913 8571 8572
4  6244 8077 6907 8575
4  6244 6907 6778 8575
4  1284 8461 8392 8575
4  4268 4539 8576 8577
4  1288 8542 1284 8575
4  7927 8578 8579 8580
4  8581 8582 8583 8584
4  8583 8358 8584 8361
4  8585 8584 8358 8361
4  7001 8585 7286 8584
4  7286 8585 8582 8584
4  7000 7912 7001 8358
4  7000 8358 7001 8584
4  6968 8586 8587 8588
4  6362 8054 8589 8588
4  8225 8587 8590 8588
4  7753 8225 8590 8588
4  6968 6966 8054 8588
4  6966 8225 8054 8588
4  4273 4586 8389 8591
4  8592 8593 8594 8591
4  6450 8595 8592 8591
4  6450 6455 8595 8591
4  8492 8388 8389 8591
4  8492 8596 8597 8591
4  6455 8597 8595 8591
4  8180 8598 7743 8511
4  8180 8598 8511 8580
4  97 190 4268 6138
4  8180 8599 8598 8580
4  4460 8600 4579 8580
4  4579 8599 4604 8580
4  4460 8511 8600 8580
4  4604 8599 8578 8580
4  4603 8354 8580 8355
4  4460 8354 8511 8580
4  7236 8601 8602 8603
4  8602 8604 8491 8603
4  7236 7635 8601 8603
4  7635 8386 8385 8603
4  7419 8491 8605 8603
4  8385 8603 8386 8387
4  7662 8480 8606 8407
4  8406 8405 8607 8608
4  7637 7372 7371 8609
4  7637 8609 7371 8608
4  8406 8608 8410 8407
4  7637 8609 8608 8610
4  6421 7942 7561 8611
4  7637 8410 8571 8608
4  7637 8194 8410 8608
4  7709 7363 7735 8337
4  7695 8338 7248 8570
4  1904 8417 8573 8574
4  1899 8612 8415 8417
4  8493 8418 8612 8417
4  8613 8614 8601 8602
4  7959 8615 8016 8416
4  8347 8349 8415 8417
4  8347 8417 8415 8416
4  8498 8573 8417 8574
4  8189 8616 8360 8617
4  8189 7962 8616 8617
4  8618 8617 8371 8619
4  7929 8617 8620 8619
4  7773 8371 7962 8617
4  7929 7773 8617 8619
4  1583 1520 8621 8622
4  8623 8621 8624 8622
4  8625 8626 8627 8621
4  6137 8628 7615 8629
4  1583 1533 8626 8621
4  7248 7735 7789 8336
4  1533 8630 8627 8621
4  8282 8480 8194 8405
4  1377 8412 8405 8407
4  1681 8410 8409 8407
4  8480 8482 8606 8412
4  1668 8409 8606 8412
4  1668 8606 8482 8412
4  1681 8409 1668 8412
4  9 6506 7707 8631
4  8336 8342 8338 8337
4  8632 8633 8539 8541
4  4464 8539 8541 8538
4  971 7010 8140 8541
4  971 4478 7010 8541
4  6325 8634 8457 8635
4  8457 8636 8458 8635
4  6324 7716 8637 8635
4  7716 8458 8637 8635
4  6323 8634 6325 8635
4  8429 8638 8563 8635
4  8457 8634 8636 8635
4  8637 8636 8639 8635
4  6323 8563 8634 8635
4  8185 8555 8517 8640
4  8185 8313 8555 8640
4  7256 8078 7258 8640
4  8616 8641 8360 8617
4  4540 8372 8371 8641
4  758 4424 7707 8642
4  4540 8371 8618 8641
4  4573 4540 8618 8641
4  8618 8360 8641 8617
4  7437 8377 8643 8644
4  45 8138 4329 8408
4  7369 8383 8384 8645
4  6468 6253 8383 8645
4  7369 8411 7496 8645
4  6463 6253 6468 8645
4  8138 7496 8411 8645
4  1403 1405 1651 8381
4  8571 8574 8646 8610
4  8498 8646 8573 8574
4  7566 7437 7570 8644
4  8133 8646 8498 8610
4  7637 8571 8197 8646
4  8098 8001 7506 8513
4  6362 7724 7010 8589
4  8203 8197 8571 8646
4  7637 8608 8571 8610
4  7395 8647 8648 8649
4  1528 8495 1523 8499
4  7400 8413 7395 8650
4  8650 8651 8647 8649
4  8503 8648 8647 8651
4  8414 8503 8648 8647
4  8482 8652 8481 8606
4  8653 8654 8652 8606
4  8318 8480 8481 8606
4  1668 8653 8482 8606
4  8480 8405 8412 8407
4  8409 8606 8412 8407
4  7662 8194 8480 8407
4  8522 8524 8523 8655
4  1397 8523 8524 8655
4  6701 8174 8436 8522
4  1301 1305 404 8655
4  8436 8523 8656 8655
4  1617 8657 8638 8636
4  1617 1336 8657 8636
4  8644 8658 8659 8660
4  8659 8661 8662 8660
4  8659 8663 8660 8664
4  8644 8660 8659 8663
4  7960 7615 7871 8629
4  4270 8629 8665 8577
4  8666 8665 8629 8577
4  6137 7615 7960 8629
4  7707 7932 7798 8631
4  8339 8667 8642 8631
4  4425 8667 8665 8631
4  7871 8665 8339 8631
4  7871 8339 7798 8631
4  6506 7932 7707 8631
4  8668 8669 8670 8458
4  7716 7348 8472 8670
4  7716 8670 8472 8458
4  8669 8671 8672 8670
4  8671 8670 8472 8471
4  1422 8472 8639 8673
4  60 6595 6249 8674
4  7282 7966 8597 8674
4  7966 8595 8674 8675
4  6249 7282 8597 8674
4  8593 8596 8595 8674
4  8633 8590 8676 8589
4  4477 8633 8676 8589
4  22 7010 4478 8589
4  7753 8590 8632 8589
4  8001 8589 8632 8541
4  22 6362 7010 8589
4  4478 8633 8589 8541
4  8677 8678 8679 8680
4  8025 8567 8679 8680
4  7152 8678 8681 8682
4  535 8025 7152 8680
4  7152 8681 8678 8680
4  8474 8469 8465 8470
4  8498 8574 8493 8610
4  8571 8573 8646 8574
4  7975 7976 8193 8683
4  7469 8498 8494 8610
4  8406 8571 8608 8610
4  4561 8684 4310 8425
4  4310 8684 8375 8425
4  8685 8375 8374 8425
4  7562 8374 8373 8425
4  7577 7562 8425 8421
4  7685 8686 8687 8688
4  8689 8687 8686 8688
4  1675 1647 8689 8686
4  1647 8689 8686 8688
4  8613 8614 8689 8688
4  8690 8686 8691 8688
4  8613 8692 8614 8688
4  8614 8692 8545 8688
4  8693 8694 8695 8696
4  8697 8695 8694 8696
4  1265 8698 8699 8696
4  8697 8446 8695 8696
4  8700 8701 8702 8703
4  4297 8700 8702 8703
4  4297 8702 4287 8703
4  8356 8702 8704 8703
4  8578 8356 8704 8703
4  4338 8578 8701 8703
4  4289 4338 8701 8703
4  7798 7364 7363 8339
4  4314 4480 8705 8706
4  8705 8424 8707 8706
4  7507 8363 8552 8368
4  7688 7507 8552 8368
4  7691 7688 8708 8368
4  8708 8552 8556 8368
4  8709 8710 8651 8649
4  8413 8650 8711 8647
4  7398 8374 8419 8648
4  7398 8648 8419 8649
4  7398 7395 7546 8648
4  7546 7395 8414 8648
4  7491 7400 7395 8650
4  7491 8650 7395 8649
4  8637 8712 8475 8713
4  8637 8639 8712 8713
4  1452 8472 1422 8673
4  8637 8472 8475 8673
4  8714 8715 8716 8717
4  8714 8716 8718 8717
4  1281 8718 8716 8717
4  1537 1281 1243 8719
4  8715 8720 8719 8717
4  8714 8718 8721 8717
4  4435 8722 8723 8724
4  7364 8722 8339 8724
4  8666 8725 8723 8724
4  7364 8666 8723 8724
4  4564 8665 8667 8724
4  8339 8722 8667 8724
4  8679 8680 8567 8726
4  8565 8567 8566 8726
4  7358 8727 8677 8726
4  8377 8382 8380 8379
4  8377 8663 8455 8381
4  1403 8382 1405 8381
4  1453 1651 8728 8381
4  8728 8660 8663 8381
4  1512 1513 8433 8432
4  8562 8444 8434 8432
4  4491 8729 4556 8730
4  8429 8431 8563 8432
4  8562 8611 8430 8520
4  8523 8431 8430 8520
4  8562 8431 8430 8432
4  8521 8429 8523 8431
4  8524 8611 8519 8520
4  7429 8731 8714 8732
4  7972 8562 8563 8431
4  8672 8733 8734 8735
4  1528 1537 8736 8499
4  7773 8197 8737 8351
4  8197 8571 8737 8351
4  1904 8572 1909 8574
4  8349 8572 8351 8353
4  4540 8352 8371 8353
4  7773 8371 8352 8351
4  7272 8351 7774 8348
4  7272 8349 8203 8351
4  7719 6388 8687 8686
4  4541 8346 8355 8348
4  8698 8694 8699 8696
4  8450 8697 8698 8696
4  8451 8695 8446 8696
4  7108 8694 7854 8695
4  7107 7854 8697 8695
4  8192 8643 8738 8644
4  7200 7949 7241 8731
4  8451 8452 8446 8695
4  7109 8451 7407 8695
4  7407 8451 8693 8695
4  8709 8707 8710 8649
4  8710 8648 8651 8649
4  4313 8710 8648 8651
4  8711 8503 8647 8651
4  4608 4313 8648 8651
4  1435 8439 8739 8622
4  1435 8739 1477 8622
4  7429 8740 7430 8732
4  1520 8699 8624 8622
4  8576 8426 8628 8577
4  8693 8739 8623 8699
4  1270 8741 8742 8743
4  1270 8742 1267 8743
4  8698 8624 8694 8743
4  1267 8624 8698 8743
4  6786 8742 8744 8741
4  8742 8745 8744 8741
4  7113 7507 8551 8552
4  7688 6786 8744 8552
4  8708 8745 8556 8552
4  6781 6780 6779 8397
4  1514 6779 8403 8399
4  8108 8402 8396 8404
4  8402 8453 8403 8399
4  7401 8746 8747 8484
4  7401 8748 7410 8484
4  7410 8748 8481 8484
4  8652 8748 8749 8484
4  1612 1593 8671 8471
4  8469 8468 8750 8471
4  8469 8471 8465 8470
4  1612 8671 8465 8471
4  7615 8666 8629 8577
4  7615 7869 8666 8577
4  8666 8725 8665 8577
4  4434 8665 8725 8577
4  8576 8684 8426 8577
4  4434 8725 4539 8577
4  4268 8576 8628 8577
4  7468 8041 7949 8714
4  7567 8658 8715 8720
4  4422 4537 4532 8341
4  8734 8661 8720 8751
4  8734 8735 8661 8751
4  1528 8736 1537 8751
4  8041 7429 7949 8714
4  8661 8719 8720 8751
4  1557 1538 8661 8719
4  1557 8719 8661 8751
4  1909 8572 8571 8574
4  1680 8571 8406 8574
4  1682 1680 8406 8574
4  1904 8493 8417 8574
4  1234 1540 1551 8627
4  7703 7300 7401 8752
4  8753 8754 8755 8756
4  8718 8754 8757 8740
4  8755 8754 8758 8756
4  8759 8760 8627 8756
4  1731 8653 1668 8761
4  8189 8200 8309 8409
4  8309 8762 8585 8761
4  8189 8585 8360 8761
4  8189 8616 8200 8409
4  8763 8598 8764 8765
4  8766 8507 8504 8729
4  4425 4424 4564 8667
4  7601 8763 8767 8765
4  7797 7802 7739 8765
4  7695 7728 7248 8338
4  8600 8766 8764 8765
4  8600 8729 8766 8765
4  8766 8504 8767 8765
4  7204 7241 7246 8736
4  1385 8768 8441 8442
4  735 7537 1385 8442
4  8441 8442 8558 8443
4  8367 8560 8442 8443
4  8034 8442 8560 8443
4  735 1385 1522 8442
4  1522 1558 8560 8442
4  7519 8535 7445 8769
4  7445 8536 6564 8769
4  7532 7519 7445 8769
4  8770 8771 8772 8530
4  8042 8773 6788 8530
4  8540 8530 8537 8529
4  7589 8537 8530 8529
4  7445 8536 8535 8529
4  8042 8537 8773 8530
4  4287 8356 8702 8619
4  7928 8704 8357 8619
4  4540 8371 8352 8619
4  8356 8352 8357 8619
4  8406 8571 8410 8608
4  7353 7358 7729 8681
4  8200 8616 8737 8410
4  8746 8438 8774 8484
4  1430 1603 8652 8749
4  1603 8749 8774 8484
4  1528 8735 8736 8751
4  8497 8775 8776 8735
4  7246 8497 8776 8735
4  7244 7517 8672 8735
4  8672 8776 8733 8735
4  7517 8776 8672 8735
4  7244 8672 8734 8735
4  4446 8777 8771 8778
4  4445 8779 8777 8778
4  8780 8781 8782 8778
4  7551 8781 8780 8778
4  8659 8662 8734 8664
4  7210 8734 7751 8664
4  8668 8783 8460 8664
4  8460 8783 8663 8664
4  7574 7569 8455 8663
4  8377 8728 8644 8663
4  7574 8377 7566 8663
4  8644 8728 8660 8663
4  7566 8663 8659 8664
4  6515 8595 7966 8675
4  7911 6515 6923 8675
4  4410 6598 59 8675
4  6595 7966 8674 8675
4  8593 8674 8595 8675
4  4420 7047 604 8784
4  6564 8536 8784 8769
4  7911 7532 6564 8784
4  7532 8784 7047 8769
4  6515 6564 8785 8784
4  4410 8784 6598 8675
4  6515 8784 8785 8675
4  7682 8786 8780 8787
4  8788 8533 8536 8787
4  8592 8788 8785 8787
4  8788 8789 8533 8787
4  8594 8780 8789 8787
4  8346 8357 8354 8355
4  8127 8357 8346 8348
4  7927 7928 8704 8357
4  7153 8127 8346 8348
4  4603 8578 8356 8355
4  8578 8704 8356 8357
4  8180 8354 8357 8580
4  8180 8354 8127 8357
4  6263 8427 8428 8790
4  8426 8428 8427 8790
4  6263 6689 6138 8790
4  4429 8576 8427 8790
4  6263 8428 8427 8682
4  4435 8791 8792 8723
4  8666 8665 8725 8724
4  8226 7364 8666 8723
4  8226 8666 8793 8723
4  7364 7813 8722 8723
4  7813 8792 8791 8723
4  7750 8460 8668 8458
4  7803 8458 8457 8456
4  7489 8419 8424 8707
4  8396 8402 8452 8448
4  8464 8446 8396 8452
4  8451 8752 8449 8452
4  7650 8449 8752 8452
4  7107 8452 7109 8695
4  8449 8452 8402 8448
4  7703 8451 7109 8452
4  6247 7145 8024 8392
4  8395 8461 8392 8393
4  1284 8392 6778 8575
4  1645 1284 8461 8392
4  1645 8461 8391 8392
4  7101 6389 7609 8691
4  7695 7706 7728 8338
4  8545 8690 8691 8688
4  4360 4548 4464 8540
4  7132 8794 8690 8691
4  8048 8547 8794 8691
4  8545 8690 8547 8691
4  7302 8547 8048 8691
4  8795 8722 8791 8796
4  4435 4491 8791 8796
4  4489 4435 8722 8796
4  8478 8505 8477 8796
4  4497 8477 8507 8796
4  8795 8729 8505 8796
4  7709 8339 8338 8642
4  7798 8339 8642 8631
4  735 1522 332 6906
4  8341 8342 8338 8642
4  4424 8341 8667 8642
4  8341 8339 8667 8642
4  4422 8342 8341 8642
4  4424 4422 8341 8642
4  8408 8411 8423 8384
4  7283 8492 8422 8384
4  7369 8384 8411 8645
4  8492 8597 8797 8384
4  8797 8597 8383 8384
4  4297 8700 8618 8702
4  8798 8358 8779 8359
4  4580 8779 8358 8359
4  4574 8359 4580 8361
4  4580 4445 8779 8359
4  60 6249 8596 8674
4  987 6253 4326 8797
4  6469 6468 6249 7282
4  6249 7282 6468 8383
4  6253 8797 8383 8645
4  8797 8384 8383 8645
4  6249 8597 7282 8383
4  6249 6468 6253 8383
4  7495 7496 8411 8799
4  8138 8411 7496 8799
4  711 4525 4329 8799
4  8408 8531 8411 8799
4  8138 8411 8408 8645
4  4329 4525 8408 8799
4  7495 8411 8531 8799
4  46 4329 8138 8799
4  661 7504 4358 8570
4  8340 8336 8342 8570
4  4358 8340 8570 8569
4  8336 8338 8342 8570
4  7695 8342 8338 8570
4  7504 7789 8336 8570
4  4350 8342 7695 8570
4  7546 8488 8800 8473
4  7171 8473 8486 8487
4  7398 8488 8374 8648
4  7398 7546 8488 8648
4  8800 8488 8375 8487
4  8488 8374 8685 8375
4  1919 8654 8653 8801
4  8802 8803 8582 8801
4  7286 8802 8582 8801
4  7286 8136 8802 8801
4  7286 8585 8136 8801
4  1919 8582 8803 8801
4  1919 8804 8654 8801
4  8762 8653 8654 8801
4  8478 8510 8476 8506
4  8343 8340 8476 8344
4  8479 8476 8340 8344
4  4567 8477 8343 8476
4  8654 8805 8652 8748
4  4355 8476 4537 8340
4  4537 8476 8343 8340
4  6284 8694 8623 8624
4  6157 8806 8742 8624
4  6309 8625 6157 8624
4  7151 7152 8679 8681
4  1267 8742 1484 8630
4  7854 8694 6309 8743
4  6309 8694 8624 8743
4  6309 8694 6284 8624
4  8806 8630 8742 8624
4  8581 8583 8527 8807
4  8581 8779 8583 8781
4  7000 8779 8581 8781
4  7551 8779 7000 8781
4  8780 8807 8782 8781
4  7551 8779 8781 8778
4  8780 8782 8789 8778
4  4586 8596 8389 8591
4  8492 8797 8389 8422
4  4335 8389 4585 8422
4  8808 8546 8809 8547
4  7608 8048 8794 8691
4  7302 8545 8547 8691
4  1446 8690 8794 8547
4  1481 8794 8809 8547
4  8809 8794 8525 8547
4  8692 8545 8690 8547
4  7517 8810 8811 8776
4  8812 8813 8810 8814
4  7541 8208 8812 8810
4  7517 8208 8810 8776
4  8810 8813 8776 8814
4  8607 8815 8732 8816
4  8495 8816 8499 8496
4  8607 8494 8815 8816
4  7698 8499 8816 8496
4  7429 8815 8731 8732
4  7698 8731 7429 8815
4  8731 8721 8732 8816
4  8043 7221 8817 8632
4  8818 8817 8770 8773
4  7225 8763 8819 8820
4  7225 8819 8817 8820
4  7221 7225 8817 8820
4  7603 8817 8818 8773
4  7225 8818 7603 8817
4  4522 8782 8594 8807
4  8594 8782 8780 8807
4  8581 8583 8807 8781
4  7181 8581 8527 8807
4  7832 8780 7846 8807
4  7188 7181 8527 8807
4  7832 8821 8780 8807
4  7188 8527 8386 8807
4  7760 6990 6989 8623
4  8437 8439 8485 8440
4  1599 8485 8439 8440
4  6989 8623 8440 8621
4  8822 8823 8601 8824
4  1523 1291 8721 8495
4  8449 8402 8453 8448
4  4515 8583 8527 8824
4  8131 8527 8581 8824
4  7635 8527 8131 8824
4  4515 8527 4514 8824
4  7302 8545 8691 8688
4  8581 8527 8583 8824
4  7635 8131 8822 8824
4  8345 8478 8477 8796
4  7685 7236 7237 8614
4  4489 8722 8343 8796
4  8345 8341 8343 8337
4  8479 8476 8510 8561
4  7808 8336 8479 8569
4  4537 4567 8343 8476
4  8478 8477 8476 8344
4  4512 8486 8511 8489
4  4512 4513 8511 8486
4  7731 8473 8511 8486
4  8180 8579 8599 8580
4  8180 8511 8354 8580
4  4460 8511 8354 8489
4  1446 7132 193 8794
4  6867 7608 7678 8794
4  1446 8690 7132 8794
4  7869 8684 8793 8577
4  8684 8793 8725 8792
4  4559 8375 8684 8792
4  8684 8373 8375 8425
4  4311 4310 8685 8425
4  8428 8425 8420 8421
4  8180 7731 8354 8511
4  8598 8600 8764 8765
4  4530 4579 8600 8764
4  8598 8600 8730 8511
4  8598 8729 8600 8765
4  8598 8600 8729 8730
4  7802 7743 8598 8730
4  8825 8826 8822 8804
4  8131 8802 8822 8824
4  8199 8822 8802 8804
4  8131 8199 8822 8802
4  8802 8803 8581 8582
4  7001 8136 7286 8585
4  1926 1932 8613 8604
4  1926 8613 8823 8604
4  8601 8385 8604 8603
4  7419 8602 8491 8603
4  7502 8411 7369 8384
4  4603 4604 8578 8580
4  8579 8827 8763 8599
4  7927 8357 8578 8580
4  6426 7877 6782 8611
4  7942 8444 8562 8611
4  6782 8519 8524 8611
4  7877 8519 8611 8520
4  1539 8741 1270 8550
4  1270 1643 8742 8741
4  8366 8556 8741 8552
4  8744 8741 8745 8552
4  7151 7357 8679 8567
4  6719 8742 6786 8741
4  8551 8741 8544 8550
4  6719 8742 8741 8743
4  7625 6625 6629 8365
4  7690 8363 8368 8364
4  6705 8433 8562 8434
4  6629 8365 6625 8362
4  7690 8368 7691 8364
4  8362 8828 8363 8364
4  8369 8829 8365 8370
4  7623 7691 8369 8365
4  4440 8792 8730 8486
4  7169 8730 8792 8486
4  7169 7730 8730 8486
4  4556 8729 8600 8730
4  7730 7743 8730 8511
4  7801 8730 8795 8791
4  7801 7082 8730 8791
4  7743 8598 8730 8511
4  8795 8730 8729 8791
4  1630 1605 1538 8661
4  8658 8661 8659 8660
4  7210 8659 8734 8664
4  7566 8659 7210 8664
4  7566 8644 7567 8659
4  6788 8830 8777 8530
4  8798 8830 8700 8777
4  4300 8700 8772 8777
4  8771 8528 8777 8530
4  8798 8777 8700 8779
4  8772 8777 8830 8530
4  7729 8424 8428 8682
4  7489 8707 8424 8706
4  8705 8424 8419 8707
4  4487 8427 8705 8682
4  7489 8727 8707 8706
4  7358 8424 8678 8706
4  1638 8775 8776 8814
4  8497 8776 8775 8814
4  8017 8207 8615 8814
4  8812 8615 8831 8814
4  8017 8615 8812 8814
4  8832 8833 8834 8727
4  8467 8834 8469 8750
4  1884 8834 8835 8750
4  8467 8834 8835 8836
4  8676 8586 8587 8767
4  8190 8590 8587 8767
4  7956 7886 8587 8508
4  8586 8509 8587 8508
4  8586 8587 8767 8504
4  8190 8587 7886 8767
4  8447 8752 8746 8837
4  8451 8447 8693 8696
4  8451 8447 8746 8693
4  8447 8774 8746 8739
4  7487 8492 8388 8390
4  7609 7685 7302 8688
4  4335 8389 8422 8390
4  8008 8602 8490 8491
4  8605 8603 8491 8387
4  8602 8501 8490 8491
4  7169 8792 8375 8486
4  7813 8793 8792 8723
4  7835 8505 8504 8508
4  8504 8505 8507 8508
4  8504 8729 8507 8505
4  7737 8478 8795 8505
4  7391 7541 7400 8812
4  8828 8556 8363 8368
4  1555 8828 8838 8556
4  1553 8554 8828 8556
4  1370 8370 1633 8828
4  1633 1555 8828 8838
4  8793 8725 8792 8723
4  7813 8793 7085 8792
4  7082 8792 8730 8791
4  4435 8792 8725 8723
4  8832 8467 8834 8469
4  7801 7802 8795 8730
4  4435 8791 8722 8796
4  7813 7801 8722 8791
4  7882 8023 8395 8462
4  60 6249 4472 8596
4  7882 7694 8462 8550
4  1515 1546 8463 8462
4  7882 7853 8550 8393
4  8372 8351 8572 8353
4  7268 8573 8349 8417
4  8413 8415 8612 8416
4  4522 8821 8386 8807
4  4515 4502 8807 8781
4  8802 8581 8803 8824
4  8803 8581 8583 8824
4  4514 8385 8527 8386
4  6657 7357 7151 8567
4  7952 8811 7517 8810
4  22 4477 6362 8589
4  8579 8578 8827 8599
4  4595 8819 8827 8764
4  7730 8511 8730 8486
4  4338 8839 8578 8827
4  4595 8827 4604 8764
4  4618 8839 4338 8827
4  8602 8501 8500 8490
4  8013 8840 8490 8502
4  8008 7821 7487 8390
4  8013 8840 7821 8490
4  8423 8840 8532 8422
4  7821 8840 8423 8422
4  4489 8667 8343 8722
4  4350 8340 4537 8342
4  4350 4358 8340 8570
4  8345 8343 8477 8344
4  8479 8336 8340 8569
4  8479 8340 8476 8569
4  8341 8338 8342 8337
4  7735 8345 8344 8337
4  8343 8341 8340 8337
4  7248 8338 7709 8337
4  4532 8341 8343 8667
4  7706 8338 8342 8642
4  1575 8607 8405 8841
4  8437 8485 8405 8841
4  1583 8485 8626 8841
4  8740 8759 8626 8841
4  8107 8626 8437 8841
4  8798 8702 8700 8701
4  4297 4289 8700 8703
4  8153 8704 8702 8701
4  8704 8702 8701 8703
4  4540 8356 4287 8619
4  4297 8618 8700 8359
4  1909 8571 1680 8574
4  1727 8842 8409 8410
4  1680 8406 8571 8410
4  8197 8737 8571 8410
4  7637 8197 8571 8410
4  8203 8571 8197 8351
4  8133 8203 8573 8646
4  8133 7637 8646 8610
4  1682 8493 8574 8610
4  8609 8406 8608 8610
4  8498 8493 8494 8610
4  1682 8406 8494 8610
4  1636 8823 8613 8692
4  8613 8601 8823 8604
4  1636 8613 1647 8692
4  1932 1647 8613 8689
4  1919 8803 1709 8804
4  1709 8826 8805 8804
4  6595 7966 6469 8674
4  8822 8826 8802 8804
4  1629 1630 1242 8658
4  8654 8805 8825 8804
4  1709 1673 8805 8826
4  8581 8583 8358 8584
4  8583 8584 8582 8361
4  4580 4452 8583 8779
4  7001 8585 8358 8360
4  8798 8779 8700 8359
4  7000 8358 8581 8779
4  7912 8798 8358 8779
4  4587 8349 4534 8348
4  4603 8580 8578 8355
4  8578 8357 8356 8355
4  7773 8352 8371 8619
4  4540 4507 8356 8352
4  4540 8371 8372 8353
4  4587 4541 8355 8348
4  8350 8415 8347 8349
4  4310 8375 8685 8425
4  8800 8488 8685 8375
4  4561 4310 4311 8425
4  8800 8685 8488 8648
4  4311 8420 8685 8710
4  4313 4311 8685 8710
4  4313 8710 8685 8648
4  7469 7372 8494 8496
4  1291 8495 8494 8816
4  1667 1291 8495 8494
4  1632 8406 8607 8494
4  8455 8783 8460 8456
4  8668 8783 8669 8458
4  8669 8783 8459 8458
4  8457 8636 8459 8458
4  7751 8668 8460 8664
4  8515 8457 8459 8456
4  7763 7762 8454 8456
4  8668 8662 8783 8664
4  7750 7751 8668 8460
4  7763 8455 7569 8460
4  8618 8620 8360 8617
4  1599 1583 8440 8622
4  8739 8439 8623 8622
4  8451 8446 8447 8696
4  8698 8699 8694 8624
4  1478 1477 8739 8699
4  7107 8446 8464 8452
4  8449 8402 8525 8526
4  7382 8525 8402 8399
4  6958 8396 8402 8452
4  6779 8403 8399 8404
4  7678 8525 8075 8794
4  4472 987 4326 8797
4  8108 6958 8396 8402
4  8372 8737 8571 8351
4  1913 1680 8571 8410
4  7272 8347 7268 8349
4  8571 8573 8572 8351
4  7773 8352 7774 8351
4  7272 8347 8349 8348
4  4477 6362 8589 8588
4  7774 8352 8357 8348
4  7200 7567 7919 8715
4  4507 8356 8352 8355
4  7927 8704 8578 8357
4  8578 8580 8357 8355
4  4541 8346 8354 8355
4  8685 8710 8419 8648
4  8685 8419 8374 8648
4  8488 8685 8374 8648
4  7546 8414 8800 8648
4  7546 8800 8488 8648
4  8843 8683 8844 8845
4  8843 8683 8846 8847
4  8846 8683 8369 8847
4  8193 8683 8848 8845
4  7976 8846 8193 8683
4  6324 7803 7716 8635
4  8658 8659 8661 8720
4  1630 1243 8658 8719
4  1630 8658 8661 8719
4  1243 8716 8658 8719
4  7729 8681 8678 8682
4  7729 8678 8424 8682
4  7989 7729 8428 8682
4  6260 7152 8681 8682
4  7358 8679 8678 8681
4  7729 7358 8678 8681
4  600 4392 7152 8678
4  7990 7353 7989 8681
4  6260 7152 7990 8681
4  8679 8678 8681 8680
4  8377 8382 8518 8380
4  8455 8516 8515 8454
4  1334 1662 8382 8516
4  1334 8382 1403 8380
4  8382 8516 8518 8380
4  7913 8535 8022 8534
4  7450 8537 7589 8535
4  8786 8533 8536 8529
4  7445 7593 8536 8529
4  8537 8535 8534 8529
4  7468 8041 8714 8757
4  8757 8849 8850 8716
4  8757 8849 8716 8715
4  8714 8757 8716 8715
4  4523 8593 4586 8591
4  4522 4273 8388 8591
4  8605 8388 8386 8387
4  6455 8821 8388 8591
4  7487 8388 8605 8390
4  1242 1588 1587 8850
4  4522 8821 8388 8386
4  8385 8491 8603 8387
4  8008 8491 8490 8390
4  8492 8389 8797 8596
4  8605 8390 8388 8387
4  8705 8420 8710 8419
4  1495 1242 1587 8850
4  8685 8710 8420 8419
4  4314 8420 4311 8710
4  1441 1675 997 8686
4  6390 7719 7609 8686
4  1441 8690 1647 8686
4  997 1675 6388 8686
4  7719 8687 7685 8686
4  6390 7609 6389 8686
4  8846 8369 8708 8838
4  8512 8846 8708 8838
4  6975 8851 6976 8846
4  4435 8722 8791 8723
4  4559 8725 4435 8792
4  8684 8375 8373 8792
4  8684 8725 8793 8577
4  7169 8373 8375 8792
4  4559 8684 8725 8792
4  4537 8340 8343 8341
4  7871 8666 8665 8629
4  9 4424 4425 8631
4  4532 8343 4489 8667
4  8396 8452 8446 8448
4  8345 8667 8339 8722
4  8339 8665 8666 8724
4  4422 4537 8341 8342
4  4425 4564 8665 8667
4  7736 8345 8478 8344
4  7505 7506 7450 8538
4  8345 8339 8341 8337
4  7736 8345 7737 8478
4  7364 7737 8345 8722
4  8345 8722 8795 8796
4  7364 8345 8339 8722
4  8345 8343 8341 8667
4  7082 8792 7169 8730
4  4559 4310 8684 8375
4  7168 8374 8488 8375
4  4568 8800 8375 8487
4  8576 8427 8426 8425
4  8427 8420 8428 8425
4  4571 8819 8539 8770
4  8427 8705 8428 8420
4  6468 8383 7369 8645
4  4313 8685 4317 8648
4  8685 8374 8420 8425
4  4314 8705 4487 8420
4  8716 8715 8719 8717
4  8576 8426 8684 8425
4  4539 4559 8684 8725
4  7869 8373 7085 8793
4  7869 8684 8426 8373
4  7577 7869 8426 8373
4  8426 8373 8684 8425
4  1581 8446 8450 8696
4  1581 8450 1516 8698
4  6957 8829 6851 8852
4  8450 8697 8463 8698
4  8623 8694 8699 8624
4  8463 8698 8697 8550
4  1575 8405 1378 8841
4  7854 8697 8694 8743
4  1265 8698 1267 8699
4  8835 8812 8650 8831
4  8835 8812 8831 8813
4  1884 8835 1679 8750
4  1674 8775 1638 8814
4  1640 8733 8853 8776
4  1526 1528 8775 8495
4  8207 8615 8814 8418
4  1639 1638 8813 8814
4  8497 8814 8775 8418
4  8831 8615 8612 8814
4  1526 8495 8775 8418
4  1674 1526 8775 8418
4  7236 7237 8614 8601
4  1647 8613 8689 8688
4  8613 8614 8602 8689
4  8602 8604 8689 8501
4  8806 8630 8625 8627
4  7962 8200 8616 8737
4  8616 8409 8842 8410
4  1913 8571 8372 8410
4  1600 8523 8429 8430
4  1646 8429 1601 8432
4  489 1458 1233 8611
4  1605 1606 8661 8662
4  1587 1653 1626 8755
4  7566 7569 8663 8664
4  7569 7751 8460 8664
4  1651 8660 8728 8381
4  1405 8783 1407 8662
4  1407 8783 8669 8662
4  8668 8734 8662 8664
4  1349 8554 8556 8553
4  7688 8552 8708 8368
4  8363 8556 8554 8553
4  8437 8480 8482 8483
4  1586 1599 8485 8483
4  8318 8438 8481 8483
4  6990 8318 8480 8483
4  8254 8318 8438 8481
4  8482 8481 8652 8483
4  6990 8480 8437 8483
4  8362 8517 8363 8554
4  1306 8854 8362 8554
4  7505 8098 7506 8538
4  1349 8366 1263 8553
4  8060 8554 8517 8555
4  6975 7148 6976 8851
4  7010 7724 8098 8001
4  8369 8838 8828 8368
4  8363 8556 8552 8368
4  6786 8741 8744 8552
4  8753 8806 8742 8744
4  6157 8742 8806 8744
4  7148 6157 8806 8744
4  7688 7148 8708 8744
4  8579 8578 8704 8701
4  4579 4513 4556 8600
4  7929 8702 8704 8619
4  4540 8618 8371 8619
4  4287 8702 8618 8619
4  4540 4507 4287 8356
4  4337 8356 8578 8703
4  8714 8721 8731 8717
4  1537 8736 8721 8717
4  8720 8751 8719 8717
4  4460 4513 4579 8600
4  8721 8499 8495 8816
4  8731 8736 8721 8499
4  1523 8495 8721 8499
4  1666 1674 8612 8418
4  8016 8615 8418 8416
4  1666 8612 8493 8418
4  8615 8612 8418 8416
4  1899 1904 8493 8417
4  1674 8775 8814 8418
4  1894 8831 8711 8612
4  1894 1674 8831 8612
4  8347 8415 8414 8416
4  8016 8615 8207 8418
4  7959 8413 8017 8615
4  8413 8831 8812 8615
4  4420 8788 8533 8784
4  7532 6564 8784 8769
4  8786 8536 8533 8787
4  6516 8536 8786 8787
4  8533 8536 8535 8769
4  7532 7445 6564 8769
4  584 7047 4420 8769
4  8809 8546 8855 8547
4  1663 1664 8805 8855
4  1663 1609 1664 8837
4  8808 8855 8809 8546
4  8825 8855 8747 8546
4  1663 1517 1609 8837
4  8808 8747 8855 8546
4  8506 8586 8507 8508
4  7724 7753 8001 8589
4  8586 8504 8766 8507
4  4528 8766 4530 8507
4  4530 8507 8766 8729
4  4515 8803 8583 8824
4  8581 8358 8583 8779
4  4514 4522 8386 8807
4  4502 8782 8807 8781
4  8042 8513 8043 8773
4  8822 8826 8823 8824
4  7152 8679 8681 8680
4  8025 7151 7152 8679
4  7151 7357 7353 8681
4  7642 8679 7641 8726
4  7641 8679 7357 8567
4  7357 7358 7353 8681
4  8226 8793 7813 8723
4  7813 7085 7082 8792
4  7869 8226 8666 8793
4  7869 8426 8684 8577
4  8666 8793 8725 8577
4  7813 8791 8722 8723
4  4564 8722 4435 8724
4  4559 4440 8375 8792
4  8613 8602 8604 8689
4  1046 6601 6605 8502
4  6651 8013 7836 8500
4  1936 6605 8500 8502
4  1936 8689 1932 8501
4  8843 8845 8844 8856
4  8848 8845 8843 8856
4  8833 8677 8727 8726
4  8848 8738 8643 8856
4  7771 8845 8643 8857
4  7769 8845 7771 8857
4  7975 8193 8192 8845
4  7771 8192 8643 8845
4  8806 8760 8754 8627
4  8754 8627 8760 8756
4  8718 8740 8759 8756
4  1234 8627 8753 8756
4  8759 8627 8760 8626
4  1540 8759 8627 8756
4  6474 8754 6481 8740
4  4480 8678 8705 8706
4  6158 8754 8806 8760
4  4360 4551 4548 8540
4  8740 8759 8760 8626
4  6158 8625 6814 8760
4  6989 6481 8760 8626
4  6989 8760 8625 8626
4  1638 8776 8813 8814
4  8789 8786 8771 8533
4  4551 8533 8771 8534
4  4551 4508 8771 8533
4  8533 8784 8536 8769
4  8771 8534 8533 8529
4  4362 8534 8022 8769
4  1558 8367 8542 8560
4  4478 4464 8539 8541
4  8400 8542 8549 8543
4  7010 8098 8140 8541
4  7426 8400 8549 8548
4  8544 8367 8400 8543
4  1612 8465 8469 8471
4  1593 8853 1462 8671
4  1592 8465 8671 8472
4  1612 1592 8465 8671
4  1612 1592 1452 8465
4  7214 8795 8729 8505
4  8586 8504 8507 8508
4  7797 8767 8504 8765
4  4528 8586 8766 8507
4  8586 8767 8766 8504
4  8506 8509 8586 8508
4  7214 7797 8504 8729
4  8798 8620 8618 8702
4  6790 8798 7912 8779
4  6848 6992 8798 8701
4  8153 8704 7929 8702
4  8650 8707 8709 8649
4  6848 8798 6790 8830
4  1392 1393 845 8379
4  8738 8643 8376 8644
4  1629 8738 8376 8728
4  489 814 1458 8611
4  8738 8376 8643 8856
4  1493 1629 8738 8376
4  8643 8856 8376 8858
4  1393 8376 1493 8858
4  7358 8678 8677 8706
4  8605 8491 8390 8387
4  4514 4590 8385 8386
4  8601 8823 8604 8385
4  1926 8604 8823 8385
4  7661 8318 8481 8606
4  1603 8439 1599 8483
4  1658 8652 1603 8483
4  1376 8482 8405 8412
4  8437 8482 8480 8405
4  1376 1586 8485 8482
4  1936 8689 8501 8500
4  1675 8689 1936 8686
4  6657 8216 7641 8567
4  8614 8687 8689 8688
4  7358 6518 7489 8727
4  8692 8690 8545 8688
4  8602 8501 8689 8500
4  1546 8463 8462 8550
4  1515 1284 1564 8461
4  1936 8689 8687 8686
4  1932 8613 8604 8689
4  7225 8161 7889 8579
4  8740 8759 8841 8732
4  1575 1585 8759 8841
4  1575 8607 8841 8732
4  8718 8759 8740 8732
4  1575 8759 1280 8732
4  8740 8760 8759 8756
4  1540 8759 1533 8627
4  1585 1533 8759 8626
4  8607 8815 8841 8732
4  7430 8740 8841 8732
4  8497 8736 8775 8735
4  8168 8207 8497 8496
4  1639 8813 8831 8814
4  8856 8858 8857 8859
4  1350 1493 8856 8858
4  142 7734 8281 8858
4  8281 8858 8378 8379
4  8643 8858 8376 8378
4  8281 8858 8857 8378
4  1537 8719 8751 8717
4  7468 8757 8714 8715
4  1588 1281 8718 8716
4  7468 8849 8757 8715
4  1242 8658 1243 8716
4  1242 8850 8658 8716
4  8849 8658 8850 8716
4  8194 8608 8405 8407
4  8194 8405 8480 8407
4  7300 7296 8747 8546
4  7296 8825 8747 8546
4  8048 7300 8808 8546
4  8048 8546 8808 8547
4  7348 7711 7710 8670
4  4491 8729 8730 8791
4  7445 8535 8536 8769
4  7302 7296 8546 8545
4  8833 8834 8727 8677
4  7495 8531 6854 8799
4  6463 7496 8138 8645
4  6622 7496 7495 8799
4  6622 8138 7496 8799
4  8408 8423 8411 8531
4  7495 8411 7502 8423
4  7395 8413 7959 8414
4  8347 8473 8414 8466
4  8413 8415 8414 8503
4  8350 8347 8415 8503
4  7546 8800 8414 8473
4  8800 8503 8414 8466
4  7395 8414 8648 8647
4  7495 8411 8423 8531
4  4525 8531 8408 8799
4  711 6854 24 8531
4  711 6854 8531 8799
4  7221 8632 8590 8820
4  7753 7221 8632 8590
4  7010 7724 8001 8589
4  1638 1526 1528 8775
4  4478 8539 8633 8541
4  1512 1513 1617 8433
4  8632 8589 8633 8541
4  8632 8590 8633 8589
4  1234 1540 8627 8756
4  1594 8544 1546 8462
4  1515 8463 8461 8462
4  4425 4424 8667 8631
4  6781 8076 8108 8404
4  8395 8549 8461 8462
4  1546 8462 8544 8550
4  585 584 4362 8022
4  7694 8462 8550 8548
4  8023 8549 8395 8462
4  1594 8367 8544 8543
4  8395 8461 8549 8575
4  8208 8497 8207 8814
4  1919 1657 1655 8654
4  8498 8418 8493 8417
4  1425 1462 8669 8671
4  1679 1640 8853 8813
4  8853 8811 8810 8776
4  6323 6325 6324 8635
4  1592 8860 1422 8472
4  1674 8831 8612 8814
4  8835 8650 8709 8831
4  8811 8670 8671 8471
4  8413 8650 8812 8831
4  1566 1570 1514 8445
4  1674 1639 8831 8814
4  1889 8835 8831 8813
4  7296 7237 8187 8861
4  7570 7437 8643 8644
4  1493 8376 8856 8858
4  8643 8857 8856 8858
4  8376 8644 8377 8728
4  7287 7463 7289 8518
4  7292 8643 7437 8378
4  7151 7990 7152 8681
4  4376 8427 4487 8682
4  7487 7488 7486 8605
4  8427 8428 8705 8682
4  8836 8707 8727 8706
4  839 6263 8427 8682
4  6263 6260 7313 8682
4  7729 8678 7358 8424
4  6260 8681 7989 8682
4  4489 4497 4491 8796
4  6389 8690 8686 8691
4  1506 8843 8844 8856
4  7769 8845 8857 8862
4  7734 8857 8858 8859
4  1350 8856 1506 8859
4  8848 8843 8738 8856
4  8190 7797 7601 8767
4  8844 8845 8862 8859
4  8805 8652 8748 8749
4  7313 7438 7577 8428
4  1655 1658 8653 8652
4  8653 8652 8482 8606
4  1603 8652 8749 8484
4  8254 8481 8438 8484
4  7410 8654 8481 8748
4  7802 7730 7743 8730
4  8863 8515 8457 8657
4  7750 8458 7803 8456
4  8045 6969 6967 7956
4  8457 8634 8657 8636
4  6325 8864 8457 8634
4  8846 8847 8369 8838
4  7976 8846 8683 8369
4  6347 6609 8514 8864
4  6263 6693 6689 7313
4  8828 8838 8556 8368
4  758 7707 7706 8642
4  7623 8369 7976 8829
4  7691 6975 8369 8708
4  7551 8777 8779 8778
4  4446 8772 8771 8777
4  8773 8772 8830 8530
4  4446 4300 8772 8777
4  8818 8772 8839 8701
4  8818 8773 8772 8830
4  4300 8700 4289 8772
4  8700 8772 8830 8701
4  7310 8558 8559 8768
4  1384 6313 8559 8768
4  1384 8559 6313 8865
4  1384 8559 8441 8768
4  4545 8423 8408 8531
4  4273 4586 4585 8389
4  8441 8768 8558 8442
4  1425 1426 1592 8860
4  731 1384 1385 8768
4  8188 8558 8768 8442
4  7615 7869 8226 8666
4  803 6313 1384 8768
4  8497 8775 8736 8499
4  1495 1629 1242 8738
4  7469 8494 8498 8496
4  7241 8736 8731 8499
4  7241 8731 7698 8499
4  8498 8494 8493 8496
4  7698 8816 8494 8496
4  1566 1645 1572 8391
4  8168 8497 8499 8496
4  7407 7401 8254 8746
4  1378 8405 8485 8841
4  8115 7882 8023 8395
4  4452 4504 8782 8778
4  4571 4623 4618 8819
4  8605 8386 8603 8387
4  7635 8601 8385 8824
4  4297 4289 4300 8700
4  4590 8386 4522 8387
4  4563 4567 4497 8477
4  7846 8581 8807 8781
4  4540 4587 8352 8353
4  8131 7181 8581 8527
4  8514 8863 8516 8515
4  7419 8605 7486 8603
4  7486 8605 7188 8386
4  4515 4514 8527 8807
4  6780 8398 8403 8397
4  8592 8594 8821 8591
4  8391 8396 8398 8394
4  8450 8391 8396 8445
4  8690 8794 8547 8691
4  8396 8453 8445 8403
4  1514 8445 8453 8403
4  1514 8445 1570 8453
4  1570 8445 8450 8448
4  7256 8313 8185 8640
4  8339 8667 8665 8724
4  9 7707 4424 8631
4  4435 8723 8725 8724
4  4270 4425 8665 8629
4  7871 8666 8339 8665
4  4270 8628 6137 8629
4  4618 4338 4604 8827
4  8339 8665 8667 8631
4  6506 7871 8631 8629
4  8208 8812 8810 8814
4  1708 1926 1636 8823
4  1679 8750 8835 8813
4  8413 8711 8831 8612
4  8017 8413 8812 8615
4  6867 7132 7608 8794
4  7540 8835 8467 8810
4  7400 8413 8650 8812
4  8208 8017 8812 8814
4  6651 8500 6605 8502
4  1599 8439 8485 8483
4  412 7145 6778 8392
4  7731 8473 8346 8354
4  8369 8828 8370 8364
4  4534 4462 8346 8466
4  4587 8353 8349 8348
4  8350 8346 8347 8466
4  1731 1919 8653 8801
4  4515 8807 8583 8781
4  8822 8802 8826 8824
4  803 6437 6313 8768
4  1384 6313 742 8865
4  8803 8583 8581 8582
4  1553 8362 8828 8554
4  1709 8803 8826 8804
4  8199 8654 8825 8804
4  7574 7437 7566 8377
4  7558 7856 6705 7021
4  7650 7109 6958 8452
4  8136 8804 8802 8801
4  6325 8457 7803 8635
4  8585 8582 8584 8361
4  8136 8654 8804 8801
4  8199 8136 8654 8804
4  1334 104 1331 8516
4  7635 8822 8601 8824
4  4514 8527 8385 8824
4  8133 8498 7469 8610
4  1270 8550 8741 8743
4  8023 8549 8462 8548
4  8551 8366 8741 8552
4  7111 8551 8401 8548
4  1425 1407 1426 8669
4  8551 8401 8366 8553
4  7747 7574 7763 8455
4  7690 8363 7507 8368
4  8441 8559 8865 8557
4  1426 8860 8669 8459
4  8559 8865 8557 8640
4  1630 1605 8661 8660
4  1540 1533 1551 8627
4  8192 7467 7919 8849
4  8078 8865 8559 8640
4  8866 8568 8435 8565
4  7771 7975 8192 8845
4  104 344 1331 6697
4  7310 8558 7428 8559
4  1324 6610 1512 8864
4  839 600 6260 8682
4  8576 8426 8427 8790
4  1242 1588 8850 8716
4  1324 8864 1512 8657
4  8677 8680 8679 8726
4  1302 1670 1631 8712
4  4487 8427 4561 8420
4  6263 8428 7313 8790
4  839 6260 6263 8682
4  1557 8661 8733 8735
4  4268 8628 8576 8790
4  7153 8473 8347 8346
4  7171 8473 7731 8486
4  7546 7171 8488 8473
4  8565 8833 8832 8726
4  7722 7779 7723 8474
4  1079 1678 405 6712
4  4512 8473 8486 8489
4  7348 7710 7350 8670
4  4610 8800 4512 8473
4  7711 8668 7710 8670
4  7731 8473 7153 8346
4  8473 8511 8486 8489
4  6962 8108 8396 8397
4  1581 1570 1572 8450
4  414 412 1645 7145
4  7311 8426 8628 8790
4  6781 8108 6962 8397
4  6958 7109 7107 8452
4  6689 7313 7311 8790
4  6263 7313 8428 8682
4  4429 4268 8576 8790
4  1446 1022 193 7132
4  1579 1478 8447 8446
4  4561 8576 4539 8684
4  8426 8425 8428 8421
4  97 6263 6138 8790
4  839 6263 97 8790
4  6622 6623 6643 8799
4  7502 8423 8411 8384
4  7650 6958 8402 8452
4  6674 7495 8423 8531
4  7502 7821 8423 8422
4  7821 8840 8422 8490
4  6272 8423 8840 8532
4  4545 8408 8423 8422
4  4545 8423 8532 8422
4  4515 8527 8583 8807
4  6516 8785 8536 8787
4  8594 8780 8821 8807
4  7846 8807 8780 8781
4  7832 8592 8780 8821
4  6516 7832 8592 8787
4  7401 8747 8748 8484
4  1241 1646 1513 8432
4  808 1334 1392 8380
4  7300 7401 8752 8747
4  8481 8748 8652 8484
4  1664 8747 8837 8749
4  6713 6706 6710 7860
4  8825 8747 8805 8748
4  7504 7789 7905 8336
4  7470 6699 7747 8454
4  8479 8569 8476 8561
4  7400 7541 8017 8812
4  7808 7735 8479 8336
4  4532 4489 4564 8667
4  1586 1583 1378 8485
4  7364 8339 8666 8724
4  7541 8208 8017 8812
4  7487 8492 6455 8388
4  7737 7801 8795 8722
4  7383 8048 8808 8525
4  7302 8546 8048 8547
4  7296 8825 7409 8747
4  7506 8042 7450 8537
4  6469 7966 7282 8674
4  7383 7300 7703 8752
4  7383 7300 8752 8808
4  1708 1636 1673 8823
4  8752 8837 8449 8808
4  8613 8823 8601 8692
4  8822 8823 8826 8861
4  1673 8826 8823 8861
4  1708 1673 8826 8823
4  7391 7540 8835 8867
4  7846 8581 7181 8807
4  1617 1455 1336 8636
4  7813 8792 7082 8791
4  7391 7540 7541 8812
4  7491 8419 8707 8649
4  1879 1884 1977 8834
4  1670 1669 1631 8712
4  24 8531 6272 8532
4  4585 8389 8797 8422
4  4545 8797 8408 8422
4  8492 8797 8422 8384
4  4545 8423 8531 8532
4  1671 1669 1677 8866
4  7296 8825 8546 8861
4  1664 8855 8837 8747
4  8825 8805 8855 8861
4  1430 8805 1664 8749
4  1664 8805 8855 8747
4  1664 8837 1609 8749
4  7409 8747 8825 8748
4  1889 8831 1639 8813
4  8133 8016 7469 8498
4  6272 8531 8423 8532
4  1506 1495 8843 8856
4  1904 1682 1666 8493
4  1443 8855 1663 8692
4  8805 8748 8747 8749
4  6324 7716 7479 8637
4  8481 8484 8652 8483
4  1637 1642 1389 8557
4  1302 1457 1600 8523
4  8555 8557 8868 8640
4  8435 8436 8712 8656
4  1384 1389 8441 8865
4  1678 1677 1670 8435
4  808 7463 6699 8380
4  742 8078 1637 8865
4  1457 1631 1422 8639
4  6792 7762 6347 8514
4  1677 1669 1670 8866
4  6792 7747 7763 8454
4  1389 8441 8865 8557
4  7108 8623 6284 8694
4  1477 8699 1520 8622
4  1543 6957 81 8852
4  8848 8643 8845 8856
4  8693 8623 8694 8699
4  1633 8828 8847 8838
4  8592 8788 8594 8593
4  1234 1551 1643 8753
4  4410 59 4471 8675
4  8592 8785 8593 8595
4  1321 1234 1643 8753
4  8785 8784 8788 8675
4  4471 4586 8593 8596
4  7111 7694 7113 8548
4  4471 6595 8674 8675
4  7750 7711 7803 8458
4  7345 7350 7952 8468
4  7570 7919 7567 8644
4  1405 1407 1605 8662
4  8145 6713 6701 8174
4  1515 1572 8391 8463
4  1669 1612 1452 8465
4  1269 8698 8463 8550
4  1671 1977 1612 8469
4  7853 8464 8697 8393
4  7751 7710 7711 8668
4  7470 7747 6792 8454
4  1516 8450 8463 8698
4  8601 8823 8385 8824
4  4604 8764 8827 8599
4  4579 8600 8599 8580
4  1626 1234 1321 8512
4  7927 8180 8357 8580
4  8498 8493 8418 8496
4  8318 7662 8282 8480
4  7730 7731 8511 8486
4  8800 8414 8503 8648
4  7662 8762 8409 8606
4  7401 7409 7410 8748
4  8739 8439 8438 8623
4  8192 8193 7467 8848
4  8354 8357 8580 8355
4  8127 8354 8346 8357
4  1605 1606 1538 8661
4  6 4425 4270 8629
4  7869 8684 8373 8793
4  4270 8628 8629 8577
4  7615 8628 7869 8577
4  4270 8665 4434 8577
4  8666 8725 8793 8723
4  6 6506 4425 8629
4  7350 7517 8811 8672
4  8413 8711 8503 8647
4  1884 1679 1977 8750
4  7710 8672 7350 8670
4  8576 8628 8426 8790
4  8853 8671 8811 8672
4  8853 8733 8672 8776
4  8853 8811 8671 8471
4  8811 8672 8671 8670
4  6992 8620 8798 8702
4  8668 8672 8733 8734
4  46 8138 6643 8799
4  8133 8573 8498 8646
4  4337 8578 4338 8703
4  4540 4587 4507 8352
4  4297 4287 4289 8703
4  8127 7774 8357 8348
4  6992 8702 8798 8701
4  7603 6788 8773 8830
4  6992 7912 8798 8620
4  6848 8798 8830 8701
4  8798 8618 8700 8702
4  6390 6389 6388 8686
4  7927 8579 8578 8704
4  4287 8356 4337 8703
4  7188 7846 7181 8807
4  711 24 4525 8531
4  4338 8578 8839 8701
4  8712 8656 8436 8713
4  8155 8474 8568 8712
4  8474 8712 8475 8465
4  8369 8847 8829 8370
4  45 8138 8408 8645
4  8866 8435 8568 8712
4  1302 1670 8712 8656
4  1670 8866 1669 8712
4  1443 8692 8690 8547
4  1647 8690 8692 8688
4  8614 8692 8601 8545
4  7247 8829 7318 8862
4  7609 7302 8691 8688
4  7609 8691 8686 8688
4  8546 8545 8692 8547
4  4508 8789 8771 8533
4  7237 8614 8601 8545
4  8013 7821 8008 8490
4  7685 8687 8614 8688
4  7237 8545 8601 8861
4  8546 8692 8545 8861
4  7682 8780 7832 8787
4  1629 1242 8738 8658
4  1453 8381 8376 8379
4  4362 8533 4551 8534
4  1495 8738 8843 8856
4  4514 4522 4590 8386
4  7889 8579 8704 8701
4  8192 8193 8848 8845
4  7637 7469 7372 8609
4  7733 7318 7769 8862
4  1453 1629 8376 8728
4  1629 8738 8728 8658
4  1926 8613 1636 8823
4  1647 1443 8692 8690
4  7421 8400 8401 8557
4  8341 8338 8339 8642
4  661 6795 7504 8570
4  6313 8559 8078 8865
4  8313 8559 7428 8557
4  190 6138 6137 8628
4  7503 7905 7583 7808
4  1263 8868 8401 8557
4  758 154 4422 7706
4  8400 8367 8401 8557
4  6137 7613 7960 7615
4  499 843 661 8570
4  4336 8422 8532 8490
4  8762 8653 8409 8606
4  7661 8762 7662 8606
4  8318 8481 8480 8483
4  4420 604 4410 8784
4  1658 1586 8482 8483
4  4623 8839 8819 8770
4  4618 8819 8839 8827
4  1603 8652 8484 8483
4  7248 7709 7735 8337
4  8468 8811 8750 8471
4  4583 4571 4618 8819
4  8676 8589 8590 8588
4  8669 8860 8671 8670
4  7345 8471 8468 8470
4  8475 8472 8465 8673
4  1592 1452 8465 8472
4  4623 4289 4338 8772
4  4337 4604 4338 8578
4  1671 8469 1612 8465
4  8475 8465 8472 8470
4  8657 8634 8638 8636
4  7577 8373 8426 8425
4  8639 8636 8638 8635
4  7357 8679 7358 8681
4  1692 1678 6712 8564
4  6346 8563 8433 8634
4  8864 8657 8457 8634
4  8783 8459 8458 8456
4  4440 8730 4513 8486
4  4429 4268 4561 8576
4  8433 8563 8638 8634
4  8467 8836 8867 8727
4  7489 8727 8867 8707
4  8836 8727 8677 8706
4  6138 6689 7613 7311
4  1889 1679 8835 8813
4  8835 8709 8867 8836
4  8467 8835 8834 8750
4  8705 8419 8710 8707
4  6518 8467 8867 8727
4  7491 8867 8650 8707
4  6506 7960 7932 7871
4  4314 8705 8710 8707
4  7871 7364 7798 8339
4  7489 6518 8867 8727
4  6506 7871 7932 8631
4  1904 1682 8493 8574
4  8498 8417 8493 8574
4  6598 7047 7911 8784
4  584 604 4420 7047
4  8207 8498 8418 8496
4  46 711 4329 8799
4  8016 8207 8498 8418
4  1682 8406 1632 8494
4  1682 1667 8493 8494
4  4471 8674 8593 8675
4  936 4360 4464 8538
4  1666 8493 1667 8495
4  1899 8493 1666 8612
4  8497 8775 8495 8418
4  584 8022 7047 8769
4  7551 7912 7000 8779
4  4445 4446 4452 8778
4  6601 6272 8840 8532
4  6651 6601 6837 8840
4  6651 6601 8840 8502
4  4471 4472 4586 8596
4  8110 6272 8423 8840
4  4439 4336 4545 8532
4  4335 8390 8491 8387
4  8840 8532 8422 8490
4  46 999 711 8799
4  8013 8008 8500 8490
4  4540 8352 8356 8619
4  711 8531 4525 8799
4  46 6643 999 8799
4  8616 8842 8372 8737
4  8356 8357 8704 8619
4  8616 8372 8842 8641
4  7961 8620 7929 8617
4  6621 7495 6854 8799
4  8203 8571 8573 8646
4  7928 7773 7929 8619
4  8356 8704 8702 8619
4  6896 6906 8034 8442
4  1384 8441 1385 8768
4  6674 8110 6272 8423
4  7688 7148 6975 8708
4  1637 8868 8557 8640
4  1633 1634 1620 8847
4  7536 6437 7537 8768
4  7114 6311 6437 8768
4  808 1392 845 7463
4  6896 8034 8188 8442
4  1543 81 1358 8852
4  7287 7289 7747 8518
4  7428 8400 8557 8443
4  334 1288 1284 8575
4  6629 7267 8213 8517
4  1384 8441 8559 8865
4  7536 6311 7114 8768
4  7536 8188 7310 8768
4  1553 8828 1555 8556
4  1269 8698 8550 8743
4  8313 8557 8555 8640
4  8693 8699 8694 8696
4  6309 8624 8742 8743
4  1558 8542 8367 8543
4  8077 8115 8549 8575
4  8464 8697 8450 8446
4  731 7537 6437 8768
4  1566 414 1645 8398
4  8131 7286 8802 8581
4  7853 8697 6719 8550
4  332 1288 334 6907
4  1263 8366 8401 8553
4  7739 8598 8180 8599
4  7487 8605 7419 8390
4  8188 8034 7428 8558
4  7225 8818 8819 8579
4  7225 7889 8818 8579
4  7739 8763 8598 8599
4  7889 8579 7927 8704
4  8521 8429 8563 8635
4  878 1500 8075 8399
4  1457 8429 8639 8638
4  8860 8459 8636 8458
4  8193 6975 6976 8846
4  8637 8860 8636 8458
4  1617 8657 8433 8638
4  7803 8457 8458 8635
4  7750 8668 7711 8458
4  1301 1670 1302 8656
4  1336 8459 8657 8636
4  1592 1426 1422 8860
4  8637 8458 8636 8635
4  7463 8518 8380 8378
4  1455 8638 8639 8636
4  7750 8460 8458 8456
4  8637 8472 8860 8458
4  6968 8054 6362 8588
4  7762 7750 7803 8456
4  7467 7468 7919 8849
4  1422 8639 8860 8636
4  7415 7236 8614 8602
4  1336 8860 8459 8636
4  1592 1422 1452 8472
4  8669 8459 8860 8458
4  1336 8860 1426 8459
4  1425 8860 1592 8671
4  1425 8669 8860 8671
4  7688 8744 8708 8552
4  7113 8551 8741 8552
4  987 6253 8797 8383
4  1539 8544 8741 8550
4  4410 8593 8788 8675
4  1643 8745 8742 8741
4  6450 7488 6455 8821
4  8551 8366 8544 8741
4  7286 8802 8581 8582
4  1321 8753 1643 8745
4  604 7047 6598 8784
4  4445 4300 4446 8777
4  4472 4585 4586 8596
4  4547 4623 8770 8772
4  7707 7798 7833 8642
4  4563 4497 4489 8796
4  7927 7928 8153 8704
4  7415 8008 7419 8602
4  4618 4623 4338 8839
4  4503 8782 4504 8789
4  4522 4503 8594 8782
4  8594 8780 8782 8789
4  4424 8642 8667 8631
4  8771 8777 8528 8778
4  4522 8594 8821 8807
4  4502 8782 4522 8807
4  1677 8866 8435 8566
4  8568 8712 8435 8436
4  4388 6967 4476 8509
4  7959 8016 7268 8416
4  8161 7927 7889 8579
4  1670 8435 8866 8712
4  1301 8435 1670 8656
4  1478 8739 8447 8696
4  4460 4579 4603 8580
4  7363 7364 8345 8339
4  7225 7601 8161 8763
4  4532 4563 4489 8343
4  7584 7736 7835 8510
4  4564 4489 4435 8722
4  8161 7739 8180 8599
4  7882 8462 8395 8393
4  8043 7221 7225 8817
4  1516 8463 1269 8698
4  8474 8832 8866 8469
4  7716 7711 8670 8458
4  1336 1422 1426 8860
4  1392 1453 1393 8379
4  8451 8693 8695 8696
4  7846 8780 7551 8781
4  1336 1422 8860 8636
4  6450 8592 7832 8821
4  1678 1670 1301 8435
4  7819 8522 8521 8713
4  1692 1677 1678 8566
4  8821 8605 8388 8386
4  7878 7853 7882 8393
4  7736 8479 8478 8510
4  8668 8669 8783 8662
4  6792 7763 7762 8454
4  1601 8429 1457 8638
4  7956 8510 7835 8508
4  8783 8663 8660 8381
4  1537 1243 1538 8719
4  6481 8740 8760 8626
4  8045 6969 7956 8510
4  7350 8670 8811 8471
4  6814 6989 6481 8760
4  4387 8045 8506 8561
4  8045 8506 8510 8509
4  8045 8510 7956 8509
4  1233 8430 1646 8432
4  7382 7383 7650 8525
4  1646 8430 8429 8432
4  7487 7488 8605 8388
4  7486 8386 7635 8603
4  6705 7972 8562 8563
4  6346 8433 8864 8634
4  1513 8638 8433 8432
4  6346 8864 6325 8634
4  8521 8639 8429 8635
4  8521 8563 8429 8431
4  6346 8433 6705 8434
4  7000 7286 7181 8581
4  1512 8433 1617 8657
4  1427 1609 1498 8774
4  6705 8562 8433 8563
4  1458 8430 1233 8611
4  8786 8771 8533 8529
4  4590 4522 4273 8387
4  6346 8864 8433 8434
4  6346 6323 8563 8634
4  7488 8821 7188 8605
4  8864 8433 8657 8634
4  1512 8433 8864 8434
4  7635 7188 7181 8527
4  4289 8701 8700 8703
4  1936 8687 8689 8500
4  7486 7488 7188 8605
4  1936 6605 8687 8500
4  7486 7188 7635 8386
4  8013 8490 8500 8502
4  8840 8532 8490 8502
4  1932 8689 8604 8501
4  7415 8602 8687 8500
4  7415 8008 8602 8500
4  8771 8528 8530 8529
4  8771 8777 8772 8530
4  8819 8763 8764 8820
4  4579 8764 4604 8599
4  4289 4337 4338 8703
4  4446 8771 8789 8778
4  4464 4548 8539 8540
4  8042 8043 7603 8773
4  6598 7911 6923 8675
4  8098 8001 8513 8541
4  6789 8786 8528 8778
4  8770 8772 8773 8530
4  7846 7551 7000 8781
4  4623 8839 8770 8772
4  4445 8777 4446 8778
4  1425 1606 1407 8669
4  6788 8830 6790 8777
4  7913 8535 8534 8538
4  8786 8528 8771 8529
4  1977 1679 1593 8750
4  8700 8830 8772 8777
4  7803 7711 7716 8458
4  4446 4508 8789 8771
4  4317 4568 8800 8375
4  1324 8863 8864 8657
4  1537 1281 8719 8717
4  7976 6975 8846 8369
4  7541 7952 8208 8810
4  1376 1586 1378 8485
4  7682 7551 8780 8778
4  7860 8436 8568 8564
4  1425 1462 1606 8669
4  8155 8436 8171 8713
4  8024 7878 7882 8393
4  7569 8460 8663 8664
4  1502 1587 1626 8755
4  8155 8712 8568 8436
4  8455 8783 8382 8381
4  1682 1680 1632 8406
4  8155 8475 8712 8713
4  7722 7780 8568 8565
4  7860 8155 8568 8436
4  1441 1443 1647 8690
4  1514 1500 878 8399
4  7678 8048 8525 8794
4  7722 8568 8474 8565
4  1913 1681 1680 8410
4  8746 8837 8752 8747
4  8451 8746 8447 8752
4  8187 8822 8825 8861
4  7703 8746 8451 8752
4  1603 8438 8774 8439
4  8746 8774 8747 8484
4  7188 8386 8821 8807
4  7703 7401 8746 8752
4  1663 8692 8855 8861
4  1585 1583 1533 8626
4  1516 1269 1265 8698
4  7407 8746 8254 8438
4  8854 8555 8554 8868
4  1500 8075 8526 8794
4  8185 8517 7587 8640
4  7256 7587 8078 8640
4  7760 6989 6284 8623
4  1307 8854 8868 8640
4  7256 8185 7587 8640
4  6284 8623 6989 8625
4  1288 8560 8542 8575
4  1657 8805 1430 8652
4  7108 7760 6284 8623
4  7603 6848 6788 8830
4  4547 4300 4289 8772
4  8623 8624 8699 8622
4  6989 8625 8623 8621
4  4573 4297 4574 8618
4  8818 8839 8579 8701
4  1477 8739 8699 8622
4  1267 8630 1520 8624
4  7846 7000 7181 8581
4  1599 8440 8439 8622
4  7225 7889 7603 8818
4  6848 8830 8818 8701
4  4573 4287 4297 8618
4  1681 1668 1376 8412
4  4452 8781 8779 8778
4  7733 6851 7247 8862
4  1731 1919 1655 8653
4  8789 8771 8786 8528
4  7733 8857 7734 8862
4  8616 8842 8360 8641
4  7318 8683 7975 8862
4  8845 8857 8862 8859
4  8683 8369 8847 8829
4  7635 7181 8131 8527
4  4268 8628 4270 8577
4  6699 8518 8516 8380
4  8377 8382 8455 8518
4  1919 1709 1657 8804
4  6284 6989 6814 8625
4  1583 1520 1533 8621
4  1583 8626 8440 8621
4  8693 8739 8438 8623
4  7760 8254 6990 8438
4  1403 8381 1453 8379
4  8377 8380 8378 8379
4  8133 7469 7637 8610
4  6699 7463 8518 8380
4  1392 7463 8380 8379
4  1547 8733 8776 8735
4  7961 7929 7962 8617
4  1666 1667 1526 8495
4  1913 8372 8842 8410
4  1502 8843 8846 8847
4  1543 8847 1633 8370
4  1543 8852 8847 8370
4  1633 8847 1620 8838
4  7729 7576 7438 8424
4  8480 8405 8482 8412
4  1667 8495 8493 8494
4  1682 1667 1666 8493
4  1634 8844 1502 8847
4  7949 8714 8731 8715
4  1585 1533 1540 8759
4  1291 8732 8721 8816
4  7959 8413 8615 8416
4  7650 7703 7109 8452
4  1634 8844 8847 8852
4  8855 8546 8692 8547
4  8616 8371 8641 8617
4  7961 8189 8360 8617
4  8616 8360 8842 8761
4  8620 8360 8358 8359
4  8372 8371 8737 8351
4  8041 7429 8714 8740
4  1280 1282 8718 8759
4  8753 8806 8754 8627
4  7430 8740 8626 8841
4  7678 8048 7383 8525
4  8851 8512 8846 8708
4  6867 7678 7672 8075
4  1481 1597 1517 8809
4  1620 8512 1321 8838
4  1620 8755 1626 8512
4  1620 8755 8512 8846
4  7624 8365 8362 8364
4  1502 8843 8755 8846
4  1620 1502 8846 8847
4  8834 8836 8727 8677
4  1446 1443 1441 8690
4  8678 8424 8705 8706
4  7358 8679 8677 8678
4  6651 7836 7718 6605
4  1879 1671 8833 8469
4  8467 8834 8836 8727
4  7642 7358 8679 8726
4  7391 8650 8835 8812
4  8451 8449 8447 8448
4  7975 8683 8193 8845
4  8395 8462 8461 8393
4  1669 8712 8465 8673
4  7907 7292 7289 8378
4  1651 1605 1630 8660
4  7348 8670 7350 8471
4  8750 8811 8853 8471
4  8474 8832 8469 8470
4  8024 6962 7878 8394
4  845 8281 7463 8379
4  7345 8468 8467 8470
4  7350 8811 8468 8471
4  8853 8810 8813 8776
4  8467 8835 8750 8810
4  97 6138 4268 8790
4  7350 7952 8468 8811
4  8438 8623 8439 8440
4  7287 7907 7289 7463
4  8738 8644 8376 8728
4  7907 8281 7292 8378
4  1520 8624 8621 8622
4  7407 7760 8693 8438
4  1324 6609 934 6610
4  1603 8774 8438 8484
4  7760 8693 8438 8623
4  7479 8637 8475 8713
4  1498 8774 8447 8739
4  8447 8752 8837 8449
4  1593 8750 8853 8471
4  7517 8811 8672 8776
4  1593 8853 8671 8471
4  1528 8775 8736 8735
4  7540 8468 7952 8810
4  1678 405 6712 8435
4  1233 8444 7942 8611
4  1458 1397 1646 8430
4  7470 6792 8514 8454
4  1324 1512 1617 8657
4  7942 7021 8562 8444
4  7952 8468 8811 8810
4  8429 8639 8638 8635
4  8750 8853 8811 8810
4  1639 1638 1640 8813
4  489 7942 6421 8611
4  7136 7877 7876 8519
4  1640 1462 8853 8733
4  1679 1593 8750 8853
4  1513 1601 1455 8638
4  1331 344 1324 8863
4  8853 8672 8811 8776
4  8835 8750 8810 8813
4  8789 8771 8528 8778
4  6325 7762 7803 8457
4  8563 8638 8634 8635
4  4268 4270 4539 8577
4  8817 8539 8819 8770
4  4547 8770 8771 8772
4  8540 8773 8537 8530
4  8539 8513 8540 8773
4  8513 8537 8540 8773
4  8460 8783 8458 8456
4  7569 8460 8455 8663
4  1662 8515 1413 8783
4  1630 8658 8728 8660
4  6968 6966 8587 8509
4  845 1393 142 8281
4  7769 7975 8845 8862
4  4476 8676 8586 8588
4  8764 8766 8767 8765
4  7601 7739 8763 8765
4  7797 8504 8729 8765
4  1358 8852 6851 8859
4  142 1350 1011 7734
4  8643 8857 8858 8378
4  8478 8506 8505 8508
4  8763 8767 8764 8820
4  8676 8767 8590 8820
4  8618 8702 8620 8619
4  1430 1664 1427 8749
4  943 1514 878 6779
4  7108 6284 7854 8694
4  1581 1579 1570 8448
4  7989 7729 7438 8428
4  1581 8450 8698 8696
4  8618 8620 8617 8619
4  7962 8371 8616 8617
4  8616 8371 8372 8641
4  1302 8523 8656 8713
4  1241 1233 1646 8432
4  8145 7876 8174 8522
4  7345 7348 7350 8471
4  7779 7479 7348 8475
4  8800 8473 8488 8487
4  7082 7169 7730 8730
4  4568 8375 4440 8486
4  1555 8745 1323 8556
4  7169 8488 7171 8487
4  78 81 1543 6957
4  4568 4512 8800 8487
4  8844 8856 8845 8859
4  8718 8758 8757 8754
4  926 78 1370 6625
4  6481 7430 8740 8626
4  4541 4603 4507 8355
4  7429 7430 8815 8732
4  8313 7421 8555 8557
4  7489 7491 8419 8707
4  8313 8559 8557 8640
4  1679 1640 1593 8853
4  1593 1640 1462 8853
4  1389 8367 8441 8557
4  1637 8868 1642 8557
4  1389 1628 8367 8557
4  7637 7371 8194 8608
4  7869 8793 8666 8577
4  7258 8078 6313 8559
4  1264 8854 8554 8868
4  1642 8868 1263 8557
4  7268 8498 8573 8417
4  1307 8854 1264 8868
4  1682 1632 1667 8494
4  1585 8626 8759 8841
4  7469 8494 8609 8610
4  1628 1263 8401 8557
4  190 4268 6138 8628
4  1637 1307 8868 8640
4  8153 7928 7929 8704
4  4573 8618 4574 8360
4  7350 7517 7952 8811
4  7928 7929 8704 8619
4  6992 8153 8702 8701
4  1669 1452 1631 8673
4  8798 8618 8620 8359
4  8618 8360 8620 8359
4  4574 8360 8618 8359
4  4574 8618 4297 8359
4  7661 8654 8762 8606
4  6989 8623 6990 8440
4  8480 8482 8481 8606
4  6989 6990 8107 8437
4  6990 8438 8318 8483
4  1680 8410 1681 8407
4  7637 8571 8646 8610
4  7410 8481 8254 8484
4  7662 8606 8409 8407
4  8254 8438 8746 8484
4  1435 8774 8739 8439
4  1458 8524 1397 8430
4  1028 1233 1241 8444
4  1631 1452 1422 8673
4  6651 6605 6601 8502
4  7348 8472 8670 8471
4  7557 8562 7972 8520
4  1280 1282 1281 8718
4  7771 7570 7437 8643
4  7698 8494 7372 8496
4  7430 8841 8815 8732
4  7200 7468 7949 8715
4  1028 7942 1233 8444
4  7763 7574 7569 8455
4  7949 8714 7429 8731
4  814 6421 6782 8611
4  1675 1932 1936 8689
4  8598 8599 8600 8580
4  8827 8764 8763 8599
4  8763 8764 8598 8599
4  7927 8579 8180 8580
4  4595 8819 8764 8820
4  6989 8107 7430 8626
4  7168 7546 7171 8488
4  1513 1646 1601 8432
4  8676 8764 8766 8767
4  4595 8764 4530 8766
4  8539 8513 8541 8538
4  6263 6260 6693 7313
4  7593 8786 8536 8529
4  4362 8533 8534 8769
4  8042 7589 8537 8530
4  7126 7805 7015 8570
4  4376 4429 4487 8427
4  4537 8340 8341 8342
4  7735 8344 8336 8337
4  8592 8780 8594 8787
4  4471 4586 4523 8593
4  7695 7706 8338 8342
4  4424 8341 4532 8667
4  4532 4537 8343 8341
4  154 4350 4422 8342
4  7358 7489 8424 8706
4  1909 1913 1680 8571
4  8133 7637 8203 8646
4  4270 4425 4434 8665
4  8842 8372 8737 8410
4  4540 4287 8618 8619
4  7642 8832 6518 8727
4  8478 8795 8505 8796
4  7737 8478 8345 8795
4  7801 8795 8722 8791
4  7214 8795 7802 8729
4  4587 4541 4507 8355
4  7773 8371 8617 8619
4  7802 8729 8795 8730
4  7635 8385 8527 8824
4  4563 8343 8477 8796
4  4563 8477 4497 8796
4  7836 8013 8008 8500
4  7415 7419 7236 8602
4  7419 7486 7635 8603
4  7283 8597 8492 8384
4  4335 8422 8490 8390
4  6651 8013 8500 8502
4  8477 8505 8507 8796
4  986 4476 6967 6968
4  6966 8587 8225 8588
4  8604 8385 8491 8603
4  7488 7832 7188 8821
4  6450 8592 8821 8591
4  8045 7956 6967 8509
4  4476 6968 8586 8509
4  4507 4337 4287 8356
4  4547 4623 4548 8770
4  4547 4289 4623 8772
4  4297 8618 4287 8702
4  6848 8153 6992 8701
4  7214 8729 8504 8505
4  6790 8830 8798 8777
4  8042 7603 6788 8773
4  6967 7956 6966 8509
4  4445 4297 4300 8700
4  7956 8587 8509 8508
4  8043 8817 7603 8773
4  4571 8819 8633 8539
4  4548 8770 8540 8771
4  8042 6788 7589 8530
4  7589 6788 8528 8530
4  7486 8605 8386 8603
4  4350 8340 8342 8570
4  7728 7709 7248 8338
4  7363 8339 8345 8337
4  4464 4548 4571 8539
4  4477 4583 4612 8676
4  758 4422 4424 8642
4  7709 8339 7363 8337
4  4571 4548 4623 8770
4  1666 8495 1526 8418
4  7698 8815 7372 8494
4  8168 8497 8736 8499
4  7085 8793 8373 8792
4  7730 7171 7731 8486
4  7398 7395 8648 8649
4  8498 8646 8574 8610
4  8497 8418 8495 8496
4  4440 4491 4513 8730
4  7469 7372 8609 8494
4  8495 8494 8816 8496
4  4608 4317 8800 8648
4  8363 8552 8556 8553
4  8060 8401 7507 8553
4  8362 8854 8517 8554
4  4434 4564 4435 8724
4  4493 4556 4491 8729
4  7813 7082 7801 8791
4  600 7152 6260 8682
4  8161 8180 8579 8599
4  7364 7813 7737 8722
4  4477 4478 4583 8633
4  7214 7801 7802 8795
4  6 6137 6506 8629
4  7624 8362 8213 8364
4  6138 7613 6137 8628
4  8517 8554 8854 8555
4  6506 7960 7871 8629
4  8213 8517 8060 8363
4  1281 8716 1243 8719
4  7735 7363 8345 8337
4  7204 8720 7241 8736
4  7567 8659 8658 8720
4  7200 7567 8715 8720
4  8734 8720 8736 8751
4  4530 8766 8600 8729
4  4422 7706 8342 8642
4  7797 8729 7802 8765
4  7956 7584 7835 8510
4  7153 8414 8347 8473
4  8161 8763 7739 8599
4  7802 8729 8598 8765
4  7802 8598 8729 8730
4  4422 4350 4537 8342
4  7932 7871 7798 8631
4  7707 7798 8642 8631
4  4513 4556 8600 8730
4  4513 8730 8600 8511
4  1291 8607 8732 8816
4  8187 8199 7944 8825
4  1291 8721 8495 8816
4  7532 7047 8022 8769
4  6515 6450 7966 8595
4  59 6598 6595 8675
4  6595 6923 6469 7966
4  7430 7371 8815 8841
4  8609 8815 8607 8494
4  8593 8595 8596 8591
4  4472 987 8797 8383
4  46 4329 45 8138
4  7371 8607 8609 8815
4  8208 7246 8497 8776
4  7419 8605 8491 8390
4  1462 8669 8671 8733
4  8669 8672 8671 8733
4  1679 8853 8750 8813
4  1462 1606 8669 8733
4  4410 4471 8593 8675
4  8668 8672 8669 8733
4  45 6253 8138 8645
4  7502 7369 7283 8384
4  7836 8008 7415 8500
4  1522 1385 1389 8441
4  803 742 1384 6313
4  7244 8672 8668 8734
4  7244 8736 7246 8735
4  8376 8728 8377 8381
4  1323 1643 1270 8741
4  1522 1385 8441 8442
4  8455 8663 8783 8381
4  8192 8848 8738 8643
4  1306 1264 8854 8554
4  1493 8376 8738 8856
4  7144 6780 8397 8394
4  7566 7210 7569 8664
4  8659 8660 8662 8664
4  1645 1284 1515 8461
4  1605 8662 8661 8660
4  6247 8024 8115 8392
4  458 8078 7587 8640
4  8463 8550 8697 8393
4  1629 8728 1630 8658
4  6247 6778 7145 8392
4  7204 8659 7567 8720
4  7401 8254 8746 8484
4  7419 7635 7236 8603
4  8855 8692 8546 8861
4  8654 8825 8805 8748
4  7672 7678 7382 8399
4  6867 7678 8075 8794
4  8774 8837 8747 8749
4  7944 8825 8654 8748
4  1500 1481 1446 8794
4  7410 7944 8654 8748
4  8714 8721 8718 8732
4  193 7132 8075 8794
4  7144 8024 7145 8394
4  1281 8718 8721 8732
4  8714 8731 8721 8732
4  6564 6516 8785 8536
4  6923 6515 7966 8675
4  4420 8784 8533 8769
4  7911 6564 6515 8784
4  6515 6516 6450 8785
4  6394 6347 6346 8864
4  7241 8168 8736 8499
4  1537 8721 8736 8499
4  7732 8347 8414 8416
4  1575 8841 8759 8732
4  6455 8821 7488 8388
4  1667 1291 1523 8495
4  6515 8785 8595 8675
4  1523 8721 1537 8499
4  4493 8729 4491 8796
4  8345 8343 8722 8796
4  4493 8507 8729 8796
4  8054 8225 7753 8588
4  4530 8764 8600 8766
4  4388 4476 4528 8586
4  8510 8509 8506 8508
4  8478 8506 8477 8505
4  4493 8507 4530 8729
4  4476 4612 4528 8586
4  7802 7743 7739 8598
4  4509 8788 8594 8789
4  4489 4491 4435 8796
4  4509 8594 4503 8789
4  4435 4491 4440 8791
4  4612 8586 8676 8766
4  7221 7601 7225 8820
4  4503 8594 8782 8789
4  7000 7286 8581 8584
4  8826 8802 8803 8824
4  4478 4571 4583 8633
4  6789 8528 8777 8778
4  7956 7835 7886 8508
4  4358 4355 4537 8340
4  4445 4452 8779 8778
4  4547 8771 4446 8772
4  8780 8789 8786 8778
4  4493 4530 4556 8729
4  8098 8541 8513 8538
4  4491 8729 8791 8796
4  8513 8540 8537 8538
4  1349 1539 1263 8366
4  8001 7221 8043 8632
4  4478 4464 4571 8539
4  21 6362 4477 8588
4  4579 8600 8764 8599
4  4471 6595 60 8674
4  7502 7496 7369 8411
4  6463 8138 6253 8645
4  8042 8537 8513 8773
4  6674 8423 6272 8531
4  7282 7966 6455 8597
4  8539 8540 8770 8773
4  7282 8383 8597 8384
4  4522 8594 4523 8591
4  6622 7495 6621 8799
4  7010 8001 8098 8541
4  8632 8539 8513 8541
4  8043 8513 8817 8773
4  6651 7836 6605 8500
4  8043 8632 8817 8513
4  4472 4326 4585 8797
4  4335 4273 4585 8389
4  4335 4585 4336 8422
4  7282 8597 7283 8384
4  8753 8627 8754 8756
4  1533 8627 8759 8626
4  7318 7623 7976 8829
4  8754 8760 8740 8756
4  8683 8844 8845 8862
4  8625 8627 8630 8621
4  1393 1493 1350 8858
4  1011 1358 81 6851
4  8643 8376 8377 8378
4  7499 7168 7562 8374
4  8818 8817 8819 8770
4  4571 4623 8819 8770
4  7975 8683 8845 8862
4  8817 8633 8819 8539
4  8107 8405 7371 8841
4  7210 7244 7751 8734
4  1502 8844 8843 8847
4  1620 8846 8512 8838
4  7662 8409 8194 8407
4  1376 8482 8485 8405
4  7566 7570 7567 8644
4  1653 1588 1282 8758
4  8107 8437 8405 8841
4  8437 8485 8626 8440
4  8579 8578 8599 8580
4  6989 6990 8437 8440
4  1376 8485 1378 8405
4  8437 8482 8485 8483
4  8549 8542 8462 8543
4  7805 7789 7504 8570
4  4563 4489 8343 8796
4  8745 8741 8556 8552
4  1539 1546 8544 8550
4  7113 8741 8551 8550
4  7504 8570 8336 8569
4  7169 8375 8488 8487
4  1628 1263 1594 8366
4  7737 7813 7801 8722
4  8763 8764 8767 8765
4  8766 8729 8504 8765
4  7835 7737 7214 8505
4  8822 8601 8823 8861
4  7635 8822 7238 8601
4  7682 7846 7832 8780
4  7000 7001 7286 8584
4  4362 4420 8533 8769
4  6788 8777 8528 8530
4  1594 8366 8544 8367
4  4502 4504 4503 8782
4  6992 7961 7912 8620
4  4452 8583 8779 8781
4  1884 1977 8834 8750
4  7345 7540 8467 8468
4  7551 6790 7912 8779
4  7540 7541 8812 8810
4  8208 8776 8497 8814
4  1731 8653 8585 8801
4  1640 1547 8733 8776
4  1879 1977 1671 8469
4  8668 8669 8672 8670
4  1977 1593 8469 8750
4  1302 8712 1457 8713
4  8155 7479 7779 8475
4  8199 8802 8136 8804
4  8802 8804 8803 8801
4  1977 1593 1612 8469
4  1393 8376 8858 8379
4  1657 8654 8805 8652
4  7750 7569 7751 8460
4  7747 7289 7574 8518
4  7569 7210 7751 8664
4  8668 8460 8783 8458
4  7409 8825 7944 8748
4  8455 8460 8783 8663
4  7944 8199 8654 8825
4  8806 8625 8760 8627
4  1919 1657 8654 8804
4  334 6778 6907 8575
4  7854 8694 8697 8695
4  1280 1585 1540 8759
4  1234 1653 1540 8756
4  8825 8805 8826 8804
4  1655 8653 8654 8652
4  1024 6388 1936 6605
4  1579 1478 1498 8447
4  1919 1655 8653 8654
4  1389 1558 8441 8367
4  1628 8401 8367 8557
4  8131 7286 8199 8802
4  1558 8441 8367 8442
4  7238 8199 8187 8822
4  1731 8585 8582 8801
4  8400 8367 8542 8543
4  8199 7286 8136 8802
4  8188 8034 8558 8442
4  8463 8462 8550 8393
4  8609 8607 8406 8494
4  6989 8437 8626 8440
4  8747 8749 8748 8484
4  4568 4440 4512 8486
4  4580 4445 4452 8779
4  8551 8550 8544 8548
4  7682 7551 7846 8780
4  7853 8697 8550 8393
4  4289 8772 8700 8701
4  4573 8618 8360 8641
4  6992 7929 7961 8620
4  8464 8463 8697 8393
4  7111 7113 8551 8548
4  8549 8462 8548 8543
4  1564 8461 8542 8462
4  6247 8115 6778 8392
4  8115 6778 8392 8575
4  8189 8360 8616 8761
4  1655 1658 1668 8653
4  8115 8395 8023 8549
4  1658 1586 1376 8482
4  7407 8254 7760 8438
4  7410 7944 7661 8654
4  1376 1378 1377 8405
4  1575 1585 1280 8759
4  1913 8372 8571 8572
4  7546 7395 7732 8414
4  4608 8800 4610 8503
4  8648 8647 8651 8649
4  7395 8413 8414 8647
4  8812 8831 8813 8814
4  7398 7546 7168 8488
4  7153 7272 7774 8348
4  7168 8488 7169 8375
4  6244 8115 8077 8575
4  6244 6247 8115 6778
4  8077 8115 8023 8549
4  7731 8473 8354 8511
4  1397 8523 1600 8430
4  1305 1600 1397 8523
4  1305 8656 1302 8523
4  8521 8522 8523 8713
4  1645 7145 8392 8398
4  8549 8542 8560 8575
4  7682 8786 6789 8778
4  4580 8583 8358 8779
4  6790 8777 8798 8779
4  4445 8700 8779 8359
4  7682 8780 8786 8778
4  4445 8700 4300 8777
4  7551 8777 6790 8779
4  8676 8766 8586 8767
4  8676 8590 8587 8588
4  8225 8190 8590 8587
4  4476 8676 4612 8586
4  4571 8539 4548 8770
4  7470 7765 6697 8514
4  4608 4317 4610 8800
4  8818 8770 8839 8772
4  4547 8770 4548 8771
4  7566 8644 8659 8663
4  344 6609 1324 8863
4  21 6968 6362 8588
4  8676 8587 8590 8767
4  7558 7942 7021 8562
4  4583 4595 8676 8820
4  6968 8587 8586 8509
4  8190 8590 8767 8820
4  4595 8764 8676 8820
4  1028 7021 7942 8444
4  4528 8586 4612 8766
4  8474 8568 8866 8565
4  8474 8565 8866 8832
4  8866 8565 8435 8566
4  489 1233 1028 7942
4  7641 8679 8567 8726
4  7642 7641 8565 8726
4  78 1370 6625 8370
4  8145 6783 7876 8522
4  4583 4571 8819 8633
4  4464 8540 8539 8538
4  8817 8513 8539 8773
4  8001 8632 8513 8541
4  508 1305 1397 8655
4  8140 7505 7913 8538
4  8001 8632 8043 8513
4  1324 1337 8863 8657
4  1617 8638 1455 8636
4  1512 8864 8433 8657
4  7391 7400 8650 8812
4  8638 8636 8634 8635
4  489 988 814 6421
4  8514 8863 8515 8457
4  1337 8657 1336 8459
4  4561 8576 8684 8425
4  7577 8426 8428 8421
4  1458 814 6782 8611
4  1899 1904 1666 8493
4  7438 8428 8424 8421
4  4534 4462 4541 8346
4  7989 8681 7729 8682
4  7268 8016 8498 8417
4  7400 8017 7959 8413
4  839 8427 6263 8790
4  7268 8016 8133 8498
4  8616 8737 8372 8371
4  7313 7577 8426 8428
4  7499 7576 8419 8421
4  1904 1909 1682 8574
4  8350 8347 8346 8348
4  4429 8576 4561 8427
4  4528 4531 8506 8507
4  1894 1899 1674 8612
4  8817 8633 8632 8820
4  8705 8424 8420 8419
4  8001 7753 8632 8589
4  7886 8767 8587 8504
4  1392 1403 1453 8379
4  1358 8844 1634 8852
4  8190 7221 8590 8820
4  4476 6967 6968 8509
4  8075 8526 8525 8399
4  1514 8453 1500 8399
4  1506 1495 1502 8843
4  7318 8829 8683 8862
4  8809 8526 8525 8794
4  1500 1446 193 8794
4  8683 8847 8844 8852
4  1522 1558 1288 8560
4  1478 1265 1477 8699
4  1603 1435 1599 8439
4  8075 8525 8526 8794
4  7678 8525 7382 8399
4  8402 8526 8453 8399
4  1645 8392 8391 8398
4  1581 8698 1265 8696
4  1500 8453 8526 8399
4  8449 8453 8402 8526
4  8449 8525 8809 8526
4  7225 8161 8579 8763
4  1581 1478 1579 8446
4  7109 7407 7108 8695
4  8839 8819 8579 8827
4  6848 8818 7889 8701
4  1579 1498 1597 8447
4  7603 8818 6848 8830
4  7225 8579 8819 8763
4  4583 8819 4595 8820
4  8817 8632 8539 8513
4  8637 8860 8639 8636
4  6625 8365 6957 8370
4  1337 1336 1413 8459
4  1336 1426 1413 8459
4  7716 8472 8637 8458
4  6324 8637 8521 8635
4  8848 8846 8843 8683
4  1617 1336 1337 8657
4  1663 8837 1664 8855
4  7703 7401 7407 8746
4  7608 8794 7132 8691
4  7292 8857 8643 8378
4  8845 8856 8857 8859
4  1358 8844 8852 8859
4  1673 1636 1663 8861
4  1657 8805 8654 8804
4  8844 8862 8852 8859
4  1664 1609 1427 8749
4  8762 8409 8653 8761
4  1586 1599 1583 8485
4  4512 8473 8800 8487
4  4610 4568 4512 8800
4  6469 7282 6249 8674
4  8762 8654 8653 8606
4  1547 1557 8733 8735
4  4472 8596 6249 8383
4  4472 8797 8596 8383
4  4559 4568 4310 8375
4  7751 7244 7710 8668
4  7210 7204 7244 8734
4  7282 7283 7369 8384
4  1606 8669 8733 8662
4  7710 8668 7244 8672
4  8595 8596 8597 8674
4  1265 1267 1477 8699
4  7966 8595 6455 8597
4  7283 6455 8492 8597
4  8753 8512 8744 8745
4  1653 1282 1540 8756
4  7383 8752 7650 8525
4  8825 8855 8805 8747
4  7401 8746 8752 8747
4  7300 8747 8808 8546
4  8825 8855 8546 8861
4  6976 7148 6158 8851
4  8451 8752 8447 8449
4  1280 1540 1282 8759
4  7148 6157 6158 8806
4  8447 8746 8774 8837
4  7703 7407 8451 8746
4  7487 8422 8492 8390
4  6455 8492 8597 8591
4  8408 8422 8797 8384
4  839 4376 600 8682
4  8492 8596 8797 8597
4  7722 7642 7641 8565
4  7311 7313 7577 8426
4  7722 8155 8474 8568
4  7188 8605 8821 8386
4  8415 8417 8612 8416
4  6516 7682 7832 8787
4  7832 7846 7188 8807
4  7395 8650 8647 8649
4  4547 4548 4551 8771
4  4515 4452 4502 8781
4  8131 7181 7286 8581
4  8650 8709 8651 8649
4  8585 8358 8360 8361
4  4452 8782 4502 8781
4  4607 8350 8415 8503
4  6324 8521 8637 8713
4  1600 1457 8429 8523
4  8436 8656 8523 8713
4  8521 8431 8523 8520
4  8521 8429 8639 8713
4  4387 8045 6967 8509
4  7736 8478 7835 8510
4  7886 8504 8587 8508
4  8524 8430 8611 8520
4  1010 4387 8045 6967
4  7972 8562 8431 8520
4  7972 6323 6324 8563
4  7972 6324 8521 8563
4  4452 8782 8781 8778
4  8709 8867 8836 8707
4  6516 7832 6450 8592
4  8613 8602 8601 8604
4  7876 7819 8522 8520
4  4574 4445 4580 8359
4  4460 4603 8354 8580
4  7928 7774 8352 8357
4  7371 8405 8194 8608
4  6992 8153 7929 8702
4  8785 8536 8788 8784
4  8609 8494 8406 8610
4  8789 8528 8786 8778
4  1913 8842 1727 8410
4  8533 8535 8534 8769
4  7962 8737 8616 8371
4  8406 8405 8608 8407
4  4531 8477 8506 8507
4  7835 7214 7886 8504
4  7707 7932 7833 7798
4  6157 6814 6158 8625
4  1609 8447 8774 8837
4  1427 1609 8774 8749
4  1498 1609 8447 8774
4  1498 1435 8774 8739
4  8408 8423 8422 8384
4  4410 4471 4523 8593
4  4434 4559 4539 8725
4  7583 7808 7584 8561
4  7401 8747 7409 8748
4  7735 7363 7737 8345
4  8746 8739 8774 8438
4  7833 7709 8338 8642
4  4387 8506 8045 8509
4  499 661 4358 8570
4  7706 7833 8338 8642
4  4387 4388 8506 8509
4  499 4358 4350 8570
4  8477 8506 8507 8505
4  4567 8477 8476 8506
4  6969 7584 8510 8561
4  8478 8476 8477 8506
4  1010 4387 444 8045
4  6795 7015 7805 8570
4  7808 8569 8479 8561
4  7258 7310 8313 8559
4  1011 1350 1358 8859
4  1873 8833 8566 8726
4  1692 8216 8567 8564
4  8077 8023 7426 8549
4  7536 7310 6311 8768
4  6657 7641 7357 8567
4  1306 1264 1307 8854
4  8115 8024 8395 8392
4  7358 8677 8727 8706
4  8441 8558 8559 8557
4  1307 7587 8854 8640
4  7256 7258 8313 8640
4  4362 4420 4508 8533
4  585 8022 4362 8534
4  6564 7593 6516 8536
4  7642 8832 8727 8726
4  7913 7450 7519 8535
4  1446 8794 1481 8547
4  1580 8453 8449 8526
4  8048 8525 8794 8547
4  4360 7913 8534 8538
4  7650 8449 8402 8525
4  8048 8808 8525 8547
4  7505 7450 7913 8538
4  4434 8665 4564 8724
4  4360 7913 585 8534
4  7907 7279 7292 8281
4  8408 8384 8797 8645
4  4585 8797 8389 8596
4  4472 8797 4585 8596
4  4326 8408 4545 8797
4  6474 8041 8757 8740
4  1350 1493 1506 8856
4  4585 8797 4545 8422
4  1393 1453 1493 8376
4  4326 8797 6253 8645
4  6622 6643 8138 8799
4  8869 8758 8755 8754
4  7400 8017 8413 8812
4  8413 8711 8650 8831
4  7395 8650 8413 8647
4  1566 8391 8445 8398
4  8492 8389 8388 8390
4  8450 8396 8446 8448
4  7718 7719 6388 8687
4  1675 1936 1024 6388
4  6601 8532 8840 8502
4  1566 6780 8398 8403
4  7836 7415 7719 8687
4  7502 7283 8422 8384
4  7487 7821 8422 8390
4  8396 8402 8453 8403
4  7126 7248 7805 8570
4  6962 6958 7878 8464
4  6962 8464 7878 8394
4  7519 7450 7445 8535
4  7735 8345 7736 8344
4  4360 8534 8540 8538
4  4387 8476 4355 8561
4  6362 8054 7724 8589
4  7833 7709 7728 8338
4  7737 8795 8345 8722
4  4360 8540 4464 8538
4  7519 8022 8535 8769
4  8540 8534 8537 8538
4  4360 4551 8540 8534
4  4360 585 4362 8534
4  585 7913 8022 8534
4  6609 8863 8514 8864
4  1337 8515 8863 8657
4  1612 1593 1592 8671
4  7558 7557 7561 7942
4  1331 6697 8863 8516
4  1331 6697 344 8863
4  1331 8863 1337 8515
4  1331 8516 8863 8515
4  7751 8734 8668 8664
4  4376 4480 4392 8678
4  6976 6474 8869 8754
4  7210 8659 7204 8734
4  7710 7244 7517 8672
4  8668 8734 8733 8662
4  7204 7244 8734 8736
4  7577 7562 7869 8373
4  7438 7499 7577 8421
4  7517 7246 8776 8735
4  4514 4502 4522 8807
4  7487 6455 7488 8388
4  4472 6249 987 8383
4  7282 6455 7283 8597
4  1557 1606 8733 8661
4  8108 7382 7650 8402
4  1557 8661 8735 8751
4  1269 1267 8698 8743
4  1566 1572 1570 8445
4  7672 8075 7678 8399
4  1528 1523 1537 8499
4  7109 8452 8451 8695
4  7241 8731 8736 8717
4  8733 8661 8734 8735
4  7246 8736 8497 8735
4  1515 1546 1516 8463
4  7246 8168 8497 8736
4  1528 8775 8495 8499
4  7869 7562 7085 8373
4  1526 1523 1528 8495
4  7871 7615 8226 8666
4  1528 1547 8775 8735
4  7311 7313 8426 8790
4  7400 7959 7395 8413
4  1709 1673 1657 8805
4  4539 8725 8684 8577
4  6712 8435 8436 8564
4  7723 7345 7540 8467
4  1673 1663 8805 8861
4  8837 8855 8808 8747
4  1678 1301 405 8435
4  7300 8752 8808 8747
4  1517 8809 8837 8855
4  1884 8835 8834 8836
4  7296 8187 8825 8861
4  7779 7345 7723 8470
4  1657 1664 1430 8805
4  1592 8671 8860 8472
4  7661 8481 8654 8606
4  8465 8671 8472 8471
4  8637 8639 8472 8673
4  7750 7751 7711 8668
4  1603 8484 8438 8483
4  8155 7479 8475 8713
4  1593 1462 1592 8671
4  7345 7952 7540 8468
4  7479 7716 7348 8475
4  7716 8475 8637 8472
4  1413 1407 1405 8783
4  7479 8637 7716 8475
4  8155 8474 8712 8475
4  4547 4446 4300 8772
4  4446 8789 4504 8778
4  4392 7152 8678 8680
4  6657 8025 8216 8567
4  1558 8367 1594 8543
4  8461 8542 8549 8575
4  4623 4338 8839 8772
4  4574 8360 8359 8361
4  1284 1564 8461 8542
4  7773 8197 7962 8737
4  8372 8571 8572 8351
4  4573 4540 4287 8618
4  7773 8737 8371 8351
4  1727 1668 1681 8409
4  6474 6158 6481 8754
4  8714 8718 8740 8732
4  7426 8549 8400 8560
4  8115 8395 8549 8575
4  1632 1377 1575 8607
4  1378 1583 1585 8841
4  8034 7428 8558 8443
4  8282 8194 7371 8405
4  1570 1580 8453 8448
4  8428 8424 8705 8682
4  1481 8449 1597 8809
4  1481 8449 8809 8526
4  8107 8282 7371 8405
4  7101 7132 6389 8691
4  6990 8282 8107 8437
4  7407 8693 7108 8695
4  8451 8452 8449 8448
4  1668 8409 8653 8606
4  1478 1498 8447 8739
4  7429 7430 7371 8815
4  8107 8437 8282 8405
4  6958 7107 8464 8452
4  7101 7609 7608 8691
4  8464 8450 8396 8446
4  1597 8447 8837 8449
4  1609 8837 8774 8749
4  4610 8800 8473 8466
4  8347 8346 8473 8466
4  7732 7268 8347 8416
4  7268 8349 8347 8417
4  8076 7672 7382 8399
4  7678 7383 7382 8525
4  8347 8414 8415 8503
4  7642 7358 7357 8679
4  4462 4541 8346 8489
4  6706 7860 7780 8564
4  8349 8572 8573 8351
4  6962 8396 8464 8394
4  8450 8446 8697 8696
4  6962 8108 6958 8396
4  1446 1443 8690 8547
4  1645 7145 412 8392
4  6425 6426 6421 7561
4  1241 7021 8444 8434
4  1936 8687 6388 8686
4  7685 8614 8545 8688
4  6706 6658 6712 8564
4  1517 8809 8855 8547
4  8837 8809 8808 8855
4  6394 7856 6610 8864
4  8808 8809 8525 8547
4  1512 1241 1513 8432
4  344 934 1324 6609
4  8601 8545 8692 8861
4  1441 1647 1675 8686
4  7609 7719 7685 8686
4  8738 8644 8728 8658
4  7567 8644 8658 8659
4  7919 8658 8849 8715
4  726 1028 1241 7021
4  6394 7765 6347 6609
4  6705 8562 7021 8434
4  7919 8644 8849 8658
4  7944 8199 8136 8654
4  1673 8823 1636 8861
4  8601 8692 8823 8861
4  1673 8805 8826 8861
4  8199 8825 8822 8804
4  7238 8822 8187 8861
4  7587 8517 6624 8854
4  803 919 6437 8768
4  6629 6624 7267 8517
4  7587 8517 8854 8640
4  1306 8362 1553 8554
4  1637 8557 8865 8640
4  7267 7256 8185 7587
4  6629 8362 6624 8517
4  8185 7421 8060 8555
4  1637 8078 458 8640
4  1558 1628 1594 8367
4  8213 8362 8517 8363
4  8188 8558 7310 8768
4  8441 8559 8558 8768
4  1879 1671 1873 8833
4  1662 8382 8515 8783
4  1331 1662 8516 8515
4  8455 8515 8783 8456
4  8455 8454 8515 8456
4  8429 8563 8638 8432
4  1512 8434 1241 8432
4  1337 1413 8515 8459
4  7470 8514 6699 8454
4  1324 934 1512 6610
4  8683 8829 8852 8862
4  1358 1506 8844 8859
4  6957 8829 8852 8370
4  6851 8852 8829 8862
4  8515 8457 8657 8459
4  726 1512 934 6610
4  1337 8515 8657 8459
4  726 7021 1241 8434
4  726 6610 7021 8434
4  8847 8852 8829 8370
4  7395 7959 7732 8414
4  81 6957 6851 8852
4  81 6851 1358 8852
4  7959 8017 8016 8615
4  7221 8817 8632 8820
4  7268 8133 8203 8573
4  7225 7601 8763 8820
4  8190 8767 7601 8820
4  7690 8060 7507 8363
4  7769 7318 7975 8862
4  8632 8633 8590 8820
4  8817 8819 8633 8820
4  7625 7623 8829 8365
4  8832 8833 8727 8726
4  1879 8834 8833 8677
4  8832 8834 8833 8469
4  7722 7642 8565 8832
4  7729 7438 8428 8424
4  8866 8832 8833 8469
4  1671 8866 1677 8833
4  8866 8832 8565 8833
4  1677 8866 8566 8833
4  6346 6705 8433 8563
4  1626 8755 1234 8512
4  6346 6325 6323 8634
4  6394 6609 6347 8864
4  6346 6323 6705 8563
4  1324 8863 6609 8864
4  1513 1455 1617 8638
4  1601 1457 1455 8638
4  8637 8712 8639 8673
4  6394 6346 7856 8864
4  1513 1601 8638 8432
4  7856 6610 8864 8434
4  6625 8365 8370 8362
4  6629 6625 6624 8362
4  926 6624 6625 8362
4  8609 8406 8607 8608
4  7661 8309 7662 8762
4  7662 8200 8194 8409
4  6624 8517 8362 8854
4  1680 1681 1377 8407
4  6629 7624 8365 8362
4  1393 8858 8281 8379
4  7710 7517 7350 8672
4  8468 8750 8811 8810
4  6701 8174 6713 7860
4  7289 7437 8377 8378
4  7642 7723 6518 8832
4  8171 6324 7479 8713
4  6701 8174 7860 8436
4  7289 8377 8518 8378
4  7907 7289 7463 8378
4  1603 1427 8774 8749
4  1603 8438 8439 8483
4  7907 7463 8281 8378
4  1430 1603 1658 8652
4  6347 6325 8864 8457
4  1413 8783 8515 8459
4  7763 8455 8460 8456
4  1583 8626 8485 8440
4  1430 1427 1603 8749
4  7762 8457 8454 8456
4  1478 1435 1498 8739
4  8800 8414 8473 8466
4  6990 8318 8282 8480
4  1668 8653 1658 8482
4  1528 1557 8735 8751
4  8644 8728 8658 8660
4  1242 8850 8738 8658
4  7200 8731 7241 8717
4  7860 8568 7780 8564
4  8406 8574 8571 8610
4  8413 8612 8615 8416
4  8683 8852 8844 8862
4  7959 8414 8413 8416
4  6263 7313 6689 8790
4  8851 8512 8708 8744
4  7976 8369 8683 8829
4  1555 8838 8745 8556
4  4452 4446 4504 8778
4  1321 8838 8512 8745
4  8362 8363 8828 8554
4  8869 8843 8848 8846
4  4362 8022 584 8769
4  1620 8847 8846 8838
4  21 4476 986 6968
4  4478 4571 8633 8539
4  6975 7148 8851 8708
4  4478 8589 7010 8541
4  4548 8539 8540 8770
4  7589 8535 8537 8529
4  7450 7589 7445 8535
4  8098 8513 7506 8538
4  936 8140 7913 8538
4  971 4464 4478 8541
4  104 6699 6697 8516
4  1405 8662 1605 8660
4  104 6697 1331 8516
4  8455 8382 8516 8518
4  7635 8131 7238 8822
4  8022 8534 8535 8769
4  7623 8369 8829 8365
4  6516 8786 7682 8787
4  6595 6469 6249 8674
4  7625 6957 6625 8365
4  1370 1553 8362 8828
4  1543 1634 8847 8852
4  4551 4548 8540 8771
4  6976 8851 8869 8846
4  78 6625 6957 8370
4  78 6957 1543 8370
4  4313 4314 4311 8710
4  7168 7169 8373 8375
4  4268 4539 4561 8576
4  7695 7728 7126 7248
4  4317 8685 8800 8648
4  8711 8647 8650 8651
4  499 4350 7695 8570
4  7780 8565 7641 8564
4  4317 8685 4310 8375
4  8373 8374 8375 8425
4  4387 4567 4355 8476
4  4317 8800 8685 8375
4  1692 6712 1079 8216
4  7398 8488 7168 8374
4  6795 7695 7126 8570
4  7695 7248 7126 8570
4  7248 8338 8336 8570
4  1658 1603 1586 8483
4  8439 8440 8623 8622
4  8437 8439 8438 8483
4  1378 8485 1583 8841
4  8437 8626 8485 8841
4  1599 1583 8485 8440
4  6989 8437 8107 8626
4  7503 7583 8045 8561
4  4387 6967 4388 8509
4  4355 8569 7503 8561
4  4358 7504 993 8569
4  1634 1502 1620 8847
4  8193 8869 8848 8846
4  843 6795 661 8570
4  444 7503 8045 8561
4  6795 7805 7504 8570
4  1587 8755 8843 8850
4  8869 8843 8755 8850
4  7504 7905 7503 8569
4  1493 8738 1495 8856
4  8683 8829 8847 8852
4  1495 1587 8843 8850
4  332 1522 1288 8560
4  6896 8188 7537 8442
4  6895 6907 8077 8560
4  6895 8077 8034 8560
4  7733 7279 7734 8857
4  7733 7769 7279 8857
4  8377 8380 8518 8378
4  6311 7310 7258 6313
4  6311 6313 6437 8768
4  6247 7144 8024 7145
4  7734 8862 8857 8859
4  943 6779 6780 8403
4  1350 8858 8856 8859
4  1350 7734 8858 8859
4  7279 8281 7734 8857
4  7001 8358 8585 8584
4  8798 8700 8618 8359
4  6962 8397 8396 8394
4  6962 6958 8464 8396
4  334 1284 6778 8575
4  8313 7428 7421 8557
4  7001 8620 7961 8360
4  4445 4297 8700 8359
4  4439 4545 8531 8532
4  6651 8840 8013 8502
4  7747 8518 8455 8454
4  4326 4545 4585 8797
4  7762 8457 8514 8454
4  7765 6347 6609 8514
4  6347 8864 8514 8457
4  6837 6601 6272 8840
4  4336 4585 4545 8422
4  8110 7821 8013 8840
4  7283 8492 7487 8422
4  1662 8382 8516 8515
4  7502 7487 7821 8422
4  6138 6689 7311 8790
4  190 6137 4270 8628
4  7311 7577 7869 8426
4  6697 8514 6609 8863
4  8514 8864 8863 8457
4  8008 7419 8602 8491
4  7502 7283 7487 8422
4  4590 4273 4335 8387
4  8601 8604 8602 8603
4  4585 8389 4586 8596
4  1671 1669 8866 8465
4  8467 8469 8468 8750
4  1389 1642 1628 8557
4  8185 8313 7421 8555
4  8400 8560 8367 8443
4  1977 8469 8834 8750
4  7779 8474 8475 8470
4  7348 8475 8472 8470
4  7690 7688 7691 8368
4  8848 8738 8843 8850
4  8848 8849 8738 8850
4  7623 7624 7691 8365
4  8849 8658 8716 8715
4  1495 8843 8738 8850
4  7882 7694 8023 8462
4  1539 1270 1269 8550
4  8060 7421 7111 8401
4  8708 8556 8838 8368
4  8757 8850 8758 8716
4  1546 1269 1516 8463
4  8869 8755 8758 8850
4  8738 8849 8644 8658
4  8192 8848 7467 8849
4  7735 8479 8336 8344
4  4595 4604 4579 8764
4  4493 4491 4497 8796
4  4551 8771 8540 8534
4  7467 8757 7468 8849
4  6516 7593 7682 8786
4  4446 4508 4504 8789
4  4547 4551 4446 8771
4  7765 6609 6697 8514
4  6789 6790 7551 8777
4  4509 8788 8789 8533
4  7919 8849 7468 8715
4  8738 8850 8849 8658
4  7779 7348 7345 8470
4  8783 8662 8660 8664
4  6518 7540 7391 8867
4  1671 8866 8469 8465
4  8750 8853 8810 8813
4  1639 1640 1679 8813
4  7567 8658 7919 8715
4  7136 7876 6783 8519
4  8562 8563 8431 8432
4  1397 8524 8523 8430
4  4608 4313 4317 8648
4  8216 6658 7641 8564
4  7876 8522 8524 8520
4  8474 8469 8866 8465
4  7557 8611 8562 8520
4  1889 1639 1679 8813
4  6782 7136 6783 8519
4  6782 7877 8519 8611
4  1638 1528 1547 8775
4  1458 6782 646 8524
4  1894 1674 1639 8831
4  6782 6783 8524 8519
4  1458 8524 8430 8611
4  8562 8444 8430 8611
4  1646 1600 8429 8430
4  7302 7296 8048 8546
4  7650 8752 8449 8525
4  1478 1477 1435 8739
4  7145 8392 8398 8394
4  1579 1597 1580 8449
4  7410 8654 7661 8481
4  7401 7410 8254 8484
4  1515 8391 8461 8463
4  8774 8438 8739 8439
4  8136 8585 8762 8801
4  8136 8189 8309 8585
4  8391 8392 8461 8393
4  1645 1515 8391 8461
4  7001 8189 8136 8585
4  1658 8482 8653 8652
4  1727 1731 1668 8761
4  8464 8391 8463 8393
4  8395 8393 8392 8394
4  6976 6158 6474 8754
4  1585 1583 8626 8841
4  1291 1280 1281 8732
4  1377 1378 1575 8405
4  8658 8716 8715 8719
4  8282 8437 8480 8405
4  6989 7430 6481 8626
4  7430 8107 7371 8841
4  1632 8406 1377 8607
4  7371 8609 7372 8815
4  7200 8715 8731 8717
4  7372 8815 8609 8494
4  7698 8731 8815 8816
4  8551 8366 8552 8553
4  8554 8868 8555 8401
4  8318 7662 8480 8606
4  1904 8573 8572 8574
4  7691 8369 8365 8364
4  1306 1553 1264 8554
4  8213 8363 7690 8364
4  8060 8555 7421 8401
4  8060 8363 8554 8553
4  8076 7382 8108 8404
4  6779 8397 8403 8404
4  8828 8368 8363 8364
4  6244 6778 8115 8575
4  735 6906 7537 8442
4  6516 7593 8786 8536
4  7832 8780 8592 8787
4  6516 8592 6450 8785
4  8788 8536 8533 8784
4  6450 8785 8592 8595
4  7911 8784 6515 8675
4  8785 8593 8595 8675
4  8785 8788 8593 8675
4  1899 8493 8612 8417
4  7625 6629 7624 8365
4  8369 8847 8370 8828
4  8203 8349 8573 8351
4  7258 8559 8313 8640
4  1899 1666 1674 8612
4  1884 1889 1679 8835
4  1674 8814 8612 8418
4  1682 8574 8406 8610
4  8413 8415 8711 8612
4  8497 8495 8775 8499
4  7698 8499 8731 8816
4  1350 1506 1358 8859
4  8643 8377 8376 8644
4  8016 8418 8498 8417
4  344 6697 6609 8863
4  7470 6792 7765 8514
4  1334 8516 8382 8380
4  1370 1543 1633 8370
4  8213 8185 8060 8517
4  926 6625 1370 8362
4  405 1301 404 6710
4  1233 8430 8444 8611
4  6426 7557 7877 8611
4  22 971 4478 7010
4  7747 7574 8455 8518
4  1600 1457 1601 8429
4  7574 8455 8377 8663
4  1662 1405 8382 8783
4  1564 1594 1546 8462
4  8832 8834 8467 8727
4  7723 7345 8467 8470
4  8441 8558 8557 8443
4  1879 8834 1977 8469
4  6518 8832 7723 8467
4  1633 8370 8847 8828
4  334 1284 412 6778
4  7247 6851 6957 8829
4  7318 7976 8683 8829
4  1349 8556 8366 8553
4  8395 8392 8461 8575
4  7247 6851 8829 8862
4  7623 7691 7976 8369
4  7507 8551 8552 8553
4  1645 1515 1572 8391
4  7637 8200 8197 8410
4  7637 8194 8200 8410
4  7962 8197 8200 8737
4  6851 8852 8862 8859
4  7961 8360 8620 8617
4  6705 6323 7972 8563
4  1646 1600 1601 8429
4  8762 8653 8585 8761
4  8136 8309 8762 8585
4  8189 8309 8585 8761
4  1731 8585 8653 8761
4  1727 1668 8409 8761
4  1572 1516 8450 8463
4  1349 1263 8554 8553
4  1643 1551 1484 8630
4  8025 8679 7152 8680
4  8464 8450 8391 8396
4  8447 8739 8693 8696
4  1269 1270 1267 8743
4  7853 7854 6719 8697
4  8464 8391 8393 8394
4  8623 8625 8624 8621
4  6309 6284 6814 8625
4  334 6907 1288 8575
4  8697 8550 8698 8743
4  1645 412 1284 8392
4  8517 8555 8854 8640
4  8708 8744 8745 8552
4  7882 8550 8462 8393
4  1539 8544 8366 8741
4  7878 8464 8393 8394
4  499 6795 843 8570
4  6518 8467 7540 8867
4  7489 6518 7391 8867
4  1889 8835 8709 8831
4  4608 8648 8503 8651
4  7491 7391 8650 8867
4  8711 8650 8709 8651
4  4387 4388 4531 8506
4  7489 8867 7491 8707
4  7358 8727 7489 8706
4  8710 8419 8648 8649
4  1302 8656 8712 8713
4  499 7695 6795 8570
4  4502 4503 4522 8782
4  6324 8637 7479 8713
4  839 4429 4376 8427
4  8521 8637 8639 8635
4  6598 8784 7911 8675
4  4515 4502 4514 8807
4  7832 7188 8821 8807
4  4580 4452 4515 8583
4  1302 1457 8523 8713
4  4514 8386 8527 8807
4  8436 8523 8522 8713
4  4530 4579 4556 8600
4  4410 4523 8788 8593
4  4522 8388 8821 8591
4  6515 8785 6450 8595
4  7010 8589 8001 8541
4  6249 8596 8597 8383
4  4388 4528 8506 8586
4  7956 7886 8225 8587
4  7886 7214 7797 8504
4  21 4477 4476 8588
4  8592 8595 8593 8591
4  8054 7753 8589 8588
4  4528 8506 8586 8507
4  4513 8730 8511 8486
4  7151 7353 7990 8681
4  7577 7562 8373 8425
4  59 60 4471 6595
4  1692 8567 8566 8564
4  6515 6564 6516 8785
4  4522 4503 4523 8594
4  7853 7107 7854 8697
4  7562 8374 8425 8421
4  4410 4523 4509 8788
4  8780 8786 8789 8787
4  7000 8581 8358 8584
4  6450 7832 7488 8821
4  4509 4523 4503 8594
4  4522 4523 4586 8591
4  7499 7398 8374 8419
4  7438 7577 8428 8421
4  6788 6848 6790 8830
4  6788 6790 6789 8777
4  6788 6789 8528 8777
4  6848 6992 6790 8798
4  7491 8707 8650 8649
4  4317 4310 4568 8375
4  1636 8823 8692 8861
4  4532 4537 4563 8343
4  4460 4512 4513 8511
4  7685 8614 7237 8545
4  7601 7797 7739 8765
4  7237 8601 7238 8861
4  8161 7601 7739 8763
4  154 7706 7695 8342
4  4387 4355 444 8561
4  4586 8593 8596 8591
4  7488 8821 8605 8388
4  6249 8597 8596 8674
4  7966 8595 8597 8674
4  4471 8596 8593 8674
4  6450 8821 6455 8591
4  6468 7282 7369 8383
4  6595 6923 7966 8675
4  1909 1680 1682 8574
4  8437 8485 8482 8405
4  8625 8630 8624 8621
4  6463 6468 7369 8645
4  7430 8626 8107 8841
4  1377 8607 8406 8405
4  1537 8721 1281 8717
4  8731 8732 8815 8816
4  661 993 4358 7504
4  4358 993 4355 8569
4  6481 8740 8754 8760
4  6622 6621 6623 8799
4  7698 7949 7429 8731
4  1280 8718 1281 8732
4  6474 8757 8754 8740
4  8869 8757 8758 8754
4  8714 8757 8718 8716
4  8041 8714 8757 8740
4  1653 8758 1282 8756
4  1234 8753 8755 8756
4  6643 6623 6621 8799
4  8718 8757 8758 8716
4  6474 8757 8869 8754
4  1588 8718 1282 8758
4  1282 8718 8759 8756
4  1282 8759 1540 8756
4  8718 8758 8754 8756
4  8869 8757 8849 8850
4  7467 8869 8757 8849
4  8192 8849 7919 8644
4  8400 8549 8548 8543
4  414 6780 7145 8398
4  1566 6780 414 8398
4  7468 8714 7949 8715
4  1588 8718 8758 8716
4  8189 8616 8409 8761
4  7371 8607 8405 8608
4  1539 1269 1546 8550
4  1477 1520 1599 8622
4  1539 1594 8366 8544
4  7878 6958 7107 8464
4  8544 8400 8548 8543
4  1515 1516 1572 8463
4  7279 7292 8281 8857
4  1668 1658 1376 8482
4  1727 8409 1681 8410
4  7292 8281 8857 8378
4  7662 8762 8309 8409
4  1376 8405 1377 8412
4  1543 1358 1634 8852
4  8192 8738 8849 8644
4  1557 1537 1538 8719
4  8869 8851 8755 8846
4  1358 1506 1634 8844
4  7808 7735 7736 8479
4  4425 8631 8665 8629
4  8718 8754 8740 8756
4  7248 8336 8338 8337
4  8869 8849 8848 8850
4  7805 7905 7504 7789
4  7503 7905 7808 8569
4  8869 8755 8843 8846
4  7503 8569 7808 8561
4  7808 7789 7735 8336
4  7562 7168 8373 8374
4  4429 4561 4487 8427
4  4539 8684 8576 8577
4  6138 7311 8628 8790
4  7709 7798 7363 8339
4  7248 8336 7789 8570
4  7735 7736 8479 8344
4  7363 7364 7737 8345
4  8345 8795 8478 8796
4  4434 8725 8665 8724
4  4424 7707 8642 8631
4  7311 8426 7869 8628
4  7467 8848 8869 8849
4  1603 8774 1435 8439
4  7296 8546 8545 8861
4  7237 7238 8187 8861
4  8848 8683 8843 8845
4  4541 4460 4603 8354
4  1634 1506 1502 8844
4  1502 1587 8755 8843
4  8193 8846 8848 8683
4  7489 7491 7576 8419
4  8193 8869 7467 8848
4  8860 8472 8671 8670
4  4440 8730 8792 8791
4  8612 8417 8418 8416
4  8457 8657 8459 8636
4  1413 1407 8783 8459
4  8413 8831 8615 8612
4  1657 1430 1655 8652
4  8136 8762 8654 8801
4  7540 8467 8468 8810
4  7350 8672 8811 8670
4  8254 8318 6990 8438
4  7662 8194 8282 8480
4  1731 1655 1668 8653
4  6990 8282 8437 8480
4  4528 4493 4531 8507
4  1655 1430 1658 8652
4  7410 8318 8254 8481
4  7345 7350 8468 8471
4  7961 7962 8189 8617
4  7710 8668 8672 8670
4  7773 8737 7962 8371
4  8189 7962 8200 8616
4  1407 8669 1606 8662
4  8668 8733 8669 8662
4  7711 8668 8670 8458
4  1413 1426 1407 8459
4  8659 8661 8734 8662
4  8194 8410 8608 8407
4  7751 7244 8668 8734
4  1458 814 646 6782
4  7856 6346 6705 8434
4  1593 8469 8750 8471
4  8174 8171 7860 8436
4  1426 8669 1407 8459
4  8669 8860 8670 8458
4  8369 8708 8838 8368
4  8060 8363 8517 8554
4  7688 6786 7148 8744
4  7718 7836 7719 8687
4  8060 7111 7507 8401
4  1553 1555 1349 8556
4  7690 7507 7688 8368
4  8708 8745 8838 8556
4  8369 8847 8828 8838
4  8193 6976 8869 8846
4  8843 8844 8683 8847
4  4580 8358 8583 8361
4  8753 8755 8851 8512
4  8753 8851 8806 8744
4  7148 8851 8708 8744
4  8008 7419 8491 8390
4  7635 8385 8601 8603
4  1384 1389 1385 8441
4  803 731 919 8768
4  7272 8203 7774 8351
4  7283 6455 7487 8492
4  4523 8594 8593 8591
4  1528 1557 1547 8735
4  4335 4273 8389 8387
4  7107 8697 8446 8695
4  7540 8467 8835 8867
4  1638 1640 8813 8776
4  1673 1663 1664 8805
4  8835 8810 8812 8813
4  4313 8709 8710 8651
4  1682 8494 8493 8610
4  8400 8542 8367 8560
4  6697 6699 8514 8516
4  1323 8556 8745 8741
4  8515 8459 8783 8456
4  7763 7569 7750 8460
4  1269 8550 1270 8743
4  7470 6697 6699 8514
4  1331 1337 1662 8515
4  7769 7975 7771 8845
4  7769 7771 7292 8857
4  1588 8758 8850 8716
4  1537 8751 8736 8717
4  1879 8833 8834 8469
4  1547 8776 8775 8735
4  6260 7989 7313 8682
4  7437 8643 8377 8378
4  1493 1495 1506 8856
4  8637 8639 8860 8472
4  1422 8860 8639 8472
4  1349 1323 1539 8366
4  735 731 1385 7537
4  7345 7348 8471 8470
4  1603 1427 1435 8774
4  8155 8712 8436 8713
4  8825 8826 8805 8861
4  1425 1592 1462 8671
4  1425 8669 1426 8860
4  7382 7650 8402 8525
4  7803 8458 7716 8635
4  7407 7760 7108 8693
4  7703 7407 7109 8451
4  7716 7348 8475 8472
4  1603 1599 1586 8483
4  7148 8806 6158 8851
4  8654 8481 8652 8606
4  6990 8437 8438 8483
4  8869 8848 8843 8850
4  1653 8755 8758 8756
4  6158 8806 8625 8760
4  1533 8627 8626 8621
4  1484 1551 1520 8630
4  8869 8758 8757 8850
4  1587 8758 8755 8850
4  6976 8869 8851 8754
4  1234 8755 1653 8756
4  1234 8755 8753 8512
4  4595 8676 8764 8766
4  8054 7753 7724 8589
4  4525 4545 8408 8531
4  7753 8590 8589 8588
4  7506 8001 8043 8513
4  24 6854 6272 8531
4  4583 8676 8633 8820
4  7989 7353 7729 8681
4  4477 8589 8676 8588
4  6786 8742 6157 8744
4  8110 7502 7821 8423
4  8753 8742 8806 8630
4  6719 7854 6309 8743
4  6719 8697 7854 8743
4  1643 1484 8742 8630
4  8464 8463 8450 8697
4  1267 8742 8630 8624
4  604 59 4410 6598
4  6564 8536 8785 8784
4  604 6598 4410 8784
4  4508 4509 8789 8533
4  4509 4503 4504 8789
4  1267 8742 8624 8743
4  4410 8788 8784 8675
4  4471 60 8596 8674
4  7780 8568 8565 8564
4  6710 7860 6712 8436
4  59 6595 4471 8675
4  1457 8712 8639 8713
4  8797 8597 8596 8383
4  6789 8777 7551 8778
4  4360 4362 4551 8534
4  7589 6788 6789 8528
4  1669 1631 8712 8673
4  1301 6710 8435 8656
4  4420 4509 4508 8533
4  7593 6789 7682 8786
4  1305 8656 8523 8655
4  8521 8523 8429 8713
4  7236 7635 7238 8601
4  7450 8042 7589 8537
4  8540 8537 8534 8529
4  8540 8770 8773 8530
4  1457 8639 8429 8713
4  8171 8436 8522 8713
4  4460 4513 8600 8511
4  8798 8700 8830 8701
4  6701 8522 8436 8655
4  8155 7779 8474 8475
4  7505 7519 7913 7450
4  8174 8171 8436 8522
4  7318 7976 7975 8683
4  936 4464 8140 8538
4  4539 4559 4310 8684
4  7625 8829 6957 8365
4  1011 6851 7734 8859
4  1011 1358 6851 8859
4  7733 7769 8857 8862
4  7733 7734 6851 8862
4  6783 8524 8522 8655
4  1458 1646 1233 8430
4  7972 6324 7819 8521
4  1506 8843 1502 8844
4  4530 8600 4556 8729
4  4289 4338 8772 8701
4  8839 8578 8579 8701
4  4604 4338 8578 8827
4  8839 8579 8578 8827
4  7558 7557 7942 8562
4  7819 6324 8171 8713
4  8433 8638 8563 8432
4  7557 7877 8611 8520
4  7557 7942 8562 8611
4  7144 6781 6962 8397
4  6701 6783 8522 8655
4  1405 8783 8660 8381
4  6697 8514 8863 8516
4  6795 7126 7015 8570
4  1334 6699 8516 8380
4  7287 7747 6699 8518
4  1403 8380 8382 8379
4  7805 7248 7789 8570
4  808 6699 1334 8380
4  7383 8808 8752 8525
4  7678 8075 8525 8399
4  8837 8449 8808 8809
4  6137 7613 7615 8628
4  6137 7960 6506 8629
4  7678 7608 8048 8794
4  7871 7615 8666 8629
4  7871 8665 8631 8629
4  7871 8226 7364 8666
4  4561 8427 8576 8425
4  7107 7109 7108 8695
4  1265 1269 1267 8698
4  8752 8837 8808 8747
4  1581 1572 1516 8450
4  7878 7107 7853 8464
4  8396 8453 8402 8448
4  1597 8837 1517 8809
4  8714 8731 8715 8717
4  1280 8759 8718 8732
4  1587 1653 8755 8758
4  7467 6474 7468 8757
4  1291 1281 8721 8732
4  1936 6605 6388 8687
4  6347 8514 7762 8457
4  6474 6481 8041 8740
4  8540 8534 8771 8529
4  8869 8755 8851 8754
4  6455 8388 8492 8591
4  4420 8788 4509 8533
4  4362 4508 4551 8533
4  8697 8694 8698 8696
4  8825 8822 8826 8861
4  7410 7661 8318 8481
4  6990 8438 8437 8440
4  8774 8749 8747 8484
4  1281 8721 8718 8717
4  8161 8579 8763 8599
4  7272 7268 8203 8349
4  7959 7268 7732 8416
4  7846 7000 8581 8781
4  7268 8203 8349 8573
4  7732 7268 7272 8347
4  7912 8798 8620 8358
4  7929 7773 7962 8617
4  7773 7774 8203 8351
4  8200 8409 8616 8410
4  878 1500 193 8075
4  8540 8771 8770 8530
4  8076 6779 8399 8404
4  1566 8445 1514 8403
4  6781 8397 6779 8404
4  1566 1645 8391 8398
4  4445 8700 8777 8779
4  919 731 6437 8768
4  8400 8549 8542 8560
4  6895 6244 8077 6907
4  7536 7537 8188 8768
4  1288 1558 8542 8560
4  7593 6789 8786 8528
4  8188 8768 7537 8442
4  6895 8034 6906 8560
4  6790 6992 7912 8798
4  4493 4497 8507 8796
4  7601 8767 7797 8765
4  7287 6699 7463 8518
4  1334 6699 104 8516
4  1334 1331 1662 8516
4  6347 7762 6325 8457
4  1662 1413 1405 8783
4  7601 8767 8763 8820
4  7470 7287 7747 6699
4  4583 8633 8819 8820
4  4612 8676 4595 8766
4  8633 8676 8590 8820
4  8819 8763 8827 8764
4  8225 7886 8190 8587
4  7310 8559 6313 8768
4  742 6313 8078 8865
4  803 1384 731 8768
4  7371 8609 8607 8608
4  4583 4618 4595 8819
4  8817 8539 8770 8773
4  7773 8203 8197 8351
4  7889 8818 8579 8701
4  7001 8189 8585 8360
4  7268 8498 8133 8573
4  4534 8350 8346 8348
4  4618 4623 8839 8819
4  7739 8598 8763 8765
4  8203 7637 8197 8646
4  8819 8579 8827 8763
4  8521 8639 8637 8713
4  7929 8620 8702 8619
4  8372 8571 8737 8410
4  8654 8652 8481 8748
4  7661 7662 8318 8606
4  1631 8639 8712 8673
4  8637 8475 8712 8673
4  1579 8447 1597 8449
4  7716 7711 7348 8670
4  1520 8624 8630 8621
4  6719 6309 8742 8743
4  1546 1269 8463 8550
4  7107 8446 8452 8695
4  1321 8512 8753 8745
4  7703 8752 8451 8452
4  1520 1551 1533 8630
4  1551 1533 8630 8627
4  1620 1502 8755 8846
4  1572 8450 8391 8463
4  6158 6814 6481 8760
4  6158 8851 8806 8754
4  8464 8391 8450 8463
4  1581 1570 8450 8448
4  1572 8391 8450 8445
4  8366 8544 8400 8548
4  1478 1265 8699 8696
4  444 4355 7503 8561
4  4531 4497 8477 8507
4  8190 7601 7221 8820
4  4528 4530 4493 8507
4  4528 4612 4530 8766
4  4476 4477 4612 8676
4  8676 8764 8767 8820
4  7753 8225 8190 8590
4  7853 8464 7107 8697
4  4477 4478 8633 8589
4  1570 8453 8445 8448
4  4515 8583 4452 8781
4  4523 8594 8788 8593
4  4420 4410 4509 8788
4  7107 8697 8464 8446
4  4508 4509 4504 8789
4  7445 7589 7593 8529
4  7928 8357 8352 8619
4  8161 8180 7927 8579
4  7889 8704 8153 8701
4  4507 4603 4337 8356
4  1581 1516 1265 8698
4  4287 4337 4289 8703
4  7407 8693 8746 8438
4  7108 8693 8694 8695
4  1305 1302 1600 8523
4  1397 1600 1646 8430
4  1500 8526 1481 8794
4  6324 8521 8563 8635
4  1597 8449 8837 8809
4  7561 7942 7557 8611
4  1302 1631 1457 8712
4  1581 8446 1579 8448
4  7407 8451 8746 8693
4  7593 8528 8786 8529
4  8818 8773 8770 8772
4  8818 8830 8772 8701
4  8854 8555 8868 8640
4  7421 8401 8555 8557
4  8145 6701 6783 8522
4  1307 1264 1642 8868
4  7532 8022 7519 8769
4  1628 1263 8366 8401
4  7445 7593 6564 8536
4  7111 8551 7507 8401
4  4420 4410 8788 8784
4  78 1543 1370 8370
4  1543 1634 1633 8847
4  1263 8401 8554 8553
4  8512 8838 8708 8745
4  8370 8828 8362 8364
4  7734 8857 8281 8858
4  1263 8868 8554 8401
4  1657 1673 1664 8805
4  1370 1633 1553 8828
4  1370 6625 8370 8362
4  7409 8187 7944 8825
4  1709 1708 1673 8826
4  7302 7685 8545 8688
4  6622 8138 6463 7496
4  4326 45 4329 8408
4  7972 8563 8521 8431
4  6426 7136 6782 7877
4  1443 1517 1663 8855
4  7296 8187 7409 8825
4  7718 6605 7836 8687
4  7718 6388 6605 8687
4  7876 7972 7819 8520
4  1647 8686 8690 8688
4  8429 8430 8523 8431
4  6701 7860 6710 8436
4  1301 1302 1305 8656
4  7836 7415 8687 8500
4  7415 8614 7685 8687
4  7860 8171 8155 8436
4  7722 7641 7780 8565
4  7415 7236 7685 8614
4  7289 7292 7437 8378
4  8602 8689 8687 8500
4  405 1301 6710 8435
4  405 6710 6712 8435
4  1677 8866 1670 8435
4  1662 1405 1403 8382
4  1337 1413 1662 8515
4  1334 1662 1403 8382
4  1457 1631 8639 8712
4  7574 7566 7569 8663
4  7765 6792 6347 8514
4  1651 1405 8660 8381
4  1669 8712 8866 8465
4  1670 8435 8712 8656
4  1301 404 6710 8655
4  1628 8366 8367 8401
4  8192 8848 8643 8845
4  1675 1647 1932 8689
4  1453 1651 1629 8728
4  1629 1651 1630 8728
4  7603 7889 6848 8818
4  8077 8549 7426 8560
4  6788 8773 8830 8530
4  6848 7889 8153 8701
4  7499 7398 7168 8374
4  8025 7151 8679 8567
4  8473 8346 8354 8489
4  7694 8550 7113 8548
4  4507 4603 8356 8355
4  8592 8594 8780 8821
4  7802 7082 7730 8730
4  7546 7732 7153 8414
4  4559 4435 4440 8792
4  6598 6923 6595 8675
4  7966 6450 6455 8595
4  8592 8594 8788 8787
4  4337 4603 8578 8356
4  6516 8592 8785 8787
4  4522 8821 8594 8591
4  8592 8785 8788 8593
4  1267 1520 1477 8699
4  414 7145 1645 8398
4  6719 8550 8697 8743
4  808 104 1334 6699
4  1643 8753 1551 8630
4  7854 6284 6309 8694
4  6719 8741 8550 8743
4  6719 6309 6786 8742
4  1267 1520 8699 8624
4  6309 6157 8742 8624
4  8806 8625 8630 8624
4  1384 742 1637 8865
4  6629 8213 7624 8362
4  8785 8788 8536 8787
4  7624 8213 7690 8364
4  7624 7690 7691 8364
4  8828 8554 8363 8556
4  4273 8389 8388 8591
4  4509 4523 8594 8788
4  590 1307 7587 8854
4  1306 926 1370 8362
4  590 926 1306 6624
4  8594 8789 8788 8787
4  4522 4586 4273 8591
4  7383 8048 7300 8808
4  8447 8746 8693 8739
4  1028 1241 7021 8444
4  489 1233 7942 8611
4  1435 1599 8439 8622
4  7760 8438 6990 8623
4  8616 8842 8409 8761
4  1681 1376 1377 8412
4  8200 8737 8197 8410
4  1668 8653 8409 8761
4  8739 8623 8699 8622
4  1581 1478 8446 8696
4  1636 1647 1443 8692
4  1597 8447 1609 8837
4  8693 8739 8699 8696
4  808 1392 7463 8380
4  1478 8447 8446 8696
4  7615 8629 8628 8577
4  6138 7311 7613 8628
4  142 1393 1350 8858
4  7289 7437 7574 8377
4  190 4270 4268 8628
4  8455 8515 8382 8783
4  1392 1334 1403 8380
4  4561 4311 8420 8425
4  7570 8643 8192 8644
4  4434 4435 4559 8725
4  8376 8381 8377 8379
4  1392 845 7463 8379
4  7289 8377 7574 8518
4  7292 7771 7437 8643
4  7613 7311 7615 8628
4  7869 8628 8426 8577
4  4270 4434 4539 8577
4  154 7695 4350 8342
4  7833 7798 7709 8642
4  8192 8738 8848 8849
4  4564 8667 4489 8722
4  7709 7798 8339 8642
4  1301 8656 1305 8655
4  6782 7877 7136 8519
4  8174 7819 8171 8522
4  7706 7707 7833 8642
4  8345 8341 8339 8667
4  1270 1484 1267 8742
4  1267 8699 8698 8624
4  7429 8714 8740 8732
4  8345 8477 8343 8796
4  1583 8621 8440 8622
4  6157 6158 8806 8625
4  6814 8625 6989 8760
4  22 4478 4477 8589
4  6966 7956 8587 8509
4  4388 986 4476 6967
4  987 6249 6253 8383
4  4471 60 4472 8596
4  8753 8630 8806 8627
4  6309 6284 8625 8624
4  7108 8693 7760 8623
4  6989 8626 8625 8621
4  4595 4618 4604 8827
4  4612 4583 4595 8676
4  8817 8632 8633 8539
4  8714 8718 8757 8740
4  4604 8827 8578 8599
4  7236 8601 8614 8602
4  4337 4603 4604 8578
4  1599 1520 1583 8622
4  8578 8704 8701 8703
4  8625 8760 8627 8626
4  508 8524 6783 8655
4  6325 7803 6324 8635
4  1458 646 1397 8524
4  839 97 4429 8790
4  600 4376 8678 8682
4  404 508 6701 8655
4  1336 1455 1422 8636
4  508 646 6783 8524
4  444 4355 993 7503
4  7819 8171 8522 8713
4  7819 8521 6324 8713
4  1457 8429 8523 8713
4  1010 986 4388 6967
4  4388 8586 8506 8509
4  1455 1457 8639 8638
4  8832 8467 8469 8470
4  7642 6518 7358 8727
4  6896 7537 6906 8442
4  6518 8832 8467 8727
4  7536 7114 6437 8768
4  1528 8736 8775 8499
4  7723 8832 8474 8470
4  6311 7310 6313 8768
4  7779 7723 8474 8470
4  7722 8474 7723 8832
4  6896 8188 7536 7537
4  742 458 1637 8078
4  8400 8367 8557 8443
4  7737 8795 7214 8505
4  8377 8728 8663 8381
4  8598 8600 8511 8580
4  8345 8343 8667 8722
4  6323 6324 8563 8635
4  7835 8478 8505 8508
4  7733 7247 7318 8862
4  4563 8343 4567 8477
4  7267 7587 8185 8517
4  1306 1370 1553 8362
4  1543 6957 8852 8370
4  7247 7623 7318 8829
4  7247 6957 7625 8829
4  1633 1620 1555 8838
4  6957 8365 8829 8370
4  1370 8362 8370 8828
4  4531 8477 4567 8506
4  7688 7507 6786 8552
4  7972 8431 8521 8520
4  1305 8523 1397 8655
4  8507 8505 8729 8796
4  6421 6426 6782 8611
4  489 6421 814 8611
4  508 1397 8524 8655
4  4531 4493 4497 8507
4  7584 8479 7736 8510
4  8433 8638 8657 8634
4  8863 8457 8864 8657
4  7313 7989 7438 8428
4  8514 8457 8515 8454
4  1512 8864 6610 8434
4  4355 8476 8569 8561
4  7835 8478 7737 8505
4  7111 7113 7507 8551
4  8643 8845 8856 8857
4  1405 8783 8662 8660
4  1555 1321 1323 8745
4  1453 8728 8376 8381
4  6786 6309 6157 8742
4  1539 1323 1270 8741
4  8281 8378 7463 8379
4  8753 8512 8851 8744
4  7566 8377 7437 8644
4  7000 7912 8358 8779
4  4504 8789 8782 8778
4  8515 8454 8457 8456
4  7289 8518 7463 8378
4  7491 7391 7400 8650
4  7642 8565 8832 8726
4  4314 4480 4487 8705
4  7642 8727 7358 8726
4  1288 1564 1284 8542
4  8424 8420 8419 8421
4  4487 8705 8678 8682
4  7635 7188 8527 8386
4  1919 8803 8804 8801
4  4607 4610 4462 8466
4  8826 8803 8802 8804
4  6463 7369 7496 8645
4  8138 8408 8411 8799
4  6674 6854 7495 8531
4  8131 8581 8802 8824
4  7487 7486 7419 8605
4  1709 8805 1657 8804
4  7615 7311 7869 8628
4  4329 8408 8138 8799
4  7302 7685 7237 8545
4  8408 8411 8384 8645
4  1597 1609 1517 8837
4  1680 1377 1632 8406
4  8203 8573 8571 8351
4  4314 8705 8420 8710
4  1291 1575 1280 8732
4  1575 1378 1585 8841
4  4313 4311 4317 8685
4  8710 8707 8419 8649
4  4608 8800 8503 8648
4  8650 8867 8709 8707
4  590 1307 458 7587
4  6260 6693 7313 7989
4  7489 7576 8424 8419
4  4452 4504 4502 8782
4  7267 6624 7587 8517
4  1637 458 1307 8640
4  8108 8396 8397 8404
4  1566 943 414 6780
4  8449 8808 8809 8525
4  8492 8389 8596 8591
4  8595 8597 8596 8591
4  7570 8192 7919 8644
4  1506 8856 8844 8859
4  1493 1629 1495 8738
4  8616 8842 8737 8410
4  1514 878 6779 8399
4  8187 8199 8825 8822
4  1636 1443 1663 8692
4  1557 1538 1606 8661
4  1407 8669 8783 8459
4  1547 1606 1462 8733
4  8017 8207 8016 8615
4  1674 1638 1639 8814
4  1403 1651 1453 8381
4  8860 8472 8670 8458
4  7574 8377 8455 8518
4  1453 1629 1493 8376
4  7566 8377 8644 8663
4  8697 8698 8694 8743
4  4477 8633 4583 8676
4  6157 8625 8806 8624
4  21 4476 6968 8588
4  1520 8630 1533 8621
4  8474 8866 8712 8465
4  8753 8806 8851 8754
4  1643 8753 8742 8745
4  1692 1873 1677 8566
4  1551 8630 8753 8627
4  6309 6814 6157 8625
4  6158 6481 8754 8760
4  1234 1551 8753 8627
4  7204 8734 8659 8720
4  1458 6782 8524 8611
4  6783 7876 8524 8519
4  1630 8661 8658 8660
4  646 6782 6783 8524
4  6421 7561 6426 8611
4  1553 1349 8554 8556
4  1643 8742 8753 8630
4  7503 7808 7583 8561
4  1323 8745 1643 8741
4  1323 1321 1643 8745
4  6895 6906 6907 8560
4  6896 6895 8034 6906
4  7148 6786 6157 8744
4  1288 6907 8560 8575
4  1564 1558 1594 8543
4  8034 8560 7426 8443
4  7426 8023 7111 8548
4  8115 8392 8395 8575
4  1539 1594 1263 8366
4  7113 8741 6786 8552
4  1242 1243 1588 8716
4  7911 7047 7532 8784
4  8023 7694 7111 8548
4  7113 8550 8551 8548
4  4420 7047 8784 8769
4  7913 7450 8535 8538
4  1385 7537 8768 8442
4  1558 8367 8560 8442
4  1642 1263 1628 8557
4  7558 6705 7557 8562
4  8441 8557 8367 8443
4  8562 8434 8433 8432
4  7557 6705 7972 8562
4  6426 7561 7557 8611
4  7877 7972 7876 8520
4  508 1397 646 8524
4  8034 7426 7428 8443
4  6710 6706 6712 7860
4  8213 8060 7690 8363
4  4314 8705 8707 8706
4  8523 8430 8524 8520
4  600 8678 7152 8682
4  4480 8678 4487 8705
4  8711 8709 8650 8831
4  8478 8479 8476 8510
4  7736 7737 7835 8478
4  7747 6699 8518 8454
4  1324 6609 6610 8864
4  1331 1324 1337 8863
4  7763 7750 7762 8456
4  1324 1617 1337 8657
4  6346 6347 6325 8864
4  8867 8727 8836 8707
4  7722 7723 7642 8832
4  6518 7723 7540 8467
4  4487 8705 8427 8420
4  7085 8373 7169 8792
4  6701 8436 6710 8655
4  1692 6712 8216 8564
4  6701 6713 6710 7860
4  4314 8707 8836 8706
4  4317 4568 4610 8800
4  7577 7499 7562 8421
4  7438 7576 7499 8421
4  7499 8419 8374 8421
4  7168 7171 7169 8488
4  4559 4440 4568 8375
4  7438 8424 7576 8421
4  4376 4487 8678 8682
4  7729 7358 7489 8424
4  839 8427 4376 8682
4  4376 4487 4480 8678
4  4388 4528 4531 8506
4  4612 4595 4530 8766
4  1291 8607 1575 8732
4  7200 7241 8720 8717
4  1678 1677 8435 8566
4  4434 4435 8725 8724
4  6968 8587 6966 8588
4  4595 4579 4530 8764
4  1588 1243 1281 8716
4  8795 8791 8729 8796
4  6710 8436 8435 8656
4  1873 1677 8566 8833
4  8180 7743 7731 8511
4  7801 7082 7802 8730
4  4513 4491 4556 8730
4  7608 7609 7302 8691
4  1553 1633 1555 8828
4  7409 7944 7410 8748
4  1430 8652 8805 8749
4  8480 8412 8606 8407
4  7952 7517 8208 8810
4  8853 8671 8672 8733
4  8602 8604 8501 8491
4  7244 8734 8736 8735
4  1638 8775 1547 8776
4  8733 8734 8661 8662
4  4335 8422 4336 8490
4  1640 1547 1462 8733
4  6674 6272 6854 8531
4  8110 8423 7821 8840
4  7821 8490 8422 8390
4  4462 8466 4610 8489
4  7567 8644 7919 8658
4  6837 6272 8110 8840
4  7927 8127 7928 8357
4  4534 8346 4541 8348
4  7928 7774 7773 8352
4  1587 1588 8758 8850
4  7391 8835 8650 8867
4  7959 7732 8414 8416
4  7540 8812 8835 8810
4  7928 8352 7773 8619
4  7731 8346 8127 8354
4  1612 8469 1593 8471
4  8467 8750 8468 8810
4  1523 1281 1537 8721
4  7489 7391 7491 8867
4  6643 6621 6854 8799
4  8493 8495 8418 8496
4  4439 4525 24 8531
4  1481 8526 8809 8794
4  1481 8809 1517 8547
4  1514 8403 8453 8399
4  1566 1514 943 8403
4  943 1514 6779 8403
4  1566 943 6780 8403
4  1500 1580 1481 8526
4  1566 8391 1572 8445
4  845 1393 8281 8379
4  8376 8378 8858 8379
4  7292 7771 8643 8857
4  142 1350 7734 8858
4  7650 8402 8449 8452
4  6958 8464 8396 8452
4  1579 8447 8449 8448
4  7566 7567 7210 8659
4  8753 8851 8755 8754
4  8108 7650 6958 8402
4  1626 1653 1234 8755
4  1630 1538 1243 8719
4  1570 1572 8450 8445
4  60 987 4472 6249
4  1570 1579 1580 8448
4  7871 7364 8339 8666
4  6783 7876 8522 8524
4  1241 8434 8444 8432
4  8565 8566 8833 8726
4  7722 8565 8474 8832
4  1631 1422 8639 8673
4  8474 8866 8568 8712
4  6966 7956 8225 8587
4  1671 8866 8833 8469
4  7723 8467 8832 8470
4  8045 6969 8510 8561
4  1010 4388 4387 6967
4  8712 8475 8465 8673
4  1441 6389 8690 8686
4  7101 7608 7132 8691
4  8835 8709 8650 8867
4  8155 8171 7479 8713
4  1022 1441 6389 8690
4  1452 8465 8472 8673
4  1022 1441 997 6389
4  8145 8174 6701 8522
4  1678 8435 6712 8564
4  7428 8400 7421 8557
4  1522 8560 6906 8442
4  8216 7641 8567 8564
4  7236 7238 7237 8601
4  6712 8436 7860 8564
4  7722 7780 8155 8568
4  7889 7927 8153 8704
4  7225 8818 8817 8819
4  8818 8819 8839 8770
4  997 6388 6389 8686
4  4338 8839 8772 8701
4  7722 8155 7779 8474
4  8818 8839 8819 8579
4  6992 7929 8620 8702
4  8467 8835 8867 8836
4  1242 1630 1243 8658
4  8435 8566 8565 8564
4  1873 1671 1677 8833
4  8598 8764 8600 8599
4  4603 4579 4604 8580
4  7153 8347 7272 8348
4  8043 7225 7603 8817
4  8180 7731 8127 8354
4  7739 7743 8180 8598
4  7085 7562 7169 8373
4  1605 1407 1606 8662
4  1651 1630 8728 8660
4  8684 8373 8793 8792
4  4440 4491 8730 8791
4  7204 7567 7200 8720
4  7085 7169 7082 8792
4  7730 7731 7743 8511
4  4607 8350 8503 8466
4  8658 8715 8720 8719
4  4440 8375 8792 8486
4  4462 4512 4460 8489
4  6976 6474 7467 8869
4  8041 7430 7429 8740
4  6976 8851 6158 8754
4  6474 8041 7468 8757
4  1588 1281 1282 8718
4  1587 1588 1653 8758
4  7241 8736 8720 8717
4  1547 1557 1606 8733
4  1282 8758 8718 8756
4  1528 1537 1557 8751
4  7200 7919 7468 8715
4  1606 8733 8661 8662
4  1377 1575 8607 8405
4  1495 8738 1242 8850
4  7204 7200 7241 8720
4  6481 7430 8041 8740
4  8614 8602 8689 8687
4  8731 8499 8721 8816
4  8798 8620 8358 8359
4  7429 7371 7372 8815
4  7637 7469 8609 8610
4  7204 7246 7244 8736
4  8731 8721 8736 8717
4  1667 1632 1291 8494
4  1632 1575 1291 8607
4  1681 8412 1377 8407
4  7698 7372 7469 8496
4  6 9 4425 6506
4  1727 8409 8842 8761
4  6651 6837 8013 8840
4  1913 1727 1681 8410
4  6674 7495 8110 8423
4  6674 6621 7495 6854
4  8110 7495 7502 8423
4  6837 8110 8013 8840
4  8309 8409 8762 8761
4  1668 8482 1376 8412
4  7001 8358 8620 8360
4  6629 8213 8362 8517
4  590 6624 1306 8854
4  7247 7625 7623 8829
4  878 8075 6779 8399
4  6989 8440 8626 8621
4  8451 8447 8446 8448
4  4425 4564 4434 8665
4  1427 1498 1435 8774
4  8746 8693 8739 8438
4  1664 8805 8747 8749
4  6284 8623 8625 8624
4  7107 7108 7854 8695
4  1581 1265 1478 8696
4  1435 1477 1599 8622
4  7001 7961 8189 8360
4  1601 8429 8638 8432
4  7558 7021 6705 8562
4  8618 8641 8371 8617
4  1455 1457 1422 8639
4  332 6906 1522 8560
4  332 6907 6906 8560
4  1284 412 6778 8392
4  1513 1617 8433 8638
4  8522 8523 8524 8520
4  8115 8024 7882 8395
4  6710 8436 8656 8655
4  1284 8542 8461 8575
4  8077 8549 8560 8575
4  8077 8560 6907 8575
4  1288 1558 1564 8542
4  7428 7426 7111 8400
4  8562 8430 8431 8520
4  1455 8639 1422 8636
4  1564 1594 8462 8543
4  1522 8441 1558 8442
4  8034 8077 7426 8560
4  8034 6906 8560 8442
4  7428 7111 7421 8400
4  8188 7428 7310 8558
4  6 4270 6137 8629
4  1663 8855 8805 8861
4  7641 8565 8567 8564
4  8540 8771 8530 8529
4  1481 1517 1443 8547
4  8755 8851 8512 8846
4  7682 6789 7551 8778
4  7467 8869 6474 8757
4  8193 6976 7467 8869
4  8789 8786 8533 8787
4  7593 7589 6789 8528
4  1526 1667 1523 8495
4  4446 4551 4508 8771
4  4563 4537 4567 8343
4  7244 7246 7517 8735
4  7241 7949 7698 8731
4  7200 7949 8731 8715
4  8478 8476 8479 8344
4  8476 8506 8510 8561
4  7737 7801 7214 8795
4  4387 4531 4567 8506
4  987 45 4326 6253
4  711 6643 6854 8799
4  758 7706 4422 8642
4  7912 8620 7001 8358
4  7753 8190 7221 8590
4  4595 8819 4618 8827
4  7445 8535 7589 8529
4  936 585 4360 7913
4  7450 8537 8535 8538
4  7912 7961 7001 8620
4  1731 8582 1919 8801
4  8190 7886 7797 8767
4  7371 8405 8607 8841
4  7835 8504 7886 8508
4  7802 8598 7739 8765
4  7661 8136 8762 8654
4  1637 1389 8865 8557
4  7886 7797 8767 8504
4  1657 1655 8654 8652
4  7214 7802 7797 8729
4  7944 8136 7661 8654
4  1647 8692 8613 8688
4  404 6701 6710 8655
4  1301 6710 8656 8655
4  1692 8566 1678 8564
4  8008 7487 7419 8390
4  8008 8602 8500 8490
4  4273 8388 8389 8387
4  6969 7584 7956 8510
4  6867 7101 7608 7132
4  8613 8601 8614 8692
4  7419 7236 8602 8603
4  8413 8711 8415 8503
4  7241 8168 7246 8736
4  7101 6390 7609 6389
4  8734 8736 8735 8751
4  7296 8545 7237 8861
4  7302 7237 7296 8545
4  8145 6783 7136 7876
4  508 6783 6701 8655
4  7876 7819 8174 8522
4  7517 7246 8208 8776
4  8208 8207 8017 8814
4  8615 8612 8814 8418
4  8207 8814 8497 8418
4  6967 6969 6966 7956
4  8676 8587 8586 8588
4  1024 1936 1046 6605
4  7300 7296 7409 8747
4  4476 4477 8676 8588
4  4388 4476 8586 8509
4  1443 8855 8692 8547
4  8586 8587 8504 8508
4  1597 1498 1609 8447
4  4512 4440 4513 8486
4  8461 8549 8542 8462
4  7882 7853 7694 8550
4  1539 1546 1594 8544
4  1515 8461 1564 8462
4  8685 8420 8374 8419
4  600 4392 535 7152
4  4311 8685 8420 8425
4  4268 6138 8628 8790
4  6712 6658 8216 8564
4  1264 1349 1263 8554
4  4610 8503 8800 8466
4  8866 8565 8566 8833
4  1889 1894 1639 8831
4  1462 8671 8853 8733
4  1640 8853 8813 8776
4  1632 8607 1291 8494
4  7391 8835 7540 8812
4  7540 7952 7541 8810
4  8623 8440 8621 8622
4  7246 8168 8207 8497
4  7853 6719 7694 8550
4  1267 1484 1520 8630
4  1270 1643 1484 8742
4  7113 6719 8741 8550
4  7241 7698 8168 8499
4  7691 7688 6975 8708
4  8512 8708 8744 8745
4  7661 8136 8309 8762
4  1349 1555 1323 8556
4  1555 8838 1321 8745
4  4561 4539 4310 8684
4  4317 4311 4310 8685
4  8189 8409 8309 8761
4  7662 8309 8200 8409
4  1500 193 8075 8794
4  7132 8690 6389 8691
4  4487 4561 4311 8420
4  4314 4487 4311 8420
4  7609 8686 7685 8688
4  590 1306 1307 8854
4  1446 1022 7132 8690
4  1384 1637 1389 8865
4  590 7587 6624 8854
4  7719 7415 7685 8687
4  6260 7990 7989 8681
4  1637 1307 1642 8868
4  4435 4440 8792 8791
4  8428 8705 8424 8420
4  404 1305 508 8655
4  4564 8667 8722 8724
4  1580 1597 1481 8449
4  1514 1580 1500 8453
4  1514 1570 1580 8453
4  7650 8752 7703 8452
4  1405 8382 8783 8381
4  8377 8455 8382 8381
4  8208 8810 8776 8814
4  1651 1405 1605 8660
4  1638 1547 1640 8776
4  7204 8734 8720 8736
4  1620 1502 1626 8755
4  1264 1553 1349 8554
4  1555 1620 1321 8838
4  8752 8808 8449 8525
4  7383 7703 7650 8752
4  7371 8607 8815 8841
4  7976 6975 8193 8846
4  1500 8453 1580 8526
4  1636 8692 1663 8861
4  7286 8582 8585 8801
4  6867 8075 7132 8794
4  4326 6253 45 8645
4  8413 8503 8414 8647
4  4326 8408 8797 8645
4  4326 45 8408 8645
4  4326 4329 4545 8408
4  711 999 6643 8799
4  9 758 4424 7707
4  1669 8465 1452 8673
4  7576 7491 7398 8419
4  8568 8436 8435 8564
4  4350 4358 4537 8340
4  7642 7357 7641 8679
4  7860 8155 7780 8568
4  154 4422 7706 8342
4  154 499 4350 7695
4  1637 8865 8078 8640
4  7258 8078 8559 8640
4  8555 8401 8868 8557
4  7258 6313 7310 8559
4  7421 8400 7111 8401
4  21 22 4477 6362
4  8185 8060 8517 8555
4  1264 1263 1642 8868
4  735 1522 6906 8442
4  731 1385 7537 8768
4  6390 6388 7719 8686
4  8753 8744 8742 8745
4  1323 8366 8556 8741
4  7148 8806 8851 8744
4  7608 7302 8048 8691
4  6390 7718 7719 6388
4  6706 6712 7860 8564
4  1321 1234 8753 8512
4  4425 6506 8631 8629
4  8436 8522 8523 8655
4  6657 8216 6658 7641
4  8226 7085 7813 8793
4  7913 7519 8022 8535
4  4362 584 4420 8769
4  7869 7085 8226 8793
4  6975 8851 8846 8708
4  7691 8708 8369 8368
4  6975 8846 8369 8708
4  7491 7395 7398 8649
4  7691 6975 7976 8369
4  7300 7409 7401 8747
4  1663 1517 8837 8855
4  7415 8602 8614 8687
4  7729 7489 7576 8424
4  7641 8567 8565 8726
4  1926 1932 1647 8613
4  6260 7990 6693 7989
4  1539 8366 1323 8741
4  1692 1678 1079 6712
4  7491 7398 8419 8649
4  1478 8699 8739 8696
4  7113 6719 6786 8741
4  7771 8192 7570 8643
4  1502 1495 1587 8843
4  1630 8661 1538 8719
4  1281 8716 8719 8717
4  1557 1537 8719 8751
4  8720 8736 8751 8717
4  6657 7151 8025 8567
4  1523 1291 1281 8721
4  7210 7567 7204 8659
4  8678 8705 8424 8682
4  7313 8428 8426 8790
4  8168 7698 7469 8496
4  839 4429 8427 8790
4  97 4268 4429 8790
4  8783 8660 8663 8664
4  8168 7469 8207 8496
4  1658 8482 8652 8483
4  6990 8623 8438 8440
4  7108 8693 8623 8694
4  1926 1647 1636 8613
4  7238 8601 8822 8861
4  1306 6624 926 8362
4  7625 7624 7623 8365
4  8369 8368 8828 8364
4  997 1675 1024 6388
4  1441 997 6389 8686
4  142 8281 1393 8858
4  7609 6389 8686 8691
4  7836 8687 6605 8500
4  1011 7734 1350 8859
4  6851 8862 7734 8859
4  7698 7429 7372 8815
4  1291 8494 8607 8816
4  7279 7769 7292 8857
4  8659 8734 8661 8720
4  7698 8815 8494 8816
4  7200 8720 8715 8717
4  4287 8702 8356 8703
4  8762 8585 8653 8801
4  7286 8582 8581 8584
4  7927 8180 8127 8357
4  7238 8131 8199 8822
4  1264 8554 1263 8868
4  8346 8357 8355 8348
4  7113 6786 7507 8552
4  7153 7774 8127 8348
4  7731 7153 8127 8346
4  8127 7774 7928 8357
4  4587 8355 8352 8348
4  7694 6719 7113 8550
4  1515 1564 1546 8462
4  1349 1323 8366 8556
4  8658 8720 8661 8719
4  7603 8773 8818 8830
4  7506 8513 8042 8537
4  936 7913 4360 8538
4  971 8140 4464 8541
4  7151 8679 7357 8681
4  6967 6966 6968 8509
4  8551 8366 8401 8548
4  535 7152 4392 8680
4  7313 7989 8428 8682
4  1389 1628 1558 8367
4  6674 8110 6837 6272
4  600 4376 4392 8678
4  7358 8677 8679 8726
4  6394 6610 6609 8864
4  7856 7021 6610 8434
4  7856 8864 6346 8434
4  7364 8723 8722 8724
4  8001 7753 7221 8632
4  4476 8586 6968 8588
4  1522 1389 1558 8441
4  8226 7813 7364 8723
4  8345 8477 8478 8344
4  4424 4532 4564 8667
4  1443 1517 8855 8547
4  9 4425 6506 8631
4  4424 4422 4532 8341
4  8016 8207 7469 8498
4  1666 1526 1674 8418
4  7835 8510 8478 8508
4  8208 7246 8207 8497
4  1674 1526 1638 8775
4  1666 8493 8495 8418
4  4531 4497 4567 8477
4  7808 7736 7584 8479
4  4387 4567 8476 8506
4  4387 444 8045 8561
4  1022 6389 7132 8690
4  4355 4567 4537 8476
4  7905 7789 7808 8336
4  1675 1936 6388 8686
4  1936 1046 6605 8502
4  4358 4355 8340 8569
4  1446 1441 1022 8690
4  1580 8449 1481 8526
4  4336 4545 8532 8422
4  8746 8774 8837 8747
4  1446 1481 1443 8547
4  8048 7296 7300 8546
4  332 1288 6907 8560
4  1306 6624 8362 8854
4  458 7587 1307 8640
4  8313 7310 7428 8559
4  4439 4545 4525 8531
4  8870 8871 8872 8502
4  8502 8532 8871 8872
4  8873 8872 8871 8532
4  8322 8872 8321 6601
4  8872 8532 8321 6601
4  8321 8532 6272 6601
4  1045 8870 8322 1046
4  8870 8502 8322 1046
4  8322 8502 6601 1046
4  1045 1683 8870 1046
4  1046 8502 1683 8870
4  8871 8870 1683 8502
4  8872 4634 1042 8532
4  4634 4439 1042 8532
4  1042 4439 24 8532
4  8872 1042 8321 8532
4  1042 24 6272 8532
4  8321 1042 6272 8532
4  8872 8873 4634 8532
4  8532 4439 8873 4634
4  4635 4634 8873 4439
4  8870 8872 8322 8502
4  8872 8532 6601 8502
4  8322 8872 6601 8502
4  1082 4647 8327 535
4  535 8025 4647 8327
4  8874 8327 4647 8025
4  8327 8874 8875 8025
4  8025 8567 8874 8875
4  8876 8875 8874 8567
4  8327 8875 8324 8025
4  8875 8567 8324 8025
4  8324 8567 8216 8025
4  8324 1693 1077 8216
4  1693 1692 1077 8216
4  1077 1692 1079 8216
4  8875 8876 1693 8567
4  8567 1692 8876 1693
4  1694 1693 8876 1692
4  8875 1693 8324 8567
4  1693 1692 8216 8567
4  8324 1693 8216 8567
4  8877 8876 8878 8726
4  8876 8567 8878 8726
4  8878 8567 8680 8726
4  8874 4647 8878 8025
4  4647 535 8878 8025
4  8878 535 8680 8025
4  8877 8879 8876 8726
4  8879 8566 8876 8726
4  8876 8566 8567 8726
4  1871 1694 8879 1873
4  1694 1692 8879 1873
4  8879 1692 8566 1873
4  8880 8878 4776 8680
4  8680 4392 8878 4776
4  4777 4776 8878 4392
4  4777 8878 4647 4392
4  8878 8680 535 4392
4  4647 8878 535 4392
4  8877 8881 1871 8726
4  8726 1873 8881 1871
4  1875 1871 8881 1873
4  1694 8876 8879 1692
4  8876 8567 8566 1692
4  8879 8876 8566 1692
4  8881 8877 8878 8726
4  8726 8680 8878 8881
4  8878 8880 8881 8680
4  8877 1871 8879 8726
4  1871 1873 8879 8726
4  8879 1873 8566 8726
4  8876 8874 8878 8567
4  8874 8025 8878 8567
4  8878 8025 8680 8567
4  8880 4776 8882 8680
4  4776 4392 8882 8680
4  8882 4392 8678 8680
4  8883 8884 8885 8706
4  8706 8677 8884 8885
4  8886 8885 8884 8677
4  8883 8885 8882 8706
4  8885 8677 8882 8706
4  8882 8677 8678 8706
4  8880 8882 8885 8680
4  8882 8678 8677 8680
4  8885 8882 8677 8680
4  4783 4784 8883 4480
4  4480 8706 4784 8883
4  8884 8883 4784 8706
4  8885 1877 8887 8677
4  1877 1879 8887 8677
4  8887 1879 8833 8677
4  4783 8883 8882 4480
4  8883 8706 8882 4480
4  8882 8706 8678 4480
4  1875 8881 8887 1873
4  8881 8726 8887 1873
4  8887 8726 8833 1873
4  8885 8886 1877 8677
4  8677 1879 8886 1877
4  1880 1877 8886 1879
4  1877 1875 8887 1879
4  1875 1873 8887 1879
4  8887 1873 8833 1879
4  4783 8882 4776 4480
4  8882 8678 4392 4480
4  4776 8882 4392 4480
4  8880 8885 8881 8680
4  8885 8677 8881 8680
4  8881 8677 8726 8680
4  8885 8887 8881 8677
4  8887 8833 8726 8677
4  8881 8887 8726 8677
4  8886 8888 8889 8677
4  8888 8836 8889 8677
4  8889 8836 8834 8677
4  8888 1882 8889 8836
4  1882 1884 8889 8836
4  8889 1884 8834 8836
4  8884 4784 4793 8706
4  4784 4480 4793 8706
4  4793 4480 4314 8706
4  4793 4792 8888 4314
4  4314 8836 4792 8888
4  8890 8888 4792 8836
4  8884 4793 8888 8706
4  4793 4314 8888 8706
4  8888 4314 8836 8706
4  1882 1880 8889 1884
4  1880 1879 8889 1884
4  8889 1879 8834 1884
4  8886 8884 8888 8677
4  8884 8706 8888 8677
4  8888 8706 8836 8677
4  1880 8886 8889 1879
4  8886 8677 8889 1879
4  8889 8677 8834 1879
4  8888 8890 1882 8836
4  8836 1884 8890 1882
4  1885 1882 8890 1884
4  8891 4799 8892 8710
4  4799 4313 8892 8710
4  8892 4313 8709 8710
4  8891 8892 8893 8710
4  8892 8709 8893 8710
4  8893 8709 8707 8710
4  8892 1886 8894 8709
4  1886 1889 8894 8709
4  8894 1889 8835 8709
4  8892 8894 8890 8709
4  8894 8835 8890 8709
4  8890 8835 8836 8709
4  8891 8893 4792 8710
4  8893 8707 4792 8710
4  4792 8707 4314 8710
4  1887 1886 8895 1889
4  1889 8709 1886 8895
4  8892 8895 1886 8709
4  1886 1885 8894 1889
4  1885 1884 8894 1889
4  8894 1884 8835 1889
4  8892 8890 8893 8709
4  8890 8836 8893 8709
4  8893 8836 8707 8709
4  8891 4792 4799 8710
4  4792 4314 4799 8710
4  4799 4314 4313 8710
4  8895 8892 4801 8709
4  8709 4313 8892 4801
4  4799 4801 8892 4313
4  1885 8890 8894 1884
4  8890 8836 8835 1884
4  8894 8890 8835 1884
4  8890 4792 8893 8836
4  4792 4314 8707 8836
4  8893 4792 8707 8836
4  8896 8897 8898 8651
4  8651 8711 8897 8898
4  8899 8898 8897 8711
4  8900 8895 8898 8831
4  8895 8709 8898 8831
4  8898 8709 8711 8831
4  8900 8898 1892 8831
4  8898 8711 1892 8831
4  1892 8711 1894 8831
4  8900 1887 8895 8831
4  1887 1889 8895 8831
4  8895 1889 8709 8831
4  8900 1892 1887 8831
4  1892 1894 1887 8831
4  1887 1894 1889 8831
4  8896 8898 8895 8651
4  8898 8711 8709 8651
4  8895 8898 8709 8651
4  8896 8895 4801 8651
4  8895 8709 4801 8651
4  4801 8709 4313 8651
4  8898 8899 1892 8711
4  8711 1894 8899 1892
4  1895 1892 8899 1894
4  8896 4801 4805 8651
4  4801 4313 4805 8651
4  4805 4313 4608 8651
4  4805 4807 8897 4608
4  4608 8651 8897 4805
4  8897 8896 4805 8651
4  4807 8901 8897 4608
4  8901 8503 8897 4608
4  8897 8503 8651 4608
4  1900 1897 8902 1899
4  1899 8415 1897 8902
4  8903 8902 1897 8415
4  8903 1897 8904 8415
4  1897 1899 8904 8415
4  8904 1899 8612 8415
4  8901 8903 8899 8503
4  8903 8415 8899 8503
4  8899 8415 8711 8503
4  8901 8899 8897 8503
4  8899 8711 8897 8503
4  8897 8711 8651 8503
4  8903 8904 8899 8415
4  8904 8612 8899 8415
4  8899 8612 8711 8415
4  1897 1895 8904 1899
4  1895 1894 8904 1899
4  8904 1894 8612 1899
4  8902 8903 4811 8415
4  8415 4607 8903 4811
4  4812 4811 8903 4607
4  1895 8899 8904 1894
4  8899 8711 8612 1894
4  8904 8899 8612 1894
4  8901 4812 8903 8503
4  4812 4607 8903 8503
4  8903 4607 8415 8503
4  4807 4812 8901 4608
4  4812 4607 8503 4608
4  8901 4812 8503 4608
4  8905 8906 8907 8417
4  8906 8349 8907 8417
4  8907 8349 8573 8417
4  8908 8907 8909 8573
4  8573 8349 8907 8909
4  8906 8909 8907 8349
4  1900 8902 8905 1899
4  8902 8415 8905 1899
4  8905 8415 8417 1899
4  8902 4811 8910 8415
4  4811 4607 8910 8415
4  8910 4607 8350 8415
4  8905 8907 1902 8417
4  8907 8573 1902 8417
4  1902 8573 1904 8417
4  4811 4817 8910 4607
4  4817 4534 8910 4607
4  8910 4534 8350 4607
4  8902 8910 8906 8415
4  8910 8350 8906 8415
4  8906 8350 8349 8415
4  4817 8906 8910 4534
4  8906 8349 8350 4534
4  8910 8906 8350 4534
4  8417 1899 1904 8911
4  1902 1900 8905 8911
4  8905 1900 1899 8911
4  1899 8417 8905 8911
4  1900 1902 1904 8911
4  1904 1899 1900 8911
4  1902 8905 8417 8911
4  8417 1904 1902 8911
4  8902 8906 8905 8415
4  8906 8349 8417 8415
4  8905 8906 8417 8415
4  1905 1902 8908 1904
4  1904 8573 1902 8908
4  8907 8908 1902 8573
4  8909 8906 4819 8349
4  8349 4534 8906 4819
4  4817 4819 8906 4534
4  8912 8909 4820 8353
4  8909 8349 4820 8353
4  4820 8349 4587 8353
4  8912 8913 8909 8353
4  8913 8572 8909 8353
4  8909 8572 8349 8353
4  1905 8908 8913 1904
4  8908 8573 8913 1904
4  8913 8573 8572 1904
4  8914 8913 8915 8572
4  8572 8353 8913 8915
4  8912 8915 8913 8353
4  1907 1905 8913 1909
4  1905 1904 8913 1909
4  8913 1904 8572 1909
4  8915 8912 4820 8353
4  8353 4587 4820 8915
4  4820 4825 8915 4587
4  8908 8909 8913 8573
4  8909 8349 8572 8573
4  8913 8909 8572 8573
4  8909 4819 4820 8349
4  4819 4534 4820 8349
4  4820 4534 4587 8349
4  1910 1907 8913 1909
4  1909 8572 8913 1910
4  8913 8914 1910 8572
4  8914 8916 1911 8572
4  8916 8372 1911 8572
4  1911 8372 1913 8572
4  8915 4828 8916 8353
4  4828 4540 8916 8353
4  8916 4540 8372 8353
4  8917 8916 4831 8372
4  8372 4540 8916 4831
4  4828 4831 8916 4540
4  4825 4828 8915 4587
4  4828 4540 8353 4587
4  8915 4828 8353 4587
4  8914 8915 8916 8572
4  8915 8353 8916 8572
4  8916 8353 8372 8572
4  8914 1911 1910 8572
4  1911 1913 1910 8572
4  1910 1913 1909 8572
4  1915 1911 8917 1913
4  1913 8372 1911 8917
4  8916 8917 1911 8372
4  8917 4831 8918 8372
4  4831 4540 8918 8372
4  8918 4540 8641 8372
4  1915 8917 8919 1913
4  8917 8372 8919 1913
4  8919 8372 8842 1913
4  4831 4836 8918 4540
4  4836 4573 8918 4540
4  8918 4573 8641 4540
4  1916 1915 8919 1727
4  1915 1913 8919 1727
4  8919 1913 8842 1727
4  8920 8919 8921 8842
4  8842 8641 8919 8921
4  8918 8921 8919 8641
4  1729 1916 8919 1727
4  1727 8842 8919 1729
4  8919 8920 1729 8842
4  8917 8918 8919 8372
4  8918 8641 8919 8372
4  8919 8641 8842 8372
4  8921 8918 4837 8641
4  8641 4573 8918 4837
4  4836 4837 8918 4573
4  8922 8923 8924 8761
4  8923 8360 8924 8761
4  8924 8360 8585 8761
4  8921 4837 8923 8641
4  4837 4573 8923 8641
4  8923 4573 8360 8641
4  8922 8920 8923 8761
4  8920 8842 8923 8761
4  8923 8842 8360 8761
4  8923 8925 8924 8360
4  8925 8361 8924 8360
4  8924 8361 8585 8360
4  8926 8924 8927 8585
4  8585 8361 8924 8927
4  8925 8927 8924 8361
4  1734 1732 8926 1731
4  1731 8585 1732 8926
4  8924 8926 1732 8585
4  8920 8921 8923 8842
4  8921 8641 8923 8842
4  8923 8641 8360 8842
4  8923 4841 8925 8360
4  4841 4574 8925 8360
4  8925 4574 8361 8360
4  1732 1729 8922 1731
4  1729 1727 8922 1731
4  8922 1727 8761 1731
4  8761 8842 1727 8928
4  1729 8920 8922 8928
4  8922 8920 8761 8928
4  8842 8761 8920 8928
4  8920 1729 8842 8928
4  1727 8842 1729 8928
4  1729 8922 1727 8928
4  8761 1727 8922 8928
4  4837 4841 8923 4573
4  4841 4574 8360 4573
4  8923 4841 8360 4573
4  8761 1731 8585 8929
4  8924 1732 8922 8929
4  8922 1732 1731 8929
4  1731 8761 8922 8929
4  1732 8924 8585 8929
4  8585 1731 1732 8929
4  8924 8922 8761 8929
4  8761 8585 8924 8929
4  8927 8925 4843 8361
4  8361 4574 8925 4843
4  4841 4843 8925 4574
4  1734 8926 8930 1731
4  8926 8585 8930 1731
4  8930 8585 8582 1731
4  8931 8930 8932 8582
4  8582 8361 8930 8932
4  8927 8932 8930 8361
4  8926 8927 8930 8585
4  8927 8361 8930 8585
4  8930 8361 8582 8585
4  1920 1734 8930 1919
4  1734 1731 8930 1919
4  8930 1731 8582 1919
4  1921 1920 8930 1919
4  1919 8582 8930 1921
4  8930 8931 1921 8582
4  8927 4843 4845 8361
4  4843 4574 4845 8361
4  4845 4574 4580 8361
4  8932 8927 4845 8361
4  8361 4580 4845 8932
4  4845 4850 8932 4580
4  8931 8932 8933 8582
4  8932 8361 8933 8582
4  8933 8361 8583 8582
4  4850 8933 8932 4580
4  8933 8583 8361 4580
4  8932 8933 8361 4580
4  8931 8933 8934 8582
4  8933 8583 8934 8582
4  8934 8583 8803 8582
4  8933 4856 8934 8583
4  4856 4515 8934 8583
4  8934 4515 8803 8583
4  4850 4856 8933 4580
4  4856 4515 8583 4580
4  8933 4856 8583 4580
4  1707 1717 8935 1709
4  1709 8803 1717 8935
4  8934 8935 1717 8803
4  8934 1717 1921 8803
4  1717 1709 1921 8803
4  1921 1709 1919 8803
4  8931 8934 1921 8582
4  8934 8803 1921 8582
4  1921 8803 1919 8582
4  8935 8934 4855 8803
4  8803 4515 8934 4855
4  4856 4855 8934 4515
4  8936 8937 8938 8824
4  8937 8385 8938 8824
4  8938 8385 8823 8824
4  8936 4858 8937 8824
4  4858 4514 8937 8824
4  8937 4514 8385 8824
4  8935 4855 8936 8803
4  4855 4515 8936 8803
4  8936 4515 8824 8803
4  1707 8935 8939 1709
4  8935 8803 8939 1709
4  8939 8803 8826 1709
4  8938 1705 8939 8823
4  1705 1708 8939 8823
4  8939 1708 8826 8823
4  8940 8938 8941 8823
4  8823 8385 8938 8941
4  8937 8941 8938 8385
4  1705 1707 8939 1708
4  1707 1709 8939 1708
4  8939 1709 8826 1708
4  8941 8937 4859 8385
4  8385 4514 8937 4859
4  4858 4859 8937 4514
4  4855 4858 8936 4515
4  4858 4514 8824 4515
4  8936 4858 8824 4515
4  8936 8938 8939 8824
4  8938 8823 8939 8824
4  8939 8823 8826 8824
4  1923 1705 8940 1708
4  1708 8823 1705 8940
4  8938 8940 1705 8823
4  8935 8936 8939 8803
4  8936 8824 8939 8803
4  8939 8824 8826 8803
4  8940 8941 1924 8823
4  8941 8385 1924 8823
4  1924 8385 1926 8823
4  1928 1924 8942 1926
4  1926 8385 1924 8942
4  8941 8942 1924 8385
4  8941 4859 4865 8385
4  4859 4514 4865 8385
4  4865 4514 4590 8385
4  8942 8941 4865 8385
4  8385 4590 4865 8942
4  4865 4866 8942 4590
4  8823 1708 1926 8943
4  1924 1923 8940 8943
4  8940 1923 1708 8943
4  1708 8823 8940 8943
4  1923 1924 1926 8943
4  1926 1708 1923 8943
4  1924 8940 8823 8943
4  8823 1926 1924 8943
4  8944 8945 8942 8387
4  8945 8491 8942 8387
4  8942 8491 8385 8387
4  8944 4870 8945 8387
4  4870 4335 8945 8387
4  8945 4335 8491 8387
4  8944 8942 4866 8387
4  8942 8385 4590 8387
4  4866 8942 4590 8387
4  8944 4866 4870 8387
4  4866 4590 4870 8387
4  4870 4590 4335 8387
4  8945 8946 8942 8491
4  8946 8604 8942 8491
4  8942 8604 8385 8491
4  8947 8945 4874 8491
4  8491 4335 8945 4874
4  4870 4874 8945 4335
4  8948 8946 8947 8604
4  8604 8491 8946 8947
4  8945 8947 8946 8491
4  1933 1930 8948 1932
4  1932 8604 1930 8948
4  8946 8948 1930 8604
4  1928 8942 8946 1926
4  8942 8385 8604 1926
4  8946 8942 8604 1926
4  8604 1926 1932 8949
4  1930 1928 8946 8949
4  8946 1928 1926 8949
4  1926 8604 8946 8949
4  1928 1930 1932 8949
4  1932 1926 1928 8949
4  1930 8946 8604 8949
4  8604 1932 1930 8949
4  8948 8947 8950 8604
4  8947 8491 8950 8604
4  8950 8491 8501 8604
4  8947 4874 8951 8491
4  4874 4335 8951 8491
4  8951 4335 8490 8491
4  8947 8951 8950 8491
4  8951 8490 8950 8491
4  8950 8490 8501 8491
4  1933 8948 8950 1932
4  8948 8604 8950 1932
4  8950 8604 8501 1932
4  1934 1933 8950 1936
4  1933 1932 8950 1936
4  8950 1932 8501 1936
4  8950 8952 1937 8501
4  8501 1936 1937 8950
4  1937 1934 8950 1936
4  4877 4881 8951 4336
4  4336 8490 4881 8951
4  8953 8951 4881 8490
4  8951 8953 8950 8490
4  8490 8501 8953 8950
4  8952 8950 8953 8501
4  4877 8951 4874 4336
4  8951 8490 4335 4336
4  4874 8951 4335 4336
4  8953 4881 8873 8490
4  4881 4336 8873 8490
4  8873 4336 8532 8490
4  8952 8871 1937 8501
4  8871 8502 1937 8501
4  1937 8502 1936 8501
4  8953 8873 8871 8490
4  8873 8532 8871 8490
4  8871 8532 8502 8490
4  4635 8873 4881 4439
4  8873 8532 4336 4439
4  4881 8873 4336 4439
4  8952 8953 8871 8501
4  8953 8490 8871 8501
4  8871 8490 8502 8501
4  8871 1683 1937 8502
4  1683 1046 1937 8502
4  1937 1046 1936 8502
4  2019 8954 8955 2021
4  2019 8956 8957 1104
4  2019 8955 8954 8957
4  2019 8957 8956 8955
4  8956 8955 8957 8870
4  8870 8872 8955 8957
4  8954 8957 8955 8872
4  8957 8330 8328 1104
4  8330 8957 8328 8322
4  8957 8872 8328 8322
4  8328 8872 8321 8322
4  8956 1113 8330 1104
4  1113 8956 8330 1045
4  8956 8870 8330 1045
4  8330 8870 8322 1045
4  2019 8955 2022 2021
4  2019 1113 8956 1104
4  2019 2022 8955 8956
4  2019 8956 1113 2022
4  1113 2022 8956 1045
4  1045 8870 2022 8956
4  8955 8956 2022 8870
4  4959 8957 1107 1104
4  8957 4959 1107 8872
4  4959 4634 1107 8872
4  1107 4634 1042 8872
4  1107 8957 8328 1104
4  8957 1107 8328 8872
4  1107 1042 8321 8872
4  8328 1107 8321 8872
4  2019 4961 8954 2021
4  2019 8957 4959 1104
4  2019 8954 4961 4959
4  2019 4959 8957 8954
4  8957 8954 4959 8872
4  8872 4634 8954 4959
4  4961 4959 8954 4634
4  8957 8956 8330 1104
4  8956 8957 8330 8870
4  8957 8872 8322 8870
4  8330 8957 8322 8870
4  2041 8958 4971 2043
4  2041 1155 8335 1146
4  2041 4971 8958 8335
4  2041 8335 1155 4971
4  1155 4971 8335 1082
4  1082 8327 4971 8335
4  8958 8335 4971 8327
4  2041 8959 8958 2043
4  2041 8335 8960 1146
4  2041 8958 8959 8960
4  2041 8960 8335 8958
4  8335 8958 8960 8327
4  8327 8875 8958 8960
4  8959 8960 8958 8875
4  8960 8335 8331 1146
4  8335 8960 8331 8327
4  8960 8875 8331 8327
4  8331 8875 8324 8327
4  2040 8331 1153 1146
4  8331 2040 1153 8324
4  2040 1693 1153 8324
4  1153 1693 1077 8324
4  2041 2045 8959 2043
4  2041 8960 2040 1146
4  2041 8959 2045 2040
4  2041 2040 8960 8959
4  8960 8959 2040 8875
4  8875 1693 8959 2040
4  2045 2040 8959 1693
4  2040 8960 8331 1146
4  8960 2040 8331 8875
4  2040 1693 8324 8875
4  8331 2040 8324 8875
4  2663 5178 8961 2043
4  2663 8962 5179 2666
4  2663 8961 5178 5179
4  2663 5179 8962 8961
4  8962 8961 5179 8874
4  8874 4647 8961 5179
4  5178 5179 8961 4647
4  2663 8961 8963 2043
4  2663 8964 8962 2666
4  2663 8963 8961 8962
4  2663 8962 8964 8963
4  8964 8963 8962 8876
4  8876 8874 8963 8962
4  8961 8962 8963 8874
4  2663 8963 2665 2043
4  2663 2668 8964 2666
4  2663 2665 8963 8964
4  2663 8964 2668 2665
4  2668 2665 8964 1694
4  1694 8876 2665 8964
4  8963 8964 2665 8876
4  8964 8965 8966 2666
4  8965 8964 8966 8877
4  8964 8876 8966 8877
4  8966 8876 8878 8877
4  5179 8962 8966 2666
4  8962 5179 8966 8874
4  5179 4647 8966 8874
4  8966 4647 8878 8874
4  8967 8965 8964 2666
4  8965 8967 8964 8877
4  8967 8879 8964 8877
4  8964 8879 8876 8877
4  2668 2672 8967 2666
4  2672 2668 8967 1871
4  2668 1694 8967 1871
4  8967 1694 8879 1871
4  2677 8968 5183 2678
4  2677 5185 8966 2666
4  2677 5183 8968 8966
4  2677 8966 5185 5183
4  5185 5183 8966 4777
4  4777 8878 5183 8966
4  8968 8966 5183 8878
4  8966 5185 5179 2666
4  5185 8966 5179 4777
4  8966 8878 4647 4777
4  5179 8966 4647 4777
4  2677 2680 8969 2678
4  2677 8965 2672 2666
4  2677 8969 2680 2672
4  2677 2672 8965 8969
4  8965 8969 2672 8877
4  8877 1871 8969 2672
4  2680 2672 8969 1871
4  8964 2668 8967 2666
4  2668 8964 8967 1694
4  8964 8876 8879 1694
4  8967 8964 8879 1694
4  2677 8969 8968 2678
4  2677 8966 8965 2666
4  2677 8968 8969 8966
4  2677 8965 8966 8969
4  8966 8968 8969 8878
4  8878 8877 8969 8966
4  8969 8965 8966 8877
4  2672 8965 8967 2666
4  8965 2672 8967 8877
4  2672 1871 8967 8877
4  8967 1871 8879 8877
4  8962 8964 8966 2666
4  8964 8962 8966 8876
4  8962 8874 8966 8876
4  8966 8874 8878 8876
4  2681 5189 8970 2678
4  2681 8971 5190 2684
4  2681 8970 5189 5190
4  2681 5190 8971 8970
4  8971 8970 5190 8880
4  8880 4776 8970 5190
4  5189 5190 8970 4776
4  2681 8972 2683 2678
4  2681 2686 8973 2684
4  2681 2683 8972 8973
4  2681 8973 2686 2683
4  2686 2683 8973 1875
4  1875 8881 2683 8973
4  8972 8973 2683 8881
4  2681 8970 8972 2678
4  2681 8973 8971 2684
4  2681 8972 8970 8971
4  2681 8971 8973 8972
4  8973 8972 8971 8881
4  8881 8880 8972 8971
4  8970 8971 8972 8880
4  5190 8971 8974 2684
4  8971 5190 8974 8880
4  5190 4776 8974 8880
4  8974 4776 8882 8880
4  2695 8975 8976 2696
4  2695 8977 8978 2684
4  2695 8976 8975 8978
4  2695 8978 8977 8976
4  8977 8976 8978 8883
4  8883 8885 8976 8978
4  8975 8978 8976 8885
4  8978 8977 8974 2684
4  8977 8978 8974 8883
4  8978 8885 8974 8883
4  8974 8885 8882 8883
4  8974 8971 8978 2684
4  8971 8974 8978 8880
4  8974 8882 8885 8880
4  8978 8974 8885 8880
4  2695 8976 5196 2696
4  2695 5195 8977 2684
4  2695 5196 8976 8977
4  2695 8977 5195 5196
4  5195 5196 8977 4783
4  4783 8883 5196 8977
4  8976 8977 5196 8883
4  2692 8978 8979 2684
4  8978 2692 8979 8885
4  2692 1877 8979 8885
4  8979 1877 8887 8885
4  8977 5195 8974 2684
4  5195 8977 8974 4783
4  8977 8883 8974 4783
4  8974 8883 8882 4783
4  8973 2686 8979 2684
4  2686 8973 8979 1875
4  8973 8881 8979 1875
4  8979 8881 8887 1875
4  2695 2698 8975 2696
4  2695 8978 2692 2684
4  2695 8975 2698 2692
4  2695 2692 8978 8975
4  8978 8975 2692 8885
4  8885 1877 8975 2692
4  2698 2692 8975 1877
4  2686 2692 8979 2684
4  2692 2686 8979 1877
4  2686 1875 8979 1877
4  8979 1875 8887 1877
4  8974 5195 5190 2684
4  5195 8974 5190 4783
4  8974 8882 4776 4783
4  5190 8974 4776 4783
4  8971 8973 8978 2684
4  8973 8971 8978 8881
4  8971 8880 8978 8881
4  8978 8880 8885 8881
4  8978 8973 8979 2684
4  8973 8978 8979 8881
4  8978 8885 8979 8881
4  8979 8885 8887 8881
4  2699 8980 8981 2696
4  2699 8982 8983 2702
4  2699 8981 8980 8983
4  2699 8983 8982 8981
4  8982 8981 8983 8886
4  8886 8884 8981 8983
4  8980 8983 8981 8884
4  2699 5201 8980 2696
4  2699 8983 5202 2702
4  2699 8980 5201 5202
4  2699 5202 8983 8980
4  8983 8980 5202 8884
4  8884 4784 8980 5202
4  5201 5202 8980 4784
4  2699 8981 2701 2696
4  2699 2704 8982 2702
4  2699 2701 8981 8982
4  2699 8982 2704 2701
4  2704 2701 8982 1880
4  1880 8886 2701 8982
4  8981 8982 2701 8886
4  8984 8982 8985 2702
4  8982 8984 8985 8886
4  8984 8888 8985 8886
4  8985 8888 8889 8886
4  2710 8984 8985 2702
4  8984 2710 8985 8888
4  2710 1882 8985 8888
4  8985 1882 8889 8888
4  5202 8983 5210 2702
4  8983 5202 5210 8884
4  5202 4784 5210 8884
4  5210 4784 4793 8884
4  2713 8986 5209 2714
4  2713 5210 8984 2702
4  2713 5209 8986 8984
4  2713 8984 5210 5209
4  5210 5209 8984 4793
4  4793 8888 5209 8984
4  8986 8984 5209 8888
4  5210 8983 8984 2702
4  8983 5210 8984 8884
4  5210 4793 8984 8884
4  8984 4793 8888 8884
4  2704 2710 8985 2702
4  2710 2704 8985 1882
4  2704 1880 8985 1882
4  8985 1880 8889 1882
4  8983 8982 8984 2702
4  8982 8983 8984 8886
4  8983 8884 8984 8886
4  8984 8884 8888 8886
4  8982 2704 8985 2702
4  2704 8982 8985 1880
4  8982 8886 8985 1880
4  8985 8886 8889 1880
4  2713 2716 8986 2714
4  2713 8984 2710 2702
4  2713 8986 2716 2710
4  2713 2710 8984 8986
4  8984 8986 2710 8888
4  8888 1882 8986 2710
4  2716 2710 8986 1882
4  2717 5214 8987 2714
4  2717 8988 5215 2720
4  2717 8987 5214 5215
4  2717 5215 8988 8987
4  8988 8987 5215 8890
4  8890 4792 8987 5215
4  5214 5215 8987 4792
4  2717 8987 2719 2714
4  2717 2722 8988 2720
4  2717 2719 8987 8988
4  2717 8988 2722 2719
4  2722 2719 8988 1885
4  1885 8890 2719 8988
4  8987 8988 2719 8890
4  5221 8989 8990 2720
4  8989 5221 8990 8891
4  5221 4799 8990 8891
4  8990 4799 8892 8891
4  8990 8989 8991 2720
4  8989 8990 8991 8891
4  8990 8892 8991 8891
4  8991 8892 8893 8891
4  2727 8990 8992 2720
4  8990 2727 8992 8892
4  2727 1886 8992 8892
4  8992 1886 8894 8892
4  8992 8990 8988 2720
4  8990 8992 8988 8892
4  8992 8894 8988 8892
4  8988 8894 8890 8892
4  8991 8989 5215 2720
4  8989 8991 5215 8891
4  8991 8893 5215 8891
4  5215 8893 4792 8891
4  2725 2730 8993 2728
4  2725 8990 2727 2720
4  2725 8993 2730 2727
4  2725 2727 8990 8993
4  8990 8993 2727 8892
4  8892 1886 8993 2727
4  2730 2727 8993 1886
4  2722 2727 8992 2720
4  2727 2722 8992 1886
4  2722 1885 8992 1886
4  8992 1885 8894 1886
4  8988 8990 8991 2720
4  8990 8988 8991 8892
4  8988 8890 8991 8892
4  8991 8890 8893 8892
4  5215 8989 5221 2720
4  8989 5215 5221 8891
4  5215 4792 5221 8891
4  5221 4792 4799 8891
4  2725 8993 5223 2728
4  2725 5221 8990 2720
4  2725 5223 8993 8990
4  2725 8990 5221 5223
4  5221 5223 8990 4799
4  4799 8892 5223 8990
4  8993 8990 5223 8892
4  8988 2722 8992 2720
4  2722 8988 8992 1885
4  8988 8890 8894 1885
4  8992 8988 8894 1885
4  5215 8988 8991 2720
4  8988 5215 8991 8890
4  5215 4792 8893 8890
4  8991 5215 8893 8890
4  2735 8994 2737 2728
4  2735 2740 8995 2738
4  2735 2737 8994 8995
4  2735 8995 2740 2737
4  2740 2737 8995 1887
4  1887 8895 2737 8995
4  8994 8995 2737 8895
4  2735 5227 8994 2728
4  2735 8995 5228 2738
4  2735 8994 5227 5228
4  2735 5228 8995 8994
4  8995 8994 5228 8895
4  8895 4801 8994 5228
4  5227 5228 8994 4801
4  2749 8996 8997 2750
4  2749 8998 8999 2738
4  2749 8997 8996 8999
4  2749 8999 8998 8997
4  8998 8997 8999 8896
4  8896 8898 8997 8999
4  8996 8999 8997 8898
4  8995 9000 8999 2738
4  9000 8995 8999 8900
4  8995 8895 8999 8900
4  8999 8895 8898 8900
4  8999 9000 2746 2738
4  9000 8999 2746 8900
4  8999 8898 2746 8900
4  2746 8898 1892 8900
4  2740 9000 8995 2738
4  9000 2740 8995 8900
4  2740 1887 8995 8900
4  8995 1887 8895 8900
4  2746 9000 2740 2738
4  9000 2746 2740 8900
4  2746 1892 2740 8900
4  2740 1892 1887 8900
4  8999 8998 8995 2738
4  8998 8999 8995 8896
4  8999 8898 8895 8896
4  8995 8999 8895 8896
4  8995 8998 5228 2738
4  8998 8995 5228 8896
4  8995 8895 5228 8896
4  5228 8895 4801 8896
4  2749 2752 8996 2750
4  2749 8999 2746 2738
4  2749 8996 2752 2746
4  2749 2746 8999 8996
4  8999 8996 2746 8898
4  8898 1892 8996 2746
4  2752 2746 8996 1892
4  5228 8998 5232 2738
4  8998 5228 5232 8896
4  5228 4801 5232 8896
4  5232 4801 4805 8896
4  2749 8997 5234 2750
4  2749 5232 8998 2738
4  2749 5234 8997 5232
4  2749 8998 5232 8997
4  5232 5234 8997 4805
4  4805 8896 8997 5232
4  8997 8998 5232 8896
4  2753 9001 9002 2750
4  2753 9003 9004 2756
4  2753 9002 9001 9004
4  2753 9004 9003 9002
4  9003 9002 9004 8899
4  8899 8897 9002 9004
4  9001 9004 9002 8897
4  2753 9002 2755 2750
4  2753 2758 9003 2756
4  2753 2755 9002 9003
4  2753 9003 2758 2755
4  2758 2755 9003 1895
4  1895 8899 2755 9003
4  9002 9003 2755 8899
4  2753 5238 9001 2750
4  2753 9004 5239 2756
4  2753 9001 5238 5239
4  2753 5239 9004 9001
4  9004 9001 5239 8897
4  8897 4807 9001 5239
4  5238 5239 9001 4807
4  5239 9004 9005 2756
4  9004 5239 9005 8897
4  5239 4807 9005 8897
4  9005 4807 8901 8897
4  2767 2770 9006 2768
4  2767 9007 2764 2756
4  2767 9006 2770 2764
4  2767 2764 9007 9006
4  9007 9006 2764 8903
4  8903 1897 9006 2764
4  2770 2764 9006 1897
4  2764 9007 9008 2756
4  9007 2764 9008 8903
4  2764 1897 9008 8903
4  9008 1897 8904 8903
4  9007 9005 9003 2756
4  9005 9007 9003 8901
4  9007 8903 9003 8901
4  9003 8903 8899 8901
4  9003 9005 9004 2756
4  8899 8901 8897 9009
4  9004 9005 9003 9009
4  9003 9005 8901 9009
4  8901 8899 9003 9009
4  9005 9004 8897 9009
4  8897 8901 9005 9009
4  9004 9003 8899 9009
4  8899 8897 9004 9009
4  9008 9007 9003 2756
4  9007 9008 9003 8903
4  9008 8904 9003 8903
4  9003 8904 8899 8903
4  2758 2764 9008 2756
4  2764 2758 9008 1897
4  2758 1895 9008 1897
4  9008 1895 8904 1897
4  2767 9006 5243 2768
4  2767 5245 9007 2756
4  2767 5243 9006 9007
4  2767 9007 5245 5243
4  5245 5243 9007 4812
4  4812 8903 5243 9007
4  9006 9007 5243 8903
4  9003 2758 9008 2756
4  2758 9003 9008 1895
4  9003 8899 8904 1895
4  9008 9003 8904 1895
4  5245 9005 9007 2756
4  9005 5245 9007 8901
4  5245 4812 9007 8901
4  9007 4812 8903 8901
4  5245 5239 9005 2756
4  5239 5245 9005 4807
4  5245 4812 8901 4807
4  9005 5245 8901 4807
4  2771 9010 2773 2768
4  2771 2776 9011 2774
4  2771 2773 9010 9011
4  2771 9011 2776 2773
4  2776 2773 9011 1900
4  1900 8902 2773 9011
4  9010 9011 2773 8902
4  2771 5247 9010 2768
4  2771 9011 5248 2774
4  2771 9010 5247 5248
4  2771 5248 9011 9010
4  9011 9010 5248 8902
4  8902 4811 9010 5248
4  5247 5248 9010 4811
4  9012 9013 9014 2774
4  9013 9012 9014 8905
4  9012 8906 9014 8905
4  9014 8906 8907 8905
4  2785 9015 9016 2786
4  2785 9012 9014 2774
4  2785 9016 9015 9014
4  2785 9014 9012 9016
4  9012 9016 9014 8906
4  8906 8907 9016 9014
4  9015 9014 9016 8907
4  9011 2776 9013 2774
4  2776 9011 9013 1900
4  9011 8902 9013 1900
4  9013 8902 8905 1900
4  5248 9011 9017 2774
4  9011 5248 9017 8902
4  5248 4811 9017 8902
4  9017 4811 8910 8902
4  9014 9013 2782 2774
4  9013 9014 2782 8905
4  9014 8907 2782 8905
4  2782 8907 1902 8905
4  5254 5248 9017 2774
4  5248 5254 9017 4811
4  5254 4817 9017 4811
4  9017 4817 8910 4811
4  9017 9011 9012 2774
4  9011 9017 9012 8902
4  9017 8910 9012 8902
4  9012 8910 8906 8902
4  9012 5254 9017 2774
4  5254 9012 9017 4817
4  9012 8906 8910 4817
4  9017 9012 8910 4817
4  9013 2776 2782 2774
4  8905 1900 1902 9018
4  2782 2776 9013 9018
4  9013 2776 1900 9018
4  1900 8905 9013 9018
4  2776 2782 1902 9018
4  1902 1900 2776 9018
4  2782 9013 8905 9018
4  8905 1902 2782 9018
4  9012 9011 9013 2774
4  9011 9012 9013 8902
4  9012 8906 8905 8902
4  9013 9012 8905 8902
4  2785 2788 9015 2786
4  2785 9014 2782 2774
4  2785 9015 2788 2782
4  2785 2782 9014 9015
4  9014 9015 2782 8907
4  8907 1902 9015 2782
4  2788 2782 9015 1902
4  2785 9016 5256 2786
4  2785 5254 9012 2774
4  2785 5256 9016 9012
4  2785 9012 5254 5256
4  5254 5256 9012 4817
4  4817 8906 5256 9012
4  9016 9012 5256 8906
4  2789 9019 9020 2786
4  2789 9021 9022 2792
4  2789 9020 9019 9022
4  2789 9022 9021 9020
4  9021 9020 9022 8908
4  8908 8909 9020 9022
4  9019 9022 9020 8909
4  2789 9020 2791 2786
4  2789 2794 9021 2792
4  2789 2791 9020 9021
4  2789 9021 2794 2791
4  2794 2791 9021 1905
4  1905 8908 2791 9021
4  9020 9021 2791 8908
4  2789 5260 9019 2786
4  2789 9022 5261 2792
4  2789 9019 5260 5261
4  2789 5261 9022 9019
4  9022 9019 5261 8909
4  8909 4819 9019 5261
4  5260 5261 9019 4819
4  9022 9023 5262 2792
4  9023 9022 5262 8912
4  9022 8909 5262 8912
4  5262 8909 4820 8912
4  9024 9023 9022 2792
4  9023 9024 9022 8912
4  9024 8913 9022 8912
4  9022 8913 8909 8912
4  9021 2794 9024 2792
4  2794 9021 9024 1905
4  9021 8908 9024 1905
4  9024 8908 8913 1905
4  2804 9025 9026 2805
4  2804 9023 9024 2792
4  2804 9026 9025 9024
4  2804 9024 9023 9026
4  9023 9026 9024 8912
4  8912 8913 9026 9024
4  9025 9024 9026 8913
4  2794 2800 9024 2792
4  2800 2794 9024 1907
4  2794 1905 9024 1907
4  9024 1905 8913 1907
4  2804 9026 5267 2805
4  2804 5262 9023 2792
4  2804 5267 9026 5262
4  2804 9023 5262 9026
4  5262 5267 9026 4820
4  4820 8912 9026 5262
4  9026 9023 5262 8912
4  9022 9021 9024 2792
4  9021 9022 9024 8908
4  9022 8909 8913 8908
4  9024 9022 8913 8908
4  5261 9022 5262 2792
4  9022 5261 5262 8909
4  5261 4819 5262 8909
4  5262 4819 4820 8909
4  2804 2806 9025 2805
4  2804 9024 2800 2792
4  2804 9025 2806 9024
4  2804 2800 9024 2806
4  9024 9025 2806 8913
4  8913 1907 2806 9024
4  2806 2800 9024 1907
4  2811 9027 9028 2805
4  2811 9029 9030 2813
4  2811 9028 9027 9030
4  2811 9030 9029 9028
4  9029 9028 9030 8914
4  8914 8915 9028 9030
4  9027 9030 9028 8915
4  2811 5271 9027 2805
4  2811 9030 5272 2813
4  2811 9027 5271 5272
4  2811 5272 9030 9027
4  9030 9027 5272 8915
4  8915 4825 9027 5272
4  5271 5272 9027 4825
4  2811 9028 2812 2805
4  2811 2814 9029 2813
4  2811 2812 9028 9029
4  2811 9029 2814 2812
4  2814 2812 9029 1910
4  1910 8914 2812 9029
4  9028 9029 2812 8914
4  9031 9029 2816 2813
4  9029 9031 2816 8914
4  9031 8916 2816 8914
4  2816 8916 1911 8914
4  5275 9030 9031 2813
4  9030 5275 9031 8915
4  5275 4828 9031 8915
4  9031 4828 8916 8915
4  2823 9032 5277 2821
4  2823 5275 9031 2813
4  2823 5277 9032 9031
4  2823 9031 5275 5277
4  5275 5277 9031 4828
4  4828 8916 5277 9031
4  9032 9031 5277 8916
4  5272 9030 5275 2813
4  9030 5272 5275 8915
4  5272 4825 5275 8915
4  5275 4825 4828 8915
4  9030 9029 9031 2813
4  9029 9030 9031 8914
4  9030 8915 9031 8914
4  9031 8915 8916 8914
4  2816 9029 2814 2813
4  1911 8914 1910 9033
4  2814 9029 2816 9033
4  2816 9029 8914 9033
4  8914 1911 2816 9033
4  9029 2814 1910 9033
4  1910 8914 9029 9033
4  2814 2816 1911 9033
4  1911 1910 2814 9033
4  2823 2824 9032 2821
4  2823 9031 2816 2813
4  2823 9032 2824 2816
4  2823 2816 9031 9032
4  9031 9032 2816 8916
4  8916 1911 9032 2816
4  2824 2816 9032 1911
4  2827 5281 9034 2821
4  2827 9035 5282 2825
4  2827 9034 5281 5282
4  2827 5282 9035 9034
4  9035 9034 5282 8917
4  8917 4831 9034 5282
4  5281 5282 9034 4831
4  2827 9034 2832 2821
4  2827 2828 9035 2825
4  2827 2832 9034 9035
4  2827 9035 2828 2832
4  2828 2832 9035 1915
4  1915 8917 2832 9035
4  9034 9035 2832 8917
4  5282 9035 9036 2825
4  9035 5282 9036 8917
4  5282 4831 9036 8917
4  9036 4831 8918 8917
4  9035 2828 9037 2825
4  2828 9035 9037 1915
4  9035 8917 9037 1915
4  9037 8917 8919 1915
4  5289 5282 9036 2825
4  5282 5289 9036 4831
4  5289 4836 9036 4831
4  9036 4836 8918 4831
4  2828 2834 9037 2825
4  2834 2828 9037 1916
4  2828 1915 9037 1916
4  9037 1915 8919 1916
4  2839 9038 9039 2840
4  2839 9036 9037 2825
4  2839 9039 9038 9037
4  2839 9037 9036 9039
4  9036 9039 9037 8918
4  8918 8919 9039 9037
4  9038 9037 9039 8919
4  2839 2842 9038 2840
4  2839 9037 2834 2825
4  2839 9038 2842 9037
4  2839 2834 9037 2842
4  9037 9038 2842 8919
4  8919 1916 2842 9037
4  2842 2834 9037 1916
4  9036 9035 9037 2825
4  9035 9036 9037 8917
4  9036 8918 9037 8917
4  9037 8918 8919 8917
4  2839 9039 5287 2840
4  2839 5289 9036 2825
4  2839 5287 9039 9036
4  2839 9036 5289 5287
4  5289 5287 9036 4836
4  4836 8918 5287 9036
4  9039 9036 5287 8918
4  2857 9040 9041 2840
4  2857 9042 9043 2848
4  2857 9041 9040 9043
4  2857 9043 9042 9041
4  9042 9041 9043 8920
4  8920 8921 9041 9043
4  9040 9043 9041 8921
4  2857 9041 2859 2840
4  2857 2847 9042 2848
4  2857 2859 9041 9042
4  2857 9042 2847 2859
4  2847 2859 9042 1729
4  1729 8920 2859 9042
4  9041 9042 2859 8920
4  2857 5302 9040 2840
4  2857 9043 5303 2848
4  2857 9040 5302 5303
4  2857 5303 9043 9040
4  9043 9040 5303 8921
4  8921 4837 9040 5303
4  5302 5303 9040 4837
4  9044 9045 9046 2848
4  9045 9044 9046 8922
4  9044 8923 9046 8922
4  9046 8923 8924 8922
4  5303 9043 9044 2848
4  9043 5303 9044 8921
4  5303 4837 9044 8921
4  9044 4837 8923 8921
4  9042 9045 9044 2848
4  9045 9042 9044 8922
4  9042 8920 9044 8922
4  9044 8920 8923 8922
4  9047 9044 9046 2848
4  9044 9047 9046 8923
4  9047 8925 9046 8923
4  9046 8925 8924 8923
4  2849 9048 9049 2850
4  2849 9047 9046 2848
4  2849 9049 9048 9046
4  2849 9046 9047 9049
4  9047 9049 9046 8925
4  8925 8924 9049 9046
4  9048 9046 9049 8924
4  2849 2852 9048 2850
4  2849 9046 2846 2848
4  2849 9048 2852 2846
4  2849 2846 9046 9048
4  9046 9048 2846 8924
4  8924 1732 9048 2846
4  2852 2846 9048 1732
4  9043 9042 9044 2848
4  9042 9043 9044 8920
4  9043 8921 9044 8920
4  9044 8921 8923 8920
4  5308 9044 9047 2848
4  9044 5308 9047 8923
4  5308 4841 9047 8923
4  9047 4841 8925 8923
4  2847 2846 9045 2848
4  2846 2847 9045 1732
4  2847 1729 9045 1732
4  9045 1729 8922 1732
4  9042 2847 9045 2848
4  2847 9042 9045 1729
4  9042 8920 8922 1729
4  9045 9042 8922 1729
4  5308 5303 9044 2848
4  5303 5308 9044 4837
4  5308 4841 8923 4837
4  9044 5308 8923 4837
4  9045 2846 9046 2848
4  8922 1732 8924 9050
4  9046 2846 9045 9050
4  9045 2846 1732 9050
4  1732 8922 9045 9050
4  2846 9046 8924 9050
4  8924 1732 2846 9050
4  9046 9045 8922 9050
4  8922 8924 9046 9050
4  2849 9049 5310 2850
4  2849 5308 9047 2848
4  2849 5310 9049 9047
4  2849 9047 5308 5310
4  5308 5310 9047 4841
4  4841 8925 5310 9047
4  9049 9047 5310 8925
4  2860 9051 9052 2850
4  2860 9053 9054 2863
4  2860 9052 9051 9054
4  2860 9054 9053 9052
4  9053 9052 9054 8926
4  8926 8927 9052 9054
4  9051 9054 9052 8927
4  2860 9052 2862 2850
4  2860 2865 9053 2863
4  2860 2862 9052 9053
4  2860 9053 2865 2862
4  2865 2862 9053 1734
4  1734 8926 2862 9053
4  9052 9053 2862 8926
4  2860 5317 9051 2850
4  2860 9054 5318 2863
4  2860 9051 5317 5318
4  2860 5318 9054 9051
4  9054 9051 5318 8927
4  8927 4843 9051 5318
4  5317 5318 9051 4843
4  9053 2865 9055 2863
4  2865 9053 9055 1734
4  9053 8926 9055 1734
4  9055 8926 8930 1734
4  2873 9056 9057 2874
4  2873 9054 9055 2863
4  2873 9057 9056 9055
4  2873 9055 9054 9057
4  9054 9057 9055 8927
4  8927 8930 9057 9055
4  9056 9055 9057 8930
4  9054 9053 9055 2863
4  9053 9054 9055 8926
4  9054 8927 9055 8926
4  9055 8927 8930 8926
4  2865 2872 9055 2863
4  2872 2865 9055 1920
4  2865 1734 9055 1920
4  9055 1734 8930 1920
4  2873 2876 9056 2874
4  2873 9055 2872 2863
4  2873 9056 2876 9055
4  2873 2872 9055 2876
4  9055 9056 2876 8930
4  8930 1920 2876 9055
4  2876 2872 9055 1920
4  5318 9054 5319 2863
4  9054 5318 5319 8927
4  5318 4843 5319 8927
4  5319 4843 4845 8927
4  2873 9057 5325 2874
4  2873 5319 9054 2863
4  2873 5325 9057 5319
4  2873 9054 5319 9057
4  5319 5325 9057 4845
4  4845 8927 9057 5319
4  9057 9054 5319 8927
4  2889 9058 9059 2874
4  2889 9060 9061 2877
4  2889 9059 9058 9061
4  2889 9061 9060 9059
4  9060 9059 9061 8931
4  8931 8932 9059 9061
4  9058 9061 9059 8932
4  2889 9059 2891 2874
4  2889 2893 9060 2877
4  2889 2891 9059 9060
4  2889 9060 2893 2891
4  2893 2891 9060 1921
4  1921 8931 2891 9060
4  9059 9060 2891 8931
4  2889 5339 9058 2874
4  2889 9061 5340 2877
4  2889 9058 5339 5340
4  2889 5340 9061 9058
4  9061 9058 5340 8932
4  8932 4850 9058 5340
4  5339 5340 9058 4850
4  9061 9060 9062 2877
4  9060 9061 9062 8931
4  9061 8932 9062 8931
4  9062 8932 8933 8931
4  5340 9061 9062 2877
4  9061 5340 9062 8932
4  5340 4850 9062 8932
4  9062 4850 8933 8932
4  9062 9060 9063 2877
4  9060 9062 9063 8931
4  9062 8933 9063 8931
4  9063 8933 8934 8931
4  5347 9062 9063 2877
4  9062 5347 9063 8933
4  5347 4856 9063 8933
4  9063 4856 8934 8933
4  5347 5340 9062 2877
4  5340 5347 9062 4850
4  5347 4856 8933 4850
4  9062 5347 8933 4850
4  2878 2883 9064 2881
4  2878 9063 2880 2877
4  2878 9064 2883 2880
4  2878 2880 9063 9064
4  9063 9064 2880 8934
4  8934 1717 9064 2880
4  2883 2880 9064 1717
4  2880 9063 2893 2877
4  9063 2880 2893 8934
4  2880 1717 2893 8934
4  2893 1717 1921 8934
4  9063 9060 2893 2877
4  8934 8931 1921 9065
4  2893 9060 9063 9065
4  9063 9060 8931 9065
4  8931 8934 9063 9065
4  9060 2893 1921 9065
4  1921 8931 9060 9065
4  2893 9063 8934 9065
4  8934 1921 2893 9065
4  2878 9064 5346 2881
4  2878 5347 9063 2877
4  2878 5346 9064 9063
4  2878 9063 5347 5346
4  5347 5346 9063 4856
4  4856 8934 5346 9063
4  9064 9063 5346 8934
4  2908 9066 2910 2881
4  2908 2902 9067 2903
4  2908 2910 9066 9067
4  2908 9067 2902 2910
4  2902 2910 9067 1707
4  1707 8935 2910 9067
4  9066 9067 2910 8935
4  2908 5354 9066 2881
4  2908 9067 5355 2903
4  2908 9066 5354 5355
4  2908 5355 9067 9066
4  9067 9066 5355 8935
4  8935 4855 9066 5355
4  5354 5355 9066 4855
4  9068 9069 9070 2903
4  9069 9068 9070 8936
4  9068 8937 9070 8936
4  9070 8937 8938 8936
4  5356 9069 9068 2903
4  9069 5356 9068 8936
4  5356 4858 9068 8936
4  9068 4858 8937 8936
4  5355 9067 9069 2903
4  9067 5355 9069 8935
4  5355 4855 9069 8935
4  9069 4855 8936 8935
4  9067 2902 9071 2903
4  2902 9067 9071 1707
4  9067 8935 9071 1707
4  9071 8935 8939 1707
4  2901 9070 9071 2903
4  9070 2901 9071 8938
4  2901 1705 9071 8938
4  9071 1705 8939 8938
4  2911 9072 9073 2912
4  2911 9068 9070 2903
4  2911 9073 9072 9070
4  2911 9070 9068 9073
4  9068 9073 9070 8937
4  8937 8938 9073 9070
4  9072 9070 9073 8938
4  2902 2901 9071 2903
4  2901 2902 9071 1705
4  2902 1707 9071 1705
4  9071 1707 8939 1705
4  2911 9073 5358 2912
4  2911 5356 9068 2903
4  2911 5358 9073 9068
4  2911 9068 5356 5358
4  5356 5358 9068 4858
4  4858 8937 5358 9068
4  9073 9068 5358 8937
4  5356 5355 9069 2903
4  5355 5356 9069 4855
4  5356 4858 8936 4855
4  9069 5356 8936 4855
4  9070 9069 9071 2903
4  9069 9070 9071 8936
4  9070 8938 9071 8936
4  9071 8938 8939 8936
4  2911 2914 9072 2912
4  2911 9070 2901 2903
4  2911 9072 2914 2901
4  2911 2901 9070 9072
4  9070 9072 2901 8938
4  8938 1705 9072 2901
4  2914 2901 9072 1705
4  9069 9067 9071 2903
4  9067 9069 9071 8935
4  9069 8936 9071 8935
4  9071 8936 8939 8935
4  2915 9074 9075 2912
4  2915 9076 9077 2918
4  2915 9075 9074 9077
4  2915 9077 9076 9075
4  9076 9075 9077 8940
4  8940 8941 9075 9077
4  9074 9077 9075 8941
4  2915 5362 9074 2912
4  2915 9077 5363 2918
4  2915 9074 5362 5363
4  2915 5363 9077 9074
4  9077 9074 5363 8941
4  8941 4859 9074 5363
4  5362 5363 9074 4859
4  2915 9075 2917 2912
4  2915 2920 9076 2918
4  2915 2917 9075 9076
4  2915 9076 2920 2917
4  2920 2917 9076 1923
4  1923 8940 2917 9076
4  9075 9076 2917 8940
4  9077 9076 2924 2918
4  9076 9077 2924 8940
4  9077 8941 2924 8940
4  2924 8941 1924 8940
4  2929 2932 9078 2930
4  2929 9077 2924 2918
4  2929 9078 2932 2924
4  2929 2924 9077 9078
4  9077 9078 2924 8941
4  8941 1924 9078 2924
4  2932 2924 9078 1924
4  5363 9077 5369 2918
4  9077 5363 5369 8941
4  5363 4859 5369 8941
4  5369 4859 4865 8941
4  2929 9078 5370 2930
4  2929 5369 9077 2918
4  2929 5370 9078 5369
4  2929 9077 5369 9078
4  5369 5370 9078 4865
4  4865 8941 9078 5369
4  9078 9077 5369 8941
4  9076 2920 2924 2918
4  8940 1923 1924 9079
4  2924 2920 9076 9079
4  9076 2920 1923 9079
4  1923 8940 9076 9079
4  2920 2924 1924 9079
4  1924 1923 2920 9079
4  2924 9076 8940 9079
4  8940 1924 2924 9079
4  2933 9080 2935 2930
4  2933 2938 9081 2936
4  2933 2935 9080 9081
4  2933 9081 2938 2935
4  2938 2935 9081 1928
4  1928 8942 2935 9081
4  9080 9081 2935 8942
4  2933 5373 9080 2930
4  2933 9081 5374 2936
4  2933 9080 5373 5374
4  2933 5374 9081 9080
4  9081 9080 5374 8942
4  8942 4866 9080 5374
4  5373 5374 9080 4866
4  9082 9083 9081 2936
4  9083 9082 9081 8944
4  9082 8945 9081 8944
4  9081 8945 8942 8944
4  5379 9083 9082 2936
4  9083 5379 9082 8944
4  5379 4870 9082 8944
4  9082 4870 8945 8944
4  9081 9083 5374 2936
4  9083 9081 5374 8944
4  9081 8942 5374 8944
4  5374 8942 4866 8944
4  5374 9083 5379 2936
4  9083 5374 5379 8944
4  5374 4866 5379 8944
4  5379 4866 4870 8944
4  9084 9082 9081 2936
4  9082 9084 9081 8945
4  9084 8946 9081 8945
4  9081 8946 8942 8945
4  2948 9085 5383 2949
4  2948 5379 9082 2936
4  2948 5383 9085 9082
4  2948 9082 5379 5383
4  5379 5383 9082 4870
4  4870 8945 5383 9082
4  9085 9082 5383 8945
4  2948 9086 9085 2949
4  2948 9082 9084 2936
4  2948 9085 9086 9084
4  2948 9084 9082 9085
4  9082 9085 9084 8945
4  8945 8946 9085 9084
4  9086 9084 9085 8946
4  2948 2950 9086 2949
4  2948 9084 2946 2936
4  2948 9086 2950 2946
4  2948 2946 9084 9086
4  9084 9086 2946 8946
4  8946 1930 9086 2946
4  2950 2946 9086 1930
4  9081 2938 9084 2936
4  2938 9081 9084 1928
4  9081 8942 8946 1928
4  9084 9081 8946 1928
4  9084 2938 2946 2936
4  8946 1928 1930 9087
4  2946 2938 9084 9087
4  9084 2938 1928 9087
4  1928 8946 9084 9087
4  2938 2946 1930 9087
4  1930 1928 2938 9087
4  2946 9084 8946 9087
4  8946 1930 2946 9087
4  2955 5387 9088 2949
4  2955 9089 5388 2957
4  2955 9088 5387 5388
4  2955 5388 9089 9088
4  9089 9088 5388 8947
4  8947 4874 9088 5388
4  5387 5388 9088 4874
4  2955 9088 9090 2949
4  2955 9091 9089 2957
4  2955 9090 9088 9089
4  2955 9089 9091 9090
4  9091 9090 9089 8948
4  8948 8947 9090 9089
4  9088 9089 9090 8947
4  2955 9090 2956 2949
4  2955 2958 9091 2957
4  2955 2956 9090 9091
4  2955 9091 2958 2956
4  2958 2956 9091 1933
4  1933 8948 2956 9091
4  9090 9091 2956 8948
4  9089 9091 9092 2957
4  9091 9089 9092 8948
4  9089 8947 9092 8948
4  9092 8947 8950 8948
4  5388 9089 9093 2957
4  9089 5388 9093 8947
4  5388 4874 9093 8947
4  9093 4874 8951 8947
4  9093 9089 9092 2957
4  9089 9093 9092 8947
4  9093 8951 9092 8947
4  9092 8951 8950 8947
4  9091 2958 9092 2957
4  2958 9091 9092 1933
4  9091 8948 9092 1933
4  9092 8948 8950 1933
4  2958 2960 9092 2957
4  2960 2958 9092 1934
4  2958 1933 9092 1934
4  9092 1933 8950 1934
4  2963 2964 9094 2961
4  2963 9092 2960 2957
4  2963 9094 2964 9092
4  2963 2960 9092 2964
4  9092 9094 2964 8950
4  8950 1934 2964 9092
4  2964 2960 9092 1934
4  2963 9095 5394 2961
4  2963 5391 9093 2957
4  2963 5394 9095 9093
4  2963 9093 5391 5394
4  5391 5394 9093 4877
4  4877 8951 5394 9093
4  9095 9093 5394 8951
4  2963 9094 9095 2961
4  2963 9093 9092 2957
4  2963 9095 9094 9092
4  2963 9092 9093 9095
4  9093 9095 9092 8951
4  8951 8950 9095 9092
4  9094 9092 9095 8950
4  9093 5391 5388 2957
4  5391 9093 5388 4877
4  9093 8951 4874 4877
4  5388 9093 4874 4877
4  2970 9096 9097 2021
4  2970 9098 9099 2974
4  2970 9097 9096 9099
4  2970 9099 9098 9097
4  9098 9097 9099 8873
4  8873 8871 9097 9099
4  9096 9099 9097 8871
4  2970 2971 9096 2021
4  2970 9099 2975 2974
4  2970 9096 2971 2975
4  2970 2975 9099 9096
4  9099 9096 2975 8871
4  8871 1683 9096 2975
4  2971 2975 9096 1683
4  2970 9097 5396 2021
4  2970 5399 9098 2974
4  2970 5396 9097 9098
4  2970 9098 5399 5396
4  5399 5396 9098 4635
4  4635 8873 5396 9098
4  9097 9098 5396 8873
4  2980 9100 2984 2961
4  2980 2981 9101 2974
4  2980 2984 9100 9101
4  2980 9101 2981 2984
4  2981 2984 9101 1937
4  1937 8952 2984 9101
4  9100 9101 2984 8952
4  2980 5403 9102 2961
4  2980 9103 5404 2974
4  2980 9102 5403 5404
4  2980 5404 9103 9102
4  9103 9102 5404 8953
4  8953 4881 9102 5404
4  5403 5404 9102 4881
4  2980 9102 9100 2961
4  2980 9101 9103 2974
4  2980 9100 9102 9103
4  2980 9103 9101 9100
4  9101 9100 9103 8952
4  8952 8953 9100 9103
4  9102 9103 9100 8953
4  5404 9103 9098 2974
4  9103 5404 9098 8953
4  5404 4881 9098 8953
4  9098 4881 8873 8953
4  9101 2981 9099 2974
4  2981 9101 9099 1937
4  9101 8952 9099 1937
4  9099 8952 8871 1937
4  9098 9103 9099 2974
4  9103 9098 9099 8953
4  9098 8873 9099 8953
4  9099 8873 8871 8953
4  9098 5399 5404 2974
4  5399 9098 5404 4635
4  9098 8873 4881 4635
4  5404 9098 4881 4635
4  9103 9101 9099 2974
4  9101 9103 9099 8952
4  9103 8953 9099 8952
4  9099 8953 8871 8952
4  2975 9099 2981 2974
4  1683 8871 1937 9104
4  2981 9099 2975 9104
4  2975 9099 8871 9104
4  8871 1683 2975 9104
4  9099 2981 1937 9104
4  1937 8871 9099 9104
4  2981 2975 1683 9104
4  1683 1937 2981 9104
4  9097 9096 8954 2021
4  9096 9097 8954 8871
4  9097 8873 8954 8871
4  8954 8873 8872 8871
4  8954 9096 8955 2021
4  9096 8954 8955 8871
4  8954 8872 8955 8871
4  8955 8872 8870 8871
4  9096 2971 8955 2021
4  2971 9096 8955 1683
4  9096 8871 8955 1683
4  8955 8871 8870 1683
4  8955 2971 2022 2021
4  2971 8955 2022 1683
4  8955 8870 2022 1683
4  2022 8870 1045 1683
4  5396 9097 4961 2021
4  9097 5396 4961 8873
4  5396 4635 4961 8873
4  4961 4635 4634 8873
4  4961 9097 8954 2021
4  9097 4961 8954 8873
4  4961 4634 8954 8873
4  8954 4634 8872 8873
4  8961 5178 8958 2043
4  5178 8961 8958 4647
4  8961 8874 8958 4647
4  8958 8874 8327 4647
4  8958 5178 4971 2043
4  5178 8958 4971 4647
4  8958 8327 4971 4647
4  4971 8327 1082 4647
4  8963 8961 8959 2043
4  8961 8963 8959 8874
4  8963 8876 8959 8874
4  8959 8876 8875 8874
4  8959 8961 8958 2043
4  8961 8959 8958 8874
4  8959 8875 8958 8874
4  8958 8875 8327 8874
4  2665 8963 2045 2043
4  8963 2665 2045 8876
4  2665 1694 2045 8876
4  2045 1694 1693 8876
4  2045 8963 8959 2043
4  8963 2045 8959 8876
4  2045 1693 8959 8876
4  8959 1693 8875 8876
4  9064 2883 9066 2881
4  2883 9064 9066 1717
4  9064 8934 9066 1717
4  9066 8934 8935 1717
4  2883 2910 9066 2881
4  1717 1707 8935 9105
4  9066 2910 2883 9105
4  2883 2910 1707 9105
4  1707 1717 2883 9105
4  2910 9066 8935 9105
4  8935 1707 2910 9105
4  9066 2883 1717 9105
4  1717 8935 9066 9105
4  5346 9064 5354 2881
4  9064 5346 5354 8934
4  5346 4856 5354 8934
4  5354 4856 4855 8934
4  5354 9064 9066 2881
4  9064 5354 9066 8934
4  5354 4855 9066 8934
4  9066 4855 8935 8934
4  9049 9048 9051 2850
4  9048 9049 9051 8924
4  9049 8925 9051 8924
4  9051 8925 8927 8924
4  9051 9048 9052 2850
4  9048 9051 9052 8924
4  9051 8927 9052 8924
4  9052 8927 8926 8924
4  9048 2852 9052 2850
4  2852 9048 9052 1732
4  9048 8924 9052 1732
4  9052 8924 8926 1732
4  2852 2862 9052 2850
4  1732 1734 8926 9106
4  9052 2862 2852 9106
4  2852 2862 1734 9106
4  1734 1732 2852 9106
4  2862 9052 8926 9106
4  8926 1734 2862 9106
4  9052 2852 1732 9106
4  1732 8926 9052 9106
4  5310 9049 5317 2850
4  9049 5310 5317 8925
4  5310 4841 5317 8925
4  5317 4841 4843 8925
4  5317 9049 9051 2850
4  9049 5317 9051 8925
4  5317 4843 9051 8925
4  9051 4843 8927 8925
4  5183 8968 5189 2678
4  8968 5183 5189 8878
4  5183 4777 5189 8878
4  5189 4777 4776 8878
4  5189 8968 8970 2678
4  8968 5189 8970 8878
4  5189 4776 8970 8878
4  8970 4776 8880 8878
4  8972 2680 2683 2678
4  2680 8972 2683 1871
4  8972 8881 2683 1871
4  2683 8881 1875 1871
4  8969 2680 8972 2678
4  2680 8969 8972 1871
4  8969 8877 8972 1871
4  8972 8877 8881 1871
4  8972 8968 8969 2678
4  8968 8972 8969 8878
4  8972 8881 8877 8878
4  8969 8972 8877 8878
4  8970 8968 8972 2678
4  8968 8970 8972 8878
4  8970 8880 8972 8878
4  8972 8880 8881 8878
4  8981 8980 8975 2696
4  8980 8981 8975 8884
4  8981 8886 8975 8884
4  8975 8886 8885 8884
4  8975 8980 8976 2696
4  8980 8975 8976 8884
4  8975 8885 8976 8884
4  8976 8885 8883 8884
4  8980 5201 8976 2696
4  5201 8980 8976 4784
4  8980 8884 8976 4784
4  8976 8884 8883 4784
4  8976 5201 5196 2696
4  5201 8976 5196 4784
4  8976 8883 5196 4784
4  5196 8883 4783 4784
4  8981 2698 2701 2696
4  2698 8981 2701 1877
4  8981 8886 2701 1877
4  2701 8886 1880 1877
4  8975 2698 8981 2696
4  2698 8975 8981 1877
4  8975 8885 8886 1877
4  8981 8975 8886 1877
4  8987 5214 8986 2714
4  5214 8987 8986 4792
4  8987 8890 8986 4792
4  8986 8890 8888 4792
4  8986 5214 5209 2714
4  5214 8986 5209 4792
4  8986 8888 5209 4792
4  5209 8888 4793 4792
4  8987 2716 2719 2714
4  2716 8987 2719 1882
4  8987 8890 2719 1882
4  2719 8890 1885 1882
4  8986 2716 8987 2714
4  2716 8986 8987 1882
4  8986 8888 8890 1882
4  8987 8986 8890 1882
4  8993 2730 8994 2728
4  2730 8993 8994 1886
4  8993 8892 8994 1886
4  8994 8892 8895 1886
4  2730 2737 8994 2728
4  1886 1887 8895 9107
4  8994 2737 2730 9107
4  2730 2737 1887 9107
4  1887 1886 2730 9107
4  2737 8994 8895 9107
4  8895 1887 2737 9107
4  8994 2730 1886 9107
4  1886 8895 8994 9107
4  5223 8993 5227 2728
4  8993 5223 5227 8892
4  5223 4799 5227 8892
4  5227 4799 4801 8892
4  5227 8993 8994 2728
4  8993 5227 8994 8892
4  5227 4801 8994 8892
4  8994 4801 8895 8892
4  9002 9001 8996 2750
4  9001 9002 8996 8897
4  9002 8899 8996 8897
4  8996 8899 8898 8897
4  8996 9001 8997 2750
4  9001 8996 8997 8897
4  8996 8898 8997 8897
4  8997 8898 8896 8897
4  9002 2752 2755 2750
4  2752 9002 2755 1892
4  9002 8899 2755 1892
4  2755 8899 1895 1892
4  8996 2752 9002 2750
4  2752 8996 9002 1892
4  8996 8898 8899 1892
4  9002 8996 8899 1892
4  9001 5238 5234 2750
4  5238 9001 5234 4807
4  9001 8897 5234 4807
4  5234 8897 4805 4807
4  8997 9001 5234 2750
4  9001 8997 5234 8897
4  8997 8896 4805 8897
4  5234 8997 4805 8897
4  9006 2770 9010 2768
4  2770 9006 9010 1897
4  9006 8903 9010 1897
4  9010 8903 8902 1897
4  9010 2770 2773 2768
4  2770 9010 2773 1897
4  9010 8902 2773 1897
4  2773 8902 1900 1897
4  5243 9006 5247 2768
4  9006 5243 5247 8903
4  5243 4812 5247 8903
4  5247 4812 4811 8903
4  5247 9006 9010 2768
4  9006 5247 9010 8903
4  5247 4811 9010 8903
4  9010 4811 8902 8903
4  9016 9015 9019 2786
4  9015 9016 9019 8907
4  9016 8906 9019 8907
4  9019 8906 8909 8907
4  9019 9015 9020 2786
4  9015 9019 9020 8907
4  9019 8909 9020 8907
4  9020 8909 8908 8907
4  9015 2788 9020 2786
4  2788 9015 9020 1902
4  9015 8907 9020 1902
4  9020 8907 8908 1902
4  9020 2788 2791 2786
4  2788 9020 2791 1902
4  9020 8908 2791 1902
4  2791 8908 1905 1902
4  5256 9016 5260 2786
4  9016 5256 5260 8906
4  5256 4817 5260 8906
4  5260 4817 4819 8906
4  5260 9016 9019 2786
4  9016 5260 9019 8906
4  5260 4819 9019 8906
4  9019 4819 8909 8906
4  9026 9025 9027 2805
4  9025 9026 9027 8913
4  9026 8912 9027 8913
4  9027 8912 8915 8913
4  9027 9025 9028 2805
4  9025 9027 9028 8913
4  9027 8915 9028 8913
4  9028 8915 8914 8913
4  9027 5267 9026 2805
4  5267 9027 9026 4820
4  9027 8915 8912 4820
4  9026 9027 8912 4820
4  5271 5267 9027 2805
4  5267 5271 9027 4820
4  5271 4825 9027 4820
4  9027 4825 8915 4820
4  2806 2812 9025 2805
4  2812 2806 9025 1910
4  2806 1907 8913 1910
4  9025 2806 8913 1910
4  9025 2812 9028 2805
4  8913 1910 8914 9108
4  9028 2812 9025 9108
4  9025 2812 1910 9108
4  1910 8913 9025 9108
4  2812 9028 8914 9108
4  8914 1910 2812 9108
4  9028 9025 8913 9108
4  8913 8914 9028 9108
4  5277 9032 5281 2821
4  9032 5277 5281 8916
4  5277 4828 5281 8916
4  5281 4828 4831 8916
4  5281 9032 9034 2821
4  9032 5281 9034 8916
4  5281 4831 9034 8916
4  9034 4831 8917 8916
4  9032 2824 9034 2821
4  2824 9032 9034 1911
4  9032 8916 9034 1911
4  9034 8916 8917 1911
4  2824 2832 9034 2821
4  1911 1915 8917 9109
4  9034 2832 2824 9109
4  2824 2832 1915 9109
4  1915 1911 2824 9109
4  2832 9034 8917 9109
4  8917 1915 2832 9109
4  9034 2824 1911 9109
4  1911 8917 9034 9109
4  9039 9038 9040 2840
4  9038 9039 9040 8919
4  9039 8918 9040 8919
4  9040 8918 8921 8919
4  9040 9038 9041 2840
4  9038 9040 9041 8919
4  9040 8921 9041 8919
4  9041 8921 8920 8919
4  2842 2859 9038 2840
4  2859 2842 9038 1729
4  2842 1916 8919 1729
4  9038 2842 8919 1729
4  9038 2859 9041 2840
4  8919 1729 8920 9110
4  9041 2859 9038 9110
4  9038 2859 1729 9110
4  1729 8919 9038 9110
4  2859 9041 8920 9110
4  8920 1729 2859 9110
4  9041 9038 8919 9110
4  8919 8920 9041 9110
4  5287 9039 5302 2840
4  9039 5287 5302 8918
4  5287 4836 5302 8918
4  5302 4836 4837 8918
4  5302 9039 9040 2840
4  9039 5302 9040 8918
4  5302 4837 9040 8918
4  9040 4837 8921 8918
4  9057 9056 9058 2874
4  9056 9057 9058 8930
4  9057 8927 9058 8930
4  9058 8927 8932 8930
4  9058 9056 9059 2874
4  9056 9058 9059 8930
4  9058 8932 9059 8930
4  9059 8932 8931 8930
4  2876 2891 9056 2874
4  2891 2876 9056 1921
4  2876 1920 8930 1921
4  9056 2876 8930 1921
4  9056 2891 9059 2874
4  8930 1921 8931 9111
4  9059 2891 9056 9111
4  9056 2891 1921 9111
4  1921 8930 9056 9111
4  2891 9059 8931 9111
4  8931 1921 2891 9111
4  9059 9056 8930 9111
4  8930 8931 9059 9111
4  9058 5325 9057 2874
4  5325 9058 9057 4845
4  9058 8932 8927 4845
4  9057 9058 8927 4845
4  5339 5325 9058 2874
4  5325 5339 9058 4845
4  5339 4850 9058 4845
4  9058 4850 8932 4845
4  9073 9072 9074 2912
4  9072 9073 9074 8938
4  9073 8937 9074 8938
4  9074 8937 8941 8938
4  9074 9072 9075 2912
4  9072 9074 9075 8938
4  9074 8941 9075 8938
4  9075 8941 8940 8938
4  5358 9073 5362 2912
4  9073 5358 5362 8937
4  5358 4858 5362 8937
4  5362 4858 4859 8937
4  5362 9073 9074 2912
4  9073 5362 9074 8937
4  5362 4859 9074 8937
4  9074 4859 8941 8937
4  9072 2914 9075 2912
4  2914 9072 9075 1705
4  9072 8938 9075 1705
4  9075 8938 8940 1705
4  9075 2914 2917 2912
4  2914 9075 2917 1705
4  9075 8940 2917 1705
4  2917 8940 1923 1705
4  9078 2932 9080 2930
4  2932 9078 9080 1924
4  9078 8941 9080 1924
4  9080 8941 8942 1924
4  2932 2935 9080 2930
4  1924 1928 8942 9112
4  9080 2935 2932 9112
4  2932 2935 1928 9112
4  1928 1924 2932 9112
4  2935 9080 8942 9112
4  8942 1928 2935 9112
4  9080 2932 1924 9112
4  1924 8942 9080 9112
4  9080 5370 9078 2930
4  5370 9080 9078 4865
4  9080 8942 8941 4865
4  9078 9080 8941 4865
4  5373 5370 9080 2930
4  5370 5373 9080 4865
4  5373 4866 9080 4865
4  9080 4866 8942 4865
4  5383 9085 5387 2949
4  9085 5383 5387 8945
4  5383 4870 5387 8945
4  5387 4870 4874 8945
4  5387 9085 9088 2949
4  9085 5387 9088 8945
4  5387 4874 9088 8945
4  9088 4874 8947 8945
4  9085 9086 9088 2949
4  9086 9085 9088 8946
4  9085 8945 9088 8946
4  9088 8945 8947 8946
4  9088 9086 9090 2949
4  9086 9088 9090 8946
4  9088 8947 9090 8946
4  9090 8947 8948 8946
4  9086 2950 9090 2949
4  2950 9086 9090 1930
4  9086 8946 9090 1930
4  9090 8946 8948 1930
4  2950 2956 9090 2949
4  1930 1933 8948 9113
4  9090 2956 2950 9113
4  2950 2956 1933 9113
4  1933 1930 2950 9113
4  2956 9090 8948 9113
4  8948 1933 2956 9113
4  9090 2950 1930 9113
4  1930 8948 9090 9113
4  2984 9100 9094 2961
4  9100 2984 9094 8952
4  2984 1937 9094 8952
4  9094 1937 8950 8952
4  2984 9094 2964 2961
4  1937 8950 1934 9114
4  2964 9094 2984 9114
4  2984 9094 1937 9114
4  8950 1937 9094 9114
4  9094 2964 8950 9114
4  1934 8950 2964 9114
4  2964 2984 1934 9114
4  1937 1934 2984 9114
4  9102 5403 9095 2961
4  5403 9102 9095 4881
4  9102 8953 9095 4881
4  9095 8953 8951 4881
4  9095 5403 5394 2961
4  5403 9095 5394 4881
4  9095 8951 5394 4881
4  5394 8951 4877 4881
4  9100 9102 9094 2961
4  9102 9100 9094 8953
4  9100 8952 9094 8953
4  9094 8952 8950 8953
4  9094 9102 9095 2961
4  9102 9094 9095 8953
4  9094 8950 9095 8953
4  9095 8950 8951 8953
CELL_TYPES 17893
10
10
10
10
10
10
10
10
10
10
10
10
10
10
10
10
10
10
10
10
10
10
10
10
10
10
10
10
10
10
10
10
10
10
10
10
10
10
10
10
10
10
10
10
10
10
10
10
10
10
10
10
10
10
10
10
10
10
10
10
10
10
10
10
10
10
10
10
10
10
10
10
10
10
10
10
10
10
10
10
10
10
10
10
10
10
10
10
10
10
10
10
10
10
10
10
10
10
10
10
10
10
10
10
10
10
10
10
10
10
10
10
10
10
10
10
10
10
10
10
10
10
10
10
10
10
10
10
10
10
10
10
10
10
10
10
10
10
10
10
10
10
10
10
10
10
10
10
10
10
10
10
10
10
10
10
10
10
10
10
10
10
10
10
10
10
10
10
10
10
10
10
10
10
10
10
10
10
10
10
10
10
10
10
10
10
10
10
10
10
10
10
10
10
10
10
10
10
10
10
10
10
10
10
10
10
10
10
10
10
10
10
10
10
10
10
10
10
10
10
10
10
10
10
10
10
10
10
10
10
10
10
10
10
10
10
10
10
10
10
10
10
10
10
10
10
10
10
10
10
10
10
10
10
10
10
10
10
10
10
10
10
10
10
10
10
10
10
10
10
10
10
10
10
10
10
10
10
10
10
10
10
10
10
10
10
10
10
10
10
10
10
10
10
10
10
10
10
10
10
10
10
10
10
10
10
10
10
10
10
10
10
10
10
10
10
10
10
10
10
10
10
10
10
10
10
10
10
10
10
10
10
10
10
10
10
10
10
10
10
10
10
10
10
10
10
10
10
10
10
10
10
10
10
10
10
10
10
10
10
10
10
10
10
10
10
10
10
10
10
10
10
10
10
10
10
10
10
10
10
10
10
10
10
10
10
10
10
10
10
10
10
10
10
10
10
10
10
10
10
10
10
10
10
10
10
10
10
10
10
10
10
10
10
10
10
10
10
10
10
10
10
10
10
10
10
10
10
10
10
10
10
10
10
10
10
10
10
10
10
10
10
10
10
10
10
10
10
10
10
10
10
10
10
10
10
10
10
10
10
10
10
10
10
10
10
10
10
10
10
10
10
10
10
10
10
10
10
10
10
10
10
10
10
10
10
10
10
10
10
10
10
10
10
10
10
10
10
10
10
10
10
10
10
10
10
10
10
10
10
10
10
10
10
10
10
10
10
10
10
10
10
10
10
10
10
10
10
10
10
10
10
10
10
10
10
10
10
10
10
10
10
10
10
10
10
10
10
10
10
10
10
10
10
10
10
10
10
10
10
10
10
10
10
10
10
10
10
10
10
10
10
10
10
10
10
10
10
10
10
10
10
10
10
10
10
10
10
10
10
10
10
10
10
10
10
10
10
10
10
10
10
10
10
10
10
10
10
10
10
10
10
10
10
10
10
10
10
10
10
10
10
10
10
10
10
10
10
10
10
10
10
10
10
10
10
10
10
10
10
10
10
10
10
10
10
10
10
10
10
10
10
10
10
10
10
10
10
10
10
10
10
10
10
10
10
10
10
10
10
10
10
10
10
10
10
10
10
10
10
10
10
10
10
10
10
10
10
10
10
10
10
10
10
10
10
10
10
10
10
10
10
10
10
10
10
10
10
10
10
10
10
10
10
10
10
10
10
10
10
10
10
10
10
10
10
10
10
10
10
10
10
10
10
10
10
10
10
10
10
10
10
10
10
10
10
10
10
10
10
10
10
10
10
10
10
10
10
10
10
10
10
10
10
10
10
10
10
10
10
10
10
10
10
10
10
10
10
10
10
10
10
10
10
10
10
10
10
10
10
10
10
10
10
10
10
10
10
10
10
10
10
10
10
10
10
10
10
10
10
10
10
10
10
10
10
10
10
10
10
10
10
10
10
10
10
10
10
10
10
10
10
10
10
10
10
10
10
10
10
10
10
10
10
10
10
10
10
10
10
10
10
10
10
10
10
10
10
10
10
10
10
10
10
10
10
10
10
10
10
10
10
10
10
10
10
10
10
10
10
10
10
10
10
10
10
10
10
10
10
10
10
10
10
10
10
10
10
10
10
10
10
10
10
10
10
10
10
10
10
10
10
10
10
10
10
10
10
10
10
10
10
10
10
10
10
10
10
10
10
10
10
10
10
10
10
10
10
10
10
10
10
10
10
10
10
10
10
10
10
10
10
10
10
10
10
10
10
10
10
10
10
10
10
10
10
10
10
10
10
10
10
10
10
10
10
10
10
10
10
10
10
10
10
10
10
10
10
10
10
10
10
10
10
10
10
10
10
10
10
10
10
10
10
10
10
10
10
10
10
10
10
10
10
10
10
10
10
10
10
10
10
10
10
10
10
10
10
10
10
10
10
10
10
10
10
10
10
10
10
10
10
10
10
10
10
10
10
10
10
10
10
10
10
10
10
10
10
10
10
10
10
10
10
10
10
10
10
10
10
10
10
10
10
10
10
10
10
10
10
10
10
10
10
10
10
10
10
10
10
10
10
10
10
10
10
10
10
10
10
10
10
10
10
10
10
10
10
10
10
10
10
10
10
10
10
10
10
10
10
10
10
10
10
10
10
10
10
10
10
10
10
10
10
10
10
10
10
10
10
10
10
10
10
10
10
10
10
10
10
10
10
10
10
10
10
10
10
10
10
10
10
10
10
10
10
10
10
10
10
10
10
10
10
10
10
10
10
10
10
10
10
10
10
10
10
10
10
10
10
10
10
10
10
10
10
10
10
10
10
10
10
10
10
10
10
10
10
10
10
10
10
10
10
10
10
10
10
10
10
10
10
10
10
10
10
10
10
10
10
10
10
10
10
10
10
10
10
10
10
10
10
10
10
10
10
10
10
10
10
10
10
10
10
10
10
10
10
10
10
10
10
10
10
10
10
10
10
10
10
10
10
10
10
10
10
10
10
10
10
10
10
10
10
10
10
10
10
10
10
10
10
10
10
10
10
10
10
10
10
10
10
10
10
10
10
10
10
10
10
10
10
10
10
10
10
10
10
10
10
10
10
10
10
10
10
10
10
10
10
10
10
10
10
10
10
10
10
10
10
10
10
10
10
10
10
10
10
10
10
10
10
10
10
10
10
10
10
10
10
10
10
10
10
10
10
10
10
10
10
10
10
10
10
10
10
10
10
10
10
10
10
10
10
10
10
10
10
10
10
10
10
10
10
10
10
10
10
10
10
10
10
10
10
10
10
10
10
10
10
10
10
10
10
10
10
10
10
10
10
10
10
10
10
10
10
10
10
10
10
10
10
10
10
10
10
10
10
10
10
10
10
10
10
10
10
10
10
10
10
10
10
10
10
10
10
10
10
10
10
10
10
10
10
10
10
10
10
10
10
10
10
10
10
10
10
10
10
10
10
10
10
10
10
10
10
10
10
10
10
10
10
10
10
10
10
10
10
10
10
10
10
10
10
10
10
10
10
10
10
10
10
10
10
10
10
10
10
10
10
10
10
10
10
10
10
10
10
10
10
10
10
10
10
10
10
10
10
10
10
10
10
10
10
10
10
10
10
10
10
10
10
10
10
10
10
10
10
10
10
10
10
10
10
10
10
10
10
10
10
10
10
10
10
10
10
10
10
10
10
10
10
10
10
10
10
10
10
10
10
10
10
10
10
10
10
10
10
10
10
10
10
10
10
10
10
10
10
10
10
10
10
10
10
10
10
10
10
10
10
10
10
10
10
10
10
10
10
10
10
10
10
10
10
10
10
10
10
10
10
10
10
10
10
10
10
10
10
10
10
10
10
10
10
10
10
10
10
10
10
10
10
10
10
10
10
10
10
10
10
10
10
10
10
10
10
10
10
10
10
10
10
10
10
10
10
10
10
10
10
10
10
10
10
10
10
10
10
10
10
10
10
10
10
10
10
10
10
10
10
10
10
10
10
10
10
10
10
10
10
10
10
10
10
10
10
10
10
10
10
10
10
10
10
10
10
10
10
10
10
10
10
10
10
10
10
10
10
10
10
10
10
10
10
10
10
10
10
10
10
10
10
10
10
10
10
10
10
10
10
10
10
10
10
10
10
10
10
10
10
10
10
10
10
10
10
10
10
10
10
10
10
10
10
10
10
10
10
10
10
10
10
10
10
10
10
10
10
10
10
10
10
10
10
10
10
10
10
10
10
10
10
10
10
10
10
10
10
10
10
10
10
10
10
10
10
10
10
10
10
10
10
10
10
10
10
10
10
10
10
10
10
10
10
10
10
10
10
10
10
10
10
10
10
10
10
10
10
10
10
10
10
10
10
10
10
10
10
10
10
10
10
10
10
10
10
10
10
10
10
10
10
10
10
10
10
10
10
10
10
10
10
10
10
10
10
10
10
10
10
10
10
10
10
10
10
10
10
10
10
10
10
10
10
10
10
10
10
10
10
10
10
10
10
10
10
10
10
10
10
10
10
10
10
10
10
10
10
10
10
10
10
10
10
10
10
10
10
10
10
10
10
10
10
10
10
10
10
10
10
10
10
10
10
10
10
10
10
10
10
10
10
10
10
10
10
10
10
10
10
10
10
10
10
10
10
10
10
10
10
10
10
10
10
10
10
10
10
10
10
10
10
10
10
10
10
10
10
10
10
10
10
10
10
10
10
10
10
10
10
10
10
10
10
10
10
10
10
10
10
10
10
10
10
10
10
10
10
10
10
10
10
10
10
10
10
10
10
10
10
10
10
10
10
10
10
10
10
10
10
10
10
10
10
10
10
10
10
10
10
10
10
10
10
10
10
10
10
10
10
10
10
10
10
10
10
10
10
10
10
10
10
10
10
10
10
10
10
10
10
10
10
10
10
10
10
10
10
10
10
10
10
10
10
10
10
10
10
10
10
10
10
10
10
10
10
10
10
10
10
10
10
10
10
10
10
10
10
10
10
10
10
10
10
10
10
10
10
10
10
10
10
10
10
10
10
10
10
10
10
10
10
10
10
10
10
10
10
10
10
10
10
10
10
10
10
10
10
10
10
10
10
10
10
10
10
10
10
10
10
10
10
10
10
10
10
10
10
10
10
10
10
10
10
10
10
10
10
10
10
10
10
10
10
10
10
10
10
10
10
10
10
10
10
10
10
10
10
10
10
10
10
10
10
10
10
10
10
10
10
10
10
10
10
10
10
10
10
10
10
10
10
10
10
10
10
10
10
10
10
10
10
10
10
10
10
10
10
10
10
10
10
10
10
10
10
10
10
10
10
10
10
10
10
10
10
10
10
10
10
10
10
10
10
10
10
10
10
10
10
10
10
10
10
10
10
10
10
10
10
10
10
10
10
10
10
10
10
10
10
10
10
10
10
10
10
10
10
10
10
10
10
10
10
10
10
10
10
10
10
10
10
10
10
10
10
10
10
10
10
10
10
10
10
10
10
10
10
10
10
10
10
10
10
10
10
10
10
10
10
10
10
10
10
10
10
10
10
10
10
10
10
10
10
10
10
10
10
10
10
10
10
10
10
10
10
10
10
10
10
10
10
10
10
10
10
10
10
10
10
10
10
10
10
10
10
10
10
10
10
10
10
10
10
10
10
10
10
10
10
10
10
10
10
10
10
10
10
10
10
10
10
10
10
10
10
10
10
10
10
10
10
10
10
10
10
10
10
10
10
10
10
10
10
10
10
10
10
10
10
10
10
10
10
10
10
10
10
10
10
10
10
10
10
10
10
10
10
10
10
10
10
10
10
10
10
10
10
10
10
10
10
10
10
10
10
10
10
10
10
10
10
10
10
10
10
10
10
10
10
10
10
10
10
10
10
10
10
10
10
10
10
10
10
10
10
10
10
10
10
10
10
10
10
10
10
10
10
10
10
10
10
10
10
10
10
10
10
10
10
10
10
10
10
10
10
10
10
10
10
10
10
10
10
10
10
10
10
10
10
10
10
10
10
10
10
10
10
10
10
10
10
10
10
10
10
10
10
10
10
10
10
10
10
10
10
10
10
10
10
10
10
10
10
10
10
10
10
10
10
10
10
10
10
10
10
10
10
10
10
10
10
10
10
10
10
10
10
10
10
10
10
10
10
10
10
10
10
10
10
10
10
10
10
10
10
10
10
10
10
10
10
10
10
10
10
10
10
10
10
10
10
10
10
10
10
10
10
10
10
10
10
10
10
10
10
10
10
10
10
10
10
10
10
10
10
10
10
10
10
10
10
10
10
10
10
10
10
10
10
10
10
10
10
10
10
10
10
10
10
10
10
10
10
10
10
10
10
10
10
10
10
10
10
10
10
10
10
10
10
10
10
10
10
10
10
10
10
10
10
10
10
10
10
10
10
10
10
10
10
10
10
10
10
10
10
10
10
10
10
10
10
10
10
10
10
10
10
10
10
10
10
10
10
10
10
10
10
10
10
10
10
10
10
10
10
10
10
10
10
10
10
10
10
10
10
10
10
10
10
10
10
10
10
10
10
10
10
10
10
10
10
10
10
10
10
10
10
10
10
10
10
10
10
10
10
10
10
10
10
10
10
10
10
10
10
10
10
10
10
10
10
10
10
10
10
10
10
10
10
10
10
10
10
10
10
10
10
10
10
10
10
10
10
10
10
10
10
10
10
10
10
10
10
10
10
10
10
10
10
10
10
10
10
10
10
10
10
10
10
10
10
10
10
10
10
10
10
10
10
10
10
10
10
10
10
10
10
10
10
10
10
10
10
10
10
10
10
10
10
10
10
10
10
10
10
10
10
10
10
10
10
10
10
10
10
10
10
10
10
10
10
10
10
10
10
10
10
10
10
10
10
10
10
10
10
10
10
10
10
10
10
10
10
10
10
10
10
10
10
10
10
10
10
10
10
10
10
10
10
10
10
10
10
10
10
10
10
10
10
10
10
10
10
10
10
10
10
10
10
10
10
10
10
10
10
10
10
10
10
10
10
10
10
10
10
10
10
10
10
10
10
10
10
10
10
10
10
10
10
10
10
10
10
10
10
10
10
10
10
10
10
10
10
10
10
10
10
10
10
10
10
10
10
10
10
10
10
10
10
10
10
10
10
10
10
10
10
10
10
10
10
10
10
10
10
10
10
10
10
10
10
10
10
10
10
10
10
10
10
10
10
10
10
10
10
10
10
10
10
10
10
10
10
10
10
10
10
10
10
10
10
10
10
10
10
10
10
10
10
10
10
10
10
10
10
10
10
10
10
10
10
10
10
10
10
10
10
10
10
10
10
10
10
10
10
10
10
10
10
10
10
10
10
10
10
10
10
10
10
10
10
10
10
10
10
10
10
10
10
10
10
10
10
10
10
10
10
10
10
10
10
10
10
10
10
10
10
10
10
10
10
10
10
10
10
10
10
10
10
10
10
10
10
10
10
10
10
10
10
10
10
10
10
10
10
10
10
10
10
10
10
10
10
10
10
10
10
10
10
10
10
10
10
10
10
10
10
10
10
10
10
10
10
10
10
10
10
10
10
10
10
10
10
10
10
10
10
10
10
10
10
10
10
10
10
10
10
10
10
10
10
10
10
10
10
10
10
10
10
10
10
10
10
10
10
10
10
10
10
10
10
10
10
10
10
10
10
10
10
10
10
10
10
10
10
10
10
10
10
10
10
10
10
10
10
10
10
10
10
10
10
10
10
10
10
10
10
10
10
10
10
10
10
10
10
10
10
10
10
10
10
10
10
10
10
10
10
10
10
10
10
10
10
10
10
10
10
10
10
10
10
10
10
10
10
10
10
10
10
10
10
10
10
10
10
10
10
10
10
10
10
10
10
10
10
10
10
10
10
10
10
10
10
10
10
10
10
10
10
10
10
10
10
10
10
10
10
10
10
10
10
10
10
10
10
10
10
10
10
10
10
10
10
10
10
10
10
10
10
10
10
10
10
10
10
10
10
10
10
10
10
10
10
10
10
10
10
10
10
10
10
10
10
10
10
10
10
10
10
10
10
10
10
10
10
10
10
10
10
10
10
10
10
10
10
10
10
10
10
10
10
10
10
10
10
10
10
10
10
10
10
10
10
10
10
10
10
10
10
10
10
10
10
10
10
10
10
10
10
10
10
10
10
10
10
10
10
10
10
10
10
10
10
10
10
10
10
10
10
10
10
10
10
10
10
10
10
10
10
10
10
10
10
10
10
10
10
10
10
10
10
10
10
10
10
10
10
10
10
10
10
10
10
10
10
10
10
10
10
10
10
10
10
10
10
10
10
10
10
10
10
10
10
10
10
10
10
10
10
10
10
10
10
10
10
10
10
10
10
10
10
10
10
10
10
10
10
10
10
10
10
10
10
10
10
10
10
10
10
10
10
10
10
10
10
10
10
10
10
10
10
10
10
10
10
10
10
10
10
10
10
10
10
10
10
10
10
10
10
10
10
10
10
10
10
10
10
10
10
10
10
10
10
10
10
10
10
10
10
10
10
10
10
10
10
10
10
10
10
10
10
10
10
10
10
10
10
10
10
10
10
10
10
10
10
10
10
10
10
10
10
10
10
10
10
10
10
10
10
10
10
10
10
10
10
10
10
10
10
10
10
10
10
10
10
10
10
10
10
10
10
10
10
10
10
10
10
10
10
10
10
10
10
10
10
10
10
10
10
10
10
10
10
10
10
10
10
10
10
10
10
10
10
10
10
10
10
10
10
10
10
10
10
10
10
10
10
10
10
10
10
10
10
10
10
10
10
10
10
10
10
10
10
10
10
10
10
10
10
10
10
10
10
10
10
10
10
10
10
10
10
10
10
10
10
10
10
10
10
10
10
10
10
10
10
10
10
10
10
10
10
10
10
10
10
10
10
10
10
10
10
10
10
10
10
10
10
10
10
10
10
10
10
10
10
10
10
10
10
10
10
10
10
10
10
10
10
10
10
10
10
10
10
10
10
10
10
10
10
10
10
10
10
10
10
10
10
10
10
10
10
10
10
10
10
10
10
10
10
10
10
10
10
10
10
10
10
10
10
10
10
10
10
10
10
10
10
10
10
10
10
10
10
10
10
10
10
10
10
10
10
10
10
10
10
10
10
10
10
10
10
10
10
10
10
10
10
10
10
10
10
10
10
10
10
10
10
10
10
10
10
10
10
10
10
10
10
10
10
10
10
10
10
10
10
10
10
10
10
10
10
10
10
10
10
10
10
10
10
10
10
10
10
10
10
10
10
10
10
10
10
10
10
10
10
10
10
10
10
10
10
10
10
10
10
10
10
10
10
10
10
10
10
10
10
10
10
10
10
10
10
10
10
10
10
10
10
10
10
10
10
10
10
10
10
10
10
10
10
10
10
10
10
10
10
10
10
10
10
10
10
10
10
10
10
10
10
10
10
10
10
10
10
10
10
10
10
10
10
10
10
10
10
10
10
10
10
10
10
10
10
10
10
10
10
10
10
10
10
10
10
10
10
10
10
10
10
10
10
10
10
10
10
10
10
10
10
10
10
10
10
10
10
10
10
10
10
10
10
10
10
10
10
10
10
10
10
10
10
10
10
10
10
10
10
10
10
10
10
10
10
10
10
10
10
10
10
10
10
10
10
10
10
10
10
10
10
10
10
10
10
10
10
10
10
10
10
10
10
10
10
10
10
10
10
10
10
10
10
10
10
10
10
10
10
10
10
10
10
10
10
10
10
10
10
10
10
10
10
10
10
10
10
10
10
10
10
10
10
10
10
10
10
10
10
10
10
10
10
10
10
10
10
10
10
10
10
10
10
10
10
10
10
10
10
10
10
10
10
10
10
10
10
10
10
10
10
10
10
10
10
10
10
10
10
10
10
10
10
10
10
10
10
10
10
10
10
10
10
10
10
10
10
10
10
10
10
10
10
10
10
10
10
10
10
10
10
10
10
10
10
10
10
10
10
10
10
10
10
10
10
10
10
10
10
10
10
10
10
10
10
10
10
10
10
10
10
10
10
10
10
10
10
10
10
10
10
10
10
10
10
10
10
10
10
10
10
10
10
10
10
10
10
10
10
10
10
10
10
10
10
10
10
10
10
10
10
10
10
10
10
10
10
10
10
10
10
10
10
10
10
10
10
10
10
10
10
10
10
10
10
10
10
10
10
10
10
10
10
10
10
10
10
10
10
10
10
10
10
10
10
10
10
10
10
10
10
10
10
10
10
10
10
10
10
10
10
10
10
10
10
10
10
10
10
10
10
10
10
10
10
10
10
10
10
10
10
10
10
10
10
10
10
10
10
10
10
10
10
10
10
10
10
10
10
10
10
10
10
10
10
10
10
10
10
10
10
10
10
10
10
10
10
10
10
10
10
10
10
10
10
10
10
10
10
10
10
10
10
10
10
10
10
10
10
10
10
10
10
10
10
10
10
10
10
10
10
10
10
10
10
10
10
10
10
10
10
10
10
10
10
10
10
10
10
10
10
10
10
10
10
10
10
10
10
10
10
10
10
10
10
10
10
10
10
10
10
10
10
10
10
10
10
10
10
10
10
10
10
10
10
10
10
10
10
10
10
10
10
10
10
10
10
10
10
10
10
10
10
10
10
10
10
10
10
10
10
10
10
10
10
10
10
10
10
10
10
10
10
10
10
10
10
10
10
10
10
10
10
10
10
10
10
10
10
10
10
10
10
10
10
10
10
10
10
10
10
10
10
10
10
10
10
10
10
10
10
10
10
10
10
10
10
10
10
10
10
10
10
10
10
10
10
10
10
10
10
10
10
10
10
10
10
10
10
10
10
10
10
10
10
10
10
10
10
10
10
10
10
10
10
10
10
10
10
10
10
10
10
10
10
10
10
10
10
10
10
10
10
10
10
10
10
10
10
10
10
10
10
10
10
10
10
10
10
10
10
10
10
10
10
10
10
10
10
10
10
10
10
10
10
10
10
10
10
10
10
10
10
10
10
10
10
10
10
10
10
10
10
10
10
10
10
10
10
10
10
10
10
10
10
10
10
10
10
10
10
10
10
10
10
10
10
10
10
10
10
10
10
10
10
10
10
10
10
10
10
10
10
10
10
10
10
10
10
10
10
10
10
10
10
10
10
10
10
10
10
10
10
10
10
10
10
10
10
10
10
10
10
10
10
10
10
10
10
10
10
10
10
10
10
10
10
10
10
10
10
10
10
10
10
10
10
10
10
10
10
10
10
10
10
10
10
10
10
10
10
10
10
10
10
10
10
10
10
10
10
10
10
10
10
10
10
10
10
10
10
10
10
10
10
10
10
10
10
10
10
10
10
10
10
10
10
10
10
10
10
10
10
10
10
10
10
10
10
10
10
10
10
10
10
10
10
10
10
10
10
10
10
10
10
10
10
10
10
10
10
10
10
10
10
10
10
10
10
10
10
10
10
10
10
10
10
10
10
10
10
10
10
10
10
10
10
10
10
10
10
10
10
10
10
10
10
10
10
10
10
10
10
10
10
10
10
10
10
10
10
10
10
10
10
10
10
10
10
10
10
10
10
10
10
10
10
10
10
10
10
10
10
10
10
10
10
10
10
10
10
10
10
10
10
10
10
10
10
10
10
10
10
10
10
10
10
10
10
10
10
10
10
10
10
10
10
10
10
10
10
10
10
10
10
10
10
10
10
10
10
10
10
10
10
10
10
10
10
10
10
10
10
10
10
10
10
10
10
10
10
10
10
10
10
10
10
10
10
10
10
10
10
10
10
10
10
10
10
10
10
10
10
10
10
10
10
10
10
10
10
10
10
10
10
10
10
10
10
10
10
10
10
10
10
10
10
10
10
10
10
10
10
10
10
10
10
10
10
10
10
10
10
10
10
10
10
10
10
10
10
10
10
10
10
10
10
10
10
10
10
10
10
10
10
10
10
10
10
10
10
10
10
10
10
10
10
10
10
10
10
10
10
10
10
10
10
10
10
10
10
10
10
10
10
10
10
10
10
10
10
10
10
10
10
10
10
10
10
10
10
10
10
10
10
10
10
10
10
10
10
10
10
10
10
10
10
10
10
10
10
10
10
10
10
10
10
10
10
10
10
10
10
10
10
10
10
10
10
10
10
10
10
10
10
10
10
10
10
10
10
10
10
10
10
10
10
10
10
10
10
10
10
10
10
10
10
10
10
10
10
10
10
10
10
10
10
10
10
10
10
10
10
10
10
10
10
10
10
10
10
10
10
10
10
10
10
10
10
10
10
10
10
10
10
10
10
10
10
10
10
10
10
10
10
10
10
10
10
10
10
10
10
10
10
10
10
10
10
10
10
10
10
10
10
10
10
10
10
10
10
10
10
10
10
10
10
10
10
10
10
10
10
10
10
10
10
10
10
10
10
10
10
10
10
10
10
10
10
10
10
10
10
10
10
10
10
10
10
10
10
10
10
10
10
10
10
10
10
10
10
10
10
10
10
10
10
10
10
10
10
10
10
10
10
10
10
10
10
10
10
10
10
10
10
10
10
10
10
10
10
10
10
10
10
10
10
10
10
10
10
10
10
10
10
10
10
10
10
10
10
10
10
10
10
10
10
10
10
10
10
10
10
10
10
10
10
10
10
10
10
10
10
10
10
10
10
10
10
10
10
10
10
10
10
10
10
10
10
10
10
10
10
10
10
10
10
10
10
10
10
10
10
10
10
10
10
10
10
10
10
10
10
10
10
10
10
10
10
10
10
10
10
10
10
10
10
10
10
10
10
10
10
10
10
10
10
10
10
10
10
10
10
10
10
10
10
10
10
10
10
10
10
10
10
10
10
10
10
10
10
10
10
10
10
10
10
10
10
10
10
10
10
10
10
10
10
10
10
10
10
10
10
10
10
10
10
10
10
10
10
10
10
10
10
10
10
10
10
10
10
10
10
10
10
10
10
10
10
10
10
10
10
10
10
10
10
10
10
10
10
10
10
10
10
10
10
10
10
10
10
10
10
10
10
10
10
10
10
10
10
10
10
10
10
10
10
10
10
10
10
10
10
10
10
10
10
10
10
10
10
10
10
10
10
10
10
10
10
10
10
10
10
10
10
10
10
10
10
10
10
10
10
10
10
10
10
10
10
10
10
10
10
10
10
10
10
10
10
10
10
10
10
10
10
10
10
10
10
10
10
10
10
10
10
10
10
10
10
10
10
10
10
10
10
10
10
10
10
10
10
10
10
10
10
10
10
10
10
10
10
10
10
10
10
10
10
10
10
10
10
10
10
10
10
10
10
10
10
10
10
10
10
10
10
10
10
10
10
10
10
10
10
10
10
10
10
10
10
10
10
10
10
10
10
10
10
10
10
10
10
10
10
10
10
10
10
10
10
10
10
10
10
10
10
10
10
10
10
10
10
10
10
10
10
10
10
10
10
10
10
10
10
10
10
10
10
10
10
10
10
10
10
10
10
10
10
10
10
10
10
10
10
10
10
10
10
10
10
10
10
10
10
10
10
10
10
10
10
10
10
10
10
10
10
10
10
10
10
10
10
10
10
10
10
10
10
10
10
10
10
10
10
10
10
10
10
10
10
10
10
10
10
10
10
10
10
10
10
10
10
10
10
10
10
10
10
10
10
10
10
10
10
10
10
10
10
10
10
10
10
10
10
10
10
10
10
10
10
10
10
10
10
10
10
10
10
10
10
10
10
10
10
10
10
10
10
10
10
10
10
10
10
10
10
10
10
10
10
10
10
10
10
10
10
10
10
10
10
10
10
10
10
10
10
10
10
10
10
10
10
10
10
10
10
10
10
10
10
10
10
10
10
10
10
10
10
10
10
10
10
10
10
10
10
10
10
10
10
10
10
10
10
10
10
10
10
10
10
10
10
10
10
10
10
10
10
10
10
10
10
10
10
10
10
10
10
10
10
10
10
10
10
10
10
10
10
10
10
10
10
10
10
10
10
10
10
10
10
10
10
10
10
10
10
10
10
10
10
10
10
10
10
10
10
10
10
10
10
10
10
10
10
10
10
10
10
10
10
10
10
10
10
10
10
10
10
10
10
10
10
10
10
10
10
10
10
10
10
10
10
10
10
10
10
10
10
10
10
10
10
10
10
10
10
10
10
10
10
10
10
10
10
10
10
10
10
10
10
10
10
10
10
10
10
10
10
10
10
10
10
10
10
10
10
10
10
10
10
10
10
10
10
10
10
10
10
10
10
10
10
10
10
10
10
10
10
10
10
10
10
10
10
10
10
10
10
10
10
10
10
10
10
10
10
10
10
10
10
10
10
10
10
10
10
10
10
10
10
10
10
10
10
10
10
10
10
10
10
10
10
10
10
10
10
10
10
10
10
10
10
10
10
10
10
10
10
10
10
10
10
10
10
10
10
10
10
10
10
10
10
10
10
10
10
10
10
10
10
10
10
10
10
10
10
10
10
10
10
10
10
10
10
10
10
10
10
10
10
10
10
10
10
10
10
10
10
10
10
10
10
10
10
10
10
10
10
10
10
10
10
10
10
10
10
10
10
10
10
10
10
10
10
10
10
10
10
10
10
10
10
10
10
10
10
10
10
10
10
10
10
10
10
10
10
10
10
10
10
10
10
10
10
10
10
10
10
10
10
10
10
10
10
10
10
10
10
10
10
10
10
10
10
10
10
10
10
10
10
10
10
10
10
10
10
10
10
10
10
10
10
10
10
10
10
10
10
10
10
10
10
10
10
10
10
10
10
10
10
10
10
10
10
10
10
10
10
10
10
10
10
10
10
10
10
10
10
10
10
10
10
10
10
10
10
10
10
10
10
10
10
10
10
10
10
10
10
10
10
10
10
10
10
10
10
10
10
10
10
10
10
10
10
10
10
10
10
10
10
10
10
10
10
10
10
10
10
10
10
10
10
10
10
10
10
10
10
10
10
10
10
10
10
10
10
10
10
10
10
10
10
10
10
10
10
10
10
10
10
10
10
10
10
10
10
10
10
10
10
10
10
10
10
10
10
10
10
10
10
10
10
10
10
10
10
10
10
10
10
10
10
10
10
10
10
10
10
10
10
10
10
10
10
10
10
10
10
10
10
10
10
10
10
10
10
10
10
10
10
10
10
10
10
10
10
10
10
10
10
10
10
10
10
10
10
10
10
10
10
10
10
10
10
10
10
10
10
10
10
10
10
10
10
10
10
10
10
10
10
10
10
10
10
10
10
10
10
10
10
10
10
10
10
10
10
10
10
10
10
10
10
10
10
10
10
10
10
10
10
10
10
10
10
10
10
10
10
10
10
10
10
10
10
10
10
10
10
10
10
10
10
10
10
10
10
10
10
10
10
10
10
10
10
10
10
10
10
10
10
10
10
10
10
10
10
10
10
10
10
10
10
10
10
10
10
10
10
10
10
10
10
10
10
10
10
10
10
10
10
10
10
10
10
10
10
10
10
10
10
10
10
10
10
10
10
10
10
10
10
10
10
10
10
10
10
10
10
10
10
10
10
10
10
10
10
10
10
10
10
10
10
10
10
10
10
10
10
10
10
10
10
10
10
10
10
10
10
10
10
10
10
10
10
10
10
10
10
10
10
10
10
10
10
10
10
10
10
10
10
10
10
10
10
10
10
10
10
10
10
10
10
10
10
10
10
10
10
10
10
10
10
10
10
10
10
10
10
10
10
10
10
10
10
10
10
10
10
10
10
10
10
10
10
10
10
10
10
10
10
10
10
10
10
10
10
10
10
10
10
10
10
10
10
10
10
10
10
10
10
10
10
10
10
10
10
10
10
10
10
10
10
10
10
10
10
10
10
10
10
10
10
10
10
10
10
10
10
10
10
10
10
10
10
10
10
10
10
10
10
10
10
10
10
10
10
10
10
10
10
10
10
10
10
10
10
10
10
10
10
10
10
10
10
10
10
10
10
10
10
10
10
10
10
10
10
10
10
10
10
10
10
10
10
10
10
10
10
10
10
10
10
10
10
10
10
10
10
10
10
10
10
10
10
10
10
10
10
10
10
10
10
10
10
10
10
10
10
10
10
10
10
10
10
10
10
10
10
10
10
10
10
10
10
10
10
10
10
10
10
10
10
10
10
10
10
10
10
10
10
10
10
10
10
10
10
10
10
10
10
10
10
10
10
10
10
10
10
10
10
10
10
10
10
10
10
10
10
10
10
10
10
10
10
10
10
10
10
10
10
10
10
10
10
10
10
10
10
10
10
10
10
10
10
10
10
10
10
10
10
10
10
10
10
10
10
10
10
10
10
10
10
10
10
10
10
10
10
10
10
10
10
10
10
10
10
10
10
10
10
10
10
10
10
10
10
10
10
10
10
10
10
10
10
10
10
10
10
10
10
10
10
10
10
10
10
10
10
10
10
10
10
10
10
10
10
10
10
10
10
10
10
10
10
10
10
10
10
10
10
10
10
10
10
10
10
10
10
10
10
10
10
10
10
10
10
10
10
10
10
10
10
10
10
10
10
10
10
10
10
10
10
10
10
10
10
10
10
10
10
10
10
10
10
10
10
10
10
10
10
10
10
10
10
10
10
10
10
10
10
10
10
10
10
10
10
10
10
10
10
10
10
10
10
10
10
10
10
10
10
10
10
10
10
10
10
10
10
10
10
10
10
10
10
10
10
10
10
10
10
10
10
10
10
10
10
10
10
10
10
10
10
10
10
10
10
10
10
10
10
10
10
10
10
10
10
10
10
10
10
10
10
10
10
10
10
10
10
10
10
10
10
10
10
10
10
10
10
10
10
10
10
10
10
10
10
10
10
10
10
10
10
10
10
10
10
10
10
10
10
10
10
10
10
10
10
10
10
10
10
10
10
10
10
10
10
10
10
10
10
10
10
10
10
10
10
10
10
10
10
10
10
10
10
10
10
10
10
10
10
10
10
10
10
10
10
10
10
10
10
10
10
10
10
10
10
10
10
10
10
10
10
10
10
10
10
10
10
10
10
10
10
10
10
10
10
10
10
10
10
10
10
10
10
10
10
10
10
10
10
10
10
10
10
10
10
10
10
10
10
10
10
10
10
10
10
10
10
10
10
10
10
10
10
10
10
10
10
10
10
10
10
10
10
10
10
10
10
10
10
10
10
10
10
10
10
10
10
10
10
10
10
10
10
10
10
10
10
10
10
10
10
10
10
10
10
10
10
10
10
10
10
10
10
10
10
10
10
10
10
10
10
10
10
10
10
10
10
10
10
10
10
10
10
10
10
10
10
10
10
10
10
10
10
10
10
10
10
10
10
10
10
10
10
10
10
10
10
10
10
10
10
10
10
10
10
10
10
10
10
10
10
10
10
10
10
10
10
10
10
10
10
10
10
10
10
10
10
10
10
10
10
10
10
10
10
10
10
10
10
10
10
10
10
10
10
10
10
10
10
10
10
10
10
10
10
10
10
10
10
10
10
10
10
10
10
10
10
10
10
10
10
10
10
10
10
10
10
10
10
10
10
10
10
10
10
10
10
10
10
10
10
10
10
10
10
10
10
10
10
10
10
10
10
10
10
10
10
10
10
10
10
10
10
10
10
10
10
10
10
10
10
10
10
10
10
10
10
10
10
10
10
10
10
10
10
10
10
10
10
10
10
10
10
10
10
10
10
10
10
10
10
10
10
10
10
10
10
10
10
10
10
10
10
10
10
10
10
10
10
10
10
10
10
10
10
10
10
10
10
10
10
10
10
10
10
10
10
10
10
10
10
10
10
10
10
10
10
10
10
10
10
10
10
10
10
10
10
10
10
10
10
10
10
10
10
10
10
10
10
10
10
10
10
10
10
10
10
10
10
10
10
10
10
10
10
10
10
10
10
10
10
10
10
10
10
10
10
10
10
10
10
10
10
10
10
10
10
10
10
10
10
10
10
10
10
10
10
10
10
10
10
10
10
10
10
10
10
10
10
10
10
10
10
10
10
10
10
10
10
10
10
10
10
10
10
10
10
10
10
10
10
10
10
10
10
10
10
10
10
10
10
10
10
10
10
10
10
10
10
10
10
10
10
10
10
10
10
10
10
10
10
10
10
10
10
10
10
10
10
10
10
10
10
10
10
10
10
10
10
10
10
10
10
10
10
10
10
10
10
10
10
10
10
10
10
10
10
10
10
10
10
10
10
10
10
10
10
10
10
10
10
10
10
10
10
10
10
10
10
10
10
10
10
10
10
10
10
10
10
10
10
10
10
10
10
10
10
10
10
10
10
10
10
10
10
10
10
10
10
10
10
10
10
10
10
10
10
10
10
10
10
10
10
10
10
10
10
10
10
10
10
10
10
10
10
10
10
10
10
10
10
10
10
10
10
10
10
10
10
10
10
10
10
10
10
10
10
10
10
10
10
10
10
10
10
10
10
10
10
10
10
10
10
10
10
10
10
10
10
10
10
10
10
10
10
10
10
10
10
10
10
10
10
10
10
10
10
10
10
10
10
10
10
10
10
10
10
10
10
10
10
10
10
10
10
10
10
10
10
10
10
10
10
10
10
10
10
10
10
10
10
10
10
10
10
10
10
10
10
10
10
10
10
10
10
10
10
10
10
10
10
10
10
10
10
10
10
10
10
10
10
10
10
10
10
10
10
10
10
10
10
10
10
10
10
10
10
10
10
10
10
10
10
10
10
10
10
10
10
10
10
10
10
10
10
10
10
10
10
10
10
10
10
10
10
10
10
10
10
10
10
10
10
10
10
10
10
10
10
10
10
10
10
10
10
10
10
10
10
10
10
10
10
10
10
10
10
10
10
10
10
10
10
10
10
10
10
10
10
10
10
10
10
10
10
10
10
10
10
10
10
10
10
10
10
10
10
10
10
10
10
10
10
10
10
10
10
10
10
10
10
10
10
10
10
10
10
10
10
10
10
10
10
10
10
10
10
10
10
10
10
10
10
10
10
10
10
10
10
10
10
10
10
10
10
10
10
10
10
10
10
10
10
10
10
10
10
10
10
10
10
10
10
10
10
10
10
10
10
10
10
10
10
10
10
10
10
10
10
10
10
10
10
10
10
10
10
10
10
10
10
10
10
10
10
10
10
10
10
10
10
10
10
10
10
10
10
10
10
10
10
10
10
10
10
10
10
10
10
10
10
10
10
10
10
10
10
10
10
10
10
10
10
10
10
10
10
10
10
10
10
10
10
10
10
10
10
10
10
10
10
10
10
10
10
10
10
10
10
10
10
10
10
10
10
10
10
10
10
10
10
10
10
10
10
10
10
10
10
10
10
10
10
10
10
10
10
10
10
10
10
10
10
10
10
10
10
10
10
10
10
10
10
10
10
10
10
10
10
10
10
10
10
10
10
10
10
10
10
10
10
10
10
10
10
10
10
10
10
10
10
10
10
10
10
10
10
10
10
10
10
10
10
10
10
10
10
10
10
10
10
10
10
10
10
10
10
10
10
10
10
10
10
10
10
10
10
10
10
10
10
10
10
10
10
10
10
10
10
10
10
10
10
10
10
10
10
10
10
10
10
10
10
10
10
10
10
10
10
10
10
10
10
10
10
10
10
10
10
10
10
10
10
10
10
10
10
10
10
10
10
10
10
10
10
10
10
10
10
10
10
10
10
10
10
10
10
10
10
10
10
10
10
10
10
10
10
10
10
10
10
10
10
10
10
10
10
10
10
10
10
10
10
10
10
10
10
10
10
10
10
10
10
10
10
10
10
10
10
10
10
10
10
10
10
10
10
10
10
10
10
10
10
10
10
10
10
10
10
10
10
10
10
10
10
10
10
10
10
10
10
10
10
10
10
10
10
10
10
10
10
10
10
10
10
10
10
10
10
10
10
10
10
10
10
10
10
10
10
10
10
10
10
10
10
10
10
10
10
10
10
10
10
10
10
10
10
10
10
10
10
10
10
10
10
10
10
10
10
10
10
10
10
10
10
10
10
10
10
10
10
10
10
10
10
10
10
10
10
10
10
10
10
10
10
10
10
10
10
10
10
10
10
10
10
10
10
10
10
10
10
10
10
10
10
10
10
10
10
10
10
10
10
10
10
10
10
10
10
10
10
10
10
10
10
10
10
10
10
10
10
10
10
10
10
10
10
10
10
10
10
10
10
10
10
10
10
10
10
10
10
10
10
10
10
10
10
10
10
10
10
10
10
10
10
10
10
10
10
10
10
10
10
10
10
10
10
10
10
10
10
10
10
10
10
10
10
10
10
10
10
10
10
10
10
10
10
10
10
10
10
10
10
10
10
10
10
10
10
10
10
10
10
10
10
10
10
10
10
10
10
10
10
10
10
10
10
10
10
10
10
10
10
10
10
10
10
10
10
10
10
10
10
10
10
10
10
10
10
10
10
10
10
10
10
10
10
10
10
10
10
10
10
10
10
10
10
10
10
10
10
10
10
10
10
10
10
10
10
10
10
10
10
10
10
10
10
10
10
10
10
10
10
10
10
10
10
10
10
10
10
10
10
10
10
10
10
10
10
10
10
10
10
10
10
10
10
10
10
10
10
10
10
10
10
10
10
10
10
10
10
10
10
10
10
10
10
10
10
10
10
10
10
10
10
10
10
10
10
10
10
10
10
10
10
10
10
10
10
10
10
10
10
10
10
10
10
10
10
10
10
10
10
10
10
10
10
10
10
10
10
10
10
10
10
10
10
10
10
10
10
10
10
10
10
10
10
10
10
10
10
10
10
10
10
10
10
10
10
10
10
10
10
10
10
10
10
10
10
10
10
10
10
10
10
10
10
10
10
10
10
10
10
10
10
10
10
10
10
10
10
10
10
10
10
10
10
10
10
10
10
10
10
10
10
10
10
10
10
10
10
10
10
10
10
10
10
10
10
10
10
10
10
10
10
10
10
10
10
10
10
10
10
10
10
10
10
10
10
10
10
10
10
10
10
10
10
10
10
10
10
10
10
10
10
10
10
10
10
10
10
10
10
10
10
10
10
10
10
10
10
10
10
10
10
10
10
10
10
10
10
10
10
10
10
10
10
10
10
10
10
10
10
10
10
10
10
10
10
10
10
10
10
10
10
10
10
10
10
10
10
10
10
10
10
10
10
10
10
10
10
10
10
10
10
10
10
10
10
10
10
10
10
10
10
10
10
10
10
10
10
10
10
10
10
10
10
10
10
10
10
10
10
10
10
10
10
10
10
10
10
10
10
10
10
10
10
10
10
10
10
10
10
10
10
10
10
10
10
10
10
10
10
10
10
10
10
10
10
10
10
10
10
10
10
10
10
10
10
10
10
10
10
10
10
10
10
10
10
10
10
10
10
10
10
10
10
10
10
10
10
10
10
10
10
10
10
10
10
10
10
10
10
10
10
10
10
10
10
10
10
10
10
10
10
10
10
10
10
10
10
10
10
10
10
10
10
10
10
10
10
10
10
10
10
10
10
10
10
10
10
10
10
10
10
10
10
10
10
10
10
10
10
10
10
10
10
10
10
10
10
10
10
10
10
10
10
10
10
10
10
10
10
10
10
10
10
10
10
10
10
10
10
10
10
10
10
10
10
10
10
10
10
10
10
10
10
10
10
10
10
10
10
10
10
10
10
10
10
10
10
10
10
10
10
10
10
10
10
10
10
10
10
10
10
10
10
10
10
10
10
10
10
10
10
10
10
10
10
10
10
10
10
10
10
10
10
10
10
10
10
10
10
10
10
10
10
10
10
10
10
10
10
10
10
10
10
10
10
10
10
10
10
10
10
10
10
10
10
10
10
10
10
10
10
10
10
10
10
10
10
10
10
10
10
10
10
10
10
10
10
10
10
10
10
10
10
10
10
10
10
10
10
10
10
10
10
10
10
10
10
10
10
10
10
10
10
10
10
10
10
10
10
10
10
10
10
10
10
10
10
10
10
10
10
10
10
10
10
10
10
10
10
10
10
10
10
10
10
10
10
10
10
10
10
10
10
10
10
10
10
10
10
10
10
10
10
10
10
10
10
10
10
10
10
10
10
10
10
10
10
10
10
10
10
10
10
10
10
10
10
10
10
10
10
10
10
10
10
10
10
10
10
10
10
10
10
10
10
10
10
10
10
10
10
10
10
10
10
10
10
10
10
10
10
10
10
10
10
10
10
10
10
10
10
10
10
10
10
10
10
10
10
10
10
10
10
10
10
10
10
10
10
10
10
10
10
10
10
10
10
10
10
10
10
10
10
10
10
10
10
10
10
10
10
10
10
10
10
10
10
10
10
10
10
10
10
10
10
10
10
10
10
10
10
10
10
10
10
10
10
10
10
10
10
10
10
10
10
10
10
10
10
10
10
10
10
10
10
10
10
10
10
10
10
10
10
10
10
10
10
10
10
10
10
10
10
10
10
10
10
10
10
10
10
10
10
10
10
10
10
10
10
10
10
10
10
10
10
10
10
10
10
10
10
10
10
10
10
10
10
10
10
10
10
10
10
10
10
10
10
10
10
10
10
10
10
10
10
10
10
10
10
10
10
10
10
10
10
10
10
10
10
10
10
10
10
10
10
10
10
10
10
10
10
10
10
10
10
10
10
10
10
10
10
10
10
10
10
10
10
10
10
10
10
10
10
10
10
10
10
10
10
10
10
10
10
10
10
10
10
10
10
10
10
10
10
10
10
10
10
10
10
10
10
10
10
10
10
10
10
10
10
10
10
10
10
10
10
10
10
10
10
10
10
10
10
10
10
10
10
10
10
10
10
10
10
10
10
10
10
10
10
10
10
10
10
10
10
10
10
10
10
10
10
10
10
10
10
10
10
10
10
10
10
10
10
10
10
10
10
10
10
10
10
10
10
10
10
10
10
10
10
10
10
10
10
10
10
10
10
10
10
10
10
10
10
10
10
10
10
10
10
10
10
10
10
10
10
10
10
10
10
10
10
10
10
10
10
10
10
10
10
10
10
10
10
10
10
10
10
10
10
10
10
10
10
10
10
10
10
10
10
10
10
10
10
10
10
10
10
10
10
10
10
10
10
10
10
10
10
10
10
10
10
10
10
10
10
10
10
10
10
10
10
10
10
10
10
10
10
10
10
10
10
10
10
10
10
10
10
10
10
10
10
10
10
10
10
10
10
10
10
10
10
10
10
10
10
10
10
10
10
10
10
10
10
10
10
10
10
10
10
10
10
10
10
10
10
10
10
10
10
10
10
10
10
10
10
10
10
10
10
10
10
10
10
10
10
10
10
10
10
10
10
10
10
10
10
10
10
10
10
10
10
10
10
10
10
10
10
10
10
10
10
10
10
10
10
10
10
10
10
10
10
10
10
10
10
10
10
10
10
10
10
10
10
10
10
10
10
10
10
10
10
10
10
10
10
10
10
10
10
10
10
10
10
10
10
10
10
10
10
10
10
10
10
10
10
10
10
10
10
10
10
10
10
10
10
10
10
10
10
10
10
10
10
10
10
10
10
10
10
10
10
10
10
10
10
10
10
10
10
10
10
10
10
10
10
10
10
10
10
10
10
10
10
10
10
10
10
10
10
10
10
10
10
10
10
10
10
10
10
10
10
10
10
10
10
10
10
10
10
10
10
10
10
10
10
10
10
10
10
10
10
10
10
10
10
10
10
10
10
10
10
10
10
10
10
10
10
10
10
10
10
10
10
10
10
10
10
10
10
10
10
10
10
10
10
10
10
10
10
10
10
10
10
10
10
10
10
10
10
10
10
10
10
10
10
10
10
10
10
10
10
10
10
10
10
10
10
10
10
10
10
10
10
10
10
10
10
10
10
10
10
10
10
10
10
10
10
10
10
10
10
10
10
10
10
10
10
10
10
10
10
10
10
10
10
10
10
10
10
10
10
10
10
10
10
10
10
10
10
10
10
10
10
10
10
10
10
10
10
10
10
10
10
10
10
10
10
10
10
10
10
10
10
10
10
10
10
10
10
10
10
10
10
10
10
10
10
10
10
10
10
10
10
10
10
10
10
10
10
10
10
10
10
10
10
10
10
10
10
10
10
10
10
10
10
10
10
10
10
10
10
10
10
10
10
10
10
10
10
10
10
10
10
10
10
10
10
10
10
10
10
10
10
10
10
10
10
10
10
10
10
10
10
10
10
10
10
10
10
10
10
10
10
10
10
10
10
10
10
10
10
10
10
10
10
10
10
10
10
10
10
10
10
10
10
10
10
10
10
10
10
10
10
10
10
10
10
10
10
10
10
10
10
10
10
10
10
10
10
10
10
10
10
10
10
10
10
10
10
10
10
10
10
10
10
10
10
10
10
10
10
10
10
10
10
10
10
10
10
10
10
10
10
10
10
10
10
10
10
10
10
10
10
10
10
10
10
10
10
10
10
10
10
10
10
10
10
10
10
10
10
10
10
10
10
10
10
10
10
10
10
10
10
10
10
10
10
10
10
10
10
10
10
10
10
10
10
10
10
10
10
10
10
10
10
10
10
10
10
10
10
10
10
10
10
10
10
10
10
10
10
10
10
10
10
10
10
10
10
10
10
10
10
10
10
10
10
10
10
10
10
10
10
10
10
10
10
10
10
10
10
10
10
10
10
10
10
10
10
10
10
10
10
10
10
10
10
10
10
10
10
10
10
10
10
10
10
10
10
10
10
10
10
10
10
10
10
10
10
10
10
10
10
10
10
10
10
10
10
10
10
10
10
10
10
10
10
10
10
10
10
10
10
10
10
10
10
10
10
10
10
10
10
10
10
10
10
10
10
10
10
10
10
10
10
10
10
10
10
10
10
10
10
10
10
10
10
10
10
10
10
10
10
10
10
10
10
10
10
10
10
10
10
10
10
10
10
10
10
10
10
10
10
10
10
10
10
10
10
10
10
10
10
10
10
10
10
10
10
10
10
10
10
10
10
10
10
10
10
10
10
10
10
10
10
10
10
10
10
10
10
10
10
10
10
10
10
10
10
10
10
10
10
10
10
10
10
10
10
10
10
10
10
10
10
10
10
10
10
10
10
10
10
10
10
10
10
10
10
10
10
10
10
10
10
10
10
10
10
10
10
10
10
10
10
10
10
10
10
10
10
10
10
10
10
10
10
10
10
10
10
10
10
10
10
10
10
10
10
10
10
10
10
10
10
10
10
10
10
10
10
10
10
10
10
10
10
10
10
10
10
10
10
10
10
10
10
10
10
10
10
10
10
10
10
10
10
10
10
10
10
10
10
10
10
10
10
10
10
10
10
10
10
10
10
10
10
10
10
10
10
10
10
10
10
10
10
10
10
10
10
10
10
10
10
10
10
10
10
10
10
10
10
10
10
10
10
10
10
10
10
10
10
10
10
10
10
10
10
10
10
10
10
10
10
10
10
10
10
10
10
10
10
10
10
10
10
10
10
10
10
10
10
10
10
10
10
10
10
10
10
10
10
10
10
10
10
10
10
10
10
10
10
10
10
10
10
10
10
10
10
10
10
10
10
10
10
10
10
10
10
10
10
10
10
10
10
10
10
10
10
10
10
10
10
10
10
10
10
10
10
10
10
10
10
10
10
10
10
10
10
10
10
10
10
10
10
10
10
10
10
10
10
10
10
10
10
10
10
10
10
10
10
10
10
10
10
10
10
10
10
10
10
10
10
10
10
10
10
10
10
10
10
10
10
10
10
10
10
10
10
10
10
10
10
10
10
10
10
10
10
10
10
10
10
10
10
10
10
10
10
10
10
10
10
10
10
10
10
10
10
10
10
10
10
10
10
10
10
10
10
10
10
10
10
10
10
10
10
10
10
10
10
10
10
10
10
10
10
10
10
10
10
10
10
10
10
10
10
10
10
10
10
10
10
10
10
10
10
10
10
10
10
10
10
10
10
10
10
10
10
10
10
10
10
10
10
10
10
10
10
10
10
10
10
10
10
10
10
10
10
10
10
10
10
10
10
10
10
10
10
10
10
10
10
10
10
10
10
10
10
10
10
10
10
10
10
10
10
10
10
10
10
10
10
10
10
10
10
10
10
10
10
10
10
10
10
10
10
10
10
10
10
10
10
10
10
10
10
10
10
10
10
10
10
10
10
10
10
10
10
10
10
10
10
10
10
10
10
10
10
10
10
10
10
10
10
10
10
10
10
10
10
10
10
10
10
10
10
10
10
10
10
10
10
10
10
10
10
10
10
10
10
10
10
10
10
10
10
10
10
10
10
10
10
10
10
10
10
10
10
10
10
10
10
10
10
10
10
10
10
10
10
10
10
10
10
10
10
10
10
10
10
10
10
10
10
10
10
10
10
10
10
10
10
10
10
10
10
10
10
10
10
10
10
10
10
10
10
10
10
10
10
10
10
10
10
10
10
10
10
10
10
10
10
10
10
10
10
10
10
10
10
10
10
10
10
10
10
10
10
10
10
10
10
10
10
10
10
10
10
10
10
10
10
10
10
10
10
10
10
10
10
10
10
10
10
10
10
10
10
10
10
10
10
10
10
10
10
10
10
10
10
10
10
10
10
10
10
10
10
10
10
10
10
10
10
10
10
10
10
10
10
10
10
10
10
10
10
10
10
10
10
10
10
10
10
10
10
10
10
10
10
10
10
10
10
10
10
10
10
10
10
10
10
10
10
10
10
10
10
10
10
10
10
10
10
10
10
10
10
10
10
10
10
10
10
10
10
10
10
10
10
10
10
10
10
10
10
10
10
10
10
10
10
10
10
10
10
10
10
10
10
10
10
10
10
10
10
10
10
10
10
10
10
10
10
10
10
10
10
10
10
10
10
10
10
10
10
10
10
10
10
10
10
10
10
10
10
10
10
10
10
10
10
10
10
10
10
10
10
10
10
10
10
10
10
10
10
10
10
10
10
10
10
10
10
10
10
10
10
10
10
10
10
10
10
10
10
10
10
10
10
10
10
10
10
10
10
10
10
10
10
10
10
10
10
10
10
10
10
10
10
10
10
10
10
10
10
10
10
10
10
10
10
10
10
10
10
10
10
10
10
10
10
10
10
10
10
10
10
10
10
10
10
10
10
10
10
10
10
10
10
10
10
10
10
10
10
10
10
10
10
10
10
10
10
10
10
10
10
10
10
10
10
10
10
10
10
10
10
10
10
10
10
10
10
10
10
10
10
10
10
10
10
10
10
10
10
10
10
10
10
10
10
10
10
10
10
10
10
10
10
10
10
10
10
10
10
10
10
10
10
10
10
10
10
10
10
10
10
10
10
10
10
10
10
10
10
10
10
10
10
10
10
10
10
10
10
10
10
10
10
10
10
10
10
10
10
10
10
10
10
10
10
10
10
10
10
10
10
10
10
10
10
10
10
10
10
10
10
10
10
10
10
10
10
10
10
10
10
10
10
10
10
10
10
10
10
10
10
10
10
10
10
10
10
10
10
10
10
10
10
10
10
10
10
10
10
10
10
10
10
10
10
10
10
10
10
10
10
10
10
10
10
10
10
10
10
10
10
10
10
10
10
10
10
10
10
10
10
10
10
10
10
10
10
10
10
10
10
10
10
10
10
10
10
10
10
10
10
10
10
10
10
10
10
10
10
10
10
10
10
10
10
10
10
10
10
10
10
10
10
10
10
10
10
10
10
10
10
10
10
10
10
10
10
10
10
10
10
10
10
10
10
10
10
10
10
10
10
10
10
10
10
10
10
10
10
10
10
10
10
10
10
10
10
10
10
10
10
10
10
10
10
10
10
10
10
10
10
10
10
10
10
10
10
10
10
10
10
10
10
10
10
10
10
10
10
10
10
10
10
10
10
10
10
10
10
10
10
10
10
10
10
10
10
10
10
10
10
10
10
10
10
10
10
10
10
10
10
10
10
10
10
10
10
10
10
10
10
10
10
10
10
10
10
10
10
10
10
10
10
10
10
10
10
10
10
10
10
10
10
10
10
10
10
10
10
10
10
10
10
10
10
10
10
10
10
10
10
10
10
10
10
10
10
10
10
10
10
10
10
10
10
10
10
10
10
10
10
10
10
10
10
10
10
10
10
10
10
10
10
10
10
10
10
10
10
10
10
10
10
10
10
10
10
10
10
10
10
10
10
10
10
10
10
10
10
10
10
10
10
10
10
10
10
10
10
10
10
10
10
10
10
10
10
10
10
10
10
10
10
10
10
10
10
10
10
10
10
10
10
10
10
10
10
10
10
10
10
10
10
10
10
10
10
10
10
10
10
10
10
10
10
10
10
10
10
10
10
10
10
10
10
10
10
10
10
10
10
10
10
10
10
10
10
10
10
10
10
10
10
10
10
10
10
10
10
10
10
10
10
10
10
10
10
10
10
10
10
10
10
10
10
10
10
10
10
10
10
10
10
10
10
10
10
10
10
10
10
10
10
10
10
10
10
10
10
10
10
10
10
10
10
10
10
10
10
10
10
10
10
10
10
10
10
10
10
10
10
10
10
10
10
10
10
10
10
10
10
10
10
10
10
10
10
10
10
10
10
10
10
10
10
10
10
10
10
10
10
10
10
10
10
10
10
10
10
10
10
10
10
10
10
10
10
10
10
10
10
10
10
10
10
10
10
10
10
10
10
10
10
10
10
10
10
10
10
10
10
10
10
10
10
10
10
10
10
10
10
10
10
10
10
10
10
10
10
10
10
10
10
10
10
10
10
10
10
10
10
10
10
10
10
10
10
10
10
10
10
10
10
10
10
10
10
10
10
10
10
10
10
10
10
10
10
10
10
10
10
10
10
10
10
10
10
10
10
10
10
10
10
10
10
10
10
10
10
10
10
10
10
10
10
10
10
10
10
10
10
10
10
10
10
10
10
10
10
10
10
10
10
10
10
10
10
10
10
10
10
10
10
10
10
10
10
10
10
10
10
10
10
10
10
10
10
10
10
10
10
10
10
10
10
10
10
10
10
10
10
10
10
10
10
10
10
10
10
10
10
10
10
10
10
10
10
10
10
10
10
10
10
10
10
10
10
10
10
10
10
10
10
10
10
10
10
10
10
10
10
10
10
10
10
10
10
10
10
10
10
10
10
10
10
10
10
10
10
10
10
10
10
10
10
10
10
10
10
10
10
10
10
10
10
10
10
10
10
10
10
10
10
10
10
10
10
10
10
10
10
10
10
10
10
10
10
10
10
10
10
10
10
10
10
10
10
10
10
10
10
10
10
10
10
10
10
10
10
10
10
10
10
10
10
10
10
10
10
10
10
10
10
10
10
10
10
10
10
10
10
10
10
10
10
10
10
10
10
10
10
10
10
10
10
10
10
10
10
10
10
10
10
10
10
10
10
10
10
10
10
10
10
10
10
10
10
10
10
10
10
10
10
10
10
10
10
10
10
10
10
10
10
10
10
10
10
10
10
10
10
10
10
10
10
10
10
10
10
10
10
10
10
10
10
10
10
10
10
10
10
10
10
10
10
10
10
10
10
10
10
10
10
10
10
10
10
10
10
10
10
10
10
10
10
10
10
10
10
10
10
10
10
10
10
10
10
10
10
10
10
10
10
10
10
10
10
10
10
10
10
10
10
10
10
10
10
10
10
10
10
10
10
10
10
10
10
10
10
10
10
10
10
10
10
10
10
10
10
10
10
10
10
10
10
10
10
10
10
10
10
10
10
10
10
10
10
10
10
10
10
10
10
10
10
10
10
10
10
10
10
10
10
10
10
10
10
10
10
10
10
10
10
10
10
10
10
10
10
10
10
10
10
10
10
10
10
10
10
10
10
10
10
10
10
10
10
10
10
10
10
10
10
10
10
10
10
10
10
10
10
10
10
10
10
10
10
10
10
10
10
10
10
10
10
10
10
10
10
10
10
10
10
10
10
10
10
10
10
10
10
10
10
10
10
10
10
10
10
10
10
10
10
10
10
10
10
10
10
10
10
10
10
10
10
10
10
10
10
10
10
10
10
10
10
10
10
10
10
10
10
10
10
10
10
10
10
10
10
10
10
10
10
10
10
10
10
10
10
10
10
10
10
10
10
10
10
10
10
10
10
10
10
10
10
10
10
10
10
10
10
10
10
10
10
10
10
10
10
10
10
10
10
10
10
10
10
10
10
10
10
10
10
10
10
10
10
10
10
10
10
10
10
10
10
10
10
10
10
10
10
10
10
10
10
10
10
10
10
10
10
10
10
10
10
10
10
10
10
10
10
10
10
10
10
10
10
10
10
10
10
10
10
10
10
10
10
10
10
10
10
10
10
10
10
10
10
10
10
10
10
10
10
10
10
10
10
10
10
10
10
10
10
10
10
10
10
10
10
10
10
10
10
10
10
10
10
10
10
10
10
10
10
10
10
10
10
10
10
10
10
10
10
10
10
10
10
10
10
10
10
10
10
10
10
10
10
10
10
10
10
10
10
10
10
10
10
10
10
10
10
10
10
10
10
10
10
10
10
10
10
10
10
10
10
10
10
10
10
10
10
10
10
10
10
10
10
10
10
10
10
10
10
10
10
10
10
10
10
10
10
10
10
10
10
10
10
10
10
10
10
10
10
10
10
10
10
10
10
10
10
10
10
10
10
10
10
10
10
10
10
10
10
10
10
10
10
10
10
10
10
10
10
10
10
10
10
10
10
10
10
10
10
10
10
10
10
10
10
10
10
10
10
10
10
10
10
10
10
10
10
10
10
10
10
10
10
10
10
10
10
10
10
10
10
10
10
10
10
10
10
10
10
10
10
10
10
10
10
10
10
10
10
10
10
10
10
10
10
10
10
10
10
10
10
10
10
10
10
10
10
10
10
10
10
10
10
10
10
10
10
10
10
10
10
10
10
10
10
10
10
10
10
10
10
10
10
10
10
10
10
10
10
10
10
10
10
10
10
10
10
10
10
10
10
10
10
10
10
10
10
10
10
10
10
10
10
10
10
10
10
10
10
10
10
10
10
10
10
10
10
10
10
10
10
10
10
10
10
10
10
10
10
10
10
10
10
10
10
10
10
10
10
10
10
10
10
10
10
10
10
10
10
10
10
10
10
10
10
10
10
10
10
10
10
10
10
10
10
10
10
10
10
10
10
10
10
10
10
10
10
10
10
10
10
10
10
10
10
10
10
10
10
10
10
10
10
10
10
10
10
10
10
10
10
10
10
10
10
10
10
10
10
10
10
10
10
10
10
10
10
10
10
10
10
10
10
10
10
10
10
10
10
10
10
10
10
10
10
10
10
10
10
10
10
10
10
10
10
10
10
10
10
10
10
10
10
10
10
10
10
10
10
10
10
10
10
10
10
10
10
10
10
10
10
10
10
10
10
10
10
10
10
10
10
10
10
10
10
10
10
10
10
10
10
10
10
10
10
10
10
10
10
10
10
10
10
10
10
10
10
10
10
10
10
10
10
10
10
10
10
10
10
10
10
10
10
10
10
10
10
10
10
10
10
10
10
10
10
10
10
10
10
10
10
10
10
10
10
10
10
10
10
10
10
10
10
10
10
10
10
10
10
10
10
10
10
10
10
10
10
10
10
10
10
10
10
10
10
10
10
10
10
10
10
10
10
10
10
10
10
10
10
10
10
10
10
10
10
10
10
10
10
10
10
10
10
10
10
10
10
10
10
10
10
10
10
10
10
10
10
10
10
10
10
10
10
10
10
10
10
10
10
10
10
10
10
10
10
10
10
10
10
10
10
10
10
10
10
10
10
10
10
10
10
10
10
10
10
10
10
10
10
10
10
10
10
10
10
10
10
10
10
10
10
10
10
10
10
10
10
10
10
10
10
10
10
10
10
10
10
10
10
10
10
10
10
10
10
10
10
10
10
10
10
10
10
10
10
10
10
10
10
10
10
10
10
10
10
10
10
10
10
10
10
10
10
10
10
10
10
10
10
10
10
10
10
10
10
10
10
10
10
10
10
10
10
10
10
10
10
10
10
10
10
10
10
10
10
10
10
10
10
10
10
10
10
10
10
10
10
10
10
10
10
10
10
10
10
10
10
10
10
10
10
10
10
10
10
10
10
10
10
10
10
10
10
10
10
10
10
10
10
10
10
10
10
10
10
10
10
10
10
10
10
10
10
10
10
10
10
10
10
10
10
10
10
10
10
10
10
10
10
10
10
10
10
10
10
10
10
10
10
10
10
10
10
10
10
10
10
10
10
10
10
10
10
10
10
10
10
10
10
10
10
10
10
10
10
10
10
10
10
10
10
10
10
10
10
10
10
10
10
10
10
10
10
10
10
10
10
10
10
10
10
10
10
10
10
10
10
10
10
10
10
10
10
10
10
10
10
10
10
10
10
10
10
10
10
10
10
10
10
10
10
10
10
10
10
10
10
10
10
10
10
10
10
10
10
10
10
10
10
10
10
10
10
10
10
10
10
10
10
10
10
10
10
10
10
10
10
10
10
10
10
10
10
10
10
10
10
10
10
10
10
10
10
10
10
10
10
10
10
10
10
10
10
10
10
10
10
10
10
10
10
10
10
10
10
10
10
10
10
10
10
10
10
10
10
10
10
10
10
10
10
10
10
10
10
10
10
10
10
10
10
10
10
10
10
10
10
10
10
10
10
10
10
10
10
10
10
10
10
10
10
10
10
10
10
10
10
10
10
10
10
10
10
10
10
10
10
10
10
10
10
10
10
10
10
10
10
10
10
10
10
10
10
10
10
10
10
10
10
10
10
10
10
10
10
10
10
10
10
10
10
10
10
10
10
10
10
10
10
10
10
10
10
10
10
10
10
10
10
10
10
10
10
10
10
10
10
10
10
10
10
10
10
10
10
10
10
10
10
10
10
10
10
10
10
10
10
10
10
10
10
10
10
10
10
10
10
10
10
10
10
10
10
10
10
10
10
10
10
10
10
10
10
10
10
10
10
10
10
10
10
10
10
10
10
10
10
10
10
10
10
10
10
10
10
10
10
10
10
10
10
10
10
10
10
10
10
10
10
10
10
10
10
10
10
10
10
10
10
10
10
10
10
10
10
10
10
10
10
10
10
10
10
10
10
10
10
10
10
10
10
10
10
10
10
10
10
10
10
10
10
10
10
10
10
10
10
10
10
10
10
10
10
10
10
10
10
10
10
10
10
10
10
10
10
10
10
10
10
10
10
10
10
10
10
10
10
10
10
10
10
10
10
10
10
10
10
10
10
10
10
10
10
10
10
10
10
10
10
10
10
10
10
10
10
10
10
10
10
10
10
10
10
10
10
10
10
10
10
10
10
10
10
10
10
10
10
10
10
10
10
10
10
10
10
10
10
10
10
10
10
10
10
10
10
10
10
10
10
10
10
10
10
10
10
10
10
10
10
10
10
10
10
10
10
10
10
10
10
10
10
10
10
10
10
10
10
10
10
10
10
10
10
10
10
10
10
10
10
10
10
10
10
10
10
10
10
10
10
10
10
10
10
10
10
10
10
10
10
10
10
10
10
10
10
10
10
10
10
10
10
10
10
10
10
10
10
10
10
10
10
10
10
10
10
10
10
10
10
10
10
10
10
10
10
10
10
10
10
10
10
10
10
10
10
10
10
10
10
10
10
10
10
10
10
10
10
10
10
10
10
10
10
10
10
10
10
10
10
10
10
10
10
10
10
10
10
10
10
10
10
10
10
10
10
10
10
10
10
10
10
10
10
10
10
10
10
10
10
10
10
10
10
10
10
10
10
10
10
10
10
10
10
10
10
10
10
10
10
10
10
10
10
10
10
10
10
10
10
10
10
10
10
10
10
10
10
10
10
10
10
10
10
10
10
10
10
10
10
10
10
10
10
10
10
10
10
10
10
10
10
10
10
10
10
10
10
10
10
10
10
10
10
10
10
10
10
10
10
10
10
10
10
10
10
10
10
10
10
10
10
10
10
10
10
10
10
10
10
10
10
10
10
10
10
10
10
10
10
10
10
10
10
10
10
10
10
10
10
10
10
10
10
10
10
10
10
10
10
10
10
10
10
10
10
10
10
10
10
10
10
10
10
10
10
10
10
10
10
10
10
10
10
10
10
10
10
10
10
10
10
10
10
10
10
10
10
10
10
10
10
10
10
10
10
10
10
10
10
10
10
10
10
10
10
10
10
10
10
10
10
10
10
10
10
10
10
10
10
10
10
10
10
10
10
10
10
10
10
10
10
10
10
10
10
10
10
10
10
10
10
10
10
10
10
10
10
10
10
10
10
10
10
10
10
10
10
10
10
10
10
10
10
10
10
10
10
10
10
10
10
10
10
10
10
10
10
10
10
10
10
10
10
10
10
10
10
10
10
10
10
10
10
10
10
10
10
10
10
10
10
10
10
10
10
10
10
10
10
10
10
10
10
10
10
10
10
10
10
10
10
10
10
10
10
10
10
10
10
10
10
10
10
10
10
10
10
10
10
10
10
10
10
10
10
10
10
10
10
10
10
10
10
10
10
10
10
10
10
10
10
10
10
10
10
10
10
10
10
10
10
10
10
10
10
10
10
10
10
10
10
10
10
10
10
10
10
10
10
10
10
10
10
10
10
10
10
10
10
10
10
10
10
10
10
10
10
10
10
10
10
10
10
10
10
10
10
10
10
10
10
10
10
10
10
10
10
10
10
10
10
10
10
10
10
10
10
10
10
10
10
10
10
10
10
10
10
10
10
10
10
10
10
10
10
10
10
10
10
10
10
10
10
10
10
10
10
10
10
10
10
10
10
10
10
10
10
10
10
10
10
10
10
10
10
10
10
10
10
10
10
10
10
10
10
10
10
10
10
10
10
10
10
10
10
10
10
10
10
10
10
10
10
10
10
10
10
10
10
10
10
10
10
10
10
10
10
10
10
10
10
10
10
10
10
10
10
10
10
10
10
10
10
10
10
10
10
10
10
10
10
10
10
10
10
10
10
10
10
10
10
10
10
10
10
10
10
10
10
10
10
10
10
10
10
10
10
10
10
10
10
10
10
10
10
10
10
10
10
10
10
10
10
10
10
10
10
10
10
10
10
10
10
10
10
10
10
10
10
10
10
10
10
10
10
10
10
10
10
10
10
10
10
10
10
10
10
10
10
10
10
10
10
10
10
10
10
10
10
10
10
10
10
10
10
10
10
10
10
10
10
10
10
10
10
10
10
10
10
10
10
10
10
10
10
10
10
10
10
10
10
10
10
10
10
10
10
10
10
10
10
10
10
10
10
10
10
10
10
10
10
10
10
10
10
10
10
10
10
10
10
10
10
10
10
10
10
10
10
10
10
10
10
10
10
10
10
10
10
10
10
10
10
10
10
10
10
10
10
10
10
10
10
10
10
10
10
10
10
10
10
10
10
10
10
10
10
10
10
10
10
10
10
10
10
10
10
10
10
10
10
10
10
10
10
10
10
10
10
10
10
10
10
10
10
10
10
10
10
10
10
10
10
10
10
10
10
10
10
10
10
10
10
10
10
10
10
10
10
10
10
10
10
10
10
10
10
10
10
10
10
10
10
10
10
10
10
10
10
10
10
10
10
10
10
10
10
10
10
10
10
10
10
10
10
10
10
10
10
10
10
10
10
10
10
10
10
10
10
10
10
10
10
10
10
10
10
10
10
10
10
10
10
10
10
10
10
10
10
10
10
10
10
10
10
10
10
10
10
10
10
10
10
10
10
10
10
10
10
10
10
10
10
10
10
10
10
10
10
10
10
10
10
10
10
10
10
10
10
10
10
10
10
10
10
10
10
10
10
10
10
10
10
10
10
10
10
10
10
10
10
10
10
10
10
10
10
10
10
10
10
10
10
10
10
10
10
10
10
10
10
10
10
10
10
10
10
10
10
10
10
10
10
10
10
10
10
10
10
10
10
10
10
10
10
10
10
10
10
10
10
10
10
10
10
10
10
10
10
10
10
10
10
10
10
10
10
10
10
10
10
10
10
10
10
10
10
10
10
10
10
10
10
10
10
10
10
10
10
10
10
10
10
10
10
10
10
10
10
10
10
10
10
10
10
10
10
10
10
10
10
10
10
10
10
10
10
10
10
10
10
10
10
10
10
10
10
10
10
10
10
10
10
10
10
10
10
10
10
10
10
10
10
10
10
10
10
10
10
10
10
10
10
10
10
10
10
10
10
10
10
10
10
10
10
10
10
10
10
10
10
10
10
10
10
10
10
10
10
10
10
10
10
10
10
10
10
10
10
10
10
10
10
10
10
10
10
10
10
10
10
10
10
10
10
10
10
10
10
10
10
10
10
10
10
10
10
10
10
10
10
10
10
10
10
10
10
10
10
10
10
10
10
10
10
10
10
10
10
10
10
10
10
10
10
10
10
10
10
10
10
10
10
10
10
10
10
10
10
10
10
10
10
10
10
10
10
10
10
10
10
10
10
10
10
10
10
10
10
10
10
10
10
10
10
10
10
10
10
10
10
10
10
10
10
10
10
10
10
10
10
10
10
10
10
10
10
10
10
10
10
10
10
10
10
10
10
10
10
10
10
10
10
10
10
10
10
10
10
10
10
10
10
10
10
10
10
10
10
10
10
10
10
10
10
10
10
10
10
10
10
10
10
10
10
10
10
10
10
10
10
10
10
10
10
10
10
10
10
10
10
10
10
10
10
10
10
10
10
10
10
10
10
10
10
10
10
10
10
10
10
10
10
10
10
10
10
10
10
10
10
10
10
10
10
10
10
10
10
10
10
10
10
10
10
10
10
10
10
10
10
10
10
10
10
10
10
10
10
10
10
10
10
10
10
10
10
10
10
10
10
10
10
10
10
10
10
10
10
10
10
10
10
10
10
10
10
10
10
10
10
10
10
10
10
10
10
10
10
10
10
10
10
10
10
10
10
10
10
10
10
10
10
10
10
10
10
10
10
10
10
10
10
10
10
10
10
10
10
10
10
10
10
10
10
10
10
10
10
10
10
10
10
10
10
10
10
10
10
10
10
10
10
10
10
10
10
10
10
10
10
10
10
10
10
10
10
10
10
10
10
10
10
10
10
10
10
10
10
10
10
10
10
10
10
10
10
10
10
10
10
10
10
10
10
10
10
10
10
10
10
10
10
10
10
10
10
10
10
10
10
10
10
10
10
10
10
10
10
10
10
10
10
10
10
10
10
10
10
10
10
10
10
10
10
10
10
10
10
10
10
10
10
10
10
10
10
10
10
10
10
10
10
10
10
10
10
10
10
10
10
10
10
10
10
10
10
10
10
10
10
10
10
10
10
10
10
10
10
10
10
10
10
10
10
10
10
10
10
10
10
10
10
10
10
10
10
10
10
10
10
10
10
10
10
10
10
10
10
10
10
10
10
10
10
10
10
10
10
10
10
10
10
10
10
10
10
10
10
10
10
10
10
10
10
10
10
10
10
10
10
10
10
10
10
10
10
10
10
10
10
10
10
10
10
10
10
10
10
10
10
10
10
10
10
10
10
10
10
10
10
10
10
10
10
10
10
10
10
10
10
10
10
10
10
10
10
10
10
10
10
10
10
10
10
10
10
10
10
10
10
10
10
10
10
10
10
10
10
10
10
10
10
10
10
10
10
10
10
10
10
10
10
10
10
10
10
10
10
10
10
10
10
10
10
10
10
10
10
10
10
10
10
10
10
10
10
10
10
10
10
10
10
10
10
10
10
10
10
10
10
10
10
10
10
10
10
10
10
10
10
10
10
10
10
10
10
10
10
10
10
10
10
10
10
10
10
10
10
10
10
10
10
10
10
10
10
10
10
10
10
10
10
10
10
10
10
10
10
10
10
10
10
10
10
10
10
10
10
10
10
10
10
10
10
10
10
10
10
10
10
10
10
10
10
10
10
10
10
10
10
10
10
10
10
10
10
10
10
10
10
10
10
10
10
10
10
10
10
10
10
10
10
10
10
10
10
10
10
10
10
10
10
10
10
10
10
10
10
10
10
10
10
10
10
10
10
10
10
10
10
10
10
10
10
10
10
10
10
10
10
10
10
10
10
10
10
10
10
10
10
10
10
10
10
10
10
10
10
10
10
10
10
10
10
10
10
10
10
10
10
10
10
10
10
10
10
10
10
10
10
10
10
10
10
10
10
10
10
10
10
10
10
10
10
10
10
10
10
10
10
10
10
10
10
10
10
10
10
10
10
10
10
10
10
10
10
10
10
10
10
10
10
10
10
10
10
10
10
10
10
10
10
10
10
10
10
10
10
10
10
10
10
10
10
10
10
10
10
10
10
10
10
10
10
10
10
10
10
10
10
10
10
10
10
10
10
10
10
10
10
10
10
10
10
10
10
10
10
10
10
10
10
10
10
10
10
10
10
10
10
10
10
10
10
10
10
10
10
10
10
10
10
10
10
10
10
10
10
10
10
10
10
10
10
10
10
10
10
10
10
10
10
10
10
10
10
10
10
10
10
10
10
10
10
10
10
10
10
10
10
10
10
10
10
10
10
10
10
10
10
10
10
10
10
10
10
10
10
10
10
10
10
10
10
10
10
10
10
10
10
10
10
10
10
10
10
10
10
10
10
10
10
10
10
10
10
10
10
10
10
10
10
10
10
10
10
10
10
10
10
10
10
10
10
10
10
10
10
10
10
10
10
10
10
10
10
10
10
10
10
10
10
10
10
10
10
10
10
10
10
10
10
10
10
10
10
10
10
10
10
10
10
10
10
10
10
10
10
10
10
10
10
10
10
10
10
10
10
10
10
10
10
10
10
10
10
10
10
10
10
10
10
10
10
10
10
10
10
10
10
10
10
10
10
10
10
10
10
10
10
10
10
10
10
10
10
10
10
10
10
10
10
10
10
10
10
10
10
10
10
10
10
10
10
10
10
10
10
10
10
10
10
10
10
10
10
10
10
10
10
10
10
10
10
10
10
10
10
10
10
10
10
10
10
10
10
10
10
10
10
10
10
10
10
10
10
10
10
10
10
10
10
10
10
10
10
10
10
10
10
10
10
10
10
10
10
10
10
10
10
10
10
10
10
10
10
10
10
10
10
10
10
10
10
10
10
10
10
10
10
10
10
10
10
10
10
10
10
10
10
10
10
10
10
10
10
10
10
10
10
10
10
10
10
10
10
10
10
10
10
10
10
10
10
10
10
10
10
10
10
10
10
10
10
10
10
10
10
10
10
10
10
10
10
10
10
10
10
10
10
10
10
10
10
10
10
10
10
10
10
10
10
10
10
10
10
10
10
10
10
10
10
10
10
10
10
10
10
10
10
10
10
10
10
10
10
10
10
10
10
10
10
10
10
10
10
10
10
10
10
10
10
10
10
10
10
10
10
10
10
10
10
10
10
10
10
10
10
10
10
10
10
10
10
10
10
10
10
10
10
10
10
10
10
10
10
10
10
10
10
10
10
10
10
10
10
10
10
10
10
10
10
10
10
10
10
10
10
10
10
10
10
10
10
10
10
10
10
10
10
10
10
10
10
10
10
10
10
10
10
10
10
10
10
10
10
10
10
10
10
10
10
10
10
10
10
10
10
10
10
10
10
10
10
10
10
10
10
10
10
10
10
10
10
10
10
10
10
10
10
10
10
10
10
10
10
10
10
10
10
10
10
10
10
10
10
10
10
10
10
10
10
10
10
10
10
10
10
10
10
10
10
10
10
10
10
10
10
10
10
10
10
10
10
10
10
10
10
10
10
10
10
10
10
10
10
10
10
10
10
10
10
10
10
10
10
10
10
10
10
10
10
10
10
10
10
10
10
10
10
10
10
10
10
10
10
10
10
10
10
10
10
10
10
10
10
10
10
10
10
10
10
10
10
10
10
10
10
10
10
10
10
10
10
10
10
10
10
10
10
10
10
10
10
10
10
10
10
10
10
10
10
10
10
10
10
10
10
10
10
10
10
10
10
10
10
10
10
10
10
10
10
10
10
10
10
10
10
10
10
10
10
10
10
10
10
10
10
10
10
10
10
10
10
10
10
10
10
10
10
10
10
10
10
10
10
10
10
10
10
10
10
10
10
10
10
10
10
10
10
10
10
10
10
10
10
10
10
10
10
10
10
10
10
10
10
10
10
10
10
10
10
10
10
10
10
10
10
10
10
10
10
10
10
10
10
10
10
10
10
10
10
10
10
10
10
10
10
10
10
10
10
10
10
10
10
10
10
10
10
10
10
10
10
10
10
10
10
10
10
10
10
10
10
10
10
10
10
10
10
10
10
10
10
10
10
10
10
10
10
10
10
10
10
10
10
10
10
10
10
10
10
10
10
10
10
10
10
10
10
10
10
10
10
10
10
10
10
10
10
10
10
10
10
10
10
10
10
10
10
10
10
10
10
10
10
10
10
10
10
10
10
10
10
10
10
10
10
10
10
10
10
10
10
10
10
10
10
10
10
10
10
10
10
10
10
10
10
10
10
10
10
10
10
10
10
10
10
10
10
10
10
10
10
10
10
10
10
10
10
10
10
10
10
10
10
10
10
10
10
10
10
10
10
10
10
10
10
10
10
10
10
10
10
10
10
10
10
10
10
10
10
10
10
10
10
10
10
10
10
10
10
10
10
10
10
10
10
10
10
10
10
10
10
10
10
10
10
10
10
10
10
10
10
10
10
10
10
10
10
10
10
10
10
10
10
10
10
10
10
10
10
10
10
10
10
10
10
10
10
10
10
10
10
10
10
10
10
10
10
10
10
10
10
10
10
10
10
10
10
10
10
10
10
10
10
10
10
10
10
10
10
10
10
10
10
10
10
10
10
10
10
10
10
10
10
10
10
10
10
10
10
10
10
10
10
10
10
10
10
10
10
10
10
10
10
10
10
10
10
10
10
10
10
10
10
10
10
10
10
10
10
10
10
10
10
10
10
10
10
10
10
10
10
10
10
10
10
10
10
10
10
10
10
10
10
10
10
10
10
10
10
10
10
10
10
10
10
10
10
10
10
10
10
10
10
10
10
10
10
10
10
10
10
10
10
10
10
10
10
10
10
10
10
10
10
10
10
10
10
10
10
10
10
10
10
10
CELL_DATA 17893
SCALARS total_strain double 6
LOOKUP_TABLE default
1.822183e-08 3.992762e-09 -3.840730e-09 -9.590101e-09 4.805918e-09 -2.300531e-09
8.339448e-09 6.627856e-09 -5.464927e-09 -3.549593e-09 4.002367e-09 -9.942744e-10
-2.718361e-09 1.328364e-08 -6.456487e-09 -2.114720e-09 4.655741e-09 -5.172991e-09
1.935458e-09 1.169089e-08 -7.074427e-09 -1.002257e-08 2.081369e-09 -4.938246e-09
-1.468386e-09 1.334148e-08 -5.888865e-09 -3.597804e-09 6.074174e-09 -6.068757e-09
-7.064996e-09 -4.741952e-09 6.175567e-10 3.285540e-09 -1.879955e-09 6.807512e-10
-6.309187e-09 -6.026744e-09 2.593356e-09 1.653557e-09 -8.892991e-10 -3.637899e-10
-6.110447e-09 -8.130030e-09 1.802552e-09 2.595022e-09 -2.210238e-09 7.237543e-11
-8.776837e-09 -1.964393e-09 1.423389e-09 2.630408e-09 6.522904e-10 -2.172716e-10
-8.400832e-09 -1.127410e-09 1.247566e-09 1.083667e-09 -9.241059e-10 -9.813928e-11
-6.254194e-09 -5.690419e-09 2.171396e-09 1.444594e-09 -5.698557e-10 -3.292709e-10
-8.569249e-09 -1.740657e-09 1.638916e-09 1.426603e-09 -1.054243e-09 -1.242877e-10
3.052665e-08 6.761168e-10 -6.100016e-09 -7.433028e-09 1.849190e-09 -1.411461e-09
1.617077e-08 8.235246e-09 -6.718127e-09 -1.192396e-08 -1.466062e-10 -9.185831e-11
1.863192e-08 3.772068e-09 -5.186772e-09 -9.432014e-09 5.416632e-09 -2.313722e-09
1.744376e-08 -3.084808e-10 -4.688738e-09 3.641847e-12 3.021298e-09 7.322498e-10
1.837205e-08 5.027169e-09 -5.410967e-09 -3.519592e-09 2.102920e-09 2.446499e-09
1.729508e-08 1.314363e-09 -5.508460e-09 3.651441e-10 3.300651e-09 2.642731e-10
-1.394261e-08 1.442704e-08 -6.741363e-09 5.312218e-09 7.544720e-09 -4.592558e-09
-1.853875e-08 1.708692e-08 -6.014318e-09 6.079076e-09 6.148211e-09 -4.822911e-09
-1.122066e-08 1.254583e-08 -4.254254e-09 1.821321e-09 3.382022e-09 -7.430474e-10
-1.654534e-08 1.039277e-08 -1.219649e-09 4.654132e-09 5.314412e-09 -1.809434e-09
-1.709638e-08 1.423020e-08 -4.463051e-09 6.109990e-09 6.931042e-09 -3.235289e-09
-1.810966e-08 1.328713e-08 -4.593814e-09 9.536615e-09 6.811497e-09 -3.588371e-09
9.707223e-09 -4.595252e-09 -1.198353e-09 -2.822101e-09 -3.789430e-10 -7.683112e-10
-7.522427e-09 4.742430e-09 1.098244e-09 -4.809886e-10 -2.048805e-12 -1.239695e-10
-7.718214e-09 4.624868e-09 1.008446e-09 -8.013297e-10 -1.165203e-10 -3.147751e-10
-7.267737e-09 4.769420e-09 8.650691e-10 -9.805712e-10 -1.621761e-10 -3.378450e-10
-7.832488e-09 4.924061e-09 9.732970e-10 -7.125972e-10 -9.436452e-11 -4.195212e-10
-7.576690e-09 4.654211e-09 1.046811e-09 -1.027736e-09 -1.552807e-10 1.278194e-10
-7.844189e-09 4.615502e-09 1.065665e-09 -1.259703e-09 -1.815515e-10 -2.325495e-10
-3.954813e-09 2.630011e-09 5.341318e-10 6.719638e-10 1.331530e-10 -4.480214e-10
-4.889595e-09 2.791141e-09 4.952949e-10 6.680596e-10 1.169851e-10 -8.450662e-11
-4.001258e-09 2.382826e-09 3.172942e-10 4.056179e-10 -1.041473e-12 -1.631117e-11
3.767788e-08 -1.366043e-08 -6.860176e-08 -1.337796e-08 2.947883e-08 7.059250e-09
-5.087042e-11 -2.517072e-08 7.140089e-09 3.186858e-09 2.961166e-11 -2.854530e-10
4.040697e-10 -2.400602e-08 7.251044e-09 1.193437e-09 -6.029026e-10 3.555307e-10
-2.141221e-10 -2.616858e-08 7.521383e-09 1.932647e-09 -1.974945e-10 2.113221e-10
1.692822e-09 -2.645910e-08 7.507054e-09 1.288703e-09 -2.681871e-10 1.524936e-10
1.023076e-08 -5.596743e-09 -1.372133e-09 -2.837888e-10 -5.883402e-11 5.205747e-11
9.801884e-09 -5.644824e-09 -1.383039e-09 1.693183e-11 -4.177126e-11 7.316103e-11
1.661884e-08 -3.625726e-08 -8.749054e-09 -9.119391e-09 3.102008e-09 1.167219e-10
1.008163e-08 -5.576576e-09 -1.345618e-09 2.863826e-10 3.710371e-11 5.496936e-12
9.837231e-09 -5.599979e-09 -1.331665e-09 3.871935e-11 2.688202e-11 4.911194e-11
9.907360e-09 -5.719827e-09 -1.362343e-09 -5.668122e-11 -2.905628e-11 3.743139e-11
-1.692023e-08 8.269431e-09 -7.398651e-10 -1.847500e-09 4.107799e-10 -2.565670e-10
6.600551e-09 -3.740566e-09 -1.035332e-09 -1.386603e-09 -1.512439e-10 -6.975331e-11
6.341105e-09 -3.100411e-09 -8.263845e-10 -1.614054e-09 -2.390038e-10 -1.895606e-10
5.678761e-09 -3.156646e-09 -9.073304e-10 -1.948543e-09 -3.597955e-10 5.570852e-10
6.681622e-09 -3.151141e-09 -9.844949e-10 -1.696151e-09 -5.096217e-10 1.525775e-10
6.453043e-09 -3.809637e-09 -1.142146e-09 -1.481537e-09 -3.238571e-10 -1.535659e-10
8.976485e-09 -2.993173e-08 5.748836e-09 -3.756636e-09 -1.246179e-09 -4.708486e-10
8.912050e-09 -3.098388e-08 5.805947e-09 -3.383451e-09 2.578561e-10 -6.986746e-10
6.093177e-09 -2.663987e-08 5.795716e-09 -4.605086e-09 -2.407287e-10 -7.796216e-10
8.906986e-09 -3.081146e-08 6.215446e-09 -3.334675e-09 6.192386e-10 -5.154261e-10
5.951710e-09 -2.402093e-08 5.007596e-09 -4.079399e-09 9.592397e-10 -6.645495e-10
6.254679e-09 -2.845390e-08 5.620985e-09 -4.909986e-09 -1.151687e-10 -2.328375e-10
6.571750e-09 -2.701041e-08 5.938565e-09 -2.533500e-09 -4.623855e-11 -1.254440e-09
1.890435e-08 -3.063887e-08 -1.208941e-08 -1.042618e-08 -6.404862e-09 -4.537169e-10
1.560510e-08 -3.515647e-08 -6.152366e-09 -5.151042e-09 -2.826432e-09 -6.162446e-10
1.185949e-08 -3.019351e-08 -8.325594e-09 -6.832811e-09 2.432337e-10 -3.774114e-10
1.557401e-08 -3.675964e-08 -4.131413e-09 -9.079905e-09 -5.210513e-09 -2.788970e-09
1.267648e-08 -3.170054e-08 -4.971197e-09 -5.609893e-09 -4.570509e-09 -1.456039e-10
1.201937e-08 -3.195503e-08 -6.659772e-09 -7.178968e-09 -3.296902e-09 -1.875071e-09
-6.049828e-09 -6.581010e-09 1.481882e-09 1.240743e-09 -2.887475e-10 -1.707232e-10
-5.898535e-09 -6.406969e-09 1.531982e-09 1.492763e-09 -6.219347e-10 -2.988348e-10
-6.592129e-09 -6.122760e-09 2.027956e-09 -3.837636e-10 4.571063e-10 4.075051e-11
5.529799e-08 -2.172662e-08 -2.063816e-11 -5.196306e-10 -1.762702e-10 7.235934e-09
-7.807335e-09 -6.714593e-09 2.644106e-09 -7.687994e-09 -3.484359e-09 -1.279364e-09
-1.013707e-08 -2.082952e-09 8.485417e-10 -6.834282e-09 -2.177657e-09 -5.967123e-10
-1.324855e-08 -4.526830e-09 1.044093e-09 -4.022191e-09 -2.117775e-09 -1.365547e-10
-1.237101e-08 3.216014e-10 2.172387e-09 -4.742104e-09 -1.975440e-09 -1.280214e-09
-1.250301e-08 -1.979009e-09 1.189363e-09 -5.906059e-09 -2.499630e-09 -8.271111e-10
2.331632e-08 8.578823e-08 -1.438710e-07 -3.755175e-10 3.144594e-08 -1.770811e-09
-1.134027e-08 -7.143530e-09 2.606306e-09 -5.614551e-09 -3.626753e-09 -3.431426e-10
-9.063044e-09 -1.881755e-09 2.216897e-09 2.115446e-10 -1.237423e-09 -2.397120e-10
-1.878828e-08 1.388205e-08 -4.538420e-09 9.605737e-09 6.596194e-09 -3.489027e-09
-1.556535e-08 1.424813e-08 -4.365998e-09 8.041973e-09 6.848721e-09 -4.489402e-09
-1.567914e-08 4.446585e-09 -3.240284e-09 1.323875e-08 2.075657e-09 -1.369249e-09
-1.739294e-08 1.451447e-08 -5.355860e-09 9.444153e-09 3.916504e-09 -2.421698e-09
-1.972971e-08 1.167348e-08 -6.180645e-09 1.212742e-08 5.100559e-09 -3.385423e-09
-1.631835e-08 1.137935e-08 -6.231424e-09 1.375150e-08 4.976395e-09 -2.842096e-09
-1.500399e-08 1.222459e-08 -5.956224e-09 1.195669e-08 5.726509e-09 -3.447502e-09
1.615202e-08 -4.343337e-08 -2.417026e-09 -1.109882e-08 -1.409664e-08 -3.165077e-09
1.340652e-08 -4.531904e-08 1.194805e-09 -1.337620e-08 -1.350562e-08 -2.314180e-09
1.156840e-08 -3.247149e-08 3.484568e-11 -1.770284e-08 -1.316939e-08 -4.389877e-09
6.455650e-09 -3.146903e-08 7.398029e-10 -1.360374e-08 -1.227669e-08 -2.142702e-09
1.435762e-08 -3.335269e-08 -1.896751e-09 -1.785720e-08 -1.173090e-08 -5.221087e-09
1.120058e-08 -4.419359e-08 -2.344791e-09 -1.978569e-08 -2.008322e-08 -5.680528e-09
1.456356e-08 -4.078146e-08 5.599134e-09 1.242653e-10 2.126843e-09 -1.236675e-10
1.052335e-08 -6.204925e-09 -1.484068e-09 4.024052e-10 1.060450e-10 1.411893e-11
1.137089e-08 -6.204925e-09 -1.554012e-09 3.955800e-10 9.810734e-11 4.768681e-10
1.033485e-08 -6.023107e-09 -1.321765e-09 -5.333021e-10 -9.107862e-11 1.615602e-10
1.068115e-08 -6.056805e-09 -1.318496e-09 -4.733877e-10 -7.900994e-11 1.987341e-10
1.088083e-08 -5.898718e-09 -1.339735e-09 -1.172030e-09 -1.398673e-10 1.085319e-10
1.072064e-08 -6.247782e-09 -1.484627e-09 -4.889251e-10 9.931622e-11 2.092919e-10
1.032079e-08 -6.075108e-09 -1.394957e-09 -1.113482e-09 -1.401809e-10 4.046905e-10
-6.287945e-09 2.438438e-09 1.350405e-09 1.256385e-09 3.194982e-10 3.062484e-10
-9.086626e-09 1.305581e-08 -5.033524e-09 -3.959372e-09 -9.269138e-09 -6.737211e-09
-1.426503e-08 1.664369e-08 -4.344027e-09 -5.344757e-09 -7.655231e-09 -7.816881e-09
-1.443038e-08 1.949719e-08 -8.308681e-09 -4.577419e-09 -9.608765e-09 -9.746051e-09
-5.435915e-09 4.271268e-09 5.638210e-10 -9.385106e-10 -2.684237e-10 -1.370661e-10
-5.475986e-09 4.272032e-09 5.896925e-10 -9.444703e-10 -1.603420e-10 1.692313e-10
-5.434613e-09 4.113717e-09 5.090330e-10 -9.371632e-10 -1.665499e-10 -1.417531e-10
-5.462942e-09 4.085329e-09 4.391825e-10 -1.457914e-09 -3.485623e-10 -1.119166e-10
-4.394428e-09 3.638725e-09 3.030425e-10 -1.271257e-09 -1.169209e-10 1.633552e-10
-5.449088e-09 3.787925e-09 5.091934e-10 -1.353896e-09 -1.799657e-10 -1.781362e-10
-4.638624e-09 3.662430e-09 2.164799e-10 -1.195948e-09 -1.857920e-10 3.168232e-10
-5.450211e-09 3.638444e-09 2.534231e-10 -1.339300e-09 -3.769045e-10 -1.599672e-10
-1.573285e-08 1.084790e-08 -3.845959e-09 5.407937e-09 4.165045e-09 -1.683172e-09
3.192237e-08 6.590572e-08 -1.520671e-07 7.187082e-09 7.282721e-08 -8.303315e-09
1.333739e-08 -3.841971e-08 6.500946e-09 4.029195e-10 1.995701e-10 -5.470380e-11
1.240388e-08 -3.565422e-08 6.824346e-09 -9.253201e-10 3.691442e-10 -2.790384e-10
1.265666e-08 -3.676885e-08 6.339912e-09 -5.892189e-10 -3.274874e-10 -2.346786e-10
1.272603e-08 -3.717904e-08 6.354760e-09 -9.332765e-10 -1.062712e-10 -2.682625e-10
-6.807080e-09 2.629678e-09 1.487217e-09 1.409050e-09 -3.446452e-10 -4.179623e-10
1.253672e-08 -3.840060e-08 6.821408e-09 -9.051668e-10 2.576663e-10 -2.636872e-10
1.310191e-08 -3.830594e-08 6.832494e-09 2.563473e-10 3.953426e-10 -2.593246e-10
-1.653740e-08 6.519580e-09 8.453722e-10 6.341378e-09 2.759804e-09 -1.388674e-09
-1.863429e-08 1.325580e-08 -1.781732e-09 1.053843e-08 5.494984e-09 -4.290226e-09
-1.776464e-08 5.904663e-09 -1.799681e-09 1.087879e-08 4.720266e-09 -1.376329e-09
-1.861582e-08 1.208940e-08 -4.510304e-09 1.023094e-08 8.213029e-09 -4.814785e-09
-1.595999e-08 1.025257e-08 -2.960365e-09 4.977565e-09 4.489238e-09 -1.537214e-09
-1.472274e-08 7.689138e-10 1.839869e-09 -1.941030e-09 -1.171276e-09 -2.426845e-10
4.283636e-08 -6.014973e-09 -8.290129e-08 -3.849397e-09 3.690597e-08 2.808935e-09
-1.299976e-08 -1.750831e-10 1.432231e-09 -1.875346e-09 -2.614272e-09 -5.472529e-10
6.512870e-10 -2.706046e-08 5.173440e-09 8.080446e-09 1.829969e-09 5.499812e-10
-1.590007e-08 1.145118e-09 2.955595e-09 -1.867318e-09 -5.262728e-10 -5.263884e-10
-1.548241e-08 8.286385e-10 2.800848e-09 -7.200276e-10 -1.255771e-10 -7.086760e-10
2.284925e-09 -2.376869e-08 2.244053e-09 4.419377e-09 -2.510710e-09 1.649793e-10
1.985708e-09 -2.266701e-08 5.087840e-09 3.070816e-09 -2.354390e-09 -3.778883e-10
-6.799069e-09 3.085316e-09 1.254808e-09 1.673010e-09 4.516044e-10 -4.198553e-10
4.028405e-09 -2.700030e-08 5.599705e-09 7.709331e-09 -1.804167e-09 5.062086e-10
5.232894e-09 -2.595159e-08 3.128329e-09 8.750289e-10 -2.567697e-10 3.590435e-10
3.841950e-09 -2.655446e-08 1.191491e-09 8.026758e-09 -4.369188e-09 1.491536e-09
-1.391464e-08 1.567757e-08 -3.368277e-09 9.943126e-10 4.445241e-09 -2.448902e-09
-1.705074e-08 1.172395e-08 -5.525240e-10 8.248927e-09 5.725022e-09 -2.873028e-09
-1.640927e-08 1.174756e-08 2.026468e-10 4.590276e-09 3.740713e-09 -2.002442e-09
-1.731632e-08 9.734735e-09 7.911205e-10 9.029126e-09 5.442659e-09 -2.685138e-09
-7.391332e-09 1.436793e-08 -2.516294e-09 -8.203119e-10 3.460565e-09 -1.927028e-09
-1.670413e-08 1.479187e-08 -7.940075e-10 4.671316e-09 5.298756e-09 -4.143819e-09
-1.066167e-08 1.747537e-08 -5.693335e-09 -3.118893e-09 5.852557e-09 -3.953629e-09
-1.676448e-08 1.479101e-08 -3.427856e-09 4.697215e-09 5.250645e-09 -2.926019e-09
-9.908266e-09 1.952937e-08 -7.545333e-09 -2.720612e-10 6.910981e-09 -5.253099e-09
-1.175051e-08 1.577088e-08 -4.787065e-09 5.350797e-10 4.627524e-09 -2.269427e-09
-6.999538e-10 1.481608e-08 -5.923882e-09 -5.591363e-09 3.132519e-09 -1.676311e-09
-1.696042e-08 3.503685e-09 2.227935e-09 1.035543e-08 5.851040e-09 -1.918639e-09
-1.768303e-08 6.866999e-09 -1.082055e-09 6.867636e-09 4.940482e-09 -1.363346e-09
-1.732094e-08 1.039135e-08 -1.263947e-09 9.176441e-09 5.399093e-09 -1.590077e-09
-1.688863e-08 1.164671e-08 -1.231749e-09 4.123317e-09 4.723956e-09 -1.153537e-09
-1.488137e-08 1.405895e-08 -4.465297e-09 6.513600e-09 6.129497e-09 -4.770971e-09
-1.894928e-08 1.191370e-08 1.523597e-09 9.633394e-09 4.171052e-09 -2.906241e-09
-1.698856e-08 5.356183e-09 -1.880069e-10 1.025525e-08 6.251792e-09 -2.602046e-09
-1.775886e-08 3.757028e-09 2.079639e-09 1.124341e-08 4.717328e-09 -1.373380e-09
-7.555950e-09 5.082884e-09 8.872751e-10 -1.480234e-10 -2.928613e-11 -4.301204e-11
-7.153941e-09 5.003725e-09 6.877001e-10 -2.751856e-10 -4.810174e-11 3.236633e-11
-7.353059e-09 4.816957e-09 7.588561e-10 -5.596195e-10 -1.344302e-11 2.127010e-11
-7.200479e-09 4.965514e-09 7.598202e-10 -2.991296e-10 -4.882406e-11 -1.549505e-11
-7.215197e-09 4.991419e-09 8.368612e-10 -4.136789e-10 -4.175787e-11 -1.355621e-10
-7.440759e-09 1.507471e-09 2.051454e-09 -6.725525e-10 3.848624e-10 -4.174990e-11
-7.431916e-09 5.085543e-09 7.653824e-10 -8.383949e-11 1.080558e-11 -9.274967e-11
-3.880668e-09 2.327988e-09 4.160465e-10 1.815050e-10 1.978364e-10 1.677414e-10
-3.941096e-09 2.024353e-09 4.881651e-10 7.460468e-10 3.809641e-11 -1.031228e-10
-3.490404e-09 2.118839e-09 3.325891e-10 3.220075e-10 3.346108e-10 2.198688e-11
2.431268e-08 1.933729e-08 -8.925328e-08 -1.196103e-08 1.414087e-08 2.187715e-09
-3.300133e-09 2.139589e-09 3.283591e-10 4.877948e-10 3.391016e-10 -1.894895e-11
-3.399778e-09 2.383143e-09 3.102421e-10 4.256535e-10 -2.779888e-12 -2.104183e-11
-3.789731e-09 2.377889e-09 4.043521e-10 2.296772e-10 4.160761e-11 -1.671168e-10
-7.261659e-09 -4.713403e-09 2.257886e-09 3.279370e-09 -1.384900e-09 -4.079670e-11
-6.510555e-09 -6.787197e-09 2.559999e-09 5.604469e-09 -2.501980e-09 7.316288e-10
-6.908133e-09 -5.460160e-09 2.071836e-09 3.096411e-09 -4.037481e-09 2.224735e-10
8.153281e-09 -3.966452e-09 -1.189127e-09 -1.528391e-09 -2.581426e-10 1.822453e-10
7.568474e-09 -3.556469e-09 -1.042227e-09 -2.873754e-09 -2.449956e-10 3.429654e-10
6.140646e-09 -3.604996e-09 -1.033884e-09 -2.578783e-09 -1.496403e-10 3.068057e-11
8.263016e-09 -4.457426e-09 -1.199824e-09 -1.516558e-09 -2.928080e-11 2.794933e-10
1.103401e-08 -3.505556e-08 6.251604e-09 -2.245080e-09 -3.285657e-10 -2.172975e-10
1.086271e-08 -3.532980e-08 6.217444e-09 -1.600282e-09 7.722940e-10 -3.773533e-10
1.218901e-08 -3.514260e-08 6.557633e-09 -8.235250e-10 5.004164e-10 -5.243029e-10
1.087035e-08 -3.147952e-08 6.829188e-09 -1.787560e-09 -7.629072e-10 -3.019364e-10
1.216028e-08 -3.653003e-08 6.803201e-09 -6.591762e-10 -1.462496e-10 -3.850061e-10
1.106191e-08 -3.513221e-08 6.698845e-09 -4.583994e-11 2.458697e-10 -3.936889e-10
-7.250090e-09 3.458990e-09 1.112793e-09 4.709593e-10 2.370459e-11 -1.129955e-10
-7.429255e-09 3.587333e-09 1.233219e-09 2.032818e-10 -1.426481e-11 -5.696077e-11
-1.706362e-08 1.388032e-08 -3.872985e-09 -2.810123e-09 -5.074893e-09 -1.713899e-09
6.253794e-08 -8.556323e-09 6.104846e-09 2.729364e-08 7.744890e-09 1.782479e-08
-1.585814e-08 1.201342e-08 -4.234369e-09 -3.941698e-09 -4.446192e-09 -1.086530e-09
-7.440758e-09 1.724931e-10 2.135401e-09 -1.143536e-09 -2.108296e-10 -4.929855e-10
-1.546844e-08 1.056884e-08 -5.935256e-09 -6.178971e-09 -6.769154e-09 -3.474477e-09
-1.511706e-08 6.801621e-09 -6.221705e-09 -6.436615e-09 -5.468284e-09 -3.140444e-09
1.120427e-08 -3.631936e-08 7.574249e-09 2.020050e-09 4.142349e-10 2.368356e-10
1.230485e-08 -3.843124e-08 7.085375e-09 2.667339e-09 1.877119e-10 6.404414e-11
9.646749e-09 -3.542639e-08 7.207579e-09 4.339575e-09 -4.794896e-10 3.171297e-10
3.985727e-08 -7.074432e-09 3.051089e-10 8.205756e-09 -1.640223e-09 7.122708e-09
1.231944e-08 -3.696164e-08 6.912424e-09 2.504589e-09 1.001265e-09 2.020562e-11
-2.354601e-09 1.957524e-09 2.043428e-10 1.090272e-09 2.521339e-10 -2.685485e-11
-3.588612e-09 2.018502e-09 4.513652e-10 1.598687e-09 1.146955e-10 4.567613e-11
-8.310095e-09 1.889507e-09 1.488028e-09 -1.007228e-09 -1.306943e-10 1.430465e-10
-3.641687e-09 2.400870e-09 4.784209e-10 6.249889e-10 1.339251e-10 -1.943123e-10
-3.305367e-09 2.199750e-09 3.867888e-10 5.445945e-10 7.964641e-11 -1.405831e-11
-1.676982e-08 -1.648675e-09 1.958011e-09 8.631190e-09 4.399652e-09 -1.441380e-09
-1.548442e-08 6.025230e-09 -1.706600e-09 1.182360e-08 4.603570e-09 -1.971735e-09
-1.439065e-08 4.390976e-10 2.626383e-09 8.012149e-09 3.282533e-09 -4.600093e-10
-1.428646e-08 -5.442855e-09 3.282560e-09 8.097909e-09 6.339427e-10 -1.156608e-09
-1.513795e-08 -3.603265e-09 1.322731e-09 1.113760e-08 3.769442e-09 -1.041003e-09
-1.705015e-08 3.335197e-09 -8.216923e-10 7.227368e-09 3.896360e-09 -9.969599e-10
-1.654261e-08 1.814001e-09 -7.096497e-10 7.265344e-09 3.471587e-09 -6.438874e-10
-5.598555e-09 3.016437e-09 7.389140e-10 1.200104e-09 1.726854e-10 -1.948095e-10
-5.745926e-09 3.047633e-09 9.788488e-10 1.302839e-09 3.156019e-10 -1.730014e-10
-5.468415e-09 3.157347e-09 7.545331e-10 8.133316e-10 8.599443e-11 -1.554727e-10
-5.921226e-09 3.095842e-09 7.658754e-10 6.440491e-10 3.204570e-11 -2.762332e-10
-5.134988e-09 2.739817e-09 7.269914e-10 1.094056e-09 1.016692e-10 -7.960416e-11
-5.235022e-09 2.969230e-09 7.506151e-10 1.273878e-09 -1.211498e-11 -7.987235e-11
-6.088488e-09 3.282603e-09 7.610446e-10 1.030250e-09 8.608358e-11 -7.939079e-11
-6.086994e-09 3.258515e-09 7.596681e-10 6.009370e-10 8.003220e-11 -2.202897e-10
-6.252922e-09 -3.611132e-09 2.928179e-09 -5.714742e-10 2.401636e-12 -7.366849e-10
-6.467634e-09 -3.067922e-09 2.962935e-09 -1.099756e-09 2.610878e-10 -8.398293e-10
-7.495072e-09 -4.459322e-10 2.348287e-09 -8.531642e-10 -2.383395e-10 -5.166145e-10
-7.224998e-09 -1.503384e-10 2.510204e-09 -6.099299e-10 -8.659295e-11 -4.218568e-10
-6.889188e-09 1.908318e-11 2.429320e-09 -8.892070e-10 2.409481e-10 -6.635434e-10
-4.044782e-09 -1.597414e-08 6.283972e-09 7.642776e-09 4.300298e-10 5.327460e-10
-7.380372e-09 4.111913e-09 9.740457e-10 7.142065e-11 5.670442e-11 -2.929912e-11
-4.085955e-09 -1.527947e-08 6.156552e-09 7.506288e-09 7.121677e-10 6.055848e-10
-6.256743e-09 -1.701303e-08 6.226734e-09 5.115136e-09 3.328189e-10 1.392955e-10
-3.904518e-09 -1.789442e-08 6.519558e-09 5.219684e-09 -7.264009e-10 2.482599e-11
-4.562443e-09 -1.740998e-08 6.507693e-09 4.888955e-09 2.443581e-10 6.772156e-10
2.194777e-08 1.233312e-08 -6.900605e-08 -1.576398e-08 -1.503970e-08 -1.327556e-09
2.627450e-08 6.735077e-09 -7.319983e-08 -1.110759e-08 -3.324937e-08 -1.342386e-10
1.628663e-08 4.215795e-08 -8.194721e-08 -1.480469e-08 -1.082279e-08 -2.969678e-09
1.625818e-08 3.558096e-08 -6.561285e-08 -1.161426e-08 -1.969799e-08 -5.380020e-09
1.035670e-08 -3.250080e-08 1.796470e-10 -3.908320e-09 -2.434537e-09 -4.247025e-10
9.934581e-09 -3.452966e-08 -1.111037e-09 -5.717961e-09 -6.534159e-09 -1.194170e-09
1.034467e-08 -3.645926e-08 7.300893e-10 -4.195657e-09 -2.265940e-09 -4.826207e-10
9.727893e-09 -2.989282e-08 1.056688e-10 -2.947842e-09 -2.201512e-09 -6.440779e-10
1.333200e-08 -3.798207e-08 6.137935e-10 -2.767677e-09 -3.043878e-09 -8.559529e-10
9.554509e-09 -2.280664e-08 -1.383593e-08 -1.231289e-08 -4.924680e-09 -2.437263e-09
1.517311e-08 -1.988745e-08 -2.104391e-08 -1.614819e-08 -2.803857e-09 -2.723675e-09
1.522265e-08 -2.050750e-08 -2.002895e-08 -1.652036e-08 -1.320687e-08 -2.046029e-09
1.886416e-08 -3.441344e-08 -1.887232e-08 -1.081616e-08 -1.270825e-08 -1.086352e-09
1.736321e-08 -2.319233e-08 -2.092203e-08 -1.332832e-08 -1.030728e-08 -1.848314e-09
-7.198868e-09 3.374878e-09 1.176802e-09 4.398832e-10 1.271301e-10 -2.726381e-10
-6.907741e-09 2.936781e-09 1.179789e-09 6.928689e-10 9.912504e-11 -1.794735e-10
3.674404e-09 3.165822e-09 -4.102701e-08 -2.570154e-08 1.728072e-08 1.156512e-08
5.081460e-09 -2.694180e-09 -8.326504e-10 -7.747245e-10 -8.713408e-11 -6.922662e-11
1.572284e-08 -6.415210e-09 -3.901218e-08 -2.404395e-08 1.573468e-08 6.547638e-09
2.510240e-08 1.581710e-08 -7.545609e-08 -1.524899e-08 1.348400e-08 8.905011e-09
2.538002e-08 8.921385e-09 -6.577808e-08 -1.641492e-08 2.653183e-08 9.176740e-09
6.579140e-09 -2.623962e-08 -4.305570e-09 -1.267350e-08 -9.683254e-09 -2.084747e-09
1.105858e-08 -5.483322e-09 -1.000127e-09 -6.582886e-09 4.384564e-11 4.175080e-10
1.443271e-08 -3.026505e-08 -1.313877e-08 -1.843090e-08 -1.549174e-08 -5.228367e-09
1.036984e-08 -3.480490e-09 -3.693144e-10 -1.027987e-08 -4.358545e-10 1.137762e-09
7.760449e-09 -1.937988e-08 -9.947247e-09 -1.129021e-08 -1.228219e-08 -2.773645e-09
9.370678e-09 -2.588033e-08 -1.001736e-08 -1.590837e-08 -1.295777e-08 -3.231654e-09
8.632740e-09 -5.072266e-09 -1.134695e-09 -1.083100e-09 -1.800559e-10 2.577675e-10
1.284555e-08 -6.413419e-09 1.966196e-10 -9.017037e-09 1.149037e-10 -5.705034e-10
1.037548e-08 -5.706093e-09 -1.328951e-09 -6.644499e-10 -9.011789e-11 1.710589e-10
1.029380e-08 -5.697848e-09 -1.301912e-09 -6.137254e-10 -1.517915e-10 2.051562e-10
9.594471e-09 -5.717234e-09 -1.271428e-09 -4.743734e-10 -1.175632e-10 -2.067273e-10
-9.236919e-09 -8.615217e-09 2.409755e-09 -2.250231e-09 -2.579158e-09 -5.658127e-10
-6.821426e-09 -1.120199e-08 3.821383e-09 -1.447044e-09 -6.542755e-10 -6.732590e-10
-4.223601e-09 -1.867300e-08 4.837319e-09 -4.137185e-09 -3.611936e-09 2.673337e-10
-4.835162e-09 -1.429115e-08 3.362451e-09 -2.135141e-09 -1.994578e-09 -4.596694e-10
-6.981526e-09 3.664193e-09 1.034047e-09 4.397886e-10 5.408507e-11 -1.322964e-11
4.894887e-09 -2.262767e-09 -9.007192e-10 -2.924673e-09 -1.055815e-10 1.940235e-10
-7.096952e-09 3.874398e-09 1.086801e-09 1.548339e-10 7.146350e-11 -4.931255e-11
-1.171659e-08 1.426691e-08 -1.171343e-08 -5.238254e-09 -1.076989e-09 -1.167093e-09
-7.234970e-09 3.784981e-09 9.868937e-10 3.322205e-10 4.025631e-11 -4.054601e-11
-7.098414e-09 3.820947e-09 1.029625e-09 1.459401e-10 1.252393e-11 -5.872536e-11
8.975909e-09 -2.920368e-08 5.508073e-09 -3.748867e-09 7.635776e-10 -3.876425e-10
8.447939e-09 -2.822566e-08 5.349766e-09 -4.920108e-09 8.132166e-10 -8.079513e-10
3.093736e-08 -1.397292e-08 -5.728076e-08 -2.004821e-09 -2.972265e-08 2.603306e-09
1.016937e-08 -3.185333e-08 5.714405e-09 -4.565470e-09 1.494698e-11 -1.042874e-09
9.442885e-09 -2.956711e-08 5.902546e-09 -3.846059e-09 1.006672e-09 -8.466745e-10
9.450829e-09 -3.759861e-09 1.598757e-10 6.440206e-09 8.667906e-11 -1.129612e-09
6.285739e-09 -1.252936e-09 6.880283e-10 8.712681e-09 3.903400e-10 5.494019e-10
1.139283e-08 -4.605916e-09 1.110775e-09 7.800970e-09 3.230215e-10 7.876058e-10
1.075046e-08 -4.489573e-09 8.202616e-11 7.583442e-09 -1.516959e-10 -7.483909e-10
-4.349316e-09 -2.009430e-08 6.623876e-09 4.422274e-09 4.328178e-10 5.168089e-10
-3.021578e-09 -2.242883e-08 7.217348e-09 4.072656e-09 -1.129117e-11 4.831311e-10
-4.503347e-09 -1.704203e-08 7.008786e-09 2.967326e-09 3.545377e-10 6.204681e-11
-5.487979e-09 -1.762260e-08 7.120583e-09 1.932459e-09 -4.812327e-11 -7.576228e-11
-4.442709e-09 -1.704102e-08 7.185483e-09 2.977398e-09 4.885747e-10 5.609214e-10
-6.379257e-09 -1.753449e-08 7.105568e-09 1.917541e-09 1.855930e-10 1.000642e-10
-8.074612e-09 4.488914e-09 1.200384e-09 -3.193883e-10 -9.105305e-11 -2.659714e-10
-8.200216e-09 4.674377e-09 1.214571e-09 -2.618782e-10 -1.753009e-11 -1.968523e-10
4.391478e-08 -1.063146e-08 -1.023877e-08 8.599359e-10 1.125986e-09 -1.768793e-09
-8.285827e-09 4.619781e-09 1.220926e-09 -3.927953e-10 -1.756162e-11 -2.350160e-10
-8.288731e-09 4.780630e-09 1.182372e-09 -1.178958e-10 -5.093115e-11 -4.040168e-10
-8.319985e-09 4.894552e-09 1.091428e-09 -1.884777e-10 -2.063616e-11 -3.366283e-10
-6.949635e-09 -5.201663e-09 1.590541e-09 2.123119e-09 -3.518394e-10 -1.054603e-10
-6.785501e-09 -5.508101e-09 2.290460e-09 1.794582e-10 -4.415273e-10 -2.927456e-10
-5.126704e-09 -6.588570e-09 2.367122e-09 1.096515e-09 -4.485865e-10 -3.537034e-10
-5.171850e-09 -7.281088e-09 2.084460e-09 1.329994e-09 -5.414781e-12 -5.087420e-10
-6.963378e-09 -5.197074e-09 1.232200e-09 2.186428e-09 -3.605640e-10 3.510130e-10
-4.978868e-09 -9.523999e-09 1.634635e-09 -2.550360e-11 7.814638e-12 -2.780147e-10
-5.468051e-09 -8.675898e-09 2.416159e-09 6.588311e-10 6.818992e-10 -2.521963e-10
-6.759611e-09 -6.274276e-09 2.514776e-09 -5.626388e-11 -1.957153e-10 -7.093139e-10
-7.308320e-09 -3.394456e-09 2.221726e-09 6.810978e-10 -1.311628e-09 -2.635794e-10
-9.878196e-09 -6.118046e-09 2.163538e-09 -1.050929e-08 -5.675332e-09 -1.277635e-09
-8.201753e-09 -1.302037e-08 1.239398e-09 -9.925932e-09 -4.841453e-09 -1.831965e-09
-9.940409e-09 -5.137094e-09 4.111560e-10 -8.247214e-09 -4.366043e-09 -6.285957e-10
-1.223364e-08 1.808649e-09 4.725291e-10 -7.831343e-09 -4.507889e-09 -8.192217e-10
-1.227157e-08 8.395595e-10 2.461498e-09 -8.217078e-09 -3.902106e-09 -1.101266e-09
-5.491824e-09 3.763262e-09 4.152669e-10 -1.590328e-09 -2.079814e-10 -3.795686e-11
-1.552056e-09 1.204567e-09 2.340586e-10 6.326612e-10 -4.589706e-11 1.965637e-10
-2.094918e-09 1.573390e-09 2.988667e-10 1.637592e-09 1.558700e-10 6.372791e-11
-1.704004e-09 1.247776e-09 6.903944e-11 1.870212e-09 3.431122e-11 -2.431335e-10
-2.233063e-09 1.545885e-09 1.808527e-10 1.199515e-09 4.069145e-11 -3.633054e-10
-2.716133e-09 1.745687e-09 2.753620e-11 1.614254e-09 9.692336e-11 -1.281648e-10
2.890296e-08 -1.949606e-08 -5.422118e-08 3.863420e-09 -2.832555e-08 4.949148e-09
-6.877743e-09 1.837535e-10 2.089721e-09 -9.406767e-10 -5.323575e-11 -5.123396e-10
-7.412288e-09 1.775654e-09 1.800455e-09 1.616183e-10 5.947892e-11 -4.306706e-10
-7.109506e-09 2.519851e-10 2.055345e-09 -3.855519e-10 1.117684e-10 -6.044205e-10
-6.937669e-09 -4.900098e-10 2.271328e-09 -4.677152e-10 5.275681e-10 -4.891976e-10
-7.421260e-09 1.349432e-09 1.995984e-09 -1.280234e-10 -1.404143e-10 -2.683513e-10
-2.971076e-10 -2.557152e-08 5.622368e-09 8.207494e-09 8.356076e-10 -9.800074e-10
8.622899e-10 -2.698195e-08 4.921509e-09 1.057036e-08 7.146194e-10 -2.557058e-10
5.119420e-09 -3.230919e-08 5.854532e-09 7.780085e-09 2.885398e-10 -4.717884e-10
3.004029e-09 -2.877639e-08 6.495695e-09 6.180526e-09 9.772953e-10 1.794431e-10
5.405926e-09 -3.058616e-08 5.136057e-09 8.851944e-09 7.702023e-10 3.974270e-10
5.324248e-08 -2.296979e-08 6.479923e-09 -2.684166e-09 8.479161e-10 7.874614e-09
5.014767e-08 -2.370480e-08 8.768792e-09 2.327335e-09 3.115749e-09 6.309488e-09
4.959691e-08 -2.141340e-08 2.501490e-10 -1.343361e-09 -2.382071e-10 1.095436e-09
5.154969e-08 -2.121057e-08 7.063478e-09 5.671295e-09 1.380179e-09 3.084967e-09
5.020880e-08 -2.032698e-08 -3.052230e-09 -3.872012e-10 -2.398477e-10 2.231594e-10
4.955822e-08 -1.881625e-08 -3.319000e-09 2.482359e-09 1.040508e-09 5.865137e-10
2.351486e-08 4.224031e-09 -6.563445e-08 -8.482371e-09 -2.258838e-08 -3.729995e-09
2.309671e-08 -5.517199e-08 3.137479e-09 -2.189401e-09 -1.003966e-08 2.770121e-10
2.380336e-08 -5.513790e-08 -5.116528e-09 -6.787022e-09 -1.908396e-08 -1.649865e-09
2.508075e-08 -5.560838e-08 -2.024526e-09 4.900891e-10 -1.655107e-08 2.428168e-09
2.822860e-08 -5.295097e-08 -3.485213e-09 -3.643721e-09 -1.718625e-08 1.115539e-09
2.521972e-08 -5.325550e-08 -2.415292e-09 -1.010039e-10 -1.096576e-08 6.644307e-10
2.371285e-08 -5.624157e-08 2.918968e-09 -2.906028e-09 -1.105187e-08 4.991572e-10
-4.062416e-09 1.695173e-08 -7.717674e-09 2.838333e-09 -7.452698e-09 -7.361207e-09
-8.320998e-09 1.372504e-08 -6.698899e-09 1.010216e-09 -1.074790e-08 -9.307146e-09
7.577883e-09 1.232500e-08 -9.308751e-09 5.682701e-09 -4.036291e-09 -3.290206e-09
8.056109e-09 9.579054e-09 -8.411805e-09 1.044776e-08 -2.251829e-09 -5.975092e-09
2.345646e-10 3.426851e-08 -1.055654e-08 1.418797e-08 -5.360648e-09 -1.136481e-08
4.205382e-09 1.379631e-08 -4.926587e-09 1.426853e-08 1.566244e-09 -4.081993e-09
2.578716e-08 1.116155e-08 -9.649873e-09 1.711295e-08 -3.105679e-09 -2.655882e-09
-6.784203e-09 -1.051143e-09 2.630824e-09 -1.028475e-09 2.941603e-11 -7.556036e-10
-7.060527e-09 -1.308708e-09 2.415648e-09 -1.603259e-09 7.121265e-10 -4.132964e-10
-9.463120e-09 5.688454e-09 -1.112195e-08 -9.214508e-09 -2.925414e-09 -1.532024e-09
-6.257353e-09 -2.077118e-09 2.595185e-09 -6.747593e-10 2.239271e-10 -7.943353e-10
-7.052844e-09 6.367298e-10 2.423717e-09 -2.335705e-10 9.986712e-11 -4.241031e-10
-6.797459e-09 1.503686e-12 2.019263e-09 -5.000418e-10 4.076296e-10 -6.470784e-10
-6.136783e-09 4.681796e-09 5.636922e-10 -5.487891e-10 -1.424005e-11 -6.260624e-11
-6.199489e-09 4.518059e-09 6.773710e-10 -1.087076e-09 -1.165235e-10 -1.350602e-10
-6.234075e-09 4.267839e-09 7.036496e-10 -1.180662e-09 -8.317680e-11 -1.261644e-10
-6.855925e-09 4.774965e-09 7.195318e-10 -5.908815e-10 -7.504464e-11 -1.875806e-10
4.788592e-08 -1.321559e-08 -3.218821e-09 -2.186459e-09 3.992185e-09 7.068401e-09
-6.818451e-09 4.843555e-09 6.384260e-10 -4.670202e-10 -5.754863e-11 -2.976008e-11
-7.527727e-09 5.176847e-09 -1.185211e-08 -1.201437e-08 -5.871729e-09 -2.194585e-09
1.355694e-08 -4.164168e-08 6.622620e-09 1.779498e-09 2.213762e-09 1.168276e-10
1.581973e-08 -4.160440e-08 6.400855e-09 8.978493e-10 2.086101e-09 7.412284e-11
1.430167e-08 -3.872539e-08 5.842266e-09 -1.935361e-10 4.575835e-10 -3.413236e-11
1.893358e-08 -8.739353e-09 -3.986356e-08 -1.605474e-08 -6.738914e-09 -2.770375e-09
2.850405e-08 -1.688237e-08 -4.516393e-08 -8.285013e-10 -2.312205e-08 2.169062e-09
1.480143e-08 -4.027096e-08 4.961461e-09 1.187883e-09 7.460736e-10 -3.974816e-10
1.509286e-08 -4.046001e-08 3.666186e-09 1.524646e-09 1.593302e-09 -4.134635e-10
-5.125053e-09 3.576718e-09 3.044440e-10 -1.495533e-09 -8.360523e-11 -1.195441e-11
-3.499830e-09 2.654489e-09 1.952765e-10 -1.211849e-09 -2.015587e-10 -8.556045e-12
-3.131915e-09 2.809418e-09 2.613210e-10 -1.496312e-09 -2.498615e-10 -9.217582e-11
2.177318e-09 -8.068950e-10 -3.929368e-10 2.430471e-09 1.945915e-10 2.756577e-10
-1.470280e-08 2.814976e-09 2.926015e-09 -5.241993e-09 -3.054635e-09 -2.003193e-10
-1.583466e-08 7.894178e-09 -3.036589e-09 -6.277071e-09 -5.090423e-09 -1.406959e-09
-1.463380e-08 9.601244e-10 1.231200e-10 -6.404209e-09 -3.798750e-09 -2.017588e-09
-1.354498e-08 4.903171e-10 -1.508003e-09 -9.839166e-09 -5.754434e-09 -3.130238e-09
-1.239579e-08 1.152308e-09 2.152370e-09 -7.376003e-09 -4.452710e-09 -8.354040e-10
-1.221391e-08 -3.622738e-09 2.747200e-09 -1.197517e-08 -3.324439e-09 -2.093061e-09
-1.239068e-08 2.725480e-09 9.338466e-10 -1.089378e-08 -5.659180e-09 -1.508665e-09
2.432941e-08 -9.699342e-10 -7.404221e-09 9.063790e-09 -1.518773e-09 -2.257753e-09
2.805846e-08 2.277618e-09 -5.400066e-09 1.146669e-08 -8.525057e-10 1.224902e-09
3.201074e-08 -6.143167e-09 -6.345425e-09 6.303735e-09 -9.116997e-10 2.898547e-10
3.196965e-08 -6.129782e-09 -7.738819e-09 6.237925e-09 -9.254951e-10 1.074122e-09
3.041894e-08 1.449395e-09 -8.243963e-09 8.156913e-09 -2.969180e-09 -9.099764e-10
3.178335e-08 -7.312898e-09 -5.610605e-09 6.828205e-09 -1.359429e-09 5.744764e-10
4.318748e-09 -1.656269e-09 -6.527690e-10 3.395324e-09 -1.523049e-10 -3.058891e-10
3.316004e-08 -4.693458e-09 -7.119897e-09 2.871108e-09 -2.016008e-09 -1.050800e-09
7.358982e-09 8.067266e-09 -5.532504e-09 3.640793e-09 -4.591946e-09 -2.556934e-09
-1.149938e-09 2.983749e-08 -1.410426e-08 1.188808e-08 -6.266289e-09 -1.101214e-08
-8.672318e-09 1.570583e-08 -9.491888e-09 -1.582272e-09 -8.852609e-09 -7.966899e-09
-9.787141e-09 1.739767e-08 -9.002348e-09 8.727264e-10 -6.766144e-09 -9.063053e-09
1.534007e-08 1.131155e-08 -9.199078e-09 1.426181e-08 -3.062685e-09 -4.681565e-09
-5.650189e-09 1.370090e-08 -8.139118e-09 -4.458870e-10 -5.027743e-09 -2.513267e-09
-2.672200e-09 -1.648973e-08 2.992096e-09 -9.522827e-10 -6.816269e-10 1.572022e-10
-3.521594e-09 1.132711e-08 -3.959463e-09 4.973715e-10 -6.222474e-09 -2.882122e-09
7.767914e-09 -3.638008e-09 -1.027815e-09 3.194702e-09 2.004739e-10 3.963399e-10
2.921404e-09 1.149535e-08 -8.127707e-09 4.723667e-09 -4.803956e-09 -4.591954e-09
3.717421e-09 -1.262063e-09 -6.255987e-10 -1.703751e-09 -2.479823e-10 3.603672e-10
4.086884e-09 -1.724081e-09 -7.274199e-10 -1.927854e-09 -5.612295e-10 -2.150150e-11
3.977929e-09 -1.725037e-09 -6.625185e-10 -1.991741e-09 -1.965580e-10 -2.896047e-10
1.597421e-09 -3.272937e-12 -3.037559e-10 -1.635502e-09 -2.196875e-10 -3.656316e-10
1.256533e-09 -4.713829e-11 -3.723655e-10 -1.780131e-09 -1.370362e-10 -2.019596e-10
7.370684e-09 -3.145722e-08 1.471613e-09 -1.401816e-09 -1.437390e-09 3.895502e-10
5.305594e-08 -1.980161e-08 -5.758474e-10 6.004926e-09 4.994254e-10 7.077212e-09
5.245496e-08 -2.035459e-08 -2.325422e-09 -3.213033e-10 -1.160157e-10 1.683100e-09
4.965880e-08 -2.016813e-08 -2.201841e-09 1.247212e-10 1.277079e-10 1.398196e-09
4.859836e-08 -1.763365e-08 -3.411988e-09 3.450686e-09 1.113931e-09 2.978071e-09
4.951069e-08 -1.760093e-08 -1.569671e-09 2.720586e-09 1.667281e-09 1.381822e-09
4.988856e-08 -1.894633e-08 -1.932950e-09 -2.375850e-10 -9.286537e-10 1.837931e-09
5.113991e-08 -2.019342e-08 -3.539812e-09 4.664422e-10 -4.165618e-10 9.004037e-10
5.010027e-08 -1.783003e-08 -3.350052e-09 2.701918e-10 1.363544e-09 2.537103e-09
-7.770120e-09 -1.441987e-08 6.653684e-09 7.544489e-10 3.081404e-10 -3.310475e-10
-7.485426e-09 -1.475224e-08 6.740497e-09 8.574465e-10 -5.025868e-11 3.675236e-10
-7.135848e-09 -1.585465e-08 7.156902e-09 6.962416e-10 1.427153e-10 -1.411876e-11
-7.051995e-09 -1.548495e-08 6.789655e-09 2.377531e-09 -2.046090e-10 3.629891e-10
-1.341830e-08 1.797108e-08 -1.585410e-08 -7.108030e-09 -4.220533e-09 -4.466914e-09
-1.246699e-08 1.767316e-08 -1.482826e-08 -3.729648e-09 -1.483060e-09 -2.209979e-10
-1.268354e-08 5.176846e-09 -3.833017e-09 -8.743407e-09 -4.374516e-09 -2.267925e-09
-1.335120e-08 1.185139e-08 -6.425316e-09 -6.193262e-09 -1.504102e-09 -3.239527e-09
-1.120559e-08 1.311396e-08 -1.213980e-08 -8.573151e-09 -4.164968e-09 -3.427770e-09
-1.336724e-08 -2.061454e-09 -2.632365e-10 -4.325973e-09 -1.983495e-09 -6.634977e-10
-1.317055e-08 5.294325e-10 1.323135e-09 -2.027100e-09 -1.530916e-09 -1.796423e-10
-1.307822e-08 -4.312406e-09 1.297314e-09 -1.847601e-09 -6.484148e-10 -9.674773e-11
-1.439410e-08 1.464649e-09 2.865277e-09 -3.390090e-09 -1.469411e-09 1.157020e-10
-1.517259e-08 3.294248e-09 7.289649e-10 -2.494194e-09 -5.444145e-10 -5.370129e-10
-1.647833e-08 3.054478e-09 1.552627e-09 -1.327416e-09 -1.464687e-09 -4.295474e-10
-1.575877e-08 2.337234e-09 2.421224e-09 -3.609839e-09 -1.919551e-09 -7.508895e-10
-1.318163e-08 1.113779e-09 9.796328e-10 -4.957760e-09 -2.119128e-09 -2.117563e-10
-1.443989e-08 9.293899e-12 1.864784e-09 -2.818445e-09 -1.959781e-09 -4.535385e-10
1.064114e-08 -5.992902e-09 -1.365409e-09 -1.451633e-09 -8.986467e-11 2.342838e-10
4.852682e-09 -2.231657e-09 -7.703997e-10 8.648599e-10 3.206367e-10 6.372192e-11
9.813402e-09 -5.322029e-09 -1.403041e-09 -1.734445e-09 -1.491000e-10 5.236008e-10
5.227069e-09 -3.009705e-09 -8.422019e-10 2.785501e-09 -1.116059e-10 -3.180030e-10
1.079610e-08 -6.123302e-09 -1.391727e-09 -1.318916e-09 -1.185838e-10 8.798357e-11
1.031386e-08 -5.520516e-09 -1.386735e-09 -1.283557e-09 -8.078186e-11 1.706995e-10
1.091542e-08 -5.914873e-09 -1.480577e-09 -1.179416e-09 -9.013956e-11 1.528122e-10
-4.920149e-09 -6.626140e-09 3.358196e-09 -2.064178e-09 8.571113e-10 -8.045922e-10
-5.740062e-09 -7.426690e-09 3.082039e-09 -4.972307e-09 1.094772e-09 -2.620017e-10
-3.396483e-09 -7.465429e-09 3.512764e-09 -3.020882e-09 -2.257310e-10 -1.077077e-09
-5.305331e-09 -3.647115e-09 3.076164e-09 -2.263275e-09 -3.053263e-10 -7.189700e-10
-3.372345e-09 -9.342577e-09 3.248578e-09 -3.313754e-09 5.444612e-10 -8.967531e-10
-4.260290e-10 2.455915e-10 -1.604903e-10 2.255773e-09 1.944686e-10 6.498757e-11
-6.738970e-09 2.571003e-09 1.518063e-09 1.203571e-09 2.468878e-10 -5.689556e-10
3.138717e-09 -7.975531e-10 -4.287997e-10 2.597090e-09 1.278629e-10 -1.059007e-11
2.813410e-08 -3.650729e-09 -5.993011e-08 -5.977241e-09 -9.673910e-09 2.983836e-10
2.022772e-09 -7.519139e-10 -3.282805e-10 3.329250e-09 5.685938e-10 2.117345e-10
1.419480e-09 -7.520780e-10 -3.657883e-10 3.229252e-09 4.321198e-10 -2.146461e-10
5.844025e-10 8.430145e-11 -2.298721e-10 2.182296e-09 1.074361e-10 -1.498574e-10
1.488578e-09 -7.592964e-10 -2.721259e-10 2.324232e-09 -1.094413e-11 3.881140e-11
-1.127019e-08 -6.192920e-09 4.578945e-09 6.947986e-09 5.548575e-10 2.845302e-10
2.165459e-08 1.975545e-08 -6.779124e-08 2.475020e-08 2.558775e-08 -9.117654e-09
-1.179973e-08 -7.429005e-09 4.542895e-09 2.262328e-09 3.141420e-10 -5.576433e-10
-1.225624e-08 -6.221354e-09 4.144157e-09 1.966003e-09 3.471761e-10 -1.058624e-10
-1.011577e-08 -6.519745e-09 3.977289e-09 6.327691e-09 9.045737e-10 -8.597223e-11
-1.327245e-08 -3.012245e-09 1.966121e-09 7.567361e-09 1.569994e-09 4.017426e-10
-1.370816e-08 -4.346221e-09 1.737836e-09 3.327822e-09 6.182433e-11 -3.355988e-12
-5.927401e-10 -2.344199e-08 6.564834e-09 5.263199e-09 -3.948121e-10 -1.199223e-10
-3.273541e-10 -2.248044e-08 7.254378e-09 4.334097e-09 -6.514325e-12 8.469787e-10
-4.000909e-09 -2.171518e-08 6.356484e-09 7.215771e-09 2.186978e-10 2.561033e-11
-4.601961e-09 -2.052993e-08 5.917675e-09 7.536625e-09 1.182940e-09 -6.306884e-10
-3.441230e-09 -1.749541e-08 6.543567e-09 4.149983e-09 2.372270e-10 9.205514e-11
-3.726111e-09 -1.968410e-08 6.283972e-09 7.471629e-09 1.648904e-10 4.418525e-10
4.198672e-08 1.041971e-08 -8.841670e-08 -6.320888e-09 3.329965e-08 5.759238e-10
-3.723885e-09 -2.001973e-08 6.991439e-09 6.867259e-09 -6.863578e-11 9.953547e-10
-1.363042e-08 -1.406323e-09 4.135294e-09 4.676482e-09 4.276028e-09 -1.217182e-10
-1.087987e-08 -1.071503e-08 5.293672e-09 7.475490e-09 1.237764e-09 -4.334143e-10
-1.084552e-08 -7.333043e-09 4.035238e-09 5.630847e-09 2.620421e-09 -2.761653e-10
-1.018144e-08 -8.549155e-09 4.497156e-09 8.470365e-09 1.742357e-09 -8.935964e-11
-1.363479e-08 4.860556e-10 4.886337e-09 4.672938e-09 3.727214e-10 6.440779e-11
-1.265810e-08 1.711303e-08 -8.028600e-09 -4.623379e-10 3.225672e-09 -2.826103e-09
-7.356336e-09 1.860689e-08 -9.247790e-09 -3.323452e-09 3.242728e-09 -3.324665e-09
-8.006849e-09 1.848158e-08 -7.652950e-09 -2.325078e-09 4.108140e-10 -2.685569e-09
-7.149637e-09 1.786977e-08 -6.554605e-09 -4.020397e-09 1.476343e-09 2.899771e-11
9.958521e-09 -5.668186e-09 -1.252868e-09 -9.291407e-11 4.672983e-12 8.819699e-11
9.539310e-09 -5.682917e-09 -1.147661e-09 3.085281e-11 3.549075e-11 2.571410e-11
9.490002e-09 -5.511764e-09 -1.270683e-09 2.948989e-10 3.507999e-11 1.171120e-10
9.413107e-09 -5.569355e-09 -1.219228e-09 3.639958e-10 6.778378e-11 5.737177e-11
9.076977e-09 -5.503028e-09 -1.155452e-09 1.875717e-10 5.559567e-12 8.033124e-11
9.539310e-09 -5.470027e-09 -1.178344e-09 1.584445e-11 -3.322169e-12 2.212897e-11
9.688206e-09 -5.710900e-09 -1.242337e-09 1.363718e-11 -1.819797e-11 1.362399e-10
9.539306e-09 -5.469893e-09 -1.248320e-09 6.151299e-11 8.269201e-11 3.559375e-12
9.894867e-09 -5.525286e-09 -1.332011e-09 3.508868e-10 6.397847e-11 1.396760e-11
9.384023e-09 -5.530789e-09 -1.227936e-09 1.732220e-10 6.974050e-11 -4.098533e-11
-1.975724e-09 1.613583e-09 1.040794e-10 -7.768266e-10 -1.284710e-10 1.504652e-11
-1.953997e-09 1.796965e-09 3.349054e-11 -1.266095e-09 -1.326134e-10 1.119813e-10
-1.841304e-09 2.343142e-09 8.820078e-11 -2.065878e-09 -4.908222e-10 -2.148649e-10
-2.996097e-10 1.649139e-09 -3.173962e-10 -1.692206e-09 -3.278380e-10 -4.306791e-11
-1.449005e-09 1.659370e-09 -9.095547e-11 -1.849047e-09 -4.065086e-10 2.932035e-10
-1.319380e-08 1.477679e-08 -3.474843e-09 3.855025e-09 6.103397e-09 -4.405287e-09
-1.246278e-08 1.416428e-08 -2.285305e-10 1.946057e-09 4.883708e-09 -2.271500e-09
-1.338577e-08 1.568454e-08 -3.826564e-09 9.335581e-10 4.354007e-09 -1.617141e-09
-9.594056e-09 1.877855e-08 -6.807479e-09 -1.667324e-09 4.154709e-09 -4.493193e-09
-3.907303e-09 1.147604e-08 -4.980614e-09 7.509079e-10 4.433235e-09 -1.750999e-09
-4.393904e-09 1.142391e-08 -4.045649e-09 1.053883e-09 3.824556e-09 -1.414605e-09
-5.098670e-09 1.065915e-08 -2.677556e-09 -7.314882e-10 4.478264e-09 -2.471768e-09
-5.786736e-09 1.948366e-08 -5.848568e-09 -4.552896e-09 5.098394e-09 -5.201182e-09
2.658413e-08 -3.691039e-08 -2.562918e-08 6.086043e-09 8.739488e-09 -7.902496e-12
9.235287e-09 -5.126285e-09 -1.218980e-09 8.887255e-11 8.964074e-11 6.081835e-11
2.724235e-08 -2.242964e-08 -6.858434e-08 2.353464e-08 2.227883e-08 -5.097366e-09
9.624417e-09 -5.587313e-09 -1.203447e-09 4.120013e-10 7.165679e-11 1.221442e-10
9.159879e-09 -5.496898e-09 -1.170461e-09 3.816022e-10 1.178946e-10 1.267221e-10
-7.325880e-09 6.645440e-10 1.836630e-09 -1.540221e-10 8.615915e-11 -3.425798e-10
-7.424200e-09 1.560857e-09 1.971080e-09 -2.232268e-10 1.488021e-10 -5.373791e-10
-7.386800e-09 1.805766e-09 1.862135e-09 2.826650e-10 1.032407e-10 -2.875306e-10
-7.857515e-09 2.585661e-09 1.686862e-09 3.790693e-10 1.894593e-10 -4.307457e-10
-7.373191e-09 2.633283e-09 1.635728e-09 2.213834e-10 8.218531e-11 2.967637e-11
-7.360191e-09 2.790005e-09 1.448002e-09 4.437690e-10 2.789614e-11 -2.973347e-10
-7.258810e-09 1.904091e-09 1.777154e-09 -2.112977e-11 5.182924e-11 -4.700967e-10
-7.413305e-09 1.590821e-09 1.972152e-09 1.279953e-10 1.567401e-10 -3.792661e-10
-7.469489e-09 5.099210e-09 8.063370e-10 -2.230625e-10 -2.512546e-11 -2.130813e-10
-7.465894e-09 5.109891e-09 7.053051e-10 -2.163115e-10 -6.570411e-11 -2.518372e-10
-6.764495e-09 5.007466e-09 6.411431e-10 -1.544782e-10 -7.548806e-11 1.256373e-11
-6.349993e-09 4.687621e-09 5.988148e-10 -3.412421e-10 -1.599920e-10 1.375069e-10
-6.750406e-09 4.706521e-09 6.052625e-10 -2.760880e-10 -1.798036e-10 -2.540546e-11
-7.095576e-09 5.088379e-09 7.652734e-10 -2.226446e-10 -1.634448e-11 6.979861e-12
-7.114771e-09 5.025911e-09 6.190075e-10 -2.683134e-10 -1.204583e-10 -8.881385e-11
-6.592779e-09 4.828776e-09 7.032896e-10 -4.471601e-10 -3.412570e-11 -6.942225e-12
-6.598623e-09 4.750071e-09 6.930927e-10 -7.071677e-10 -4.912248e-11 -8.747203e-11
6.566601e-09 -3.762477e-09 -1.075038e-09 -1.332354e-09 -2.633249e-10 -2.367517e-11
4.092086e-09 -2.158365e-09 -9.477883e-10 -1.988177e-09 -2.160709e-10 5.350979e-11
5.680945e-09 -2.606090e-09 -9.556911e-10 -1.084694e-09 -3.332636e-10 5.687429e-10
6.272161e-09 -2.996172e-09 -9.317933e-10 -1.034994e-09 -1.557930e-10 1.430271e-10
4.641586e-09 -2.246260e-09 -7.202781e-10 -2.117303e-09 -4.090637e-10 2.496751e-10
6.317125e-09 -3.122283e-09 -7.674030e-10 1.027199e-09 2.069938e-10 1.861372e-11
5.379413e-09 -3.096324e-09 -8.666043e-10 4.046302e-10 1.598854e-10 -2.444024e-10
6.314404e-09 -3.128791e-09 -8.780341e-10 1.000224e-09 1.395557e-10 4.354794e-12
6.318432e-09 -3.117075e-09 -8.935790e-10 1.040236e-09 1.278991e-10 2.454281e-11
6.330675e-09 -4.051834e-09 -9.617777e-10 1.001339e-09 9.346118e-11 2.357063e-10
6.885424e-09 -3.799681e-09 -1.057020e-09 -1.415849e-09 -2.442897e-10 3.467666e-10
7.192894e-09 -3.823724e-09 -1.130833e-09 -1.573398e-09 -1.079137e-10 2.721424e-10
4.268352e-09 -2.234756e-09 -8.281174e-10 -2.077821e-09 -2.712738e-10 -2.231892e-10
2.351324e-09 -1.298635e-09 -6.032348e-10 -1.094425e-09 -2.500628e-10 -4.940404e-11
2.468121e-09 -6.520907e-10 -6.283543e-10 -2.637083e-09 -2.255154e-10 2.280426e-10
3.820441e-09 -1.768949e-09 -5.285512e-10 -1.802116e-09 -3.507224e-10 -2.921282e-10
6.727507e-09 -3.202822e-09 -1.005315e-09 -2.545124e-09 -4.594818e-10 2.823020e-10
4.872003e-09 -2.006390e-09 -6.246879e-10 -1.299379e-09 -5.038431e-10 1.063485e-10
-1.829668e-08 1.356604e-08 -4.416342e-09 1.321848e-08 6.970914e-09 -5.579563e-09
-2.089280e-08 1.369419e-08 -2.800528e-09 1.501781e-08 1.014242e-08 -7.122291e-09
-1.900622e-08 1.170142e-08 -2.756635e-09 9.767673e-09 6.734718e-09 -3.663555e-09
-1.855264e-08 1.646570e-08 -6.562201e-09 7.215661e-09 6.752878e-09 -6.219080e-09
1.282501e-08 1.360659e-08 -3.083125e-09 -1.550622e-08 3.725551e-10 2.710063e-09
-5.468861e-09 1.976407e-08 -5.224352e-09 -4.912298e-09 2.891089e-09 -8.256386e-10
-2.112083e-08 1.954177e-08 -4.217136e-09 3.004668e-09 1.113091e-08 -9.500798e-09
-3.539110e-09 2.864631e-08 -9.726400e-09 -1.414446e-08 5.849369e-11 -5.198410e-09
4.049595e-09 1.398249e-08 -2.885819e-09 -9.571697e-09 3.927250e-09 -5.529951e-10
-1.389599e-08 2.139075e-08 -1.998676e-09 -1.917864e-09 8.360950e-09 -5.496266e-09
-1.820433e-08 2.012648e-08 -4.732456e-09 -5.034096e-11 4.257641e-09 -6.157999e-09
-3.002286e-09 2.126567e-09 3.312257e-10 2.085319e-09 1.611620e-10 -4.180550e-10
-2.623706e-09 1.604159e-09 2.817984e-10 1.555896e-09 3.689895e-10 -3.299711e-11
-3.664184e-09 2.430026e-09 4.708256e-10 9.265961e-10 2.149761e-10 -1.945084e-10
-3.801446e-09 2.373882e-09 5.576759e-10 1.033716e-09 1.416695e-10 1.630972e-10
-4.800038e-09 2.580088e-09 5.024496e-10 1.077575e-09 2.911762e-10 -2.243938e-11
-2.646749e-09 1.601500e-09 2.875769e-10 1.573488e-09 3.684584e-10 -6.055268e-12
-7.141339e-09 4.758881e-09 7.372369e-10 -9.234777e-10 -1.247225e-10 -4.928321e-10
3.441430e-08 -3.071289e-08 -5.803702e-08 1.692941e-08 2.976648e-08 -7.390778e-09
-7.228778e-09 4.736036e-09 8.045307e-10 -7.823999e-10 -1.016643e-10 -7.692347e-11
-7.779346e-09 4.754510e-09 9.323222e-10 -8.932187e-10 -1.521130e-10 -3.936873e-10
2.458842e-09 3.245319e-08 -4.844268e-08 5.809881e-09 -1.470611e-08 1.956814e-08
-7.461224e-09 4.730366e-09 8.413656e-10 -1.155377e-09 -1.900420e-10 -5.189165e-10
-7.419696e-09 -2.696519e-10 2.370594e-09 -2.564199e-09 4.712644e-10 -1.474731e-10
-7.023104e-09 4.329960e-09 5.417611e-10 -1.624700e-09 -2.511703e-10 -4.056138e-10
-5.942152e-09 4.335286e-09 5.530736e-10 -1.406460e-09 -1.837710e-10 -2.390710e-10
-7.079386e-09 4.868042e-09 7.159273e-10 -8.203851e-10 -1.570343e-10 -2.258940e-10
-6.890767e-09 4.531668e-09 6.468357e-10 -1.063995e-09 -2.207275e-10 -3.175156e-10
-8.844793e-09 2.907139e-09 1.672849e-09 -9.549448e-10 -2.666570e-10 -5.909249e-10
-8.661306e-09 3.719256e-09 1.582116e-09 -1.202629e-09 -3.839946e-10 -4.974554e-11
-8.772313e-09 2.511698e-09 1.716730e-09 -5.052731e-10 -3.360106e-10 -5.325835e-10
9.746464e-09 -5.596335e-09 -1.316653e-09 2.030883e-10 5.540415e-11 5.557555e-11
9.854002e-09 -5.821574e-09 -1.344328e-09 4.133055e-11 -1.351384e-12 -2.165168e-11
9.856922e-09 -5.584151e-09 -1.384591e-09 1.654255e-11 -2.118345e-12 -2.921208e-11
1.044950e-08 -5.785121e-09 -1.349384e-09 -6.953677e-11 2.398159e-11 5.410189e-11
1.017967e-08 -5.541219e-09 -1.345210e-09 1.963398e-10 3.281760e-11 1.258504e-11
1.027994e-08 -5.851379e-09 -1.340218e-09 2.218415e-11 -1.422495e-11 3.517886e-11
1.027631e-08 -5.713890e-09 -1.391804e-09 3.041785e-11 -4.723874e-11 4.886069e-11
1.046185e-08 -5.848690e-09 -1.354901e-09 -1.616228e-11 -5.098852e-11 1.249494e-10
1.041767e-08 -5.701004e-09 -1.398235e-09 3.755150e-10 -2.466667e-11 -1.251657e-10
1.023734e-08 -6.061799e-09 -1.377360e-09 -3.109869e-10 -2.066912e-11 5.360235e-11
-9.837412e-09 -9.702330e-09 5.886269e-09 1.933520e-09 1.123177e-09 2.254845e-10
-9.740693e-09 -1.312210e-08 5.758221e-09 2.051046e-09 4.593621e-10 2.573093e-10
-1.077986e-08 -1.155271e-08 5.215392e-09 4.892496e-09 9.957862e-10 -7.215252e-10
-1.104248e-08 -1.119369e-08 5.793186e-09 4.935204e-09 1.837735e-10 -2.376313e-10
-8.700228e-09 -1.244508e-08 6.302137e-09 1.971320e-09 4.755900e-10 4.899145e-10
9.383711e-09 -5.145214e-09 -1.312300e-09 -1.260304e-09 -2.988141e-10 2.522859e-10
3.579791e-08 2.659585e-08 -1.041121e-07 -1.039685e-08 4.929454e-08 8.907847e-09
8.116711e-09 -4.157391e-09 -1.172634e-09 -1.992744e-09 -1.951164e-10 1.959238e-10
8.309355e-09 -4.473297e-09 -1.305328e-09 -1.876956e-09 -3.815331e-10 2.556166e-10
9.447152e-09 -5.260544e-09 -1.162340e-09 -5.135595e-10 -9.734479e-11 1.560581e-10
9.437574e-09 -5.098584e-09 -1.238379e-09 -1.313612e-09 -1.426634e-10 9.119328e-11
8.458626e-09 -4.967933e-09 -1.210770e-09 -1.111296e-09 -1.575809e-10 1.322009e-11
8.070372e-09 -4.243966e-09 -1.145767e-09 -7.468740e-10 -2.772888e-10 -1.696752e-10
-3.409173e-09 2.540855e-09 1.907394e-10 -1.175567e-09 -1.725686e-11 -2.149814e-11
-1.651043e-08 9.146418e-09 -3.928545e-09 6.653311e-09 -1.149670e-09 2.012876e-10
-3.581731e-09 2.971859e-09 1.867488e-10 -3.968590e-10 -8.990764e-11 -1.929936e-10
-3.244761e-09 2.672111e-09 1.032880e-10 -7.316370e-11 -2.481884e-10 -1.305711e-11
-3.637477e-09 2.624246e-09 -5.760326e-11 -1.161100e-09 -2.768630e-11 -1.429749e-10
-1.614002e-09 1.989752e-09 -1.728268e-10 -1.613929e-09 -2.856160e-10 1.786751e-10
-1.991992e-09 2.068804e-09 -1.585301e-10 -1.360381e-09 -3.753167e-10 2.137979e-10
-1.487212e-08 -1.504494e-09 1.997185e-09 9.628377e-09 4.185453e-09 -1.741739e-09
-6.973474e-09 4.925688e-09 7.136218e-10 -1.300418e-10 -3.283862e-11 4.718648e-11
-1.246406e-08 2.011915e-08 -1.428739e-08 -2.529629e-09 -6.032909e-09 -4.949723e-09
-1.195241e-08 -9.828376e-09 3.709713e-09 8.903452e-09 7.112160e-10 2.663091e-11
-6.613775e-09 4.714662e-09 6.204273e-10 -1.682152e-10 -6.535328e-11 -8.689116e-11
-7.144670e-09 4.965280e-09 7.476793e-10 -2.942593e-10 -5.086376e-11 -2.582823e-12
-1.840026e-09 3.165203e-08 -2.681080e-08 -2.114532e-08 -5.563648e-09 4.822364e-09
-6.860036e-09 4.967348e-09 6.382377e-10 -1.126517e-10 -3.708367e-12 -9.660828e-11
-6.480693e-09 4.658391e-09 6.468610e-10 -4.323502e-10 -2.286349e-11 -1.622522e-10
-1.470753e-08 1.638040e-08 -1.545444e-08 -6.423626e-09 -1.397093e-08 -1.228550e-08
-4.841787e-09 3.743500e-09 3.434115e-10 -9.384493e-11 -5.882739e-11 -1.008260e-11
-4.354892e-09 3.672841e-09 5.174208e-10 -1.742726e-09 -2.497501e-10 -6.505235e-11
-5.492875e-09 4.053159e-09 3.972203e-10 -2.754659e-10 -1.429101e-10 -2.182391e-10
-4.746411e-09 3.298141e-09 3.240446e-10 -6.666165e-10 -2.292810e-10 3.211742e-11
4.673178e-09 -2.970212e-08 2.240035e-10 -4.703289e-09 -2.465796e-09 -5.046332e-10
1.257620e-09 -2.716108e-08 1.804692e-09 -3.390348e-09 -2.601450e-09 6.743551e-11
2.118273e-09 -2.087587e-08 2.671029e-09 -6.714426e-09 -1.883645e-09 5.351748e-10
5.130840e-09 -2.992640e-08 4.231684e-10 -1.295848e-08 -6.954143e-09 -2.230501e-09
1.000444e-08 -3.392252e-08 3.498871e-09 -5.434956e-09 -4.836982e-09 -4.943745e-10
1.089332e-08 -3.536973e-08 7.954584e-10 -4.798245e-09 -7.195272e-09 1.697363e-09
7.139376e-09 -2.862657e-08 -1.354326e-09 -1.148863e-08 -6.140403e-09 -3.087095e-09
-8.769377e-09 3.568342e-09 1.594966e-09 -4.068481e-10 -3.273654e-10 -7.217258e-10
5.162438e-09 -2.847991e-08 6.142393e-09 5.622068e-09 3.222771e-10 -6.062570e-10
5.056735e-09 -3.229352e-08 6.235883e-09 7.744749e-09 9.195038e-10 -7.067675e-12
4.855153e-09 -2.986607e-08 7.113065e-09 3.283908e-09 -6.096434e-10 7.936607e-10
2.909814e-09 -2.932562e-08 7.473942e-09 2.142839e-09 -6.049927e-10 3.135929e-10
-5.741336e-09 2.556722e-08 -3.429283e-08 -2.604016e-09 -8.578698e-09 1.215809e-08
2.625701e-09 -2.799074e-08 7.281451e-09 2.603576e-09 1.367375e-10 5.197720e-11
3.696536e-09 -2.797018e-08 7.304633e-09 4.299867e-09 -5.664180e-11 -1.107825e-10
1.295645e-08 -3.593277e-08 5.881317e-09 -2.263246e-09 5.836300e-10 -5.335254e-10
9.707243e-09 -3.360608e-08 5.995841e-09 -5.606865e-09 1.541366e-09 -2.067965e-10
1.137768e-08 -3.302512e-08 5.932032e-09 -3.780748e-09 9.434901e-10 -3.789864e-10
1.136946e-08 -3.485662e-08 6.168493e-09 -2.414307e-09 1.274823e-09 -1.726775e-10
1.051569e-08 -3.310473e-08 6.047018e-09 -3.804583e-09 -7.749751e-11 -6.096925e-10
-1.391226e-08 1.189667e-08 -2.449075e-09 -6.393973e-09 -8.930672e-09 -4.034783e-09
-3.092626e-09 4.194628e-08 -6.016760e-08 -1.497599e-08 -1.824500e-08 1.928844e-08
-1.521577e-08 1.170609e-08 -4.618560e-09 -8.786912e-09 -9.898551e-09 -8.342035e-09
-1.293869e-08 2.002270e-08 -1.157975e-08 -2.747450e-09 -6.906363e-09 -6.493651e-09
-9.076068e-09 2.074512e-08 -1.382752e-08 1.917095e-11 -7.027429e-09 -6.200910e-09
-9.027610e-09 2.074512e-08 -1.271921e-08 -4.543015e-11 -7.682687e-09 -5.900524e-09
-1.204353e-08 1.567232e-08 -1.068956e-08 -5.572305e-09 -7.769854e-09 -5.352131e-09
-1.521531e-08 1.336602e-08 -9.555657e-09 -1.080686e-08 -1.152102e-08 -7.107188e-09
4.371825e-08 -1.703589e-08 3.857207e-09 -1.006634e-08 -1.431351e-09 5.373001e-09
-7.038594e-09 4.212788e-09 9.088188e-10 -1.838174e-09 -3.808709e-11 -6.534639e-11
4.977156e-08 -2.096283e-08 3.217224e-10 -4.522500e-09 4.983029e-10 2.768970e-09
4.202899e-08 -1.282065e-08 1.959075e-09 -8.826246e-09 -1.712674e-09 8.673342e-10
4.202804e-08 -1.277116e-08 -1.449407e-09 -8.834293e-09 8.150377e-11 1.822575e-10
4.710194e-08 -1.819143e-08 6.295084e-10 -5.983820e-09 -7.981379e-10 4.466227e-09
3.472079e-08 -1.120160e-08 5.210261e-09 -1.644137e-08 -1.254239e-09 6.879018e-09
4.159806e-08 -1.418386e-08 7.536847e-09 -1.282540e-08 -7.607705e-10 1.072948e-09
5.397368e-08 -2.038813e-08 1.036665e-08 -1.434046e-08 -1.236617e-09 1.083502e-08
-4.335991e-09 2.964481e-09 2.611968e-10 -1.690406e-09 -2.466207e-10 -1.128919e-10
-6.688433e-09 3.282681e-09 1.142998e-09 8.196879e-10 1.247259e-10 -1.136606e-10
-6.997969e-09 3.601901e-09 9.767980e-10 2.347498e-10 2.016187e-11 -1.580580e-10
-7.382380e-09 3.361285e-09 1.227716e-09 2.297331e-10 -4.366196e-11 -1.484005e-10
-7.612847e-09 3.135872e-09 1.270198e-09 4.876153e-10 -1.190648e-10 -1.282516e-10
-7.455013e-09 3.628772e-09 1.178611e-09 4.451106e-11 8.010193e-11 -1.487752e-10
-7.589056e-09 3.196249e-09 1.327921e-09 3.989695e-12 -9.760237e-11 -1.943505e-10
-1.617808e-09 -1.938908e-08 9.036074e-10 -8.335500e-09 -4.140195e-09 -2.350115e-09
-5.321853e-09 -8.269214e-09 -1.529356e-09 -6.750469e-09 -4.016047e-09 -1.300318e-09
-1.438979e-09 -1.231737e-08 -4.031806e-09 -1.022199e-08 -5.469016e-09 -1.653032e-09
-1.475570e-09 -1.301946e-08 8.549113e-10 -1.005269e-08 -4.863106e-09 -1.950460e-09
-7.526416e-09 1.125874e-09 2.147217e-09 -5.638025e-11 2.000471e-10 -5.275247e-11
-7.400028e-09 9.746222e-10 2.075248e-09 8.179220e-12 7.260348e-11 -1.024794e-10
-7.298977e-09 1.033005e-09 2.003802e-09 1.427096e-10 5.460968e-11 -3.124025e-10
-7.260617e-09 9.216858e-10 2.087121e-09 1.934735e-10 2.382405e-11 -2.232085e-10
-7.171144e-09 1.025962e-09 1.980271e-09 -6.439128e-11 3.333196e-10 1.999650e-11
-7.796050e-09 1.957882e-09 1.810728e-09 -7.604330e-11 1.860948e-10 6.978773e-11
-7.451905e-09 1.813689e-09 2.116738e-09 -1.695846e-10 1.868705e-10 -2.816766e-10
-3.882103e-10 -1.397361e-08 -1.825925e-09 -6.367554e-09 3.047652e-11 -9.988692e-10
-2.411703e-09 -1.472203e-08 -1.730820e-09 -2.720962e-09 -1.675754e-09 -7.296195e-10
-7.720908e-10 -1.568504e-08 -1.550897e-09 -8.280185e-10 -5.727034e-10 -1.162508e-10
-9.335639e-09 3.586923e-09 1.690768e-09 -5.543886e-10 -4.541345e-11 -4.546667e-10
-6.093934e-10 -1.062568e-08 -3.134671e-09 -6.310053e-09 -2.385155e-09 -3.179856e-10
4.425354e-09 -2.393736e-08 -4.611250e-09 -7.906907e-09 -3.242271e-09 -5.513309e-10
4.334023e-09 -2.197758e-08 -3.252106e-09 -6.016577e-09 -7.769145e-10 2.493630e-13
-5.465674e-09 -1.648287e-08 6.743189e-09 3.171335e-09 7.376004e-10 4.071952e-10
-9.850815e-09 -6.483478e-09 -7.672405e-10 1.584392e-08 5.715171e-10 1.731588e-11
-6.259365e-09 -1.596495e-08 7.300574e-09 9.456746e-10 1.843387e-10 1.976264e-10
-5.902395e-09 -1.521684e-08 6.796478e-09 1.768260e-09 2.191916e-10 2.140401e-10
-8.571741e-09 4.008928e-09 1.344746e-09 -1.525911e-09 -1.822763e-12 -2.769413e-10
-4.429490e-09 -1.765322e-08 6.843837e-09 1.643873e-09 -1.298884e-10 3.980753e-10
-4.701149e-09 -1.887435e-08 7.222229e-09 2.135069e-09 -3.468967e-10 4.087410e-10
-6.293278e-09 -1.589528e-08 7.052428e-09 9.484129e-10 -5.123990e-11 -1.645352e-13
-5.458459e-09 -1.592747e-08 6.710297e-09 1.604014e-09 -7.848831e-11 2.814755e-10
-1.513966e-08 -1.399919e-09 5.831948e-10 1.100819e-08 2.048463e-09 -1.079151e-09
-1.607096e-08 -5.565825e-09 7.761658e-10 2.019752e-08 8.057947e-09 -3.867442e-09
-1.603357e-08 -5.561932e-09 6.601635e-10 2.011658e-08 4.754253e-09 -3.101585e-09
-1.287771e-08 -5.131735e-10 -6.683720e-10 1.510633e-08 4.106438e-09 -8.563729e-10
7.105095e-09 4.328349e-08 -8.209799e-08 -7.231250e-09 -1.372507e-08 4.726794e-09
-1.550792e-08 1.111427e-09 -2.189600e-09 1.216403e-08 8.361272e-09 -2.218075e-09
-1.566378e-08 1.609049e-09 -1.319810e-09 1.360775e-08 3.936341e-09 -2.057247e-09
-1.593094e-08 -5.581979e-10 -1.275992e-09 1.468223e-08 3.341897e-09 -1.996907e-09
-1.330823e-08 2.077174e-09 -1.249492e-09 1.473203e-08 4.366462e-09 -1.358836e-09
-1.663843e-08 4.197435e-09 -4.278329e-09 1.737274e-08 7.151049e-09 -2.381043e-09
-1.565780e-08 1.376250e-08 -5.447032e-09 -1.849293e-09 -1.835231e-09 -4.822880e-10
-1.366880e-08 1.545005e-08 -7.115767e-09 -3.764925e-09 -4.599609e-09 -3.212152e-09
-1.412426e-08 1.346288e-08 -5.490235e-09 -5.271655e-10 -1.706745e-09 -7.532022e-10
-1.488735e-08 1.416875e-08 -6.463779e-09 -4.498372e-09 -3.626043e-09 -1.504238e-09
2.886625e-09 2.848358e-08 -4.575212e-08 2.779758e-09 -1.713110e-08 1.199989e-08
-1.358252e-08 1.789442e-08 -9.154353e-09 -3.485129e-09 -3.674379e-09 -1.674520e-09
-1.030462e-08 1.779361e-08 -1.113909e-08 -1.478335e-09 -4.309784e-09 -2.902985e-09
-1.485067e-08 1.511135e-08 -5.501697e-09 -3.861636e-09 -1.981241e-09 4.556025e-10
2.581062e-08 -4.247991e-08 -1.366073e-08 -1.243703e-09 -5.722007e-09 2.595167e-10
2.608141e-08 -3.936540e-08 -2.721200e-08 -2.640865e-09 -9.147201e-09 -7.629933e-10
2.373043e-08 -3.811001e-08 -1.323038e-08 -7.157359e-09 -6.586911e-09 4.308803e-11
2.401746e-08 -3.434784e-08 -1.807079e-08 -6.169562e-09 -2.029105e-09 5.461376e-10
4.861219e-09 -3.114735e-09 -8.927941e-10 1.078097e-09 2.166848e-10 1.397455e-10
5.640705e-09 -2.839891e-09 -6.491803e-10 1.456876e-09 -3.098030e-11 -8.624313e-11
4.476312e-09 -2.262605e-09 -6.737122e-10 9.950403e-10 3.118128e-10 2.311694e-10
4.634217e-09 -2.323442e-09 -7.685931e-10 2.215688e-09 2.402967e-10 1.252898e-10
3.356472e-09 -2.056353e-09 -6.022667e-10 1.761838e-09 1.891209e-10 -3.031438e-10
-1.449517e-08 -5.564263e-09 2.458470e-09 1.881585e-08 6.731567e-09 -2.234854e-09
-1.729301e-08 5.344464e-09 -9.174421e-10 1.065352e-08 5.663320e-09 -2.175472e-09
-1.980327e-08 8.020649e-09 2.729470e-10 1.844659e-08 7.939544e-09 -4.049391e-09
3.198206e-08 -1.573871e-09 -6.774437e-08 1.325622e-08 2.658101e-08 -7.342021e-09
-1.987801e-08 7.237699e-09 -2.378112e-09 1.792389e-08 6.204766e-09 -4.635652e-09
-7.211041e-09 3.831182e-09 1.050084e-09 2.477498e-10 3.307610e-11 -3.898348e-11
-7.339759e-09 3.850223e-09 1.114841e-09 8.892131e-11 -1.173883e-11 -7.929658e-12
-7.194938e-09 3.849680e-09 9.688690e-10 2.304867e-10 -3.112832e-11 1.964653e-11
-7.185706e-09 3.930417e-09 1.023126e-09 1.920322e-10 3.541878e-11 -1.437961e-11
-7.223324e-09 3.946786e-09 1.046128e-09 3.349632e-11 -1.012757e-11 1.937384e-11
-8.571740e-09 4.068943e-09 1.567765e-09 -8.426943e-10 1.386338e-10 4.153349e-10
-8.105582e-09 3.878442e-09 1.210882e-09 -1.796133e-09 4.649614e-12 7.092105e-11
-7.333634e-09 3.842348e-09 1.103730e-09 9.076650e-11 1.339395e-11 -1.839529e-11
-8.250881e-09 -7.419061e-10 2.485835e-09 3.033009e-10 -3.398054e-10 -9.979664e-10
-7.520536e-09 -3.148852e-09 3.018461e-09 1.220170e-09 -7.500953e-10 -1.109523e-09
-8.220818e-09 -1.984095e-09 2.325502e-09 5.719933e-10 -1.220725e-10 -9.116674e-10
-7.255633e-09 -6.029072e-09 2.794421e-09 6.844963e-10 3.155664e-10 -6.310299e-10
-8.270462e-09 -2.218057e-09 2.470023e-09 2.246534e-10 -3.862289e-10 -8.495892e-10
-3.292718e-09 -1.070989e-08 4.099194e-09 -2.839321e-09 3.488202e-10 -1.159830e-09
-3.958916e-09 -8.873469e-09 3.594579e-09 -2.578447e-09 7.189141e-10 -4.863456e-10
-4.844567e-09 -6.435747e-09 3.070979e-09 -2.309377e-09 -5.554302e-10 -8.123203e-10
-4.824015e-09 -7.403752e-09 3.359187e-09 -3.094712e-09 4.631229e-11 -1.004024e-09
-5.122304e-09 -5.363514e-09 3.420926e-09 -2.116157e-09 3.370447e-10 -8.544047e-10
-7.028453e-09 2.866696e-09 1.433516e-09 4.437093e-10 -7.755962e-12 -8.056844e-11
-6.990773e-09 2.861828e-09 1.333573e-09 6.117280e-10 6.937517e-11 -1.834706e-10
-6.883615e-09 2.647649e-09 1.289741e-09 1.241865e-10 2.224274e-10 -3.823224e-10
-6.734895e-09 2.932896e-09 1.194862e-09 6.415537e-10 9.375378e-11 -3.887264e-10
-1.420566e-08 4.663132e-10 -1.642252e-10 -6.208046e-09 -4.185728e-09 -1.774127e-09
-1.481282e-08 6.910566e-09 -4.675762e-10 -5.836112e-09 -3.169155e-09 -1.565918e-09
-1.227475e-08 -5.061153e-09 7.735133e-10 -7.291446e-09 -4.706819e-09 -8.236322e-10
-1.108582e-08 -5.031373e-09 4.575313e-10 -9.056792e-09 -6.364080e-09 -1.971928e-09
-1.295053e-08 4.132901e-09 -2.829930e-09 -6.763012e-09 -2.432331e-09 -1.152091e-09
-1.294261e-08 -1.170879e-09 -2.653658e-09 -6.399786e-09 -3.178533e-09 -1.197032e-09
-1.104282e-08 -8.557917e-09 3.943282e-09 8.664130e-09 1.782406e-09 1.539810e-10
-8.312215e-09 -1.440229e-08 5.335440e-09 7.745982e-09 -8.213104e-11 7.984733e-11
-8.039157e-09 -1.095692e-08 4.365809e-09 8.135196e-09 1.535673e-09 -3.398127e-11
1.316426e-08 -3.776581e-08 5.773922e-09 -2.074635e-09 5.172754e-10 -3.293839e-10
1.131920e-08 -3.241227e-08 5.563939e-09 -3.702103e-09 6.071425e-11 -7.164951e-10
1.239082e-08 -3.412416e-08 5.589730e-09 -6.461048e-09 3.124381e-10 2.924141e-10
1.288423e-08 -3.741752e-08 6.713770e-09 -1.843695e-09 -7.624582e-10 9.865132e-11
1.172504e-08 -3.712311e-08 5.061168e-09 -4.371321e-09 1.785477e-09 -2.175669e-10
-2.326394e-08 4.708199e-08 -3.795310e-08 3.074943e-09 1.317376e-08 -2.042564e-08
-1.464933e-08 4.589022e-08 -2.204345e-08 -5.315263e-09 3.596855e-09 -9.423475e-09
-2.025024e-08 4.611516e-08 -2.775025e-08 -3.297048e-09 1.377116e-09 -2.599648e-10
-2.690144e-08 4.737003e-08 -3.300061e-08 5.634437e-09 1.070539e-08 -2.168620e-08
-2.958223e-09 2.674620e-09 1.814671e-10 -8.865131e-10 -3.363243e-11 -1.263301e-11
-9.405735e-09 9.988306e-10 7.507275e-10 1.008020e-09 -9.366428e-10 -4.883853e-10
-8.942146e-09 -2.301945e-09 2.094399e-09 1.783056e-09 -8.268530e-10 -2.165273e-10
-8.684432e-09 6.289795e-10 1.727367e-09 7.901027e-10 -1.634149e-09 -3.808536e-10
-7.964768e-09 -2.493919e-09 2.584953e-09 1.290640e-09 -1.927674e-09 2.540610e-11
-9.570161e-09 7.753267e-10 1.321490e-09 3.585963e-10 -1.125645e-09 4.129585e-11
-9.556667e-09 1.384750e-09 2.495003e-09 1.698497e-11 -8.218872e-11 -5.652412e-10
-1.627069e-08 9.825569e-09 -1.426526e-09 -9.834709e-10 -4.398207e-09 -4.812883e-10
-1.675060e-08 1.006074e-08 -6.024479e-10 -1.097155e-09 -3.894561e-09 -3.557788e-10
-1.644361e-08 1.145078e-08 -3.871286e-09 -3.241142e-09 -3.996977e-09 -2.100827e-09
-1.569106e-08 1.009575e-08 -2.757917e-09 -1.160765e-09 -3.250687e-09 -7.938354e-10
-1.569021e-08 1.126018e-08 -2.834710e-09 -1.288179e-09 -3.680849e-09 -6.912266e-10
2.130745e-08 -3.022682e-08 -2.581816e-08 -1.694537e-08 1.434898e-08 2.759797e-09
8.874789e-09 -1.765469e-08 -2.013456e-08 -2.243179e-08 4.127236e-09 1.428930e-09
9.104705e-09 -1.830435e-08 -1.699485e-08 -2.170031e-08 5.525353e-09 2.399849e-09
2.123898e-08 -2.767152e-08 -2.802493e-08 -1.673264e-08 4.312498e-09 1.366973e-09
-3.322420e-09 2.692286e-09 1.131557e-10 -1.054662e-09 -5.176926e-11 -7.796697e-11
1.329381e-08 -3.211122e-08 -5.604936e-09 -3.957198e-09 -2.806102e-09 -1.404321e-10
1.954599e-08 -4.057701e-08 -6.793004e-09 -4.736265e-09 -5.561926e-09 1.781770e-10
1.927141e-08 -4.014484e-08 -5.593377e-09 -2.781236e-09 -2.130835e-09 -6.311892e-10
1.976677e-08 9.225493e-08 -1.340205e-07 -1.508602e-09 3.899289e-08 7.434334e-09
-9.005242e-09 3.614555e-08 -1.576002e-08 -1.090853e-08 2.087617e-09 1.717791e-08
1.891917e-08 -4.021993e-08 -6.609089e-09 -2.996818e-09 -1.468622e-09 -3.099933e-10
-3.973830e-09 5.057668e-08 -3.096432e-08 -3.007859e-08 8.019434e-09 2.976342e-09
-3.325527e-09 3.603811e-08 -1.157070e-08 -3.333771e-08 -3.460915e-09 6.667149e-09
-1.332435e-08 5.252804e-08 5.195828e-10 -3.463621e-08 -3.913356e-09 -7.889778e-10
-1.701554e-08 6.458565e-08 -2.545881e-08 -4.253715e-08 7.958577e-09 1.638176e-09
-2.022269e-09 2.303982e-09 -1.331877e-10 -2.143453e-09 -1.194262e-10 4.948728e-10
-1.652166e-08 1.116923e-08 -2.790169e-09 -1.751979e-09 -3.690594e-09 -4.765117e-10
2.878702e-09 -2.862040e-08 6.261610e-09 4.655869e-09 8.946705e-10 5.000052e-10
3.387329e-09 -2.563181e-08 7.111051e-09 3.607363e-09 2.682674e-10 9.781897e-11
1.392888e-09 -2.572693e-08 7.271335e-09 2.650750e-09 4.937610e-10 9.271092e-10
1.672963e-09 -2.578743e-08 7.020840e-09 3.417888e-09 7.168454e-10 4.911343e-10
3.237043e-09 -2.875947e-08 7.079799e-09 4.508689e-09 8.047775e-10 -2.663259e-10
1.251975e-08 -3.629211e-08 6.911513e-09 4.676404e-10 8.503677e-11 -2.265623e-10
1.266407e-08 -3.766921e-08 7.276201e-09 7.691232e-11 -4.095009e-11 -2.796052e-10
1.243546e-08 -3.700198e-08 7.051424e-09 2.052465e-10 2.552154e-10 -1.023179e-10
-2.735852e-09 -1.147298e-08 2.525767e-09 2.543658e-09 -6.659982e-10 -7.162770e-11
-7.063363e-09 -6.596723e-09 5.467604e-10 3.553703e-09 -1.760165e-09 -4.681153e-10
-6.785241e-09 -6.058594e-09 1.090633e-09 2.987960e-09 -2.701913e-09 -6.935848e-11
-3.633119e-09 -9.952329e-09 3.535186e-09 3.353564e-09 -8.828955e-10 -2.054881e-10
-6.884352e-09 -1.113235e-08 4.504717e-10 8.458660e-09 -5.540062e-09 2.578873e-09
-6.836517e-09 -8.229022e-09 3.221251e-09 4.083886e-09 -1.441212e-09 1.675076e-10
-1.444711e-09 -1.852362e-08 4.386816e-09 6.526227e-09 -1.828314e-09 3.048070e-10
2.010493e-09 -2.126130e-08 3.455910e-09 2.130034e-09 -4.595319e-10 -5.482420e-11
7.459172e-09 -2.912153e-08 1.433956e-09 5.085173e-09 -4.361301e-09 1.988437e-10
4.485111e-09 -2.879589e-08 3.922544e-09 7.581012e-09 -3.767919e-09 8.340536e-10
-1.516995e-09 -1.544812e-08 2.364527e-09 6.361275e-09 -3.611479e-09 8.833006e-10
-1.606779e-09 -1.539122e-08 1.399530e-09 6.081187e-09 -2.791500e-09 1.179409e-09
-9.301530e-09 3.314540e-09 1.712919e-09 -1.292453e-09 -3.829130e-10 -2.789777e-10
-9.034081e-09 3.045715e-09 1.716381e-09 -8.826053e-10 -1.964107e-10 -4.916993e-10
-8.798467e-09 3.014872e-09 1.490197e-09 -7.952347e-10 -2.893710e-10 -4.356607e-10
-8.402850e-09 2.195421e-09 1.636906e-09 -6.666783e-10 -5.747364e-10 -6.994358e-10
-8.906249e-09 4.334926e-10 1.769843e-09 1.498448e-10 -1.551891e-09 -2.049940e-10
-8.652656e-09 4.567307e-10 2.165722e-09 -1.379341e-10 -7.623633e-10 -5.931802e-10
-9.552092e-09 2.524745e-09 1.904111e-09 -2.542191e-10 -3.307448e-10 -7.851035e-10
-8.899486e-09 2.549861e-09 2.021373e-09 -8.978902e-10 -4.331323e-10 -3.417286e-10
-5.722653e-09 4.154916e-09 5.977814e-10 -1.289946e-09 -1.015916e-10 -2.312630e-10
-5.719979e-09 4.138444e-09 5.088978e-10 -1.280366e-09 -6.113243e-11 -2.640957e-10
-5.716376e-09 4.095661e-09 4.899987e-10 -1.247185e-09 -2.418752e-10 -2.213009e-10
-6.185956e-09 4.257437e-09 5.184155e-10 -1.187808e-09 -1.294283e-10 -1.908573e-10
-6.316846e-09 4.408041e-09 4.947232e-10 -1.236792e-09 -1.943660e-10 -2.584768e-10
2.392725e-08 1.078713e-08 -7.629910e-09 1.619183e-08 -1.366750e-09 -4.029322e-10
2.220262e-08 2.345133e-09 -7.674056e-09 5.735698e-09 -3.205158e-09 -2.740701e-09
1.112637e-08 5.464763e-09 -7.060591e-09 7.664196e-09 -2.975810e-09 -4.367007e-09
2.692287e-08 -3.057703e-09 -5.210252e-09 1.492856e-08 -8.342025e-12 -1.843221e-09
8.525706e-09 9.803591e-09 -7.258736e-09 1.104100e-08 -1.220988e-09 -1.269274e-09
3.329399e-08 -4.171946e-10 -7.010414e-09 1.689794e-08 7.725719e-10 2.300217e-09
2.771063e-08 -6.224377e-10 -5.372977e-09 1.254123e-08 7.844932e-10 3.995819e-10
-6.924005e-09 -2.251367e-09 2.535188e-09 -1.494568e-09 -3.341105e-11 -3.862059e-10
-6.952924e-09 -1.513645e-09 2.776193e-09 -9.089378e-10 -4.682170e-10 -2.588476e-10
-7.339939e-09 1.809913e-09 1.835237e-09 5.614216e-10 1.769884e-11 -3.350633e-10
-7.239120e-09 -6.355627e-11 2.086234e-09 -6.407348e-10 5.366063e-11 -1.944369e-10
-7.377481e-09 9.422116e-10 2.523975e-09 -1.451929e-11 2.139489e-11 -2.810349e-10
-6.936896e-09 -6.291323e-10 2.720954e-09 -1.497882e-10 9.836967e-11 -2.880835e-10
-6.912249e-09 -1.516248e-09 2.902144e-09 -9.072931e-10 1.172966e-10 -3.220340e-10
-7.307898e-09 -5.140617e-10 2.433652e-09 -1.004056e-09 3.616067e-10 -5.566825e-11
-7.162103e-09 1.080149e-10 2.310158e-09 -4.395044e-10 -1.709743e-10 -7.813172e-11
3.605976e-08 -1.113056e-08 -8.164993e-10 -8.598329e-09 -8.797980e-10 5.351833e-09
5.000828e-08 -1.925401e-08 -1.423017e-09 -3.421013e-09 -2.668062e-10 1.607692e-10
3.522459e-08 -1.239319e-08 -1.423164e-09 -7.279408e-09 8.307517e-10 -1.123952e-09
3.275964e-08 -9.284404e-09 -2.441676e-09 -6.248402e-09 6.965628e-10 -2.864063e-09
3.795580e-08 -1.247337e-08 -3.140714e-09 -7.902622e-09 1.214501e-09 2.808730e-09
9.438093e-09 -5.295956e-09 -1.206140e-09 9.133899e-10 8.249237e-11 8.380230e-11
8.696368e-09 -5.056479e-09 -1.185108e-09 7.362608e-10 5.567108e-11 -4.792156e-11
8.576128e-09 -4.641707e-09 -1.050605e-09 1.574502e-09 1.092488e-10 2.631333e-10
7.671340e-09 -4.591767e-09 -9.378930e-10 1.318356e-09 2.061870e-10 1.750739e-10
-9.880632e-09 -4.130101e-09 1.369425e-09 -3.083167e-09 -1.649233e-09 -6.989960e-10
8.151276e-09 -4.417819e-09 -1.083677e-09 1.615751e-09 7.136208e-11 -8.518561e-11
8.160123e-09 -5.053532e-09 -1.001877e-09 6.518626e-10 5.490561e-11 1.416756e-10
8.097622e-09 -5.139115e-09 -1.034724e-09 1.389268e-09 2.965144e-10 3.114076e-11
9.022067e-09 -4.926061e-09 -1.204339e-09 7.421417e-10 1.083808e-10 6.943424e-11
9.468626e-09 -5.140328e-09 -1.316412e-09 7.057682e-10 2.870815e-11 3.666857e-10
-6.775200e-09 3.719151e-09 9.431946e-10 3.254841e-10 5.109824e-11 4.644363e-11
-7.064438e-09 3.895088e-09 9.218826e-10 1.429394e-10 7.187387e-11 3.280487e-11
-2.944347e-10 1.329770e-09 -2.210023e-10 -9.077938e-11 -4.082912e-11 1.222356e-12
-7.112339e-09 3.824386e-09 9.650463e-10 1.893436e-10 -6.573409e-12 4.883205e-12
-6.858194e-09 3.824055e-09 8.934236e-10 -4.205823e-12 8.091097e-12 -2.206812e-10
-6.574052e-09 3.700114e-09 8.559966e-10 7.922396e-11 -2.417189e-11 -8.308004e-11
-6.801257e-09 3.849738e-09 9.703869e-10 1.643353e-10 -4.044511e-11 5.277922e-11
-6.547969e-09 3.749756e-09 8.889964e-10 2.246587e-10 7.535839e-11 2.419966e-10
1.042465e-09 -3.718776e-10 -3.186038e-10 1.672558e-09 2.728535e-10 -4.156592e-10
1.514504e-09 -3.815810e-10 -5.906742e-11 2.129483e-09 2.738134e-10 2.171852e-10
1.675516e-09 -3.877378e-10 -2.118230e-10 2.086450e-09 2.339623e-10 1.590585e-10
-6.919227e-10 6.918759e-10 -4.789058e-11 1.901456e-09 4.263221e-10 -5.353029e-11
-8.394530e-11 5.143503e-10 -2.268152e-11 2.263242e-09 2.616913e-10 -3.688141e-10
1.454369e-09 -3.333140e-10 -1.679314e-10 2.230658e-09 2.644843e-10 2.406519e-11
5.503438e-10 1.363869e-10 -9.127910e-11 3.165524e-09 9.783130e-11 -6.014655e-11
-7.622084e-09 4.983592e-09 8.329470e-10 -3.545955e-10 -3.603540e-11 -1.755099e-10
-6.557898e-09 4.864120e-09 6.669096e-10 -4.094369e-10 -1.166491e-10 -1.301417e-10
-7.310682e-09 5.039000e-09 7.713146e-10 -4.276445e-10 -1.919809e-11 -5.504838e-11
-7.663632e-09 4.735786e-09 8.779875e-10 -1.070426e-09 -5.328415e-11 -2.584833e-10
-8.937540e-09 1.335228e-08 -5.828291e-09 -2.839887e-09 -6.839017e-09 -9.416133e-09
-1.477815e-08 1.189691e-08 -6.977320e-09 -6.322700e-09 -8.665430e-09 -6.248139e-09
-1.376382e-08 1.540349e-08 -3.863242e-09 -3.374839e-09 -5.134648e-09 -4.184063e-09
-4.528630e-09 -1.796231e-08 7.099410e-09 5.366498e-10 9.366685e-11 -6.306688e-11
-1.635259e-08 1.644952e-08 -4.970289e-09 -5.836881e-09 -8.872224e-09 -6.397973e-09
-8.780408e-09 2.358048e-08 -9.631882e-09 2.678482e-10 -9.720141e-09 -1.024141e-08
2.421126e-08 -5.675999e-08 3.094327e-09 3.036569e-09 -1.160796e-08 5.059170e-10
2.370079e-08 -5.362098e-08 -1.811721e-09 6.476866e-10 -1.120471e-08 1.259907e-09
2.699761e-08 -5.136479e-08 -2.768707e-09 5.377639e-09 -1.763197e-08 3.423443e-09
-7.044321e-10 1.331458e-09 -2.118221e-10 -1.644660e-10 -1.593725e-10 -3.156482e-10
2.670767e-08 -6.333091e-08 -8.103341e-10 -7.390754e-10 -2.198421e-08 1.880611e-09
7.707097e-09 -3.265959e-08 7.407945e-09 4.016533e-09 -2.477480e-10 5.323562e-10
7.546664e-09 -3.221103e-08 6.917582e-09 3.973315e-09 4.038919e-10 -1.676237e-11
9.656564e-09 -3.665415e-08 7.652421e-09 4.083066e-09 8.545545e-10 2.492759e-10
8.595322e-09 -3.433453e-08 6.111150e-09 5.897840e-09 9.686298e-10 3.601621e-10
7.394124e-09 -3.185442e-08 6.966661e-09 5.063286e-09 7.851338e-10 2.747931e-10
-1.317312e-09 -2.284060e-08 7.254125e-09 3.428008e-09 -1.366306e-10 2.740816e-10
-4.851073e-10 -2.326178e-08 7.021298e-09 5.428094e-09 7.258194e-10 6.108195e-10
5.854742e-09 -2.918596e-08 7.490136e-09 1.578229e-09 -3.166414e-10 9.023810e-10
1.690878e-09 -2.588461e-08 7.259386e-09 3.422145e-09 1.902531e-10 2.776268e-10
2.307232e-09 -2.589119e-08 7.171260e-09 1.835205e-09 -5.234390e-10 3.237350e-10
2.347546e-09 -2.836425e-08 7.351201e-09 1.868136e-09 -4.538478e-10 -1.636544e-10
3.933035e-09 -2.884603e-08 7.518062e-09 1.631971e-09 -5.528980e-10 3.521650e-10
5.143475e-08 -1.053898e-08 -8.260521e-09 1.063213e-08 3.545596e-09 6.245670e-09
5.305158e-08 -2.237048e-08 -5.888883e-09 2.297288e-09 -5.808313e-10 4.208120e-09
5.450076e-08 -1.825257e-08 -5.797658e-09 5.376758e-09 5.801682e-11 4.603814e-09
5.154032e-08 -1.818622e-08 -5.714610e-09 7.079952e-09 -1.459702e-09 5.853053e-09
5.226763e-08 -1.397773e-08 -6.548168e-09 5.051099e-09 2.553179e-10 5.646188e-09
4.413570e-08 -1.014074e-08 -3.495096e-09 8.373193e-09 -3.078698e-10 5.463130e-09
4.725557e-08 -1.063730e-08 -8.953293e-09 1.313052e-08 1.884783e-09 -9.125569e-10
5.835208e-08 -1.554413e-08 -1.175352e-09 4.419994e-09 3.998068e-09 1.071289e-08
-7.737368e-09 2.831760e-09 1.499986e-09 4.749356e-10 2.777600e-11 -5.673129e-11
-5.450570e-09 4.230573e-09 4.244975e-10 -4.598282e-10 -4.743872e-12 6.981404e-11
-7.692286e-09 2.923581e-09 1.519963e-09 1.933382e-10 5.219891e-11 -3.847345e-11
-7.699136e-09 2.837066e-09 1.650126e-09 3.162599e-10 2.773248e-11 -1.553797e-10
-7.608395e-09 2.823577e-09 1.655023e-09 6.496297e-10 -1.732126e-11 -2.682634e-10
-7.557093e-09 1.927504e-09 1.963269e-09 2.798761e-10 -1.854794e-11 -2.793138e-10
-7.660047e-09 2.228663e-09 2.061069e-09 -2.765819e-10 -1.977818e-10 -4.830492e-11
4.675402e-08 -1.531534e-08 -5.613941e-09 -1.467230e-09 1.411793e-09 -1.454615e-10
5.078128e-08 -1.773391e-08 -6.192225e-09 -4.017469e-09 8.581637e-11 4.919690e-09
4.464926e-08 -1.760582e-08 -2.751615e-09 -3.469842e-09 -3.007724e-10 3.643738e-09
4.712219e-08 -1.360946e-08 -4.754817e-09 -2.270864e-09 1.596693e-10 4.693921e-10
5.572783e-08 -1.850608e-08 -8.968408e-10 7.297315e-10 4.526151e-10 7.713937e-09
4.707595e-08 -1.404977e-08 -5.617686e-09 -3.092927e-09 1.541138e-09 5.321885e-09
5.535057e-08 -1.775637e-08 -5.957545e-09 4.814943e-10 6.894822e-10 6.099424e-09
-6.119063e-09 -1.528605e-08 6.322514e-09 2.698144e-09 5.052221e-10 8.399814e-11
-5.939800e-09 -1.502788e-08 6.548323e-09 1.664427e-09 -5.403722e-11 1.176869e-10
-6.121625e-09 -1.546312e-08 6.490299e-09 2.667055e-09 -1.612607e-10 -1.210523e-10
-5.009686e-09 -1.828564e-08 7.360413e-09 8.043618e-10 -1.918748e-11 -1.896337e-10
-6.099157e-09 -1.720149e-08 7.048872e-09 5.361471e-10 -1.682001e-10 1.027578e-11
-4.247654e-09 -1.889046e-08 7.344704e-09 7.649055e-10 -4.106904e-10 2.111578e-10
1.078935e-08 -6.123302e-09 -1.411576e-09 -1.293020e-09 -3.015285e-11 7.354395e-11
-5.893154e-09 -1.757720e-08 6.894800e-09 1.068382e-09 1.825656e-12 -3.210323e-12
-4.192433e-09 -1.924316e-08 7.186509e-09 7.697545e-10 5.551545e-10 1.626737e-10
-6.199393e-09 -1.441416e-08 5.754362e-09 5.549553e-09 5.660084e-10 1.696951e-10
-6.295377e-09 -1.826168e-08 6.742191e-09 4.520348e-09 4.265238e-10 5.414918e-10
-8.361160e-09 -1.502308e-08 6.551542e-09 4.313235e-09 4.993390e-10 5.089343e-10
-7.632090e-09 -1.316341e-08 6.520043e-09 2.931427e-09 3.032263e-10 -1.401952e-10
-7.346619e-09 -1.430662e-08 6.489255e-09 4.452763e-09 -1.295530e-09 1.185609e-10
4.149102e-09 -2.813343e-08 7.085783e-09 1.100735e-09 5.624666e-10 1.755094e-10
-1.486139e-08 3.016247e-09 3.504725e-10 -5.022988e-09 -2.543405e-09 -2.014370e-10
-1.584653e-08 4.302688e-09 1.472191e-09 -3.212272e-09 -4.428476e-09 -4.469751e-10
-1.625831e-08 3.727828e-09 2.429521e-09 -1.715054e-09 -8.313840e-10 -9.004287e-11
-1.681973e-08 3.132872e-09 1.524381e-09 -4.732597e-10 -2.998353e-10 -2.186007e-10
4.930296e-09 -1.366932e-09 2.017222e-10 6.761169e-09 4.005543e-10 3.664056e-10
4.307015e-08 3.020959e-08 -1.115394e-07 -9.426368e-09 5.876012e-08 6.321190e-09
-1.647530e-08 5.076380e-09 7.883907e-10 -1.126233e-09 -3.190337e-11 -1.131402e-10
-1.673727e-08 5.493890e-09 4.414653e-10 -1.014461e-09 -1.657231e-09 -1.276158e-10
-1.704032e-08 5.754401e-09 3.892402e-10 -1.044548e-09 -1.856195e-09 1.455391e-10
8.206658e-09 -4.206669e-09 -1.106144e-09 -1.992406e-09 -1.354847e-10 8.383860e-11
9.422304e-09 -5.096287e-09 -1.170019e-09 -1.306461e-09 -1.602991e-10 8.645307e-11
7.193472e-09 -4.090097e-09 -1.165358e-09 -1.244584e-09 -5.720269e-11 1.694755e-12
8.913879e-09 -4.885527e-09 -1.252584e-09 -1.306081e-09 -2.645314e-10 2.965698e-10
7.953748e-09 -4.249437e-09 -1.201937e-09 -9.616583e-10 -7.348616e-11 5.400258e-11
7.973126e-09 -4.246980e-09 -1.034563e-09 -8.195608e-10 -1.484403e-10 -1.125887e-10
6.902948e-09 -3.719491e-09 -1.097717e-09 -1.544739e-09 -3.290550e-10 8.329777e-10
5.044383e-09 3.657807e-11 -1.081960e-09 -1.058313e-08 -2.539473e-10 8.888416e-10
8.040167e-09 -6.328836e-10 -1.180131e-09 -1.277590e-08 6.032421e-11 2.433259e-11
9.860995e-09 -3.456837e-09 -8.922805e-10 -9.847514e-09 -4.623769e-11 6.185639e-10
7.701782e-09 -2.490959e-09 -7.036740e-10 -8.375811e-09 -1.150250e-10 -9.183365e-10
4.486771e-09 4.317013e-11 -1.013136e-09 -1.086952e-08 -5.164129e-10 6.745646e-10
-1.545297e-10 4.762253e-10 -1.077227e-10 1.389145e-09 1.115286e-11 -3.351874e-10
-1.745448e-11 4.277245e-10 -7.708856e-11 2.519296e-09 2.941242e-10 -1.137170e-10
3.438849e-11 1.484883e-10 -1.697709e-10 2.019189e-09 -1.415623e-10 8.268941e-11
1.073441e-09 -1.876623e-10 -2.796914e-10 1.742302e-09 9.771983e-11 5.091279e-10
-1.315998e-09 9.668035e-10 9.407586e-12 1.680751e-09 7.730261e-11 5.516942e-11
-7.176713e-10 8.099550e-10 -1.138902e-10 1.877977e-09 2.180297e-10 -3.991030e-11
6.265379e-10 2.080824e-11 -7.077894e-11 1.030304e-09 -5.796108e-11 -2.384470e-11
-1.979370e-09 1.836608e-09 5.633645e-10 5.818211e-09 -3.822680e-10 -8.619583e-10
-9.192505e-09 -1.270362e-10 1.972714e-09 3.007279e-10 -3.348497e-10 -6.035828e-10
-8.027770e-09 -2.543279e-09 2.184586e-09 -1.200275e-10 -7.738219e-10 -9.124353e-10
-8.228647e-09 -1.835078e-09 2.726603e-09 4.211282e-10 -6.347347e-10 -8.603933e-10
-8.448075e-09 -7.075585e-10 2.210160e-09 -1.527074e-10 8.289969e-11 -7.203200e-10
-8.670918e-09 -3.770690e-10 2.680088e-09 -3.086811e-10 -1.011915e-10 -6.856000e-10
-5.770603e-09 3.031095e-09 9.407417e-10 1.049455e-09 -7.285284e-11 -3.296297e-11
4.997589e-08 -3.354995e-08 2.186353e-08 6.912493e-09 1.205878e-09 1.323567e-08
4.470794e-08 -1.552688e-08 1.166589e-08 1.741609e-08 2.858957e-09 6.277812e-09
5.216924e-08 -2.645062e-08 1.516648e-08 2.360056e-09 2.494756e-10 -2.218887e-09
5.580233e-08 -2.730774e-08 2.235723e-08 7.525200e-10 3.080548e-09 1.151795e-08
5.136565e-08 -3.351559e-08 2.628230e-08 7.291394e-09 7.493858e-10 6.058735e-09
2.947688e-09 2.401418e-08 -1.401895e-08 9.393896e-09 -5.721923e-09 -5.019144e-09
-1.143688e-08 1.968235e-08 -1.441141e-08 1.489164e-09 -7.035867e-09 -7.432444e-09
2.408368e-09 1.284897e-08 -1.746647e-08 3.322632e-09 -1.452362e-08 -1.291041e-08
-1.229391e-08 7.057456e-08 -8.668749e-08 1.903323e-08 2.994415e-08 -3.585925e-08
-8.657701e-09 1.400279e-08 -7.646538e-09 -3.284881e-09 -1.063695e-08 -7.225384e-09
-8.699313e-09 1.752128e-08 -1.140535e-08 -1.100037e-09 -8.568908e-09 -7.214457e-09
2.152015e-08 -2.898414e-08 -3.520225e-08 2.238395e-08 1.914870e-08 -4.144148e-09
-6.196732e-09 -1.441199e-08 6.153897e-09 5.546752e-09 5.264099e-10 2.032516e-10
-3.720476e-09 -1.672876e-08 6.153174e-09 5.973243e-09 3.323451e-10 7.481096e-11
-6.307129e-09 -1.818813e-08 5.912165e-09 4.551427e-09 9.040588e-10 4.305281e-10
-4.128697e-09 -2.019190e-08 5.557828e-09 6.994270e-09 8.818628e-10 3.462797e-10
-5.608125e-09 -1.682292e-08 5.709985e-09 7.423791e-09 8.977983e-10 -3.635410e-11
2.249736e-09 9.274181e-09 -4.046300e-08 2.693783e-08 6.022484e-09 -3.605040e-09
-1.572099e-08 1.683041e-09 2.958642e-10 -5.332743e-09 -4.943504e-09 -1.619662e-09
7.390811e-09 -2.687018e-08 -1.215511e-08 2.260520e-08 3.068089e-09 -9.327124e-10
-1.624237e-08 8.337187e-09 -3.228116e-09 -4.134770e-09 -3.260769e-09 -4.273382e-10
-1.554611e-08 7.984319e-09 -1.252406e-09 -3.506586e-09 -2.418423e-09 -3.001896e-10
-1.635027e-08 6.826523e-09 -1.014417e-09 -3.898478e-09 -3.516628e-09 -9.443406e-10
-1.544004e-08 4.986012e-09 -9.781864e-11 -3.838057e-09 -2.658244e-09 -1.025748e-09
-1.665744e-08 7.537076e-09 -2.307299e-11 -3.921031e-09 -2.675815e-09 -9.377096e-10
-1.776297e-08 9.075652e-09 -3.799764e-09 -1.435737e-08 -1.111159e-08 -7.820362e-09
-1.614691e-08 1.353318e-08 -2.874710e-09 -1.133750e-08 -9.129845e-09 -6.212230e-09
-1.301124e-08 1.529231e-08 -5.382733e-09 -5.467651e-09 -9.611300e-09 -5.708182e-09
-1.337106e-08 1.084790e-08 -1.794424e-09 -4.391913e-09 -6.206309e-09 -2.731505e-09
3.299581e-08 1.417154e-08 -1.001088e-07 1.456020e-08 2.155155e-08 -5.438490e-09
-1.566297e-08 1.116171e-08 -3.933692e-09 -5.861318e-09 -5.561610e-09 -2.418802e-09
-9.528146e-09 1.899662e-08 -1.209713e-08 3.921425e-10 -8.859700e-09 -6.972052e-09
-1.414290e-08 1.476391e-08 -5.946811e-09 -4.534626e-09 -6.122310e-09 -3.589584e-09
-1.415894e-08 1.319542e-08 -4.710844e-09 -4.726252e-09 -7.356612e-09 -2.488639e-09
-4.057294e-09 3.487501e-09 2.177174e-10 -1.992106e-09 -2.673795e-11 8.102041e-11
-3.366598e-09 3.065148e-09 3.268739e-10 -2.718179e-09 3.039291e-12 2.164685e-11
-1.285608e-09 2.171409e-09 -2.021223e-10 -2.841430e-09 -2.051784e-10 1.034208e-10
-2.132049e-09 2.169426e-09 -8.585355e-11 -2.889365e-09 -2.385545e-10 -2.430898e-10
4.772384e-08 -1.662421e-08 -4.385218e-09 -4.018095e-09 2.018877e-09 6.631631e-09
5.142750e-08 -1.847546e-08 -1.955638e-09 -3.663423e-09 4.702946e-10 2.834440e-09
5.260832e-08 -2.348043e-08 5.531664e-10 3.208612e-09 2.340661e-09 6.566976e-09
7.227080e-08 -1.723876e-08 -6.084243e-09 -3.442225e-09 2.425255e-09 1.853311e-08
7.137444e-08 -1.820628e-08 -1.035118e-09 -4.376439e-09 1.812522e-09 1.776542e-08
5.199243e-09 -2.658735e-09 -7.690266e-10 2.297638e-09 4.561458e-10 1.494627e-10
5.541355e-08 -2.186697e-08 3.649915e-09 3.596521e-09 1.644415e-09 1.049112e-08
5.837562e-08 -2.077380e-08 8.854251e-11 5.410487e-09 3.441180e-09 1.028980e-08
-8.692558e-10 1.168269e-09 4.537748e-11 2.493797e-09 1.553019e-10 -6.264506e-10
-9.694539e-10 1.246353e-09 1.074354e-10 1.860931e-09 1.465316e-10 1.621054e-10
-1.605153e-09 1.085504e-09 2.838538e-10 1.138758e-09 1.297362e-10 -5.947995e-10
-1.279496e-09 1.006143e-09 6.089707e-11 1.476066e-09 2.641860e-10 -3.579209e-10
-1.999981e-09 1.369289e-09 2.353464e-10 1.842237e-09 2.631593e-10 -2.999594e-10
-5.201764e-09 2.749072e-09 6.449778e-10 6.227694e-10 7.256318e-11 4.051759e-12
-4.458392e-09 2.551957e-09 3.926490e-10 8.237366e-10 1.390554e-10 1.086399e-10
-4.070218e-09 2.444334e-09 4.901468e-10 1.436249e-09 4.262020e-11 -5.359461e-11
-3.302206e-09 2.321989e-09 4.903433e-10 1.289375e-09 4.135609e-11 -6.918666e-11
-4.434607e-09 2.442356e-09 5.932497e-10 1.177000e-09 1.032495e-10 -9.161227e-11
-3.319757e-09 1.791530e-09 3.655978e-10 1.415514e-09 3.001397e-10 -1.264006e-10
-4.318601e-09 2.444820e-09 5.546275e-10 1.742807e-09 1.308866e-10 2.101146e-10
-3.804381e-09 2.050742e-09 5.514054e-10 1.511357e-09 2.235878e-10 1.172953e-10
1.964675e-08 -2.830315e-08 -3.281801e-08 1.826494e-08 5.392870e-09 -2.565040e-10
-8.664042e-09 4.570965e-09 1.281164e-09 -1.181880e-09 -1.132788e-10 -3.344076e-10
-8.530094e-09 4.165930e-09 1.271375e-09 -1.433729e-09 -2.073373e-10 -4.415825e-10
-9.161662e-09 4.200928e-09 1.314200e-09 -3.092516e-10 -5.287548e-11 -3.249789e-10
-8.264944e-09 4.448747e-09 1.189966e-09 -3.832197e-10 4.943557e-11 -6.879297e-11
-8.389703e-09 4.315831e-09 1.398671e-09 -5.129150e-10 7.114798e-11 -2.810774e-11
3.592401e-08 -1.474865e-08 -4.441059e-08 5.156707e-09 1.751744e-08 -2.304017e-09
-8.875421e-09 4.535295e-09 1.201700e-09 -1.232356e-09 -5.428813e-11 -5.443313e-11
1.010785e-08 -5.847996e-09 -1.320699e-09 1.293382e-12 -3.092831e-12 9.273321e-11
9.820748e-09 -5.709981e-09 -1.226865e-09 -5.948639e-10 -1.009284e-10 6.241274e-11
9.621388e-09 -5.581279e-09 -1.223306e-09 -4.012385e-10 -1.453770e-10 1.157174e-10
1.051906e-08 -5.986680e-09 -1.289103e-09 -2.840324e-10 -5.657847e-11 4.020504e-10
9.960069e-09 -5.824652e-09 -1.266067e-09 -2.075121e-11 8.915448e-11 8.283030e-11
9.395682e-09 -5.654020e-09 -1.266739e-09 -3.373499e-10 -5.552261e-11 9.467960e-11
1.549864e-08 -4.362202e-08 -5.911894e-09 -1.069320e-08 -1.493944e-08 -1.596162e-09
1.342759e-08 -4.608741e-08 4.903904e-09 -1.438464e-08 -1.459288e-08 -1.084865e-09
1.437154e-08 -3.876235e-08 2.137490e-11 -1.029790e-08 -8.847321e-09 -1.594383e-09
3.312048e-08 -1.284472e-08 -6.446281e-08 1.286241e-08 1.725824e-08 -3.019055e-09
2.076133e-08 -5.094505e-08 2.003993e-09 -6.267942e-09 -1.274942e-08 -1.288080e-09
2.054356e-08 -5.323064e-08 1.883074e-09 -7.152682e-09 -1.143071e-08 -1.060106e-09
1.462434e-08 -4.522568e-08 4.999705e-09 -5.467564e-09 -5.918572e-09 5.351048e-10
2.000327e-08 -5.019505e-08 2.016143e-09 -9.408416e-09 -9.529411e-09 -9.417466e-10
3.103384e-08 -8.648846e-09 -4.984535e-09 -5.560334e-09 1.460065e-09 1.748712e-09
2.028050e-08 1.021708e-09 -3.331266e-09 -8.940800e-09 -1.017155e-10 3.126312e-09
3.125338e-08 -8.594589e-09 -7.824725e-09 -5.676939e-09 1.454397e-09 1.463838e-09
1.624800e-08 4.901258e-09 -6.354639e-09 -7.583514e-09 1.497456e-09 5.038891e-11
3.147307e-08 1.168302e-10 -4.923555e-09 -7.983866e-09 1.152026e-09 4.710155e-10
2.733285e-08 5.875144e-09 -3.715270e-09 -1.567047e-08 2.844450e-09 1.264489e-09
1.614872e-08 4.284925e-09 -6.816378e-09 -6.336089e-09 2.533741e-09 -2.845793e-10
3.106818e-08 1.344734e-10 -6.203036e-09 -7.900833e-09 1.180220e-09 1.630306e-09
-1.529502e-08 2.145045e-08 -5.628276e-09 1.770408e-09 3.358732e-09 -2.527119e-09
-2.001145e-08 1.486743e-08 -3.877107e-09 1.289766e-08 7.843283e-09 -6.080464e-09
-1.961417e-08 1.661956e-08 -9.070411e-09 7.953818e-09 5.258090e-09 -4.536676e-09
-1.821433e-08 1.813439e-08 -9.092452e-09 9.411694e-09 5.477021e-09 -4.339128e-09
-1.525264e-08 2.229116e-08 -9.081165e-09 5.203133e-09 5.989184e-09 -5.117146e-09
-2.000206e-08 1.392893e-08 -7.869111e-09 1.313963e-08 8.803276e-09 -5.107754e-09
-3.589881e-09 2.094289e-08 -9.115545e-09 -7.530818e-09 2.646764e-09 -2.525981e-09
-1.481565e-08 2.418184e-08 -1.009674e-08 -2.215652e-09 2.523969e-09 -6.156561e-09
-3.662992e-09 1.861549e-08 -6.481212e-09 -7.946030e-09 2.251103e-09 -2.647538e-09
-1.451261e-08 1.037068e-08 -4.394485e-10 3.815870e-09 4.320600e-09 -1.440575e-09
-9.253910e-09 1.629940e-08 -7.992508e-09 -1.239387e-09 4.853436e-09 -4.966415e-09
-1.617333e-08 2.007808e-08 -8.017455e-09 5.524404e-09 9.192745e-09 -9.978190e-09
-1.152540e-08 1.364772e-08 -3.181583e-09 2.475309e-09 5.406775e-09 -4.643153e-09
-1.620340e-08 2.188017e-08 -8.684678e-09 1.014387e-09 2.926603e-09 -4.562285e-09
-5.075867e-09 -8.960878e-09 2.683404e-09 8.220142e-10 -8.946754e-10 -2.235149e-10
-2.867414e-09 -1.275786e-08 2.397471e-09 2.448393e-09 -3.685174e-10 3.696414e-10
-3.420291e-09 -1.111467e-08 2.956045e-09 2.144242e-09 -1.407158e-09 -3.616035e-10
-4.421312e-09 -9.862451e-09 2.132385e-09 5.258662e-10 -7.483515e-10 -3.222647e-10
-2.869860e-09 -1.147071e-08 1.881263e-09 2.558754e-09 -7.264422e-10 2.533251e-10
8.691770e-09 -3.416104e-08 7.063570e-09 6.077107e-09 5.611203e-10 -8.156767e-11
2.287834e-09 -2.778482e-08 7.196163e-09 5.105150e-09 -1.107836e-10 1.619973e-10
7.524696e-09 -3.219404e-08 7.417859e-09 4.957250e-09 8.304310e-10 5.625034e-10
5.734077e-09 -3.183385e-08 6.900437e-09 3.426609e-09 2.171414e-10 -2.804336e-10
3.372806e-09 -2.807908e-08 6.856295e-09 6.464893e-09 1.064444e-10 1.278608e-10
5.846479e-09 -3.116155e-08 7.020298e-09 6.691184e-09 1.641443e-10 4.595329e-10
8.866106e-09 -3.391479e-08 7.424274e-09 2.435856e-09 1.140255e-10 3.716321e-10
-6.418263e-09 3.523648e-09 8.970349e-10 3.832361e-10 1.208791e-10 3.835487e-11
-6.410959e-09 3.501146e-09 8.779097e-10 3.743432e-10 9.961476e-11 3.318579e-11
-6.483025e-09 3.605240e-09 9.357137e-10 4.172378e-10 1.366760e-10 -1.666958e-10
-7.191112e-09 3.595904e-09 1.035865e-09 4.602492e-10 8.908413e-11 -1.743512e-10
-1.515414e-08 7.451462e-10 2.061515e-09 -6.389325e-10 -9.380767e-10 -1.775989e-10
-6.687936e-09 3.600890e-09 1.032300e-09 4.101459e-10 7.568657e-11 -4.111100e-11
-6.096230e-09 3.252814e-09 9.321806e-10 4.896606e-10 2.494738e-11 -6.088691e-11
3.760504e-08 -2.355503e-08 -5.925294e-08 -1.491898e-08 2.994331e-08 5.880034e-09
-6.523195e-09 3.319972e-09 9.506791e-10 7.411307e-10 6.191891e-11 2.719402e-11
-6.273500e-09 3.367409e-09 9.788490e-10 6.059606e-10 2.347864e-10 -2.013168e-10
-6.249461e-09 3.318416e-09 8.886123e-10 6.316871e-10 1.673652e-10 -1.756905e-10
1.063938e-08 -5.802977e-09 -1.379420e-09 9.031892e-10 3.906134e-11 4.084510e-12
9.755697e-09 -5.722687e-09 -1.282907e-09 1.175306e-09 1.274838e-10 2.642452e-10
9.858284e-09 -5.761657e-09 -1.238038e-09 1.060882e-09 8.700253e-11 -4.985706e-11
1.942553e-08 -8.843515e-09 9.834942e-09 -1.425267e-08 5.803297e-10 -3.581130e-09
1.082798e-08 -5.885778e-09 -1.262049e-09 6.233716e-10 6.429464e-11 5.673106e-11
1.017947e-08 -6.045954e-09 -1.254277e-09 1.074251e-09 1.415526e-10 6.447125e-12
1.380548e-08 -3.751461e-08 4.855014e-09 -1.705878e-09 1.068506e-09 -1.601197e-10
1.804630e-08 -1.199967e-08 7.213823e-09 -5.820026e-09 5.506282e-12 -1.656484e-09
1.300347e-08 -3.843522e-08 6.769987e-09 2.579083e-10 4.530476e-11 -7.221412e-11
1.440722e-08 -3.921513e-08 4.927748e-09 1.364586e-09 9.035608e-10 8.505841e-11
1.246188e-08 -3.759467e-08 6.795831e-09 6.982521e-11 -2.270619e-10 -2.697690e-10
1.339751e-08 -3.826514e-08 6.575591e-09 3.065019e-10 3.205467e-10 -1.306845e-10
1.328172e-08 -3.805997e-08 6.580057e-09 -1.616178e-10 1.164047e-10 4.528356e-11
1.440722e-08 -3.866923e-08 6.369296e-09 9.873106e-10 -6.671841e-11 4.839738e-10
9.485624e-09 -5.597723e-09 -1.247486e-09 1.815850e-10 5.021064e-11 -1.049523e-10
9.837484e-09 -5.654022e-09 -1.333291e-09 4.323984e-10 -3.063563e-11 2.303855e-10
9.655342e-09 -5.718049e-09 -1.269096e-09 5.662525e-10 2.047311e-10 -1.567789e-10
9.697109e-09 -5.581611e-09 -1.273408e-09 1.510183e-10 2.031764e-11 1.008007e-10
9.851439e-09 -5.531809e-09 -1.234707e-09 3.953655e-10 6.562321e-11 1.621223e-10
9.958573e-09 -5.707389e-09 -1.297650e-09 -2.466213e-11 -2.130108e-12 9.880141e-11
-1.570658e-08 1.320442e-08 -3.972511e-09 4.292386e-09 4.955906e-09 -2.449257e-09
-1.874312e-08 8.203658e-09 -4.369977e-11 1.749502e-08 8.663288e-09 -4.297152e-09
-1.183238e-08 1.673348e-08 -4.289118e-09 4.653510e-10 3.861730e-09 -2.115602e-09
-1.536340e-08 1.419279e-08 -9.372509e-10 6.067984e-09 6.636377e-09 -3.646949e-09
-1.644730e-08 1.388874e-08 -4.502910e-09 7.477855e-09 7.072095e-09 -4.136199e-09
-1.836573e-08 1.188175e-08 -1.770860e-09 1.284316e-08 9.241878e-09 -5.448363e-09
-1.857361e-08 2.875335e-09 -1.104415e-09 1.861239e-08 1.104114e-08 -4.782445e-09
-6.839691e-09 4.704601e-09 6.481882e-10 -2.837508e-10 -8.310463e-12 -6.324985e-11
-9.325126e-09 -1.103662e-08 6.119488e-09 1.575732e-09 7.912007e-10 -3.056622e-11
-7.197784e-09 4.873893e-09 6.100680e-10 -4.554685e-10 -1.368716e-10 -3.256566e-10
-7.090810e-09 4.897473e-09 8.366745e-10 -3.488076e-10 -4.936129e-11 -1.217975e-10
1.555735e-08 -6.595786e-09 3.464891e-10 -8.828594e-09 1.634699e-10 7.257999e-10
1.113671e-09 2.119198e-10 -4.555079e-10 -1.388502e-09 -1.056627e-10 1.409581e-10
1.477845e-09 -2.941825e-11 -5.691088e-10 -2.017247e-09 -3.188412e-10 -2.362250e-10
1.749375e-08 -6.595786e-09 1.923736e-09 -8.900886e-09 2.211673e-10 -1.035043e-09
-1.050893e-10 2.613854e-10 -4.006881e-10 -2.636117e-09 -5.646148e-10 -5.076006e-11
-2.042118e-09 2.203825e-09 2.443423e-11 -2.257705e-09 -1.504005e-10 3.334638e-11
-9.995382e-11 3.114953e-10 -3.228808e-10 -9.379025e-10 -2.388747e-10 -7.679879e-11
-4.565646e-10 1.669396e-09 -1.904612e-10 -2.436338e-09 -4.766786e-10 -3.851386e-11
-1.974322e-09 1.611304e-09 -7.893686e-13 -7.799303e-10 -1.463867e-10 4.887535e-12
2.291894e-08 -4.787285e-08 -1.803314e-09 1.099835e-09 -3.253901e-09 4.291330e-10
1.935937e-08 -4.720397e-08 -4.492746e-10 2.216392e-09 -3.174584e-09 9.722994e-10
2.030618e-08 -5.044048e-08 4.888197e-09 1.937854e-09 -2.569666e-09 6.035511e-10
2.157294e-08 -5.178389e-08 2.682355e-09 5.268703e-09 -1.136512e-08 3.806902e-09
2.010213e-08 -4.759153e-08 3.172138e-10 3.739829e-09 -6.541262e-09 -7.109006e-12
1.988344e-08 -5.276982e-08 2.073213e-09 6.763899e-09 -1.056673e-08 2.449109e-09
-1.685921e-08 5.267738e-09 1.313375e-09 1.031618e-08 6.292558e-09 -2.119798e-09
-1.708495e-08 6.415966e-09 -7.884839e-10 6.892637e-09 1.748359e-09 -4.407475e-10
-1.420421e-08 -7.266507e-09 2.695022e-09 8.085492e-09 3.460876e-09 -5.784007e-10
-1.444476e-08 9.999050e-10 2.679100e-09 8.103215e-09 2.801709e-09 -6.954794e-10
-1.342630e-08 -3.551631e-09 3.830625e-09 8.995448e-09 3.221140e-09 -8.859762e-10
-1.599872e-08 3.883417e-09 2.530667e-09 6.369399e-09 3.516512e-09 -1.378560e-09
-1.607072e-08 1.922873e-09 2.867221e-09 7.874918e-09 2.728223e-09 -1.614933e-09
-1.213126e-08 -7.313378e-09 3.606561e-09 9.299754e-09 2.819289e-09 3.029872e-10
-1.423783e-08 -3.389783e-09 3.973748e-09 9.813573e-09 4.063567e-09 -1.008661e-09
-7.539835e-09 -6.163242e-09 -2.088505e-10 -6.969950e-09 -3.501957e-09 -1.048844e-09
-1.352075e-08 2.027750e-09 3.813876e-10 -4.314550e-09 -2.204909e-09 -9.649806e-10
-1.244776e-08 -8.500356e-11 -7.962635e-10 -5.662659e-09 -1.741762e-09 -2.061502e-10
2.802256e-09 -1.450196e-09 -7.135356e-10 -2.709326e-09 -4.963986e-10 5.834705e-11
6.064029e-09 -2.636847e-09 -8.429719e-10 -1.161633e-09 -3.686713e-10 1.829436e-10
6.115108e-09 -2.952776e-09 -1.030374e-09 -1.024979e-09 -8.628537e-11 -2.383216e-11
-1.699934e-08 7.761004e-09 1.009908e-10 -6.371397e-10 -2.454312e-09 1.636364e-10
4.116670e-09 -1.481851e-09 -8.146763e-10 -1.149505e-09 -1.085997e-10 2.295592e-11
2.765443e-09 -6.487864e-10 -5.893309e-10 -2.687913e-09 -1.800904e-10 6.190976e-11
-9.064763e-09 -1.216728e-08 4.995932e-09 6.982618e-09 1.869461e-09 7.670699e-11
1.173211e-08 -2.401211e-09 1.847163e-09 -1.450497e-08 7.001839e-10 -2.343142e-09
-2.766213e-08 6.637815e-08 -3.283173e-08 -1.813260e-08 -1.527518e-08 6.888634e-09
6.494372e-10 6.594443e-08 -8.130975e-08 -1.481079e-08 -2.697177e-09 4.661967e-09
-1.189187e-08 4.827196e-08 -2.701589e-08 -2.617507e-08 -1.722369e-08 -4.772665e-09
5.255191e-09 5.685981e-08 -9.918808e-08 -3.968462e-10 -2.916003e-08 9.142110e-09
1.697611e-08 6.200262e-08 -8.163502e-08 -1.199157e-08 -1.561612e-09 4.034971e-09
1.608064e-08 -4.002365e-08 -2.324446e-09 -3.749987e-09 2.410555e-09 -1.835323e-10
2.017296e-08 -4.085875e-08 -5.711094e-09 -2.192428e-09 -1.950393e-10 -3.988534e-10
1.663925e-08 -3.616457e-08 -4.494913e-09 -8.832821e-09 5.599803e-10 -2.150816e-10
1.663093e-08 -3.613892e-08 -2.267776e-09 -8.361334e-09 1.884506e-09 1.731007e-10
-4.126600e-09 2.369834e-09 5.971588e-10 1.283211e-09 7.211565e-11 1.053089e-10
-5.412223e-09 3.011451e-09 6.044174e-10 1.156875e-09 -2.628475e-11 9.470247e-11
-4.310327e-09 2.425897e-09 4.875385e-10 1.366295e-09 9.888196e-11 9.445955e-11
-5.746314e-09 3.006169e-09 8.492060e-10 1.034366e-09 2.177813e-12 -5.454603e-11
-5.685827e-09 2.998113e-09 7.686340e-10 8.796954e-10 -3.464563e-12 -4.130907e-10
-1.276180e-08 1.627499e-08 -1.232960e-08 -1.564061e-08 2.221980e-09 2.485312e-09
-1.786320e-08 1.444137e-08 -4.522549e-09 -6.270773e-09 1.860584e-09 3.572471e-09
-1.501755e-08 1.257687e-08 -3.771476e-09 -6.840583e-09 1.549911e-09 2.086391e-09
-1.459674e-08 1.617883e-08 -4.130522e-09 -4.036086e-09 5.624744e-10 2.639643e-10
-1.473596e-08 1.067399e-08 -1.934034e-09 -6.496710e-09 1.464469e-11 9.314076e-11
-1.710396e-08 6.630996e-09 -9.149508e-10 -1.231876e-09 -3.599947e-10 1.275002e-10
-6.615210e-09 3.881743e-09 9.075918e-10 1.863693e-10 8.704215e-11 -5.827960e-11
-6.462971e-09 3.480407e-09 8.135226e-10 5.052292e-10 1.231019e-10 -1.390542e-10
-6.942670e-09 3.296622e-09 1.181597e-09 8.499938e-10 2.065232e-10 -1.217777e-10
-6.508964e-09 3.478598e-09 9.910703e-10 4.782738e-10 1.603281e-10 -1.636746e-10
-9.678203e-09 1.367727e-08 -3.817489e-09 2.089766e-09 4.308660e-09 -1.801204e-09
-7.059952e-09 1.354055e-08 -5.551898e-09 -1.583968e-09 2.114768e-09 -9.623850e-10
-1.135167e-08 1.468285e-08 -6.747524e-09 1.313329e-09 3.443856e-09 -3.240955e-09
5.135583e-08 -3.381405e-08 7.113633e-08 6.503753e-09 2.911862e-09 1.961304e-08
-3.721544e-09 5.858234e-09 -1.794029e-09 -9.071764e-09 -3.400297e-10 5.613898e-10
-5.540049e-09 5.676770e-09 -1.845847e-09 -8.402627e-09 -2.310170e-10 2.535967e-10
-3.518171e-09 4.413541e-09 -1.211574e-09 -8.806296e-09 -4.499935e-12 -9.536673e-10
-9.736448e-09 9.498205e-09 -1.007324e-08 7.929786e-12 -3.769943e-09 3.162102e-09
-1.042317e-08 1.118477e-08 -1.098064e-08 1.244142e-11 -3.824395e-09 2.921639e-09
-3.949186e-09 3.427536e-09 1.910900e-10 -5.735510e-10 -9.938850e-11 -6.091960e-11
-1.032997e-08 1.343251e-08 -1.341451e-08 -6.753410e-10 -1.831921e-09 3.997204e-09
-1.050183e-08 7.680893e-09 -9.581012e-09 2.007912e-09 -3.943824e-09 4.208175e-09
5.281565e-08 -1.658496e-08 -6.523455e-09 1.858344e-09 7.275144e-10 4.609364e-09
2.022170e-08 -8.817851e-09 1.964083e-09 -2.361581e-09 4.305523e-11 -9.841690e-10
4.450298e-08 -8.304220e-09 -9.818809e-09 6.924933e-09 2.651349e-10 4.130501e-10
4.795481e-08 -1.302100e-08 -7.628004e-09 9.132192e-10 8.550629e-10 -3.975546e-10
-6.310097e-09 -2.722640e-09 2.974192e-09 2.493019e-10 -2.594147e-11 -3.369107e-10
4.736300e-08 -1.246148e-08 -8.442791e-09 -1.601613e-09 6.795909e-10 1.219004e-09
-7.610235e-08 1.355230e-08 2.042842e-07 6.682421e-08 7.076965e-08 5.423880e-08
8.357636e-09 -4.244923e-09 -1.068516e-09 -7.078926e-10 -1.724275e-10 2.162146e-10
4.692322e-09 -2.567440e-09 -9.278360e-10 -1.927190e-09 -1.053997e-10 -4.402945e-11
7.775987e-09 -4.120838e-09 -1.181416e-09 -6.835546e-10 -2.527760e-10 2.209311e-10
8.104662e-09 -4.234438e-09 -1.194153e-09 -1.010975e-09 -1.256679e-10 1.813887e-10
5.767521e-08 -1.173845e-08 -3.768397e-09 1.210029e-08 1.796366e-09 1.254479e-08
6.114167e-08 -1.226738e-08 -5.355094e-09 1.296368e-08 3.739773e-09 1.545840e-08
7.257364e-08 -7.412211e-09 -9.412980e-09 2.192087e-09 -6.143773e-10 1.515546e-08
-1.786923e-08 2.376676e-08 -7.439610e-09 -4.644761e-10 2.943564e-10 3.683812e-09
-1.786781e-08 1.985549e-08 -6.078526e-09 -3.441462e-09 1.874639e-09 3.500325e-09
-1.361934e-08 1.437439e-08 1.651571e-09 4.329965e-09 -2.529433e-09 -2.212704e-09
-1.790199e-08 1.805269e-08 -3.748161e-09 -3.520192e-09 -2.717943e-10 9.313397e-10
1.068583e-08 -3.219574e-08 5.786924e-09 -1.451988e-09 6.173377e-10 -6.196108e-10
1.134469e-08 -3.234170e-08 6.376768e-09 -3.597911e-09 3.095783e-10 -4.402591e-10
1.093527e-08 -3.553878e-08 5.697372e-09 -1.706357e-09 4.420697e-10 -5.597293e-10
1.270762e-08 -3.594402e-08 6.481691e-09 -2.355445e-09 5.790755e-10 -1.831201e-11
8.923746e-09 -3.235936e-08 6.368447e-09 -3.389008e-09 3.350852e-10 -7.798623e-10
1.223249e-08 -3.563760e-08 4.191251e-09 -5.284380e-09 1.753352e-09 1.850963e-11
1.051524e-08 -3.525172e-08 5.371651e-09 -4.894508e-09 1.049727e-09 -2.269510e-10
-3.284988e-09 3.049206e-09 3.052818e-10 -4.151363e-09 -1.311566e-10 2.131144e-10
-5.084643e-09 3.396889e-09 4.241927e-10 -3.191061e-09 -2.785194e-10 -4.491574e-11
-4.930659e-09 3.294613e-09 3.369305e-10 -3.028035e-09 -5.439671e-11 6.663336e-12
-4.375287e-09 3.293043e-09 2.582246e-10 -3.055572e-09 -2.930367e-11 -1.317990e-10
2.721869e-08 9.911410e-09 -9.284335e-09 1.630789e-08 -3.224040e-09 -3.589217e-09
2.989214e-08 -4.194560e-09 -6.692685e-09 2.101105e-09 -1.511055e-09 2.044175e-09
2.753622e-08 1.070704e-08 -9.600288e-09 1.702736e-08 -2.972113e-09 -2.998359e-09
-3.542879e-08 5.545254e-08 4.297109e-08 3.254539e-08 -1.264203e-09 -5.273996e-09
2.313663e-08 1.219043e-09 -7.148392e-09 6.373934e-09 -2.619748e-09 -1.460530e-09
8.580705e-09 -3.546189e-08 4.771928e-09 8.368750e-09 2.130537e-09 -5.162082e-10
6.280831e-09 -3.152406e-08 4.219745e-09 1.171365e-08 1.380814e-09 -4.639662e-10
3.654965e-09 -2.567240e-08 5.763101e-09 7.761268e-09 4.926841e-10 2.855338e-10
3.442133e-09 -2.706071e-08 4.788739e-09 1.068822e-08 5.668492e-10 5.964997e-10
-7.270220e-09 -7.601582e-10 2.517706e-09 3.625162e-10 3.811174e-12 -2.783590e-10
5.282905e-09 -2.868828e-08 6.213939e-09 5.612253e-09 1.132403e-09 5.603257e-11
1.496797e-08 -4.097687e-08 4.150445e-09 2.257285e-09 2.534714e-09 -2.364655e-10
1.480085e-08 -3.861324e-08 5.286661e-09 1.949129e-09 7.484351e-10 -2.140753e-10
1.573876e-08 -3.891051e-08 2.713928e-09 5.848546e-09 6.710030e-10 -5.750942e-10
1.248696e-08 -3.801147e-08 4.497728e-09 5.922460e-09 -8.631691e-10 2.894875e-10
1.241204e-08 -3.918135e-08 2.811938e-09 6.624732e-09 1.421888e-09 5.009122e-10
2.863509e-08 -1.214162e-08 2.424585e-08 7.017045e-09 -1.068162e-10 -7.889139e-09
1.940941e-08 -1.111155e-08 9.726687e-09 -7.189879e-09 1.682696e-09 -3.846928e-09
1.711065e-08 -1.286503e-08 2.171017e-08 -1.165915e-09 1.057956e-09 -7.947324e-09
-4.081558e-09 3.535932e-09 4.559220e-10 -1.887888e-09 -1.369649e-10 -2.122968e-10
-6.835854e-09 -7.601582e-10 2.820981e-09 3.080083e-10 6.676126e-11 -6.604806e-10
2.659006e-08 -1.322837e-08 2.113042e-08 -7.896958e-09 1.952429e-09 -6.130389e-09
1.962584e-08 -1.301781e-08 1.582110e-08 -7.880133e-09 1.955036e-09 -4.884051e-11
4.594340e-10 -1.642302e-08 2.987162e-09 -9.461941e-09 -9.217618e-10 -7.461863e-10
3.659331e-09 -2.252235e-08 3.989311e-09 -7.088309e-09 1.092163e-09 3.234674e-10
2.540459e-08 -4.726390e-08 -9.292557e-09 5.757339e-10 -1.037078e-08 6.136456e-10
2.453538e-08 -4.317805e-08 -9.264738e-09 -3.601989e-09 -1.488213e-08 3.719171e-10
2.810507e-08 -4.891400e-08 -1.352787e-08 -6.890969e-09 -1.986873e-08 -3.114203e-09
2.376323e-08 -5.544921e-08 -6.068336e-09 -6.923583e-09 -1.833152e-08 -1.188891e-09
-1.727068e-08 6.480816e-09 -2.029403e-10 -1.446749e-09 -9.133436e-10 -4.204637e-11
2.305271e-08 -5.513564e-08 -2.837202e-09 -2.289666e-09 -1.196454e-08 -2.948194e-10
-3.912385e-09 5.067744e-08 -1.476907e-08 -3.512717e-08 -9.717770e-09 2.946903e-09
-1.669538e-08 2.862859e-08 4.455521e-08 -4.478398e-08 3.148813e-09 -4.366906e-09
1.497119e-08 -5.624219e-10 -4.420040e-08 -2.051220e-08 -2.072114e-08 -8.861037e-09
-3.973475e-08 5.853891e-08 7.643719e-08 -2.986635e-08 1.937664e-08 -1.701976e-08
-4.708488e-08 8.132206e-08 3.157983e-08 -2.663574e-08 2.502759e-08 -9.456069e-09
-2.119667e-09 -2.052545e-08 7.119378e-09 2.607226e-09 5.855021e-10 2.776768e-10
-4.214636e-09 6.836370e-08 -4.994418e-08 -2.584555e-08 -1.121616e-08 3.986495e-09
-1.949129e-08 5.121656e-08 1.325425e-08 -3.644247e-08 -1.184754e-08 -2.288943e-09
-3.571573e-09 -1.031071e-08 2.981364e-09 -7.829448e-09 4.220073e-10 1.566839e-10
-3.781246e-09 -1.289828e-08 2.115486e-09 -1.142007e-08 1.337100e-09 5.362975e-10
1.885070e-10 -1.750305e-08 1.524468e-09 -1.033531e-08 5.279088e-10 -3.251234e-11
-1.780887e-09 -1.383976e-08 1.981868e-09 -1.117787e-08 4.431837e-10 -4.482724e-10
1.560996e-08 -3.987460e-08 5.469960e-09 -2.543404e-09 2.061086e-09 7.551979e-11
1.439803e-08 -3.866021e-08 5.751769e-09 -3.213498e-10 9.555562e-10 -2.354481e-10
1.363124e-08 -3.914273e-08 5.010137e-09 -1.987095e-09 5.083390e-10 -1.679878e-10
1.223256e-08 -3.523960e-08 6.201163e-09 -8.902486e-10 7.879688e-10 -5.371272e-10
1.342512e-08 -3.783603e-08 5.251572e-09 -2.397097e-09 1.726927e-09 -7.228554e-10
-7.504734e-09 -1.542124e-08 6.300052e-09 2.074018e-09 4.480225e-10 -1.290688e-10
-6.386428e-09 -1.653833e-08 7.063554e-09 2.837072e-09 7.259535e-10 9.312727e-10
-1.000601e-08 -1.139015e-08 5.945441e-09 4.446334e-09 6.395101e-10 1.050078e-10
-8.113908e-09 -1.235971e-08 5.312869e-09 5.409294e-09 7.958048e-10 7.035760e-11
-7.494984e-09 -1.359109e-08 6.054438e-09 2.727750e-09 3.965435e-10 8.766737e-11
-9.110537e-09 -1.390606e-08 5.984513e-09 1.857516e-09 -1.658788e-10 1.102022e-10
-8.750536e-09 -1.313689e-08 6.398649e-09 1.329346e-09 4.450707e-10 -3.231224e-10
-1.163964e-08 -9.455398e-09 5.158458e-09 1.985942e-09 3.111751e-10 4.275651e-10
-9.784463e-09 -1.099556e-08 5.983570e-09 1.795120e-09 -7.273450e-12 1.872595e-10
-8.127314e-09 -1.369928e-08 6.536287e-09 1.400886e-09 2.760581e-10 4.355671e-11
-9.946839e-09 -9.079490e-09 5.284078e-09 1.206492e-09 1.310280e-09 -7.871413e-10
-1.225926e-08 -9.941774e-09 5.197893e-09 2.643721e-09 8.371947e-10 1.214215e-10
-6.323422e-08 -6.778697e-08 2.588829e-07 -2.079687e-08 -3.753239e-08 7.449382e-08
-5.116112e-08 -3.358238e-08 2.075193e-07 -5.078014e-08 -5.138796e-08 5.818555e-08
-3.103511e-08 -6.620549e-08 2.794168e-07 4.209021e-09 -3.741070e-09 1.040459e-07
8.840346e-09 -6.562572e-08 2.401726e-07 -6.051001e-10 -5.377559e-09 1.155550e-07
2.766573e-09 -1.107787e-09 -4.294414e-10 9.578760e-10 2.345666e-10 -1.461453e-11
1.847605e-09 -7.002807e-10 -3.679279e-10 6.755174e-11 2.236746e-10 -1.216272e-11
6.907701e-10 -1.661123e-10 -4.214478e-10 8.537289e-10 2.042166e-10 1.610268e-10
1.727624e-09 -2.197762e-10 -3.074129e-10 2.088594e-09 1.278159e-10 1.386018e-10
8.637837e-10 -1.560525e-10 -3.949037e-10 7.800207e-10 2.218183e-10 7.157674e-11
2.627065e-09 -1.640151e-09 -6.034346e-10 6.732910e-10 -7.133472e-11 -1.828813e-10
2.323959e-09 -1.053379e-09 -4.550014e-10 6.021370e-10 4.795298e-11 2.758749e-10
7.422029e-10 -2.190044e-08 4.955314e-09 1.197929e-08 2.965003e-10 -3.891250e-10
1.000037e-10 -2.184056e-08 3.502780e-09 1.280510e-08 -2.130330e-10 9.288354e-10
6.356981e-09 -2.932028e-08 2.469282e-09 1.276903e-08 -6.466223e-10 5.745169e-10
-2.268770e-10 -2.409668e-08 1.319794e-09 1.392004e-08 2.048175e-09 -5.196997e-11
5.662519e-09 -2.758773e-08 4.128087e-09 9.732094e-09 3.734573e-10 2.377218e-10
1.165942e-08 -6.136535e-09 -1.251824e-09 -3.134545e-09 -1.246876e-10 5.584893e-10
1.138893e-08 -6.118845e-09 -1.265536e-09 -2.276966e-09 -1.177053e-10 4.165797e-10
1.163595e-08 -6.044726e-09 -1.297873e-09 -2.207635e-09 1.090591e-10 -5.192669e-10
1.307416e-08 -3.291129e-08 1.329530e-09 -7.435344e-09 1.680860e-09 3.321575e-10
1.383790e-08 -3.778066e-08 2.752635e-09 -6.136807e-09 9.631033e-10 -4.348982e-11
1.311478e-08 -3.389569e-08 1.409175e-09 -7.489978e-09 9.749383e-10 -1.971332e-10
-2.740744e-09 -1.178715e-08 4.183572e-09 -4.282248e-09 -1.111400e-09 -3.033019e-10
-2.378824e-09 -1.273675e-08 4.170619e-09 -3.082013e-09 1.092766e-10 -5.238643e-11
-6.220173e-10 -1.520093e-08 4.712793e-09 -2.367640e-09 2.532257e-10 3.387375e-10
-2.385836e-09 -1.072608e-08 4.287786e-09 -2.615204e-09 5.701730e-10 -3.110426e-10
-5.968671e-09 2.962343e-09 8.807648e-10 5.644525e-10 1.681699e-10 -1.968478e-10
-4.870454e-09 2.684194e-09 6.863725e-10 1.096180e-09 1.526324e-10 -4.145684e-11
-1.134102e-08 -5.565127e-09 5.184803e-09 2.114572e-09 1.751025e-09 8.970513e-11
-4.313851e-09 2.430059e-09 6.005232e-10 1.365293e-09 1.433258e-10 4.686385e-11
-4.863629e-09 2.450287e-09 5.712448e-10 1.198394e-09 1.061781e-10 2.229217e-11
1.857994e-09 -1.773164e-08 4.674642e-09 -1.854890e-09 5.581640e-10 -7.639817e-10
1.831990e-09 -1.992208e-08 5.001085e-09 -1.438777e-09 5.201313e-10 -8.884791e-10
1.119392e-09 -1.612995e-08 4.957930e-09 -9.978871e-11 -3.061229e-11 -7.008827e-10
-1.271364e-09 -1.296262e-08 4.304464e-09 -1.291301e-09 -5.392941e-11 -7.991468e-10
1.015340e-09 -1.663107e-08 4.543648e-09 -4.323177e-10 3.050358e-10 -8.962676e-10
-1.905478e-10 -1.599485e-08 4.633848e-09 -3.695693e-10 -2.865175e-11 -6.085494e-10
3.996256e-08 -1.183437e-08 1.941077e-09 1.399724e-08 3.495762e-10 -7.931114e-10
3.532979e-08 -1.107016e-08 -1.446661e-09 1.122537e-08 -3.436115e-10 1.982881e-09
-1.274521e-08 -3.741528e-09 3.750923e-09 7.396537e-09 2.005587e-09 -5.732762e-10
4.719868e-08 -1.660344e-08 -1.631400e-09 6.753916e-09 5.955053e-10 2.691838e-09
4.501383e-08 -1.213186e-08 -1.803034e-09 1.328061e-08 2.345051e-09 3.830406e-09
5.528371e-08 -2.078705e-08 -2.127308e-09 -3.814226e-10 1.854864e-09 7.060519e-09
4.624761e-08 -2.040979e-08 -4.350054e-10 4.804792e-09 2.228446e-10 2.260240e-09
5.105100e-08 -2.289831e-08 6.454727e-09 7.351361e-09 -1.927592e-10 5.653805e-09
2.572336e-09 2.910895e-09 8.684498e-10 1.041624e-08 -7.415675e-10 -1.477639e-09
-3.950853e-10 2.815589e-09 6.677250e-10 7.764383e-09 -5.182438e-11 -3.581277e-10
-3.241046e-09 4.694528e-09 6.756267e-10 7.054092e-09 -1.779382e-10 -3.523391e-10
-4.005055e-09 4.758153e-09 1.168966e-09 7.109880e-09 -1.236924e-11 -1.094508e-09
-1.794255e-09 6.024145e-09 1.062070e-09 8.981438e-09 7.733868e-11 -7.109571e-10
1.197298e-08 -6.010960e-09 -1.125117e-09 2.540454e-09 1.343507e-10 -1.035755e-11
1.135660e-08 -5.663142e-09 -7.358034e-10 3.990497e-09 4.995945e-12 -6.897611e-10
1.137401e-08 -5.574684e-09 -1.174431e-09 3.130451e-09 2.299844e-10 4.322898e-10
1.277367e-08 -5.976738e-09 -4.666334e-10 4.673883e-09 1.504870e-10 6.689147e-10
3.642462e-08 -2.558698e-08 -7.680149e-08 3.274394e-09 2.131917e-08 7.230931e-10
3.215393e-08 -2.819980e-08 -4.821458e-08 1.170286e-09 1.497213e-08 1.440403e-10
2.938710e-08 -3.292484e-08 -3.767671e-08 -5.301198e-09 1.933751e-08 2.253630e-09
3.102869e-08 -1.211974e-08 -5.874777e-08 -1.318817e-08 2.556484e-08 7.348542e-09
3.060528e-08 -2.319144e-08 -4.704175e-08 -1.299428e-08 1.019354e-08 2.372338e-09
3.093344e-08 -2.184283e-08 -4.985273e-08 -1.493650e-08 2.593115e-08 6.017233e-09
8.818191e-11 1.410202e-09 -5.906431e-10 -7.235725e-09 -4.490836e-10 -8.485879e-11
-2.949498e-09 2.500213e-09 -4.556306e-10 -5.880638e-09 -3.568763e-10 -9.183743e-11
1.251034e-08 1.271132e-09 -4.500943e-08 -1.937470e-08 -2.023226e-08 -6.833048e-09
-1.957073e-09 1.960534e-09 -2.531939e-10 -5.801757e-09 -3.399303e-10 -6.925349e-12
2.854561e-10 1.792884e-09 -4.799152e-10 -6.717704e-09 -2.428735e-10 1.802740e-10
-3.060018e-08 3.490778e-08 9.902299e-09 1.082386e-08 -2.568941e-09 1.537385e-08
2.382890e-08 -4.220118e-08 -7.467452e-09 2.941010e-09 -5.424735e-09 9.363548e-10
2.300423e-08 -5.152383e-08 -2.497829e-09 -1.614700e-09 -6.426935e-09 -1.084685e-10
2.426660e-08 -4.563169e-08 -9.499966e-09 -4.683413e-09 -1.125625e-08 6.832975e-10
2.342419e-08 -4.314131e-08 -1.365345e-08 4.187086e-10 -5.988851e-09 4.763931e-10
2.480321e-08 -4.195392e-08 -1.488426e-08 -2.450724e-09 -1.092716e-08 2.194765e-10
2.372945e-08 -4.544147e-08 -1.030213e-08 3.557149e-09 -1.179566e-08 1.733483e-09
2.491312e-08 -4.262957e-08 -1.303762e-08 -1.610205e-09 -5.539563e-09 7.127767e-10
2.459538e-08 -4.698076e-08 -9.264810e-09 -2.303973e-09 -1.181239e-08 4.405936e-10
-1.737612e-08 8.929116e-09 -2.299702e-09 6.474716e-09 3.903130e-09 -1.792526e-09
-1.740049e-08 9.146419e-09 -5.894782e-09 1.002423e-08 2.252763e-09 -1.221913e-09
-1.699408e-08 9.112450e-09 -3.921701e-10 2.653187e-09 7.074493e-10 -4.848675e-10
-1.680374e-08 9.814520e-09 -2.373490e-09 2.957511e-09 1.438748e-09 -2.930738e-10
-1.492916e-08 1.478442e-08 -3.395949e-09 4.197284e-10 1.462709e-09 -5.270424e-10
-1.635313e-08 8.988111e-09 -2.004989e-09 6.551883e-09 -3.167771e-10 -4.489693e-10
-5.672677e-09 3.840404e-09 5.977814e-10 -2.489021e-09 -1.571019e-10 -2.301086e-10
-5.445925e-09 3.634774e-09 3.539795e-10 -1.355674e-09 -1.236129e-10 -1.959815e-10
-6.811003e-09 4.431509e-09 6.503711e-10 -1.297316e-09 -2.214735e-10 -2.277397e-10
-4.608028e-09 3.663521e-09 2.521028e-10 -1.188441e-09 -3.794647e-10 -1.651941e-10
-6.860843e-09 4.724694e-09 7.923489e-10 -1.057130e-09 -1.151217e-10 -2.398695e-10
-5.766478e-09 3.697804e-09 4.757674e-10 -1.761982e-09 -2.619190e-10 -3.161976e-10
-4.945933e-12 1.508402e-08 4.932826e-08 -4.550146e-08 -2.428653e-08 1.898798e-08
-6.731907e-09 1.877096e-08 2.131718e-08 -4.034694e-08 -4.899813e-09 5.268011e-09
-3.237128e-08 5.681820e-08 3.485886e-09 -3.626344e-08 -6.407211e-09 -7.185067e-09
-8.414263e-09 2.982377e-08 1.626286e-08 -3.819893e-08 -7.923466e-09 8.194639e-09
1.297844e-08 -6.256839e-09 1.832590e-09 8.142499e-09 -2.427788e-10 -1.953309e-09
1.503793e-08 -4.148168e-08 4.061397e-09 1.348523e-09 -1.038214e-09 4.650590e-11
1.515927e-08 -9.315138e-09 5.963294e-09 5.747380e-09 1.812924e-10 -2.344968e-09
1.820846e-08 -1.005599e-08 1.713146e-09 1.728196e-09 1.615100e-10 -7.946626e-10
1.422930e-08 -6.332658e-09 3.735167e-09 8.684703e-09 3.505057e-10 1.415802e-09
1.561459e-08 -6.467391e-09 3.289042e-09 8.846277e-09 -7.635040e-10 -3.912767e-09
1.839299e-08 -6.566736e-09 4.044574e-09 9.350842e-09 -2.937089e-10 -2.311198e-09
-7.929637e-08 5.905763e-08 9.185410e-08 -4.380891e-08 -3.323563e-08 5.569944e-09
-1.907599e-08 3.218111e-08 -7.041490e-09 1.702550e-08 6.235808e-09 2.249008e-09
-3.120990e-08 1.014215e-07 -7.326402e-08 -4.991493e-09 -3.091023e-09 -2.076198e-08
-1.298457e-07 -9.492772e-09 2.827481e-07 -1.568497e-08 -6.608696e-08 -8.803615e-09
-9.793373e-08 -4.834743e-09 1.929741e-07 -4.352521e-08 -6.848377e-08 -6.363227e-09
-1.236006e-07 -1.131188e-08 3.389599e-07 -8.178708e-09 -6.461717e-08 3.135185e-08
-1.171387e-07 -1.181235e-08 2.925791e-07 -7.430867e-09 -5.750978e-08 3.968851e-10
-8.881800e-08 -1.111814e-08 2.342820e-07 -1.632165e-08 -5.256214e-08 2.649398e-08
1.238358e-08 -3.613984e-08 6.866385e-09 3.180948e-09 5.396127e-10 2.807177e-11
-1.172931e-08 4.304361e-08 1.235842e-08 3.682854e-08 5.385986e-09 -6.132381e-09
-9.736532e-09 4.499128e-08 -7.397712e-10 3.882548e-08 4.272723e-09 -6.407263e-09
-1.364927e-08 8.143315e-08 -4.682533e-08 1.643852e-08 -4.977370e-09 -1.167156e-08
-3.532473e-08 8.469525e-08 5.876363e-09 3.023259e-08 3.088683e-08 -2.533279e-08
-1.881312e-08 8.486626e-08 -6.630848e-08 3.547016e-08 2.597398e-08 -5.931980e-10
1.069547e-08 -3.458401e-08 -7.470604e-09 1.738658e-08 4.022160e-09 -2.666977e-10
1.388725e-08 -3.356734e-08 -1.341050e-08 2.001443e-08 9.849506e-09 -1.782501e-09
9.887788e-09 -5.644829e-09 -1.321085e-09 -8.503920e-12 -8.917728e-12 -6.297629e-12
1.068107e-08 -2.085320e-08 -2.021020e-08 2.741591e-08 6.242520e-09 -1.393973e-09
1.369844e-08 -2.816324e-08 -1.328373e-08 2.000796e-08 1.094343e-09 -2.373900e-10
7.618953e-09 -2.033811e-08 -1.701871e-08 2.384840e-08 3.069173e-09 -7.295535e-10
-7.414933e-09 3.886996e-09 1.015024e-09 3.082086e-10 9.736489e-11 -1.377737e-10
4.500399e-09 -2.204925e-08 -6.363807e-09 2.156521e-08 4.831349e-09 -1.214214e-09
-2.851084e-08 6.926791e-08 -3.560950e-08 -1.103296e-08 -5.217867e-09 2.723271e-08
-3.748558e-09 -1.240866e-08 -2.802413e-09 -1.625594e-08 2.969704e-09 1.704379e-09
-3.879296e-09 -9.202806e-09 8.096106e-10 -1.133811e-08 2.790518e-10 7.105329e-11
-3.893605e-09 -6.693096e-09 -4.579905e-10 -1.145966e-08 7.421372e-10 -1.166752e-10
-3.841507e-09 -9.545146e-09 7.523808e-10 -1.143936e-08 9.721016e-10 2.473784e-10
1.554724e-08 -6.983975e-09 -1.270732e-09 -1.629000e-09 -4.782882e-11 2.029463e-10
1.333358e-08 -6.985470e-09 -1.170891e-09 -1.690272e-09 -6.297140e-11 -6.929202e-10
1.342938e-08 -6.982657e-09 -1.103885e-09 6.737774e-10 1.444888e-10 3.208600e-10
1.336712e-08 -6.991110e-09 -1.168246e-09 -1.734842e-09 2.772365e-11 6.657588e-10
1.215707e-08 -1.254450e-08 -3.104514e-08 1.355943e-08 -1.517567e-08 6.286773e-09
1.217775e-08 -1.296340e-08 -3.500845e-08 1.358208e-08 -6.788365e-09 3.938046e-09
1.026226e-08 -8.433618e-09 -2.251292e-08 1.147268e-08 -1.186579e-08 4.763352e-09
1.238891e-08 -4.957296e-09 -4.089953e-08 1.174359e-08 -7.347729e-09 5.185164e-09
-7.132568e-09 3.365850e-09 1.130222e-09 4.208170e-10 -1.058445e-11 -4.032441e-11
-7.110637e-09 3.879432e-09 1.010135e-09 1.896425e-10 5.352607e-11 -9.788170e-11
-7.323682e-09 3.997287e-09 9.634755e-10 1.752420e-11 -1.281431e-11 -1.045917e-10
-7.409944e-09 3.780714e-09 1.122561e-09 2.899102e-10 5.411693e-11 -1.133030e-10
-6.985147e-09 3.636886e-09 1.158231e-09 1.941340e-10 -2.207323e-11 2.869704e-11
-7.492369e-09 3.301132e-09 1.359754e-09 4.090178e-10 9.584134e-11 -1.170312e-10
-7.431653e-09 3.471534e-09 1.281963e-09 4.514291e-10 5.115930e-11 -1.604703e-10
-7.446668e-09 3.371582e-09 1.296424e-09 3.127765e-11 -1.082479e-11 -1.166642e-10
-7.443999e-09 3.497248e-09 1.216268e-09 1.261682e-10 -1.251798e-10 -9.028417e-11
-4.522096e-09 1.327977e-08 -5.272076e-09 5.174656e-10 -5.070963e-09 -2.646589e-10
-4.157354e-09 1.298345e-08 -6.563939e-09 -8.314907e-10 -5.921285e-09 -1.402498e-09
-5.463588e-09 1.711122e-08 -8.854901e-09 3.375392e-09 -2.850284e-09 -1.161833e-09
-6.617015e-09 1.368534e-08 -1.032502e-08 -7.206473e-10 -5.228299e-09 -4.809522e-09
3.149185e-08 -1.050572e-08 -4.784538e-09 -4.761519e-09 2.380365e-09 6.275584e-10
4.902518e-09 1.074916e-08 -4.884906e-09 -5.331475e-09 1.626975e-09 -1.222633e-09
4.394037e-08 -9.170675e-09 -5.193481e-09 -3.720126e-09 9.342839e-10 1.108357e-09
4.717771e-08 -7.887625e-09 -5.249835e-09 -1.080521e-08 -8.582188e-10 5.619558e-09
2.956359e-08 -3.530265e-09 -6.282223e-09 -1.044743e-09 1.580763e-09 1.255720e-10
3.183191e-08 -6.823866e-09 -5.567166e-09 -1.034535e-09 1.977227e-09 1.439735e-09
-7.109236e-09 -1.493450e-08 5.004510e-09 8.583020e-09 -1.513274e-10 3.911558e-10
-6.423271e-09 -1.808856e-08 6.734496e-09 3.716316e-09 -5.983002e-11 -3.860312e-11
-4.034712e-09 -1.785921e-08 6.707614e-09 5.718377e-09 6.110734e-10 3.391607e-10
-4.937172e-09 -1.973807e-08 5.978590e-09 7.228135e-09 1.037017e-09 -4.609417e-10
-1.620666e-08 2.855600e-09 2.022828e-09 2.282976e-09 2.298629e-09 -8.581567e-10
-1.361087e-08 -7.555466e-09 4.090438e-09 4.353718e-09 2.549964e-09 -8.566825e-11
-1.570570e-08 1.698262e-09 2.873161e-09 2.526098e-09 1.667898e-09 -9.975154e-11
-1.518702e-08 -3.188020e-09 2.843727e-09 2.862393e-09 1.124322e-09 6.733813e-11
-1.547477e-08 -1.141543e-09 3.595653e-09 2.415750e-09 3.111656e-09 -4.013866e-10
-1.560267e-08 -2.365472e-09 4.459162e-09 2.860084e-09 2.765526e-09 -9.647438e-11
-1.246271e-09 -1.249341e-08 4.086101e-09 -1.400612e-09 7.228440e-10 -1.003766e-09
-1.286852e-09 -1.246341e-08 4.123571e-09 -1.147143e-09 -2.102416e-10 -7.297105e-10
-2.792882e-09 -1.341833e-08 4.343239e-09 -6.270324e-09 2.032406e-09 -3.076032e-10
-3.462687e-10 -1.358469e-08 4.276491e-09 -4.005015e-09 2.054144e-10 -7.184753e-10
-3.600366e-10 -1.591955e-08 4.235813e-09 -4.463460e-09 -3.757751e-10 -9.216360e-10
-2.769278e-09 -1.220088e-08 4.221105e-09 -1.749323e-09 -7.553391e-11 -1.172041e-09
-3.152800e-09 -1.053011e-08 3.704731e-09 -2.680292e-09 8.049237e-10 -7.221392e-10
-2.872886e-09 -9.384293e-09 4.223969e-09 -3.617136e-09 9.421420e-11 -1.977380e-10
-9.188798e-09 3.351721e-09 1.784040e-09 -1.360374e-09 1.013756e-11 -7.817472e-10
-8.719256e-09 3.760732e-09 1.374171e-09 -9.859694e-10 -1.205199e-10 -9.316769e-11
-8.546876e-09 3.462632e-09 1.523257e-09 -8.856643e-10 -2.006665e-10 -5.267620e-10
-1.833721e-09 1.482471e-09 -2.521185e-08 -2.428884e-08 6.584057e-09 3.580385e-09
-1.913603e-09 -3.863263e-09 -1.986488e-08 -2.443701e-08 8.088481e-09 4.717451e-09
-2.183939e-09 9.879186e-10 -2.274282e-08 -2.485254e-08 8.392828e-09 5.632809e-09
1.094874e-08 -1.761883e-08 -2.756698e-08 -2.605646e-08 1.445526e-08 6.602516e-09
-1.987130e-08 3.481628e-08 1.002017e-08 2.040223e-08 -2.537018e-09 5.982128e-10
1.574797e-08 -9.081657e-09 -3.658497e-08 -2.443339e-08 1.573158e-08 6.101033e-09
-3.616928e-09 -6.527006e-09 3.525333e-09 -2.884348e-09 -5.364147e-10 -9.571198e-10
-2.408352e-09 -1.112733e-08 3.706649e-09 -5.357911e-09 -1.712227e-10 1.655198e-10
-2.384219e-09 -9.215613e-09 4.031361e-09 -2.569621e-09 1.290567e-09 1.191890e-10
-1.045569e-09 -1.559414e-08 4.526740e-09 -4.939012e-09 -2.603676e-10 -6.187936e-10
-3.826767e-09 -1.045018e-08 4.032823e-09 -3.525185e-09 -3.252802e-10 -5.406955e-10
-1.232756e-09 -1.395199e-08 4.041708e-09 -2.352406e-09 2.172037e-09 -2.937552e-10
3.661935e-10 -1.936808e-08 -4.444636e-10 4.262230e-09 -7.918141e-10 -8.198081e-11
-1.347508e-09 -1.433106e-08 8.818799e-10 -5.194056e-11 -2.520959e-10 -1.050450e-10
-2.282570e-09 -1.354878e-08 8.445729e-10 2.008882e-09 -1.384086e-09 1.781297e-10
-3.088231e-09 2.128664e-09 3.932366e-10 4.493987e-09 -1.079879e-10 -8.389041e-10
-3.218737e-09 2.637805e-09 6.765446e-10 4.429128e-09 1.182154e-10 1.135234e-10
-3.466129e-09 2.549157e-09 6.399667e-10 4.654127e-09 2.337171e-10 -5.922218e-10
1.626749e-09 -1.441612e-10 -2.782901e-10 6.894562e-10 1.748268e-10 -1.280021e-11
-1.525208e-09 8.981420e-10 3.058709e-11 8.418896e-10 2.039996e-10 4.300182e-11
7.075185e-11 -1.672849e-10 -2.416822e-10 8.893382e-10 2.242072e-10 -2.834705e-10
-2.083533e-10 8.119059e-10 -2.172040e-11 1.838217e-09 1.692076e-10 3.720070e-10
-1.146034e-10 8.203440e-10 -1.634284e-10 1.884529e-09 -8.283668e-11 9.797407e-11
-1.151598e-08 7.577375e-08 -8.666312e-08 -4.631043e-09 -2.894092e-08 -1.404962e-08
1.295635e-08 4.795657e-08 -8.174465e-08 -1.698811e-08 -3.281693e-08 -9.663861e-09
1.340563e-08 4.244484e-08 -8.147540e-08 -1.551972e-08 -1.139946e-08 -3.322703e-09
1.294537e-08 -5.880458e-09 4.388214e-10 6.087253e-09 -2.919147e-10 -1.458870e-09
1.604490e-08 -7.561035e-09 8.957461e-10 4.902861e-09 -1.101982e-10 -2.232098e-09
1.269522e-08 -5.773172e-09 -3.830580e-11 6.251765e-09 3.789193e-10 3.759935e-10
1.567408e-08 -7.545531e-09 8.105201e-10 4.923567e-09 1.355036e-10 8.264596e-10
-6.745533e-09 3.654780e-09 9.384709e-10 3.169278e-10 9.599610e-11 -2.003606e-10
-7.153325e-09 3.731201e-09 1.050023e-09 2.578102e-10 2.654565e-11 -4.395906e-11
-7.000316e-09 3.923443e-09 9.473291e-10 7.939471e-11 3.556266e-12 4.441159e-11
-3.837647e-09 9.367531e-09 -2.221270e-08 -1.329449e-08 -7.831169e-09 -3.149578e-09
1.620817e-09 -1.186228e-09 -2.796350e-10 8.046839e-10 1.343926e-10 -7.096323e-12
2.876998e-09 -1.110420e-09 -5.051435e-10 1.195008e-09 1.787457e-10 6.430202e-10
1.843200e-08 -8.837749e-09 8.721797e-10 -2.576146e-09 -1.469946e-10 -2.537387e-09
1.596143e-08 -8.851546e-09 -1.534806e-10 -2.665214e-09 3.322268e-10 -3.567049e-10
1.667342e-08 -8.705920e-09 6.465695e-10 1.658076e-09 -7.567852e-11 -8.068524e-11
1.721756e-08 -8.865417e-09 9.110708e-10 -2.740155e-09 2.669287e-10 8.000885e-10
1.924836e-08 -3.806168e-08 -1.078520e-08 -5.516825e-09 -6.795908e-09 -1.014323e-09
1.591487e-08 -2.846430e-08 -1.630546e-08 -1.082785e-08 -8.650711e-09 -1.482563e-11
1.268977e-08 -3.300362e-08 -6.589666e-09 -5.390600e-09 -9.102649e-10 -1.421019e-09
1.295649e-08 -3.486604e-08 -5.384348e-09 -5.071967e-09 -2.350622e-09 -3.114537e-10
1.929022e-08 -4.043260e-08 -4.213077e-09 -4.569601e-09 -6.186827e-09 -3.071213e-10
1.964016e-09 7.732664e-09 -3.165822e-08 -1.767834e-08 -1.457155e-08 -5.430383e-09
1.558554e-08 -3.770077e-08 -6.865935e-09 -8.559033e-09 -7.015170e-09 -2.256715e-09
-8.789121e-09 4.061871e-09 1.526756e-09 -9.144694e-10 -2.990468e-10 -5.563258e-10
-7.712224e-09 3.773600e-09 1.303931e-09 -1.898044e-09 -4.709959e-10 -6.424741e-10
-7.354514e-09 3.656188e-09 1.010442e-09 -1.905867e-09 -2.545624e-10 -4.336764e-10
-8.248256e-09 4.372703e-09 1.185386e-09 -1.056648e-09 -1.615188e-10 -3.756847e-10
-7.523077e-09 4.267243e-09 1.130108e-09 -2.147414e-09 -3.405655e-10 -4.458945e-10
-8.888303e-09 3.510548e-09 1.709651e-09 -4.912275e-10 -1.286303e-10 -4.898828e-10
-8.354211e-09 3.474244e-09 1.577352e-09 -1.091129e-09 -2.841687e-10 -6.979466e-10
5.719443e-10 -1.346323e-08 -1.740904e-08 1.588675e-08 -9.432762e-09 6.314351e-09
2.341738e-10 -1.790361e-08 -4.060393e-09 -1.102319e-08 -4.787518e-09 -2.072304e-09
2.334774e-09 -1.893469e-08 3.825243e-09 -5.877433e-09 -4.229485e-09 -9.689023e-10
-3.536661e-09 -1.478716e-08 2.110607e-09 -1.102775e-08 -5.470532e-09 -1.763624e-09
4.904491e-08 -1.573019e-08 -6.035839e-09 3.995760e-10 6.108469e-10 9.406345e-10
4.481233e-08 -1.138409e-08 -7.806395e-09 2.988874e-10 1.533903e-09 2.233875e-09
1.986844e-08 -3.123958e-08 -2.372191e-08 1.752364e-08 9.245586e-09 -1.689168e-09
2.130591e-08 -3.689381e-08 -2.422972e-08 1.403787e-08 5.275139e-09 -1.277184e-09
2.074462e-08 -3.138635e-08 -2.065940e-08 1.776305e-08 7.277202e-09 -1.768341e-09
1.508664e-08 3.510783e-09 -5.639302e-09 -1.044480e-08 -2.129405e-09 3.051396e-09
2.697238e-08 -2.880014e-09 -3.239985e-09 -6.004577e-09 -6.108754e-10 3.255733e-09
1.375734e-08 3.740130e-09 -4.150281e-09 -8.929713e-09 -3.961886e-10 3.028322e-09
3.934151e-08 -1.056448e-08 -1.113064e-09 -4.251995e-09 -8.058108e-10 -2.683240e-10
3.003855e-08 -6.214215e-09 -1.754827e-09 -7.901160e-09 -1.490711e-09 8.724066e-11
7.276602e-09 4.722574e-08 -5.564922e-08 -6.995445e-09 -1.940486e-09 8.511342e-09
5.216427e-09 3.783186e-08 -5.754231e-08 -1.438777e-10 -1.602742e-08 1.502068e-08
-6.157016e-09 2.972764e-08 -4.508690e-08 -2.466216e-10 -7.213598e-09 8.494290e-09
5.886342e-09 3.822029e-08 -6.626551e-08 -2.096611e-09 -1.352810e-08 1.247536e-08
-6.045622e-08 8.718911e-09 1.658672e-07 -5.016187e-08 -3.327904e-08 2.165748e-08
-1.198349e-07 -6.671798e-08 3.261294e-07 -2.471735e-08 -2.489751e-08 5.487602e-08
-1.044115e-07 -6.726684e-08 2.919423e-07 -1.631516e-08 -3.170628e-08 7.400537e-08
-7.504640e-08 2.500461e-08 1.341081e-07 -5.026998e-08 -5.489233e-08 1.131591e-08
-1.449094e-08 1.305265e-08 -1.582831e-09 -7.192452e-10 -1.131829e-09 -1.482952e-09
-1.005143e-08 1.209236e-08 6.434409e-10 6.404183e-09 5.994211e-10 -8.262182e-10
-1.709047e-08 1.851972e-08 -1.178799e-09 3.735746e-09 -1.591303e-09 -1.785678e-09
1.190382e-08 -2.900777e-08 -8.923904e-09 1.023230e-08 -7.871889e-09 2.050786e-09
-9.399564e-09 9.018300e-09 8.007275e-10 4.675195e-09 -1.220858e-09 -1.534932e-09
-1.168741e-08 1.181138e-08 -4.228482e-10 2.334273e-09 3.862837e-11 2.996210e-10
1.477058e-08 -3.604842e-08 -2.478872e-09 4.119878e-09 -1.271227e-09 6.899756e-10
9.195726e-09 -2.807514e-08 -2.567457e-09 4.393925e-09 -1.092624e-09 1.174454e-09
1.281166e-08 -3.445630e-08 -6.626268e-10 8.084295e-09 -6.251287e-09 1.222334e-09
1.990671e-08 -3.605584e-08 -2.243296e-08 7.784107e-09 -7.274973e-09 1.731576e-09
9.704143e-09 -3.394783e-08 3.930145e-11 5.162641e-09 -5.174137e-09 6.395674e-10
1.217515e-08 -3.158639e-08 -2.820085e-09 8.248501e-09 -3.701076e-09 1.653440e-09
-7.679863e-09 -1.154266e-08 4.515128e-09 1.045285e-08 1.119742e-09 -4.467706e-10
-8.267992e-09 -1.366357e-08 5.008719e-09 7.346276e-09 1.129549e-09 -1.243929e-10
1.897297e-08 -3.513062e-08 -8.579133e-09 6.298933e-09 -4.902716e-09 1.436977e-09
-5.737149e-09 -1.775475e-08 5.557829e-09 1.052698e-08 1.133815e-09 3.501179e-10
-7.457479e-09 -1.405753e-08 6.508608e-09 3.379097e-09 1.051158e-09 -1.978073e-11
-8.829480e-09 -1.227207e-08 4.324776e-09 1.230472e-08 1.739815e-09 -8.105972e-10
-8.398714e-09 -1.246491e-08 3.456541e-09 1.211561e-08 2.648035e-09 -1.369361e-09
1.611964e-08 -7.406421e-09 2.517760e-09 6.546738e-09 -2.532659e-10 -2.272558e-09
1.842632e-08 -6.559035e-09 5.846748e-09 9.372009e-09 -1.118578e-10 -1.562507e-09
6.956788e-09 -1.045529e-09 2.513428e-09 1.070969e-08 2.274425e-10 4.546625e-10
8.226380e-09 -1.613528e-09 4.082891e-09 1.192223e-08 2.591643e-10 -5.091532e-10
8.410968e-09 -9.609799e-10 2.535208e-09 1.080417e-08 -4.537667e-10 -2.639992e-09
5.552618e-09 -9.411100e-10 3.817152e-09 1.049401e-08 -8.033098e-10 -3.305541e-09
8.302532e-09 -4.150679e-09 -1.211766e-09 -5.925038e-10 -1.622678e-10 2.616263e-11
6.407729e-09 -3.309300e-09 -9.802954e-10 -2.306588e-10 -1.410467e-10 -1.560578e-10
5.832366e-09 -2.248610e-09 -9.806023e-10 -2.493908e-09 -2.704981e-10 -2.443614e-10
5.026465e-09 -2.591815e-09 -8.179164e-10 -1.032016e-09 -1.674543e-10 -5.142176e-11
6.320245e-09 -3.504958e-09 -9.332530e-10 -9.587080e-10 -3.928060e-10 7.363615e-11
6.829968e-09 -3.840488e-09 -1.099763e-09 -1.625172e-09 -3.476766e-10 -1.237877e-11
7.672618e-09 -4.240712e-09 -1.073825e-09 -4.334384e-10 -1.793991e-10 -3.422629e-10
5.708353e-09 -2.991943e-09 -8.905973e-10 -4.768563e-10 -2.438787e-10 2.383076e-10
-8.327500e-09 4.676036e-09 1.200805e-09 -2.693428e-10 -4.919987e-11 -1.205922e-10
-7.560872e-09 4.731181e-09 8.297403e-10 -1.005088e-09 -6.836709e-11 -2.185365e-10
-7.530727e-09 4.669404e-09 8.658332e-10 -1.163038e-09 -5.708123e-11 -6.100098e-11
-7.071316e-09 4.581624e-09 9.992656e-10 -1.099808e-09 -1.099159e-10 -1.835575e-10
-7.104100e-09 4.616867e-09 8.548793e-10 -1.089699e-09 -9.718359e-11 -1.069913e-10
1.866913e-08 -9.137615e-09 1.987852e-09 1.070323e-09 2.835640e-11 -1.755052e-09
2.025688e-08 -1.129267e-08 4.711809e-09 -5.305161e-10 6.473707e-10 -1.467229e-09
1.906194e-08 -1.159947e-08 5.326555e-09 -2.343371e-09 7.219058e-10 -1.778002e-09
1.952873e-08 -9.662820e-09 3.179016e-09 -5.326760e-09 1.945778e-10 1.801355e-09
2.072633e-08 -9.665709e-09 3.691683e-09 -5.473620e-09 1.785388e-10 -4.587258e-09
2.293753e-08 -9.662679e-09 5.472627e-09 -5.304580e-09 1.759013e-10 -1.014761e-09
1.020161e-08 -5.573838e-09 -1.189948e-09 1.789493e-09 2.232836e-11 -1.574677e-10
8.184949e-09 -4.282265e-09 -1.110959e-09 2.253163e-09 2.085631e-10 -2.557958e-10
4.623105e-09 2.869426e-08 -5.252356e-08 1.427640e-09 -5.355968e-09 1.971807e-09
4.164454e-09 5.546970e-08 -9.446643e-08 -1.248527e-08 -3.611063e-08 1.814972e-08
5.288389e-09 3.939593e-08 -7.815803e-08 2.017104e-09 -3.109901e-08 2.956292e-08
-2.918088e-09 4.117355e-08 -5.551835e-08 -1.485040e-08 -2.000734e-09 8.433718e-09
1.089135e-08 -3.590635e-08 5.480898e-09 -1.840703e-09 1.353569e-09 -3.294597e-10
8.557283e-09 -2.943160e-08 5.991049e-09 -2.939762e-09 -2.503057e-10 -1.853780e-10
8.527925e-09 -3.024797e-08 5.498563e-09 -3.316992e-09 5.221088e-10 -1.432965e-11
-6.083526e-09 2.333216e-09 1.221038e-09 1.566393e-09 -1.139218e-10 -2.786844e-10
-6.167019e-09 2.950364e-09 1.066011e-09 1.573106e-09 6.608380e-11 -1.517872e-10
-6.691876e-09 2.085824e-09 1.523706e-09 9.755709e-10 1.349609e-10 -3.918856e-10
-6.896516e-09 2.102651e-09 1.514278e-09 3.615050e-10 -9.172063e-11 -1.811467e-10
-6.850569e-09 2.386630e-09 1.527966e-09 9.108074e-10 2.629219e-10 -2.167089e-11
1.341212e-08 -7.305153e-09 -3.010052e-10 -6.468310e-09 1.790883e-10 -6.043682e-11
1.599878e-08 -7.294062e-09 7.637708e-10 -6.646379e-09 1.153562e-10 -2.453043e-09
1.773098e-08 -7.280186e-09 1.238579e-09 -6.852967e-09 -5.175714e-11 -1.402410e-09
1.548420e-08 -7.286692e-09 4.034177e-10 -6.737769e-09 -4.882573e-11 1.284950e-09
-1.149580e-08 5.620138e-09 -8.257692e-10 -6.379821e-09 9.388423e-10 8.508965e-10
-1.019938e-08 2.024787e-09 -4.129389e-09 -1.207098e-08 1.722506e-09 4.169528e-10
-1.159247e-08 5.167776e-09 -1.236375e-10 -6.156205e-09 1.091274e-10 -2.886606e-10
-1.123259e-08 9.290888e-09 -1.483621e-09 -4.442024e-09 1.439242e-09 1.058792e-09
-4.132456e-09 -1.508101e-09 -4.807895e-09 -1.569589e-08 2.622274e-09 1.371499e-09
-8.076750e-09 -1.194552e-09 -5.824385e-10 -1.057816e-08 7.645801e-10 5.566935e-10
-8.047680e-09 -2.295035e-09 -5.206946e-11 -1.054242e-08 8.177440e-10 2.076922e-10
-7.436438e-09 -1.850150e-09 -3.633638e-09 -1.463177e-08 2.652471e-09 1.190001e-09
-2.378246e-09 -9.043644e-09 -8.451906e-10 -1.304075e-08 -7.255818e-10 6.436314e-11
-1.005300e-08 -2.401008e-09 -1.999336e-09 -1.332396e-08 2.056137e-09 1.550632e-09
1.775630e-08 -8.336011e-09 8.922107e-11 1.023493e-09 -2.907087e-11 -1.037604e-10
1.608805e-08 -7.306610e-09 -6.790346e-10 3.648504e-10 2.831754e-10 2.599108e-10
1.477061e-08 -7.288403e-09 -6.462200e-10 -3.614734e-09 -1.492412e-10 1.015734e-09
1.677718e-08 -8.397022e-09 -4.463496e-10 -1.171472e-09 1.479701e-10 8.077554e-10
1.863329e-08 -8.344246e-09 1.114597e-09 -1.257027e-09 -5.883038e-11 -1.109721e-10
1.697354e-08 -9.162864e-09 4.872520e-10 -4.082239e-09 2.189284e-10 -1.227724e-09
1.515317e-08 -7.295457e-09 -6.353424e-10 -3.493988e-09 2.301959e-11 -1.372562e-09
-6.574567e-09 4.047275e-09 4.124727e-10 -4.135745e-09 -3.547985e-10 -2.574363e-10
-7.976422e-09 3.366031e-09 9.246794e-10 -1.941870e-09 -2.143619e-10 -1.817504e-10
-8.360891e-09 3.828257e-09 5.217102e-10 -3.156619e-09 -3.361804e-10 -6.952465e-10
-6.625441e-09 3.960562e-09 4.311689e-10 -3.716424e-09 -1.692662e-10 -2.481437e-10
1.183044e-08 -3.703395e-08 7.339715e-09 4.182292e-09 4.961580e-10 5.797407e-10
1.329232e-08 -3.867589e-08 4.685674e-09 5.024578e-09 9.496753e-10 -3.943961e-12
1.229999e-08 -3.636473e-08 6.956774e-09 3.773831e-09 5.400495e-10 -1.013008e-11
1.433757e-08 -4.033023e-08 5.800973e-09 8.818862e-10 1.313800e-09 -1.131923e-10
1.893285e-08 -4.300279e-08 -2.749512e-10 3.512808e-09 -5.507094e-09 9.575940e-10
1.354984e-08 -4.040798e-08 5.435595e-09 4.186024e-09 2.267438e-09 -4.442849e-10
1.255329e-08 5.668589e-09 -4.286637e-08 9.964240e-09 -1.945761e-08 9.204328e-09
5.014618e-09 1.565592e-08 -5.204775e-08 8.058082e-09 -7.181688e-09 4.973659e-09
3.232547e-09 2.813381e-08 -4.559086e-08 2.532850e-09 -6.303564e-09 6.435256e-09
1.550558e-08 1.552474e-08 -6.451589e-08 7.055428e-09 -1.037345e-08 6.256285e-09
1.605040e-08 2.538274e-08 -6.578565e-08 4.761764e-09 -2.720614e-08 1.400526e-08
4.623105e-09 3.739489e-08 -5.343838e-08 -9.796683e-10 -9.753211e-09 4.633967e-09
2.458842e-09 2.657572e-08 -5.633401e-08 6.227442e-09 -2.162509e-08 1.997294e-08
1.536338e-08 1.444791e-08 -6.056879e-08 8.223814e-09 -2.588409e-08 1.210359e-08
9.181480e-09 -5.041509e-09 -1.191189e-09 8.316535e-10 7.100870e-11 -1.912582e-12
7.665496e-09 -4.157842e-09 -9.664263e-10 6.904076e-10 1.222596e-10 2.357216e-10
9.139782e-09 -4.995358e-09 -1.115702e-09 7.604617e-10 2.446812e-10 2.424934e-10
7.821442e-09 -4.402765e-09 -1.017108e-09 1.464794e-10 1.432655e-10 -6.804246e-11
8.286637e-09 -4.908512e-09 -1.092920e-09 4.249184e-10 1.755573e-10 -2.275953e-10
1.093458e-08 -3.657950e-08 4.929549e-09 6.638765e-09 1.606913e-09 9.717999e-11
1.239379e-08 -3.890221e-08 6.042186e-09 5.894863e-09 1.466985e-09 4.998952e-10
1.097479e-08 -3.672314e-08 6.388377e-09 4.649931e-09 5.077050e-10 -2.953010e-10
1.435146e-08 -3.814903e-08 5.740534e-09 4.741120e-10 1.075448e-09 -1.420618e-10
-4.637492e-09 9.644641e-09 -1.822412e-08 5.644271e-09 -1.248721e-09 6.843939e-10
-9.842066e-09 1.036005e-08 -6.905629e-09 -4.187074e-09 -1.109192e-09 2.559365e-09
-1.173212e-08 1.594462e-08 -1.141703e-08 -4.776402e-09 -4.093782e-09 7.607910e-09
-1.116068e-08 2.060563e-08 -2.376209e-08 1.129756e-10 -9.029480e-09 1.204243e-08
-9.055760e-09 1.659288e-08 -1.473552e-08 -3.684350e-09 -2.539527e-09 3.243718e-09
4.994016e-08 -2.372021e-08 2.558907e-08 1.865990e-08 1.744560e-09 1.062152e-08
-7.508252e-09 3.301132e-09 1.358161e-09 3.035594e-10 1.805667e-11 -1.004214e-10
4.041962e-08 -1.680278e-08 1.388784e-08 2.023566e-08 9.704122e-10 7.329322e-09
4.248395e-08 -3.718219e-08 4.498729e-08 1.437435e-08 7.784501e-09 2.062134e-08
3.501840e-08 -4.410982e-08 4.972093e-08 2.227451e-08 7.161661e-09 2.405074e-08
4.039324e-08 -1.656941e-08 2.746730e-08 2.875757e-08 2.367692e-09 -7.835273e-09
3.909284e-08 -1.809123e-08 5.338004e-08 3.377137e-08 2.973783e-09 1.011822e-08
9.750388e-09 -4.927790e-09 -1.226885e-09 -3.250526e-09 -1.356321e-11 9.426704e-11
7.319175e-09 -3.055667e-09 -1.109082e-09 -4.843562e-09 -2.217466e-10 -3.925700e-10
1.173669e-08 -3.588234e-08 6.330331e-09 -4.226486e-09 5.904366e-10 -8.059616e-10
1.065397e-08 -4.895277e-09 -1.212097e-09 -3.968936e-09 -4.320921e-11 8.608692e-11
9.697227e-09 -4.670507e-09 -1.220713e-09 -4.689049e-09 -3.100946e-10 6.085394e-10
9.793446e-09 -5.145618e-09 -1.304011e-09 -2.803927e-09 -1.636900e-10 5.609773e-10
8.472117e-09 -4.084438e-09 -1.142049e-09 -5.547440e-09 -3.601826e-11 3.998872e-10
1.562853e-08 -8.001511e-09 2.833781e-09 -1.174204e-08 7.266468e-10 1.848660e-11
7.385916e-09 3.978162e-11 2.208025e-09 -1.616977e-08 -5.822769e-10 1.760369e-09
1.398009e-08 -4.995867e-09 2.866106e-09 -1.202671e-08 2.698887e-10 3.110229e-10
1.217896e-08 -2.315978e-09 3.013861e-09 -1.490408e-08 3.574617e-10 -1.286593e-09
1.820154e-08 -4.093365e-08 -1.805213e-09 -4.311456e-09 1.943167e-09 -2.148762e-10
1.820154e-08 -3.934057e-08 5.822409e-10 -4.281836e-09 3.906212e-09 -1.825416e-10
1.479760e-08 -3.816405e-08 2.634717e-09 -4.638548e-09 1.835385e-09 1.143533e-10
1.595130e-08 -3.815126e-08 2.415131e-09 -4.209899e-09 1.311757e-09 -5.190898e-10
1.752263e-08 -4.121006e-08 4.645275e-10 1.260160e-09 -5.339817e-10 -1.458560e-10
1.477157e-08 -4.056264e-08 2.402594e-09 -6.037556e-10 1.549415e-09 -3.762031e-10
1.485260e-08 -4.019837e-08 2.746346e-09 -7.758584e-10 2.431309e-10 2.060522e-10
1.479760e-08 -3.908734e-08 7.900143e-10 -4.480004e-09 3.871099e-10 2.552200e-10
4.743192e-09 -1.474112e-09 -7.398304e-10 -2.588346e-09 -2.372334e-10 2.756210e-10
1.370684e-09 -3.316396e-10 -5.441607e-10 -3.226569e-09 -4.835643e-11 -7.568901e-11
2.420762e-09 1.500207e-10 -3.854241e-10 -2.907210e-09 -1.316416e-10 9.576040e-11
2.106689e-08 -5.050376e-08 2.034250e-09 4.209964e-10 -2.518093e-09 2.703386e-10
-5.651646e-08 9.785608e-08 -2.302051e-08 9.867328e-09 2.819890e-08 -4.324193e-09
-3.102999e-08 3.205466e-08 1.099807e-08 1.611378e-08 -1.257955e-08 1.550416e-08
-1.316540e-08 8.012061e-08 -4.078077e-08 1.687745e-08 1.565251e-08 -4.137783e-09
-2.768982e-08 8.019255e-08 -1.209759e-08 1.865262e-08 1.349695e-08 -1.156476e-08
-4.389369e-08 2.389935e-08 6.216595e-08 3.468547e-08 4.720414e-08 1.589017e-09
2.822822e-08 -5.718493e-08 -3.730859e-09 -3.869084e-09 -2.448992e-08 3.480761e-10
2.290683e-08 -5.140447e-08 -2.367205e-09 8.810620e-10 -6.283502e-09 1.413371e-09
2.328503e-08 -5.628620e-08 2.949695e-09 -1.684073e-09 -1.078593e-08 2.545206e-10
2.210994e-08 -5.269536e-08 6.097386e-09 -3.064581e-10 -6.118185e-09 6.246547e-10
2.422619e-08 -4.794014e-08 -3.547327e-10 -5.026695e-09 -1.034667e-08 5.006895e-10
2.382431e-08 -5.063233e-08 1.290481e-09 -5.193759e-09 -1.271443e-08 -4.973188e-10
2.308607e-08 -5.234557e-08 -5.152114e-10 -1.962097e-09 -9.213249e-09 7.285106e-11
9.396429e-09 -3.639054e-08 6.694973e-09 4.823848e-09 1.582259e-09 -3.414065e-10
8.822879e-09 -3.484764e-08 7.446848e-09 1.414330e-09 6.058964e-10 4.214977e-10
1.120546e-08 -3.732881e-08 7.271966e-09 9.264172e-10 1.012772e-10 1.608702e-10
1.111870e-08 -3.626748e-08 7.335719e-09 5.204238e-10 -2.548271e-10 1.809448e-10
9.988978e-09 -3.385707e-08 7.093912e-09 1.654754e-09 -4.485039e-11 1.988320e-10
9.168641e-09 -3.342083e-08 7.156786e-09 1.431038e-09 -2.430058e-10 1.411609e-10
8.182457e-09 -3.407019e-09 -5.843099e-10 5.128410e-09 -1.871597e-10 -6.470814e-10
7.180518e-09 -3.358613e-09 -6.738330e-10 4.967270e-09 2.064658e-10 1.500049e-10
7.712892e-09 -3.410331e-09 -6.075505e-10 5.191713e-09 4.181717e-10 4.167157e-10
8.546087e-09 -4.641675e-09 -1.198202e-09 -1.676068e-10 -1.574258e-10 9.717915e-11
9.377155e-09 -5.132950e-09 -1.161186e-09 -4.375266e-10 -1.110101e-10 2.817993e-10
8.865252e-09 -4.822038e-09 -1.196314e-09 -1.427294e-09 -1.904189e-10 6.304335e-11
9.597456e-09 -5.133202e-09 -1.214156e-09 -4.183299e-10 -1.070461e-10 -1.459456e-10
9.185309e-09 -5.174950e-09 -1.242887e-09 -6.214873e-10 -5.322273e-11 -3.712719e-11
1.215367e-08 -3.646940e-08 6.705366e-09 -6.505860e-10 -1.837065e-10 -3.595418e-10
7.841115e-09 -2.792609e-08 6.081271e-09 -1.259088e-09 -6.352010e-10 -9.084643e-10
1.049617e-08 -3.123037e-08 5.193570e-09 -4.590502e-09 8.491574e-10 -1.531702e-10
1.136242e-08 -3.406031e-08 5.624715e-09 -5.329484e-09 1.952536e-09 -5.018607e-10
7.549573e-09 -2.671988e-08 5.571561e-09 -2.693849e-09 4.384328e-10 -4.270441e-10
7.649380e-09 -2.642506e-08 5.805487e-09 -2.208653e-09 1.107388e-10 -6.646046e-10
9.518644e-09 -3.211120e-08 6.516764e-09 -2.111944e-09 3.681309e-12 -9.583782e-10
1.142554e-08 -3.426906e-08 6.695424e-09 -2.126760e-09 6.657526e-10 -3.767292e-10
7.763088e-09 -2.739908e-08 6.238058e-09 -1.763853e-09 3.408611e-10 -6.571123e-10
7.828634e-09 -2.844462e-08 6.126837e-09 -1.163094e-09 -9.019807e-10 -8.279771e-10
-2.847638e-08 6.750903e-08 -1.910880e-08 -2.030694e-08 -3.279105e-09 -1.462429e-08
-1.585700e-08 6.970291e-08 -3.845517e-08 -1.001824e-08 5.913704e-09 -1.692041e-08
2.321042e-08 -1.735122e-10 -5.912378e-08 6.355333e-09 -1.090367e-08 2.906102e-09
2.327059e-08 -1.741552e-08 -4.327791e-08 7.792473e-09 -7.833797e-09 2.795279e-09
2.316329e-08 -1.437944e-08 -4.817095e-08 9.026894e-09 -2.482699e-08 5.782089e-09
2.321779e-08 -8.769452e-09 -5.144669e-08 7.343946e-09 -7.830004e-09 3.583365e-09
-9.753029e-09 9.423144e-10 9.916918e-10 6.813716e-11 -5.088538e-10 -6.659619e-10
-9.801347e-09 1.171983e-09 1.454643e-09 8.904866e-10 -1.985379e-10 -3.019733e-10
-9.075094e-09 2.545740e-09 1.476562e-09 -2.920683e-10 -2.004699e-10 -1.182873e-10
-9.233767e-09 3.126437e-09 1.163690e-09 -1.233937e-09 -2.289959e-10 3.526626e-10
-9.418295e-09 3.619672e-09 9.020478e-10 -2.221615e-09 -8.248149e-10 1.964625e-10
-1.368487e-08 1.164366e-07 -7.667650e-08 2.230189e-08 -2.144173e-08 -1.379462e-08
-5.925585e-08 -4.868436e-09 2.301638e-07 4.093574e-08 -4.641010e-08 -8.291875e-08
7.080712e-09 1.243526e-08 -4.106220e-08 -1.728655e-08 -5.962984e-09 -4.328767e-09
-3.421105e-08 2.300820e-08 1.035545e-07 3.413122e-08 -2.344995e-08 7.797429e-09
-1.249167e-09 -1.487831e-08 4.967490e-09 -2.471851e-09 -3.913277e-10 -8.222081e-10
-3.371721e-09 -8.876850e-09 3.970767e-09 -2.647645e-09 7.856257e-10 -9.623992e-10
-3.462822e-09 -7.375081e-09 3.374096e-09 -3.066042e-09 3.333010e-10 -6.735026e-10
-2.790636e-09 -1.065571e-08 4.535653e-09 -3.672395e-09 -1.969530e-10 -3.893603e-10
-1.798295e-09 -1.103803e-08 4.193419e-09 -7.275463e-11 3.460360e-11 -6.929297e-10
-1.789955e-09 -1.155804e-08 4.047875e-09 -2.824999e-10 2.724073e-10 -9.339795e-10
-2.939376e-09 -1.090154e-08 3.965134e-09 -2.022080e-10 3.275247e-11 -5.190675e-10
2.296743e-08 -4.756034e-08 -2.823083e-09 -9.197708e-10 -1.053794e-09 -2.725399e-11
2.072121e-08 -4.371917e-08 -5.541665e-09 -6.114254e-10 -2.772422e-09 -2.637455e-10
1.989377e-08 -4.818241e-08 -4.882712e-09 -8.332848e-09 -1.310246e-08 -5.140876e-09
2.299474e-08 -4.528637e-08 -5.455443e-09 -1.226793e-09 -1.938410e-09 2.973505e-10
2.280969e-08 -4.488788e-08 -7.020338e-09 -1.798714e-09 -6.630298e-09 -5.279664e-10
2.317973e-08 -5.272089e-09 1.542991e-08 -3.281560e-08 -4.632062e-09 9.433330e-09
1.203650e-08 -1.017963e-08 6.637108e-08 -4.571711e-08 -1.796227e-08 1.989370e-08
2.811620e-09 -6.646709e-09 6.246684e-08 -4.363106e-08 -1.400880e-08 1.289609e-08
1.775549e-08 7.699005e-09 1.157140e-08 -3.520495e-08 -3.602982e-10 3.089668e-09
1.090443e-08 -5.979550e-09 4.399470e-08 -4.102151e-08 -1.189779e-08 1.386085e-08
-1.382670e-08 1.245927e-08 -1.156129e-08 -8.142680e-09 -6.029501e-09 -3.078128e-09
-1.354474e-08 1.791945e-08 -1.697698e-08 -7.200764e-09 -3.433339e-09 -2.392283e-09
-9.304981e-09 2.311498e-08 -1.702131e-08 -2.370962e-09 -4.434705e-09 -3.566770e-09
-9.908753e-09 2.345867e-08 -1.799094e-08 7.749826e-10 -6.854673e-09 -8.239602e-09
-1.125494e-08 2.330251e-08 -1.324835e-08 3.240311e-09 -1.923329e-09 -1.587911e-09
-1.140801e-08 2.308144e-08 -2.114178e-08 -3.783120e-10 -5.421531e-09 -6.014226e-09
1.355509e-08 1.583372e-08 -5.204775e-08 7.284992e-09 -7.259300e-09 2.235416e-09
2.541284e-08 1.808049e-08 -7.953548e-08 -1.355194e-09 -1.191300e-08 5.790540e-09
2.295758e-08 -1.532307e-10 -5.555034e-08 6.729742e-09 -2.693897e-08 8.229298e-09
1.805052e-08 3.225620e-08 -8.966582e-08 -2.514717e-09 -3.927454e-08 1.037048e-08
1.967566e-08 2.041564e-08 -7.845354e-08 8.537026e-09 -3.521262e-08 1.884784e-08
2.518344e-08 2.975978e-08 -8.457966e-08 -2.767317e-09 -1.054112e-08 4.181454e-09
2.742583e-09 -4.970953e-08 1.332137e-07 -7.881591e-09 -5.835113e-09 2.842372e-08
-8.709063e-09 1.396535e-08 7.684261e-08 4.309200e-08 -2.039621e-09 7.430164e-09
-4.927439e-08 -1.337049e-09 1.688876e-07 5.010339e-08 5.424678e-08 3.213778e-08
-2.665885e-08 -2.247331e-08 1.701178e-07 3.594052e-08 4.930677e-08 3.757769e-08
2.347939e-08 -4.422311e-08 1.382236e-07 2.308019e-08 9.008088e-09 3.592253e-08
5.425200e-09 -5.058664e-08 1.806024e-07 4.469861e-08 3.677991e-08 3.676196e-08
2.940732e-08 -3.470079e-08 -2.257480e-08 -5.099179e-09 1.141874e-08 1.133271e-09
2.293109e-08 -4.192041e-08 -9.040746e-09 -1.248863e-09 4.905852e-09 -5.003829e-10
2.175685e-08 -3.931030e-08 -1.501580e-08 -9.004127e-09 1.091587e-08 1.707032e-09
2.491690e-08 -4.078671e-08 -2.231732e-08 1.918850e-09 1.074442e-08 8.169176e-10
-5.625812e-09 3.154320e-09 8.071184e-10 8.262995e-10 1.506480e-10 -1.879494e-10
-6.041697e-09 3.388410e-09 8.322329e-10 3.185971e-10 7.729822e-11 5.928480e-11
-5.502139e-09 2.955339e-09 7.155023e-10 8.274907e-10 -8.983782e-11 -2.401008e-10
-6.041647e-09 2.969230e-09 9.119923e-10 1.146017e-09 3.886424e-11 -1.466631e-10
-5.855462e-09 2.822706e-09 9.974719e-10 9.941203e-10 -3.026568e-11 -1.687539e-11
-6.739031e-09 3.366850e-09 1.042520e-09 6.024186e-10 -1.674039e-11 -4.763523e-12
1.135249e-08 -1.556887e-08 -3.245156e-08 2.781185e-08 6.792944e-09 -5.975872e-09
1.046313e-08 -5.859141e-09 -4.360743e-08 2.972441e-08 1.905213e-08 -7.493354e-09
1.061418e-08 -3.106487e-09 -3.904008e-08 2.875916e-08 9.033078e-09 -4.385551e-09
2.544202e-08 -1.124079e-08 -5.024601e-08 2.258397e-08 7.431644e-09 -5.437273e-09
1.290084e-08 -7.292958e-09 -9.087060e-10 -3.426138e-09 7.087989e-12 4.804162e-11
1.358316e-08 -5.462529e-09 -2.741523e-10 -7.044571e-09 -4.828427e-11 7.346794e-12
1.612959e-08 -7.180053e-09 -7.847829e-10 -2.516113e-09 3.308231e-11 -2.390765e-10
1.484654e-08 -7.235125e-09 -1.934675e-11 -5.158703e-09 -1.264551e-11 -1.277608e-09
1.382660e-08 -7.269719e-09 -7.372991e-10 -4.775541e-09 6.725953e-11 -1.702957e-10
-4.188179e-09 2.986773e-09 1.957714e-10 -1.629977e-09 -1.385205e-10 8.298961e-11
-4.038137e-09 3.586473e-09 2.958389e-10 -1.800391e-09 -1.170848e-10 -4.318307e-11
-4.047704e-09 3.759478e-09 3.575091e-10 -1.866693e-09 -1.534615e-10 -2.351708e-11
-3.823235e-09 3.089241e-09 2.560654e-10 -1.851166e-09 -4.177453e-10 7.548850e-12
-5.868035e-09 3.737439e-09 5.417609e-10 -1.717693e-09 -1.997444e-10 -1.777001e-10
-4.654941e-09 3.681031e-09 3.289897e-10 -2.420228e-09 -3.603149e-10 -2.318792e-10
-3.050118e-09 3.000990e-09 1.653877e-11 -2.019466e-09 -1.941804e-10 -4.531370e-11
-3.246542e-09 2.963068e-09 2.289313e-10 -2.112487e-09 -2.945424e-10 -4.147839e-10
-2.579022e-08 3.880408e-08 -1.003031e-08 5.769272e-09 -3.039163e-09 -2.378613e-09
-2.221121e-08 2.845642e-08 -3.562816e-09 2.465387e-09 -3.409296e-09 1.147204e-09
2.473545e-08 -3.670956e-08 -1.725352e-08 -4.186599e-09 -3.096026e-09 -3.176037e-10
-8.453467e-09 -1.085489e-08 1.214851e-09 1.539190e-08 1.784337e-09 4.517149e-10
-2.297274e-08 2.747900e-08 -4.496763e-09 2.361544e-09 1.168083e-09 4.419628e-09
-2.236505e-08 3.877438e-08 -2.142533e-09 8.250530e-09 -6.509252e-10 3.352657e-09
-6.161774e-09 -9.959614e-09 5.482337e-08 -4.847758e-08 -2.276869e-08 1.086030e-08
1.201244e-09 -6.519219e-08 1.447858e-07 -1.602027e-09 -3.506370e-09 3.094169e-08
-1.402742e-08 -2.853150e-09 3.860079e-09 8.900237e-09 2.647722e-09 -2.872377e-10
-8.337192e-08 1.979421e-08 2.615739e-07 -4.081288e-08 -1.204022e-07 3.852728e-08
-2.353192e-09 -6.492472e-08 1.893405e-07 -2.278543e-09 8.175816e-10 8.451935e-09
-7.611262e-08 3.387021e-09 2.420653e-07 -3.387355e-08 -2.170995e-09 2.037023e-08
-5.315284e-08 6.297602e-08 3.101234e-08 -3.387324e-08 -1.353341e-08 -4.008091e-09
-5.166118e-08 -8.747814e-09 1.587335e-07 -5.372989e-08 -2.202400e-08 2.501995e-08
-4.456727e-08 6.136598e-08 4.642108e-08 -3.762397e-08 -5.022142e-08 7.018684e-11
3.568328e-08 -1.009066e-08 -4.260336e-09 3.158806e-09 5.313259e-10 2.798110e-09
3.338984e-08 -7.945275e-09 -7.153803e-09 5.841149e-09 -9.973054e-10 -2.897342e-09
4.709789e-08 -1.603258e-08 -6.400211e-09 3.311250e-09 -4.475972e-10 5.018457e-10
5.539830e-08 -1.861630e-08 4.923624e-09 3.921895e-09 -9.867300e-10 1.002543e-08
3.991498e-08 -1.056381e-08 -2.862903e-09 9.557382e-09 2.288015e-10 1.467042e-09
1.010270e-08 -9.241004e-09 -2.565958e-08 1.185138e-08 -4.228064e-09 2.298205e-09
4.669438e-10 4.787020e-10 -3.073801e-10 -3.834430e-09 -3.891920e-10 -4.713707e-10
1.063919e-08 -2.807298e-08 -7.447945e-09 1.967648e-08 3.623160e-09 -3.677191e-10
6.388214e-09 -2.922024e-08 4.933935e-10 1.368607e-08 6.376833e-10 -8.778989e-11
2.591995e-09 -2.123390e-08 -2.637985e-09 1.777126e-08 -4.413157e-11 8.324903e-10
2.897983e-09 -2.554695e-08 -1.295250e-09 1.608981e-08 1.629896e-09 1.009966e-10
-3.603036e-09 2.564079e-09 1.175251e-10 -4.651668e-09 -4.331688e-10 -9.119505e-11
3.732818e-09 -2.653408e-08 -3.045332e-09 1.969323e-08 1.867432e-09 -5.806879e-10
-7.517904e-09 8.429452e-09 1.090377e-09 5.783028e-09 1.428508e-10 -4.059139e-10
-7.775767e-09 5.997200e-09 8.472463e-10 2.916842e-09 2.949911e-10 -3.266150e-10
-5.863609e-09 3.691153e-09 6.181047e-10 -4.249333e-09 2.888890e-11 -4.899774e-10
-7.528886e-09 4.522159e-09 8.306484e-10 2.558294e-09 1.720954e-10 -3.666204e-10
-4.258790e-09 3.733131e-09 7.430556e-10 4.251960e-09 -2.650103e-11 -3.257632e-10
-4.257825e-09 4.765667e-09 9.312164e-10 7.074560e-09 2.092658e-11 -8.493259e-10
-2.093884e-09 2.725729e-09 7.275052e-10 6.126293e-09 1.009061e-10 -5.729934e-10
-4.999412e-09 4.251753e-09 8.459984e-10 5.523585e-09 -2.576767e-10 -9.125709e-10
-4.892378e-09 4.110957e-09 6.639391e-10 4.854488e-09 4.079117e-10 5.646881e-10
3.065623e-08 -1.552372e-08 1.346063e-08 2.445097e-08 5.427762e-09 4.678422e-09
4.884691e-08 -2.372021e-08 4.108849e-08 2.286110e-08 -2.349608e-09 3.201902e-09
3.033025e-08 7.994710e-10 7.982686e-09 2.950996e-08 4.095146e-09 3.455185e-09
1.264835e-08 1.212932e-08 2.112386e-08 3.218930e-08 -1.084238e-10 8.543054e-09
5.371297e-09 -1.345743e-09 -2.555283e-10 6.974316e-09 2.968736e-10 3.592089e-10
5.291855e-09 -1.349442e-09 -9.663736e-11 6.941660e-09 2.757724e-10 4.144249e-10
3.550169e-10 6.249939e-10 2.494516e-10 5.921803e-09 5.135428e-10 2.882501e-10
5.903916e-09 -1.364243e-09 -7.780709e-11 6.847483e-09 1.436828e-11 -7.764025e-10
-6.572536e-09 -6.781965e-09 3.839444e-10 5.813885e-09 -2.223367e-09 -1.022713e-10
-4.816894e-09 -6.323950e-09 -1.223724e-09 5.028884e-09 -2.174873e-09 5.457149e-10
-7.453254e-09 -5.841638e-09 3.821374e-10 4.137764e-09 -1.077090e-09 3.675336e-10
-7.322554e-09 -5.230911e-09 1.770006e-09 3.671118e-09 -4.582426e-10 -4.253774e-10
-2.909604e-09 -9.392485e-09 1.741658e-09 2.257966e-09 -1.663820e-09 1.725774e-10
-3.229207e-09 -1.317373e-08 4.661711e-10 4.163379e-09 -4.108985e-09 9.622154e-10
4.460391e-09 1.518270e-09 -3.241684e-08 -1.693118e-08 -1.577899e-08 -5.119148e-09
7.335831e-09 9.843404e-10 -4.098870e-08 -1.775855e-08 -2.157938e-08 -5.621314e-09
7.007842e-09 -2.363241e-09 -2.832321e-08 -1.867666e-08 -5.130391e-09 -3.391554e-09
-4.144935e-09 2.614207e-09 1.138138e-10 -2.981019e-09 -3.678788e-10 -1.823031e-11
7.329965e-09 -4.060735e-09 -1.008469e-09 7.124319e-10 2.753510e-10 -9.545470e-11
1.575885e-08 -7.928338e-09 -9.666845e-11 8.394242e-10 1.144588e-10 5.327837e-10
1.318486e-08 -5.931789e-09 -6.245062e-10 4.817338e-09 -1.448377e-10 -1.165314e-09
1.264528e-08 -6.695624e-09 -9.024848e-10 2.156508e-09 3.454709e-11 5.561112e-10
1.500006e-08 -6.950946e-09 -7.473726e-10 2.500852e-09 1.123567e-10 -2.079819e-10
1.713543e-08 -9.086654e-09 1.095736e-09 1.526944e-09 1.562187e-10 -1.605166e-09
1.737873e-08 -7.746767e-09 2.089044e-09 5.342388e-09 3.093164e-11 -8.089733e-10
1.765753e-08 -8.337445e-09 -1.661093e-10 9.847448e-10 -5.074780e-11 -9.511274e-10
1.168658e-08 -4.657927e-09 1.861908e-09 7.972469e-09 6.930422e-11 -1.783055e-09
1.310735e-08 -7.197720e-09 1.896905e-10 4.123741e-09 8.160784e-11 -7.145896e-10
1.007743e-08 -4.794133e-10 3.901263e-09 -1.674729e-08 7.305215e-10 -3.127344e-09
2.280167e-08 -9.658857e-09 5.024153e-09 -5.330076e-09 2.941487e-10 -2.924258e-09
6.734693e-09 -3.504849e-09 -9.234955e-10 -1.093371e-09 -4.449622e-10 1.665295e-10
1.546028e-08 -5.301177e-09 5.716311e-09 -1.612940e-08 1.180057e-09 6.760768e-10
2.490876e-08 -1.177134e-08 1.100566e-08 -1.900913e-09 -7.968575e-11 -5.817752e-09
2.121161e-08 -1.162429e-08 8.569561e-09 -2.192293e-09 1.117469e-09 1.227465e-09
2.369645e-08 -1.163794e-08 8.849501e-09 -1.668292e-09 -2.493138e-11 -7.599752e-09
6.090926e-09 -2.710712e-08 4.204196e-09 -6.877374e-09 3.323660e-10 -4.515780e-10
-4.324903e-09 4.035252e-09 -5.806431e-10 -6.975755e-09 -2.818237e-10 -7.448381e-10
8.762393e-09 -2.795534e-08 5.158442e-09 -5.572935e-09 7.315492e-10 -8.860952e-11
7.719579e-09 -2.792427e-08 4.983091e-09 -6.816547e-09 1.890355e-09 -6.099336e-10
5.447089e-09 -2.494711e-08 4.988386e-09 -5.747174e-09 6.563378e-10 -8.965938e-10
5.283938e-09 -2.600249e-08 4.903862e-09 -5.816518e-09 1.352214e-09 -1.713431e-10
6.649053e-09 -3.443865e-09 -9.663266e-10 -3.295586e-10 -4.501088e-11 6.555689e-11
6.257340e-09 -2.954302e-08 5.175274e-09 -6.410737e-09 1.106106e-09 -4.187845e-11
8.487935e-09 -3.303095e-08 5.777754e-09 -5.880253e-09 1.648392e-09 -1.005601e-09
-1.761283e-09 1.072536e-08 -4.760945e-09 -1.474011e-08 -3.768248e-10 1.604797e-09
5.088205e-10 1.243450e-11 -1.674278e-10 2.087586e-09 5.162194e-10 -9.915313e-11
5.532967e-09 4.930198e-09 -1.159155e-09 -1.753191e-08 -1.677168e-10 1.120192e-10
1.974151e-09 4.250757e-09 -6.934264e-10 -1.594377e-08 -2.285148e-10 -1.466894e-11
-2.678707e-09 7.509774e-09 -2.851130e-09 -1.331500e-08 -5.742471e-11 -6.604950e-10
-6.016616e-09 9.207024e-09 -4.676036e-09 -1.219204e-08 -1.496492e-10 1.173798e-09
-3.581642e-09 -7.543083e-09 2.127333e-09 -7.944735e-09 1.043530e-09 2.523555e-10
-6.821668e-09 -4.359580e-09 1.840712e-09 -7.495493e-09 4.798173e-10 -1.812392e-10
-6.779361e-09 -1.553407e-09 1.248200e-09 -6.954102e-09 -4.392931e-11 -5.960481e-10
-6.869441e-09 -6.199995e-09 2.638878e-09 -8.131883e-09 -4.457508e-10 -4.164143e-10
-1.626793e-09 -1.083105e-08 -2.228191e-10 -1.042721e-08 2.219973e-09 8.664108e-10
-6.843405e-09 -3.880065e-09 1.901088e-09 -7.742695e-09 3.311145e-10 -8.816881e-11
-1.001665e-08 5.291733e-09 8.950058e-10 -1.196009e-09 -2.574547e-10 -8.872898e-10
-8.627551e-09 4.568326e-09 1.235009e-09 -6.657688e-10 2.055087e-10 -5.389555e-10
-7.665593e-09 5.348195e-09 8.304983e-10 2.363865e-09 1.751106e-10 -3.727506e-10
-1.003570e-08 2.761173e-09 1.292695e-09 -2.736083e-09 3.124611e-11 -4.706715e-10
-8.037156e-09 4.273055e-09 1.426340e-09 -7.324541e-10 -8.485901e-11 -1.917962e-10
-7.437123e-09 4.982616e-09 7.661340e-10 -4.433303e-10 -8.528456e-11 -2.093237e-10
-7.049730e-09 4.410705e-09 7.907315e-10 -1.228585e-09 -9.677820e-11 -2.225833e-10
-8.280642e-09 4.485010e-09 1.206014e-09 -8.162551e-10 -8.885026e-11 -4.371337e-10
-5.804141e-09 4.309897e-09 6.469849e-10 -1.414552e-09 -2.433523e-10 -2.240197e-10
-7.452642e-09 4.351962e-09 8.378325e-10 -2.067682e-09 -3.813777e-10 -5.150567e-10
-7.467695e-09 4.527285e-09 8.883099e-10 -1.249988e-09 -1.672418e-10 -4.152883e-10
-7.763582e-09 4.817011e-09 9.757946e-10 -5.741688e-10 -7.066281e-11 -2.958425e-10
-8.919024e-09 3.486407e-09 -4.778909e-09 1.281964e-09 -3.254850e-09 1.697219e-09
-9.911651e-09 6.229893e-09 -3.604780e-09 -1.285666e-09 -8.532288e-10 1.506252e-09
-9.787030e-09 6.438715e-09 -7.567370e-09 1.985550e-09 -1.004715e-09 2.261379e-09
-9.755347e-09 1.871525e-09 -4.398682e-09 3.787057e-09 -2.884102e-09 2.313383e-09
6.057876e-09 1.114522e-07 -1.073034e-07 8.844618e-09 -1.025662e-09 -6.888215e-09
2.701114e-08 1.121421e-07 -1.635616e-07 -1.042733e-09 3.492223e-08 -2.972209e-09
1.776441e-08 1.122972e-07 -1.614507e-07 3.355174e-10 3.366632e-08 -9.712196e-10
-9.205580e-09 1.450974e-09 1.085865e-09 -5.338200e-09 6.063741e-10 2.827436e-10
-9.289286e-09 -1.621366e-09 1.926257e-09 -6.287221e-09 -2.770390e-10 -4.688960e-10
-8.695139e-09 2.406359e-09 1.439422e-09 -1.704558e-09 -3.929724e-11 -6.233913e-10
-9.229589e-09 7.229888e-10 1.237884e-09 -5.192157e-09 2.589353e-10 -4.324563e-10
1.428308e-08 -3.914641e-08 6.367046e-09 6.324153e-09 2.131862e-09 -2.944307e-10
1.532483e-08 8.717337e-10 -1.495679e-09 -6.054842e-09 2.141035e-10 5.508257e-09
2.873046e-08 3.894752e-09 -2.599204e-09 -1.787371e-08 -1.146407e-09 6.857589e-10
2.185831e-08 3.637956e-09 -4.811939e-09 -1.015504e-08 7.506533e-10 3.257023e-10
-6.533106e-09 -2.069535e-09 2.718031e-09 -3.035366e-09 5.566657e-10 -6.683898e-10
-4.840325e-09 1.426978e-08 -3.128109e-09 -1.153448e-08 9.294640e-10 -2.214096e-09
1.477483e-08 9.237145e-09 -3.153757e-09 -1.214352e-08 2.112981e-09 9.001832e-10
9.502592e-09 -2.621132e-08 -5.332412e-09 -1.444788e-08 1.740154e-09 2.886698e-10
3.344804e-09 -2.080056e-08 3.262066e-10 -1.415244e-08 -4.504892e-10 -9.689419e-10
9.926276e-09 -2.860046e-08 -3.170636e-09 -1.341758e-08 5.756803e-10 -7.483303e-10
4.397786e-09 -2.074609e-08 -9.361756e-10 -1.443731e-08 3.122545e-09 1.560542e-09
1.163570e-08 -5.810668e-09 -1.108276e-09 2.517672e-09 5.465604e-11 6.979584e-11
9.179717e-09 -4.512970e-09 -9.920904e-10 3.386976e-09 -1.733155e-10 -4.674999e-10
1.952915e-08 -1.399547e-08 4.185554e-08 -8.562859e-09 8.389612e-09 -1.433850e-08
9.442880e-09 -4.777630e-09 -1.141271e-09 2.717668e-09 2.440413e-10 2.560550e-10
1.111401e-08 -5.776078e-09 -1.177130e-09 2.239216e-09 5.961451e-11 4.683127e-10
8.843267e-09 -4.455134e-09 -9.614252e-10 3.338152e-09 3.019461e-10 4.676642e-10
7.815670e-09 -2.611297e-08 -6.005874e-09 -1.154311e-08 -1.104161e-08 -2.207548e-09
-8.082532e-09 4.023878e-09 9.673879e-10 -2.486236e-09 -1.047469e-10 -4.392021e-10
1.431921e-08 -4.510802e-08 -3.318838e-09 -1.860283e-08 -1.886203e-08 -5.512813e-09
1.930054e-08 -4.153183e-08 -3.167994e-09 -4.560634e-09 -8.507219e-09 -5.367126e-10
1.405160e-08 -3.781910e-08 2.937349e-09 -9.816999e-09 -6.341254e-09 -1.770932e-09
1.954514e-08 -4.533110e-08 -3.256926e-09 -1.807137e-08 -1.846960e-08 -4.237833e-09
2.322466e-09 1.515652e-09 5.904921e-10 8.065671e-09 -8.735769e-11 -9.290135e-10
2.658375e-09 1.515245e-09 2.371832e-10 8.341612e-09 -3.009803e-10 -8.304077e-10
-5.822232e-10 1.773009e-09 3.010050e-10 6.561453e-09 2.646192e-10 -2.993761e-10
-2.545759e-09 2.724284e-09 6.288050e-10 6.151900e-09 8.754219e-11 -3.293289e-10
-4.289844e-09 3.645139e-09 8.690808e-10 4.199565e-09 3.498131e-10 -8.579715e-11
-1.857367e-09 3.981985e-09 4.594458e-10 6.442406e-09 7.505747e-10 2.586558e-10
5.259498e-09 -2.220065e-09 -7.058558e-10 3.013317e-09 6.403526e-11 3.016876e-11
5.262358e-09 -2.232345e-09 -8.738636e-10 2.992783e-09 -2.926393e-11 -2.676397e-10
4.854241e-09 -1.379588e-09 -4.838232e-10 5.346724e-09 -2.085257e-11 -4.148801e-10
9.498491e-09 -3.558244e-08 7.042151e-09 1.721860e-09 6.034584e-10 -2.205314e-10
6.609319e-09 -2.959104e-09 -7.556102e-10 3.652784e-09 -3.131073e-11 -3.819560e-10
6.266310e-09 -2.998304e-09 -7.539653e-10 3.749216e-09 8.929369e-11 2.148222e-10
1.228206e-08 -6.467955e-09 -3.268478e-08 -2.238657e-08 3.846362e-09 1.020041e-09
1.213181e-08 -3.805511e-08 6.942025e-09 1.122134e-09 4.300126e-10 -1.671054e-10
-4.059386e-09 2.271084e-09 4.169518e-10 1.245176e-09 -3.362590e-11 -1.884626e-11
1.523272e-08 -1.400686e-08 -5.007398e-08 -2.940052e-08 2.397379e-08 1.324425e-08
1.523272e-08 -9.743141e-09 -5.445982e-08 -2.892580e-08 2.351792e-08 1.367763e-08
3.069204e-08 -1.100640e-08 -6.841901e-08 -1.351876e-08 1.292742e-08 2.941451e-09
3.062373e-08 -1.674300e-08 -5.540424e-08 -1.252357e-08 7.129493e-09 2.543963e-09
2.128832e-08 -2.508912e-08 -3.595250e-08 -1.724480e-08 8.617364e-09 1.401442e-09
2.985925e-10 -1.098306e-08 -8.351112e-09 -1.153888e-08 -3.384863e-09 -1.364076e-09
-8.037709e-11 -9.303581e-09 -1.563351e-08 -1.541378e-08 -1.071119e-08 -3.660789e-09
2.793352e-10 -1.671699e-08 -6.881227e-09 -1.035926e-08 -1.987198e-09 -2.198699e-10
2.401392e-09 -5.750795e-10 -5.640788e-10 -2.771115e-09 -5.120298e-10 1.785162e-10
-5.274748e-09 3.231591e-09 1.137357e-10 -3.966087e-09 -3.945075e-10 8.898471e-11
1.094370e-08 -2.760431e-08 -1.056743e-08 -9.861534e-09 -6.376317e-09 -5.299078e-10
1.899820e-08 -3.728784e-08 -1.208978e-08 -5.766431e-09 -6.459020e-09 -4.302509e-10
8.630360e-09 -2.079021e-08 -6.298761e-09 -9.562779e-09 -5.478079e-09 -6.946411e-10
-1.165613e-08 1.173950e-08 -1.334370e-10 2.326572e-09 6.672029e-10 -6.397395e-11
-1.014993e-08 7.819497e-09 2.065947e-11 9.895157e-11 3.009317e-10 2.903084e-10
-1.152785e-08 6.321336e-09 7.080061e-10 -1.551992e-09 4.084600e-10 -1.783487e-10
-2.222203e-09 2.566638e-09 1.394111e-10 -4.589739e-09 -3.934782e-10 6.052427e-10
-7.874413e-09 7.748397e-09 1.175814e-09 5.167650e-09 8.209132e-11 -3.261730e-10
-7.958734e-09 4.493061e-09 1.209608e-09 -1.021704e-09 -4.978973e-11 5.157818e-11
-9.154739e-09 4.338275e-09 1.466181e-09 -5.304548e-10 2.106360e-11 -1.746061e-10
-7.695912e-09 4.684287e-09 9.469030e-10 -1.147935e-09 -6.148859e-11 -2.258978e-10
3.442133e-09 -2.884650e-08 5.327429e-09 1.006839e-08 8.062631e-10 -2.106302e-10
-7.607356e-09 4.920800e-09 1.045291e-09 -3.060059e-10 -3.699263e-13 1.941913e-11
-7.838821e-09 4.901205e-09 1.017912e-09 -3.823080e-10 -2.878608e-11 -1.038056e-10
-8.681958e-09 4.465607e-09 1.371482e-09 -2.847793e-10 -1.019695e-11 -2.461631e-10
-8.610407e-09 4.365678e-09 1.317583e-09 -4.814442e-10 -1.455008e-10 -3.545919e-10
-8.111355e-09 4.584809e-09 1.086715e-09 -5.056543e-10 -4.917000e-11 -5.766630e-10
-8.497768e-09 4.876105e-09 1.204330e-09 -3.104508e-10 -6.833348e-11 -2.690221e-10
-8.190268e-09 4.864482e-09 1.134435e-09 -4.960832e-10 -2.581535e-11 -1.057159e-10
-6.041916e-09 6.828891e-09 -2.601780e-09 -8.696271e-09 -1.221880e-10 -1.028149e-09
-6.013724e-09 9.279098e-09 -4.336145e-09 -1.221189e-08 -1.040984e-09 1.585198e-09
-6.031077e-09 9.466897e-09 -3.652545e-09 -1.084649e-08 -8.513878e-10 6.913131e-12
-3.741591e-09 6.075227e-09 -2.306613e-09 -1.034124e-08 -5.991832e-10 1.770753e-09
4.077343e-10 6.302781e-10 -6.350049e-10 -4.817801e-09 -1.193843e-10 -4.725227e-10
3.649303e-12 3.769715e-09 -1.601416e-09 -1.122445e-08 -6.188858e-10 1.117732e-09
-7.265014e-09 4.194779e-09 1.332179e-09 1.806436e-09 6.845990e-11 -2.230668e-10
-5.911904e-09 2.998804e-09 1.130672e-09 2.501403e-09 -1.277963e-10 -6.275540e-10
-6.230066e-09 3.038673e-09 1.184999e-09 2.295867e-09 -4.882566e-10 -7.532105e-10
-6.259994e-09 3.437082e-09 1.152723e-09 2.127655e-09 8.091416e-10 2.512737e-10
-6.001507e-09 4.142566e-09 6.376029e-10 -1.505894e-09 -1.212259e-10 -3.589264e-10
-6.678102e-09 4.486187e-09 6.325598e-10 -1.244647e-09 -9.030465e-11 -2.526597e-10
-8.014517e-09 4.597470e-09 1.004665e-09 -1.312982e-09 -1.006351e-10 -2.964997e-10
-7.618110e-09 4.973787e-09 9.360788e-10 -3.308743e-10 -3.254153e-11 -1.039407e-10
-6.228786e-09 4.067851e-09 9.276264e-10 -2.053665e-09 -1.552719e-10 -2.719009e-10
-7.466205e-09 4.281109e-09 9.369048e-10 -1.665581e-09 -1.093270e-10 -2.230210e-10
-6.807493e-09 4.637966e-09 8.543903e-10 -8.553576e-10 -7.677348e-11 7.398504e-11
-7.206699e-09 4.765480e-09 8.370313e-10 -1.520605e-09 -1.950248e-10 -3.333953e-10
-6.895122e-09 4.508495e-09 7.911491e-10 -1.364096e-09 -8.865714e-11 -2.309200e-10
1.488871e-09 -2.710154e-08 6.311967e-09 7.919419e-09 1.796216e-09 -8.911784e-10
3.035101e-10 -2.326677e-08 6.949434e-09 4.059324e-09 6.467777e-10 -1.358541e-10
4.913055e-09 -3.166286e-08 7.352140e-09 3.265239e-09 1.233840e-10 1.131437e-10
3.483285e-09 -2.569684e-08 6.401917e-09 7.831901e-09 4.506848e-10 2.550478e-10
3.742172e-09 -2.806903e-08 6.824894e-09 5.371446e-09 8.373894e-11 -5.335590e-10
3.486830e-09 -2.771331e-08 6.946481e-09 6.676282e-09 6.015059e-10 3.452459e-10
-7.716713e-09 -1.074657e-08 5.304566e-10 -6.650823e-09 -4.076343e-09 -1.192942e-09
-1.089835e-09 -1.069943e-08 -1.771452e-09 -5.707934e-09 -2.939200e-09 -7.451399e-10
-1.131529e-08 -4.266155e-09 3.614675e-09 -5.121137e-09 -1.765396e-09 8.407651e-11
1.059361e-09 -2.609612e-08 3.485124e-09 -8.936313e-09 -6.187328e-09 -1.883101e-09
-6.667068e-09 -1.558967e-08 5.033766e-09 -5.487193e-09 -2.661267e-09 3.927091e-10
-3.703899e-09 -1.764332e-08 1.109271e-09 -2.627925e-09 -7.229590e-10 -3.399833e-10
-3.901944e-09 -1.407292e-08 1.412634e-09 -7.750062e-10 -2.647255e-09 -4.161869e-10
-4.456884e-09 -1.645718e-08 3.227871e-10 -4.064110e-09 -5.203999e-09 -9.400122e-10
-9.332536e-09 -1.091919e-08 1.476456e-09 -2.870061e-09 -7.976609e-10 -2.642964e-10
-8.865788e-10 -1.755008e-08 -7.209191e-10 -6.656222e-09 -3.355587e-09 -1.402689e-09
-7.489229e-09 -1.171646e-08 -1.586742e-09 -9.540964e-09 -3.554257e-09 -9.467422e-10
-7.974708e-09 -1.081614e-08 3.124846e-09 -6.854822e-09 -3.612154e-09 -1.223259e-09
-8.486575e-09 -3.412010e-09 2.126291e-09 -1.069000e-08 -4.997796e-09 -1.939674e-09
-7.419368e-09 -8.317710e-09 5.176650e-10 -7.117890e-09 -4.105830e-09 -7.482372e-10
2.056387e-08 1.118769e-07 -1.452594e-07 6.394236e-09 3.048764e-08 9.976170e-09
4.128154e-09 1.145500e-07 -1.650349e-07 9.946123e-09 4.643163e-08 -1.467602e-08
3.201986e-08 6.738105e-08 -1.259491e-07 6.752858e-09 2.004001e-08 -2.807264e-10
2.052151e-08 9.465267e-08 -1.710313e-07 5.076146e-09 6.175820e-08 -2.103222e-08
4.128355e-08 6.453500e-08 -1.494010e-07 -4.624277e-09 6.289164e-08 -2.811728e-09
2.738876e-08 6.613183e-08 -1.320318e-07 -1.191084e-09 2.666416e-08 5.337748e-09
2.865938e-08 -1.574162e-10 -6.882781e-08 -2.582793e-09 -1.147250e-08 1.739837e-09
2.568255e-08 4.872026e-09 -6.746650e-08 3.242515e-10 -3.092335e-08 6.466797e-09
2.647167e-08 7.561074e-11 -6.214335e-08 5.727399e-09 -2.818496e-08 1.026317e-08
2.859101e-08 -8.262318e-09 -5.810300e-08 -1.806805e-09 -6.524954e-09 1.551605e-09
2.682521e-08 -2.012798e-08 -3.854652e-08 2.021811e-09 -1.887882e-08 3.017940e-09
-5.246713e-09 3.640492e-09 3.172831e-10 -3.857245e-09 -9.708678e-11 1.716125e-10
-4.976344e-09 3.516342e-09 1.250289e-11 -4.452676e-09 -2.027348e-10 -5.891703e-10
-6.679310e-09 3.979664e-09 4.009122e-10 -3.735126e-09 -3.134957e-10 1.773373e-10
-6.195219e-09 3.992570e-09 4.748593e-10 -4.001288e-09 -3.483343e-10 4.223162e-10
8.848932e-09 -4.950962e-09 -1.320504e-09 -5.326848e-10 -5.225265e-12 2.121872e-10
9.102294e-09 -5.468128e-09 -1.281745e-09 -1.183000e-09 -4.584133e-11 8.014367e-11
8.164497e-09 -4.372985e-09 -1.173775e-09 -6.655331e-10 -4.590428e-11 -2.706213e-10
9.601546e-09 -5.367728e-09 -1.297850e-09 -9.481967e-10 1.526645e-11 2.746149e-10
-5.106204e-09 -4.803812e-09 1.759016e-09 -7.509166e-09 1.322885e-10 -7.631864e-10
-7.846613e-09 -1.270195e-09 2.115236e-09 -4.223078e-09 8.281152e-12 -4.868135e-10
-8.034374e-09 -1.078504e-09 1.584996e-09 -7.000362e-09 9.839090e-10 -7.999291e-11
-9.252362e-09 -1.548166e-09 1.778058e-09 -6.234915e-09 6.878268e-10 2.966700e-10
1.198661e-08 -5.957365e-09 -1.132659e-09 -4.036939e-09 -9.416335e-11 7.087073e-10
8.462107e-09 -4.084078e-09 -1.140493e-09 -5.567506e-09 -3.084479e-11 -1.766223e-10
9.102482e-09 -4.119441e-09 -1.091411e-09 -5.864657e-09 -3.220706e-10 7.008663e-10
9.903816e-09 -4.910876e-09 -1.207056e-09 -3.693246e-09 2.648215e-11 -4.073273e-10
9.041290e-09 -4.670507e-09 -1.163236e-09 -4.462262e-09 -1.083393e-10 3.490768e-10
4.175222e-09 -1.367796e-09 -3.619669e-10 5.402028e-09 2.867633e-10 3.244820e-10
4.743506e-09 -1.374563e-09 -4.516014e-10 5.342065e-09 2.212810e-10 5.176801e-10
4.054826e-09 -1.370151e-09 -2.534803e-10 5.354393e-09 3.217950e-10 3.044929e-10
5.900049e-09 -3.004843e-09 -6.705090e-10 3.646750e-09 1.707714e-10 3.246582e-10
1.329769e-09 3.842907e-09 -1.105040e-09 -1.470002e-08 1.840768e-10 -1.138035e-09
2.397742e-09 1.733832e-09 -9.607954e-10 -1.148437e-08 -8.051768e-10 3.168852e-10
5.145567e-09 3.889261e-10 -1.181058e-09 -1.306038e-08 9.801653e-11 9.686646e-11
2.201533e-09 3.551525e-09 -1.130368e-09 -1.152900e-08 -4.101817e-10 8.270307e-11
-3.772000e-09 5.950494e-09 -1.653406e-09 -1.089956e-08 -2.100716e-10 -7.727656e-10
5.273209e-09 -3.098288e-08 6.786988e-09 5.286792e-09 4.518246e-11 1.010278e-10
1.232170e-11 4.897506e-09 -1.480816e-09 -1.112538e-08 -1.198616e-09 1.069118e-09
-5.723833e-10 3.847387e-09 -1.645629e-09 -1.149785e-08 -3.265850e-10 -5.108029e-10
2.083089e-09 4.647882e-09 -2.136061e-09 -1.402124e-08 -7.355535e-10 1.915261e-09
7.691231e-09 -2.491406e-09 -8.358061e-10 -8.373538e-09 -3.386560e-10 5.487735e-10
5.064777e-09 3.187250e-11 -9.508425e-10 -1.057484e-08 3.112533e-11 -3.941315e-10
1.753268e-09 4.838202e-10 -7.970440e-10 -7.902135e-09 -1.426799e-10 1.363117e-10
2.644946e-09 5.700219e-10 -8.983072e-10 -8.582985e-09 -1.594958e-10 -7.166081e-10
-7.898047e-09 -4.073382e-10 2.181752e-09 -2.317423e-09 -2.852962e-10 -4.399630e-10
-7.093949e-09 -2.493208e-09 2.519701e-09 -2.481533e-09 2.418534e-10 -3.330631e-10
-7.541740e-09 -7.590426e-10 2.699436e-09 -2.001186e-09 1.685102e-10 -2.149290e-10
-7.128824e-09 -1.784054e-09 2.638170e-09 -2.578656e-09 -1.438405e-12 -1.454179e-10
-4.637263e-09 2.415884e-09 8.940324e-10 3.282426e-09 2.959810e-11 -3.332749e-10
-3.118553e-09 2.153267e-09 4.202927e-10 4.504079e-09 4.874230e-10 1.093534e-10
-3.980627e-09 2.431393e-09 7.641479e-10 3.331173e-09 1.944742e-10 -2.200364e-11
-3.074657e-09 2.501593e-09 9.833734e-10 4.360583e-09 1.279632e-10 -1.159128e-10
-2.247481e-09 2.180574e-09 3.929435e-10 4.853531e-09 2.573637e-10 -1.743213e-10
1.477768e-08 -3.859315e-08 5.004718e-09 -1.042796e-09 5.423178e-10 -4.977016e-11
1.494966e-08 -4.117821e-08 5.113274e-09 -1.904184e-12 2.972436e-09 -6.038052e-10
1.661695e-08 -4.013874e-08 4.104286e-09 -4.168691e-10 1.680341e-09 -2.223024e-10
1.544217e-08 -4.025922e-08 3.644576e-09 -6.792818e-10 2.666481e-09 -4.815315e-10
1.298501e-08 -3.557124e-08 6.074024e-09 -1.633787e-09 4.786437e-10 -4.786930e-10
1.327175e-08 -3.620941e-08 5.111082e-09 -2.061151e-09 1.945836e-09 -6.712737e-10
1.446582e-08 -3.957087e-08 2.455454e-09 -2.749414e-09 1.100951e-09 -2.672566e-10
-5.526487e-09 4.618857e-08 -6.296951e-08 -1.354831e-08 -2.377685e-08 -2.021949e-08
-3.961109e-09 4.637721e-08 -5.458074e-08 -4.558009e-09 -6.313909e-09 -1.803358e-09
-2.518105e-09 1.770686e-08 -3.897602e-08 -1.238562e-08 -1.513440e-08 -8.435126e-09
8.776684e-09 2.469258e-08 -6.945557e-08 -1.431174e-08 -2.313722e-08 -8.848472e-09
1.520253e-09 1.739678e-08 -4.382462e-08 -1.344688e-08 -1.013505e-08 -1.926095e-09
3.831534e-09 2.190060e-08 -4.246133e-08 -1.784659e-08 -1.463180e-08 -1.073272e-08
-6.320819e-10 1.371221e-09 -3.604960e-10 -3.154635e-09 -2.198819e-10 2.166902e-10
-2.669923e-09 2.680369e-09 2.351686e-10 -1.994242e-09 -1.908820e-10 1.791237e-10
8.564816e-09 3.106949e-08 -5.190612e-08 -1.360845e-08 -1.550284e-08 -6.815163e-09
1.365506e-09 1.822072e-09 -9.606445e-10 -8.991282e-09 1.878717e-10 -2.950231e-10
-1.290991e-09 2.511103e-09 -7.735368e-10 -7.287649e-09 -2.589373e-10 4.098113e-10
1.055631e-09 1.648895e-09 -9.437868e-10 -9.284007e-09 -7.267954e-10 4.904379e-10
2.779073e-09 -2.406874e-10 -7.161569e-10 -5.501328e-09 6.850964e-11 -7.926970e-11
9.669687e-11 1.296107e-09 -7.671982e-10 -7.235997e-09 -3.061878e-10 -7.998248e-11
2.665705e-08 6.923142e-09 -7.865387e-08 -4.694830e-10 -3.668298e-08 7.275167e-09
2.510277e-08 2.565029e-09 -6.409092e-08 2.771936e-09 -1.231810e-08 7.651674e-10
2.510277e-08 1.609706e-08 -7.414125e-08 5.889248e-10 -1.159733e-08 2.533810e-09
2.679246e-08 7.926092e-09 -7.017302e-08 -9.144818e-09 -1.067655e-08 -1.571295e-10
2.813410e-08 4.517924e-09 -7.146474e-08 -6.444612e-09 -1.388127e-08 -6.619498e-11
1.364675e-08 4.390741e-08 -9.049071e-08 -1.466926e-08 -4.005366e-08 -7.961858e-09
2.863520e-08 3.859341e-10 -6.718966e-08 -2.548859e-09 -3.142844e-08 4.878642e-09
-1.556758e-09 2.238028e-09 -3.385159e-11 -4.079694e-09 -1.375522e-11 -1.991487e-10
-3.057711e-09 2.197476e-09 2.336713e-10 -1.643727e-09 -6.632400e-11 8.996648e-11
-2.475745e-09 2.614208e-09 7.833467e-11 -3.011793e-09 -2.960223e-10 2.371837e-10
-3.795249e-10 1.367741e-09 -5.440497e-10 -3.134673e-09 -1.469993e-10 -9.037688e-10
3.583445e-10 1.304315e-09 -3.168183e-10 -3.080821e-09 -5.312636e-12 -3.713199e-10
-1.289271e-09 1.315949e-09 -1.969966e-10 -2.944811e-09 -1.841793e-10 9.890000e-11
2.094756e-08 -4.811883e-08 -1.988296e-10 2.101162e-09 -3.080540e-09 1.629809e-09
1.722915e-08 -4.650840e-08 -1.686244e-09 -4.865361e-09 -7.175151e-09 -8.696428e-10
-6.133307e-09 4.199449e-09 3.967049e-11 -4.827071e-09 -8.206188e-10 4.655321e-11
2.058090e-08 -4.815945e-08 -1.106747e-10 -5.964649e-09 -1.117072e-08 -1.917667e-09
2.000523e-08 -6.280830e-08 8.538088e-09 -1.142152e-08 -1.381181e-08 -1.954281e-11
2.410884e-08 -5.019383e-08 -2.790243e-09 -5.555888e-09 -1.295804e-08 -4.861102e-11
2.138292e-08 -4.764955e-08 -2.746123e-09 -5.097311e-09 -7.025122e-09 1.874079e-10
1.229174e-08 -3.175110e-08 -1.003721e-08 -8.101866e-09 -1.430469e-09 -1.384181e-09
1.094370e-08 -2.438258e-08 -9.643524e-09 -9.951390e-09 -3.291807e-09 -5.446238e-10
-2.282494e-10 -9.630745e-09 -7.011868e-09 -5.361624e-09 -5.329782e-10 -5.096057e-10
1.039906e-08 -3.170876e-08 -4.321538e-09 -6.808116e-09 -4.267389e-09 -1.537045e-09
3.828244e-09 -2.104458e-08 -9.831126e-09 -1.012190e-08 -1.540693e-09 -4.798695e-10
-4.926081e-09 2.797403e-08 -8.600563e-09 1.927392e-08 -4.178732e-09 -3.585157e-09
6.910880e-09 2.779625e-08 -1.742718e-08 2.089917e-08 -4.243334e-10 -4.189278e-09
-4.758462e-09 4.472338e-08 -3.213720e-08 1.411533e-08 -1.771075e-09 -6.122410e-09
2.078070e-09 2.809001e-08 -1.391675e-08 1.791224e-08 -3.299602e-09 -3.532859e-09
-7.166264e-09 3.712467e-09 1.060178e-09 2.317444e-10 -9.726220e-12 -4.029255e-11
-6.990590e-09 3.539700e-09 1.096274e-09 2.556835e-10 7.687162e-11 -1.274497e-10
-6.578408e-09 3.744640e-09 8.885161e-10 2.086493e-10 2.249045e-11 -2.640832e-11
-7.051357e-09 3.210142e-09 1.158891e-09 7.332561e-10 1.274274e-10 -1.792826e-10
-6.989346e-09 3.689108e-09 9.979166e-10 3.926583e-10 6.393285e-11 -9.415865e-11
-6.783595e-09 3.488418e-09 1.082976e-09 6.556449e-10 1.139606e-10 -4.745027e-11
2.310308e-08 -4.909809e-08 -1.966929e-10 -1.119602e-09 -2.548225e-09 5.904635e-10
1.915345e-08 -4.761360e-08 3.679706e-09 -8.412562e-10 -1.658511e-09 7.017793e-10
1.722924e-08 -4.698430e-08 5.291142e-09 -4.789789e-09 -6.876888e-09 -6.226499e-10
2.195972e-08 -5.045279e-08 5.567457e-09 -1.763751e-09 -7.086639e-09 3.602529e-10
2.196225e-08 -5.059842e-08 1.110941e-09 -6.753824e-10 -2.263852e-09 3.123331e-10
2.075204e-08 -4.871003e-08 5.303489e-09 -5.916561e-09 -7.483919e-09 -3.824382e-11
1.897485e-08 -4.541019e-08 9.805667e-11 -2.622171e-09 -3.668814e-09 -1.780274e-10
1.698769e-08 6.628788e-08 -1.095654e-07 -1.221448e-08 -3.669033e-08 5.927878e-09
1.663352e-08 3.802772e-08 -9.087781e-08 -8.144846e-09 -1.130027e-08 3.276010e-09
-3.218659e-09 9.258715e-08 -9.472356e-08 -2.524192e-08 -2.412141e-08 -1.143585e-08
2.638755e-09 8.183934e-08 -9.294167e-08 -1.657589e-08 -3.309444e-08 -1.511475e-08
1.338021e-08 6.807302e-08 -9.056798e-08 -1.541500e-08 -1.806938e-08 -2.820833e-09
1.816065e-08 3.954822e-08 -8.974632e-08 -1.288396e-08 -1.666097e-08 -1.568365e-09
6.947835e-09 4.486213e-08 -7.661308e-08 -1.346878e-08 -1.462408e-08 -4.541228e-09
-1.049808e-08 -6.675302e-09 4.618483e-11 -2.744290e-09 -9.672900e-10 -2.230465e-10
-4.652579e-09 -1.320241e-08 -1.913012e-09 -5.821021e-09 -9.965040e-10 -7.545764e-11
-4.565942e-09 -1.013282e-08 -5.734468e-09 -7.039664e-09 -8.804303e-10 -2.821161e-10
-5.523293e-09 -7.046820e-09 -5.658567e-09 -9.040089e-09 -2.819783e-09 -6.299977e-10
-8.032822e-09 -5.848289e-09 -2.240505e-09 -9.284415e-09 -3.053761e-09 -1.278944e-09
-1.048878e-08 -3.351996e-09 -3.673921e-09 -4.744413e-09 -3.290597e-10 -6.965942e-10
8.333936e-09 9.281394e-09 -5.303979e-08 2.955223e-08 7.881989e-09 -1.019361e-08
1.281551e-08 -2.230218e-08 -3.175753e-08 2.680902e-08 1.536520e-08 -2.116060e-09
1.980921e-08 2.847439e-08 -9.428704e-08 2.628586e-08 1.340813e-08 -5.807315e-09
1.007739e-08 3.064443e-08 -8.385937e-08 3.448924e-08 3.829800e-08 -2.632676e-08
4.993603e-09 1.760223e-08 -6.733687e-08 2.855978e-08 2.923291e-08 -1.621093e-08
1.807205e-08 -3.567213e-09 -5.443159e-08 2.475934e-08 1.309454e-08 1.531160e-09
5.292766e-09 2.950476e-08 -6.672575e-08 2.510914e-08 3.194943e-08 -1.691958e-08
-7.121850e-09 2.078050e-09 1.898929e-09 7.829888e-10 4.045944e-10 -6.090562e-11
-7.310649e-09 2.050577e-09 1.838211e-09 4.165588e-10 2.611237e-10 -3.312584e-11
-7.099895e-09 7.748113e-10 1.911159e-09 -2.946759e-10 -1.318146e-10 -2.407725e-10
-7.117502e-09 1.072547e-09 1.889348e-09 4.042701e-10 -8.241696e-11 -4.267215e-10
9.317828e-09 -4.635075e-09 -9.992469e-10 2.877370e-09 9.497449e-11 2.417100e-11
7.625409e-09 -4.311529e-09 -9.826987e-10 2.381346e-09 1.687726e-10 -6.257478e-11
7.333117e-09 -4.173251e-09 -1.192221e-09 1.382283e-09 -7.997841e-11 -1.680258e-10
8.653704e-09 -4.323949e-09 -1.227607e-09 2.146770e-09 -4.864943e-12 -4.457497e-10
6.639013e-09 -3.126748e-09 -1.020290e-09 2.614098e-09 1.082254e-10 6.288019e-10
6.514567e-09 -3.146770e-09 -1.075563e-09 2.314609e-09 4.100857e-10 7.190794e-10
5.964000e-09 -3.102964e-09 -7.793597e-10 2.653988e-09 1.826024e-10 -2.936718e-10
8.707668e-09 -4.011793e-09 -7.737064e-10 4.427151e-09 -1.064772e-11 -6.523129e-10
7.168229e-09 -3.359355e-09 -7.339569e-10 4.962185e-09 -4.828951e-11 -1.914735e-10
8.668288e-09 -3.994513e-09 -8.780758e-10 4.295846e-09 3.209590e-10 5.897698e-10
7.022868e-09 -3.238996e-09 -8.824150e-10 3.225951e-09 -8.590495e-11 -1.282037e-10
9.601083e-09 -4.794958e-09 -1.082689e-09 2.728245e-09 6.024556e-11 -2.724327e-10
3.140795e-09 -1.196706e-09 -4.686909e-10 3.986456e-09 3.377986e-11 -7.026333e-10
5.227713e-09 -2.252958e-09 -6.038960e-10 4.693105e-09 4.178641e-10 2.076033e-10
6.868701e-09 -3.238996e-09 -8.462484e-10 3.256450e-09 -6.216063e-11 -1.649854e-10
7.057587e-09 -3.638008e-09 -9.479924e-10 3.240075e-09 2.449678e-10 8.875967e-11
-2.017656e-10 -2.090647e-08 4.897186e-09 1.042864e-08 8.111902e-10 -1.471833e-10
2.495455e-09 -7.959768e-10 -6.008354e-10 2.554224e-09 1.230245e-10 -4.604990e-10
1.899991e-09 4.055259e-10 -1.314389e-10 5.035208e-09 -1.254587e-10 -3.713652e-10
2.875162e-10 2.707905e-10 -6.620926e-11 3.614807e-09 2.439489e-10 -3.625855e-11
-7.967316e-11 2.743348e-10 -1.242859e-10 3.491978e-09 -1.020521e-10 -5.240806e-10
1.858560e-08 -4.842071e-08 -4.396937e-09 -1.605729e-08 -2.042166e-08 -2.783685e-09
1.050744e-08 -2.778470e-08 -5.702479e-09 -1.206663e-08 -1.003689e-08 -2.833135e-10
9.644619e-09 -3.238999e-08 1.028915e-09 -1.406231e-09 -6.481953e-10 -3.220464e-10
1.550886e-08 -3.938579e-08 6.315592e-10 -9.781855e-10 -1.413804e-09 -4.458456e-10
1.606660e-08 -2.841318e-08 -6.369681e-09 -1.067699e-08 -9.389330e-09 -1.729911e-09
1.553042e-08 -3.642338e-08 -9.417238e-09 -8.985578e-09 -4.939360e-09 -2.091960e-09
1.554421e-08 -3.703199e-08 -5.615873e-09 -1.034993e-09 -2.571153e-09 -2.465025e-10
1.227976e-08 -3.317778e-08 -6.674145e-09 -6.737238e-09 -5.780466e-09 -9.933576e-10
2.218733e-08 -4.565719e-08 -1.159636e-08 -5.544303e-09 -1.193874e-08 -1.469023e-09
-8.637819e-10 1.331808e-09 -1.612595e-10 -1.606404e-10 -1.840541e-10 -2.134293e-12
-1.294824e-09 1.298749e-09 -2.649776e-10 -2.934982e-09 -6.159073e-12 -1.344080e-11
7.138912e-10 5.734582e-10 -2.643601e-10 -1.871027e-09 -9.314650e-11 3.127678e-10
-3.073355e-10 1.543736e-09 -1.664957e-10 -2.727293e-09 -2.768904e-10 3.634475e-10
-2.199501e-09 2.303983e-09 4.522516e-11 -2.265199e-09 1.867393e-12 4.936225e-10
-7.854180e-10 1.345037e-09 -1.331877e-10 -1.072556e-09 2.289324e-10 -5.562217e-13
5.153855e-10 5.755920e-10 -2.196814e-10 -1.537601e-09 -7.070300e-11 -5.738920e-11
2.246197e-08 -4.081185e-08 -1.119699e-08 -3.113509e-10 4.437871e-09 3.412834e-10
2.493511e-08 -3.961386e-08 -9.271074e-09 1.395316e-09 6.369602e-09 8.640393e-11
2.130146e-08 -3.672374e-08 -2.350139e-08 1.401656e-08 1.234746e-08 -7.177385e-10
1.294857e-08 -3.814951e-08 6.570616e-09 -2.821653e-09 1.579486e-09 -2.360873e-10
2.082222e-08 -3.956393e-08 -1.165647e-08 9.214886e-09 5.983252e-09 -4.672743e-10
2.024484e-08 -4.288530e-08 -9.145555e-09 5.811619e-09 5.570456e-09 5.266030e-10
9.706580e-09 -4.484275e-09 -1.155184e-09 -4.655190e-09 1.616203e-10 -5.633982e-10
1.102817e-08 -5.486654e-09 -1.052194e-09 -6.594884e-09 -8.678419e-11 -3.075785e-10
8.739990e-09 -3.308139e-09 -9.640497e-10 -7.059958e-09 1.635874e-10 -6.868204e-10
6.489527e-09 -2.660536e-09 -1.013213e-09 -5.648935e-09 -4.596754e-10 4.346372e-10
5.718189e-09 -1.662201e-09 -1.003023e-09 -6.809396e-09 -3.399957e-10 3.881913e-10
2.629877e-08 -2.835055e-09 -5.872351e-08 -1.144243e-08 -6.321743e-09 1.287268e-10
2.671783e-08 2.289337e-08 -8.414879e-08 -9.606635e-09 -1.073834e-08 9.592933e-10
2.813410e-08 1.998829e-08 -8.484593e-08 -7.257378e-09 -1.348777e-08 6.693118e-10
3.093735e-08 1.447629e-09 -6.872975e-08 -4.144529e-09 -3.099393e-08 4.631817e-09
2.836953e-08 -1.546551e-08 -5.642617e-08 1.026064e-10 -3.089148e-08 3.404142e-09
2.628087e-08 6.073031e-09 -7.010077e-08 -1.156344e-08 -1.036476e-08 -3.245589e-10
-5.621064e-09 2.623074e-09 9.199488e-10 1.594761e-09 -3.034639e-11 -7.427175e-11
-4.048014e-09 2.000538e-09 7.316645e-10 1.876594e-09 -1.811262e-11 1.276257e-10
-3.643327e-09 1.987279e-09 5.501761e-10 2.217503e-09 6.276424e-11 -2.608134e-10
-3.236790e-09 2.004732e-09 4.141327e-10 2.128239e-09 1.785549e-11 -1.432956e-10
-5.232913e-09 2.591547e-09 9.124492e-10 1.479675e-09 8.702017e-11 -2.349749e-10
-3.539397e-09 2.244557e-09 4.392531e-10 2.254341e-09 -6.310508e-11 -1.573088e-10
-4.032256e-09 2.316806e-09 6.340914e-10 1.168548e-09 1.864356e-10 4.106071e-11
-7.378867e-09 2.779943e-09 1.405955e-09 3.015574e-10 1.194764e-10 -2.784180e-10
-7.175691e-09 2.319152e-09 1.502960e-09 3.226199e-10 -1.029930e-10 -2.855960e-10
-7.163411e-09 3.617722e-09 9.019052e-10 4.289284e-10 1.455718e-10 -3.249728e-10
-7.133609e-09 3.374410e-09 1.241780e-09 4.064964e-10 5.319054e-11 -2.423911e-10
-6.595738e-09 3.700409e-09 9.985983e-10 1.087601e-10 3.947365e-11 -7.310508e-11
-7.057349e-09 3.605933e-09 1.148567e-09 2.839615e-10 6.996531e-11 -9.116519e-11
-7.377867e-09 3.466161e-09 1.151545e-09 4.636775e-10 2.015454e-11 -2.686285e-11
-6.224376e-09 3.211463e-09 1.009295e-09 7.944896e-10 3.603444e-11 -7.138291e-12
-7.839815e-09 -9.521073e-09 2.549336e-09 1.072696e-08 1.688018e-09 6.948080e-10
-7.640801e-09 -1.318598e-08 1.276141e-09 1.398552e-08 1.711796e-09 8.304823e-11
-1.150151e-08 -3.627096e-09 -3.292843e-09 1.589200e-08 9.250693e-10 -2.036665e-09
-1.262545e-08 -1.923446e-09 3.025201e-09 9.064733e-09 -1.035954e-10 -4.379113e-10
-1.263135e-08 -3.454386e-09 -3.727276e-10 1.481289e-08 2.536402e-09 -2.339330e-09
-1.322878e-08 -2.574414e-09 -4.652811e-11 1.035751e-08 1.930534e-09 -7.229248e-10
-1.442525e-08 3.008259e-08 -4.477710e-08 2.031978e-08 1.754441e-08 -1.474284e-08
-6.278695e-09 1.809165e-08 -3.293243e-08 2.550317e-08 7.909747e-09 -4.674509e-09
-9.810609e-09 1.242565e-08 -2.589570e-08 2.352607e-08 2.276734e-09 1.748262e-09
-6.836602e-09 1.290022e-08 -3.387886e-08 2.749378e-08 1.264487e-08 -9.513952e-09
-9.829099e-09 8.064250e-09 -4.726493e-09 -2.949759e-09 -7.758309e-10 1.689810e-10
-8.941825e-09 5.651758e-09 -1.429764e-09 -3.426205e-09 -5.681760e-10 1.157397e-09
-8.107513e-09 6.033994e-09 -1.970309e-09 -4.483497e-09 -6.872270e-10 4.738418e-10
-8.894103e-09 6.657563e-09 -2.378839e-09 -4.831850e-09 -1.063268e-09 6.868574e-10
3.487287e-09 3.194417e-09 5.106211e-08 4.221883e-08 9.590007e-09 -4.642915e-09
-1.098338e-08 3.302209e-08 2.800528e-08 4.622600e-08 2.841263e-08 -2.126910e-09
-8.306724e-09 1.824209e-08 2.288511e-08 4.460881e-08 3.603729e-09 1.697542e-09
5.032764e-09 2.546996e-08 -2.285154e-09 3.665639e-08 6.452342e-09 -4.838481e-09
-1.543059e-08 3.815541e-08 -1.098000e-09 3.250672e-08 5.843165e-09 -4.936246e-09
-8.877485e-09 1.186684e-08 -7.588895e-09 -6.481213e-09 -1.478344e-09 1.856213e-09
-8.633046e-09 1.521091e-08 -1.036462e-08 -9.288148e-09 -1.507697e-09 4.301980e-09
-9.607157e-09 1.833455e-08 -1.477116e-08 -6.339863e-09 -4.095830e-09 4.845369e-09
-9.730215e-09 2.164837e-08 -1.914507e-08 -7.106564e-09 -2.259374e-09 6.692157e-09
-7.077862e-09 4.989896e-09 6.751972e-10 -4.677607e-10 -8.281288e-11 -1.969929e-10
-2.759381e-09 3.085345e-09 -2.262706e-10 -5.543739e-09 2.597880e-11 1.376335e-10
-1.679202e-08 5.076378e-09 1.104976e-09 -7.057697e-10 -3.323075e-10 -2.215557e-10
-7.484520e-09 4.967569e-09 8.844283e-10 -4.828946e-10 -9.979451e-11 -1.609168e-10
-7.902287e-09 5.047037e-09 9.568693e-10 -1.987726e-10 -2.571598e-11 -3.392039e-10
-7.891659e-09 4.933529e-09 8.876642e-10 -4.292495e-10 -2.286871e-11 -1.895748e-10
-6.768728e-09 5.013542e-09 5.522340e-10 -1.710356e-10 -6.687029e-11 -8.158985e-11
-7.196933e-09 4.966701e-09 7.823022e-10 -3.982912e-10 -9.432766e-11 -8.479439e-11
-7.374235e-09 5.042924e-09 8.942909e-10 -2.400105e-10 -3.776746e-11 -1.214332e-10
3.557827e-09 -2.026612e-08 4.620706e-09 -7.014199e-09 1.217284e-10 -2.297744e-10
1.879738e-09 -1.955027e-08 4.076692e-09 -5.693948e-09 5.200795e-10 -2.414115e-10
1.348564e-09 -1.847645e-08 5.019663e-09 -2.916444e-09 8.212142e-11 -5.618383e-10
8.586336e-10 -1.622582e-08 4.077704e-09 -3.243557e-09 5.891352e-10 -2.250501e-10
3.527364e-09 -2.167424e-08 5.501880e-09 -2.066153e-09 -9.940217e-10 -1.349193e-10
1.283279e-09 -1.685976e-08 4.914609e-09 -3.155969e-09 2.385192e-10 -6.950609e-10
8.050260e-10 -1.597027e-08 4.888209e-09 -2.971402e-09 7.118526e-10 -2.726207e-10
1.205345e-08 -3.582714e-08 1.331791e-09 1.075631e-08 -1.109405e-09 3.302991e-10
1.573047e-08 -3.906983e-08 2.815264e-09 5.791378e-09 1.468577e-09 -6.520428e-11
1.287396e-08 -3.758625e-08 3.066333e-09 7.877549e-09 1.951741e-10 1.371907e-10
-8.666809e-08 -2.122629e-08 2.319380e-07 -2.227369e-08 2.520133e-08 -2.504782e-08
-1.259183e-07 -2.048404e-08 2.457058e-07 -2.512587e-08 2.961561e-08 -1.697318e-08
-9.166254e-08 1.288105e-08 2.480897e-07 9.473876e-09 5.694516e-08 5.667718e-09
-5.299162e-09 3.640531e-09 4.006226e-10 -3.947459e-09 -8.118661e-11 -6.100143e-11
2.511006e-08 -5.268251e-08 -5.523476e-09 1.991204e-09 -1.231138e-08 1.281585e-09
-6.214144e-09 3.981415e-09 7.439382e-12 -4.786834e-09 -5.262106e-10 -7.442895e-10
-7.286304e-09 4.090457e-09 8.131966e-10 -2.664755e-09 -3.206997e-10 2.768941e-11
-6.063922e-09 3.835724e-09 7.860845e-10 -2.300049e-09 -6.753020e-11 -8.726131e-12
-5.966086e-09 4.035748e-09 6.234959e-10 -2.775965e-09 -1.080561e-10 5.080480e-10
-6.430653e-09 3.769801e-09 5.855862e-10 -3.150258e-09 -2.277440e-10 -6.601613e-10
3.438300e-09 -2.090187e-08 3.621312e-09 -7.322656e-09 -6.855973e-10 -6.493767e-10
1.886265e-09 -1.624427e-08 3.814991e-09 -5.842819e-09 6.311847e-10 -2.532823e-10
-1.332891e-09 -1.110254e-08 3.987361e-09 -5.193968e-09 -2.951870e-10 -6.000876e-10
-2.401962e-09 -1.196835e-08 4.073913e-09 -5.634299e-09 4.829815e-10 -7.198672e-10
4.823698e-10 -1.856728e-08 4.745504e-09 -5.470768e-09 -8.640262e-10 -2.609974e-11
-4.152122e-09 -1.762870e-08 6.890088e-09 1.304914e-09 -2.159450e-11 2.339435e-10
-5.658663e-09 -1.757557e-08 6.923554e-09 1.015716e-09 -5.155093e-12 2.616014e-10
-3.181960e-09 -1.792837e-08 6.619897e-09 3.905163e-09 -1.064610e-10 2.703546e-10
-5.041237e-09 -1.758758e-08 7.000074e-09 2.972974e-09 -4.480238e-10 4.296923e-10
-3.008010e-09 -1.866396e-08 6.853101e-09 1.819222e-09 -2.693900e-11 4.373890e-10
-4.282224e-09 -1.822413e-08 6.836799e-09 1.220695e-09 -3.465652e-10 4.236418e-10
-5.323989e-09 -1.793016e-08 6.663519e-09 3.322415e-09 -5.512111e-11 1.205975e-10
2.399721e-08 -3.865939e-08 -2.716577e-08 -6.876806e-09 -8.543573e-09 -7.900995e-10
2.685117e-08 -3.567745e-08 -2.863509e-08 -1.248497e-09 -8.170823e-09 -7.869514e-11
2.489179e-08 -4.011829e-08 -1.391187e-08 2.707999e-09 -3.054068e-09 4.028419e-10
2.807832e-08 -3.540804e-08 -2.476753e-08 -4.910017e-10 -9.915566e-09 7.247054e-10
2.489395e-08 -3.548442e-08 -1.823040e-08 2.526055e-09 -1.847355e-09 5.074003e-10
1.614588e-08 5.546776e-08 -9.455504e-08 -1.047753e-08 -3.598717e-08 1.779288e-08
9.612156e-10 6.757830e-08 -6.610718e-08 -1.722583e-08 -1.287172e-08 7.175429e-09
3.385151e-09 5.333308e-08 -6.095592e-08 -1.841371e-08 -9.310781e-09 1.091392e-08
1.905901e-09 5.691957e-08 -5.150831e-08 -2.262717e-08 -1.277408e-08 1.880458e-08
3.142858e-09 6.828035e-08 -6.395334e-08 -1.745450e-08 -1.197742e-08 1.542850e-08
-3.535705e-09 2.614207e-09 9.276446e-11 -3.042546e-09 -3.232838e-10 -2.245040e-10
4.230438e-09 -2.341972e-08 -7.968277e-09 1.225517e-08 -1.078905e-08 4.700288e-09
9.437197e-09 -3.026233e-08 -6.847845e-09 8.740257e-09 -1.067866e-08 1.259459e-09
3.328555e-09 -2.297036e-08 -1.276551e-09 7.695980e-09 -2.236890e-09 9.520714e-10
8.026201e-09 -2.631911e-08 -5.895354e-09 5.482908e-09 -3.235292e-09 6.008530e-10
6.188391e-09 -2.334119e-08 -2.414586e-09 9.144794e-09 -4.553795e-09 9.047529e-10
-4.323084e-09 3.478634e-09 2.993426e-10 -2.438763e-09 -4.860333e-10 -2.633649e-10
-6.843734e-09 -2.705588e-09 -3.564956e-09 -1.323560e-08 4.713545e-10 4.520961e-10
-7.436437e-09 -7.284164e-09 -1.505672e-09 -1.528987e-08 2.239855e-09 7.251826e-10
-2.010049e-09 -1.424185e-08 -1.044298e-09 -1.485042e-08 1.713990e-09 2.522038e-10
-4.891197e-09 -3.584197e-09 -5.909108e-09 -1.725099e-08 2.440124e-10 -6.673541e-10
-9.324082e-09 6.111264e-09 -6.724117e-09 -1.459516e-08 -6.037402e-10 -1.094084e-10
-1.331672e-08 2.301058e-09 -8.828485e-10 -1.154161e-08 5.654664e-10 7.704111e-10
-4.757582e-09 -5.083700e-09 -6.741537e-09 -1.796106e-08 5.660505e-09 4.020673e-09
-8.508792e-09 3.927086e-09 1.214921e-09 -1.290170e-09 -3.119807e-10 -1.053692e-10
-8.575805e-09 4.145099e-09 1.089704e-09 -2.171120e-09 -4.511902e-10 -4.240515e-10
-8.799592e-09 3.462961e-09 7.971424e-10 -2.116139e-09 -1.758948e-10 -6.537669e-10
-8.593407e-09 3.401543e-09 1.248889e-09 -2.192834e-09 -4.004494e-10 -4.105793e-10
-8.680272e-09 3.759429e-09 1.343016e-09 -9.803562e-10 -1.047226e-10 -2.620437e-10
-8.772120e-09 3.997110e-09 1.196909e-09 -1.867434e-09 -6.221868e-11 3.025198e-10
1.474975e-08 -3.915099e-08 4.091570e-09 -1.267363e-09 -1.506846e-09 -7.250134e-10
-1.701231e-09 1.163130e-09 3.243361e-11 7.406191e-10 1.158463e-10 1.341149e-11
-7.194410e-09 6.725607e-10 2.310364e-09 -4.013856e-10 5.183533e-10 4.065159e-11
1.241120e-08 -3.330511e-08 5.256591e-10 -4.538006e-09 -1.886274e-09 -1.349546e-09
-7.233117e-09 -2.946468e-10 2.386477e-09 -7.692263e-10 1.092100e-10 -2.737395e-10
-7.240656e-09 -1.020108e-10 2.269828e-09 -6.484577e-10 2.385872e-10 -1.614162e-10
-7.087761e-09 1.548766e-09 1.879825e-09 2.247811e-10 -5.826450e-11 -2.296785e-11
-7.249077e-09 6.364420e-10 2.151904e-09 -1.322885e-10 -9.586998e-11 -1.812173e-10
-7.394105e-09 5.166431e-09 7.422518e-10 -9.810330e-11 -2.703637e-11 -6.000400e-11
-7.846451e-09 4.919890e-09 1.000551e-09 -5.090186e-10 -6.823342e-11 -8.748868e-11
-7.412805e-09 4.777273e-09 7.692389e-10 -6.917648e-10 -1.004596e-10 -1.906257e-10
-7.311925e-09 5.008889e-09 8.043695e-10 -4.343163e-10 -5.781867e-11 -6.800782e-11
-7.380111e-09 5.128632e-09 7.680936e-10 -1.331317e-10 -1.325429e-11 -7.223710e-11
2.677804e-09 1.163231e-08 2.967912e-09 -2.412268e-08 -2.145453e-09 -3.485346e-11
1.917121e-09 1.225312e-08 4.205436e-09 -2.596905e-08 4.519530e-09 1.805906e-09
1.917997e-09 9.365162e-09 1.572248e-08 -2.626472e-08 8.525040e-09 2.910053e-09
1.035107e-09 2.010364e-08 -1.921357e-09 -2.883133e-08 -2.586502e-09 4.776685e-09
5.869194e-09 5.117027e-09 1.874253e-08 -2.912300e-08 9.178817e-09 -9.316352e-10
-4.099264e-09 2.845026e-09 8.185008e-11 -2.182171e-09 -3.351632e-10 -2.340955e-11
5.808865e-10 5.745653e-10 -2.007816e-10 -1.866062e-09 4.889109e-11 -7.291197e-10
1.136881e-09 1.564509e-10 -3.944693e-10 -2.889328e-09 -3.279486e-10 -3.387717e-10
-1.361578e-09 1.524033e-09 -2.114606e-10 -3.965987e-09 -3.876963e-10 -7.723111e-11
2.846178e-09 -3.189943e-10 -7.682495e-10 -3.442058e-09 -2.314233e-10 -5.510601e-10
8.568115e-10 6.612018e-10 -5.173428e-10 -4.577190e-09 -1.323763e-11 -1.642382e-10
1.711889e-08 3.042780e-09 -7.653734e-09 1.010092e-08 -6.464924e-10 2.279711e-09
3.043575e-08 5.305855e-09 -6.967164e-09 1.831449e-08 -1.285684e-09 -2.225606e-09
3.834748e-08 -6.916182e-09 -4.454417e-09 8.494275e-09 1.785642e-10 3.210596e-09
3.240641e-08 -1.167457e-09 -2.463955e-09 1.804279e-08 1.037066e-09 -1.021803e-10
4.392810e-08 -1.542247e-08 5.521610e-09 1.580803e-08 1.869470e-09 2.979920e-09
4.584110e-08 -1.057107e-08 -4.273510e-09 9.938285e-09 1.156142e-09 1.265817e-10
3.325446e-08 -4.606071e-09 -6.125098e-09 9.607798e-09 3.505851e-10 1.359061e-09
-1.023269e-09 1.584787e-09 3.794520e-12 -1.877392e-09 -2.283667e-10 -3.546365e-10
5.158957e-08 -1.417013e-08 -6.717258e-09 3.037930e-09 -1.505599e-10 5.142069e-09
3.780467e-08 -6.926607e-09 -7.474447e-09 3.791711e-09 -1.046287e-09 -1.013497e-09
5.573049e-08 -1.062977e-08 -5.657217e-09 1.265853e-08 1.511578e-09 4.566964e-09
5.145284e-08 -1.067834e-08 -2.745109e-09 1.045512e-08 3.657159e-09 5.220524e-09
2.742279e-08 -1.691719e-09 -1.056625e-08 1.576914e-08 6.914924e-10 -2.667340e-09
3.551548e-08 -6.009818e-10 -1.277549e-08 1.215220e-08 1.447389e-10 -3.966855e-09
-8.762726e-09 4.479775e-08 -5.846444e-08 1.542479e-08 6.815944e-09 -4.784148e-10
-1.373300e-09 4.134127e-08 -7.292671e-08 2.365574e-08 1.077792e-08 -1.452013e-08
1.450941e-09 3.376489e-08 -6.540651e-08 2.327246e-08 2.940856e-08 -1.487066e-08
5.180008e-09 1.796797e-08 -6.147234e-08 2.829097e-08 9.280219e-09 -5.021595e-09
-1.728759e-08 5.028549e-08 -6.362509e-08 2.454443e-08 2.555380e-08 -2.893676e-08
-6.489445e-09 3.552667e-09 9.774892e-10 4.155920e-10 6.115719e-11 -3.294220e-11
-6.993357e-09 3.640131e-09 1.089992e-09 3.785514e-10 8.058304e-11 -9.156609e-11
-5.746420e-09 3.570927e-09 7.462497e-10 2.574607e-10 1.393377e-10 -1.345669e-10
-6.583274e-09 3.571490e-09 8.264323e-10 2.456595e-10 1.482940e-10 -6.274425e-11
-7.067024e-09 3.641747e-09 1.073753e-09 2.984990e-10 6.701195e-11 -1.265529e-10
-6.278542e-09 3.484852e-09 8.906280e-10 6.616656e-10 8.153522e-11 1.988731e-11
-6.117302e-09 3.422272e-09 8.626433e-10 4.970939e-10 1.488432e-11 -5.526191e-11
-6.093107e-09 3.401290e-09 8.942944e-10 3.770475e-10 7.064949e-11 -9.382139e-11
-5.580940e-09 4.026086e-09 5.432028e-10 -4.158935e-10 -1.535276e-10 3.676354e-11
-4.004717e-09 3.186592e-09 2.179368e-10 -9.808234e-10 -1.721658e-10 5.225820e-12
-3.619350e-09 3.100858e-09 2.179856e-10 -1.185636e-09 -4.437184e-11 4.854656e-11
-4.935982e-09 3.367731e-09 2.275495e-10 -1.712843e-09 4.172601e-11 8.569634e-11
-6.223097e-09 4.166476e-09 5.072875e-10 -6.823662e-10 1.083555e-11 1.211027e-10
-1.032981e-08 -1.081010e-08 3.851356e-09 6.955940e-09 4.656615e-10 3.499616e-10
-8.365164e-09 -1.267896e-08 4.241804e-09 6.771505e-09 1.940039e-10 -6.001550e-10
-1.093438e-08 -8.843390e-09 4.769877e-09 2.960624e-09 2.670486e-10 -8.493876e-12
-1.048613e-08 -1.185530e-08 5.481635e-09 7.379492e-09 -4.635700e-10 5.325604e-10
-1.498657e-08 1.212086e-08 -3.174737e-09 -1.101450e-08 -7.976765e-09 -3.791339e-09
-8.466861e-09 -1.504509e-08 5.594958e-09 4.378840e-09 1.150276e-09 -1.492180e-10
-7.693326e-09 2.982976e-09 1.443569e-09 4.925673e-10 2.495626e-11 -2.660080e-10
-7.325022e-09 3.321285e-09 1.192036e-09 2.364956e-10 6.110473e-12 -1.682334e-10
-6.939027e-09 2.736585e-09 1.409468e-09 8.559127e-10 4.963768e-11 -3.199643e-10
-7.405467e-09 3.140098e-09 1.450661e-09 3.645546e-10 -5.653476e-11 -2.447822e-10
-6.875977e-09 2.646417e-09 1.200199e-09 9.024554e-10 2.203640e-10 -3.084608e-10
-8.004098e-08 3.764623e-08 1.692818e-07 -1.526083e-08 -8.087355e-09 4.382092e-08
-1.404758e-07 -6.885441e-08 3.925209e-07 -1.470292e-08 -3.093971e-08 -5.322120e-08
-1.020978e-07 -6.408547e-08 2.711784e-07 1.136909e-09 -3.193045e-08 -1.491824e-08
-9.306274e-08 -9.887135e-09 2.465370e-07 2.493672e-08 -8.553194e-09 -6.877695e-09
-1.029205e-07 -6.369312e-08 2.849871e-07 6.876279e-09 -2.136774e-08 -1.448716e-09
-1.790091e-08 2.376055e-08 -4.739926e-09 -4.791945e-10 -4.734761e-10 1.310215e-09
-1.566502e-08 2.130750e-08 -1.106820e-08 -5.552382e-09 1.734704e-09 1.622170e-09
-2.247141e-09 3.045279e-09 -6.337597e-11 -5.784137e-09 2.168350e-10 -1.647931e-10
-1.635901e-08 1.741725e-08 -1.204744e-08 -1.556881e-08 3.832963e-09 5.408522e-09
-2.082366e-08 2.673378e-08 -1.192175e-08 -3.154249e-09 2.991001e-10 -1.580002e-09
-1.649344e-08 2.040953e-08 -1.420807e-08 -1.542829e-08 3.819320e-09 5.959893e-09
-2.173184e-08 3.079209e-08 -1.763216e-08 -8.432806e-09 4.992004e-09 9.855779e-09
3.263292e-10 2.850553e-09 1.638141e-09 9.905855e-09 2.573832e-10 1.747247e-10
-2.425184e-09 5.008342e-09 1.509469e-09 1.028200e-08 -1.084168e-10 -1.178710e-09
1.057577e-08 -3.519210e-09 2.573065e-09 9.329968e-09 4.202159e-10 -1.129311e-09
1.748060e-08 -7.046710e-09 3.007940e-09 7.161597e-09 -2.878339e-10 -1.668964e-09
4.142243e-09 1.148231e-09 2.480955e-09 1.195635e-08 -1.569614e-10 -9.195613e-10
3.166723e-09 4.587927e-09 2.184416e-09 1.308509e-08 -9.293445e-10 -1.968349e-09
9.978838e-09 -3.226305e-09 1.828251e-09 9.199608e-09 -3.156930e-10 -1.684916e-09
3.419537e-09 -1.380210e-09 -5.291989e-10 8.596266e-10 1.588665e-10 1.767378e-10
4.438347e-09 -2.477923e-09 -7.181760e-10 7.284650e-10 3.281262e-10 -3.663881e-10
5.574503e-09 -2.864814e-09 -9.001930e-10 1.598906e-09 2.747548e-10 -3.022766e-10
1.485779e-09 2.124967e-10 -3.567653e-10 -1.541213e-09 -1.771596e-10 3.335279e-10
5.839374e-09 -2.851573e-09 -8.369514e-10 1.454999e-09 1.359783e-10 -1.384239e-10
5.149622e-09 -2.617654e-09 -7.707973e-10 1.415681e-09 2.400766e-10 -4.155900e-11
4.062190e-09 -2.131143e-09 -6.768666e-10 9.867518e-10 5.189192e-10 -3.403289e-11
5.220754e-09 -2.837149e-09 -7.709657e-10 1.278599e-09 2.336822e-10 -4.723075e-11
-9.102758e-09 4.859040e-09 -3.696043e-10 -3.018228e-09 -4.419984e-10 -1.350871e-10
-8.884485e-09 3.866991e-09 -7.370775e-10 -2.273368e-09 -8.283676e-10 4.816205e-10
-7.988741e-09 6.308159e-09 -1.607019e-09 -4.921084e-09 -1.185695e-09 1.525177e-09
-8.841800e-09 6.624658e-09 -2.073865e-09 -4.831822e-09 -6.109859e-10 1.024472e-10
-6.320303e-09 4.982092e-09 -7.840097e-10 -5.666181e-09 -5.598997e-10 3.490353e-10
-9.261836e-09 2.560549e-09 1.734861e-09 -5.064570e-11 -9.945245e-11 -5.734588e-10
-9.250110e-09 2.495320e-09 1.904740e-09 -3.931331e-10 -3.301881e-10 -8.072317e-10
-8.879404e-09 4.062665e-09 1.522486e-09 -1.243460e-09 -1.614705e-10 -5.074870e-10
-7.720991e-09 3.690702e-09 1.247666e-09 -1.293138e-09 -2.589255e-10 -1.650229e-10
-9.131263e-09 2.252225e-09 1.713736e-09 -2.504227e-10 -3.322131e-10 -6.429158e-10
-9.651586e-09 2.998738e-09 1.923802e-09 -1.747124e-10 5.750755e-11 -2.237063e-10
2.024045e-08 -1.150109e-08 6.029858e-09 -5.063207e-09 1.540646e-09 -3.805590e-09
1.988701e-08 -1.131424e-08 6.449098e-09 -3.752623e-10 3.976371e-11 -3.937246e-09
1.759956e-08 -1.135385e-08 1.068814e-08 4.854870e-09 4.571447e-10 -4.944866e-09
2.105252e-08 -9.901841e-09 9.037057e-09 6.110033e-09 -2.819268e-10 -6.040908e-09
1.696345e-08 -1.294158e-08 1.099212e-08 3.847994e-09 -2.286318e-10 -5.417774e-09
1.852937e-08 -9.597506e-09 5.871063e-09 6.031441e-09 -2.033787e-10 -3.214424e-09
6.423097e-09 -2.660536e-09 -9.520109e-10 -5.397547e-09 -2.397260e-10 4.405514e-10
7.353313e-09 -3.060039e-09 -1.042294e-09 -4.604559e-09 -9.882980e-12 -3.397889e-10
3.339217e-09 -1.199908e-09 -7.268282e-10 -4.847466e-09 -1.147112e-10 3.018413e-10
3.521733e-09 -1.187459e-09 -8.200929e-10 -5.069334e-09 -3.281768e-10 3.436409e-10
5.716926e-09 -2.002088e-09 -1.005498e-09 -3.488627e-09 -2.590501e-10 -3.162071e-10
5.202878e-09 -8.492701e-09 4.422769e-08 -2.198696e-08 3.358319e-09 -7.155048e-09
1.856783e-08 -1.127600e-08 4.241099e-08 -2.140317e-08 -3.445436e-09 -1.447527e-08
1.331637e-09 1.721539e-09 5.086879e-08 -3.213878e-08 1.737775e-08 -9.918881e-09
1.093784e-08 -1.605678e-08 5.192052e-08 -1.793667e-08 7.328770e-09 -1.622158e-09
1.214647e-08 -1.560980e-08 6.283692e-08 -1.252878e-08 5.528648e-09 -2.484575e-08
1.247776e-08 -3.944030e-08 4.816247e-09 5.993460e-09 2.092194e-09 -3.145891e-10
1.230192e-08 -3.848652e-08 7.105301e-09 6.176464e-10 1.923335e-10 2.784484e-11
1.212431e-08 -3.720525e-08 7.137667e-09 1.770539e-09 3.111094e-10 2.886373e-10
1.187908e-08 -3.908308e-08 5.080807e-09 3.189180e-09 5.619651e-10 -4.413563e-10
1.365180e-08 -3.928597e-08 6.133157e-09 8.529145e-10 1.251137e-09 -1.577019e-10
1.479901e-08 -3.861387e-08 5.098882e-09 1.959211e-09 4.376066e-10 -1.826639e-10
1.364865e-08 -3.952234e-08 5.366707e-09 8.820491e-10 7.771104e-10 -9.030166e-11
1.298804e-08 -3.844612e-08 6.912494e-09 5.258432e-10 1.491123e-10 -1.562452e-10
1.308856e-08 -3.849933e-08 6.754176e-09 5.752423e-10 1.109781e-10 1.503255e-10
4.688342e-09 8.597259e-09 -3.514463e-09 -4.072034e-09 3.510494e-09 9.956733e-10
5.050567e-09 7.869471e-09 -4.666401e-09 -4.281076e-09 2.165085e-09 1.360115e-09
2.889164e-08 2.711297e-09 -4.601375e-09 -1.772724e-08 -1.300646e-09 4.929753e-10
-7.133056e-09 -4.902411e-09 3.279580e-09 3.086649e-09 -3.612973e-10 -4.580443e-10
2.203273e-08 2.714351e-08 -8.359470e-08 -1.409513e-08 -1.476628e-08 -2.523259e-09
-1.395423e-08 1.442340e-08 -3.496208e-09 -2.728686e-10 3.646725e-09 -1.689656e-09
2.650727e-08 -1.253785e-08 -5.858598e-08 -9.983101e-09 -3.203673e-08 -2.298618e-09
-9.024584e-09 1.608511e-08 -7.022910e-09 -1.880971e-09 -4.179478e-09 -1.043748e-09
2.815836e-08 1.221509e-08 -6.838685e-08 -1.676597e-08 -2.711461e-08 -3.616634e-09
-1.357717e-08 8.365752e-09 -2.618012e-09 -8.849633e-09 -6.767267e-09 -2.852660e-09
1.150712e-08 2.039731e-08 -6.506325e-08 -2.206707e-08 -1.838994e-08 -5.752016e-09
2.089616e-08 -3.372526e-08 -1.764164e-08 5.343785e-09 -3.519001e-09 3.830179e-10
2.386615e-08 -1.458102e-08 -4.696438e-08 -1.213081e-08 -2.365954e-08 -2.172761e-09
1.894463e-08 7.322498e-09 -5.213238e-08 -1.647869e-08 -7.753925e-09 -2.701989e-09
-3.906173e-09 2.443222e-09 6.473591e-10 3.426712e-09 1.201336e-10 1.565187e-11
-4.545514e-09 2.163329e-09 6.667777e-10 3.111149e-09 -2.113847e-10 -5.203304e-10
-4.834080e-09 2.402326e-09 9.826411e-10 3.168882e-09 1.177607e-10 -3.014289e-10
-6.549142e-09 2.798350e-09 1.272022e-09 1.953548e-09 1.406497e-10 -1.458007e-10
-9.284695e-09 1.226271e-08 -5.613195e-09 -9.016843e-09 -2.131233e-09 2.536034e-09
-6.818970e-09 3.146443e-09 1.295146e-09 1.753250e-09 -1.765819e-10 -6.209744e-11
8.380182e-09 -2.781469e-08 2.852039e-09 -1.020378e-08 5.932359e-10 2.878409e-10
-5.840341e-09 2.305816e-09 1.286025e-09 1.733836e-09 3.677880e-11 -2.192369e-11
-5.525156e-09 2.946882e-09 9.450956e-10 3.002283e-09 2.574283e-10 -6.091805e-10
1.265637e-08 -7.180053e-09 -1.044882e-09 -2.395615e-09 -4.757306e-11 -1.480892e-10
1.572779e-08 -7.139452e-09 -6.790337e-10 -2.676706e-09 -2.221971e-10 -2.623590e-11
-1.225624e-08 -6.220914e-09 4.879358e-09 1.976584e-09 1.050929e-09 -1.003349e-10
-9.061355e-09 -1.142698e-08 5.920918e-09 2.061402e-09 3.829818e-10 1.024911e-10
1.288134e-08 -7.290792e-09 -1.042266e-09 -3.419461e-09 -3.848714e-11 -3.016918e-10
1.232440e-08 -5.767737e-09 -1.109279e-09 -5.246332e-09 -2.323757e-10 7.681940e-10
1.075319e-08 -5.962554e-09 -1.213998e-09 -3.917245e-09 4.491212e-12 8.862577e-11
1.271356e-08 -6.240059e-09 -1.270026e-09 -2.391635e-09 -6.422696e-11 -2.059097e-10
1.192729e-08 -6.038876e-09 -1.240653e-09 -3.047443e-09 5.058680e-11 -5.512613e-10
-1.516873e-08 6.118849e-09 -8.045758e-09 1.715545e-08 2.307158e-09 -2.662925e-09
-1.159107e-08 -7.307809e-09 4.067891e-09 8.635567e-09 3.317037e-09 -2.073133e-10
-1.553818e-08 5.270858e-09 -4.683602e-09 1.326423e-08 -3.662260e-10 1.417028e-09
1.193892e-08 -3.114924e-08 -4.570551e-09 -1.498316e-08 6.003166e-09 1.543004e-09
-1.444160e-08 9.201716e-09 -8.036630e-09 1.595323e-08 3.074592e-09 -1.033891e-09
-1.810878e-08 1.545503e-08 -9.217734e-09 1.100165e-08 6.200854e-09 -5.040152e-09
-1.190722e-08 7.030829e-09 -4.586739e-09 -1.011686e-08 9.589835e-10 1.863299e-10
-7.272414e-09 5.142520e-09 7.325163e-10 -2.719425e-11 -2.168199e-11 1.973854e-11
-1.699665e-08 1.072496e-08 -4.153156e-09 8.656624e-09 1.982858e-09 -1.029712e-09
-1.845082e-08 1.456740e-08 -1.205276e-08 1.382598e-08 2.360329e-09 -3.735154e-09
-3.598623e-09 3.305637e-09 2.121623e-10 -7.821057e-10 -2.457140e-10 -4.386061e-10
-2.958383e-09 2.901731e-09 1.483471e-10 -4.044164e-09 5.793410e-11 -6.628298e-11
-1.340854e-08 1.427898e-09 -7.729106e-11 -4.227644e-09 -2.925595e-09 -6.351424e-10
-1.473429e-08 -1.263155e-09 8.014391e-10 -1.883567e-09 -9.337012e-10 -5.569811e-11
-1.301322e-08 -2.795760e-09 2.460376e-09 -1.364790e-09 -2.266617e-09 -3.883180e-10
-1.303879e-08 -5.448690e-10 2.921877e-09 -1.626296e-09 -5.528933e-10 -3.702150e-10
-7.386338e-09 3.875041e-09 1.082883e-09 8.803225e-11 4.275003e-11 -9.254775e-11
-9.929657e-09 -4.867413e-09 -5.510739e-10 -3.495743e-09 -2.815368e-10 -2.685080e-10
-1.026038e-08 -1.679208e-09 -4.221290e-11 -4.209300e-09 -1.455950e-09 8.189943e-11
-7.326385e-09 3.040223e-09 1.461379e-09 1.090993e-09 -3.511579e-10 -8.111212e-10
-9.826033e-09 -7.919814e-09 -1.461055e-09 -5.007571e-09 -1.975602e-09 -9.470757e-10
-9.025568e-09 -8.077386e-09 1.584294e-09 -8.291441e-10 1.877019e-09 -1.436457e-11
-1.051771e-09 3.906591e-08 -2.991076e-08 -2.273394e-08 -6.894051e-09 1.530924e-08
-1.188046e-08 6.565162e-08 -6.423480e-08 -3.061397e-08 -2.050399e-08 3.313698e-09
-3.704302e-09 6.215929e-08 -6.661654e-08 -2.510391e-08 -1.392561e-08 4.503420e-09
-7.262225e-09 4.039288e-09 9.993633e-10 0.000000e+00 2.726708e-12 -2.427925e-11
-2.228502e-09 4.129703e-08 -4.245447e-08 -1.783220e-08 -9.782308e-09 1.184345e-08
-1.537210e-09 4.443818e-08 -3.897913e-08 -2.095233e-08 -3.756178e-09 1.292457e-08
7.105096e-09 5.167504e-08 -6.839008e-08 -1.100722e-08 -1.977959e-09 1.597212e-09
-9.125961e-09 3.376489e-08 -5.054129e-08 2.821664e-08 2.480070e-08 -1.791703e-08
1.143182e-09 5.513891e-08 -4.940827e-08 -2.014198e-08 -1.453313e-08 1.803719e-08
-6.928673e-09 4.094347e-09 7.999912e-10 -2.270349e-09 -1.568867e-10 -1.403535e-10
-7.791748e-09 4.196838e-09 1.206650e-09 -1.282904e-09 -1.063065e-10 -1.635948e-10
-7.145412e-09 5.012989e-09 6.742156e-10 -2.322111e-10 -6.102685e-11 -1.051428e-10
2.165020e-08 -2.218187e-08 -3.656005e-08 2.577455e-08 1.548522e-08 -3.690722e-09
-3.279627e-09 1.207849e-08 -5.927263e-09 1.279750e-09 -4.170956e-09 -2.827974e-09
6.186420e-09 -2.795637e-09 -9.745245e-10 -2.778574e-09 -4.167807e-10 5.133005e-11
-8.007295e-09 4.258906e-09 1.268204e-09 -1.200059e-09 -1.768887e-10 -3.359464e-10
-6.829318e-09 4.387642e-09 8.678711e-10 -1.667933e-09 -1.098122e-11 1.459233e-10
-2.324762e-09 2.551307e-09 3.504086e-11 -1.542906e-09 -2.144787e-10 1.036728e-10
-8.256583e-09 4.253129e-09 1.293540e-09 -5.269047e-10 -7.523804e-11 -2.403286e-10
-8.268685e-09 4.621885e-09 1.155362e-09 -1.238437e-09 -1.492397e-10 -3.161743e-10
-1.638684e-09 2.202066e-09 1.257128e-11 -4.018443e-09 -2.572760e-10 4.105227e-10
2.637500e-09 5.799398e-10 -1.022641e-09 -8.602945e-09 -4.513269e-10 5.146870e-10
2.550715e-10 1.608663e-09 -6.128258e-10 -6.799037e-09 -8.562288e-11 2.523972e-10
-7.286304e-09 4.013089e-09 1.066689e-09 -2.166748e-09 -3.622126e-10 -6.453158e-10
-3.999939e-09 4.471561e-09 -9.124335e-10 -7.862464e-09 -3.733145e-10 5.301093e-12
4.100102e-09 -1.850927e-09 -7.925098e-10 -3.425442e-09 -2.958946e-10 -1.961612e-10
-4.143140e-09 4.028933e-09 -6.319842e-10 -7.032810e-09 -3.407555e-10 -6.876597e-10
-6.066198e-09 4.153210e-09 -3.091281e-10 -5.624803e-09 -4.204763e-10 -3.387912e-11
-4.460563e-09 3.433098e-09 -2.964184e-10 -5.479908e-09 -3.808767e-10 5.385021e-10
-7.170236e-09 2.510845e-09 1.557939e-09 7.048894e-10 2.426285e-10 -2.052692e-10
9.964912e-09 -5.440417e-09 -1.304931e-09 5.451347e-10 -4.158673e-11 -2.264522e-11
-7.267767e-09 4.213543e-09 1.286812e-09 1.809515e-09 3.721139e-10 -3.003513e-10
-7.503214e-09 2.880197e-09 1.362177e-09 8.327167e-10 -8.136947e-11 -1.832505e-10
-6.220739e-09 3.450597e-09 1.080973e-09 2.507364e-09 3.784627e-10 -4.253669e-10
-6.267349e-09 4.684158e-09 7.429652e-10 3.192225e-09 8.278489e-10 2.868939e-10
-6.863544e-09 3.317078e-09 1.099179e-09 6.936160e-10 -5.419487e-11 3.757883e-12
-5.979506e-09 4.247207e-09 1.078698e-09 3.374705e-09 -8.961099e-11 1.427375e-11
3.408067e-09 -1.600290e-09 -4.928129e-10 1.150275e-10 9.480416e-11 1.835287e-11
-5.989122e-09 4.484173e-09 1.033189e-09 3.442047e-09 6.109184e-10 -4.629479e-10
-7.722486e-09 4.208286e-09 1.189055e-09 2.128208e-09 -4.315234e-10 -1.152216e-09
1.212831e-08 -6.625807e-09 -1.287633e-09 6.528026e-10 7.072329e-11 -5.081385e-11
1.673094e-09 -7.289298e-10 -4.361524e-10 2.117304e-09 1.178013e-11 1.209403e-10
1.215309e-08 -6.986964e-09 -1.269346e-09 -1.741584e-09 -5.059680e-11 -2.199885e-10
1.188635e-08 -6.534608e-09 -1.127410e-09 1.920060e-09 8.259381e-11 -2.889216e-11
-6.217029e-09 2.251423e-09 1.277674e-09 9.106771e-10 -1.346596e-10 1.181748e-10
1.335665e-09 -1.302523e-10 -4.697127e-10 -3.333969e-09 -2.990494e-10 -1.892455e-10
8.436118e-09 -5.070264e-09 -1.168762e-09 -3.738210e-11 -9.898549e-11 4.128431e-11
-7.159878e-09 -3.720107e-09 2.403938e-09 6.416626e-10 -1.622598e-09 -1.155284e-09
-4.828810e-09 -8.832540e-09 2.782314e-09 1.986211e-09 -1.487692e-09 -1.297930e-09
1.452586e-08 -7.013641e-09 -4.036491e-10 3.007377e-09 3.252401e-10 3.652612e-11
-7.455614e-09 3.405498e-09 1.059014e-09 -1.577193e-09 -7.792292e-10 -4.578853e-10
1.328785e-08 -7.437524e-09 -1.198708e-09 2.561016e-10 2.694248e-10 -1.398255e-10
9.303790e-09 -5.454199e-09 -1.347254e-09 -4.998379e-11 -4.195638e-11 -1.326050e-12
-7.174439e-09 4.597582e-09 8.685745e-10 -1.110028e-09 -9.767245e-11 -3.204386e-10
1.186305e-08 -6.249658e-09 -1.208851e-09 1.569653e-09 -3.300488e-11 -7.069334e-11
1.289361e-08 -6.900683e-09 -1.287777e-09 5.999801e-10 4.672209e-11 -1.651945e-11
1.374592e-08 -6.843882e-09 -7.213289e-10 2.579030e-09 4.981501e-11 -1.363618e-10
4.444594e-09 -1.798445e-09 -8.355059e-10 -1.520427e-09 4.101519e-11 -1.118394e-11
1.187164e-08 -6.217967e-09 -1.224376e-09 1.516790e-09 5.012307e-11 2.317715e-10
1.147157e-08 -3.201218e-08 -2.172942e-09 -4.152723e-09 -1.516275e-09 1.991185e-10
2.340617e-08 -4.488015e-08 -7.235906e-09 7.379197e-10 -1.350124e-09 1.021134e-10
4.209388e-09 -2.492090e-08 4.651711e-09 6.366407e-10 -4.451985e-10 3.872996e-10
-9.096539e-09 1.424853e-09 8.007230e-10 -1.287015e-10 -3.533840e-10 3.383396e-10
-9.420046e-09 3.370059e-09 -6.488102e-09 5.219773e-09 -3.016856e-09 3.660789e-09
7.777423e-09 -2.631763e-08 -5.888086e-09 -4.785717e-09 -4.961380e-10 -1.401927e-09
2.172215e-08 -4.416322e-08 -5.955705e-09 -1.170539e-08 -1.509747e-08 -2.029320e-09
8.620113e-09 -2.637777e-08 -4.665277e-09 -9.309148e-09 -3.606170e-09 -7.261150e-10
7.664649e-09 -2.702773e-08 -3.124582e-09 -1.022093e-09 -6.550833e-10 -1.541027e-10
-9.083648e-09 5.122534e-10 2.007206e-09 -4.080269e-11 -4.249952e-10 -1.091001e-10
1.902862e-08 -3.745578e-08 -1.528775e-08 -5.872556e-09 -2.724890e-09 -8.602135e-10
1.733484e-08 -3.791558e-08 -5.261561e-09 -1.556166e-09 3.562421e-10 3.383487e-10
1.163350e-08 -3.074770e-08 -5.363162e-09 -6.042040e-09 -2.030002e-09 -4.635040e-10
1.560928e-08 -4.219490e-08 1.279328e-10 6.017555e-09 -4.853535e-09 1.802630e-09
1.560510e-08 -3.521988e-08 -5.590878e-09 -3.551734e-09 -5.746778e-10 -4.171952e-10
-8.601697e-09 4.069348e-08 -3.498341e-08 6.608247e-09 -5.280614e-09 -1.080717e-08
5.452988e-09 -2.252958e-09 -6.532614e-10 4.584180e-09 2.822171e-10 3.280558e-10
-7.062742e-10 9.622981e-09 -5.120671e-09 -1.926396e-09 -6.209146e-09 -9.246201e-10
9.353807e-09 2.264905e-08 4.048718e-09 3.290335e-08 5.712741e-11 5.882319e-09
4.922235e-09 -1.372502e-09 1.081717e-10 6.750399e-09 -4.651081e-11 -1.173846e-09
5.017367e-09 3.752749e-08 -1.067476e-08 3.362272e-08 3.969931e-09 -1.581290e-09
9.773809e-09 -3.208677e-08 5.983362e-09 -9.655402e-11 -4.625999e-10 -1.569760e-10
-8.201656e-09 4.472691e-08 -3.181426e-08 1.385144e-08 -1.502781e-09 -4.615261e-09
-4.507380e-09 4.469618e-08 -2.806735e-08 1.422467e-08 -3.711622e-09 -8.242563e-09
-4.828180e-09 2.799105e-08 -1.525609e-08 1.913010e-08 -1.881732e-09 -4.184672e-09
8.893632e-09 -3.572935e-08 5.951448e-09 4.828679e-09 -9.300135e-11 2.399517e-10
4.805858e-09 -2.867612e-08 7.192009e-09 8.169705e-10 3.277691e-10 4.617468e-10
9.063813e-09 -3.577160e-08 5.545192e-09 4.833473e-09 2.459531e-10 -4.269150e-10
2.021394e-08 -3.948335e-08 -2.270644e-09 -2.220578e-09 3.047218e-09 2.329211e-10
-9.179333e-09 4.015588e-09 5.618310e-10 -4.087429e-09 2.722044e-11 -6.179807e-10
8.108009e-09 -3.331706e-08 7.106220e-09 2.139973e-09 -5.587974e-10 1.116820e-10
-9.135235e-09 4.844274e-09 -8.155046e-10 -2.993363e-09 -9.056307e-10 2.815617e-10
6.828676e-09 -3.222838e-08 5.964444e-09 6.953438e-09 4.170453e-10 3.943573e-10
4.907904e-09 -3.041602e-08 6.052187e-09 6.863870e-09 -6.819975e-10 -4.452695e-10
8.863963e-09 -3.556950e-08 6.649910e-09 3.726392e-09 -4.942979e-10 4.556060e-10
-1.127423e-09 2.790108e-09 2.473391e-09 9.442498e-09 -9.356295e-10 -2.925489e-09
8.930211e-09 -3.439081e-08 7.128732e-09 2.825289e-09 2.992729e-10 2.547997e-10
8.263354e-09 -3.567332e-09 -1.190307e-09 -2.926168e-09 3.055711e-11 1.408629e-11
3.884955e-08 -2.771163e-08 5.155930e-08 -1.909141e-08 -1.638192e-11 1.302362e-08
-1.791186e-08 6.830135e-09 1.289182e-09 7.390366e-09 3.682010e-09 -1.653014e-09
-1.105092e-08 2.466867e-08 -3.181159e-08 -2.194518e-08 4.794883e-09 3.775498e-09
6.143415e-09 -3.615221e-09 -1.187892e-09 -2.579907e-09 3.422640e-11 -4.460510e-11
4.055751e-09 -2.051359e-09 -8.234726e-10 -3.081455e-09 -8.464962e-11 -6.007794e-11
1.334413e-08 -5.122036e-09 1.421979e-08 1.340700e-08 -2.892534e-10 -4.212967e-09
6.518176e-09 -2.328969e-09 -1.021168e-09 -5.526977e-09 1.808889e-10 -3.065264e-10
2.070513e-08 -9.102945e-09 7.213824e-09 -9.012020e-09 5.826110e-11 -1.743335e-09
7.748241e-09 -3.432416e-09 -1.195231e-09 -3.914048e-09 -1.127098e-11 -2.949925e-10
5.082815e-09 -2.030447e-09 -8.684995e-10 -3.269250e-09 -2.161933e-10 4.449845e-10
-5.660498e-09 1.747459e-08 -4.813568e-08 3.558290e-08 2.284280e-08 -2.158371e-08
-3.598927e-09 4.784594e-09 -3.030036e-08 2.840845e-08 5.819532e-09 -6.780963e-09
6.087450e-09 -2.465651e-08 -1.065304e-09 2.647165e-09 1.160140e-09 -3.382894e-10
2.105176e-08 -3.935837e-08 -1.370963e-08 1.183974e-08 -1.697521e-08 4.573660e-09
-9.537426e-09 4.033380e-09 -2.734488e-10 -1.930644e-09 -5.021903e-10 3.263050e-10
6.911214e-09 -1.888587e-09 5.323182e-10 -1.173376e-08 5.250781e-11 -1.555376e-09
4.178074e-09 -6.358079e-09 -3.263754e-08 3.353310e-08 1.617609e-08 -1.059470e-08
4.897872e-09 -2.881767e-08 3.813760e-09 -2.910405e-09 -2.176653e-10 1.758404e-10
-2.274797e-08 5.442505e-08 4.180656e-08 -3.948392e-08 -1.800498e-08 1.353011e-08
-1.795137e-08 2.993375e-08 -3.538285e-08 2.243513e-08 1.579390e-08 -1.807151e-08
8.655631e-09 -5.162300e-09 -1.380925e-09 2.299755e-09 8.295736e-11 1.389666e-10
-5.553001e-09 2.716543e-08 -5.679102e-08 2.438044e-08 6.621670e-09 -4.713667e-09
5.587767e-09 -2.248670e-08 -2.492596e-09 -1.573816e-08 1.427544e-09 7.450129e-10
4.042773e-09 -1.379479e-09 -3.284892e-10 5.338289e-09 -4.648636e-11 -8.085501e-10
-2.949143e-09 1.345467e-09 -2.623053e-08 2.808036e-08 1.071549e-08 -3.828312e-09
-9.900956e-10 1.933474e-09 -1.567515e-10 -5.669273e-09 -5.294409e-11 -7.845946e-11
7.343783e-10 6.683489e-10 -3.557965e-10 -4.563091e-09 -2.186768e-10 3.594340e-10
-3.368115e-09 2.166414e-09 -1.402811e-11 -2.835669e-09 -4.224598e-11 -4.896670e-10
-2.772671e-09 2.201422e-09 1.021228e-11 -4.049400e-09 -2.634251e-10 -2.705169e-11
-7.212595e-09 4.046135e-09 9.759074e-10 1.077360e-11 -2.536693e-11 -2.336398e-11
-1.045384e-09 1.876108e-09 -2.404907e-10 -3.581970e-09 3.453322e-11 -7.834400e-11
-2.136616e-09 -1.477491e-08 3.614136e-09 -7.287309e-09 6.782575e-11 -2.245659e-10
-1.254771e-09 1.524034e-09 -2.922436e-10 -3.927683e-09 -4.112570e-10 -4.440925e-11
-5.733768e-09 -3.858802e-09 3.001148e-09 -2.582942e-10 3.179906e-11 -5.093361e-10
1.662840e-08 -9.655293e-09 1.501754e-09 -5.259681e-09 2.748200e-10 -4.600633e-10
-5.700663e-09 -4.419514e-09 3.191371e-09 -6.839902e-10 7.844598e-10 -5.796736e-10
-6.718095e-09 -2.105818e-09 2.602428e-09 -4.455809e-10 2.781801e-10 -5.701994e-10
-5.759722e-09 -3.438869e-09 2.954732e-09 1.885914e-10 -1.095419e-10 -4.671970e-10
-3.633442e-09 2.547621e-09 2.402709e-10 -1.097329e-09 -9.558221e-11 5.652945e-11
-6.251216e-09 -2.271844e-09 2.813786e-09 -8.901617e-10 7.584328e-11 -8.478520e-10
-6.680416e-09 -1.518756e-09 2.646176e-09 -2.710758e-10 -2.305973e-10 -5.761061e-10
-2.293409e-09 5.348814e-09 1.791176e-09 9.634386e-09 -2.002414e-10 -1.087641e-10
-4.843127e-09 7.526438e-09 1.010924e-09 8.122903e-09 5.546546e-10 -1.364947e-10
-4.237322e-09 7.482904e-09 1.298321e-09 8.364740e-09 4.842551e-10 -6.297918e-10
1.089189e-08 -3.412880e-08 6.476096e-09 -1.806157e-10 8.881139e-16 1.785663e-10
-4.759996e-09 -1.447476e-08 -3.305327e-09 2.189071e-08 1.302501e-09 -3.351026e-10
1.808120e-09 -1.073054e-08 -1.701567e-08 2.579279e-08 3.529540e-09 -2.668984e-09
-7.203828e-10 -1.447734e-08 -7.800428e-09 2.176108e-08 1.454696e-09 4.327647e-10
-1.114322e-09 -1.366987e-08 -8.470479e-09 2.374751e-08 5.146926e-09 -3.551443e-09
-6.788771e-09 2.755166e-09 1.215207e-09 8.059442e-10 1.294654e-10 -2.636260e-10
-6.678192e-09 2.589984e-09 1.398174e-09 4.933898e-10 1.321721e-11 4.779510e-11
-7.290072e-09 -2.535616e-10 2.411493e-09 -5.654597e-10 -8.809642e-11 -7.537082e-12
-4.628343e-09 2.626296e-09 5.003082e-10 6.191798e-10 1.572498e-10 -8.579970e-12
-3.955599e-09 2.428552e-09 5.404353e-10 8.271397e-10 1.961148e-10 -5.431766e-11
-6.850570e-09 2.134075e-09 1.459747e-09 5.064155e-10 2.144063e-10 -1.787177e-10
-5.110970e-09 2.953296e-09 5.851692e-10 1.022214e-09 2.779210e-10 -1.456447e-10
-3.080922e-09 2.089318e-09 4.654637e-10 6.899965e-10 1.092443e-11 -3.367619e-11
2.918465e-09 -1.942836e-08 4.330754e-09 -2.583354e-09 1.233684e-09 -1.140853e-09
-4.242576e-09 2.578831e-09 4.904086e-10 5.857430e-10 -1.475486e-11 4.467493e-11
1.608274e-09 -1.761475e-08 3.689328e-09 -8.668722e-09 9.054468e-11 1.984388e-10
6.922602e-09 -3.328206e-08 6.761133e-09 6.326779e-09 3.669231e-10 -2.460799e-10
-4.034853e-10 -2.055597e-08 -4.436675e-09 2.043516e-08 1.767800e-09 -9.302310e-10
-4.407484e-09 2.764775e-09 6.046406e-10 6.812886e-10 1.334083e-10 9.218626e-11
3.168953e-09 -2.110108e-08 1.543516e-09 -1.147532e-08 5.713732e-10 6.884789e-10
-3.046208e-09 2.094876e-09 3.434257e-10 7.083192e-10 8.039891e-11 3.548843e-10
-7.092568e-09 7.488676e-10 1.950113e-09 -2.926850e-10 2.339098e-10 -5.262002e-10
-2.131780e-09 -3.232195e-09 -6.033051e-09 -1.831122e-08 -5.700262e-11 6.461179e-10
-1.769263e-08 3.881573e-08 -4.918966e-08 -2.800569e-08 1.762578e-08 1.887707e-08
-2.859700e-09 2.067178e-09 3.721348e-10 7.480274e-10 1.152802e-10 1.719127e-10
-5.592680e-09 7.980282e-09 -1.802723e-08 8.750132e-09 -8.712196e-09 8.849156e-09
4.973222e-09 2.951826e-08 -6.568217e-08 1.278113e-09 -2.457546e-08 1.647941e-08
1.455631e-08 -3.959020e-08 2.628312e-09 -2.838920e-09 1.157063e-09 4.042097e-10
-1.427980e-08 -1.056465e-09 2.726471e-09 -3.224209e-09 -2.263901e-09 -3.024119e-10
1.443207e-09 1.628254e-08 -4.260395e-08 7.694858e-09 -4.366452e-09 6.822979e-09
-3.628281e-09 2.828196e-08 -2.991374e-08 -4.828957e-09 -4.767477e-09 6.392204e-09
-8.388946e-09 2.545844e-09 1.595939e-09 -1.698931e-09 -8.438310e-10 -7.724732e-10
-2.942504e-09 3.454836e-08 -5.343838e-08 -5.675443e-09 -9.126813e-09 5.509456e-09
-7.472810e-09 4.616368e-09 9.491747e-10 -9.722840e-10 -2.410614e-10 -6.290785e-10
4.185917e-10 1.531008e-08 -4.339337e-08 1.010293e-08 -1.568295e-08 9.185859e-09
-6.009305e-09 2.433188e-08 -2.838794e-08 -1.666161e-09 -8.777599e-09 1.115383e-08
-6.964450e-09 2.712234e-09 1.478260e-09 8.001031e-10 6.873435e-11 -1.835376e-10
2.014840e-08 4.992747e-09 -5.763722e-08 -1.439932e-08 -1.154350e-08 -7.399678e-10
-7.695007e-09 -5.227974e-09 5.733090e-10 -7.123973e-09 -4.563063e-09 -1.150022e-09
1.715084e-09 -1.546031e-10 -2.985936e-10 7.560989e-10 1.577333e-10 3.348588e-11
-6.439873e-09 3.769784e-09 8.934222e-10 2.770901e-10 -5.756285e-12 -6.750356e-11
1.508305e-08 -7.168284e-09 -4.204223e-08 -1.575200e-08 -2.102788e-08 -4.799843e-09
1.458369e-08 1.257401e-08 -5.237694e-08 -8.942528e-09 -1.848739e-08 -5.783610e-09
9.945841e-09 -4.798293e-09 -3.679751e-08 -1.677069e-08 -9.875760e-09 -1.528136e-09
7.409886e-09 -3.327485e-09 -3.190572e-08 -1.814052e-08 -1.593756e-08 -6.454361e-09
9.806208e-09 -5.703197e-09 -1.305230e-09 -1.986262e-11 -6.489281e-12 3.802547e-11
2.725423e-09 2.523561e-08 -5.202155e-08 -2.051011e-08 -1.383089e-08 -5.756914e-09
-1.691842e-09 1.191845e-09 1.300786e-10 1.781784e-09 3.778564e-10 -1.517162e-10
3.646363e-09 4.601450e-09 -2.815432e-08 -2.029802e-08 -1.469184e-08 -9.217791e-09
-1.360157e-08 4.288450e-08 6.611385e-08 4.121765e-08 7.817033e-09 3.089993e-08
1.540864e-08 -4.623624e-08 1.302027e-07 -2.023803e-08 -6.989614e-09 2.222419e-08
4.737854e-08 -2.976332e-08 1.658048e-08 -2.955408e-09 1.247634e-09 1.914604e-09
2.317239e-08 -5.180857e-09 1.241806e-08 -3.283053e-08 6.721441e-11 7.115360e-09
1.305337e-08 1.872907e-08 1.441946e-08 -3.724860e-08 -6.216703e-09 5.327169e-09
2.169163e-09 -3.008528e-08 1.409500e-07 4.765830e-08 6.474954e-08 2.387050e-08
2.393910e-09 1.692769e-08 6.248274e-08 -4.810800e-08 -1.599008e-08 1.283535e-08
5.603462e-08 -4.623215e-08 9.503813e-08 -1.711780e-08 -6.617689e-09 6.154045e-08
-6.568129e-09 -1.512182e-08 6.953440e-09 3.025877e-09 9.724527e-12 -4.748735e-11
1.970640e-08 -2.681893e-08 -3.259432e-08 2.878656e-08 2.095792e-08 -6.882335e-09
1.688530e-08 -7.235125e-09 6.660583e-10 -5.392014e-09 -2.178826e-10 8.693047e-12
4.017191e-08 -4.602637e-08 7.174077e-08 -1.429802e-08 -2.212752e-09 1.905729e-08
3.990501e-08 -2.742936e-08 3.269008e-08 -1.833882e-08 -1.214804e-09 5.054628e-09
8.825788e-09 -4.774206e-09 -1.161349e-09 -8.980046e-10 -3.236212e-10 -2.752609e-11
1.313937e-08 -3.061483e-09 3.298163e-09 -1.381779e-08 -5.640089e-10 -1.117133e-09
-2.890419e-09 2.154070e-09 5.349339e-10 3.457197e-09 1.491848e-10 2.486451e-10
3.097495e-08 -4.619085e-08 1.026422e-07 -1.270507e-08 -2.258371e-09 5.620787e-09
-4.317192e-09 -1.380974e-08 2.474462e-09 -2.186834e-09 6.330614e-10 -5.253460e-10
-8.546101e-09 -2.505592e-09 7.401395e-10 1.664044e-09 -1.883549e-09 1.797548e-10
-8.178093e-09 2.063931e-10 -9.542576e-10 8.267878e-10 -2.104410e-10 -1.720515e-10
-8.412892e-09 -1.349036e-10 -1.063991e-09 1.156129e-09 -2.482943e-09 9.042106e-10
2.514188e-08 -3.174594e-08 -3.151811e-08 -1.744467e-08 1.731840e-08 4.381798e-09
-1.615255e-08 2.420058e-09 2.550266e-09 -2.605747e-10 -9.197728e-10 -2.173135e-10
-1.656186e-09 1.004396e-09 1.594120e-10 2.444199e-09 -2.120721e-10 -2.808058e-10
-9.818182e-09 6.133822e-10 5.591283e-10 1.186970e-09 -9.838491e-10 7.963010e-10
2.159751e-08 -4.618061e-08 -2.183106e-09 4.412085e-10 -1.401526e-09 3.502295e-10
-8.625963e-09 -8.480612e-10 5.007217e-10 1.817705e-09 7.255352e-11 4.222112e-10
-8.007058e-09 8.226127e-09 -4.014677e-09 -7.803932e-09 -1.108964e-09 1.176739e-09
1.664914e-08 -7.289256e-09 -5.453429e-10 -3.715328e-09 -1.782963e-10 -6.118746e-10
-5.540640e-09 5.682369e-09 -1.742966e-09 -8.411451e-09 -7.173706e-10 2.384461e-10
-9.641541e-09 9.687877e-10 -1.545467e-09 1.873579e-09 -5.901220e-10 5.120348e-10
-7.484349e-09 4.927495e-09 -3.507106e-10 -4.525675e-09 -3.677934e-10 9.801619e-10
-8.073822e-09 4.573687e-09 -4.300897e-10 -3.697985e-09 -9.663236e-10 4.027398e-10
1.474591e-08 -3.883759e-08 5.155250e-09 -9.514295e-10 1.010602e-09 -1.748707e-10
-7.877367e-09 5.620464e-09 -1.368297e-09 -5.477227e-09 -1.100266e-10 -7.235517e-10
-8.079867e-09 7.746241e-09 -3.317698e-09 -6.029861e-09 -7.000838e-10 1.843608e-09
-1.028306e-08 -2.320333e-09 1.474790e-09 -9.942353e-09 4.149354e-10 1.519268e-12
-1.618197e-08 6.538083e-09 1.616494e-09 -3.747050e-09 -2.912328e-09 -2.789085e-10
-3.337427e-09 1.455887e-08 -3.790203e-08 4.803704e-09 -5.525094e-09 4.265629e-09
-1.673903e-08 6.931723e-09 -9.649921e-10 -1.094358e-09 -3.401440e-09 -2.745368e-10
-1.650915e-08 9.422884e-09 9.841914e-10 -5.060697e-09 -4.244051e-09 -1.780382e-09
1.331479e-08 -5.880459e-09 1.423081e-09 6.308652e-09 -1.954671e-11 -8.316001e-10
3.804052e-08 -1.658202e-09 -9.896535e-09 1.204814e-08 9.555302e-10 -9.078923e-10
3.880263e-08 -1.209535e-08 -2.742257e-09 -1.483658e-09 -3.451116e-10 8.892025e-16
4.783545e-08 -2.665590e-08 2.452536e-08 -1.536600e-08 -2.858765e-09 9.656080e-09
1.619471e-08 -4.049640e-08 -9.960482e-09 1.239920e-08 4.469371e-09 -4.858775e-10
-1.686090e-08 8.101506e-09 1.349869e-09 -1.885037e-09 -4.049151e-09 -6.254996e-11
2.672797e-08 -4.263285e-09 -4.484061e-09 -1.291792e-08 -1.382961e-09 2.035960e-09
-1.630301e-08 7.145244e-09 4.729410e-10 -1.978953e-09 -5.063702e-09 -4.985228e-10
1.142143e-08 1.125686e-08 -7.605178e-09 4.146133e-09 -4.294575e-09 -1.794196e-10
-2.782772e-09 1.556403e-08 -7.943627e-09 2.858809e-09 -4.858195e-09 -1.379885e-09
1.563787e-09 -1.929807e-08 4.906084e-09 -2.841649e-09 -3.460101e-10 -8.369283e-10
1.215691e-08 -3.523340e-08 6.669020e-09 5.435730e-11 4.093619e-10 -3.790454e-10
1.671279e-09 1.033865e-08 -7.859826e-09 -5.159334e-10 -4.810793e-09 -2.096768e-09
-6.291141e-10 -2.283059e-08 7.241238e-09 7.845838e-10 3.182743e-11 7.784885e-10
-4.809848e-09 -1.745212e-08 6.207440e-09 6.378534e-09 -2.820666e-10 6.625394e-10
-5.293978e-09 1.132846e-08 -5.050289e-09 1.402307e-09 -6.603294e-09 -1.214787e-09
-3.637202e-09 -1.922242e-08 6.255940e-09 6.829909e-09 9.846548e-10 3.939344e-10
-7.302471e-09 1.346029e-08 -4.881499e-09 -2.343233e-10 -5.914959e-09 -2.161022e-09
-8.382669e-09 6.902257e-10 1.793248e-09 -2.933417e-09 -2.907359e-10 -3.556305e-10
-8.477375e-09 -1.351221e-08 6.587335e-09 1.699322e-09 7.855337e-10 2.378073e-10
-8.270922e-09 -1.303106e-09 2.109995e-09 -4.081578e-09 3.878175e-11 -6.830454e-10
-8.270923e-09 1.067417e-09 1.693837e-09 -3.388415e-09 8.905645e-10 -5.137221e-11
-7.028640e-09 -1.012411e-09 2.436591e-09 -2.065080e-09 -2.277989e-10 -5.505423e-10
-7.796177e-09 2.519847e-09 1.592501e-09 -7.690811e-10 7.010379e-10 1.751065e-10
9.196122e-09 -5.184410e-09 -1.206350e-09 -6.739806e-10 -1.185972e-10 2.975377e-12
8.993665e-09 -5.142695e-09 -1.194396e-09 -5.091676e-10 -1.825241e-10 2.136913e-11
1.079440e-08 -5.903033e-09 -1.263242e-09 1.310443e-09 2.498048e-11 7.090329e-12
9.682019e-09 -5.334291e-09 -1.238382e-09 -1.359764e-09 -1.256473e-10 1.121454e-10
9.478374e-09 -5.184354e-09 -1.252286e-09 -2.723671e-10 -1.589684e-10 6.805906e-11
9.846870e-09 -5.462154e-09 -1.304113e-09 1.522588e-12 9.626733e-11 -3.148681e-11
9.816290e-09 -5.771793e-09 -1.331730e-09 -9.233787e-10 -1.053189e-10 1.296115e-10
-5.448033e-09 2.725852e-09 9.880861e-10 1.262836e-09 -1.221814e-10 1.104377e-10
7.453604e-09 -4.242641e-09 -1.052657e-09 -4.645989e-10 -7.785317e-11 6.278178e-11
7.769192e-09 -4.440048e-09 -1.094013e-09 -3.448185e-10 -1.864930e-10 2.133000e-10
8.408780e-09 -5.070264e-09 -1.215510e-09 -3.658774e-11 -9.798632e-11 5.507372e-12
-8.377697e-09 -2.661357e-09 2.273387e-09 2.156893e-10 -5.603316e-10 -9.836536e-10
-7.580637e-09 -3.443851e-09 3.113395e-09 -2.574567e-10 -1.241012e-10 -8.750424e-10
-8.314636e-09 -2.149687e-09 1.930781e-09 1.664927e-09 -1.118977e-09 -6.414563e-10
-1.702759e-08 3.356587e-09 2.595419e-09 -5.489826e-10 -5.975921e-10 5.907808e-11
-7.034422e-09 4.034048e-09 8.888204e-10 -1.691536e-11 1.106292e-10 -5.846212e-11
-6.667300e-09 -5.198531e-09 2.898514e-09 6.718450e-10 -9.435913e-10 -9.267349e-10
-7.198090e-09 -3.075268e-09 2.434554e-09 1.797633e-09 -1.173285e-09 -8.607812e-10
-6.763850e-09 3.445339e-09 9.091097e-10 6.824823e-10 2.257815e-10 -2.107536e-10
-5.136141e-09 2.856044e-09 6.890957e-10 8.981333e-10 3.100374e-10 -2.006043e-10
-8.728204e-09 -2.174929e-09 2.384064e-09 1.782398e-09 -1.197542e-09 -5.806044e-10
-4.404990e-09 2.495371e-09 7.316636e-10 2.089937e-09 -9.924861e-11 1.536193e-11
-7.207705e-09 -3.886762e-09 2.560443e-09 1.886266e-09 -1.599062e-09 -8.190457e-10
4.367631e-08 -1.549946e-08 4.616497e-09 1.542178e-08 1.559277e-09 6.615121e-10
-6.129261e-09 3.511047e-09 7.964323e-10 -2.676703e-11 -6.388845e-11 -4.440858e-16
-4.313171e-09 2.485762e-09 5.995657e-10 1.712544e-09 4.029684e-10 -1.501755e-10
4.335103e-08 -2.372021e-08 1.402353e-08 1.764619e-08 1.007411e-09 2.734524e-10
2.577471e-08 5.883596e-09 -4.233894e-09 1.908649e-08 2.161824e-09 3.222290e-09
1.718052e-08 3.101842e-09 1.648011e-08 4.128851e-08 1.064135e-08 8.280454e-09
5.182880e-09 -2.760776e-09 -7.405427e-10 3.398570e-11 -4.578426e-11 -1.783440e-11
-5.817389e-09 3.485450e-09 7.728096e-10 3.557727e-10 1.018763e-10 2.214955e-10
1.493416e-08 1.144709e-08 -3.203143e-09 3.008253e-08 2.571940e-09 -2.107596e-09
1.764408e-08 6.339146e-09 -2.768114e-09 2.368739e-08 -6.042190e-11 7.870787e-10
3.351721e-08 7.994706e-10 1.024030e-09 2.757443e-08 6.450383e-09 4.375496e-09
8.118037e-09 -5.021222e-09 -1.122582e-09 1.498271e-09 2.396317e-10 1.129266e-10
-8.793925e-09 2.467540e-09 1.225738e-09 -1.132161e-09 -1.092492e-09 -9.487874e-10
-7.277599e-09 4.313595e-09 8.446426e-10 -1.708838e-09 -1.648780e-10 -3.293392e-10
-9.379691e-09 -6.146257e-10 8.007230e-10 1.828584e-09 -1.960963e-10 3.264979e-10
-8.751897e-09 2.707800e-09 8.368111e-10 -5.296196e-10 -9.462775e-10 -6.867966e-11
3.541091e-08 -1.049332e-08 -2.316795e-09 1.148786e-08 2.060414e-09 3.722833e-09
-9.255394e-09 3.497908e-09 1.593218e-09 -8.296084e-10 -2.131742e-10 -4.078826e-10
3.218376e-08 1.843740e-09 -3.457847e-09 1.872835e-08 2.396942e-09 9.878091e-10
1.201284e-08 -4.588560e-09 1.966196e-10 -8.741634e-09 -1.569726e-10 -7.997165e-10
1.354695e-08 -5.466419e-09 -4.176073e-10 -7.056677e-09 -2.047218e-10 -5.745393e-10
-6.472202e-09 4.534851e-09 6.513026e-10 -1.023674e-09 -2.012870e-10 -1.738436e-10
6.249235e-09 4.323453e-11 -1.021405e-09 -1.085595e-08 -5.254833e-10 -4.964276e-11
9.316487e-09 -1.720532e-09 -1.325629e-09 -1.173040e-08 4.659071e-11 8.284742e-10
1.336762e-08 -7.301902e-09 -4.360909e-10 -6.471492e-09 -2.052664e-11 -6.331989e-10
1.766149e-08 -7.281212e-09 1.508722e-09 -6.862219e-09 3.688271e-11 -2.707969e-10
1.532518e-08 -6.402080e-09 1.311184e-09 -9.195177e-09 2.348665e-10 -2.233084e-09
-2.337632e-10 1.239227e-09 -1.288267e-10 -3.613736e-09 -6.261236e-10 -2.293709e-10
1.241248e-08 2.824719e-08 -7.981510e-08 2.421624e-08 1.259151e-08 8.752277e-10
-6.744660e-09 4.647365e-08 -7.154497e-08 2.082876e-08 7.881590e-09 -1.160152e-08
1.364086e-08 5.890785e-08 -1.100251e-07 1.786873e-08 1.736713e-08 -1.839250e-08
-4.121596e-09 3.089275e-09 1.226459e-10 -1.872814e-09 -4.318574e-10 -1.920343e-10
-8.751903e-09 1.226660e-09 1.769490e-09 -5.316095e-10 -1.295876e-09 -4.606690e-10
-1.023456e-08 1.089218e-08 -3.445846e-09 -1.971143e-09 -6.908569e-09 -9.531454e-10
-1.544457e-08 1.668454e-08 -1.095015e-08 -6.806745e-09 -1.235324e-08 -1.208709e-08
-4.845258e-09 6.921678e-08 -1.023298e-07 2.595168e-08 3.846709e-08 -3.908093e-08
-5.108508e-09 6.902702e-08 -7.701674e-08 1.330657e-08 2.785923e-08 -2.426413e-08
-1.626083e-08 3.048743e-09 2.645641e-09 -4.438941e-16 -3.427951e-10 -2.845989e-10
5.441629e-08 -1.767500e-08 2.578109e-09 -1.341633e-08 -2.240440e-09 1.272393e-08
5.432497e-08 -1.771868e-08 7.869155e-09 -1.268433e-08 3.141156e-10 1.331297e-08
5.846189e-09 -2.872265e-08 6.804900e-09 6.332420e-09 9.514103e-10 1.858773e-10
4.234521e-08 -4.422778e-09 -3.322592e-09 -1.703841e-08 4.108968e-10 6.858003e-09
2.541348e-08 3.173550e-10 1.592289e-09 -1.991950e-08 -2.095349e-09 9.597085e-10
1.761943e-08 5.766978e-10 5.378231e-10 -1.923569e-08 -6.548924e-10 -1.663435e-09
1.501243e-08 1.313966e-09 -9.172039e-10 -1.629675e-08 -4.533043e-10 4.886766e-09
1.437946e-08 -3.885223e-08 5.845362e-09 -2.494923e-09 2.295067e-09 -4.951375e-10
4.108971e-08 -1.104624e-08 7.405621e-10 -1.413220e-08 -4.391463e-10 6.944490e-09
-6.622878e-09 -2.358700e-09 -1.234614e-08 2.228638e-08 5.882014e-09 -3.569530e-09
1.037531e-08 -3.603011e-08 4.816689e-09 8.622609e-09 1.751798e-09 -2.359719e-10
-1.063450e-08 -2.355566e-09 -7.623841e-09 2.227779e-08 6.005204e-09 -4.601082e-09
-6.926589e-09 4.539691e-09 7.420495e-10 -1.037217e-09 -2.526408e-10 -3.610033e-10
3.387181e-09 5.215944e-10 -8.987278e-10 -8.308711e-09 1.156808e-10 -3.807643e-10
5.022795e-09 -2.809821e-09 -8.473293e-10 -6.865437e-10 -3.975180e-10 2.512404e-10
6.017902e-09 -1.115574e-09 -9.504637e-10 -9.302105e-09 1.558234e-10 -3.907863e-10
-4.825777e-09 -1.403554e-08 -5.548830e-09 2.183439e-08 4.432381e-09 -2.075159e-09
-1.143084e-08 -2.021282e-09 -3.274637e-09 1.665556e-08 2.698723e-09 -4.530885e-11
-6.602246e-09 4.725004e-09 5.651231e-10 -5.332423e-10 -4.562905e-12 -4.049416e-11
-6.437929e-09 4.662325e-09 6.992984e-10 -7.801851e-10 -6.360172e-11 -3.417860e-11
-8.328645e-09 4.335818e-09 1.127485e-09 -1.212693e-09 -2.097620e-10 -7.095604e-10
-6.186307e-09 4.542525e-09 5.715242e-10 -4.534839e-10 2.654232e-11 5.356848e-11
-6.137114e-09 4.539671e-09 6.073191e-10 -5.321680e-10 5.440001e-11 -4.630963e-12
-7.727443e-09 5.029686e-09 8.870722e-10 -1.714144e-10 -2.237610e-11 -2.059687e-10
-6.178336e-09 4.247419e-09 6.097713e-10 -1.182364e-09 8.840378e-11 4.445067e-11
-6.827710e-09 4.017349e-09 8.580514e-10 -1.853103e-09 -4.564685e-10 -4.335886e-10
-4.473989e-09 3.681031e-09 5.417609e-10 -2.437468e-09 -3.723657e-10 -1.643974e-11
-2.435514e-09 1.861684e-09 3.276370e-10 9.871288e-10 2.280420e-10 -1.151700e-10
-2.838165e-09 1.878234e-09 3.243337e-10 7.808669e-10 2.449116e-10 2.404725e-10
-3.464904e-09 2.441956e-09 3.819476e-10 8.749819e-10 1.921022e-10 -3.911504e-11
2.248131e-09 -1.009428e-09 -6.099694e-10 -1.663138e-09 -2.726470e-10 -1.970630e-10
-2.094680e-09 1.309125e-09 2.056861e-10 5.655321e-11 1.530706e-10 1.399365e-10
-4.464009e-09 2.484863e-09 5.373368e-10 8.973340e-10 2.134539e-10 -1.036101e-10
-4.255396e-10 4.787166e-10 -3.331859e-10 -3.998426e-09 -2.318936e-10 -2.994927e-11
-3.418713e-09 -1.165689e-08 2.216257e-09 5.415233e-10 -1.636895e-10 -8.518837e-10
-3.312792e-09 2.041515e-09 5.019092e-10 8.559406e-10 5.350320e-11 -1.906697e-12
2.160662e-08 -4.836938e-08 -5.725923e-09 -1.533657e-08 -2.067229e-08 -2.045960e-09
3.093736e-08 1.524481e-09 -7.782996e-08 -4.609946e-09 -3.723125e-08 4.293809e-09
2.502066e-08 -5.737089e-08 -1.348281e-09 -4.695500e-09 -2.094996e-08 -1.545359e-09
1.522189e-08 -3.835549e-08 -1.851192e-09 -9.432069e-09 -8.037937e-09 -1.467965e-09
-1.244832e-08 -5.997103e-09 3.497238e-09 -6.676474e-09 -2.432996e-09 -4.878633e-10
-1.509525e-08 3.411234e-09 -7.227854e-10 -3.238319e-09 3.298501e-10 -1.854634e-10
1.780013e-08 -1.756333e-08 4.234336e-08 -5.435939e-09 6.605967e-09 -1.159406e-08
-2.880661e-09 -1.165689e-08 3.095034e-09 2.502698e-10 -3.200409e-10 1.110295e-10
-9.191051e-09 -2.814507e-09 1.750302e-09 3.419709e-09 -2.548374e-09 2.468366e-10
-1.165315e-08 -2.577014e-10 -2.919834e-09 -5.891334e-09 -2.080089e-09 -6.610741e-10
1.495909e-08 -4.309299e-08 2.468918e-09 4.057419e-10 -1.538305e-09 9.286604e-10
-1.447696e-08 -2.283507e-09 3.302317e-09 -2.363585e-09 -1.964641e-09 -1.760991e-10
-1.035129e-08 -6.533950e-09 8.628587e-10 -2.450085e-09 -9.134694e-12 1.453326e-10
-1.012466e-08 1.761287e-08 -9.549883e-09 -1.938844e-09 -8.058035e-09 -8.884221e-09
-1.363836e-08 -1.075857e-09 1.162856e-09 -8.619048e-10 -6.580629e-10 -2.673701e-10
-6.338963e-09 4.574415e-09 8.873906e-10 4.277621e-09 7.557423e-10 -4.300751e-10
-1.323125e-08 -2.631608e-09 9.666130e-10 -2.251234e-09 9.879875e-12 -5.711165e-11
-1.427002e-08 -1.394930e-09 2.082231e-09 9.977675e-09 4.623353e-09 -1.268547e-09
-1.712221e-08 6.390166e-09 6.852889e-10 2.426281e-09 3.104430e-09 -5.501735e-10
-1.666829e-08 1.204319e-08 -1.416733e-09 2.568163e-09 3.333278e-09 -3.988395e-10
-1.594675e-08 7.806184e-09 1.507905e-10 2.371192e-09 5.132220e-09 -5.579409e-10
-7.580862e-09 4.504676e-09 1.031029e-09 1.798245e-09 7.389076e-10 5.773313e-10
-8.270922e-09 2.895475e-09 1.523230e-09 -2.288733e-09 3.532781e-10 -8.407604e-10
-1.652141e-08 7.665070e-09 1.075978e-09 2.606411e-09 4.397994e-09 -3.763988e-10
9.510871e-09 -2.271192e-08 -8.680707e-09 -1.163226e-08 -3.304273e-09 -1.345690e-09
2.214243e-08 -3.613035e-08 -1.848066e-08 -7.567030e-09 -1.181306e-08 6.424283e-11
1.182031e-08 -3.182008e-08 -5.379247e-09 -6.198267e-09 -9.942287e-10 1.415725e-10
1.947697e-08 -3.522319e-08 -6.562502e-09 -4.708590e-09 -2.996750e-09 1.037798e-10
1.945047e-08 -3.756527e-08 -8.739222e-09 -5.125154e-09 -2.321256e-10 8.229202e-10
-3.752120e-09 2.136666e-09 4.096776e-10 1.282103e-09 3.425162e-10 -2.257600e-10
1.885975e-08 -2.856337e-08 -1.922059e-08 -1.055531e-08 -1.417431e-09 8.120662e-11
-7.121040e-09 -2.897726e-09 -3.287358e-09 6.076425e-09 -1.977823e-09 1.028207e-09
3.663800e-10 -1.262729e-08 -2.457031e-09 3.989265e-09 -3.387049e-09 1.034196e-09
1.178569e-09 -1.383626e-08 -1.216636e-08 2.435039e-08 4.657558e-09 -2.605757e-09
-1.269062e-08 2.241057e-08 -9.110382e-09 -9.271489e-09 9.651019e-10 -2.768083e-09
2.145252e-08 -4.590652e-08 -1.613474e-08 9.041090e-09 1.091270e-08 -1.200590e-09
-4.082238e-09 -6.305792e-09 -2.684433e-09 5.182672e-09 -2.290305e-09 6.844286e-10
-3.642464e-10 -1.017961e-08 -3.803231e-09 8.638339e-09 -3.272498e-09 6.891435e-10
-4.780907e-09 -7.336293e-09 -2.762795e-09 5.505104e-09 -2.064050e-09 9.130980e-10
-1.274962e-08 1.414569e-08 -6.592592e-09 -3.231682e-09 -7.185823e-09 -3.561743e-09
2.579034e-08 -3.116550e-09 -6.076797e-08 -1.783411e-08 2.652928e-08 1.087761e-08
1.994280e-08 1.330306e-08 -6.641951e-08 -1.904159e-08 1.210320e-08 4.476176e-09
-1.576722e-08 -3.005290e-10 2.747375e-09 2.614725e-09 1.511977e-09 -3.902714e-10
2.535675e-08 8.165400e-09 -8.043105e-08 -1.627922e-08 1.988359e-08 1.015181e-08
4.476356e-08 2.336076e-09 -9.628637e-08 -2.123110e-09 4.376204e-08 4.449389e-10
3.401478e-08 5.382179e-09 -8.925328e-08 -4.256621e-09 1.521161e-08 2.667336e-09
-7.437816e-10 -1.699119e-08 1.889361e-09 -8.904240e-10 -6.787384e-10 1.747131e-10
8.691804e-09 -4.658101e-09 -1.316447e-09 1.558063e-09 2.199474e-11 3.376249e-10
9.363850e-09 -5.582111e-09 -1.286116e-09 2.486586e-10 9.450990e-12 1.740915e-10
9.482239e-09 -5.677281e-09 -1.277154e-09 6.097713e-10 8.473938e-11 1.932327e-11
9.082958e-09 -5.096295e-09 -1.284008e-09 5.042576e-10 6.205568e-11 1.631618e-10
-3.585935e-09 2.147461e-09 5.255476e-10 2.992617e-09 3.752698e-11 -4.064649e-11
-1.683757e-09 -2.167284e-08 5.557829e-09 9.626781e-09 9.454779e-10 9.366440e-11
-2.055229e-09 1.308754e-09 3.497966e-10 2.786286e-09 2.152476e-10 1.079159e-10
-1.451800e-08 1.945026e-09 7.764296e-10 7.098627e-09 -3.862524e-10 -6.517289e-10
-2.084148e-09 2.139418e-09 4.678498e-10 4.016566e-09 -1.413136e-10 1.072114e-10
-3.876092e-09 2.186774e-09 6.538519e-10 2.867970e-09 1.211535e-10 -1.868986e-10
-1.353914e-08 2.425275e-08 -9.767162e-09 -1.004544e-10 7.139639e-09 -5.766891e-09
8.020680e-09 -2.616333e-08 -7.404397e-09 5.364639e-09 -9.381735e-10 6.932602e-10
4.789128e-09 -2.322528e-08 -1.828457e-10 4.585891e-10 -3.817870e-10 1.176675e-10
3.382699e-10 -1.639522e-08 -2.930869e-10 4.492663e-09 -2.027868e-09 5.302747e-10
3.032773e-10 -1.637218e-08 -2.753802e-09 6.362380e-09 9.023571e-10 -2.136056e-10
3.937977e-10 -1.495781e-08 -5.875913e-10 3.797419e-09 -1.589936e-09 8.055222e-11
1.920234e-08 5.659195e-08 -1.147271e-07 -3.198147e-08 3.168421e-08 2.655901e-08
3.916000e-09 3.258421e-08 1.570633e-09 -3.335623e-08 -7.320547e-09 2.741584e-09
8.093537e-09 -2.738029e-08 -2.933610e-09 4.799367e-09 4.392349e-10 -8.909874e-11
1.197325e-08 1.336926e-08 -6.243966e-09 -1.465434e-08 1.239299e-09 -5.001027e-10
-1.824111e-08 1.486278e-08 -8.198318e-09 1.166714e-08 9.323695e-09 -5.339034e-09
8.028588e-09 -2.786388e-08 -5.069438e-10 4.633507e-09 -1.753036e-09 5.004340e-10
2.154736e-09 -1.999244e-08 1.857181e-11 3.806912e-09 -3.081435e-10 5.333337e-10
2.842296e-09 -2.159132e-08 -2.837228e-10 2.877232e-09 -1.835252e-09 7.417063e-10
4.436430e-08 -1.638272e-08 -1.193357e-09 -1.013202e-09 6.275769e-10 2.984295e-10
2.493200e-08 -4.539997e-08 -1.251024e-08 2.405069e-09 -1.829779e-08 6.812241e-11
1.990656e-08 -3.533798e-08 -9.575110e-09 7.188477e-09 -3.817084e-09 1.498397e-09
1.914490e-08 -4.244964e-08 -4.489737e-09 3.139713e-09 -5.706436e-09 1.504069e-09
3.466011e-09 -2.259011e-08 1.399510e-09 -1.163230e-09 -1.106481e-09 -1.313937e-09
2.144737e-08 -4.570905e-08 -9.150511e-10 5.525848e-09 -8.251717e-09 2.386016e-09
2.298785e-08 -4.561217e-08 -5.357331e-09 -2.202651e-10 -6.956418e-10 1.674911e-10
2.291382e-08 -4.512397e-08 -7.569066e-09 8.085507e-10 -6.014048e-09 4.013944e-10
-1.476246e-08 1.155150e-08 -3.816062e-09 -2.973958e-09 1.743832e-10 2.512428e-10
3.693710e-08 -8.367178e-09 -7.089555e-09 5.283271e-09 -2.871304e-09 6.199043e-10
-8.393484e-09 1.955951e-08 -2.646442e-08 -9.547636e-09 -9.742207e-09 -3.735725e-09
1.990592e-08 -3.787486e-08 -1.580229e-08 7.680271e-09 -9.336569e-09 1.828474e-09
-4.008250e-09 3.138277e-09 2.132974e-10 -7.201080e-10 -9.437751e-11 2.441358e-11
-3.576151e-09 3.090310e-09 2.400609e-10 -5.075598e-10 -1.826477e-10 2.838489e-10
4.585666e-08 -1.260188e-08 -8.110226e-09 1.964028e-09 7.189097e-10 8.395486e-10
-1.262863e-08 -2.114919e-09 3.392953e-09 -1.028380e-09 -1.597471e-10 8.278477e-11
3.322732e-08 -4.606071e-09 -5.610969e-09 1.025171e-08 6.526381e-11 7.849350e-10
-8.661601e-09 -8.418167e-09 3.510172e-09 -1.942790e-09 1.978050e-11 1.632103e-10
-2.506388e-09 2.561574e-09 8.435741e-11 -5.502994e-10 -7.551071e-11 -2.933510e-10
4.480828e-08 -1.738198e-08 -3.960841e-09 3.435316e-09 -4.474398e-11 7.260243e-10
-4.814803e-09 3.689437e-09 3.812781e-10 -8.115286e-11 -1.983651e-10 6.152412e-12
-2.970652e-09 2.692286e-09 1.131566e-10 -8.799557e-10 -1.587219e-11 -4.182832e-11
-3.778260e-09 3.067363e-09 3.115335e-10 -7.029420e-10 -1.129764e-10 1.842998e-10
-5.048197e-09 3.490806e-09 4.568355e-10 -1.604041e-09 -1.386426e-10 -1.734684e-10
-1.016627e-08 1.462798e-08 -5.067980e-09 1.048717e-09 3.770069e-09 -2.802852e-09
-5.341072e-09 4.069475e-09 5.076379e-10 -7.798091e-10 -1.237808e-10 1.017633e-10
-2.191613e-09 2.669274e-09 -7.543433e-11 -1.761564e-09 -9.056289e-11 -1.370211e-10
-2.735656e-09 2.256346e-09 -8.027601e-11 -1.887542e-09 -2.586631e-11 -5.624079e-10
-3.429498e-09 3.186699e-09 2.160627e-10 -1.018494e-09 -1.662364e-10 -3.472600e-11
-1.466345e-08 1.041626e-08 -1.489882e-09 8.514475e-09 6.829521e-09 -2.462737e-09
2.546001e-08 4.396177e-10 3.519185e-10 -2.001902e-08 -1.053593e-09 -4.786346e-10
1.796628e-08 1.640118e-09 -5.857548e-09 1.024231e-09 3.492838e-09 9.967605e-11
-1.182036e-08 1.672405e-08 -5.571151e-09 4.744150e-10 3.989299e-09 -2.334178e-09
-2.638532e-09 2.179649e-09 1.096989e-10 -1.543454e-09 -1.736522e-10 -2.286971e-11
-7.105584e-09 1.686000e-09 1.835734e-09 1.505360e-10 2.075562e-10 1.372982e-10
-7.286935e-09 1.067590e-09 2.161104e-09 -3.339114e-10 1.104827e-11 -4.475109e-10
-7.241970e-09 -1.067198e-09 2.615140e-09 -1.401130e-09 -2.158980e-10 -2.281593e-10
-7.243915e-09 -1.051622e-09 2.327450e-09 -1.450518e-09 3.690186e-10 8.273981e-11
-7.212744e-09 9.559802e-10 2.050657e-09 -6.328440e-10 3.415899e-10 -9.196111e-11
2.438994e-09 -1.177527e-09 -6.971328e-10 -4.054458e-09 -2.568483e-10 3.237854e-11
-7.275421e-09 -2.313643e-10 2.292118e-09 -7.971550e-10 1.412677e-10 -3.319176e-10
-1.587099e-08 6.826733e-09 2.455294e-10 2.143005e-09 5.372465e-09 -3.612153e-10
-1.575249e-08 8.907417e-09 -1.373233e-08 2.262009e-08 7.824551e-09 -7.646092e-09
-8.799592e-09 4.221990e-09 3.865024e-10 -2.910942e-09 -3.359251e-10 1.219496e-10
-8.138696e-09 4.177773e-09 5.664171e-10 -2.773435e-09 -3.337854e-10 5.579608e-10
-7.403286e-09 4.469575e-09 2.878253e-10 -3.554221e-09 -5.013434e-10 4.905744e-10
-9.479342e-09 2.596987e-09 9.703138e-10 -8.500002e-10 -7.047329e-10 4.181517e-10
1.238851e-08 -3.901324e-08 2.713073e-09 6.711061e-09 6.565070e-10 -3.853039e-10
-7.525562e-10 9.634524e-10 -2.801701e-10 -2.717120e-09 -2.411571e-10 1.311675e-10
-7.499968e-09 4.070905e-09 3.481573e-10 -3.624314e-09 -3.535494e-10 1.576073e-10
-1.184997e-08 -7.858993e-09 4.012532e-09 1.608165e-08 3.473657e-09 -4.772240e-10
1.310496e-08 -3.875937e-08 7.085915e-09 1.543839e-09 1.891407e-10 1.856235e-11
-8.892397e-09 -9.404755e-09 -3.889610e-09 2.212859e-08 5.032156e-09 -2.023287e-09
-1.339796e-08 2.077175e-09 -4.401431e-09 1.668879e-08 1.746813e-09 -1.215943e-10
-1.471618e-08 9.201255e-09 -7.816962e-09 1.596448e-08 3.153337e-09 -2.995023e-09
-9.943645e-09 1.046216e-08 8.108412e-10 5.958371e-09 -5.593202e-10 -2.414473e-10
1.871944e-08 -4.019467e-08 -1.408976e-08 -1.064488e-08 1.041619e-08 8.697322e-10
1.361455e-08 -3.666614e-08 5.793362e-09 -4.461952e-09 1.244278e-09 -7.379690e-10
-9.615063e-09 3.276583e-09 -1.542881e-08 2.325073e-08 3.612809e-09 -3.945140e-09
-6.782982e-09 1.382796e-09 -1.894005e-08 2.762417e-08 1.135448e-08 -5.779071e-09
1.058059e-08 -3.227535e-08 5.002200e-09 -4.845041e-09 4.000507e-10 -6.990058e-10
5.895787e-09 -2.975339e-08 7.180401e-09 1.613767e-09 -3.210600e-10 1.436877e-10
1.066169e-08 -2.302002e-09 -5.140876e-08 2.929133e-08 2.722746e-08 -6.552814e-09
-3.527831e-09 1.943405e-09 -2.268450e-08 2.772048e-08 8.169439e-09 -4.704598e-09
9.007039e-09 -5.351734e-09 -1.147063e-09 2.856241e-10 5.833167e-11 1.511022e-10
-1.125808e-08 1.252258e-08 -1.950322e-08 2.108112e-08 9.238690e-09 -6.548864e-09
-1.452337e-08 1.834695e-08 -2.285370e-08 1.996985e-08 4.621269e-09 -6.086098e-09
-2.987205e-09 -1.342938e-08 -9.532760e-09 2.657601e-08 8.131945e-09 -3.141626e-09
-5.671739e-10 1.012292e-09 1.225349e-10 3.687375e-09 -8.819590e-11 -1.393183e-10
-1.156627e-08 8.916206e-09 -1.993616e-08 2.235698e-08 7.953172e-09 -6.033891e-09
-3.992816e-09 -3.050295e-09 -1.623082e-08 2.465773e-08 2.248787e-09 8.246912e-10
-7.984443e-09 -3.063673e-09 -9.930685e-09 2.361675e-08 3.148290e-09 -8.954539e-10
3.165529e-09 -1.182531e-09 -6.425445e-10 -6.843581e-10 -2.652528e-10 -5.657784e-10
5.559583e-09 -2.454162e-09 -8.116483e-10 -1.651128e-09 -1.404210e-11 -1.587560e-10
4.411040e-09 -1.918842e-09 -8.008785e-10 -2.336296e-10 -9.046386e-11 -3.349392e-10
4.004242e-09 -2.131236e-09 -6.762715e-10 1.165949e-09 4.332239e-10 -2.079970e-11
4.163627e-09 -2.075797e-09 -6.817187e-10 9.803950e-10 -8.862777e-11 2.341660e-11
3.675312e-09 -1.359996e-09 -8.167884e-10 -1.403808e-09 -1.030578e-10 5.932876e-11
3.199914e-09 -1.412436e-09 -6.931367e-10 -1.194272e-09 -3.273612e-10 2.110947e-10
1.524561e-08 -7.129161e-09 -3.985799e-08 -1.528330e-08 -7.144835e-09 -2.338260e-09
1.879179e-08 -2.618900e-08 -2.482537e-08 -1.030959e-08 -1.432826e-08 -3.801502e-10
2.014840e-08 -1.630535e-08 -3.490139e-08 -1.433363e-08 -5.660835e-09 -1.042717e-09
-2.215569e-09 1.559110e-09 -6.282175e-11 -2.661368e-09 -2.144226e-10 5.251288e-11
4.867999e-09 -2.413321e-09 -5.798189e-10 8.970279e-10 2.758549e-11 2.788539e-10
-4.177146e-09 2.614732e-09 6.403336e-10 4.257435e-10 3.014429e-10 -4.513530e-10
4.644823e-09 -2.312211e-09 -6.837477e-10 9.416721e-10 1.374967e-10 5.603291e-10
5.488695e-09 -2.581613e-09 -6.828245e-10 1.855129e-09 3.938161e-10 2.097459e-10
-3.388230e-09 2.223437e-09 4.365672e-10 4.171037e-10 1.710787e-10 -7.328360e-11
-7.440644e-09 4.178499e-09 9.805163e-10 -6.395639e-21 1.992595e-11 3.107170e-11
-6.696003e-09 2.853222e-09 1.277674e-09 1.167789e-09 1.680434e-10 -5.192025e-11
-7.095188e-09 3.556429e-09 1.108914e-09 2.872158e-10 1.216034e-10 -3.089883e-10
7.514383e-09 -3.955630e-09 -8.946994e-10 1.034350e-09 1.779035e-10 2.007840e-10
2.205853e-09 -4.361430e-10 -4.932690e-10 -1.245233e-09 -3.679974e-10 2.809430e-10
6.305809e-09 -4.029931e-09 -8.735493e-10 7.055558e-10 1.692971e-10 8.882739e-11
4.207223e-08 -3.035786e-08 -8.368608e-08 7.296936e-09 3.197198e-08 4.101625e-09
3.299759e-08 8.798480e-10 -7.966284e-08 2.419440e-08 3.410253e-08 -1.467642e-08
1.607468e-09 1.366125e-10 -1.883740e-10 3.133000e-09 3.948355e-10 -1.611822e-11
2.809589e-08 -1.261740e-08 -6.446281e-08 1.526323e-08 1.732851e-08 -1.464679e-09
7.628928e-09 -3.239892e-08 5.044017e-09 8.655161e-09 2.330936e-09 -4.179301e-10
-1.346138e-08 1.991434e-09 -6.129809e-09 1.688595e-08 2.721221e-09 -2.459709e-09
2.804929e-08 -2.743521e-08 -4.361232e-08 1.441353e-08 1.397531e-08 -1.442261e-09
2.888753e-08 -3.972903e-08 -4.503807e-08 9.276122e-09 1.396117e-08 -8.268339e-10
-1.692989e-08 5.761390e-09 -2.178155e-10 3.507477e-09 1.232713e-09 -2.100080e-10
2.898189e-08 -2.733676e-08 -3.994600e-08 1.482062e-08 1.403512e-08 -1.744490e-09
3.634956e-08 -1.544025e-08 -6.263969e-08 4.599226e-09 9.112591e-09 -5.105819e-10
1.759831e-08 -3.186829e-09 -6.862623e-08 3.448601e-08 2.107851e-08 -7.141997e-09
-1.749316e-08 2.140178e-08 -2.311364e-08 1.804550e-08 7.275975e-09 -7.612883e-09
2.201642e-08 9.156005e-08 -1.299114e-07 3.963330e-09 2.813856e-08 1.491347e-08
-1.243786e-08 2.791682e-08 -1.202642e-08 -3.982896e-09 7.040483e-09 -8.272220e-09
-5.428415e-09 2.990938e-09 6.408369e-10 -1.126210e-12 1.346236e-10 -1.118927e-11
-1.498044e-08 1.108533e-08 -1.737152e-09 4.866182e-09 4.188902e-09 -3.307209e-10
-3.650206e-08 5.448428e-08 2.720665e-08 -3.969238e-08 -1.927855e-08 -6.650357e-09
1.266592e-08 -2.308323e-09 5.066423e-09 -1.814453e-08 1.221332e-09 -2.591902e-09
3.545277e-08 -1.750583e-09 -5.106343e-09 -4.491433e-09 4.507421e-09 4.674571e-09
3.494508e-08 9.471338e-09 -1.288584e-09 -3.129569e-08 -5.434198e-09 7.798568e-09
-8.627010e-09 -1.080478e-08 4.192597e-10 1.541264e-08 1.100790e-09 -1.188924e-09
2.301436e-08 -1.399420e-08 2.271962e-08 -9.766676e-09 7.942335e-10 -7.140251e-09
2.179463e-08 -1.215378e-08 1.718675e-08 -1.027449e-08 7.982560e-10 -9.884335e-09
-8.817751e-09 -8.863052e-09 4.431547e-09 1.279773e-08 2.744250e-09 -7.714927e-10
-8.452919e-09 -1.572103e-08 4.442591e-09 1.324427e-08 2.968333e-09 -5.915833e-10
2.660111e-08 -1.062715e-08 5.008680e-08 -4.284444e-08 -1.304116e-08 2.363971e-08
1.715786e-08 -9.963578e-09 1.542784e-08 -1.739580e-08 1.991292e-09 -3.717537e-09
-1.515040e-08 8.710238e-09 1.435652e-10 3.308823e-09 4.865383e-09 -9.577400e-10
2.301991e-08 -3.669689e-09 7.253411e-09 -2.218152e-08 3.694134e-09 -1.001782e-08
-7.050161e-09 2.394184e-09 1.467004e-09 2.057812e-10 1.587264e-11 -1.983708e-10
-7.504066e-09 2.238144e-09 1.678080e-09 3.837371e-12 8.051893e-11 1.906897e-11
-7.593629e-09 1.593486e-09 1.992609e-09 4.332952e-10 2.357226e-11 -1.685849e-10
-7.467706e-09 1.774769e-09 1.833560e-09 4.734079e-11 1.916443e-10 -5.835177e-11
-5.352733e-09 3.172064e-09 6.788703e-10 -2.738965e-11 1.358416e-10 -2.404543e-11
-2.060276e-08 2.098292e-08 -7.144672e-09 7.890947e-09 6.137127e-09 -8.873915e-09
-2.000555e-08 1.410078e-08 -4.225958e-09 1.478756e-08 6.651679e-09 -6.551469e-09
-6.278116e-09 3.377988e-09 1.003671e-09 6.764971e-10 3.998779e-11 7.741529e-12
-1.664015e-08 5.796347e-09 -1.085700e-09 2.818598e-09 1.988721e-09 -2.678337e-10
-4.577826e-09 2.819554e-09 5.867467e-10 5.591518e-10 8.778089e-11 3.661493e-11
4.833650e-09 -2.006271e-09 -7.592225e-10 -1.474118e-09 -3.750052e-10 2.117058e-10
-7.563219e-09 5.132645e-09 8.552958e-10 -1.705009e-10 -4.308598e-11 -6.175238e-11
-7.505848e-09 7.325971e-10 2.001676e-09 -4.462154e-10 1.169136e-10 -8.911627e-11
-8.869294e-09 4.585534e-09 1.403806e-09 -5.319696e-10 -3.552336e-11 -1.540641e-10
-3.812926e-08 8.369443e-08 -1.652722e-09 8.359345e-10 1.526614e-08 1.850866e-08
-7.118329e-09 4.078117e-09 9.829941e-10 -1.882845e-09 -3.615432e-10 -3.956502e-10
7.481473e-09 -4.167799e-09 -1.033253e-09 -1.293916e-10 -3.188861e-10 6.779877e-11
-2.613079e-08 9.052190e-08 -5.149658e-08 -2.094675e-08 5.323984e-09 -5.766095e-09
-2.077981e-08 8.454233e-08 -2.432852e-08 1.022512e-08 2.031881e-08 6.840446e-09
-1.594348e-08 8.326473e-08 -5.827172e-08 5.808292e-09 -1.294027e-08 -8.374709e-09
1.593778e-09 8.954269e-08 -5.164280e-08 -8.452025e-09 -7.530808e-11 -1.133284e-08
-8.930750e-09 -1.569900e-10 2.160217e-09 6.992127e-10 -1.609020e-09 -8.320522e-10
-5.084968e-08 8.091810e-08 -1.376292e-08 8.495362e-09 5.975128e-09 -2.102289e-08
-5.191895e-09 8.154773e-08 -7.695679e-08 -3.695352e-09 -5.990913e-09 -3.169701e-09
9.302865e-09 -3.444915e-08 6.988224e-09 2.565495e-09 2.994329e-10 -3.194087e-10
-5.998485e-09 4.223562e-09 5.417611e-10 -1.670554e-09 -2.939745e-10 -2.899567e-10
4.083052e-09 -2.757844e-08 7.353314e-09 4.407739e-09 -4.446001e-10 2.533484e-10
1.414975e-08 -5.272873e-09 2.543081e-08 1.494950e-08 3.297705e-10 -8.820760e-09
-8.349151e-09 1.124104e-08 -6.525468e-09 -9.761380e-09 -1.198490e-10 6.789249e-10
3.032775e-10 -1.745565e-08 -1.568317e-09 6.116829e-09 9.519583e-10 -4.594606e-10
3.733532e-09 -3.045798e-08 7.756127e-09 6.361189e-09 -5.456686e-10 4.371438e-10
8.348816e-09 -3.322945e-08 7.462496e-09 8.078127e-10 6.022805e-12 2.655516e-10
-1.702759e-08 3.429601e-09 1.480111e-09 -4.405631e-10 -3.253107e-10 -1.222893e-10
6.036486e-09 -3.089026e-08 7.414096e-09 1.540566e-09 1.148226e-09 4.699974e-10
-9.472613e-09 1.680402e-09 9.855663e-10 4.964067e-12 -9.514922e-11 2.891762e-10
7.798176e-09 -3.264348e-08 7.144505e-09 4.834653e-10 2.170912e-10 9.728152e-11
1.930889e-08 -4.645320e-08 -3.373767e-09 -4.020983e-09 -6.513195e-09 -9.570104e-10
-8.775238e-09 9.686713e-09 -1.192078e-08 -6.861046e-09 -4.833941e-09 -2.021831e-09
-6.414919e-08 -2.400188e-08 2.488115e-07 -2.723898e-08 3.138090e-08 -2.509454e-08
6.622863e-09 -3.284181e-08 7.272864e-09 1.067082e-09 2.120562e-10 -1.518021e-10
1.153699e-08 -1.011202e-08 -3.224409e-08 1.412111e-08 -1.784708e-08 7.997883e-09
-2.254888e-09 -1.907368e-08 9.193113e-10 -1.267737e-08 -9.508782e-09 -2.355096e-09
-1.178938e-09 -1.551773e-08 7.419456e-10 -1.030009e-08 -6.554237e-09 -1.542305e-09
2.312733e-08 -5.357214e-08 1.987922e-09 4.754336e-09 -1.560050e-08 9.759072e-10
-9.354513e-09 -5.623845e-09 1.488261e-09 -3.226704e-09 -2.006844e-09 -2.931193e-10
2.159751e-08 -4.404696e-08 -4.702413e-09 2.264549e-10 -8.506913e-10 3.213820e-10
2.051199e-08 -4.034066e-08 -1.392655e-08 3.696530e-09 -3.160271e-09 8.979716e-10
9.432607e-10 -1.681094e-08 -4.555959e-09 1.095303e-08 -7.820331e-09 3.561790e-09
-8.084216e-09 -1.283061e-08 -3.057845e-10 -1.011525e-08 -4.883889e-09 -2.122681e-09
-8.472488e-09 -1.380302e-08 2.403817e-09 -1.038625e-08 -4.896299e-09 -1.862660e-09
5.904957e-09 -2.889000e-09 -1.046631e-09 -2.563336e-09 2.924300e-12 -2.470913e-12
-4.220357e-10 1.010728e-09 -2.479519e-10 -8.311707e-10 -1.702727e-11 3.656913e-10
-7.911278e-09 -4.280636e-09 2.028688e-10 -1.139335e-08 -6.980382e-09 -1.819192e-09
-1.975867e-09 2.410244e-09 -6.312950e-12 -7.436354e-10 -1.317345e-10 1.255329e-12
-8.186947e-09 -1.284601e-08 6.546799e-10 -1.614858e-08 -8.724741e-09 -4.045647e-09
-9.693158e-09 -4.953429e-09 9.338463e-10 -9.241231e-09 -6.540250e-09 -7.232788e-10
-2.396080e-09 -1.750358e-08 -7.489224e-09 -1.269329e-08 -1.241093e-08 -3.720971e-09
-7.259864e-10 4.201706e-10 -5.508882e-11 2.643715e-09 2.386582e-10 4.120371e-11
-3.901803e-10 7.270415e-10 -5.538059e-11 2.253802e-09 1.236899e-10 2.515235e-10
7.734648e-09 -4.194785e-09 -1.098668e-09 -1.930504e-09 1.480616e-10 -1.481748e-10
3.138718e-09 -9.988605e-10 -2.873222e-10 2.615073e-09 4.959788e-11 -2.021924e-11
1.409399e-08 -5.767736e-09 -7.311964e-10 -5.421875e-09 -1.155054e-10 -1.048166e-10
2.475901e-09 -8.249716e-10 -4.266618e-10 2.467533e-09 2.209264e-10 1.799942e-10
1.737981e-09 -7.862866e-10 -3.900718e-10 2.365678e-09 1.049021e-10 2.382247e-10
-1.657384e-08 6.153722e-08 -3.261443e-08 8.606252e-09 -2.229507e-08 -1.633311e-08
-6.301692e-09 4.574430e-08 -5.183128e-08 1.451683e-09 -7.374689e-09 -7.471068e-09
-7.121498e-09 4.744452e-09 7.879120e-10 -7.485128e-10 2.311240e-11 -5.002310e-11
-1.828751e-08 4.466286e-08 -3.496359e-08 6.997718e-09 -5.741207e-09 -1.028054e-08
-7.796665e-09 6.228651e-08 -4.827911e-08 1.716547e-09 -1.542909e-08 -1.397996e-08
-1.783513e-09 6.225410e-08 -3.566129e-08 1.959484e-08 -6.767320e-09 -1.081747e-08
1.321989e-08 -3.803960e-08 6.346117e-09 -2.612475e-09 1.376772e-09 -8.973249e-10
-2.419934e-09 1.117458e-09 9.994228e-11 4.885843e-10 1.070302e-10 -1.514663e-10
9.833503e-09 -3.317321e-08 5.340460e-09 -5.345360e-09 1.107684e-09 -6.547258e-10
-5.994327e-09 4.572250e-09 5.301444e-10 -6.545142e-11 -1.799019e-10 -3.475797e-11
1.186043e-08 -3.464192e-08 6.280619e-09 -2.079336e-09 1.084868e-09 -5.111183e-10
-7.340342e-09 5.155942e-09 7.335381e-10 4.440919e-16 -3.372669e-11 -3.936163e-11
1.021472e-08 -3.157280e-08 6.078520e-09 -4.416451e-09 6.906265e-10 -4.773318e-10
7.357992e-09 -2.844968e-08 5.670632e-09 -5.161513e-09 -9.560981e-11 -6.439284e-10
2.256416e-08 2.353819e-10 7.272649e-10 -2.238511e-08 -8.933837e-10 2.541975e-09
1.534643e-09 1.291733e-08 4.047025e-10 -2.888179e-08 -1.846576e-09 1.684871e-10
9.369245e-09 2.033409e-08 -6.173519e-10 -2.203407e-08 -3.667330e-09 3.778828e-09
-5.994323e-09 4.544063e-09 4.998342e-10 -1.334080e-10 5.795423e-14 -2.899769e-11
6.349771e-09 1.656724e-08 -5.806651e-09 -1.348536e-08 -1.816525e-09 3.463492e-09
1.915953e-08 3.572915e-09 1.003986e-09 -2.432543e-08 -2.923406e-09 5.805995e-09
-4.841784e-09 3.738128e-09 2.931664e-10 -1.794796e-10 -3.470230e-10 -1.755307e-11
6.498535e-11 1.636585e-08 -6.684807e-09 -1.229985e-08 6.905166e-10 2.293116e-09
7.608545e-09 -2.978360e-08 4.147004e-09 -7.606313e-09 1.367885e-09 2.960858e-10
-2.046056e-09 1.820806e-09 2.572518e-10 2.378282e-09 4.655587e-11 -7.805712e-11
5.933020e-09 -2.519074e-08 3.543471e-09 -8.435025e-09 -2.081135e-10 3.443791e-10
5.428291e-09 -2.380597e-08 3.416392e-09 -8.921097e-09 1.409790e-09 -6.041305e-10
3.641915e-09 -2.018968e-08 4.833986e-09 -7.096251e-09 -3.116609e-10 3.299087e-10
4.736908e-09 -2.564714e-08 4.918517e-09 -4.243416e-09 -1.083595e-09 2.561028e-11
7.470072e-09 -2.709654e-08 3.691639e-09 -7.459366e-09 -7.826490e-10 -4.310311e-10
1.120748e-08 -6.064971e-09 -1.369302e-09 -3.201721e-10 4.460191e-11 -1.026278e-10
1.014470e-08 -6.030517e-09 -1.380531e-09 -1.789499e-10 -1.593603e-11 5.965140e-11
1.083320e-08 -5.973809e-09 -1.353391e-09 8.553729e-10 -5.813641e-11 4.280243e-10
1.050283e-08 -6.202427e-09 -1.348271e-09 2.476013e-10 3.621480e-11 1.200089e-10
1.278592e-08 -3.654134e-08 6.862992e-09 -7.270310e-10 6.003496e-10 -3.328309e-10
9.575063e-09 -5.682917e-09 -1.196939e-09 2.742817e-11 3.835224e-11 4.026174e-11
6.316355e-09 -3.536148e-09 -8.085022e-10 8.678235e-10 3.862607e-10 1.347140e-10
6.424699e-09 -3.479071e-09 -9.515104e-10 1.025093e-10 1.885514e-10 3.800071e-12
5.180285e-09 -2.896342e-09 -6.888028e-10 1.478968e-10 4.151812e-10 2.547906e-11
1.209384e-08 -3.533420e-08 6.832015e-09 -6.884704e-10 4.816436e-10 -5.085811e-10
1.327600e-08 -3.787117e-08 5.744988e-09 -1.983249e-10 1.050348e-09 -3.646685e-10
1.059668e-08 -5.917590e-09 -1.341780e-09 4.537787e-11 -4.555056e-11 1.695406e-10
1.320170e-08 -3.821142e-08 6.640560e-09 -1.075164e-10 -1.256949e-11 -1.663579e-10
1.225254e-08 -3.567877e-08 6.700391e-09 -9.977757e-10 2.729450e-10 -4.372103e-10
7.581695e-09 -9.448417e-10 1.210808e-09 1.085326e-08 -4.408185e-10 -1.457678e-09
9.887788e-09 -5.599978e-09 -1.257107e-09 1.396322e-11 5.885731e-11 -1.240208e-11
6.461560e-09 -3.033914e-09 -1.040763e-09 -3.825613e-09 -4.727079e-10 2.260885e-10
7.224747e-09 -3.730354e-09 -9.358350e-10 -1.558619e-09 -3.793570e-10 4.025875e-10
-1.470308e-10 2.915133e-10 -2.898245e-10 -9.007967e-10 -1.534495e-10 -1.421983e-10
4.598016e-09 -1.938940e-09 -9.410743e-10 -4.111461e-09 -1.333105e-10 1.292302e-10
1.299420e-08 -3.771381e-08 6.636314e-09 -6.250819e-11 5.764516e-10 -3.149819e-10
2.100663e-09 -2.799219e-10 -3.690901e-10 -2.366276e-10 -5.120784e-10 2.407607e-11
1.303990e-08 -3.768882e-08 6.819730e-09 -3.572955e-10 3.444522e-10 -1.786062e-10
1.307160e-08 -3.811567e-08 7.084130e-09 -2.690874e-10 7.850105e-11 -1.288147e-10
-3.198055e-09 4.880819e-08 -4.653596e-08 -3.033560e-08 -1.398605e-08 1.426925e-08
3.730097e-09 -1.490054e-09 -6.718159e-10 -2.747947e-09 -3.772211e-10 -2.549039e-10
-2.942504e-09 3.712603e-08 -4.462117e-08 -1.208223e-08 1.404673e-10 2.227877e-09
-6.263388e-09 2.674366e-08 -1.930524e-08 -1.425295e-08 -3.578703e-09 8.883518e-09
-8.205519e-09 4.882722e-09 1.093611e-09 -3.661021e-10 -5.057910e-11 -2.514682e-10
-6.295757e-09 2.711475e-08 -3.066283e-08 -1.447291e-08 -1.435904e-09 5.648185e-09
2.100663e-09 -9.769350e-10 -5.371352e-10 -6.843059e-11 -1.158915e-10 -2.336931e-11
-5.255074e-09 4.044916e-09 3.865379e-10 -2.814429e-10 -1.897849e-10 1.568594e-10
-2.643852e-09 2.534378e-09 1.890483e-10 -3.069303e-09 -5.487613e-10 -2.669742e-10
-6.339001e-09 2.328090e-08 -9.729742e-09 -1.788152e-08 -5.687438e-10 5.297015e-09
-1.840026e-09 2.721661e-08 -1.589809e-08 -2.611825e-08 3.461366e-09 2.164807e-09
5.613191e-08 -2.669144e-08 2.591933e-08 1.412327e-09 8.446361e-11 6.274176e-09
-8.718922e-09 1.223404e-09 2.204970e-09 -5.874643e-10 -2.024400e-10 -1.100048e-09
1.174821e-08 -3.478352e-08 2.739475e-10 4.598904e-10 -1.453531e-09 1.007883e-09
1.035442e-08 -3.571792e-08 4.005380e-09 4.277458e-09 -1.548876e-09 -1.859226e-10
-9.245392e-09 1.084127e-09 1.964997e-09 5.815049e-10 -3.871854e-10 -7.682366e-11
-8.277380e-09 4.427189e-09 9.132373e-10 -1.391720e-09 -3.375793e-10 -8.022313e-10
4.549476e-08 -2.059439e-08 2.512472e-08 -1.583308e-08 -3.912166e-10 1.044721e-08
5.428006e-08 -2.442880e-08 1.007334e-08 -3.345987e-09 -4.384868e-10 5.434675e-09
4.415278e-08 -1.699056e-08 1.926922e-09 -1.030221e-08 -2.616889e-09 6.431972e-09
5.743424e-08 -2.408474e-08 1.170011e-08 3.036384e-09 2.289347e-09 1.423247e-08
1.355824e-08 -4.039802e-08 4.417634e-09 7.604307e-10 -1.796733e-09 -1.024326e-10
6.918543e-09 -3.110652e-08 3.178691e-09 3.446613e-09 -8.891312e-10 1.389152e-09
5.328531e-08 -2.862369e-08 2.046903e-08 -4.645127e-09 1.503160e-09 4.823373e-09
9.820670e-09 -3.012543e-08 -1.763396e-09 2.948888e-09 -1.918014e-09 8.718744e-10
-2.563644e-09 -1.456302e-08 3.801929e-09 1.408455e-09 1.475004e-10 -1.002355e-09
-9.361053e-09 2.277964e-09 2.250778e-09 -3.590550e-10 -1.785554e-10 -6.173226e-10
8.694364e-09 3.552094e-08 -6.105137e-08 -1.268571e-08 -1.351878e-08 -7.190715e-09
1.106955e-08 1.628187e-08 -5.753312e-08 -1.456329e-08 -1.346043e-08 -1.400946e-09
1.288929e-08 1.748163e-08 -6.330082e-08 -1.892398e-08 -2.602389e-08 -1.028869e-08
7.753485e-09 5.866042e-08 -8.448114e-08 -9.280795e-09 -1.628746e-08 -6.984038e-09
-4.734205e-09 -9.656873e-09 3.522836e-09 -2.438505e-10 -5.865823e-10 -6.579365e-10
-6.592129e-09 -4.916078e-09 1.939371e-09 -2.775287e-10 5.846124e-11 -3.973599e-11
1.471463e-08 1.868952e-08 -6.368236e-08 -1.743892e-08 -2.578989e-08 -1.001566e-08
1.627296e-08 2.903145e-08 -7.609180e-08 -1.435242e-08 -1.100124e-08 -2.857509e-09
-7.006674e-09 -4.211294e-09 2.394574e-09 2.708419e-09 -1.696933e-09 -6.458601e-10
-1.192645e-09 -1.603813e-08 3.107353e-09 3.634873e-09 -2.959055e-09 -7.423341e-10
1.122094e-08 -3.582535e-08 2.327249e-09 8.975464e-10 -1.383276e-09 -7.466865e-10
1.799203e-09 4.077277e-10 -1.090665e-10 5.014496e-09 3.158656e-10 5.902123e-10
-8.834974e-10 -1.778449e-08 2.607804e-09 8.225230e-10 -4.983094e-10 -6.017913e-10
-7.005789e-09 -6.117657e-09 2.287632e-09 3.793507e-09 -2.581210e-09 -2.480064e-10
2.153516e-09 6.321145e-10 -1.446718e-10 6.513477e-09 -1.471758e-10 -3.950138e-10
4.817176e-09 -1.378354e-09 -4.101492e-10 5.368606e-09 -3.668799e-11 -4.610374e-10
2.969047e-09 -5.849982e-10 -2.476330e-10 6.122933e-09 3.667642e-10 9.747847e-11
-9.023790e-09 4.112378e-09 1.175894e-09 -1.686931e-09 -5.533507e-11 7.879075e-11
4.295231e-10 3.858053e-10 -4.419531e-11 4.698125e-09 3.995782e-10 2.522289e-10
3.745665e-09 -1.202230e-09 -5.309557e-10 4.039580e-09 1.345301e-11 -3.888345e-10
3.024504e-09 -1.190211e-09 -4.404539e-10 3.986829e-09 2.707945e-10 3.122416e-10
4.432952e-09 -1.719530e-08 -8.596594e-09 9.303776e-09 -2.509577e-10 -2.251911e-11
-4.744976e-09 3.672490e-09 3.823248e-10 -1.299973e-10 -3.863532e-11 -2.095968e-11
4.348842e-09 -1.824707e-08 -1.098604e-08 9.624027e-09 -5.719832e-09 2.494536e-09
1.253091e-08 -2.544556e-08 -1.136076e-08 9.403948e-09 -3.119669e-10 6.515164e-10
7.269152e-09 5.821882e-09 1.230115e-08 -2.230955e-08 -1.382742e-09 -1.583447e-09
-8.614343e-09 2.738010e-09 1.647919e-09 -8.716778e-10 -5.794237e-10 -1.799358e-10
-8.693799e-09 4.623388e-09 1.248543e-09 -4.259966e-10 -5.224865e-11 -6.049738e-11
-7.385316e-09 5.120516e-09 7.665371e-10 -1.263312e-10 -1.750955e-11 -6.924933e-11
2.918010e-10 1.130637e-08 -2.118106e-09 -2.040887e-08 1.163690e-09 -7.855000e-10
-3.113577e-09 1.748710e-09 2.871650e-10 5.361630e-11 6.742012e-11 -3.993295e-11
-3.488946e-09 2.187972e-09 4.276317e-10 3.356142e-10 -2.571277e-12 -8.922862e-13
-4.350527e-09 3.466122e-09 3.108809e-10 -4.292735e-10 -1.691585e-10 -2.444201e-10
-7.398686e-09 5.120512e-09 8.071983e-10 -1.109184e-10 -1.237677e-11 -1.043476e-11
-1.999374e-09 1.938924e-08 -7.065230e-09 -2.436610e-08 3.371942e-09 -2.663621e-10
4.366631e-09 5.676988e-09 8.262044e-10 -2.059077e-08 -4.122190e-10 9.929104e-10
4.267175e-09 2.970802e-09 8.957048e-09 -2.230398e-08 1.684207e-09 -7.798754e-10
-4.984785e-09 1.334567e-08 -6.663023e-09 -1.813947e-08 -1.085909e-09 4.115199e-09
-3.993127e-09 2.154910e-08 -1.023344e-08 -1.898464e-08 -1.804857e-09 5.583970e-09
-1.090076e-08 2.518854e-08 -1.869813e-08 -1.114450e-08 -9.477449e-10 4.721346e-09
1.500164e-08 -3.576737e-08 -2.959123e-09 4.837503e-09 -1.855885e-09 8.453400e-10
-4.655851e-09 1.791262e-08 -9.943803e-09 -1.515479e-08 -1.275078e-09 2.854294e-09
-5.135709e-09 1.552525e-08 -5.163819e-09 -1.813775e-08 -2.431131e-10 2.860434e-09
1.694684e-08 -5.178208e-08 1.034662e-10 1.564587e-08 -1.737692e-08 5.938494e-09
-4.760559e-09 1.744584e-08 -8.975074e-09 -1.691169e-08 -1.537446e-09 4.562000e-09
-8.864554e-09 1.311768e-09 -2.646721e-09 2.400941e-09 -3.827902e-10 1.034635e-09
-8.862877e-09 -2.724780e-10 -2.283737e-09 2.464156e-09 -2.370854e-09 3.436555e-10
-3.713239e-09 -7.402146e-09 -5.671143e-09 6.893464e-09 -1.706292e-09 4.812974e-10
-7.735963e-09 -1.571115e-09 -2.354207e-09 4.473003e-09 -2.606819e-09 1.214243e-09
-6.781557e-09 -1.408157e-09 1.219826e-09 -6.912857e-09 1.399911e-09 2.611524e-10
2.202285e-08 -5.206043e-08 3.557411e-09 5.273103e-11 -2.360628e-09 9.611059e-10
-4.708334e-09 1.954727e-08 -2.333384e-08 -1.214575e-08 -8.687517e-09 -4.338711e-09
1.224318e-09 7.123629e-08 -7.068306e-08 -1.061086e-09 -1.590273e-08 -1.170792e-08
2.187355e-08 -4.859719e-08 9.712133e-10 3.125635e-09 -6.784337e-09 1.081346e-09
-8.034374e-09 -4.037215e-09 2.159928e-09 -7.493881e-09 1.234323e-10 -4.841540e-10
-8.153052e-09 -1.706680e-09 1.487564e-09 -6.444762e-09 -8.270717e-11 -1.853002e-10
-3.883243e-09 -6.699845e-09 -4.673417e-11 -1.145603e-08 1.417215e-09 4.354079e-10
2.118493e-08 -5.242766e-08 4.737660e-09 2.740677e-10 -2.596464e-09 2.944761e-10
2.428879e-08 -6.828245e-08 -1.009054e-11 4.520730e-09 -1.951753e-08 1.795873e-09
2.273664e-08 -5.192204e-08 1.316248e-09 1.729417e-10 -1.763096e-09 5.566194e-10
1.709998e-08 -3.948655e-08 -2.477659e-09 7.265701e-10 -1.247982e-09 8.011498e-10
-6.359402e-09 -2.711709e-09 -8.777361e-10 -1.057245e-08 1.815339e-10 -3.345371e-10
-7.969415e-09 -5.391575e-09 1.406327e-09 -1.091372e-08 9.878545e-10 6.526126e-10
-9.835335e-09 3.911073e-09 7.566703e-10 -3.845460e-09 1.228698e-09 5.287898e-10
-1.028306e-08 2.096927e-09 -7.254304e-10 -8.929906e-09 1.522309e-09 1.013615e-09
-1.166319e-08 1.318218e-09 3.774387e-10 -7.847574e-09 1.271410e-09 9.789049e-10
-7.076338e-09 4.669909e-09 7.849810e-10 -9.716720e-10 -1.770095e-11 -2.899031e-10
-1.254237e-08 2.074512e-08 -2.226561e-08 -6.867255e-09 -9.756584e-09 -9.051277e-09
-1.010943e-08 2.318982e-08 -1.593511e-08 2.999827e-09 -1.369565e-09 -6.452023e-10
-7.538604e-09 4.665832e-09 9.223227e-10 -1.170922e-09 -7.954526e-11 -1.539751e-10
-4.424396e-09 2.979872e-08 -4.596651e-08 -1.060734e-08 -1.207775e-08 -8.679079e-09
-9.925681e-09 2.323877e-08 -1.952866e-08 -1.786174e-09 -3.333402e-09 -4.816424e-09
-6.825651e-09 4.697532e-09 7.143113e-10 -7.133400e-10 -3.867595e-11 4.997225e-11
-7.285996e-09 4.936561e-09 8.944439e-10 -4.812800e-10 -3.381678e-11 -9.867657e-11
1.255439e-08 -2.941694e-08 -1.116245e-08 1.099303e-08 -6.532823e-09 1.665159e-09
-7.585632e-09 5.067401e-09 8.536545e-10 -1.709535e-10 -5.589307e-12 -3.697531e-11
-8.334888e-09 1.717567e-08 -1.031321e-08 1.985222e-09 -1.655391e-09 -1.460581e-09
-7.436860e-09 5.026891e-09 8.630581e-10 -1.709304e-10 3.058664e-12 3.933742e-12
-1.170884e-08 9.773367e-09 -1.167741e-10 1.484712e-10 1.257173e-09 1.265739e-09
4.579670e-09 -3.483273e-09 4.005870e-08 -4.057348e-08 -9.760467e-10 4.804014e-09
5.060351e-08 -2.129857e-08 1.732955e-08 1.992567e-08 3.314351e-09 7.437056e-09
-1.190535e-08 8.600201e-09 -7.443348e-10 -3.515400e-09 1.925407e-09 1.191967e-09
-1.147947e-08 8.750881e-09 2.772826e-10 4.977195e-10 -8.953246e-10 -1.396853e-09
-1.027553e-08 7.416297e-09 8.946692e-10 1.532104e-09 7.881828e-10 -3.569831e-10
-1.190722e-08 1.282166e-08 -8.257726e-09 -7.871901e-09 2.088203e-09 2.464355e-09
-1.697006e-08 2.074512e-08 -1.585867e-08 -6.350779e-09 -1.345427e-08 -1.125047e-08
-1.503573e-08 1.441100e-08 -3.011121e-09 -1.912390e-09 2.561545e-09 2.724108e-09
-1.452791e-08 9.048537e-09 -1.336009e-09 -3.494503e-09 -9.511525e-11 2.215137e-10
-1.799383e-08 2.002356e-08 4.442588e-09 9.153093e-09 -2.780395e-09 -2.228606e-09
-1.486657e-08 3.353673e-10 2.938545e-09 -9.105139e-10 1.357059e-10 -1.714977e-10
-1.692097e-08 2.838884e-08 4.074697e-09 1.513301e-08 -4.970534e-10 -2.377796e-09
-2.048446e-08 2.890667e-08 -1.340880e-08 3.128513e-10 1.036721e-09 2.600699e-09
-2.130212e-08 2.156162e-08 -2.211524e-09 7.118714e-09 -2.242568e-09 3.466822e-09
-7.360547e-09 2.620857e-09 1.490023e-09 4.353273e-10 -2.705158e-11 -3.020720e-10
-1.352801e-08 1.753883e-08 2.380334e-09 9.507457e-09 2.959786e-09 3.213756e-09
-4.132851e-09 2.315948e-09 4.684040e-10 5.064029e-10 4.159084e-11 -2.041634e-11
-1.280022e-08 2.292876e-08 5.341551e-09 1.305011e-08 -1.159825e-09 -4.175348e-11
-3.749031e-09 2.372341e-09 6.429746e-10 2.526627e-09 3.084010e-10 1.989804e-10
-5.365595e-09 3.155847e-09 7.285403e-10 2.292333e-12 -1.667712e-11 7.044365e-12
-1.866437e-08 2.114657e-08 -4.930172e-09 2.039903e-09 1.777798e-09 4.579807e-09
2.249999e-08 -4.290809e-08 -1.310001e-08 -2.443144e-09 -5.702915e-09 1.732407e-10
2.515358e-08 -3.772282e-08 -1.773916e-08 -8.385113e-09 -1.138131e-08 -1.430374e-09
2.011240e-08 9.139522e-09 -4.870142e-09 -2.562681e-08 -1.826710e-09 1.497901e-09
-3.149771e-09 8.878203e-09 -5.276551e-09 -2.414570e-09 3.532966e-09 -4.701524e-09
-2.671449e-09 1.850052e-09 3.039347e-10 2.359305e-09 4.447830e-10 -9.891987e-11
-7.258735e-09 2.359945e-09 1.703582e-09 -6.858570e-11 2.283362e-10 -5.147499e-10
1.822979e-08 -4.914756e-10 -5.602501e-09 -3.401058e-09 2.886765e-09 -5.140948e-10
1.665825e-08 9.166196e-09 -4.517276e-09 -1.123430e-08 1.451371e-09 1.204652e-09
1.415446e-08 1.158691e-08 -5.042584e-09 -1.300920e-08 2.041140e-09 -2.632547e-09
7.626207e-09 2.117829e-08 -8.707552e-09 -1.977133e-08 3.324378e-09 -4.841423e-09
4.492886e-08 -1.760318e-08 3.372399e-09 -1.239014e-08 4.519139e-11 5.418574e-09
2.878954e-08 3.958336e-09 -4.793465e-09 -1.796181e-08 -1.677281e-09 7.752892e-10
-6.886518e-10 6.981464e-10 1.842571e-11 2.050364e-09 1.458709e-10 -6.694811e-11
-3.127418e-09 2.470993e-09 2.431488e-10 4.128863e-09 2.485688e-10 -2.730216e-10
9.109327e-09 -5.433765e-09 -1.360482e-09 -1.161858e-09 -1.157746e-10 7.631119e-13
5.661945e-09 -3.044773e-09 -7.808143e-10 1.426224e-09 1.346041e-10 -6.898894e-11
4.126260e-09 -2.075798e-09 -6.656018e-10 1.220735e-09 -1.099387e-10 -2.116529e-11
7.832238e-09 -4.672170e-09 -1.041673e-09 1.862384e-09 2.338854e-10 4.184440e-10
-7.212593e-09 4.039288e-09 9.921561e-10 -2.786216e-12 0.000000e+00 -3.682832e-12
7.504407e-09 -3.777127e-09 -1.064354e-09 -1.832634e-09 -7.626200e-11 -3.484424e-10
2.902221e-10 1.247713e-11 -1.449396e-10 2.025787e-09 5.260347e-10 -1.528644e-10
-5.145484e-09 2.858718e-09 6.419874e-10 1.048470e-09 3.431431e-10 -2.266018e-10
7.604587e-09 -4.108246e-09 -9.676109e-10 -1.129237e-09 -1.633735e-10 -3.525623e-10
-7.874821e-10 7.704823e-10 2.384315e-11 3.700255e-09 3.918297e-10 3.204359e-11
8.298443e-09 -3.539738e-09 -1.211318e-09 -3.021326e-09 -1.205856e-10 3.652811e-11
-1.924397e-09 1.691088e-09 1.988587e-10 3.259964e-09 -1.974377e-11 -5.502230e-10
-5.121237e-12 2.736300e-11 -2.282108e-10 4.103384e-12 2.618188e-10 -1.052980e-11
5.875184e-09 -3.126801e-09 -8.961880e-10 -7.975123e-10 -2.655940e-10 2.759664e-10
-2.368587e-09 1.721604e-09 2.265086e-10 8.864198e-11 4.684830e-11 -2.333822e-11
6.841852e-09 -3.712478e-09 -1.090988e-09 -8.033495e-10 2.485745e-11 3.477318e-10
7.351435e-10 -1.254499e-10 -7.463852e-11 5.249441e-10 1.778440e-10 1.817232e-10
6.118351e-09 -3.015454e-09 -9.419314e-10 -8.593439e-10 -4.286238e-11 -3.278977e-10
-5.357784e-09 -1.935885e-08 7.272521e-09 1.724969e-09 3.231160e-10 1.185620e-10
1.182792e-08 -5.936776e-09 -1.310151e-09 1.621602e-09 -8.799039e-11 -1.013856e-11
9.290231e-09 -5.463146e-09 -1.263816e-09 5.152739e-11 2.309825e-11 4.896972e-12
1.515780e-08 -7.865003e-09 -7.473735e-10 7.201547e-10 1.144972e-10 -2.002689e-10
-4.810055e-09 -1.809898e-08 7.068007e-09 2.653630e-09 4.232943e-11 2.545344e-10
3.758938e-09 1.440969e-09 -4.985390e-08 -3.301017e-08 2.801405e-08 2.092892e-08
-4.290323e-09 -2.025648e-08 7.307121e-09 1.305793e-09 2.915085e-11 1.705744e-10
1.671047e-08 -9.662818e-09 1.237360e-09 -5.262935e-09 9.255993e-12 -1.446857e-09
5.099208e-08 -3.366281e-08 5.341504e-08 6.177320e-09 1.213087e-09 2.954982e-08
4.163222e-08 -3.553389e-08 3.953887e-08 -1.774976e-08 -1.159276e-09 1.568748e-09
-4.299535e-09 -1.921236e-08 7.259311e-09 2.393511e-09 -1.149099e-10 -2.567730e-10
-5.540315e-10 1.668511e-09 -1.952885e-10 -2.313602e-09 -4.867233e-10 -4.793721e-12
3.476218e-09 -1.519351e-09 -6.685950e-10 -2.865271e-09 -3.420095e-10 -2.130681e-10
-2.594901e-09 -1.948196e-08 7.279727e-09 3.063804e-09 4.234031e-10 3.263839e-10
1.668037e-08 -7.294893e-09 -5.878009e-11 -3.723498e-09 -6.120273e-11 -8.765477e-11
9.286731e-09 -5.581315e-09 -1.190982e-09 -3.276223e-10 -1.095863e-10 6.751888e-11
9.960353e-09 -5.827946e-09 -1.304929e-09 4.354909e-10 6.799239e-11 -2.027933e-11
2.296279e-09 -9.769385e-10 -6.813525e-10 -1.256648e-10 -3.324401e-10 -9.887868e-12
-2.244160e-09 -2.098503e-08 7.202856e-09 2.865074e-09 -3.460871e-10 1.137658e-10
-7.407226e-09 6.562049e-09 1.094492e-09 6.446715e-09 5.175342e-10 -3.733099e-10
-6.554455e-10 8.091270e-10 2.044009e-11 2.746579e-09 3.747940e-10 -2.027176e-10
-8.178855e-09 4.433023e-09 1.405889e-09 -3.645479e-10 -2.462225e-12 -1.717216e-10
-8.950394e-09 4.146432e-09 1.468635e-09 -2.241651e-10 -7.341350e-11 -2.080536e-10
2.955840e-09 -6.441416e-10 -3.515197e-10 4.656117e-09 3.637142e-10 2.418596e-10
8.660091e-09 -4.011792e-09 -8.130874e-10 4.267263e-09 -1.763705e-10 -6.959653e-10
1.080736e-08 -5.592125e-09 -9.585666e-10 3.858948e-09 1.409116e-10 -3.227489e-10
-1.868366e-09 7.132929e-09 -1.957011e-09 -1.648887e-08 -6.664350e-10 1.873099e-09
3.964300e-08 -1.926740e-08 2.798385e-08 -1.788312e-08 -2.090847e-09 4.772651e-09
-6.717480e-09 2.056924e-08 -1.406781e-08 -1.378014e-08 -7.251013e-10 -2.891442e-10
9.429595e-09 -5.065978e-09 -1.033857e-09 8.859825e-10 2.829136e-10 6.520967e-11
-2.515838e-09 1.348607e-08 -3.104626e-09 -1.750591e-08 -9.654066e-10 3.760731e-09
5.603181e-09 -2.252958e-09 -5.088037e-10 4.834363e-09 3.319103e-10 1.523115e-11
4.263804e-09 1.053613e-08 -5.971335e-10 -2.112971e-08 1.307471e-09 -3.631547e-10
3.804358e-09 -5.849982e-10 -3.238831e-10 6.143241e-09 3.857279e-10 4.466758e-10
-7.771120e-09 1.519813e-08 -8.330452e-09 -1.225082e-08 -2.205501e-09 6.237403e-09
-5.461958e-09 1.125611e-08 -5.455040e-09 -1.495602e-08 7.142571e-10 -3.494125e-10
-2.177655e-08 2.229116e-08 -1.826398e-08 1.482082e-08 7.893965e-09 -7.635208e-09
-1.624467e-09 1.026381e-08 -1.913764e-09 -1.718266e-08 1.260921e-09 -3.632548e-10
-6.393397e-09 -3.712977e-09 2.678545e-09 -2.674410e-09 -1.045142e-11 -2.544489e-10
-1.018991e-07 1.979421e-08 9.431151e-08 -5.058198e-08 -1.144891e-07 -1.162824e-08
-5.616157e-09 -5.426419e-09 3.279411e-09 -2.457667e-09 1.822360e-10 -3.896299e-10
-1.490990e-08 -6.038458e-09 1.242603e-09 1.935673e-08 8.072686e-09 -3.042677e-09
1.210831e-08 -3.756104e-08 7.101209e-10 9.165709e-09 7.700862e-10 5.904655e-10
-4.043004e-09 2.947350e-08 -5.813928e-09 -2.278994e-08 -1.925643e-09 4.803926e-09
-6.577054e-09 -2.733512e-09 2.793850e-09 -2.156685e-09 -1.820358e-10 -3.201286e-10
1.619172e-08 -3.962562e-08 -5.793169e-09 1.190412e-08 7.158556e-09 -9.299183e-10
-4.701443e-09 -6.386986e-09 3.405432e-09 -3.733907e-09 2.775253e-10 -3.939678e-10
-6.533106e-09 -4.087276e-09 2.934231e-09 -3.688937e-09 8.605352e-10 -3.344689e-10
1.115266e-08 -6.058714e-09 -1.363537e-09 -1.797936e-10 5.558725e-11 2.473605e-10
1.024961e-08 -5.629025e-09 -1.454164e-09 1.644728e-09 2.787616e-10 3.475849e-10
-1.509230e-08 2.877885e-08 -2.626145e-09 -3.170144e-08 5.605437e-10 -3.498728e-09
2.566226e-08 -3.703089e-09 8.273827e-08 -5.588489e-08 -3.865464e-08 3.792638e-08
-1.390895e-08 1.148385e-08 -1.691073e-09 1.531726e-09 3.923986e-09 -5.831724e-10
1.248574e-08 -3.933933e-08 1.755945e-10 1.585065e-08 -1.377376e-08 5.478850e-09
9.937560e-09 -5.764886e-09 -1.388321e-09 -3.426315e-11 2.415018e-11 -2.473080e-11
2.974517e-08 -2.755036e-08 -5.741699e-08 1.795368e-08 2.481158e-08 -3.018793e-09
4.430779e-08 -1.057517e-08 -5.767880e-09 -4.153940e-09 2.110948e-09 1.925975e-09
-6.304210e-08 -6.703331e-08 2.720352e-07 -2.268934e-08 -2.958229e-08 3.657423e-08
1.000997e-08 -5.935982e-09 -1.327087e-09 -1.090804e-10 -6.350498e-11 9.511164e-11
3.556828e-08 1.100950e-08 -2.772220e-09 -2.534963e-08 -4.280162e-09 7.854580e-09
5.244562e-09 1.144291e-08 -6.768920e-09 2.937847e-09 -2.514129e-09 3.331372e-09
3.783775e-08 -6.706493e-09 -7.790139e-09 3.883972e-09 -1.178027e-09 -1.115671e-09
4.903708e-08 -1.294415e-08 -6.022885e-09 -8.665072e-10 2.061606e-09 7.013041e-09
4.978774e-08 -1.772599e-08 -2.566025e-09 -3.586738e-09 -6.564678e-10 7.473913e-10
1.002424e-08 -6.015493e-09 -1.355887e-09 -1.429986e-10 3.577412e-11 1.897567e-10
9.651894e-09 -5.651376e-09 -1.231821e-09 5.690171e-10 1.717404e-11 2.669195e-10
9.844729e-09 -5.803027e-09 -1.240120e-09 3.329471e-11 -5.443582e-11 1.305696e-10
-9.454329e-09 4.313815e-09 -1.149839e-09 -2.030054e-09 -1.284985e-10 -6.624696e-10
-1.963129e-08 1.375413e-08 -4.085771e-09 1.463506e-08 1.039641e-08 -7.073075e-09
-7.500352e-09 4.063755e-09 1.282250e-10 -3.627301e-09 -4.634612e-10 7.607620e-11
-2.470054e-08 -3.358238e-08 1.869344e-07 -4.347373e-08 -5.614805e-08 6.536427e-08
3.481683e-08 -3.403365e-09 1.014797e-09 3.732720e-08 1.506040e-08 6.462324e-09
4.547728e-08 -3.239271e-08 4.848497e-08 -2.131584e-08 -6.028484e-09 2.754670e-08
-7.398261e-09 4.397806e-09 -5.469936e-11 -4.691570e-09 -7.725385e-10 -2.999841e-10
-5.404106e-09 3.436716e-09 -2.925813e-10 -5.513366e-09 -3.640273e-10 7.676992e-11
-4.534733e-09 3.647192e-09 9.485124e-11 -4.674505e-09 -7.056398e-10 -1.222817e-10
1.443969e-09 -1.714489e-08 4.864960e-09 -7.890685e-11 1.678944e-10 -1.292262e-09
-7.340911e-09 4.074921e-09 3.168319e-10 -3.816517e-09 -9.489497e-11 -6.747127e-10
-7.386345e-09 4.415951e-09 -9.309886e-11 -4.632360e-09 -3.237766e-11 9.310944e-11
-4.764900e-09 4.241965e-09 -3.248133e-10 -6.058928e-09 -4.274713e-10 1.158812e-10
-5.107252e-08 -8.685736e-09 1.572300e-07 -5.403367e-08 -2.484000e-08 4.957285e-08
-1.174813e-07 -6.663930e-08 2.931285e-07 -2.635959e-08 -2.491392e-08 2.275921e-08
-7.903111e-08 -7.200553e-08 2.849387e-07 1.936822e-08 2.927674e-08 3.866035e-09
-1.373838e-07 -8.111502e-08 3.300957e-07 2.677683e-09 1.334271e-08 1.652933e-08
-1.179020e-07 -7.081946e-08 5.079828e-07 2.003694e-08 6.782578e-08 7.409632e-08
3.772504e-09 -2.660272e-08 -4.218115e-09 1.970599e-08 3.009153e-09 -1.658516e-09
-6.761143e-08 -6.730650e-08 3.869548e-07 4.361169e-08 6.015882e-08 1.445730e-07
5.376456e-09 -3.172613e-08 2.742710e-09 1.049660e-08 -6.480580e-09 1.286118e-09
-1.019016e-08 -1.897296e-10 -6.743548e-09 -8.927305e-09 -3.091531e-09 -6.586522e-10
-8.075698e-09 3.648459e-10 -9.610086e-09 -9.424009e-09 -1.597993e-09 -1.415986e-09
-4.336539e-09 -3.188916e-10 -1.063016e-08 -1.318502e-08 -4.351103e-09 -3.269816e-09
-1.116212e-08 5.203932e-09 -6.800418e-09 -8.044865e-09 -1.377311e-09 -1.607290e-09
-1.116068e-08 2.291226e-08 -2.202841e-08 -2.272279e-09 -6.917653e-09 9.156605e-09
4.804194e-09 7.522408e-09 9.643737e-09 -2.733511e-08 4.977522e-09 -7.732826e-10
-1.038241e-08 1.129880e-08 -2.328041e-08 -1.612470e-08 -7.040762e-09 -5.100011e-09
-1.327985e-08 1.091419e-08 -1.215035e-08 -1.080978e-08 -3.772139e-09 -2.919224e-09
4.717265e-10 7.793458e-09 -3.266970e-08 1.282920e-08 -1.570379e-08 1.224477e-08
-9.075516e-09 9.296034e-09 -1.523909e-08 -9.865143e-09 -2.007329e-09 -5.077623e-11
-9.847740e-09 1.210893e-08 -7.772547e-09 -6.482335e-09 -2.521154e-09 2.884624e-09
-2.671907e-09 -1.761554e-08 8.592216e-10 1.691984e-08 1.751859e-09 -1.122914e-09
1.027375e-09 1.015001e-08 3.008747e-08 -3.408859e-08 3.237508e-08 -4.948204e-09
-1.885041e-09 -2.313624e-08 3.118089e-09 1.356270e-08 1.448525e-09 -3.096570e-10
-8.742472e-09 -9.562342e-10 5.106688e-10 1.599159e-09 -2.321908e-09 5.669154e-10
-2.790440e-09 -2.126956e-08 5.309088e-09 9.451814e-09 6.531797e-10 -4.348608e-10
-1.683757e-09 -2.037312e-08 5.025550e-09 1.030168e-08 3.261744e-10 6.559195e-10
1.890838e-09 -2.702836e-08 4.125412e-09 1.056355e-08 9.220291e-10 -5.922878e-10
-6.060710e-09 -9.033598e-09 1.747789e-09 2.963593e-09 -1.710735e-09 7.908059e-11
-1.089944e-08 1.096834e-08 -7.971156e-09 -2.208993e-09 -2.988137e-09 2.870520e-09
1.916736e-09 -2.269787e-08 2.936916e-09 1.147246e-08 1.768997e-09 5.797419e-11
-3.449531e-09 -1.735217e-08 2.655900e-09 1.383808e-08 -3.602001e-10 -2.598418e-11
-2.789127e-09 -1.771327e-08 3.709735e-09 9.580495e-09 2.477714e-09 -4.609202e-10
-4.539189e-09 3.641123e-09 5.085283e-10 -3.141204e-09 -3.357796e-10 3.719469e-12
-1.517486e-09 2.227517e-09 -1.417910e-10 -3.998445e-09 -7.444667e-11 -1.322820e-10
-4.852050e-09 3.076502e-09 1.483471e-10 -2.768483e-09 2.620446e-11 -5.519318e-10
-5.829762e-09 3.840405e-09 4.090084e-10 -2.526513e-09 -2.532837e-10 -1.528736e-10
-6.449342e-09 2.969231e-09 1.047536e-09 9.556533e-10 1.904501e-10 -6.944845e-11
-7.069611e-09 4.068199e-09 6.181056e-10 -2.866493e-09 -3.690470e-11 -1.582782e-10
5.587767e-09 -1.788538e-08 -8.849028e-09 -1.611855e-08 3.460405e-09 7.400043e-10
-7.547905e-09 3.924608e-09 8.705547e-10 -2.326226e-09 -2.129150e-10 4.158007e-11
-1.074695e-08 5.626369e-09 -1.673220e-08 -2.125736e-08 2.819348e-09 1.972522e-09
-6.677470e-09 4.121079e-09 6.782073e-10 -2.072721e-09 -1.269269e-10 2.435240e-10
-5.803797e-09 3.870651e-09 6.550869e-10 -2.126215e-09 -2.694744e-11 8.006373e-11
-2.695341e-09 -1.077901e-08 -1.641412e-08 -2.529143e-08 7.687849e-09 4.870506e-09
1.728431e-08 -3.273450e-08 -1.413838e-08 -1.751968e-08 9.529272e-09 2.781217e-09
-5.421519e-09 4.088149e-09 6.448304e-10 -1.791531e-09 -9.266105e-11 4.216316e-11
-2.162710e-08 8.361813e-09 3.997137e-08 2.174007e-08 -8.422828e-09 -2.149437e-09
-8.233917e-09 1.709109e-08 -2.151311e-08 -2.578948e-09 -2.387476e-09 2.451283e-10
2.040931e-08 -1.727132e-08 -3.489015e-08 8.642252e-09 -7.042451e-09 2.285754e-09
-1.028810e-09 -2.477945e-08 8.107799e-10 1.569739e-08 -9.211591e-09 3.727942e-09
-9.444755e-10 -7.813468e-09 5.280191e-08 2.308918e-08 -7.538203e-09 -9.938774e-09
-2.752879e-08 -1.642203e-08 6.559955e-08 6.314929e-09 2.343080e-09 -6.239707e-09
-1.252018e-07 2.844330e-08 1.595439e-07 -5.410838e-08 7.709422e-08 -2.488746e-08
-1.819416e-08 3.833671e-09 8.880963e-08 2.358642e-08 -2.378493e-08 2.183808e-09
-3.231391e-10 -2.678481e-09 5.196071e-08 2.246294e-08 -5.606650e-09 -1.580173e-08
1.256718e-08 3.302589e-09 -1.842659e-09 -2.131369e-08 1.580595e-09 8.236012e-10
4.443890e-09 -1.223728e-08 4.382504e-08 1.315442e-08 6.071714e-10 -7.799455e-09
-8.807695e-09 -1.693118e-09 -9.929124e-10 3.499387e-09 -1.753508e-09 1.017259e-09
8.559176e-11 -1.676719e-08 6.477030e-08 2.265907e-08 -7.157855e-09 -1.346909e-08
1.017148e-08 -7.868733e-09 4.048224e-08 2.124908e-08 -9.237271e-09 -1.275850e-08
-3.377265e-10 6.377169e-10 3.797988e-08 2.429909e-08 -3.257138e-09 -1.193951e-08
2.435831e-09 6.882018e-10 4.124630e-08 2.206230e-08 -5.167566e-09 -8.839611e-09
5.688283e-09 1.580509e-08 5.530058e-09 -2.753769e-08 -7.002817e-10 6.520146e-10
-2.810362e-09 5.241525e-09 3.487284e-08 2.639826e-08 -7.775960e-09 -1.213920e-08
7.542973e-09 5.140658e-09 3.461822e-08 2.520635e-08 -7.611325e-09 -9.606801e-09
2.453631e-09 5.763577e-09 1.868782e-08 2.259683e-08 1.442593e-09 1.080844e-09
-2.229033e-10 5.302942e-09 2.948916e-08 2.728636e-08 -8.397631e-09 -1.018624e-08
3.378148e-09 -1.560780e-08 4.242726e-08 -1.595000e-08 8.962450e-09 -1.028085e-08
9.924033e-09 -5.454199e-09 -1.337867e-09 -6.299525e-11 1.057427e-11 3.082299e-10
6.855732e-09 3.069939e-09 -7.892951e-10 -1.627220e-08 1.904894e-10 8.466011e-10
-2.054532e-08 2.103569e-08 1.556826e-08 2.307814e-08 -4.136844e-09 -2.105175e-09
1.627917e-08 -5.252812e-09 1.815188e-09 -1.577091e-08 1.422739e-09 -5.927342e-10
-8.404636e-09 3.161879e-08 1.119646e-08 3.160536e-08 -1.223901e-08 -1.291555e-08
-1.873157e-08 3.179343e-08 3.176470e-08 2.540690e-08 -1.772962e-08 -5.180898e-09
1.816208e-08 -9.162864e-09 1.388590e-09 -3.948897e-09 3.431310e-10 -1.903542e-10
1.986933e-08 -9.137615e-09 3.733634e-09 1.848854e-09 8.149841e-10 -2.848035e-10
-8.893337e-09 1.250352e-08 -6.987175e-09 -8.942984e-09 -2.508144e-09 2.132266e-09
1.959114e-08 -1.673521e-08 3.924938e-08 -7.782589e-09 5.625185e-09 -1.377938e-08
1.930534e-08 -1.000092e-08 4.408197e-09 2.617049e-09 5.384225e-10 2.633800e-10
-8.613515e-09 1.569864e-08 -9.994247e-09 -1.208298e-08 -2.393183e-09 4.926086e-09
-9.414879e-09 1.664777e-08 -1.428705e-08 -8.127527e-09 -1.478814e-09 1.728210e-09
-8.906286e-09 1.589401e-08 -9.905392e-09 -1.215953e-08 -9.296933e-10 2.479345e-09
-6.012915e-09 9.847559e-09 -4.735882e-09 -1.075055e-08 -1.075024e-09 2.726110e-09
-9.296556e-09 1.149941e-08 -5.889208e-09 -6.953550e-09 -2.605233e-09 4.136727e-09
1.193013e-08 -3.048021e-09 -4.508571e-10 -1.358166e-08 5.654081e-10 4.823032e-10
-1.757809e-09 1.072654e-08 -4.358958e-09 -1.470208e-08 -1.013569e-09 1.563697e-09
3.580903e-09 -2.147475e-08 6.290497e-10 1.028952e-08 -7.690496e-09 3.034587e-09
-6.665067e-09 -1.605541e-08 6.799352e-09 2.636579e-09 3.678879e-10 1.232340e-10
-4.349738e-09 -1.664180e-08 6.653031e-09 2.102692e-09 -2.700994e-11 2.839955e-10
-6.091827e-09 -1.623946e-08 7.052906e-09 5.110357e-11 1.895375e-10 4.838352e-12
-2.579370e-08 3.098889e-08 -1.340880e-08 6.166614e-10 2.099666e-09 1.051398e-09
4.649676e-08 -1.269138e-08 1.217794e-08 -1.843149e-08 -5.668973e-09 1.488822e-08
1.783365e-08 -1.287321e-08 3.960514e-08 9.838898e-09 2.138251e-09 -1.866962e-08
-1.446847e-09 3.226503e-09 1.553648e-08 1.874828e-08 -3.205521e-09 -5.570064e-09
-7.054634e-09 5.031449e-09 7.321415e-10 -2.964949e-10 -1.667941e-10 -4.221832e-12
9.168017e-10 9.971971e-10 -6.643575e-13 5.361483e-09 3.557732e-10 3.305107e-10
-7.498136e-09 5.110734e-09 7.148895e-10 -2.258766e-10 -1.361910e-12 -1.512400e-10
9.150155e-09 -3.226305e-09 2.916183e-09 9.106871e-09 -3.948653e-10 -1.401486e-09
1.952646e-09 4.392480e-10 2.112723e-09 8.918439e-09 -5.628436e-10 -1.398199e-09
-7.080423e-09 4.890961e-09 6.253154e-10 -4.946603e-10 -1.541121e-10 -2.137093e-10
-6.660819e-09 4.915194e-09 6.166045e-10 -3.886536e-10 -1.367757e-10 -1.073543e-10
1.401082e-08 -6.494956e-09 3.013861e-09 -1.500291e-08 1.463874e-10 -1.431423e-09
-4.382461e-09 1.859612e-09 3.852658e-08 2.056746e-08 -3.797957e-09 -4.446942e-09
-1.874783e-09 -2.180668e-08 7.107253e-09 2.289881e-09 2.373303e-11 3.197340e-10
1.424192e-08 -5.259350e-09 1.638344e-08 1.427430e-08 -2.126187e-09 -5.667096e-09
6.113745e-10 2.376945e-09 9.083195e-09 1.422852e-08 -1.328395e-09 -2.843931e-09
-7.117780e-09 5.129946e-09 5.980674e-10 -6.089285e-11 -9.520812e-11 -8.657541e-11
-1.376038e-08 -6.778947e-09 4.003806e-09 3.324195e-09 5.587411e-10 -1.941722e-10
-2.649739e-09 1.515796e-08 -2.744016e-08 -2.821172e-08 1.354239e-08 1.128448e-08
-7.203047e-09 3.943744e-09 9.828491e-10 1.969047e-10 3.207739e-11 -4.364090e-11
-2.063647e-08 3.441700e-08 -2.142170e-08 -1.770476e-08 4.728106e-09 1.501434e-08
-7.122567e-09 3.913834e-09 9.808048e-10 1.982334e-10 4.852341e-11 -5.552226e-12
3.793818e-08 1.822100e-10 -1.146938e-07 6.538370e-09 6.169678e-08 -1.392914e-09
-6.965746e-09 3.910078e-09 9.376386e-10 1.274110e-10 1.307021e-11 1.461275e-12
-3.098521e-08 9.606713e-08 -1.582920e-08 -2.195769e-08 -2.711741e-08 -1.072307e-08
-7.234281e-09 3.800316e-09 1.076701e-09 3.282868e-10 7.952095e-11 -4.876577e-11
1.624587e-08 -2.520905e-09 -6.012497e-08 3.200751e-08 3.326029e-08 -1.422675e-08
-7.294159e-09 4.106033e-09 9.726639e-10 1.686118e-11 2.513745e-11 -5.507839e-11
1.027444e-08 3.162015e-09 8.912256e-09 -2.344884e-08 1.653392e-09 -8.007287e-10
-9.957356e-09 2.212950e-08 -1.681416e-08 -1.290304e-08 -4.742964e-09 1.098732e-08
-4.087111e-10 1.421530e-12 -3.268478e-08 -2.535053e-08 3.193859e-09 3.574410e-10
-6.717480e-09 1.782167e-08 -1.428705e-08 -9.952922e-09 -1.743566e-09 2.048119e-09
-6.138603e-09 2.548912e-08 -3.432165e-08 -2.079246e-09 -8.388895e-09 9.719591e-09
-1.072356e-08 3.385294e-08 -3.114411e-08 -1.007232e-08 -6.569950e-09 1.664375e-08
-8.233917e-09 2.245840e-08 -2.437303e-08 -5.942949e-09 -3.619318e-09 3.591286e-09
-1.116068e-08 1.123786e-08 -1.717717e-08 4.638504e-09 -7.272495e-09 7.305606e-09
5.619258e-10 -2.325716e-08 6.547723e-09 6.373664e-09 3.387918e-10 -9.227772e-11
-1.731512e-09 -2.090205e-08 6.836121e-09 1.326383e-09 -3.018541e-10 8.097145e-11
-2.899052e-09 -2.224845e-08 7.473843e-09 1.884105e-09 -3.197228e-10 3.045070e-10
-9.005242e-09 2.935610e-08 -4.574973e-08 -4.667038e-09 -1.601237e-08 2.358046e-08
9.028589e-09 -3.416154e-08 6.742907e-09 5.064693e-09 8.464671e-10 5.850529e-10
1.556283e-08 -3.973798e-08 3.795698e-09 3.568905e-09 2.529029e-09 -1.641924e-10
-3.337427e-09 3.098442e-08 -3.790203e-08 -2.182942e-09 -3.898827e-09 2.882155e-09
8.825588e-09 -3.228528e-08 5.880812e-09 7.427459e-09 1.604578e-10 5.565213e-12
1.360990e-08 -3.867467e-08 6.432324e-09 2.365597e-09 8.881763e-10 -2.484784e-10
9.470372e-09 -3.489157e-08 7.156697e-09 2.099586e-09 -3.371769e-10 4.866550e-10
-1.749015e-09 -2.143920e-08 6.283972e-09 9.483779e-09 2.405904e-10 2.367967e-10
1.006778e-08 -3.618426e-08 7.255727e-09 9.506458e-10 1.973415e-10 1.305456e-10
-1.385908e-08 2.077175e-09 -4.178525e-09 1.723093e-08 7.306698e-09 -2.927590e-09
-8.438251e-09 -1.176554e-08 5.724694e-09 4.742650e-09 -3.816813e-10 -3.588952e-11
-1.894374e-08 8.057749e-08 -2.734936e-08 -3.237335e-08 2.268083e-09 -1.214093e-09
1.354610e-09 -2.520983e-08 7.422157e-09 7.624390e-10 -4.422374e-11 -1.340230e-10
3.360825e-09 -2.981397e-08 7.160414e-09 6.122865e-09 4.914659e-10 -4.142962e-10
9.088937e-09 -3.422014e-08 6.407867e-09 3.422554e-09 2.531943e-10 -2.965742e-10
1.182594e-08 -3.756325e-08 6.932459e-09 1.190159e-09 -1.644538e-10 4.116820e-11
1.608391e-08 -3.817836e-08 9.509171e-10 -3.710871e-09 2.965739e-09 3.254483e-10
1.209768e-08 -3.801045e-08 7.254483e-09 2.405206e-09 1.989195e-10 1.743322e-10
8.769242e-09 -3.308932e-08 5.466745e-09 -5.640084e-09 1.501960e-09 -1.357658e-10
5.428291e-09 -2.181375e-08 3.798949e-09 -8.630828e-09 7.695547e-10 1.444209e-10
1.114120e-08 -3.665715e-08 6.977911e-09 1.520733e-09 -2.889098e-10 9.130097e-11
4.764775e-09 -2.374208e-08 5.601218e-09 -3.806436e-09 -3.120338e-10 9.194182e-11
2.112413e-09 -1.968877e-08 5.074213e-09 -1.774916e-09 8.429945e-10 -8.799836e-11
-2.196448e-09 1.560865e-09 -2.266765e-11 -2.667860e-09 -1.933934e-10 6.946110e-12
3.965306e-09 -2.135963e-08 5.062028e-09 -2.875725e-09 3.023530e-10 -4.570078e-10
4.090830e-08 -6.923874e-09 -8.375489e-09 4.687371e-09 -1.150581e-09 2.457696e-09
-4.110815e-09 3.494222e-09 4.217895e-10 -1.941143e-09 -1.220890e-10 6.889578e-11
2.603682e-09 -2.103819e-08 4.908936e-09 -4.324964e-09 -1.158951e-10 -9.177128e-10
-3.111106e-09 2.476547e-09 8.627099e-11 -1.464469e-09 -2.903087e-10 -8.653289e-11
4.738987e-09 -2.358972e-08 5.275239e-09 -4.069599e-09 1.671632e-10 2.026093e-10
-4.744972e-09 3.199764e-09 2.878573e-10 -4.074963e-11 -2.553029e-10 1.091882e-11
1.341061e-09 -2.076896e-08 5.525810e-09 -2.255556e-09 -1.744770e-10 -9.884424e-10
2.075483e-08 -3.930222e-08 -1.777849e-08 1.035622e-08 2.753365e-09 6.778304e-10
2.151936e-08 -3.300453e-08 -9.829012e-09 1.221589e-08 5.221669e-09 -1.132312e-09
2.037018e-08 -3.998620e-08 -1.743417e-09 4.791883e-09 3.063080e-09 -2.693313e-11
1.620119e-08 -3.763857e-08 -1.774431e-09 1.108646e-08 1.382533e-09 -1.051254e-09
1.621404e-08 -3.635888e-08 -5.618566e-09 1.208872e-08 -4.921621e-12 -1.057607e-10
1.583139e-08 -4.145809e-08 -2.695866e-09 7.352070e-09 1.602331e-09 -4.946432e-10
4.869186e-09 -2.525727e-09 -7.210141e-10 2.599596e-09 3.670725e-10 -1.614709e-10
4.361336e-09 -2.234927e-09 -7.468790e-10 2.386963e-09 2.552775e-10 5.665297e-11
9.937698e-09 -5.771730e-09 -1.349090e-09 -3.188303e-11 1.656379e-11 -1.530540e-11
1.083374e-08 -5.589817e-09 -9.505534e-10 3.868127e-09 -1.368438e-10 -8.456071e-10
1.232077e-08 -5.960318e-09 -1.091594e-09 -3.983920e-09 -3.867306e-11 -6.790550e-10
6.316169e-09 -3.667227e-09 -1.039705e-09 2.254165e-09 2.954741e-10 -7.787937e-12
6.033622e-09 -2.482901e-09 -9.169705e-10 2.096976e-09 2.442179e-10 1.303757e-10
1.102742e-08 -5.766926e-09 -1.160375e-09 2.174389e-09 7.317435e-11 -5.204346e-10
-7.365173e-09 -1.490830e-08 6.666080e-09 4.695992e-09 8.966761e-10 3.936728e-11
1.449891e-08 -7.180053e-09 -1.178178e-09 -2.399058e-09 -5.071333e-11 6.193659e-10
5.627633e-09 -2.996756e-09 -7.595156e-10 8.916539e-10 1.791669e-10 -1.875253e-10
8.945058e-09 -5.046228e-09 -1.179695e-09 1.024577e-09 4.882109e-11 -3.621543e-10
9.161726e-09 -5.127907e-09 -1.248923e-09 -1.618516e-11 -6.380002e-11 -3.246292e-12
9.519337e-09 -5.643112e-09 -1.353634e-09 -9.711367e-11 -2.727912e-11 -3.493922e-11
7.948143e-09 -4.011792e-09 -8.462484e-10 4.047240e-09 1.566169e-11 -3.662795e-10
1.389444e-08 -6.709741e-09 -1.276464e-09 -5.093535e-10 -4.557069e-11 9.391582e-11
4.088606e-09 -2.285858e-09 -3.876277e-10 2.658016e-09 4.137135e-11 -2.455585e-10
5.046653e-09 -2.245245e-09 -4.949072e-10 2.939798e-09 -4.671730e-11 -3.113450e-10
-1.635158e-09 2.029763e-09 -1.130491e-10 -3.309536e-09 -3.116302e-10 -5.877536e-10
-6.291156e-09 -1.737505e-08 6.414291e-09 4.485861e-09 -1.027104e-09 6.761571e-10
4.693482e-09 -2.230144e-09 -6.589334e-10 2.884523e-09 1.780691e-10 2.857745e-10
5.202752e-09 -3.099108e-09 -7.088916e-10 2.709226e-09 1.160591e-10 4.671219e-11
-1.044398e-08 -9.532663e-09 5.524112e-09 2.058830e-09 1.002394e-09 6.155332e-11
-2.659480e-09 -1.937290e-08 7.002120e-09 3.157639e-09 1.900946e-10 -2.103081e-10
-5.797055e-09 4.064719e-09 4.621783e-10 -1.354450e-09 -3.410994e-10 -2.183677e-10
-1.910516e-09 -2.188360e-08 6.659187e-09 4.670247e-09 6.680275e-10 7.949352e-11
-7.786927e-09 -1.491285e-08 6.508199e-09 2.358501e-09 1.064073e-10 -2.230293e-10
5.293110e-08 -2.143343e-08 -3.336975e-10 4.497110e-09 2.316568e-09 7.209971e-09
-2.860059e-09 -2.186289e-08 6.992056e-09 4.436040e-09 3.955667e-10 -2.597568e-10
-7.478124e-09 4.289209e-09 1.026572e-09 -2.100998e-09 -2.483142e-10 -4.124618e-10
-8.168474e-09 4.063523e-09 9.676868e-10 -1.749922e-09 -3.363541e-10 -6.923704e-10
-6.637656e-09 -1.716309e-08 6.195059e-09 3.955812e-09 -1.170795e-11 3.608529e-10
-3.698106e-09 -1.747350e-08 6.787895e-09 5.982108e-09 2.341463e-10 1.966355e-10
-3.865875e-09 -1.780395e-08 6.740626e-09 5.854954e-09 -2.987428e-10 -3.215088e-10
6.055913e-08 -8.552357e-09 -1.273501e-08 5.868317e-09 2.919143e-11 4.166144e-09
1.063466e-08 -3.237290e-08 6.712253e-09 -1.350559e-09 4.865653e-10 -4.608244e-10
1.060976e-08 -3.328019e-08 6.494562e-09 -9.842191e-10 -8.015330e-10 -4.776326e-10
1.319002e-08 -3.742490e-08 6.343896e-09 -1.892543e-09 1.198896e-09 -2.034064e-10
1.200853e-08 -3.542640e-08 6.296188e-09 -5.604434e-10 -2.753703e-10 -3.458520e-10
1.090352e-08 -3.262734e-08 6.268753e-09 -1.919736e-09 1.284646e-09 -4.529712e-10
1.052114e-08 -3.137296e-08 5.479156e-09 -4.565122e-09 1.120714e-09 -3.553803e-10
1.252111e-08 -3.552416e-08 6.204053e-09 -6.873404e-10 -1.730461e-10 -3.136957e-10
9.667493e-09 -5.051210e-09 -1.199488e-09 1.722145e-09 1.967925e-10 1.562809e-10
8.103497e-09 -5.084644e-09 -1.217584e-09 1.407160e-09 1.614319e-10 -1.226064e-11
6.496916e-09 -4.044736e-09 -9.352414e-10 1.035858e-09 7.970547e-11 1.692563e-10
8.850810e-09 -4.475366e-09 -1.220911e-09 1.789576e-09 -2.217987e-11 6.265966e-11
-1.051812e-08 1.717567e-08 -1.031321e-08 -8.339666e-10 -2.093437e-11 -8.277059e-10
8.760368e-09 -5.151694e-09 -1.237376e-09 1.413578e-09 2.410898e-10 3.100215e-10
5.663461e-08 -2.361027e-08 3.721637e-09 2.936929e-09 2.082419e-09 1.013981e-08
-1.086290e-08 1.599152e-08 -8.255921e-09 -6.525276e-10 -2.158360e-09 1.762657e-10
7.655734e-09 -4.592335e-09 -1.028068e-09 1.310066e-09 1.510893e-10 1.150646e-10
7.799017e-09 -4.254264e-09 -1.100846e-09 2.706778e-09 7.798526e-11 5.029714e-10
2.346777e-09 1.880125e-08 -1.037576e-08 7.778450e-09 -3.787623e-09 -3.950184e-09
1.025851e-08 -5.071293e-09 -1.453362e-09 1.733089e-09 1.225270e-10 3.080427e-10
8.938320e-09 -4.473241e-09 -1.153353e-09 1.770174e-09 -3.427425e-11 1.838998e-10
-1.935813e-08 3.305003e-08 -1.645989e-08 -5.203096e-10 -2.366729e-10 3.905661e-10
-1.712261e-08 2.121714e-08 -1.763987e-08 1.325356e-08 6.649632e-10 1.023525e-09
-2.045825e-08 3.347228e-08 -2.080476e-08 2.592778e-09 5.809913e-09 -1.161268e-08
-1.984217e-08 2.464520e-08 -1.405010e-08 6.676829e-09 3.086687e-09 -3.953372e-09
-1.765237e-08 2.131550e-08 -2.401751e-08 1.816276e-08 4.195636e-09 -3.551052e-09
-8.863977e-09 -3.823446e-09 7.214691e-10 3.069687e-09 -1.087666e-09 6.962830e-11
-8.927057e-09 -7.362448e-10 1.295774e-09 -7.282836e-11 -1.223415e-09 -8.944020e-11
-9.215637e-09 1.008318e-09 -2.889182e-10 1.835396e-09 -1.352652e-09 9.330721e-10
-5.700342e-09 7.386941e-08 -7.077307e-08 -3.654230e-09 -1.590694e-08 -1.078004e-08
-8.859486e-09 1.692321e-08 -1.544609e-08 -3.997166e-09 -5.123936e-09 7.137644e-09
-7.570519e-09 -3.868417e-09 6.904115e-10 3.482925e-09 -1.127535e-09 2.882250e-10
-9.215637e-09 -8.717658e-10 1.286832e-09 2.414644e-09 -4.319911e-10 4.802449e-11
-8.350144e-09 -3.480618e-09 -4.486229e-10 3.569964e-09 -1.677321e-09 9.941175e-10
-1.122066e-08 1.397782e-08 -4.214705e-09 1.778856e-09 2.916410e-09 -7.411081e-10
2.003787e-08 -4.003060e-08 -1.277083e-08 1.098945e-08 -1.662790e-08 5.275507e-09
2.291382e-08 -4.553685e-08 -4.108724e-09 8.077026e-10 -2.347205e-09 4.158001e-10
1.948435e-08 -5.136784e-08 2.038010e-09 8.410154e-09 -9.693934e-09 2.312381e-09
-9.949358e-09 1.140790e-08 -9.169311e-09 -3.232210e-09 -9.660857e-10 1.195893e-09
2.052422e-08 -4.217659e-08 -3.870967e-09 2.858034e-09 -2.021196e-09 5.357051e-10
1.429434e-08 -3.227878e-08 -3.983757e-09 6.986566e-09 -2.275802e-09 -3.692830e-10
1.995665e-08 -4.137678e-08 -4.224296e-09 5.547851e-10 3.658916e-19 3.297598e-10
2.790120e-08 -2.586307e-09 -5.045954e-09 1.515326e-08 2.719169e-09 1.750068e-09
4.734776e-08 -1.172628e-09 -3.991627e-09 1.937386e-08 4.004002e-09 1.171130e-08
2.506779e-09 -8.250716e-10 -5.012581e-10 -3.825686e-10 -2.692517e-10 -1.489991e-10
2.434864e-08 4.572267e-10 -6.790187e-09 1.606265e-08 -2.295426e-10 2.501645e-10
2.088472e-08 6.963434e-10 -6.006822e-09 1.734203e-08 -9.031668e-10 3.534114e-11
1.602249e-08 2.659316e-08 -1.242159e-08 2.697184e-08 1.539883e-09 -6.546624e-09
-8.045157e-09 -4.493095e-09 1.737651e-09 2.788716e-09 -1.192863e-09 3.325096e-10
3.358645e-09 -1.867064e-08 -4.110122e-09 8.055819e-09 -3.988650e-09 8.147730e-10
-5.842191e-09 -9.437130e-09 1.475282e-09 1.060397e-09 2.587226e-10 1.060685e-11
2.480026e-08 2.208906e-08 -1.539874e-08 2.957688e-08 2.065884e-09 -4.306341e-09
-9.360069e-09 2.352118e-09 2.160829e-09 -4.445186e-10 -1.295142e-11 -7.048166e-10
5.173419e-09 1.157215e-08 -4.057382e-09 1.249901e-08 -2.603765e-09 -5.650707e-09
5.572086e-09 -3.022352e-08 7.042504e-09 4.486523e-09 7.972583e-10 -1.753761e-10
-7.391174e-09 2.406703e-09 -9.720125e-09 5.117654e-09 -4.808567e-09 3.018519e-09
-8.496571e-09 -9.224301e-10 2.340656e-09 -4.004250e-10 -1.263196e-10 -6.357617e-10
1.712207e-09 -2.846088e-08 6.375379e-09 5.724917e-09 3.915512e-10 -5.092493e-10
-9.553212e-09 2.919422e-09 1.857543e-09 -1.019482e-09 1.010676e-10 1.764429e-10
3.091861e-09 -2.708972e-08 5.544528e-09 8.742998e-09 1.556780e-09 -4.029705e-10
4.821293e-09 -2.726482e-08 5.973633e-09 8.265922e-09 1.308429e-09 4.588545e-10
-8.944918e-09 2.940525e-09 1.432538e-09 -1.229171e-09 -2.264433e-10 -2.144869e-10
5.699262e-09 -3.092275e-08 5.794163e-09 4.603770e-09 2.058811e-09 1.557648e-12
-1.530928e-09 -1.644577e-08 1.291611e-09 7.143945e-09 -2.559243e-09 2.066001e-10
2.720945e-09 -2.967974e-08 6.451281e-09 6.079306e-09 4.604129e-10 2.802363e-10
4.785342e-08 -3.718219e-08 3.744708e-08 1.374013e-08 8.315442e-09 2.287728e-08
-9.705491e-09 2.226057e-09 -3.705685e-10 -3.138473e-10 -1.186559e-09 -1.225135e-10
3.382054e-08 -3.553389e-08 9.838330e-08 -1.821603e-08 -4.708346e-09 6.744601e-09
-8.751904e-09 1.886433e-09 1.681912e-09 -5.552951e-10 -1.022900e-09 -4.835288e-10
1.794238e-08 -4.589453e-08 1.321913e-07 -1.861876e-08 -2.933425e-09 5.684736e-08
-9.024363e-09 3.942212e-09 1.177430e-09 -1.986446e-09 -1.147404e-10 1.753584e-10
2.718321e-08 -4.407714e-08 9.431945e-08 2.410302e-08 6.353021e-09 -5.533558e-10
-8.855301e-09 4.383734e-09 1.406573e-09 -5.825459e-10 -2.382927e-12 -1.854078e-10
-5.275706e-08 -7.188725e-08 2.128948e-07 2.213066e-08 2.803729e-08 7.086009e-08
-8.380363e-10 -4.970953e-08 1.842356e-07 -7.753483e-09 -5.986653e-09 8.975102e-09
-9.264584e-09 2.318269e-09 4.020873e-10 -9.870644e-10 -1.268699e-09 4.857270e-10
2.002514e-08 -5.731014e-08 3.595708e-09 -3.731736e-09 -1.039280e-08 2.249498e-10
9.642159e-09 -5.951969e-08 1.401190e-07 -7.763307e-09 -4.659831e-09 5.653775e-08
5.961708e-08 -4.381305e-08 1.143329e-07 2.540745e-08 1.154580e-08 7.147781e-08
4.236768e-09 -4.150768e-10 -7.970703e-10 -7.940953e-09 -1.378864e-10 1.363250e-10
8.483084e-09 -2.489625e-09 -9.637589e-10 -8.216795e-09 2.753176e-11 -7.058767e-10
2.376117e-09 3.872059e-10 -7.638921e-10 -6.647455e-09 1.432099e-11 -3.008465e-10
1.537352e-09 1.402333e-09 -6.196972e-10 -7.313832e-09 -5.385288e-10 5.095399e-10
2.210078e-09 3.642996e-10 -6.399681e-10 -6.513523e-09 -8.119749e-11 -3.100218e-10
-7.253880e-08 -6.666691e-08 2.900063e-07 -2.607729e-08 -2.525365e-08 3.334594e-08
6.386798e-09 -2.328968e-09 -1.082809e-09 -5.788252e-09 -3.943023e-11 -3.984697e-10
-7.269930e-09 3.609656e-08 -2.029965e-08 1.503088e-08 -2.215044e-09 -9.614282e-10
5.520310e-09 -1.715997e-09 -9.518382e-10 -6.449799e-09 -6.122270e-11 -3.225940e-10
-1.148125e-08 1.750625e-08 -1.031321e-08 -3.908420e-11 -7.513369e-11 -1.117858e-09
2.890296e-08 -3.316295e-08 -3.541360e-08 4.173327e-09 -1.950541e-08 2.885828e-09
2.978233e-09 -5.531255e-10 -7.616756e-10 -5.907539e-09 -4.938905e-10 2.358971e-10
1.290952e-09 3.444641e-10 -6.202474e-10 -6.676593e-09 -4.649590e-10 3.095928e-10
-3.397060e-09 2.877381e-08 -3.197810e-08 -4.251499e-09 -4.988779e-09 -2.883646e-09
2.307301e-08 -5.150343e-08 -2.564619e-09 -1.575856e-09 -6.439999e-09 -1.136308e-10
-1.296411e-08 6.409563e-09 -4.595582e-09 -8.379855e-09 -6.372697e-09 -2.508500e-09
2.273664e-08 -4.943755e-08 -1.957030e-10 1.996534e-10 -2.549202e-09 5.255206e-10
2.298785e-08 -4.645312e-08 -5.393725e-09 -2.147982e-10 -2.152203e-09 1.863651e-10
3.711617e-08 -4.244886e-09 -6.695226e-09 -1.056773e-08 1.568419e-10 2.326508e-09
-6.188037e-09 -1.706463e-08 7.484706e-09 1.448415e-10 7.522738e-11 0.000000e+00
2.263594e-08 -4.876633e-08 -6.915871e-10 3.913287e-10 -3.136209e-09 -3.817074e-11
2.294910e-08 -4.971233e-08 6.337375e-11 1.323157e-09 -7.874138e-09 1.117023e-10
2.276463e-08 -4.752491e-08 -9.512215e-09 1.407113e-09 -1.066319e-08 1.574609e-09
-1.682096e-08 6.477467e-09 1.204837e-09 1.871624e-09 4.949720e-09 -2.794317e-10
-1.005624e-08 -1.176554e-08 5.724694e-09 2.294906e-09 6.846674e-10 3.165468e-10
2.290095e-08 -5.214381e-08 4.982422e-09 9.481219e-10 -6.533056e-09 1.396643e-09
2.527464e-08 -6.119305e-08 -4.623362e-10 -1.053199e-08 -2.245485e-08 -2.180049e-09
-1.150198e-08 -7.000083e-09 1.124347e-09 1.321311e-08 3.033573e-11 -4.257661e-10
-7.050526e-09 4.598322e-09 9.368990e-10 -1.120908e-09 -1.048386e-10 -2.093340e-10
-7.989005e-09 4.255824e-09 1.057547e-09 -2.040636e-09 -1.198016e-10 2.085132e-10
-6.553897e-09 4.371764e-09 6.593535e-10 -1.393305e-09 -1.400658e-12 2.221436e-10
-6.493614e-09 4.058201e-09 7.206697e-10 -2.190170e-09 -8.044232e-11 -3.802002e-10
-1.785241e-08 1.051824e-08 -1.840394e-09 5.628692e-09 4.102837e-09 -1.405559e-09
-1.314386e-08 -5.857861e-09 4.447211e-09 2.545318e-09 1.306312e-09 -7.433958e-10
-8.911194e-09 -1.242056e-08 6.281652e-09 1.425493e-09 -7.429612e-12 -2.118172e-20
-6.572316e-09 4.661656e-09 6.967680e-10 -7.440542e-10 -6.209665e-11 -7.608467e-11
-1.509662e-08 2.758003e-08 -1.114258e-08 -6.108092e-09 4.408754e-09 -9.693135e-09
-7.008736e-09 4.747667e-09 6.922267e-10 -6.757108e-10 -4.768030e-11 -1.063944e-10
-7.058744e-09 4.665559e-09 8.216636e-10 -7.458865e-10 -9.726908e-11 -1.886358e-10
-7.527727e-09 -4.020945e-09 -1.035092e-08 -1.330672e-08 -6.843124e-09 -2.870716e-09
-1.014286e-08 -1.100847e-09 -2.868724e-09 -6.846719e-09 -3.230027e-09 -7.531502e-10
-1.165819e-08 1.090595e-09 -4.282028e-09 -8.632513e-09 -4.554321e-09 -2.717397e-09
-1.210757e-08 3.875364e-09 -4.823249e-09 -6.788980e-09 -6.620475e-10 1.510625e-10
-9.371252e-09 8.773444e-10 -7.361846e-09 -1.005072e-08 -2.697196e-09 -5.465769e-10
-1.614548e-10 1.012292e-09 1.594120e-10 3.830300e-09 -2.122316e-10 -3.366154e-10
-1.023809e-08 -1.021834e-09 -3.248816e-09 -6.882125e-09 -3.994105e-09 -1.339781e-09
-8.065941e-09 -8.610508e-10 -3.312429e-09 -9.376737e-09 -3.408345e-09 -1.467852e-09
-6.712540e-09 -1.882142e-09 2.674168e-09 -6.511225e-10 -1.993854e-10 -5.737276e-10
-6.531970e-09 -1.830888e-09 2.397459e-09 -5.769218e-10 4.426105e-10 -4.156019e-10
1.198493e-08 -6.558471e-09 -1.363990e-09 4.844424e-10 1.003936e-10 9.965362e-11
1.067430e-08 -5.903033e-09 -1.248576e-09 1.212189e-09 1.475495e-10 7.612289e-11
-6.644363e-09 -1.278204e-09 2.865794e-09 -9.096507e-10 1.483864e-10 -5.899030e-10
-6.941895e-09 -6.835821e-10 2.483874e-09 -1.225782e-10 8.647860e-12 -2.128796e-10
-4.398455e-09 2.581241e-09 5.327070e-10 1.101132e-09 2.821485e-10 -1.501008e-10
-4.772854e-09 2.696485e-09 6.819181e-10 1.258535e-09 2.599811e-10 1.264511e-11
-4.919753e-09 2.904622e-09 6.641390e-10 2.219802e-10 2.204066e-10 -1.486010e-10
2.338165e-10 2.896794e-11 -1.568612e-10 1.062321e-09 1.845699e-11 -3.686562e-10
5.957461e-09 -2.974466e-09 -7.414487e-10 3.752862e-09 1.913447e-11 -7.143361e-10
1.894763e-09 -7.287824e-10 -3.460219e-10 1.135000e-09 -1.351808e-10 2.198686e-11
-5.587514e-09 2.567947e-09 1.039536e-09 1.185925e-09 2.471712e-10 -1.061296e-10
-5.610516e-09 3.176414e-09 7.572318e-10 6.541436e-10 1.619608e-10 -1.927334e-10
3.871908e-09 -2.307983e-08 4.869880e-09 -3.238925e-09 9.328298e-10 -4.082186e-10
-3.474982e-09 1.963769e-09 3.751754e-10 9.444312e-10 3.032261e-10 -5.560952e-11
-3.033137e-09 2.094926e-09 2.357763e-10 8.356196e-10 1.504750e-10 -1.278827e-10
-5.947695e-09 3.176934e-09 8.317762e-10 6.776712e-10 1.726674e-10 -1.603727e-10
-4.738279e-09 2.615214e-09 5.415082e-10 4.884113e-10 2.510382e-10 -1.662277e-10
4.927304e-09 -2.423495e-08 5.317734e-09 -5.139201e-09 -1.242082e-09 -3.378135e-10
-5.823171e-09 3.840405e-09 5.062262e-10 -2.453132e-09 -2.608165e-10 3.194222e-12
1.210983e-08 -3.545416e-08 4.223915e-09 -3.858765e-09 3.436931e-10 -1.208750e-10
-6.148936e-09 4.497824e-09 7.006966e-10 -1.070659e-09 -7.279310e-11 -1.125872e-11
-6.824180e-09 4.482620e-09 6.984131e-10 -1.191006e-09 -8.828639e-11 -7.269048e-11
-5.810879e-09 4.330196e-09 7.879779e-10 -1.304769e-09 -2.892017e-10 -5.386771e-10
1.287396e-08 -3.797252e-08 4.990664e-09 7.204586e-09 8.426471e-10 -6.132386e-10
4.927304e-09 -2.302487e-08 3.543470e-09 -5.768846e-09 1.137948e-09 -6.870683e-12
-5.132560e-09 3.455844e-09 4.630984e-10 -2.150468e-09 -1.478375e-10 -1.553669e-10
2.921537e-09 -2.134210e-08 5.188803e-09 -3.027335e-09 -3.065059e-10 1.356593e-10
6.545226e-09 -2.508990e-08 5.720772e-09 -5.873432e-11 1.863034e-10 -1.152634e-10
4.472931e-09 -2.402099e-08 5.506528e-09 -6.796710e-09 -2.589772e-10 -1.179694e-09
8.853840e-09 -4.661657e-09 -1.284511e-09 -2.505855e-09 -6.299991e-11 3.406348e-10
2.146240e-08 -5.130116e-08 4.515633e-09 1.420660e-09 -3.145735e-09 3.955223e-10
-4.770322e-09 2.274943e-09 8.534879e-10 1.937632e-09 3.133906e-10 -1.990026e-10
2.051340e-08 -4.229201e-08 -6.890666e-09 3.546725e-09 -5.307427e-09 8.801273e-10
-7.484610e-09 3.101616e-08 -2.421916e-08 3.774039e-09 -8.132477e-09 -1.026490e-08
-1.521423e-08 9.916544e-09 -2.232355e-09 -2.956215e-09 -6.906890e-09 -2.112839e-09
-9.232467e-09 1.957589e-08 -1.922274e-08 -9.770184e-09 -9.384552e-09 -7.115196e-09
2.089616e-08 -3.815893e-08 -1.317198e-08 5.453706e-09 -4.886159e-09 3.014597e-10
1.802775e-08 -3.825336e-08 -6.735632e-09 2.887535e-09 -8.583038e-10 6.665426e-10
4.220759e-08 -1.681127e-08 6.895493e-09 1.846512e-08 -3.233362e-10 3.142320e-09
2.053106e-08 -4.024320e-08 -7.530418e-09 2.928144e-09 -1.686833e-10 2.590116e-11
1.899229e-08 -4.197178e-08 -2.789872e-09 2.553625e-09 -2.531496e-09 6.795748e-10
-1.679421e-08 3.456393e-09 9.734971e-10 -6.648415e-10 -1.641853e-09 -1.704961e-10
9.846872e-09 -5.599221e-09 -1.373740e-09 2.179514e-11 -4.965306e-12 -1.258815e-11
9.688387e-09 -5.463632e-09 -1.357860e-09 3.105376e-11 -1.309328e-11 2.910754e-10
9.807151e-09 -5.986670e-09 -1.271156e-09 -2.725751e-10 -4.715228e-11 1.242090e-10
1.301903e-08 -7.306610e-09 -1.170979e-09 2.047605e-10 -3.973388e-11 -4.645862e-11
-1.576986e-08 3.407350e-09 1.728757e-09 -1.403032e-09 -2.995873e-09 -2.837322e-10
8.032751e-09 -4.133619e-09 -1.125324e-09 -6.741410e-10 -2.093358e-10 4.207290e-10
9.902516e-09 -5.583978e-09 -1.344610e-09 -5.181122e-11 -9.023782e-12 9.350663e-22
-1.597089e-08 2.330978e-09 3.042421e-09 -3.542830e-09 -1.943275e-09 -1.096426e-09
1.255970e-08 -6.302387e-09 -1.283744e-09 1.531133e-10 3.177944e-11 -7.148836e-12
7.149448e-09 -4.205973e-09 -9.677414e-10 7.040782e-10 2.881961e-11 -9.296985e-11
1.077362e-08 -6.038877e-09 -1.295997e-09 -2.825092e-09 -9.624834e-11 -1.284326e-10
-1.575380e-08 6.143818e-09 2.388421e-09 -3.795025e-09 -1.824465e-09 -7.674343e-10
4.473124e-09 -1.938939e-09 -8.689711e-10 -4.266136e-09 -3.559719e-10 5.133920e-10
-1.579630e-08 3.701156e-09 1.802127e-09 -4.180223e-09 -2.419595e-09 -4.608398e-10
7.419939e-09 -4.473289e-09 -1.158122e-09 -1.861876e-09 -3.692998e-10 -1.027001e-11
8.133494e-09 -4.240680e-09 -1.052131e-09 -4.425176e-10 -1.902919e-10 -4.385270e-11
3.184150e-09 -1.642018e-09 -5.812821e-10 3.537182e-09 -6.403323e-12 -3.465916e-11
1.393884e-08 -7.062354e-09 -7.214771e-10 7.269941e-10 6.500129e-11 -1.276771e-10
1.113219e-08 -6.302387e-09 -1.368060e-09 1.325510e-10 8.401238e-11 2.233440e-10
1.009409e-08 -5.803010e-09 -1.293948e-09 1.374161e-11 -4.002175e-11 7.468415e-11
-1.686485e-08 6.870448e-09 5.954550e-10 -1.211127e-09 -3.396900e-09 -6.543976e-10
1.112561e-08 2.359580e-09 -4.775380e-09 -1.158077e-08 -1.228148e-09 4.374546e-11
-1.674465e-08 7.500364e-09 -3.493739e-10 -7.856929e-10 -2.797276e-09 -1.405631e-11
-1.657717e-08 6.887690e-09 1.563673e-09 -1.285134e-09 -3.529379e-09 -1.243545e-10
-2.800149e-09 1.298665e-08 -6.326113e-09 -5.745601e-09 2.152633e-09 -1.696125e-09
-8.960625e-09 2.117829e-08 -1.313485e-08 -1.599695e-08 6.346724e-09 -2.744421e-09
-2.481055e-08 9.547187e-08 -5.814406e-08 -1.350259e-08 -3.090577e-09 -7.804381e-09
-2.482145e-08 9.475944e-08 -5.736859e-08 -1.292064e-08 7.113772e-09 -2.440104e-08
-2.947565e-08 9.747426e-08 -7.446780e-08 2.963688e-09 2.055402e-08 -3.610887e-08
-2.496412e-08 9.263254e-08 -8.534019e-08 -1.406072e-08 3.370296e-08 -2.985993e-08
-1.003119e-08 2.245841e-08 -9.340556e-09 -4.188820e-09 -2.474559e-10 9.848298e-10
7.929598e-09 3.938006e-09 3.770837e-08 -4.070725e-08 -1.195016e-08 1.819095e-08
1.889717e-08 3.875399e-09 2.054653e-08 -3.491367e-08 -8.548273e-09 9.664476e-09
-6.161202e-08 2.225738e-08 9.255236e-08 -5.262260e-08 -6.470860e-09 2.550232e-09
-2.486037e-08 9.781499e-08 -5.577774e-08 -5.649486e-09 -1.087456e-08 -9.003161e-09
-7.832774e-09 4.908827e-09 1.057892e-09 -2.859443e-10 -9.457570e-12 -2.157477e-10
-8.271834e-09 4.635873e-09 9.489942e-10 -1.250428e-09 -1.393350e-10 -2.711394e-10
-8.572871e-09 4.181365e-09 1.261386e-09 -1.401607e-09 -1.664311e-10 -2.425210e-10
1.271656e-08 1.208889e-08 1.535741e-08 3.227256e-08 1.890608e-09 -2.960038e-10
-7.157398e-09 4.616546e-09 9.099375e-10 -1.095889e-09 -1.118450e-10 -1.707661e-10
-8.292814e-09 4.681245e-09 1.039141e-09 -2.553656e-10 -1.567313e-11 -6.326495e-11
-8.546122e-09 3.416810e-09 3.865024e-10 -2.233865e-09 -4.891422e-12 1.782250e-10
5.812498e-09 4.340735e-09 -1.793314e-09 -1.472696e-08 3.128244e-10 -2.565068e-10
-6.787717e-09 4.250146e-09 5.977814e-10 -1.819915e-09 -1.726610e-10 -2.971814e-10
-7.543821e-09 4.745538e-09 9.648184e-10 -8.652821e-10 -1.999023e-11 1.229581e-10
-6.795835e-09 4.853343e-09 6.635241e-10 -6.654079e-10 -1.056537e-10 -2.737466e-10
-9.454329e-09 2.662656e-09 -2.734506e-10 -6.839290e-10 -1.522114e-10 3.377618e-10
-6.590481e-09 4.844448e-09 6.669805e-10 -6.856595e-10 -9.146128e-11 -1.604527e-10
-6.045323e-09 7.049178e-09 -3.231256e-09 -9.961489e-09 1.061720e-10 1.697433e-10
-7.625774e-09 2.861317e-09 1.423700e-09 2.026193e-10 -6.580070e-12 -1.494798e-10
-7.884530e-09 4.924611e-09 9.707564e-10 -2.999965e-10 2.308304e-11 -1.451633e-10
-6.938926e-09 4.850255e-09 6.864820e-10 -5.344303e-10 -8.039702e-11 4.569078e-11
-7.594380e-09 5.078418e-09 7.545498e-10 -2.881029e-10 -6.598655e-11 -2.220355e-10
-7.594498e-09 1.299959e-09 1.972067e-09 3.277036e-10 1.315481e-11 -2.296336e-10
-7.456032e-09 5.164738e-09 8.111747e-10 -1.735057e-10 -6.131984e-12 -2.475171e-10
-6.571504e-09 3.823901e-09 9.371466e-10 -1.414513e-11 -5.613288e-12 -2.249712e-11
-6.814694e-09 3.748200e-09 8.965859e-10 2.016995e-10 4.721046e-11 1.976197e-11
-6.946433e-09 3.892174e-09 9.123555e-10 2.543969e-10 8.298062e-11 -1.020846e-10
-6.180260e-09 3.157290e-09 1.086755e-09 7.940009e-10 1.124312e-10 -9.684131e-11
-5.761658e-09 3.425892e-09 8.324259e-10 3.635315e-10 1.325985e-10 3.391526e-11
-5.561916e-09 3.492092e-09 6.624159e-10 3.971630e-10 5.486576e-11 -3.859646e-11
-6.608530e-09 3.836698e-09 8.364847e-10 2.332654e-10 1.257483e-10 -2.061029e-11
-7.371968e-09 2.377620e-09 1.650306e-09 1.808855e-10 -1.220732e-10 -6.537260e-11
-3.948974e-09 2.307390e-09 4.841412e-10 1.162211e-09 1.333598e-12 -6.362043e-10
4.645631e-10 6.704388e-10 -2.132676e-10 2.975931e-09 -2.578116e-11 -4.580260e-10
-6.475742e-09 3.898226e-09 9.420413e-10 1.225349e-10 8.565370e-12 5.446055e-11
2.466689e-08 -4.434501e-09 -2.848522e-09 -1.207642e-08 2.557790e-10 -2.358983e-11
-4.880468e-09 2.957569e-09 5.404617e-10 -2.486722e-11 2.402991e-10 -6.246881e-11
-7.119629e-09 3.928941e-09 9.165477e-10 1.830710e-10 1.211580e-10 -1.496907e-10
-6.900705e-09 3.206898e-09 1.116440e-09 7.965330e-10 8.893708e-11 -1.140887e-11
-6.595368e-09 3.526146e-09 7.968617e-10 1.686624e-10 2.994989e-11 -8.166121e-11
-5.893806e-09 3.541544e-09 7.259384e-10 1.784479e-10 6.638590e-11 -2.284329e-10
-6.478236e-09 3.737015e-09 8.608501e-10 -4.644557e-11 1.197492e-11 -9.888001e-11
-6.094395e-09 3.430452e-09 8.333101e-10 7.111036e-10 1.998229e-10 -1.712058e-10
-6.933595e-09 3.318456e-09 1.195157e-09 5.979270e-10 1.828092e-10 -2.124287e-10
-6.571504e-09 3.786926e-09 8.626546e-10 1.474554e-11 1.096478e-11 -5.428236e-11
-6.955994e-09 3.878579e-09 9.336290e-10 2.662381e-10 8.980039e-11 -1.037229e-10
-1.683755e-09 -1.775476e-08 3.419090e-09 1.077132e-08 1.578737e-10 2.566371e-10
-6.354181e-09 3.687667e-09 8.201955e-10 5.923528e-11 7.633560e-11 -7.171974e-11
-2.772461e-09 -1.077418e-08 -1.234821e-08 2.401613e-08 2.221447e-09 -1.401365e-09
2.023362e-08 -4.206023e-08 -8.581461e-09 -2.084417e-09 4.899415e-09 4.883271e-10
3.347071e-08 -3.611414e-08 -3.334073e-08 -2.355803e-09 1.725215e-08 -1.117874e-10
1.651274e-08 -2.369607e-09 -6.204945e-08 3.172947e-08 2.909945e-08 -1.190960e-08
2.452369e-08 -4.597175e-08 -1.450965e-08 -1.304705e-09 -1.872673e-08 3.239765e-09
2.602993e-08 -3.125394e-09 -6.815824e-08 -1.748586e-08 1.074449e-08 5.553508e-09
2.790629e-08 -4.125999e-08 -3.297115e-08 3.961994e-09 1.700762e-08 -7.257286e-10
-6.882833e-09 1.268004e-08 -3.398027e-08 2.761253e-08 4.874348e-09 -3.113515e-09
1.990795e-08 -3.147587e-08 -1.541995e-08 7.149914e-09 -1.021584e-09 1.229061e-09
-1.655734e-09 -8.671699e-09 -1.234821e-08 2.243493e-08 2.473535e-09 -1.637748e-09
-8.387406e-10 1.026677e-09 2.767537e-10 2.718964e-09 4.199177e-11 7.457043e-11
2.420168e-08 -3.369820e-08 -2.468406e-08 4.607849e-09 -8.080584e-09 7.264625e-10
-3.101221e-09 1.820806e-09 3.087313e-10 2.045275e-09 1.581415e-10 -9.664503e-11
2.488611e-08 -4.041296e-08 -2.626763e-08 2.955635e-09 -8.347521e-09 1.199909e-09
-3.296448e-09 1.691088e-09 4.165255e-10 2.815506e-09 4.170451e-10 1.321676e-11
-4.812245e-09 2.444820e-09 6.082903e-10 1.486158e-09 2.537439e-10 -1.183789e-10
2.388524e-08 -4.272915e-08 -1.709696e-08 3.129229e-09 -1.089406e-08 8.717274e-10
-6.302955e-09 2.750621e-09 1.190818e-09 1.806445e-09 3.092797e-10 -3.333767e-10
2.315213e-08 -3.363026e-08 -2.245085e-08 4.747168e-09 -7.651161e-09 2.408648e-09
7.751019e-09 1.237012e-08 -5.760750e-09 5.889470e-09 -3.636148e-09 -1.470056e-09
-9.735023e-09 2.007436e-08 -1.452377e-08 4.866778e-10 -5.542225e-09 -9.015735e-09
9.740493e-10 -1.411407e-10 -3.197780e-10 3.090373e-09 -8.861065e-11 -6.017427e-10
-8.440812e-10 1.004396e-09 4.547118e-11 2.597120e-09 -4.633271e-11 9.550960e-11
-9.377175e-10 6.704388e-10 9.753442e-11 2.806460e-09 3.692255e-10 -8.022505e-11
2.727854e-09 1.572756e-08 -1.090574e-08 1.545467e-08 -1.151478e-09 -1.040165e-08
2.625953e-09 -1.295406e-09 -5.883800e-10 2.149258e-09 -1.297074e-10 -2.109246e-11
-7.559251e-10 1.004396e-09 9.119949e-11 2.632049e-09 -6.470076e-11 2.885248e-11
7.278213e-09 8.995163e-09 -9.214561e-09 1.180535e-08 -3.557224e-09 -4.448957e-09
-1.112941e-10 3.122582e-10 -8.757040e-11 3.509108e-09 3.314655e-10 1.117408e-10
-4.888215e-09 2.743547e-09 6.625489e-10 2.737400e-09 1.908064e-10 -2.073892e-10
-3.652581e-09 -1.053371e-08 -4.753806e-09 -1.681153e-08 3.452693e-09 1.183735e-09
-1.780887e-09 -1.495123e-08 2.737313e-09 -1.101582e-08 5.262411e-10 -3.262332e-10
2.423284e-09 1.893068e-08 -8.777480e-09 7.677953e-09 -4.441381e-09 -3.391507e-09
5.738605e-08 -2.600490e-08 1.633275e-08 3.365399e-09 2.060457e-09 1.446700e-08
1.798628e-08 -3.994025e-08 -2.512585e-09 -3.236215e-09 2.439096e-09 4.914924e-10
2.032275e-08 -2.542769e-08 -2.628512e-08 9.454291e-09 -1.271298e-08 3.571682e-09
2.042288e-08 -2.362350e-08 -2.756394e-08 8.656860e-09 -5.178701e-09 1.954207e-09
2.683332e-08 -2.674629e-08 -3.326084e-08 2.166253e-09 -5.471644e-09 1.270940e-09
-4.880492e-09 -8.795506e-09 3.732136e-09 -5.356605e-09 -2.173042e-10 1.627854e-11
-2.205064e-09 -4.573911e-09 -5.953460e-09 -1.911251e-08 6.384908e-09 2.276593e-09
6.828412e-09 -1.707500e-08 -1.681183e-08 -2.159014e-08 9.420413e-09 2.890183e-09
7.409883e-09 -2.992132e-08 2.954917e-09 -7.943200e-09 7.194547e-10 -2.112599e-10
2.683326e-08 -2.570063e-08 -2.599838e-08 2.136167e-09 -1.052820e-08 1.290155e-09
2.683409e-08 -2.051808e-08 -4.328828e-08 2.030504e-09 -8.260040e-09 1.174623e-09
8.813111e-09 -1.320414e-08 -2.343977e-08 -2.234894e-08 5.520095e-09 1.941189e-09
-8.787602e-09 -1.515003e-09 2.073365e-09 1.178233e-09 -1.728811e-10 -1.354532e-10
-9.096540e-09 -1.367249e-09 1.136156e-09 9.555348e-10 1.161591e-10 -2.616947e-10
-1.763870e-10 -1.417567e-08 -2.004796e-09 -1.535536e-08 2.079239e-09 -8.327024e-11
8.446169e-09 -2.813956e-08 -2.542631e-09 -1.297466e-08 4.512362e-09 7.529595e-10
3.010438e-08 2.778459e-08 -1.193141e-07 -2.638389e-08 4.980698e-08 1.770747e-08
-8.933337e-09 -9.833379e-11 1.863297e-09 2.339205e-10 -6.213776e-10 2.101148e-10
-8.917882e-09 -9.912497e-10 1.456868e-09 -1.314144e-10 -2.662679e-10 -1.610297e-10
-6.992675e-09 -5.688188e-09 8.312884e-10 1.977180e-09 3.226979e-10 8.550339e-11
-8.397144e-09 -2.743378e-09 2.169188e-09 -2.068578e-11 -5.664678e-10 -1.210061e-10
3.367213e-09 -2.124666e-08 -1.960954e-09 -1.646542e-08 1.957022e-09 7.731191e-10
-8.161344e-09 -3.827867e-09 2.012095e-09 1.288693e-09 5.391358e-10 -1.283738e-10
1.287057e-08 -3.771606e-08 7.458719e-09 6.579184e-10 3.691829e-10 -7.774636e-11
1.252653e-08 -3.755234e-08 7.457971e-09 8.503721e-10 2.903054e-10 -2.181277e-11
-9.591174e-08 1.936249e-08 2.543499e-07 4.900892e-08 1.297066e-07 7.545002e-08
2.300324e-08 -4.661090e-08 -7.436996e-09 -2.569072e-09 -1.275023e-08 1.225475e-10
-1.330452e-08 1.750625e-08 -1.171344e-08 -4.538751e-09 -2.407798e-10 -3.738407e-10
1.289692e-08 -3.772029e-08 6.580991e-09 5.182130e-10 4.825072e-10 -1.345089e-10
1.147982e-08 -3.622850e-08 6.973956e-09 1.850070e-09 4.529435e-10 2.630507e-12
1.178376e-08 -3.777665e-08 7.288967e-09 9.339982e-10 -5.197424e-11 -3.695863e-11
-8.419470e-09 4.632318e-09 1.236544e-09 -2.612657e-10 -9.876922e-11 -4.736305e-10
-6.597141e-08 1.396535e-08 2.533579e-07 4.326058e-08 -5.883110e-09 9.803905e-09
-6.191295e-09 3.282849e-08 -2.478594e-08 3.285655e-09 -2.062769e-09 -1.678119e-09
-7.745234e-09 4.981688e-09 9.520775e-10 -2.016858e-10 -7.535506e-11 -4.466544e-10
2.491749e-08 8.931915e-08 -1.315002e-07 -1.709469e-08 3.715364e-08 2.472418e-08
1.639428e-08 4.312374e-08 -9.065689e-08 -1.438377e-08 -3.951533e-08 -7.395997e-09
-7.738069e-09 4.921937e-09 8.827947e-10 -6.644334e-10 -1.088232e-10 -1.883654e-10
-7.488351e-09 4.987980e-09 8.475818e-10 -4.971120e-10 -8.816725e-11 -1.934520e-10
-1.172303e-08 2.348514e-09 -4.186883e-09 -6.120239e-09 -1.183796e-09 -3.633058e-10
4.237831e-09 -2.075798e-09 -6.758474e-10 1.156612e-09 -1.470464e-10 2.262635e-12
5.802410e-09 -3.176520e-09 -7.710934e-10 1.215379e-09 1.391673e-10 -2.082092e-10
4.523029e-09 -1.980148e-09 -6.216045e-10 1.110195e-09 1.199612e-10 -2.122724e-10
4.506870e-09 -2.870929e-09 -6.356711e-10 1.269210e-09 -4.399858e-11 -1.689642e-10
1.077740e-08 -4.653889e-09 -2.474598e-10 5.304349e-09 -1.189628e-10 -3.350769e-10
4.498279e-09 -1.466645e-09 -6.036602e-10 1.244253e-09 -7.748480e-11 -2.049623e-10
9.081255e-09 -3.994512e-09 -7.405578e-10 4.410858e-09 2.225420e-10 3.327259e-10
5.745841e-09 -2.993394e-09 -8.104140e-10 5.733165e-10 1.881824e-10 4.602563e-10
6.454038e-09 -3.133770e-09 -7.216578e-10 7.581196e-10 9.607670e-11 4.171369e-10
1.170073e-08 -6.600533e-09 -1.418937e-09 -6.665800e-10 -4.523681e-11 5.392065e-11
4.657689e-09 -2.150865e-09 -6.852994e-10 2.874319e-10 2.319382e-10 -3.430367e-11
8.871741e-09 -5.031867e-09 -1.276384e-09 -2.646936e-09 -2.626077e-11 -1.699996e-11
3.149609e-09 -1.448242e-09 -3.572973e-10 1.491079e-09 -9.355056e-11 -7.149441e-10
-3.128516e-09 2.202882e-09 2.412959e-11 -2.376366e-09 -1.511453e-10 2.299716e-12
5.938306e-09 -2.834736e-09 -8.581034e-10 1.413735e-09 1.950371e-10 2.242855e-10
-7.958683e-09 4.669190e-09 -7.196190e-10 -4.076904e-09 -4.755929e-11 3.213842e-10
5.074524e-09 -2.677148e-09 -7.103567e-10 3.106833e-10 5.159961e-11 9.756862e-11
1.737680e-09 -7.209517e-10 -3.887370e-10 2.090533e-09 1.467904e-10 -9.442208e-11
1.638923e-09 -3.309282e-10 -2.646332e-10 2.102463e-09 2.731149e-10 1.128262e-10
1.017389e-08 -4.484275e-09 -1.102325e-09 -4.965211e-09 -1.303624e-10 -3.152767e-10
-7.722907e-09 -4.800787e-09 1.736131e-09 1.771549e-09 -1.044766e-09 1.680416e-10
6.297011e-09 -1.506288e-09 -8.937455e-10 -9.618858e-09 -5.285782e-10 6.438388e-10
-4.818805e-09 -6.703663e-09 -2.066436e-10 2.750734e-09 -9.529626e-10 -2.444178e-10
1.820155e-08 1.985266e-08 -7.414125e-08 2.275392e-09 -1.137274e-08 2.313943e-09
-9.245774e-09 5.009080e-09 -2.310771e-09 -2.243359e-09 -2.355956e-10 4.819132e-10
-1.173212e-08 1.021663e-08 -7.316459e-09 -1.264666e-09 -3.639229e-09 4.344913e-09
-9.554755e-09 4.833881e-09 -1.786666e-09 -1.448049e-09 -4.261261e-10 -2.165876e-10
-4.637492e-09 1.603934e-08 -1.922530e-08 3.760537e-09 -3.091291e-09 2.149221e-09
-7.234380e-09 -5.689296e-09 2.247989e-09 1.431101e-09 -5.599777e-10 -3.394229e-10
-4.807953e-09 -9.629950e-09 1.173144e-09 3.059243e-09 -1.485417e-09 -6.888632e-11
-5.898535e-09 -8.663714e-09 2.027957e-09 1.753072e-09 -8.276704e-10 -1.507847e-10
-1.072356e-08 2.387321e-08 -2.315006e-08 -3.321736e-09 -7.879936e-09 1.142344e-08
-9.501336e-09 2.128753e-08 -2.634079e-08 1.603552e-09 -8.630320e-09 1.079438e-08
-6.006581e-09 -9.057411e-09 7.622218e-10 2.925447e-09 -1.555981e-09 2.789082e-10
-6.416480e-10 3.381192e-08 -7.532622e-09 -3.139200e-08 -5.416795e-09 3.352770e-09
-8.045156e-09 -2.296400e-09 6.802319e-10 2.359472e-09 -6.356458e-10 -9.346744e-11
4.785820e-09 5.460076e-08 -7.575853e-08 -1.335031e-08 -2.128496e-09 7.280928e-09
5.050130e-08 -2.160696e-08 -6.069667e-10 -5.679081e-10 -1.075950e-09 1.119178e-09
3.321054e-09 2.163126e-09 -1.157089e-09 -1.146818e-08 1.995968e-10 -2.452174e-10
7.280452e-10 3.436407e-10 -3.607199e-10 -1.836713e-10 -4.576607e-10 -2.390033e-12
4.262144e-08 -1.464396e-08 -1.874841e-09 -4.283810e-09 -4.466085e-10 2.339809e-09
4.910716e-08 -2.267811e-08 3.186233e-10 -3.144357e-09 3.669034e-10 2.819002e-09
-1.560003e-09 7.451680e-09 -1.724612e-10 -1.681541e-08 1.425072e-09 -8.283615e-10
4.325801e-09 2.122443e-09 -4.394709e-10 -1.441911e-08 -2.636765e-10 9.467837e-10
5.240593e-08 -2.444586e-08 1.088470e-08 -6.366944e-09 -8.900202e-10 7.959424e-09
4.954738e-08 -1.971434e-08 2.579432e-10 -2.577258e-09 3.557806e-12 1.078477e-09
4.748804e-08 -1.928889e-08 -1.731292e-09 -2.186057e-09 3.639013e-10 -9.461101e-10
9.994788e-09 -4.803184e-09 -6.777281e-10 5.085496e-09 2.842278e-10 -3.449252e-11
1.072971e-08 -5.733971e-09 -1.102325e-09 -5.147054e-09 1.264855e-11 -1.968479e-10
5.572694e-09 -2.491909e-09 -8.173853e-10 -1.894230e-09 -7.497723e-12 -5.949876e-10
1.258649e-08 -7.139453e-09 -1.165049e-09 -2.501399e-09 -4.278555e-11 -4.029310e-11
8.994432e-09 -4.477749e-09 -1.333339e-09 -2.334562e-09 -3.589307e-10 -8.596524e-11
1.319371e-08 -6.136536e-09 -1.077911e-09 -3.185083e-09 -9.233436e-11 -6.846235e-11
1.551961e-08 -6.985432e-09 -9.515344e-10 -1.619631e-09 -1.150879e-11 -2.305554e-10
1.361124e-08 -7.011912e-09 -1.026056e-09 6.789101e-10 -1.026545e-11 -4.504930e-10
8.366429e-09 -4.673157e-09 -1.205321e-09 -2.589465e-09 -9.280965e-11 -1.346368e-11
7.674604e-09 -4.097919e-09 -1.054433e-09 -2.513846e-09 -4.009880e-10 2.245207e-10
1.188769e-08 -5.475342e-09 -7.231113e-10 -6.843267e-09 -1.873097e-10 9.447572e-10
6.884025e-09 -3.611115e-09 -1.094686e-09 -3.025767e-09 -2.647047e-10 -2.415868e-10
6.380228e-09 -2.813807e-09 -9.705285e-10 -3.094595e-09 -3.801059e-10 2.289180e-11
-6.449341e-09 2.924290e-09 1.009295e-09 6.770815e-10 2.043772e-10 -5.391776e-11
-6.935863e-09 3.170688e-09 1.113152e-09 6.729250e-10 5.990763e-11 -1.984306e-10
1.330410e-08 -5.951445e-09 -9.086012e-10 -4.163339e-09 -6.688318e-12 5.587864e-11
1.420457e-08 -6.791408e-09 -1.183785e-09 -7.976161e-10 1.140599e-11 1.517542e-11
-7.411944e-09 2.222343e-09 1.449445e-09 8.666711e-11 2.492242e-10 -7.217305e-11
3.023964e-08 -8.467614e-09 4.121483e-08 -3.799563e-08 -1.559585e-08 2.296551e-08
2.014748e-08 5.243805e-09 -1.754827e-09 -1.520955e-08 1.562518e-09 -3.392848e-09
-6.886411e-09 3.073857e-09 1.238955e-09 7.004330e-10 7.280576e-11 7.901413e-11
-1.243779e-08 5.620773e-08 -2.249695e-08 -2.186437e-08 2.288152e-09 -2.209710e-09
-7.117524e-09 2.383622e-09 1.758526e-09 2.351195e-10 -4.655631e-11 7.166478e-11
5.258739e-08 -2.862369e-08 1.976178e-08 -3.805079e-09 2.118376e-09 2.014689e-08
-7.525672e-09 3.343733e-09 1.255262e-09 2.671743e-10 5.857543e-11 -2.768585e-10
-2.248256e-08 3.787124e-08 -2.249695e-08 -7.589076e-09 6.439374e-10 -5.326976e-10
-6.928573e-09 3.098891e-09 1.234536e-09 2.971849e-10 7.496026e-11 -1.292217e-10
-1.624495e-08 1.023650e-08 -2.127574e-09 4.593652e-09 4.908501e-09 -1.748817e-09
5.495583e-08 -2.082605e-09 -7.299236e-09 1.484460e-08 1.056025e-09 1.080083e-08
-7.564306e-09 2.122220e-09 1.792711e-09 6.137309e-10 4.542482e-13 6.939604e-11
2.656004e-08 3.720533e-10 2.584317e-09 2.444195e-08 -1.638299e-09 -1.307876e-09
-2.481347e-08 4.704300e-08 -3.907045e-08 3.649897e-09 5.804835e-09 -9.955886e-09
5.993668e-09 -3.041899e-09 -9.297967e-10 -5.368379e-10 -1.600611e-10 -3.158449e-10
9.239558e-09 -4.559110e-09 -1.178635e-09 -2.155374e-09 -8.146631e-11 1.422003e-10
6.478510e-09 -2.933875e-09 -1.027895e-09 -3.244792e-09 1.043980e-10 -1.079579e-10
-1.310863e-08 6.818504e-08 -5.993404e-08 2.312328e-09 9.723991e-09 -6.624529e-09
5.064241e-09 -2.224230e-09 -8.997432e-10 -2.605929e-09 -1.118558e-10 1.314941e-10
-3.092751e-09 -5.480323e-09 -1.245677e-08 -2.246727e-08 3.835382e-09 2.276048e-09
1.590191e-08 1.448752e-08 -1.000644e-08 1.437913e-08 -3.632782e-10 -4.009503e-09
2.897871e-09 -1.424404e-08 -2.001918e-09 -1.766421e-08 2.090593e-09 9.215742e-10
1.196115e-08 -2.820698e-08 -8.849028e-09 -1.538556e-08 -1.118374e-09 -2.697366e-12
5.658351e-09 -2.417837e-09 -9.881701e-10 -3.350442e-09 -2.863382e-10 4.363778e-10
2.722651e-08 -2.726664e-08 -5.260775e-08 2.217860e-08 2.801163e-08 -6.099107e-10
7.495986e-09 -3.202814e-09 -9.986718e-10 -2.537500e-09 -4.598240e-10 1.842995e-10
-7.822169e-09 6.345293e-09 -2.123663e-09 -6.428927e-09 -6.663561e-12 9.979245e-11
-3.926206e-09 4.465636e-09 -9.371011e-10 -7.153089e-09 2.168923e-10 1.363212e-10
6.689042e-09 -3.202922e-09 -1.129806e-09 -2.639002e-09 -3.632257e-10 6.377257e-10
-7.049971e-09 -7.306297e-10 -9.484474e-09 7.675256e-09 -4.699090e-09 3.691512e-09
-6.451409e-09 6.254665e-09 -1.730522e-09 -6.495653e-09 -1.467313e-09 1.076099e-09
-3.661513e-09 8.497054e-09 -3.965220e-09 -1.264235e-08 -1.029278e-09 2.796474e-09
-7.291292e-09 1.036266e-08 -1.731298e-08 5.082185e-09 -2.175949e-09 2.351328e-09
6.201022e-10 1.813072e-09 -1.157087e-09 -8.909109e-09 2.342446e-10 -7.328076e-10
8.948446e-09 -1.890433e-09 -1.317733e-10 -1.185651e-08 -5.187377e-11 -1.186967e-09
3.061280e-09 7.243729e-09 -2.480308e-09 -1.674131e-08 3.866927e-10 -3.350555e-10
-7.150090e-09 2.696922e-09 -1.264589e-08 6.562468e-09 -5.884713e-09 2.792731e-09
5.719443e-10 -5.582751e-10 -2.496782e-08 1.279674e-08 -9.553273e-09 5.517453e-09
7.246950e-10 9.640922e-09 -4.153287e-08 1.023274e-08 -1.708815e-08 8.391786e-09
-5.592679e-09 -2.749670e-10 -1.531882e-08 1.147749e-08 -6.743073e-09 6.506360e-09
-9.692266e-09 2.195442e-08 4.277985e-08 -4.265395e-08 1.905429e-08 -1.576994e-09
-7.219844e-09 5.248347e-09 -1.383543e-08 5.821544e-09 -1.541927e-09 3.056025e-09
-9.414880e-09 1.085234e-08 -9.169311e-09 -2.853168e-09 -9.396402e-10 1.209447e-09
1.210501e-08 -9.922256e-09 -3.604620e-08 1.379075e-08 -1.727166e-08 6.797458e-09
1.263860e-08 6.645900e-09 -4.339229e-08 9.669636e-09 -6.229892e-09 4.424399e-09
6.287155e-08 -3.239271e-08 8.653890e-08 -2.730793e-08 -4.814729e-09 5.780076e-08
3.603382e-09 -8.203641e-09 -2.460341e-08 1.279313e-08 -5.275292e-09 1.433808e-09
7.568365e-09 6.879800e-08 -1.041538e-07 1.331193e-08 9.745355e-09 -1.502084e-08
1.098594e-08 3.478672e-08 -6.873191e-08 -1.130581e-08 -1.603538e-08 -4.609849e-09
-1.296622e-08 6.818504e-08 -6.750932e-08 5.632498e-09 1.132401e-08 -1.444986e-08
2.298785e-08 -4.826667e-08 -2.630037e-09 2.257649e-11 -1.564298e-09 -1.935528e-10
-3.902297e-09 6.877574e-08 -7.270824e-08 1.248210e-08 8.372995e-09 -1.121062e-08
2.647167e-08 1.729842e-09 -6.900188e-08 4.621252e-09 -3.314240e-08 9.570394e-09
-5.768029e-09 1.412910e-08 -2.359694e-08 6.228795e-09 -7.906012e-09 5.974804e-09
2.608236e-08 -1.952312e-09 -7.843957e-08 2.328077e-08 4.092508e-08 -9.002164e-09
1.677672e-08 -1.470593e-08 2.394952e-08 -6.615953e-09 -1.162197e-09 -5.617149e-09
-2.625296e-08 6.867965e-08 -6.155250e-08 -3.104924e-09 1.881727e-08 -3.036059e-08
-4.892112e-09 2.865189e-09 6.350731e-10 2.140617e-10 8.757817e-11 -6.468098e-11
-2.665467e-09 8.124098e-09 -3.231257e-09 -1.186923e-08 -6.402280e-11 4.591412e-10
-3.875815e-10 2.313782e-09 -1.793312e-09 -1.060612e-08 8.604403e-10 -1.937434e-09
-2.676742e-09 5.044315e-09 -2.480308e-09 -1.310623e-08 6.307586e-10 -8.239253e-10
-5.747744e-09 3.474632e-09 7.976619e-10 3.935483e-10 4.573319e-11 -4.902134e-11
-6.410517e-09 3.583900e-09 8.571641e-10 1.488365e-12 7.634687e-11 5.283734e-11
-5.412568e-09 2.990784e-09 6.553633e-10 -5.603261e-12 1.446011e-10 -3.177780e-11
3.402850e-08 -8.482167e-09 -6.063018e-08 -3.519261e-09 1.201621e-08 6.574833e-10
1.396871e-08 -3.180943e-08 -8.804432e-09 -1.587178e-08 3.131364e-09 9.188766e-10
8.316676e-09 -2.894864e-08 1.748552e-09 -1.127085e-08 -9.136311e-10 -2.106071e-10
2.124774e-08 -2.931184e-08 -1.879963e-08 -1.643968e-08 9.377919e-09 2.616308e-09
-5.078922e-09 2.982567e-09 6.721623e-10 1.405738e-10 1.237666e-10 -1.041308e-10
2.069231e-08 -3.651335e-08 -3.065034e-08 1.828114e-08 1.669450e-08 -2.736546e-09
-5.994815e-09 3.501821e-09 7.351399e-10 1.715086e-10 1.247260e-10 9.247658e-11
-7.228681e-09 5.215210e-09 -1.236708e-08 -1.983922e-08 4.829218e-09 1.479713e-09
-2.131780e-09 -1.296070e-08 -6.033051e-09 -1.868425e-08 1.404115e-09 7.581691e-10
-2.268067e-09 -7.273974e-09 -9.419726e-09 -2.176266e-08 2.646548e-09 6.904631e-10
1.556283e-08 -4.042753e-08 2.903043e-09 4.020031e-09 3.568868e-10 -5.300049e-11
1.530356e-08 -4.038322e-08 2.442443e-09 4.371393e-09 2.012025e-09 -2.268690e-10
1.577404e-08 -3.994349e-08 4.137983e-10 6.536471e-09 -1.012404e-09 7.833245e-11
2.040475e-08 -4.005349e-08 -2.719169e-09 4.798943e-09 1.797845e-09 -7.916655e-10
1.657656e-08 -4.019989e-08 -9.912395e-10 8.760163e-09 1.406429e-09 -2.425897e-10
6.627231e-09 2.637802e-08 -7.532621e-09 -3.638112e-08 -5.632308e-09 3.465689e-09
-1.527630e-08 3.791856e-08 1.343753e-08 3.242074e-08 4.266165e-09 -7.663738e-09
-1.349866e-07 -5.630392e-08 3.251863e-07 -6.517138e-09 8.075367e-09 1.658761e-09
1.657656e-08 -3.967506e-08 9.860397e-10 7.718397e-09 2.785423e-09 -1.134901e-09
-1.559764e-08 7.868522e-09 -2.602950e-09 -4.015312e-09 -9.013589e-11 2.414153e-10
5.020811e-08 -1.678135e-08 -5.870910e-09 8.967116e-10 5.658312e-10 1.147600e-09
-2.819098e-08 1.010069e-07 3.064694e-08 4.036862e-09 1.623624e-08 -6.853036e-09
-1.607227e-08 7.186403e-09 -2.715339e-11 -4.356291e-09 -2.256498e-09 -1.165374e-09
7.601382e-09 5.907513e-08 -9.301393e-08 1.624685e-08 1.556908e-08 -8.058410e-09
3.693975e-08 -1.148769e-08 -7.525638e-08 -1.045896e-08 2.779229e-08 -1.298257e-09
-1.606118e-08 2.814497e-09 6.402021e-10 -1.838902e-09 -7.547896e-10 -2.544147e-10
-1.464072e-08 8.002035e-10 -2.028456e-09 -3.918058e-09 -1.525747e-09 -5.777293e-10
-1.164413e-08 -2.012796e-09 -2.895924e-09 1.660326e-08 1.735734e-09 -1.747606e-09
-1.551801e-08 2.098602e-09 -5.888681e-10 -3.518560e-09 -2.392169e-09 -4.367571e-10
-8.316673e-09 1.054646e-07 -7.039220e-08 -4.022289e-09 2.041009e-08 1.332767e-09
-1.695442e-08 5.301214e-09 -3.601630e-11 -2.173211e-09 -1.932277e-10 -2.870771e-10
-1.408736e-08 -2.690216e-08 1.842356e-07 -4.737797e-08 -2.686212e-09 1.686436e-08
-1.993473e-08 4.106714e-08 -1.250994e-08 -1.217209e-08 1.919135e-10 -6.965349e-09
1.620434e-08 1.107702e-07 -1.016947e-07 5.546426e-09 -3.163718e-09 6.965934e-10
-1.670661e-08 5.312394e-09 -1.153172e-09 -1.235576e-09 -1.134707e-09 -3.030893e-10
-5.106204e-09 -6.752502e-09 2.381020e-09 -8.174555e-09 3.428102e-10 -3.085674e-10
-4.716502e-09 -8.005115e-09 3.217729e-09 -4.552809e-09 3.099538e-10 -1.723373e-10
-1.746218e-09 -1.077171e-08 2.518099e-09 -7.107792e-09 1.625410e-09 3.049295e-10
-5.984752e-09 -5.286102e-09 2.953833e-09 -4.758196e-09 7.471978e-11 -3.169793e-10
-5.986955e-09 -5.620544e-09 2.901735e-09 -4.573575e-09 6.961494e-10 -4.530976e-11
1.460577e-08 -8.344246e-09 -6.790337e-10 -1.302721e-09 1.913125e-11 -4.481058e-10
2.289559e-08 -8.741125e-09 6.140387e-09 -8.363766e-09 9.733024e-10 -3.038385e-09
1.024956e-08 -8.050571e-09 2.754082e-08 1.581584e-08 -1.484638e-09 -7.895501e-09
-4.414868e-09 -7.913284e-09 3.375864e-09 -5.178196e-09 8.781171e-10 -3.967284e-10
1.194571e-08 -4.037974e-09 5.609912e-09 1.115771e-08 -5.529972e-10 -3.434550e-09
-6.747376e-09 4.385571e-09 5.951069e-10 -1.262837e-09 -1.337270e-10 -1.933250e-10
1.823134e-08 -8.383256e-09 1.982500e-09 2.401926e-09 -1.192813e-10 -1.466612e-09
1.876598e-08 -8.472237e-09 7.581409e-09 6.943334e-09 6.815442e-11 -4.804290e-10
1.969354e-08 -1.135385e-08 9.689080e-09 4.395697e-09 1.195500e-10 -4.854531e-09
4.847107e-09 3.884211e-09 4.295042e-09 1.535867e-08 -1.244406e-09 -3.358437e-09
1.037663e-08 -1.007748e-08 2.626293e-08 -1.827548e-08 1.228957e-09 -5.707393e-09
2.518025e-08 7.994710e-10 1.197359e-08 2.912889e-08 3.911944e-09 6.367851e-09
1.333230e-08 -4.902435e-09 1.508649e-08 1.678953e-08 -3.108385e-09 -6.437144e-09
-2.063647e-08 1.755118e-08 -2.595581e-08 -2.605495e-08 1.094231e-08 1.411006e-08
-6.762867e-09 4.489607e-09 6.682548e-10 -1.352476e-09 -1.373976e-10 -2.209035e-10
-6.603370e-09 4.345416e-09 7.908110e-10 -1.419193e-09 -3.545053e-11 1.969846e-10
3.742277e-08 3.089509e-08 -9.307520e-08 1.263237e-08 3.539128e-08 -7.866531e-09
-7.796379e-09 4.960679e-09 9.518162e-10 -2.404370e-10 -2.812373e-11 -2.091964e-10
-8.016260e-09 4.286138e-09 1.241625e-09 -1.155572e-09 -1.428076e-10 -2.100808e-10
3.773081e-08 -1.818130e-08 -8.250843e-08 -1.240920e-08 4.032132e-08 6.511095e-09
6.707453e-09 3.376489e-08 -8.364447e-08 3.200144e-08 3.678173e-08 -2.344645e-08
-6.949843e-09 4.945403e-09 6.381216e-10 -5.832588e-10 -1.104150e-10 -3.022182e-10
-2.901783e-09 1.840974e-08 -6.147240e-09 -7.069969e-09 3.842684e-09 -1.887972e-09
-1.875699e-09 3.940698e-09 -1.673220e-08 -2.192533e-08 1.984604e-09 -3.015670e-10
3.013640e-08 5.328585e-10 -8.987104e-08 -2.554648e-08 4.305529e-08 1.601691e-08
8.048888e-09 4.399037e-08 -8.032457e-08 -2.334322e-08 1.173441e-08 4.776472e-09
1.162891e-08 3.202404e-09 -3.151985e-09 -1.519975e-08 3.200510e-09 -9.310058e-10
1.193892e-08 -2.992267e-08 -9.341155e-09 -1.616539e-08 8.799587e-09 1.200214e-09
-1.525771e-08 2.179107e-08 -6.968428e-09 1.022883e-09 2.774854e-09 -2.558112e-09
1.657656e-08 -4.210695e-08 -5.552581e-09 9.324511e-09 5.441449e-09 -6.217780e-10
-6.567596e-09 2.651336e-08 -2.135826e-08 -1.377073e-08 -2.873904e-10 1.796981e-09
1.694203e-09 8.583850e-09 -4.872281e-09 -2.084206e-09 2.360318e-09 1.759432e-09
-2.650245e-09 1.472640e-08 -5.194700e-09 -6.209395e-09 3.118916e-09 -4.706376e-10
1.024018e-08 9.151347e-09 5.173728e-10 -2.517531e-08 1.256554e-09 -2.802790e-09
1.859156e-09 -1.021711e-08 -1.284481e-08 1.179649e-08 -4.514061e-09 3.049407e-09
4.784102e-08 -1.819074e-08 -2.834846e-09 1.814908e-09 -6.310241e-11 -1.039693e-09
5.288389e-09 5.379917e-08 -4.979814e-08 -3.782073e-09 -5.811051e-09 2.550076e-08
1.008019e-08 -2.001654e-08 -1.880082e-08 1.299976e-08 -9.039339e-09 4.099568e-09
2.457714e-09 -9.999231e-09 -1.142722e-08 1.205879e-08 -4.865809e-09 1.570964e-09
-2.081073e-08 5.515983e-08 -2.682980e-08 1.483870e-09 -2.313076e-10 8.728520e-09
-9.286070e-09 -1.227292e-08 6.141787e-09 1.420411e-09 -3.084617e-10 8.927957e-10
-1.865259e-08 7.717820e-09 3.281604e-08 1.720791e-08 -6.258336e-09 -1.191652e-08
-9.298914e-09 -7.660227e-09 1.082931e-07 -2.993695e-08 -8.247936e-09 -1.038036e-08
1.703917e-08 4.574026e-08 -1.194119e-07 -3.375549e-09 2.555110e-08 9.982754e-09
-7.475413e-09 -1.627685e-08 7.161035e-09 2.081542e-09 1.802959e-10 3.990713e-11
-7.479924e-09 -1.626951e-08 7.084477e-09 2.066004e-09 9.729750e-11 2.075229e-11
4.426539e-09 1.058634e-08 -1.958767e-09 -2.122926e-08 -6.984563e-11 1.203276e-09
-6.670181e-09 -1.571305e-08 6.935072e-09 7.325376e-10 -3.985078e-11 2.596465e-10
-6.617046e-08 9.542159e-08 -4.505562e-08 2.092099e-08 -3.965226e-08 -2.106012e-08
8.333767e-09 -1.914145e-08 6.117719e-08 1.061500e-09 -1.191288e-09 -1.074182e-08
-8.111019e-09 -1.466115e-08 6.504129e-09 1.066228e-09 1.001288e-10 -1.930103e-11
-7.185239e-09 4.921836e-09 7.758474e-10 -3.118483e-10 3.003597e-12 -8.894219e-11
-6.814943e-09 1.648604e-08 -9.876602e-09 7.081782e-10 -3.725533e-09 -3.466889e-09
-6.623366e-09 4.377785e-09 6.062246e-10 -1.292403e-09 -1.170726e-10 -2.495210e-11
-6.833622e-09 4.944399e-09 7.022556e-10 -2.119158e-10 -2.968914e-11 -1.756750e-11
-7.470287e-09 5.039345e-09 7.643344e-10 -1.938505e-10 5.284656e-11 7.589795e-11
2.515813e-08 -4.471196e-08 -1.386106e-08 6.233744e-09 -1.832532e-08 5.396926e-09
-6.996623e-09 4.777001e-09 7.553744e-10 -6.824237e-10 -9.514411e-11 -1.157732e-10
-1.547368e-08 1.423519e-09 -2.724860e-10 -2.354607e-09 -4.695550e-10 6.432366e-11
-3.227050e-10 -2.525347e-08 2.485387e-09 -7.443069e-09 -7.968175e-09 -6.585138e-10
-6.996307e-09 4.676783e-09 6.965601e-10 -6.401093e-10 -1.400369e-11 -6.898837e-11
-7.456933e-09 5.007241e-09 8.317658e-10 -4.043196e-10 -4.308243e-11 -8.360873e-11
-1.619076e-08 8.650577e-09 -9.203820e-10 -3.177689e-09 -4.317956e-09 -1.440798e-09
-1.612598e-08 2.543182e-09 2.384037e-09 -4.753531e-10 -1.182392e-10 -3.279843e-10
6.849099e-09 -2.681644e-08 5.772713e-09 -4.346065e-09 -8.583497e-11 -6.487721e-10
8.494430e-09 -3.108424e-08 6.144085e-09 -1.998203e-10 6.798236e-12 -6.822242e-10
4.956999e-09 -2.613091e-08 5.757643e-09 -1.841055e-09 2.245658e-10 -1.060518e-09
6.571700e-09 -2.533479e-08 5.657792e-09 -2.100567e-09 -1.035616e-10 -1.091375e-09
6.463814e-09 -2.618131e-08 5.763608e-09 -4.053111e-10 1.584159e-10 -5.080044e-10
-1.096115e-08 1.481770e-08 -5.932860e-09 7.911515e-10 -4.696693e-09 -2.146561e-09
-1.238915e-08 1.584000e-08 -7.088238e-09 -2.091188e-09 -1.128230e-09 2.267633e-16
-4.288310e-09 -2.021129e-08 6.772296e-09 4.393139e-09 2.444191e-11 8.732697e-11
-1.576040e-08 5.748445e-09 5.365628e-10 -5.761380e-09 -4.681726e-09 -1.742777e-09
4.959388e-08 -1.798162e-08 -4.993006e-09 -1.424298e-10 6.284654e-10 1.969192e-09
3.857073e-08 -8.382863e-09 -7.934894e-09 -4.208735e-09 1.717847e-09 -1.374644e-09
-1.267248e-08 1.275202e-08 -2.947022e-09 -1.186032e-09 -4.887140e-09 -7.188440e-10
-1.570977e-08 9.809583e-09 -1.389787e-09 -5.600760e-09 -4.849315e-09 -2.456270e-09
5.348855e-08 -1.785705e-08 -1.502390e-09 -4.779444e-09 -1.673454e-09 8.911803e-09
2.753576e-08 2.208906e-08 -1.653190e-08 2.667284e-08 4.511279e-09 -4.785237e-09
-1.206821e-08 1.565995e-08 -5.188379e-09 1.608473e-09 -3.976326e-11 -1.580460e-10
5.158513e-08 -2.444586e-08 1.658048e-08 -8.275858e-09 2.388368e-10 3.386295e-09
6.268421e-09 2.033409e-08 -2.849799e-09 -2.018548e-08 8.937856e-10 -4.989768e-10
3.820237e-08 -8.012013e-09 -7.575717e-09 -3.911041e-09 1.319035e-09 -1.489030e-09
-4.280625e-09 1.542569e-08 -9.294637e-09 -1.248571e-09 -8.817822e-10 -8.859765e-16
4.444997e-08 -1.265788e-08 -1.381939e-09 1.273185e-08 1.612096e-09 3.177265e-09
2.245678e-08 2.117742e-09 9.634930e-09 -2.697113e-08 2.796928e-11 2.859233e-10
-1.454289e-08 1.354409e-08 -2.211356e-09 -2.074452e-09 -4.123697e-09 -1.552586e-09
-1.504292e-08 1.343520e-08 -3.903978e-09 2.840662e-09 9.407879e-10 2.273895e-16
-1.607317e-08 1.583912e-09 3.741226e-09 7.959537e-09 1.703798e-09 -1.086910e-09
-1.518490e-08 8.350812e-09 -9.142791e-10 -1.599422e-09 -6.625815e-09 -6.675878e-10
1.101312e-08 8.707491e-09 -5.042458e-09 -4.641402e-09 1.534142e-09 1.037500e-09
-1.099156e-08 1.594153e-08 -5.469443e-09 -6.127588e-10 1.107678e-09 -1.654318e-09
-1.582145e-08 1.056096e-08 -2.001952e-10 -1.733244e-09 -5.276566e-09 -4.834716e-10
1.585500e-08 -1.418571e-08 -3.490138e-08 -1.353030e-08 -6.050015e-09 -6.170263e-10
4.810784e-09 -2.003553e-09 -2.500598e-08 -1.657034e-08 -2.709202e-09 -1.776625e-09
4.607468e-09 -1.032273e-08 -1.644875e-08 -1.666090e-08 -9.713951e-09 -3.439351e-09
1.480876e-08 1.804209e-08 -5.739710e-08 -1.868633e-08 -2.155149e-08 -1.106880e-08
9.945425e-09 9.918582e-09 -4.864917e-08 -1.568927e-08 -1.041162e-08 -2.541309e-09
4.481268e-09 -1.175353e-08 -2.599615e-08 -1.744764e-08 -1.517602e-08 -4.581673e-09
-1.750941e-08 2.229116e-08 -1.091492e-08 8.083041e-09 1.005456e-08 -7.359533e-09
9.803934e-09 -1.654804e-08 -1.553659e-08 -1.398367e-08 -7.354247e-09 -1.067713e-09
-1.668241e-08 1.204318e-08 -1.374848e-09 2.166005e-09 3.861847e-09 -4.054916e-10
-9.580969e-09 -9.065773e-09 5.200042e-09 9.930252e-10 4.628538e-10 -4.972467e-11
-1.490565e-08 6.118666e-09 -8.238810e-09 1.715815e-08 2.271352e-09 -7.129945e-10
-1.313698e-08 -4.624994e-10 1.192978e-09 1.543550e-08 3.730224e-09 -1.805581e-09
-1.581716e-08 1.098848e-08 -2.154758e-09 5.169594e-09 4.869875e-09 -1.758688e-09
-1.737091e-08 7.119696e-09 1.006681e-09 2.037941e-09 2.441279e-09 1.608287e-10
5.300537e-08 -2.126289e-08 1.375862e-08 8.894041e-09 4.703266e-09 1.494240e-08
-8.738475e-09 1.439293e-08 -3.172268e-09 -1.518513e-09 4.985859e-09 -3.251496e-10
-5.369910e-09 -1.679415e-08 5.557828e-09 7.330438e-09 8.332579e-10 3.117026e-10
-1.361935e-08 -3.897959e-09 3.182191e-09 9.367326e-09 2.692836e-09 -4.989157e-10
-1.692122e-08 4.288818e-09 1.275941e-09 2.166445e-09 2.141844e-09 -1.958238e-10
-5.548604e-09 -1.382507e-08 5.556067e-09 8.085326e-09 1.409302e-09 2.209273e-10
-1.670371e-08 3.327727e-09 1.841090e-09 2.558838e-09 4.471153e-09 -6.102544e-10
-9.580971e-09 -1.094778e-08 5.816138e-09 1.355454e-09 4.387613e-10 1.623328e-10
-1.024285e-08 -1.004245e-08 5.299415e-09 2.594600e-09 6.134871e-11 6.022907e-10
-9.217347e-09 -1.391691e-08 6.403958e-09 1.920143e-09 1.036287e-10 -9.940004e-11
-1.704695e-08 3.835068e-09 2.801912e-09 2.551563e-09 3.522091e-09 -6.780798e-11
-1.532780e-08 1.423314e-08 -3.099062e-09 6.000763e-09 7.005288e-09 -4.911910e-09
-1.133896e-08 1.465599e-08 -6.088563e-09 1.454382e-09 3.327870e-09 -1.697521e-09
-1.351887e-08 1.112424e-08 2.532927e-10 5.188287e-09 3.538990e-09 -2.442623e-09
-1.442867e-08 1.375179e-08 -2.518099e-09 3.249710e-09 3.414857e-09 -1.447668e-09
-1.650140e-08 1.156382e-08 -4.115679e-09 -1.162912e-09 -6.753642e-10 -2.442251e-10
-1.102862e-08 1.041890e-08 -1.630188e-09 1.811604e-09 5.128456e-09 -2.895304e-10
-1.133010e-08 1.435686e-08 -1.555473e-08 -8.672382e-09 -3.080010e-09 -4.274441e-09
2.855608e-08 1.169859e-09 -7.270255e-09 6.260246e-09 -4.361465e-09 -1.027217e-09
-1.379243e-08 1.084438e-08 -3.213013e-09 -8.192404e-09 -8.932484e-09 -3.871559e-09
-1.319495e-08 1.155979e-08 -1.307133e-09 2.390696e-09 4.516552e-09 -7.125131e-10
-1.450657e-08 1.354445e-08 -5.397675e-09 -2.093897e-09 -4.753669e-09 -1.007275e-09
-1.556731e-08 1.418269e-08 -4.115071e-09 -1.921307e-09 -3.493284e-09 -5.961032e-10
-1.005864e-08 1.357528e-08 -3.942798e-09 -1.004401e-09 4.190889e-09 -2.593968e-09
-9.454511e-09 2.358922e-08 -1.307980e-08 2.664327e-10 -9.698607e-09 -8.708406e-09
-1.476209e-08 1.467387e-08 -7.611780e-09 -3.823962e-09 -5.443672e-10 -1.575990e-10
-1.130675e-08 1.308589e-08 -2.887584e-09 -2.053953e-09 -5.783760e-09 -1.136561e-09
4.792679e-08 -3.239271e-08 4.726856e-08 -2.440067e-08 -2.557527e-09 2.670919e-08
-2.410827e-10 9.254083e-09 -4.622269e-09 -2.205371e-09 -5.913589e-09 -1.406172e-09
-1.501032e-08 7.869501e-09 -3.693913e-09 -4.588889e-09 -8.021410e-10 1.672935e-10
-1.526364e-08 5.242830e-09 -1.153171e-09 -3.534043e-09 -4.645049e-10 -4.866152e-10
-1.478324e-08 1.368382e-08 -4.924708e-09 -1.602032e-09 -4.317689e-09 -8.076231e-10
5.007755e-08 -3.386924e-08 4.025143e-08 6.201762e-09 2.516291e-10 -9.844723e-10
4.027562e-08 -1.517403e-08 1.433227e-08 -1.957629e-08 -6.371032e-09 7.651112e-09
-5.654154e-09 -4.401389e-09 3.119482e-09 -3.610059e-10 -2.587823e-10 -7.947507e-10
4.465251e-08 -1.352376e-08 2.495445e-08 -2.541493e-08 -2.617399e-09 1.859429e-08
3.002366e-08 -5.189864e-09 1.375531e-08 -2.655096e-08 -3.021895e-09 7.123664e-09
-1.443665e-08 1.852766e-09 3.404665e-09 -3.288989e-09 -2.075876e-09 -2.099854e-10
-1.424746e-08 1.009516e-09 2.634201e-09 -3.914620e-09 -3.307068e-09 -3.042374e-10
-1.227649e-08 -2.411378e-09 2.419323e-09 -7.586919e-09 -2.614296e-09 -1.116675e-09
-4.283153e-09 -1.448343e-08 1.387753e-09 -3.472902e-09 -2.795475e-09 -2.978784e-10
4.637544e-08 1.935168e-09 -1.246773e-08 2.454403e-08 4.437439e-09 8.202310e-09
-1.418253e-08 -5.475895e-10 2.907513e-09 -1.554854e-09 -6.011167e-10 1.117168e-10
-7.253475e-09 -3.208278e-11 2.558009e-09 -6.838102e-10 1.755214e-10 -3.598252e-10
-7.011351e-09 -2.709283e-09 2.626481e-09 -2.159130e-09 1.054512e-11 -3.045679e-10
-1.257653e-08 -2.236641e-09 2.349774e-09 -6.507132e-09 -3.365598e-09 -9.626230e-10
-7.109593e-09 1.255827e-09 1.853078e-09 4.047901e-10 -1.376430e-10 -6.712611e-10
9.790094e-09 -2.996950e-08 -1.561188e-09 -2.953658e-09 -2.634137e-09 -4.566636e-10
1.605881e-08 -4.430894e-08 3.621700e-09 -2.979703e-09 -3.378897e-09 -7.192071e-10
-6.313356e-09 -3.117627e-09 2.710915e-09 7.743273e-11 5.504530e-11 -4.118974e-10
-5.607337e-09 -4.764237e-09 2.784182e-09 -3.258689e-09 4.124202e-10 -1.047585e-09
1.522549e-08 -3.520573e-08 -1.403095e-08 -1.454458e-08 -1.805964e-08 -4.513625e-09
4.841191e-08 -2.129857e-08 1.334633e-09 1.784619e-08 5.570849e-09 8.773849e-09
1.360734e-08 -3.942680e-08 5.515020e-10 -3.340965e-09 -2.395096e-09 -9.378849e-10
1.926562e-08 -4.420947e-08 -2.139067e-09 -2.949617e-09 -1.446699e-10 -4.765999e-10
5.541932e-09 -1.754574e-08 -5.402710e-09 -1.490659e-08 -7.970385e-09 -4.044861e-09
8.266011e-09 -2.803523e-08 -6.757370e-09 -1.034524e-08 -6.691166e-09 -1.619438e-09
1.242017e-08 -3.454089e-08 -1.447476e-09 -6.612171e-09 -5.871083e-09 -1.876539e-09
-1.336183e-08 1.331855e-08 -2.433764e-09 -1.225130e-09 -6.231053e-09 -1.303922e-09
-9.693806e-09 2.190884e-08 -8.788319e-09 1.879970e-09 -5.730089e-09 -5.597602e-09
-1.444153e-08 1.000088e-08 -6.649973e-09 -6.532067e-09 -9.381377e-09 -5.863503e-09
-1.459104e-08 1.425387e-08 -5.641455e-09 -4.010903e-09 -6.636381e-09 -3.333402e-09
-6.020507e-10 -2.193432e-08 5.405492e-09 9.516047e-09 6.039036e-10 5.248993e-10
-4.533322e-09 -1.796231e-08 7.372936e-09 4.793312e-10 7.482148e-11 3.521567e-10
-1.267965e-08 1.527691e-08 -6.351280e-09 4.655418e-10 -3.928399e-09 -8.688581e-10
-1.205023e-08 1.085155e-08 -3.109362e-09 -4.410681e-10 -7.527758e-09 -9.883776e-10
-9.122080e-09 1.948871e-08 -8.851759e-09 1.310408e-09 -6.815503e-09 -5.306427e-09
3.108374e-08 -7.298874e-10 -7.122059e-09 7.714378e-09 -1.801961e-09 -4.580423e-10
1.558621e-08 -4.093294e-08 4.095120e-09 5.294656e-10 1.594845e-09 -1.185190e-10
-8.954370e-09 1.863975e-08 -1.014417e-08 1.955013e-09 -8.129093e-09 -1.078995e-08
1.268639e-08 -3.919478e-08 6.369295e-09 1.938412e-09 1.245830e-10 1.430669e-10
-1.319906e-09 -2.129867e-08 7.006875e-09 1.306676e-09 -4.207752e-10 3.668885e-10
1.351181e-08 9.873264e-09 -8.205901e-09 5.485541e-09 -3.339718e-09 -1.547980e-09
-2.009127e-09 -2.044068e-08 7.095447e-09 6.320882e-10 1.586543e-10 5.189529e-10
1.711787e-08 2.368963e-09 -8.014754e-09 -3.706395e-10 -3.510907e-09 -2.944410e-09
6.669281e-09 8.064467e-09 -6.127888e-09 4.848080e-09 -4.991911e-09 -1.542315e-09
3.724568e-09 1.136482e-08 -6.604119e-09 2.500439e-09 -4.870706e-09 -3.117889e-09
8.779335e-10 -1.626628e-08 4.379547e-09 -3.224908e-09 1.110808e-09 -2.272205e-11
-7.885318e-09 4.280473e-09 9.382237e-10 -1.136180e-09 -2.012270e-10 -2.530498e-10
1.111618e-08 -3.551438e-08 7.130639e-09 3.524878e-10 1.608802e-10 -4.353296e-11
1.006352e-08 -3.649869e-08 7.284386e-09 4.746261e-10 2.679659e-10 -1.796263e-10
-8.782971e-09 3.915186e-09 1.476101e-09 -3.623042e-10 -1.861437e-10 -2.568303e-10
1.045298e-08 -3.657527e-08 6.605954e-09 3.234793e-09 -2.513190e-11 1.192916e-10
1.246187e-08 -3.702735e-08 6.918377e-09 1.088865e-10 3.228833e-10 -1.986195e-10
-8.728451e-09 3.999572e-09 1.450180e-09 -1.373985e-10 -2.485191e-10 -6.211771e-10
1.105188e-08 -3.539138e-08 6.617998e-09 -3.948077e-09 1.063653e-09 -9.143715e-10
1.362934e-08 -3.953855e-08 5.137694e-09 8.624738e-10 8.457832e-10 -2.373479e-11
-8.438779e-09 4.362882e-09 1.225081e-09 -4.060729e-10 -6.551870e-11 -5.886491e-10
1.084073e-08 -3.140776e-08 3.873398e-09 -7.245683e-09 7.117986e-10 -4.714030e-11
9.780434e-09 -3.237489e-08 6.346692e-09 -1.075225e-10 1.119886e-10 -2.382007e-10
-7.721940e-09 4.707113e-09 1.005386e-09 -5.684351e-10 -1.199971e-10 -4.876133e-10
-2.412670e-08 5.544985e-08 2.942062e-09 3.340810e-08 -2.127519e-09 1.032636e-08
1.287396e-08 -3.882321e-08 4.432125e-09 7.096697e-09 1.898958e-09 -3.777607e-10
5.196660e-09 -3.019616e-08 7.393093e-09 1.028456e-09 -2.225286e-16 -2.353020e-10
1.286137e-09 -2.398807e-08 6.560319e-09 5.822779e-09 4.794829e-11 3.587184e-10
-9.456625e-09 5.990587e-08 -5.375879e-08 3.806060e-09 -1.201664e-08 -1.082039e-08
-1.469465e-08 8.750670e-08 -6.532611e-08 3.263488e-09 3.721340e-09 -8.771744e-09
-1.448446e-08 8.793084e-08 -5.119650e-08 9.707399e-10 6.443942e-09 -1.710326e-08
-3.806040e-10 -2.054987e-08 6.165769e-09 5.985531e-09 5.985187e-10 4.914681e-10
-4.469960e-09 -1.895562e-08 7.435833e-09 7.392753e-10 3.371430e-10 1.806821e-11
-9.321191e-09 6.130320e-08 -5.336976e-08 -3.052854e-09 -1.038667e-08 -1.070609e-08
-1.498504e-08 5.940471e-08 -5.606013e-08 1.420760e-09 -9.918200e-09 -6.978745e-09
5.178116e-10 -2.689354e-08 6.557306e-09 5.031855e-09 3.231275e-10 -3.208445e-11
-6.076114e-10 -2.260084e-08 7.391353e-09 4.839977e-10 3.206191e-11 -1.701994e-10
6.989930e-09 -3.331353e-08 5.891707e-09 6.351558e-09 5.535259e-10 -5.365210e-10
1.362202e-09 -2.520984e-08 7.373040e-09 9.052483e-10 -5.127321e-11 3.633409e-10
-1.253753e-08 6.139383e-08 -5.959278e-08 -2.789254e-09 -1.925939e-08 -2.371157e-08
-8.217323e-09 3.891002e-09 1.447874e-09 -1.541673e-09 -2.653586e-10 -5.046495e-10
5.325297e-09 -2.919611e-08 7.045521e-09 1.659017e-09 -8.388655e-11 -2.050204e-10
-9.305301e-09 -4.597256e-10 2.201335e-09 5.589257e-10 -1.710280e-10 -5.661310e-10
-9.663758e-09 2.407636e-09 1.978600e-09 1.986420e-10 -1.011051e-10 -6.038150e-10
-9.361372e-09 2.324008e-09 1.977844e-09 -3.833335e-10 -8.778234e-11 -5.881885e-10
1.298316e-08 -3.749941e-08 6.862662e-09 1.300588e-09 8.153785e-10 -4.026839e-10
8.274443e-09 -2.841820e-08 6.072012e-09 -4.901236e-09 -2.319749e-10 -1.287754e-09
-8.802375e-09 2.280685e-09 1.853363e-09 3.149843e-10 -2.108254e-10 -1.030514e-09
-9.344290e-09 2.920827e-09 1.843307e-09 -1.723481e-10 -6.925238e-12 -9.240706e-10
1.019879e-08 -5.572483e-09 -1.218319e-09 1.789242e-09 1.261764e-10 -2.552913e-11
3.632623e-08 7.994706e-10 5.158848e-09 2.765069e-08 6.636038e-09 8.643806e-09
9.128864e-09 -3.427667e-08 7.198198e-09 3.392364e-09 5.211380e-10 1.863434e-10
1.013797e-08 -5.438125e-09 -1.082689e-09 3.051685e-09 -1.193831e-10 5.232703e-12
9.661087e-09 -3.076185e-08 6.318087e-09 -2.773583e-10 2.656035e-10 -1.027299e-09
-3.004937e-09 -1.080039e-08 4.367779e-09 -1.362098e-09 -7.566880e-10 -2.532508e-10
1.010811e-08 -5.391348e-09 -1.201364e-09 1.639759e-09 -3.772400e-11 -2.164628e-10
1.127034e-08 -3.514516e-08 6.383583e-09 -3.575651e-11 3.266871e-10 -6.589386e-10
1.003671e-08 -5.721286e-09 -1.301505e-09 6.270118e-10 2.084824e-11 2.402985e-10
1.234071e-08 -6.155356e-09 -1.416174e-09 4.617667e-11 2.989569e-11 1.037165e-10
1.246191e-08 -3.821916e-08 7.031456e-09 1.901013e-10 2.179617e-10 -4.687022e-10
1.457431e-08 -4.088207e-08 4.122576e-09 1.422983e-10 1.725017e-09 -9.286906e-12
1.172724e-08 -3.548937e-08 6.460236e-09 -1.010017e-09 6.199216e-10 -6.515239e-10
1.135956e-08 -6.089520e-09 -1.412134e-09 -2.558088e-10 5.864039e-12 7.555154e-11
1.203046e-08 -6.123756e-09 -1.364523e-09 1.303931e-09 8.753364e-12 9.942216e-11
1.176659e-08 -5.903033e-09 -1.258550e-09 1.497224e-09 1.893660e-10 1.222575e-10
-1.993380e-09 1.723776e-09 -8.619860e-11 -1.051337e-09 -2.103602e-10 -1.380225e-10
9.974860e-09 -5.448140e-09 -1.147653e-09 1.728827e-09 -6.806383e-11 -1.900938e-10
1.662519e-08 -3.486821e-08 -7.839306e-09 1.563003e-08 3.700551e-09 -8.418156e-10
2.210246e-09 1.334198e-08 -1.059554e-08 1.041049e-08 -3.878765e-09 -7.129315e-09
2.036084e-08 -2.362960e-08 -1.966697e-08 2.056414e-08 9.906972e-09 -1.862747e-09
2.007413e-08 -3.237906e-08 -1.541762e-08 1.674019e-08 4.555528e-09 -3.805694e-10
1.919281e-08 -3.087831e-08 -1.986344e-08 1.756534e-08 7.966414e-09 -2.512438e-09
9.444222e-09 -5.178281e-09 -1.279415e-09 5.554630e-10 -2.121303e-12 5.640594e-11
1.384752e-08 -3.269912e-08 -2.024095e-08 2.079734e-08 6.873179e-09 -9.023901e-10
9.133366e-09 -5.399417e-09 -1.209409e-09 -2.237972e-10 -8.561973e-11 1.489486e-10
3.248643e-09 -1.214448e-09 -6.123254e-10 3.961381e-09 5.057343e-11 -1.408317e-10
2.144132e-08 -4.188653e-08 -1.716013e-08 1.312710e-08 1.359508e-08 -1.898124e-09
-3.523275e-09 -1.524962e-08 3.791994e-09 3.165914e-09 -1.877221e-09 -1.342678e-11
-3.488022e-09 -1.436461e-08 2.461355e-09 3.367776e-09 -2.999146e-09 -9.697010e-11
8.436114e-09 -4.703907e-09 -1.162507e-09 -2.152531e-10 -5.019574e-11 1.090128e-10
9.666282e-09 -5.712278e-09 -1.187039e-09 -2.946421e-11 -8.678369e-11 6.526391e-11
1.066838e-08 -6.045587e-09 -1.283278e-09 1.002110e-09 8.417350e-11 1.846878e-10
-4.392852e-09 2.596796e-09 5.071330e-10 3.940732e-11 3.655052e-10 -9.922729e-12
1.098036e-08 -6.090767e-09 -1.389981e-09 -1.960871e-10 -4.357956e-11 2.256733e-10
-7.319223e-09 4.068844e-09 1.006657e-09 6.310108e-11 4.601619e-11 -7.840706e-11
-2.680574e-09 -1.521940e-08 2.171651e-09 4.035319e-09 -2.076814e-09 1.509609e-10
-2.444312e-09 -1.656099e-08 2.776527e-09 2.641117e-09 -9.138744e-10 2.108210e-10
-1.581136e-09 -1.740980e-08 5.637072e-09 6.350350e-09 -5.948470e-10 2.478720e-10
2.175346e-09 -2.483806e-08 3.276461e-09 3.796812e-09 -8.681736e-10 1.730641e-10
-7.370618e-09 3.895895e-09 1.076240e-09 1.216440e-10 3.645972e-21 1.498623e-11
1.089212e-09 -1.809912e-08 2.720672e-09 5.753079e-10 -3.422614e-10 -1.527868e-11
-8.474039e-10 -1.778450e-08 4.227696e-09 8.843688e-10 -3.849219e-10 -1.269214e-10
-5.220187e-10 -2.009365e-08 2.355766e-09 9.153338e-09 -4.046991e-09 1.154067e-09
-4.252513e-09 -1.201351e-08 2.643209e-09 5.409138e-09 -9.418934e-10 -3.251688e-10
-4.582015e-09 -9.853188e-09 3.510098e-09 3.191265e-09 -7.953564e-10 -7.014327e-10
-1.192580e-09 -1.523985e-08 4.040270e-09 3.317131e-09 -1.939164e-09 -9.319875e-10
1.975155e-09 -2.242751e-08 2.719381e-09 2.154438e-09 -1.716362e-09 -3.113974e-10
-1.192582e-09 -1.697819e-08 3.533109e-09 3.322029e-09 -9.335719e-10 -9.338432e-10
4.564885e-09 -2.212158e-09 -6.212413e-10 2.254178e-09 1.029676e-10 1.205467e-10
5.454506e-09 -2.669126e-09 -7.091074e-10 2.301837e-09 5.379252e-12 -1.085336e-10
1.562915e-09 -3.498641e-10 -3.514091e-10 3.244545e-09 4.654843e-10 2.335536e-10
3.187475e-09 -1.642018e-09 -4.293526e-10 3.512971e-09 1.546203e-10 -5.713408e-11
3.914433e-09 -1.656269e-09 -6.964118e-10 3.434622e-09 -1.275538e-10 -4.678626e-10
3.129257e-09 -1.177628e-09 -4.577152e-10 4.032380e-09 2.466491e-10 2.866793e-10
-7.509858e-09 7.729630e-10 2.177216e-09 -4.073675e-10 1.425282e-11 -2.474236e-10
3.636082e-09 -1.295406e-09 -6.194938e-10 2.233189e-09 -7.602496e-11 2.776228e-10
-7.170561e-09 4.107598e-09 9.302710e-10 9.958967e-11 8.000689e-11 -3.681699e-11
-9.228753e-09 8.891501e-10 1.923278e-09 -5.928986e-10 -1.176352e-10 2.294338e-10
-9.570161e-09 1.899343e-09 8.699215e-10 -2.102225e-11 -1.072962e-09 -2.177700e-10
-8.990575e-09 4.074742e-09 1.254763e-09 -1.903533e-09 -4.904895e-10 -8.960346e-10
1.191140e-08 -3.679819e-08 7.215333e-09 4.333791e-10 1.960827e-10 -1.331184e-10
1.355630e-08 -3.824562e-08 7.053786e-09 1.057929e-09 3.925717e-10 -1.433840e-10
-8.119334e-09 4.124245e-09 1.210433e-09 -8.416618e-10 -3.148307e-10 -8.661946e-10
1.238416e-08 -4.070399e-08 6.890358e-09 4.042124e-09 1.672283e-09 4.929929e-11
-9.609687e-09 3.578596e-09 1.746908e-09 -3.266809e-10 1.572389e-10 -2.055074e-10
-8.944918e-09 2.583059e-09 1.093768e-09 -1.283518e-09 -6.305709e-10 -3.071663e-10
-9.300153e-09 3.586925e-09 1.839537e-09 -5.537282e-10 -5.001710e-11 -5.888798e-10
-5.381725e-09 3.266622e-09 6.956569e-10 9.251533e-11 1.850586e-11 -1.687495e-11
1.230441e-08 -3.951838e-08 7.347092e-09 2.643219e-09 7.533820e-10 8.417833e-11
1.168470e-08 -3.603838e-08 7.113214e-09 1.009974e-09 -1.351248e-10 2.018297e-11
1.285072e-08 -3.771417e-08 6.911078e-09 6.659935e-10 3.566354e-10 -3.165555e-10
1.238364e-08 -3.705016e-08 7.078033e-09 3.257022e-09 1.963657e-10 1.035092e-10
1.699076e-09 -6.948806e-10 -3.083676e-10 9.894063e-10 5.000407e-10 -4.922263e-11
1.202456e-08 -3.672853e-08 6.998410e-09 1.819000e-09 3.223035e-10 -1.844487e-10
9.755575e-09 -3.262515e-08 6.918081e-09 3.787412e-09 2.647725e-10 1.679005e-10
-5.602232e-09 3.197172e-09 6.624155e-10 6.837149e-10 1.777811e-10 -1.100666e-10
-4.392852e-09 2.598005e-09 4.754859e-10 2.290790e-11 7.792633e-11 -1.083023e-11
-4.276753e-09 2.427308e-09 4.950218e-10 3.486543e-10 1.085630e-10 -1.178065e-11
-4.629293e-10 5.559897e-10 -4.603251e-11 5.505278e-11 4.204117e-11 -3.181289e-10
-4.841183e-09 2.897108e-09 5.759664e-10 2.153615e-10 1.969882e-10 -2.277645e-10
-3.852089e-09 2.417973e-09 4.648024e-10 2.583138e-10 1.411253e-10 -1.922599e-10
-9.377956e-10 1.649981e-09 -3.895979e-10 -1.745906e-09 -3.535434e-10 -2.696263e-10
7.004580e-09 -4.085858e-09 -8.390901e-10 1.163916e-10 2.228164e-10 -3.038344e-10
-2.861134e-10 6.139131e-10 -2.351497e-10 -1.730090e-10 -1.708132e-10 -4.871348e-11
-8.237855e-10 1.732601e-09 -2.428138e-10 -1.095004e-09 -2.214634e-10 1.066888e-10
5.755904e-09 -2.725320e-09 -7.455645e-10 3.483380e-09 4.311707e-10 7.654966e-11
-1.976206e-09 2.432722e-09 9.041345e-11 -7.396697e-10 -2.327357e-10 2.679301e-12
2.919816e-10 6.974741e-10 -2.394587e-10 -4.548006e-10 -2.504266e-10 -1.696810e-10
7.887339e-09 -4.668252e-09 -1.005745e-09 7.478347e-10 3.341708e-10 1.064758e-10
-5.778777e-09 4.530234e-09 5.678031e-10 -9.929204e-10 -2.227454e-10 9.007073e-11
-7.480699e-09 4.802830e-09 7.879111e-10 -6.845987e-10 5.214051e-11 6.046355e-11
-5.806992e-09 3.436913e-09 6.841234e-10 2.501224e-10 5.759748e-11 -8.793410e-11
-7.900028e-09 5.061850e-09 8.052685e-10 -1.885216e-10 8.657963e-12 -3.488637e-10
-5.552813e-09 4.289170e-09 3.273604e-10 -4.970513e-11 -2.233038e-10 -5.663114e-11
5.540617e-08 -2.289831e-08 1.402353e-08 6.307836e-09 1.022394e-09 -1.318112e-10
4.427445e-08 -1.819143e-08 -1.188352e-09 -4.828403e-09 -4.156581e-10 1.252485e-09
-2.080647e-09 1.309137e-09 1.212503e-10 4.764011e-11 3.375333e-10 -3.333334e-12
-2.602363e-10 1.305652e-09 -1.748943e-10 -3.049605e-10 -1.342149e-11 1.667866e-11
-3.427222e-09 -1.199869e-08 2.483299e-09 2.315767e-09 -7.124861e-10 -5.402880e-10
2.675376e-08 7.698880e-09 -8.297354e-08 -9.528594e-09 -4.021750e-08 -6.330552e-10
-2.481644e-09 -1.466619e-08 2.661255e-09 1.721195e-09 -2.121288e-09 1.426969e-10
-2.279146e-09 -1.603011e-08 2.654617e-09 2.231351e-09 5.756068e-10 -1.326634e-10
-4.967384e-09 -9.523999e-09 2.266471e-09 -6.730222e-11 -8.754508e-11 -1.264442e-10
-6.408922e-09 3.303144e-09 9.788490e-10 7.380372e-10 1.249261e-10 -1.353618e-10
-6.766868e-09 3.006935e-09 1.208887e-09 5.181145e-10 -5.461631e-12 -5.515677e-11
-6.420013e-09 3.065491e-09 9.788490e-10 7.558904e-10 4.738543e-11 -2.706090e-10
-3.113577e-09 1.978283e-09 3.608305e-10 1.113163e-10 1.977478e-10 -9.336532e-12
-1.404764e-08 1.112444e-08 -8.796233e-09 -5.296722e-09 -4.127282e-09 -1.708362e-09
-7.135460e-09 3.061055e-09 1.283929e-09 3.582972e-10 5.853096e-11 -2.211945e-10
-1.220054e-08 -2.663267e-09 9.274239e-10 -7.649117e-10 3.625278e-11 4.115369e-12
7.359350e-09 -3.197258e-08 3.171292e-09 -5.438941e-09 -1.962608e-09 -1.933075e-11
-7.053244e-09 2.887575e-09 1.307228e-09 4.736773e-10 -4.749257e-11 -2.059553e-11
-6.893581e-09 2.626379e-09 1.448250e-09 9.221257e-10 6.454352e-11 -2.053629e-10
-7.416297e-09 4.102720e-09 8.954124e-10 6.348411e-11 6.297221e-11 -1.860272e-10
-7.152977e-09 2.630523e-09 1.502409e-09 1.978382e-10 2.304321e-10 -5.179972e-10
-5.486088e-09 2.969229e-09 1.009295e-09 1.218008e-09 3.173173e-11 -1.461584e-10
-1.214327e-09 9.650662e-10 7.765477e-11 2.206235e-09 2.797773e-10 8.581502e-11
-7.533859e-09 1.985098e-09 1.686784e-09 3.896980e-10 1.501503e-10 -4.584738e-10
-7.230202e-09 3.284484e-11 1.996116e-09 2.010477e-10 -1.375544e-10 -2.629009e-10
-7.439222e-09 1.372928e-09 1.962208e-09 2.288351e-10 -2.107614e-11 -2.775106e-10
-7.482108e-09 1.552285e-09 1.935626e-09 -2.765221e-10 7.916445e-12 -1.450343e-10
-7.501644e-09 2.163009e-09 1.781115e-09 -7.980639e-11 -3.358647e-12 -2.678542e-10
-7.508659e-09 2.194108e-09 1.550942e-09 -7.042900e-11 -5.442757e-11 -3.388527e-10
-7.471709e-09 1.669488e-09 1.833008e-09 -2.554139e-10 2.368589e-11 -5.590229e-10
-6.350244e-09 -2.056114e-09 2.460680e-09 -7.454732e-10 2.200002e-10 -5.695548e-10
-1.180814e-08 1.346589e-09 7.374807e-10 -7.924624e-09 -2.734484e-10 -2.723842e-10
-2.120098e-08 2.518128e-08 -2.813962e-09 5.750904e-09 -4.736423e-10 2.017443e-09
-7.443932e-09 1.520739e-09 1.787603e-09 2.384981e-10 5.318368e-11 -2.996312e-10
8.994549e-09 -5.068033e-09 -1.225281e-09 -1.124664e-09 -1.640216e-10 1.840194e-10
9.549151e-09 -5.451057e-09 -1.292350e-09 -1.233732e-09 -2.748856e-10 1.897056e-10
1.022841e-08 -5.629022e-09 -1.285407e-09 -5.571936e-10 -6.812639e-11 3.714808e-10
9.470896e-09 -5.590167e-09 -1.255783e-09 -1.656916e-10 -9.930923e-11 6.279216e-11
9.373938e-09 -5.411161e-09 -1.249909e-09 -4.263168e-11 -4.847567e-11 5.933498e-11
9.529652e-09 -5.573633e-09 -1.226415e-09 -1.108949e-10 -7.781342e-11 -2.585576e-11
-3.735297e-09 -1.748853e-08 6.580559e-09 5.957658e-09 3.689757e-10 3.649737e-10
1.239409e-08 -3.482016e-08 5.614493e-09 -6.287353e-09 1.383292e-09 -2.540462e-10
1.024927e-08 -3.320859e-08 4.570639e-09 -5.778350e-09 1.177650e-09 -1.006513e-09
9.773574e-09 -3.119467e-08 6.267103e-09 -1.226869e-10 2.569667e-10 -1.608216e-10
1.105193e-08 -3.317072e-08 6.152358e-09 -3.724364e-09 -7.195461e-11 -8.753827e-10
5.522330e-09 -2.407552e-08 5.644085e-09 -1.220142e-09 -4.928887e-10 -8.911090e-10
-9.673617e-09 1.020909e-08 -1.709125e-09 2.875788e-09 5.257166e-09 -9.304211e-10
-4.812645e-09 -1.703454e-08 6.225044e-09 7.365928e-09 6.508144e-10 -3.345641e-10
-6.209627e-10 -2.395179e-08 6.479943e-09 9.221393e-09 -5.075928e-10 1.608376e-10
-1.572094e-10 -2.233029e-08 6.879919e-09 4.170511e-09 5.937794e-10 4.323231e-11
5.277707e-10 -2.685412e-08 6.924728e-09 5.130419e-09 1.312774e-10 -1.458318e-10
2.483641e-08 -1.752993e-09 -5.594122e-09 -5.460646e-09 2.391957e-09 2.647002e-10
-3.470769e-09 -1.938943e-08 7.129025e-09 3.244243e-09 2.242229e-10 4.991147e-10
-8.266951e-10 -2.556353e-08 6.569950e-09 8.324026e-09 9.307063e-10 -2.341964e-10
4.821379e-08 -7.891930e-09 -5.969190e-09 -1.104006e-08 -7.941102e-10 7.311461e-09
-1.496091e-08 1.808228e-08 4.243568e-09 9.334148e-09 -4.039464e-09 -2.899322e-09
-1.061197e-08 1.294493e-08 1.947533e-09 8.991089e-09 -2.244177e-09 -2.470514e-09
4.783425e-08 -2.661296e-08 2.749409e-08 -1.542171e-08 -1.752987e-09 6.852285e-09
-5.383724e-09 8.274704e-09 3.077449e-09 1.120412e-08 -2.862266e-10 -2.834539e-10
-5.237237e-09 1.604440e-08 4.301249e-09 1.475610e-08 -1.561089e-09 -1.324774e-09
-5.571151e-09 1.012780e-08 8.031239e-09 1.638939e-08 -1.998827e-09 -1.867293e-09
3.620875e-08 -5.799830e-09 -7.219699e-09 4.253737e-09 -4.490359e-10 -6.512154e-10
-6.356758e-09 8.965604e-09 3.613249e-09 1.217027e-08 -1.671005e-09 -1.140998e-09
3.541785e-08 -1.044435e-08 -3.952736e-09 1.067544e-08 1.390409e-09 2.774788e-09
4.379082e-09 1.420829e-08 -2.785472e-08 3.490790e-09 -8.864057e-09 7.187053e-09
-1.730038e-09 -2.502037e-08 -1.051276e-09 -2.099219e-08 -1.303824e-08 -4.569707e-09
4.884082e-08 -7.429514e-09 -1.418213e-08 1.166519e-09 -1.575764e-09 6.295543e-10
-1.607656e-08 3.590324e-09 -5.050182e-12 -2.679303e-09 -2.889940e-09 -1.040038e-09
9.589147e-10 4.575854e-09 5.910164e-09 1.259222e-08 -5.580609e-10 -2.450581e-09
-4.007319e-10 9.180083e-10 -1.364673e-10 1.040426e-09 1.329558e-10 -7.056533e-11
4.445342e-08 -1.172098e-08 -6.418384e-09 1.536067e-09 -2.192916e-10 1.405868e-09
-5.144569e-10 -1.387654e-10 -1.463377e-10 3.947780e-10 1.377400e-10 -1.768920e-10
8.433487e-09 -4.635704e-09 -1.144234e-09 6.951163e-10 -8.515410e-11 -8.884715e-11
1.563070e-09 -1.332765e-09 -5.293401e-10 1.405599e-09 1.648742e-10 1.601799e-10
-1.176519e-08 1.571814e-08 -6.525327e-09 5.090332e-10 2.851281e-09 -2.432072e-09
1.538822e-09 -9.496559e-11 -1.791969e-10 1.170989e-09 2.596018e-10 3.419804e-10
4.263781e-08 -4.264947e-09 -5.389093e-09 -1.725340e-08 -1.118289e-09 9.008427e-09
4.780713e-09 1.773838e-08 -4.740483e-09 -1.794217e-08 -1.323946e-09 1.374620e-09
2.175405e-09 -1.124055e-09 -2.102856e-10 9.986403e-10 2.080373e-10 1.926014e-10
3.671413e-09 8.529652e-09 -5.586968e-09 -2.585347e-09 2.150719e-09 -9.748366e-10
5.603864e-10 -1.663016e-10 -2.431548e-10 8.483783e-10 2.135397e-10 5.372804e-10
-3.157700e-09 1.976812e-09 2.875267e-10 2.635379e-10 1.743163e-10 1.130829e-10
-2.684460e-09 2.001677e-09 4.136798e-10 1.332534e-09 8.445044e-11 -7.250099e-10
-1.490329e-08 1.417744e-08 -4.095458e-09 5.798100e-10 2.151404e-09 -6.339973e-10
-3.607088e-09 1.225579e-08 -5.357616e-09 1.802669e-09 1.355834e-09 -2.850278e-10
-1.179094e-09 1.104333e-09 5.950396e-11 5.984404e-10 3.285701e-10 -4.239392e-10
-9.003840e-09 1.355595e-08 -3.667878e-09 -8.287432e-10 4.886834e-09 -7.234638e-10
1.172162e-08 -3.699538e-08 5.775094e-09 -4.299960e-09 2.122091e-09 5.703615e-11
8.492276e-09 -3.076185e-08 6.237167e-09 -3.874945e-11 2.463469e-10 -4.787831e-10
-5.023342e-10 1.085750e-09 9.340728e-11 1.165895e-09 1.472294e-10 -1.569311e-10
1.032649e-08 -3.203655e-08 6.218225e-09 -4.346766e-10 5.500895e-10 -6.013618e-10
8.098182e-09 -2.788717e-08 5.859627e-09 -1.239545e-10 2.117616e-10 -1.082536e-09
1.178918e-08 -3.500450e-08 6.764044e-09 -1.890421e-11 3.216487e-10 -5.304984e-10
-1.602263e-09 1.084720e-09 2.012743e-10 1.129922e-09 1.575549e-10 2.240652e-11
1.250455e-08 -3.786434e-08 6.006454e-09 -8.141650e-10 9.557419e-10 -4.316874e-10
1.131732e-08 -3.515990e-08 5.975094e-09 -2.562907e-09 3.137673e-10 -4.007447e-10
-3.545381e-09 2.136262e-09 4.016503e-10 1.437357e-09 3.342782e-10 -1.545345e-10
1.113879e-08 -3.373972e-08 6.555519e-09 -9.798154e-10 -1.594883e-10 -5.898837e-10
-2.270943e-09 1.103603e-09 1.997444e-10 5.697324e-10 3.384509e-10 6.644207e-11
-1.915994e-09 1.387644e-09 1.586351e-10 2.170131e-10 2.039302e-10 -1.386462e-10
-1.518779e-08 -3.127152e-10 2.175005e-09 2.859885e-09 6.546583e-10 -8.285683e-11
-1.528245e-08 2.598494e-09 4.640990e-10 9.881361e-09 2.862048e-09 -1.228303e-09
-1.364597e-09 1.455470e-09 3.553255e-10 4.232820e-09 2.439310e-10 4.232831e-10
-1.326817e-08 -2.563354e-09 8.137593e-10 1.035748e-08 1.474358e-09 1.193272e-10
4.756598e-09 -2.508991e-08 5.582548e-09 -1.586942e-10 1.735110e-10 -7.697568e-10
-1.438352e-08 -5.660977e-09 1.876720e-09 9.289808e-09 2.937819e-09 -5.623559e-10
-1.314999e-08 -6.028183e-09 1.383384e-09 1.052249e-08 7.856465e-10 4.505372e-10
-1.465989e-08 -2.915746e-09 2.738282e-09 3.299899e-09 8.565570e-10 -7.074761e-10
-1.620557e-08 1.376762e-09 1.850891e-09 3.594667e-09 9.676155e-10 -3.859892e-10
9.432609e-10 -1.288424e-08 -6.348773e-09 1.022943e-08 -7.159442e-09 2.936127e-09
-6.001599e-11 5.615683e-10 1.346212e-11 1.192617e-10 4.186897e-10 2.758327e-11
9.655714e-09 -5.629025e-09 -1.198353e-09 1.551077e-09 1.768428e-10 1.419537e-10
-1.788561e-09 -1.105277e-08 -2.530167e-09 8.571060e-09 -4.742226e-09 1.532417e-09
2.156755e-09 -1.693439e-08 1.226097e-09 3.822460e-09 -3.756625e-09 7.476101e-10
-7.359722e-09 3.886874e-09 1.090445e-09 4.424594e-11 1.711442e-11 -1.804132e-10
2.976730e-09 -2.434010e-08 2.097357e-09 1.439163e-08 -5.321519e-09 3.892178e-09
-2.757403e-09 -1.811365e-08 -6.774532e-10 1.193473e-08 -8.486703e-09 2.912138e-09
-1.884307e-09 -1.100343e-08 -4.313083e-11 8.955033e-09 -6.090157e-09 1.333001e-09
6.099775e-09 -3.098235e-09 -8.934422e-10 1.383195e-09 2.157485e-10 6.687639e-11
-7.420466e-09 3.750451e-09 1.151151e-09 1.802043e-10 2.670619e-11 -2.812972e-11
-6.083507e-09 -1.718388e-08 3.694499e-09 1.054451e-08 1.848415e-09 -6.060357e-10
-7.613894e-09 -1.407977e-08 5.469723e-09 1.199245e-08 1.405482e-09 3.694056e-10
7.929339e-09 -4.133188e-09 -1.046592e-09 1.175805e-09 1.696828e-10 1.396026e-10
-1.150088e-08 -1.206565e-08 4.435261e-09 1.568783e-08 4.082084e-09 -8.642458e-10
1.582231e-08 -4.141768e-08 -1.710694e-09 7.365069e-09 2.720189e-09 4.950200e-10
-2.144665e-09 -1.921149e-08 3.098494e-09 1.620890e-08 2.558858e-09 1.264819e-09
6.443811e-09 -4.008085e-09 -8.660703e-10 7.781319e-10 1.448136e-10 5.285275e-11
-1.662533e-08 4.196477e-09 1.351626e-09 2.248965e-09 2.381259e-09 9.758882e-11
4.878630e-09 -2.841564e-09 -7.677912e-10 1.334891e-09 2.624361e-10 -1.463945e-10
1.773333e-09 -1.192901e-09 -3.049372e-10 2.376672e-09 4.543324e-10 -1.512523e-11
-1.381087e-08 -4.505869e-09 3.072275e-09 3.492421e-09 6.292025e-10 -1.145235e-10
-1.378457e-08 1.006138e-09 -1.811944e-09 1.327919e-08 -1.827751e-10 -3.022498e-10
-3.771863e-09 -1.340081e-08 3.543743e-11 1.370465e-08 1.289089e-09 -1.121612e-09
-9.268326e-09 -1.109085e-08 3.867229e-09 1.394877e-08 3.917103e-09 -1.289953e-09
1.662528e-09 -1.335981e-09 -4.539717e-10 1.398592e-09 3.134652e-10 -4.084206e-10
5.863023e-09 -1.713009e-09 -9.925447e-10 -6.527365e-09 -9.617191e-12 -4.143554e-10
-8.771991e-09 1.972523e-09 1.713242e-09 2.576893e-10 -3.678486e-10 -5.932091e-10
-8.751898e-09 1.390335e-09 2.336712e-09 -4.825139e-10 -7.001892e-10 -1.284885e-10
1.411553e-08 -6.735354e-09 -1.170977e-09 -9.694305e-10 -7.704404e-11 8.687873e-11
-8.611549e-09 5.287507e-09 -6.351550e-10 -4.223874e-09 -9.637737e-10 -3.471334e-11
1.324790e-08 -6.735354e-09 -1.231570e-09 -9.319359e-10 -4.073115e-11 -3.645342e-10
1.352662e-08 -6.791408e-09 -1.285617e-09 -7.826373e-10 -2.431437e-14 3.405734e-10
1.223782e-08 -6.302387e-09 -1.354940e-09 1.811427e-10 1.210622e-11 1.565313e-10
-9.214791e-09 3.525397e-09 1.503175e-10 -2.096379e-09 -8.581196e-10 -4.671794e-10
1.098978e-08 -6.136536e-09 -1.294033e-09 -2.854268e-09 1.602720e-10 1.973204e-10
1.058993e-08 -6.009858e-09 -1.350945e-09 -2.228546e-09 3.738072e-11 -1.567219e-11
9.209344e-11 1.823726e-09 -1.481381e-09 -1.083947e-08 -1.263919e-09 1.479760e-09
-7.489887e-09 4.529976e-09 -2.156679e-10 -4.783446e-09 -5.493874e-10 -7.245409e-10
-8.184719e-09 2.503472e-09 1.300281e-09 -9.336116e-10 -1.035538e-09 -7.216934e-10
1.092869e-08 -6.057482e-09 -1.347236e-09 -1.430277e-09 3.777647e-11 -3.900591e-11
8.464101e-09 -5.038139e-09 -1.167398e-09 -1.118028e-09 -1.100455e-10 -3.728740e-12
1.216740e-08 -6.123302e-09 -1.423097e-09 -1.354311e-09 -3.648104e-11 8.889845e-11
-9.982020e-10 1.960044e-09 -3.543974e-10 -5.566698e-09 -1.073326e-10 6.492418e-11
-1.649284e-08 1.543310e-08 -6.217789e-09 6.728105e-09 2.807143e-09 -9.601759e-10
-1.545611e-08 1.346591e-08 -5.706865e-09 6.535918e-09 2.493408e-09 -2.147773e-09
-1.519820e-08 1.965839e-08 -9.439464e-09 4.160913e-09 5.250656e-09 -4.827992e-09
3.408067e-09 -2.147262e-09 -5.531005e-10 2.435740e-11 2.949477e-10 3.757927e-11
-1.808760e-08 1.469549e-08 -1.257068e-08 1.404272e-08 3.243085e-09 -2.088865e-09
-1.627203e-08 2.128857e-08 -1.208546e-08 9.940855e-09 3.203417e-09 -4.318803e-09
1.572971e-09 -3.498646e-10 -2.494189e-10 2.979930e-09 2.153988e-10 -8.096102e-11
-4.230033e-09 2.615545e-09 5.429674e-10 5.331500e-10 2.679980e-10 -6.593109e-11
-9.637103e-09 3.339795e-09 -8.169327e-10 -1.063141e-10 -3.833314e-10 7.889977e-10
-8.847466e-09 3.884614e-09 -2.942273e-10 -2.301867e-09 -3.704086e-10 6.338405e-11
6.696625e-09 -3.066986e-09 -8.803420e-10 2.486810e-09 1.641943e-10 -1.382752e-10
6.814854e-09 -3.358698e-09 -9.306373e-10 2.025630e-09 1.414075e-10 -1.590433e-10
-9.537425e-09 2.463734e-09 5.205245e-10 -1.040922e-09 -2.301639e-10 -4.791893e-10
-9.354643e-09 4.128711e-09 1.480349e-10 -1.793023e-09 -3.014720e-10 6.202938e-10
4.197353e-09 -2.227991e-09 -7.705205e-10 8.784089e-10 3.142748e-10 -4.850498e-11
-7.405712e-09 3.729578e-09 7.863337e-10 -3.003986e-09 -3.711242e-10 -6.676060e-11
2.930419e-09 -1.567546e-09 -4.287202e-10 9.575385e-11 4.302508e-10 1.481204e-11
1.834304e-09 -7.287824e-10 -3.460228e-10 9.617767e-10 -1.420486e-10 2.078870e-11
-8.611549e-09 4.707626e-09 -3.221925e-10 -3.028091e-09 -9.367804e-10 7.898577e-10
1.083158e-08 -6.040808e-09 -1.489993e-09 1.853468e-10 -5.790312e-12 5.722805e-10
-1.811649e-09 -1.581188e-08 3.932604e-09 -7.612406e-09 2.206256e-10 -2.987533e-10
1.969967e-09 -1.926668e-08 2.862393e-09 -1.056681e-08 -7.918263e-10 -1.192073e-09
5.167290e-09 -3.143048e-09 -7.684691e-10 6.494001e-10 1.838616e-10 -2.622751e-11
2.333836e-09 -1.333567e-09 -3.435741e-10 1.514191e-09 3.810818e-10 -1.159585e-10
-6.571740e-09 -1.807550e-09 2.696562e-09 -2.065994e-09 2.352349e-10 -2.473511e-10
-4.671135e-09 -7.119741e-09 3.536010e-09 -3.754696e-09 5.992684e-10 -8.929680e-11
-3.876619e-09 -6.913338e-09 3.949771e-09 -3.202883e-09 2.111464e-10 -2.665057e-10
-2.516592e-09 -1.019448e-08 3.554062e-09 -5.860356e-09 2.345666e-10 -4.061532e-10
-5.996123e-09 -5.165857e-09 3.213008e-09 -4.472381e-09 2.863028e-10 -9.359516e-11
-5.217547e-09 -4.779544e-09 1.683484e-09 -7.341945e-09 1.114191e-09 4.780824e-10
-3.520444e-09 3.366631e-09 2.361780e-10 -1.690984e-09 4.310846e-11 -8.017409e-11
3.619878e-09 2.686331e-09 -4.827663e-08 -2.592774e-08 8.602885e-09 4.675296e-09
-2.695342e-09 -2.028169e-09 -1.655235e-08 -2.365617e-08 1.056902e-08 5.985202e-09
-6.688538e-09 4.806591e-09 7.879111e-10 -5.554535e-10 5.439027e-11 2.077787e-10
-9.324082e-09 1.203647e-08 -8.257727e-09 -1.469764e-08 1.646828e-09 -2.133953e-10
-1.849089e-08 1.926121e-08 -1.229774e-08 -1.369053e-08 2.683760e-09 2.260641e-09
-1.396230e-08 9.717132e-09 -1.190779e-08 -1.898312e-08 5.018242e-09 4.811760e-09
-1.276292e-08 1.114980e-08 -7.677467e-09 -1.644735e-08 3.152165e-09 1.852755e-09
-3.958302e-09 2.558128e-09 6.473675e-10 8.318786e-10 6.635814e-11 -5.092660e-11
-2.228568e-09 1.964910e-09 3.787082e-10 1.712435e-09 4.442935e-11 -1.175494e-10
-7.412249e-09 5.079210e-09 8.198557e-10 -7.553069e-11 -1.932232e-11 2.452616e-11
-1.800424e-09 1.492983e-09 1.520215e-10 1.833381e-09 -1.061151e-11 -1.728506e-12
-2.220778e-09 1.414766e-09 2.874303e-10 2.029661e-09 1.182118e-10 -1.665896e-10
-3.288896e-09 2.094029e-09 2.395084e-10 8.078640e-10 1.501939e-10 -1.845692e-10
-3.497746e-09 1.820806e-09 2.963065e-10 2.307407e-09 1.852071e-10 -1.772830e-10
-4.603246e-09 3.391326e-09 3.269103e-10 -3.231891e-09 -2.286491e-10 -2.015879e-10
-4.555231e-09 2.671112e-09 7.155023e-10 1.622598e-09 -1.191385e-10 -6.026291e-11
-1.497285e-09 1.677884e-09 -1.135183e-10 -4.756797e-10 -1.765474e-10 2.068196e-10
-5.031668e-09 2.675592e-09 8.499983e-10 1.771336e-09 5.905276e-11 2.571510e-10
-7.588330e-09 5.086980e-09 8.381642e-10 -1.890141e-10 9.051661e-21 -2.394440e-11
-1.811649e-09 1.770567e-09 -8.893153e-11 -1.301109e-09 -2.050776e-10 -1.043093e-10
-2.733786e-09 2.008136e-09 3.988498e-10 2.108789e-09 -5.668666e-11 -2.339577e-10
1.892221e-08 -4.224299e-08 -1.457965e-09 2.757344e-09 -2.826851e-09 5.310998e-10
1.056684e-08 -5.832364e-09 -1.166281e-09 7.076261e-10 9.582133e-11 3.385978e-10
1.351869e-08 -3.954119e-08 5.074450e-09 4.150357e-09 -5.008358e-09 7.215192e-10
-2.602434e-10 6.138343e-10 -2.079070e-10 -8.694734e-11 -3.761968e-11 -1.988942e-11
-6.323379e-09 4.324584e-09 8.684649e-10 -1.746921e-09 -3.040472e-10 1.084826e-10
-4.006271e-09 3.322907e-09 2.267946e-10 -1.040581e-10 4.280798e-11 -8.909034e-21
1.391576e-08 -3.531981e-08 8.997261e-10 2.468487e-09 -1.230093e-09 4.016349e-10
-3.403137e-09 3.203116e-09 1.589697e-10 -3.901768e-11 -4.860912e-11 -1.057887e-11
-3.157604e-09 2.509381e-09 5.836576e-11 -1.313347e-09 -2.215701e-10 2.444908e-10
1.495915e-08 -4.118570e-08 8.501213e-10 7.251905e-10 -2.153686e-09 5.139517e-10
1.895315e-08 -4.182075e-08 8.560712e-10 2.872165e-09 -1.838284e-09 8.002735e-10
1.642024e-08 -4.443449e-08 3.586465e-09 3.674507e-09 -2.389388e-09 4.320238e-10
1.793943e-08 -4.636296e-08 3.865734e-09 2.259236e-09 -2.931469e-09 1.084948e-09
9.904937e-09 -5.581236e-09 -1.359832e-09 -4.881132e-10 -8.114454e-11 1.030704e-10
-6.620695e-09 3.676186e-09 8.949443e-10 7.292411e-11 1.160593e-10 -2.213918e-11
1.046530e-08 -5.757613e-09 -1.341511e-09 -4.754380e-11 3.596179e-12 3.420109e-11
-6.758702e-09 3.430040e-09 8.778072e-10 6.600342e-10 -4.946710e-12 -7.956747e-12
9.490275e-09 -5.496956e-09 -1.167144e-09 4.841533e-10 1.228889e-10 1.687899e-10
-6.953601e-09 3.731270e-09 1.029907e-09 2.370217e-10 -3.580902e-11 7.605161e-11
-7.097280e-09 3.807629e-09 1.049899e-09 1.897931e-10 3.088441e-11 -4.652789e-11
-8.194433e-09 -1.268170e-08 5.993334e-09 5.420005e-09 7.138847e-10 1.565031e-10
-6.302487e-09 -1.558635e-08 6.484357e-09 4.503158e-09 6.601677e-11 7.696395e-10
3.388805e-09 -1.202114e-09 -7.889267e-10 -4.847900e-09 -4.318723e-11 -1.888040e-11
-3.689822e-09 -1.510309e-08 5.701695e-09 8.213050e-09 7.181283e-10 6.097154e-10
-8.501663e-09 -1.169371e-08 5.967076e-09 5.494032e-09 3.204462e-11 -1.477920e-10
-7.512959e-09 4.974277e-09 7.183614e-10 -7.404757e-10 -2.001261e-10 -3.444903e-10
-1.080642e-08 -7.734000e-09 4.455013e-09 7.948485e-09 7.495365e-10 -5.492586e-10
-1.124269e-08 -6.829239e-09 4.883424e-09 5.871794e-09 9.566117e-10 4.711459e-10
7.054132e-09 -3.716988e-09 -1.021558e-09 2.405953e-09 3.468191e-10 1.278611e-10
-1.048808e-08 -9.699330e-09 6.021474e-09 1.892308e-09 1.182180e-09 5.319131e-10
-4.361225e-09 -1.501583e-08 5.914983e-09 8.806146e-09 5.701511e-10 -8.169414e-10
-8.982733e-09 2.409690e-10 2.028445e-09 1.621878e-10 -5.263155e-10 -7.321381e-10
-9.228752e-09 -2.994049e-12 1.923278e-09 4.705312e-10 7.248779e-11 -2.238125e-10
-3.421395e-09 -1.635471e-08 9.129657e-10 6.515260e-09 -2.132116e-09 1.110340e-09
-9.112982e-09 3.097468e-09 1.969714e-09 -9.890005e-10 -6.486343e-10 -7.247833e-10
-4.052607e-09 -9.974053e-09 4.204586e-09 -1.787465e-09 -1.217993e-10 -6.844420e-10
-4.284353e-09 -6.337300e-09 3.520553e-09 9.997606e-11 -3.812957e-10 -5.459746e-10
-5.567198e-09 -8.579228e-09 3.548181e-09 1.536920e-09 4.548221e-10 -8.616447e-10
-5.604257e-09 -5.606553e-09 3.516066e-09 -1.570984e-09 -5.198580e-11 -4.124335e-10
-5.703802e-09 -3.702063e-09 2.961694e-09 -3.844474e-10 2.944950e-10 -9.060563e-10
-8.682288e-09 2.616547e-09 2.011441e-09 -1.091423e-09 -4.541320e-10 -3.562775e-10
-9.167435e-09 -1.193312e-10 2.156332e-09 -7.451696e-10 -5.120868e-10 -9.532973e-11
-4.397989e-09 -6.641531e-09 3.330984e-09 -2.785092e-10 2.613458e-10 -7.223906e-10
-5.071555e-09 -5.683148e-09 3.285531e-09 -4.266010e-11 -2.881850e-11 -4.815037e-10
-7.746749e-09 -4.287120e-09 1.907074e-09 8.476880e-10 -7.779652e-10 -8.332457e-10
8.250383e-10 2.929917e-08 -1.968412e-08 -2.890773e-08 4.930628e-09 2.469798e-09
2.915568e-10 6.895670e-09 5.173728e-10 -2.037496e-08 4.410717e-10 -7.867409e-10
6.882268e-09 -2.174211e-11 -2.622804e-10 -1.584092e-08 1.131349e-10 6.432443e-10
1.285906e-08 -1.849328e-09 3.743786e-09 -1.751090e-08 6.114890e-10 -1.228111e-09
-8.643676e-09 4.282347e-09 1.391067e-09 -5.349956e-10 -1.024606e-10 -6.642439e-10
-9.300153e-09 3.642578e-09 1.754512e-09 -4.385674e-10 -1.065723e-10 -5.849363e-10
1.293799e-08 -1.897784e-09 4.027738e-09 -1.755947e-08 1.317925e-09 -1.682108e-09
3.204593e-09 2.494012e-09 1.226256e-09 -1.707697e-08 7.084978e-10 -1.455474e-09
2.577192e-08 -4.213466e-08 -1.513786e-08 -8.094264e-10 -3.152433e-09 2.022881e-11
-9.612750e-09 1.936200e-09 1.863670e-09 -7.604765e-10 -1.290337e-10 -7.342586e-10
2.338259e-08 -4.513770e-08 -7.107822e-09 7.755695e-10 -6.057572e-09 8.698757e-10
1.558452e-08 -3.056356e-08 -9.729534e-09 -9.921272e-09 -6.887003e-09 -1.478519e-09
-8.961949e-09 -1.790849e-09 1.949767e-09 1.773720e-09 -6.664678e-10 -3.283970e-10
2.294762e-08 -5.230788e-08 -3.044498e-11 -2.003777e-09 -9.071974e-09 -1.742722e-10
-1.617455e-08 1.824813e-09 2.708721e-09 7.130573e-09 2.637997e-09 -5.933012e-10
-1.602149e-08 5.382792e-09 -5.658601e-09 1.401398e-08 5.521440e-09 -3.304027e-09
-1.466166e-08 5.495322e-09 -6.649679e-10 1.154482e-08 5.441571e-09 -3.045623e-09
-8.706860e-09 -1.314980e-09 2.150453e-09 -5.880740e-10 1.119033e-20 -9.514389e-12
-8.935200e-09 1.908148e-09 1.170680e-09 -6.457947e-10 -1.431927e-09 6.851153e-11
-8.171467e-09 -2.538047e-09 2.000507e-09 3.854376e-10 -7.631389e-10 -5.587064e-11
-8.874309e-09 4.577132e-09 1.120521e-09 -1.169332e-09 -8.256174e-11 -2.309374e-14
-1.328283e-08 -8.545289e-10 -1.362397e-09 1.473408e-08 3.608722e-09 -1.404208e-09
-4.503476e-09 -1.046888e-08 1.505495e-09 4.814038e-10 5.000468e-10 -2.336614e-10
-9.567803e-09 3.167944e-09 1.741169e-09 5.828894e-11 -5.050271e-11 -2.108009e-10
-1.745216e-08 5.410803e-09 -2.127966e-09 1.023521e-08 6.218188e-09 -1.628798e-09
8.877572e-09 -5.136833e-09 -1.152837e-09 2.213481e-09 2.312648e-10 -1.520306e-10
-5.253149e-09 2.422314e-09 7.596110e-10 1.596233e-09 -1.050005e-10 -3.580274e-10
-7.536068e-09 5.227293e-09 7.517154e-10 -1.931255e-10 -7.605849e-11 -2.055397e-10
-7.972190e-09 4.594128e-09 1.100624e-09 -1.308520e-09 -6.867984e-11 -1.999294e-10
-8.578582e-09 4.718256e-09 1.257880e-09 -5.443086e-10 1.095008e-19 -1.005871e-10
-8.474357e-09 4.731467e-09 1.122814e-09 -2.765863e-10 -4.535028e-11 -5.446756e-10
-4.625981e-09 2.417782e-09 8.673462e-10 2.364787e-09 2.302128e-10 2.175144e-10
-9.335638e-09 3.719996e-09 1.670799e-09 -7.379156e-10 -1.384823e-10 -1.795847e-10
-5.714771e-09 2.467679e-09 1.069676e-09 2.072336e-09 -2.250298e-10 -4.421101e-10
-3.504157e-09 1.793882e-09 4.678498e-10 2.672453e-09 -2.369358e-10 -5.822096e-10
-1.330817e-09 1.444656e-09 1.489702e-10 4.127903e-09 6.377165e-11 -3.437199e-10
-4.849631e-09 2.217750e-09 8.363279e-10 2.786502e-09 -5.573138e-11 -2.961351e-10
-3.479551e-09 2.185804e-09 5.467942e-10 2.864271e-09 1.316443e-10 -9.529011e-11
2.483362e-08 -5.018951e-08 -1.944376e-09 1.943036e-09 -8.906916e-09 6.710149e-10
1.930690e-08 -4.618060e-08 -1.362601e-09 5.596994e-10 -1.471715e-09 3.360618e-10
1.434779e-08 -3.859153e-08 -5.284422e-09 5.635115e-09 -9.294226e-09 1.802924e-09
-4.701013e-09 2.388848e-09 6.958887e-10 2.373831e-09 1.182549e-10 -2.898981e-10
2.344689e-08 -4.256857e-08 -7.696277e-09 3.828282e-10 -6.943611e-10 -9.316858e-11
1.495915e-08 -4.009296e-08 -3.163239e-10 7.322850e-10 -1.172387e-09 5.302947e-10
8.080798e-09 -2.720590e-08 -2.072747e-09 4.440760e-09 -6.165388e-10 4.501918e-11
1.681092e-08 -4.415752e-08 3.323905e-09 8.948955e-09 -1.219655e-08 2.730425e-09
2.227052e-08 -4.280762e-08 -8.031781e-09 1.232860e-09 -1.131374e-09 4.856258e-10
-6.509941e-09 4.289026e-09 -2.138467e-11 -4.515437e-09 -1.401899e-10 5.932921e-10
2.296927e-08 -4.692497e-08 -2.330035e-09 8.782332e-10 -1.924010e-09 5.871546e-11
2.131712e-08 -4.308413e-08 -5.482150e-09 1.746355e-09 -1.482105e-09 1.113232e-09
2.011074e-08 -4.790435e-08 5.204556e-09 3.642312e-09 -6.560700e-09 4.235309e-10
-5.145851e-09 -9.406442e-09 -8.167843e-09 2.250640e-08 4.710596e-09 -9.855951e-10
-1.775309e-10 7.357013e-10 -4.726282e-10 -2.667170e-09 6.720402e-11 -1.256257e-10
-9.553212e-09 2.238424e-09 1.857544e-09 1.888880e-10 1.891201e-10 -1.360361e-10
-8.638549e-09 3.629493e-09 1.288639e-09 -1.879198e-09 -4.604048e-10 -4.142837e-10
-8.659673e-09 2.615749e-09 1.226013e-09 -1.101367e-09 -6.462744e-10 -3.167712e-10
-9.432974e-09 -2.156025e-09 -7.161929e-09 1.926790e-08 3.495115e-11 9.265497e-10
-1.093142e-08 -6.483478e-09 1.824406e-09 1.456741e-08 2.112617e-09 -4.037374e-10
-8.470997e-09 4.618578e-09 8.241985e-11 -3.723500e-09 -4.260352e-10 -1.488542e-10
-9.614413e-09 2.352118e-09 2.034968e-09 -4.151915e-10 -3.743672e-11 -5.232671e-10
-9.007385e-09 -7.879772e-10 1.738998e-09 -1.103830e-10 -7.873021e-10 -5.404795e-10
-1.529188e-08 2.513986e-09 1.354792e-10 9.911200e-09 8.247638e-10 -2.758778e-10
-1.586661e-08 3.222560e-09 -8.806165e-10 1.040948e-08 1.997510e-09 -1.105173e-09
-3.892376e-09 3.089351e-09 3.262781e-10 -1.920218e-09 -4.043434e-10 -1.688013e-10
-1.682598e-08 9.146418e-09 -7.411301e-09 1.312760e-08 -1.631748e-10 -4.715233e-10
-8.491108e-09 2.944439e-09 1.079105e-09 -1.389605e-09 -8.526653e-10 -2.205247e-10
-8.537637e-09 3.476919e-09 1.248051e-09 -8.741728e-10 -1.189225e-10 -4.596243e-10
-7.343229e-09 9.532082e-10 2.124672e-09 -1.988482e-10 -2.126043e-10 -2.735029e-10
-2.978471e-10 1.524445e-09 -2.510543e-10 -5.082929e-09 7.066614e-11 -2.324851e-10
-7.246419e-09 2.812737e-10 1.972539e-09 1.323990e-10 2.445513e-10 -5.151498e-10
2.496946e-09 -1.192907e-09 -4.485985e-10 2.280335e-09 2.571381e-10 -2.392471e-10
5.200668e-09 -2.669126e-09 -6.656009e-10 2.046342e-09 1.644773e-11 -4.416787e-10
-5.700844e-10 9.274421e-10 -1.470584e-10 1.013406e-09 1.365980e-10 -2.658496e-11
1.745297e-10 9.080268e-10 -9.244117e-11 1.094378e-09 1.368542e-10 1.070720e-10
-7.099762e-09 7.947776e-11 2.247513e-09 -4.719540e-10 5.026646e-12 -6.715750e-10
9.101994e-09 -5.447999e-09 -1.253940e-09 1.279126e-10 7.656329e-11 -8.347717e-11
-2.244666e-09 1.561802e-09 3.531246e-10 2.838567e-09 1.458975e-10 1.496172e-10
-2.877210e-09 2.125391e-09 4.338667e-10 2.116679e-09 3.047773e-10 -1.296216e-10
-2.720441e-09 1.748711e-09 2.967941e-10 1.141747e-10 1.147897e-10 1.199850e-10
-1.355348e-09 9.566499e-10 -3.744738e-11 1.701609e-09 2.103826e-10 -1.411689e-10
-7.270220e-09 -2.281944e-10 2.474105e-09 3.987035e-10 3.141651e-10 -2.337306e-10
-9.391119e-10 6.704388e-10 1.173182e-10 2.969423e-09 2.805476e-10 -9.802337e-11
-9.229280e-09 2.277961e-09 1.954974e-09 -4.043483e-10 -6.037393e-11 -7.325598e-10
-6.975078e-09 -1.131966e-09 2.400155e-09 -8.814720e-10 -1.089619e-10 -4.820369e-10
-6.850570e-09 2.797560e-09 1.340492e-09 1.253702e-09 2.093887e-10 -3.022118e-10
-7.303710e-09 5.502283e-10 2.132388e-09 -6.130341e-11 -1.494426e-10 -5.010130e-10
-6.240992e-09 2.102890e-09 1.343458e-09 8.425929e-10 1.653251e-10 -2.581947e-10
-6.723519e-09 -1.509522e-09 2.632236e-09 -4.275560e-10 6.645297e-10 -5.222429e-10
-5.637944e-09 -3.757090e-09 3.020477e-09 2.628405e-10 7.115342e-11 -8.721717e-10
-6.502864e-09 -4.508363e-09 3.269216e-09 -3.388135e-09 -2.640812e-10 1.177822e-10
-6.835856e-09 -7.000152e-10 2.440312e-09 2.706502e-10 -1.089392e-10 -4.072891e-10
-7.028563e-09 -1.540233e-09 2.338168e-09 -1.609382e-09 2.209672e-10 -6.023142e-10
-7.336422e-09 2.719363e-10 2.085000e-09 -8.997390e-10 1.342200e-10 1.922227e-10
7.530676e-10 -1.854703e-08 -2.122046e-09 -1.482219e-08 1.266434e-09 1.994269e-10
1.118371e-09 -4.979439e-11 -2.101478e-10 4.457417e-10 2.613478e-10 -1.277185e-10
2.056586e-09 -1.169021e-09 -4.460496e-10 7.386261e-10 1.505571e-10 -4.014318e-10
-4.690333e-09 2.682865e-09 5.782466e-10 2.304090e-09 2.059758e-10 -2.816705e-10
-6.562629e-09 2.568889e-09 1.417383e-09 1.362983e-09 3.104006e-10 -7.553203e-11
-4.263788e-09 -7.102711e-09 3.201790e-09 -3.083323e-09 1.631956e-10 -1.135371e-09
1.648363e-09 -9.518630e-11 -1.423450e-10 1.183257e-09 1.152312e-10 -2.802005e-10
-3.171063e-10 5.698806e-10 -3.409251e-11 9.125530e-10 4.272658e-10 6.772249e-11
-2.293952e-10 1.081651e-09 2.088760e-10 1.255741e-09 3.770303e-10 2.048297e-10
7.752492e-09 -4.028557e-09 -1.041734e-09 1.191007e-10 2.442136e-10 8.732792e-12
-1.838091e-09 1.196033e-09 1.600320e-11 1.620737e-09 3.216724e-10 6.186488e-10
1.018166e-08 -5.936775e-09 -1.310151e-09 1.446093e-09 -9.940815e-11 -6.368972e-11
-8.673086e-09 3.658585e-09 1.176474e-09 -1.370813e-09 -5.366058e-10 -1.059836e-09
1.215051e-08 -6.990477e-09 -1.228119e-09 -1.747985e-09 3.462881e-11 7.374723e-11
-2.013345e-09 1.239241e-09 2.790632e-10 1.320818e-09 2.766587e-10 2.647698e-10
1.164199e-08 -6.385477e-09 -1.109628e-09 1.873394e-09 1.120363e-11 5.860462e-11
1.478224e-08 -6.453612e-09 -1.099401e-09 3.400522e-09 3.529861e-10 1.729135e-10
-2.646781e-09 1.620445e-09 3.325942e-10 1.568419e-09 9.787404e-11 -6.533107e-12
1.272666e-10 -9.711343e-11 -1.268203e-10 1.312590e-09 3.229679e-10 6.676210e-11
6.986042e-09 -2.610024e-09 -5.299094e-10 6.079696e-09 2.375160e-10 4.929081e-10
-7.583196e-10 2.681885e-09 3.453104e-10 6.506913e-09 -1.304823e-10 -4.268644e-10
5.954277e-10 -9.704393e-11 -6.610978e-11 1.306375e-09 3.270704e-10 -1.738065e-10
-8.069058e-09 6.329935e-09 1.153539e-09 4.152464e-09 -7.146726e-10 -1.615655e-09
-1.164456e-09 9.359038e-10 1.143086e-11 3.773346e-10 2.579892e-10 2.144606e-10
2.740101e-10 8.188561e-11 -7.687428e-11 1.866303e-10 2.429963e-10 -7.627510e-11
1.390678e-08 -5.773172e-09 1.237803e-09 6.299491e-09 3.344677e-10 -8.732826e-10
1.537094e-08 5.612846e-08 -7.590941e-08 -9.297896e-09 -1.968468e-09 7.871442e-09
3.425136e-10 7.704823e-10 1.086482e-10 4.066385e-09 4.056875e-10 5.571530e-10
1.820155e-08 4.358029e-08 -8.209799e-08 -4.031440e-09 -1.370199e-08 5.180551e-09
1.463888e-08 5.774836e-08 -9.556183e-08 -1.211425e-08 -3.452203e-08 1.902699e-08
1.987272e-09 -2.167524e-08 3.826495e-09 -8.555630e-09 6.810963e-10 4.458190e-11
3.168953e-09 -1.835199e-08 1.543515e-09 -1.253853e-08 1.767009e-10 9.937573e-10
9.884517e-09 -2.906083e-08 -2.595317e-09 -1.349404e-08 3.515839e-09 1.523390e-09
1.463888e-08 3.766062e-08 -8.457662e-08 -4.126797e-09 -3.265749e-08 1.233252e-08
2.509636e-09 -1.630291e-08 -9.534040e-09 -1.874484e-08 4.960197e-09 1.581211e-09
1.688677e-08 5.396355e-08 -9.688003e-08 -1.094351e-08 -1.499226e-08 5.202623e-09
1.660368e-08 -3.621231e-08 -6.242386e-09 -9.121164e-09 3.696530e-09 3.788617e-10
2.230645e-08 3.575509e-08 -8.947038e-08 -7.381505e-09 -1.295126e-08 -1.009506e-10
8.446169e-09 -2.841191e-08 1.003335e-10 -1.254034e-08 3.295486e-09 3.278619e-10
1.930471e-08 6.830976e-08 -1.137715e-07 -1.527815e-08 -3.421480e-08 6.279010e-09
8.316676e-09 -2.744049e-08 -6.930367e-11 -1.189498e-08 -6.036295e-10 3.582295e-10
-9.757162e-08 -4.527406e-08 3.208264e-07 -3.263125e-09 6.207575e-09 -1.550304e-08
1.649173e-08 4.430437e-08 -9.234563e-08 -6.980124e-09 -3.723045e-08 2.460506e-09
-6.908623e-09 3.236551e-08 -2.787494e-08 -1.782536e-09 -5.736337e-09 -3.885598e-09
2.814961e-08 -2.493148e-08 -2.714925e-08 -4.081430e-09 -1.154166e-08 1.944171e-10
2.378770e-08 -2.769133e-08 -2.430673e-08 -1.131754e-08 -1.385397e-08 -2.009018e-09
-6.414356e-09 8.334269e-08 -6.342285e-08 4.946281e-09 -1.245702e-08 -1.385597e-08
2.391572e-08 -3.105599e-08 -2.784748e-08 -8.381711e-09 -8.953322e-09 -3.993574e-10
2.371204e-08 -1.066151e-08 -4.285855e-08 -1.573054e-08 -1.904496e-08 -4.267980e-09
1.528792e-08 -4.993734e-08 -1.947366e-10 1.702286e-08 -1.671104e-08 5.232629e-09
-1.245930e-08 3.500830e-08 -3.883839e-08 -4.551185e-09 -1.310734e-08 -1.526995e-08
2.380324e-08 -1.398588e-08 -4.628929e-08 -1.238318e-08 -7.578990e-09 -4.056474e-10
2.710560e-08 -5.818903e-08 -3.068942e-09 5.197133e-09 -2.391012e-08 4.043140e-09
-2.265187e-09 4.545975e-08 -3.797084e-08 7.644353e-09 -6.645270e-09 -5.444242e-09
1.541871e-08 6.224534e-09 -5.658566e-08 8.380922e-09 -2.586323e-08 1.162119e-08
3.992969e-09 7.230526e-08 -8.173700e-08 -1.905836e-08 -9.156170e-09 -8.373550e-10
2.464999e-08 -2.893443e-08 -2.709625e-08 -1.029599e-08 -1.057735e-08 3.670708e-10
-3.158403e-08 7.335494e-08 -2.925203e-08 -1.847378e-08 6.244152e-11 -3.225503e-09
-2.867605e-08 7.335494e-08 -2.192381e-08 -2.324058e-08 5.596056e-09 -8.069751e-09
-3.234070e-08 9.606713e-08 -8.526526e-10 -2.604248e-08 -2.423584e-08 -2.086006e-08
-9.179630e-09 1.805158e-08 -5.004556e-08 3.231416e-08 2.395983e-08 -1.843853e-08
-2.153014e-08 4.867872e-08 -5.983674e-08 2.001099e-08 2.396541e-08 -2.665026e-08
-2.356219e-08 3.226781e-08 6.173993e-08 -4.871400e-08 -2.224933e-08 1.969156e-08
-5.605843e-09 1.696384e-08 -8.153011e-09 -4.750214e-09 1.292434e-09 -1.551903e-09
-2.038780e-08 6.750903e-08 -2.619801e-08 -1.982662e-08 -3.687280e-09 -1.389007e-08
-2.575610e-08 6.902621e-08 -5.911010e-08 1.717737e-10 1.630317e-08 -3.218751e-08
2.288326e-09 9.619078e-10 -3.500805e-08 3.337555e-08 1.468935e-08 -8.313398e-09
-1.673191e-08 7.024910e-08 -4.210506e-08 -1.021535e-08 6.018844e-10 -7.769983e-09
1.951688e-09 -1.961986e-10 -4.238947e-10 -4.041317e-09 -2.040013e-10 5.245053e-10
6.003600e-09 -1.113854e-09 -8.383196e-10 -9.681293e-09 -7.358522e-11 -7.509708e-10
9.206434e-09 -1.699994e-09 -9.395209e-10 -1.200204e-08 -2.268580e-10 9.736458e-10
-3.063985e-08 3.059088e-08 3.139043e-08 -4.162468e-08 3.999963e-10 3.365629e-09
1.937124e-10 5.746026e-10 -2.406755e-10 -1.793362e-09 -1.882050e-12 2.489968e-11
1.522901e-08 -7.269719e-09 -6.442216e-10 -4.987050e-09 -1.301622e-10 5.340670e-10
1.324630e-08 -7.235125e-09 -6.208198e-10 -5.031151e-09 -1.111078e-10 -2.703751e-10
-2.432598e-08 7.062878e-08 -4.213998e-08 -7.564593e-09 -2.274398e-09 -3.984084e-09
-6.850569e-09 2.596929e-09 1.283272e-09 5.296088e-10 7.428613e-11 -2.016887e-10
1.327916e-08 -4.776944e-09 -1.128520e-10 -8.647944e-09 -7.397949e-11 -9.893330e-11
-6.396035e-09 2.717227e-09 1.102971e-09 6.120437e-10 -3.339484e-11 -1.948268e-10
1.003992e-08 -4.123151e-09 -1.035663e-09 -6.102100e-09 -2.376431e-10 -3.757892e-10
-2.173184e-08 1.798235e-08 -8.149652e-09 -1.170003e-08 4.352878e-09 6.876977e-09
-7.302403e-09 2.849166e-09 1.438991e-09 5.388541e-10 -1.138245e-11 -9.973389e-11
3.738593e-09 3.340939e-10 1.550569e-09 9.270515e-09 5.787297e-10 -5.944112e-10
-1.875699e-09 -2.843547e-10 -1.662995e-08 -2.173928e-08 -4.150147e-11 -1.185536e-10
-2.126158e-09 1.111291e-08 -2.777850e-08 -2.439057e-08 5.161620e-09 4.498189e-09
-7.379098e-09 2.921007e-09 1.301130e-09 3.086966e-10 2.888103e-10 -2.833596e-10
-7.456453e-09 3.323818e-09 1.277285e-09 1.651803e-10 6.976131e-11 -2.514551e-10
-3.881277e-09 -7.116939e-09 -2.685106e-09 -1.636753e-08 2.729812e-09 5.449625e-10
-5.548937e-09 -5.549073e-09 -1.245593e-08 -1.856802e-08 3.838156e-09 1.662981e-09
-3.313807e-09 1.346643e-08 -4.328085e-09 -2.198863e-09 3.068976e-09 -4.583468e-10
-1.984006e-08 2.423874e-08 -4.953852e-09 6.096855e-09 1.078648e-08 -8.969102e-09
-2.655151e-09 1.721062e-08 -6.163054e-09 -4.944675e-09 2.747445e-09 -1.474792e-09
-8.315446e-09 3.572500e-09 1.269102e-09 2.256807e-10 -5.278165e-10 -6.808251e-10
-3.580299e-09 -9.379040e-09 2.785017e-09 -7.902045e-09 2.461568e-10 -4.938955e-10
-1.450531e-08 4.584805e-08 -2.799944e-08 2.141690e-08 -3.965002e-09 -5.167685e-09
-8.845560e-09 1.059435e-07 -1.299561e-07 6.489636e-09 1.030286e-08 2.791865e-08
-6.597266e-08 2.268174e-08 1.176021e-07 4.127370e-08 4.522398e-08 -1.590813e-08
-6.580887e-08 -6.854504e-08 3.744247e-07 4.217063e-08 5.281080e-08 1.464197e-07
-3.138055e-08 8.938308e-08 -8.105337e-08 -3.098177e-08 2.392357e-08 3.460077e-09
-7.195217e-08 1.979421e-08 2.171947e-07 -5.009012e-08 -1.140178e-07 6.684182e-08
-1.185520e-08 2.139075e-08 -3.914119e-09 7.943517e-10 6.103294e-09 -5.195095e-09
4.309825e-08 -3.782141e-08 4.108849e-08 1.373100e-08 -9.435484e-10 4.263371e-09
-6.590637e-09 1.871506e-08 1.452240e-08 -4.031313e-08 -6.945341e-09 3.187611e-09
-5.002899e-08 -6.854504e-08 2.158235e-07 1.870410e-08 3.116846e-08 6.771155e-08
-2.509215e-08 2.225738e-08 9.255236e-08 -4.461157e-08 -3.669922e-09 8.934549e-09
-4.993070e-08 3.764623e-08 9.813833e-08 3.266145e-10 1.545672e-09 -4.434532e-09
-1.175004e-07 1.314922e-08 1.999089e-07 8.330030e-09 6.001182e-08 1.377075e-08
-2.493863e-08 5.452582e-08 7.014226e-09 -3.923791e-08 -2.037325e-08 -8.141486e-09
-6.748398e-09 4.757726e-08 -4.009813e-08 4.223152e-09 -5.829928e-09 -1.169570e-08
-1.335342e-07 1.936065e-08 3.336651e-07 3.781252e-08 1.365184e-07 2.178037e-08
5.657868e-08 -3.726696e-09 -6.918748e-09 -8.668467e-09 -2.822050e-09 1.212045e-08
-1.051758e-07 -1.056324e-07 3.406492e-07 -5.737551e-09 -4.837944e-08 8.957529e-08
-5.566549e-08 3.764623e-08 2.408574e-07 -2.313395e-08 -3.192218e-09 -2.131636e-08
-9.794314e-09 4.494590e-09 -8.827065e-09 -1.843954e-08 3.463257e-09 3.164458e-09
-7.415710e-08 -7.415272e-08 3.396953e-07 1.529848e-08 1.895935e-09 2.327372e-08
-7.551021e-09 3.038644e-09 1.479094e-09 -8.944468e-11 1.411171e-11 -1.169471e-10
-7.316075e-09 2.793296e-09 1.477225e-09 6.313709e-10 5.146758e-11 -2.021977e-10
1.630993e-08 -7.046711e-09 1.395071e-09 6.479903e-09 3.618416e-10 -2.649416e-10
1.267496e-09 3.906843e-09 6.001000e-09 1.424428e-08 -3.415759e-11 -2.261428e-09
-2.142409e-08 2.395347e-08 -7.382621e-09 -1.399380e-09 7.553383e-10 4.359630e-09
9.487291e-09 -4.579545e-09 9.347658e-09 1.349099e-08 2.872303e-10 -1.678955e-09
-1.214590e-08 9.566937e-09 -1.435682e-08 -1.781330e-08 5.959953e-09 3.967161e-09
-1.800730e-08 2.417110e-08 -2.877785e-09 5.503020e-09 -7.285361e-10 1.994928e-09
-1.500441e-08 1.721512e-08 -9.752439e-10 1.125396e-09 1.580793e-10 -1.604080e-10
-9.381962e-09 8.388308e-09 6.560867e-10 2.611686e-09 6.622254e-10 -7.759339e-10
-6.908706e-09 3.095210e-09 1.182757e-09 2.932769e-10 8.402168e-13 -2.189426e-11
-9.170769e-09 6.206147e-09 8.884746e-10 1.547881e-09 -7.523375e-10 -9.586131e-10
-7.381156e-09 3.740958e-09 1.105973e-09 1.111168e-10 2.216849e-11 -4.754747e-11
-7.199279e-09 2.779421e-09 1.495296e-09 3.765921e-10 4.364797e-11 -1.748113e-11
7.119775e-09 -4.152152e-09 -1.185522e-09 6.761033e-10 -7.764344e-12 -1.775327e-10
6.455267e-09 -3.950656e-09 -1.043703e-09 6.001684e-10 2.074361e-10 -5.056284e-10
-7.771120e-09 1.445358e-08 -5.681529e-09 -1.463385e-08 -7.198564e-10 4.449166e-09
1.100172e-08 -3.514556e-09 8.905726e-09 -2.002799e-08 2.104370e-10 -1.724286e-09
4.263572e-09 3.892342e-09 3.534283e-09 -2.232358e-08 3.387737e-09 -1.001741e-09
-5.856199e-09 5.316559e-09 -1.135455e-09 -7.193382e-09 -4.629359e-10 -7.617718e-10
3.292953e-09 5.646734e-09 -3.476330e-10 -1.763924e-08 8.913233e-10 -1.350657e-09
8.729341e-09 -4.947353e-09 -1.014642e-09 9.442097e-10 1.657686e-10 2.728675e-10
8.753664e-09 -5.054815e-09 -1.120728e-09 6.876055e-10 4.226680e-11 5.881361e-10
-4.261613e-10 4.878917e-09 -1.577395e-09 -1.068481e-08 7.663226e-11 1.726352e-11
-6.360209e-09 7.630773e-09 -2.961362e-09 -9.726285e-09 -1.356936e-09 1.095527e-09
8.561877e-09 -5.081034e-09 -1.216094e-09 7.492152e-10 1.003150e-10 -1.383302e-10
8.919731e-09 -5.050347e-09 -1.264430e-09 8.893469e-10 -8.877764e-11 -4.167693e-10
8.179617e-09 -4.140940e-09 -1.226732e-09 1.216534e-09 -1.526269e-10 2.318601e-10
-9.229236e-09 2.277961e-09 1.989497e-09 -4.111538e-10 -5.703837e-11 -7.678032e-10
8.199995e-09 -4.635704e-09 -1.168302e-09 6.272600e-10 -6.877432e-11 -1.081024e-11
4.952547e-09 -2.760743e-09 -7.902621e-10 1.625031e-10 2.060272e-10 -2.561540e-10
4.379913e-09 -2.376320e-09 -5.697025e-10 2.058265e-09 2.280344e-10 -1.191629e-10
1.054620e-08 -1.292632e-08 2.416596e-08 1.062587e-08 1.232758e-09 -5.233269e-09
-1.924560e-08 1.600114e-08 -6.764296e-10 -1.145925e-09 1.105795e-09 1.706022e-09
-1.735530e-08 2.151418e-08 -7.658595e-09 -7.092767e-09 2.084187e-09 2.661097e-09
3.640378e-09 -1.613930e-09 -6.026184e-10 2.103016e-09 1.115085e-10 4.304229e-10
-2.187094e-08 2.375201e-08 1.562586e-08 1.437217e-08 -6.983855e-09 8.632199e-10
4.363454e-09 -1.580378e-09 -7.210120e-10 2.258929e-09 3.754830e-11 6.657031e-11
1.313852e-08 -6.248357e-09 1.889373e-09 8.191454e-09 -4.895420e-11 -1.028206e-10
6.243264e-09 -3.385189e-09 -9.357914e-10 2.159029e-09 1.020168e-10 1.124422e-10
4.378332e-09 -2.433619e-09 -5.610055e-10 2.354414e-09 1.456660e-10 -1.342924e-10
1.093875e-08 -1.676577e-08 6.117719e-08 -1.813181e-09 -7.674431e-11 -1.141464e-08
-8.901738e-09 3.228029e-09 1.766913e-09 -5.858727e-10 -1.547702e-10 -8.548011e-10
-7.804454e-09 -8.196624e-09 1.135010e-09 6.849076e-09 -4.299167e-09 8.166765e-10
1.303984e-08 -1.204710e-08 2.435079e-08 1.215484e-08 -6.186196e-10 -7.669399e-09
-8.493276e-09 4.050211e-09 1.128709e-09 -1.630635e-09 -3.181015e-10 -4.838585e-10
-7.219782e-09 4.252964e-09 8.914998e-10 -2.015349e-09 -3.379427e-10 -4.003706e-10
-7.023212e-09 5.085348e-09 6.797936e-10 -2.084655e-10 -9.821751e-11 -1.530349e-10
1.809544e-08 2.060762e-09 1.139528e-08 -2.748910e-08 9.632499e-09 -8.507410e-09
7.317958e-09 1.456650e-10 1.239115e-08 -2.273067e-08 5.749901e-09 -1.905555e-09
-7.179370e-09 -6.451572e-09 3.174921e-09 2.060083e-09 -1.121558e-09 -6.834301e-10
-7.574637e-09 4.332250e-09 8.074506e-10 -2.177473e-09 -2.476545e-10 -3.161913e-10
-6.497658e-09 3.931680e-09 7.831393e-10 -1.705588e-09 -1.165568e-10 -4.014326e-10
-6.793402e-09 4.736559e-09 6.595751e-10 -6.479994e-10 -7.048762e-11 1.968647e-12
-8.470676e-09 -9.620813e-09 5.513797e-09 4.640892e-09 9.414014e-10 -1.209721e-10
-4.801132e-09 -1.979080e-08 7.003929e-09 4.446371e-09 -2.135335e-11 1.120490e-10
1.448399e-08 -3.914083e-08 8.057848e-10 -5.053539e-09 2.378154e-09 -2.527156e-10
8.048559e-09 -3.325225e-08 6.224595e-09 9.317817e-09 1.327908e-09 1.738206e-10
-3.295921e-09 -1.857452e-08 7.119634e-09 3.622225e-09 3.675346e-10 5.696508e-10
-8.272978e-09 -1.374567e-08 6.176140e-09 4.312898e-09 -7.199212e-10 2.535476e-10
-4.295916e-09 -1.720990e-08 6.097051e-09 5.954859e-09 4.787806e-10 -1.795795e-10
-3.434422e-09 -1.135747e-08 -5.818128e-09 1.989303e-08 4.486929e-09 -2.049030e-09
-7.591927e-09 -1.357145e-08 6.394576e-09 2.676619e-09 7.803916e-11 -1.367120e-10
-4.828727e-09 -1.700749e-08 6.797667e-09 3.136334e-09 5.775676e-10 1.395464e-10
6.961708e-09 -3.287973e-08 7.122536e-09 1.031677e-09 4.696532e-10 3.752102e-10
7.278078e-09 -2.821769e-08 -5.498840e-09 1.877175e-08 4.023109e-09 -5.151077e-10
-6.178096e-09 -1.674979e-08 7.159779e-09 1.775259e-09 2.053870e-10 -2.975264e-10
5.847238e-09 -3.395870e-08 6.822306e-09 7.627140e-09 1.318993e-09 3.689592e-10
5.682507e-09 -3.062011e-08 6.381315e-09 1.020819e-08 2.136554e-09 -1.758764e-10
9.606405e-09 -3.076185e-08 6.190044e-09 -4.241407e-10 2.796430e-10 -3.553659e-10
5.648589e-09 -3.087558e-08 4.973177e-09 1.030355e-08 1.455021e-09 1.047595e-10
1.323959e-08 -3.995329e-08 6.314037e-09 -1.118394e-09 1.622378e-09 -3.690752e-10
8.153828e-09 -3.335696e-08 7.038597e-09 5.847712e-09 -3.848367e-11 6.329197e-10
1.037527e-08 -3.587665e-08 6.454624e-09 8.649015e-09 2.450673e-09 -3.156098e-11
9.930411e-09 -3.767509e-09 -5.115515e-10 6.328702e-09 2.024495e-10 6.309116e-10
8.728871e-09 -3.417481e-08 6.901189e-09 7.938181e-09 1.371865e-09 -2.600336e-10
1.556283e-08 -3.992011e-08 4.534954e-09 3.464223e-09 1.335025e-09 -7.314784e-10
1.370311e-08 -5.951992e-09 2.334470e-10 5.014100e-09 -9.603844e-12 -4.105379e-10
1.659454e-08 -3.645172e-08 -4.021891e-09 -8.740907e-09 4.723184e-09 7.330408e-10
1.798628e-08 -3.863031e-08 9.110659e-10 -3.195876e-09 1.072267e-10 4.497434e-10
1.425363e-08 -6.577374e-09 -6.527889e-10 3.444882e-09 -2.286056e-10 -5.673890e-10
1.576723e-08 -4.091793e-08 2.194307e-10 6.310525e-09 4.100557e-09 -3.458127e-10
1.560743e-08 -3.956074e-08 3.721213e-09 -2.846627e-09 1.670648e-09 -3.598222e-10
-2.876092e-09 -1.104037e-08 4.174861e-09 -3.989290e-09 6.737974e-11 -9.942674e-10
1.100278e-08 -3.674947e-08 5.888281e-09 4.624719e-09 1.041183e-09 -5.175486e-10
1.380548e-08 -3.735834e-08 5.865235e-09 -1.549705e-09 5.518266e-10 -3.463958e-10
1.204988e-08 -3.630879e-08 6.717263e-09 3.439710e-11 1.593079e-10 -1.088028e-10
9.395549e-09 -3.769022e-09 -2.166329e-10 6.365559e-09 2.225893e-10 5.923604e-10
1.075349e-08 -4.497029e-09 2.784373e-10 7.573608e-09 1.322771e-10 4.591350e-11
6.311030e-09 -3.580477e-09 -9.560488e-10 2.253172e-09 7.017212e-11 -5.602652e-11
9.814230e-09 -3.519210e-09 1.357495e-09 9.454369e-09 3.369658e-10 3.372125e-11
1.196182e-08 -5.773172e-09 -2.957314e-10 5.964151e-09 1.023166e-10 -1.105063e-10
9.914750e-09 -3.752576e-09 -1.769780e-10 6.312862e-09 -2.426948e-11 -1.079904e-09
-1.091688e-08 -7.009307e-09 4.804978e-09 4.754888e-09 1.587639e-09 -3.026253e-10
-4.706856e-09 -1.762471e-08 6.524866e-09 4.382773e-09 2.241507e-10 4.881407e-10
7.817983e-09 -4.386042e-09 -1.129346e-09 3.457046e-10 3.014000e-11 -1.350922e-10
1.078029e-08 -6.247852e-09 -1.382989e-09 -5.107491e-10 3.061218e-12 3.521206e-10
-1.144226e-08 -8.045190e-09 3.336178e-09 9.880942e-09 2.456671e-09 -4.387642e-10
-1.305610e-08 -5.403323e-09 4.685195e-09 2.582199e-09 5.752832e-10 4.911739e-10
-1.079835e-08 -7.905596e-09 5.196430e-09 1.992404e-09 1.048833e-09 4.024135e-10
-9.665612e-09 3.489002e-08 -4.001855e-08 -7.212477e-09 -1.390427e-08 -1.699735e-08
-3.864571e-09 1.475578e-08 4.783256e-09 1.517501e-08 -9.119392e-10 -1.783075e-09
-7.011069e-09 1.671925e-08 -2.593238e-08 -1.004060e-08 -5.695409e-09 -6.459425e-09
-6.854566e-09 1.892640e-08 -2.377301e-08 -1.093708e-08 -8.055103e-09 -5.775673e-09
9.470648e-09 -5.021208e-09 -1.189898e-09 1.553266e-09 2.188244e-10 -5.469991e-11
-1.082970e-08 2.145097e-08 -2.903707e-08 -8.376117e-09 -9.566436e-09 -6.487957e-09
-3.473913e-09 6.051572e-09 -3.177101e-08 -1.453143e-08 -1.385861e-08 -6.471953e-09
4.379546e-09 -2.394068e-09 -9.234933e-10 2.347471e-09 2.148687e-10 -1.480423e-10
-2.130994e-09 1.703288e-08 -3.417461e-08 -1.209723e-08 -7.727066e-09 -4.970505e-09
-3.565340e-09 2.768424e-09 2.355827e-10 -1.332873e-09 -2.867377e-10 1.457218e-11
-3.547174e-09 3.075814e-09 2.102185e-10 -2.785038e-09 1.021823e-10 7.127254e-11
5.308944e-10 5.748033e-10 -3.156044e-10 -1.504109e-09 -2.032585e-10 -7.579959e-11
-5.611634e-09 4.248523e-09 4.678660e-10 -3.610507e-10 -3.396261e-11 -1.452825e-10
-5.859307e-09 4.269628e-09 4.361433e-10 -8.050507e-10 -9.867640e-11 4.071554e-11
5.056798e-09 -2.799697e-09 -9.204808e-10 -1.870322e-10 -2.224239e-10 -1.112177e-11
8.937150e-09 -4.473451e-09 -1.349078e-09 -2.184445e-09 -2.117974e-10 4.463570e-10
-3.944280e-09 3.364447e-09 2.495650e-10 -4.311262e-10 -1.697973e-10 3.095493e-10
8.700754e-09 -4.484275e-09 -1.195232e-09 -4.511969e-09 5.941603e-11 -1.764540e-10
1.037053e-08 -5.793316e-09 -1.414786e-09 -1.805079e-09 -2.477836e-10 4.376570e-10
-6.009297e-09 4.226459e-09 5.779730e-10 -4.889906e-10 -4.821388e-11 -2.527845e-11
-6.290988e-09 4.458441e-09 5.838818e-10 -1.122945e-09 -2.028130e-10 -2.569071e-10
4.816085e-09 -1.450262e-09 -7.114644e-10 -2.775013e-09 -4.979160e-10 1.262841e-10
8.059025e-09 -4.024132e-09 -1.047866e-09 -2.097211e-09 -4.448817e-10 1.728004e-10
4.108255e-09 -1.848368e-09 -5.945511e-10 -2.155311e-10 -5.197218e-10 4.336909e-11
6.081065e-09 -3.033840e-09 -8.811663e-10 -3.776001e-09 -3.013552e-10 -4.058647e-10
-4.254561e-10 1.224340e-09 -1.337099e-10 -1.369976e-09 -4.703246e-10 4.065726e-11
4.284247e-09 -1.202188e-09 -8.564141e-10 -4.980051e-09 5.744228e-11 -3.150842e-10
3.267726e-09 -1.177644e-09 -7.054899e-10 -4.009875e-09 -5.571581e-10 1.693359e-10
1.329580e-08 -5.951827e-09 -1.040065e-09 -4.166552e-09 -1.938847e-10 -2.088321e-10
2.097762e-09 -1.961986e-10 -5.669796e-10 -4.044270e-09 -1.878040e-10 1.369258e-10
-7.591050e-09 5.078419e-09 9.148051e-10 -2.832278e-10 -4.757239e-11 -1.945386e-10
-7.789479e-09 5.029076e-09 9.251799e-10 -2.937988e-10 -5.104805e-11 -2.833356e-11
-2.339977e-09 2.614208e-09 1.684879e-10 -3.047231e-09 -1.493055e-10 -5.475465e-11
-6.043258e-09 4.270364e-09 5.708047e-10 -8.894063e-10 -2.657934e-10 -1.063135e-10
-7.032838e-09 5.013832e-09 6.813246e-10 -2.731748e-10 -5.709044e-11 -1.509227e-10
-6.422415e-09 4.675486e-09 4.435172e-10 -5.422733e-10 -2.188552e-10 -1.809231e-10
-6.457147e-09 4.781318e-09 5.822107e-10 -4.058095e-10 -6.787260e-11 -1.133658e-10
-8.332764e-09 4.553547e-09 1.071915e-09 -9.315653e-10 -7.422235e-11 -2.779665e-10
-8.043413e-09 4.966994e-09 1.006591e-09 -3.862333e-10 2.744764e-20 -3.553247e-11
-6.759221e-09 4.660804e-09 6.638405e-10 -6.684511e-10 -5.344636e-11 -2.752434e-10
2.273658e-08 -4.826667e-08 -2.239323e-09 7.750244e-12 -1.526166e-09 5.359045e-11
2.752730e-08 -1.909536e-08 -4.542164e-08 7.533548e-10 -8.424373e-09 3.344253e-10
-6.263845e-09 -3.275562e-09 3.194389e-09 -4.681511e-10 -3.447873e-10 -1.222649e-10
-5.862647e-09 -4.293603e-09 3.071831e-09 -1.206934e-09 -2.957991e-10 -1.480107e-10
-1.531660e-08 1.944370e-09 6.392344e-10 -2.041266e-09 -1.162019e-09 -3.689743e-10
-6.205402e-09 -3.282582e-09 3.077244e-09 -8.300491e-10 -2.214784e-10 -1.252374e-10
-7.168015e-09 -3.438814e-10 2.432080e-09 -4.560170e-10 3.138225e-10 -1.655076e-11
-7.042687e-09 -1.378908e-09 2.720544e-09 -7.027310e-10 -7.371883e-13 -2.992671e-10
-1.157753e-08 -2.673359e-09 -2.724860e-10 -5.623751e-09 -1.712948e-09 -1.683133e-10
-6.592515e-09 -2.690336e-09 3.048401e-09 -9.141763e-10 2.329736e-11 9.959589e-11
-6.894041e-09 -1.609332e-08 7.202245e-09 5.808278e-10 6.718004e-11 -1.942106e-10
-1.379477e-08 1.761284e-08 -1.104184e-08 -3.729994e-09 -4.437798e-09 -2.349491e-09
-1.431207e-08 1.048486e-08 -5.607517e-09 -3.097485e-09 -1.275900e-09 3.728664e-10
-8.418600e-09 1.321820e-08 -5.266497e-09 4.198159e-10 -6.222162e-09 -1.387044e-09
-1.761505e-09 5.002841e-09 -2.652216e-08 -1.557616e-08 -6.777905e-09 -1.864186e-09
-7.528324e-09 -1.509996e-08 6.981888e-09 8.712559e-10 7.973933e-11 -2.147693e-10
-6.063603e-09 -1.724935e-08 7.310209e-09 5.419460e-10 1.159213e-10 2.415790e-10
-5.343805e-09 -1.927893e-08 7.348696e-09 1.805724e-09 1.210148e-10 -2.571334e-10
-6.059580e-09 -1.660349e-08 6.978325e-09 2.860539e-09 1.130587e-10 -2.279659e-10
4.495819e-08 -1.544043e-08 -4.580086e-09 1.929806e-09 1.994006e-10 6.173084e-10
-5.893316e-09 -1.706462e-08 7.364465e-09 3.451066e-10 8.720313e-11 -1.633038e-10
-7.250062e-09 -1.853298e-09 5.448113e-10 2.322447e-09 -1.483276e-09 2.238495e-10
-8.076582e-09 -1.522929e-08 6.885844e-09 1.422585e-09 -5.777689e-11 7.075984e-11
-6.665710e-09 -1.720149e-08 6.719270e-09 4.005790e-09 6.583103e-10 -6.574568e-10
-4.334234e-09 -2.018156e-08 7.409583e-09 1.672964e-09 -1.150939e-10 1.746780e-11
3.899935e-09 1.150676e-08 -3.971022e-09 -2.827373e-09 2.965098e-09 1.899339e-09
-4.411173e-09 -2.037813e-08 7.321344e-09 1.907370e-09 2.796577e-10 1.617674e-10
-6.212946e-09 -1.773733e-08 7.323433e-09 6.178626e-10 -1.962945e-10 -1.452862e-10
-6.323221e-09 -1.584409e-08 7.323433e-09 1.319742e-09 -3.621152e-10 -2.801120e-10
-5.358730e-09 -1.648730e-08 7.220546e-09 2.341754e-09 5.798690e-10 7.372059e-11
3.344074e-08 -9.928840e-09 -4.274244e-09 -4.650704e-10 3.343924e-10 1.433402e-09
-2.378247e-09 -1.481701e-08 -2.228200e-10 -1.433973e-08 -2.209139e-10 6.192602e-10
1.013819e-08 -2.995137e-08 -3.906924e-10 -1.283549e-08 2.255487e-09 7.366843e-10
-7.349384e-09 3.422446e-09 1.261071e-09 1.284151e-10 6.077816e-11 -5.943623e-11
-7.621063e-09 2.037146e-09 1.731556e-09 7.356426e-11 -5.331491e-11 -3.995102e-10
-7.555791e-09 2.618020e-09 1.663578e-09 -4.912870e-11 2.132072e-11 -1.455165e-10
-7.347504e-09 2.035117e-09 1.616067e-09 5.078617e-10 1.512944e-10 -3.296401e-10
-6.583089e-09 3.345368e-09 9.750569e-10 6.908527e-10 1.218018e-10 -2.713553e-10
5.134967e-09 -2.390254e-08 2.424228e-09 -9.412293e-09 -9.751906e-10 -6.313084e-10
5.544691e-09 -2.610576e-08 7.537748e-10 -1.090976e-08 1.320425e-09 -7.726197e-11
-7.658308e-09 3.056519e-09 1.490902e-09 3.243219e-10 -1.379153e-20 -2.126210e-11
3.350933e-09 -2.257943e-08 3.525815e-09 -7.915734e-09 6.689884e-10 -2.210457e-10
-6.933920e-09 3.338819e-09 9.788488e-10 6.101004e-10 1.313228e-10 -1.918840e-10
-6.688751e-09 3.575312e-09 1.019786e-09 4.148086e-10 5.779566e-11 -3.784839e-11
-7.481480e-09 3.576419e-09 1.221952e-09 2.333036e-10 1.110229e-15 1.250111e-11
1.987272e-09 -1.785120e-08 4.008707e-09 -9.197984e-09 9.012158e-10 -6.262618e-10
4.506044e-10 -1.679480e-08 3.016383e-09 -9.817645e-09 1.601603e-09 6.266078e-10
1.714387e-09 -1.932370e-08 2.421670e-09 -1.022238e-08 2.125581e-09 7.237838e-10
1.034420e-09 -1.731782e-08 1.355107e-10 -1.372143e-08 3.065728e-09 1.295921e-09
5.542709e-09 -2.492947e-08 7.226901e-10 -1.117325e-08 1.242948e-09 -1.292227e-11
-7.570263e-09 1.492108e-09 1.875928e-09 -2.394405e-10 -4.916245e-11 -8.671908e-11
-2.190774e-09 2.374609e-09 7.266276e-11 -2.527307e-10 -1.386096e-10 8.225820e-11
-5.420189e-09 4.187788e-09 4.656586e-10 -4.618847e-10 -1.418630e-10 -5.781509e-11
-4.366409e-09 3.561466e-09 3.025518e-10 -1.705681e-09 -8.922296e-11 -1.148104e-10
-7.096308e-09 7.233041e-10 1.845989e-09 -3.282213e-10 5.785239e-11 9.655470e-12
-3.393545e-09 2.775028e-09 2.016582e-10 -1.326327e-09 -8.502599e-11 -1.031385e-10
-3.403141e-09 2.602602e-09 1.494953e-10 -2.004734e-10 8.380186e-12 -3.608558e-11
-2.505373e-09 2.378300e-09 9.906431e-11 -5.177634e-10 -2.906495e-10 4.013108e-10
2.163724e-08 3.437915e-09 5.357965e-08 4.703353e-08 1.655388e-08 3.014502e-08
-1.465235e-08 1.416696e-08 -6.633934e-09 -4.421054e-09 -7.125238e-09 -3.825601e-09
-8.297975e-09 3.124576e-08 -2.364865e-08 5.663573e-09 -1.980137e-09 -5.086144e-10
-8.780601e-10 3.626129e-08 -2.696472e-08 1.864217e-08 -7.064344e-10 -9.774911e-09
6.999279e-09 2.780458e-08 -1.590564e-08 2.079531e-08 -1.405477e-09 -3.686353e-09
8.880685e-09 1.974473e-08 -9.536119e-09 2.130581e-08 -3.059775e-10 -2.317524e-10
-1.518138e-08 8.297034e-10 1.531194e-09 -8.414993e-10 4.384957e-10 2.320188e-11
-1.302157e-08 4.770313e-09 -5.352541e-09 -6.869110e-09 -7.643193e-10 -5.457106e-10
-6.125077e-09 -1.604802e-08 6.422679e-09 4.674587e-09 8.314482e-10 1.183853e-11
-7.989488e-09 -1.301533e-08 5.978467e-09 3.041606e-09 1.522443e-10 3.002696e-10
2.280367e-08 -3.403365e-09 2.296490e-08 3.978874e-08 1.248789e-08 2.238109e-09
2.335847e-08 3.720528e-10 1.082072e-08 2.871751e-08 -5.759472e-10 2.179986e-09
6.504271e-09 2.097357e-08 -9.100428e-09 2.272237e-08 4.402712e-10 -4.802989e-09
-7.646718e-09 2.909703e-09 1.446445e-09 2.903571e-10 1.223377e-11 -2.456692e-10
-3.023100e-09 -2.101612e-08 7.425999e-09 1.239566e-09 -4.017471e-10 2.886900e-10
-5.660399e-09 -1.413728e-08 5.557829e-09 8.880394e-09 1.214672e-09 2.784460e-10
-5.941779e-09 -1.699531e-08 6.992747e-09 1.409190e-09 3.335694e-10 4.063994e-11
-5.758560e-09 -1.760097e-08 7.011451e-09 3.105726e-09 -2.790097e-10 4.255853e-10
-6.378021e-09 -1.750852e-08 7.494833e-09 1.933716e-09 -2.619607e-10 7.573897e-11
-7.406154e-09 2.766564e-09 1.501298e-09 6.845924e-11 3.470002e-12 -4.937897e-11
-7.625264e-09 3.108102e-09 1.447883e-09 1.781434e-10 1.704026e-10 -1.810681e-10
2.878130e-09 -2.714064e-08 6.966023e-09 4.659720e-09 -2.180440e-10 4.883181e-10
-7.584024e-09 3.377772e-09 1.317682e-09 -2.776179e-11 6.777911e-13 -2.172753e-10
-6.359402e-09 -5.795171e-09 8.546794e-10 -1.120791e-08 5.140230e-10 2.152001e-10
-7.652957e-09 3.656580e-09 1.222029e-09 1.389298e-10 4.663270e-12 -2.000082e-10
-6.926838e-09 3.687624e-09 1.058663e-09 1.219698e-10 5.133283e-11 -1.712126e-10
-7.586045e-09 2.965190e-09 1.304403e-09 5.271258e-10 8.544615e-11 -2.757818e-10
-2.568934e-09 1.793853e-09 5.018768e-10 3.076150e-09 -4.200085e-11 1.128431e-12
-7.541349e-09 2.536407e-09 1.644628e-09 3.370060e-11 -1.164648e-10 -1.896736e-10
-7.767303e-09 3.097163e-09 1.422780e-09 1.184790e-10 6.277312e-12 -2.883780e-10
-7.199505e-09 2.543749e-09 1.603193e-09 5.992526e-10 -3.442491e-11 -2.778364e-10
-7.226450e-09 2.106970e-09 1.751145e-09 -5.925700e-11 -1.779102e-10 -1.692690e-10
-7.619349e-09 3.270651e-09 1.401411e-09 4.779697e-10 1.053455e-10 -1.025526e-10
-7.454849e-09 8.046905e-10 2.174076e-09 3.583713e-10 -4.440636e-16 3.573453e-11
1.944231e-08 2.454606e-09 -8.237323e-09 1.100486e-08 -5.950304e-10 -1.253608e-09
1.941469e-08 1.527069e-09 -6.049217e-09 3.405020e-09 -1.552721e-09 2.525058e-09
8.070906e-09 1.003903e-08 -8.526725e-09 5.515023e-09 -1.831085e-09 -1.518700e-09
-4.710313e-10 -2.226450e-08 7.069189e-09 2.922379e-09 4.782006e-10 6.618240e-10
2.778569e-09 -2.036430e-08 5.325884e-09 -2.385115e-10 1.616196e-11 -5.004234e-10
4.920809e-09 -3.131660e-08 7.047569e-09 3.377427e-09 6.555872e-10 1.064125e-10
1.255367e-08 -3.934724e-08 6.479823e-09 3.136614e-09 1.300917e-09 -9.017259e-11
-7.287140e-09 2.586712e-09 1.503142e-09 -4.431570e-12 -5.019607e-11 -1.224199e-11
-7.997265e-10 -2.356164e-08 6.486180e-09 8.242549e-09 1.667811e-09 -3.236947e-10
3.726967e-09 -2.979367e-08 6.126366e-09 6.398792e-09 7.384867e-10 3.207541e-10
2.240575e-09 -2.598160e-08 6.764567e-09 7.703513e-09 -1.148363e-10 8.623482e-10
4.295642e-08 -1.046929e-08 -6.070039e-09 9.110180e-09 6.177730e-10 3.511650e-09
2.345204e-08 5.305855e-09 -5.610969e-09 1.653506e-08 -2.810051e-09 -4.425367e-09
5.397327e-08 -2.216717e-08 1.541256e-09 6.349388e-10 1.967693e-11 5.935484e-10
3.636492e-08 -5.761495e-09 -6.522043e-09 4.408257e-09 -8.496793e-10 -9.900252e-10
4.993653e-08 -9.115888e-09 -5.874389e-09 2.340431e-08 3.945857e-09 9.982840e-09
4.144244e-08 -1.126356e-08 -6.274522e-09 1.592739e-08 5.953796e-10 7.943888e-09
5.980439e-08 -8.229864e-09 4.448527e-09 2.695649e-08 9.593661e-09 2.202856e-08
4.740671e-08 -2.444586e-08 5.665246e-09 -6.017876e-09 -7.008580e-10 1.789044e-09
1.421627e-08 3.836439e-09 -4.448105e-09 -8.791659e-09 1.549489e-09 -1.150675e-09
4.845819e-08 -1.802571e-08 -3.792784e-09 1.937282e-09 5.422173e-10 -1.482366e-10
5.494648e-08 -9.040549e-09 -1.273071e-08 6.347283e-10 -8.179107e-10 4.249569e-09
5.437116e-08 -2.107619e-09 -1.117956e-08 1.437002e-08 2.022918e-13 8.629958e-09
7.436703e-09 -2.494176e-08 7.084235e-10 -1.067860e-08 1.228682e-09 3.374724e-10
1.661554e-08 -3.612127e-08 -1.368253e-09 -8.363537e-09 2.257911e-09 4.577770e-10
9.123433e-09 -3.161421e-08 2.958384e-09 -9.082167e-09 7.393127e-10 -1.021036e-10
1.396554e-08 -3.667309e-08 -1.051888e-09 -9.603184e-09 2.111777e-09 -8.932557e-11
1.430532e-08 -3.496789e-08 7.900134e-10 -8.161271e-09 -3.041669e-10 2.106093e-10
1.084073e-08 -3.229937e-08 2.798971e-09 -7.673271e-09 1.741979e-09 2.927668e-10
-4.005149e-09 3.117420e-08 -1.975213e-08 7.646746e-09 -3.652663e-09 -4.626451e-09
-9.024584e-09 1.463790e-08 -7.295674e-09 -1.810558e-09 -4.841690e-09 -1.021710e-09
1.211638e-08 3.400052e-09 -6.741237e-09 -6.986425e-10 -1.731661e-09 -4.815666e-10
1.187015e-10 -2.325156e-08 7.243957e-09 1.271200e-09 -2.231738e-10 1.535252e-10
8.583885e-09 -5.070921e-09 -1.150539e-09 8.928149e-10 1.821572e-10 -7.335088e-11
2.171680e-09 -2.631436e-08 7.148682e-09 1.303299e-09 7.616110e-10 5.464762e-11
-4.925109e-10 -2.536031e-08 7.274344e-09 2.889598e-09 2.154694e-10 9.388401e-11
-3.414096e-09 -1.984933e-08 7.462183e-09 7.096741e-10 3.702949e-11 3.746736e-10
4.952915e-08 -1.889705e-08 -6.290675e-10 2.550253e-09 9.873235e-10 9.073386e-10
5.262169e-08 -1.893259e-08 -1.204107e-09 5.094466e-09 7.031703e-10 5.895036e-09
4.452560e-08 -9.362794e-09 2.915623e-09 1.557563e-08 5.818651e-09 5.210398e-09
-3.207648e-09 -1.887494e-08 6.684920e-09 3.603493e-09 -5.816746e-10 2.651539e-10
-2.843842e-09 -2.195535e-08 6.456220e-09 4.461599e-09 2.951040e-11 -1.274850e-11
-8.206994e-09 2.037883e-08 -1.550588e-08 2.007828e-09 -2.011096e-10 1.202722e-09
-2.622672e-09 -2.038547e-08 7.299579e-09 1.457225e-09 -5.209164e-12 1.563920e-10
3.447531e-09 1.671015e-08 -1.126051e-08 1.142993e-08 -3.446327e-10 1.399217e-09
-2.868527e-09 -2.227211e-08 6.833684e-09 3.908182e-09 5.942642e-10 -3.832898e-10
1.871904e-08 5.305855e-09 -1.112199e-08 1.854982e-08 -4.573583e-09 -4.266810e-09
5.376468e-09 -3.083292e-08 2.014866e-09 1.157738e-08 -9.087886e-09 1.433510e-09
8.937855e-09 -5.050192e-09 -1.145876e-09 1.017183e-09 9.168385e-11 -2.249567e-10
-1.339899e-07 -8.131846e-08 4.371321e-07 2.203522e-09 2.452349e-08 1.326281e-08
9.724582e-09 -5.462047e-09 -1.384666e-09 -1.006459e-09 -9.214807e-11 1.331127e-10
-1.274366e-07 -8.050810e-08 3.450812e-07 6.115491e-09 9.887225e-09 3.638959e-09
-1.807769e-07 -8.362536e-08 4.738868e-07 -1.129424e-08 3.389579e-08 1.902146e-08
-9.223972e-09 9.918013e-10 2.117000e-09 3.128999e-10 -7.513523e-11 -1.532619e-10
-8.861128e-09 -8.418559e-10 1.837846e-09 1.427403e-10 -5.478866e-10 -4.191716e-10
-7.122940e-08 3.140038e-09 1.589005e-07 -2.373643e-08 9.929034e-09 5.085339e-10
-8.455959e-09 -1.372183e-09 2.170551e-09 8.131540e-10 -4.852454e-10 6.928424e-11
-9.328922e-09 -4.097700e-10 2.070974e-09 7.077428e-11 3.985461e-10 -2.493936e-10
1.913030e-08 -3.994078e-08 -5.099147e-09 1.643782e-09 2.779734e-10 -6.981158e-10
1.349670e-08 -3.951136e-08 4.165113e-11 4.137996e-09 -4.654853e-09 1.074998e-09
1.914290e-08 -4.452714e-08 -1.345241e-09 5.508167e-09 -7.976417e-09 1.314536e-09
-9.410139e-09 9.016765e-11 1.843184e-09 7.735643e-10 -3.383422e-10 -4.910681e-10
-9.739797e-09 1.179427e-09 1.472591e-09 9.135599e-10 -8.151579e-11 -7.403819e-11
-7.860406e-09 -1.802698e-09 2.754526e-09 -5.335166e-10 4.473709e-10 -1.323559e-09
2.281198e-08 -4.410813e-08 -6.183068e-09 1.901023e-10 -4.373795e-10 -7.063106e-10
1.885687e-08 4.198245e-09 -8.345503e-09 4.494096e-09 -9.009580e-10 -2.520063e-09
2.470191e-08 -3.766390e-08 -1.663277e-08 6.674168e-09 -9.355102e-09 1.873708e-09
7.306086e-09 -2.228893e-08 -8.631550e-09 1.166989e-08 -6.449703e-09 2.561461e-09
1.174821e-08 -3.199592e-08 -1.664713e-09 6.691776e-10 -5.207996e-10 2.561483e-10
1.186437e-08 1.441528e-08 -9.555046e-09 1.509217e-08 -1.243022e-09 -1.113947e-09
-8.442390e-09 -1.532599e-09 -3.713079e-09 5.326925e-09 -1.222813e-09 6.087537e-10
6.877275e-09 1.217141e-08 -9.005474e-09 6.635865e-09 -1.339703e-09 -2.331036e-10
1.802775e-08 -3.677053e-08 -6.735632e-09 3.875917e-09 -1.174188e-09 2.454384e-10
2.470191e-08 -3.884920e-08 -1.573934e-08 6.778713e-09 -1.806674e-08 3.415798e-09
1.500322e-08 -3.737680e-08 -3.313985e-09 5.558536e-09 -5.392239e-09 8.781578e-10
2.456092e-09 -1.303195e-09 -4.941710e-10 -1.082374e-09 -2.031757e-10 1.108551e-10
1.659721e-10 2.629759e-10 -1.258296e-10 -2.442895e-09 -4.197783e-10 2.343640e-10
1.543362e-08 2.729061e-09 -7.713579e-09 1.097283e-08 1.785833e-10 1.234484e-09
-7.149539e-09 1.777141e-09 1.714408e-09 2.940896e-10 2.329355e-12 -5.826255e-10
-7.161917e-09 5.053853e-09 6.951115e-10 -6.550094e-11 6.663758e-11 -2.225775e-11
-2.144713e-09 2.546528e-09 5.655609e-11 -7.109082e-10 -1.711578e-10 3.307572e-10
-5.794610e-09 2.359254e-09 1.271764e-09 1.684400e-09 8.929535e-11 -7.133161e-11
-7.206070e-09 2.165833e-09 1.708834e-09 1.118922e-10 2.538092e-10 1.996201e-10
5.575060e-10 2.842535e-10 -2.909832e-10 -7.529990e-10 -1.005309e-10 -2.450107e-11
-6.742491e-09 2.252378e-09 1.601903e-09 5.194546e-10 3.233269e-10 -1.788969e-11
1.619049e-09 -1.961986e-10 -6.023440e-10 -4.185357e-09 -3.744476e-10 2.522911e-10
1.245815e-09 -2.524451e-08 6.914503e-09 1.754110e-09 -2.979350e-10 -3.040467e-10
-8.107817e-09 4.214657e-09 6.683250e-10 -3.290167e-09 -5.653411e-10 -3.651004e-10
5.596188e-09 -3.014550e-08 5.282870e-09 9.090369e-09 1.484152e-09 -2.315290e-10
1.168660e-09 -2.517101e-08 6.985998e-09 1.787213e-09 2.373295e-10 5.305089e-10
-6.444949e-09 3.046736e-09 9.880843e-10 9.042136e-10 4.836798e-11 -4.361116e-10
-7.509168e-09 2.142961e-09 1.553204e-09 5.794993e-10 2.131220e-10 -3.389298e-10
-3.917589e-09 2.271085e-09 3.988490e-10 1.105336e-09 -8.288659e-11 -1.956391e-11
4.754101e-09 -3.019839e-08 7.001590e-09 3.479486e-09 1.973124e-10 1.575970e-10
-4.571715e-09 2.676294e-09 7.240226e-10 1.456345e-09 4.014816e-12 -5.992673e-11
-5.517066e-09 2.886951e-09 1.047777e-09 1.957407e-09 3.514735e-10 3.615942e-10
6.040756e-09 -3.191513e-08 7.424822e-09 2.419008e-09 -8.603906e-10 1.968616e-10
-6.756124e-09 -6.576652e-09 2.971401e-09 1.152829e-09 -2.775289e-10 -9.825413e-10
-1.753616e-09 8.109948e-10 1.133689e-10 1.716906e-09 2.275135e-10 9.341422e-11
6.117037e-09 -3.208957e-08 7.454376e-09 2.532120e-09 -1.296756e-10 4.030506e-10
-7.406197e-09 8.161365e-10 2.070617e-09 -4.643337e-10 -4.579692e-11 4.195133e-11
-6.744425e-09 1.243453e-09 1.585328e-09 1.427733e-10 -1.752483e-10 -3.825649e-10
-7.290072e-09 2.324798e-10 2.411494e-09 4.027444e-11 -6.808887e-11 4.233769e-11
-6.657729e-09 -1.643755e-09 2.592824e-09 -1.258073e-09 3.703993e-10 -2.519969e-10
-3.803966e-09 2.346823e-09 7.596119e-10 2.807871e-09 -1.158691e-10 -2.822853e-12
5.428291e-09 -2.265170e-08 3.932355e-09 -8.500157e-09 2.183354e-09 -3.026014e-10
-6.369007e-09 -1.642787e-09 2.940407e-09 -1.316427e-09 4.717915e-10 -6.048326e-10
-5.669676e-09 -5.459334e-09 3.477051e-09 -2.389611e-09 1.249592e-10 -4.322147e-10
-5.356738e-09 -3.210655e-09 3.496695e-09 -5.829557e-10 -3.961216e-10 -7.260348e-10
-2.135792e-08 4.803889e-08 -2.899587e-08 4.462150e-09 3.790327e-09 6.775436e-09
-2.101022e-08 3.505697e-08 -2.087707e-08 7.206920e-09 1.046079e-08 1.605114e-09
-2.872972e-08 4.207002e-08 -2.913059e-08 -3.178140e-09 5.422285e-09 7.998348e-09
1.992378e-08 5.962148e-09 -4.958961e-09 2.070195e-08 3.485327e-09 4.466255e-10
1.719464e-08 2.097357e-08 -1.683552e-08 2.348996e-08 -3.656653e-10 -6.731596e-09
4.781129e-08 -2.031702e-08 6.580412e-09 -1.183635e-08 -7.183932e-10 2.372369e-09
-9.616359e-09 1.805158e-08 -3.531697e-08 2.223771e-08 1.713333e-08 -7.716200e-09
-1.839712e-08 1.584972e-08 -1.009297e-08 9.247783e-09 -5.218581e-11 -2.743734e-10
-1.263060e-08 -3.072264e-09 -4.818221e-10 1.323742e-08 -4.536029e-10 9.424750e-10
-1.147980e-08 1.585721e-08 -6.060629e-09 -1.082762e-09 1.384551e-09 -9.342622e-10
-1.331850e-08 1.397782e-08 -4.566659e-09 2.608100e-09 1.400993e-09 -4.626797e-10
2.213509e-10 -2.487322e-09 -3.236467e-08 3.615534e-08 2.100596e-08 -1.183472e-08
-1.196440e-08 2.077175e-09 -9.265491e-09 2.214567e-08 5.571257e-09 -3.089362e-09
-1.810769e-08 2.229116e-08 -1.227772e-08 7.465978e-09 2.881823e-09 -1.992955e-09
-1.297125e-08 1.805158e-08 -2.647113e-08 2.418131e-08 1.539929e-08 -1.117707e-08
7.859853e-09 6.930419e-08 -1.212847e-07 1.288108e-08 4.969027e-08 -3.357886e-08
3.700359e-08 -5.789715e-09 -7.419129e-09 -1.004233e-08 1.218695e-09 1.985235e-09
1.174555e-08 5.305854e-09 -7.002107e-09 1.441837e-08 -1.322951e-09 -4.141553e-09
2.162029e-09 2.081387e-08 -1.433751e-08 1.098177e-08 -3.817661e-09 -6.006117e-09
-6.353735e-10 2.130862e-08 -1.391970e-08 1.254199e-08 -7.458231e-10 -2.121937e-09
-5.414706e-09 2.646463e-09 9.863466e-10 2.384302e-09 1.340294e-11 -2.580183e-10
-5.278962e-09 -6.444616e-09 3.676518e-09 2.123627e-10 1.816880e-11 -2.989407e-10
3.625100e-11 2.780205e-08 -1.530939e-08 2.100710e-08 -3.134832e-10 -2.306061e-09
2.137167e-08 1.133740e-08 8.639705e-09 3.006664e-08 3.627631e-09 9.948857e-09
-1.586657e-09 2.131213e-08 -1.421548e-08 1.254777e-08 -7.421202e-10 -1.579250e-09
-7.307992e-09 -5.744489e-10 2.655695e-09 -9.807066e-10 3.263056e-10 4.547470e-12
1.135006e-08 -3.517276e-08 6.644640e-09 -2.389707e-09 -1.091895e-10 -5.770061e-10
-5.734419e-09 -6.590636e-09 3.074195e-09 -3.182516e-10 -3.522681e-10 -1.342109e-09
-6.681526e-09 2.689205e-09 1.277167e-09 6.192570e-10 4.677347e-11 -5.652004e-11
-7.249077e-09 3.812008e-10 2.186185e-09 -6.678138e-10 -7.940137e-11 5.261480e-11
1.142986e-08 -3.580725e-08 5.846853e-09 -2.457499e-09 7.728095e-10 1.189486e-10
5.294125e-08 -2.182877e-09 -8.243287e-09 1.320497e-08 -1.331254e-09 8.992510e-09
5.734901e-08 -2.976332e-08 3.953888e-08 -1.639505e-09 -7.486327e-10 3.639858e-09
4.368371e-08 -1.221613e-08 -6.001397e-09 -3.643702e-10 2.516954e-09 1.892901e-09
2.428210e-08 3.938006e-09 3.576864e-08 -4.052025e-08 -1.190817e-08 1.570829e-08
-7.948367e-09 3.626129e-08 -2.080428e-08 1.961534e-08 -1.616711e-09 -9.761301e-09
9.401204e-09 -3.156693e-08 6.114595e-09 -1.383496e-09 7.839278e-10 7.675371e-11
1.036787e-08 -3.290775e-08 6.285330e-09 -1.155389e-09 -4.947877e-10 -1.402319e-10
-7.834920e-09 1.285075e-09 1.959531e-09 -1.686649e-09 4.321277e-10 1.282803e-10
-1.614568e-08 8.311815e-08 -5.606013e-08 6.615287e-09 -1.258040e-08 -6.733076e-09
-7.551532e-09 1.070720e-09 2.057898e-09 -1.563199e-09 5.952643e-10 3.151846e-10
-1.788705e-09 3.774191e-08 -2.063995e-09 3.205379e-08 2.108509e-09 2.900812e-10
-6.243250e-09 4.838600e-08 -5.061613e-08 -6.540439e-09 -1.422194e-08 -1.569706e-08
3.987883e-09 6.352846e-08 -9.778423e-08 -1.851192e-08 -2.286554e-08 -3.778780e-10
-7.841362e-09 2.524435e-09 1.799648e-09 -7.858434e-10 1.450999e-10 -4.672001e-10
-7.822934e-09 2.437013e-09 1.566651e-09 -6.813192e-10 7.829035e-10 1.487548e-10
1.094370e-08 -2.238067e-08 -1.927739e-08 -1.087771e-08 -4.356859e-09 4.469573e-10
1.094370e-08 -2.732990e-08 -5.888085e-09 -9.214427e-09 -3.200892e-09 2.648367e-10
7.354769e-09 -3.691521e-08 4.425856e-09 -8.028732e-09 -6.016970e-09 3.451516e-10
-4.593716e-09 6.088812e-08 -5.183128e-08 8.115558e-09 -8.666745e-09 -7.672236e-09
1.293972e-08 -3.193605e-08 -2.454910e-09 -5.247955e-09 -1.521071e-09 -1.740247e-09
-6.247743e-09 1.795405e-09 1.394282e-09 7.434346e-10 -2.281530e-11 -2.986367e-11
3.833219e-09 1.877595e-08 -5.233726e-08 -1.789792e-08 -2.289558e-08 -1.104250e-08
-6.745541e-09 2.779958e-09 1.315553e-09 9.681122e-10 5.303171e-10 1.308987e-10
-7.691422e-09 1.854265e-09 1.715930e-09 -2.005692e-10 -3.573981e-10 -4.685091e-10
-1.199760e-08 1.567232e-08 -1.953281e-08 -1.326303e-08 -8.271160e-09 -6.067004e-09
-5.225370e-09 1.510220e-08 -3.507905e-08 -1.505090e-08 -1.591603e-08 -8.947245e-09
8.505470e-10 3.056012e-08 -5.697058e-08 -9.485944e-09 -1.145794e-08 -7.296053e-09
-1.262151e-09 -1.355445e-08 1.011369e-10 2.958763e-09 -4.238521e-10 1.611413e-10
4.623105e-09 1.747977e-08 -5.204775e-08 6.450627e-09 -8.167513e-09 4.860919e-09
1.335607e-08 -5.733971e-09 -6.208198e-10 -5.534039e-09 -1.363409e-10 -2.669121e-10
5.212081e-09 -1.666108e-09 -9.437140e-10 -6.703840e-09 -4.119649e-10 5.301268e-10
-9.454329e-09 6.069713e-09 -2.310773e-09 -3.174743e-09 -4.029295e-10 4.642411e-10
8.295925e-09 -3.594325e-09 -1.138047e-09 -6.828717e-09 -1.076768e-10 6.039732e-10
-9.641541e-09 6.598072e-09 -5.130818e-09 -8.703757e-10 -8.857528e-10 9.189164e-10
-4.432209e-09 1.776421e-08 -9.995076e-09 -1.507712e-08 -2.351369e-09 4.849156e-09
7.422023e-09 -2.491286e-09 -8.890830e-10 -8.350743e-09 -3.550464e-10 6.820564e-10
7.257099e-09 -2.489541e-09 -1.033159e-09 -8.144609e-09 -1.695878e-10 5.277991e-10
1.191928e-08 -4.776944e-09 -7.968173e-10 -8.388703e-09 -2.952037e-10 8.820491e-10
-8.628364e-09 1.198790e-08 -7.410575e-09 -6.654884e-09 -2.978334e-09 3.982414e-09
-8.349151e-09 1.023015e-08 -5.502077e-09 -7.835387e-09 -1.930367e-10 -1.124512e-09
-8.032304e-09 6.822009e-09 -2.684287e-09 -6.334195e-09 -1.165061e-09 -1.845795e-10
-8.349151e-09 8.477883e-09 -4.670981e-09 -5.555878e-09 -3.128011e-10 6.088827e-10
1.260859e-08 -5.474416e-09 -6.617316e-10 -6.788772e-09 3.961810e-11 -1.141955e-09
-6.037016e-09 6.264272e-09 -2.123661e-09 -6.876580e-09 7.483786e-12 2.805303e-10
4.686545e-09 -7.756501e-10 -8.789702e-10 -7.549707e-09 9.053861e-11 -3.458651e-10
6.957070e-09 -1.509529e-09 -1.150888e-09 -9.446321e-09 -3.641037e-10 8.122607e-10
-1.744483e-09 1.691088e-09 1.504539e-10 3.319348e-09 4.096811e-11 -4.819251e-10
-1.089944e-08 9.586407e-09 -7.339240e-09 -1.401297e-10 -2.990923e-09 4.273698e-09
-7.430128e-10 7.704832e-10 7.036816e-11 3.908195e-09 2.439582e-10 -1.647971e-11
-1.424180e-09 1.498386e-09 1.840890e-10 4.268947e-09 -7.404233e-11 -3.213059e-10
1.191716e-09 2.512079e-10 -8.133338e-11 3.564710e-09 3.601852e-11 -1.363553e-10
1.095516e-09 2.726313e-10 -4.745604e-11 3.567702e-09 2.346171e-10 3.092260e-10
-4.637492e-09 2.266537e-09 -1.733577e-08 7.852563e-09 -3.150358e-09 2.208078e-09
-6.967561e-09 2.855916e-08 -3.955499e-08 2.212123e-09 -1.147236e-08 1.630996e-08
-4.258687e-09 4.366549e-09 -1.733577e-08 5.795840e-09 -3.349100e-09 2.227333e-09
-2.271027e-09 5.210440e-08 -2.165594e-08 -4.100422e-08 1.169842e-08 7.879252e-09
-1.072356e-08 2.899964e-08 -2.279701e-08 -1.338281e-08 -4.990649e-09 1.324784e-08
-1.507665e-08 8.392073e-08 -6.447380e-08 -2.175552e-08 -1.712738e-08 7.063826e-09
-9.218192e-09 2.043499e-08 -2.760199e-08 1.868270e-09 -3.264184e-09 5.681575e-09
5.084411e-09 2.873471e-08 -6.946740e-08 1.290550e-09 -7.471364e-09 9.791797e-09
9.751755e-10 2.478799e-10 -1.024598e-10 3.592130e-09 2.634115e-11 -4.844725e-11
1.251034e-08 -2.953685e-09 -3.554740e-08 -1.968361e-08 -1.516810e-08 -7.055071e-09
4.878389e-09 4.743299e-09 -2.939263e-08 -1.576824e-08 -5.908530e-09 -1.752186e-09
9.425409e-09 -3.767508e-09 2.430318e-10 6.388793e-09 1.942734e-10 3.089409e-10
1.211342e-08 -6.453612e-09 -8.554393e-10 3.128103e-09 2.338445e-10 -1.317775e-10
2.190349e-09 -8.728850e-09 -1.904862e-08 -1.976884e-08 -1.015456e-08 -6.057014e-09
-2.716151e-09 -4.106228e-09 -1.152660e-08 -1.281028e-08 -8.313399e-09 -5.572194e-10
1.507752e-08 -8.397022e-09 -6.679501e-10 -1.181174e-09 1.386117e-10 -1.269333e-10
1.774783e-08 -7.608179e-09 3.095719e-10 2.968280e-09 -1.945955e-10 -6.364074e-10
-4.290951e-09 4.278413e-09 -1.558785e-08 -1.374850e-08 -3.845412e-09 -2.988717e-09
1.073863e-08 -5.685452e-09 -5.626948e-10 4.094898e-09 1.191803e-10 1.683359e-10
-8.037621e-11 -3.854152e-09 -1.960246e-08 -1.547876e-08 -9.676047e-09 -3.729940e-09
1.081445e-08 -5.685199e-09 -6.745284e-10 4.099876e-09 2.559399e-11 -7.962598e-10
7.303581e-09 3.944361e-09 -5.226088e-08 -1.837825e-08 -1.642644e-08 -4.889296e-09
1.437802e-08 -7.437524e-09 -1.215190e-09 1.375665e-10 1.690771e-10 3.118865e-10
5.099857e-09 1.442036e-09 2.112724e-09 1.190363e-08 -5.126917e-10 -1.128919e-09
-1.252467e-09 2.045336e-09 -2.235208e-08 -1.337370e-08 -9.186051e-09 -3.700800e-09
-1.599391e-08 6.967831e-10 2.082249e-09 -1.609992e-09 -1.333505e-09 1.136992e-10
1.435115e-08 -7.306610e-09 -9.577525e-10 8.114619e-11 4.099338e-11 -6.446861e-10
-1.653158e-08 2.859603e-09 2.188096e-09 -2.300076e-10 -4.659628e-11 8.311151e-11
-1.008148e-08 7.825530e-09 5.722165e-10 4.447805e-11 3.615328e-10 -4.126643e-10
-5.434889e-09 2.462807e-09 1.036675e-09 1.899986e-09 7.898881e-11 -4.230487e-10
-1.524525e-08 4.435960e-09 7.283258e-10 -2.782476e-09 -9.217590e-10 -5.767621e-10
-1.468644e-08 -2.497433e-10 1.023432e-09 -9.116374e-10 -3.815297e-10 2.097849e-10
-1.525070e-08 2.141098e-09 1.553756e-09 -1.919039e-09 -6.634753e-10 -4.929126e-14
-1.650252e-08 2.361371e-09 1.553757e-09 -4.386157e-10 -1.137011e-10 -2.256040e-10
-9.590795e-09 1.979367e-09 2.186502e-09 -7.978467e-10 -3.339731e-10 -6.390539e-10
-8.153052e-09 1.427247e-09 7.198366e-10 -5.596296e-09 7.402754e-10 5.129041e-10
-9.341829e-09 5.126060e-10 2.027276e-09 4.149590e-10 -9.401436e-10 -4.758769e-10
-8.056707e-09 -3.459284e-09 2.675105e-09 6.718335e-10 -2.808094e-10 -6.043133e-10
-1.190535e-08 4.110708e-09 4.288330e-10 -5.044819e-09 7.725415e-10 -7.570121e-11
-1.213238e-08 4.602196e-09 -1.382299e-08 -1.745921e-08 3.789569e-09 4.361717e-09
-1.572494e-08 1.025931e-08 -8.257725e-09 -1.132438e-08 7.628452e-10 1.434767e-09
-9.310121e-09 -7.697309e-11 2.310934e-09 6.975183e-10 5.852074e-10 -5.682639e-10
-5.734753e-09 3.690227e-09 8.936936e-10 3.515484e-09 3.003884e-10 7.283129e-11
-9.835335e-09 6.019363e-10 1.706425e-09 -4.918658e-09 2.343652e-10 -4.528944e-10
-1.506209e-08 8.701383e-09 -7.474830e-10 -4.476814e-09 1.492628e-09 5.788432e-10
-2.345192e-08 3.090127e-08 -2.248760e-09 4.486578e-09 -1.609944e-09 2.807304e-09
-8.341133e-09 2.457121e-09 -1.950478e-09 -9.781104e-09 1.550538e-09 1.239186e-09
-9.420046e-09 5.998762e-09 -8.525721e-09 3.606412e-09 -3.726580e-09 2.610654e-09
-8.128159e-09 -3.495328e-09 2.486730e-09 4.736576e-10 8.479766e-10 -3.813734e-10
-8.066375e-09 8.449164e-09 -1.454049e-08 3.627644e-09 -3.063902e-09 6.503043e-10
-1.710093e-08 9.023310e-09 -2.132527e-09 2.415514e-09 1.863218e-09 -4.487122e-11
-5.509235e-09 1.506998e-08 -2.782576e-08 6.784208e-09 -9.054134e-09 5.920645e-09
-1.540142e-08 4.418626e-09 -2.617005e-09 9.623097e-09 1.721105e-09 -2.791911e-10
-5.592679e-09 1.274097e-08 -1.759926e-08 7.531604e-09 -6.864268e-09 8.075771e-09
-9.949358e-09 7.977963e-09 -7.098023e-09 -1.167057e-09 -6.192802e-10 -6.312761e-10
-6.030053e-09 8.711869e-09 -3.924088e-09 -8.783925e-09 -1.318759e-09 1.600062e-09
-1.474736e-08 2.352023e-09 1.240947e-09 8.633100e-09 2.540726e-09 -1.053030e-09
-1.637922e-08 3.911206e-09 4.200187e-10 3.407110e-09 4.555394e-10 1.883051e-10
1.941362e-08 -3.434761e-08 -1.452811e-08 -8.077940e-09 -5.089473e-09 -2.897433e-10
-1.669099e-08 3.315955e-09 3.836020e-10 3.542475e-09 1.347165e-09 -5.927756e-10
-3.726780e-08 4.357611e-08 6.796246e-08 4.679307e-08 2.793615e-08 -6.984735e-09
-1.393390e-08 3.597548e-08 -4.633578e-08 -1.127426e-08 -1.053636e-08 -1.153320e-08
2.665704e-08 3.146295e-08 -9.277940e-08 -3.540038e-09 -4.007358e-08 1.006734e-08
-7.907466e-09 4.756429e-08 -4.145231e-08 4.417388e-09 -6.006570e-09 -1.040681e-08
-1.595425e-08 1.006138e-09 -1.549159e-09 1.100192e-08 1.069649e-09 5.547075e-11
1.692986e-09 4.800406e-08 -4.759911e-08 3.361514e-11 -1.181431e-08 -8.116110e-09
8.581848e-09 3.519651e-08 -6.966703e-08 -6.448884e-09 -2.387643e-08 -8.136061e-09
4.084130e-09 -2.152383e-08 5.189023e-09 -3.659169e-09 1.031104e-09 -5.805130e-10
5.077709e-09 -2.536883e-08 5.388959e-09 -5.283355e-09 2.624624e-10 -1.345415e-10
1.787879e-09 -2.015756e-08 4.891554e-09 -5.983100e-09 5.151486e-10 -4.369841e-10
-9.266467e-09 1.116789e-08 -3.202914e-09 -2.862934e-09 -6.624303e-09 -1.562580e-09
3.238593e-08 -9.773633e-09 1.082072e-08 3.433660e-08 -1.847434e-09 4.275013e-09
-8.355392e-08 -3.469282e-08 2.533579e-07 1.385792e-08 1.122890e-08 2.119826e-08
9.832711e-09 -3.470122e-09 -8.182188e-10 -9.815139e-09 2.384606e-10 -6.342842e-10
1.019284e-08 -4.588560e-09 -8.172076e-10 -8.197735e-09 1.021396e-10 -3.398049e-10
1.761153e-09 -1.998872e-08 5.134972e-09 -6.135939e-09 -3.849805e-10 -4.893438e-10
1.774088e-09 -2.033590e-08 4.500944e-09 -6.200462e-09 4.498466e-10 -5.192138e-10
2.308981e-08 -7.964851e-09 9.864278e-09 -1.234125e-08 9.099902e-10 -3.079835e-09
2.168975e-08 -9.086654e-09 4.156766e-09 2.138846e-09 3.227254e-10 -4.256265e-09
-4.514186e-09 -9.186390e-09 -6.276237e-10 4.634695e-09 7.052088e-10 -4.115763e-10
7.809886e-09 -3.308139e-09 -1.082809e-09 -6.850121e-09 9.864557e-12 -2.650786e-10
1.852280e-09 -1.647112e-08 3.472237e-09 -5.647793e-09 1.675239e-09 -3.785095e-10
1.973825e-08 -8.397022e-09 1.091948e-09 -1.188918e-09 1.659710e-10 -1.465306e-09
5.608621e-09 -2.558672e-08 4.224692e-09 -6.222872e-09 1.751286e-09 -8.388154e-10
3.760612e-09 -2.285619e-08 4.872111e-09 -8.691273e-09 5.536418e-10 -3.665540e-10
5.548888e-09 2.581277e-09 -1.495070e-09 -1.409915e-08 -2.973507e-10 5.895651e-10
3.869834e-09 -2.159346e-08 4.538318e-09 -6.550565e-09 1.525651e-09 -6.702707e-10
1.069782e-08 -3.519437e-09 3.204370e-10 -1.022092e-08 3.384725e-10 -1.734820e-09
9.333306e-09 -1.714579e-09 -7.864820e-11 -1.181005e-08 -4.024687e-10 4.751659e-10
8.591746e-09 -1.890395e-09 -8.383205e-10 -1.185501e-08 -5.114618e-11 -6.131671e-10
2.916331e-09 -1.963447e-08 4.659821e-09 -4.679327e-09 8.953227e-10 -1.236601e-09
-8.944918e-09 3.930833e-09 9.439352e-10 -1.823079e-09 -5.628220e-10 4.506322e-10
2.422954e-08 -1.135385e-08 1.998959e-08 5.682486e-09 -4.780452e-10 -1.280650e-08
-9.415933e-09 1.316653e-09 1.360966e-09 2.512265e-10 -6.830554e-10 1.930377e-11
-9.619445e-09 2.377000e-09 1.947452e-09 -7.085825e-10 -3.117884e-11 -1.562788e-10
-8.662083e-09 3.967131e-09 1.400992e-09 -2.045179e-09 -6.700400e-10 -3.544949e-10
1.612703e-08 -1.463432e-08 2.626293e-08 -6.905431e-09 1.239055e-09 -3.393947e-09
9.566006e-09 -1.004059e-08 4.347193e-08 -2.243294e-08 1.471378e-09 -5.064842e-09
-6.299758e-09 2.795301e-08 -2.260797e-08 -1.641817e-08 -5.762139e-09 7.657272e-09
-9.545206e-09 2.161730e-09 1.708040e-09 -4.840492e-10 -3.621411e-10 -6.919849e-10
-9.531277e-09 2.458712e-09 1.440454e-09 -5.142362e-10 -2.555278e-10 -5.392128e-10
4.804194e-09 6.120570e-09 2.249404e-08 -2.630882e-08 9.100287e-09 5.403055e-10
-9.689089e-09 2.021885e-09 1.976375e-09 -4.645816e-11 3.183689e-10 -1.488556e-10
7.026708e-09 4.822272e-09 1.223552e-08 -2.913044e-08 7.397460e-09 -3.197041e-09
-9.570154e-09 3.127993e-09 1.673741e-09 7.999324e-11 -1.375025e-10 -1.295948e-10
3.064086e-09 -1.470879e-09 -4.029257e-10 1.397937e-09 5.645595e-12 3.358380e-11
1.042640e-08 -3.121390e-09 6.556989e-09 -1.962834e-08 2.937566e-11 -3.632621e-10
-1.554427e-09 7.952812e-10 1.884670e-11 7.001208e-10 2.519830e-10 1.511923e-10
-3.993128e-09 2.203486e-08 -1.187297e-08 -2.260199e-08 -8.758326e-10 8.258804e-09
7.519046e-09 1.156431e-08 -4.020431e-09 -2.524122e-08 1.937318e-09 1.490540e-09
-1.484237e-09 1.146446e-09 1.707070e-10 7.310983e-10 1.721734e-11 1.245438e-10
-2.515838e-09 7.781135e-09 1.243828e-09 -1.903861e-08 1.568076e-09 2.940088e-09
-4.598821e-09 -6.661582e-09 1.968639e-10 2.622242e-09 -1.891658e-09 7.404682e-10
-2.804466e-08 8.789231e-08 1.518056e-08 5.421573e-08 -6.084804e-08 -6.138624e-09
-2.963220e-08 3.565596e-08 5.660950e-08 -4.080222e-08 2.484402e-08 -1.928742e-08
-5.601311e-09 1.054646e-07 -5.108061e-08 -5.746440e-09 2.218773e-08 -9.432299e-09
1.040810e-08 9.166957e-08 -1.438710e-07 9.455104e-09 3.222557e-08 1.273672e-09
8.118890e-09 4.140888e-08 -7.359901e-08 -2.088515e-08 1.476609e-08 6.869171e-09
1.690007e-08 9.146562e-08 -1.210936e-07 -8.458235e-10 3.032255e-08 6.861042e-09
3.310676e-09 -1.100397e-09 -3.835003e-10 1.022326e-09 2.156907e-10 -1.855633e-10
1.046068e-08 -2.547192e-09 5.323191e-10 -1.379254e-08 1.356244e-10 -9.719170e-10
-1.736211e-11 3.394112e-10 -1.224572e-10 5.974559e-10 8.044876e-11 3.188458e-10
-1.612042e-09 1.670287e-08 -1.396838e-08 2.029178e-09 -2.759444e-09 -2.342690e-09
1.886850e-08 -9.105585e-09 5.175024e-09 -8.816048e-09 1.920796e-10 -3.911415e-09
1.955579e-08 -8.741950e-09 3.248580e-09 -8.276212e-09 9.132483e-10 3.671550e-10
8.111556e-11 1.343593e-08 -9.304438e-09 -1.034747e-09 -1.432912e-09 -6.065064e-10
2.274506e-08 -1.131400e-08 1.019365e-08 -4.061397e-10 6.774193e-12 -6.303462e-10
-4.825771e-09 1.559095e-08 -8.462081e-09 2.280585e-09 -3.286226e-09 -2.335155e-09
1.224586e-08 9.763058e-09 -9.441219e-09 5.932743e-09 -2.902406e-09 -3.846334e-09
2.920795e-09 1.400291e-08 -1.010794e-08 4.015530e-09 -8.528860e-10 -3.112763e-09
1.129108e-08 -6.696152e-09 1.542784e-08 -1.610197e-08 2.667326e-10 -6.810080e-09
-1.170161e-09 2.434057e-09 -5.587699e-10 -6.212067e-09 -3.773249e-10 -3.878184e-10
6.235266e-09 -2.324183e-08 -1.919576e-08 3.153365e-08 1.178593e-08 -5.330680e-09
-4.155888e-09 3.556557e-09 -3.057736e-10 -6.015542e-09 -3.746805e-10 2.314317e-10
1.855397e-08 3.785329e-08 -1.093099e-07 -2.634012e-08 3.596187e-08 2.786220e-08
-3.441739e-09 4.790768e-09 -1.687432e-09 -8.537573e-09 -9.440773e-10 1.390636e-09
-3.213684e-09 4.228092e-09 -1.531939e-09 -9.598822e-09 -1.012569e-09 6.570695e-10
3.534106e-10 -1.956993e-08 1.162130e-09 4.369840e-09 -1.092406e-09 3.809101e-10
-6.043973e-09 4.515107e-09 -4.353247e-10 -5.962270e-09 -1.165707e-10 -5.550428e-10
-2.121297e-09 4.098918e-09 -9.092722e-10 -8.671781e-09 -3.492915e-10 1.883348e-10
-3.671661e-09 4.571311e-09 -9.873586e-10 -7.426514e-09 -1.256783e-09 4.876490e-10
8.026952e-10 -2.276565e-09 6.448620e-08 2.701384e-08 -7.342581e-09 -1.253442e-08
-1.346009e-08 9.389688e-08 -1.210936e-07 1.683684e-08 3.050097e-08 9.601389e-09
-6.230048e-09 4.129863e-09 -9.820509e-10 -6.100707e-09 -1.172243e-09 4.086784e-10
-1.505841e-08 5.631804e-08 -8.798708e-08 -1.695413e-08 3.074118e-08 2.451134e-08
-4.202319e-09 -2.603766e-09 4.300652e-08 1.572395e-08 -1.410325e-09 -7.450321e-09
-1.089604e-08 4.463455e-08 -3.372401e-08 9.386919e-09 -7.891331e-09 -1.427641e-08
-1.690721e-08 8.542901e-09 -1.426627e-09 -1.934093e-09 -4.992771e-10 1.931296e-18
-6.678805e-09 3.273244e-08 -2.961483e-08 -1.489686e-09 -1.153549e-08 -7.910300e-09
-8.890976e-09 3.302867e-08 -3.068223e-08 -1.812335e-10 -4.718230e-09 -6.483090e-09
-1.130293e-08 3.114875e-08 -2.989048e-08 2.308650e-09 -4.838977e-09 -5.481615e-09
-6.416632e-09 5.395866e-08 -4.808274e-08 5.389341e-10 -1.024347e-08 -1.068857e-08
-3.907328e-09 2.908100e-08 -4.015852e-08 -1.125206e-08 -1.408184e-08 -6.943626e-09
-1.317569e-08 -8.585026e-10 5.595715e-10 -3.061090e-09 -4.158243e-10 -2.627626e-10
-1.637662e-08 1.036681e-08 -3.816061e-09 -9.502714e-10 -1.085356e-09 -4.388418e-10
-5.464262e-09 2.922346e-08 -3.015708e-08 -9.790701e-09 -1.601292e-08 -1.039258e-08
-1.599628e-08 1.036681e-08 -3.816063e-09 -4.404043e-09 -2.238654e-10 -4.862795e-10
9.812157e-09 -5.690034e-09 -1.319409e-09 -1.059146e-11 1.403044e-11 4.728584e-11
-7.438696e-09 -3.165544e-09 -3.647882e-10 2.979972e-09 -3.300717e-09 6.587073e-10
3.948865e-08 -1.143725e-08 -4.972174e-09 1.479406e-09 -1.343443e-10 -2.224421e-16
1.599804e-08 6.990804e-09 -8.850240e-09 6.348772e-09 -2.664340e-10 -4.693970e-10
9.482851e-09 -5.692351e-09 -1.363678e-09 6.104512e-10 6.352613e-12 8.485511e-12
9.761331e-09 -5.667458e-09 -1.251950e-09 -8.082424e-14 -4.653305e-11 3.188405e-11
5.020811e-08 -1.645642e-08 -4.355096e-09 6.719600e-10 -1.775558e-10 1.492229e-09
3.031206e-09 1.172793e-08 -7.104795e-09 2.789344e-09 -5.017671e-09 -2.515685e-09
4.826101e-08 -2.289831e-08 1.164067e-09 6.081784e-09 -1.226161e-09 1.268420e-09
9.965456e-09 -5.809004e-09 -1.383789e-09 5.970038e-10 7.665296e-11 3.159140e-11
-6.113027e-09 3.831079e-09 6.181038e-10 -3.035975e-09 6.444001e-11 1.302176e-10
9.359279e-09 -5.300652e-09 -1.257769e-09 4.435784e-10 9.737294e-12 -2.121827e-10
9.489359e-09 -5.580478e-09 -1.264502e-09 2.251359e-10 9.232279e-11 -7.489143e-11
-7.164222e-09 9.809220e-10 2.077908e-09 -7.123270e-11 7.884005e-11 -1.292323e-10
4.495820e-08 -1.213839e-08 -6.123151e-09 8.403904e-10 -3.041156e-10 2.040590e-11
-7.111407e-09 1.502128e-09 1.742385e-09 -2.212310e-11 -1.618097e-10 -3.164458e-10
4.542844e-08 -1.164671e-08 1.271765e-09 1.882296e-08 3.662705e-09 9.745447e-09
5.044022e-08 -2.101532e-08 -5.602852e-10 1.657601e-09 1.355631e-09 1.476032e-09
5.117286e-08 -2.023423e-08 -2.215238e-09 4.567399e-10 2.897240e-12 1.445826e-09
-7.400401e-09 2.046391e-09 1.791635e-09 3.638753e-10 -6.901280e-11 -1.769105e-10
-7.760075e-09 1.939804e-09 1.846609e-09 -8.302105e-11 3.642308e-12 -2.700513e-10
-6.850568e-09 2.139200e-09 1.653175e-09 5.262975e-10 1.695857e-10 -4.763143e-10
-7.151485e-09 1.936927e-09 1.690228e-09 5.689897e-10 -4.792611e-11 -2.059749e-10
-7.139253e-09 2.495256e-09 1.634098e-09 9.485557e-10 1.517684e-10 1.068514e-10
-6.410070e-09 7.655398e-09 -3.068151e-09 -7.965548e-09 -1.417425e-09 2.441714e-09
-3.236531e-09 1.209670e-08 -8.053635e-09 1.333288e-09 -4.555497e-09 -2.876276e-09
-9.309343e-09 7.955506e-09 -3.624239e-09 -4.725270e-09 -2.157519e-09 2.059966e-09
-6.348170e-09 1.131867e-08 -4.771583e-09 -5.189967e-09 -9.421885e-09 -4.398989e-09
5.676728e-08 -9.246317e-09 -1.164245e-08 3.764681e-09 -2.347962e-10 5.121998e-09
-9.841256e-09 8.574864e-09 -5.490617e-09 -4.260776e-09 -2.106010e-09 8.153666e-10
1.211638e-08 6.936544e-09 -6.877435e-09 4.993255e-10 -3.326174e-09 -8.492047e-10
-8.117325e-09 6.081745e-09 -2.240907e-09 -4.513636e-09 -1.108747e-09 1.079168e-09
1.398667e-08 2.546996e-08 -1.263746e-08 3.351923e-08 9.128245e-09 -2.588805e-09
-3.195900e-09 1.476798e-08 -5.962972e-09 5.557268e-09 -6.627697e-09 -5.424306e-09
2.056150e-08 2.290345e-09 -7.444165e-09 4.894496e-09 -2.932935e-09 -2.784989e-09
2.695924e-08 -1.816877e-09 -7.044371e-09 3.407681e-09 -3.722602e-10 2.293469e-09
1.799996e-08 5.584528e-09 -8.898357e-09 6.930929e-10 -2.045116e-09 2.049159e-10
-9.245774e-09 6.820527e-09 -3.427444e-09 -3.900303e-09 -2.227254e-10 -8.308533e-10
-9.801976e-09 4.720823e-09 -1.553750e-09 -1.581049e-09 -1.566678e-09 1.071623e-09
-9.920634e-09 5.079790e-09 -3.028399e-09 -1.264495e-09 -1.708406e-09 1.663265e-10
-7.198711e-09 -1.491843e-08 7.117122e-09 8.535128e-10 3.756862e-10 1.840585e-10
-6.224083e-09 -1.650564e-08 7.272801e-09 2.504894e-10 -1.726352e-10 1.521018e-10
-9.836113e-09 7.138178e-09 -4.589005e-09 -2.128709e-09 -9.990220e-10 7.382080e-10
-1.732277e-09 -1.988720e-08 7.122901e-09 1.710854e-10 1.880451e-11 1.978790e-10
-6.934704e-09 -1.836096e-08 6.230827e-09 7.842358e-09 5.562968e-10 -1.335767e-10
-5.586205e-09 -1.636650e-08 6.860291e-09 2.627711e-10 9.377743e-11 6.003253e-11
-1.004909e-08 1.679339e-08 -1.519033e-08 -3.536218e-09 -4.551157e-09 6.219332e-09
3.973353e-09 -2.923248e-08 7.133306e-09 1.576647e-09 -3.505696e-10 3.363732e-10
-6.429904e-09 -1.474813e-08 6.151749e-09 5.377289e-09 6.320902e-10 4.981217e-10
4.241958e-09 -2.211718e-08 -3.865135e-09 -6.141637e-09 -1.156768e-09 -4.316774e-10
4.754648e-09 -2.697400e-08 -7.260783e-10 -4.204959e-09 1.108282e-09 -8.376923e-11
-7.910415e-09 -1.386472e-08 6.625019e-09 1.217347e-09 3.744580e-10 1.131730e-10
4.552001e-09 -2.829966e-08 1.065904e-09 -3.444042e-09 -3.711163e-09 -1.047984e-09
-5.349479e-09 3.357562e-09 3.282414e-10 -4.099604e-09 -2.251785e-10 -1.437179e-10
-2.803284e-10 -1.734444e-08 -3.510915e-09 -1.105755e-08 -3.982524e-09 -1.560681e-09
4.998234e-09 -2.878171e-08 7.060823e-09 4.427937e-09 8.422317e-10 1.705465e-10
-3.469391e-09 -1.988720e-08 7.126559e-09 5.555010e-10 2.084999e-11 5.367196e-10
-5.660958e-09 -1.636650e-08 7.055770e-09 3.586091e-10 1.218787e-10 3.823998e-10
-8.186980e-09 -1.385896e-08 6.396403e-09 7.959844e-10 1.130806e-10 2.400213e-11
6.014018e-10 -2.571254e-08 6.485743e-09 8.058960e-09 3.998251e-10 6.742700e-10
1.765978e-10 -2.418741e-08 6.832167e-09 6.181272e-09 -2.436080e-10 3.985511e-11
-6.350925e-09 -1.637158e-08 6.899369e-09 2.124044e-09 2.235412e-11 6.696998e-11
-5.537348e-09 -1.636650e-08 6.829215e-09 2.763718e-10 1.029485e-10 5.345346e-11
-5.043105e-09 -1.831022e-08 7.335381e-09 7.182206e-10 6.590639e-11 3.777056e-10
-1.493219e-08 8.718857e-09 -5.012894e-09 -5.150464e-09 -3.666436e-09 -3.607909e-10
4.250572e-09 -1.973242e-08 -6.142243e-09 -7.899653e-09 -4.716825e-09 -1.152202e-09
9.293367e-10 -2.469943e-08 7.327756e-10 -8.922784e-09 -5.681977e-09 -1.260119e-09
2.610371e-09 -2.198266e-08 -3.135149e-10 -6.587640e-09 -4.233828e-09 -2.036937e-10
-5.839571e-09 1.339794e-07 -9.251828e-08 4.971285e-09 3.723412e-09 -1.923700e-08
-1.553613e-08 1.171031e-08 -7.008522e-09 -4.642998e-09 -1.863735e-09 -1.513279e-09
-3.937536e-09 1.584543e-08 -8.621988e-09 2.897430e-09 -4.115614e-09 -3.027312e-09
-8.240739e-08 1.268060e-07 1.572851e-08 -1.583341e-08 -5.901087e-08 -4.057028e-08
-5.047507e-09 2.037883e-08 -1.031321e-08 5.063568e-09 1.062486e-09 2.572150e-09
-1.557834e-08 1.354452e-08 -3.322981e-09 -1.423588e-09 -4.870513e-09 -4.741434e-10
9.433976e-10 9.532359e-08 -1.081156e-07 8.995317e-09 2.526573e-09 -7.256353e-09
2.277155e-08 9.727460e-08 -1.503642e-07 2.052138e-08 4.793314e-08 -3.439446e-08
-1.512882e-08 1.144995e-08 -4.573951e-09 -3.424919e-09 -7.643375e-09 -2.282586e-09
-2.718680e-08 8.938308e-08 -4.609685e-08 -1.061505e-08 3.379653e-09 -1.598255e-08
1.209158e-08 -3.533328e-08 6.790742e-09 1.668647e-10 4.158323e-10 -4.729329e-10
8.134847e-09 9.440110e-08 -1.090767e-07 3.898553e-09 7.291248e-09 -9.845207e-09
5.933020e-09 -2.589930e-08 3.543471e-09 -8.146547e-09 -5.462275e-11 2.193962e-10
8.080985e-09 -2.859443e-08 4.452155e-09 -5.348427e-09 1.329347e-09 2.445945e-10
1.158695e-08 -3.548458e-08 3.871441e-09 -5.104806e-09 1.610350e-09 -1.317782e-11
9.518578e-09 -3.025289e-08 6.132152e-09 -1.902175e-09 -1.753497e-10 -8.809047e-10
1.064680e-08 -3.255024e-08 6.411313e-09 -3.527778e-11 3.323029e-10 -8.563624e-10
1.164421e-08 -3.392413e-08 4.028080e-09 -5.143298e-09 -8.263760e-10 -4.362309e-10
1.158126e-08 -3.247605e-08 4.845841e-09 -5.045865e-09 -1.031821e-10 -5.001246e-11
4.830314e-09 -2.965475e-08 7.355839e-09 8.798984e-10 2.549765e-10 6.200944e-10
1.273387e-08 -3.821916e-08 6.808796e-09 1.915366e-10 1.391816e-10 -1.250180e-10
4.224539e-09 -1.918842e-09 -7.493246e-10 -2.026044e-10 -2.112281e-10 2.140998e-11
2.543055e-09 -1.332137e-09 -7.440359e-10 -1.341727e-09 -2.567381e-10 4.051902e-10
9.010243e-09 -3.410173e-08 6.600002e-09 4.279843e-09 1.019092e-09 -2.223357e-10
8.777434e-09 -4.605913e-09 -1.229955e-09 -1.984695e-09 -1.909750e-10 1.790812e-10
4.806211e-09 -2.759141e-08 6.971513e-09 8.181575e-09 4.986474e-10 1.078060e-10
3.182473e-09 -2.770946e-08 7.490716e-09 9.177897e-10 2.350384e-10 6.864618e-10
6.007006e-09 -2.647662e-09 -9.827290e-10 -2.562850e-09 1.530303e-10 1.129439e-10
4.865118e-09 -2.443489e-09 -9.159775e-10 -1.731237e-09 -2.104703e-10 -1.861225e-10
-3.846630e-10 -2.062473e-08 6.797072e-09 6.054944e-09 6.642865e-10 2.266473e-10
9.518656e-09 -3.106730e-08 5.975922e-09 -2.150628e-09 5.807303e-11 -9.325936e-10
3.010669e-09 -1.012291e-09 -5.198867e-10 -1.582781e-09 -6.203044e-11 -8.552747e-11
3.778378e-09 -1.490983e-09 -6.908372e-10 -9.701311e-10 -4.098788e-11 -4.138370e-10
7.755521e-09 -2.871351e-08 6.062499e-09 -1.304996e-09 -1.395817e-10 -4.866131e-10
1.146511e-08 -3.390939e-08 6.182664e-09 -2.166783e-09 -8.805916e-11 9.609426e-12
-7.325310e-09 3.904653e-09 1.053944e-09 5.644907e-11 -1.818989e-11 1.333311e-11
3.368713e-08 2.990572e-08 -1.231699e-07 -1.183667e-08 6.133364e-08 1.678647e-08
2.400010e-08 2.949569e-08 -9.870469e-08 -1.286646e-08 1.667172e-08 3.953364e-09
9.073546e-09 4.049584e-08 -9.124504e-08 -1.831375e-08 2.297823e-08 2.749899e-08
2.785329e-08 9.031634e-08 -1.459778e-07 -2.220108e-08 3.446135e-08 1.604310e-08
-7.135611e-09 3.059364e-09 1.299152e-09 2.398414e-10 6.644416e-11 -3.253495e-10
1.146474e-08 4.611352e-08 -8.206734e-08 -2.043619e-08 2.046435e-08 2.133883e-08
-7.319623e-09 4.033472e-09 1.047925e-09 4.598200e-11 1.669598e-11 -2.016387e-12
-7.398725e-09 3.942457e-09 1.004829e-09 1.163158e-10 3.916334e-11 -5.049028e-11
3.014247e-08 1.580022e-08 -9.654109e-08 -2.523129e-08 4.652402e-08 1.614549e-08
2.322570e-08 -5.175873e-08 -4.076143e-09 6.748428e-09 -1.617622e-08 3.738018e-10
-7.461441e-09 3.290896e-09 1.258045e-09 1.872582e-10 4.561196e-11 -1.300107e-10
-7.365118e-09 3.648604e-09 1.156158e-09 1.354432e-10 -9.766410e-12 -7.341683e-12
-7.338592e-09 4.031525e-09 1.008448e-09 3.958433e-11 3.641531e-13 -2.597012e-11
-6.663291e-09 3.751348e-09 9.110330e-10 1.176077e-10 4.152456e-12 -1.093357e-10
-7.105149e-09 3.932091e-09 9.595680e-10 1.767915e-10 3.946288e-11 -9.045876e-12
-7.451639e-09 3.816009e-09 1.119438e-09 1.456799e-10 1.515676e-11 -1.191318e-10
6.932513e-09 -3.755674e-08 5.718004e-10 1.761631e-08 -1.314244e-08 4.629218e-09
2.248956e-08 -4.300772e-08 -7.005979e-09 -2.549148e-09 -3.014379e-09 1.965063e-10
2.286488e-08 -4.066475e-08 -1.196797e-08 -4.691363e-09 -3.475556e-09 -2.210309e-09
-7.249373e-09 4.077263e-09 9.751491e-10 4.593659e-12 8.470891e-12 -5.709144e-11
-6.886802e-09 3.825272e-09 8.883752e-10 -1.170708e-11 1.158031e-10 -3.962475e-11
2.317333e-08 -4.416000e-08 -7.432329e-09 -2.604901e-10 -1.078870e-09 -3.774492e-11
2.181132e-08 -4.677133e-08 2.650618e-10 -2.793456e-10 -2.976617e-09 3.828793e-10
-7.249373e-09 4.178499e-09 9.685359e-10 -3.419576e-11 5.272449e-11 -5.440581e-11
2.371414e-08 -4.277891e-08 -8.899379e-09 3.485518e-09 -1.520463e-08 1.599231e-09
1.007079e-08 -3.623046e-08 7.136513e-09 9.200342e-10 3.658505e-10 3.496063e-10
1.500178e-08 -3.489236e-08 -8.408799e-09 5.555720e-09 -4.701228e-09 7.900736e-10
2.271313e-08 -4.503405e-08 -5.671121e-09 -1.708441e-09 -2.359357e-09 5.090306e-11
2.316254e-08 -4.503508e-08 -6.059795e-09 5.435851e-10 -8.380330e-10 7.644441e-10
1.238449e-08 -4.054864e-08 6.720259e-09 4.524336e-09 1.685500e-09 -4.158701e-10
-1.891136e-10 1.550883e-09 -2.167377e-11 -2.756541e-09 -1.936522e-10 5.754042e-11
1.340261e-08 -3.881484e-08 6.223997e-09 5.801626e-10 -2.243592e-10 -1.507971e-11
1.410071e-09 2.203242e-10 -4.200289e-10 -1.259304e-09 -2.542713e-10 7.340351e-10
-9.681909e-10 1.712803e-09 -1.037357e-10 -9.920305e-10 -2.534057e-10 5.459186e-10
1.871063e-10 2.175349e-10 -4.730629e-10 -1.528000e-09 -2.902867e-10 2.495546e-10
-5.128097e-09 2.878201e-09 7.650591e-10 1.356110e-09 1.220575e-10 3.230061e-11
8.348837e-09 -3.284182e-08 7.289039e-09 5.509859e-10 2.085692e-10 -8.663870e-11
7.306087e-09 -2.338366e-08 -9.215137e-09 1.188577e-08 -1.062291e-08 4.192131e-09
-4.716787e-09 2.818103e-09 5.736418e-10 2.434333e-10 2.678302e-11 1.315132e-10
-3.583923e-09 2.574935e-09 -5.896172e-11 -4.483339e-09 -5.347136e-10 4.256540e-11
-2.759718e-09 1.738786e-09 2.747151e-10 2.527236e-10 1.607172e-10 -1.366991e-10
1.510413e-08 -4.162835e-08 2.704025e-09 2.797699e-09 1.495577e-09 2.743076e-10
1.189476e-08 -3.548415e-08 6.250513e-09 -1.147570e-09 8.716725e-10 4.738809e-11
1.309467e-08 -3.942193e-08 7.326653e-09 1.435686e-09 4.979226e-10 1.222120e-10
-2.356927e-09 1.614495e-09 2.106935e-10 6.445284e-10 7.147960e-11 1.358520e-10
-4.263709e-09 2.763049e-09 4.707061e-10 7.078094e-10 8.747802e-11 2.335021e-11
-2.269180e-09 1.656613e-09 2.131353e-10 5.282874e-10 1.566192e-10 -2.979691e-10
-6.588658e-09 -4.198249e-09 3.194763e-09 -2.431694e-09 3.221132e-10 -7.383072e-11
-6.380621e-09 -1.880100e-09 3.064300e-09 -1.371347e-09 -1.713213e-11 -5.653379e-12
9.519545e-09 -5.624410e-09 -1.296140e-09 -1.073831e-10 1.787899e-11 -4.300943e-11
6.649053e-09 -3.443867e-09 -9.187888e-10 -2.523781e-10 -3.242591e-10 5.898793e-11
8.171852e-09 -4.774425e-09 -1.082425e-09 -6.581069e-10 -2.301838e-10 6.263107e-11
5.056798e-09 -2.799692e-09 -8.103682e-10 -2.314162e-10 1.309863e-11 -2.149725e-11
3.979786e-09 -2.006526e-09 -6.315659e-10 -1.099171e-09 -4.707158e-10 1.171979e-11
-5.116232e-09 -6.428984e-09 3.731647e-09 -8.504987e-10 -5.805538e-10 -1.643462e-10
2.998362e-09 -1.013039e-09 -6.509135e-10 -1.545210e-09 -2.087985e-10 -4.471046e-11
-6.261131e-09 -2.796227e-09 3.273277e-09 -8.195020e-10 4.047990e-10 -2.190639e-10
-5.589748e-09 -4.235558e-09 3.437867e-09 -1.361437e-09 -1.497502e-10 -5.508017e-10
-5.270426e-09 -5.880915e-09 3.524392e-09 -1.310149e-09 -6.289502e-11 1.447464e-11
-4.569634e-09 -7.982733e-09 3.637466e-09 -2.023646e-09 8.320533e-11 -1.179648e-10
-4.595795e-09 -5.941308e-09 3.304636e-09 -1.657003e-09 3.758274e-10 -2.194599e-10
-1.477717e-09 2.524237e-09 -4.678531e-10 -7.210484e-09 -3.395192e-10 2.839255e-10
6.457281e-09 -1.115267e-09 -9.004570e-10 -9.370267e-09 2.044930e-10 -5.833694e-10
1.148616e-08 -3.511841e-09 -1.849596e-10 -1.007288e-08 4.500935e-10 -1.680534e-09
-2.686606e-10 -1.459779e-08 -3.827680e-09 -5.826647e-09 -1.088426e-09 1.920341e-11
-1.400759e-08 -7.815419e-10 1.927629e-09 -4.763597e-10 -2.853500e-10 1.639571e-10
-1.640291e-09 3.204648e-09 -1.375543e-09 -9.387358e-09 -5.572625e-10 8.125238e-10
2.277618e-09 1.610754e-09 -9.530794e-10 -9.169522e-09 -5.559038e-10 1.065708e-09
3.977802e-09 1.734211e-09 -1.138901e-09 -1.143182e-08 -8.089014e-10 9.059897e-10
2.632137e-09 9.770547e-10 -1.023467e-09 -1.143620e-08 -4.230597e-10 1.166818e-10
1.039812e-09 1.564327e-09 -1.071834e-09 -8.885339e-09 -9.910446e-10 5.959258e-10
-1.449177e-08 1.596412e-10 2.199332e-09 -4.554100e-09 -4.540286e-09 -1.716185e-11
-1.110613e-08 2.367397e-08 -1.292558e-08 3.596183e-09 -4.377665e-09 -5.686827e-09
-1.228488e-09 1.682310e-08 -1.293052e-08 2.248688e-09 -4.799821e-09 -5.307460e-09
1.734936e-08 -2.757142e-08 -1.798681e-08 1.131681e-08 -7.524192e-09 3.792148e-09
-1.032859e-08 2.074512e-08 -1.695628e-08 -8.740700e-10 -6.232359e-09 -3.885941e-09
-4.926227e-09 3.108026e-08 -2.158636e-08 7.132588e-09 -6.166792e-09 -7.255769e-09
-2.520455e-10 2.094233e-08 -1.260358e-08 1.239944e-08 -2.844252e-09 -5.357853e-09
-1.686392e-08 8.988113e-09 -2.275920e-09 -1.772876e-09 -1.116774e-09 -3.839824e-10
-1.687182e-08 5.199858e-09 2.512094e-09 -1.437706e-09 -2.572672e-09 1.200968e-10
-3.906414e-09 2.101760e-08 -1.442563e-08 1.027534e-08 -2.720702e-09 -2.664062e-09
-7.256844e-09 -4.898859e-10 2.391231e-09 -7.240297e-10 -1.991682e-10 -3.975392e-10
-7.298018e-09 -5.661676e-10 2.530566e-09 -9.987540e-10 8.855539e-11 -1.540563e-10
-6.942132e-09 -6.241390e-10 2.539143e-09 -1.491520e-10 6.901746e-11 -2.484268e-10
-7.322274e-09 -1.153122e-11 2.361574e-09 -4.985707e-10 -4.663729e-10 -4.235614e-10
-7.270220e-09 -6.811440e-11 2.413179e-09 3.987597e-10 -6.433520e-12 -2.339604e-10
4.823698e-10 -1.827760e-08 5.188803e-09 -5.178963e-09 -1.248809e-09 -2.725326e-10
-1.811649e-09 -1.474046e-08 3.535772e-09 -7.722554e-09 6.737826e-10 -4.269742e-10
-1.746218e-09 -1.476874e-08 3.521068e-09 -7.354724e-09 -1.738719e-11 4.343646e-11
-7.392945e-09 9.960495e-10 2.271974e-09 -4.593230e-12 1.899290e-10 -1.878202e-10
-7.292612e-09 2.725749e-10 2.275235e-09 -8.447665e-11 2.147669e-10 -1.012868e-10
6.659663e-09 -2.695907e-08 5.317732e-09 -2.758996e-09 2.449316e-10 4.008309e-10
7.532659e-09 -3.016621e-08 5.345271e-09 -2.935291e-09 8.642712e-10 -5.151622e-10
1.119415e-09 -1.599485e-08 4.898585e-09 7.195799e-12 4.370238e-11 -5.498952e-10
8.551118e-09 -3.146666e-08 5.689078e-09 -3.117203e-09 -7.089598e-10 -5.451023e-10
8.513850e-09 -3.157506e-08 4.715559e-09 -3.536220e-09 -1.818270e-10 -9.362054e-11
6.423031e-09 -2.498225e-08 5.291672e-09 -5.586968e-09 1.066139e-09 -2.291098e-10
4.800766e-09 -2.271470e-08 5.231092e-09 -3.776968e-09 4.109252e-10 -4.497582e-10
4.927304e-09 -2.593861e-08 4.477047e-09 -5.633220e-09 1.500068e-11 1.382743e-10
-6.498915e-09 -1.337013e-08 3.327841e-09 1.487756e-08 1.144347e-10 -1.501380e-09
-5.879132e-09 -1.746664e-08 8.992744e-10 1.867080e-08 3.475541e-09 -7.989889e-10
-4.665443e-09 -1.214391e-08 3.410578e-10 1.612684e-08 2.222985e-09 -1.572389e-10
-9.837122e-09 -7.093924e-09 -1.660490e-09 1.594475e-08 2.208098e-09 -1.555314e-09
-6.810512e-09 -7.142628e-09 -5.190951e-09 1.734402e-08 7.647895e-10 -1.275086e-09
-6.686737e-09 7.652045e-09 5.883455e-09 1.282927e-08 -1.169065e-09 -1.432398e-09
-2.636593e-09 -1.744909e-08 -1.779996e-09 1.893791e-08 3.412272e-09 -2.159979e-10
-2.800332e-09 -1.745243e-08 -1.848893e-09 1.881631e-08 1.967277e-09 -1.082502e-09
-2.066580e-08 3.258421e-08 7.884630e-09 -2.912204e-08 -8.846430e-09 -1.589512e-09
9.987265e-09 -3.617706e-08 7.504413e-09 2.709169e-09 9.698401e-11 5.817602e-10
1.250124e-08 -3.613770e-08 6.771859e-09 -4.410660e-10 1.272084e-11 -3.786422e-10
-1.203427e-08 3.319760e-08 -9.383233e-09 -1.536086e-08 3.142888e-09 -4.540506e-09
8.121250e-09 1.614075e-08 1.229610e-08 -3.356788e-08 -8.851331e-09 9.484433e-09
6.408287e-09 1.730616e-08 4.843914e-09 -3.350858e-08 2.795918e-09 -4.682265e-09
1.341914e-08 -3.811497e-08 6.678009e-09 -3.084641e-10 5.240831e-11 -2.660578e-10
2.950160e-09 -2.338946e-08 -2.668445e-09 8.343680e-09 -3.335289e-09 3.611749e-09
-1.666666e-08 3.787124e-08 -1.653393e-08 -9.242963e-09 2.241202e-09 -6.428294e-09
-1.575165e-08 3.850635e-09 6.231589e-10 -6.046310e-09 -3.974384e-09 -1.770919e-09
4.830674e-09 -2.965475e-08 7.479429e-09 8.840111e-10 2.545686e-10 -5.569323e-12
8.833770e-09 -3.338444e-08 4.986854e-09 9.899132e-09 7.658181e-10 -7.495893e-10
1.323939e-08 -3.638600e-08 6.367753e-09 -1.384554e-09 1.419046e-09 -4.697121e-10
8.716804e-09 -3.231852e-08 1.873566e-09 2.827165e-09 -3.541699e-09 5.865710e-10
6.441722e-09 -2.252524e-08 -6.007075e-09 7.527547e-09 -3.802504e-09 5.580121e-10
1.037535e-08 -3.426643e-08 6.224327e-09 9.047154e-09 1.792284e-09 -4.160139e-10
1.266387e-08 -3.760584e-08 6.557629e-09 3.420978e-10 4.947824e-10 -4.511347e-10
1.353426e-08 -3.899927e-08 5.327835e-09 2.528482e-09 1.836854e-09 -6.236341e-10
1.609693e-08 -4.044394e-08 2.529197e-09 -1.876896e-10 1.682186e-09 1.431550e-10
-1.655966e-08 1.046934e-08 -2.466672e-09 -1.362086e-09 -3.596311e-09 -7.744818e-10
-1.594353e-08 1.099953e-08 -2.959470e-09 -1.103292e-09 -2.117098e-09 -7.693779e-11
-1.710745e-08 7.875354e-09 -5.282372e-10 -8.003021e-10 -2.550407e-09 -1.912337e-10
-1.510356e-08 7.099325e-09 -3.794586e-09 -5.890896e-09 -4.583758e-09 -1.964356e-09
-7.241970e-09 2.723333e-10 2.436368e-09 -9.256094e-10 2.225935e-10 1.607554e-10
2.828055e-09 -1.093114e-09 -5.917002e-10 -1.795994e-10 -4.250646e-10 -2.306905e-11
-7.074235e-10 1.222608e-09 -2.119040e-10 -1.159462e-09 -3.881956e-10 -1.140668e-10
-1.951233e-09 1.668044e-09 -1.276796e-10 -2.246750e-09 -3.371126e-10 -5.552374e-10
-7.250417e-09 3.284777e-10 2.254611e-09 -9.753139e-10 2.330331e-10 5.335665e-11
1.516548e-08 -4.255472e-08 2.908242e-09 1.004834e-08 -1.170515e-08 1.901765e-09
-7.212743e-09 -3.681544e-11 2.125535e-09 -9.849375e-10 -3.185130e-11 -3.883827e-10
-4.160451e-09 3.372953e-09 3.159739e-10 -1.639340e-09 -2.904299e-11 -4.354082e-10
-1.723794e-10 1.224450e-09 -1.874996e-10 -1.383853e-09 -4.626344e-10 1.161582e-11
-6.585812e-09 -3.386696e-09 3.052528e-09 -2.376386e-09 5.544760e-10 -4.411028e-11
-6.749116e-09 -5.118181e-10 2.665207e-09 -4.506274e-10 -3.643363e-11 -3.202207e-10
-4.677929e-09 3.794129e-09 3.330620e-10 -1.106177e-09 -2.667673e-10 -4.969913e-11
-5.718917e-09 4.061027e-09 3.806662e-10 -1.344519e-09 -2.516711e-10 -2.648036e-10
5.340129e-08 -1.653018e-08 -6.162197e-09 -4.465827e-09 -1.866843e-10 8.252835e-09
4.979400e-08 -2.017252e-08 -2.678513e-09 1.083513e-10 1.735324e-10 1.554239e-09
-2.602398e-10 1.305500e-09 -6.781908e-11 -1.591536e-10 -4.149479e-10 -2.764011e-12
1.829605e-08 5.322520e-09 -4.909467e-09 -3.874291e-09 3.103702e-09 4.024071e-11
3.687899e-08 -8.945471e-09 -3.874339e-09 -3.309965e-09 -1.248853e-10 4.526893e-09
-6.141666e-09 1.814124e-08 -9.726537e-09 2.628690e-09 -6.278653e-09 -7.188505e-09
4.498307e-08 -9.641847e-09 -1.161969e-09 -1.280363e-08 -9.216062e-10 6.126332e-09
6.444577e-09 -4.516425e-09 -3.029450e-08 -1.458775e-08 -6.757163e-09 -5.680582e-10
1.111163e-08 8.948418e-09 -4.864917e-08 -1.621469e-08 -1.013941e-08 -2.726758e-09
4.682443e-08 -1.064871e-08 -6.117781e-09 -7.207270e-09 2.578877e-10 4.850800e-09
4.368371e-08 -1.221350e-08 -6.642120e-09 -7.210838e-11 8.248651e-10 1.948228e-09
6.504113e-10 1.484892e-10 -1.697718e-10 2.039466e-09 -1.406057e-10 9.721846e-11
4.417517e-08 -1.246717e-08 -6.962497e-09 -5.643823e-10 1.166023e-09 2.162741e-09
-3.911109e-09 -1.046043e-08 3.953141e-09 -3.586918e-09 -2.946626e-10 -2.981339e-10
-6.411351e-10 5.822489e-10 -1.904343e-11 9.709480e-10 -8.585392e-11 3.471889e-11
-4.594749e-09 -6.458020e-09 3.580364e-09 -1.660626e-09 -1.536278e-11 -2.255771e-10
-4.106674e-09 -8.133396e-09 4.029185e-09 -1.750043e-09 -8.090639e-11 -5.599115e-10
-3.448182e-09 -1.008039e-08 4.065932e-09 -1.900215e-09 -1.088658e-10 1.274305e-10
-4.799921e-09 -7.636606e-09 3.608610e-09 -2.985838e-09 -7.263408e-10 -1.589035e-10
7.775833e-09 -2.772202e-08 5.896371e-09 -1.705078e-09 -4.510632e-10 -7.066694e-10
-5.553313e-09 -6.370679e-09 3.816270e-10 5.038657e-09 -2.402873e-09 4.248988e-10
8.080985e-09 -2.931373e-08 5.317732e-09 -4.967179e-09 1.226854e-09 -1.228153e-10
-8.747651e-09 5.986847e-10 1.660616e-09 7.450378e-10 -1.684283e-09 -4.633004e-10
-8.910437e-09 -2.625862e-09 1.030272e-09 4.227783e-09 -2.545996e-09 4.035231e-10
-7.860406e-09 -3.443855e-09 2.921376e-09 -3.231211e-10 -2.100964e-10 -1.131548e-09
-7.366515e-09 -4.425694e-09 1.829010e-09 3.231570e-09 -1.009450e-09 -4.251050e-10
-7.614063e-09 -4.916075e-09 2.043543e-09 -1.937948e-10 4.439649e-11 -2.640039e-10
-4.891325e-09 -1.135375e-08 -1.950066e-09 6.288590e-09 -1.142876e-09 5.251393e-10
2.088822e-08 -5.212115e-08 4.652121e-09 -3.001297e-10 -2.797577e-09 3.924027e-10
2.181131e-08 -4.886265e-08 7.490537e-10 -1.446842e-12 -1.861639e-09 3.517476e-11
1.145587e-08 -3.337717e-08 5.896902e-09 -2.275435e-09 2.327412e-10 -3.253566e-10
-9.341078e-09 2.018798e-08 -1.545648e-08 -1.724244e-08 -3.387209e-09 1.268099e-08
8.515243e-09 -3.158927e-08 5.055278e-09 -3.539701e-09 -3.872002e-10 -2.301747e-10
1.144696e-08 -3.596432e-08 5.041403e-09 -2.445077e-09 1.980827e-09 -2.375575e-10
1.277870e-08 -3.841736e-08 6.204573e-09 -8.673550e-10 3.600238e-10 -4.434377e-10
1.011443e-08 -1.739234e-08 -2.141006e-08 1.189535e-08 -4.386434e-09 2.073445e-09
1.948385e-08 -5.817603e-08 6.405158e-09 1.005073e-08 -1.267952e-08 1.534749e-09
-4.677076e-09 2.743851e-09 5.827596e-10 4.939222e-10 1.039420e-10 9.424339e-11
-6.374234e-09 3.361258e-09 9.679599e-10 5.919349e-10 -1.127043e-12 -3.016626e-11
-4.674457e-09 2.794703e-09 5.269980e-10 1.774234e-10 6.574874e-11 -1.062250e-10
1.888715e-08 -5.415929e-09 -6.517703e-08 -1.829694e-08 -2.113990e-08 -4.158292e-09
-4.312308e-09 2.225139e-09 3.882423e-10 3.783080e-10 1.753384e-10 1.562279e-10
1.342488e-08 -3.970578e-08 6.762009e-10 -1.209816e-08 -1.140848e-08 -2.130449e-09
2.828202e-08 -7.513973e-09 -5.416190e-08 -1.530132e-08 -2.628059e-08 -5.498992e-09
2.211011e-08 -5.226911e-08 3.238276e-09 -1.257191e-10 -2.656297e-09 5.535455e-10
-5.131261e-09 2.844878e-09 6.050673e-10 4.934857e-10 1.395839e-10 8.526568e-11
-5.748718e-09 3.337073e-09 7.610026e-10 2.726204e-10 1.678480e-11 -1.809466e-10
2.524463e-08 -5.305145e-08 2.434923e-09 -2.481704e-11 -1.271045e-08 2.016800e-10
4.619479e-09 1.301096e-08 -5.972946e-09 -7.582549e-09 1.396985e-09 1.975421e-11
-6.314918e-09 3.413169e-09 9.217889e-10 5.304711e-10 7.738421e-12 -6.599743e-11
-6.967523e-09 3.846880e-09 9.526686e-10 1.858975e-10 4.103129e-11 -7.460610e-11
-3.767795e-08 -9.317970e-09 2.188971e-07 4.203502e-08 -3.903916e-08 -8.928083e-08
-5.623479e-08 -1.748520e-08 2.518032e-07 4.066734e-08 -6.529204e-08 -7.103105e-08
-9.321715e-08 -4.502959e-08 2.714454e-07 -1.193350e-08 -2.489079e-09 -3.684795e-08
-4.040314e-08 -3.482797e-08 1.895463e-07 9.807428e-09 2.949007e-11 -3.770585e-08
1.532737e-08 -3.984607e-08 6.223413e-09 -4.573598e-10 1.301631e-09 -3.725288e-10
1.633661e-08 -3.778078e-08 -3.953861e-09 2.916697e-09 -2.030531e-09 1.055910e-09
1.205981e-08 -3.838881e-08 6.479044e-09 2.508352e-09 -4.738116e-10 3.067997e-10
1.280134e-08 -3.566997e-08 6.562488e-09 -8.695316e-10 5.996484e-10 -2.840507e-10
1.434918e-08 -4.057028e-08 6.414294e-09 1.584911e-09 1.919494e-09 -1.972815e-10
-1.410948e-08 2.308250e-08 -1.009297e-08 3.333292e-09 3.178373e-10 -6.788836e-10
-5.895733e-08 -4.142271e-08 1.973803e-07 -1.517751e-08 6.440838e-09 -1.171663e-08
-1.541277e-08 4.418728e-09 -2.372702e-09 9.627107e-09 1.708769e-09 -1.217005e-09
-1.572806e-08 2.130083e-08 -1.258291e-08 1.002885e-08 3.637599e-09 -2.381974e-09
-1.056145e-07 -5.917716e-08 2.462181e-07 1.457120e-09 -1.272649e-08 -3.248289e-08
-3.311222e-09 1.151624e-08 -4.174697e-09 -2.190289e-09 3.451514e-09 -4.355710e-10
-5.232890e-08 -3.582169e-08 2.391960e-07 -6.263050e-09 2.205778e-09 -5.980940e-08
-1.880261e-08 1.188175e-08 -1.777452e-09 1.192560e-08 1.021060e-08 -5.214623e-09
-1.669293e-08 2.426538e-08 -5.602029e-09 2.794229e-09 3.842336e-09 -5.807640e-09
-5.047720e-09 -7.681406e-09 -3.269504e-09 6.190255e-09 -1.996870e-09 8.357299e-10
-1.250406e-09 1.220248e-08 -5.062058e-09 -1.440757e-09 -5.500571e-09 -1.132412e-09
-7.862162e-10 -7.309728e-09 -5.959761e-09 8.676335e-09 -3.158366e-09 1.646162e-09
4.617381e-09 -1.804210e-08 -1.167811e-08 9.317305e-09 -3.314199e-09 1.241776e-09
9.432607e-10 -8.800502e-09 -7.206142e-09 1.129617e-08 -7.160145e-09 2.447160e-09
-5.000399e-09 2.841509e-08 -5.356085e-08 -1.828198e-08 -2.053544e-08 -1.512916e-08
-1.203350e-08 1.344286e-08 -4.535213e-09 -2.672109e-09 -8.558652e-09 -4.371823e-09
-4.148665e-11 -1.408980e-08 -6.043553e-09 8.462755e-09 -3.208193e-09 1.610011e-09
-1.427316e-08 1.021170e-08 -1.346449e-09 -2.921127e-09 -6.200987e-09 -1.161949e-09
-9.277174e-09 1.342949e-08 -2.401925e-09 -3.778210e-09 -7.855998e-09 -6.921069e-09
-3.313412e-09 1.436025e-08 -8.653333e-09 1.015978e-09 -5.803040e-09 -3.096650e-09
3.786073e-09 -2.166958e-08 -8.324493e-09 1.101872e-08 -5.986561e-09 2.480893e-09
-4.541146e-10 -1.007165e-08 -4.751093e-09 9.818250e-09 -4.375194e-09 1.229667e-09
-7.122583e-09 -1.115673e-08 1.302320e-09 -9.874927e-10 -5.210050e-10 -5.165468e-10
4.375669e-09 -2.142498e-08 -6.078146e-09 9.823534e-09 -7.267428e-09 3.899931e-09
-1.444495e-08 4.846471e-09 -2.683297e-09 -6.368343e-09 -1.275606e-09 -2.010298e-09
-1.319831e-08 1.471815e-09 -2.724860e-10 -2.785828e-09 -4.324461e-10 -4.789406e-10
-1.498503e-08 4.136218e-09 -4.948804e-09 -5.745213e-09 -3.043751e-09 -3.401508e-10
-7.098861e-09 -1.246208e-08 -4.012523e-09 -9.253049e-09 -5.494213e-09 -1.344318e-09
-1.598379e-08 2.854342e-09 3.337195e-09 -6.446070e-10 -9.864053e-10 2.673373e-11
-1.707612e-08 7.281896e-09 -2.324970e-09 -1.006646e-09 -1.410687e-09 4.011679e-12
-1.592955e-08 8.333059e-09 -1.645374e-09 -9.099146e-09 -8.869593e-09 -2.784775e-09
-8.120349e-09 4.105541e-09 1.392973e-09 -2.144868e-09 -5.557370e-10 -3.796133e-10
-8.677950e-09 3.947867e-09 1.547984e-09 -8.812810e-10 -2.056889e-10 -5.764090e-10
-8.491176e-09 3.854664e-09 1.218504e-09 -1.460153e-09 -4.867640e-10 -5.632976e-10
-1.671859e-08 7.996581e-09 -1.754533e-09 -1.849537e-09 -7.370970e-10 -1.142186e-09
-8.990535e-09 2.307337e-10 2.148968e-09 4.726243e-11 -8.689552e-10 -7.236864e-10
-7.325888e-09 3.770412e-09 9.024110e-10 -1.964195e-09 -5.589562e-10 -2.456042e-10
-1.483758e-08 7.745840e-09 -3.289177e-09 -4.868047e-09 -3.789024e-09 -8.793792e-10
-6.387861e-09 4.668766e-09 6.182597e-10 -7.811618e-11 -4.563550e-11 3.010259e-11
1.501278e-08 -3.485952e-08 -1.115247e-08 5.611169e-09 -2.194162e-09 1.018125e-09
1.429434e-08 -3.144899e-08 -9.933603e-09 7.716448e-09 -4.512992e-09 4.363642e-10
8.824682e-09 -1.868326e-08 -1.637758e-08 1.225217e-08 -5.339460e-09 1.988632e-09
9.317696e-09 -2.346310e-08 -9.553666e-09 1.036068e-08 -2.339020e-09 6.611359e-10
-7.563964e-09 5.132648e-09 7.339251e-10 -1.783702e-10 -5.032907e-11 -1.280409e-10
1.880860e-08 -3.771101e-08 -1.309656e-08 7.011639e-09 -1.027741e-08 2.455810e-09
-7.375403e-09 5.227463e-09 7.856324e-10 -1.355875e-10 -8.031686e-11 -2.360190e-11
1.119088e-08 -5.986702e-09 -1.404022e-09 -3.105515e-10 -4.153011e-11 3.150845e-10
1.568831e-08 -2.709997e-08 -1.628862e-08 8.804730e-09 -5.648287e-09 3.110989e-09
-9.839558e-09 6.204870e-09 1.888347e-10 -1.998792e-09 7.119927e-10 6.882574e-10
-1.017143e-08 5.819509e-09 6.609033e-10 -1.502478e-09 1.060311e-09 7.314349e-10
-1.028306e-08 5.924195e-09 -1.257747e-09 -7.229680e-09 4.543130e-10 -2.527678e-10
-9.760091e-09 -2.426847e-09 -1.567129e-09 -1.313487e-08 -2.836392e-10 -1.938474e-10
-1.140834e-08 9.219751e-09 -1.477449e-09 -4.561064e-09 1.028855e-10 -4.101080e-10
4.137596e-09 -1.798445e-09 -8.355059e-10 -1.215034e-09 1.938703e-10 -8.801515e-11
3.385659e-09 -1.472033e-09 -6.018842e-10 -6.406742e-10 -3.026377e-10 3.071656e-10
-9.808552e-09 5.845585e-09 -1.952533e-09 -7.037811e-09 1.114008e-09 8.822882e-10
-1.184170e-08 7.484785e-09 -4.869012e-10 -2.823718e-09 -7.525147e-10 -9.118335e-10
-3.826988e-10 -2.576312e-08 8.633917e-08 4.586001e-08 1.247187e-08 9.316241e-09
4.409910e-09 -3.703089e-09 8.947255e-08 -5.855397e-08 -3.640898e-08 4.286482e-08
1.902305e-09 -2.692139e-08 8.682257e-08 4.718985e-08 3.660164e-08 3.815725e-08
3.351327e-08 -3.782141e-08 1.057954e-07 1.653014e-08 -2.659952e-09 8.287744e-09
-7.660365e-09 4.704383e-09 9.986418e-10 -1.061780e-09 -9.664160e-11 -2.146187e-10
-5.994327e-09 3.988662e-09 5.502163e-10 3.293632e-11 -9.267875e-11 -2.602718e-11
-1.053405e-08 3.782385e-08 -2.574617e-09 3.432783e-08 6.966811e-09 -5.214236e-09
-4.392140e-09 1.048551e-08 7.122068e-08 4.621664e-08 1.571578e-08 1.608847e-08
4.708855e-09 -2.369096e-09 -7.537275e-10 -5.688057e-10 -2.593161e-10 -2.568720e-10
-8.107817e-09 3.590378e-09 1.040457e-09 -1.875279e-09 -3.529157e-10 -2.667158e-10
-8.686360e-09 3.789704e-09 1.517882e-09 -3.318212e-11 -1.244740e-10 -7.824081e-10
1.159906e-08 -9.773632e-09 8.633917e-08 3.814970e-08 1.565484e-09 1.227676e-08
1.722497e-08 3.085463e-09 1.441246e-08 4.133618e-08 1.175470e-08 1.369043e-09
3.947947e-08 -1.811069e-08 4.883676e-08 3.335396e-08 3.346480e-09 2.303812e-08
-9.641921e-09 -6.535000e-09 2.264565e-09 -9.692996e-09 -3.831005e-09 -9.960336e-10
4.737420e-08 -1.723184e-08 3.491196e-08 2.881025e-08 6.109747e-09 2.753175e-08
6.441722e-09 -1.962858e-08 -9.553666e-09 7.604809e-09 -2.744550e-09 4.962023e-10
-1.687182e-08 4.251594e-09 9.976886e-10 -1.541175e-09 -1.327628e-09 -1.938134e-10
-9.915531e-09 -5.070072e-09 3.670948e-10 -8.291536e-10 3.572379e-19 -2.154232e-10
5.929194e-09 -2.515276e-08 5.678726e-09 -4.503629e-09 1.378981e-09 -8.431574e-10
-1.660178e-08 3.107262e-09 9.542851e-10 -5.176912e-10 -1.783014e-10 3.644774e-11
-2.686606e-10 -1.683349e-08 -3.827680e-09 -4.068784e-09 -7.089962e-10 -5.774643e-10
5.104093e-09 -2.329777e-08 5.538531e-09 -1.918202e-09 2.932161e-10 -5.029983e-10
1.762943e-09 -1.936768e-08 3.902636e-09 -4.843867e-09 1.494364e-09 -8.718362e-10
2.954723e-09 -2.144238e-08 4.803469e-09 -4.726493e-09 -5.323375e-10 -8.560977e-10
-8.949447e-09 -7.351750e-09 -2.782476e-10 -2.653964e-09 -1.492395e-09 -5.132492e-10
2.942141e-09 -2.116049e-08 4.938154e-09 -4.701941e-09 3.702190e-10 -1.134833e-09
1.735229e-08 -3.946061e-08 5.154055e-11 -1.158688e-09 -1.622346e-09 -8.943797e-10
-7.005790e-09 -7.845699e-09 2.599769e-09 3.792339e-09 -1.564853e-09 -2.469846e-10
3.313897e-09 -2.659722e-08 4.194225e-09 -1.093583e-09 -1.710996e-09 3.380037e-10
-6.115063e-09 -6.745380e-09 3.058190e-09 3.002065e-09 -1.925857e-10 -2.676836e-10
-4.073521e-09 -1.087065e-08 3.463566e-09 1.593052e-09 -1.623517e-09 -7.750689e-10
-3.709115e-09 -1.268674e-08 2.716932e-09 6.122819e-09 -3.703786e-09 2.622660e-10
-1.604666e-08 2.543182e-09 1.756269e-09 -3.621047e-10 -2.165637e-10 -8.935673e-13
-8.021604e-09 4.842390e-09 1.035277e-09 -2.785661e-10 1.271405e-11 -1.738591e-10
-6.906574e-09 4.665935e-09 8.323675e-10 -7.534320e-10 -1.000248e-10 -1.326069e-10
-9.026122e-09 4.260080e-09 1.398732e-09 -8.946457e-10 -1.642686e-11 8.582557e-11
-6.955444e-09 -8.654668e-09 2.040458e-09 3.652998e-09 -2.544787e-09 -2.194856e-10
-3.615815e-09 -9.858754e-09 2.037398e-09 3.438009e-09 -2.441869e-09 -3.403274e-10
-8.494566e-09 4.773938e-09 1.133312e-09 -3.335892e-10 -5.729728e-11 -3.811187e-10
-8.356781e-09 4.587001e-09 1.240926e-09 -9.340137e-10 -1.630174e-10 -2.313093e-10
-5.141903e-09 -1.088739e-08 1.786073e-09 1.769169e-09 -1.119413e-09 -3.113112e-10
-4.730226e-09 -1.006863e-08 2.713115e-09 -2.136575e-10 3.777472e-10 -6.339327e-10
-4.718344e-09 -1.455087e-08 2.626608e-09 7.995249e-09 -2.540247e-09 -1.619849e-10
2.051463e-08 -4.036493e-08 -9.899353e-09 3.709683e-09 -5.099244e-09 7.027035e-10
1.278805e-08 -3.851353e-08 7.271244e-09 -6.826623e-10 8.767476e-11 -3.624884e-10
1.359190e-08 -3.579052e-08 5.734317e-09 -3.016212e-09 3.543190e-10 -2.165212e-10
1.279537e-08 -3.800906e-08 6.762870e-09 -7.492010e-10 -5.244784e-10 -2.390716e-10
1.355833e-08 -3.754944e-08 4.889434e-09 -2.647690e-09 2.096604e-09 -7.776273e-10
8.067391e-09 -2.725999e-08 -7.885594e-10 8.043589e-10 7.321281e-19 4.551004e-10
1.901387e-08 -4.236281e-08 -5.783563e-09 3.015014e-09 -5.683971e-09 8.369504e-10
1.283956e-08 -3.818113e-08 6.925288e-09 2.065355e-10 9.071244e-10 -5.169474e-10
2.531500e-09 -3.445141e-10 -2.885763e-10 4.439708e-09 -1.404930e-10 -9.618661e-11
7.833858e-10 4.009061e-10 -6.646061e-11 4.914237e-09 2.433986e-10 1.349301e-10
3.902043e-10 3.802224e-10 -1.187184e-10 4.682792e-09 -1.296046e-10 -8.273999e-10
2.072121e-08 -4.263974e-08 -5.201489e-09 -5.316290e-10 -8.819836e-10 8.377085e-12
-9.421647e-09 -1.530243e-09 -4.186883e-09 -9.470291e-09 -1.629727e-09 -2.323865e-10
-7.398230e-09 1.987137e-08 -3.188870e-08 -1.407725e-08 -1.197012e-08 -8.561772e-09
-2.750253e-10 9.880411e-10 1.456923e-11 5.207806e-09 2.346040e-10 -2.045319e-10
-6.274185e-09 8.103779e-09 -2.215818e-08 -1.524271e-08 -7.631940e-09 -2.621736e-09
-3.006654e-09 2.163139e-09 3.770602e-10 3.975203e-09 1.483231e-10 -5.044085e-10
-1.532849e-09 -1.731854e-08 -3.432987e-09 -8.766324e-09 -6.562668e-09 -1.860433e-09
-9.564890e-09 1.437906e-08 -2.070836e-08 -9.530833e-09 -2.445053e-09 -1.757675e-09
3.143892e-08 -1.586246e-09 -5.525451e-09 9.062426e-09 -1.139018e-09 -8.943971e-10
-5.083355e-09 2.465665e-09 9.789243e-10 1.908484e-09 1.220466e-10 -2.441758e-11
-3.957248e-09 2.147144e-09 6.422365e-10 3.005204e-09 3.729061e-11 -1.521401e-10
-1.160849e-10 1.188277e-09 1.966547e-10 5.004695e-09 3.939871e-11 -2.619194e-11
-7.189447e-09 2.124694e-09 1.621485e-09 6.167081e-10 1.680228e-10 -2.454210e-10
1.261134e-08 -3.700198e-08 7.021355e-09 2.480132e-10 2.691678e-10 -1.197189e-10
-1.752329e-09 2.127895e-09 4.075353e-10 4.422425e-09 5.193959e-10 1.026301e-11
1.426670e-08 -3.784180e-08 6.654723e-09 4.804968e-10 5.437139e-10 -1.303202e-10
1.323948e-08 -3.927040e-08 6.606525e-09 -1.262022e-09 1.964308e-10 -3.544607e-10
1.407331e-08 -3.880990e-08 6.929035e-09 -1.728956e-11 8.560992e-10 -6.368901e-10
3.942837e-09 -2.139670e-09 -4.579166e-10 1.148550e-10 2.107318e-10 -2.907160e-10
9.824566e-09 -4.777630e-09 -1.040145e-09 2.713919e-09 2.403036e-10 4.970657e-10
7.972693e-09 -4.020321e-09 -9.001344e-10 1.236822e-09 2.126565e-10 9.129934e-10
2.599952e-09 -1.392449e-09 -3.707961e-10 3.762830e-10 2.583429e-10 3.109458e-10
1.252899e-08 -3.743386e-08 7.242796e-09 3.175011e-10 -3.028481e-10 -2.246270e-11
5.798794e-09 -3.252885e-09 -7.826149e-10 2.051047e-09 1.035230e-10 -2.303024e-11
1.454404e-09 -3.498637e-10 -3.519203e-10 3.285256e-09 4.301841e-10 2.808931e-10
3.291388e-09 -4.004569e-10 -2.390852e-10 5.965056e-09 -1.959042e-10 -3.344707e-10
1.284230e-08 -3.831125e-08 7.082959e-09 2.636765e-10 3.472552e-11 -1.122471e-10
7.511819e-09 -4.256943e-09 -1.045933e-09 2.796144e-09 3.193840e-10 1.149083e-10
4.388752e-09 -2.410850e-09 -6.101915e-10 8.566261e-10 1.168899e-12 1.136871e-10
5.719443e-10 -6.213438e-09 -2.116913e-08 1.470320e-08 -1.013852e-08 7.289672e-09
5.682958e-09 -3.221802e-09 -7.803360e-10 5.148392e-10 2.425186e-10 2.280246e-10
-7.212744e-09 1.407570e-09 2.066588e-09 1.060560e-10 1.912345e-10 -5.411040e-10
6.481863e-09 -2.994092e-09 -9.459586e-10 5.608632e-10 2.175146e-10 -4.195822e-11
-7.869455e-09 1.164821e-09 1.813869e-09 -3.547682e-09 8.586065e-11 -5.630435e-10
4.696311e-09 -2.658726e-09 -7.603140e-10 2.324634e-09 4.450962e-10 2.415270e-10
-1.780887e-09 -1.063322e-08 3.323262e-10 -1.091946e-08 -2.898012e-10 -7.018726e-10
6.113726e-09 -3.535779e-09 -8.243544e-10 8.196390e-10 3.631524e-10 6.976447e-11
-6.975524e-09 -3.154624e-09 2.483475e-09 -4.681789e-09 1.516565e-10 -8.114842e-11
6.304095e-09 -4.071077e-09 -9.694239e-10 1.034365e-09 2.415658e-10 -2.031035e-10
-6.867597e-09 -6.419056e-10 2.432420e-09 -3.641926e-10 8.184620e-12 -2.782682e-10
-6.644087e-09 -2.454737e-09 2.838091e-09 -7.861158e-10 -6.244464e-10 -5.884941e-10
-7.125030e-09 2.053921e-09 1.809600e-09 7.700476e-10 7.483236e-11 -3.666212e-10
6.441722e-09 -2.448618e-08 -1.568318e-09 7.008709e-09 -2.567575e-09 3.852837e-11
8.557122e-09 -4.637729e-09 -1.190208e-09 -2.463702e-09 -2.115108e-10 -1.220271e-10
-7.336422e-09 9.956889e-10 1.994322e-09 -2.570197e-10 -9.899415e-11 -3.225290e-10
-7.419696e-09 -1.922090e-09 2.458634e-09 -2.947528e-09 -3.106513e-10 -5.306777e-10
-7.419695e-09 8.453318e-10 2.082533e-09 -1.783425e-09 2.342415e-10 -7.436170e-10
1.099170e-08 -6.155356e-09 -1.414546e-09 -6.248990e-11 1.867583e-11 4.195122e-11
1.246509e-08 -6.123302e-09 -1.340440e-09 -1.428832e-09 4.808398e-11 -1.164294e-10
1.028519e-08 -6.029353e-09 -1.342153e-09 2.373154e-10 -5.231027e-11 1.819653e-10
9.868302e-09 -5.350076e-09 -1.335992e-09 -2.047176e-09 -6.200137e-11 -4.663318e-11
1.135290e-08 -6.455298e-09 -1.057668e-09 1.041778e-09 -8.568477e-11 -5.789314e-10
1.091675e-08 -6.302387e-09 -1.352121e-09 6.169451e-11 -2.271583e-13 1.019839e-10
1.151827e-08 -6.735354e-09 -1.247551e-09 -8.719250e-10 -5.605871e-11 -1.123748e-10
1.081556e-08 -6.155356e-09 -1.400794e-09 -2.662082e-11 -1.262901e-11 1.109335e-10
7.908200e-09 -4.595268e-09 -1.239866e-09 -3.120361e-09 -4.077427e-10 2.762020e-10
5.495133e-09 -1.705441e-09 -8.655254e-10 -6.488597e-09 -1.973041e-10 7.066299e-10
9.633888e-09 -5.618986e-09 -1.262709e-09 -1.131913e-10 -1.165138e-10 1.235464e-10
1.184746e-08 -6.791408e-09 -1.336642e-09 -6.602317e-10 5.472267e-11 -9.197754e-11
9.373938e-09 -5.411152e-09 -1.182582e-09 -1.007667e-10 -2.520731e-10 6.894640e-11
2.531396e-09 -2.116476e-08 1.678754e-09 -1.225070e-08 8.008506e-10 -3.394772e-10
3.324592e-09 -2.256412e-08 3.174489e-09 -7.950911e-09 2.330777e-10 -3.889702e-10
-4.414868e-09 -7.742949e-09 3.173613e-09 -5.354484e-09 4.075105e-10 -3.846505e-10
-7.819757e-09 -2.524636e-09 2.439465e-09 -4.889679e-09 -2.495804e-10 -4.716644e-10
-7.442250e-09 1.410032e-09 2.110450e-09 9.784905e-11 5.814404e-11 -4.676808e-10
-7.921417e-09 1.165933e-09 1.721585e-09 -3.574064e-09 7.952861e-10 1.234664e-10
1.037067e-08 -6.057482e-09 -1.379683e-09 -1.418923e-09 2.804290e-11 2.191021e-10
8.928149e-09 -4.535140e-09 -1.257632e-09 -2.153521e-09 -2.019640e-10 2.913463e-10
-7.907490e-09 -5.451426e-09 1.314156e-09 -1.089771e-08 -1.282413e-11 -1.293182e-10
9.799720e-09 -5.031867e-09 -1.286693e-09 -2.753130e-09 6.959795e-11 -4.301217e-10
-6.769032e-09 -9.047021e-10 2.503536e-09 3.011329e-10 6.616607e-11 -7.213260e-10
9.095746e-09 -5.223955e-09 -1.276755e-09 -1.309565e-09 6.137065e-11 -2.119236e-10
-5.151698e-09 1.356707e-08 -4.605652e-09 -2.388157e-09 3.398282e-09 -2.801925e-09
5.815031e-09 -2.592084e-08 5.030302e-09 -8.264333e-09 8.980043e-10 -1.037849e-09
-8.622558e-09 4.334095e-09 1.268412e-09 -2.803349e-10 1.125087e-09 3.623245e-10
-9.839558e-09 7.841585e-10 1.430752e-09 -4.543495e-09 2.215665e-10 3.200009e-10
-1.444070e-09 -1.208269e-08 4.309533e-09 9.859091e-11 1.050231e-10 -1.255327e-09
-1.159345e-08 6.321363e-09 1.296132e-10 -1.495666e-09 3.858768e-10 5.506491e-10
4.569252e-09 -2.350688e-08 -1.766553e-09 -1.645376e-08 1.962613e-09 6.501931e-10
3.003745e-09 -1.856391e-08 -2.121974e-09 -1.596346e-08 1.265973e-09 2.500306e-10
8.292605e-09 -2.626229e-08 8.054777e-10 -1.034791e-08 1.704408e-09 7.203218e-10
4.569252e-09 -2.138170e-08 -3.084768e-09 -1.678215e-08 1.527818e-09 4.501654e-10
-4.674039e-11 9.725733e-09 -4.477663e-09 8.964370e-10 2.544814e-09 2.285525e-09
-1.626793e-09 -1.436937e-08 1.667677e-09 -1.078625e-08 8.486063e-10 4.302110e-10
-8.231101e-09 2.366494e-09 -1.716831e-09 -9.797836e-09 5.247811e-10 -1.076674e-10
1.214059e-09 1.156529e-08 -4.611767e-09 -2.717536e-09 3.969178e-09 -3.404264e-09
1.283305e-09 2.248351e-08 -6.321083e-09 1.239360e-08 -3.683034e-09 -8.677343e-09
-1.126269e-08 4.590729e-08 -2.366924e-08 2.248922e-08 -4.837056e-09 -9.225258e-09
-6.913817e-08 7.517930e-08 8.868645e-08 2.704281e-08 7.744503e-08 -8.458980e-09
-2.234491e-09 5.249680e-08 -2.483131e-08 2.867151e-08 8.058325e-09 -6.617370e-09
-1.300775e-08 1.184161e-08 -5.152381e-09 -9.944604e-09 -1.316526e-08 -7.955068e-09
4.407592e-08 -7.183772e-09 -8.957533e-09 8.664847e-09 -6.048276e-10 9.498117e-10
-8.197406e-09 1.928884e-08 -9.528403e-09 1.548512e-09 -4.807561e-09 -4.128386e-09
-1.046904e-08 2.834305e-08 -2.130257e-08 7.343963e-09 -6.387145e-09 -9.906376e-09
-3.711027e-09 3.609656e-08 -2.133661e-08 1.559703e-08 -2.770966e-09 -2.180739e-09
-9.569493e-09 1.463788e-08 -5.035250e-09 -1.715329e-09 -4.462527e-09 -1.823256e-09
-8.769123e-09 1.215197e-09 1.964255e-09 4.366128e-10 -1.885474e-10 -7.506642e-10
3.904252e-09 1.109282e-08 -4.449582e-09 -6.012245e-09 3.273661e-09 -3.018569e-10
1.860249e-08 -4.391005e-10 -3.397590e-09 -3.650021e-09 2.319094e-09 3.973293e-09
-5.922479e-08 2.044310e-08 9.186537e-08 -4.367821e-08 -3.950692e-08 4.722686e-09
2.970622e-08 6.798190e-10 -6.699101e-09 -7.572360e-09 1.080914e-09 -3.649616e-09
4.322867e-09 5.693810e-09 -5.810776e-09 8.826939e-11 2.234739e-09 -6.214598e-10
-7.983269e-08 2.923865e-08 9.193189e-08 -4.808877e-08 -3.858618e-08 5.086432e-09
-2.797986e-09 -1.300755e-08 3.598783e-09 4.027778e-12 -6.750965e-10 -1.238810e-09
4.645914e-09 2.640793e-08 -5.172929e-09 -1.726175e-08 2.706833e-09 -2.192864e-09
-1.305902e-09 -2.074770e-08 1.780109e-11 8.059788e-09 -5.147447e-09 1.102581e-09
6.379992e-09 -2.301970e-08 -3.297376e-10 8.895059e-09 -5.701165e-09 1.865450e-09
9.890478e-09 -3.265429e-08 -3.307091e-10 9.297484e-09 -4.781917e-09 4.121676e-10
8.506230e-09 -3.374023e-08 3.029646e-09 1.117525e-08 -1.007064e-08 3.348680e-09
8.093305e-09 -3.092776e-08 1.002872e-09 6.937656e-09 -2.446906e-09 2.477127e-10
4.036750e-09 -2.600169e-08 3.081455e-09 4.317015e-09 -1.820244e-09 4.503269e-11
-5.492229e-09 -4.732714e-09 3.269558e-09 -1.119540e-09 -8.514167e-11 -6.028510e-10
-5.698364e-09 -3.976513e-09 2.907674e-09 -6.518457e-10 -1.261404e-10 -6.373382e-10
-2.512026e-08 5.456183e-08 -4.908166e-09 -3.882737e-08 -1.164560e-08 -6.949301e-09
-1.001514e-08 2.033409e-08 -5.624376e-09 -1.675111e-08 5.172288e-09 -7.295897e-09
1.094874e-08 -1.032222e-08 -3.255263e-08 -2.687343e-08 1.624639e-08 7.106440e-09
-2.233319e-09 1.064733e-08 -2.465773e-08 -2.481338e-08 1.142586e-08 5.268224e-09
-1.189782e-08 4.634036e-08 -4.520464e-08 1.378059e-08 1.885260e-08 -1.503503e-08
1.728431e-08 -3.121247e-08 -2.351053e-08 -1.893791e-08 1.429919e-08 2.552771e-09
-3.325926e-09 4.547666e-09 -1.577394e-09 -9.594974e-09 1.391847e-10 -2.785469e-10
6.188000e-09 6.898765e-10 -7.266210e-10 -1.382397e-08 -6.286132e-10 8.618746e-10
-3.392861e-09 6.959195e-09 -2.681841e-09 -1.401847e-08 -7.146852e-10 1.656133e-09
-9.949358e-09 5.052318e-09 -5.130818e-09 6.512988e-10 -6.779582e-10 8.966916e-10
-9.846524e-09 1.207339e-08 -7.758351e-09 -6.458496e-09 -1.020407e-09 8.337216e-10
-7.160493e-09 -4.113648e-09 2.633003e-09 1.508545e-09 -4.777722e-10 -1.295482e-09
-5.070607e-09 -5.434707e-09 3.352914e-09 -1.875579e-09 2.658621e-10 -6.661125e-10
3.010598e-09 8.792219e-09 -3.524501e-09 -1.744742e-08 -8.154958e-10 1.748514e-09
-6.791279e-10 7.176492e-09 -2.295032e-09 -1.333385e-08 -3.089464e-10 5.468793e-10
-6.052815e-09 4.144141e-09 -9.371037e-10 -6.160020e-09 3.155913e-10 -3.374025e-10
-3.927955e-09 8.517079e-09 -2.924783e-09 -1.120772e-08 -1.562023e-09 1.416467e-09
-1.024117e-08 1.646369e-08 -1.536034e-08 -3.216386e-09 -1.891987e-09 2.053924e-09
-9.414879e-09 1.326578e-08 -1.156767e-08 -5.335358e-09 -1.604510e-09 -6.739122e-10
-6.567596e-09 2.729278e-08 -1.369698e-08 -1.571114e-08 -4.398402e-09 3.801324e-09
-8.616408e-09 4.624080e-09 1.158210e-09 -6.225483e-10 8.069467e-10 3.104050e-10
-6.679931e-09 6.818504e-08 -8.226915e-08 5.063186e-09 1.185858e-08 -9.541511e-09
1.557094e-08 -8.588109e-09 -4.061813e-08 -2.358315e-08 8.004562e-09 4.304995e-09
-6.636617e-09 -1.802769e-09 2.963975e-09 -6.918954e-10 6.428222e-10 -5.315746e-10
-5.476582e-09 -4.295569e-09 3.219248e-09 -1.920314e-09 6.766094e-10 -1.109761e-09
1.374875e-08 -2.844659e-08 -7.191502e-09 1.913021e-08 3.792545e-09 -1.261276e-09
-6.359797e-09 -2.078443e-09 3.000934e-09 -1.265386e-09 -4.379610e-10 -6.708023e-10
2.862161e-08 -3.302818e-08 -3.096039e-08 1.299047e-08 1.661499e-08 -2.437311e-09
2.293109e-08 -4.522288e-08 -1.650863e-08 -1.251998e-09 1.128553e-08 -4.981289e-10
-6.779391e-09 -9.866152e-10 2.409040e-09 -1.014755e-09 1.884833e-10 -7.232471e-10
-7.247439e-09 4.268196e-09 7.817071e-10 -1.603239e-09 -2.637884e-10 -4.151881e-10
-7.938168e-09 4.348809e-09 1.219979e-09 -5.974448e-10 -1.921683e-10 -6.083345e-10
-8.892526e-09 4.138584e-09 1.399199e-09 -1.071697e-09 -1.549775e-10 -3.707807e-10
-8.868454e-09 4.124204e-09 1.180561e-09 -1.643685e-09 -2.034237e-10 -5.352052e-10
-9.222507e-09 3.777865e-09 1.660615e-09 -1.158578e-10 -6.610779e-11 -4.439862e-10
1.534934e-08 7.117386e-08 -1.016796e-07 3.404158e-09 2.255273e-08 1.745109e-08
-7.766159e-09 4.155401e-09 1.055209e-09 -2.031647e-09 -3.144435e-10 -2.548537e-10
-1.095988e-08 1.170612e-07 -9.900281e-08 -9.322878e-09 -1.859168e-08 2.163170e-09
3.269381e-09 -2.371315e-08 7.269241e-08 -3.947907e-09 -1.859809e-08 -2.682495e-08
-3.219581e-09 6.207515e-08 -8.340634e-08 -7.889891e-09 -2.894234e-08 -1.948543e-08
-6.094908e-09 3.240283e-09 9.198147e-10 1.006497e-09 2.049561e-10 4.569028e-11
-6.094345e-09 3.346686e-09 8.889325e-10 4.728267e-10 1.642403e-10 -1.027114e-10
-5.205633e-09 3.289730e-09 6.483596e-10 3.712176e-10 1.649031e-10 -1.883516e-11
2.150503e-08 -1.719869e-08 -4.407148e-08 1.218250e-08 -2.344212e-08 7.224730e-09
-7.307356e-09 3.222656e-09 1.392261e-09 7.501036e-10 6.143889e-10 3.829612e-10
2.230645e-08 5.155775e-08 -9.574056e-08 -9.535057e-09 -1.730639e-08 1.973244e-09
4.717265e-10 1.193499e-08 -3.658608e-08 1.336666e-08 -1.459948e-08 1.293002e-08
-1.090252e-08 -1.093775e-08 4.603970e-09 5.994589e-09 -4.415499e-10 4.462743e-10
-1.196717e-08 -3.175258e-09 3.149887e-09 6.482564e-09 1.725535e-10 -5.196665e-10
1.529972e-08 7.017496e-09 -5.961555e-08 8.413334e-09 -9.477681e-09 5.880035e-09
-1.246851e-08 -6.540319e-09 3.373949e-09 2.631915e-09 1.844791e-10 -1.470246e-11
-1.331672e-08 1.193236e-08 -4.135220e-09 -8.093627e-09 9.212736e-10 2.592260e-10
-9.986234e-09 -9.833128e-09 5.084724e-09 4.624879e-09 1.354740e-09 2.158129e-10
-1.053579e-08 8.163555e-09 -5.544078e-09 -1.171218e-08 3.143595e-09 1.289419e-09
-7.434984e-09 -1.516103e-08 6.913544e-09 2.435576e-09 3.339651e-10 2.313212e-10
-9.483275e-09 -1.277787e-08 6.100001e-09 2.046801e-09 2.542391e-10 -3.837950e-10
-6.923621e-09 -1.387977e-08 5.799512e-09 5.066410e-09 1.120186e-10 7.474332e-10
-1.735530e-08 8.406183e-09 -5.594062e-09 -1.258418e-08 3.189509e-09 3.128899e-09
-1.190722e-08 2.288795e-09 -1.952532e-09 -1.097148e-08 8.765786e-10 8.086182e-10
1.558244e-08 -1.605520e-08 -3.610292e-08 -2.365017e-08 7.396772e-09 4.064502e-09
2.254471e-09 1.812338e-08 -7.034370e-09 -2.474462e-08 1.909686e-09 2.037043e-09
-9.836002e-09 -1.097979e-08 5.662677e-09 1.825809e-09 1.329155e-10 4.250933e-11
-5.807087e-09 1.223897e-08 -6.525468e-09 -1.137089e-08 -2.478973e-10 8.557075e-10
-2.011579e-09 1.339312e-08 5.530058e-09 -2.322300e-08 5.154777e-10 -1.416196e-09
-6.416480e-10 4.582082e-08 -5.537318e-08 -2.261240e-08 -1.006874e-08 5.451556e-09
-8.139416e-09 -1.394450e-08 5.496970e-09 6.362708e-09 7.912282e-10 -3.349607e-10
4.113148e-08 -1.269479e-08 -5.993672e-10 1.487135e-08 1.799586e-09 4.341484e-09
-2.515838e-09 1.575263e-08 -5.801813e-09 -1.724743e-08 -2.574614e-10 3.548166e-09
2.166210e-09 1.812594e-08 -3.308351e-09 -2.474639e-08 1.684914e-09 9.956266e-10
-7.771120e-09 1.199905e-08 -5.326611e-09 -9.147518e-09 -2.537977e-09 3.535566e-09
-1.904509e-09 9.414070e-09 -3.716655e-09 -1.586590e-08 -9.112285e-10 2.413196e-09
5.115782e-08 -2.459625e-08 3.270048e-09 -2.612639e-09 9.380830e-10 4.127472e-11
4.135917e-08 -1.335499e-08 -3.724730e-09 2.668184e-09 3.118844e-10 1.600451e-09
3.477426e-08 -1.001986e-08 -3.918711e-09 5.064695e-09 -1.519102e-10 2.473254e-09
-1.258703e-07 -5.619319e-08 3.283239e-07 -1.690730e-09 1.149156e-08 7.105084e-09
-1.065065e-07 1.307666e-08 2.164026e-07 9.484327e-09 6.077706e-08 2.845088e-08
-1.489326e-08 6.482391e-09 -1.188584e-09 -8.581470e-09 3.017006e-12 2.845505e-10
-4.829182e-09 -9.718220e-09 3.476686e-09 2.431353e-09 -5.486591e-10 -1.155507e-09
2.665705e-08 3.660628e-08 -8.456856e-08 -2.075447e-09 -3.314154e-08 1.135419e-08
-7.534571e-08 3.387021e-09 9.813833e-08 -3.308874e-08 7.816156e-09 4.551569e-09
-1.330335e-07 -3.906637e-08 3.274177e-07 -1.205044e-08 6.503607e-08 -2.432675e-08
-9.363836e-08 -7.804814e-09 1.885847e-07 -4.286326e-08 -4.118118e-08 2.065137e-08
-1.341946e-07 -6.511640e-08 4.530327e-07 5.352782e-09 -1.412641e-08 -2.144410e-09
-1.199923e-07 -8.028112e-08 3.590100e-07 -1.133593e-09 4.800662e-10 1.383640e-08
1.670402e-08 -4.303606e-08 4.114415e-09 7.405799e-09 -7.125004e-09 1.278419e-09
-3.316595e-08 2.588539e-08 1.377450e-07 -4.033202e-08 4.512664e-08 -5.143049e-08
1.842806e-08 -4.416223e-08 1.474915e-09 1.053973e-09 -4.828567e-10 7.371908e-10
-3.210805e-08 6.599161e-08 -3.935924e-08 -1.512658e-08 2.975994e-09 4.251145e-08
-1.185976e-08 -2.656634e-09 6.448620e-08 2.052125e-08 -7.378671e-09 -1.373121e-08
-2.593024e-08 3.359623e-08 -1.798486e-08 -6.858790e-09 4.294028e-09 1.268467e-08
-1.619216e-08 1.447266e-08 8.021058e-09 1.256900e-08 -1.874403e-09 -1.930023e-09
2.105187e-08 -4.533477e-08 -2.050484e-09 1.188877e-08 -1.057347e-08 4.424031e-09
1.639472e-08 1.217543e-08 -7.571666e-08 -1.438912e-08 -3.509499e-08 -7.313088e-09
1.681553e-08 -4.518397e-08 1.191767e-09 8.829943e-09 -9.647148e-09 2.747959e-09
2.272730e-08 -5.106524e-08 3.636120e-09 8.686570e-10 -2.861317e-09 -4.504195e-10
-1.134280e-08 1.601471e-08 4.112837e-08 3.343184e-08 -2.036678e-09 -7.478421e-09
4.655855e-09 -2.380772e-08 5.642192e-09 -4.211269e-10 -8.884322e-16 3.012951e-10
-2.121699e-08 2.107294e-08 -1.106820e-08 -7.252588e-09 1.700665e-09 1.192538e-09
2.195086e-08 -5.176078e-08 -5.864758e-09 6.559958e-09 -1.595750e-08 1.884177e-09
2.344931e-08 -5.434869e-08 3.987732e-09 1.082087e-09 -9.278185e-09 4.022138e-10
-8.849754e-09 2.791682e-08 -9.739656e-09 -7.556003e-09 1.299340e-09 -4.677999e-09
-9.607998e-09 1.714565e-08 -5.783199e-09 -4.234714e-09 3.082886e-09 -2.746772e-09
-5.492451e-10 -1.664517e-08 4.320570e-09 -7.909707e-09 1.138432e-10 -4.124296e-10
-1.543542e-08 2.004725e-08 -9.062300e-09 3.947592e-09 5.641564e-09 -5.117245e-09
-8.939976e-09 1.396715e-08 -4.773551e-09 -2.033906e-09 3.714574e-09 -9.012544e-10
1.428306e-08 -3.997375e-08 6.358182e-09 5.592765e-09 2.535689e-09 4.114356e-10
1.570985e-08 -3.784821e-08 7.101191e-10 8.459156e-09 7.164524e-10 2.272262e-10
-2.074159e-08 1.431834e-08 -1.781739e-09 1.159878e-08 8.543865e-09 -5.888698e-09
-1.566138e-09 2.980914e-08 -4.971280e-09 -2.175009e-08 -3.161941e-09 2.636181e-09
1.013270e-08 -3.204698e-08 5.514762e-09 -6.984637e-09 1.023561e-09 -9.193304e-10
1.448399e-08 -3.566346e-08 3.666416e-09 -5.073816e-09 1.592610e-09 -4.415291e-11
-1.181136e-08 2.123882e-08 -7.112871e-09 5.410831e-10 6.043907e-09 -5.535925e-09
4.559708e-09 -2.284316e-08 -3.732342e-09 -6.226165e-09 -5.152894e-09 -1.033820e-09
1.042096e-08 -2.978934e-08 3.660904e-09 -7.825024e-09 1.203030e-09 -4.266898e-11
4.804106e-09 -2.396773e-08 5.392980e-09 -3.711716e-09 2.047238e-10 -4.026969e-10
1.239563e-08 -3.329753e-08 3.677085e-09 -6.674756e-09 1.653392e-09 -5.083644e-10
8.446169e-09 -2.819148e-08 6.602807e-10 -1.216756e-08 3.681713e-09 7.097041e-10
-5.175250e-09 2.872707e-09 7.438294e-10 1.372364e-09 2.184695e-10 -2.136396e-10
-5.148859e-09 3.127707e-09 7.610059e-10 6.476355e-10 9.714113e-11 -1.447109e-11
-7.189909e-09 2.597554e-09 1.461468e-09 6.279541e-10 1.743561e-11 -2.613152e-10
-1.658787e-09 -1.969086e-08 -1.094021e-09 -8.189044e-09 -4.949542e-09 -2.029483e-09
-3.247241e-09 2.028773e-09 4.053120e-10 1.791500e-09 2.999065e-10 1.658432e-10
-7.508969e-09 2.718616e-09 1.251740e-09 6.102149e-10 2.630941e-10 -4.951580e-10
-5.781777e-09 3.001099e-09 8.569141e-10 8.680381e-10 1.218352e-10 -4.710587e-11
-5.112214e-09 3.009254e-09 6.806973e-10 1.018382e-09 1.413982e-10 -1.173746e-10
-6.251614e-09 3.090022e-09 1.099179e-09 5.185057e-10 4.056155e-11 -9.503420e-11
-4.922187e-09 2.596873e-09 7.998131e-10 1.535302e-09 7.854251e-11 -1.389158e-10
-2.832014e-09 1.725255e-09 3.444174e-10 1.729165e-09 1.155880e-10 -3.137854e-10
-3.219793e-09 -1.453454e-08 -4.711054e-10 -3.859961e-09 -2.343331e-09 2.017375e-10
2.678952e-08 8.399190e-09 -7.327666e-08 -8.925290e-09 -3.358056e-08 1.023980e-11
2.061824e-09 -8.708048e-10 -3.191818e-10 2.182849e-09 5.722949e-10 -7.228409e-11
-1.859667e-10 -2.176966e-08 -8.845449e-10 -4.418685e-09 -3.585084e-09 -1.617361e-09
1.222267e-09 -3.498641e-10 -2.466178e-10 2.980350e-09 2.148965e-10 1.272429e-10
-4.160837e-09 1.893120e-09 4.851288e-10 1.269022e-09 1.003124e-10 -9.427281e-11
3.657350e-09 -1.791526e-09 -5.316427e-10 7.054505e-10 2.733663e-10 3.129308e-10
2.302510e-09 -1.281283e-09 -3.653221e-10 5.946614e-10 2.903144e-10 -3.156703e-10
-9.160524e-09 3.213628e-09 1.411259e-09 -1.532555e-09 -7.184675e-11 -1.104251e-10
-8.653331e-09 4.029415e-09 8.330932e-10 -2.435306e-09 -5.664855e-10 -8.076473e-11
-7.309722e-09 4.178474e-09 6.526042e-10 -3.055957e-09 -1.373806e-10 4.566638e-10
-1.778993e-09 1.191944e-09 1.366773e-10 1.677059e-09 3.957367e-10 -1.636175e-10
-5.443710e-09 3.283569e-09 7.046768e-10 9.200710e-10 6.341683e-11 -1.151239e-10
-6.115270e-09 3.802957e-09 7.012959e-10 -3.173339e-09 -4.296958e-10 -2.051370e-10
1.021260e-09 -3.586687e-10 -2.218239e-10 2.676022e-09 3.534189e-10 2.292627e-10
-8.286231e-09 3.841311e-09 1.053005e-09 -2.030209e-09 -4.547944e-10 -2.926812e-10
-7.959048e-09 4.369280e-09 8.954175e-10 -2.318870e-09 -1.896880e-10 1.403677e-11
-7.161917e-09 5.081482e-09 7.460308e-10 -1.945111e-11 0.000000e+00 -8.773426e-12
-1.648184e-08 9.530849e-09 -1.154118e-09 -3.309390e-09 -3.929806e-09 -1.080093e-09
-7.012212e-09 5.029837e-09 7.643353e-10 -1.445830e-10 4.025669e-11 3.208511e-11
-5.075455e-08 -1.608788e-08 1.077528e-07 2.143528e-08 -4.694930e-08 -7.647389e-09
-1.317675e-08 9.949163e-09 -7.223479e-09 -6.918751e-09 -1.568576e-09 7.364165e-10
-7.353021e-09 5.120514e-09 7.460308e-10 -9.587797e-11 8.803180e-12 -4.440892e-16
-1.264259e-08 1.559914e-08 -8.132071e-09 7.976095e-10 -3.528668e-09 -1.290429e-09
-7.750556e-09 4.990786e-09 9.115908e-10 -2.872107e-10 -2.787681e-11 -2.816192e-11
-1.394501e-08 1.298791e-08 -9.248508e-09 -4.776478e-09 -3.258648e-09 -1.656981e-09
-1.121804e-08 5.176847e-09 -1.156407e-08 -7.957135e-09 -5.387710e-09 -2.123824e-10
-7.780638e-09 5.029079e-09 9.009318e-10 -2.904056e-10 -5.073186e-11 -1.578717e-10
-6.287386e-09 4.779639e-09 6.507070e-10 -4.172099e-10 -6.321610e-11 6.001177e-11
-1.315412e-08 1.002342e-08 -1.017174e-08 -8.665765e-09 -5.532774e-09 -4.053209e-09
-1.231991e-08 8.150725e-09 -5.188686e-09 -7.298890e-09 -4.955946e-09 -1.845601e-09
-1.390389e-08 1.260590e-08 -6.427698e-09 -7.891396e-09 -6.902215e-09 -4.749349e-09
1.243050e-08 8.528767e-09 -9.121307e-09 3.502676e-09 -6.871483e-10 2.156173e-09
-1.247827e-08 1.452309e-08 -5.255782e-09 -3.924004e-09 -8.649719e-09 -5.441219e-09
1.564394e-08 5.676121e-09 -8.628050e-09 3.791092e-10 -1.026420e-09 -9.674528e-11
1.687438e-08 4.450802e-08 -1.010546e-07 1.801479e-08 4.924098e-08 -1.920479e-08
8.225252e-10 1.342450e-08 -8.705585e-09 -1.229914e-09 -2.263434e-09 9.694607e-10
2.939829e-08 1.411316e-10 -9.120054e-09 1.090625e-08 -1.549272e-09 -2.440286e-09
-1.302576e-08 8.896493e-09 -5.705477e-09 -4.240753e-09 -3.259667e-09 -3.918827e-10
-1.034638e-08 1.774154e-08 -1.348845e-08 -1.527403e-09 -3.498349e-09 -1.923791e-09
2.034062e-09 1.525413e-08 -1.145625e-08 4.485661e-09 -9.979455e-10 -1.962425e-09
4.438183e-08 -1.660344e-08 -3.093446e-09 4.548343e-09 -2.174112e-10 1.893463e-10
-5.489857e-09 -8.671680e-09 -8.210932e-09 2.226637e-08 2.624705e-09 -2.231150e-09
4.284802e-09 -2.294455e-08 -1.568316e-09 3.722198e-09 -2.535230e-10 8.083680e-10
-7.912026e-09 -3.079656e-09 -1.183038e-08 2.357951e-08 6.816139e-09 -3.911484e-09
3.032328e-09 -2.111678e-08 1.075154e-09 1.750541e-08 7.859755e-10 -4.567640e-10
-7.892739e-09 1.247821e-09 -3.713079e-09 2.604127e-09 -8.505987e-10 5.690182e-10
2.963332e-09 -2.448788e-08 -3.083450e-09 1.904710e-08 4.624076e-09 -1.845520e-09
-2.317963e-09 1.692870e-09 2.133178e-10 8.111701e-10 3.675228e-10 1.351874e-11
4.281680e-09 -2.041862e-08 -7.498111e-09 2.152737e-08 2.478138e-09 -4.721056e-10
8.756554e-10 -1.741316e-08 -4.436673e-09 1.842246e-08 2.059748e-09 -1.133523e-09
-7.186744e-09 5.146081e-09 6.889642e-10 -7.185630e-11 6.062928e-12 -9.118817e-11
-6.163294e-09 4.617094e-09 5.829988e-10 -2.370086e-10 -9.255865e-11 -9.091423e-11
-6.805623e-09 5.007667e-09 6.372824e-10 -1.276508e-10 -7.709011e-11 4.417333e-11
-6.147877e-09 4.225063e-09 5.787921e-10 -5.030096e-10 -5.177772e-11 -6.588721e-11
-3.494758e-09 2.227313e-09 3.452831e-10 -4.272139e-13 2.976587e-10 -5.966294e-11
-5.264059e-09 4.030446e-09 4.880376e-10 -1.418579e-10 -1.916163e-10 3.714031e-10
-4.755086e-09 4.127150e-09 3.235368e-10 -5.125558e-10 -2.040654e-10 2.990719e-11
-7.253522e-09 3.693785e-09 1.138589e-09 2.807705e-10 1.300246e-11 -3.368059e-11
-4.913790e-09 3.780932e-09 3.061187e-10 -6.926777e-10 -2.891989e-10 -1.602110e-10
-5.592221e-09 3.284141e-09 6.977685e-10 5.003855e-10 2.149603e-10 -3.841943e-11
-3.279230e-09 3.419501e-09 1.917393e-10 -5.374239e-10 -1.071696e-10 5.661488e-11
-6.315553e-09 4.659340e-09 5.497349e-10 -1.931486e-10 -1.227758e-10 -2.138747e-10
-6.490570e-09 4.771666e-09 5.393310e-10 -1.415197e-10 -1.037257e-10 3.703959e-11
-7.248650e-09 4.054329e-09 9.790835e-10 -1.119860e-11 3.724465e-12 -5.974513e-11
-7.398712e-09 3.942453e-09 1.094397e-09 1.162676e-10 3.712808e-11 -4.918252e-11
-6.103225e-09 4.686237e-09 4.703842e-10 -4.733498e-10 -1.976765e-10 -8.783590e-11
-7.507880e-09 3.290896e-09 1.309915e-09 1.969216e-10 2.681944e-11 -9.819545e-11
-9.023632e-09 2.211455e-09 1.588022e-09 -2.406661e-10 -1.314764e-10 -3.829554e-10
-9.071443e-09 3.023054e-09 1.594608e-09 -9.124160e-10 -3.484959e-10 -7.325608e-10
-9.362271e-09 2.941233e-09 1.883630e-09 -7.552296e-10 -3.264276e-10 -7.176138e-10
-8.016319e-09 -8.671280e-09 -5.190950e-09 1.882041e-08 3.720726e-10 -7.467691e-10
-8.345803e-09 4.536359e-09 9.733281e-10 -1.204558e-09 -1.144416e-10 -6.466263e-10
-1.120128e-08 -8.740685e-09 5.059461e-09 2.072635e-09 2.020815e-10 8.376840e-19
-1.646016e-08 4.874608e-09 1.726359e-09 3.223211e-09 4.099376e-09 -6.775688e-10
-8.270836e-09 4.581070e-09 1.201118e-09 -1.247813e-09 -1.170275e-10 -2.550905e-10
-1.702631e-08 9.080161e-09 -1.567096e-09 3.361803e-09 8.989174e-10 -8.821344e-16
-7.042969e-09 -1.243573e-08 4.063788e-09 9.306201e-09 -7.729950e-11 4.533795e-11
-1.354176e-08 -3.817404e-09 4.467598e-09 2.148415e-09 1.116526e-09 -1.499412e-10
-9.300146e-09 3.607139e-09 1.662744e-09 -5.110542e-10 -4.945777e-11 -4.614943e-10
3.549277e-08 4.351318e-08 -1.255386e-07 1.219191e-08 2.381310e-08 -3.318856e-09
-1.147277e-08 -6.483478e-09 -2.374656e-10 1.523783e-08 4.571494e-09 -1.677568e-09
-1.683155e-08 2.797615e-09 2.719811e-09 2.523632e-09 2.069923e-09 -6.821808e-10
-1.667683e-08 1.118085e-08 -3.304429e-09 3.402429e-09 1.575324e-09 -3.584624e-10
-1.439886e-08 -3.391148e-09 3.409324e-09 9.958892e-09 3.854023e-09 -6.967017e-10
-9.308133e-09 2.960924e-09 1.904942e-09 -2.233763e-12 -4.072613e-10 -6.695957e-10
-8.828755e-09 3.411910e-09 1.564199e-09 -4.042304e-10 -1.560846e-10 -7.091936e-10
-1.448807e-08 1.584972e-08 -6.060631e-09 2.842411e-09 -1.471974e-10 -6.494019e-10
-1.211375e-08 1.557938e-08 -7.677016e-09 1.543558e-09 8.322851e-10 7.613307e-10
-4.074939e-09 2.444820e-09 6.541896e-10 1.798407e-09 2.099720e-11 -5.586220e-11
-8.917068e-09 4.081241e-09 1.471836e-09 -2.659548e-10 -1.558709e-11 -6.792880e-10
1.057870e-08 -3.538607e-08 4.150667e-09 -4.923307e-09 2.027705e-09 -6.581549e-10
-6.473408e-09 3.573033e-09 9.317955e-10 4.409686e-10 2.275891e-11 2.122435e-11
1.165310e-08 -3.602162e-08 2.757080e-09 -5.361400e-09 8.064135e-10 -2.675977e-10
1.435918e-08 -3.809247e-08 4.359192e-09 -3.129729e-09 -6.187850e-10 3.450163e-11
-1.646296e-09 1.350363e-09 1.229061e-10 1.685375e-09 -6.756551e-11 -3.448486e-11
-3.680537e-09 2.004356e-09 6.005640e-10 1.990750e-09 5.388314e-11 1.508829e-10
-5.960654e-10 4.098535e-10 -8.993561e-11 2.656565e-09 4.524114e-11 -4.418139e-10
-4.667998e-09 2.824870e-09 6.017156e-10 5.311168e-10 1.183934e-10 7.112311e-11
1.246672e-08 -3.796602e-08 5.337323e-09 4.207209e-09 1.295481e-09 -4.960210e-11
3.104677e-09 -2.799263e-08 6.908452e-09 2.474508e-09 5.460254e-11 -1.068528e-10
1.448399e-08 -3.568893e-08 3.647767e-09 -5.065846e-09 1.827173e-09 -1.906246e-10
1.210983e-08 -3.640778e-08 4.882082e-09 -3.463264e-09 3.750988e-10 1.949285e-10
5.629994e-10 -2.532884e-08 7.147176e-09 5.873783e-09 1.072209e-09 4.080221e-10
6.399000e-09 -2.942381e-08 -2.289737e-10 1.368488e-08 2.961620e-09 4.536674e-10
1.423215e-08 -3.636111e-08 4.873951e-09 -3.132492e-09 3.526339e-10 -2.906475e-11
8.348815e-09 -3.331940e-08 7.353464e-09 8.047065e-10 2.810370e-10 2.838663e-10
1.230426e-08 -3.843729e-08 6.885482e-09 6.069266e-10 9.962765e-11 4.866946e-11
1.479760e-08 -3.683762e-08 4.223915e-09 -4.405645e-09 2.896281e-10 -6.391688e-11
1.246672e-08 -3.744518e-08 6.605955e-09 3.486002e-09 3.223450e-10 5.570655e-10
1.419095e-08 -3.922328e-08 6.156192e-09 9.332519e-10 6.659002e-10 1.759141e-10
2.293109e-08 -4.141014e-08 -6.187092e-09 -1.539247e-09 6.628037e-09 -7.811951e-10
-8.651331e-09 2.028301e-09 1.534189e-09 -1.348718e-09 2.741188e-10 -5.519225e-10
5.727054e-09 -3.182119e-08 7.184264e-09 2.371336e-09 9.153467e-10 -2.824012e-10
-8.382670e-09 3.024317e-09 1.430752e-09 -2.052955e-09 5.577172e-10 4.364677e-10
-8.759593e-09 6.333161e-10 1.612968e-09 -2.821473e-09 5.113801e-10 1.927942e-10
-7.870161e-09 7.164003e-10 1.928892e-09 -1.542289e-09 8.354672e-11 -4.652352e-10
-7.197577e-09 1.147560e-09 1.921505e-09 -4.282359e-10 1.192254e-10 -2.586653e-11
1.088329e-08 -3.625542e-08 5.723718e-09 5.411384e-09 4.114658e-10 5.025412e-10
-7.020803e-09 1.492429e-09 1.562975e-09 -1.643511e-11 6.244294e-11 -1.767612e-10
4.907903e-09 -3.026620e-08 6.742909e-09 5.754429e-09 -1.107200e-09 6.444018e-10
1.013922e-08 -3.226101e-08 2.988467e-10 1.532322e-08 2.121672e-09 -9.688761e-10
-7.647324e-09 3.504103e-09 1.488028e-09 5.774968e-10 3.113563e-10 2.482362e-10
1.769076e-08 -4.466780e-08 2.001602e-09 -2.344450e-09 -2.466051e-09 -9.441427e-10
2.312564e-08 -5.690516e-08 -3.109425e-09 -4.695774e-09 -1.912259e-08 2.567526e-09
-1.232884e-08 1.805468e-08 -1.454252e-08 -4.224017e-09 -6.774648e-09 -5.690211e-09
1.885269e-08 -4.036192e-08 -5.361945e-09 -3.111411e-09 -1.736494e-09 -3.126825e-10
-7.745734e-09 3.787043e-09 1.509433e-09 4.262982e-10 3.160940e-10 -6.606133e-10
1.228206e-08 -1.837617e-08 -2.397013e-08 -2.222190e-08 2.359126e-09 6.296924e-10
2.473545e-08 -4.009370e-08 -1.725352e-08 -3.657716e-09 -2.553317e-09 -4.872365e-10
2.150503e-08 -2.848821e-08 -3.228000e-08 1.209758e-08 -1.727915e-08 5.832111e-09
-2.192725e-09 -7.077803e-09 -1.150330e-08 -2.198372e-08 5.111395e-09 3.326547e-09
1.094874e-08 -2.249340e-08 -2.468697e-08 -2.582005e-08 1.368577e-08 6.825345e-09
2.752730e-08 -9.961039e-09 -5.604340e-08 6.026222e-11 -7.500997e-09 1.015035e-09
3.873155e-08 2.304700e-08 -1.113788e-07 1.160013e-08 2.330457e-08 -1.012651e-08
7.389953e-09 -1.671465e-08 -1.172953e-08 -1.924869e-08 1.944345e-09 8.009349e-10
6.828411e-09 -1.765405e-08 -1.183960e-08 -2.053733e-08 7.035235e-09 1.904781e-09
-4.244901e-09 -1.244732e-08 -6.579017e-10 -1.139068e-09 -4.435135e-16 -2.527250e-10
1.900016e-08 -3.981489e-08 -9.423031e-09 6.116814e-09 -1.435818e-08 7.165271e-10
7.777423e-09 -2.337004e-08 -5.888086e-09 -6.438095e-09 -1.210022e-09 -6.015375e-10
2.338172e-08 -5.516413e-08 -1.391936e-10 -6.610030e-09 -1.927877e-08 -2.563403e-09
2.197249e-08 -4.917243e-08 -2.722768e-09 -1.629311e-09 -6.534523e-09 3.109872e-10
3.274936e-09 -1.206631e-09 -4.295059e-10 3.979807e-09 1.858286e-10 3.701669e-10
-8.097411e-09 2.037883e-08 -1.328794e-08 2.973881e-09 -8.657353e-10 -4.468898e-10
7.202044e-09 -3.638008e-09 -8.275221e-10 3.257560e-09 2.355389e-10 -6.189083e-11
7.259624e-09 -3.012500e-09 -7.224741e-10 3.752988e-09 1.259305e-10 5.591061e-10
8.577782e-09 -4.655021e-09 -1.261449e-09 1.499088e-09 3.568060e-11 -9.340084e-12
9.724102e-09 -4.777630e-09 -1.140646e-09 2.930904e-09 4.673062e-11 1.256073e-10
-1.317782e-08 1.283831e-08 -6.268341e-09 -1.088011e-09 -3.141819e-09 -7.745455e-10
-1.281371e-08 1.806301e-08 -7.910813e-09 -1.111715e-09 -1.594677e-09 -6.256460e-10
-8.003705e-09 1.749592e-08 -9.594083e-09 1.594571e-09 -1.171081e-09 -2.007417e-09
9.918310e-09 -5.599221e-09 -1.341511e-09 3.885753e-11 1.687657e-11 4.572431e-11
5.343344e-09 -2.867313e-09 -8.254437e-10 1.165110e-10 -1.009237e-10 -2.351745e-20
9.843658e-09 -5.137357e-09 -1.213188e-09 2.258293e-09 2.256443e-10 3.332266e-10
-1.160533e-08 1.750625e-08 -1.100568e-08 -2.402262e-09 -2.255714e-09 -1.550327e-09
1.205155e-08 -5.574684e-09 -8.759180e-10 3.295421e-09 3.709847e-11 -9.146816e-11
5.641780e-09 -2.723007e-09 -7.982159e-10 3.325804e-09 2.090299e-10 7.685408e-12
8.420594e-09 -4.635704e-09 -1.085962e-09 8.612306e-10 1.192475e-11 -4.275913e-11
9.585684e-09 -5.272125e-09 -1.349738e-09 9.726988e-10 1.038752e-10 1.352207e-10
9.985484e-09 -4.777630e-09 -1.158245e-09 2.744292e-09 7.733375e-11 7.634560e-11
9.089050e-09 -5.268746e-09 -1.304931e-09 1.303081e-09 3.259893e-12 3.977620e-10
1.238833e-08 -1.818837e-09 1.792221e-08 1.912807e-08 -1.679597e-09 -6.550135e-09
4.602797e-08 -2.011001e-08 -4.400030e-09 4.342617e-09 -5.873638e-10 1.114062e-09
5.258322e-08 -2.111521e-08 3.902807e-09 -5.719298e-09 -1.256303e-09 6.033140e-09
4.959388e-08 -1.797831e-08 -3.348332e-09 -1.277365e-10 3.110777e-10 1.930595e-09
6.513831e-10 1.197406e-08 -5.598535e-09 -1.066377e-08 2.993129e-09 -5.004282e-09
-1.988387e-09 3.511814e-09 1.786020e-08 1.987955e-08 -2.117315e-09 -5.420776e-09
2.187241e-08 7.996158e-10 -1.061219e-09 -2.252496e-08 3.766359e-09 -4.021677e-09
-7.349740e-10 3.491878e-09 1.621274e-08 1.954859e-08 -1.832270e-09 -4.736490e-09
-5.044014e-10 6.043012e-09 2.754082e-08 2.182202e-08 3.079955e-09 -1.513756e-09
-5.190306e-09 3.979316e-09 4.585297e-10 -3.984546e-10 -4.810352e-11 -1.797817e-10
1.274957e-08 9.541772e-08 -1.246481e-07 1.020825e-08 3.785319e-08 -2.872544e-08
2.713345e-08 8.562085e-08 -1.363675e-07 7.655505e-09 2.380836e-08 -7.524788e-09
-7.044121e-09 4.313380e-09 7.843948e-10 -2.020468e-09 -1.009335e-10 -1.859347e-10
-7.924296e-09 4.882720e-09 1.009655e-09 -3.411458e-10 -6.340772e-11 -2.420701e-10
-5.694412e-09 4.085299e-09 6.442586e-10 -1.758867e-09 -8.548917e-11 2.082278e-12
-8.495940e-09 4.773938e-09 1.228879e-09 -3.542944e-10 -6.829382e-11 -2.915164e-10
-2.415351e-09 2.332111e-09 7.895395e-11 -4.620710e-10 -1.316374e-10 -2.205506e-10
-4.557867e-09 3.496602e-09 2.674190e-10 -5.616112e-10 -4.190781e-11 2.580309e-10
2.050105e-08 5.956872e-08 -1.304394e-07 1.073332e-08 2.251690e-08 -8.810288e-09
-7.286303e-09 4.068959e-09 6.494298e-10 -3.146376e-09 -4.135350e-10 -4.525624e-10
-6.175181e-09 4.116463e-09 5.069196e-10 -6.942469e-10 -1.519356e-10 -8.146372e-11
4.529763e-10 6.330945e-10 -5.376823e-10 -4.829851e-09 -3.366600e-10 1.324958e-10
-7.008341e-09 4.131381e-09 9.074330e-10 -2.771631e-09 -2.215454e-10 -2.183731e-10
-6.439056e-09 4.323475e-09 7.833059e-10 -1.618156e-09 6.329115e-11 6.378986e-11
1.181760e-08 -6.641750e-09 -1.288969e-09 -6.501952e-10 -4.987916e-11 -7.112291e-11
2.753135e-08 4.334755e-08 -1.135962e-07 1.349349e-08 2.376718e-08 2.248441e-09
-9.003236e-09 8.185175e-08 -8.180351e-08 -3.440426e-09 8.980489e-09 -8.012031e-09
2.877024e-08 7.173952e-08 -1.197217e-07 1.990974e-08 5.095288e-08 -2.066887e-08
9.089433e-09 -5.223954e-09 -1.277553e-09 -1.196931e-09 -7.582290e-11 -2.077507e-10
4.827732e-09 -1.487069e-09 -6.890968e-10 -2.582310e-09 -1.590066e-10 2.545036e-11
1.066889e-08 -4.873593e-09 -1.264806e-09 -3.950903e-09 -1.981486e-10 -5.206324e-11
5.545981e-09 -2.473116e-09 -8.339098e-10 -1.948345e-09 -2.037576e-10 5.842762e-10
1.857273e-09 -1.802442e-08 4.880707e-09 -1.840364e-09 1.242679e-10 -7.429730e-10
6.630955e-09 -3.988459e-09 -1.089398e-09 -5.705525e-11 -2.828859e-10 3.464429e-11
1.272738e-09 -1.633504e-08 4.558588e-09 -3.121763e-09 -9.139228e-10 -5.781703e-10
3.821112e-09 -2.291469e-08 5.155880e-09 -3.357981e-09 -6.688044e-10 -6.968868e-10
2.931437e-09 -2.180282e-08 5.477368e-09 -4.611167e-09 -5.874122e-10 -9.348582e-10
5.061276e-09 -2.387474e-08 5.476168e-09 -1.353255e-09 1.335649e-09 -7.889054e-10
5.573941e-09 -2.647661e-09 -1.040369e-09 -2.326876e-09 -5.039347e-11 3.330420e-10
4.756603e-09 -2.396905e-08 5.628417e-09 -1.262025e-10 -1.856496e-09 -8.869585e-10
8.823160e-09 -3.308139e-09 -8.172059e-10 -7.253314e-09 -1.155653e-11 -5.680969e-10
-1.674538e-08 1.002783e-08 -2.448711e-09 -2.080637e-09 -1.690203e-09 -3.254064e-12
-1.480401e-08 1.266618e-08 -3.848963e-09 -4.497444e-09 -4.623877e-09 -2.026281e-09
-1.124389e-08 -3.679500e-09 -3.317079e-09 1.593160e-08 2.191289e-09 -2.860538e-11
-1.533140e-08 -1.058638e-10 3.476850e-09 2.843497e-09 2.897581e-09 -4.161335e-10
-1.431596e-08 1.991434e-09 -1.811945e-09 1.350202e-08 -3.520650e-10 -4.706244e-10
-1.139619e-08 -1.206112e-08 1.360748e-09 1.566164e-08 4.423833e-09 -1.677971e-09
-1.683714e-08 9.994446e-09 -2.883175e-09 -1.982446e-09 -1.362074e-09 -2.268234e-10
-1.681780e-08 1.345090e-08 -2.930355e-09 -2.778214e-09 -5.696211e-09 -2.343797e-09
-3.934831e-08 5.667853e-10 7.905465e-08 1.721201e-08 -2.506790e-08 -2.329753e-08
-1.848030e-08 3.288994e-08 -2.550945e-08 8.767604e-09 5.004614e-09 -8.199856e-09
-1.451335e-08 3.141633e-08 -2.307701e-08 1.252225e-08 8.197605e-09 -8.177738e-09
-1.082748e-08 1.991434e-09 -1.064843e-08 1.909658e-08 6.201724e-10 -1.334218e-09
-7.145861e-09 3.064050e-09 1.380327e-09 4.000022e-10 3.221556e-11 -1.337602e-10
-7.555791e-09 2.744049e-09 1.663579e-09 5.061040e-10 5.098455e-11 1.158504e-10
-1.510433e-08 9.545182e-09 -2.194620e-09 -5.552987e-09 -2.372827e-09 -1.521382e-09
-7.439369e-09 1.299957e-09 2.277177e-09 3.296696e-10 6.758372e-12 -5.288607e-10
-7.313710e-09 2.084908e-09 1.901094e-09 4.520810e-10 1.342304e-10 -2.915707e-10
-1.411759e-08 1.467387e-08 -7.611782e-09 -1.903642e-10 -1.412591e-09 -2.346014e-10
4.082577e-09 -2.756903e-08 7.206687e-09 4.468031e-09 -3.813136e-10 1.129223e-09
-7.215235e-09 1.390357e-09 1.885964e-09 1.216158e-10 -9.346358e-12 -3.437441e-10
2.216733e-10 -2.379867e-08 6.934919e-09 1.164876e-09 5.707086e-10 1.381750e-10
-7.111407e-09 2.201372e-09 1.652728e-09 9.720935e-10 2.573112e-10 -3.806300e-10
3.406271e-09 -2.525488e-08 7.323467e-09 3.694540e-09 -1.622329e-10 -2.021000e-11
-3.072150e-09 -1.943036e-08 7.576075e-10 1.798173e-08 1.205908e-09 -9.211327e-10
3.341883e-09 -2.699133e-08 2.936916e-09 1.401585e-08 9.822438e-10 -1.260991e-10
-1.828860e-09 -2.147508e-08 7.165354e-09 9.491527e-10 6.744901e-10 1.751872e-10
4.846274e-10 -2.567066e-08 7.424567e-09 2.752975e-09 1.188654e-09 8.881325e-10
2.670737e-09 -1.004682e-09 -5.312406e-10 -1.855628e-09 7.339351e-12 -2.006950e-11
6.525527e-10 1.538287e-10 -3.932534e-10 -2.852899e-09 -3.344961e-10 -2.284882e-10
5.864703e-09 -2.016248e-09 -8.539982e-10 -3.343094e-09 -6.023004e-11 -1.602876e-10
-8.269938e-09 -1.403379e-08 5.388759e-09 6.491587e-09 6.529972e-10 -5.883561e-11
5.703567e-09 -2.760270e-08 4.014061e-09 9.629568e-09 1.870035e-09 -5.360577e-11
-6.866185e-09 -1.388561e-08 6.048739e-09 5.067824e-09 2.880929e-10 1.381374e-10
3.656707e-09 -2.733256e-08 7.132856e-09 4.263584e-09 2.396825e-10 1.575362e-11
2.572700e-08 -4.072342e-08 -3.112587e-08 -8.836786e-09 1.837102e-08 1.237627e-09
2.180250e-09 -5.430278e-10 -5.629452e-10 -2.897823e-09 -5.187100e-10 2.185957e-10
2.714119e-09 -3.156770e-10 -7.235719e-10 -3.426929e-09 -1.683829e-10 2.180940e-10
2.031166e-09 -2.619223e-08 1.125278e-09 1.524537e-08 1.111657e-09 -2.925123e-10
9.028589e-09 -3.497702e-08 4.609087e-09 7.014096e-09 4.339833e-10 1.979306e-10
4.385519e-09 -1.938940e-09 -7.458700e-10 -4.105775e-09 -1.549332e-10 5.075751e-10
1.954514e-08 -5.495762e-08 3.068034e-09 -1.847250e-08 -1.828700e-08 -3.904988e-09
-8.375089e-09 2.440773e-09 -1.061411e-08 -1.380609e-08 -6.863418e-09 -3.565568e-09
8.731143e-09 -4.453077e-09 -1.233387e-09 -2.382872e-09 -1.800801e-10 2.182244e-10
-3.584006e-09 -4.132224e-09 -1.765940e-08 -1.421541e-08 -1.044936e-08 -3.242095e-09
4.688944e-09 -1.646917e-09 -8.517946e-10 -4.123653e-09 1.419584e-10 -3.514953e-10
-7.006224e-09 1.741258e-08 -2.070836e-08 -6.649317e-09 -3.058081e-09 -2.488671e-09
-6.274196e-09 1.794882e-09 1.367106e-09 7.475500e-10 1.374922e-11 -1.950835e-10
1.300013e-09 -1.793406e-08 5.009576e-09 -3.903258e-10 6.659834e-16 1.926586e-10
2.181131e-08 -4.616563e-08 -2.270830e-09 -3.996625e-10 -1.961730e-09 -1.369682e-10
-1.465832e-09 1.385323e-08 -3.442546e-08 -1.336645e-08 -6.947418e-09 -3.329309e-09
4.592755e-10 -1.025926e-08 -9.806015e-09 -1.149132e-08 -7.747465e-10 -6.740017e-10
1.585500e-08 -2.557750e-08 -1.927739e-08 -1.249375e-08 -2.878883e-09 -7.843201e-10
1.342835e-08 -5.011511e-08 2.845960e-09 -1.503528e-08 -1.747908e-08 -1.584091e-09
-5.715963e-09 2.284114e-09 1.099161e-09 1.516653e-09 -1.826050e-11 -1.759171e-11
-7.536978e-09 2.957009e-09 1.559503e-09 8.164251e-10 1.957553e-10 -1.805726e-10
-9.640361e-09 4.760736e-09 -1.369888e-09 -1.405789e-09 -1.381734e-09 1.192970e-09
-7.696996e-09 4.565742e-09 1.035278e-09 -8.837051e-10 -6.636047e-11 1.314948e-11
-8.059306e-09 4.269374e-09 7.125154e-10 -3.182466e-09 -3.686607e-11 9.900936e-11
-3.657961e-09 3.370364e-09 -1.430145e-10 -4.355928e-09 -4.056653e-10 -3.634049e-11
-6.840709e-09 2.509204e-09 1.610065e-09 1.335128e-09 1.838218e-10 1.380123e-10
-1.251254e-09 1.432439e-09 -8.757093e-10 -6.963449e-09 -6.800938e-10 6.288134e-10
-6.231016e-09 3.792699e-09 1.611662e-10 -4.378819e-09 -6.072340e-10 5.444201e-11
7.945125e-10 2.393272e-09 -9.355587e-10 -9.179033e-09 -2.280187e-10 2.608672e-10
-8.546122e-09 5.257198e-09 -7.196181e-10 -4.452085e-09 -1.347287e-10 2.736374e-10
-4.434566e-09 2.083878e-09 9.253600e-10 2.177119e-09 -1.593659e-10 -3.319389e-11
-8.944918e-09 4.242068e-09 5.384964e-10 -2.909238e-09 -6.731351e-10 -4.624796e-10
-9.245774e-09 8.657267e-09 -4.670981e-09 -5.485398e-09 -3.282796e-10 5.676665e-10
-5.975595e-09 2.551378e-09 1.083078e-09 1.734217e-09 -5.744072e-12 -9.272094e-11
-6.465263e-09 2.213602e-09 1.303226e-09 1.477195e-09 -8.475199e-11 -5.269209e-10
-5.683772e-09 2.738238e-09 1.041302e-09 1.809518e-09 2.592615e-10 2.018314e-10
-6.195971e-09 4.776767e-09 -6.482401e-10 -5.640247e-09 -6.993981e-10 8.041323e-10
8.618831e-09 -4.280957e-09 -1.140796e-09 2.187692e-09 1.568053e-10 -9.571766e-11
1.317090e-08 -8.381398e-09 2.414447e-08 1.319304e-08 -1.738209e-09 -9.954352e-09
1.382501e-08 -7.111728e-09 2.344773e-10 3.735951e-09 1.953732e-11 -4.303741e-10
8.236224e-09 -3.994513e-09 -8.016752e-10 4.161907e-09 1.832372e-10 4.047885e-10
-1.565676e-08 1.291239e-08 -1.635510e-08 1.793372e-08 5.883636e-10 -1.362363e-09
-1.032619e-08 2.716543e-08 -4.210241e-08 2.363288e-08 7.281004e-09 -1.093582e-08
6.096547e-09 -8.787071e-09 3.442752e-08 1.654970e-08 -3.163186e-09 -6.732170e-09
2.176370e-08 1.013296e-08 8.358747e-09 -2.691616e-08 -1.268631e-08 1.406557e-08
-1.862043e-08 2.308250e-08 -1.403477e-08 8.033890e-09 3.605274e-09 -5.074416e-09
1.058796e-08 -3.643371e-09 -4.217255e-08 2.889508e-08 2.196087e-08 -9.247122e-09
-4.013777e-08 8.938308e-08 -2.925203e-08 -1.455503e-08 1.464542e-09 -1.802586e-09
5.611645e-08 -1.790687e-08 7.996417e-10 -5.528620e-09 -1.030975e-09 6.444729e-09
5.785035e-08 -2.164424e-08 1.346566e-08 -1.475629e-08 -5.461090e-09 1.888027e-08
-6.694349e-09 -2.341699e-09 -1.048100e-08 2.232285e-08 2.220274e-09 -5.714593e-10
-3.209799e-08 9.628092e-08 9.858963e-08 -1.733612e-09 -5.233501e-08 -1.707139e-08
1.539735e-08 1.427244e-08 -6.925378e-08 2.430992e-08 1.187707e-08 -4.744918e-09
2.493356e-08 -4.310367e-08 -1.659092e-08 1.321417e-09 1.283626e-08 2.161462e-10
3.142085e-08 -1.756586e-09 -8.007490e-09 -6.892099e-09 3.118536e-09 9.993332e-10
-1.888316e-08 4.953733e-08 -4.515168e-08 9.327222e-09 8.187100e-09 -1.217737e-08
-1.568429e-08 3.136572e-08 -3.200340e-08 1.502295e-08 2.778613e-09 6.930792e-10
-1.655864e-08 1.291239e-08 -1.126346e-08 1.525127e-08 3.049332e-09 -3.723588e-09
5.993357e-09 -8.292717e-09 3.467446e-08 1.274219e-08 -2.813715e-09 -9.365279e-09
4.814702e-08 -1.796781e-08 -4.416756e-09 -1.060364e-09 3.897781e-10 1.095878e-09
3.607445e-08 9.523060e-10 -8.670104e-08 2.073052e-08 4.807763e-08 -1.558934e-08
-2.084259e-08 5.620773e-08 -2.110003e-08 -1.790059e-08 4.918448e-09 -3.945793e-09
4.815694e-08 -8.669924e-09 6.324600e-10 -2.102132e-08 -4.817614e-09 1.477722e-08
5.816415e-08 -8.948745e-09 -8.141483e-09 -9.166273e-09 3.710919e-11 1.314108e-08
-1.084026e-09 9.935555e-10 5.212719e-11 1.265911e-09 1.022973e-10 2.683962e-10
-9.726271e-10 8.185175e-08 -8.105337e-08 -8.146394e-09 1.372740e-08 -1.243410e-08
-1.593799e-09 1.534681e-09 1.177858e-11 1.725550e-09 2.253930e-11 2.223732e-11
-2.298699e-09 1.547607e-09 2.776228e-10 2.747940e-09 6.372503e-11 8.316547e-11
1.268639e-08 -3.800126e-08 6.369297e-09 9.213967e-10 3.549281e-10 -2.494960e-10
9.793665e-09 -3.594325e-09 -9.676029e-10 -7.228546e-09 -4.050966e-10 2.839737e-10
4.167692e-09 -7.816404e-10 -8.199521e-10 -7.438592e-09 1.563994e-11 -1.956304e-10
4.722156e-09 -1.193151e-09 -9.418435e-10 -7.687269e-09 -5.322864e-10 4.419141e-10
1.738820e-09 -2.939862e-10 -1.771774e-10 2.065659e-09 -6.525447e-11 -2.860967e-11
5.139139e-09 -1.938939e-09 -9.487229e-10 -4.347140e-09 -2.943270e-10 3.123747e-10
-5.963975e-09 3.627696e-09 2.815623e-10 -4.162540e-09 -1.186639e-10 -2.771925e-10
2.387959e-10 6.704388e-10 1.380265e-10 2.942532e-09 2.550928e-10 4.704085e-10
1.058114e-08 -5.031867e-09 -1.295997e-09 -2.918777e-09 -6.536158e-11 -1.175007e-10
-2.294184e-09 1.820806e-09 2.399165e-10 2.349575e-09 2.571894e-10 8.334648e-10
-1.225400e-09 8.111563e-10 -1.144693e-10 1.727022e-09 2.224546e-10 -2.260725e-11
-2.425153e-10 9.599952e-10 -2.598984e-10 -2.581275e-09 -2.504707e-10 -1.791867e-11
1.084283e-08 4.894892e-09 -4.775188e-09 2.977660e-10 7.746405e-10 -2.477960e-10
-3.244759e-09 2.671947e-09 1.532863e-10 -4.582645e-11 1.526201e-11 -1.046274e-11
-2.035191e-09 3.663096e-09 -4.617302e-10 -6.998499e-09 2.211653e-11 -2.397416e-12
6.686764e-09 -1.509095e-09 -9.606946e-10 -9.468513e-09 -6.374341e-10 5.519362e-10
2.676480e-09 2.208329e-09 -1.392736e-09 -1.119192e-08 -1.129161e-11 1.526645e-10
3.818363e-09 -7.776108e-10 -9.504637e-10 -7.503248e-09 1.218561e-10 -7.720677e-10
-9.237619e-08 -8.028112e-08 3.396953e-07 -3.635925e-09 3.056387e-09 2.983419e-08
-8.146450e-08 4.142187e-08 1.263626e-07 -1.020265e-08 6.214331e-09 1.393047e-08
4.960895e-09 1.301268e-08 -5.731477e-09 -7.607251e-09 1.340213e-09 6.878198e-10
-8.494355e-08 5.201781e-08 1.375865e-07 -9.096093e-09 9.615743e-08 -2.747234e-08
-6.666154e-08 2.373773e-08 1.986600e-07 3.677870e-08 4.937520e-08 2.670080e-09
-1.126465e-09 1.304925e-08 -6.278535e-09 -4.863063e-09 1.342225e-10 1.677316e-09
2.478265e-08 4.232489e-08 -9.123339e-08 -1.489930e-08 -3.581574e-08 -4.878388e-09
1.505782e-08 3.715511e-09 -3.594333e-09 -1.052716e-08 3.196962e-09 -1.999751e-09
1.173497e-08 -4.665934e-09 1.966720e-09 7.949314e-09 3.326494e-10 -1.579497e-11
1.177455e-08 4.894892e-09 -4.653339e-09 4.802353e-10 1.440773e-09 1.469584e-09
1.219112e-08 -3.718080e-09 5.976450e-09 1.152962e-08 -3.257993e-10 -2.404910e-09
1.160005e-08 -5.880459e-09 -2.474589e-10 5.749713e-09 -2.382544e-12 -4.818437e-10
4.169805e-08 -1.313989e-08 2.693857e-09 -9.974614e-09 3.643278e-10 -2.676377e-09
1.033775e-08 -5.944213e-09 -1.374045e-09 -4.759029e-10 2.442856e-11 -5.242318e-11
-1.519783e-09 1.145041e-09 8.639223e-11 4.209078e-11 -8.154633e-11 -6.864696e-21
1.543838e-08 -7.992924e-09 3.084685e-09 -1.175850e-08 1.141059e-09 -2.867999e-09
1.047575e-08 -5.829442e-09 -1.377409e-09 -4.096532e-11 -2.235564e-11 5.377204e-11
1.395783e-08 -7.406421e-09 1.423081e-09 6.518839e-09 -2.388174e-10 -6.558907e-10
1.130042e-08 -5.944213e-09 -1.379683e-09 -5.309332e-10 1.468413e-11 1.688605e-11
-9.794314e-09 -2.399135e-09 -5.819749e-09 -1.928918e-08 3.267733e-09 2.578669e-09
-2.205064e-09 -1.468157e-08 -5.846766e-09 -1.972632e-08 3.995284e-09 1.973253e-09
-7.436437e-09 2.839832e-09 -5.569079e-09 -1.357414e-08 1.846393e-09 3.049128e-10
1.037290e-08 -5.513504e-09 -1.403450e-09 -1.262916e-09 -8.362344e-11 1.678718e-10
-8.699703e-09 2.952154e-09 1.462332e-09 -1.900779e-09 6.113134e-10 3.068148e-10
-1.310431e-08 1.100268e-08 -3.691865e-10 1.263700e-09 8.878947e-11 3.704142e-10
-1.662168e-08 2.828119e-08 -1.802426e-08 -1.545690e-08 4.532648e-09 4.155284e-09
1.035932e-08 -5.414990e-09 -1.382449e-09 -5.921989e-10 7.856227e-11 -1.778783e-10
-1.585109e-07 -1.056324e-07 3.651783e-07 -2.755340e-08 -4.676916e-08 3.947982e-08
1.020895e-08 -5.621639e-09 -1.379521e-09 -3.432435e-10 -4.028700e-11 6.855450e-11
1.774821e-08 -1.939686e-08 4.060004e-08 -4.711840e-09 4.723442e-09 -1.106121e-08
1.007857e-08 -6.041762e-09 -1.394280e-09 -2.065582e-10 3.811729e-12 1.022767e-10
-2.346218e-08 3.302209e-08 6.206733e-08 5.333199e-08 3.351626e-08 1.710480e-08
-3.476468e-08 5.871378e-08 1.325425e-08 -3.549328e-08 -1.282318e-08 -1.014463e-09
1.255491e-08 -3.625693e-08 5.495665e-09 5.255361e-09 4.622174e-10 -1.898186e-10
8.837243e-09 -3.228259e-08 5.859004e-09 7.420042e-09 2.995344e-10 -6.298446e-10
-1.147160e-07 -3.656170e-08 3.590100e-07 1.527853e-08 3.387767e-09 1.451429e-08
9.028589e-09 -3.402986e-08 5.522030e-09 6.124246e-09 1.403318e-09 -4.556177e-10
8.833771e-09 -3.249540e-08 3.800000e-09 1.091893e-08 4.016969e-10 8.286083e-11
1.193610e-08 -3.906127e-08 5.495316e-09 3.149616e-09 2.516121e-10 -1.213567e-10
-6.704222e-10 4.101635e-08 -2.159179e-08 -2.370137e-08 6.342435e-09 5.910287e-09
1.194985e-08 -3.526729e-08 3.121111e-09 9.758043e-09 1.486402e-09 -9.112337e-11
-6.693437e-09 3.057176e-08 -4.193273e-08 1.785163e-10 -1.260033e-08 1.513458e-08
-1.095449e-08 -8.066956e-09 5.102256e-09 5.300681e-09 2.235358e-09 -2.253536e-10
-9.068362e-09 -8.835849e-09 2.469442e-09 1.291214e-08 2.491151e-09 -5.857805e-11
-6.875081e-09 -1.214965e-08 5.333949e-09 1.076961e-08 1.958762e-09 -8.395891e-11
-8.174992e-09 -1.506682e-08 5.794957e-09 8.533603e-09 8.163073e-10 3.538788e-10
1.331636e-09 9.380224e-09 1.572081e-08 -2.906044e-08 8.548715e-09 -5.978804e-09
4.069234e-10 6.750068e-08 -3.041508e-08 -2.342165e-08 1.365356e-08 4.200189e-09
3.337122e-08 3.816880e-08 -1.214858e-07 2.732388e-08 6.036199e-08 -2.567517e-08
1.322923e-08 -3.786271e-08 5.776309e-09 -1.490385e-09 -9.872049e-10 1.558288e-11
1.561515e-08 -3.954856e-08 4.150261e-09 -1.069149e-09 1.928151e-09 -1.798788e-10
1.581978e-08 -4.162432e-08 4.704224e-09 9.287526e-10 2.313973e-09 -4.881268e-10
8.519693e-09 -2.908517e-08 6.114282e-09 -1.105758e-09 -3.276562e-10 -7.435540e-10
1.378987e-08 -3.895261e-08 4.285287e-09 -2.593162e-09 1.084582e-09 -5.668784e-10
-2.958319e-08 9.963705e-08 -5.108061e-08 1.818808e-08 2.078159e-08 1.364420e-09
1.560877e-08 -3.987581e-08 5.906124e-09 -2.532011e-09 2.059831e-09 -1.277541e-10
-8.245052e-09 9.660255e-08 -6.203593e-08 1.607334e-08 -1.968980e-09 2.935614e-08
1.176739e-08 -3.500450e-08 6.692465e-09 -8.385226e-11 3.315643e-10 -2.944277e-10
1.459997e-08 -4.042086e-08 6.304042e-09 -1.187384e-09 1.527240e-09 -2.698355e-10
1.685885e-08 -1.290554e-08 1.351158e-08 3.838820e-09 4.808108e-10 -4.492080e-09
-9.893521e-09 2.180495e-09 -4.390613e-09 3.763742e-09 -7.943339e-10 7.497173e-10
-4.469815e-09 -3.515273e-09 -7.137102e-09 6.999400e-09 -3.607255e-09 9.152032e-10
1.745415e-08 -7.989299e-09 4.952611e-09 -1.195988e-08 5.477598e-10 2.192960e-09
1.785104e-08 -1.103831e-08 1.180565e-08 5.142435e-09 -3.427550e-10 -5.575639e-09
2.357893e-08 -1.204237e-08 1.545707e-08 -8.815285e-09 1.711822e-09 -1.055917e-08
1.872636e-08 -1.511400e-08 2.405800e-08 1.145687e-09 1.773027e-09 -5.476164e-09
-9.379690e-09 5.005720e-10 -3.557656e-10 9.307226e-10 -6.301244e-10 -3.028935e-10
-9.889947e-09 8.951182e-10 4.921996e-10 1.098918e-09 -5.170763e-11 -5.435268e-11
2.701806e-08 -1.140750e-08 1.432658e-08 -5.871180e-09 1.553485e-09 -7.836599e-09
7.821806e-09 -1.250748e-08 2.754082e-08 1.239385e-08 -3.446738e-10 -6.778980e-09
-1.017327e-08 4.968150e-10 -7.088312e-10 2.865779e-09 -1.252236e-09 6.474226e-10
1.879485e-08 -1.104614e-08 2.626293e-08 -2.111729e-08 1.389319e-09 -4.569984e-09
-8.932937e-09 3.971907e-09 -4.371234e-09 1.144543e-09 -4.958636e-10 1.825474e-11
-9.801976e-09 7.897379e-09 -3.459498e-09 -3.324240e-09 -1.775452e-09 2.541248e-09
-9.815652e-09 8.177471e-09 -5.069968e-09 -3.027598e-09 -1.919446e-09 1.645603e-09
2.090960e-08 5.243805e-09 -3.015638e-09 -1.679039e-08 3.631398e-11 -3.677929e-09
-1.657763e-08 1.015261e-08 -1.586505e-09 -1.459535e-09 -2.896572e-09 -3.884315e-10
-1.708714e-08 7.412934e-09 -1.493894e-09 -1.077132e-09 -1.076926e-09 -1.449991e-10
-1.326445e-08 1.367983e-08 -5.916983e-09 -9.662276e-10 -1.614368e-09 -1.055911e-09
-1.652165e-08 1.116506e-08 -1.219227e-09 -1.713381e-09 -3.957991e-09 -5.874039e-10
-9.640361e-09 2.147788e-09 2.117222e-10 -3.723963e-10 -1.067361e-09 2.550953e-10
-9.453670e-09 4.677627e-09 -2.148463e-09 -1.443067e-09 -1.680266e-09 8.146137e-10
4.698612e-08 -1.275844e-08 -7.466470e-09 3.093221e-09 1.354033e-09 -1.278796e-10
4.365712e-08 -5.506582e-09 -6.099747e-09 1.133278e-08 1.638396e-09 3.703007e-09
5.908547e-09 -2.315847e-09 -7.894950e-10 -2.516328e-09 -4.801337e-10 -4.843415e-11
2.740567e-08 -3.074886e-09 -6.407688e-09 5.013190e-10 -3.093534e-09 3.093230e-10
9.149941e-09 -4.473375e-09 -1.359476e-09 -2.033427e-09 -3.556663e-10 3.504337e-10
-1.829422e-09 1.525413e-08 -1.145625e-08 3.501640e-09 -6.700081e-10 -1.318646e-09
-3.147376e-09 2.427133e-09 -2.439577e-10 -6.091640e-09 -4.177363e-10 6.095258e-11
-1.780441e-09 2.434224e-09 -6.819256e-11 -6.199659e-09 -4.935978e-10 7.956685e-10
2.364734e-08 7.014376e-10 -7.968124e-09 1.063328e-09 -3.295857e-10 -2.227455e-16
-2.279066e-10 1.524294e-09 -3.670273e-10 -5.117346e-09 9.810872e-11 -1.868221e-10
2.226804e-09 3.461392e-10 -5.595506e-10 -6.456696e-09 -2.519994e-10 7.973373e-10
-1.249520e-09 1.951285e-09 -4.624785e-10 -5.792214e-09 -2.955389e-10 -1.048706e-10
-4.783331e-09 3.477532e-09 -1.066942e-10 -5.904827e-09 -1.567624e-10 -2.631504e-10
-6.913229e-09 -1.481531e-08 6.551152e-09 5.843807e-10 -2.799992e-11 -6.284184e-11
-3.011918e-09 -1.939076e-08 6.504180e-09 6.086306e-09 5.119918e-10 7.879280e-10
3.709927e-09 -2.735809e-08 6.458492e-09 4.205899e-09 8.027147e-11 -1.016833e-10
-4.119785e-09 3.340251e-09 3.559162e-10 -4.076691e-09 -2.527221e-10 1.928890e-10
-7.325159e-09 3.498417e-09 1.317355e-09 6.039613e-11 -4.734879e-11 6.927436e-11
-3.098489e-09 2.903580e-09 5.377654e-11 -4.049978e-09 6.152318e-11 4.924727e-11
5.559893e-08 -2.129857e-08 1.393146e-08 1.732939e-08 4.915785e-09 1.829777e-08
4.180336e-08 -1.455344e-08 -1.772649e-09 -9.529429e-09 8.308300e-10 1.909909e-09
4.996118e-08 -2.128260e-08 1.457275e-09 4.080159e-09 -3.922940e-11 -8.736927e-10
4.901549e-08 -2.639518e-08 9.109841e-09 2.045328e-09 1.203548e-09 2.902403e-09
-5.759717e-09 -3.502066e-09 3.324596e-09 2.296034e-10 6.912426e-11 -7.357621e-10
5.038329e-08 -1.937954e-08 1.321052e-08 2.062578e-08 2.494094e-09 8.595866e-09
-5.903361e-09 -4.680117e-09 3.298204e-09 -1.081492e-09 3.038876e-10 -3.424510e-10
-7.361274e-09 1.956845e-09 1.658341e-09 4.721435e-10 2.841260e-10 -2.950406e-10
3.192863e-09 -1.421484e-09 -5.647247e-10 1.315184e-09 -2.592038e-11 4.411299e-11
-7.092808e-09 -3.794476e-11 2.208216e-09 3.302745e-10 2.718687e-10 -8.068379e-10
-7.249938e-09 6.286527e-10 2.137952e-09 -1.911404e-10 4.095052e-10 -4.516594e-10
-2.391953e-10 6.704388e-10 -6.741185e-11 2.869263e-09 1.403482e-10 4.317546e-11
5.159233e-10 -4.003908e-12 -2.460665e-10 2.421847e-09 -2.403056e-11 -3.762286e-10
8.496209e-09 -3.119467e-08 5.903588e-09 -1.550408e-10 2.420855e-10 -8.497548e-10
-2.463255e-10 1.667617e-10 -1.037836e-10 2.184988e-09 3.031091e-10 3.866342e-10
2.312573e-09 -1.386182e-09 -4.533911e-10 1.339951e-09 1.561775e-10 -1.712284e-10
-1.188708e-09 -1.229736e-08 4.550915e-09 -2.074540e-09 -5.430624e-10 -8.512674e-10
1.725738e-09 -3.200207e-10 -2.791973e-10 2.160510e-09 2.586155e-10 -5.100553e-11
5.919237e-09 -2.612762e-08 5.540788e-09 -2.199990e-09 1.208166e-09 5.011280e-11
3.916062e-09 -1.450322e-09 -8.140226e-10 -2.833466e-09 -4.423385e-10 6.093863e-10
1.475950e-08 6.629270e-09 -2.711156e-09 -1.766676e-09 5.862298e-09 3.675163e-09
-7.403242e-09 3.348949e-09 1.337987e-09 4.750293e-10 -2.235345e-11 1.087956e-10
7.660031e-09 -4.276361e-09 -1.115407e-09 -2.452299e-09 -1.024100e-10 1.755738e-10
4.838495e-09 -2.353664e-09 -7.937966e-10 -3.003918e-09 -4.046947e-10 5.095746e-11
-7.243596e-09 3.697632e-09 1.101739e-09 3.456715e-10 -4.165024e-11 2.828449e-11
-7.230489e-09 1.906319e-09 1.447471e-09 -1.085133e-11 7.728179e-11 -2.434601e-10
-7.483696e-09 2.269980e-09 1.666480e-09 2.259188e-10 5.318235e-11 -1.523870e-10
-6.880640e-09 3.187756e-09 1.009295e-09 5.707054e-10 2.350781e-11 -2.235554e-10
-7.857153e-09 2.390346e-09 1.740537e-09 2.416032e-10 -7.159962e-11 -1.164642e-10
6.485010e-09 -3.162792e-09 -9.856522e-10 -1.814940e-09 -5.058778e-10 1.839752e-10
4.392437e-09 -1.671417e-09 -8.193042e-10 -2.170323e-09 -3.335068e-10 -1.356754e-10
3.321314e-09 -1.556677e-09 -6.965206e-10 -2.943124e-09 -1.258652e-10 1.420994e-10
-7.561040e-09 3.230959e-09 1.426846e-09 1.380607e-10 -5.621525e-11 -5.261436e-11
6.672213e-09 -3.854965e-09 -1.081018e-09 -1.741499e-09 -2.317869e-10 6.129341e-11
6.812754e-09 -2.939626e-08 -5.591456e-10 -1.156796e-08 -7.520632e-09 -1.949936e-09
-9.169399e-09 4.922356e-10 2.268203e-09 4.208851e-10 -9.169252e-10 -7.093042e-10
-9.181750e-09 8.153664e-10 2.163446e-09 4.286676e-10 7.136236e-11 -8.835319e-10
-9.922834e-09 -5.537462e-09 1.464979e-09 -1.781687e-09 -1.202441e-09 -5.269032e-10
5.788685e-09 -2.528301e-08 -9.557107e-09 -1.509220e-08 -1.459476e-08 -4.821122e-09
-8.491152e-09 2.953053e-09 1.272986e-09 -1.334742e-09 -8.940637e-10 -4.421006e-10
-8.789605e-09 3.124526e-09 1.680278e-09 -8.555440e-10 -5.393161e-10 -6.803895e-10
-2.505724e-09 -1.765049e-08 8.811889e-10 -1.348470e-08 -8.856104e-09 -2.236276e-09
-6.455936e-09 -2.679411e-09 -4.595582e-09 -9.839853e-09 -6.453486e-09 -1.815709e-09
1.673376e-09 -6.947731e-10 -3.964713e-10 1.147804e-09 4.318672e-10 -1.316414e-10
-3.209906e-10 -1.904368e-08 4.412435e-09 -6.742083e-09 -4.339116e-09 -1.263622e-10
-1.144997e-08 -5.928071e-09 2.824872e-09 -6.231107e-09 -2.672327e-09 -3.537122e-10
-4.958802e-09 3.511671e-09 4.471299e-10 -1.702374e-09 -1.596292e-10 3.278466e-11
3.408067e-09 -1.741159e-09 -4.514078e-10 1.398934e-10 3.025269e-10 2.075229e-11
-2.805049e-09 2.577845e-09 1.787126e-10 -1.050704e-09 -1.615201e-10 -2.566647e-11
4.086529e-09 1.116589e-08 -3.820055e-09 -1.076061e-08 2.232500e-09 -1.482996e-09
-4.128840e-09 3.201557e-09 2.500746e-10 -1.132886e-10 -1.446744e-10 -4.755593e-10
-5.549229e-09 4.132000e-09 4.584919e-10 -7.835328e-10 -6.611900e-11 2.443490e-10
-2.596955e-09 1.692709e-09 2.025344e-10 7.367291e-10 3.361119e-10 -5.819561e-11
-3.952007e-09 3.094299e-09 4.455618e-10 -8.220757e-10 -1.296401e-10 -3.517093e-10
-5.874988e-09 4.335305e-09 5.605796e-10 -2.250582e-10 -2.352918e-11 1.342517e-10
-6.242701e-09 4.547477e-09 6.089431e-10 -6.726086e-11 -1.275018e-10 2.148681e-11
9.717356e-10 1.365452e-10 -2.658469e-10 3.069079e-09 3.076038e-10 -4.792681e-10
6.381854e-09 -3.443325e-09 -9.712133e-10 1.171855e-09 -8.491008e-11 2.107448e-11
-6.054665e-09 4.616929e-09 5.826517e-10 -2.387027e-10 -9.142231e-11 -4.836367e-11
2.781397e-09 -1.192907e-09 -3.681588e-10 2.266599e-09 3.383092e-10 4.860892e-10
-6.866724e-09 4.920690e-09 6.783876e-10 -1.637011e-10 5.485834e-12 -1.319640e-10
-1.338168e-08 -2.615503e-10 -4.258061e-11 1.520660e-08 4.062263e-09 -1.234171e-09
-1.657986e-08 1.777430e-09 2.533354e-09 7.575381e-09 3.423733e-09 -1.007743e-09
-1.561839e-08 -2.834457e-09 3.951831e-09 7.694806e-09 1.820510e-09 -7.627903e-10
-1.020244e-08 -3.145009e-09 2.400108e-09 1.294141e-08 2.666061e-09 -4.688982e-10
-8.163927e-10 4.586730e-09 3.504108e-09 1.223740e-08 -1.838050e-10 -3.752098e-10
4.320114e-09 1.440272e-09 3.269118e-09 1.174727e-08 -4.049698e-10 -1.638806e-09
1.169640e-08 -1.603750e-09 9.279329e-09 1.434142e-08 -2.275593e-10 -3.068833e-09
7.953238e-09 -1.589639e-09 5.656101e-09 1.314153e-08 1.056009e-09 6.263576e-10
-8.371265e-09 -2.231060e-10 2.338759e-09 7.323473e-10 -2.020294e-10 -1.179455e-09
-9.115091e-09 2.047085e-09 1.982636e-09 -4.366352e-10 1.741113e-11 -4.798218e-10
-8.811551e-09 1.613842e-09 1.954098e-09 -2.718421e-10 -2.940173e-10 -8.663186e-10
-4.799921e-09 -7.824082e-09 4.065930e-09 -2.948111e-09 -8.459826e-10 -1.984799e-10
-3.988984e-09 -7.239169e-09 3.641913e-09 1.442086e-10 8.102052e-11 -1.103428e-09
1.901469e-09 4.573721e-09 3.658765e-09 1.264919e-08 -6.967309e-10 -2.829567e-09
-6.373357e-09 -3.143549e-09 2.584095e-09 -2.669878e-09 -1.372452e-10 -6.560362e-10
1.029964e-08 -1.645277e-09 5.810854e-09 1.288433e-08 -1.903641e-09 -5.384216e-09
1.556283e-08 -4.055755e-08 5.608884e-09 3.125136e-09 2.153780e-09 3.232499e-10
-1.423036e-08 6.781855e-10 1.331967e-09 -3.199922e-09 -2.926632e-09 -2.660067e-11
-9.834049e-09 -7.837586e-09 1.188063e-09 -4.964796e-09 -2.525757e-09 -1.056560e-09
-1.389961e-08 -1.299655e-09 8.223178e-11 -6.768039e-09 -3.301149e-09 -2.071106e-09
-1.500139e-08 1.186538e-08 -7.618753e-09 -5.024243e-09 -2.378424e-09 -1.214010e-09
-2.974698e-09 2.677705e-09 1.550249e-10 -8.454719e-10 -2.992729e-10 3.727785e-11
-1.464078e-08 5.187199e-09 -2.529564e-09 -3.914268e-09 -1.044643e-09 -5.714998e-10
-1.049477e-08 -3.090840e-09 -6.880638e-10 -4.823284e-09 -2.097447e-09 -6.801867e-10
-1.024445e-08 -4.505354e-09 -1.042250e-09 -4.314342e-09 2.579247e-10 1.735232e-10
-1.457116e-08 -2.481740e-10 1.780064e-09 -9.283914e-10 -3.460527e-10 -2.233577e-10
-1.626876e-08 3.362207e-09 2.781773e-09 -7.056324e-10 -1.938213e-09 -2.406280e-10
-4.787841e-09 -1.307504e-08 -2.145964e-09 -5.995838e-09 -2.128224e-10 2.260914e-10
2.053568e-08 -8.153168e-10 -7.226519e-09 9.368844e-09 -2.093697e-09 -4.567926e-10
-1.597795e-08 8.220494e-09 -1.806876e-09 -4.672424e-09 -2.895281e-09 -1.041147e-09
-6.926658e-09 -5.186772e-09 -1.033636e-08 -1.689814e-08 -3.783526e-09 -3.132136e-09
-1.294514e-08 -4.198597e-09 9.338461e-10 -1.298723e-08 -8.494957e-09 -2.667941e-09
-1.629307e-08 4.861837e-09 8.405960e-10 -1.906172e-09 -1.802005e-09 -3.289942e-10
-1.428515e-08 3.770348e-09 -3.801276e-09 -1.131891e-08 -1.028913e-08 -3.776537e-09
-1.555635e-09 1.668949e-09 -3.823675e-11 -2.372465e-09 -4.282340e-10 3.936720e-10
-1.504531e-08 1.556089e-09 3.191947e-09 -4.350031e-10 -6.655057e-10 -8.152279e-11
-9.559956e-09 -1.194955e-08 9.338466e-10 -1.656267e-08 -7.876957e-09 -3.533111e-09
5.709468e-10 2.129261e-10 -3.401439e-10 -1.529637e-09 -1.896744e-10 -6.609500e-10
-2.670071e-09 2.633000e-09 6.267875e-11 -2.008233e-09 -3.076666e-10 1.660705e-10
-2.227857e-09 1.643470e-09 3.208211e-11 -1.646890e-09 -2.812255e-10 1.105883e-10
-1.687182e-08 4.260169e-09 2.523252e-09 -1.093876e-09 -2.091889e-09 -6.427707e-10
-4.279332e-09 -1.501332e-08 2.826472e-09 -2.453351e-09 -1.339323e-09 -3.728418e-10
-3.899205e-09 -1.115673e-08 5.912597e-10 -6.474226e-10 -6.550867e-10 -2.502587e-10
-6.572149e-09 -1.161457e-08 -1.761659e-10 -1.470115e-08 -8.786113e-09 -4.386352e-09
-7.593419e-10 9.437162e-10 -2.007652e-10 -2.766434e-09 -5.227672e-10 1.182336e-10
-3.467244e-09 2.126270e-09 4.846636e-10 2.066284e-09 1.973353e-10 4.528178e-11
-4.016464e-09 2.435144e-09 4.950573e-10 3.978496e-10 1.096772e-10 -2.332672e-12
2.988522e-08 -6.214214e-09 -1.754828e-09 -9.381405e-09 -6.925686e-10 1.285745e-10
4.948362e-10 -6.133938e-11 -1.847003e-10 2.688316e-11 3.750221e-10 -3.432088e-12
-3.168908e-09 1.933762e-09 3.018026e-10 1.181736e-09 2.560958e-10 2.793730e-10
-3.889777e-09 2.237412e-09 5.025331e-10 1.383673e-09 2.427092e-10 -2.883657e-10
-1.548404e-08 9.333760e-09 -2.334072e-09 -7.803921e-09 -8.961435e-09 -3.829987e-09
1.746737e-09 -8.122929e-10 -3.087219e-10 2.375596e-09 1.912921e-10 1.373253e-10
-1.526020e-08 6.824841e-09 -2.135844e-09 -5.380748e-09 -4.800481e-09 -5.105136e-10
-1.518898e-08 6.793490e-09 -1.652350e-09 -1.255385e-08 -9.984516e-09 -5.114721e-09
4.348803e-08 -1.636726e-08 -2.944000e-09 -9.870238e-11 -5.081310e-10 1.547188e-09
-6.422134e-10 5.537526e-10 -5.032996e-11 6.813661e-12 2.050073e-10 -4.094503e-13
-1.319495e-08 1.155979e-08 -2.026575e-09 2.372484e-09 4.450820e-09 -8.121788e-10
-1.690535e-08 5.796347e-09 -1.085701e-09 7.927755e-09 -4.319770e-10 -2.050111e-10
-5.146019e-09 3.863420e-09 5.770007e-10 -2.056848e-09 6.805578e-11 -1.097717e-10
-5.735822e-09 3.921738e-09 6.300613e-10 -2.017079e-09 -1.568412e-11 3.671619e-11
-1.149536e-08 -1.194277e-08 3.017710e-09 1.673991e-08 5.489255e-09 -8.027847e-10
-1.308610e-08 -4.872384e-09 1.686442e-09 1.039475e-08 2.089179e-09 -1.225360e-09
-4.691879e-09 3.363386e-09 2.102194e-10 -1.753000e-09 1.108816e-11 -6.296892e-10
-4.028356e-09 2.994843e-09 2.612179e-10 -1.792054e-09 -2.622653e-10 -4.429229e-11
1.414346e-08 -3.761014e-08 -5.822106e-09 5.109852e-09 -4.432306e-09 2.658171e-09
4.686656e-09 -3.212212e-08 -3.066718e-09 1.277947e-08 -9.553579e-09 3.052141e-09
-1.132216e-08 -6.540318e-09 3.373948e-09 6.805699e-09 -1.824949e-10 -6.509815e-11
2.724214e-09 1.272364e-08 -5.917368e-09 -3.984636e-09 3.451123e-09 -2.427219e-09
-1.188685e-08 -9.610961e-09 2.959942e-09 9.116136e-09 6.532820e-10 -3.602527e-10
1.472506e-08 -4.285038e-08 -3.377907e-09 9.874428e-09 -1.269894e-08 2.651815e-09
1.473601e-08 -4.160721e-08 -7.285654e-09 9.997572e-09 -1.381099e-08 2.619948e-09
-1.150534e-08 -8.128496e-09 5.145388e-09 2.769983e-09 1.613426e-09 9.590689e-11
1.348485e-08 -3.728398e-08 -7.139664e-10 5.797182e-09 -5.868852e-09 1.500524e-09
-1.696001e-08 1.222459e-08 -8.016572e-09 1.482159e-08 9.309168e-09 -5.494326e-09
-1.336277e-08 -3.435631e-09 3.970942e-09 1.467607e-08 4.102645e-09 -1.183797e-09
9.905753e-09 -3.233643e-08 3.749783e-09 9.200346e-09 -6.658188e-09 6.680795e-10
-1.336944e-08 -1.406377e-10 2.003909e-09 1.514006e-08 5.476156e-09 -1.417992e-09
1.212598e-08 -2.806256e-08 -6.491586e-09 8.378687e-09 -4.431972e-09 1.172148e-09
1.403111e-08 -3.347737e-08 -1.209065e-08 1.294357e-08 -1.543102e-08 5.047657e-09
1.193187e-08 -2.930239e-08 -3.518450e-09 1.051312e-08 -8.560595e-09 4.147623e-09
-3.625746e-10 -1.623107e-08 4.912767e-09 -4.500667e-09 -5.323138e-10 -9.023804e-10
-1.718041e-08 4.010924e-09 -5.198132e-09 1.778196e-08 8.699824e-09 -3.717694e-09
-8.316348e-09 4.066791e-11 1.845612e-09 3.479908e-10 -1.700820e-09 -7.277771e-10
-2.909781e-09 -9.644617e-09 3.223055e-09 -3.793287e-09 -5.202558e-10 -8.058499e-10
4.481139e-08 -1.638131e-08 -2.420321e-09 -1.059761e-09 5.272622e-10 5.914393e-10
-1.316699e-09 -1.099924e-08 4.442505e-09 -5.239061e-09 -1.010542e-09 -1.624357e-10
1.768320e-09 -1.959589e-08 4.795116e-09 -4.560252e-09 3.518208e-10 -5.123756e-10
-8.379622e-09 -1.039329e-10 2.503554e-09 -5.045971e-10 -6.768870e-10 -9.614642e-10
-9.004425e-09 2.412461e-10 2.202305e-09 3.805891e-11 -8.927461e-10 -6.995030e-10
1.581975e-08 -4.158842e-08 3.744115e-09 1.389765e-09 1.646891e-09 -1.625303e-10
8.830261e-10 -1.978709e-08 3.753686e-09 1.316917e-09 -1.424214e-09 -2.476944e-10
2.263996e-08 -5.089996e-08 5.610521e-10 6.547442e-10 -1.744136e-09 7.093537e-11
2.144763e-08 -4.489251e-08 -7.386870e-09 5.649813e-09 -9.227316e-09 1.861446e-09
-8.314298e-09 -1.787436e-09 2.385783e-09 1.925183e-09 -1.532145e-09 -8.832425e-10
-8.901470e-09 -5.115801e-10 2.700708e-09 1.764556e-10 -3.484650e-10 -9.768388e-10
2.200577e-08 -5.162416e-08 -5.585353e-09 7.057110e-09 -1.619395e-08 5.464487e-10
1.095218e-08 -3.500449e-08 6.669103e-09 9.634804e-11 2.964513e-10 -2.218763e-10
-9.151563e-09 5.451950e-10 2.379520e-09 1.842124e-10 1.142474e-10 -1.081429e-09
1.883791e-08 -3.849447e-08 -5.762584e-09 6.729727e-09 -8.867443e-09 2.315400e-09
1.868430e-08 -3.805655e-08 -6.750783e-09 7.255576e-09 -1.204337e-08 2.844312e-09
1.471021e-08 -3.549226e-08 -6.142864e-11 8.722442e-09 -6.116001e-09 2.329890e-09
1.248466e-08 -3.516262e-08 6.660765e-10 1.557802e-08 -6.279103e-09 4.495166e-09
1.275568e-08 -3.758426e-08 6.618623e-09 1.302471e-10 6.523521e-21 2.504286e-11
1.067594e-08 -3.171865e-08 6.136490e-09 -1.305839e-09 9.615942e-11 -6.696597e-10
-1.217684e-08 1.414831e-08 -2.313652e-09 9.433597e-10 5.846331e-09 -1.310215e-09
-2.493273e-09 -1.025937e-08 3.520061e-09 -3.688538e-09 9.564176e-10 -9.160180e-10
-4.917219e-09 -4.371032e-09 3.369624e-09 -2.829235e-09 2.867949e-10 -1.014681e-09
3.343561e-08 -1.996080e-09 -8.988273e-08 2.381787e-08 4.175489e-08 -1.145141e-08
-5.459711e-09 -5.987362e-09 3.377785e-09 -2.854930e-09 -4.018696e-10 -7.912253e-10
-3.367647e-09 -7.198296e-09 3.617198e-09 -2.920963e-09 9.907464e-11 -9.057895e-10
-3.957213e-09 -8.986772e-09 3.733373e-09 -1.087860e-09 5.819840e-10 -8.098363e-10
-4.912046e-09 -4.611467e-09 3.380618e-09 -2.738977e-09 -1.060596e-11 -7.813929e-10
-4.914908e-09 -7.363004e-09 3.625659e-09 -1.990636e-09 1.273683e-10 -8.433676e-10
-7.260088e-09 1.693834e-09 1.778289e-09 7.863273e-10 1.006670e-10 -4.609731e-10
-7.412257e-09 1.419469e-09 1.888167e-09 1.598063e-10 -6.471240e-11 -4.290647e-10
-7.413820e-09 1.513971e-09 1.786939e-09 6.347938e-10 -4.537215e-11 -1.221979e-10
-6.803479e-09 4.549848e-09 7.210224e-10 -1.360820e-09 -2.093996e-10 -2.482181e-10
-5.113213e-09 4.010147e-09 4.378746e-10 -4.136840e-10 -1.122513e-10 4.067413e-12
-6.678334e-09 4.933394e-09 5.388898e-10 -1.347633e-11 -1.552485e-10 -7.356382e-11
-1.657403e-08 1.222459e-08 -8.894135e-09 1.471170e-08 2.816390e-09 -1.227626e-09
-1.695308e-09 -9.414332e-09 -1.125958e-08 2.428884e-08 5.935828e-09 -2.069956e-09
-7.455405e-09 -6.483478e-09 -4.201765e-09 1.998512e-08 3.669534e-09 -1.382189e-09
-1.065196e-08 1.288914e-08 -2.703170e-08 2.685565e-08 1.316679e-08 -1.163081e-08
-1.422851e-08 2.048019e-08 -9.679602e-09 2.517966e-09 6.741271e-10 -8.183434e-10
-8.783943e-09 -1.270289e-08 6.183628e-09 1.312858e-09 1.150364e-09 -4.646432e-10
-1.735855e-08 8.820109e-09 -3.213832e-09 9.918252e-09 2.949627e-09 -1.559808e-09
-7.470743e-09 1.786923e-09 1.851920e-09 2.377062e-10 7.128520e-11 -3.872887e-10
9.080381e-09 8.392288e-09 -5.665795e-09 -3.933033e-09 6.389176e-10 2.399128e-09
-7.466363e-09 2.167602e-09 1.682808e-09 4.221555e-10 8.922907e-11 -1.990071e-10
-7.323221e-09 1.855957e-09 1.921987e-09 5.320819e-10 1.983296e-10 -4.151006e-10
-1.658096e-08 9.734849e-09 -1.778363e-09 7.066599e-09 7.316564e-09 -1.690759e-09
-1.551868e-08 1.142748e-08 -8.644820e-10 1.125444e-09 4.849958e-09 -4.386136e-10
1.211638e-08 6.887593e-09 -5.811962e-09 4.396479e-10 -3.897016e-09 -7.955763e-10
5.726163e-09 -2.831426e-08 6.163345e-09 1.061275e-08 1.224361e-09 -4.616767e-10
6.831583e-09 1.128552e-08 -8.318150e-09 6.643613e-09 -5.004454e-09 -2.913560e-09
9.715987e-09 -3.712682e-08 7.020502e-09 5.279165e-09 3.161146e-10 2.076001e-10
6.778939e-09 -3.171658e-08 7.444079e-09 3.375038e-09 2.471721e-10 7.480679e-10
8.514721e-09 -3.406884e-08 6.243820e-09 8.097744e-09 1.530940e-09 6.176477e-10
4.445342e-08 -1.213838e-08 -6.403750e-09 1.578903e-09 -3.349634e-10 1.403412e-09
5.847488e-09 -3.140841e-08 6.658316e-09 7.937857e-09 1.723091e-10 6.939072e-11
-6.654604e-09 -1.413180e-08 6.301371e-09 2.786504e-09 -1.046987e-11 1.202336e-10
-8.558803e-09 -1.081822e-08 4.413559e-09 8.010329e-09 1.297640e-09 -2.577156e-10
-7.260973e-09 5.182692e-09 7.052676e-10 -5.308554e-11 -1.845257e-11 -1.006782e-10
-6.568946e-09 4.805194e-09 6.369261e-10 -7.873702e-11 -2.584821e-12 -5.582557e-11
-7.325133e-09 5.227353e-09 6.693783e-10 -1.399205e-10 -3.186074e-11 -1.672373e-10
-7.353021e-09 5.081480e-09 7.643335e-10 0.000000e+00 2.028866e-11 -9.967582e-11
-4.766305e-09 3.781015e-09 3.522120e-10 -6.966099e-10 -2.914696e-10 -7.757428e-11
-3.866935e-09 3.234991e-09 2.637002e-10 -7.916423e-11 -2.778199e-10 -1.690936e-11
-1.131044e-08 -8.440514e-09 4.642626e-09 8.037367e-09 2.105182e-09 2.092414e-10
-9.325126e-09 -1.103187e-08 5.845625e-09 1.633074e-09 5.375215e-10 2.302580e-13
-4.669316e-09 -1.703409e-08 6.335619e-09 2.498787e-09 3.660524e-10 -3.451228e-11
-6.124465e-09 4.261660e-09 5.528578e-10 -5.604006e-10 -9.164969e-11 -7.132756e-11
-5.391557e-09 -1.761931e-08 6.576378e-09 3.513488e-09 2.735081e-10 3.904654e-11
-5.110572e-09 3.753192e-09 4.387810e-10 -2.122161e-09 -2.821641e-10 8.903822e-11
-2.585088e-09 2.677977e-09 8.040413e-11 -9.957382e-10 -2.963112e-10 -3.901108e-10
4.613492e-09 -2.185500e-09 -8.649192e-10 -8.850476e-10 -3.250888e-11 3.842495e-10
-7.200441e-09 -1.321151e-08 6.635236e-09 2.609647e-09 5.462078e-10 -2.751733e-11
-6.923415e-09 -1.426637e-08 6.568759e-09 9.724448e-10 2.552570e-10 2.726290e-10
-7.282898e-09 -1.438465e-08 6.416339e-09 1.288379e-09 4.248104e-10 2.926964e-11
-8.606559e-09 -9.547705e-10 2.076427e-09 9.778822e-10 -1.267954e-09 -1.066865e-10
-8.436703e-09 -2.028978e-09 5.573570e-10 1.755622e-09 -1.516648e-09 6.056226e-12
-7.576367e-09 -3.706958e-09 2.359420e-09 9.832292e-10 -5.645904e-10 -5.215309e-10
-7.785024e-09 -3.026340e-09 2.311816e-09 1.001200e-09 -5.869836e-10 -6.226686e-10
9.938578e-09 -5.454199e-09 -1.354359e-09 -6.252814e-11 -2.944101e-11 -3.144485e-10
9.303788e-09 -5.081222e-09 -1.349901e-09 -1.518354e-10 5.723844e-11 -1.738165e-20
-9.004633e-09 4.244214e-10 1.576770e-09 2.198719e-10 -1.263928e-09 -4.387771e-10
9.603151e-09 -5.515744e-09 -1.344609e-09 -3.072461e-10 -2.761491e-11 1.493476e-10
-8.704487e-09 1.089981e-10 2.015085e-09 1.458517e-12 -4.739017e-10 -7.277537e-10
9.198529e-09 -5.184955e-09 -1.338712e-09 -6.724503e-10 -1.029392e-10 -8.725281e-11
8.373243e-09 -4.774205e-09 -1.076984e-09 -8.993771e-10 -3.223797e-10 1.082328e-10
7.560081e-09 -3.981174e-09 -1.112101e-09 -2.191853e-10 1.174391e-10 -4.441407e-16
1.205770e-08 -3.536607e-08 2.268858e-09 1.271534e-08 1.445867e-09 -1.321633e-09
1.631076e-08 -3.745721e-08 -7.757009e-10 1.123966e-08 3.094721e-09 -1.534352e-10
1.047771e-08 -5.431363e-09 -1.298051e-09 -1.443138e-09 1.688982e-11 -1.241731e-10
1.006458e-08 -5.944213e-09 -1.349671e-09 -4.664602e-10 1.720102e-11 3.620482e-11
-7.993135e-09 4.760652e-09 1.035277e-09 -9.770017e-10 2.831069e-11 9.301999e-11
-8.681959e-09 4.501860e-09 1.371480e-09 -1.210425e-09 -1.757439e-11 1.304574e-10
-8.800438e-09 2.195891e-09 1.672834e-09 -1.103509e-09 -7.220879e-10 -1.106560e-09
1.191522e-08 -3.506851e-08 3.328633e-09 9.745882e-09 3.776764e-10 -4.830673e-10
5.659199e-09 -2.986910e-08 3.320510e-09 1.430024e-08 4.050745e-10 -8.197094e-10
-8.651358e-09 3.821838e-09 1.467267e-09 -2.009126e-09 -3.576225e-10 -5.525127e-10
5.739139e-09 -2.679732e-08 5.509113e-10 1.564464e-08 5.099117e-10 4.136245e-10
-8.990931e-09 3.642576e-09 1.542810e-09 -5.068390e-10 -7.158163e-11 -6.424841e-10
7.318464e-09 -3.280470e-08 3.766774e-09 1.047602e-08 1.531486e-09 -4.534888e-10
-1.702759e-08 3.294621e-09 2.221107e-09 -3.974812e-10 0.000000e+00 -3.709313e-10
6.285905e-09 -3.130004e-08 4.352712e-09 1.167938e-08 -1.595426e-10 -1.865015e-10
8.833771e-09 -3.343310e-08 2.058240e-09 1.168840e-08 2.103019e-09 -3.916649e-10
-6.255326e-09 -3.043332e-09 2.583280e-09 -1.019922e-09 3.049767e-10 -5.508254e-10
-6.758717e-09 -6.181806e-10 2.250454e-09 -5.467132e-10 -2.220842e-10 -6.770817e-10
-1.350857e-08 -1.935883e-09 1.604425e-09 -6.096879e-10 3.932515e-10 4.496924e-11
-6.984829e-09 -1.910512e-10 2.331050e-09 -6.420020e-10 -2.041907e-10 -6.043432e-10
-7.011351e-09 -2.712992e-09 2.653513e-09 -2.161551e-09 -2.108134e-10 -5.938112e-10
-6.018349e-09 -2.754468e-09 3.073598e-09 -2.172693e-09 -2.921330e-10 -4.198760e-10
-1.552009e-08 5.388220e-09 5.893190e-10 -7.934383e-09 -7.221050e-09 -1.581481e-09
-6.306149e-09 -3.304356e-09 2.854576e-09 -2.034098e-09 8.713741e-11 -8.055963e-10
-7.015852e-09 7.131939e-10 2.293103e-09 -2.997736e-10 2.437874e-10 -6.390604e-10
-9.704050e-09 -5.125679e-09 1.034833e-09 -3.502498e-09 -2.459535e-09 -7.015302e-10
-8.144824e-09 -9.199514e-09 2.200823e-09 -8.702008e-09 -5.755271e-09 -1.853172e-09
-6.549755e-09 -4.428347e-10 2.646567e-09 -3.328427e-10 -2.428761e-10 -7.061443e-10
-8.318358e-09 4.806725e-09 1.177619e-09 -3.922556e-10 4.814704e-12 -1.017859e-10
-4.326846e-09 1.566229e-08 -8.635981e-09 -1.021735e-08 1.010376e-09 -4.146809e-09
-1.294792e-08 1.437711e-08 -3.452730e-09 -1.447614e-10 3.991792e-09 -7.578948e-10
8.335462e-09 8.824760e-09 -5.523705e-09 -3.157964e-09 2.992452e-09 -1.370775e-09
2.002673e-08 -4.946717e-08 3.154268e-09 -2.423338e-09 -2.648574e-09 -5.643307e-11
-7.668744e-09 -5.257823e-09 -1.554194e-09 -4.331382e-09 -4.250682e-10 -3.693774e-10
5.605811e-09 8.978594e-09 -4.742079e-09 -4.669124e-09 2.539363e-09 -2.121516e-09
-2.819406e-09 1.729184e-08 -6.536511e-09 -4.918342e-09 2.628295e-09 -1.821204e-09
-8.999885e-09 1.254587e-08 -4.020623e-09 1.650218e-09 3.079862e-09 1.285377e-09
-1.260773e-08 1.397782e-08 -4.935618e-09 2.641339e-09 1.506999e-09 6.128036e-10
-3.186063e-09 1.225579e-08 -5.737230e-09 1.873249e-09 1.625482e-09 4.695444e-10
9.370678e-09 -1.983699e-08 -2.004351e-08 -1.729252e-08 -1.353227e-08 -2.749572e-09
2.072121e-08 -4.616563e-08 -2.475751e-09 -3.640444e-10 -1.950654e-09 -6.359753e-10
-6.739469e-09 -1.066960e-09 2.514542e-09 -2.155169e-10 5.855325e-13 -3.683997e-10
9.121732e-09 -3.332655e-08 4.405469e-09 2.399207e-09 -2.000599e-10 -2.570297e-10
-5.218775e-10 -2.144590e-08 3.458830e-09 9.658580e-09 -4.232742e-09 7.617271e-10
-6.777450e-09 -9.396093e-10 2.530961e-09 -9.999219e-10 1.113911e-10 -7.440582e-10
-6.313356e-09 -3.117627e-09 2.731985e-09 1.547202e-10 5.267253e-11 -7.551344e-10
-6.853333e-09 -2.970095e-09 2.682830e-09 -1.368152e-09 -2.595234e-10 -4.984679e-10
7.065319e-09 -3.092814e-08 2.890618e-09 3.610872e-09 -1.973033e-09 2.154994e-10
1.448145e-08 -3.437434e-08 8.917311e-11 4.072655e-09 -3.573881e-09 3.377384e-10
6.596230e-09 -3.125192e-08 2.720640e-09 1.166085e-08 -9.137331e-09 2.381351e-09
-5.625956e-09 -5.360596e-09 3.377025e-09 -1.586357e-09 -1.023810e-09 -6.519591e-10
-5.171101e-09 1.176462e-09 -1.548971e-08 9.968175e-09 -4.559259e-09 2.536035e-09
-5.693622e-09 -4.776071e-09 3.203595e-09 -7.182266e-10 5.361360e-10 -6.472516e-10
1.108361e-09 7.357013e-10 -4.848677e-10 -2.697455e-09 4.576428e-11 3.209462e-10
-6.228786e-09 4.106061e-09 6.406777e-10 -2.172865e-09 -1.511199e-10 4.205858e-11
-2.829511e-09 2.303982e-09 2.102194e-10 -2.290010e-09 -2.099299e-11 2.929239e-10
6.843172e-09 -3.775698e-09 -1.035264e-09 6.407448e-10 2.894263e-11 3.479046e-10
-8.219375e-09 4.788445e-09 9.926469e-10 -1.423137e-10 -1.463385e-11 -5.672272e-10
-6.228786e-09 4.176702e-09 5.977814e-10 -1.964914e-09 -2.559675e-10 -1.790481e-10
3.966074e-09 -1.890522e-09 -6.717795e-10 4.638090e-10 1.166540e-10 3.064424e-10
-6.489959e-09 3.899777e-09 6.263701e-10 -2.156117e-09 5.283063e-11 -4.228280e-10
-7.692977e-09 4.434158e-09 9.088188e-10 -1.864487e-09 3.611245e-11 5.371185e-11
-7.563424e-09 4.913322e-09 9.329755e-10 -3.076970e-10 -5.859158e-11 -1.166747e-10
7.131492e-09 -4.108052e-09 -1.081768e-09 8.038869e-10 1.623646e-10 2.314222e-10
-7.286304e-09 4.091644e-09 8.473380e-10 -2.074752e-09 -1.987743e-10 -2.084173e-10
-5.602825e-09 4.117905e-09 4.499299e-10 -8.331045e-10 -1.493546e-10 -2.898388e-10
-6.228788e-09 3.840405e-09 5.077068e-10 -2.396047e-09 -3.423468e-10 -8.897105e-11
-7.011162e-09 4.093385e-09 8.232006e-10 -2.260412e-09 -1.409157e-10 -2.290355e-10
-7.791110e-09 4.204288e-09 1.115950e-09 -1.272359e-09 -1.705704e-10 -1.585529e-10
5.977287e-09 -3.150490e-09 -8.825536e-10 6.195575e-10 3.204514e-11 -3.264298e-10
-6.631561e-09 4.679997e-09 5.520584e-10 -5.308766e-10 -2.427154e-10 -1.763208e-10
-6.242697e-09 4.560830e-09 4.959850e-10 -7.317258e-11 6.925549e-11 2.316813e-11
5.651504e-09 -2.820158e-09 -8.765193e-10 1.492406e-09 9.873111e-11 3.869687e-10
6.677310e-09 -3.541293e-09 -8.912657e-10 1.743639e-09 2.101122e-10 1.157027e-10
-6.899653e-09 2.050355e-09 1.594109e-09 3.269047e-10 9.935852e-11 6.924861e-11
-6.420013e-09 3.033140e-09 1.167709e-09 6.974470e-10 1.897463e-10 -3.068258e-10
-7.378817e-09 1.367811e-09 1.924195e-09 1.958510e-10 -1.181322e-11 -4.321346e-10
7.099507e-09 -4.002947e-09 -9.479129e-10 1.945234e-09 -9.673530e-11 -3.501275e-10
-7.570263e-09 1.769333e-09 1.875927e-09 3.667289e-10 1.167577e-11 1.793268e-10
1.063165e-08 -4.670507e-09 -1.140346e-09 -4.847558e-09 -2.022456e-10 2.315924e-10
8.662338e-09 -3.594326e-09 -1.113717e-09 -7.174162e-09 -4.445580e-10 7.951124e-10
7.133668e-09 -4.172616e-09 -1.065879e-09 1.361834e-09 6.573053e-11 4.854748e-10
9.669052e-09 -5.556782e-09 -1.285088e-09 -1.785462e-10 -6.842049e-11 2.834694e-11
6.925538e-09 -2.660536e-09 -1.050652e-09 -5.744505e-09 -3.944596e-10 3.133046e-10
3.051927e-09 -1.220576e-09 -5.036829e-10 -8.025793e-10 -1.439850e-10 1.761793e-10
1.570749e-09 1.804952e-09 -7.844054e-10 -8.931648e-09 1.450242e-10 -4.879215e-10
3.145990e-09 -5.531255e-10 -8.760690e-10 -6.037800e-09 -4.006997e-10 2.558382e-10
-1.376164e-08 1.229637e-09 2.265087e-09 -1.966082e-09 -9.280231e-10 2.797904e-10
-1.530971e-08 1.537680e-09 2.312583e-09 -5.764220e-10 -1.052795e-09 -1.288456e-10
-1.234034e-08 -4.548776e-09 2.081771e-09 -4.556798e-09 -1.105315e-09 -1.263865e-09
7.040329e-09 -3.662561e-09 -1.089625e-09 -3.916514e-09 -2.964993e-10 5.977090e-10
4.591314e-09 -2.466038e-09 -8.044210e-10 -1.760027e-09 1.589040e-11 6.559719e-11
7.342071e-09 -3.053077e-09 -1.126814e-09 -4.827458e-09 -1.613838e-10 3.142810e-10
7.483262e-09 -3.662561e-09 -1.187616e-09 -3.631884e-09 -1.662368e-10 5.858114e-11
1.157187e-08 -6.496493e-09 -1.210758e-09 1.155606e-09 1.757827e-10 5.035992e-10
-1.568111e-08 1.556087e-09 2.754263e-09 -2.695213e-10 -4.502188e-10 2.528665e-10
1.202707e-08 -5.668980e-09 -6.976855e-10 3.926240e-09 1.028348e-10 7.820034e-11
-1.622145e-08 3.287816e-09 2.854885e-09 -6.446057e-10 -2.029943e-09 -3.071644e-11
1.149964e-08 -6.577374e-09 -6.527880e-10 3.191281e-09 -1.667511e-10 -2.315306e-10
-2.039596e-09 1.448688e-09 3.374860e-10 4.140479e-09 1.644989e-10 7.067991e-11
1.572450e-09 -3.445141e-10 -2.390843e-10 4.379842e-09 -1.931837e-10 -4.901135e-10
-1.874197e-09 1.175732e-09 1.537863e-10 1.876219e-09 3.118079e-10 1.845449e-10
-2.723903e-09 1.183743e-09 2.819585e-10 1.650346e-09 3.525401e-10 -2.090839e-10
2.878551e-09 4.738347e-09 2.246107e-09 1.314175e-08 2.558358e-10 1.725352e-10
-1.425468e-09 1.168256e-09 1.699871e-10 2.501440e-09 1.396014e-10 -6.494627e-11
-6.690204e-10 6.977956e-10 2.739431e-11 2.030307e-09 1.489682e-10 -9.566992e-11
1.987272e-09 -2.129455e-08 3.874973e-09 -8.450641e-09 2.285519e-11 -3.145813e-10
-6.883880e-10 6.936416e-10 -4.361289e-11 2.051966e-09 4.604683e-10 -4.368561e-11
1.143476e-08 -3.595456e-08 4.943811e-09 -2.420264e-09 3.274654e-10 1.518627e-10
-8.153052e-09 -4.089098e-09 2.107353e-09 -7.196400e-09 2.421772e-10 3.140368e-10
1.204730e-09 -2.027309e-08 4.779211e-09 -6.558611e-09 -1.037426e-10 -3.198969e-10
-7.269814e-09 -1.033790e-09 2.388365e-09 -1.463517e-09 -2.632456e-10 -3.457029e-10
1.339156e-08 -3.824363e-08 6.523025e-09 3.216325e-10 2.645386e-10 -1.126884e-10
1.334087e-08 -3.841245e-08 6.508387e-09 4.144102e-10 1.645548e-10 -6.140410e-11
-2.010049e-09 -1.498654e-08 -3.284502e-10 -1.518958e-08 2.075719e-09 4.584937e-11
-5.106204e-09 -9.444591e-09 3.370491e-09 -8.266230e-09 -5.014697e-10 -3.998925e-10
2.531396e-09 -1.892772e-08 2.223099e-09 -1.255111e-08 1.905665e-09 -4.806260e-10
2.479921e-09 -1.619196e-08 -9.960664e-09 -1.875015e-08 2.969729e-09 6.357528e-10
8.179769e-09 -2.703796e-08 3.761779e-09 -8.735627e-09 1.160009e-09 -4.408683e-10
-1.044548e-08 8.245403e-09 -5.999625e-09 -1.151450e-08 8.589054e-10 7.578824e-10
1.662984e-08 3.966252e-08 -9.981084e-08 -8.141953e-09 -4.372336e-08 1.668139e-09
1.268386e-08 -3.835063e-08 7.233181e-09 4.074847e-10 3.329845e-10 -2.614844e-10
1.250509e-08 -3.715324e-08 6.820183e-09 -5.176486e-10 7.118741e-10 -3.632596e-10
1.815679e-08 6.484110e-08 -9.778423e-08 -1.345636e-08 -2.297567e-08 -1.023342e-09
-9.985723e-09 8.065234e-08 -6.950052e-08 -1.585094e-09 -4.623070e-09 -5.083958e-09
4.967585e-08 -8.397234e-09 -9.250426e-09 -4.539091e-09 1.187699e-09 4.907605e-09
2.739581e-08 -3.535679e-08 -2.718292e-08 -1.196274e-10 -9.675053e-09 -9.902435e-10
2.676183e-08 3.376606e-08 -9.053197e-08 -8.724845e-09 -1.157407e-08 1.312715e-09
3.976729e-09 8.207304e-08 -6.575891e-08 -1.740502e-08 -2.323563e-08 -2.090020e-09
2.851020e-08 -1.740824e-08 -4.786142e-08 -8.667037e-10 -8.208737e-09 1.316144e-09
8.748936e-09 8.938878e-09 -5.867957e-09 -5.101513e-09 2.323767e-09 -3.877960e-09
2.382582e-08 -1.948371e-08 -3.703707e-08 -1.238373e-08 -2.617406e-09 -9.619204e-10
-3.168707e-09 -1.436971e-08 2.664358e-09 4.264923e-09 -2.946946e-09 3.839876e-10
-7.040581e-09 -7.076188e-10 -9.014300e-09 7.660158e-09 -1.564511e-09 1.165445e-09
-4.469815e-09 -1.035856e-08 -2.760464e-09 7.605374e-09 -2.868998e-09 1.114039e-09
-9.005243e-09 3.043562e-08 -4.831278e-08 9.037745e-10 -1.453705e-08 1.972011e-08
-5.847796e-09 -6.412334e-09 1.691512e-09 1.123272e-09 -9.954286e-10 -6.128365e-11
-6.967561e-09 1.050192e-08 -3.446629e-08 1.005982e-08 -1.421354e-08 1.316828e-08
1.967566e-08 2.504139e-08 -7.222289e-08 6.892906e-09 -2.888007e-08 1.779079e-08
-8.081644e-09 -2.646420e-09 1.634514e-09 1.432346e-09 -1.238869e-09 -4.357938e-10
-9.019219e-09 -6.545804e-10 -9.952235e-10 3.058448e-09 -1.571886e-09 8.235895e-10
-4.802934e-09 -5.039846e-09 -3.411659e-09 4.894195e-09 -1.790625e-09 4.857451e-10
-3.280360e-09 -9.789158e-09 5.630332e-10 2.891361e-09 -7.848434e-11 -5.411687e-10
-7.892740e-09 -1.740299e-09 -2.446081e-09 3.506343e-09 -5.647660e-10 -1.110774e-10
-3.774188e-08 1.859683e-09 1.743064e-07 -1.955802e-08 1.592631e-09 -2.959006e-08
-1.017327e-08 6.489454e-09 -4.314671e-09 3.375713e-11 -2.316388e-09 1.103944e-09
1.387430e-08 1.078226e-08 -5.380553e-08 1.216675e-08 -2.341964e-08 1.426657e-08
-3.358834e-08 3.377941e-08 6.512961e-08 -3.898264e-08 1.667154e-08 -8.904921e-09
-3.205355e-08 -4.778092e-09 1.812282e-07 -3.209778e-08 1.126379e-08 -5.873251e-08
2.496506e-08 -4.087029e-08 -2.500807e-08 2.008884e-09 5.844938e-09 -3.314707e-10
1.243733e-08 -3.737390e-08 6.930986e-09 1.870727e-09 5.680733e-10 -9.969226e-11
1.669069e-08 -3.397134e-08 -1.412063e-08 1.652100e-08 7.413909e-09 -1.365892e-09
1.440722e-08 -4.059668e-08 3.748879e-09 1.755558e-09 -3.754143e-10 4.231282e-10
2.152763e-08 -4.119030e-08 -8.770784e-09 7.867791e-09 3.797175e-09 -2.853012e-10
2.886733e-09 -2.978500e-08 7.188624e-09 2.475770e-09 2.933818e-10 2.291691e-10
2.095041e-08 -3.785494e-08 -1.355597e-08 1.710700e-08 7.923576e-09 -3.099927e-09
6.303151e-09 -3.211152e-08 2.456682e-09 1.230586e-08 3.026798e-09 -7.949898e-10
-2.600919e-08 -1.652448e-08 1.520036e-07 -3.610617e-08 3.004585e-08 -5.476938e-08
-1.795873e-08 -5.585182e-09 1.304300e-07 -4.589097e-08 1.704917e-09 -3.758388e-08
-9.801976e-09 8.501422e-09 -3.944179e-09 -5.120646e-09 -1.929325e-09 1.325901e-09
-4.640650e-08 -4.344469e-08 2.567506e-07 -1.563844e-08 5.958983e-10 -4.411698e-08
-6.019198e-09 -6.259315e-09 2.371718e-09 1.591399e-09 -6.642775e-11 -3.938338e-11
-9.640361e-09 5.929219e-09 -1.871533e-09 -2.791682e-09 -1.402414e-09 3.091032e-10
-2.986061e-08 2.733925e-08 1.567683e-07 -3.799508e-08 7.552553e-08 -1.924435e-08
-6.035102e-09 8.706296e-09 -3.787459e-09 -8.775687e-09 -1.038748e-09 8.677979e-10
-1.273261e-09 1.797788e-09 -8.784840e-11 -1.188020e-09 -9.656281e-11 1.500629e-10
-1.000074e-08 3.113156e-09 -1.984779e-09 3.136973e-10 -1.485750e-09 1.113713e-09
3.343993e-08 -5.941822e-09 -6.709558e-09 5.874491e-10 2.661335e-09 1.181247e-09
-2.997258e-09 2.555819e-09 4.825096e-11 -1.563698e-09 -2.426350e-10 -1.199242e-10
-3.821119e-09 2.954621e-09 4.154410e-11 -1.776490e-09 -2.215893e-10 -4.554879e-11
-7.474646e-09 5.222992e-09 -8.343588e-10 -5.650569e-09 -5.639601e-10 1.074221e-10
-6.193751e-09 4.465561e-09 5.449281e-10 -1.151982e-09 -2.099271e-10 -1.966809e-10
-3.194105e-09 2.246145e-09 8.563683e-11 -2.432591e-09 -4.710634e-10 -1.471743e-10
-4.915957e-08 -1.195865e-08 2.488006e-07 5.005282e-09 1.039238e-09 -1.947293e-08
-9.674117e-09 1.054646e-07 -8.105337e-08 -5.853403e-09 1.936784e-08 -8.418820e-09
-1.653569e-08 7.057456e-08 -5.997296e-08 9.523985e-09 1.671627e-08 -2.291038e-08
-7.821281e-10 -2.386840e-08 7.398780e-09 4.475115e-09 -6.022670e-10 5.850640e-10
-2.795510e-09 -1.721191e-08 6.542247e-09 5.379135e-09 1.706962e-09 4.900544e-10
-1.269744e-08 4.232248e-08 -4.669711e-09 -2.388804e-08 1.494790e-09 -3.288787e-09
-4.777478e-09 -1.933359e-08 7.128992e-09 2.366845e-09 -2.267174e-11 3.193645e-10
-7.731329e-09 -1.388980e-08 5.897906e-09 4.993239e-09 1.053222e-09 -5.139520e-10
-4.151145e-09 -1.771446e-08 6.851343e-09 1.346051e-09 2.306206e-10 2.336256e-10
-2.589837e-08 7.057211e-08 -5.069518e-08 -4.155313e-09 -5.318444e-10 -1.308594e-08
2.445198e-08 5.081894e-08 -1.194119e-07 -9.619736e-09 2.779730e-08 6.708614e-09
2.514188e-08 -2.582422e-08 -4.714467e-08 -2.032035e-08 2.424552e-08 5.994847e-09
-8.363090e-10 -2.342949e-08 7.004440e-09 4.527687e-09 6.707239e-10 2.403991e-10
1.312439e-08 -3.460190e-08 -1.018970e-09 -7.965343e-09 2.630322e-09 2.253176e-10
1.396554e-08 -3.484070e-08 3.652536e-10 -9.063838e-09 3.724967e-09 4.075739e-10
1.430532e-08 -3.577657e-08 -1.584742e-09 -8.613548e-09 1.385719e-09 6.148427e-10
1.591274e-08 1.339794e-07 -9.081762e-08 -6.554022e-09 -9.255465e-09 -6.234047e-09
1.014657e-08 -2.997337e-08 -8.992012e-10 -1.283483e-08 1.152258e-09 9.113466e-11
5.866207e-09 4.450802e-08 -8.370919e-08 3.006896e-08 3.889184e-08 -2.458078e-08
3.216487e-08 2.255786e-08 -1.420629e-07 -1.537621e-08 4.757915e-08 9.041545e-09
8.316676e-09 -2.695137e-08 -2.492596e-09 -1.231462e-08 -1.303776e-09 -1.516259e-10
1.395505e-08 -3.169628e-08 -6.502130e-09 -1.587565e-08 4.665599e-09 1.371498e-09
1.193892e-08 -2.972853e-08 -5.485944e-09 -1.570229e-08 6.224020e-09 8.432476e-10
2.531536e-08 3.179756e-08 -8.044266e-08 -9.395517e-09 2.329754e-08 1.216264e-08
3.008456e-08 4.450802e-08 -1.173283e-07 2.561896e-08 5.522791e-08 -2.433929e-08
-1.393361e-08 1.015507e-07 -9.629013e-08 -1.075608e-08 -8.519207e-09 -2.401161e-08
3.760621e-08 7.202757e-08 -1.402385e-07 -7.609452e-09 5.453138e-08 -3.795857e-10
-1.815421e-09 1.691128e-08 -1.107863e-08 3.037830e-09 -1.497182e-09 -1.151050e-09
-3.852444e-08 1.268060e-07 3.784501e-08 -2.847086e-08 -7.111991e-08 -8.005429e-09
-1.131211e-08 1.223351e-08 -7.341495e-09 -1.534309e-09 -8.615450e-09 -3.263272e-09
4.528526e-08 -2.911891e-10 -1.100461e-07 -2.101950e-09 5.474164e-08 4.451018e-09
-4.433195e-09 2.250998e-09 8.934828e-10 1.925585e-09 -1.535172e-11 2.688560e-11
-1.128478e-08 1.313274e-08 -2.956627e-09 -1.707920e-09 -6.013508e-09 -3.626157e-09
-8.897233e-09 1.970607e-08 -1.247553e-08 1.777316e-09 -7.250685e-09 -9.944755e-09
-6.467554e-10 2.873647e-08 -3.079060e-08 -2.754494e-08 -1.062178e-08 1.246332e-08
4.804194e-09 1.899657e-08 4.852257e-09 -2.746504e-08 4.649206e-09 -6.855186e-10
2.074204e-09 5.801063e-09 1.272921e-08 -2.608154e-08 2.028281e-09 5.342081e-10
-2.910651e-08 7.108336e-08 2.361582e-08 -4.761685e-08 2.586234e-08 -1.439140e-08
1.012280e-08 1.292090e-08 -1.282962e-08 8.206439e-09 -4.193111e-09 -5.964072e-09
3.345034e-09 1.191332e-08 -8.963551e-09 3.660995e-09 -3.957081e-09 -4.334020e-09
2.518229e-08 3.117165e-08 -8.936684e-08 -2.877862e-09 -3.936384e-08 8.849955e-09
6.330662e-09 -1.605057e-08 6.117719e-08 -2.431074e-09 3.342272e-10 -1.287164e-08
-5.336019e-09 1.712842e-08 -1.043004e-08 3.600150e-09 -1.952553e-09 -1.095487e-09
1.611798e-08 5.635454e-09 -8.153641e-09 3.610134e-10 -1.465276e-09 1.292854e-09
-1.231346e-08 1.832227e-08 -7.281008e-09 -6.793812e-10 -6.334442e-09 -3.886618e-09
-9.708453e-09 4.483541e-08 -1.476906e-08 -4.195376e-08 -1.131223e-08 2.057955e-09
9.502722e-09 -2.601235e-08 -3.916217e-09 -1.443634e-08 3.740528e-09 5.051510e-10
-8.093925e-08 1.038392e-07 1.780011e-07 1.175328e-08 -1.131626e-07 -4.282881e-08
5.587767e-09 -2.250369e-08 -4.578367e-09 -1.598990e-08 3.861099e-09 8.530570e-10
-1.037383e-07 -2.199152e-08 2.489455e-07 -1.438431e-08 3.275344e-08 -2.620751e-08
4.569252e-09 -1.928392e-08 -7.025858e-09 -1.700121e-08 3.275768e-09 6.190186e-10
-1.325874e-07 -3.656170e-08 2.907698e-07 -7.807326e-09 -1.623663e-08 -3.322000e-08
1.402184e-08 -3.033228e-08 -1.212909e-08 -1.683131e-08 2.021035e-09 1.001728e-10
2.488291e-08 -4.266610e-08 -1.841350e-08 2.859688e-09 -1.086229e-08 1.189882e-09
7.389952e-09 -1.486156e-08 -1.657449e-08 -2.016643e-08 8.433356e-10 -2.347460e-10
-4.027974e-08 4.788071e-08 3.064694e-08 2.979336e-08 1.132208e-12 -3.879603e-10
2.805059e-09 -2.669940e-09 1.047861e-07 -1.555282e-08 2.246091e-08 -6.901460e-08
-8.365358e-08 -1.073626e-08 2.408574e-07 1.655506e-08 -1.866412e-08 -3.869666e-09
1.343720e-08 -1.881258e-08 5.713398e-08 -4.178564e-09 8.636889e-09 -1.430347e-08
9.104920e-09 -1.830000e-08 -1.318213e-08 -2.170222e-08 5.396203e-09 2.460093e-09
-6.210343e-09 2.711451e-09 1.243621e-09 7.997540e-10 3.685219e-11 -3.176437e-11
6.828412e-09 -2.379496e-08 -8.379427e-09 -2.080007e-08 5.996289e-09 1.658159e-09
1.154864e-08 -1.412576e-08 6.045919e-08 -8.921810e-11 4.322561e-09 -1.618998e-08
1.396274e-08 -3.104290e-08 -1.068971e-08 -1.673217e-08 7.100673e-09 2.025094e-09
3.498217e-09 -1.188803e-09 -6.210434e-10 -7.385363e-10 -3.471829e-10 -3.385419e-10
-9.341078e-09 2.647286e-08 1.878683e-08 -2.361007e-08 1.486442e-08 5.190517e-09
1.280941e-08 4.409208e-09 3.933629e-08 -2.658291e-08 1.462724e-08 -1.528495e-08
3.201425e-09 -1.000921e-09 -5.432654e-10 -1.983592e-09 -1.206231e-10 2.482667e-10
-4.300293e-11 7.908936e-10 -2.710965e-10 -3.227509e-09 -4.171641e-10 3.622290e-10
1.331636e-09 1.082656e-08 1.536115e-08 -2.943843e-08 1.368260e-08 -5.965629e-09
-1.061508e-09 -3.284977e-09 6.893187e-08 -2.649936e-08 2.071923e-08 -4.719262e-09
1.122570e-09 2.608864e-10 -4.690630e-10 -2.694082e-09 -4.226290e-10 5.723825e-10
2.890362e-08 -3.412056e-08 -2.431436e-08 9.417962e-09 5.673679e-09 -1.822867e-09
1.742198e-08 -4.274202e-08 -2.103528e-09 1.652717e-09 2.274001e-09 3.549703e-10
2.181593e-08 -3.698080e-08 -1.126049e-08 -8.305001e-09 3.597307e-09 1.716627e-10
1.313075e-08 -3.826549e-08 5.554545e-09 -8.274366e-10 5.261913e-10 -1.462670e-10
-1.130824e-08 1.577113e-08 -6.972555e-09 1.144724e-09 2.412909e-09 -2.286798e-09
-1.571968e-08 1.695278e-08 -5.667916e-09 3.550467e-09 1.708805e-09 -8.531080e-10
1.581975e-08 -4.155927e-08 6.322295e-09 1.130903e-09 2.105071e-09 -1.506270e-10
1.224526e-08 -3.770205e-08 6.378429e-09 7.084105e-09 1.464446e-09 2.053095e-10
5.378054e-09 2.117829e-08 -3.631483e-09 -1.850360e-08 4.676035e-09 -3.659491e-09
-1.495908e-08 1.872274e-08 -9.198188e-09 1.367831e-09 4.729330e-10 -1.055622e-09
-1.097184e-08 2.546770e-08 -1.077283e-08 -6.109460e-09 1.883985e-09 -3.552108e-09
-5.612531e-09 1.720269e-08 -7.274069e-09 -4.800180e-09 7.340275e-10 -1.349575e-09
-1.188422e-08 2.791682e-08 -1.094242e-08 -7.160987e-09 9.731520e-10 -2.696853e-09
1.607029e-08 -3.866749e-08 8.529564e-10 -3.747628e-09 6.063594e-11 -2.838569e-10
1.163782e-08 -3.237366e-08 2.688089e-09 -6.916075e-09 8.994530e-10 -8.730733e-11
7.649152e-09 -2.725822e-08 5.785491e-09 -2.255755e-09 1.616733e-09 -4.983540e-10
1.042096e-08 -2.988692e-08 4.195582e-09 -7.776091e-09 1.530564e-09 -4.071541e-10
-1.608034e-08 5.355039e-09 1.336763e-09 -4.123878e-09 -4.411009e-09 -1.260608e-09
-4.800251e-09 2.857491e-09 6.445293e-10 9.808403e-10 2.964150e-10 -1.080500e-10
-1.332196e-08 -3.457009e-09 1.425239e-09 -4.121623e-09 -1.259961e-09 -3.754832e-10
-1.638317e-08 5.699864e-09 4.435623e-10 -1.737951e-09 -1.679965e-09 -7.782352e-11
-1.330636e-08 -2.395577e-09 3.264054e-09 -2.727307e-09 -1.744938e-09 -4.236076e-10
-3.932003e-09 2.111116e-09 3.897929e-10 8.268199e-10 2.260223e-10 2.546150e-10
-6.775513e-09 1.514297e-09 1.634097e-09 2.203915e-10 1.356892e-11 1.369518e-10
-1.449594e-08 -3.187921e-10 2.497359e-09 -4.501700e-09 -2.802299e-09 -1.057345e-10
4.293793e-09 -1.642018e-09 -6.514274e-10 3.625326e-09 3.242517e-10 2.089661e-10
1.632593e-09 -6.948716e-10 -3.810827e-10 1.001578e-09 5.063604e-10 -1.363540e-10
4.799787e-09 -2.669126e-09 -6.953700e-10 2.135003e-09 -6.758527e-11 -2.359992e-10
1.273577e-09 -1.411413e-10 -2.769260e-10 3.083264e-09 -8.932144e-11 -9.115642e-11
-6.171781e-09 -3.508519e-09 2.947622e-09 -2.143532e-09 -3.005423e-10 -1.068154e-09
-4.227421e-09 -6.561533e-09 3.531274e-09 -1.443966e-09 1.268100e-10 -3.557352e-10
-5.005482e-09 -4.276204e-09 3.217298e-09 -8.363400e-10 2.588710e-10 -9.154993e-10
-6.829159e-09 4.676603e-09 6.992620e-10 -2.858660e-10 -7.945666e-11 -1.883471e-11
1.027224e-08 -6.190782e-09 -3.977027e-08 3.003858e-08 6.265940e-09 -2.662516e-09
1.788457e-08 -1.481096e-08 -4.182862e-08 2.431825e-08 8.454298e-09 -2.470968e-09
7.216627e-09 -1.077509e-08 -2.301033e-08 2.404181e-08 5.332265e-09 -2.312152e-09
-5.126958e-09 4.139991e-09 3.335130e-10 -3.989071e-10 -2.154189e-10 -6.129197e-11
-6.121358e-09 3.840405e-09 3.808482e-10 -2.444721e-09 -2.451231e-10 -3.085400e-10
-5.150904e-09 3.492407e-09 4.657492e-10 -1.609704e-09 -1.326905e-10 -2.347846e-10
-7.365809e-09 5.102168e-09 8.121583e-10 -1.099951e-10 -9.942269e-12 2.632561e-12
-7.989422e-09 5.074531e-09 9.192753e-10 -2.279741e-10 -5.265699e-11 -3.548448e-10
-6.865771e-09 4.821702e-09 7.433067e-10 -8.639653e-10 -1.788767e-10 -3.443730e-10
1.127786e-08 -3.746684e-08 7.210671e-09 8.167718e-10 -2.223043e-16 -1.589626e-10
1.045298e-08 -3.604966e-08 6.605956e-09 1.888949e-09 8.060285e-11 -4.221912e-10
2.041119e-09 -2.635881e-08 7.273484e-09 1.269182e-09 3.515725e-10 1.227698e-10
-1.023195e-09 -2.378063e-08 7.147176e-09 2.395261e-09 -3.022187e-10 -5.229008e-10
5.693727e-09 -1.992627e-08 -1.196627e-08 2.290806e-08 4.832660e-09 -1.566158e-09
4.720816e-09 -5.974829e-09 -3.177874e-08 2.804483e-08 4.508999e-09 1.270034e-09
8.344128e-09 -1.347288e-08 -2.075334e-08 2.621719e-08 8.833813e-09 -2.337829e-09
1.097547e-08 -3.676917e-08 6.019033e-09 6.764496e-09 1.621789e-09 -2.807879e-10
9.717657e-09 -3.806188e-08 6.802773e-09 6.293227e-09 1.394808e-09 1.011479e-10
9.706852e-09 -3.537919e-08 7.351426e-09 3.256278e-09 5.230221e-10 3.744686e-10
9.990559e-09 -3.524267e-08 6.947102e-09 2.981558e-09 6.281099e-10 -1.983624e-10
9.899409e-09 -3.481765e-08 5.538416e-09 7.924556e-09 8.041164e-10 4.387708e-10
9.718283e-09 -3.669471e-08 6.538802e-09 6.673733e-09 8.718492e-10 -2.654176e-10
-5.767214e-09 -4.263729e-09 3.028995e-09 -2.791288e-09 2.647689e-10 -4.765703e-10
-7.188969e-09 1.337686e-10 2.315645e-09 -3.864387e-10 1.760732e-10 -3.343340e-10
-7.193659e-09 7.519487e-10 2.061077e-09 -2.822558e-10 1.943171e-10 -4.272811e-10
-6.380621e-09 -5.117608e-09 3.062231e-09 -2.209038e-09 6.541035e-11 1.844219e-11
-7.352297e-09 5.247305e-10 2.251619e-09 -2.112861e-10 -1.735274e-10 -1.017870e-10
-1.556621e-08 2.611978e-08 -1.435683e-08 -1.936645e-09 2.502644e-09 -4.324208e-09
-9.946593e-09 9.359328e-09 -9.506501e-09 1.869035e-10 -1.094912e-09 7.482026e-10
-1.552045e-08 2.164847e-08 -8.763684e-09 1.217394e-09 1.813119e-09 -1.356277e-09
1.035502e-08 -3.692779e-08 4.031765e-09 6.107206e-09 -4.053089e-09 7.909411e-10
3.932820e-10 1.251625e-08 -5.323275e-09 -3.207751e-09 4.238247e-09 -2.116476e-09
4.791396e-09 -2.398975e-08 -5.201266e-10 4.841639e-10 -2.139178e-09 2.840091e-10
-7.060780e-09 -8.856271e-09 1.269070e-09 6.428047e-09 -4.539525e-09 1.136963e-09
-4.514187e-09 -5.889564e-09 -1.311753e-09 4.098820e-09 -3.359171e-10 5.468292e-11
-1.535831e-08 1.584972e-08 -8.782500e-09 4.974786e-09 2.550732e-09 -2.275573e-09
-5.460825e-09 -1.591267e-08 1.687419e-09 1.117382e-08 -6.199616e-09 2.041768e-09
-1.627566e-08 1.363070e-08 -4.896577e-09 4.850762e-09 3.701817e-09 -2.449464e-09
-9.837110e-09 7.238638e-09 -4.836962e-09 -2.196817e-09 -2.075752e-09 2.213885e-09
-9.143986e-09 4.212955e-09 1.548906e-09 -6.422471e-10 -8.880554e-16 -9.576961e-11
-8.055954e-09 4.402165e-09 1.181761e-09 -3.387524e-10 -1.315008e-10 -2.773266e-10
-8.801256e-09 2.514998e-09 1.963171e-09 -5.043563e-10 -3.971021e-10 -7.102554e-10
-9.160150e-09 6.273915e-11 2.102773e-09 -7.820011e-10 -4.947465e-11 -1.746607e-10
-8.800584e-09 2.926113e-09 1.393005e-09 -7.787143e-10 -5.537211e-10 -4.121845e-10
9.820265e-09 1.156630e-08 -3.195411e-09 -1.232089e-08 1.422866e-09 -1.488604e-09
-1.619854e-08 1.302035e-08 -4.138677e-09 4.934715e-09 4.176878e-09 -2.071172e-09
2.195222e-08 7.878830e-10 -6.624382e-09 -6.488416e-09 1.494689e-09 8.173912e-10
-1.962435e-09 2.640872e-08 -9.556537e-09 -1.050047e-08 7.299365e-09 -7.664027e-09
6.397181e-09 1.659836e-08 -5.636927e-09 -1.352388e-08 1.211351e-09 -5.639715e-10
-5.316473e-09 1.305597e-08 -6.575076e-09 -3.511093e-09 -9.730575e-11 -3.144882e-10
-9.639083e-09 1.398369e-08 -4.461607e-09 3.899567e-10 8.161196e-09 -5.315751e-09
-6.985268e-09 3.948248e-09 9.663372e-10 7.426282e-11 1.771117e-11 -1.015075e-10
-3.217925e-09 2.032327e-09 3.621985e-10 1.209607e-09 2.682281e-10 -3.449427e-10
-4.281238e-09 2.787621e-09 4.972289e-10 3.111604e-10 7.565976e-11 -1.094158e-11
-7.647786e-09 -8.758889e-09 -1.554194e-09 -3.586572e-09 2.589466e-10 -6.697345e-10
-6.482494e-09 2.915982e-09 1.264454e-09 1.864018e-09 1.989287e-10 -1.827775e-10
-1.655854e-08 2.543182e-09 2.221107e-09 -2.216822e-10 -3.506231e-10 0.000000e+00
-3.164517e-10 -2.100896e-08 2.793336e-09 -4.899746e-09 -1.631993e-09 -7.527098e-10
1.192196e-08 -3.387500e-08 9.574728e-10 -1.833371e-09 -1.314393e-09 -1.252489e-09
-4.843168e-09 2.444820e-09 5.807048e-10 1.731289e-09 1.174383e-10 -8.497647e-11
-8.944978e-09 -5.276583e-09 2.614502e-09 -2.523528e-10 -7.139747e-10 -3.194740e-10
-1.044479e-08 -2.053027e-09 -7.611103e-10 -4.569888e-09 -2.057542e-09 -7.002172e-10
-5.966652e-09 3.405728e-09 6.999774e-10 1.725115e-10 1.443442e-12 -1.650911e-10
1.941362e-08 -3.125396e-08 -1.914224e-08 -8.224604e-09 -3.240689e-09 -1.779816e-10
7.666899e-09 -2.786992e-08 -3.290562e-09 -1.055357e-09 -2.188021e-09 -3.113365e-10
-7.143091e-09 3.914407e-09 9.830075e-10 2.265295e-10 1.561279e-11 2.050582e-12
-4.877995e-09 2.861547e-09 7.105130e-10 2.683920e-10 1.066696e-10 3.094924e-11
8.081125e-09 -4.637750e-09 -1.163862e-09 -1.835327e-09 -1.115012e-10 -1.593021e-10
3.465957e-09 -2.259011e-08 -3.087555e-10 -7.864860e-10 -1.360547e-09 -4.736744e-11
8.945263e-09 -4.528705e-09 -1.245757e-09 -2.166681e-09 -9.020096e-11 -7.477025e-11
9.003736e-09 -5.372190e-09 -1.357219e-09 -5.133262e-10 1.397876e-11 3.235168e-11
-7.124020e-09 -9.309478e-09 6.478325e-10 -9.382934e-10 -1.390456e-09 -4.856375e-10
1.013451e-08 -5.916364e-09 -1.307616e-09 6.401197e-10 1.465686e-11 -1.092133e-10
1.087362e-08 -5.898440e-09 -1.388165e-09 -1.181917e-09 -5.088271e-11 1.392322e-10
6.002541e-09 -3.067461e-09 -9.279073e-10 -6.695589e-10 -1.355684e-10 3.394638e-10
-1.625400e-08 3.270324e-09 1.131458e-09 3.154869e-09 6.733942e-10 4.248941e-18
2.420168e-08 -3.346109e-08 -1.764164e-08 4.203976e-09 -3.522669e-09 4.079150e-10
1.019281e-08 -5.223954e-09 -1.276384e-09 -1.480919e-09 -3.532295e-11 9.793677e-11
-6.550469e-09 2.535039e-09 1.472763e-09 1.131273e-09 7.038725e-11 -2.162515e-10
-7.396599e-09 2.893103e-09 1.485946e-09 1.088409e-10 -8.499623e-11 -9.364243e-11
9.648517e-09 -5.506412e-09 -1.346044e-09 -9.278822e-10 -4.955047e-11 -1.316836e-11
1.736171e-08 -2.933284e-08 -1.390911e-08 8.435533e-09 -2.883287e-09 7.065410e-10
1.033113e-08 -5.525312e-09 -1.336843e-09 -1.262449e-09 -2.230732e-10 2.406141e-10
1.004072e-08 -5.671095e-09 -1.392985e-09 -1.080151e-09 1.029807e-10 -9.636703e-11
-8.655993e-09 -3.770690e-10 2.143457e-09 -3.294065e-10 -1.319584e-10 -8.552641e-10
-1.675349e-08 3.851793e-09 1.744911e-10 9.751814e-09 6.754567e-09 -1.563463e-09
-9.062806e-09 3.275824e-09 1.525678e-09 -1.140014e-09 -1.185194e-09 -6.703474e-10
2.470191e-08 -3.480112e-08 -2.962142e-08 6.841940e-09 -1.560778e-08 2.377704e-09
-1.562949e-08 1.291239e-08 -7.411300e-09 1.100328e-08 1.008087e-10 -6.261909e-10
-9.320872e-09 3.167699e-09 1.601934e-09 -6.789896e-12 -2.675959e-11 -7.914749e-10
-9.355354e-09 2.971049e-09 1.150257e-09 -1.461182e-09 -8.091512e-10 -3.378293e-10
-8.984667e-09 2.751758e-09 1.403206e-09 -7.504623e-10 -4.759613e-10 -1.461012e-10
-9.291346e-09 3.406871e-09 1.538111e-09 -1.102997e-09 -2.375017e-10 -6.069238e-10
-1.230422e-09 -1.982248e-08 1.021138e-09 -5.758448e-09 -1.340009e-09 -2.003343e-09
6.846145e-09 -2.846565e-08 -4.297810e-09 -1.139015e-08 -7.225905e-09 -1.846407e-09
1.010947e-08 -5.391562e-09 -1.307433e-09 1.639766e-09 2.057410e-12 -1.181630e-10
-9.003768e-09 3.344723e-09 1.609619e-09 -7.706990e-10 -2.996612e-10 -7.295059e-10
9.541671e-09 -4.794958e-09 -1.174251e-09 2.597223e-09 -7.576472e-11 -3.473710e-10
2.482988e-08 -4.024439e-08 -1.362337e-08 2.937524e-09 -5.410562e-09 7.204576e-10
1.007222e-08 -5.438125e-09 -9.823031e-10 3.226758e-09 -2.067103e-10 -7.899370e-11
2.251763e-08 -4.423847e-08 -5.180526e-09 -9.599877e-12 4.440866e-16 1.333810e-10
2.303082e-08 -4.502506e-08 -6.322014e-09 -1.091363e-09 -8.655283e-10 -7.059546e-10
1.675528e-08 -4.324743e-08 -3.448791e-09 8.784588e-09 -1.165762e-08 1.855180e-09
2.528005e-08 -5.525709e-08 -7.841073e-09 1.599660e-09 -1.817382e-08 1.858209e-09
2.271147e-08 -4.408952e-08 -7.547406e-09 -1.647717e-09 -1.012879e-09 2.826994e-10
2.752730e-08 -2.561269e-08 -3.565956e-08 9.292806e-10 -5.957079e-09 4.932015e-10
2.381480e-08 -3.877596e-08 -1.578675e-08 -7.140763e-09 -1.168579e-08 -1.588592e-09
1.880815e-08 -2.510565e-08 -2.597505e-08 -1.064732e-08 -5.273280e-09 -5.891701e-10
2.606570e-08 -3.517980e-08 -1.793760e-08 -2.415404e-09 -2.646662e-09 -5.641136e-10
2.832642e-08 -3.385878e-08 -3.433355e-08 -4.523069e-09 -1.986053e-08 -5.529152e-10
2.391572e-08 -2.300285e-08 -3.987846e-08 -9.149629e-09 -6.752842e-09 3.525856e-10
-6.596778e-09 4.539530e-09 6.647021e-10 -5.402341e-10 5.300569e-11 -8.922107e-11
-7.167038e-09 1.717760e-09 1.734815e-09 9.045185e-11 -8.765877e-12 1.099556e-10
-7.111407e-09 2.158044e-09 1.716762e-09 2.702283e-10 2.151341e-10 2.922840e-11
5.926786e-09 -2.854176e-09 -9.307008e-10 -2.483028e-09 -1.404421e-10 -5.472733e-11
3.019769e-09 -1.330897e-09 -6.679102e-10 -1.366738e-09 -2.181377e-10 -5.511817e-10
-7.617024e-09 2.425476e-09 1.657557e-09 1.347149e-10 -1.532596e-11 -3.065839e-10
2.254374e-09 2.621663e-10 -4.206995e-10 -2.536724e-09 -5.707319e-10 6.782575e-12
1.858419e-09 1.744116e-11 -6.026502e-10 -1.711982e-09 -2.796933e-10 -4.353540e-11
5.415731e-09 -3.202604e-09 -1.021272e-09 -2.340296e-09 -2.663338e-10 -3.436237e-10
2.676432e-09 -7.879022e-10 -6.322596e-10 -3.349846e-09 -3.876275e-10 4.268276e-10
8.975290e-09 -3.427707e-08 6.868289e-09 2.896939e-09 3.936519e-11 8.424395e-11
-1.605755e-08 5.590509e-09 1.481109e-09 -1.805023e-09 -3.345942e-09 -3.457402e-10
1.582480e-08 2.533447e-08 -6.781871e-08 5.007217e-09 -9.570200e-09 5.484201e-09
3.442133e-09 -2.608407e-08 3.073731e-09 1.177037e-08 1.748518e-09 -3.601564e-11
1.079829e-08 -3.348602e-08 1.778741e-09 1.258504e-08 7.196532e-10 1.356293e-10
1.299191e-08 -3.836467e-08 6.325208e-09 -9.856586e-10 1.542344e-10 -1.705825e-10
1.372562e-08 -3.969843e-08 4.913856e-09 -2.124055e-09 1.548770e-09 -3.986682e-10
1.448399e-08 -3.784346e-08 2.712821e-09 -5.101339e-09 2.718515e-10 -2.267249e-10
1.556283e-08 -4.268968e-08 2.179545e-10 4.549767e-09 3.127911e-09 -4.052767e-10
1.210831e-08 -3.629942e-08 4.609086e-09 7.398404e-09 4.411384e-10 2.069665e-10
2.658568e-08 -3.604044e-08 -1.777848e-08 5.852380e-09 3.228834e-09 1.852936e-10
1.148167e-08 -3.406845e-08 6.058437e-09 -2.121809e-09 2.730332e-10 -2.351995e-10
2.510277e-08 -5.375442e-09 -5.604340e-08 3.678107e-09 -8.691232e-09 1.353030e-09
7.604477e-09 -2.927610e-08 5.775695e-09 -2.558805e-09 8.908941e-11 -6.967857e-10
1.501856e-08 -2.956858e-08 -1.541762e-08 1.663100e-08 4.932403e-09 1.104677e-10
1.239297e-08 -3.681404e-08 5.865235e-09 -1.434029e-09 2.348006e-10 1.013608e-10
-1.332193e-08 3.626129e-08 -2.469115e-08 1.394571e-08 -6.464930e-09 -1.433153e-08
-1.468142e-08 2.834305e-08 -1.566452e-08 4.898946e-09 -9.170908e-09 -1.326851e-08
-1.497944e-08 5.262481e-08 -1.130604e-08 3.023596e-08 6.215752e-09 -8.785829e-09
-1.591298e-08 6.023385e-08 -3.535746e-08 3.975647e-09 -1.708562e-08 -1.541392e-08
1.478463e-08 -3.948042e-08 4.111527e-09 -8.588540e-10 1.126084e-10 5.917955e-11
2.873699e-08 6.816108e-08 -1.415064e-07 1.652566e-08 4.020487e-08 -1.633144e-10
-2.774426e-08 5.178002e-08 -1.761458e-08 1.818182e-08 -1.725260e-09 -1.778012e-08
3.207925e-08 5.305831e-08 -1.223696e-07 2.541528e-10 2.669823e-08 -1.511785e-09
-1.202055e-08 4.445973e-08 -6.918440e-08 -1.880660e-08 -1.867825e-08 -1.386613e-08
-7.367489e-09 4.565666e-08 -4.328445e-08 3.385301e-09 -9.110721e-09 -1.142902e-08
3.904667e-08 4.714835e-09 -1.055592e-07 -2.095420e-09 2.319551e-08 7.681833e-09
3.521239e-08 2.702404e-08 -1.062887e-07 -1.312442e-08 2.104966e-08 5.794525e-09
-8.546122e-09 4.369270e-09 -4.179856e-11 -3.528753e-09 -1.051341e-10 -5.644484e-10
3.614750e-08 2.428788e-08 -1.223696e-07 6.325056e-09 2.635302e-08 -1.587794e-09
-2.604448e-08 9.630197e-08 -5.682356e-08 -1.351178e-08 -1.509006e-08 -1.030638e-08
-9.641541e-09 3.655619e-09 -3.200479e-09 6.329370e-10 -5.669531e-10 -4.724255e-10
1.651158e-08 -8.344246e-09 8.767564e-11 -1.230300e-09 -3.304167e-11 -1.666725e-09
1.944338e-08 4.326569e-08 -9.313593e-08 2.126286e-08 1.789682e-08 -7.992899e-09
1.611531e-08 -7.934466e-09 -1.184510e-10 9.113145e-10 1.275328e-10 -1.203968e-09
1.298602e-08 -6.680793e-09 -9.449592e-10 2.342766e-09 9.005285e-11 -7.020189e-10
1.210831e-08 -3.741356e-08 2.946658e-09 8.184573e-09 1.998334e-09 -3.578475e-10
1.530356e-08 -4.139751e-08 8.656986e-11 5.063163e-09 3.346698e-10 4.730385e-10
3.402829e-09 2.021236e-08 -5.194082e-08 -2.452271e-08 1.106751e-08 6.022795e-09
2.001742e-08 -5.668006e-09 -5.877029e-08 -2.217475e-08 1.172168e-08 2.283970e-09
1.210014e-08 -3.715537e-08 -7.911024e-10 1.176841e-08 3.148288e-09 2.981028e-10
2.562166e-08 -3.541787e-08 -1.691277e-08 -6.143895e-09 1.991980e-09 3.847114e-10
1.755906e-08 -3.523901e-08 -9.969054e-09 1.519366e-08 4.642856e-09 -3.520722e-10
2.572700e-08 -3.917193e-08 -1.713267e-08 -7.847644e-09 1.138860e-08 1.047672e-09
-2.063647e-08 1.703645e-08 -2.084644e-08 -2.554755e-08 1.267689e-08 1.474096e-08
1.820154e-08 -4.329455e-08 -5.134537e-09 -4.584388e-09 5.647871e-09 -6.655345e-11
1.314736e-08 -3.471125e-08 -1.805995e-10 -7.888371e-09 2.208150e-11 -1.442643e-10
-1.074695e-08 1.117765e-08 -2.451099e-08 -2.123091e-08 8.308740e-09 1.957877e-09
2.074343e-08 -3.899772e-08 -9.826945e-09 9.780560e-09 4.947937e-09 -1.299337e-09
-1.034708e-08 3.073418e-09 -3.751254e-09 -1.212772e-08 8.370942e-10 1.375555e-09
3.613663e-09 1.018193e-08 -6.803814e-08 -3.157144e-08 2.551244e-08 2.320444e-08
-4.087113e-10 6.686147e-09 -3.212680e-08 -2.575482e-08 -1.834550e-10 7.292586e-10
-2.378246e-09 -7.441136e-09 -2.477425e-09 -1.356960e-08 -5.563843e-10 -5.281209e-10
-4.191734e-09 -1.449998e-09 -4.911924e-09 -1.569279e-08 1.702966e-09 3.892856e-10
-1.331672e-08 7.715084e-09 -3.453464e-09 -1.035157e-08 2.097061e-09 1.993497e-09
-1.150039e-08 4.744767e-08 -4.661816e-08 -1.794371e-08 9.225949e-09 3.516193e-09
-1.062748e-09 1.455631e-09 2.399261e-10 4.241087e-09 1.627370e-10 -1.720120e-10
4.652767e-08 -1.819143e-08 5.665247e-09 -6.912259e-09 5.324639e-11 1.983787e-09
-1.998931e-09 2.159785e-09 1.973928e-10 4.727985e-09 1.197068e-10 -1.566506e-10
-4.009041e-09 2.193476e-09 5.080736e-10 3.588796e-09 4.643723e-10 -2.022167e-10
-2.365775e-09 2.719230e-09 6.667760e-10 4.822443e-09 -1.567950e-10 -2.236045e-10
3.132218e-09 -4.004574e-10 -1.359814e-10 5.907410e-09 -1.517762e-10 -3.408962e-10
3.424697e-08 -1.352376e-08 5.794694e-09 -1.919106e-08 -3.551433e-09 6.268243e-09
2.899152e-10 1.190655e-09 8.203127e-11 5.161551e-09 -1.628053e-10 -1.780291e-10
4.496314e-08 -2.064077e-08 6.225463e-09 -1.554234e-08 5.458014e-10 4.770090e-09
-1.666772e-09 2.163041e-09 2.174403e-10 4.774508e-09 9.106293e-11 -2.881781e-10
-6.268763e-09 3.424753e-09 1.078698e-09 2.523175e-09 -1.168698e-10 9.186430e-12
4.481992e-08 -2.380875e-08 2.070109e-08 -1.434102e-08 3.707131e-09 1.224748e-09
5.400317e-08 -1.773855e-08 -2.917309e-09 -3.478202e-09 -1.921205e-10 6.044629e-09
2.788378e-09 -5.849977e-10 -2.786127e-11 5.863662e-09 5.513707e-10 7.469581e-12
5.025671e-08 -2.629713e-08 7.041482e-09 1.689018e-09 4.123734e-10 5.104693e-09
5.151745e-08 -1.886770e-08 -2.245623e-09 -7.063830e-10 -6.710161e-10 1.463373e-09
6.176126e-10 1.841704e-09 1.329417e-10 6.605485e-09 -3.174598e-10 -3.448450e-10
5.014618e-09 8.795250e-09 -3.939443e-08 9.783030e-09 -9.227038e-09 3.089549e-09
-7.136538e-09 6.181095e-08 -7.359901e-08 -1.024713e-08 1.479780e-08 7.965045e-09
-1.372504e-08 9.093277e-09 -1.307213e-08 1.869111e-08 4.242113e-10 1.287361e-09
7.097963e-09 4.799722e-08 -6.027231e-08 -7.123433e-09 -1.810174e-08 1.947445e-08
1.967566e-08 1.027309e-08 -7.261497e-08 1.116763e-08 -3.301540e-08 1.620232e-08
1.771070e-08 3.152829e-08 -8.477316e-08 -1.446430e-09 -1.041788e-08 5.580994e-09
-1.167211e-08 8.927568e-09 -1.813188e-08 2.240591e-08 3.219534e-09 -1.444725e-09
-1.301188e-08 1.431768e-09 -8.640549e-09 2.332271e-08 7.220701e-09 -3.790958e-09
1.820155e-08 2.899328e-08 -7.807717e-08 8.419425e-10 -1.011080e-08 1.154823e-09
-1.437692e-08 3.057781e-08 -4.419879e-08 2.009908e-08 7.265927e-09 -6.899729e-09
-1.984170e-08 2.308250e-08 -1.907923e-08 1.123962e-08 7.361447e-10 -1.709772e-09
1.463888e-08 6.245662e-08 -6.052844e-08 -1.615558e-08 -1.170466e-08 1.562988e-08
1.628979e-08 -9.137615e-09 1.114597e-09 1.179813e-09 -2.698097e-11 -2.898748e-10
1.376027e-08 -6.595786e-09 -1.041993e-10 -8.651168e-09 3.160550e-10 -3.089622e-10
2.075470e-08 -9.221554e-09 3.733635e-09 -4.008779e-09 -3.039300e-10 1.601186e-10
-1.144154e-08 1.238600e-08 -1.786855e-08 2.124292e-08 4.308108e-09 -1.923616e-09
1.784243e-08 -1.131114e-08 3.733635e-09 -6.714793e-10 2.460196e-10 -1.309771e-09
-4.570774e-09 -3.018870e-09 -2.323032e-08 2.999632e-08 6.402133e-09 -3.885757e-09
-1.475794e-08 1.759288e-08 -1.963167e-08 1.956316e-08 7.433611e-09 -4.262289e-09
-1.641491e-08 1.759288e-08 -1.455685e-08 1.877014e-08 8.144254e-09 -6.351404e-09
-1.175643e-07 -7.160214e-08 3.188639e-07 1.962083e-08 3.362124e-08 2.889691e-08
-1.569441e-08 1.491114e-08 -9.579514e-09 -8.385856e-09 -1.407519e-10 -7.894090e-10
-9.879701e-08 5.196146e-08 7.849038e-08 -7.907580e-09 9.433117e-08 1.004214e-08
-2.695342e-09 1.704867e-09 -1.923873e-08 -2.427880e-08 9.998817e-09 6.616977e-09
-9.794314e-09 1.062043e-08 -1.158177e-08 -1.668343e-08 1.712751e-09 1.382541e-09
-2.563860e-08 4.204299e-08 -1.880011e-08 -2.278941e-09 6.131062e-09 1.531235e-08
-1.203471e-07 -3.402321e-08 2.784499e-07 1.991523e-08 1.571639e-08 4.043222e-08
-1.387132e-07 -8.141524e-08 5.075403e-07 1.975545e-09 4.471782e-08 5.703013e-08
-1.491847e-07 -3.903106e-08 3.258521e-07 -1.105688e-08 6.575081e-08 -3.080841e-08
-2.707867e-08 -4.356909e-08 1.842356e-07 -3.074557e-08 -7.925880e-09 2.453058e-08
-4.763841e-08 1.396535e-08 6.127666e-08 4.332436e-08 -5.958257e-09 8.051039e-08
-8.704268e-09 7.898633e-08 -6.440353e-08 -1.515890e-08 -8.356819e-09 -7.115143e-09
-4.781149e-08 7.436062e-08 1.546733e-08 2.362829e-08 8.282420e-08 7.852716e-09
-4.893506e-08 5.345380e-08 9.723242e-08 1.134922e-08 -4.392107e-10 -4.554712e-09
-7.559581e-08 7.513163e-08 5.200887e-08 -2.537653e-08 4.873818e-09 6.075259e-09
-6.543914e-08 4.159988e-08 1.487977e-07 -8.507220e-09 3.826602e-09 -7.727507e-09
-5.447671e-08 5.341236e-08 6.920362e-08 1.477497e-08 -3.095278e-09 1.630640e-08
-1.878460e-08 5.711735e-08 -2.202292e-08 1.672543e-08 5.721494e-09 1.577979e-09
-9.754588e-08 3.387021e-09 1.821555e-07 -2.650812e-08 2.261899e-09 -3.585085e-08
-9.380513e-08 1.299693e-08 2.643451e-07 9.825643e-09 6.163811e-08 -3.707644e-09
-4.537197e-08 7.882031e-08 1.797164e-08 -2.456780e-09 2.392873e-08 2.323397e-09
-1.176593e-07 1.292117e-08 1.385948e-07 8.630675e-09 5.284451e-08 2.945833e-08
-1.022959e-07 -3.356887e-08 3.283239e-07 2.506209e-08 1.012832e-08 4.679372e-09
4.709963e-08 -1.733338e-08 -3.575328e-09 2.525193e-09 -2.011699e-10 2.336153e-09
2.231180e-08 -4.665253e-09 3.552487e-08 -4.093037e-08 1.227133e-08 -4.251201e-08
-5.488752e-08 -8.312328e-09 1.743064e-07 -3.322153e-08 5.613743e-09 -2.280310e-08
-5.896555e-08 4.806847e-08 8.384225e-08 -4.735440e-08 3.457470e-08 -8.782318e-09
3.870023e-08 -1.183437e-08 1.164069e-09 1.331272e-08 -2.076006e-10 -1.784155e-09
4.397668e-08 -1.654326e-08 -4.957235e-09 -3.840694e-09 1.447465e-09 1.014705e-09
4.257189e-08 -1.160145e-08 -6.420159e-09 8.449391e-10 -1.505583e-09 -1.772506e-10
-1.260800e-07 -2.025352e-08 2.859244e-07 -2.389543e-08 4.191636e-08 -1.570805e-08
-5.842873e-08 4.377684e-08 6.293603e-08 -4.868287e-08 1.578880e-08 -2.222244e-08
2.807832e-08 -3.787772e-08 -3.292188e-08 -5.849821e-10 -1.842407e-08 6.760083e-10
-8.103693e-09 -3.165402e-09 2.273128e-09 -1.829136e-10 2.392623e-10 -4.791294e-10
2.921538e-09 -2.087089e-08 5.188804e-09 -2.636190e-09 -1.700871e-10 3.621334e-10
-7.946751e-09 -2.565145e-09 2.786120e-09 -3.676081e-11 -4.883596e-10 -6.868224e-10
1.563899e-08 -6.525337e-09 -4.959143e-08 -2.414864e-08 1.210030e-08 4.401881e-09
-3.502681e-09 -1.598394e-08 6.868461e-10 6.530360e-09 -8.195271e-10 5.320534e-10
-1.700726e-08 1.584714e-08 -1.925303e-09 8.267470e-10 -1.050597e-10 3.419340e-10
-3.224767e-09 -1.269201e-08 1.384736e-09 2.652619e-09 -1.977429e-10 -3.016108e-10
-1.343935e-08 4.160503e-09 -1.615538e-08 -2.395435e-08 7.235722e-09 6.778426e-09
-2.841036e-08 6.919660e-08 -3.183677e-08 -7.790551e-09 -7.670091e-09 2.472695e-08
-4.514186e-09 -1.069293e-08 1.011369e-10 4.702709e-09 4.001810e-10 -3.485376e-10
1.980858e-08 -7.980160e-09 6.150227e-09 -1.199627e-08 1.340574e-09 -6.640865e-09
-7.340573e-09 -3.509459e-09 2.146194e-09 7.472893e-10 -3.656051e-10 -5.958562e-10
-7.810824e-09 -3.858736e-09 2.699545e-09 1.617160e-09 -2.654145e-10 -3.914329e-10
2.943342e-08 -3.352985e-08 -4.655609e-08 -5.289940e-09 1.100038e-08 1.877265e-10
-1.337625e-08 1.597591e-08 -7.396717e-09 -1.224612e-09 -8.822148e-10 -6.470280e-10
-1.584603e-08 1.313687e-08 -4.289598e-09 -2.192464e-09 -9.506742e-10 4.168637e-18
2.176197e-08 -3.716759e-08 -2.182078e-08 -9.354986e-09 5.607732e-09 1.456496e-10
2.514188e-08 -2.643624e-08 -3.628272e-08 -1.773554e-08 1.695810e-08 4.125291e-09
2.968682e-09 2.344340e-08 -1.323877e-08 1.347795e-08 -5.703328e-09 -9.119750e-09
2.484000e-08 2.141495e-09 -7.079708e-09 4.944688e-09 -2.912385e-09 8.042540e-10
3.076487e-08 -2.316816e-08 -3.885478e-08 -1.263392e-08 1.922322e-08 4.547418e-09
6.291518e-10 2.232654e-10 -4.365917e-10 -1.309560e-09 -3.471508e-10 1.219276e-10
1.011684e-09 3.407195e-10 -3.363945e-10 -7.355818e-10 -3.380314e-10 -4.452201e-10
8.664927e-10 3.193499e-10 -3.352603e-10 -6.462746e-10 -2.376543e-10 -5.364214e-10
-3.222009e-10 5.741203e-10 -2.635376e-10 -1.576297e-09 -2.394973e-10 -2.477287e-10
4.852453e-08 -7.938627e-09 -7.437869e-09 1.681291e-09 1.657658e-09 5.189033e-09
1.047255e-08 1.245912e-08 -1.009776e-08 8.150487e-09 -1.080156e-09 -2.679028e-09
1.404950e-09 -3.358362e-10 -5.283418e-10 -3.229081e-09 -1.702205e-10 2.079552e-10
-6.134220e-09 -1.575185e-08 6.781552e-09 4.827101e-10 -1.587228e-10 1.664080e-10
5.195666e-10 1.613125e-10 -3.824865e-10 -2.884523e-09 -1.378308e-10 1.130943e-10
-7.198711e-09 -1.492398e-08 6.809630e-09 7.514330e-10 -1.107355e-10 1.517351e-10
-1.336353e-09 1.585921e-09 -1.550342e-10 -3.187439e-09 -3.010483e-10 -1.892465e-10
-2.993820e-09 -2.039045e-08 6.308816e-09 4.574607e-09 5.377755e-10 1.617559e-10
-6.188039e-09 -1.652651e-08 7.323433e-09 0.000000e+00 2.884040e-10 -1.552554e-10
-1.498302e-08 1.102484e-08 -2.346905e-09 -9.418826e-10 -4.738713e-09 -1.307837e-09
-1.515283e-08 9.990011e-09 -4.709446e-10 -3.187731e-09 -5.473599e-09 -2.445438e-09
-1.588510e-08 6.793440e-09 6.089360e-10 -5.521564e-09 -5.034579e-09 -1.732066e-09
-1.571258e-08 1.045303e-09 1.953599e-09 -7.278804e-10 -7.722920e-10 1.148253e-10
-1.193597e-08 -4.104795e-09 9.262018e-10 -6.711299e-09 -5.761822e-09 -1.348317e-09
-1.519068e-08 1.127124e-09 -2.275727e-09 -1.397852e-08 -1.186405e-08 -5.582614e-09
-1.583690e-08 3.906724e-09 1.648973e-09 -1.392381e-08 -5.661933e-09 -3.964537e-09
4.463076e-08 -6.417583e-09 -1.099681e-08 1.133010e-08 1.470357e-09 6.032776e-10
-1.459356e-08 -1.423376e-09 -2.100811e-10 -1.285325e-08 -9.365411e-09 -4.241265e-09
-1.357383e-08 1.233937e-08 -8.124897e-09 -7.830714e-09 -8.047411e-09 -5.541448e-09
-1.386057e-08 1.272136e-08 -2.464319e-09 -6.789836e-10 -6.525489e-09 -1.025539e-09
-1.390331e-08 1.977476e-09 -8.167734e-09 -1.274699e-08 -1.069182e-08 -5.423574e-09
-1.655854e-08 3.294621e-09 1.553757e-09 0.000000e+00 -3.575584e-10 -2.109672e-10
-1.262718e-08 5.176847e-09 -4.595582e-09 -8.659820e-09 -7.290553e-09 -3.240141e-09
-1.657762e-08 7.541454e-09 -7.454246e-10 -8.907621e-10 -2.862294e-09 -7.300560e-11
-1.359238e-08 4.300988e-09 9.934364e-10 -1.012675e-08 -6.353950e-09 -2.470392e-09
4.671410e-10 -2.046522e-08 2.215849e-09 -2.344890e-09 8.288925e-10 -5.300700e-10
-7.363434e-10 -2.201373e-08 -2.613892e-09 -4.791708e-09 -2.733078e-09 -4.718896e-10
1.281844e-09 -2.563396e-08 7.233250e-09 3.503303e-09 3.679171e-12 3.091269e-10
-3.387751e-09 -1.988720e-08 6.983747e-09 7.838921e-10 5.220402e-11 2.218403e-11
-5.561043e-09 -1.762235e-08 7.380309e-09 4.990825e-10 3.066642e-10 -2.818012e-11
-1.728427e-09 -2.260084e-08 7.383040e-09 5.557519e-10 3.114575e-11 1.624574e-10
2.045283e-08 -2.314039e-08 -2.242653e-08 7.925711e-09 -8.604836e-09 2.597642e-09
-6.432739e-10 -2.283058e-08 7.139706e-09 7.632188e-10 3.034484e-11 4.631606e-11
5.103202e-09 -2.902453e-08 6.889040e-09 4.560559e-09 2.400220e-10 4.685381e-10
2.459640e-08 -4.444327e-08 -7.095288e-09 -8.508917e-10 -5.738783e-09 7.125649e-10
4.156642e-09 -1.973119e-08 -7.323139e-09 -7.922362e-09 -4.897464e-09 -1.588134e-09
-5.189326e-09 -5.656665e-09 3.619506e-09 -1.959634e-09 -2.759867e-10 -6.836312e-10
6.356359e-09 -2.989555e-08 3.925859e-09 -6.482105e-09 2.428997e-09 -4.233061e-10
4.967574e-09 -2.343627e-08 5.343067e-09 -2.073635e-09 -9.679019e-12 -9.760209e-10
-5.686957e-09 -8.809049e-09 1.683482e-09 -1.121925e-08 8.738106e-10 4.630434e-10
1.032665e-08 -2.574088e-10 -5.309597e-11 -1.526078e-08 1.007393e-11 -2.160910e-10
-1.928806e-09 2.032361e-09 -5.430145e-11 -1.283247e-10 -3.325283e-10 -3.130152e-11
-5.293153e-10 1.524033e-09 -2.280176e-10 -3.810303e-09 -2.120470e-10 8.260814e-11
1.014860e-08 -5.640101e-09 -1.392615e-09 -3.815585e-10 -2.277567e-11 1.130960e-10
8.891673e-09 -5.299773e-09 -1.162478e-09 -2.653295e-10 -2.564727e-12 3.834166e-11
9.713053e-09 -5.342779e-09 -1.308477e-09 -6.563429e-10 -1.425329e-10 2.376244e-10
-9.275765e-09 2.757191e-09 6.245802e-10 -6.510110e-10 -1.072302e-09 -4.214289e-10
-9.531276e-09 3.028918e-09 1.147648e-09 -1.404520e-09 -3.182397e-10 2.041468e-10
-6.465246e-09 3.396422e-09 9.407417e-10 4.381295e-10 -5.327006e-11 -1.081961e-10
-6.590737e-09 3.484812e-09 9.865913e-10 3.125797e-10 4.278039e-11 -8.869139e-11
-9.570589e-09 2.483532e-09 2.256948e-09 -3.024485e-10 -3.286291e-10 -6.669002e-10
-6.845707e-09 3.841384e-09 8.715602e-10 1.913953e-10 1.512652e-10 -8.156487e-11
-7.280462e-09 4.076317e-09 9.909784e-10 8.915979e-12 5.333622e-12 7.884360e-12
-6.143433e-09 3.534827e-09 8.474201e-10 2.336473e-10 5.167411e-11 6.949885e-11
-6.582210e-09 3.836660e-09 8.125982e-10 2.330210e-10 1.281032e-10 -6.298140e-11
-9.278263e-09 2.856113e-09 1.736930e-09 -1.002825e-09 1.365019e-11 1.944420e-10
-9.498461e-09 1.073245e-09 1.897603e-09 -4.971632e-10 -3.893108e-11 1.326925e-10
-9.306290e-09 4.025131e-09 1.583857e-09 -1.783635e-09 -9.247669e-11 -5.054841e-10
-9.429497e-09 2.614742e-09 9.468997e-10 -8.864798e-10 2.388823e-11 -2.121533e-10
-9.242058e-09 3.685610e-09 1.319268e-09 -1.835735e-09 -5.916284e-10 -3.979814e-10
-6.243935e-09 3.455060e-09 7.778413e-10 6.130860e-10 9.203549e-11 3.343326e-11
-4.202231e-09 2.578830e-09 5.042078e-10 5.507981e-10 -4.391154e-12 1.542766e-11
-4.718045e-09 2.686000e-09 7.143011e-10 1.203839e-09 1.442135e-10 -2.822427e-10
9.880397e-09 -5.690967e-09 -1.343649e-09 -2.344319e-12 -3.729401e-11 1.055334e-11
1.204027e-08 -3.747351e-08 7.450798e-09 1.230285e-09 -3.488139e-11 1.787612e-10
9.136301e-09 -5.132497e-09 -1.215579e-09 6.111050e-10 9.411982e-11 -1.204168e-10
1.268627e-08 -3.702218e-08 6.986478e-09 1.509092e-10 3.009877e-10 -3.228704e-10
8.056124e-09 -4.586903e-09 -1.163392e-09 1.053853e-09 1.331789e-10 -1.556080e-10
-3.713239e-09 -9.182631e-09 -3.602229e-09 6.918049e-09 -6.852978e-10 4.972171e-10
2.807832e-08 -4.039439e-08 -1.785481e-08 -5.037118e-10 -1.961582e-08 1.643984e-09
1.122093e-08 -3.582535e-08 4.549209e-09 8.430684e-10 -1.432062e-09 4.938872e-10
8.212128e-09 -4.094209e-09 -1.080985e-09 1.048189e-09 1.340055e-10 1.612616e-10
7.924149e-09 -4.451067e-09 -1.126657e-09 3.930045e-10 5.300527e-11 1.563938e-10
7.922019e-09 -4.047690e-09 -9.729231e-10 1.059675e-09 6.218359e-12 -1.288707e-10
8.367380e-09 -4.629386e-09 -1.156110e-09 1.548259e-10 1.199093e-10 1.961542e-12
1.656955e-08 -4.309299e-08 4.559985e-09 9.782535e-10 -1.298490e-09 9.215984e-10
6.424701e-09 -3.501664e-09 -9.030456e-10 1.456423e-10 -8.286977e-11 -3.863582e-14
5.792330e-09 -3.148609e-09 -9.315686e-10 1.172684e-09 1.629247e-10 -1.278320e-10
4.207878e-09 -2.492090e-08 2.262399e-09 7.639564e-10 -2.887224e-10 -5.856616e-10
-1.560118e-09 -1.458159e-08 2.846322e-09 6.394684e-09 -2.780859e-09 7.971573e-10
5.623772e-09 -2.836597e-08 3.526305e-09 2.559414e-09 -2.570964e-09 8.930033e-10
5.477650e-09 -2.554104e-09 -8.488974e-10 1.818713e-09 4.114086e-10 2.889595e-10
6.400115e-09 -3.433848e-09 -8.069807e-10 2.241321e-09 2.013558e-10 -5.187648e-10
1.218600e-08 -3.315339e-08 -2.578639e-09 8.569683e-09 -7.744857e-09 3.387128e-09
4.036534e-09 -2.416446e-08 4.332692e-09 4.993025e-09 -3.794320e-09 -2.159709e-10
7.505335e-09 -3.961932e-09 -9.359611e-10 1.024939e-09 1.617786e-10 1.767010e-10
6.173553e-09 -3.413523e-09 -8.724808e-10 2.265839e-09 2.344779e-10 -3.038723e-10
6.985863e-09 -3.813216e-09 -9.835346e-10 3.036179e-09 1.615819e-10 -3.447398e-11
8.749417e-09 -4.693107e-09 -1.184546e-09 1.648471e-09 1.736374e-10 1.104807e-10
7.872211e-09 -4.002947e-09 -9.304610e-10 2.040534e-09 -1.982338e-11 -2.751044e-11
-2.709456e-09 1.724052e-09 3.086011e-10 1.598086e-09 1.943239e-10 6.078993e-11
-2.582812e-09 1.748711e-09 2.341354e-10 6.776446e-11 2.184934e-10 -1.975708e-11
-1.592069e-08 -2.667660e-09 5.435219e-10 1.951790e-08 8.348852e-09 -3.886831e-09
-5.262528e-10 9.176251e-10 -4.793277e-11 1.659327e-09 1.897393e-10 -1.440534e-10
-1.691921e-09 1.171988e-09 1.131175e-10 7.314993e-10 2.069009e-10 -7.199774e-11
-9.654962e-09 2.838444e-08 4.392659e-08 -4.456180e-08 3.937549e-09 -1.356172e-09
-2.067367e-09 1.389321e-09 1.783391e-10 4.766929e-10 6.937739e-11 2.270992e-10
-8.233917e-09 1.395166e-08 -1.922530e-08 8.431929e-10 -2.198942e-09 2.968182e-09
-4.979991e-09 3.913758e-11 -1.230594e-08 8.951695e-09 -4.402254e-09 4.553762e-09
-7.180104e-09 -4.346894e-09 3.218506e-09 4.076650e-09 -1.341019e-09 1.245205e-10
4.126695e-08 -1.267342e-08 -9.843304e-10 1.575635e-08 1.775469e-09 6.570712e-09
-7.892739e-09 -4.542385e-09 -1.311754e-09 4.424955e-09 -6.698944e-10 5.088694e-10
4.851695e-08 -2.129857e-08 1.477756e-08 1.777539e-08 4.850048e-09 9.968794e-09
2.043908e-10 -1.867101e-08 -2.497934e-09 7.997046e-09 -3.938938e-09 1.554091e-09
3.868778e-08 -1.183437e-08 2.584317e-09 1.656907e-08 -1.383433e-09 -8.409052e-10
-9.001681e-09 -1.295589e-09 2.397235e-09 1.854638e-09 -1.465761e-09 -4.473832e-10
2.053466e-09 -2.134631e-08 2.852872e-09 1.773007e-09 -2.300081e-09 -4.385109e-12
2.128281e-09 -1.628832e-08 -1.238817e-09 3.849885e-09 -1.599077e-09 3.038413e-10
2.179160e-09 -2.377730e-08 2.377845e-09 3.908566e-09 1.376754e-09 1.975109e-10
4.036375e-09 -2.673974e-08 3.147283e-09 5.493710e-09 -5.582700e-09 2.058338e-10
-7.735962e-09 -5.773725e-09 -5.887575e-10 5.283573e-09 -1.562146e-09 4.500791e-10
-9.570161e-09 2.803739e-09 7.950951e-10 -6.918847e-10 -7.819332e-10 5.669691e-10
-5.200354e-09 -1.089386e-08 3.250171e-09 1.749259e-09 -1.080996e-09 -2.619382e-10
-8.037621e-11 -1.732305e-08 -1.197662e-08 -1.530686e-08 -8.264245e-09 -3.772646e-09
-3.645932e-09 -1.271244e-08 1.059735e-09 2.994758e-09 -7.959131e-10 1.634651e-10
-1.803420e-09 3.433093e-08 -5.697058e-08 -8.855512e-09 -1.291827e-08 -6.290983e-09
1.560510e-08 -3.257892e-08 -9.527106e-09 -5.660581e-09 -1.534795e-09 -2.350839e-10
-7.491243e-10 -1.699119e-08 3.873285e-09 -1.395343e-09 -3.017897e-10 -1.152026e-09
-1.305959e-09 -1.923436e-08 2.868612e-09 8.023909e-09 -3.039218e-09 1.061441e-09
9.332363e-09 -2.948912e-08 -3.366317e-09 5.736814e-09 -9.137071e-09 1.886482e-09
1.290287e-08 -4.928568e-09 2.212213e-10 -1.134424e-08 7.942343e-10 -1.758048e-09
-2.143401e-08 1.485669e-08 -3.477342e-09 1.451820e-08 1.125271e-08 -7.484371e-09
1.254232e-08 -2.844783e-08 -8.175363e-09 9.202970e-09 -3.107513e-09 8.394600e-10
-2.756701e-09 -1.691217e-08 -3.982674e-09 1.156529e-08 -7.777146e-09 3.342382e-09
-1.959867e-08 2.875335e-09 -8.498306e-10 1.936809e-08 1.034589e-08 -4.449272e-09
1.174821e-08 -3.303980e-08 -3.002251e-09 7.196153e-10 -2.609414e-09 4.402706e-10
2.668323e-09 -1.067857e-08 -2.317057e-08 2.705835e-08 7.258663e-09 -2.416528e-09
-1.531444e-08 1.006138e-09 -1.085703e-09 8.085812e-09 -1.758816e-09 6.046741e-10
-3.087279e-09 -1.112794e-08 -3.691371e-09 1.950679e-08 1.414063e-09 -3.151797e-10
3.728560e-10 -1.270322e-08 -1.962076e-09 3.991782e-09 -1.270781e-09 3.394034e-10
-9.437581e-09 3.610358e-09 8.176246e-10 -2.207850e-09 -2.665751e-10 -4.406984e-10
-9.537426e-09 1.600776e-09 1.147648e-09 -8.602915e-11 -1.002081e-10 2.036380e-10
-9.570161e-09 3.769262e-09 6.030465e-11 -1.953496e-09 -1.016571e-09 -2.689346e-10
-4.671357e-09 -1.041881e-08 2.182050e-09 5.597979e-09 -4.220110e-09 -3.573530e-10
1.296626e-08 -5.049990e-09 1.242926e-10 -1.115931e-08 9.431676e-11 4.735635e-10
-8.611550e-09 3.336050e-09 5.689378e-10 -2.122420e-09 -9.026739e-10 3.697776e-11
-9.331933e-09 2.465392e-09 1.372646e-09 -1.680310e-09 -4.860493e-10 -4.027746e-10
-4.732529e-09 -1.134214e-08 -1.143328e-09 7.971566e-09 -5.479633e-09 3.104282e-09
3.032777e-10 -1.143980e-08 -3.602228e-09 5.925826e-09 -2.728333e-10 9.921508e-11
8.944539e-09 -5.187521e-09 -1.157990e-09 -9.288820e-11 -1.921276e-10 5.925965e-11
-7.876706e-10 -7.126860e-09 -6.745032e-09 8.588527e-09 -2.381899e-09 8.513618e-10
-8.565925e-09 4.272640e-09 1.249274e-09 -2.135606e-09 -1.626086e-10 -3.415549e-10
-8.387285e-09 3.417397e-09 1.521149e-09 -1.825105e-09 -4.581904e-10 -8.921390e-10
-2.240753e-09 2.166975e-09 -1.927591e-11 -2.809204e-09 -3.462808e-11 -1.548578e-11
-6.846557e-09 4.835512e-09 6.820997e-10 -2.140599e-11 2.157119e-11 -9.201618e-22
-9.644559e-09 2.774852e-09 1.893391e-09 1.064722e-10 2.361538e-10 -6.490419e-10
-8.987148e-09 3.927187e-09 1.555085e-09 -4.234564e-10 -1.394675e-10 -1.441722e-10
-9.167676e-09 3.231028e-09 1.461513e-09 -1.544031e-09 1.182903e-10 -4.086063e-10
-9.266120e-09 3.690404e-09 1.567766e-09 -1.305018e-10 9.987211e-11 -2.945013e-10
-5.619138e-09 1.734294e-08 -3.311365e-08 -1.359364e-08 -4.020472e-09 -1.337055e-09
-8.065183e-09 1.633864e-08 -3.197810e-08 -1.195600e-08 -3.871937e-09 -2.088867e-09
-6.955927e-09 4.395392e-09 7.833068e-10 -1.562911e-09 6.682299e-11 7.635248e-11
-6.568950e-09 4.806337e-09 5.808181e-10 -1.086701e-10 -1.024048e-10 -6.422463e-11
-1.058255e-08 2.228668e-08 -2.767425e-08 -7.906949e-09 -5.317927e-09 -3.529492e-09
-7.161917e-09 5.028735e-09 7.036287e-10 -3.667389e-11 -4.737444e-11 -2.332934e-11
-1.108872e-08 2.145534e-08 -2.208057e-08 -8.458125e-09 -9.391982e-09 -9.935097e-09
-1.223389e-08 1.567232e-08 -1.322072e-08 -8.129837e-09 -4.062086e-09 -2.314903e-09
-9.497764e-09 2.305352e-08 -1.591430e-08 -2.541486e-09 -4.681223e-09 -5.017244e-09
1.088252e-08 -3.374886e-08 5.970013e-09 -1.733828e-09 3.054277e-10 -3.645358e-10
1.172729e-08 -3.547081e-08 6.852259e-09 -1.070302e-09 2.481402e-10 -6.191597e-10
6.465496e-09 -2.618131e-08 5.822000e-09 -3.152424e-10 1.559886e-10 -1.590770e-09
2.943114e-09 -1.930825e-08 5.025892e-09 -4.791751e-09 1.723349e-10 -8.658348e-10
9.154079e-09 -3.118263e-08 5.514397e-09 -4.432012e-09 1.048072e-09 -4.669938e-10
-5.217547e-09 -7.229035e-09 2.409791e-09 -7.733135e-09 3.499907e-10 1.105384e-10
-6.965922e-09 -2.436493e-09 2.481666e-09 -5.228894e-09 2.643881e-10 -2.962157e-10
-5.991974e-09 -3.884102e-09 2.405940e-09 -4.435049e-09 1.314761e-09 1.113174e-10
-2.211671e-09 1.930451e-09 -4.241252e-11 -9.402568e-11 -3.697571e-10 3.441693e-14
8.152163e-09 -3.971117e-09 -1.197034e-09 -1.530875e-09 -3.900053e-11 3.450720e-10
6.649053e-09 -3.988426e-09 -1.012990e-09 -8.953460e-11 -3.645617e-11 2.602230e-11
-4.880493e-09 -5.684679e-09 3.047069e-09 -4.687314e-09 3.274669e-10 1.701793e-10
9.386846e-09 -5.145617e-09 -1.281792e-09 -2.721059e-09 -5.465561e-11 3.019247e-10
5.505406e-09 -2.435098e-09 -9.307717e-10 -1.623730e-09 -1.610309e-10 -2.770306e-11
8.016098e-09 -4.626305e-09 -1.211055e-09 -1.862825e-09 -2.842376e-11 -6.694889e-11
8.591625e-09 -4.641675e-09 -1.231000e-09 -1.640423e-10 -1.716195e-10 1.064127e-11
-4.880493e-09 -7.769085e-09 3.443939e-09 -5.078450e-09 -2.766667e-10 -1.480752e-10
-7.082137e-09 -9.296031e-10 2.426268e-09 -2.100122e-09 9.972019e-10 4.413713e-11
8.216570e-09 -3.662561e-09 -1.132102e-09 -3.928771e-09 -2.880369e-10 2.223527e-10
7.179398e-09 -3.961364e-09 -9.923357e-10 -3.354304e-10 -2.226976e-10 -7.271162e-11
-7.252421e-09 1.045485e-09 2.198271e-09 -3.210135e-10 7.298104e-10 1.251053e-10
7.143357e-09 -4.011001e-09 -1.046911e-09 -1.329306e-09 3.967604e-11 -1.075325e-10
-6.502863e-09 -2.041696e-09 2.825923e-09 -2.509120e-09 1.140705e-10 2.163900e-10
-6.502863e-09 -3.747921e-09 3.051673e-09 -3.005124e-09 -4.034768e-10 -1.689814e-10
-1.022501e-08 -1.026765e-08 4.704729e-09 6.972309e-09 9.279746e-10 -1.244312e-10
-1.626793e-09 -1.458187e-08 2.518100e-09 -1.060337e-08 1.286460e-10 3.302636e-10
-8.633577e-09 4.501275e-09 1.251225e-09 -7.412060e-10 -8.530199e-11 -5.186314e-10
-1.111843e-08 -9.156351e-09 5.700763e-09 2.691994e-09 -9.211120e-11 -5.667621e-10
-8.482672e-09 -1.034911e-08 5.250123e-09 4.980749e-09 1.591493e-09 -6.397791e-10
-1.263971e-08 -3.074910e-09 3.096503e-09 9.197066e-09 3.389258e-09 -9.398672e-10
-1.159876e-08 -8.112152e-09 4.513242e-09 9.776293e-09 2.416944e-09 -4.088771e-10
-1.099712e-08 -8.110626e-09 5.315765e-09 5.314264e-09 5.683934e-10 -2.159058e-10
-6.508905e-09 4.092538e-09 7.737000e-10 -1.795406e-09 -3.384715e-10 -1.383237e-10
-5.708746e-09 -1.720049e-08 5.332556e-09 1.029507e-08 1.640563e-09 -2.641449e-10
-7.518161e-09 -1.775476e-08 4.857012e-09 1.109931e-08 1.564287e-09 -7.855487e-10
-9.587353e-09 -7.908635e-09 3.326999e-09 1.171649e-08 6.496896e-10 7.585914e-10
-8.855453e-09 4.356172e-09 1.520424e-09 -6.345653e-10 -6.136092e-11 -4.501339e-10
-7.785388e-09 4.636814e-09 1.032229e-09 -6.372716e-10 -1.055755e-10 -4.626406e-10
-9.201826e-09 3.902906e-09 1.572448e-09 -1.671316e-10 1.278608e-10 -5.119469e-10
-8.856873e-09 4.197410e-09 1.199139e-09 -9.710308e-10 -2.503837e-10 -7.541876e-10
-8.407430e-09 3.046695e-09 1.505056e-09 -3.299851e-10 -8.648271e-10 -9.924404e-10
-7.731622e-09 -7.887582e-09 1.485510e-09 1.114760e-08 2.415956e-10 3.049283e-10
8.609775e-10 -1.684553e-08 4.541627e-09 -3.286078e-09 3.463359e-10 -2.959437e-10
-5.217547e-09 -8.979996e-09 3.047069e-09 -7.829450e-09 6.852057e-10 1.899387e-10
8.127342e-09 -2.975515e-08 4.186151e-09 -6.865837e-09 1.658074e-09 1.417884e-11
1.460615e-08 -3.512994e-08 -2.540871e-09 9.624074e-10 4.444443e-19 2.309024e-10
6.831015e-09 -2.537742e-08 5.650025e-09 -6.248877e-09 3.217879e-10 -4.085180e-10
1.742521e-09 -1.895874e-08 4.606780e-09 -4.793717e-09 6.418721e-10 -8.075263e-10
-7.040641e-09 4.988002e-09 7.564247e-10 -5.073049e-10 -1.100871e-10 -1.269226e-10
4.304887e-09 -2.214469e-08 5.169935e-09 -6.237231e-10 3.706595e-10 -6.834805e-10
6.388016e-09 -2.491629e-08 5.103868e-09 -5.575922e-09 7.945490e-10 -5.515982e-11
-7.938331e-09 5.078418e-09 8.943999e-10 -2.027178e-10 -3.560818e-11 -2.890046e-10
5.153449e-09 -2.326135e-08 5.177625e-09 -1.631407e-09 -2.489887e-10 -4.565444e-10
-8.107817e-09 3.669451e-09 1.291591e-09 -1.832116e-09 -1.776431e-10 -1.141429e-10
-8.185555e-09 4.867823e-09 1.039020e-09 -4.889510e-10 -2.135803e-11 -6.352524e-11
-6.736103e-10 -2.347987e-08 7.477234e-09 1.016541e-09 -4.796274e-10 4.536143e-10
-9.335637e-09 3.769674e-09 1.695473e-09 -7.375291e-10 -3.568035e-11 -1.780349e-10
-8.728370e-09 4.163073e-09 1.288831e-09 -1.412674e-10 2.711176e-11 -6.305065e-10
-4.581274e-09 -1.945585e-08 7.102779e-09 2.119727e-09 5.236759e-10 -3.105383e-11
7.370223e-09 -3.145722e-08 4.116938e-09 -1.433327e-09 -1.402967e-09 -8.210086e-10
-2.428493e-09 -2.136770e-08 7.389459e-09 1.143349e-09 4.266283e-10 7.373658e-12
-1.998751e-09 -2.321924e-08 7.274296e-09 1.493755e-09 -1.912975e-10 4.363025e-10
-3.667933e-09 -1.944415e-08 6.445250e-09 5.100723e-09 6.837126e-10 -2.693261e-10
-2.676884e-09 -2.185234e-08 7.104934e-09 3.797799e-09 -3.519088e-10 6.734639e-10
-1.947423e-09 -2.167822e-08 7.226724e-09 2.263335e-09 2.426403e-10 4.152459e-10
2.386455e-08 -3.213668e-08 -3.511981e-08 -1.177284e-08 -2.319467e-08 -1.922501e-09
1.854144e-09 -1.862912e-08 4.243019e-10 4.351793e-10 4.444055e-16 3.634633e-10
-1.543540e-08 2.783128e-09 -4.445357e-10 -3.899116e-09 -1.778365e-09 -1.006828e-09
2.106109e-09 -2.202804e-08 1.579763e-09 2.723980e-09 -3.511006e-09 -3.666438e-10
-1.603584e-08 5.647912e-09 9.337131e-10 -4.008240e-09 -4.164627e-09 -1.136603e-09
-8.722526e-09 -1.214391e-08 3.233976e-09 1.359931e-08 2.473507e-09 -6.661265e-10
-3.455486e-09 -1.984933e-08 7.385212e-09 7.620677e-10 4.034595e-11 -2.348953e-10
-2.418176e-09 -2.018947e-08 7.307704e-09 2.521400e-09 2.885379e-10 1.993934e-10
-4.315121e-09 -2.065056e-08 5.477760e-09 9.446015e-09 1.494190e-10 1.764275e-10
4.607036e-10 -2.425784e-08 2.686551e-09 1.295727e-08 2.697747e-09 -1.236952e-09
-1.499561e-08 1.121518e-08 -3.476283e-09 -8.762500e-10 -4.187282e-09 -8.077375e-10
-1.506376e-08 6.110625e-09 -1.658655e-09 -6.462459e-09 -5.850783e-09 -2.645705e-09
7.353962e-11 -1.975160e-08 1.248415e-09 1.556727e-08 1.558117e-09 -3.516476e-11
-7.351172e-09 -1.384325e-08 5.428048e-09 5.580863e-09 6.678633e-10 -4.550869e-10
3.153077e-09 -2.704184e-08 7.651142e-10 1.493231e-08 2.235792e-09 -1.059254e-09
-3.394190e-09 -1.775476e-08 3.789676e-09 1.187428e-08 1.146856e-09 -3.035525e-10
5.590117e-10 -2.374141e-08 5.526402e-09 7.736957e-09 1.395251e-09 4.195841e-10
-3.660905e-09 -2.078621e-08 7.154288e-09 4.605047e-09 -1.236857e-10 6.863725e-10
-3.956149e-09 -1.836782e-08 6.839334e-09 9.896417e-10 -1.714024e-10 3.170655e-10
2.460738e-09 -8.519777e-09 -1.502479e-08 1.176437e-08 -6.114542e-09 3.805168e-09
2.567826e-08 4.449751e-09 -6.951662e-08 3.703175e-10 -1.152607e-08 3.538606e-09
-1.173212e-08 1.548902e-08 -1.161617e-08 -6.758019e-09 -4.409056e-09 5.831668e-09
2.520772e-08 -5.698763e-08 1.402601e-09 6.667916e-10 -1.774914e-08 1.764073e-09
1.881766e-08 -8.645789e-09 -4.205367e-08 -1.637394e-08 -2.062681e-08 -5.255030e-09
2.034568e-08 -1.682113e-08 -3.062281e-08 8.711296e-09 -1.482293e-08 4.201163e-09
5.014618e-09 5.075660e-10 -3.353200e-08 1.210571e-08 -5.531872e-09 4.264970e-09
-7.097593e-09 -3.287293e-09 -5.984433e-09 6.537572e-09 -4.152655e-09 1.283831e-09
1.104738e-08 -2.859576e-08 -3.983758e-09 4.486517e-09 -7.862084e-10 3.454329e-10
-1.680905e-08 5.283221e-09 2.049205e-11 -8.863559e-10 -1.118748e-09 -3.786385e-10
-1.628911e-09 -1.531627e-09 -2.017018e-08 1.128641e-08 -9.276089e-09 5.113366e-09
-1.670855e-09 -1.242937e-08 2.500488e-09 8.230144e-09 -4.094347e-09 5.852254e-10
1.406522e-08 -6.496493e-09 -1.060127e-09 1.251246e-09 1.398999e-10 -1.648796e-10
1.371904e-08 -7.608179e-09 3.095737e-10 2.668576e-09 -2.561923e-10 -1.050418e-09
-1.629930e-08 1.240776e-08 -3.227800e-09 -3.716312e-09 -3.768797e-09 -4.001588e-10
4.693352e-08 -1.063779e-08 -4.383767e-09 9.727211e-09 5.689771e-10 1.252547e-09
1.427224e-08 -7.590656e-09 3.671730e-11 2.612542e-09 3.612289e-10 1.467475e-10
4.547936e-08 -1.672739e-08 -5.790747e-09 2.771906e-09 4.745793e-10 2.530595e-10
1.632083e-08 -7.406421e-09 4.690564e-09 6.942437e-09 1.534815e-10 -1.112263e-09
1.648077e-08 -7.437524e-09 -7.313359e-10 4.284961e-10 -3.918855e-11 -7.787051e-10
5.859390e-09 -1.285142e-09 1.443575e-09 8.538706e-09 4.661917e-10 2.665626e-10
1.820130e-08 -8.176182e-09 1.982133e-09 5.612451e-09 3.889404e-10 -1.470148e-09
4.981491e-08 -1.788496e-08 -4.723558e-09 -4.702547e-10 4.299599e-10 2.291546e-09
1.908235e-08 -9.957425e-09 9.182959e-09 6.870738e-09 2.833823e-10 -1.192642e-09
4.699364e-08 -1.359877e-08 -7.774231e-09 -2.276073e-09 1.897222e-10 1.092618e-09
4.806313e-08 -5.951969e-08 1.023329e-07 -5.972872e-09 -6.361602e-09 5.815599e-08
5.010201e-08 -1.573236e-08 -6.686456e-09 3.377625e-10 6.506559e-10 2.553754e-09
6.005052e-08 -2.372471e-08 1.421442e-08 4.219467e-09 5.094812e-09 1.855788e-08
1.174836e-08 1.124830e-08 -9.748305e-09 7.179841e-09 -7.134418e-09 -6.446930e-09
5.042848e-08 -9.548661e-09 -6.752870e-09 1.094533e-08 2.322173e-09 5.794409e-09
6.619082e-08 -3.718219e-08 1.041941e-07 1.733500e-08 1.013060e-08 6.737219e-08
5.922563e-08 -1.164725e-08 -7.469762e-09 1.257395e-08 2.388885e-09 1.300148e-08
6.823392e-08 -2.347745e-08 -1.728493e-10 1.564703e-09 1.792170e-09 1.953944e-08
4.449532e-08 -1.022072e-08 -1.070757e-08 7.628999e-09 -1.125828e-09 7.499378e-10
-1.508690e-09 5.227522e-09 -1.236637e-08 -1.822042e-08 4.834321e-09 2.688969e-09
5.243614e-09 3.770242e-08 -2.018792e-08 3.339179e-08 5.144489e-09 -4.301294e-09
1.476804e-09 1.671015e-08 -1.112199e-08 1.097084e-08 1.658501e-11 2.086479e-09
-1.096801e-09 4.594913e-08 -2.029966e-08 2.336028e-08 -4.321286e-09 -3.367423e-09
1.129488e-08 3.302209e-08 8.219998e-09 4.939134e-08 2.656243e-08 8.286449e-09
3.998993e-08 -2.715705e-08 3.398749e-08 -1.738473e-08 -1.172668e-09 1.852972e-08
-9.324082e-09 -2.486945e-09 -5.786140e-09 -1.712874e-08 1.308716e-09 1.462989e-09
-1.803404e-09 -3.973654e-09 -2.371083e-08 -2.429352e-08 5.097832e-09 3.819500e-09
-4.195539e-08 1.004942e-07 4.344535e-08 -2.364352e-08 -3.635304e-08 1.953243e-08
-2.309792e-08 7.335494e-08 -1.878387e-08 -2.315513e-08 5.638558e-09 -3.526110e-09
2.733259e-08 7.189997e-08 -1.442486e-07 4.597880e-09 6.566433e-08 -7.265717e-09
-1.435756e-08 -3.703089e-09 1.180358e-07 -6.120983e-08 -3.925579e-08 4.613007e-08
-5.918299e-08 6.593837e-08 9.186387e-08 -3.150665e-08 -3.387639e-08 4.730779e-09
-4.291460e-08 9.606713e-08 -3.304686e-08 -1.050706e-08 -8.893794e-09 -4.238119e-08
-2.010049e-09 -9.443716e-09 -3.594783e-09 -1.458983e-08 6.845436e-11 -4.712669e-11
-3.785480e-09 -1.240121e-08 -5.524203e-10 -1.623734e-08 3.836551e-09 1.001529e-09
-1.875699e-09 -8.776753e-09 -1.657449e-08 -2.351576e-08 2.172147e-09 8.293106e-10
-3.789688e-09 6.696026e-09 -2.236662e-09 -1.205751e-08 -3.118550e-10 4.267403e-10
2.654223e-09 -1.482858e-08 -7.110258e-09 -1.820605e-08 -2.500972e-10 -1.979593e-10
1.420917e-08 -7.139453e-09 -9.327512e-10 -2.483198e-09 -5.701104e-11 -8.230257e-10
4.224241e-09 2.647595e-09 -5.650458e-10 -1.459283e-08 -7.066565e-10 8.115537e-10
2.639069e-09 -1.713782e-08 -7.456513e-09 -1.858828e-08 6.129280e-09 2.129994e-09
-2.054367e-09 2.237091e-08 -1.369698e-08 -1.929697e-08 -1.806576e-09 2.571039e-09
3.930102e-08 7.773601e-09 -5.433267e-09 3.262394e-08 1.175506e-08 9.430171e-09
-3.519001e-08 4.271713e-08 3.103305e-08 -5.106183e-08 -2.419097e-08 -5.631934e-09
-1.564148e-08 9.541772e-08 -8.345379e-08 1.593235e-08 1.392553e-08 -2.871231e-08
3.695748e-08 -6.912931e-09 -5.895508e-09 7.631026e-09 2.390387e-10 4.168872e-09
1.938684e-08 -1.616671e-09 -5.395960e-09 1.033450e-08 -1.189132e-09 -1.752397e-09
2.686571e-08 -1.405614e-09 -8.137409e-09 1.353306e-08 2.429536e-09 -1.062779e-09
-4.247539e-08 1.268060e-07 -3.011253e-08 -1.881296e-08 -5.708924e-08 -1.790810e-08
4.677865e-08 -1.275509e-08 -8.507595e-08 -3.123024e-09 4.234857e-08 5.210112e-09
-2.649739e-09 -3.872714e-09 -3.438109e-08 -2.974368e-08 1.595768e-08 1.246867e-08
2.039457e-08 3.955374e-08 -1.038232e-07 2.082077e-08 5.296997e-08 -2.175840e-08
2.588408e-08 -2.587433e-08 -3.150586e-08 -1.380249e-08 4.381701e-09 8.011342e-10
3.232496e-08 2.343327e-09 -7.502095e-09 9.674245e-09 -9.169957e-10 1.238962e-10
-1.271575e-09 1.863478e-08 -1.117147e-08 6.892456e-09 -2.983546e-09 -1.511364e-09
2.433695e-09 1.327635e-08 -1.284058e-08 1.041894e-08 -4.304268e-09 -6.734862e-09
3.586253e-09 3.622785e-08 -4.969118e-08 -3.184255e-08 1.552225e-08 2.146668e-08
2.318220e-08 6.297481e-09 -2.515694e-09 2.293397e-08 -6.264866e-10 2.888180e-09
8.234421e-09 1.091093e-08 -2.767467e-09 2.382168e-08 1.544877e-09 -1.467962e-09
-4.087116e-10 2.248584e-08 -3.181159e-08 -2.276282e-08 4.224239e-09 2.283741e-09
8.075140e-09 2.102054e-08 -6.641951e-08 -2.257688e-08 9.169313e-09 1.941642e-09
-1.074695e-08 2.899039e-08 -3.181159e-08 -1.765499e-08 5.910096e-09 3.815737e-09
9.581536e-09 -3.946118e-08 8.294033e-10 1.646061e-08 -1.384616e-08 5.519086e-09
-3.276728e-09 2.094433e-08 2.802453e-08 -3.441962e-08 4.775776e-09 4.897307e-09
6.548604e-09 -2.673404e-08 5.718053e-09 -1.905845e-10 -1.262062e-09 -3.646940e-10
4.990131e-09 -3.150534e-08 -9.635244e-10 1.233651e-08 -1.084305e-08 4.071402e-09
-1.750610e-08 8.140681e-08 -6.575891e-08 -2.607287e-08 -2.313078e-08 5.014074e-10
-6.053687e-08 -4.512597e-08 2.488006e-07 -8.758652e-09 -4.455932e-09 -2.105970e-08
-1.160444e-08 8.003381e-09 4.169984e-08 2.691219e-08 -1.308743e-08 -7.540112e-09
3.283234e-09 -1.428820e-08 9.476549e-08 -4.466858e-09 -4.733341e-10 -2.738915e-08
1.471301e-08 -3.344985e-08 -4.660672e-09 8.834221e-09 -6.954267e-09 2.412078e-09
-1.821067e-07 -3.934451e-08 3.471914e-07 -2.126316e-08 7.269658e-08 -1.367886e-08
-6.225240e-09 -3.470779e-08 1.082931e-07 -1.503667e-08 -9.402148e-09 -8.999067e-09
-1.885573e-08 4.661516e-10 4.122049e-08 1.839393e-08 8.859244e-10 8.951760e-09
2.371083e-08 -5.109383e-08 3.032077e-09 7.330538e-09 -1.390019e-08 2.237078e-09
-2.578740e-08 4.206532e-08 -7.041491e-09 9.943218e-09 4.587151e-10 7.999361e-11
-3.988648e-09 6.030822e-09 6.219327e-10 6.119615e-09 -5.112160e-10 4.301471e-11
4.007511e-09 1.116052e-07 -1.244078e-07 1.064120e-08 -2.438399e-09 2.939770e-09
-2.869119e-08 8.806615e-08 4.000979e-08 2.068828e-08 -9.001021e-08 7.872038e-09
-5.259758e-09 -1.431032e-08 1.480675e-07 -2.571316e-08 3.633313e-08 -4.997289e-08
1.235648e-08 -4.432945e-08 5.266797e-09 1.247263e-08 -1.077620e-08 1.828572e-09
1.035467e-08 -3.790100e-08 4.917462e-09 5.043159e-09 -4.131060e-09 -3.128116e-10
-2.635705e-08 8.012066e-08 -2.228970e-08 -1.202288e-08 -4.287618e-08 3.063955e-09
-4.435196e-08 -3.579355e-08 1.921884e-07 4.579088e-09 1.387819e-09 -1.981929e-08
-1.953403e-08 -1.583236e-08 1.140574e-07 1.736668e-08 -5.220964e-08 -4.341338e-08
-2.557146e-08 2.847486e-08 4.382960e-08 -4.479654e-08 2.365369e-08 -9.121015e-09
9.453792e-09 -5.244836e-09 -1.269900e-09 -4.943930e-10 -1.016503e-10 1.081308e-10
9.596375e-09 -5.715584e-09 -1.252710e-09 3.979592e-11 1.358410e-11 6.740797e-11
-7.155698e-08 -5.670868e-08 2.361328e-07 1.552762e-08 -1.033409e-08 -4.277070e-08
-4.357522e-08 -3.561743e-08 2.488006e-07 5.535441e-09 -5.012622e-09 -2.228066e-08
9.909545e-09 -5.620887e-09 -1.363953e-09 -1.877656e-10 -8.300308e-11 1.925037e-10
9.846870e-09 -5.584152e-09 -1.359175e-09 2.161763e-11 -2.243578e-11 -1.227329e-11
1.457005e-08 -4.007117e-08 6.537547e-09 3.501120e-09 1.534760e-09 -5.218692e-11
9.486040e-09 -5.145617e-09 -1.398428e-09 -2.700565e-09 -1.118505e-10 1.844103e-10
9.963195e-09 -5.630029e-09 -1.278503e-09 -1.990781e-10 -6.990089e-11 7.247869e-11
1.010074e-08 -5.691773e-09 -1.357760e-09 2.625319e-11 1.121778e-11 1.836100e-10
1.037054e-08 -5.358594e-09 -1.364039e-09 -6.223011e-10 -1.027118e-10 -2.882911e-11
8.565274e-09 -2.949692e-08 5.799698e-09 -2.879538e-09 -9.425115e-11 -4.365907e-10
8.183438e-09 -2.828941e-08 5.748070e-09 -8.476006e-09 1.323110e-10 1.758460e-10
8.752466e-09 -3.089155e-08 5.776007e-09 -6.253799e-09 3.373480e-10 -8.341884e-10
8.436118e-09 -4.703920e-09 -1.018344e-09 -1.393672e-10 -3.434222e-10 9.035928e-11
9.995937e-09 -5.626643e-09 -1.309372e-09 3.266510e-10 5.613670e-11 -4.818857e-11
1.084571e-08 -5.818622e-09 -1.388211e-09 5.845571e-10 7.010422e-11 2.896994e-11
1.119750e-08 -6.018165e-09 -1.459235e-09 -1.036125e-10 2.275913e-11 7.606288e-11
8.382758e-10 -1.655961e-08 4.445039e-09 -4.932903e-09 -4.553462e-11 -1.444672e-09
-5.354600e-09 -5.395040e-09 3.142846e-09 -8.993753e-10 -4.074672e-10 -4.159790e-10
9.983293e-10 -1.469775e-08 3.507383e-09 -8.189064e-09 1.324071e-10 -1.911134e-10
-6.205166e-09 -2.531516e-09 2.948961e-09 -9.490644e-10 2.937772e-10 -1.121641e-10
7.341350e-12 -1.533478e-08 4.047277e-09 -5.468446e-09 1.121238e-09 -5.806666e-10
1.107879e-08 -6.172664e-09 -1.327325e-09 -2.865084e-10 -6.586283e-11 1.993276e-10
1.046803e-08 -5.925335e-09 -1.387435e-09 -1.210520e-11 -7.395728e-11 -1.733627e-10
7.018801e-09 -3.053224e-08 4.870709e-09 8.275924e-09 8.998247e-10 -2.467750e-10
4.624496e-10 -2.675304e-08 7.223006e-09 4.537994e-09 -1.048297e-10 4.032865e-10
1.436570e-09 -3.010054e-10 -3.933078e-10 3.111591e-09 4.875145e-10 6.341727e-11
-1.367386e-08 1.394142e-08 1.309170e-09 7.431545e-09 -3.937547e-10 -6.314721e-10
-1.855560e-09 -2.163176e-08 7.236069e-09 6.355070e-10 -1.050893e-09 4.990537e-10
2.251532e-10 -2.279794e-08 6.586486e-09 6.479049e-09 2.317875e-10 6.279699e-11
-1.683757e-09 -2.107322e-08 6.671248e-09 9.822341e-09 1.036365e-10 -2.469964e-10
-2.942504e-09 3.843297e-08 -2.681080e-08 -1.488103e-08 -9.142765e-09 5.123594e-09
-9.841722e-11 -2.485918e-08 6.622429e-09 7.324316e-09 -9.297433e-12 1.107767e-10
3.442133e-09 -2.860981e-08 5.935894e-09 1.003675e-08 2.872344e-10 -9.390246e-11
2.472503e-10 -2.269501e-08 6.048984e-09 8.604194e-09 -1.882840e-10 4.967751e-10
1.878721e-10 -2.436949e-08 4.847172e-09 9.244241e-09 1.231076e-09 -3.026079e-11
4.607924e-08 5.452018e-10 -1.168701e-08 2.323683e-08 3.598835e-09 6.317879e-09
3.244751e-08 -1.296590e-09 -4.928770e-09 1.776332e-08 1.609621e-09 1.355269e-09
3.246621e-08 -1.003963e-08 -4.263836e-09 5.372358e-09 5.518537e-10 -6.512106e-10
4.141147e-08 -1.213712e-08 3.259616e-09 1.614044e-08 9.074671e-10 8.317667e-09
3.277628e-08 -1.833047e-09 -7.499454e-09 1.306183e-08 2.538400e-09 1.126150e-09
4.462733e-08 -1.213846e-08 -3.947210e-09 1.315990e-09 2.919604e-10 6.809879e-10
3.102511e-08 -1.674226e-09 -5.789683e-09 7.122111e-09 8.206183e-12 -5.484095e-10
3.156799e-08 -4.606071e-09 -6.546660e-09 6.865321e-09 -6.458356e-10 4.725527e-10
3.340739e-08 -4.971610e-09 -6.450711e-09 2.052905e-09 -8.781174e-10 -1.017533e-10
-7.165998e-09 -4.654122e-09 3.188243e-09 1.881992e-09 -7.200050e-10 -7.051476e-10
-5.898535e-09 -6.664224e-09 6.817977e-10 1.378228e-09 -6.050982e-11 -1.871698e-10
-6.039151e-09 -6.914480e-09 2.255872e-09 1.034990e-10 5.344569e-11 -5.897045e-10
-6.880994e-09 -1.000297e-08 2.085720e-09 8.199862e-09 -3.892615e-09 1.994091e-09
-1.359243e-08 4.480444e-09 -2.457799e-09 -9.914529e-09 -5.718950e-09 -2.915419e-09
6.905143e-10 4.786838e-10 -3.479037e-10 -3.869984e-09 -5.741971e-10 1.059657e-10
7.403139e-09 -2.822133e-08 5.902058e-09 -1.806429e-09 -7.896630e-10 -2.656573e-10
6.611779e-09 -3.716515e-09 -1.067664e-09 -1.562514e-09 -2.831363e-10 3.959605e-11
7.084296e-09 -3.422884e-09 -9.386014e-10 -1.813881e-09 -2.134051e-10 8.443718e-11
-1.220644e-08 -4.101555e-09 3.101026e-09 -2.734648e-09 -1.240464e-09 -9.795199e-11
5.398345e-09 -2.662115e-09 -8.794800e-10 -2.966689e-10 1.107114e-10 4.440235e-16
3.773309e-09 -9.815944e-10 -7.840320e-10 -2.795562e-09 1.225846e-10 3.051193e-10
-8.357155e-10 1.345037e-09 -1.331868e-10 -1.314310e-09 1.041922e-10 -1.353229e-11
-7.444042e-09 3.816012e-09 1.050366e-09 1.468887e-10 4.377165e-11 -9.009993e-11
2.111874e-09 -5.610357e-10 -5.803309e-10 -8.336833e-10 -2.227041e-11 3.621672e-10
-1.935033e-09 1.857100e-09 -2.051337e-11 -1.599183e-10 8.832735e-11 -2.825032e-20
-7.344234e-09 3.402377e-09 1.207577e-09 2.846394e-10 9.793677e-11 -9.296586e-11
2.296280e-09 -2.846154e-10 -5.377769e-10 -8.175641e-11 -4.419522e-12 5.174083e-12
-7.533245e-09 3.344223e-09 1.402880e-09 2.495425e-10 9.836433e-11 -3.016225e-10
-1.372705e-09 1.649314e-09 -1.256151e-11 -6.286127e-10 -2.362097e-10 -5.037998e-10
2.811328e-09 -9.815944e-10 -7.516450e-10 -2.851726e-09 8.657608e-11 2.200018e-11
-1.394445e-09 1.872810e-09 -2.343690e-10 -3.480926e-09 -1.406564e-11 2.126299e-12
5.544063e-10 7.357013e-10 -5.021130e-10 -2.425608e-09 -2.254401e-10 6.059131e-10
1.838188e-09 -2.109664e-10 -5.021121e-10 -1.503798e-09 3.978862e-11 -5.496603e-11
-7.367454e-09 3.776379e-09 1.100108e-09 1.524119e-10 2.364731e-11 -1.554026e-10
-7.092122e-09 3.823215e-09 1.006025e-09 1.511644e-10 5.759171e-12 -9.012591e-11
2.257772e-08 -4.492095e-08 -6.844096e-09 -2.342948e-09 -7.104366e-09 -5.304555e-10
-7.412464e-09 3.748461e-09 1.135732e-09 -1.475131e-11 3.165690e-12 -7.896062e-11
5.299404e-09 -1.840949e-08 6.303444e-08 1.193890e-08 8.438069e-11 4.518736e-10
-6.838749e-10 -9.283678e-09 8.528106e-08 -2.723617e-10 7.388059e-09 -8.018414e-09
-6.840391e-10 -1.658537e-08 6.975505e-08 -3.680622e-10 -5.874540e-09 -8.288865e-09
2.034799e-10 -2.283704e-08 6.461649e-09 6.516390e-09 1.259213e-10 1.163274e-10
-9.683248e-09 1.821391e-09 1.520588e-09 -1.094725e-09 1.338554e-10 -5.307034e-10
-8.965352e-09 -1.789962e-09 2.335219e-09 1.745965e-09 -8.307142e-10 -3.057229e-10
1.735231e-08 -3.946061e-08 -2.074942e-09 -9.138943e-10 -1.898879e-09 4.681501e-11
-8.094567e-09 -2.745269e-09 -1.788605e-10 3.385588e-09 -3.810168e-10 -5.704694e-10
1.364234e-08 -3.026620e-08 -1.373653e-08 -6.609819e-09 -3.464702e-09 -4.410070e-09
5.131385e-09 -2.856710e-08 2.694932e-09 -1.331265e-08 -8.712762e-09 -1.754398e-09
-8.587669e-09 5.552710e-09 1.073300e-09 1.004340e-09 7.336311e-10 -7.010060e-10
-9.570161e-09 1.057347e-09 1.379768e-09 2.899342e-10 -2.243557e-10 -3.953349e-10
-8.659078e-09 -1.933082e-09 2.459568e-09 2.324392e-09 -2.346852e-10 1.053427e-10
-5.563718e-09 -1.781008e-08 7.416767e-09 7.012000e-10 -2.269105e-10 1.710283e-10
-8.480922e-09 -1.371651e-08 6.627732e-09 1.465516e-09 -1.083840e-10 3.939238e-10
-8.415662e-09 -1.401077e-09 2.478618e-09 1.046430e-09 -1.549690e-09 -4.052244e-10
-9.215636e-09 -2.083672e-09 4.647669e-10 2.584395e-09 -1.913884e-09 4.090116e-10
1.240549e-08 -3.792707e-08 7.264432e-09 7.371873e-10 -1.258342e-10 -3.203060e-11
-7.910412e-09 -1.383342e-08 6.689222e-09 1.113935e-09 -9.229128e-11 1.203020e-10
1.218242e-08 -3.805768e-08 6.435935e-09 2.352448e-09 8.101277e-10 -1.522514e-10
-5.621851e-09 3.289223e-09 7.214354e-10 3.872348e-10 1.569821e-10 9.898704e-11
1.191452e-08 -3.774668e-08 6.285695e-09 2.909524e-09 1.289455e-09 -3.544417e-10
1.328172e-08 -3.835107e-08 6.412289e-09 -1.900679e-12 4.927441e-10 5.934142e-12
-4.532732e-09 2.721948e-09 6.203167e-10 4.726342e-10 1.158619e-10 -2.410554e-10
-7.340649e-09 3.996259e-09 1.075115e-09 1.322758e-11 -6.525835e-12 -6.576129e-11
-6.238482e-09 3.640091e-09 7.316294e-10 -2.583667e-11 1.663439e-10 -5.871187e-11
1.207426e-08 -3.710316e-08 6.708076e-09 1.786786e-09 6.995183e-11 2.089628e-11
-5.428411e-09 3.156342e-09 7.522938e-10 4.558298e-12 -1.136112e-11 -1.804823e-11
1.183051e-08 -3.775788e-08 7.264344e-09 9.651062e-10 -1.396671e-10 -2.280223e-10
1.505355e-08 -3.943737e-08 4.914940e-09 -1.174549e-09 1.531937e-09 -4.585888e-10
1.355614e-08 -3.727879e-08 6.563002e-09 8.824122e-10 5.829872e-10 -3.080131e-10
-5.366174e-09 -1.981627e-08 5.642905e-09 7.525830e-09 8.738431e-10 1.021151e-10
-9.190427e-09 7.162513e-09 7.910801e-10 2.853972e-09 -4.428045e-10 6.102142e-11
-9.580971e-09 -1.197751e-08 6.152358e-09 1.412100e-09 4.357101e-10 1.301328e-10
-4.984013e-10 1.168469e-09 6.681522e-11 2.578753e-09 3.998499e-10 -8.761347e-11
-9.485903e-09 9.541772e-08 -9.511243e-08 -6.230653e-11 2.775661e-08 -2.463258e-08
5.221912e-09 -2.322210e-09 -6.585574e-10 2.728814e-09 2.430351e-10 4.681217e-10
-5.086542e-09 2.761718e-09 7.229530e-10 4.249632e-10 5.150014e-11 -1.334893e-10
-5.096704e-08 -7.415272e-08 2.413898e-07 1.699217e-08 8.734834e-11 5.692219e-08
-5.257288e-09 2.969230e-09 8.804397e-10 1.267960e-09 1.701685e-10 2.609654e-10
-3.970023e-09 2.784231e-09 4.974552e-10 2.693219e-10 7.615281e-11 1.086075e-11
-4.398984e-09 2.578831e-09 4.646710e-10 4.603526e-10 -8.410961e-11 -2.184564e-11
7.805928e-09 -4.698855e-09 -9.334524e-10 1.799280e-09 1.814340e-10 1.332552e-10
-2.470474e-09 1.931600e-09 1.933973e-10 8.683882e-10 2.116018e-10 -6.801065e-11
-7.284047e-09 3.761664e-09 1.043160e-09 2.795182e-10 3.586020e-11 -9.023138e-11
-5.874346e-09 3.288782e-09 6.846994e-10 3.361191e-10 -7.598278e-11 2.774669e-12
-3.457397e-09 2.271085e-09 4.646719e-10 1.241650e-09 -3.035305e-11 -3.240588e-10
7.696451e-09 -3.638008e-09 -9.172902e-10 3.236258e-09 3.457035e-11 -1.052394e-10
4.385713e-09 -2.882864e-09 -7.795415e-10 1.139923e-09 1.548430e-10 -2.848388e-11
1.172726e-08 -3.397703e-08 6.547109e-09 -1.033251e-09 -1.110444e-10 -6.087813e-10
4.192021e-09 -3.085876e-08 6.912702e-09 6.757980e-09 3.684524e-11 -8.713675e-11
2.745651e-09 -2.659185e-08 7.336209e-09 7.845271e-10 8.850032e-11 -2.160926e-11
5.756482e-09 -2.373902e-09 -7.820042e-10 2.563854e-09 1.562315e-10 3.723377e-11
-3.613611e-09 -2.059340e-08 7.039739e-09 4.689145e-09 8.525960e-10 1.446057e-10
2.848388e-10 -2.430915e-08 7.308557e-09 2.268599e-09 -6.982170e-10 1.652016e-10
4.967679e-08 -1.476326e-08 -6.992053e-09 1.971006e-09 -7.188513e-10 4.078300e-09
9.349119e-09 8.073350e-09 -4.614641e-09 1.018036e-09 -7.143119e-09 -1.117106e-09
4.428869e-08 -6.352831e-09 -4.812248e-09 1.092857e-08 8.373861e-10 4.619242e-09
1.216958e-08 -3.881478e-08 6.745432e-09 5.778241e-09 1.763477e-09 -2.344139e-10
6.777927e-09 -3.246664e-08 6.816079e-09 3.937520e-09 9.597976e-10 3.573413e-10
6.961708e-09 -3.331940e-08 7.420432e-09 6.899831e-10 2.902345e-10 -7.815603e-11
6.961708e-09 -3.273728e-08 7.346869e-09 1.073683e-09 1.505853e-10 2.031955e-10
1.166876e-08 1.242364e-08 -9.959475e-09 7.882486e-09 -1.440894e-09 -1.902798e-09
3.142449e-09 1.087855e-08 -8.947526e-09 4.804932e-09 -1.723073e-09 -3.160374e-09
1.340636e-08 6.990803e-09 -8.850240e-09 7.764538e-09 -3.793161e-10 -3.660770e-10
1.928436e-09 -2.424832e-08 7.099203e-09 5.978859e-09 2.641241e-10 -2.580495e-11
8.194124e-09 -3.411236e-08 3.249589e-09 9.178185e-09 2.203681e-09 6.813723e-10
-1.042527e-09 -2.244492e-08 7.147176e-09 3.705397e-09 3.762102e-12 7.960210e-11
3.340739e-08 -4.726993e-09 -7.487098e-09 1.480803e-09 2.044648e-09 -1.064035e-12
-4.979991e-09 -7.521208e-09 -6.701645e-09 1.099292e-08 -4.094424e-09 2.711244e-09
-8.419052e-10 2.649256e-08 -1.550588e-08 1.045648e-08 -1.205347e-09 -1.028255e-09
-1.064323e-08 1.982842e-08 -1.092470e-08 1.558138e-10 -3.641472e-09 -2.274350e-09
-5.185427e-09 2.834305e-08 -1.426207e-08 9.750000e-09 -4.041253e-09 -7.584698e-09
3.246836e-09 1.341113e-08 -8.790677e-09 -4.540985e-10 -3.237869e-09 -4.982739e-10
-6.975524e-09 -1.135294e-09 2.107354e-09 -4.130353e-09 9.744028e-10 4.708136e-10
-4.469816e-09 -7.647968e-09 -5.024184e-09 7.488110e-09 -3.495494e-09 1.251679e-09
-9.420046e-09 -2.247559e-09 -1.927513e-09 6.937364e-09 -2.091305e-09 1.804557e-09
-8.442390e-09 2.226850e-09 -6.592475e-09 4.256907e-09 -1.702668e-09 -2.010162e-10
-1.089944e-08 4.692021e-09 -3.888188e-09 1.960066e-09 -2.742025e-09 2.400119e-09
-7.306049e-09 1.069257e-08 -1.717165e-08 5.025119e-09 -6.806821e-09 4.416274e-09
-1.720583e-10 -1.564916e-08 4.806016e-09 -1.715085e-10 3.843379e-10 -3.050382e-10
-6.359402e-09 -8.702226e-09 2.000350e-09 -1.160394e-08 -1.082823e-10 -1.322504e-10
-4.258686e-09 -1.438392e-09 -1.232443e-08 7.715695e-09 -3.186630e-09 3.889896e-10
-5.869058e-10 -1.578991e-08 3.716338e-09 -8.024142e-09 4.931580e-10 -6.581435e-10
-2.386510e-09 -9.270447e-09 3.861750e-09 -2.582847e-09 9.749535e-12 -3.534056e-10
-1.017579e-08 3.325020e-09 -7.792365e-09 6.388006e-09 -3.948025e-09 4.108770e-09
-3.108975e-09 -1.107853e-08 4.214789e-09 4.953469e-11 5.942291e-11 -3.146592e-10
-1.060271e-08 7.611368e-09 -9.454137e-09 2.092977e-09 -1.615523e-09 1.859074e-09
-8.066375e-09 1.415608e-08 -1.922530e-08 6.067122e-10 -2.270526e-09 2.999438e-09
-4.243344e-09 -7.692974e-09 3.831472e-09 6.831724e-11 -4.440667e-16 1.650768e-10
2.798933e-08 -1.978096e-08 -4.802068e-08 -4.040961e-09 -8.874738e-09 1.040248e-10
2.890296e-08 -2.211612e-08 -4.248606e-08 2.885976e-09 -2.167764e-08 4.199683e-09
-6.975524e-09 -4.665058e-09 2.825923e-09 -5.065707e-09 6.520378e-10 2.687326e-10
-2.740744e-09 -1.049613e-08 3.732135e-09 -4.368687e-09 -7.975052e-10 -3.795847e-10
-1.551592e-09 -1.361916e-08 3.910107e-09 -6.686080e-09 4.492093e-10 -1.088716e-09
4.823696e-10 -1.623536e-08 4.403027e-09 -5.331917e-09 -3.657607e-10 6.449254e-11
-6.725810e-09 -4.212556e-09 3.183946e-09 -4.450096e-09 3.097545e-10 -2.401587e-10
1.498828e-09 2.097357e-08 -7.893581e-09 2.031635e-08 -1.130901e-09 -5.513262e-09
-1.883710e-08 -7.415272e-08 1.927231e-07 1.565025e-08 -6.220429e-10 1.938469e-08
2.682889e-08 -3.155954e-08 -3.090149e-08 3.165802e-09 -1.676711e-08 1.832207e-09
2.734965e-08 -6.216606e-09 -5.993011e-08 -8.576593e-09 -9.520694e-09 3.235418e-10
3.012084e-08 -1.826458e-08 -4.463666e-08 -6.525248e-09 -2.080826e-08 3.617152e-10
2.420168e-08 -2.815805e-08 -3.164933e-08 4.183969e-09 -5.777071e-09 1.057126e-09
2.316131e-08 -1.683925e-08 -3.927554e-08 8.028268e-09 -1.996567e-08 5.023506e-09
2.685116e-08 -2.846153e-08 -3.565955e-08 -1.891018e-09 -6.499611e-09 4.236676e-10
-5.691780e-09 3.691444e-09 3.821343e-10 -3.322986e-09 -3.574090e-10 -1.579179e-10
-2.817647e-09 2.221834e-09 -1.464990e-10 -4.086122e-09 -1.247342e-10 -7.557330e-10
-3.365335e-09 3.077699e-09 1.828595e-10 -2.714195e-09 6.031221e-11 3.876899e-11
6.824276e-09 -3.432416e-09 -9.471419e-10 -3.526309e-09 -1.352660e-10 -3.250416e-10
2.802797e-08 -2.590958e-08 -3.787177e-08 -4.571608e-09 -5.459122e-09 1.409411e-09
3.871523e-09 -1.481979e-09 -7.429350e-10 -1.143607e-09 -1.291496e-10 6.708298e-10
7.909456e-09 -3.994706e-09 -1.185051e-09 1.055299e-09 2.300915e-11 -7.724532e-11
2.105597e-09 -3.280345e-10 -6.241656e-10 -3.325249e-09 -2.211547e-10 3.801111e-10
7.246796e-09 -3.432416e-09 -1.073191e-09 -3.783065e-09 1.097430e-10 -4.605891e-10
1.025763e-08 -5.121197e-09 -1.239074e-09 1.724489e-09 2.592161e-10 3.503943e-10
1.016869e-08 -5.748886e-09 -1.295660e-09 9.978756e-10 6.416873e-11 6.960566e-11
3.883750e-09 -1.192629e-09 -9.530146e-10 -5.154999e-09 -9.714828e-11 -5.442511e-10
6.783701e-09 -3.361059e-09 -9.794441e-10 2.016887e-09 1.226697e-10 -2.173866e-10
5.677563e-09 -1.986406e-09 -9.694592e-10 -3.473547e-09 -6.824780e-11 2.180911e-10
8.418865e-09 -4.629336e-09 -1.116901e-09 2.057248e-09 1.567881e-10 -2.154345e-10
1.089097e-08 -5.704980e-09 -1.371614e-09 7.327059e-10 2.012239e-11 1.062028e-11
4.214912e-09 -1.646917e-09 -7.516441e-10 -3.965516e-09 2.056888e-11 -2.347909e-10
1.000747e-08 -5.268746e-09 -1.234649e-09 1.466602e-09 7.231379e-15 2.766800e-10
-3.873142e-09 1.576600e-08 -9.551518e-09 -8.506037e-09 2.434793e-09 -2.088029e-09
1.029036e-08 -5.474367e-09 -1.274672e-09 1.671697e-09 1.206362e-10 3.394052e-11
-1.318866e-08 4.395017e-08 -5.106347e-09 -3.929215e-08 -6.653669e-09 -8.217425e-09
2.184124e-09 -4.004573e-10 -1.465583e-11 5.732511e-09 -3.093174e-10 -7.005525e-10
-4.607866e-09 1.070634e-08 -2.969632e-09 4.118856e-09 7.350662e-09 -2.572780e-09
-2.181785e-09 9.725734e-09 -4.788212e-09 1.241347e-09 3.456694e-09 -5.955440e-10
-5.294066e-09 1.355788e-08 -6.472166e-09 -1.172673e-09 1.393519e-10 -7.335590e-10
-1.088363e-08 2.865134e-08 -1.463042e-08 -5.380940e-09 2.255561e-09 -4.020440e-09
-7.644950e-09 1.598468e-08 -9.161221e-09 -1.058413e-08 1.699519e-09 -2.198683e-09
-6.479938e-09 2.546770e-08 -9.551517e-09 -8.279193e-09 6.419617e-10 -1.199675e-09
3.516205e-10 6.301858e-10 2.612106e-10 5.925498e-09 -3.172660e-10 -1.197881e-09
1.106410e-09 1.779883e-09 1.194289e-10 6.928664e-09 5.987644e-10 3.910808e-10
-1.587600e-09 1.154193e-09 1.329408e-10 4.502786e-09 -3.870775e-10 -7.303624e-10
-2.735229e-09 1.808106e-09 6.343090e-10 3.246549e-09 2.846945e-11 -2.512024e-11
-4.667923e-09 2.845436e-09 6.046572e-10 5.298117e-10 1.761646e-12 7.614931e-11
1.661695e-08 -4.291453e-08 8.991456e-10 -4.260127e-10 3.172310e-09 -4.881402e-10
-5.878498e-11 1.178663e-09 1.051101e-10 4.948779e-09 -9.772170e-12 -6.483170e-11
-1.391021e-09 1.012292e-09 8.203038e-11 3.586101e-09 -1.847251e-10 -5.531939e-10
1.608150e-09 3.924098e-10 -1.311200e-10 4.849065e-09 -6.934475e-13 -2.709224e-10
2.791792e-08 -4.165835e-08 -1.642907e-08 3.493236e-09 1.141538e-08 -1.331806e-09
-1.248599e-09 9.506534e-10 1.585789e-10 4.647185e-09 6.113114e-10 3.280087e-11
-8.990670e-09 4.195750e-09 1.705869e-09 -2.092180e-10 7.670487e-11 -6.334422e-11
-2.270366e-08 -9.519674e-09 1.269213e-07 -5.083444e-08 -1.683063e-08 -5.627406e-09
1.475996e-08 8.561454e-08 -1.304394e-07 8.023462e-09 2.399626e-08 -8.252805e-09
4.318007e-08 -3.553389e-08 6.616569e-08 -2.000206e-08 -2.970508e-09 1.874662e-08
-1.614010e-09 3.347800e-09 -2.827749e-08 1.156067e-08 -6.173271e-09 5.215716e-09
-1.329216e-09 -1.507937e-08 1.127380e-09 -1.075182e-10 -2.268473e-09 1.020106e-10
-7.403072e-09 1.515948e-08 -5.102639e-09 -2.567116e-09 1.106813e-09 5.914802e-11
-1.688978e-08 8.587755e-09 -1.402002e-09 1.671530e-09 3.324877e-09 -3.881864e-10
-1.668242e-08 8.249245e-09 3.135829e-10 2.701786e-09 3.228064e-09 -6.844485e-10
-1.614424e-08 1.302740e-08 -5.478254e-09 4.914423e-09 4.342191e-09 -2.400652e-09
-1.674513e-08 9.096302e-09 -2.181466e-09 2.810934e-09 1.413163e-09 -1.676064e-10
-1.708577e-08 8.536434e-09 -9.256791e-10 1.525046e-09 3.104284e-09 -4.553178e-10
-4.599969e-09 3.114738e-09 -4.617311e-10 -5.423774e-09 2.288672e-10 -9.867405e-10
-2.186781e-09 1.876153e-09 -2.510543e-10 -3.573708e-09 3.349967e-11 -5.732463e-10
-1.579460e-08 1.353071e-08 -6.385489e-09 6.511874e-09 1.984825e-09 -6.852556e-10
-1.739569e-08 1.472365e-08 -8.617873e-09 9.865839e-09 3.199645e-10 9.850915e-10
-1.365293e-08 -3.461670e-09 1.842782e-09 1.743957e-08 6.748365e-09 -2.435835e-09
-7.292910e-09 3.735774e-09 7.125163e-10 -2.954311e-09 -2.603518e-11 1.081597e-10
-4.477746e-09 2.873858e-09 -6.337508e-11 -3.810047e-09 2.387890e-10 -6.577352e-10
-6.393032e-09 4.024802e-09 4.385126e-10 -3.670553e-09 -2.201030e-10 -2.873790e-10
-1.742881e-09 1.614617e-09 -7.844063e-10 -6.568939e-09 1.599832e-10 -8.484831e-10
-3.321345e-09 3.503448e-09 -1.364553e-10 -5.998310e-09 -3.480446e-11 2.182543e-11
-6.236657e-09 1.082595e-08 -4.207502e-09 1.164084e-09 3.366439e-09 -4.925948e-10
-1.646935e-08 1.542757e-08 -5.661071e-09 6.637974e-09 2.793286e-09 -2.125198e-09
2.122133e-08 -2.927574e-08 -2.241894e-08 -1.646461e-08 6.641408e-09 1.471639e-09
2.595114e-08 -2.365769e-08 -3.974189e-08 -1.455125e-08 9.103751e-09 1.050068e-09
-1.508816e-08 1.146377e-08 -2.258878e-09 9.999844e-10 4.628364e-09 4.212695e-10
1.802630e-08 -2.972433e-08 -1.415865e-08 -1.519406e-08 1.728707e-09 2.502105e-10
2.179593e-08 -3.720221e-08 -1.565204e-08 -8.837623e-09 1.074155e-09 -3.548297e-10
4.512412e-08 -2.926675e-08 -6.931529e-08 5.082981e-09 3.692776e-08 -2.530282e-09
-1.597402e-08 1.417310e-08 -4.784061e-09 4.663801e-09 -3.002667e-11 1.893439e-11
2.562166e-08 -3.530173e-08 -2.328664e-08 -6.605435e-09 6.393245e-09 7.157768e-10
6.534874e-09 -2.504163e-09 -1.774545e-10 6.082629e-09 -2.341858e-10 -4.862590e-10
-7.448896e-09 1.522591e-08 -5.988712e-09 -2.392056e-09 1.717272e-09 -1.471820e-10
1.423395e-08 -7.057978e-09 -1.634493e-10 3.298398e-09 -1.971866e-10 -6.685926e-10
-1.741250e-08 1.081464e-08 -3.722054e-09 6.271158e-09 3.824869e-09 -1.495646e-09
9.702128e-09 -3.226305e-09 7.330456e-10 9.045782e-09 -1.834901e-10 -9.288435e-10
1.390282e-08 -6.532835e-09 1.965192e-10 5.433756e-09 1.683698e-10 -6.332179e-10
6.977246e-09 -2.610025e-09 -1.885514e-10 6.125939e-09 5.368168e-10 -7.182987e-11
8.675402e-09 -4.794958e-09 -1.234649e-09 2.566381e-09 -5.464584e-11 -6.686207e-12
-1.774708e-08 6.793276e-09 2.607701e-09 7.890325e-09 2.841598e-09 -2.181001e-09
7.769348e-09 -4.314549e-09 -1.040283e-09 2.248963e-09 3.715389e-11 -2.085259e-11
1.178673e-08 -4.588560e-09 -3.815801e-10 -8.351325e-09 2.113356e-10 -1.212765e-09
1.598082e-08 -9.221555e-09 6.660574e-10 -4.009718e-09 -3.055245e-11 -1.535117e-10
-2.752429e-09 1.151492e-08 -4.773554e-09 -4.706683e-10 4.350430e-09 -7.364957e-10
-1.319208e-08 1.359395e-08 -3.400200e-09 -8.505278e-10 3.886415e-09 -6.911789e-10
-2.382406e-09 -1.280904e-08 4.431976e-09 -2.967988e-09 2.132139e-10 -4.854068e-10
8.438130e-10 -1.828112e-08 4.990183e-09 -3.221320e-09 1.828557e-10 -4.509984e-10
-9.839559e-09 3.335069e-09 9.055210e-10 -3.291733e-09 -3.295071e-10 -5.795060e-10
-9.808553e-09 1.299338e-09 -5.614242e-10 -8.400818e-09 1.681300e-10 -2.068296e-10
-9.835335e-09 6.378182e-09 4.146692e-10 -2.302341e-09 4.839315e-10 -6.767032e-10
-1.011617e-08 2.779441e-09 1.228503e-09 -2.748938e-09 5.722005e-10 3.485105e-10
-4.109565e-09 3.166309e-09 1.281349e-09 6.729224e-09 -8.029564e-10 -1.442658e-09
-1.326207e-07 -8.028112e-08 3.478459e-07 -4.144760e-09 2.773457e-09 2.597464e-08
1.328700e-09 -2.010236e-08 5.383265e-09 -2.351336e-09 -1.274746e-09 -6.041508e-10
-7.874910e-08 -3.358238e-08 2.533918e-07 -4.998198e-08 -5.070447e-08 7.315740e-08
-5.835503e-08 -7.178611e-08 1.913477e-07 2.160097e-08 3.055008e-08 3.118671e-08
-1.971620e-08 -3.280419e-09 6.186788e-08 -3.922789e-08 -1.566963e-08 1.705784e-08
-2.335409e-08 -9.360455e-09 1.495767e-07 -5.101716e-08 -2.778275e-08 4.811783e-08
-3.404361e-08 -6.494387e-08 2.375080e-07 -8.964481e-10 1.123526e-09 4.646686e-08
1.836425e-09 -1.763676e-08 4.611728e-09 -1.569727e-09 -2.347372e-10 -6.383915e-10
-1.548996e-08 7.624533e-08 -4.707007e-08 -7.185260e-09 -3.242622e-08 -2.401164e-09
-1.201921e-07 -1.056324e-07 3.834308e-07 -1.727918e-08 -3.990858e-08 6.594065e-08
-9.579634e-08 -4.284688e-08 2.568845e-07 -1.122417e-08 9.013620e-10 -4.320998e-08
-3.086521e-10 -1.339387e-08 4.523690e-09 -2.083549e-09 4.574863e-10 -1.272669e-09
3.178529e-09 3.539930e-08 -8.829822e-09 -3.562197e-08 8.171613e-09 3.291235e-09
-1.840026e-09 1.865965e-08 5.530058e-09 -2.668646e-08 -2.259158e-09 2.761058e-09
-9.341078e-09 3.117691e-08 -2.155177e-08 -1.587263e-08 -3.278832e-09 1.167422e-08
4.346111e-09 3.911375e-08 -3.482160e-08 -1.620592e-08 -5.674217e-09 1.126928e-08
-5.493207e-09 4.579347e-08 -7.359901e-08 -1.804291e-08 1.549530e-08 8.710921e-09
-2.749380e-08 9.512735e-08 -4.159491e-08 -3.462267e-09 -1.570868e-08 3.591943e-08
-3.704922e-10 -1.551424e-08 4.698772e-09 -4.875812e-09 1.866333e-10 -1.180920e-09
-1.256236e-09 -1.425948e-08 4.544531e-09 -2.463008e-09 -1.460951e-09 -7.096408e-10
-3.049128e-08 4.993362e-08 -1.719001e-09 9.189806e-09 5.302357e-10 1.411835e-08
-6.425893e-09 1.795786e-08 1.497548e-08 1.970565e-08 -4.633175e-09 -3.785182e-09
-1.485836e-08 1.620355e-08 -4.188141e-09 -3.968662e-09 8.405421e-10 2.213965e-09
-2.173184e-08 3.486663e-08 -1.355252e-08 -4.536476e-09 9.138862e-10 6.043486e-09
5.862806e-09 3.209799e-09 1.766137e-08 1.905399e-08 -3.410996e-09 -6.079079e-09
4.016198e-09 -2.195868e-08 5.506780e-09 -2.680355e-09 1.790892e-09 -4.832283e-10
-5.025847e-09 1.069556e-08 1.761074e-09 1.023171e-08 -4.274980e-11 -1.718011e-10
-1.445968e-08 1.594250e-08 -1.925303e-09 1.625288e-09 -9.338351e-11 5.166197e-10
-1.312944e-08 1.100190e-08 -5.324696e-11 1.282914e-09 7.020798e-10 -3.133672e-11
1.833486e-09 -1.861554e-08 5.001640e-09 -1.484237e-09 1.495847e-09 -9.145290e-10
-9.147694e-09 4.209925e-09 9.781127e-10 1.805790e-11 -1.000799e-10 1.428648e-10
-5.179032e-10 -1.396955e-08 3.821909e-09 -7.496073e-09 1.350787e-09 -2.508343e-10
-2.992904e-09 3.213221e-09 1.765583e-08 1.907117e-08 -3.406048e-09 -6.391088e-09
-2.156873e-08 2.412924e-08 -1.813260e-09 1.048845e-08 4.545477e-09 3.304578e-09
-2.225154e-08 2.633671e-08 1.369532e-08 1.675252e-08 -8.607075e-09 -3.386558e-09
-1.079399e-08 1.807409e-08 7.216363e-09 1.724094e-08 -5.378595e-10 2.169633e-09
4.000993e-09 -2.324714e-08 5.026100e-09 -2.975962e-09 4.165195e-10 -5.708536e-10
9.833452e-09 -8.041454e-09 1.963150e-08 1.281458e-08 -5.926950e-10 -6.424700e-09
3.347403e-08 -2.447790e-09 -8.000400e-08 1.480784e-08 2.328532e-08 -2.337689e-09
-1.072100e-08 1.476283e-08 -5.457659e-09 -1.807250e-09 -6.095437e-09 -8.638924e-09
-6.285460e-10 -1.568247e-08 5.280834e-09 -7.950446e-09 -1.877972e-09 -8.342009e-10
2.740567e-08 -2.949862e-09 -7.338436e-09 8.637358e-11 -1.764418e-09 4.522946e-10
1.820750e-09 -1.959632e-08 4.469952e-09 -4.811324e-09 1.098037e-09 -5.355674e-10
-3.695477e-09 -1.076004e-08 3.605465e-09 -7.319873e-09 1.078754e-10 -1.059679e-10
-3.600825e-09 -7.512029e-09 2.257088e-09 -7.942290e-09 6.267231e-11 -5.980165e-10
-1.250406e-09 1.035505e-08 -7.399189e-09 -1.784495e-09 -3.347578e-09 -6.269416e-10
-6.146536e-09 2.766909e-09 9.995054e-10 1.612421e-09 2.156881e-10 -2.239020e-10
-6.209459e-09 2.688633e-09 1.187820e-09 1.211416e-09 8.025491e-11 -3.689851e-10
-4.960658e-09 2.654132e-09 7.590524e-10 1.755170e-09 -7.626388e-11 -9.661116e-11
4.301279e-08 -1.013281e-08 -7.691515e-09 2.263545e-10 -3.842611e-10 2.165189e-09
-5.505867e-09 2.679042e-09 7.316627e-10 1.375475e-09 -5.454437e-11 -3.639942e-10
3.213696e-08 -7.228342e-09 -5.542943e-09 7.094538e-09 -7.590012e-10 -6.559378e-10
5.427437e-08 -2.349422e-08 4.134419e-09 2.064368e-09 2.301892e-09 8.632562e-09
-1.677899e-08 3.179444e-09 2.402387e-09 -5.538645e-10 -7.927294e-10 -2.015765e-11
-1.504531e-08 2.426129e-09 3.097547e-09 1.153421e-19 -2.175817e-10 4.082997e-10
-6.272273e-09 3.252051e-09 1.022209e-09 5.385323e-10 5.501999e-11 -1.357946e-10
-6.449342e-09 2.994144e-09 1.182702e-09 1.073317e-09 9.781453e-11 -1.659267e-10
-6.018308e-09 2.736552e-09 1.135129e-09 1.905335e-09 2.867395e-11 1.416628e-11
-1.687182e-08 7.470655e-09 1.070590e-09 -8.526255e-10 -2.862125e-09 -3.522138e-10
-1.682572e-08 3.886250e-09 5.195426e-10 -1.779188e-09 -7.756482e-10 -5.603434e-10
-1.239766e-08 -4.235918e-09 9.338463e-10 -9.932710e-09 -6.349485e-09 -1.320606e-09
-1.687182e-08 5.164527e-09 9.766072e-10 -1.313144e-09 -2.287322e-09 -3.047531e-10
-6.697276e-09 2.485095e-09 1.261505e-09 1.218619e-09 -4.438139e-11 2.131580e-12
-5.802685e-09 3.047524e-09 9.566596e-10 8.805190e-10 3.846157e-11 -3.469691e-11
1.439884e-08 -4.180778e-08 3.717915e-12 6.158375e-09 -5.122511e-09 2.331294e-09
-1.570573e-08 2.600618e-09 2.716249e-09 -4.521237e-10 -1.707832e-09 -2.048006e-10
-7.723258e-09 -1.016460e-08 1.226786e-09 -6.363193e-09 -3.097296e-09 -1.085063e-09
1.476937e-08 -3.398849e-08 1.966049e-09 3.739342e-09 -2.514686e-09 -5.750861e-10
-1.337618e-08 1.675981e-08 -9.487131e-09 -3.137109e-09 -4.630834e-09 -3.367595e-09
-1.727068e-08 6.398733e-09 1.931735e-10 -1.292095e-09 -2.112857e-09 -6.744027e-11
1.566063e-08 -1.628489e-08 -3.139524e-08 -2.352283e-08 1.440162e-08 5.880658e-09
-1.592604e-08 4.314052e-09 2.296803e-09 -1.214935e-09 -2.120732e-09 1.301954e-10
-1.649061e-08 9.919790e-09 -2.545796e-09 -4.589274e-09 -6.288429e-09 -1.457375e-09
1.104738e-08 -3.119496e-08 -3.983757e-09 3.593057e-09 -2.142124e-10 7.386717e-10
1.254536e-08 -2.840814e-08 -7.515428e-09 9.250014e-09 -1.580960e-09 8.994320e-10
1.497605e-08 -3.485227e-08 -5.639898e-09 4.807795e-09 3.879410e-10 2.181091e-10
8.002552e-09 -2.695818e-08 -2.101502e-09 5.280189e-09 -4.222919e-09 7.526389e-10
4.632930e-09 -1.861982e-08 -5.835521e-09 9.402777e-09 -2.510090e-09 7.563502e-10
4.604217e-09 -1.860076e-08 -4.376995e-09 9.272645e-09 -1.023390e-09 8.540045e-10
1.400251e-08 -2.862486e-08 -1.332885e-08 -1.747259e-08 6.765065e-09 1.419259e-09
2.180263e-08 -3.675507e-08 -8.905602e-09 -8.274325e-09 5.830175e-09 1.062338e-09
1.913713e-08 -3.662996e-08 -1.415865e-08 -9.008788e-09 1.455371e-10 1.145373e-10
1.871944e-08 -3.807766e-08 -5.666690e-09 -9.764457e-09 6.549238e-09 8.222313e-10
1.871944e-08 -3.787447e-08 -7.841870e-09 -1.013294e-08 5.507824e-09 4.702176e-10
1.802630e-08 -2.800871e-08 -1.839924e-08 -1.592407e-08 4.380504e-09 7.313313e-10
-7.273385e-09 1.189333e-09 1.890370e-09 1.095457e-10 1.030541e-10 -4.362388e-10
1.802630e-08 -2.626047e-08 -2.397013e-08 -1.623570e-08 1.920182e-09 4.615224e-10
-7.271914e-09 -6.041612e-10 2.556531e-09 -2.494474e-10 -3.050509e-10 -1.028890e-10
-7.483705e-09 2.269978e-09 1.785220e-09 2.718901e-10 3.955836e-11 -3.527292e-10
1.728431e-08 -3.017574e-08 -1.683092e-08 -1.829021e-08 9.123407e-09 2.103629e-09
2.495602e-08 -3.990310e-08 -1.736139e-08 1.793040e-09 2.421854e-10 -2.724174e-10
2.572700e-08 -3.700640e-08 -2.083101e-08 -8.192872e-09 1.035540e-08 7.321007e-10
1.228206e-08 -1.410971e-08 -2.820291e-08 -2.255040e-08 3.421788e-09 8.851443e-10
-7.123928e-09 4.023732e-09 9.402641e-10 7.446887e-11 5.821121e-11 -7.246426e-11
-5.935689e-09 3.463535e-09 7.378316e-10 3.013292e-10 4.702178e-11 1.268656e-10
-7.240047e-09 3.751962e-09 1.118153e-09 2.468544e-10 -1.142908e-11 -3.501240e-11
6.550102e-09 -2.743859e-08 5.926811e-09 -1.734804e-10 1.601297e-10 -4.759715e-10
-7.232183e-09 3.724811e-09 1.125641e-09 2.937603e-11 -2.025269e-11 2.892798e-11
-7.470831e-09 3.703329e-09 1.077300e-09 3.651390e-11 -3.270473e-11 -2.040221e-10
-7.318722e-09 3.763172e-09 1.138639e-09 5.401324e-11 1.053785e-11 -3.114226e-11
-7.474083e-09 3.245741e-09 1.322920e-09 6.317442e-10 1.424872e-10 -2.573090e-10
-6.926932e-09 3.463422e-09 1.101739e-09 2.379141e-10 1.446843e-12 -5.778683e-12
-7.625097e-09 3.290893e-09 1.450937e-09 1.851275e-10 1.463274e-12 -1.914306e-10
-7.510766e-09 2.796330e-09 1.463337e-09 -1.194342e-10 2.250272e-11 -4.112833e-10
-7.481292e-09 4.032982e-09 1.058513e-09 1.414460e-10 6.475398e-11 -9.569512e-11
-7.573536e-09 3.469076e-09 1.224510e-09 1.907861e-10 6.249756e-11 -1.723526e-10
-7.444205e-09 3.816012e-09 1.142849e-09 1.472442e-10 2.786571e-11 -8.749418e-11
-7.154471e-09 3.728572e-09 1.104876e-09 2.464562e-10 1.835831e-11 -1.729202e-11
-5.964108e-09 3.415380e-09 7.685577e-10 1.849127e-10 1.155081e-10 1.123788e-10
2.943328e-08 -3.328838e-08 -3.380303e-08 -5.101233e-09 2.669455e-09 4.463908e-11
9.519733e-09 -5.708397e-09 -1.101930e-09 -5.163726e-10 -1.596184e-10 8.485590e-11
-7.281947e-09 3.983599e-09 1.031899e-09 4.294742e-11 2.106115e-11 -5.144307e-11
2.246197e-08 -4.108654e-08 -1.691277e-08 1.799844e-11 1.139730e-09 6.377849e-10
1.017944e-08 -6.045458e-09 -1.563112e-09 1.074014e-09 6.446851e-11 8.462209e-11
1.153873e-08 -6.302387e-09 -1.327649e-09 2.212600e-10 -2.664793e-11 -4.642242e-11
2.174154e-08 -3.712952e-08 -1.870057e-08 -9.385997e-09 9.808518e-09 1.310157e-09
-7.270406e-09 5.227465e-09 6.239671e-10 -7.284129e-11 -6.371104e-11 -7.177259e-11
1.402897e-08 -2.854113e-08 -1.627397e-08 -1.742379e-08 4.537768e-09 4.720957e-10
-7.117778e-09 5.110809e-09 6.344074e-10 -3.401324e-11 -1.180600e-11 -8.085799e-11
2.157799e-08 -4.119382e-08 -5.642709e-09 7.135620e-09 5.535343e-09 -1.003402e-09
2.017245e-08 -3.950315e-08 -2.936586e-09 -2.258681e-09 2.017716e-09 -4.509500e-10
2.017311e-08 -4.215812e-08 -1.112727e-08 -2.161663e-09 3.466509e-09 -5.511619e-10
1.913878e-08 -4.224522e-08 -1.911644e-09 2.576525e-09 1.793386e-09 -5.556338e-10
-7.270406e-09 5.243777e-09 6.137861e-10 9.904887e-21 -6.115308e-11 -1.693535e-12
1.913878e-08 -4.104139e-08 2.712301e-10 2.033537e-09 3.620597e-09 -9.994976e-10
1.875913e-08 -4.142660e-08 -2.783676e-09 3.100295e-09 2.985223e-09 1.498468e-11
2.032627e-08 -4.135703e-08 -6.227758e-09 5.385778e-09 -6.716925e-10 -1.460279e-10
3.344206e-09 -5.531246e-10 -6.715437e-10 -5.717780e-09 -3.362641e-10 4.421505e-10
3.841838e-09 -1.187147e-09 -8.683516e-10 -5.163987e-09 -2.674734e-10 2.780843e-10
-5.268906e-09 4.069872e-09 4.743128e-10 -7.975097e-10 -5.742606e-11 -8.930573e-11
-7.102588e-09 5.232817e-09 6.491168e-10 -7.842926e-11 -3.283984e-11 -8.030276e-11
-6.853058e-09 4.653216e-09 7.928760e-10 -9.223049e-10 -1.241362e-10 -2.437542e-10
4.488745e-09 -1.646917e-09 -9.740289e-10 -4.298037e-09 -2.142020e-11 -5.105107e-10
6.022282e-09 -3.064132e-09 -1.008559e-09 -4.529026e-09 -4.269030e-11 1.288227e-10
1.235685e-08 -4.237944e-08 2.061228e-09 1.105991e-08 -7.638272e-09 2.461410e-09
2.993410e-10 6.438370e-10 -4.428600e-10 -4.767763e-09 -3.896934e-10 1.185256e-10
2.159751e-08 -4.458874e-08 -3.880414e-09 2.866780e-10 -1.766133e-09 5.490678e-10
4.284802e-09 -2.075574e-08 -1.568318e-09 4.168473e-09 -7.009886e-10 6.259028e-10
-5.218497e-10 -1.878070e-08 3.086912e-09 9.758888e-09 -5.124200e-09 1.335026e-09
1.898433e-09 1.807594e-10 -5.705365e-10 -3.973847e-09 1.169295e-10 -2.207861e-10
3.198645e-09 -2.406874e-10 -7.571970e-10 -5.629943e-09 1.510934e-10 -1.820140e-10
-3.638227e-09 -1.150009e-08 -1.694824e-09 6.022305e-09 -2.275850e-09 1.439543e-09
1.023854e-08 -1.909809e-08 -1.616446e-08 1.129399e-08 -6.658170e-09 2.939901e-09
7.306087e-09 -1.877030e-08 -1.727914e-08 1.251807e-08 -1.051018e-08 3.871687e-09
2.149612e-08 -2.323733e-08 -3.164933e-08 8.009532e-09 -4.576749e-09 7.007287e-10
1.736171e-08 -2.295386e-08 -2.480192e-08 8.863390e-09 -3.717718e-09 1.251688e-09
1.734936e-08 -2.718816e-08 -2.392784e-08 1.192236e-08 -1.235392e-08 4.155924e-09
-9.871149e-09 4.665694e-09 -6.274588e-09 2.200367e-09 -3.558559e-09 1.256590e-09
-5.895622e-10 5.697665e-10 -3.790412e-11 8.313277e-10 3.941274e-10 7.417567e-12
1.808074e-09 -6.899377e-10 -3.982432e-10 7.940093e-11 1.100149e-10 1.182801e-10
-5.002647e-10 5.698948e-10 3.201750e-11 9.228387e-10 4.220678e-10 4.686318e-11
1.153699e-08 -2.245742e-08 -2.494987e-08 1.497461e-08 -1.294643e-08 6.694353e-09
1.107546e-08 -3.104081e-09 -3.353200e-08 1.037107e-08 -3.651035e-09 2.569755e-09
1.387430e-08 2.277948e-09 -4.980040e-08 1.200176e-08 -2.471541e-08 1.412544e-08
2.149612e-08 -8.215453e-09 -4.597797e-08 7.290547e-09 -5.763144e-09 1.416390e-09
-1.668241e-08 8.249243e-09 8.701406e-10 2.917584e-09 4.402586e-09 -6.333194e-10
2.150503e-08 -2.078344e-08 -3.588167e-08 1.135512e-08 -1.946069e-08 6.591767e-09
3.138611e-08 -2.710970e-08 -4.499859e-08 1.557701e-08 1.471136e-08 -3.946810e-10
-1.562843e-08 4.011377e-09 -3.959878e-09 1.792468e-08 8.516419e-09 -5.198997e-09
2.888181e-08 -3.666011e-08 -3.396332e-08 9.140748e-09 2.092843e-08 -8.986839e-10
2.940768e-08 -3.860327e-08 -3.294879e-08 -5.825263e-09 1.955557e-08 1.702279e-09
-1.106327e-08 -5.205981e-09 3.665172e-09 8.728304e-09 1.169582e-09 2.342055e-10
-1.584080e-08 1.925275e-09 1.930276e-09 2.868892e-09 4.492143e-09 -3.261662e-10
-1.765240e-08 6.832092e-09 8.491439e-10 1.040808e-08 5.324844e-09 -1.986496e-09
-1.694262e-08 3.851013e-09 1.404774e-09 1.068802e-08 5.764889e-09 -2.045208e-09
3.341438e-08 -3.122432e-08 -3.856424e-08 -2.292687e-09 1.700922e-08 4.320385e-10
2.892203e-08 -2.909078e-08 -3.400747e-08 9.960412e-09 2.755826e-09 -1.461905e-09
-1.558839e-08 4.009062e-09 -2.409161e-10 1.794650e-08 9.446935e-09 -4.335592e-09
-1.668524e-08 1.118085e-08 -2.735534e-09 3.359929e-09 1.398671e-09 -3.075056e-10
2.658089e-08 -3.196037e-08 -3.554418e-08 6.563056e-09 5.926582e-09 4.736802e-10
-1.250406e-09 1.220262e-08 -5.070132e-09 -1.413980e-09 -5.380279e-09 -1.133311e-09
2.562166e-08 -3.375318e-08 -3.150586e-08 -6.479604e-09 2.666511e-09 8.321685e-10
3.337546e-08 -3.709290e-09 -4.833178e-09 1.457919e-08 9.929714e-11 -1.663089e-10
3.246836e-09 1.034921e-08 -8.465570e-09 -6.274892e-11 -3.871020e-09 -5.683818e-10
1.532863e-08 3.738367e-09 -6.671336e-09 -1.208583e-09 -4.153462e-09 -2.493693e-10
8.890823e-09 -1.855153e-08 -1.724313e-08 -2.250200e-08 8.152221e-09 3.421328e-09
-6.350267e-10 1.524034e-09 -4.565770e-11 -3.802422e-09 -2.510163e-10 3.255448e-10
4.205944e-08 -1.101720e-08 -6.848719e-09 1.305244e-09 1.855702e-10 2.132599e-09
1.749889e-09 -2.846150e-10 -4.600431e-10 -1.690701e-10 -2.079552e-10 9.061640e-12
3.112021e-09 -1.001455e-09 -5.305996e-10 -1.974509e-09 3.282060e-11 -6.676801e-10
5.789518e-09 -2.647661e-09 -9.471419e-10 -2.784977e-09 3.480194e-11 8.849721e-11
4.072867e-09 -2.054104e-09 -8.295280e-10 -3.074930e-09 -1.250755e-10 1.746274e-10
-2.042841e-09 2.640116e-09 -5.746248e-11 -8.621677e-10 -2.445510e-11 -1.278386e-10
5.220663e-08 -2.058920e-08 5.961407e-09 5.025917e-09 -4.468798e-11 4.806624e-09
2.097938e-08 2.719642e-09 -7.747634e-09 4.470885e-09 -2.859677e-09 -2.863382e-09
1.902886e-09 -2.846148e-10 -5.074683e-10 -1.819675e-10 -1.573471e-10 -2.850673e-10
7.243051e-10 -2.382790e-08 3.116057e-09 -2.752122e-09 -2.643642e-09 -1.336891e-09
-3.537734e-09 -1.719908e-08 3.233158e-09 -1.183463e-08 -5.219271e-09 -1.123834e-09
1.285304e-09 8.398882e-11 -3.662892e-10 -9.615748e-10 -2.149858e-11 -4.267613e-10
3.828243e-09 -1.222002e-08 -1.264944e-08 -1.045012e-08 -3.209706e-09 -2.221942e-10
3.828243e-09 -1.933857e-08 -5.888085e-09 -9.067173e-09 1.191170e-09 6.786216e-10
1.203960e-08 -3.773274e-08 6.847022e-09 1.801192e-09 6.158545e-10 -1.168122e-10
8.835711e-09 -3.426441e-08 7.273129e-09 1.169906e-09 9.237670e-10 1.119580e-10
-5.852321e-09 2.862082e-08 -7.944289e-09 -1.215245e-08 5.082363e-09 -7.775780e-09
-8.906583e-10 1.398268e-08 -2.283067e-09 -8.003911e-09 2.382339e-09 1.574961e-09
6.260091e-09 -2.808683e-08 5.104351e-09 -4.996834e-09 8.577199e-10 -6.794667e-10
8.181215e-09 -2.921083e-08 5.280561e-09 -8.298864e-09 1.225243e-09 -1.967017e-10
6.670556e-09 -2.601277e-08 5.071202e-09 -5.926238e-09 1.348371e-09 -8.693885e-10
1.059043e-08 -3.363018e-08 6.452858e-09 -1.068546e-09 -1.325047e-10 -3.513632e-10
9.814539e-09 -3.551438e-08 7.190502e-09 7.112710e-10 1.800604e-10 4.815764e-10
9.537968e-09 -3.533338e-08 7.314669e-09 1.711263e-09 -5.622535e-10 -4.507261e-11
-4.747875e-09 3.436729e-09 3.450509e-10 -2.181889e-09 -9.002077e-11 -2.178061e-10
-3.519919e-09 2.998861e-09 2.819009e-10 -2.281259e-09 -3.406511e-10 5.666001e-11
-5.004144e-09 1.302197e-08 -5.655318e-09 -7.633870e-10 1.420240e-09 1.239526e-09
-8.456068e-09 1.872274e-08 -9.198187e-09 -2.672152e-09 1.401828e-09 -1.803226e-09
3.761695e-09 1.576600e-08 -5.977571e-09 -1.009313e-08 1.575295e-09 -2.646361e-09
-6.424095e-09 4.167783e-09 8.107039e-10 -1.855771e-09 -2.378655e-10 -3.519023e-10
-8.446776e-09 4.912574e-09 1.058072e-09 -2.625201e-10 -1.113493e-11 -2.470753e-10
-7.604976e-09 4.324927e-09 9.361760e-10 -2.157821e-09 -2.131166e-10 -3.280548e-10
-1.704694e-08 3.835102e-09 1.611622e-09 2.179401e-09 2.124692e-09 -2.263079e-10
8.080985e-09 -2.905209e-08 3.873398e-09 -5.821887e-09 7.328093e-10 -6.048740e-11
5.930686e-09 -2.578249e-08 5.311126e-09 -4.541678e-09 -3.575974e-10 -1.077534e-09
-4.837692e-09 -8.708520e-09 4.481056e-10 2.967656e-09 -1.219005e-09 -2.718721e-10
-9.489286e-09 -8.764314e-10 2.191310e-09 1.852180e-09 -1.386232e-09 -1.195643e-10
1.210983e-08 -3.469259e-08 5.865235e-09 -3.305968e-09 -1.059944e-09 7.312825e-12
-9.489286e-09 -3.694058e-10 4.023968e-10 1.755805e-09 -2.215808e-09 2.781966e-10
7.553972e-09 -4.047927e-09 -1.002290e-09 1.204918e-09 2.813809e-10 6.421419e-11
7.899331e-09 -4.579604e-09 -1.087813e-09 1.154817e-10 2.652898e-10 -1.311684e-11
9.607790e-09 -5.710509e-09 -1.215188e-09 9.266790e-11 -2.893084e-11 3.906453e-11
9.622818e-09 -5.803029e-09 -1.260125e-09 3.625508e-11 -5.216071e-11 3.132639e-11
6.990383e-09 -3.504698e-09 -1.007832e-09 -1.277652e-09 -3.092631e-10 1.295829e-10
-7.323839e-09 4.101965e-09 9.834604e-10 -8.881801e-16 2.560707e-11 -3.224332e-11
9.513602e-09 -4.653889e-09 -7.737073e-10 5.004999e-09 -1.996929e-10 -2.105169e-10
9.489796e-09 -5.813241e-09 -1.187280e-09 7.310007e-10 9.652541e-11 1.869921e-10
9.410892e-09 -5.025579e-09 -1.207552e-09 8.993256e-10 1.353685e-10 1.448077e-10
-3.413048e-08 6.750731e-08 4.358633e-08 1.010970e-08 -3.661346e-08 3.609496e-08
-7.249374e-09 4.090266e-09 8.925554e-10 1.394262e-11 6.182654e-11 -6.374967e-11
8.205085e-09 -4.140223e-09 -1.104989e-09 1.893386e-09 3.705969e-10 1.586579e-10
8.741042e-09 -5.052130e-09 -1.182563e-09 3.574109e-10 1.342597e-10 -1.943072e-10
9.290231e-09 -5.125392e-09 -1.203789e-09 4.552242e-11 1.740761e-10 3.104184e-12
1.044893e-08 -4.653889e-09 -5.634484e-10 5.127555e-09 -2.688163e-10 -6.606817e-10
4.157887e-09 -8.476186e-11 -1.465406e-11 7.669049e-09 -2.851617e-10 -4.170717e-10
3.742833e-09 -3.086550e-10 1.260472e-10 7.702498e-09 4.631398e-10 -3.973133e-11
7.899331e-09 -4.599125e-09 -1.026587e-09 9.004786e-11 2.760003e-11 -9.858669e-12
2.670612e-09 1.519891e-09 2.290736e-10 8.349169e-09 5.181521e-10 5.958523e-10
6.535775e-09 -1.235595e-09 6.941980e-11 8.693836e-09 -1.139099e-10 -7.637072e-10
3.788179e-09 -1.591834e-09 -6.817573e-10 3.465752e-09 5.727506e-10 1.359807e-10
6.637467e-09 -3.796041e-09 -9.593131e-10 2.188433e-10 8.893863e-11 -1.435777e-10
9.828122e-09 -5.599981e-09 -1.343022e-09 3.102320e-11 -2.830128e-11 1.567035e-11
3.191149e-09 -1.653033e-09 -5.271552e-10 2.258080e-09 3.658835e-10 -4.289050e-11
3.279930e-09 -2.045584e-09 -6.060317e-10 1.743418e-09 1.591303e-10 -1.547364e-10
7.971518e-09 -2.887460e-09 6.201439e-11 7.611395e-09 4.558744e-10 2.466112e-10
5.367059e-09 -1.350294e-09 -3.414864e-10 6.968560e-09 -6.793066e-11 -4.000463e-10
7.494815e-09 -4.062901e-09 -9.250538e-10 6.435355e-10 2.757288e-10 3.601148e-10
2.300514e-08 1.428613e-08 -8.525034e-08 2.565864e-08 1.293003e-08 -1.123060e-08
7.221336e-09 -4.002947e-09 -9.712124e-10 1.790808e-09 6.965495e-11 -4.049487e-10
2.620884e-09 -1.487551e-09 -5.108489e-10 7.539617e-10 2.283050e-10 1.311082e-10
6.315311e-09 -3.537278e-09 -8.332992e-10 1.016610e-09 3.071827e-10 1.583446e-10
6.611165e-09 -2.504163e-09 -3.277436e-10 6.112417e-09 -2.101818e-10 -5.487744e-10
7.673694e-09 -3.451579e-09 -4.996572e-10 5.371455e-09 -7.001850e-12 -8.147608e-10
-3.653414e-09 3.120039e-09 1.803151e-10 -2.670943e-10 -1.743108e-10 8.081102e-11
-6.310097e-09 -3.005304e-09 2.949234e-09 2.664169e-10 3.690623e-10 -3.841982e-10
-8.284290e-09 4.580863e-09 1.179586e-09 -1.723404e-10 -6.606704e-11 -6.553733e-10
-4.053284e-09 -8.478164e-09 3.833233e-09 -1.756309e-09 -2.554803e-10 -7.097745e-10
-3.927362e-09 -8.189986e-09 3.734849e-09 -8.858822e-10 1.071090e-09 -6.059890e-10
-6.381522e-09 -3.468148e-09 3.146584e-09 -1.846236e-09 -1.081449e-10 -3.104663e-10
-8.550308e-09 4.484374e-09 1.294136e-09 -4.092155e-10 -3.928280e-11 -4.514990e-10
-4.597143e-09 -6.444776e-09 3.731109e-09 -1.625754e-09 4.568617e-10 -2.406166e-10
-4.041977e-09 -9.564634e-09 4.063583e-09 -1.667855e-09 -1.037653e-09 -7.212676e-10
-8.191644e-09 4.838522e-09 1.089207e-09 -4.545360e-10 -9.655843e-11 -4.871212e-10
-8.550024e-09 4.484374e-09 1.181478e-09 -4.276739e-10 -5.466738e-11 -5.189589e-10
-9.506906e-09 3.167854e-09 1.842038e-09 -6.746488e-10 -8.880567e-16 -9.021717e-11
-4.157836e-09 -6.426386e-09 4.015562e-09 -1.345863e-09 -2.671877e-10 -6.746321e-10
-9.685821e-10 -1.401893e-08 3.707239e-09 -6.305066e-09 7.919427e-10 -2.289802e-11
-6.256986e-09 -2.763784e-09 3.385122e-09 -2.125471e-09 -2.210902e-10 -7.552807e-10
2.002544e-08 -5.082365e-08 6.176529e-09 -3.486671e-09 -6.247728e-09 3.568640e-10
-3.847378e-09 -9.133021e-09 3.781931e-09 -3.660039e-09 2.063629e-10 -7.216992e-10
3.162285e-08 -8.241941e-09 -5.821971e-09 5.080209e-09 5.356361e-10 -2.730394e-10
1.841218e-08 -3.902415e-08 -4.868843e-09 -8.354677e-10 -4.435620e-16 -3.155258e-10
4.870328e-08 -1.984377e-08 -1.712285e-09 -5.133265e-09 1.503479e-10 1.226089e-09
1.999804e-08 -7.433887e-09 -4.922813e-08 -2.132244e-08 6.608158e-09 1.662566e-09
7.860317e-09 -1.875452e-08 -1.191263e-08 -1.013114e-08 -8.116010e-09 -2.854420e-09
3.690298e-08 -1.092655e-08 -2.116031e-09 -5.804231e-09 -1.660770e-10 3.207136e-09
7.672034e-09 -2.940910e-08 -1.056668e-09 -8.824124e-10 -1.247572e-09 -6.796790e-10
9.370678e-09 -2.602746e-08 -1.097436e-08 -1.658665e-08 -1.344697e-08 -4.039957e-09
-1.469969e-08 -5.677023e-10 9.613621e-10 -2.048628e-09 -4.366085e-11 -1.999579e-10
-4.781333e-09 -1.135844e-08 3.185807e-11 6.160630e-09 -2.784814e-09 1.303730e-09
-1.262151e-09 -1.491689e-08 1.011378e-10 2.982731e-09 -1.034441e-10 1.498688e-10
2.638484e-09 -2.272381e-08 3.988370e-09 1.627782e-09 1.051289e-10 -6.359782e-10
4.791511e-09 -2.640503e-08 1.572700e-09 4.898292e-10 -1.154008e-09 2.996133e-10
2.563099e-08 -1.402480e-09 9.094097e-09 -2.499879e-08 2.147756e-09 -2.676050e-09
4.151948e-08 -1.416695e-08 6.782386e-10 -1.291755e-08 1.090568e-09 2.015663e-09
1.600931e-09 -2.431446e-08 6.358267e-09 6.135085e-09 3.318003e-11 5.717512e-10
-7.254926e-09 -3.264797e-09 1.238040e-09 1.758436e-09 -5.038639e-10 3.397474e-10
3.560336e-09 -1.997194e-08 2.664787e-09 1.019940e-08 -3.687805e-09 2.321253e-09
-8.442390e-09 6.549433e-09 -9.919489e-09 2.449719e-09 -1.690166e-09 1.379239e-09
8.033194e-09 -2.845047e-09 -1.774527e-10 7.398053e-09 -2.237219e-10 -5.725906e-10
-7.391851e-09 -6.011392e-09 2.534681e-09 1.656398e-09 -9.023600e-10 -9.125478e-11
-9.495563e-09 5.906933e-10 1.910675e-09 1.002833e-09 -1.572092e-09 -4.011644e-10
3.560602e-09 -2.297896e-08 9.588461e-10 9.250244e-09 -6.020430e-09 1.761168e-09
-9.379691e-09 3.147752e-09 -1.545465e-09 -2.146246e-10 -7.596928e-10 5.230389e-10
-7.684002e-09 -1.594065e-08 6.953439e-09 4.187290e-09 2.281859e-10 -5.333509e-10
-4.671200e-09 -1.230601e-08 2.776052e-09 6.225946e-09 -3.326682e-09 -1.934918e-10
-1.017327e-08 4.303637e-09 -3.378213e-09 1.613509e-09 -2.182913e-09 2.045980e-09
-7.682601e-09 -1.037666e-08 4.025014e-09 1.026948e-08 1.021629e-09 -5.567892e-10
-3.888110e-09 2.200283e-09 9.464758e-10 2.520833e-09 1.873110e-10 -7.789465e-10
-5.740866e-09 2.137640e-09 1.172169e-09 1.362605e-09 2.324207e-11 -2.219809e-10
-2.896828e-09 -2.170610e-08 6.167487e-09 8.641476e-09 2.230729e-10 1.054907e-10
-3.686454e-09 -1.654274e-08 5.612857e-09 1.154954e-08 -7.580746e-10 -4.595262e-10
-6.423560e-09 -1.809659e-08 6.724948e-09 3.707629e-09 9.793455e-11 -3.569012e-11
7.684185e-09 -3.449768e-09 -4.764393e-10 5.376184e-09 3.081224e-10 3.268860e-10
-9.126802e-09 3.953115e-09 2.734679e-10 -4.085336e-09 1.358324e-09 5.526011e-10
7.781177e-09 -4.392821e-09 -9.970691e-10 3.124975e-09 7.193129e-11 -4.338030e-12
5.171798e-09 -2.113747e-09 -4.782681e-10 4.674593e-09 -8.507329e-11 -3.813354e-10
-6.458956e-09 2.353978e-09 1.295144e-09 1.336520e-09 -2.826122e-10 -2.721045e-11
1.169679e-08 -3.199101e-08 -3.304897e-09 -5.289087e-09 -2.502172e-09 -3.502824e-10
8.080574e-09 5.572683e-10 1.327636e-10 -1.392116e-08 -4.137309e-10 -5.205869e-10
-5.884399e-09 3.614087e-09 9.827068e-10 2.839043e-09 1.051159e-10 -3.067229e-10
-1.133863e-09 1.765705e-09 4.016165e-10 6.177150e-09 5.567655e-10 -1.533730e-10
-5.455528e-09 3.608697e-09 7.742158e-10 3.629038e-09 -4.773671e-11 -6.906071e-10
-1.979525e-09 2.601777e-09 4.888676e-10 4.984773e-09 4.676271e-10 3.861111e-11
2.807832e-08 -4.080037e-08 -1.837143e-08 -4.838166e-10 -1.015443e-08 7.171927e-10
9.813551e-10 -1.469869e-08 3.523235e-09 -8.223035e-09 5.612256e-10 -8.423386e-11
-4.608481e-09 -9.075204e-09 3.529227e-09 -4.002032e-09 5.369400e-10 -2.346193e-10
-8.034374e-09 1.190678e-09 1.048946e-09 -5.954022e-09 5.747386e-10 -8.110938e-10
-9.808552e-09 -2.057029e-09 7.198384e-10 -9.307390e-09 5.327312e-10 4.603691e-10
2.317333e-08 -4.325831e-08 -7.432328e-09 -3.252867e-10 -1.103974e-09 -3.413625e-11
2.212169e-08 -4.316461e-08 -6.532335e-09 -1.152156e-09 -4.278557e-11 8.479226e-10
-7.877216e-09 -5.577956e-10 2.078850e-09 -4.425828e-09 4.554064e-10 1.448996e-11
7.728239e-09 -2.624246e-08 5.048077e-09 -6.913057e-09 -4.518871e-10 -3.679886e-11
2.122409e-08 -4.155284e-08 -8.276384e-09 -2.382614e-09 -9.474425e-10 -4.952772e-10
1.941362e-08 -3.533928e-08 -9.527106e-09 -7.160155e-09 -2.471482e-09 4.682783e-10
-5.667186e-09 3.059088e-08 3.139043e-08 -4.096232e-08 3.017220e-10 1.513042e-09
-1.452856e-08 3.155552e-08 -2.396861e-08 1.243401e-08 5.285536e-09 -4.234574e-09
-2.281018e-08 3.419002e-08 -3.176589e-08 1.883534e-08 1.169747e-08 -1.621111e-08
2.469891e-08 -1.129267e-08 9.970465e-09 -5.865607e-10 7.163356e-10 -6.337004e-09
2.373723e-08 -3.826030e-08 -1.519113e-08 -7.255590e-09 -3.201123e-09 -4.112465e-11
1.812785e-08 -7.590656e-09 7.521539e-11 2.878462e-09 3.539969e-10 -6.134799e-10
1.551200e-08 -8.472237e-09 4.690564e-09 5.885330e-09 -1.324557e-10 -1.531447e-09
-7.310345e-09 -3.985321e-09 2.544773e-09 1.252353e-09 -2.086147e-10 -2.851028e-10
1.825385e-08 -1.001732e-08 2.711566e-09 1.779156e-09 -3.257079e-10 -1.102303e-09
-4.193319e-09 -1.289113e-08 2.454916e-09 6.722650e-09 -4.333346e-09 2.379092e-10
-9.132878e-09 -9.224284e-10 2.350087e-09 -4.384142e-10 -1.274174e-10 -4.817476e-10
1.698965e-08 -8.707489e-09 4.971112e-10 1.481895e-09 2.115558e-10 -1.308927e-09
1.593836e-08 -8.819632e-09 -5.145155e-10 -2.671570e-09 -9.973181e-11 -6.592840e-10
2.027641e-08 -8.815803e-09 1.649763e-09 -2.344056e-09 2.946699e-11 -1.296700e-09
-8.378397e-09 -2.556622e-09 2.085699e-09 -8.762002e-11 -5.572809e-11 -2.159804e-10
1.990818e-08 -3.531187e-08 -1.123990e-08 7.181945e-09 -2.437463e-09 1.192525e-09
-6.843734e-09 2.095744e-09 -5.786140e-09 -1.211927e-08 2.261115e-09 1.734060e-09
-1.512027e-08 6.392749e-09 -1.387969e-09 -8.740860e-09 1.666340e-09 1.927017e-09
3.805938e-09 1.821095e-08 -4.772161e-08 -2.745001e-08 1.052346e-08 9.750122e-09
3.633836e-09 1.600487e-08 -3.957967e-08 -2.578824e-08 1.258988e-08 1.149207e-08
9.471179e-09 -2.708283e-08 -3.069162e-09 5.158654e-09 -3.852032e-09 6.497940e-10
-2.649739e-09 6.372052e-10 -3.043506e-08 -3.015419e-08 2.017794e-08 1.207363e-08
9.165994e-09 -3.197272e-08 9.781431e-10 3.595577e-09 9.698479e-10 8.092561e-10
2.391332e-08 -4.583783e-08 -1.470101e-08 -1.223986e-08 -2.108415e-08 -4.793627e-09
1.881015e-08 -1.159206e-08 5.027810e-09 -2.295070e-09 6.330540e-10 -3.235482e-09
1.747217e-08 -1.215571e-08 1.019365e-08 4.737501e-09 1.265803e-10 -2.030367e-09
1.373497e-08 -1.285466e-08 1.712867e-08 -1.057023e-09 8.839943e-10 -3.952293e-09
1.988850e-08 -1.220864e-08 1.963150e-08 5.214509e-09 7.074895e-10 -9.386569e-10
2.030732e-08 -5.559635e-08 4.684445e-09 3.367618e-09 -8.493325e-09 6.260102e-10
2.189173e-08 -9.162864e-09 3.879358e-09 -4.201308e-09 5.478822e-10 -3.238337e-09
2.334154e-08 -9.976187e-09 5.940026e-09 2.933970e-09 3.421850e-10 -2.226187e-09
2.193980e-08 -4.833198e-08 6.686234e-10 -9.262688e-10 -3.393330e-09 6.620342e-10
6.645696e-09 -2.504162e-09 -4.782672e-10 5.941869e-09 -7.253665e-11 -4.694543e-10
2.147570e-08 -1.144073e-08 8.707333e-09 -5.428841e-09 1.049848e-09 -1.966798e-09
1.912432e-08 -1.129267e-08 3.975331e-09 -9.417704e-10 3.241704e-10 -2.380828e-09
1.754853e-08 -7.269719e-09 4.938920e-10 -5.128311e-09 -1.678368e-11 -1.105777e-09
2.206577e-08 -1.027794e-08 1.190293e-08 6.962988e-09 3.955676e-10 -4.106805e-09
1.119559e-08 -5.122036e-09 1.197332e-08 1.314891e-08 -1.142539e-09 -3.286552e-09
2.060415e-08 -1.200871e-08 1.346178e-08 -6.133417e-09 3.059044e-10 -6.002163e-09
1.642038e-08 -4.695654e-08 5.789547e-09 4.344988e-09 -5.722161e-09 2.323879e-10
2.122613e-08 -1.097158e-08 5.879943e-09 1.451901e-09 -3.116011e-10 -3.016021e-09
1.384779e-08 -3.929944e-08 3.677193e-09 2.664642e-09 -2.096054e-09 7.425115e-10
1.391307e-08 -3.910285e-08 2.576830e-09 2.327871e-09 5.286126e-10 5.464678e-10
1.672523e-08 -4.313549e-08 -2.968238e-10 7.344386e-09 -6.382572e-09 1.478197e-09
4.288506e-09 5.784252e-09 7.222235e-08 -3.696682e-08 3.257640e-08 -2.747087e-08
-6.478682e-08 -3.563775e-08 1.801904e-07 -8.292096e-09 1.357455e-08 -2.231668e-08
1.429434e-08 -2.772263e-08 -1.390911e-08 7.782492e-09 -3.191990e-09 3.876542e-10
-9.913264e-09 -9.607047e-09 1.082931e-07 -3.138416e-08 -7.924526e-09 -1.029740e-08
1.360910e-08 -3.968014e-08 4.778846e-09 3.978335e-09 1.577155e-09 -2.485728e-10
1.836677e-08 -2.755166e-08 -2.250423e-08 1.096694e-08 -7.796078e-09 2.067459e-09
5.428291e-09 -2.470497e-08 1.308100e-09 -9.589775e-09 2.864550e-09 1.282767e-10
1.300355e-09 -1.795592e-08 4.025531e-09 -7.295603e-09 -6.996687e-10 -4.851324e-10
3.760041e-09 -2.167462e-08 3.755890e-09 -8.599780e-09 6.812713e-10 -2.826836e-10
-3.588065e-09 1.926036e-09 3.750463e-08 -2.261283e-08 1.429246e-09 4.513635e-09
2.089616e-08 -3.846993e-08 -6.735633e-09 4.656608e-09 -2.040306e-09 -5.501997e-10
-1.374898e-08 -3.487128e-09 3.815106e-09 2.994313e-09 1.445996e-09 -3.793432e-10
-1.456255e-08 -3.366869e-09 3.932161e-09 2.530050e-09 1.239515e-09 -9.202836e-10
-1.560267e-08 -2.364817e-09 3.538867e-09 2.399467e-09 1.044346e-09 -2.196132e-10
-1.473132e-08 3.026490e-09 -5.849743e-10 8.776181e-09 3.070290e-09 -1.119833e-09
2.876847e-09 -1.046940e-09 -6.191692e-10 -2.660383e-10 1.457565e-10 4.440117e-16
-1.735941e-08 8.840685e-09 -2.469825e-09 9.913909e-09 1.569098e-09 -1.672763e-09
-1.502689e-08 -3.390366e-09 3.630455e-09 2.877687e-09 1.326443e-09 4.513723e-10
-3.532508e-09 1.927498e-08 -5.087341e-09 -6.891162e-09 4.807381e-09 -1.790960e-09
9.185137e-09 -5.378242e-09 -1.175915e-09 -1.544172e-09 -6.519259e-11 1.650149e-10
-6.590284e-10 -2.371383e-08 7.428131e-09 1.017374e-09 7.187140e-11 3.165759e-10
9.891743e-09 -5.515744e-09 -1.348655e-09 -3.392252e-10 4.292638e-12 7.402301e-12
-6.483459e-09 -1.621831e-08 7.260414e-09 4.127427e-10 7.541701e-11 1.019318e-11
-6.903454e-09 -1.626695e-08 7.192148e-09 7.110841e-10 -1.009341e-10 1.901042e-10
1.008680e-08 -5.722034e-09 -1.335499e-09 2.904996e-10 2.098760e-11 1.049398e-10
1.037280e-08 -5.700544e-09 -1.350265e-09 4.053572e-10 -1.996226e-11 1.642437e-10
1.020487e-08 -6.055267e-09 -1.356726e-09 -2.706728e-10 -6.090739e-12 2.014527e-10
-3.513294e-09 -1.192353e-08 3.630554e-09 2.355016e-09 -1.083915e-09 -4.633952e-10
-5.188576e-09 -9.336325e-09 2.215009e-09 1.037402e-09 -3.190206e-10 -4.867002e-10
-7.346524e-09 -5.868156e-09 -2.125975e-10 4.145780e-09 -8.993666e-10 5.865297e-11
-1.986498e-09 -2.175617e-08 7.451658e-09 8.216516e-10 -6.802800e-20 -4.139711e-11
-5.677703e-09 -6.149211e-09 3.506051e-09 -2.479238e-09 -2.508627e-10 -5.101181e-10
-7.305283e-09 6.906715e-10 2.367627e-09 -3.786990e-10 6.444645e-11 -3.699937e-10
-7.402174e-09 1.472892e-09 2.034201e-09 4.761567e-11 -1.256847e-10 -3.272946e-10
-7.266364e-09 -1.534303e-08 7.120441e-09 6.886491e-10 4.792078e-11 6.600121e-20
-7.374997e-09 1.018385e-09 2.372913e-09 2.012456e-10 2.275180e-11 -4.483607e-10
1.033073e-08 -4.803184e-09 -5.716432e-10 5.276749e-09 4.325106e-10 1.641523e-10
-5.610280e-09 -5.975306e-09 3.057583e-09 -2.629450e-09 -5.453652e-10 -4.987005e-10
-6.254908e-09 -2.205716e-09 2.702209e-09 -2.042574e-10 -6.304404e-10 -1.125731e-09
-6.813330e-09 3.446767e-09 9.850307e-10 6.195639e-10 4.538203e-11 -1.020835e-10
-7.403242e-09 3.316469e-09 1.337986e-09 1.668621e-11 -2.814904e-11 -5.476064e-11
-7.290318e-09 3.352952e-09 1.303722e-09 1.722595e-10 7.047074e-11 -2.560326e-10
-7.212614e-09 3.416600e-09 1.225853e-09 5.708386e-10 -1.272715e-11 -7.401535e-11
-7.400401e-09 2.132667e-09 1.875927e-09 -1.329151e-11 -1.544791e-10 2.216031e-10
-4.739721e-09 -7.042451e-09 3.464328e-09 -3.843663e-09 -4.369156e-10 -1.171895e-09
-7.247486e-09 9.149019e-10 2.201610e-09 1.900466e-10 8.241652e-11 -9.758705e-11
-7.248271e-09 1.350617e-10 2.063847e-09 -1.828404e-10 9.391887e-11 -4.311669e-10
-6.150882e-09 -1.639494e-08 6.230826e-09 6.490922e-09 1.310372e-10 2.742935e-10
-3.964286e-09 -1.701230e-08 1.287292e-09 1.529963e-08 3.021932e-09 -9.737559e-10
1.870190e-09 -2.643718e-08 5.526400e-09 9.868913e-09 -1.282794e-10 1.800782e-11
-7.477288e-09 2.204608e-09 1.665971e-09 -8.694124e-11 5.521095e-11 -9.308590e-11
-1.077055e-08 -1.073329e-08 4.234975e-09 7.476341e-09 1.397261e-09 -6.319801e-10
-8.684393e-09 -1.346571e-08 4.063788e-09 1.115503e-08 -5.586658e-13 -1.903448e-10
5.605922e-10 -2.703586e-08 6.501264e-09 6.999578e-09 8.151044e-10 -1.338934e-10
-9.881588e-09 -1.214391e-08 1.433042e-09 1.305170e-08 3.441856e-09 -8.922307e-10
-7.258825e-09 -1.945493e-10 2.405655e-09 -4.519705e-10 -3.995992e-11 -2.525923e-10
9.945958e-09 -8.637837e-09 -3.029449e-08 -1.707158e-08 -4.519290e-09 -1.683840e-09
-7.450150e-09 1.866040e-09 1.778811e-09 2.120881e-11 1.798792e-10 -2.326699e-10
1.925661e-08 -4.586242e-08 9.979484e-11 -2.821600e-09 -3.376597e-09 -3.145901e-10
-7.287688e-09 1.299663e-09 1.965659e-09 1.213317e-11 2.557097e-10 1.838352e-11
1.736321e-08 -3.454535e-08 -1.551831e-08 -1.334917e-08 -1.737981e-08 -3.522259e-09
6.456747e-09 -1.730158e-08 -1.264944e-08 -1.434435e-08 -3.112765e-09 -2.497850e-10
-7.425145e-09 1.725225e-09 1.836826e-09 -1.764589e-10 -2.135556e-10 -2.920713e-10
-7.254829e-09 -4.271232e-10 2.019260e-09 -7.457102e-10 -2.979227e-10 -4.171566e-10
-7.466933e-09 1.355562e-09 1.941883e-09 -3.148949e-10 -1.312079e-10 -4.203643e-10
-7.406197e-09 1.518927e-09 2.070617e-09 3.386332e-10 -9.078693e-11 -6.085545e-11
-4.328639e-08 6.916796e-08 3.885572e-08 -6.433353e-09 -3.096413e-08 -2.394182e-09
2.685117e-08 -3.436496e-08 -1.902645e-08 -1.451107e-09 -2.976833e-09 -2.953855e-10
9.748990e-09 -1.954725e-08 -1.545589e-08 -1.316636e-08 -4.708206e-10 -5.495044e-10
2.196580e-08 -3.777149e-08 -1.250343e-08 -6.615845e-09 -7.195998e-09 5.399169e-11
1.549443e-08 -3.772390e-08 -3.030725e-09 -9.014805e-09 -7.776893e-09 -1.232081e-09
-1.721850e-08 1.367715e-07 2.942910e-08 4.704972e-09 -7.192876e-08 1.013458e-08
-1.936446e-09 2.151301e-09 5.795719e-11 -1.458570e-09 -2.203548e-10 -3.826806e-11
-6.212963e-09 4.442350e-09 4.450387e-10 -1.135914e-09 -1.919465e-10 -1.533518e-10
-1.302083e-09 2.159128e-09 -8.594125e-11 -2.826511e-09 -6.103989e-13 -2.214366e-10
-4.065264e-09 9.465192e-08 -1.024188e-07 1.242555e-08 2.582011e-08 2.393315e-08
-1.185071e-09 1.701407e-09 -5.972067e-11 -8.039913e-10 9.879653e-12 -3.575551e-10
-3.774623e-09 3.071936e-09 4.614114e-10 -9.401427e-10 -7.725709e-11 -4.082301e-10
-5.613598e-09 4.111216e-09 5.397962e-10 -4.694911e-11 6.106005e-11 -5.733430e-21
7.503944e-10 9.501286e-08 -1.037917e-07 1.030134e-08 2.663183e-08 1.419774e-08
-3.638381e-09 -1.492665e-08 4.579981e-10 -2.192470e-09 4.844978e-10 -2.177656e-10
1.507272e-08 -1.114203e-08 -3.195493e-08 -1.613721e-08 -2.410463e-09 -1.675638e-09
-3.873173e-08 1.008087e-07 -2.314440e-08 6.334585e-09 1.282748e-08 2.383655e-08
-1.706070e-09 9.680753e-08 -6.110715e-08 1.886226e-08 -2.635743e-09 1.404400e-08
2.222466e-08 -3.752869e-08 -1.039667e-08 -7.249615e-09 -1.507588e-08 -7.513232e-10
1.005106e-08 -4.118168e-09 -9.722001e-10 -6.078940e-09 -1.651249e-10 2.707452e-10
2.223469e-08 9.535937e-08 -1.121537e-07 -1.729226e-08 2.595933e-08 2.315007e-08
2.453078e-10 1.089566e-09 -2.860805e-10 -5.260873e-09 -3.362997e-10 5.123346e-10
5.849690e-09 -2.328968e-09 -9.740297e-10 -5.373975e-09 8.222534e-11 -1.275380e-10
2.567776e-10 -1.863040e-08 -4.375799e-09 7.884175e-09 -1.038028e-09 8.834352e-10
-7.573421e-09 3.469076e-09 1.342297e-09 1.915682e-10 5.507950e-11 -1.791220e-10
-7.393514e-09 3.041396e-09 1.328772e-09 -2.644485e-11 1.055995e-10 -4.753975e-11
-4.258687e-09 -5.836422e-09 -8.579753e-09 9.175674e-09 -2.143286e-09 1.433625e-09
-7.377934e-09 3.717219e-09 1.194645e-09 1.218234e-10 3.264145e-11 -7.967654e-11
-7.212577e-09 4.070660e-09 9.821537e-10 4.001865e-11 1.337475e-11 -1.137201e-11
1.005364e-09 -7.254540e-09 -7.963365e-09 9.283977e-09 -6.298373e-10 5.491176e-10
1.497785e-08 -3.518868e-08 -4.404304e-09 4.712346e-09 -9.631242e-10 2.733826e-10
1.083789e-09 -1.819534e-08 1.899735e-09 4.412773e-10 -6.341527e-10 -5.300566e-10
-1.017579e-08 1.138029e-08 -1.392848e-08 4.293521e-09 -4.466505e-09 6.076579e-09
-8.910414e-09 -2.741122e-09 2.517560e-09 4.202447e-09 -2.121927e-09 6.272871e-10
-8.474985e-09 -9.224284e-10 2.336449e-09 -4.049880e-10 -1.266125e-10 -6.679430e-10
-4.721015e-09 -1.165689e-08 2.925394e-09 -1.633389e-10 -3.935243e-10 -5.298667e-10
-8.910438e-09 -2.311904e-09 1.829145e-09 3.962451e-09 -2.271887e-09 3.958127e-10
-7.566661e-09 -3.443851e-09 2.447277e-09 -1.978644e-10 7.353229e-12 -1.010615e-09
1.396554e-08 -3.694669e-08 -3.774791e-09 -9.899165e-09 4.516252e-09 8.404098e-11
1.913713e-08 -3.630911e-08 -5.329977e-09 -8.296592e-09 1.911951e-10 4.638499e-10
1.196115e-08 -2.863044e-08 -6.271081e-09 -1.470637e-08 1.623586e-10 5.941508e-10
1.913713e-08 -3.642267e-08 -9.663321e-09 -8.468694e-09 2.650056e-09 6.187177e-10
-6.488366e-09 3.695215e-09 8.947216e-10 2.706018e-10 -3.537570e-11 8.099676e-11
-5.999854e-09 3.430880e-09 7.825212e-10 6.371228e-10 1.815348e-10 -2.602301e-10
1.430532e-08 -3.578885e-08 -3.808974e-09 -9.109811e-09 5.208633e-11 1.994092e-10
-5.686957e-09 -2.229249e-09 -2.477426e-09 -1.024364e-08 2.340382e-09 1.170267e-09
-6.843734e-09 -5.809235e-09 -2.477425e-09 -1.391171e-08 3.767882e-10 8.322491e-10
-6.752928e-09 3.407205e-09 9.842145e-10 6.430865e-10 2.911915e-11 -3.639522e-11
9.632528e-10 -1.425791e-08 1.565708e-09 -1.115098e-08 8.742690e-10 1.238627e-11
-5.686957e-09 -6.416569e-09 3.536993e-11 -1.101130e-08 1.116267e-09 3.102385e-10
-8.765712e-09 6.653371e-10 1.839569e-09 -2.810618e-09 -2.806547e-10 -5.113480e-10
-4.692470e-09 2.454107e-09 6.869278e-10 3.568565e-09 -5.422198e-10 -5.106502e-10
-6.571508e-09 3.555805e-09 8.327912e-10 -7.764811e-11 2.756461e-12 -5.234169e-11
-6.258478e-09 3.133547e-09 1.009295e-09 8.735537e-10 1.519866e-10 -3.558232e-11
-7.434940e-09 3.694055e-09 1.135453e-09 2.238374e-10 1.120720e-11 -8.369860e-11
1.150180e-08 -3.618796e-08 6.956882e-09 8.287411e-10 -2.884673e-10 -1.712490e-10
1.274884e-08 -3.823076e-08 7.050037e-09 3.658824e-10 3.301728e-10 -8.686762e-11
-8.319805e-09 5.276223e-09 9.781127e-10 1.229735e-09 6.323897e-11 2.112630e-10
-7.507142e-09 2.903746e-09 1.314612e-09 8.382852e-10 2.367150e-10 -2.589893e-10
-3.547827e-09 -2.045651e-08 7.149035e-09 2.866416e-09 -2.967356e-10 4.393958e-10
-3.822192e-09 6.383263e-08 -3.765465e-08 -3.073986e-08 7.424258e-09 7.840904e-10
3.104675e-09 -2.797184e-08 6.908450e-09 4.137287e-09 5.764189e-11 3.792984e-10
-3.391487e-08 1.396535e-08 7.619345e-08 3.827563e-08 -5.498816e-09 -2.073372e-09
-7.567736e-09 -1.775476e-08 3.863112e-09 1.113058e-08 1.220484e-09 -4.678332e-10
-8.302818e-08 5.217983e-08 1.362116e-07 -1.197457e-08 9.461251e-08 -2.818208e-08
-1.884777e-09 -2.293328e-08 7.352723e-09 1.862786e-09 6.575754e-10 -9.910894e-11
-1.117728e-08 6.642802e-08 -3.563002e-08 2.025048e-08 -7.277684e-09 -1.035389e-08
2.962294e-08 7.048469e-09 -3.272082e-09 2.897667e-08 7.680210e-10 6.075908e-10
3.120759e-09 -2.735605e-08 6.476458e-09 4.102385e-09 1.366321e-09 -5.078471e-11
-5.449221e-09 5.545410e-08 -2.799944e-08 3.201468e-08 -3.111632e-09 -3.779198e-09
-5.080244e-08 5.337732e-08 4.297109e-08 1.764556e-08 -9.699740e-10 -1.206612e-09
7.008890e-09 -3.073209e-08 5.983494e-09 8.227360e-09 1.054296e-09 -2.574969e-10
4.686568e-09 -3.083315e-10 -5.040413e-11 7.757757e-09 5.122642e-10 2.971545e-10
5.003960e-09 -2.921797e-08 5.700526e-09 9.243992e-09 3.156428e-10 5.614322e-10
-2.348497e-08 -1.646304e-08 1.098839e-07 2.607401e-08 -4.563880e-08 -4.767882e-08
2.533167e-09 -2.822296e-08 7.414158e-09 2.083541e-09 3.524964e-10 2.606559e-10
-5.590095e-08 6.691412e-09 1.070205e-07 1.446199e-08 -3.818946e-08 -1.579339e-08
7.383106e-09 -3.299708e-08 6.924099e-09 4.776264e-09 3.272010e-10 6.698019e-11
1.093740e-08 -6.180447e-09 4.422769e-08 -2.564883e-08 2.200379e-09 -5.514967e-09
-3.236947e-08 1.367715e-07 -1.774920e-08 2.187760e-08 -5.063064e-08 -1.828070e-08
-5.848227e-08 7.346575e-08 -2.487420e-08 2.175950e-08 -9.617714e-08 -3.721097e-08
6.622987e-09 -3.284182e-08 7.291362e-09 7.995051e-10 2.089635e-10 6.479548e-10
-4.085894e-09 2.735954e-09 2.371365e-10 -2.218323e-09 -1.802875e-10 1.254590e-10
-1.831781e-08 2.114437e-08 -5.576855e-10 7.522624e-09 -7.417698e-10 -3.489935e-10
-1.326803e-08 1.368062e-08 -4.570713e-10 3.582190e-09 1.535603e-09 1.867654e-09
-2.463135e-08 3.581134e-08 -2.148530e-08 -1.119870e-08 3.840176e-09 6.222678e-09
-3.304840e-09 2.707439e-09 2.037415e-10 -2.514187e-09 -2.114937e-10 -2.522418e-10
-1.735530e-08 1.732346e-08 -8.770812e-09 -9.824440e-09 4.685670e-09 5.302963e-09
-4.292266e-09 3.462103e-09 3.470861e-10 -2.424228e-09 -1.658130e-10 -2.287370e-11
-2.761123e-08 5.461308e-08 -2.813686e-08 7.296530e-09 9.767315e-09 2.016757e-08
1.064566e-08 -1.233180e-08 4.300652e-08 1.323060e-08 1.966589e-10 -5.010838e-09
-5.799658e-09 4.270760e-09 5.086580e-10 -8.531815e-10 -6.798451e-11 -3.574177e-11
-5.902533e-09 4.156209e-09 4.499239e-10 -6.927523e-10 -1.472229e-10 -2.775400e-10
-1.099719e-08 1.588578e-08 4.099936e-08 2.491247e-08 -2.199191e-09 -1.168102e-08
-2.335436e-08 2.780483e-08 -2.216400e-09 1.243072e-08 3.200136e-09 1.006755e-09
-5.191100e-09 3.751561e-09 4.260914e-10 -1.346481e-09 -2.353796e-10 -1.855133e-10
-2.015554e-08 2.782595e-08 5.619271e-09 1.872739e-08 -8.398626e-09 -1.051521e-09
-4.673166e-09 1.593698e-08 3.281604e-08 2.832033e-08 -5.459903e-09 -1.055237e-08
-1.561099e-09 1.516475e-08 -1.005294e-08 1.169893e-09 -1.648662e-09 9.767092e-10
8.348746e-09 9.948288e-09 -9.314269e-09 1.534726e-10 -4.707283e-10 -2.221891e-16
-5.267138e-09 4.155837e-09 4.437251e-10 -8.514798e-10 -1.440358e-10 -1.189410e-10
3.918134e-08 -1.006281e-08 -4.732729e-09 3.132049e-09 -2.776166e-10 -6.308843e-11
6.460239e-09 1.216722e-08 -9.999017e-09 6.688396e-09 -1.271044e-09 -1.272117e-09
-7.198025e-09 5.142633e-09 7.440262e-10 -6.445777e-11 -1.466249e-11 -1.794076e-11
-3.169834e-09 2.655582e-09 2.077196e-10 -1.368237e-09 -9.918488e-11 -1.847367e-11
-5.899459e-09 4.243914e-09 5.770007e-10 -1.166416e-09 1.014449e-10 5.953948e-11
2.115695e-08 9.410585e-10 -7.515697e-09 5.713523e-09 -1.247503e-09 -8.446581e-10
1.573350e-08 -6.369425e-09 2.831615e-09 -9.548000e-09 -1.220600e-10 -1.223385e-09
1.341648e-08 -5.081151e-09 1.480649e-09 -1.151215e-08 -1.560272e-10 1.508060e-09
-1.628036e-08 9.266859e-09 -2.614306e-09 -9.027282e-09 -8.269628e-09 -3.357029e-09
-1.347287e-08 1.269488e-08 -4.019710e-09 -5.739098e-10 -5.641320e-09 2.097771e-10
-1.130675e-08 1.463789e-08 -5.319061e-09 -1.596502e-09 -4.611028e-09 -6.243979e-10
-1.402068e-08 -2.764631e-09 3.586536e-09 3.162628e-09 2.964521e-09 -2.465743e-10
5.395716e-09 -2.113747e-09 -5.855378e-10 4.529256e-09 -2.021541e-10 -3.577230e-10
1.846790e-08 -9.221554e-09 1.896606e-09 -3.847128e-09 -1.405969e-10 -1.904233e-09
-1.716377e-08 4.756553e-09 2.710715e-09 8.913151e-09 -4.977062e-10 -5.543522e-10
-1.582391e-08 3.046843e-09 2.749345e-09 2.577684e-09 3.241299e-09 1.825080e-10
1.752534e-08 -8.740796e-09 1.862703e-09 -8.381095e-09 8.232168e-10 -1.311346e-09
1.418324e-08 -5.004070e-09 3.346360e-09 -1.230016e-08 2.447990e-10 -2.803490e-09
1.451142e-08 -4.920873e-09 1.968160e-09 -1.146664e-08 9.287895e-10 -3.445505e-09
-1.270501e-08 1.033743e-08 -1.367273e-09 3.925196e-10 5.545943e-09 -4.575294e-10
-1.576722e-08 1.698368e-09 1.613422e-09 2.590542e-09 1.845541e-09 -4.129614e-10
1.582530e-08 -9.105277e-09 2.831616e-09 -8.827604e-09 1.976270e-10 -1.205020e-09
-1.696074e-08 1.921616e-09 2.829779e-09 1.049936e-08 4.517527e-09 -1.945801e-09
8.725645e-10 -1.835486e-08 4.807619e-09 -3.261395e-09 3.625647e-10 -2.397161e-10
-1.057276e-08 -6.242449e-09 3.140790e-09 -1.100295e-09 -1.126969e-09 -5.477861e-10
2.468529e-09 -3.445141e-10 -3.197789e-10 4.419197e-09 -1.291118e-10 -5.060019e-11
-1.598379e-08 2.848338e-09 1.467723e-09 -6.487388e-10 -8.548127e-10 1.709861e-10
-1.277300e-09 -1.315328e-08 4.514400e-09 -1.188389e-09 1.269938e-09 -8.482568e-10
-3.108975e-09 -1.031415e-08 4.125644e-09 9.279109e-11 6.873035e-10 -2.406473e-10
4.845871e-09 -3.176263e-09 -7.538079e-10 1.039601e-09 1.346193e-10 1.349845e-10
1.264806e-08 -1.603980e-08 6.577105e-08 1.961786e-09 3.266634e-09 -2.115834e-08
-4.571575e-09 -8.049987e-09 3.814106e-09 -1.947809e-09 1.868039e-10 -4.024184e-10
5.056798e-09 -1.918842e-09 -8.565348e-10 -6.710099e-11 9.674239e-11 3.277822e-12
-2.114220e-10 9.622174e-10 -4.069225e-10 -2.596536e-09 -2.267484e-10 -9.073742e-12
2.260109e-09 -9.769361e-10 -5.368355e-10 -1.477096e-10 -2.131861e-10 7.459305e-11
-1.293958e-09 1.558564e-09 -1.358216e-10 -2.696879e-09 -1.908783e-10 -1.609897e-10
8.014397e-09 -1.534277e-08 4.566948e-08 3.628128e-09 -6.664970e-09 -7.582898e-09
-5.278963e-09 -5.681382e-09 3.563785e-09 2.803981e-10 2.702282e-13 -3.627074e-10
-1.720583e-10 -1.545305e-08 4.763661e-09 -1.379644e-10 1.266098e-11 -4.340683e-10
2.988985e-09 -3.300658e-10 -6.050280e-10 -3.297107e-09 -4.804423e-11 -3.963482e-10
-3.570973e-09 -1.880863e-08 6.886310e-09 1.529946e-09 1.199946e-10 7.843552e-10
-5.881901e-09 -1.663541e-08 6.704045e-09 2.160254e-09 -3.573685e-12 2.273894e-10
-6.220167e-10 -1.501010e-08 4.712795e-09 -2.477623e-09 2.999112e-10 2.849186e-10
6.948406e-10 7.723822e-11 -2.006040e-10 8.826240e-10 2.413558e-10 -1.331380e-12
4.657686e-09 -2.129545e-09 -7.189902e-10 1.939742e-10 -2.397305e-11 -4.043832e-11
-4.825607e-09 -1.832685e-08 7.473432e-09 3.501910e-10 -4.589278e-20 -6.552536e-11
4.369729e-09 -1.621811e-09 -5.552161e-10 2.463508e-09 3.488405e-10 -7.461187e-11
4.219356e-09 -1.433206e-09 -5.027017e-10 1.080408e-09 2.064483e-10 -1.544320e-11
4.496221e-10 2.262626e-10 -2.441851e-10 2.461647e-09 1.649170e-10 1.236529e-10
3.254733e-09 -1.145855e-09 -4.761957e-10 2.838970e-09 2.219633e-10 -3.605492e-10
-2.901800e-09 -2.245486e-08 7.296610e-09 1.957471e-09 4.167386e-10 2.818203e-10
-4.276736e-09 -1.811431e-08 7.039738e-09 2.872525e-09 9.910295e-12 6.290093e-12
-6.483461e-09 -1.619481e-08 7.243105e-09 3.849578e-10 -3.075850e-11 7.949197e-12
-7.517494e-09 2.153764e-09 1.665668e-09 4.525688e-10 1.839736e-10 -5.068697e-10
6.122804e-09 -3.515369e-09 -7.805585e-10 1.789234e-09 1.545066e-10 -5.582934e-11
1.745613e-09 -7.224941e-10 -3.060148e-10 2.109142e-09 1.781527e-10 -6.358669e-11
-7.581298e-09 2.292706e-09 1.680871e-09 3.382516e-10 7.920875e-11 -4.295430e-10
-7.246877e-09 3.492262e-09 1.192673e-09 4.076161e-11 5.377476e-11 -7.348078e-11
-7.699107e-09 2.837066e-09 1.574116e-09 3.243654e-10 2.076583e-11 -1.111908e-10
-6.396473e-09 2.721674e-09 1.217277e-09 6.053957e-10 1.834404e-10 -1.895433e-10
3.260501e-08 -4.767276e-09 -7.262828e-09 -7.795208e-11 -2.190230e-09 1.069089e-09
1.031382e-08 -5.827946e-09 -1.363024e-09 4.913172e-10 1.219103e-11 -1.678746e-10
3.279160e-09 -1.149627e-09 -5.690493e-10 2.852590e-09 2.435927e-10 -3.907423e-10
1.780709e-09 -1.411405e-10 -2.910698e-10 3.087533e-09 -9.135472e-11 -1.970477e-10
-5.735318e-09 4.306118e-09 4.536735e-10 -2.201124e-10 -1.084524e-10 -9.961820e-11
-6.854704e-09 5.012222e-09 5.915100e-10 -1.362315e-10 -8.066037e-11 -1.084820e-10
-7.117777e-09 5.243779e-09 6.239669e-10 8.545165e-12 -6.900114e-11 -7.731660e-11
-5.824875e-09 4.335813e-09 5.417606e-10 -1.434618e-09 -1.821158e-10 -1.762259e-10
-6.751556e-09 4.748598e-09 5.714911e-10 -2.815632e-10 -9.529333e-11 -5.587575e-11
-6.613074e-09 4.980730e-09 6.249978e-10 -4.480563e-10 -8.673501e-11 -1.392325e-10
4.027171e-09 -1.642018e-09 -6.991723e-10 3.646652e-09 3.126988e-10 3.252527e-10
9.636810e-09 -5.268746e-09 -1.266403e-09 1.378744e-09 -7.237059e-11 1.047302e-10
-1.607959e-08 1.072426e-08 -2.042266e-09 -1.600539e-09 -4.628143e-09 -7.195213e-10
1.191224e-08 8.880941e-09 -9.686185e-09 1.577352e-08 1.399031e-09 -1.825093e-09
-1.385498e-08 9.098004e-09 -2.561636e-09 -6.317278e-09 -9.702023e-09 -3.936573e-09
-8.037709e-11 -1.992636e-08 -7.364162e-09 -1.591455e-08 -1.097924e-08 -4.348803e-09
-1.700613e-08 7.155496e-09 -4.347818e-09 -1.437534e-08 -1.224919e-08 -7.522256e-09
-5.611138e-10 -2.003791e-08 -1.678814e-09 -3.459682e-09 1.012378e-09 -5.773205e-11
8.382594e-10 -1.619099e-08 4.889465e-09 -4.874703e-09 5.121723e-10 -1.417250e-09
3.143813e-09 -2.128111e-08 5.285887e-09 -5.029760e-10 -4.274470e-11 -4.305860e-10
-2.382384e-09 -1.190625e-08 4.134136e-09 -2.816508e-09 8.820700e-11 -1.163389e-10
1.164882e-08 1.212715e-08 7.929435e-11 -2.781656e-08 -1.018110e-09 1.556450e-09
-2.034376e-08 3.635477e-08 1.468781e-08 2.128790e-08 -5.405252e-09 -1.870056e-09
5.399347e-09 2.877885e-08 -2.626144e-09 -3.134504e-08 6.213587e-10 -1.750389e-09
2.705661e-08 -1.201014e-08 3.204253e-08 -3.435360e-08 5.604632e-09 -1.742093e-09
1.422610e-08 3.978617e-09 9.934263e-09 -3.083811e-08 -2.833691e-09 6.100226e-09
7.739967e-09 -2.623690e-08 4.476499e-09 -6.895613e-09 4.101409e-11 1.299159e-10
1.120893e-08 5.243805e-09 -3.631483e-09 -1.744758e-08 3.462254e-10 -7.376810e-10
8.669226e-09 3.437514e-09 1.307089e-08 -2.824716e-08 1.459766e-08 1.398756e-09
-3.735084e-09 1.439830e-08 -6.398863e-09 -1.157938e-08 2.837574e-09 -2.987313e-09
-4.264137e-09 -5.884381e-09 3.130053e-09 -2.580250e-09 3.318820e-10 -1.206383e-09
-4.284312e-09 -6.444614e-09 3.987868e-09 1.357672e-10 5.782530e-11 -8.571095e-10
3.236882e-08 3.978617e-09 9.350049e-09 -3.119725e-08 -2.925554e-09 7.278618e-09
-2.183468e-09 -1.128303e-08 3.744948e-09 -3.949143e-09 4.503520e-10 -1.427153e-09
2.926245e-08 -5.184596e-09 1.524767e-08 -2.657496e-08 -2.751238e-09 2.603588e-09
-7.212744e-09 -1.288925e-11 2.141468e-09 -9.964572e-10 -8.071188e-11 -3.432956e-10
-6.390899e-09 -4.252255e-09 2.911633e-09 -2.653389e-09 3.280236e-10 -7.474292e-10
1.360171e-08 3.812819e-09 -1.290167e-09 -1.667120e-08 -1.998526e-10 2.080418e-09
-3.433950e-09 2.475927e-09 6.942580e-11 -1.442983e-09 -2.870353e-10 -1.865558e-10
-4.315721e-10 1.616492e-09 -5.201306e-11 -1.625231e-09 -2.237244e-10 -1.996769e-10
-4.600363e-09 3.788008e-09 3.787677e-10 -7.897121e-10 -2.288126e-10 -3.172479e-10
-3.117043e-09 2.829387e-09 1.934728e-10 -1.449120e-09 -9.548851e-11 -7.649625e-11
-2.237019e-08 9.734241e-09 -1.110795e-09 1.750285e-08 9.012651e-09 -6.006943e-09
-2.773731e-09 2.680587e-09 -9.174661e-11 -1.756838e-09 -1.591549e-10 -6.681193e-10
-6.146686e-09 4.344817e-09 5.500471e-10 -1.080504e-09 -1.026098e-10 -6.896061e-11
-3.037126e-09 3.128788e-09 1.884279e-10 -6.570512e-10 -7.759729e-11 -5.387690e-12
-3.403141e-09 2.601107e-09 6.282175e-11 -1.355944e-10 -3.633322e-10 -2.851763e-11
8.206566e-09 -2.845047e-09 2.667275e-10 7.446991e-09 -2.630673e-10 -9.185199e-10
6.508075e-09 -1.260341e-09 1.969154e-10 8.655777e-09 3.166199e-10 3.830919e-10
2.785666e-09 2.922556e-09 8.393379e-10 1.049243e-08 6.377184e-10 7.213040e-10
3.863255e-09 -8.476153e-11 2.701839e-10 7.516051e-09 -1.743365e-10 -5.069767e-10
1.372593e-09 1.518320e-09 5.978125e-10 8.155868e-09 3.392295e-10 1.795027e-10
-7.996643e-10 2.746210e-09 6.988898e-10 8.148026e-09 -3.611512e-11 -6.891430e-10
4.298224e-08 -1.223709e-08 3.945289e-09 1.682888e-08 3.249549e-09 9.978716e-09
1.262504e-09 2.839704e-09 3.195826e-10 8.736067e-09 4.358702e-10 1.534988e-10
6.453444e-09 1.671015e-08 -1.145625e-08 1.150737e-08 -2.585327e-10 2.982283e-09
-4.235926e-09 -1.095537e-08 1.370962e-09 -2.674100e-09 -7.285718e-10 -2.349478e-10
-8.038809e-09 -6.128611e-09 -3.961633e-09 -9.327124e-09 -1.570413e-09 -1.109475e-09
-5.502500e-09 -1.024369e-08 -1.672126e-09 -6.715215e-09 -1.055372e-09 -6.717302e-12
1.369440e-10 -1.678841e-08 -6.031885e-09 -1.053171e-08 -3.958072e-09 -1.088314e-09
6.453722e-09 -2.973483e-08 -6.643527e-09 -1.334385e-08 -1.406219e-08 -3.024218e-09
-7.508929e-09 -2.011549e-09 -4.032545e-09 -1.087046e-08 -5.152630e-09 -1.540697e-09
1.589080e-09 -6.548206e-08 1.460556e-07 1.399965e-09 -4.991499e-09 6.303962e-08
6.660106e-10 -9.216039e-09 -1.395709e-08 -1.239751e-08 -3.035747e-09 -1.002076e-09
-1.629599e-08 7.262916e-09 1.176933e-09 -1.613625e-09 -3.645368e-09 -7.480783e-11
1.876436e-08 -4.970953e-08 1.057954e-07 -3.927683e-10 -1.074677e-09 1.194964e-08
-1.252997e-08 -3.815872e-09 4.948117e-10 -9.930759e-09 -5.812450e-09 -1.704040e-09
-4.488355e-09 -8.122199e-09 -1.451999e-09 -5.233266e-09 -1.964034e-09 -7.011132e-10
2.083526e-08 -1.511028e-08 1.433838e-08 1.250508e-09 1.761730e-09 -8.657443e-09
-1.468956e-08 1.350324e-09 -1.238734e-10 -3.648776e-09 -2.551299e-09 -1.116033e-09
1.778143e-08 -1.215670e-08 1.321008e-08 4.739841e-09 2.636485e-10 -4.996026e-09
-1.598379e-08 2.426129e-09 3.191948e-09 -4.692575e-10 -7.074237e-10 -3.630563e-11
1.036584e-08 -4.577635e-09 1.786216e-08 1.633050e-08 -2.137126e-09 -7.127641e-09
1.254903e-08 -8.048528e-09 2.339996e-08 1.514132e-08 -1.894355e-09 -1.054452e-08
-1.547367e-08 7.032668e-09 -3.254561e-09 -3.679942e-09 -3.858154e-09 -6.977496e-10
-1.686090e-08 8.116290e-09 -3.067759e-10 -1.639648e-09 -3.293188e-09 -3.286074e-10
-1.636222e-08 4.881061e-09 1.783558e-09 -1.337634e-09 -3.291986e-09 -3.497466e-10
-1.244274e-08 2.423141e-09 -5.206679e-09 -8.140370e-09 -4.622583e-09 -1.795568e-09
-1.438904e-08 3.750875e-09 1.874222e-09 -4.687513e-09 -2.764644e-09 1.012104e-10
-1.177960e-08 6.551761e-09 -6.369570e-09 -1.061995e-08 -5.083434e-10 -2.421045e-09
-1.597223e-08 1.143969e-08 -5.410279e-09 -7.950838e-10 -1.710268e-09 -6.234473e-10
-1.496673e-08 5.045722e-09 -3.628592e-09 -5.941169e-09 -1.858989e-09 -6.684582e-10
8.274351e-09 -2.969473e-08 5.511371e-09 -5.245750e-09 9.657780e-10 -1.193221e-09
-1.260311e-08 -5.084111e-11 -2.031006e-09 -5.603125e-09 -1.573696e-09 -6.441151e-10
-1.170821e-08 -1.736655e-10 -5.871298e-09 -9.761711e-09 -2.843446e-09 -2.023499e-09
-8.821482e-09 -1.056065e-08 5.971671e-09 6.202653e-09 5.494030e-10 5.961590e-10
2.918531e-09 -1.993586e-08 5.016559e-09 -2.292791e-09 1.097763e-10 -1.184669e-09
-1.452375e-08 5.037322e-10 2.145404e-09 8.926983e-09 1.865804e-09 -2.017202e-10
-1.700172e-08 6.241414e-09 -9.250626e-10 9.119676e-09 7.788026e-09 -2.298013e-09
-1.543694e-08 4.097489e-09 -1.416109e-09 1.743753e-08 7.304617e-09 -4.443396e-09
4.756592e-09 -2.128111e-08 5.341247e-09 7.772849e-11 7.179923e-11 -5.798392e-10
-1.394478e-08 -3.696516e-09 3.001260e-09 6.328735e-09 2.028132e-09 5.298948e-10
-6.437776e-09 3.290622e-09 1.031970e-09 7.100045e-10 1.343262e-10 -1.594874e-10
-1.437547e-08 -5.654059e-09 2.411271e-09 9.266470e-09 2.565638e-09 -4.804738e-10
-5.896182e-09 -1.340609e-08 4.902498e-09 8.146964e-09 1.079043e-09 -3.985694e-10
-7.111407e-09 1.456574e-09 1.686729e-09 -3.229507e-11 2.179634e-11 -2.360145e-10
-7.154907e-09 -1.147290e-09 2.451982e-09 -1.190547e-09 -2.034211e-10 2.103207e-12
-1.467924e-08 -3.949336e-09 3.908391e-09 7.121884e-09 2.457152e-09 -1.064020e-09
-9.489596e-09 2.550967e-09 3.675313e-10 -9.501479e-10 -2.264962e-10 -3.908682e-10
-1.260132e-08 -7.919422e-09 4.967562e-09 3.025884e-09 1.339368e-09 -1.671903e-10
-7.151977e-09 -3.506900e-09 1.047269e-10 1.777970e-09 4.853473e-10 -2.914466e-10
-1.176962e-08 -7.655080e-09 9.079513e-10 1.583387e-08 5.260317e-09 -2.127464e-09
-8.602583e-09 -2.326186e-09 1.151814e-09 1.786025e-09 -2.155670e-09 7.002836e-12
-8.858069e-09 -5.108509e-10 -9.807470e-10 2.903245e-09 -5.807459e-10 -3.704791e-11
8.065360e-09 -4.994377e-09 -1.141144e-09 4.692796e-10 1.963956e-10 7.669754e-11
-1.012052e-08 -6.028183e-09 1.124347e-09 1.168619e-08 8.014911e-12 -3.678631e-10
9.761331e-09 -5.667458e-09 -1.246558e-09 3.006929e-12 -5.614002e-11 3.101808e-11
9.717355e-09 -5.753347e-09 -1.259448e-09 -6.895490e-11 -1.440331e-11 6.478307e-11
-7.531007e-09 -1.345092e-08 3.121558e-09 1.173635e-08 4.276438e-10 -3.718669e-10
-9.976728e-09 -1.271500e-08 5.724694e-09 6.361493e-09 -1.491798e-10 -6.960350e-10
-7.276899e-09 1.356925e-09 1.889691e-09 -4.115459e-10 4.945344e-11 -5.476757e-10
-7.376448e-09 4.111911e-09 1.056404e-09 7.422707e-11 6.329581e-11 -7.165713e-12
-7.440644e-09 4.111911e-09 9.685355e-10 9.311041e-11 5.880563e-11 -6.065137e-11
-7.129501e-09 3.901739e-09 1.050439e-09 6.162004e-11 1.039435e-11 -3.244738e-11
-7.212597e-09 4.034996e-09 9.442531e-10 -1.434408e-12 2.722178e-11 -1.956435e-11
-6.188522e-09 3.421855e-09 8.947216e-10 5.807479e-10 -3.711342e-11 -1.192633e-10
-7.251609e-09 2.460685e-09 1.610203e-09 -1.257630e-10 1.582492e-10 -3.641605e-10
3.450422e-09 -1.734881e-09 -6.234060e-10 4.205535e-10 5.270651e-11 -2.300814e-10
-7.444707e-09 1.330138e-09 1.666426e-09 -3.281265e-10 -2.792450e-11 -3.018456e-10
-2.368584e-09 1.309116e-09 1.441696e-10 -6.609646e-11 2.294187e-11 -3.436140e-11
2.341786e-09 1.442881e-10 -4.755076e-10 -2.873638e-09 -2.512816e-10 2.643153e-10
4.609416e-09 -2.269688e-09 -7.919025e-10 -4.950791e-10 -2.242142e-10 3.219344e-10
2.417083e-09 -4.354189e-10 -4.162100e-10 -1.135228e-09 -4.707067e-10 1.409599e-10
1.620521e-09 -2.109664e-10 -5.021121e-10 -1.187919e-09 2.054610e-10 -1.120475e-10
3.641958e-10 5.346825e-10 -3.009193e-10 -2.413745e-10 1.612785e-10 -4.441671e-16
-7.741649e-09 2.453608e-09 1.618556e-09 7.534414e-12 1.775762e-10 -1.359044e-10
-6.449341e-09 2.815135e-09 1.180581e-09 8.941567e-10 7.826129e-11 -1.838203e-10
-7.443932e-09 1.520736e-09 1.892325e-09 2.388720e-10 4.493472e-11 -3.020226e-10
-7.783345e-09 5.110260e-09 9.070358e-10 -3.158456e-10 -6.982714e-11 -2.982758e-10
-7.267990e-09 6.866276e-10 2.274364e-09 3.638381e-10 1.616727e-10 -1.400924e-10
-7.377393e-09 2.501038e-09 1.600255e-09 1.503162e-10 -8.456102e-11 -1.370045e-10
-7.460557e-09 5.168842e-09 7.458889e-10 -1.750386e-10 -4.511702e-11 -1.858556e-10
-1.777121e-08 1.227412e-08 -6.032292e-09 1.080785e-08 5.632540e-09 -4.003140e-09
-7.636238e-09 5.096110e-09 8.189236e-10 -2.848664e-10 -1.843048e-11 -2.652409e-10
-7.964564e-09 4.914678e-09 9.717289e-10 -3.230314e-10 -8.032497e-11 -4.585143e-10
-7.018871e-09 4.302183e-09 6.725152e-10 -1.685532e-09 -2.350891e-10 -4.680650e-10
-7.794173e-09 4.786472e-09 6.316077e-10 -1.192239e-09 -2.455548e-10 -7.899152e-10
7.562112e-09 -3.098812e-08 4.589778e-09 6.582869e-10 -1.583900e-09 -5.729990e-10
-7.611629e-09 2.396672e-09 1.682886e-09 1.717710e-10 2.827338e-11 1.963185e-11
-7.400401e-09 2.515725e-09 1.734815e-09 7.515082e-10 5.823719e-11 9.917489e-11
2.029451e-08 -4.292370e-08 -1.152516e-08 5.850231e-09 3.286137e-09 -6.136713e-10
1.570985e-08 -3.932707e-08 -2.516784e-09 9.284955e-09 3.312486e-09 -4.391987e-10
1.494989e-08 -3.359172e-08 -5.181847e-09 1.458765e-08 1.841418e-09 -1.116675e-10
9.598569e-09 -2.727681e-08 -5.117824e-09 2.025356e-08 2.230257e-09 -9.826792e-10
1.051199e-08 -3.472343e-08 -3.749197e-09 1.621011e-08 6.088480e-09 -1.124295e-09
1.035454e-08 -3.016341e-08 -2.876155e-09 1.680979e-08 -7.178458e-10 -9.892397e-11
1.656958e-08 -4.309299e-08 2.223209e-09 9.097944e-10 -1.448046e-09 3.867883e-10
1.091946e-08 -3.253692e-08 -5.181846e-09 1.471043e-08 2.230750e-09 6.960402e-10
1.205770e-08 -3.668204e-08 -4.482690e-09 1.471801e-08 4.395868e-09 -1.015134e-09
-2.158984e-11 2.832734e-11 -1.485190e-10 3.661036e-11 1.758057e-10 -4.031664e-12
-8.990942e-09 3.642571e-09 1.554359e-09 -4.867863e-10 -6.997514e-11 -5.704204e-10
1.624489e-09 -7.890670e-10 -2.860645e-10 1.624940e-10 7.365220e-11 5.091261e-12
-9.084449e-09 2.545697e-09 1.430459e-09 -3.024394e-10 -2.019642e-10 -3.543876e-10
-7.792085e-09 4.313789e-09 1.131387e-09 -2.111731e-09 -1.858332e-10 -4.716445e-10
-9.531277e-09 1.713679e-09 1.857543e-09 8.227510e-11 -5.232483e-10 1.702611e-10
-8.772452e-09 -1.572282e-09 1.931612e-09 1.157496e-09 -3.319447e-10 -2.754792e-10
-9.024363e-09 3.209475e-09 1.567765e-09 -6.090985e-10 -2.742886e-10 1.467813e-10
3.873913e-09 -2.121966e-08 -2.446019e-09 -1.184490e-09 -4.427219e-16 -5.771590e-10
1.329873e-08 -3.200304e-08 -5.365189e-09 -3.893628e-09 -1.078459e-09 -6.704939e-11
-2.227919e-09 1.186430e-09 3.009415e-10 1.703878e-09 3.611960e-10 -1.078984e-10
1.552465e-10 6.473910e-11 -2.005923e-10 1.066104e-09 2.438425e-10 -4.828624e-12
7.067104e-09 -3.938313e-09 -9.412009e-10 4.633211e-10 1.807684e-10 1.638593e-10
-1.489828e-09 1.117943e-09 1.479390e-10 4.627740e-10 9.791035e-11 9.988077e-11
1.665750e-09 -7.603644e-10 -4.252324e-10 2.328988e-09 2.715828e-12 4.344380e-11
-7.011351e-09 -5.170797e-11 2.417888e-09 -1.038811e-09 3.068175e-10 -5.141860e-10
-6.692701e-09 -3.338556e-10 2.269259e-09 -2.220313e-10 2.980933e-10 -8.657879e-10
-7.241970e-09 -1.595938e-09 2.768187e-09 -1.904678e-09 -1.400817e-10 1.244138e-10
6.020855e-09 -3.066644e-09 -9.690306e-10 -4.526675e-09 -9.728819e-11 1.491184e-10
1.125452e-08 -5.998938e-09 -1.394275e-09 -4.638637e-10 2.158607e-12 1.075513e-10
1.115064e-08 -5.767736e-09 -1.153820e-09 -5.065991e-09 -7.450219e-11 2.289884e-10
1.024206e-09 -2.092744e-10 -2.296554e-10 4.847482e-10 2.932483e-10 2.715713e-10
1.296429e-08 -6.038876e-09 -1.165049e-09 -3.148662e-09 -4.072363e-11 -4.161027e-11
1.744217e-09 1.119830e-08 -3.442546e-08 -1.470400e-08 -6.634302e-09 -3.550278e-09
9.324963e-09 -2.690216e-08 9.838330e-08 -3.870207e-08 -5.634753e-09 1.163952e-08
1.986875e-09 -7.520349e-10 -5.429603e-10 3.332292e-09 4.685041e-10 8.971426e-10
-1.709953e-09 -1.340997e-09 -2.258514e-08 -1.550475e-08 -4.203797e-09 -1.382471e-09
-4.609865e-09 3.107428e-08 -4.017315e-08 -1.037629e-08 -8.363152e-09 -9.074920e-09
1.192103e-08 -3.387500e-08 -1.397128e-09 -1.691133e-09 -1.420694e-09 3.231764e-10
2.065697e-09 -1.192917e-09 -3.318301e-10 2.098481e-09 4.209803e-10 -1.097704e-10
1.459349e-09 -7.451454e-09 -1.545943e-08 -1.118839e-08 -4.684371e-09 -2.458901e-09
-3.516625e-09 1.367038e-09 -2.230917e-08 -1.486074e-08 -9.071123e-09 -3.199582e-09
5.708678e-08 -2.363332e-08 2.619529e-09 3.066787e-09 1.867497e-09 1.238430e-08
6.443346e-09 -1.371867e-08 -1.973456e-08 -1.470270e-08 -6.748748e-09 -6.145353e-10
1.231074e-08 -3.365975e-08 -3.922249e-09 -4.198164e-09 -3.520264e-09 -6.166689e-10
-5.523476e-09 -3.152246e-09 -7.065783e-09 -9.080644e-09 -1.703715e-09 -6.092966e-10
3.302137e-08 3.978617e-09 6.360565e-09 -2.859338e-08 -6.705789e-09 7.834532e-09
-6.549315e-09 -1.105080e-08 -6.550776e-09 -1.482071e-08 -9.870213e-09 -4.010297e-09
2.125307e-09 5.136942e-09 -2.541498e-08 -1.937753e-08 -1.039806e-08 -6.760096e-09
1.585500e-08 -2.289236e-08 -2.541218e-08 -1.301163e-08 -7.303903e-09 -1.088942e-09
1.477685e-08 -2.163076e-08 -3.148135e-08 -1.791601e-08 -2.063005e-08 -4.309037e-09
4.331628e-08 -1.069924e-08 -4.375353e-09 -4.572290e-09 1.806590e-11 -1.209194e-09
4.301160e-09 -1.690078e-08 -4.083894e-09 -6.698872e-09 -1.859276e-09 -3.667240e-10
6.802881e-09 -3.064054e-09 -1.071111e-09 -4.689896e-09 -2.465441e-10 4.602441e-10
7.911236e-09 -3.827761e-09 -1.213614e-09 -3.369312e-09 -1.503988e-10 -4.616585e-12
1.267501e-08 -6.237965e-09 -1.231445e-09 -2.377533e-09 -3.973266e-11 1.407783e-10
5.020811e-08 -2.020518e-08 -3.244204e-09 3.275641e-10 -2.937023e-10 1.293777e-09
3.589563e-08 -1.073501e-08 -5.494618e-09 -5.404976e-09 3.082766e-09 -3.932477e-10
9.581948e-09 -5.498887e-09 -1.240889e-09 -1.231387e-09 -2.742689e-10 2.308325e-10
8.960514e-09 -5.330668e-09 -1.311934e-09 -5.135326e-10 -1.106915e-10 1.522267e-10
4.825268e-08 -1.574807e-08 -7.063729e-09 2.789953e-10 8.506558e-10 2.772915e-09
5.091018e-09 -3.100091e-09 -8.187874e-10 -1.777639e-09 -1.179556e-10 2.660732e-10
1.077209e-08 -5.963126e-09 -1.270343e-09 -3.911181e-09 -7.688086e-11 -2.762590e-11
8.919050e-09 -4.595121e-09 -1.015310e-09 -2.877596e-09 -1.321093e-10 9.491916e-10
4.840425e-08 -2.862369e-08 1.136897e-08 -4.151291e-09 8.839165e-10 1.151224e-08
4.781786e-08 -2.024092e-08 7.757051e-09 -1.185877e-08 -1.474385e-09 2.579488e-09
-1.000230e-08 3.298579e-09 -1.699644e-09 2.272036e-10 -4.056455e-10 1.081996e-10
2.956359e-08 -9.928852e-09 -4.536560e-09 1.366481e-09 6.827180e-10 5.626695e-10
-7.200758e-09 2.582389e-09 -9.070608e-09 4.921517e-09 -1.298579e-09 5.083878e-10
-8.066375e-09 4.155786e-09 -9.919489e-09 4.577098e-09 -1.698193e-09 1.378561e-09
-3.713239e-09 -2.375208e-09 -8.579753e-09 5.823664e-09 -2.397018e-09 1.455218e-09
-1.796966e-09 -1.475410e-10 -1.520524e-08 1.043530e-08 -5.503844e-09 4.710928e-09
1.256900e-08 -2.833724e-08 -1.639754e-08 1.080097e-08 -4.627077e-09 1.736250e-09
-8.230913e-08 5.315137e-09 1.487977e-07 -3.328973e-08 5.786573e-10 -1.007402e-08
-1.176722e-09 -9.692398e-09 -7.505243e-09 9.886642e-09 -6.088819e-09 3.814232e-09
-9.559390e-08 -5.626449e-08 3.208264e-07 -4.589107e-09 6.423553e-09 -1.557224e-08
-7.152214e-09 -1.228667e-09 -6.289895e-09 5.956691e-09 -7.668841e-10 1.334183e-09
-1.271630e-09 -9.416571e-09 -1.538245e-08 9.785233e-09 -4.677972e-09 1.883008e-09
7.715570e-09 -1.048531e-09 1.453686e-09 1.077578e-08 3.016011e-10 1.295675e-10
1.038444e-09 4.982488e-09 7.672289e-10 1.073818e-08 3.105032e-10 -2.275439e-10
-1.435861e-07 -2.045422e-08 2.825492e-07 -2.168719e-08 4.306772e-08 -2.369293e-08
-4.339525e-08 7.346575e-08 3.884014e-08 1.230400e-08 -1.079042e-07 -2.168863e-09
-1.356919e-07 -6.339016e-08 3.378067e-07 4.582134e-09 -2.766035e-08 -1.629011e-08
-5.708248e-08 2.792907e-08 1.292881e-07 -4.697496e-08 6.792077e-08 -4.691873e-08
-1.292763e-07 -2.865971e-08 2.035817e-07 -3.594292e-08 -1.002392e-07 -1.933472e-08
-7.852510e-09 -6.854504e-08 1.576913e-07 1.635626e-08 3.339195e-08 7.843181e-08
3.496720e-08 -4.487464e-08 4.996491e-08 2.300559e-08 1.255059e-08 1.392460e-08
3.344073e-08 -6.587060e-09 -5.227912e-09 -4.534845e-10 1.123338e-10 1.438868e-09
-1.446067e-07 -6.156214e-08 3.483998e-07 -1.244104e-08 -7.264717e-09 -7.005739e-08
-5.078329e-09 2.799634e-09 7.371166e-10 5.431560e-10 2.120909e-10 -1.918863e-10
1.456581e-08 3.701944e-09 7.089400e-08 5.010338e-08 1.395079e-08 1.877540e-08
1.714211e-08 2.097357e-08 -1.458391e-08 2.312412e-08 -3.877615e-09 -6.866429e-09
4.290130e-08 -3.782141e-08 6.802999e-08 1.421372e-08 -6.438172e-10 2.589731e-08
-3.085806e-08 9.887804e-08 -4.135406e-08 4.155614e-09 -1.768021e-08 -4.854188e-08
-1.945574e-09 1.611580e-09 2.435574e-10 4.448792e-10 2.029683e-10 -1.885603e-11
-1.001262e-08 1.367715e-07 -5.686046e-08 1.846831e-08 -4.823606e-08 1.710407e-09
-2.534377e-08 1.179417e-07 -1.073406e-07 2.342852e-08 -1.507739e-08 1.779926e-08
2.083735e-08 9.436683e-08 -1.148375e-07 4.256465e-09 6.771379e-09 -1.032677e-08
-9.819228e-09 8.185175e-08 -8.226915e-08 4.454683e-09 1.392395e-08 -8.639327e-09
-3.849274e-10 -2.457412e-11 -1.591098e-10 5.168989e-10 2.972294e-10 -2.216648e-11
-5.811724e-10 9.154952e-10 3.288658e-11 1.670760e-09 9.356649e-11 2.035865e-10
8.207834e-11 4.198486e-10 -1.502940e-10 2.499805e-09 1.037862e-10 2.331122e-10
2.084771e-08 -3.788618e-08 -6.395541e-09 8.756973e-09 1.974980e-09 -2.849319e-11
-3.282818e-09 1.940490e-09 3.820113e-10 1.520461e-09 2.299383e-11 -1.857490e-10
5.957883e-10 -9.707546e-11 -1.654095e-10 1.306116e-09 5.536848e-11 7.408518e-12
1.875913e-08 -4.274515e-08 -6.036892e-09 3.672661e-09 5.030740e-10 4.986046e-10
2.246197e-08 -3.951610e-08 -6.036892e-09 -3.277885e-10 7.368181e-10 3.546430e-10
-1.139656e-08 3.276582e-09 -1.064843e-08 1.927649e-08 8.190746e-10 -1.171119e-09
6.714744e-10 -7.279066e-11 -2.360661e-10 3.437937e-10 2.161084e-10 -3.104321e-10
-1.695454e-09 8.218373e-10 -1.865965e-10 1.763350e-09 -9.261796e-11 -1.061620e-10
1.683929e-08 4.543620e-08 -8.912662e-08 -5.437891e-09 -1.464770e-08 1.016764e-08
-6.053260e-09 1.425473e-08 -3.037825e-08 5.812573e-09 -7.553686e-09 7.350645e-09
-2.435932e-09 1.075271e-09 1.789087e-10 9.560132e-10 3.230295e-10 -8.007411e-11
1.745343e-08 7.150735e-08 -1.199309e-07 -1.041033e-10 1.957629e-08 9.269587e-09
-2.368584e-09 1.721578e-09 1.832219e-10 6.243244e-11 2.217217e-10 -2.009148e-11
8.792220e-10 1.339794e-07 -1.005289e-07 1.204509e-08 -1.697964e-09 -1.658553e-08
2.873319e-08 9.270641e-08 -1.386260e-07 -4.230551e-09 4.086195e-08 5.751436e-09
-2.890821e-08 3.802185e-08 -3.169795e-08 -2.410009e-08 1.206908e-08 2.497725e-08
-5.844969e-10 9.203900e-10 8.916112e-11 1.237102e-09 7.743950e-11 -1.078788e-09
-1.668294e-09 1.513718e-09 2.211200e-10 1.765829e-09 2.439432e-10 -3.170926e-10
-2.007894e-09 1.350363e-09 1.229052e-10 1.617821e-09 -4.435195e-11 2.764544e-11
1.523271e-08 1.808209e-09 -5.941064e-08 -2.709749e-08 2.459079e-08 1.263851e-08
1.389700e-09 6.347387e-09 1.594499e-08 -2.764317e-08 5.385910e-09 8.816398e-10
-1.200897e-08 6.444950e-08 -2.782649e-08 -2.999841e-08 1.010009e-08 -1.818192e-11
2.322402e-08 -3.331706e-09 1.400458e-08 -2.180815e-08 5.508588e-09 -7.224180e-09
2.448684e-09 5.684248e-08 -2.857905e-08 -2.332422e-08 1.258965e-08 8.805170e-09
1.331636e-09 3.494689e-08 -2.580802e-09 -3.470774e-08 1.013362e-08 -5.800457e-10
7.655870e-10 -1.755348e-08 4.978691e-09 -6.210502e-09 -6.508681e-10 -1.400613e-09
4.401521e-09 -2.274048e-08 5.294024e-09 -5.589873e-09 7.664440e-10 -1.331076e-09
-6.416479e-10 4.618575e-08 -3.003238e-08 -2.809789e-08 5.539726e-09 9.555534e-10
1.197464e-09 -2.030521e-08 4.628200e-09 -6.575248e-09 9.340729e-11 -1.799917e-10
6.588183e-09 1.669749e-08 2.813576e-08 -3.701801e-08 4.807206e-09 3.786604e-09
5.960549e-10 4.835599e-08 -7.075796e-09 -3.800700e-08 1.171102e-08 -8.912460e-10
-6.733374e-09 3.701044e-08 -3.403445e-08 -1.928321e-08 -9.868196e-09 2.016069e-08
9.536310e-09 -3.505562e-08 3.349218e-09 -3.361356e-09 -3.438668e-09 -8.034882e-10
1.869385e-09 -1.961882e-08 4.508758e-09 -7.921401e-09 5.873313e-10 -1.203582e-09
-1.423623e-08 1.834695e-08 -1.635510e-08 1.515108e-08 1.055672e-09 -1.588557e-09
4.801129e-09 -1.041667e-08 -1.593545e-08 -1.628433e-08 -3.148000e-09 -1.786304e-09
2.140724e-08 -3.689065e-08 -1.172877e-08 -8.081139e-09 -1.538506e-08 1.330076e-09
-2.119468e-08 3.370472e-08 -5.734184e-09 -1.522177e-08 1.751536e-09 -6.166204e-09
-1.905791e-10 -1.599485e-08 4.534003e-09 -1.719686e-10 -1.482370e-11 -1.321908e-09
-1.465603e-08 3.288994e-08 -1.907923e-08 3.790132e-09 1.408589e-09 -2.368185e-09
-1.123142e-08 2.117829e-08 -8.794299e-09 -1.259790e-08 2.583704e-09 -3.447802e-09
5.721988e-09 -2.722382e-09 -9.358039e-10 3.367239e-09 1.493078e-10 -3.797407e-12
-1.158135e-08 4.106714e-08 -1.683018e-08 -1.288318e-08 7.017747e-10 -6.947422e-09
6.263068e-09 -3.526338e-09 -9.048651e-10 2.251053e-10 3.226585e-10 -2.682432e-11
-1.283407e-08 4.542155e-08 -1.198361e-08 -2.512985e-08 7.895688e-10 -5.183471e-09
-1.474217e-08 4.588419e-08 -2.268992e-08 -5.284840e-09 3.123941e-09 -5.554152e-09
-2.281658e-08 3.391281e-08 -2.186773e-08 4.583030e-09 4.247995e-09 -1.001362e-08
8.431934e-09 -4.654516e-09 -1.277555e-09 -8.334917e-10 1.397582e-10 -7.702750e-11
8.398043e-09 -4.641675e-09 -1.176110e-09 -5.057671e-11 -1.409694e-11 1.554223e-11
-1.876040e-08 2.546770e-08 -1.313485e-08 -2.014157e-09 -2.649845e-09 1.825946e-09
-1.889153e-08 3.419002e-08 -2.026690e-08 8.617031e-09 5.233710e-09 -5.882551e-09
8.398043e-09 -5.070264e-09 -1.160312e-09 -2.638934e-11 -1.306234e-10 1.406830e-11
9.473275e-09 -5.454199e-09 -1.278991e-09 -9.277864e-12 8.352933e-11 2.381473e-11
-1.157154e-08 2.316244e-08 -2.478594e-08 -4.133830e-09 -1.330671e-09 -9.840528e-10
-9.096539e-09 -1.192157e-09 1.737650e-09 1.283234e-09 5.060932e-10 6.351053e-11
-1.091024e-08 2.315584e-08 -2.221186e-08 -4.727577e-09 -2.574510e-09 3.229692e-10
-1.105737e-08 3.107134e-08 -2.592631e-08 2.387723e-09 -6.818418e-09 -7.679934e-09
-5.218533e-10 -2.154710e-08 2.807972e-10 9.744456e-09 -7.913353e-09 1.321129e-09
-6.051982e-09 -6.148714e-09 1.515671e-09 1.502737e-09 9.395240e-11 -1.603411e-10
-8.330247e-09 2.649256e-08 -2.223348e-08 6.976856e-09 -3.363630e-10 -1.529947e-10
8.795033e-09 -4.654516e-09 -1.277554e-09 -1.081423e-09 9.572942e-11 -4.478640e-11
7.405280e-09 -4.107127e-09 -1.155406e-09 -1.116944e-09 -1.516258e-10 9.892998e-11
-6.960741e-09 3.504582e-08 -2.482740e-08 2.223922e-09 -9.951007e-09 -9.887047e-09
6.630952e-09 -3.309300e-09 -9.995427e-10 -1.441135e-10 -3.260699e-12 1.559330e-11
6.996450e-09 -3.662561e-09 -1.051678e-09 -3.701452e-09 -7.978733e-12 5.824175e-10
-1.045175e-08 3.503762e-08 -2.655423e-08 7.402953e-10 -8.511839e-09 -7.302511e-09
-1.089956e-08 2.282256e-08 -1.941261e-08 -2.286918e-10 -3.368029e-09 -3.927025e-09
-6.101222e-09 3.259985e-08 -3.427886e-08 -2.751398e-09 -5.489706e-09 -2.888557e-10
1.709998e-08 -3.922944e-08 -3.382586e-09 6.037771e-10 -8.645327e-10 3.237447e-10
1.709998e-08 -4.009296e-08 -9.470154e-10 8.144566e-10 -1.212413e-09 6.562687e-10
-8.056034e-09 3.307785e-08 -3.797084e-08 -1.054364e-09 -3.986172e-09 -3.148446e-09
-1.253001e-08 7.554144e-09 -5.289370e-09 -9.225517e-09 -6.532523e-09 -3.233372e-09
-1.407833e-08 1.320088e-08 -9.458087e-10 -5.091400e-09 -4.781179e-09 -3.039805e-09
-1.492464e-08 1.506437e-08 -8.243386e-09 -4.484436e-09 -2.581312e-09 -1.152645e-09
-1.603462e-08 1.221189e-08 -3.928545e-09 1.598713e-09 1.958447e-09 -6.288982e-10
-1.343696e-08 1.399183e-08 -6.991519e-09 -3.616971e-09 -5.438346e-09 -2.740067e-09
-1.610774e-08 8.499025e-09 -2.503820e-09 -4.139670e-09 -6.814676e-09 -1.643556e-09
-1.367220e-08 1.422346e-08 -4.773805e-09 1.370519e-09 1.524137e-09 2.479246e-10
-1.536015e-08 1.912887e-08 -1.406685e-08 4.800498e-09 3.481587e-09 -3.576248e-09
2.186879e-08 3.610612e-09 -3.672743e-09 -1.026201e-08 3.515428e-10 4.927867e-10
-1.627994e-08 8.889096e-09 -9.117084e-10 -3.301029e-09 -4.365775e-09 -1.404253e-09
-1.405006e-08 1.585721e-08 -6.060630e-09 3.246854e-09 -1.456213e-10 -4.800729e-10
-1.556731e-08 1.415968e-08 -5.692902e-09 -2.073760e-09 -1.950716e-09 -5.178351e-10
-1.036420e-08 1.608511e-08 -8.191441e-09 -2.058163e-09 -2.073696e-09 -5.957112e-10
-9.962845e-09 1.608511e-08 -8.486851e-09 -2.360564e-09 -3.328325e-09 2.012739e-10
-1.077421e-08 1.462378e-08 -5.080318e-09 8.095752e-10 -5.043087e-09 -1.586740e-09
6.822146e-09 -3.254598e-08 6.742908e-09 4.180891e-09 1.520974e-10 6.892798e-11
7.351942e-09 -3.183919e-08 4.961130e-09 9.452753e-09 9.724998e-11 7.462164e-11
1.090643e-08 -5.709045e-09 -1.385615e-09 7.341103e-10 6.937923e-12 3.659473e-11
1.124923e-08 -6.057741e-09 -1.355829e-09 9.586864e-10 1.852913e-11 -1.167491e-10
3.143594e-09 -9.815935e-10 -8.355077e-10 -2.493378e-09 -1.853326e-10 6.512071e-10
1.206135e-08 -3.630879e-08 6.548290e-09 6.556555e-11 1.783560e-10 -2.435548e-10
1.188468e-08 -6.109520e-09 -1.353420e-09 1.157111e-09 -9.309015e-12 1.456604e-10
1.123307e-08 -5.827946e-09 -1.400795e-09 4.471195e-10 -1.653100e-11 1.017559e-10
8.352944e-09 -3.011043e-08 6.212104e-09 -3.363301e-10 -8.883651e-16 2.775544e-10
1.465883e-08 -4.047566e-08 4.918118e-09 1.358185e-09 1.798073e-09 -5.275771e-10
6.024393e-09 -2.453983e-08 1.927162e-09 -9.917108e-09 -1.527178e-10 -8.328451e-10
6.402293e-09 -2.603098e-08 4.949704e-09 -6.000530e-09 3.588538e-10 -6.466673e-10
9.910415e-09 -5.757613e-09 -1.341513e-09 -1.162442e-11 2.276596e-12 4.439182e-11
1.042096e-08 -3.291491e-08 1.301413e-09 -8.126990e-09 1.665660e-09 -4.215106e-10
1.053933e-08 -6.107403e-09 -1.299209e-09 3.626941e-10 -1.088689e-10 -1.889281e-10
1.042096e-08 -3.181868e-08 2.904960e-09 -7.887135e-09 -1.836599e-10 -5.440570e-10
1.412602e-08 -7.443673e-09 -7.260595e-10 4.627471e-10 1.973126e-11 -1.419145e-10
8.596827e-09 -4.906040e-09 -1.227284e-09 -3.652905e-09 -1.906750e-11 7.196710e-11
1.015598e-08 -5.377128e-09 -1.350238e-09 -1.405425e-09 -1.519305e-10 1.530451e-10
1.372296e-08 -6.455299e-09 -1.057668e-09 1.088703e-09 -5.762045e-11 1.297882e-10
-3.323460e-08 5.438856e-08 9.309708e-09 -3.487215e-08 -1.979790e-08 -1.650477e-09
-1.581600e-08 2.856994e-09 3.090207e-09 2.504334e-09 3.125132e-09 1.541805e-11
-1.560267e-08 1.698657e-09 2.788045e-09 2.118284e-09 2.339535e-09 -1.587668e-10
-6.628576e-08 4.317518e-08 9.510960e-08 -6.347284e-08 -6.304899e-08 1.128262e-08
-1.367435e-08 -3.382508e-09 4.414582e-09 2.955671e-09 2.421901e-09 3.080541e-10
-6.001354e-09 3.190959e-09 1.021518e-09 6.299547e-10 6.526613e-11 -1.306711e-10
-7.183848e-09 3.047566e-09 1.398174e-09 8.035124e-10 5.130030e-11 2.597433e-11
-1.053960e-08 2.480468e-08 -1.908451e-08 -1.100698e-08 -4.202637e-09 9.229455e-09
-6.356223e-09 2.365123e-08 -1.134488e-08 -2.146256e-08 3.903812e-10 7.939540e-09
-7.211073e-09 3.415263e-09 1.187647e-09 5.714681e-10 5.728129e-11 -2.531952e-11
-1.629672e-08 3.895034e-08 -3.482010e-08 -8.895934e-09 -5.677647e-09 1.211704e-08
-9.957356e-09 1.950438e-08 -1.156236e-08 -1.545840e-08 -3.454030e-09 8.416060e-09
-1.251437e-08 1.503706e-08 6.756441e-09 1.493174e-08 -1.809794e-09 1.151744e-09
-7.987966e-09 8.761440e-09 2.035781e-09 7.728414e-09 -1.154213e-09 -2.168220e-09
-1.190535e-08 1.088939e-08 -6.409104e-10 -1.535399e-09 7.799083e-10 -6.957670e-10
-1.239068e-08 4.655958e-09 -6.154908e-09 -1.745245e-08 4.690044e-09 3.088710e-09
-6.903242e-09 3.492071e-09 1.100177e-09 4.110939e-10 -8.923085e-12 -1.422218e-10
-6.624652e-09 2.901819e-09 9.921153e-10 1.276030e-09 -4.950018e-11 4.799483e-11
3.255275e-09 1.148231e-09 3.899268e-09 1.173099e-08 -2.564905e-11 -1.878238e-09
-1.037345e-08 1.007030e-08 1.116307e-10 3.302623e-09 1.587216e-09 1.320289e-09
-1.369580e-08 1.741285e-08 1.268981e-09 6.172767e-09 -1.019625e-09 -1.339587e-10
-7.286426e-09 2.577941e-09 1.493769e-09 6.617693e-10 8.636492e-11 -4.028335e-12
-1.789903e-08 1.426970e-08 -3.366550e-09 -6.548713e-09 1.060884e-09 8.558088e-10
-6.376395e-09 3.422314e-09 8.775607e-10 5.752219e-10 -7.107537e-12 -5.328937e-11
-8.075406e-09 -1.519878e-10 -7.417096e-09 -9.396965e-09 -2.718298e-09 -1.268538e-09
3.311749e-09 4.668521e-09 9.408432e-09 1.724315e-08 1.036955e-09 -1.368718e-09
-1.579918e-08 1.669773e-08 1.388060e-09 4.945761e-09 -8.506030e-10 1.735494e-10
-1.716406e-08 1.842145e-08 -5.576846e-10 6.326153e-09 -1.109197e-09 -2.218806e-10
-1.530279e-08 4.013241e-09 -8.563443e-10 -7.769859e-09 -9.021517e-09 -1.830935e-09
-1.042867e-08 9.064093e-09 3.992138e-09 9.006780e-09 1.228557e-09 4.957476e-10
-1.445387e-08 6.422581e-09 -1.063745e-09 -5.896594e-09 -3.869739e-09 -1.265311e-09
-4.361034e-09 7.122295e-09 1.001047e-08 1.951520e-08 -3.396407e-10 -2.266837e-09
-1.579834e-08 1.869044e-09 1.179792e-09 -3.417759e-09 -2.899866e-09 -5.271146e-10
9.863673e-09 -1.268598e-08 4.191455e-08 1.187848e-08 -6.029539e-10 -1.473973e-08
-2.356127e-09 5.452548e-09 1.617489e-08 2.403406e-08 3.268949e-09 -1.123668e-08
-1.134102e-08 -9.077762e-09 5.652133e-09 1.300068e-09 1.201934e-09 -2.110170e-10
1.763672e-08 -5.122036e-09 1.180628e-08 1.413181e-08 -1.108278e-09 -5.570299e-09
1.636188e-09 6.846102e-09 1.001047e-08 1.834520e-08 -2.167074e-10 -2.520247e-09
-1.455561e-08 1.184503e-08 -1.050954e-09 1.935494e-09 4.815285e-09 -8.452945e-10
-1.328168e-08 1.195987e-08 -1.171343e-08 -7.347368e-09 -5.473868e-10 -4.728280e-10
-4.759275e-09 1.064280e-08 -3.614362e-09 -2.411691e-09 5.060222e-09 -1.161169e-09
-1.549588e-08 5.866700e-09 4.501208e-10 -7.822727e-09 -7.388976e-09 -1.601532e-09
-1.473144e-08 -2.277227e-10 1.251664e-09 -6.354188e-09 -5.429138e-09 -8.084044e-10
-1.903721e-08 3.844203e-09 6.288483e-10 1.885538e-08 7.340912e-09 -4.258688e-09
-1.775093e-08 6.650360e-09 6.669039e-10 5.712190e-09 3.195202e-09 -8.558983e-10
-1.409734e-08 5.430274e-09 -3.472391e-09 -6.728828e-09 -2.289050e-09 -2.791096e-10
-1.425670e-08 1.982541e-09 -1.462701e-09 -1.274993e-08 -1.050725e-08 -5.617405e-09
1.734936e-08 -3.308260e-08 -1.308757e-08 1.179710e-08 -1.532610e-08 4.850518e-09
1.306420e-08 -3.281826e-08 -3.077542e-09 2.657682e-09 8.843055e-10 -6.816463e-10
-6.665606e-09 4.046787e-09 3.971383e-10 -4.161984e-09 -3.504114e-10 1.570881e-10
1.642069e-08 -4.774439e-08 3.324687e-09 5.817288e-09 -7.279197e-09 1.844069e-09
1.243675e-08 -3.829710e-08 4.110725e-09 2.423968e-09 -2.845762e-09 4.902550e-10
-1.557834e-08 1.124592e-08 -2.251538e-09 -2.114760e-09 -4.527992e-09 -8.541456e-10
7.409616e-09 -2.918431e-08 4.642100e-09 5.028365e-09 -3.860222e-09 5.367912e-10
2.227052e-08 -4.185599e-08 -8.031782e-09 1.919809e-09 -1.333003e-09 1.945306e-10
9.177157e-09 -3.384751e-08 1.685451e-09 3.743698e-09 -2.525140e-09 6.789969e-10
-1.612756e-08 1.392553e-08 -3.912469e-09 1.981577e-09 1.066594e-09 -5.453564e-10
-1.019545e-08 -7.355343e-09 3.591224e-09 1.429220e-08 2.863375e-09 -6.454986e-10
-1.748854e-08 1.221189e-08 -3.928545e-09 6.588892e-09 -2.931024e-10 -3.008953e-10
7.501275e-09 -2.640503e-08 2.310652e-09 7.517747e-10 -9.350858e-10 8.481251e-10
-1.687530e-08 6.403305e-09 1.681777e-10 1.670765e-09 4.097490e-09 -5.168678e-10
-8.569540e-09 -1.216320e-08 5.307671e-09 7.859724e-09 1.326925e-09 -3.284877e-10
-1.764582e-08 7.119688e-09 -4.636431e-10 2.431176e-09 3.060604e-09 -5.224394e-10
1.142525e-09 5.041212e-11 -4.500406e-10 -5.283063e-10 -2.952207e-10 2.118820e-10
-1.863896e-10 9.431442e-10 -1.993972e-10 -2.741055e-09 -5.227050e-10 6.709366e-11
4.897281e-08 -1.063225e-08 -6.730479e-09 1.116879e-09 1.203039e-09 4.427267e-09
5.697755e-08 -2.127472e-08 -3.877759e-09 8.765048e-09 5.310727e-09 1.302832e-08
3.772594e-08 -1.008602e-08 -6.612615e-09 2.935159e-09 2.805871e-10 3.096559e-09
2.990223e-09 -1.450092e-09 -4.943401e-10 -2.606471e-09 -4.131184e-10 2.698221e-10
1.702062e-09 -4.343343e-10 -4.559024e-10 -9.714851e-10 -4.122194e-10 -4.201162e-11
-7.267998e-09 3.397868e-09 1.237265e-09 3.936611e-10 -1.041345e-11 8.553291e-11
-7.439654e-09 3.596961e-09 1.214888e-09 5.034639e-11 4.644241e-11 -8.911671e-11
-7.640076e-09 2.861317e-09 1.610178e-09 2.060605e-10 4.563105e-11 -2.517704e-10
1.614391e-08 -8.810325e-09 4.330939e-09 6.736527e-09 -1.160991e-10 -1.614848e-09
-7.247833e-09 7.810215e-10 1.905914e-09 -2.115828e-10 -1.292835e-10 -4.162579e-10
-7.458840e-09 2.482412e-09 1.520800e-09 1.382481e-10 1.019393e-10 -3.335434e-10
-2.042729e-08 4.013256e-08 -7.041490e-09 9.651016e-09 1.622223e-09 -1.689686e-09
2.164915e-08 -8.810325e-09 7.112261e-09 6.977064e-09 -2.572068e-10 -5.600202e-09
1.440096e-09 2.410007e-09 9.058584e-09 1.461897e-08 -1.245220e-09 -9.211923e-10
-7.133704e-09 7.627312e-10 2.353857e-09 -3.268253e-10 7.503198e-11 -3.709651e-10
9.696886e-09 -4.031440e-09 7.581409e-09 1.175488e-08 -1.614369e-10 -2.596714e-09
-6.068532e-09 -1.616049e-08 7.146933e-09 -4.440795e-16 9.364953e-11 5.209033e-11
1.548118e-08 -8.472237e-09 6.080056e-09 6.270577e-09 -3.586533e-10 -2.705651e-09
1.433621e-08 -5.122036e-09 6.726800e-09 1.330448e-08 -9.624725e-10 -3.735525e-09
1.136663e-08 -4.615957e-09 7.581408e-09 1.316608e-08 -2.996012e-10 -1.855957e-09
1.355725e-08 -4.078623e-08 6.889332e-09 2.125841e-09 1.662882e-09 -2.171894e-10
1.336909e-08 -3.921922e-08 6.648011e-09 7.845400e-10 5.166855e-10 4.709194e-11
1.661695e-08 -4.138537e-08 3.635977e-09 -4.156345e-10 2.445952e-09 -2.231089e-10
1.420202e-08 -3.846242e-08 3.666883e-09 -3.177595e-09 2.311401e-09 -1.977578e-10
1.328172e-08 -3.915028e-08 6.130095e-09 2.390930e-10 -1.333600e-11 1.058034e-10
1.227405e-08 -3.823076e-08 7.157281e-09 3.149265e-10 3.366092e-10 -2.791448e-10
1.380548e-08 -3.979250e-08 4.437445e-09 -1.412084e-09 8.350387e-11 -1.527445e-11
-5.537348e-09 -1.550716e-08 6.609092e-09 2.201969e-20 -2.530727e-10 3.487168e-10
-4.343262e-09 -1.725112e-08 6.900057e-09 3.854974e-10 2.285768e-10 3.939223e-10
1.744881e-08 -4.276020e-08 -2.906468e-09 1.624170e-09 1.978298e-09 -6.453904e-10
1.762780e-08 -3.978119e-08 2.489483e-09 8.221082e-10 1.213530e-09 -6.244229e-10
1.490192e-08 -4.019862e-08 4.112331e-09 2.256717e-09 -8.258185e-10 -2.803534e-12
-7.126675e-09 2.951133e-09 1.337987e-09 1.990857e-10 1.080145e-10 5.782741e-11
-4.028905e-09 3.884964e-09 -6.624461e-10 -6.625523e-09 -4.455568e-10 9.747949e-10
-7.631819e-09 2.179522e-09 1.809730e-09 3.730789e-10 -1.110217e-15 8.407941e-12
-7.678877e-09 1.300621e-09 2.077127e-09 -3.447820e-11 -1.988261e-10 -1.142613e-10
-7.673609e-09 2.802396e-09 1.471214e-09 5.973538e-10 5.738732e-11 -1.551892e-10
-6.408682e-09 1.795021e-08 -3.293429e-08 2.564022e-08 1.558815e-08 -1.103538e-08
3.036641e-10 6.878049e-08 -8.846393e-08 1.185988e-08 8.920795e-09 -4.857102e-09
-7.636819e-09 2.135658e-09 1.756734e-09 -2.633795e-10 4.838574e-11 -1.766183e-10
1.102432e-09 9.539268e-08 -1.220935e-07 8.822290e-09 4.039637e-08 -2.661568e-08
-1.394882e-08 7.057456e-08 -6.246092e-08 6.511901e-09 1.919338e-08 -2.246146e-08
-2.753793e-08 5.620773e-08 -1.878387e-08 -1.442049e-08 1.089451e-09 -1.315069e-09
-3.907956e-09 4.134127e-08 -5.679102e-08 1.906045e-08 7.288169e-09 -4.858847e-09
-7.114369e-09 4.972113e-08 -7.703197e-08 2.013485e-08 3.002111e-08 -2.533346e-08
8.353574e-09 7.204911e-09 -5.295538e-09 -4.950380e-09 3.585862e-09 -1.658481e-09
-1.594760e-08 4.953733e-08 -5.993404e-08 9.944038e-09 7.586637e-09 -6.013741e-09
-1.734469e-08 4.867872e-08 -3.863667e-08 9.881044e-09 1.363396e-08 -1.412261e-08
-1.246445e-09 -1.377579e-08 4.432167e-09 -1.311773e-09 8.149974e-10 -1.056075e-09
3.761353e-09 -2.076607e-08 4.244839e-09 -8.791614e-09 1.377872e-09 -4.718263e-10
3.759579e-09 -2.200900e-08 5.524703e-09 -8.723653e-09 -1.176183e-09 -2.195878e-10
-2.792817e-09 -1.208275e-08 3.799976e-09 -6.154130e-09 -4.354804e-11 -6.827899e-10
-1.213732e-08 -5.645799e-09 2.024979e-09 -1.025829e-08 -5.675685e-09 -1.853589e-09
-2.014262e-08 4.867872e-08 -3.335472e-08 1.251037e-08 1.113966e-08 -1.557941e-08
-1.072168e-08 -2.522825e-09 -4.595582e-09 -8.094201e-09 -6.468794e-09 -2.174755e-09
-7.640187e-09 2.861317e-09 1.454351e-09 1.987317e-10 6.613821e-11 -2.237670e-10
-7.618258e-09 3.232261e-09 1.373796e-09 2.911635e-10 6.865075e-11 -2.833209e-10
-9.570732e-09 -5.658944e-09 3.689821e-09 -3.330332e-09 -1.862191e-09 -3.670972e-10
-6.835857e-09 -3.418954e-10 2.419186e-09 3.217719e-10 8.556667e-11 -3.491054e-10
-7.096205e-09 -3.418954e-10 2.206788e-09 2.286651e-10 2.565015e-11 -3.767606e-10
1.111726e-08 -3.649868e-08 7.189989e-09 5.530412e-10 2.561136e-10 5.302314e-11
-7.350468e-09 9.618093e-10 2.073087e-09 3.312071e-10 6.877227e-11 -5.643646e-10
-6.645871e-09 -2.604390e-09 2.954669e-09 -8.189740e-10 -1.381886e-10 -3.857487e-10
-7.096859e-09 1.094129e-10 2.329634e-09 -1.369596e-10 1.217111e-10 -5.473694e-10
8.890124e-09 -3.241328e-08 -7.837253e-10 1.042827e-08 -8.708199e-09 2.144917e-09
-7.495805e-09 3.299070e-09 1.300808e-09 2.818510e-10 2.893175e-11 1.540085e-11
7.306086e-09 -1.859172e-08 -1.203736e-08 1.124002e-08 -6.627246e-09 2.995206e-09
3.705534e-09 -2.051726e-08 -9.132705e-09 -1.822669e-08 -1.260028e-08 -4.828856e-09
1.775885e-08 -5.365260e-08 4.621212e-09 -1.917699e-08 -1.677516e-08 -4.065737e-09
1.215866e-08 -3.191395e-08 -3.891403e-09 -6.495863e-09 -3.877724e-09 -5.129386e-10
-6.837706e-09 -6.549516e-10 2.300236e-09 1.006235e-10 1.033555e-10 -5.321843e-10
5.132941e-09 -3.014203e-08 1.119872e-09 -1.431867e-08 -1.145818e-08 -2.122002e-09
-7.398412e-09 2.841270e-09 1.480337e-09 2.739124e-10 2.428593e-11 -1.870489e-10
3.818504e-09 -2.746574e-08 -1.249597e-09 -2.034175e-08 -1.432233e-08 -5.878393e-09
-4.214666e-08 8.198066e-08 -6.342285e-08 -1.347283e-08 -1.206596e-08 -3.673057e-09
8.850411e-09 -3.346879e-08 7.043122e-09 1.278056e-09 -3.217424e-10 -5.852607e-11
-4.208173e-08 8.795618e-08 2.370880e-08 4.191647e-08 -5.235978e-08 -7.510613e-09
-7.574945e-09 3.158546e-09 1.337269e-09 9.805488e-12 -3.215650e-12 -2.696339e-10
9.715585e-09 -3.333849e-08 6.468511e-09 5.037693e-09 1.910855e-09 -3.304290e-11
2.100104e-08 1.190636e-10 -6.188442e-09 -1.835116e-09 2.759703e-09 -1.713213e-09
2.956359e-08 -3.530250e-09 -3.774092e-09 -8.016345e-10 3.856699e-09 2.595279e-10
5.150631e-08 -1.719286e-08 -3.556874e-09 -3.982316e-09 6.701955e-10 2.812488e-09
-1.236871e-08 1.810911e-08 -4.177351e-09 -5.586662e-10 -5.301533e-09 -4.797630e-09
2.593819e-08 2.535199e-10 -7.703706e-09 4.015399e-09 -2.692891e-10 -4.542221e-09
-4.966341e-09 3.898190e-09 6.263701e-10 -2.892676e-09 5.348433e-11 1.851052e-10
7.327896e-09 -4.136499e-09 -1.066055e-09 1.750065e-09 2.031538e-10 -3.168976e-10
-1.592618e-08 7.822895e-09 3.835292e-10 -2.498928e-09 -4.932957e-09 -6.492414e-10
8.895794e-09 -3.363427e-08 6.915583e-09 2.306155e-09 6.581620e-10 -9.759357e-11
-1.544311e-08 3.822002e-09 2.245660e-09 -1.020502e-09 -1.923033e-09 -7.376744e-11
9.813735e-09 -3.551438e-08 7.303998e-09 8.876677e-10 1.648179e-10 -1.751048e-10
2.100663e-09 -2.799121e-10 -5.305187e-10 -3.004343e-10 -1.289711e-10 3.751799e-11
2.234357e-08 3.032475e-08 -1.049338e-07 2.273665e-08 4.869660e-08 -1.944397e-08
6.781234e-09 -3.046292e-08 7.115673e-09 2.096429e-09 3.646412e-11 2.747779e-10
-7.006251e-09 -5.675711e-09 2.762383e-09 3.227162e-09 -2.212019e-09 -1.454204e-10
-1.443079e-08 -1.268603e-10 3.348089e-09 -2.931449e-09 -1.422254e-09 -2.221286e-10
-5.991759e-09 3.643363e-09 5.401350e-10 -3.129236e-09 -3.523029e-10 -4.545833e-10
-1.225028e-08 -2.663270e-09 1.794620e-09 -6.639915e-10 -2.287637e-11 -7.213561e-10
-1.202284e-08 -2.365701e-09 3.596055e-09 -3.720794e-09 -2.367103e-09 2.438319e-10
-4.469816e-09 -1.123741e-08 -2.297472e-09 7.802722e-09 -4.539691e-09 1.890767e-09
-1.176852e-08 -5.276583e-09 3.682895e-09 -7.866117e-10 -3.973657e-10 -4.190781e-10
-1.318274e-08 -1.074122e-09 3.360558e-09 -2.252456e-10 -7.580295e-10 2.857419e-10
-5.177224e-09 -7.483050e-09 2.469219e-09 1.445970e-09 -1.578928e-09 -2.749090e-10
-8.910397e-09 -2.101313e-09 5.492140e-11 3.938738e-09 -2.532890e-09 7.904617e-10
4.322867e-09 5.693891e-09 -3.772726e-09 5.434428e-10 4.047487e-09 -3.655840e-10
4.322867e-09 8.383707e-09 -4.372232e-09 5.765202e-10 4.238837e-09 -1.881273e-10
9.414919e-09 -5.440417e-09 -1.304932e-09 4.563484e-10 -8.849965e-11 -1.679461e-10
8.367380e-09 -4.641997e-09 -1.150086e-09 1.282947e-10 -1.886796e-11 2.537970e-12
7.716437e-09 -3.638008e-09 -9.342083e-10 3.189206e-09 9.176260e-11 -1.104259e-10
1.239297e-08 -3.585653e-08 5.865235e-09 -1.352438e-09 4.101375e-10 1.312430e-10
-7.133962e-09 3.942797e-09 9.993624e-10 1.588507e-11 -2.836065e-11 1.704414e-11
1.417800e-08 -3.635033e-08 4.963447e-09 -3.111951e-09 6.127576e-10 -2.931275e-10
1.323785e-08 -3.937802e-08 6.411343e-09 1.070993e-09 1.172528e-09 -1.598002e-10
-7.527726e-09 -6.482470e-09 -4.066939e-09 -1.329372e-08 -6.435907e-09 -2.893752e-09
-3.539851e-09 -1.735934e-08 1.075362e-09 -1.342844e-08 -9.108146e-09 -2.126564e-09
-7.262225e-09 4.033476e-09 9.921561e-10 2.587619e-11 -3.840928e-12 0.000000e+00
-6.439168e-10 -2.448643e-08 6.296981e-09 9.368737e-09 5.188967e-10 -2.997034e-10
2.599072e-08 -4.179959e-08 -1.830978e-08 -1.930757e-09 -1.024828e-08 6.045322e-10
2.009090e-08 -4.886265e-08 8.268315e-10 -5.665566e-10 -1.891529e-09 7.249452e-10
2.009090e-08 -4.886265e-08 4.326593e-09 -8.063772e-10 -1.393616e-09 -1.178855e-10
1.700186e-08 -4.704016e-08 4.725367e-09 -8.345129e-10 -2.440629e-09 4.796793e-10
-7.280944e-09 3.576013e-09 1.105948e-09 3.259091e-10 7.898293e-11 -1.900495e-10
-6.784316e-09 3.728980e-09 8.947225e-10 1.942491e-10 -6.627587e-11 1.843059e-11
-4.674074e-09 2.830326e-09 5.552958e-10 1.474802e-10 2.141551e-10 6.721668e-11
1.474976e-08 -3.915099e-08 7.354606e-10 -1.245466e-09 -1.574535e-09 -1.822102e-10
-7.828000e-09 4.977291e-09 8.554748e-10 -6.898770e-10 -3.183076e-11 -3.612605e-10
-5.933175e-09 -4.068855e-09 3.296102e-09 1.678078e-10 2.052519e-20 6.115686e-11
3.286832e-08 -9.928897e-09 -5.863190e-09 -1.387338e-10 2.067289e-09 -2.360937e-10
-7.395514e-09 5.227463e-09 6.418053e-10 -1.082148e-10 -5.836354e-11 -1.213394e-10
-8.981389e-09 -5.736021e-10 2.062303e-09 -1.864065e-10 -2.539963e-10 -6.985133e-10
8.732524e-09 6.626535e-09 -5.481552e-09 -5.214935e-09 3.960285e-09 -1.319330e-09
-9.658941e-09 1.800992e-09 1.499680e-09 -1.079024e-09 -7.570056e-11 -9.087186e-11
4.577027e-09 -2.235453e-08 -2.657496e-10 -6.096930e-09 -3.526920e-09 -7.848131e-10
-8.162996e-09 1.372971e-08 -3.597993e-09 4.478014e-10 4.746490e-09 -1.145327e-09
-6.236657e-09 1.082593e-08 -4.261055e-09 1.308958e-09 3.859260e-09 -5.004672e-10
-7.011351e-09 -9.637375e-10 2.487857e-09 -1.661363e-09 5.485519e-10 -1.105147e-10
-1.544418e-09 -9.333010e-09 -4.020237e-09 -9.967598e-09 -6.590191e-09 -1.976799e-09
-7.133655e-09 -1.961552e-09 2.677701e-09 -2.673118e-09 -4.868017e-11 -2.192182e-10
1.034322e-08 -3.645968e-08 2.470852e-09 -4.197555e-09 -2.241314e-09 -5.219403e-10
-6.798419e-09 -1.120199e-08 2.342466e-09 -1.227313e-09 -7.859979e-10 5.533795e-10
-5.520287e-09 -1.033880e-08 -1.554194e-09 -8.310326e-09 -2.786193e-09 1.849747e-10
-7.527727e-09 -9.229476e-09 -4.595582e-09 -1.392236e-08 -7.933494e-09 -3.439949e-09
1.160042e-08 -3.141559e-08 -3.797908e-09 -1.162503e-09 -4.426741e-16 -6.086423e-10
5.579295e-09 -2.500931e-08 -3.541410e-09 -4.188212e-09 -2.449973e-09 -1.106214e-09
2.430821e-08 -3.662137e-08 -1.902645e-08 1.318910e-09 -3.168766e-09 -1.780888e-10
-6.265435e-09 2.639265e-09 1.259985e-09 1.218330e-09 2.779350e-10 -3.777827e-12
1.084750e-08 -3.471367e-08 -1.279465e-09 1.342506e-08 3.209318e-09 -4.533574e-10
2.645099e-08 -1.393902e-08 -4.691309e-08 -1.081155e-08 -2.384479e-08 -2.536915e-09
6.852131e-09 -2.829752e-08 -1.295251e-09 1.765307e-08 1.137410e-09 -2.725695e-10
2.391572e-08 -3.233349e-08 -1.914224e-08 -7.999323e-09 -3.262600e-09 -1.284288e-10
9.370678e-09 -1.315063e-08 -2.628292e-08 -1.736919e-08 -1.401182e-08 -2.818339e-09
1.891575e-08 -3.072624e-08 -1.400531e-08 -1.057231e-08 -3.103552e-09 -5.374491e-10
9.063700e-09 -4.032558e-08 -2.067919e-09 -2.270061e-08 -1.815357e-08 -5.410801e-09
1.462300e-08 -4.775895e-08 2.407709e-09 -6.370543e-09 -8.481071e-09 -3.734908e-10
7.332954e-09 -2.071949e-08 -1.215511e-08 1.963355e-08 5.389836e-09 -9.103339e-10
8.975377e-09 -2.207191e-08 -9.783218e-09 -1.158746e-08 -1.972118e-09 1.923337e-10
1.736321e-08 -2.545739e-08 -3.070801e-08 -1.489846e-08 -1.854050e-08 -2.873525e-09
4.255062e-09 -2.193873e-08 -2.809424e-09 -6.318211e-09 -4.105112e-09 7.361730e-10
9.667362e-09 -3.138370e-08 -8.438930e-10 1.921785e-08 2.155233e-09 -2.189367e-09
1.203601e-08 -3.735478e-08 -1.801696e-09 1.164884e-08 1.458868e-09 -3.976233e-10
9.579562e-09 -3.348119e-08 -1.182448e-08 2.065447e-08 9.240737e-09 -1.344131e-09
1.815782e-08 2.930969e-08 -8.359470e-08 -1.334842e-08 -1.541496e-08 -1.850927e-09
-2.725689e-08 4.430520e-08 -3.965920e-09 -2.669202e-08 -1.453699e-09 -7.376613e-09
-7.735962e-09 6.822152e-10 -3.269752e-09 3.676645e-09 -2.602788e-09 7.052003e-10
-8.810186e-09 -1.739028e-09 -8.295640e-10 3.517009e-09 -5.192944e-10 1.661240e-10
-6.503164e-10 -7.449736e-09 -8.271181e-09 8.656197e-09 -8.849884e-10 -3.681277e-10
-1.647172e-08 3.419002e-08 -1.911052e-08 6.621431e-09 7.065374e-09 -7.622997e-09
-2.124627e-08 3.370843e-08 -9.973304e-09 -1.519154e-08 -3.247854e-10 -4.444880e-09
1.210456e-08 -6.057482e-09 -1.247550e-09 -1.597802e-09 -1.509375e-10 3.958389e-11
2.098488e-08 -5.100150e-08 3.400652e-09 -1.324944e-09 -2.818001e-09 -6.151775e-10
1.078027e-08 -5.145617e-09 -1.249096e-09 -2.909342e-09 -8.444356e-11 1.535265e-10
9.551706e-09 -4.884535e-09 -1.252649e-09 -3.832148e-09 -1.466318e-10 4.858867e-10
9.030377e-09 -5.451024e-09 -1.188747e-09 -1.123087e-09 -2.149189e-10 1.448394e-10
1.462604e-08 -4.232214e-08 2.975563e-09 -4.328817e-09 -2.314755e-09 2.483032e-10
9.954320e-09 -5.515744e-09 -1.349671e-09 -4.817564e-10 -3.142082e-11 1.321432e-11
-7.591243e-09 -1.500592e-09 -3.415842e-09 5.573813e-09 -1.743391e-09 6.133376e-10
-9.215637e-09 2.816089e-09 -1.090996e-09 3.819210e-10 -1.482976e-09 6.404766e-11
-7.735963e-09 -6.140327e-09 1.570510e-10 5.401485e-09 -2.618342e-09 1.168844e-09
2.900257e-08 -6.648369e-08 -1.882854e-09 1.580257e-09 -2.402664e-08 2.381780e-09
2.711723e-08 -6.274776e-08 -1.716974e-09 -9.597102e-09 -2.385200e-08 -1.386916e-09
-4.150042e-08 8.476706e-08 2.128678e-08 3.232222e-08 3.286813e-08 -1.895590e-08
2.680543e-08 3.583043e-08 -9.924712e-08 -8.320717e-09 -4.371767e-08 -7.276361e-10
2.554950e-08 7.385947e-09 -7.440975e-08 -6.337552e-10 -3.506753e-08 5.426587e-09
3.012084e-08 -1.775313e-08 -5.608128e-08 -5.872391e-09 -2.960630e-08 7.786011e-10
1.221891e-08 -3.869109e-08 3.176109e-09 -1.360654e-09 -1.450545e-09 7.971175e-10
9.553812e-09 -5.587274e-09 -1.325836e-09 2.110819e-10 1.720693e-11 -1.456405e-10
9.294946e-09 -5.504720e-09 -1.337853e-09 -1.656672e-09 -2.168877e-10 -3.471149e-11
2.639369e-08 -1.336093e-08 -4.617682e-08 -1.107830e-08 -7.848346e-09 -9.901256e-10
-8.482328e-09 2.334447e-08 -1.615491e-08 1.457620e-09 -1.548138e-09 -1.284842e-09
9.820853e-09 -1.642135e-08 -2.167785e-08 -1.391472e-08 -4.399616e-09 -7.032015e-10
1.097421e-08 -6.247802e-09 -1.569576e-09 -4.696532e-10 7.164103e-11 5.763456e-11
2.524411e-08 -3.354785e-08 -2.605008e-08 5.939852e-09 -9.572502e-09 6.985765e-10
-5.080736e-10 -2.238269e-08 6.852893e-09 2.173868e-09 1.563562e-10 3.855896e-10
1.736321e-08 -3.221279e-08 -1.577551e-08 -1.312600e-08 -9.543854e-09 -2.019212e-09
2.515358e-08 -3.188399e-08 -2.409006e-08 -8.443375e-09 -1.157423e-08 -1.367655e-09
3.179610e-09 -2.770946e-08 7.235686e-09 8.458771e-10 2.215368e-10 6.954881e-12
2.805111e-08 -1.967840e-08 -4.429054e-08 -4.471801e-09 -2.219311e-08 1.126493e-09
2.230645e-08 2.344658e-08 -8.484593e-08 -5.563989e-09 -1.406791e-08 1.190126e-09
3.125063e-09 -2.613486e-08 7.193447e-09 3.364908e-09 3.924734e-10 6.994778e-10
8.833770e-09 -3.398697e-08 4.887738e-09 9.809127e-09 1.575164e-09 -5.134369e-10
-4.979991e-09 3.379833e-09 -1.565178e-08 7.783910e-09 -5.495147e-09 3.706255e-09
5.757879e-09 -3.180816e-08 7.405839e-09 4.410256e-09 6.441236e-10 3.174506e-10
-1.017579e-08 1.342993e-08 -1.617451e-08 2.256314e-09 -5.585465e-09 4.783588e-09
-6.681901e-08 2.358145e-08 1.471460e-07 3.695911e-08 4.006746e-08 8.360997e-09
1.815978e-08 -2.692139e-08 1.556050e-07 5.233181e-08 4.164136e-08 8.121326e-08
5.881004e-08 -4.280713e-09 -8.492151e-09 -1.094515e-08 5.192462e-10 1.307054e-08
1.236569e-08 -3.737191e-08 7.585373e-09 1.866770e-09 5.004715e-10 3.961314e-10
1.220232e-08 2.033409e-08 -6.634471e-12 -2.300593e-08 -2.328827e-09 1.606173e-09
1.064343e-08 -3.542813e-08 7.169968e-09 4.497645e-10 2.407731e-10 -3.159073e-11
-4.717755e-08 2.367039e-08 1.365844e-07 3.598456e-08 4.413694e-08 4.071887e-08
9.390109e-09 4.223652e-08 -8.758750e-08 -1.756713e-08 1.583290e-08 2.474153e-08
3.553136e-08 5.175429e-08 -1.213094e-07 -5.026466e-09 2.291337e-08 4.578220e-10
8.267735e-09 -3.249705e-08 7.254567e-09 7.457692e-10 3.465159e-10 3.302436e-10
8.001047e-09 9.953718e-09 -7.949250e-08 -2.527612e-08 2.119795e-08 4.850786e-09
3.018584e-08 -9.944686e-09 1.348314e-08 2.754169e-08 4.736015e-09 4.666794e-09
1.646176e-08 1.195631e-08 2.224574e-09 3.197532e-08 5.088692e-10 -5.758384e-09
-4.720069e-09 -5.873656e-09 3.177277e-09 -3.628799e-09 4.183462e-10 -2.616420e-10
-6.380621e-09 -2.392335e-09 2.768187e-09 -1.403896e-09 -4.089200e-10 -3.325784e-11
-1.112747e-09 -1.469845e-08 4.094971e-09 -4.978274e-09 4.776846e-11 -4.398119e-10
-6.380620e-09 -4.107815e-09 3.524391e-09 -2.056982e-09 -6.992489e-10 -1.484319e-10
-4.687854e-08 1.038392e-07 2.158661e-07 -2.641074e-08 -1.319859e-07 3.956260e-09
-3.448182e-09 -9.499122e-09 4.065929e-09 -1.777077e-09 3.103828e-11 1.867058e-10
-4.048176e-09 9.607734e-08 -1.181101e-07 9.330728e-09 1.162364e-08 3.575502e-08
-1.024030e-07 -6.435992e-08 2.462626e-07 1.434398e-09 -2.868237e-08 -1.795609e-08
-9.845107e-08 -3.656170e-08 2.408574e-07 -4.167807e-09 -1.849951e-08 -3.693754e-09
-5.382595e-08 7.768898e-08 4.001447e-08 -3.118220e-09 -4.180204e-08 -1.883189e-08
2.778569e-09 -2.049984e-08 5.022005e-09 -2.430730e-10 3.692182e-10 -4.788124e-10
-6.687137e-08 1.038392e-07 8.737174e-08 5.209975e-09 -1.068503e-07 -2.641218e-09
-3.923872e-08 7.357972e-08 2.277006e-08 2.093521e-09 -3.306891e-08 -2.462738e-08
-9.238303e-08 7.346575e-08 2.053124e-07 2.639573e-08 -1.140811e-07 -2.737339e-08
4.740134e-09 -2.565447e-08 4.455046e-09 -4.341620e-09 2.119229e-09 -1.985127e-11
8.817186e-10 1.731678e-08 2.991026e-08 -3.554120e-08 1.748143e-08 -5.630681e-09
1.143181e-09 5.336798e-08 -2.019518e-08 -3.319085e-08 1.630960e-08 1.193929e-08
-6.733374e-09 4.194329e-08 -6.515962e-09 -2.979709e-08 1.643487e-08 1.436083e-08
-6.382028e-09 2.352105e-08 -1.161623e-08 -2.138325e-08 3.196316e-09 5.065267e-09
7.247214e-09 -1.096250e-08 2.795598e-08 -3.091350e-08 -1.114769e-08 3.053009e-09
-1.139304e-09 -1.446213e-08 4.582495e-09 -1.832530e-09 9.624763e-10 -4.300786e-12
2.778570e-09 -2.076387e-08 5.480132e-09 -8.190965e-11 1.424509e-10 -8.695461e-11
-1.103895e-08 -8.096558e-09 4.893783e-09 7.316424e-09 2.400558e-09 -4.655298e-10
-1.026830e-08 1.158258e-08 -1.876517e-08 -1.406092e-08 -9.130374e-09 -7.571507e-09
6.307167e-10 -1.676384e-08 4.459020e-10 -1.333538e-08 -1.116533e-09 -8.711028e-10
-5.005472e-09 -5.170324e-09 2.669056e-09 -6.633912e-10 9.900585e-10 -1.097717e-09
-6.533105e-09 -5.588131e-09 3.086408e-09 -4.050148e-09 -1.520635e-10 -5.877712e-10
-1.720583e-10 -1.618354e-08 4.847337e-09 -4.873375e-11 2.179190e-11 -1.317209e-10
1.939706e-10 -1.627668e-08 4.911060e-09 -1.605618e-09 -7.774614e-10 -1.990917e-10
-2.312926e-09 2.023294e-09 6.813106e-11 -2.805675e-09 -3.983742e-10 7.118192e-11
5.233206e-09 -3.033796e-09 -1.015888e-09 -3.875800e-09 -2.060649e-10 6.921452e-11
1.388900e-09 1.075495e-11 -6.068035e-10 -1.967247e-09 -4.019873e-10 -1.616262e-10
-5.260183e-09 4.146477e-09 5.462146e-10 -8.270626e-10 -1.323486e-10 -5.848005e-11
-1.487589e-09 2.031425e-09 -5.265655e-11 -3.343120e-09 -5.147269e-10 -1.098317e-10
-2.809735e-09 2.029398e-09 3.273271e-11 -3.358732e-09 -2.673044e-10 -1.056930e-10
-7.578523e-09 -1.174401e-09 3.601545e-08 2.358303e-08 8.279681e-09 -4.233805e-08
-2.304099e-08 -2.979631e-09 1.005182e-07 3.120953e-08 8.125764e-09 -8.807798e-09
-2.547368e-08 4.546258e-08 9.430900e-09 2.588477e-08 -7.526871e-09 1.685606e-08
9.719940e-09 -5.838883e-09 -1.253501e-09 5.672839e-10 1.082623e-10 2.285676e-10
-1.390863e-08 4.756674e-09 1.019979e-07 2.812884e-08 -2.815035e-08 -3.090882e-08
9.941759e-09 -5.830018e-09 -1.240556e-09 -3.897764e-12 -4.545517e-11 1.623968e-10
2.049965e-09 6.299451e-10 8.155343e-11 6.286532e-09 1.470490e-11 -5.155363e-10
-4.456634e-09 2.376520e-09 5.725758e-10 3.771051e-09 7.219380e-10 -2.469664e-10
9.224310e-09 -5.238377e-09 -1.286397e-09 -2.278572e-09 -3.357083e-10 2.738776e-10
-5.295274e-09 4.817711e-09 7.351493e-10 5.752776e-09 -2.604973e-11 -5.360517e-10
4.329515e-11 1.511332e-09 9.485910e-10 7.508539e-09 -5.665950e-10 -1.712683e-09
2.455547e-10 1.519190e-09 9.379235e-10 7.579528e-09 7.890756e-10 4.007419e-10
1.014094e-08 -5.917071e-09 -1.212996e-09 6.393408e-10 1.221952e-10 3.555847e-10
-6.106414e-09 2.834305e-08 -1.780058e-08 1.027888e-08 -4.706766e-09 -5.599220e-09
1.000330e-08 -5.793199e-09 -1.402836e-09 -1.731319e-09 -7.933904e-11 2.179501e-11
8.198021e-10 3.609656e-08 -2.223348e-08 1.804203e-08 -6.944486e-10 -7.847571e-10
-4.373417e-09 2.110931e-08 -1.649571e-08 1.024857e-08 -2.254505e-09 -4.252089e-09
-6.145719e-09 4.653044e-09 6.783765e-10 -5.252603e-10 -3.554268e-11 -8.476442e-12
-4.185150e-09 3.599187e-09 2.774103e-10 -1.673380e-09 -3.843805e-10 9.951395e-11
-5.808478e-09 4.238182e-09 6.647012e-10 -1.127785e-09 4.597389e-11 -1.207392e-10
-7.152137e-09 4.967227e-09 6.966259e-10 -2.555214e-10 -2.869616e-11 -6.720957e-11
-5.258574e-09 3.821626e-09 3.159739e-10 -7.824825e-10 9.417267e-11 1.040892e-10
1.353964e-08 -3.440252e-08 -7.236503e-09 1.623269e-08 4.349809e-09 -1.082748e-09
5.803195e-09 -2.787135e-08 -1.974537e-09 1.666746e-08 3.153544e-09 -7.089151e-11
-5.821589e-09 -1.706463e-08 7.477222e-09 2.610596e-10 7.273204e-11 1.703480e-10
-1.208875e-08 -1.033868e-09 2.982174e-09 -3.466796e-09 -2.339913e-09 5.140839e-10
-6.483459e-09 -1.652651e-08 7.484707e-09 2.743885e-10 0.000000e+00 -7.671774e-11
-2.728915e-09 3.463279e-09 -2.258514e-08 -1.246275e-08 -6.445995e-09 -1.046655e-09
3.566690e-09 -2.184895e-08 2.267158e-10 -1.865707e-08 -1.097910e-08 -4.252024e-09
-8.035778e-09 -2.294438e-09 -5.591964e-09 -9.162129e-09 -5.690188e-10 -9.786314e-10
-7.123290e-09 -1.581554e-08 7.050367e-09 6.065952e-10 -2.750837e-10 4.601652e-12
-2.697797e-09 -6.415746e-09 -1.207929e-08 -1.337730e-08 -5.349261e-09 -5.452630e-10
9.669165e-11 -9.420380e-09 -4.186367e-09 -1.032673e-08 -6.256072e-09 -2.464917e-09
-1.652680e-08 5.573657e-09 2.547436e-10 -2.624979e-09 -6.744842e-10 8.687317e-11
-4.493758e-09 -1.355362e-08 3.572662e-10 -5.016892e-09 -2.814923e-09 -7.462670e-10
-1.306912e-08 1.567232e-08 -1.084779e-08 -8.567723e-09 -1.051170e-08 -5.907952e-09
-8.045157e-09 -1.344381e-09 2.130660e-10 1.517545e-09 -3.115801e-10 2.756632e-10
-1.399857e-08 -7.815437e-10 3.141043e-09 -2.627143e-10 -4.497664e-10 -6.278829e-10
-8.453810e-09 2.694910e-09 -1.112195e-08 -1.027180e-08 -2.380901e-09 -1.709781e-09
-7.145640e-09 1.996447e-09 -1.200454e-08 -1.840486e-08 -2.662204e-09 -3.345943e-09
-8.816831e-09 -1.736239e-09 1.025986e-09 2.659574e-09 -1.914819e-10 6.704948e-11
-9.003524e-09 9.272578e-10 1.341106e-09 1.071060e-09 -1.069415e-09 2.474062e-10
-1.291649e-08 8.257992e-09 -5.955974e-09 -8.840977e-09 -6.114403e-09 -2.266111e-09
8.588907e-10 -2.578911e-08 7.405415e-09 1.070456e-09 -2.222176e-16 -8.081358e-11
-1.177904e-08 5.176846e-09 -1.106861e-08 -1.065551e-08 -5.118385e-09 -2.666404e-09
6.822146e-09 -3.241431e-08 6.742908e-09 2.615293e-09 1.853289e-10 -7.213927e-10
3.018989e-08 2.406239e-08 -9.076651e-09 3.164205e-08 8.651562e-09 3.385597e-09
2.738906e-09 -2.659186e-08 7.399237e-09 8.255627e-10 9.137047e-11 4.287055e-10
-7.111363e-09 3.926484e-09 9.993624e-10 1.717062e-10 -2.621015e-11 -2.415584e-11
-4.638696e-09 2.264905e-08 2.288511e-08 3.291469e-08 4.280232e-11 7.274342e-09
-6.779432e-09 3.702670e-09 8.947207e-10 1.904921e-10 -7.593384e-11 1.266809e-11
2.159227e-09 1.974473e-08 -7.243043e-09 2.121698e-08 -2.200306e-10 1.835303e-09
2.965647e-08 3.720535e-10 6.618909e-09 2.734343e-08 4.579205e-10 2.602893e-09
5.299496e-09 -2.685736e-09 -8.108918e-10 -1.457212e-10 -4.022273e-10 2.617240e-11
-5.140137e-09 2.955802e-09 7.030772e-10 9.415965e-10 -1.025868e-11 -1.223022e-10
-6.789773e-09 3.475373e-09 1.138027e-09 3.861138e-10 5.428102e-11 7.040790e-11
-5.525631e-09 3.293848e-09 6.846994e-10 4.642389e-10 -4.082201e-11 5.198708e-11
6.030466e-09 -2.988719e-08 7.173809e-09 2.493835e-09 2.501290e-10 1.319492e-10
-6.014801e-09 3.213744e-09 9.003749e-10 6.512573e-10 6.772982e-11 -1.920135e-10
2.227993e-08 -5.223642e-08 3.634971e-09 -2.023206e-10 -2.192233e-09 -2.888387e-10
-7.613176e-09 3.750438e-09 1.219655e-09 2.412763e-10 6.351131e-11 -1.889447e-10
-5.066599e-09 2.955922e-09 6.846976e-10 9.710779e-10 -4.068390e-11 -1.514902e-10
-6.689271e-09 -2.143349e-09 2.814970e-09 -4.398346e-10 3.333058e-10 -8.750600e-11
4.322867e-09 9.725734e-09 -4.916869e-09 5.397507e-10 3.005582e-09 -3.668150e-10
-1.241381e-08 4.331362e-09 -5.352542e-09 -6.168074e-09 -7.241110e-10 -6.896874e-10
-5.446579e-09 -5.186168e-09 3.377933e-09 -7.222112e-10 5.163920e-10 -1.465095e-10
1.769850e-08 5.873663e-09 -2.741328e-09 -1.174160e-08 -4.665064e-10 4.747408e-09
6.844090e-10 1.576600e-08 -7.858059e-09 -8.925194e-09 2.845224e-09 -5.184098e-09
-6.236650e-09 1.254584e-08 -4.632366e-09 1.461880e-09 3.347565e-09 -4.615921e-10
9.986509e-09 -3.589933e-08 6.847293e-09 3.173397e-09 6.036152e-10 3.203438e-10
9.887788e-09 -5.584152e-09 -1.343992e-09 1.188283e-11 -8.189265e-12 6.476153e-12
1.079559e-08 -6.123302e-09 -1.468118e-09 -1.337679e-09 -1.055788e-10 1.432658e-10
9.553821e-09 -3.558806e-08 7.356235e-09 1.715582e-09 1.512819e-11 9.179804e-11
1.248550e-08 -2.948537e-08 -1.151122e-08 1.533689e-08 -1.359156e-08 5.256455e-09
3.131658e-09 -2.649074e-08 7.024695e-09 2.238393e-09 -7.263100e-11 4.796918e-10
1.204085e-08 -3.584551e-08 6.900926e-09 7.308596e-10 -1.340200e-10 -8.210832e-11
1.194600e-08 -3.679819e-08 7.084081e-09 6.058966e-10 1.690665e-10 2.832430e-10
7.242353e-09 3.026631e-10 -4.103495e-10 -1.317216e-08 2.167922e-10 -1.196373e-09
1.057943e-08 -5.384164e-09 -1.336104e-09 -1.513325e-09 -5.095654e-11 -4.226108e-11
1.210619e-08 -6.057482e-09 -1.351074e-09 -1.463550e-09 3.434082e-11 3.202217e-12
2.242036e-08 -4.408154e-08 -5.534134e-09 -3.942708e-10 -4.439714e-16 -1.493570e-10
2.530058e-08 -5.560616e-08 -2.811914e-09 1.746961e-09 -1.829835e-08 2.558463e-09
-4.431908e-09 2.627742e-09 1.069678e-09 2.810031e-09 -1.644349e-10 5.753642e-11
1.005364e-09 -1.574858e-08 -7.963366e-09 9.708403e-09 -1.390056e-09 6.250898e-10
-2.740744e-09 -1.242686e-08 4.712793e-09 -4.274304e-09 -1.036254e-09 -3.115204e-10
-3.518908e-09 -9.431265e-09 3.482422e-09 -3.487026e-09 6.035180e-10 -5.523721e-10
8.313878e-09 -4.194785e-09 -1.098669e-09 -2.359517e-09 -6.491252e-12 -4.384049e-11
6.468376e-09 -3.027863e-09 -1.036346e-09 -8.696572e-10 -1.146249e-10 -2.165745e-11
-6.592515e-09 -2.207909e-09 3.048400e-09 -3.691889e-10 3.280931e-12 5.437295e-11
6.882546e-09 -3.463516e-09 -1.040369e-09 -1.346667e-09 4.970602e-11 3.803358e-11
-6.310098e-09 -3.502064e-09 3.031744e-09 3.026750e-10 4.816147e-12 -3.271958e-10
1.530356e-08 -3.874491e-08 4.368833e-09 3.706019e-09 1.700826e-10 3.236034e-10
-4.595922e-09 -5.941146e-09 3.521933e-09 -1.656241e-09 2.370077e-10 -2.086092e-10
1.266458e-08 -3.823076e-08 7.134334e-09 3.630785e-10 3.310927e-10 -2.013443e-10
-3.666519e-09 -9.214464e-09 3.909387e-09 -1.167086e-09 7.199896e-10 -6.357926e-11
-6.830605e-09 -1.509193e-09 2.571102e-09 -9.628090e-10 2.203540e-10 -3.253243e-10
-5.713839e-09 -1.490113e-08 4.511181e-09 8.803613e-09 -1.397002e-10 6.447112e-10
-6.839653e-09 -1.311814e-09 2.652283e-09 2.803697e-10 2.221022e-16 1.027436e-10
-3.920459e-09 -7.573750e-09 3.449858e-09 -9.511554e-10 -2.209782e-10 -4.748045e-10
1.284174e-08 -3.786238e-08 6.589997e-09 -1.008693e-10 1.674019e-10 2.251599e-11
9.907528e-09 -3.285162e-08 5.912082e-09 -2.213947e-09 -2.142997e-11 5.429140e-11
-7.071485e-09 -1.682915e-08 6.670747e-09 4.158902e-09 1.240593e-09 2.524922e-10
-3.957129e-09 -2.183234e-08 3.709737e-09 1.226961e-08 -1.430942e-10 2.602167e-10
-1.055210e-08 3.787124e-08 -1.313485e-08 -1.296326e-08 1.931338e-10 -1.658023e-09
-2.153104e-08 2.791682e-08 -1.859666e-08 1.178273e-10 7.122561e-09 -1.130186e-08
1.318181e-08 -3.776787e-08 5.819837e-09 -2.350311e-11 6.933646e-10 -2.965104e-10
9.907529e-09 -3.211962e-08 5.912083e-09 -1.751217e-09 1.558842e-10 2.784690e-10
-1.257697e-08 4.474261e-08 -4.427275e-08 1.482488e-08 6.822181e-09 -6.614511e-09
4.805381e-09 -1.211540e-09 -8.924665e-10 -7.420797e-09 -2.961274e-10 5.066374e-10
-6.733374e-09 4.260750e-08 -4.528840e-08 -1.783182e-08 -7.157086e-09 1.868891e-08
1.020076e-09 6.522889e-10 -5.745386e-10 -4.627513e-09 2.813594e-11 -1.762710e-10
7.501251e-09 -2.640503e-08 7.774419e-10 5.981832e-10 -1.101347e-09 1.399290e-10
9.317697e-09 -1.818513e-08 -1.353289e-08 1.025033e-08 -2.647134e-09 5.715415e-10
-7.635898e-09 5.267166e-09 8.472794e-10 3.060965e-09 2.952206e-10 -3.242701e-10
9.206371e-10 1.012658e-08 -2.840165e-08 9.714636e-09 -5.088835e-09 5.645097e-09
2.647167e-08 -1.438587e-08 -5.440617e-08 8.178043e-09 -2.679431e-08 8.219561e-09
2.458842e-09 1.322629e-08 -5.085878e-08 1.160115e-08 -2.050716e-08 1.605216e-08
-5.136797e-09 7.437304e-09 5.412026e-10 7.943039e-09 1.287237e-09 1.537445e-09
2.164775e-09 -9.436100e-09 -1.534572e-08 1.228644e-08 -4.635413e-09 2.907008e-09
-1.313149e-09 2.724919e-09 4.399028e-10 6.147743e-09 1.313085e-10 -3.049636e-10
1.251034e-08 -1.779184e-08 -2.649335e-08 -2.102836e-08 -1.586519e-08 -6.065905e-09
2.376655e-08 -2.657229e-08 -2.587041e-08 -1.145483e-08 -5.417994e-09 -1.470411e-09
1.366242e-08 4.614766e-08 -9.050847e-08 -1.606411e-08 -3.922823e-08 -8.999734e-09
-2.603052e-09 3.956489e-09 6.869287e-10 5.896106e-09 -4.839507e-10 -3.618341e-10
2.734965e-08 -1.646642e-08 -4.834832e-08 -7.792592e-09 -1.177622e-08 -3.549904e-10
-3.272470e-09 3.448050e-09 2.902834e-11 -5.949031e-09 -2.851758e-10 5.913154e-10
-5.912326e-09 5.565800e-09 -1.507223e-09 -6.650811e-09 -5.747234e-10 1.363931e-09
-8.800746e-09 4.847080e-09 -1.303279e-09 -3.621413e-09 -9.235934e-10 -3.967517e-10
2.195885e-08 3.002161e-09 -5.763722e-08 -1.571109e-08 -1.109413e-08 -9.647555e-10
2.014840e-08 -1.109545e-08 -4.481394e-08 -1.419564e-08 -1.026921e-08 -9.386622e-10
-1.203397e-09 1.808098e-08 -4.810991e-08 2.604284e-08 7.325010e-09 1.533649e-09
-6.175694e-09 4.702991e-09 -7.841380e-10 -5.623057e-09 -4.714787e-10 4.003193e-10
-4.058501e-08 4.114730e-08 3.062188e-08 -4.541881e-08 -2.511319e-08 -9.224178e-10
-3.577831e-08 6.750903e-08 -3.619995e-08 -9.951001e-09 6.546641e-09 -2.709504e-08
2.943189e-08 -3.473479e-08 -2.524676e-08 -5.050477e-09 6.476011e-09 -4.096920e-12
3.356605e-08 -3.480534e-08 -5.391769e-08 -2.918895e-09 2.901889e-08 -1.919767e-11
2.035228e-08 -4.299340e-08 -5.885693e-09 5.078115e-09 7.231263e-09 -3.001064e-10
2.131871e-08 -2.520861e-08 -3.033920e-08 -1.719053e-08 1.425426e-08 2.707262e-09
2.496549e-08 -3.965971e-08 -1.157015e-08 1.447886e-09 3.502828e-09 -6.316795e-10
3.146402e-08 2.301242e-08 -1.001088e-07 1.216696e-08 2.254640e-08 -5.213824e-09
1.194757e-08 -3.751109e-08 9.088734e-10 1.061926e-08 3.973667e-09 -6.228433e-10
2.183663e-09 -6.441411e-10 -2.770300e-10 4.560281e-09 4.625382e-10 5.834555e-11
1.238333e-09 6.290432e-10 6.454925e-11 6.345938e-09 2.095584e-10 9.756396e-11
1.653018e-08 -3.745889e-08 -4.347563e-09 1.431344e-08 4.611327e-09 -1.858269e-09
-5.852126e-09 -9.918376e-09 -9.852261e-10 -3.015416e-09 1.113077e-09 4.870531e-10
2.198292e-08 -5.067212e-08 1.821367e-09 -7.436535e-10 -2.320052e-09 8.858914e-12
2.335692e-08 -4.486797e-08 -3.860781e-09 -1.259875e-08 -2.338265e-08 -4.466782e-09
8.752558e-09 -5.049694e-09 -1.120829e-09 -2.233544e-10 -1.197686e-10 -2.539047e-11
5.197986e-09 -2.113747e-09 -6.964118e-10 4.499539e-09 -1.774110e-10 -2.088243e-10
1.036927e-08 -5.451081e-09 -1.344729e-09 -1.318968e-09 -2.607936e-10 2.808425e-10
-1.330018e-10 -2.690216e-08 1.285376e-07 -4.271357e-08 -8.203761e-09 3.215393e-08
5.380065e-08 -2.976332e-08 2.958303e-08 -3.598811e-09 6.484577e-10 1.188607e-08
9.182518e-09 -5.309271e-09 -1.344929e-09 -2.335686e-09 -2.611735e-10 3.247755e-10
-6.901273e-09 2.755182e-09 1.335183e-09 2.778440e-10 3.628420e-11 -3.589997e-10
-4.799921e-09 -5.846724e-09 3.269216e-09 -2.615820e-09 -2.475904e-10 1.291607e-10
-7.260082e-09 2.304406e-09 1.519697e-09 7.824650e-10 -5.912260e-11 -4.575919e-10
-7.336421e-09 2.032011e-09 1.881832e-09 2.798910e-10 3.592031e-10 2.109082e-10
-7.440759e-09 2.077460e-09 1.867163e-09 3.681984e-11 2.933406e-10 -5.747860e-10
-6.391971e-09 2.457325e-09 1.275245e-09 1.461969e-09 4.041469e-10 -3.286420e-10
-7.592487e-09 1.506979e-09 2.002432e-09 4.142565e-10 1.935763e-10 -8.834983e-11
4.314321e-09 4.828988e-10 1.351809e-09 9.430960e-09 -2.194886e-10 -9.242860e-10
-5.991568e-09 3.469172e-09 9.851155e-10 3.276221e-09 3.157968e-11 -1.881034e-10
-7.504395e-09 1.859377e-09 1.605672e-09 5.013812e-10 -3.352496e-11 -1.400961e-10
-7.509804e-09 2.947198e-09 1.452778e-09 2.703333e-10 3.323941e-11 -2.768144e-10
-6.609950e-09 2.419358e-09 1.257247e-09 4.982250e-10 2.392671e-10 -3.525253e-10
-1.032597e-08 1.251317e-08 1.286216e-09 8.198710e-09 1.128752e-09 1.003502e-09
-7.094894e-09 3.173083e-09 1.300692e-09 6.320164e-10 2.571865e-11 -1.221847e-10
-6.504564e-09 4.811975e-09 9.108856e-10 3.709998e-09 -5.191383e-10 -9.315543e-10
6.476727e-09 1.148230e-09 1.305475e-09 1.216631e-08 4.995739e-11 -3.656058e-10
-9.485328e-09 7.046752e-09 2.158527e-10 1.032202e-09 1.548679e-09 7.732450e-10
1.009592e-08 4.226115e-09 1.226257e-09 -2.062979e-08 9.572812e-10 -2.084736e-09
3.042163e-09 5.863103e-09 -1.600336e-09 -1.688211e-08 -5.124477e-10 1.165551e-09
3.018229e-09 2.053765e-09 7.630723e-10 -1.738960e-08 5.480704e-10 9.660779e-10
9.437294e-09 1.498314e-09 2.089687e-09 -1.704481e-08 4.648857e-10 -1.962587e-09
-3.993128e-09 1.673813e-08 -1.612912e-09 -2.300760e-08 3.698224e-10 7.781672e-09
-6.512949e-09 -1.791435e-08 6.953440e-09 2.588529e-09 -6.678868e-10 -1.100831e-11
1.751986e-08 -6.632312e-09 7.708324e-09 -1.547091e-08 3.411554e-10 -5.804489e-09
1.838815e-08 -9.818662e-09 2.256727e-08 -1.677728e-08 9.422065e-10 -8.996192e-09
1.026032e-08 -2.231841e-09 8.370780e-09 -2.419874e-08 8.895905e-09 -7.036401e-10
1.273654e-08 -5.248166e-09 8.647719e-09 -1.586983e-08 7.282977e-10 3.794736e-10
1.683568e-08 -1.188555e-08 9.684925e-09 -8.640298e-09 1.468532e-09 -4.298503e-09
-2.644793e-09 -2.022269e-08 6.946221e-09 6.243424e-10 1.878694e-10 2.058420e-10
4.951063e-08 -2.216717e-08 1.541255e-09 4.920234e-10 5.227285e-11 1.102471e-09
4.495819e-08 -1.540369e-08 -3.667509e-09 2.032142e-09 -2.624676e-10 5.118923e-10
1.321312e-09 -2.461128e-08 7.144378e-09 7.832868e-10 2.479723e-10 6.437213e-10
1.243546e-08 -3.635758e-08 6.889675e-09 3.856844e-10 1.977953e-11 -2.801251e-10
1.131960e-08 -3.611846e-08 7.099485e-09 5.485103e-10 4.343288e-10 2.500444e-11
3.734298e-08 -7.993907e-09 -6.008822e-09 2.503470e-09 -3.251042e-10 -1.658581e-09
4.927501e-08 -1.976554e-08 -2.328325e-09 9.321367e-10 2.061729e-11 3.843626e-20
-1.665926e-08 1.204318e-08 -2.799986e-09 2.652606e-09 3.506968e-09 -7.258172e-10
3.215621e-08 -2.796692e-08 -3.554418e-08 1.359216e-09 6.622025e-09 -5.040859e-11
2.889372e-08 -3.391289e-08 -2.358579e-08 9.363263e-09 1.275683e-08 -1.268938e-09
2.457158e-08 -2.510883e-08 -3.915683e-08 1.894024e-08 1.670526e-08 -2.192208e-09
-1.798296e-09 -1.090154e-08 4.191032e-09 1.423057e-10 1.149392e-10 -4.365988e-10
2.371204e-08 -2.800934e-08 -3.042068e-08 -1.571150e-08 -1.809418e-08 -4.285180e-09
2.734965e-08 -2.238581e-08 -3.987845e-08 -7.651119e-09 -6.958494e-09 -2.654485e-10
-3.954767e-09 -7.224038e-09 3.421041e-09 -1.017967e-09 4.008320e-10 -8.273934e-10
1.608274e-09 -1.954460e-08 3.689329e-09 -8.077950e-09 3.432117e-10 4.374484e-11
1.430898e-08 -3.875956e-08 5.105142e-09 -2.158422e-10 1.166585e-10 -1.528438e-11
1.143137e-08 -3.756828e-08 4.898819e-09 6.728205e-09 2.664962e-09 -5.658651e-10
1.269431e-08 -3.853568e-08 7.003967e-09 4.343008e-10 1.110240e-15 1.934453e-11
4.719004e-08 -1.660344e-08 1.164068e-09 6.810851e-09 5.553806e-10 7.114987e-10
-1.798296e-09 -1.107853e-08 4.477752e-09 -1.413292e-11 8.054513e-11 -9.283811e-10
-1.271180e-09 -1.307147e-08 4.610925e-09 -2.388040e-09 -4.741463e-10 -7.691096e-10
3.162112e-08 2.257728e-09 -8.444006e-09 9.946253e-09 -3.713364e-10 -9.719634e-10
1.148957e-08 -1.300517e-08 4.382301e-08 1.619554e-08 1.651694e-10 -8.243968e-09
-4.303359e-10 -2.248962e-08 6.238492e-09 3.740321e-09 1.054473e-09 -3.860516e-11
-8.158698e-09 -1.259985e-08 5.942814e-09 5.513579e-09 5.825426e-10 1.427819e-10
-5.366792e-09 -1.637570e-08 6.689939e-09 2.351380e-09 9.686707e-11 -1.206018e-10
-5.952930e-09 1.872282e-09 3.454026e-08 2.305287e-08 -1.452706e-09 -7.298144e-09
-6.905962e-09 1.937023e-09 1.510793e-09 3.411933e-10 2.117175e-10 -3.855039e-10
-7.092413e-09 1.920819e-09 1.679497e-09 -2.023824e-10 6.962386e-11 -5.028031e-10
-7.463373e-09 2.119368e-09 2.065457e-09 1.831887e-10 -1.906963e-11 -2.373121e-10
-1.974364e-08 2.064069e-08 9.927399e-09 2.020040e-08 -1.303449e-09 6.593965e-10
-3.611297e-09 -8.276239e-09 3.842197e-09 -7.472766e-10 -4.276767e-10 -8.233643e-10
-2.180904e-08 4.789354e-09 7.210067e-08 2.785888e-08 -2.077709e-08 -8.753539e-09
-7.974092e-09 -1.216903e-08 6.101389e-09 1.193556e-09 4.102145e-10 1.112415e-10
-2.371884e-09 -1.407486e-08 4.413935e-09 -5.611331e-09 -3.927747e-11 -5.948432e-10
-2.580669e-08 1.115566e-07 -1.212067e-07 -1.769342e-08 4.977221e-08 -4.304774e-09
1.035494e-09 6.619226e-08 -6.552474e-08 -2.562749e-08 -1.724436e-08 7.058939e-09
-3.086467e-10 -1.382431e-08 3.699096e-09 -2.057472e-09 1.068728e-09 -1.301404e-09
-4.414868e-09 -1.110973e-08 3.529316e-09 -5.708766e-09 -5.290136e-10 -8.911916e-10
-2.578239e-08 3.358614e-08 4.517747e-08 -3.973097e-08 1.991025e-08 -1.553114e-08
-2.769125e-09 -9.263561e-09 4.005000e-09 -1.580706e-09 -1.596952e-09 -1.357184e-09
-4.414868e-09 -1.148660e-08 3.786135e-09 -5.778499e-09 1.979073e-09 4.053244e-11
1.119373e-09 -1.618354e-08 5.203312e-09 -6.727241e-11 3.024137e-11 -8.165401e-10
-2.870244e-09 -1.041835e-08 4.153385e-09 -3.891716e-09 3.268351e-11 -1.014590e-09
-8.130565e-09 5.008591e-09 9.411580e-10 -3.299432e-10 -5.845990e-11 -3.830658e-10
-9.608754e-08 1.302051e-08 2.074618e-07 7.130839e-09 5.598640e-08 -2.369603e-08
-8.132502e-09 5.008587e-09 1.055052e-09 -3.347085e-10 -6.117062e-11 -2.835173e-10
-6.203396e-08 7.900436e-08 4.278959e-08 -1.055518e-08 1.543280e-08 5.982790e-09
4.048713e-09 -2.131181e-09 -5.967549e-10 8.460943e-11 1.222420e-10 -2.029088e-11
6.263068e-09 -4.085859e-09 -8.519251e-10 -5.965894e-12 3.275734e-10 2.108624e-11
6.263068e-09 -3.543883e-09 -8.004966e-10 1.606257e-10 1.362642e-10 -9.003465e-12
3.556515e-09 -1.331230e-09 -6.050140e-10 1.463083e-09 1.483826e-10 -2.563335e-10
-6.574820e-08 7.505171e-08 7.764237e-08 2.651375e-08 7.623279e-08 -1.511209e-08
-3.514383e-08 8.427924e-08 -1.910778e-08 -1.505675e-08 1.056109e-08 -2.411071e-09
-1.167903e-08 1.095695e-08 -1.336009e-09 -1.029089e-09 4.121348e-10 6.639377e-10
-1.200848e-08 3.956340e-09 1.888347e-10 -4.663051e-09 1.023137e-10 3.699796e-10
4.380511e-09 -2.438493e-09 -7.361829e-10 2.572263e-09 2.830092e-10 8.355365e-11
-9.574843e-09 4.320322e-09 1.157150e-09 -3.615862e-10 6.991529e-10 -5.278493e-10
1.630251e-09 -2.106694e-08 4.153431e-09 3.491000e-10 -9.062597e-10 -8.053851e-10
6.575448e-10 -2.259949e-08 9.327001e-10 8.018895e-09 -5.368649e-09 2.457507e-09
1.343127e-08 3.750826e-08 -9.483776e-08 -1.925650e-08 -3.273694e-08 -5.880160e-09
-1.592799e-08 6.716942e-08 -1.471132e-08 6.963898e-09 -1.466959e-09 -1.145558e-08
9.850645e-09 -3.009024e-08 -9.158307e-09 -1.330420e-08 -1.304245e-08 -1.955561e-09
5.135397e-09 -3.281382e-08 6.235843e-10 -1.590691e-08 -1.300578e-08 -3.657402e-09
-2.766235e-08 8.130364e-08 -4.624996e-08 1.847157e-08 -3.600278e-09 -1.678372e-08
-1.363229e-07 1.936075e-08 3.228914e-07 3.840291e-08 1.370109e-07 1.416456e-08
2.804066e-09 3.874973e-10 -7.670006e-10 -6.995111e-09 -2.968426e-10 -1.110167e-10
1.515837e-08 -4.147452e-08 2.485217e-09 2.894156e-09 8.588796e-10 -2.584484e-10
1.287396e-08 -3.972434e-08 8.555716e-10 8.726245e-09 2.650982e-09 -3.843119e-10
-9.241846e-08 -1.585457e-08 2.643448e-07 2.310853e-08 -1.025297e-08 -2.704813e-09
1.255825e-08 -3.624659e-08 5.501054e-09 5.241654e-09 4.096711e-10 -5.798490e-11
1.428308e-08 -4.020378e-08 4.196621e-09 5.337216e-09 1.828622e-09 -3.160299e-10
1.757825e-08 -4.160586e-08 4.654801e-10 1.084713e-09 4.095722e-09 -3.437761e-10
-2.412139e-08 1.123504e-07 -1.585354e-07 2.284233e-08 2.351483e-08 5.224419e-09
2.148745e-08 5.872844e-09 -4.149429e-09 -9.569244e-09 2.471847e-09 5.003354e-09
-1.274601e-08 5.350552e-08 -4.493287e-08 -2.134687e-08 1.351713e-08 -6.926203e-09
8.177018e-09 -3.386426e-08 3.345027e-09 9.253980e-09 5.192964e-10 -5.089196e-10
2.413420e-08 -5.692120e-08 2.809035e-09 -2.459446e-09 -1.146656e-08 4.518246e-10
2.302135e-08 4.145325e-09 -1.381148e-09 -1.846010e-08 -2.638426e-10 2.279245e-09
9.370678e-09 -2.604446e-08 -1.871001e-08 -1.583387e-08 -1.169988e-08 -3.981696e-09
-1.242350e-08 2.828937e-11 1.253064e-09 -7.198979e-09 -5.459156e-09 -6.774665e-10
-1.265282e-08 1.184252e-08 -1.310604e-08 -9.810541e-09 -1.360778e-08 -7.360480e-09
2.317901e-08 -4.507062e-08 -1.628888e-08 -1.287484e-08 -2.154493e-08 -2.879573e-09
2.619128e-08 -6.272302e-08 -5.428801e-10 4.626477e-09 -2.147368e-08 3.009169e-09
2.515358e-08 -4.206618e-08 -1.844296e-08 -8.272941e-09 -2.061139e-08 -9.579389e-10
2.312356e-08 -5.219005e-08 5.592177e-09 -1.693669e-09 -6.899582e-09 5.814833e-10
-2.474735e-09 1.692684e-09 3.082223e-10 7.253262e-10 4.127963e-10 -3.470557e-11
3.675042e-08 -1.120160e-08 8.816279e-09 -1.740291e-08 -7.736228e-10 2.764569e-09
-6.449341e-09 2.733653e-09 1.305782e-09 8.910614e-10 3.151152e-11 -1.898237e-10
3.512974e-08 -1.352376e-08 7.062789e-09 -1.890814e-08 -2.584248e-09 7.962625e-09
3.278294e-08 3.978617e-09 6.979322e-09 -2.781699e-08 -4.051651e-09 7.517489e-09
2.465121e-08 2.408290e-08 -1.471544e-08 2.944421e-08 3.293638e-09 -4.495176e-09
1.753037e-09 -3.039240e-10 -2.853064e-10 2.382609e-09 3.216575e-10 -1.415051e-11
2.983912e-09 -1.385910e-09 -5.414704e-10 8.875878e-11 -1.217455e-10 -4.441108e-16
1.624489e-09 -8.301526e-10 -2.907949e-10 3.696485e-10 5.713181e-10 4.108491e-12
2.582537e-08 1.932227e-09 -6.954227e-09 5.619376e-09 -2.681856e-09 1.156112e-09
-5.341408e-09 3.169541e-09 6.552352e-10 6.959885e-10 1.387199e-10 2.038233e-11
-3.626116e-09 1.298884e-08 -4.110077e-09 -9.020872e-10 -5.784065e-09 -3.835856e-09
-1.532782e-08 5.394948e-09 -1.153172e-09 -3.544402e-09 -4.225331e-10 -5.168841e-10
-1.481672e-08 9.826273e-09 -1.246139e-09 -2.346662e-09 -6.234280e-09 -9.327122e-10
-1.599652e-08 5.518855e-09 4.875100e-10 -1.763300e-09 -4.871539e-09 -4.122440e-10
-1.628491e-08 8.343269e-09 1.713494e-10 -4.786013e-09 -5.359516e-09 -1.812655e-09
-1.674555e-08 9.958129e-09 -8.710892e-10 -1.036171e-09 -4.061508e-09 -2.676637e-10
4.803362e-09 -2.275500e-08 5.572115e-09 -1.937429e-10 2.115740e-10 -1.167674e-09
7.445017e-09 -2.726402e-08 5.754534e-09 -5.315020e-10 5.183263e-10 -7.978914e-10
-1.525583e-08 4.480271e-09 -6.862408e-10 8.691040e-09 3.494662e-09 -1.489959e-09
-8.871526e-09 4.585532e-09 1.350163e-09 -5.344776e-10 -3.597433e-11 -3.034142e-10
-9.620193e-09 2.370017e-09 1.996827e-09 -6.943829e-10 -3.828959e-11 -1.019203e-10
-1.377004e-08 -5.564304e-09 -1.925631e-09 1.761341e-08 6.767461e-09 -2.402773e-09
1.506623e-08 1.225597e-09 -4.040032e-09 9.259615e-11 1.987129e-09 3.324856e-10
-4.004396e-09 -6.445573e-09 8.715317e-10 5.245513e-09 -2.337507e-09 1.321245e-09
3.742858e-08 -8.486562e-09 -6.377226e-09 -4.585757e-09 7.986281e-10 -1.656031e-09
1.004226e-08 -2.836654e-08 -4.500839e-09 -3.528413e-09 1.168856e-09 4.608771e-10
-1.742648e-08 1.082191e-08 -2.120723e-09 6.249165e-09 3.364388e-09 -1.592381e-09
-7.916673e-09 1.393379e-08 -5.229342e-09 1.654031e-09 7.809460e-10 2.583418e-18
-9.253593e-10 1.321400e-08 -5.811826e-09 -2.929328e-09 1.200147e-09 -2.665695e-09
-7.160069e-09 -3.044464e-09 2.895057e-09 9.106036e-10 -1.007119e-09 -9.966580e-10
-1.355844e-09 -1.819534e-08 2.379350e-09 2.091590e-10 -7.079044e-10 -1.628832e-10
-5.279907e-10 -1.614479e-08 3.229987e-10 2.059076e-09 1.204674e-09 -3.854729e-10
2.296737e-08 6.884547e-10 -4.107357e-09 -7.684935e-09 9.308536e-10 -1.333160e-09
-3.800489e-09 -1.283216e-08 2.422701e-09 -1.142817e-08 -7.145182e-10 -3.444609e-10
-2.181789e-09 1.225579e-08 -4.884780e-09 1.157695e-09 2.771554e-09 -6.008247e-10
4.401532e-09 -2.241517e-08 4.811192e-09 -5.427176e-09 6.261871e-11 -1.279132e-09
8.818837e-09 -1.335831e-08 -1.964297e-08 -2.236788e-08 8.476215e-09 3.002388e-09
2.790300e-08 -3.935668e-08 -2.214687e-08 4.083690e-09 9.313029e-09 -7.437808e-10
2.592848e-08 -1.750405e-08 -4.922813e-08 -1.446470e-08 6.190429e-09 1.518449e-09
3.429592e-08 -5.748791e-09 -7.579167e-08 -4.839354e-09 1.927543e-08 7.219472e-10
1.103900e-08 -4.776943e-09 -1.045709e-09 -8.133375e-09 -6.325208e-11 3.452193e-10
1.224485e-08 -5.733971e-09 -8.827241e-10 -5.265475e-09 1.000476e-10 -9.047336e-10
-5.804364e-09 2.955027e-09 1.151578e-09 2.129852e-09 3.312018e-10 3.923910e-10
-6.777371e-09 1.634005e-09 1.610064e-09 5.464882e-10 -1.155875e-10 1.497789e-10
3.408785e-08 -3.012802e-08 -4.448735e-08 -9.452181e-10 1.639617e-08 -2.802910e-09
-6.695502e-09 1.651352e-09 1.550897e-09 3.250497e-10 1.704293e-10 -4.559977e-10
-7.358405e-09 1.831324e-09 1.563030e-09 1.700113e-10 1.810674e-11 -1.508608e-10
9.150050e-10 -1.735552e-08 -3.300143e-09 2.005038e-08 3.893595e-09 -7.112947e-10
2.371204e-08 -6.793660e-09 -5.444264e-08 -1.584142e-08 -2.605253e-08 -4.344901e-09
1.880986e-08 -5.030091e-09 -5.376466e-08 -1.659893e-08 -2.759815e-08 -5.561731e-09
-2.362350e-10 -2.214059e-08 -1.831129e-09 2.240127e-08 4.284156e-09 -9.781288e-10
6.006416e-10 -2.470077e-08 -2.457536e-09 1.821358e-08 4.676453e-09 -8.819154e-10
-5.481336e-08 8.737468e-08 1.944170e-08 -4.421218e-08 2.477602e-08 -4.761046e-08
2.826242e-08 1.018650e-08 -7.640696e-08 -1.528359e-08 -3.316787e-08 -2.646314e-09
6.836689e-09 3.204665e-08 -6.873191e-08 -1.470043e-08 -1.586189e-08 -4.419787e-09
1.096890e-08 -6.052590e-09 -1.448027e-09 -5.275088e-10 -9.546269e-11 1.291268e-10
8.598121e-09 1.850058e-08 -5.897814e-08 -1.559198e-08 -2.493707e-08 -8.247173e-09
-1.794227e-09 4.355518e-09 -2.472807e-08 1.056083e-08 -2.811255e-09 4.877943e-09
1.015245e-08 -3.224505e-08 7.462226e-10 1.542876e-08 4.074745e-10 -1.090544e-09
-2.337380e-09 1.793870e-09 5.056324e-10 2.840078e-09 -6.593245e-11 3.138401e-11
2.758316e-09 -1.407691e-08 -6.749150e-09 1.372878e-08 -7.327385e-09 5.575221e-09
-4.433764e-09 2.099132e-09 9.716121e-10 2.164517e-09 1.386733e-10 -4.380762e-11
-6.215996e-09 7.785170e-09 -2.814738e-08 9.118633e-09 -7.054985e-09 5.183179e-09
3.603382e-09 -1.120618e-08 -1.843488e-08 1.224131e-08 -2.073709e-09 1.036412e-09
9.317697e-09 -1.520311e-08 -1.843489e-08 1.008347e-08 -1.687727e-09 7.384166e-10
3.603382e-09 2.686316e-09 -3.353200e-08 1.045639e-08 -6.668359e-09 3.869601e-09
4.717268e-10 -4.528037e-09 -2.890136e-08 1.666252e-08 -1.350502e-08 9.333166e-09
-5.717879e-09 2.476368e-09 1.111113e-09 2.079481e-09 -2.023928e-10 -4.360461e-10
1.458885e-08 1.096589e-08 -5.958723e-09 -1.189374e-08 1.151489e-09 -9.992631e-11
-6.494703e-09 4.114730e-08 2.984354e-08 -4.504270e-08 -2.512885e-08 7.713247e-09
-1.689859e-08 5.452006e-08 -5.280640e-09 -3.893290e-08 -1.149613e-08 -5.397665e-09
7.163807e-09 -2.958376e-09 -8.376912e-10 3.843478e-09 -1.340375e-10 -4.560720e-10
6.493130e-09 -3.238996e-09 -9.304593e-10 3.104993e-09 3.919443e-11 1.689562e-10
-2.582354e-08 4.317518e-08 7.531885e-08 -6.027517e-08 -6.469203e-08 2.014557e-08
-9.404597e-09 4.393930e-11 2.001083e-09 8.187939e-10 -4.869382e-10 -5.235761e-10
-7.995396e-09 8.224302e-09 -3.841440e-09 -7.803600e-09 -8.709935e-10 5.285055e-10
6.659662e-09 -2.691403e-08 5.317733e-09 -3.149332e-09 2.571063e-10 1.897839e-10
1.161733e-08 -3.246365e-08 4.715703e-09 -5.068254e-09 1.758598e-10 -3.868601e-10
1.209730e-09 4.374732e-09 -2.265464e-09 -1.256549e-08 -5.236386e-10 2.949164e-10
-2.207389e-08 6.195661e-08 3.972263e-08 3.629991e-08 -3.130868e-08 -1.724737e-09
-7.885327e-09 6.594788e-09 -1.893917e-09 -6.375227e-09 -1.292914e-09 5.268637e-10
-1.240130e-09 2.760187e-09 -1.070449e-09 -9.386526e-09 -2.693792e-10 -7.462135e-10
-9.456335e-10 -1.567341e-08 4.411953e-09 -5.095319e-09 -8.780131e-11 4.778187e-11
-3.721416e-09 5.855785e-09 -1.680741e-09 -9.073452e-09 -8.305012e-10 5.797742e-10
2.094942e-09 3.512749e-09 -1.390727e-09 -1.145186e-08 -6.174961e-10 6.943687e-10
-2.161022e-09 2.826581e-09 -9.275696e-10 -8.937846e-09 -1.653677e-10 2.382831e-10
-2.092602e-09 2.527721e-09 -5.772747e-10 -7.253827e-09 -3.950837e-10 -9.674217e-11
-6.878910e-09 1.538526e-09 1.547334e-09 8.502597e-11 3.168191e-10 -5.796038e-10
-7.134699e-09 2.973499e-09 1.182419e-09 9.510170e-10 2.473400e-10 -3.918260e-10
1.068890e-08 -5.880578e-09 -1.505171e-09 7.028319e-10 -3.389345e-11 2.905363e-10
1.700824e-08 -8.858660e-09 2.090226e-09 1.615356e-09 1.817975e-10 -8.156016e-10
1.797287e-08 -9.086654e-09 1.432201e-09 1.948423e-09 5.042044e-10 -1.055696e-09
-7.109586e-09 2.405169e-10 2.056485e-09 3.325406e-10 2.476355e-10 -6.014150e-10
1.240273e-08 -3.640656e-08 5.874400e-09 3.582665e-09 9.022439e-10 2.290436e-10
-1.456295e-07 -2.865971e-08 4.008170e-07 4.692918e-09 -1.162639e-07 6.241788e-09
-1.359899e-07 -8.159681e-08 3.427522e-07 1.722367e-10 5.220584e-09 -1.287543e-09
-1.182210e-07 -2.865971e-08 2.727379e-07 -1.881669e-08 -9.179212e-08 5.349821e-08
1.246672e-08 -3.916002e-08 4.368834e-09 4.857941e-09 1.580274e-10 3.682774e-10
-1.668946e-08 2.952639e-08 -2.134788e-08 -1.541495e-08 5.701765e-09 4.747778e-09
8.508215e-09 -3.338368e-08 4.813070e-09 8.342151e-09 -7.736285e-10 2.672427e-10
1.205770e-08 -3.484745e-08 3.816463e-10 1.381208e-08 7.279959e-10 -2.548386e-10
-2.171424e-08 4.406717e-08 -3.016493e-08 -1.206709e-08 5.913315e-09 9.473298e-09
-1.106963e-08 1.726770e-08 -4.669352e-08 -2.157297e-08 1.540517e-08 3.243491e-09
-2.063647e-08 4.269183e-08 -1.749983e-08 -1.734094e-08 -1.324235e-09 1.465836e-08
-2.097006e-08 2.403891e-08 -4.622047e-09 -1.190601e-09 -7.959545e-11 1.769106e-09
-2.519001e-08 4.399577e-08 -6.742988e-09 4.584574e-09 -5.030381e-09 1.108122e-08
4.278700e-09 -7.820606e-09 6.892410e-08 2.287876e-08 -7.430794e-09 -2.100892e-08
-1.343935e-08 1.396646e-08 -2.211696e-08 -2.239964e-08 7.326323e-09 8.005100e-09
-1.343935e-08 2.303355e-08 -2.274904e-08 -1.880155e-08 6.262460e-09 6.543344e-09
-2.159197e-08 4.897738e-08 -2.934781e-08 -1.124138e-08 3.442143e-09 8.973653e-09
-2.137236e-08 4.783299e-08 3.064694e-08 1.565681e-08 -7.137140e-09 4.380318e-09
-1.683797e-08 1.033763e-07 -6.078887e-08 3.499719e-08 -1.349227e-08 -1.207192e-08
-5.270426e-09 -5.575695e-09 3.524391e-09 -1.010541e-09 9.325875e-13 1.397797e-10
-5.278962e-09 -5.870882e-09 3.615164e-09 2.507359e-10 3.490925e-10 -2.513645e-10
-9.687863e-09 6.066610e-08 -5.692253e-08 2.984426e-08 2.439914e-08 9.567380e-09
-1.918804e-09 2.583180e-09 9.080390e-10 7.240879e-09 7.165561e-10 -3.053708e-10
-1.811649e-09 -1.582467e-08 3.649427e-09 -7.613305e-09 3.018847e-10 -2.892004e-10
1.026090e-09 -1.747130e-08 1.523127e-09 -1.178027e-08 5.038592e-10 -6.480514e-11
-5.519610e-09 4.861716e-09 8.861036e-10 4.813931e-09 6.571839e-10 -5.341781e-10
-5.372238e-09 -4.737271e-09 2.828723e-09 -7.503872e-10 1.097787e-09 -5.145104e-10
-9.154716e-09 7.801397e-09 1.321421e-09 6.502208e-09 -1.794784e-10 -5.916567e-10
1.274301e-09 -1.504911e-08 4.787286e-09 -3.636537e-09 8.358288e-10 -6.151914e-10
-2.332436e-10 1.839068e-09 3.192744e-10 6.199006e-09 -2.623331e-11 -1.679652e-10
-6.809894e-09 6.651701e-09 6.999672e-10 4.325474e-09 1.233343e-09 1.216186e-09
-4.211015e-09 -8.363354e-09 3.501253e-09 -5.013387e-09 1.428959e-10 -1.333694e-09
-6.544137e-09 4.243923e-09 6.219345e-10 3.946878e-09 -9.953749e-10 -6.521479e-10
-2.642287e-09 4.693621e-09 9.265442e-10 7.051067e-09 -1.772689e-10 -7.413503e-10
-3.180819e-10 -1.374181e-08 4.604038e-09 -3.833149e-09 4.152208e-10 -1.310416e-09
-5.650583e-09 -7.802258e-09 3.081435e-09 -5.083681e-09 4.956637e-10 -7.817291e-10
-5.827227e-09 5.011026e-09 2.304529e-09 7.981078e-09 -1.236741e-09 -1.078547e-09
-2.219365e-09 -1.224644e-08 4.157466e-09 -5.516376e-09 -3.072620e-10 -1.202130e-09
-3.756409e-10 1.089566e-09 -3.565077e-10 -5.421094e-09 -4.883940e-10 1.805140e-10
-2.961131e-09 2.196543e-09 -1.073871e-10 -4.007420e-09 -2.952480e-10 1.220976e-10
1.149143e-09 1.807605e-10 -7.161578e-10 -4.105971e-09 -1.304625e-11 -6.633565e-10
-8.120695e-10 1.354258e-09 -3.375842e-10 -3.084540e-09 -2.513301e-10 2.522702e-10
1.327671e-09 1.807603e-10 -4.726290e-10 -3.904587e-09 7.111911e-11 -1.060403e-10
-1.108537e-08 2.716543e-08 -3.095253e-08 1.817633e-08 3.627871e-09 -2.862876e-09
-1.511830e-08 4.953733e-08 -3.320429e-08 2.399506e-09 2.736449e-09 -3.103802e-09
-1.376113e-08 1.759288e-08 -2.743688e-08 2.506390e-08 1.154926e-08 -9.105377e-09
-1.999996e-08 3.288994e-08 -3.320429e-08 1.141462e-08 2.716153e-09 -3.092721e-09
-1.904192e-08 2.142325e-08 -1.803685e-08 1.723153e-08 8.065606e-09 -9.681069e-09
-6.520694e-09 5.005164e-09 -2.159307e-08 2.459608e-08 2.720603e-09 -2.177165e-09
-1.290341e-08 1.834695e-08 -3.095253e-08 2.223698e-08 2.530652e-09 -2.441706e-09
8.024041e-09 -4.595148e-09 -1.290781e-09 -3.028174e-09 -1.822913e-10 8.250756e-11
-9.134715e-09 1.431768e-09 -1.439350e-08 2.334438e-08 7.201961e-09 -2.141049e-09
-5.939943e-09 1.431768e-09 -1.994864e-08 2.682079e-08 9.599985e-09 -5.065820e-09
1.654358e-08 -3.528170e-09 -5.259070e-08 3.146983e-08 2.347006e-08 -1.498145e-08
7.512850e-09 -3.909335e-09 -1.118607e-09 -3.287888e-09 -5.261598e-10 2.248851e-10
-5.856608e-09 -1.086799e-08 -1.551954e-09 1.729547e-08 -6.697908e-11 6.247865e-10
1.296498e-08 -3.807408e-08 6.103523e-09 -6.634316e-10 -6.439360e-11 -2.781086e-11
1.570985e-08 -3.801518e-08 -6.395543e-09 1.028259e-08 1.949462e-09 5.285293e-10
1.765385e-08 -3.993845e-08 2.703993e-09 7.086652e-10 1.658624e-09 9.546081e-11
7.271238e-09 -2.489255e-09 -1.109591e-09 -8.146772e-09 -2.394057e-11 -1.671088e-10
1.609693e-08 -4.184315e-08 9.110650e-10 2.890279e-10 3.085532e-11 4.739962e-10
1.661695e-08 -4.075630e-08 2.635380e-09 -6.133946e-10 6.189836e-10 -4.110150e-10
1.913878e-08 -4.495359e-08 -5.891152e-09 2.868422e-09 5.887891e-09 -7.332133e-10
4.598155e-09 -1.205748e-09 -1.042422e-09 -7.501625e-09 -6.631676e-10 5.571672e-10
1.875913e-08 -3.993425e-08 8.656986e-11 2.775300e-09 5.038689e-10 2.572627e-10
1.288155e-08 -3.771705e-08 7.031522e-09 -6.655652e-11 1.399764e-10 -7.018841e-11
9.668471e-09 -5.620779e-09 -1.335502e-09 2.734691e-10 2.784584e-11 8.975532e-11
-3.359634e-09 2.677904e-09 1.236433e-10 -9.549618e-10 -3.319736e-10 -7.274092e-11
-3.357929e-09 2.181752e-09 4.407608e-11 -2.852990e-09 -2.937754e-10 -1.030598e-11
-2.211671e-09 1.930438e-09 5.631318e-11 -1.003091e-10 -7.613998e-11 -1.022960e-12
-5.409403e-09 3.014523e-09 8.322116e-10 1.151104e-09 8.448360e-11 6.040913e-11
7.033275e-09 -3.439166e-09 -9.088441e-10 2.265351e-09 1.485459e-10 2.796701e-10
-9.597008e-10 8.486740e-10 3.745049e-11 4.739138e-10 4.410916e-11 -2.548870e-10
-8.906511e-10 8.967094e-10 4.248091e-11 8.077605e-10 1.474800e-10 4.980349e-10
6.846985e-10 -1.115481e-10 -1.874745e-10 7.786527e-11 -1.022726e-10 -4.441051e-16
8.911522e-09 -5.074013e-09 -1.234322e-09 9.554801e-11 -7.362411e-11 -4.441033e-16
2.264260e-08 -5.107829e-08 -1.192408e-10 5.426242e-10 -9.001980e-09 6.901038e-10
2.430821e-08 -4.177110e-08 -1.461392e-08 1.417897e-09 -4.311398e-09 -2.503498e-10
2.413431e-08 -6.945380e-08 4.566922e-09 -2.602372e-09 -1.798587e-08 4.721764e-10
2.356535e-08 -5.430141e-08 4.857775e-09 1.300372e-09 -9.072800e-09 1.490914e-09
2.003138e-08 -8.133753e-10 -1.747118e-09 1.862716e-08 4.904372e-10 -2.306147e-09
-1.246455e-08 -6.909998e-09 4.566199e-09 2.729240e-09 4.592344e-10 -2.902880e-10
4.244985e-08 -8.553511e-09 -9.873075e-09 5.301224e-09 1.404980e-10 -6.606669e-10
1.223618e-08 1.097356e-08 -3.930809e-09 1.227973e-08 1.522419e-09 6.257269e-10
-1.704694e-08 7.119686e-09 1.113237e-09 1.442635e-09 3.236884e-09 -9.551826e-11
-8.167400e-09 1.863298e-08 -1.118594e-08 2.090057e-09 -7.535981e-09 -9.307938e-09
-1.294685e-08 -4.739126e-09 4.492214e-09 2.535186e-09 2.077209e-09 -1.752468e-10
1.799996e-08 3.551052e-09 -8.021345e-09 8.777130e-10 -1.711865e-09 4.969846e-11
4.782073e-08 2.463122e-09 -4.739409e-09 2.235580e-08 -5.416752e-10 1.154493e-08
-1.333860e-08 -4.682516e-09 3.325512e-09 2.342672e-09 2.446177e-11 2.488307e-10
-1.499487e-08 -1.106284e-09 1.829969e-09 3.112454e-09 1.335938e-09 -1.514022e-10
-1.509507e-08 1.621992e-08 -4.329034e-09 -9.905367e-09 -1.124401e-08 -8.140737e-09
-1.003635e-08 -1.214391e-08 3.941485e-09 1.264392e-08 1.487382e-09 -1.001435e-09
-1.536677e-08 -3.083542e-10 1.855723e-09 2.938794e-09 9.595668e-10 -4.621203e-10
-6.907138e-09 -1.512237e-08 6.895887e-09 5.540359e-10 4.965393e-10 9.519674e-11
-1.241149e-08 1.624389e-08 -8.045734e-09 1.194323e-09 -2.467949e-09 -4.909593e-10
-1.150048e-08 1.567233e-08 -1.169385e-08 -5.381955e-09 -6.432680e-09 -3.516195e-09
-1.366323e-08 -6.358663e-09 3.234840e-09 8.960327e-09 2.760792e-09 -1.256966e-09
-1.179058e-08 -8.522244e-09 3.769664e-09 8.441677e-09 1.814989e-09 -7.081404e-10
-1.026252e-08 -3.084173e-09 1.368056e-09 1.303537e-08 3.091194e-09 -7.186012e-10
-1.459345e-08 -1.106284e-09 1.829970e-09 7.998277e-09 -3.333166e-10 -2.199734e-10
1.272189e-08 -3.821916e-08 7.196458e-09 1.533440e-10 1.905254e-10 -2.611462e-10
6.571749e-09 -2.561861e-08 5.537402e-09 -2.522062e-09 -4.965869e-11 -1.260652e-09
-1.506662e-08 9.096945e-09 -2.733814e-09 -6.699164e-09 -9.481211e-09 -3.437136e-09
1.265458e-08 -3.646831e-08 6.709000e-09 -4.767520e-10 -1.865039e-10 -4.949649e-10
1.609693e-08 -3.906222e-08 3.748879e-09 -1.174355e-10 1.549909e-10 1.064051e-10
-7.439213e-09 1.520739e-09 1.954768e-09 2.402887e-10 6.688561e-11 -2.634448e-10
1.609634e-08 -4.003709e-08 -1.169607e-09 -3.776400e-09 9.618462e-10 2.305616e-10
1.597127e-08 -3.812589e-08 2.623799e-09 -4.283964e-09 1.140270e-09 4.135575e-10
1.084073e-08 -3.350035e-08 1.748552e-09 -7.737941e-09 5.995009e-10 2.425058e-10
1.259986e-08 -3.700198e-08 6.924868e-09 1.924247e-10 2.475471e-10 -2.459929e-10
-1.253362e-08 4.412693e-09 -2.160436e-09 -6.421310e-09 -1.870885e-09 -4.800450e-10
-1.305895e-08 1.060288e-09 -4.595582e-09 -9.115675e-09 -6.202147e-09 -2.479151e-09
-8.037709e-11 -1.741382e-08 -4.679538e-09 -1.527455e-08 -8.282160e-09 -3.476529e-09
1.251910e-08 -3.755225e-08 6.871242e-09 8.516071e-10 2.870041e-10 -2.014724e-10
1.266425e-08 -3.586377e-08 6.733286e-09 -1.497906e-10 -1.151810e-10 -3.945589e-10
-1.426784e-08 -2.378187e-10 1.520267e-09 -2.202087e-10 8.195016e-20 -1.860738e-10
-1.618024e-08 4.435158e-09 6.373018e-10 -2.411509e-09 -1.044024e-09 -2.845897e-10
5.489186e-08 -3.383386e-08 4.528225e-08 6.087538e-09 2.410913e-09 3.118227e-08
-1.581128e-08 5.249502e-09 1.592356e-09 -3.419516e-09 -2.723210e-09 -2.864573e-10
-1.144631e-08 -4.181344e-09 7.508558e-10 -1.262040e-09 6.728627e-10 -7.532952e-11
1.252748e-08 -3.687621e-08 7.067059e-09 3.148775e-10 3.079219e-10 -6.115441e-11
2.120146e-08 5.178108e-10 -8.460281e-09 5.684304e-09 -1.764702e-10 -4.840911e-10
1.090063e-08 -3.537659e-08 7.265173e-09 5.680496e-10 3.126809e-10 1.248934e-10
-4.079101e-09 2.649256e-08 -1.826249e-08 8.989794e-09 -2.094754e-09 -4.282695e-09
4.033421e-08 -7.886014e-09 1.813759e-09 1.515748e-08 -1.896782e-09 6.892585e-09
3.143807e-09 -2.128111e-08 4.996276e-09 -2.234293e-10 -3.779643e-12 -1.469486e-09
2.100692e-09 -1.845826e-08 5.001329e-09 -1.130655e-09 -5.124570e-10 -9.811092e-10
7.534083e-09 -2.984673e-08 5.836968e-09 -2.962501e-09 6.617959e-11 -4.105363e-10
-1.746218e-09 -1.370663e-08 4.403027e-09 -7.059296e-09 -9.854644e-10 -2.316662e-10
-2.792779e-09 -1.398265e-08 3.286609e-09 -6.413998e-09 7.430205e-10 -8.991414e-10
-1.811649e-09 -1.121072e-08 2.900926e-09 -7.418427e-09 -4.708622e-10 -6.879610e-10
1.090407e-09 -1.844321e-08 4.057650e-09 -7.202817e-09 1.274959e-09 7.032728e-11
1.431616e-09 8.383707e-09 -4.965327e-09 2.098638e-09 5.133840e-09 -1.542488e-09
-5.347200e-09 -1.854087e-08 5.539494e-09 7.742267e-09 1.954753e-10 -1.037992e-10
1.210738e-08 -3.718080e-09 3.623256e-09 1.108299e-08 -6.378522e-11 -3.746776e-10
6.793862e-09 2.462465e-09 2.587978e-09 1.532821e-08 -6.584293e-10 -4.176472e-10
-4.625156e-09 3.925958e-09 1.001047e-08 1.331747e-08 -6.112930e-10 -3.556976e-09
4.515373e-10 3.912352e-09 5.870837e-09 1.397275e-08 -2.742217e-11 -3.995259e-09
1.116950e-08 -1.939815e-08 -1.940854e-08 2.653167e-08 8.860453e-09 -3.422155e-09
-3.785852e-09 -1.865791e-08 6.167486e-09 6.046097e-09 5.081562e-10 1.502000e-10
-1.780486e-08 1.222459e-08 -1.463255e-08 2.150225e-08 7.338349e-09 -5.946085e-09
2.452719e-08 -2.409830e-08 -3.943272e-08 1.830607e-08 9.253173e-09 -2.458517e-09
2.788814e-08 -2.536853e-08 -3.281801e-08 1.332311e-08 5.937717e-09 -1.083754e-09
-1.168314e-08 3.250444e-08 -1.461968e-08 -2.681493e-09 2.051900e-09 -4.172561e-09
-7.942492e-09 3.366171e-09 8.638374e-10 -1.936737e-09 -2.101470e-10 1.425122e-10
-8.107817e-09 4.245001e-09 8.297394e-10 -2.088911e-09 -3.956622e-10 2.328884e-10
3.216532e-08 -1.609119e-08 -6.063019e-08 2.146085e-09 1.126100e-08 7.996366e-10
-6.862859e-09 3.853540e-09 6.572169e-10 -3.317651e-09 -3.800957e-10 -6.744982e-10
-7.071579e-09 3.966365e-09 7.826495e-10 -2.932491e-09 -7.510970e-11 -9.760410e-11
2.069024e-08 -2.452238e-08 -3.762241e-08 2.071127e-08 4.793814e-09 9.815064e-10
4.591742e-09 -5.379212e-09 -2.268343e-08 2.378658e-08 8.889201e-09 -3.460692e-09
-8.799591e-09 3.029382e-09 1.177430e-09 -1.205710e-09 -1.614655e-10 1.691198e-10
-7.486490e-09 3.930392e-09 9.452630e-10 -2.349243e-09 -1.762612e-10 -1.732880e-10
-8.625191e-09 4.108903e-09 9.269514e-10 -2.493142e-09 -1.729562e-10 -2.063043e-10
4.651351e-08 -1.268889e-08 1.657513e-09 -1.838772e-08 -4.556162e-09 1.489883e-08
2.142798e-08 -3.667206e-08 -1.662750e-08 1.302724e-08 -6.514000e-11 -2.319535e-10
-4.309983e-09 3.598340e-09 -5.820233e-12 -4.568585e-09 -9.573012e-12 3.054321e-10
1.153699e-08 -1.267193e-08 -2.753305e-08 1.388381e-08 -1.650295e-08 7.777291e-09
1.107546e-08 -1.004847e-08 -2.860519e-08 1.199023e-08 -2.394869e-09 8.819585e-10
1.387430e-08 -1.194607e-08 -4.411623e-08 1.529107e-08 -2.144937e-08 1.115790e-08
1.498775e-08 -3.488136e-08 -9.082660e-09 1.568418e-08 5.372366e-09 -7.485623e-10
2.470191e-08 -3.336603e-08 -2.290371e-08 6.414838e-09 -8.793996e-09 2.154927e-09
8.362803e-09 -2.038892e-08 -1.583341e-08 2.622288e-08 7.932943e-09 -2.643843e-09
1.017411e-08 -4.557775e-09 -9.122996e-10 3.553195e-09 1.053944e-10 8.830715e-12
-7.551533e-09 -1.541760e-09 2.436368e-09 -2.688860e-09 1.160376e-10 1.509366e-10
1.006470e-08 -5.574683e-09 -1.111531e-09 3.052462e-09 1.705809e-10 -2.506750e-11
1.003046e-08 -3.748793e-09 -5.014064e-10 6.389776e-09 -6.395739e-11 -8.510822e-10
1.142954e-08 -5.438125e-09 -7.737082e-10 3.431966e-09 5.984564e-12 7.250538e-10
-7.077619e-09 6.428706e-10 2.080654e-09 -2.675349e-10 5.668921e-11 -5.561036e-10
1.436484e-08 2.117741e-09 9.634929e-09 -3.024261e-08 1.503009e-09 2.110164e-09
1.305547e-08 -3.551788e-08 2.714078e-09 -6.982563e-09 1.061077e-09 1.367239e-10
1.196115e-08 -2.983639e-08 -3.808973e-09 -1.402171e-08 -7.983707e-10 1.952596e-11
3.489789e-08 3.801836e-08 -1.488608e-07 1.436326e-08 7.299942e-08 -1.228033e-08
3.613973e-08 -2.666648e-08 -5.777841e-08 3.926736e-09 3.137175e-08 -1.842728e-09
-9.167831e-10 2.033409e-08 3.280516e-10 -2.296518e-08 -2.333034e-09 6.627483e-10
-6.785443e-10 -8.619424e-09 4.089447e-08 1.547706e-08 -1.353579e-09 -4.961303e-09
2.402779e-09 -1.083055e-08 6.363520e-08 -1.117494e-09 1.087325e-09 -1.523691e-08
3.378863e-09 -1.810334e-08 8.256938e-08 1.119513e-08 -2.996028e-09 -2.984576e-08
2.871875e-08 1.216479e-08 -9.180664e-09 -1.855822e-08 1.367837e-09 1.166161e-09
2.177373e-09 6.289477e-10 -5.714096e-11 6.518067e-09 3.646749e-10 4.527289e-10
2.040519e-08 -1.600337e-08 7.080837e-08 -1.418104e-08 4.066540e-09 -1.671283e-08
6.476626e-09 -2.610024e-09 -4.359029e-10 6.279951e-09 4.397860e-10 2.821738e-10
4.839475e-09 5.004426e-10 6.387442e-10 9.626797e-09 -3.346652e-10 -6.478444e-10
8.464341e-09 -2.887460e-09 -2.864677e-10 7.498572e-09 3.417791e-10 3.235091e-10
-1.438494e-09 7.130580e-09 4.132681e-08 2.314487e-08 -8.863718e-09 -1.233733e-08
-1.007160e-07 7.346575e-08 3.510984e-08 2.122724e-08 -1.082152e-07 5.233874e-08
1.677185e-08 -5.951969e-08 2.306100e-07 -9.879072e-09 -6.580459e-09 1.096163e-07
-6.692717e-08 -4.356909e-08 2.420653e-07 -3.748607e-08 -1.708221e-10 1.962617e-08
-5.950501e-09 1.355230e-08 2.210474e-07 6.532440e-08 9.675677e-08 8.241900e-08
-2.969617e-08 1.355230e-08 2.277331e-07 7.895325e-08 8.384975e-08 9.013325e-08
-1.523526e-08 1.170995e-07 -6.210321e-08 2.384506e-08 -1.819178e-08 -3.582665e-09
-1.802199e-09 -1.062782e-09 7.634732e-08 4.061276e-08 2.765295e-09 5.463209e-09
5.704279e-09 3.340936e-10 3.733760e-10 9.801542e-09 3.700531e-10 1.795619e-11
5.583074e-09 -1.249604e-09 1.289062e-09 8.539109e-09 -3.252615e-10 -1.959002e-09
-6.266729e-10 3.154970e-09 9.052754e-10 7.936419e-09 2.343737e-10 -1.782488e-10
-5.048543e-09 1.081365e-08 1.815873e-09 1.032519e-08 -5.844363e-10 -1.085333e-09
-8.118111e-09 8.475897e-09 1.549005e-09 7.354956e-09 6.613985e-10 6.559764e-10
5.385348e-09 -1.128466e-09 3.899041e-09 1.020678e-08 5.028350e-10 2.807811e-10
9.741044e-10 1.434320e-09 4.295043e-09 1.121768e-08 -7.364409e-10 -1.926005e-09
-1.637920e-09 7.988852e-09 2.304530e-09 1.221961e-08 -1.445065e-09 -1.538989e-09
-3.769391e-09 9.684126e-09 5.496325e-09 1.642839e-08 -3.068987e-09 -2.062545e-09
-4.202194e-10 5.406522e-09 1.281347e-09 9.990917e-09 -3.426690e-10 -4.559315e-10
-1.581988e-08 1.283424e-08 1.469133e-09 5.807320e-09 -2.094713e-10 -1.486927e-10
-1.048176e-08 8.950474e-09 4.301249e-09 8.585601e-09 -4.487305e-09 -3.485143e-09
-1.557834e-08 1.124303e-08 -5.275687e-10 -2.222058e-09 -5.211521e-09 -7.191949e-10
4.194006e-09 3.340936e-10 8.572782e-10 9.666648e-09 2.527386e-10 -3.605680e-10
2.493298e-09 5.585271e-10 -8.717302e-10 -8.394880e-09 -5.859442e-10 4.544183e-10
-1.947300e-09 2.513785e-09 -9.145347e-10 -7.326379e-09 -3.046023e-10 1.257500e-11
-1.315617e-09 3.918862e-09 -2.214454e-09 -1.130067e-08 -5.544292e-10 1.517988e-10
8.043853e-09 -4.669236e-09 -1.035342e-09 8.939284e-10 2.931747e-10 1.377133e-10
-3.108975e-09 -9.969666e-09 4.174607e-09 1.502629e-10 2.692224e-11 -4.588433e-10
-9.898944e-10 1.962361e-09 -1.118030e-10 -5.712532e-09 -2.583884e-10 5.316290e-10
-4.749889e-10 1.089566e-09 -6.045742e-10 -5.286524e-09 -6.040180e-10 3.675519e-10
4.009962e-09 -2.074328e-08 5.554804e-09 -2.695514e-09 -2.721269e-10 -6.064605e-10
-4.284383e-09 -5.683148e-09 3.511815e-09 2.563829e-10 8.166157e-11 -3.230776e-10
2.245487e-09 -2.406874e-10 -8.199521e-10 -5.844758e-09 -5.981881e-11 -6.818910e-10
-6.922561e-09 -2.902463e-09 2.957293e-09 -1.415072e-09 -3.969636e-10 -4.253048e-10
-6.533106e-09 -5.809910e-09 3.366925e-09 -4.021381e-09 1.676150e-10 -6.818337e-10
1.970269e-09 -2.703316e-08 2.539158e-10 1.432400e-08 -1.057601e-08 3.912620e-09
-7.154907e-09 3.669420e-11 2.451982e-09 -3.756937e-10 -1.835971e-10 2.939427e-11
-6.376610e-09 -3.762644e-09 2.993852e-09 -2.567646e-09 9.705866e-10 -6.584199e-10
-8.110212e-08 4.040731e-08 9.723242e-08 -1.459270e-08 3.672822e-10 -1.967195e-09
-7.598414e-09 2.672314e-09 1.501419e-09 -1.851883e-10 -1.243150e-11 -5.510192e-11
-5.443195e-09 3.172144e-09 7.299468e-10 9.002364e-10 2.140514e-10 -1.187456e-10
3.304678e-09 5.350984e-08 -7.894462e-08 -2.102144e-08 -2.906236e-08 -1.002468e-08
-7.341599e-09 3.901741e-09 1.050027e-09 6.335465e-11 1.066969e-11 -5.044987e-11
-7.420226e-09 3.750451e-09 1.156849e-09 1.797895e-10 2.703704e-11 -3.180478e-11
-3.196443e-08 9.270205e-08 1.027229e-08 -3.122790e-08 3.722353e-08 -3.561713e-08
-7.315278e-09 4.033478e-09 1.002451e-09 5.084200e-11 2.227685e-11 -1.932521e-11
8.308974e-09 -2.261709e-08 -1.239526e-08 2.563970e-08 8.707180e-09 -3.046416e-09
2.285686e-09 -1.347899e-08 -1.634319e-08 2.602183e-08 8.877169e-09 -1.905999e-09
-4.734854e-09 -3.057658e-09 -1.734591e-08 2.708531e-08 9.207397e-09 -6.836846e-09
3.025514e-09 -1.295406e-09 -6.656009e-10 2.019637e-09 1.263776e-10 5.912906e-10
2.030847e-09 4.778832e-09 -4.046300e-08 2.842858e-08 5.566468e-09 -3.566701e-09
-6.859183e-09 -1.003074e-09 2.337823e-09 -9.424037e-10 -1.703383e-10 -8.786805e-10
5.824076e-09 -1.518841e-08 -2.301033e-08 2.659756e-08 4.839357e-09 -2.096107e-09
-7.155455e-09 3.579908e-09 1.027271e-09 4.216327e-10 7.673563e-11 -1.931681e-10
-6.949811e-09 -1.203620e-09 2.276577e-09 -8.451391e-10 6.514356e-11 -6.847053e-10
-6.630970e-09 -1.823592e-09 2.361193e-09 -1.719173e-09 2.027042e-10 -9.567366e-10
6.835059e-09 -2.573131e-08 2.845611e-09 -8.691978e-09 5.420212e-10 1.081673e-10
-5.759722e-09 -3.117631e-09 2.931690e-09 2.394320e-10 8.842438e-11 -4.017036e-10
1.798628e-08 -4.138103e-08 -5.329975e-09 -3.265859e-09 1.715383e-10 4.662453e-10
-6.537833e-09 -2.855394e-09 2.918163e-09 -1.875820e-09 -8.886264e-11 -7.180557e-10
-7.091961e-09 8.548957e-10 1.869015e-09 -2.727559e-10 4.845195e-10 -4.331115e-10
-6.701330e-09 -1.161311e-09 2.428475e-09 -1.805698e-10 2.823008e-10 -6.691413e-10
-2.183530e-09 -1.036601e-08 3.998871e-09 -3.670715e-09 9.384165e-10 -1.301190e-09
2.022950e-08 -4.154729e-08 -5.745964e-09 -2.370150e-09 6.626487e-09 2.237725e-10
-1.187440e-08 -5.276583e-09 2.577516e-09 -4.080897e-10 -7.089018e-10 2.960184e-10
-9.926735e-09 -3.628781e-09 -2.226588e-09 -6.012207e-09 -3.425663e-09 -1.257007e-09
-2.424953e-09 -1.408902e-08 4.050293e-09 -5.648069e-09 8.419525e-10 1.744335e-10
8.679823e-09 -4.911141e-09 -1.191100e-09 2.631920e-10 1.047440e-11 9.563639e-11
1.930690e-08 -4.618060e-08 1.677701e-09 8.414727e-10 -9.926300e-10 1.230133e-09
7.488469e-09 -4.069983e-09 -1.080910e-09 1.303413e-10 -9.934276e-11 -2.589693e-20
2.105131e-08 -5.019072e-08 -1.464273e-09 1.212878e-08 -1.829018e-08 5.186635e-09
1.851934e-08 -4.835438e-08 4.822302e-09 5.355552e-10 -2.221121e-09 1.164900e-10
7.634160e-11 2.723146e-10 -8.097745e-12 1.592542e-09 3.119547e-10 3.309120e-10
-8.270424e-09 -1.550709e-08 6.005548e-09 7.418053e-09 8.460475e-10 -9.378521e-11
1.369177e-09 -1.540270e-10 -2.321472e-10 7.428054e-10 2.024203e-10 4.921132e-10
4.097028e-09 -2.276948e-09 -6.422480e-10 2.686021e-09 9.402523e-11 1.321421e-10
5.190355e-09 -2.658770e-09 -6.649712e-10 2.205294e-09 3.181403e-10 5.490545e-10
-1.134102e-08 -5.559609e-09 4.465697e-09 1.970685e-09 3.793687e-10 5.200506e-11
5.528607e-09 -2.858062e-09 -8.454246e-10 1.564719e-09 -1.085680e-11 -4.790399e-10
7.752494e-09 -4.166751e-09 -1.030018e-09 1.236813e-10 3.591499e-11 8.605783e-12
8.082965e-09 -4.019079e-09 -1.059743e-09 1.328879e-09 2.108033e-10 -2.680922e-10
-8.100741e-09 -1.236454e-08 5.886406e-09 5.471993e-09 1.837727e-09 1.966965e-10
-1.030390e-08 -8.927664e-09 5.310906e-09 1.736516e-09 8.321258e-10 4.882594e-11
-1.562941e-08 1.556089e-09 3.606540e-09 -2.345786e-10 -5.147267e-10 -2.568457e-11
-3.592715e-09 -1.617365e-08 3.495087e-09 -8.645022e-10 -1.080572e-09 2.363553e-11
-1.246345e-08 -5.748213e-09 4.812513e-09 2.651316e-09 2.115212e-09 -5.793983e-10
4.657689e-09 -2.760732e-09 -8.012786e-10 1.058473e-10 2.927552e-10 -2.692646e-11
1.137059e-08 6.282120e-09 -7.472050e-09 8.654123e-09 -3.560231e-09 -4.185004e-09
1.726084e-09 -1.180469e-09 -2.988283e-10 8.384131e-10 1.348217e-10 3.752826e-11
1.163869e-08 1.974473e-08 -1.112199e-08 2.116344e-08 -4.012493e-10 -4.938032e-10
5.453223e-08 -2.360222e-08 8.149579e-09 -2.885566e-09 1.053935e-09 6.406801e-09
-8.922841e-09 1.967736e-08 -5.499968e-09 1.936414e-09 -4.938795e-09 -8.914623e-09
3.094286e-09 1.194082e-08 -1.043909e-08 5.386954e-09 -2.055166e-09 -2.577092e-09
-2.757254e-09 -1.576090e-08 1.973488e-09 1.203088e-08 -5.976973e-09 3.004743e-09
-4.461072e-09 -1.186991e-08 3.117449e-09 6.963701e-09 -3.498620e-09 3.548514e-10
1.734936e-08 -3.106512e-08 -1.245963e-08 1.160316e-08 -8.152298e-09 3.479799e-09
2.063817e-09 -4.630802e-10 -3.039410e-10 2.223058e-09 2.603465e-10 -1.240450e-10
-6.883930e-09 -1.119627e-08 -1.241811e-09 8.474775e-09 -5.207526e-09 2.508042e-09
1.093585e-09 -1.778450e-08 2.868903e-09 2.235303e-10 -5.905170e-10 3.984389e-10
2.910522e-09 -1.329640e-09 -4.852014e-10 1.585435e-09 2.810154e-10 -5.433696e-10
1.319461e-09 -3.995417e-10 -2.560236e-10 5.803444e-10 3.928791e-11 -2.865037e-10
-1.613579e-09 1.170417e-09 4.935230e-11 9.191314e-12 3.599774e-10 -2.691991e-11
7.203935e-10 2.977085e-11 -5.391376e-11 9.422763e-10 -3.824752e-11 -7.456558e-11
-2.499989e-09 1.742288e-09 2.705285e-10 7.763705e-10 -1.114122e-10 5.678347e-11
3.742723e-09 -7.523591e-10 -5.340393e-10 3.631285e-09 1.985526e-10 1.007981e-10
-4.538697e-09 2.897433e-09 6.312462e-10 2.274865e-10 2.012901e-10 -5.081890e-11
2.340836e-08 -4.553238e-08 -5.376424e-09 7.578630e-10 -2.279838e-09 3.609246e-11
2.707007e-08 -4.667786e-08 -1.617185e-08 4.719857e-09 -2.048763e-08 3.275762e-09
-4.809935e-09 3.821626e-09 3.159730e-10 -7.036220e-10 1.019589e-10 1.262410e-10
-4.796020e-09 3.671381e-09 4.413754e-10 -1.209725e-10 -2.972386e-11 -3.943779e-11
-4.744976e-09 4.019858e-09 4.031775e-10 -7.384138e-11 -1.565483e-10 -2.682876e-11
-4.018425e-09 3.299514e-09 3.312104e-10 -6.281353e-10 -2.324165e-10 -5.842554e-11
6.415904e-09 -3.443325e-09 -9.712133e-10 9.411446e-10 -1.529303e-10 2.609468e-11
-6.369063e-09 3.735410e-09 8.213608e-10 -3.376704e-11 3.627054e-11 -2.868927e-11
2.426095e-08 -6.113804e-08 -1.781572e-09 1.156419e-08 -2.105781e-08 4.786949e-09
2.822855e-08 -5.021006e-08 -1.729977e-08 -3.621246e-09 -2.218084e-08 1.000207e-09
2.428954e-08 -5.665669e-08 4.537938e-09 3.188902e-09 -1.119154e-08 1.305513e-09
2.167857e-08 -5.147463e-08 -4.988983e-09 5.477924e-09 -1.149711e-08 3.190801e-09
2.215835e-08 -5.192204e-08 1.560950e-09 -6.479274e-13 -1.849049e-09 6.605523e-10
1.144432e-08 -3.089933e-09 1.028930e-09 -1.437352e-08 -1.359040e-10 1.062750e-09
-6.394473e-09 3.657080e-09 8.388463e-10 1.902460e-10 1.520295e-11 1.332605e-10
-6.369062e-09 3.608339e-09 7.627947e-10 -3.075940e-11 1.289446e-10 -3.168332e-11
-6.869889e-09 3.908221e-09 8.747887e-10 6.305933e-11 5.932987e-11 1.264333e-11
-2.276624e-09 1.799261e-09 3.618701e-10 1.576543e-09 3.224675e-10 -5.836931e-11
-3.430647e-09 -1.728099e-08 6.519926e-09 2.581428e-09 3.464663e-10 4.571845e-10
-4.243610e-09 2.608061e-09 4.733556e-10 3.662048e-11 1.658311e-10 -2.698419e-11
-5.272021e-09 3.095803e-09 6.261005e-10 2.861409e-10 6.693446e-11 1.452281e-10
-3.764623e-09 2.396813e-09 4.593361e-10 1.998730e-10 9.541012e-11 1.030809e-10
6.331906e-09 -3.309301e-09 -9.957901e-10 -2.239819e-10 -1.723430e-10 2.329115e-11
6.479212e-09 -3.463516e-09 -1.040370e-09 -1.067358e-09 2.068625e-10 -7.543410e-11
1.476188e-10 -2.361015e-08 7.430113e-09 9.127494e-10 3.983171e-10 7.535661e-11
-4.810126e-09 -1.595972e-08 6.329488e-09 1.268231e-09 -2.818645e-10 9.712520e-11
2.918487e-09 -1.867021e-08 5.114437e-09 -2.486899e-09 4.624539e-10 -1.242193e-09
-1.048786e-09 -1.319474e-08 4.455302e-09 -8.451740e-10 -4.626756e-10 -1.015278e-09
-9.117115e-09 1.858298e-09 2.005014e-09 5.834655e-11 -4.210685e-10 -6.564992e-10
-1.282606e-09 -1.411521e-08 4.678207e-09 -2.509695e-09 -1.266911e-10 -7.193269e-10
-9.516563e-09 1.308992e-09 2.053193e-09 -6.519958e-10 4.099281e-20 -3.143641e-11
-1.295377e-08 -6.028183e-09 1.829969e-09 8.165304e-09 -1.930007e-09 7.573870e-10
-9.260455e-09 1.215810e-09 1.930299e-09 5.601939e-10 -1.113558e-10 -2.279403e-10
-9.478195e-09 2.696116e-09 1.847461e-09 -2.506149e-10 -2.326213e-10 -1.030165e-10
-1.626272e-08 1.001227e-08 -9.605983e-11 -1.240961e-09 -5.474355e-09 -2.976852e-10
-2.714642e-09 -8.046753e-09 -7.065784e-09 -1.282752e-08 -3.342178e-09 -9.897763e-11
-1.028595e-08 -9.072318e-09 3.046029e-09 1.178013e-08 1.503688e-09 -3.418913e-10
-1.665926e-08 1.118085e-08 -1.942016e-09 2.657162e-09 3.058125e-09 -7.183198e-10
1.916089e-09 -2.666688e-08 2.661916e-09 -3.971757e-09 -7.893729e-10 -1.679922e-09
-1.354176e-08 -3.817396e-09 3.742290e-09 2.154987e-09 1.292263e-09 -1.635012e-10
-1.360384e-08 -7.770041e-09 4.874921e-09 4.316125e-09 7.601686e-10 6.343768e-11
-6.567596e-09 2.496039e-08 -2.437302e-08 -8.760014e-09 -4.311469e-09 3.833695e-09
3.453739e-08 5.717494e-10 -9.218173e-08 2.475715e-08 3.193552e-08 -8.074278e-09
-6.717480e-09 1.953169e-08 -1.369698e-08 -1.535775e-08 -3.687376e-10 1.340450e-09
6.319175e-08 -2.862369e-08 4.180829e-08 -3.263841e-09 2.312899e-09 2.592776e-08
1.396571e-08 -3.390304e-08 -4.688082e-09 -2.793854e-09 -1.687019e-09 -7.809764e-10
1.944161e-08 -4.713800e-08 3.817790e-09 2.293409e-09 -2.483986e-09 1.627720e-09
2.743247e-08 -3.582526e-08 -2.637396e-08 -2.202436e-09 -8.575288e-09 2.074609e-09
-5.381729e-09 3.262491e-09 6.605809e-10 4.794849e-11 2.321307e-10 -1.321387e-11
-5.003181e-09 -9.951898e-09 1.213367e-07 -4.882849e-08 -2.348731e-08 4.106509e-08
2.342437e-08 -4.262050e-08 -1.519670e-08 4.517312e-10 -3.470897e-09 4.742748e-10
2.430821e-08 -4.180513e-08 -8.031782e-09 1.318586e-09 -1.307640e-09 -3.584937e-10
2.211005e-08 -5.889262e-08 3.435385e-09 -1.993514e-10 -1.033805e-08 6.772630e-10
-4.002820e-09 1.858768e-08 3.654804e-08 -4.263627e-08 2.332901e-09 -1.434863e-09
4.199714e-08 -1.926740e-08 2.798385e-08 -2.247971e-08 -2.057900e-11 4.242508e-09
-6.015240e-09 -3.881762e-09 2.614683e-09 -4.460973e-09 -3.128025e-10 -6.031098e-10
-7.859537e-09 -4.236291e-10 2.226531e-09 -2.303943e-09 3.168812e-10 1.142445e-10
-7.875150e-09 6.188188e-10 1.897987e-09 -1.446610e-09 1.789847e-10 -4.843415e-10
-3.243107e-08 4.106714e-08 -2.481451e-08 -1.343308e-09 8.337275e-09 -1.984429e-08
-2.277998e-08 3.395325e-08 -2.205605e-08 4.518854e-09 2.565505e-09 -5.204039e-09
-8.382669e-09 -1.088243e-09 2.057896e-09 -3.796274e-09 9.185119e-11 2.110969e-10
-4.414868e-09 -5.921568e-09 3.059379e-09 -4.691184e-09 5.682925e-10 -6.808787e-10
-6.874230e-09 -6.216857e-09 2.485828e-09 -8.140886e-09 7.171410e-10 2.417857e-10
-7.551533e-09 -6.949472e-10 2.264396e-09 -2.173836e-09 -8.842482e-11 -2.367231e-10
-1.404737e-08 3.820535e-08 -4.065495e-09 -2.126732e-08 -2.574510e-09 -1.911926e-09
-1.569498e-08 1.076351e-08 -2.021598e-09 5.393603e-09 3.795337e-09 -2.118528e-09
-6.965922e-09 -4.453025e-09 2.997258e-09 -5.444998e-09 -5.170206e-10 -5.176275e-10
1.682711e-09 -1.961986e-10 -6.712479e-10 -4.208895e-09 -3.565459e-10 2.733838e-10
7.345733e-10 1.605216e-09 -5.101048e-10 -6.936365e-09 -1.202594e-12 2.203038e-11
-2.944383e-10 6.140457e-10 -3.905385e-10 -1.259184e-10 -3.973952e-10 -1.254508e-11
-1.192364e-09 1.523930e-09 -5.101057e-10 -5.201704e-09 1.666956e-11 -7.306582e-10
5.699039e-09 -1.669603e-09 -1.048775e-09 -6.771693e-09 -2.473900e-10 -5.221428e-10
-7.857415e-09 -2.490301e-09 2.476042e-09 -4.891030e-09 2.339227e-10 1.466730e-11
-8.473955e-09 4.618614e-09 2.363003e-10 -3.722971e-09 -4.144165e-10 -1.744200e-10
2.515358e-08 -3.541958e-08 -3.568511e-08 -8.942893e-09 -2.045937e-08 -1.752615e-09
1.355509e-08 8.149801e-09 -4.825324e-08 8.201297e-09 -4.799818e-09 1.234562e-09
2.343729e-09 -6.441407e-10 -2.941962e-10 4.680435e-09 3.841163e-10 1.926193e-11
9.544705e-09 -4.083684e-09 -1.055033e-09 -5.747269e-09 9.136048e-11 -6.083030e-10
5.020448e-09 2.828244e-08 -6.122820e-08 2.569084e-08 1.106624e-08 -5.702202e-09
7.182202e-09 4.134127e-08 -9.301393e-08 2.145725e-08 1.285637e-08 -7.940580e-09
4.027108e-09 -1.656268e-09 -5.883791e-10 3.343359e-09 -1.040186e-10 -2.050378e-10
1.017492e-08 -4.563310e-09 -1.015677e-09 3.551613e-09 1.683492e-11 -5.721024e-11
-9.024364e-09 3.693975e-09 1.335856e-09 -1.151370e-09 -1.432650e-10 -4.026801e-10
1.128092e-08 -4.040322e-09 2.916182e-09 1.093920e-08 -3.565215e-10 -1.594087e-09
1.722028e-08 -8.810325e-09 3.469292e-09 6.456951e-09 -3.262731e-10 -1.783349e-09
-9.266120e-09 3.904985e-09 1.567765e-09 -1.182280e-09 4.862422e-11 2.078702e-10
-8.855496e-09 4.484377e-09 1.383715e-09 -3.368248e-10 -6.434497e-11 -5.280432e-10
1.229830e-08 -4.521189e-09 1.178533e-09 7.547768e-09 -9.334268e-11 -2.065446e-09
-8.571740e-09 4.351588e-09 1.210881e-09 -2.097306e-09 4.024336e-12 7.058267e-11
1.251819e-08 -3.718080e-09 2.393019e-09 1.118655e-08 3.308754e-11 -8.401415e-10
8.057099e-09 -1.642337e-09 3.500007e-09 1.184260e-08 -1.297135e-09 -2.750937e-09
3.716530e-08 -1.352376e-08 1.591233e-08 -2.070148e-08 -1.358643e-09 6.652909e-10
-5.827691e-09 -2.636625e-09 2.893813e-09 -1.185307e-09 5.820853e-10 -9.176769e-10
2.250411e-08 -3.483273e-09 4.005870e-08 -3.626643e-08 -2.758157e-09 1.095745e-09
3.843873e-08 -1.088665e-08 5.191906e-08 -4.456141e-08 -9.677420e-09 1.343065e-08
-1.313048e-09 -1.645390e-08 4.583772e-09 -2.804846e-09 -1.062630e-09 -7.937779e-10
3.262553e-09 -1.462138e-09 -4.374294e-10 9.754338e-10 3.292820e-10 -1.188566e-10
-4.894835e-09 -5.300422e-09 2.861055e-09 -2.952662e-09 6.196642e-10 -7.926892e-10
1.306817e-08 1.883660e-08 2.047210e-08 -3.720870e-08 -4.154199e-09 6.085802e-09
-5.672613e-09 -6.320702e-09 3.189256e-09 -4.684822e-09 -7.977485e-11 -6.584023e-10
-3.113581e-09 1.978179e-09 3.533431e-10 1.605143e-10 1.256994e-11 -8.342216e-12
4.360357e-10 4.097567e-10 -1.059091e-10 2.604737e-09 -4.357625e-12 3.896039e-11
-6.001599e-11 2.908340e-11 -1.263736e-10 -2.305089e-11 1.083698e-10 -1.585976e-11
8.650266e-09 -3.463247e-08 7.300645e-09 1.083791e-09 -4.648557e-19 -2.144582e-10
-6.506747e-09 3.734250e-09 8.561609e-10 -5.624523e-11 5.271383e-11 -1.532641e-11
-6.848635e-09 3.864711e-09 9.200010e-10 -3.043876e-11 -3.895995e-11 2.371785e-21
-6.751499e-09 3.843381e-09 9.386776e-10 1.529918e-10 5.459433e-11 -8.944134e-11
-6.571504e-09 3.794123e-09 8.374905e-10 -5.444423e-12 5.582068e-11 -4.874057e-11
-7.113407e-09 3.904626e-09 1.057980e-09 5.477219e-11 -1.848299e-11 4.287193e-11
1.370627e-08 -3.899801e-08 5.455949e-09 2.782014e-09 2.318825e-10 1.223384e-10
-6.137480e-09 3.424437e-09 8.176779e-10 4.866822e-10 8.744205e-11 1.291234e-11
4.907903e-09 -2.932312e-08 5.526402e-09 7.843101e-09 -6.250769e-10 2.868514e-10
7.283833e-09 -3.101152e-08 1.778742e-09 1.151148e-08 1.086373e-09 4.416247e-10
1.554421e-08 -3.946061e-08 -1.897935e-09 -9.660081e-10 -1.890441e-09 -3.533543e-10
1.376108e-08 -3.835310e-08 -1.058447e-09 -2.897450e-09 -4.099470e-10 -5.123195e-10
1.554421e-08 -3.682398e-08 -4.333374e-09 -1.022767e-09 -6.548189e-10 -2.543143e-11
1.996031e-08 -4.132368e-08 -6.109293e-09 -2.517918e-09 -1.768799e-09 -1.031906e-09
2.122409e-08 -3.937077e-08 -8.276385e-09 -3.949069e-09 -1.204290e-09 -1.265104e-10
2.481015e-08 4.026066e-08 -9.122926e-08 -1.341539e-08 -3.660283e-08 -3.735598e-09
1.340683e-08 5.787105e-08 -7.982338e-08 -1.434309e-08 -2.803144e-08 -8.072284e-09
-4.284635e-09 -1.691518e-08 3.605376e-09 1.301931e-08 9.762782e-10 1.965397e-10
-1.306523e-09 1.201032e-09 1.175979e-10 6.255507e-10 2.202452e-10 -1.220295e-10
-7.176712e-09 1.134949e-09 1.830435e-09 -4.246984e-10 -1.730147e-10 -3.259947e-10
-7.249076e-09 1.554319e-09 2.085000e-09 3.112022e-10 2.559535e-10 1.966995e-10
-6.564641e-09 2.583712e-09 1.376903e-09 1.367505e-09 1.584687e-10 -1.954964e-10
2.480155e-08 1.283029e-08 -7.630716e-08 -1.400891e-08 -3.380489e-08 -3.421186e-09
-4.604974e-09 6.444533e-08 -8.448114e-08 -7.274113e-09 -1.735733e-08 -5.747978e-09
-7.743329e-09 6.347687e-10 1.881832e-09 -1.105847e-09 -5.265188e-11 1.451461e-10
-3.783285e-09 2.238957e-09 7.709620e-10 3.143841e-09 2.635918e-10 1.704494e-10
-4.909374e-09 2.418630e-09 8.012639e-10 2.062608e-09 3.374556e-10 -2.961288e-10
1.925199e-08 7.146577e-08 -6.018661e-08 -1.592146e-08 -4.311006e-09 6.682805e-09
1.634874e-09 -6.745321e-10 -3.589409e-10 -2.993600e-11 -6.117945e-11 3.461009e-12
-4.415664e-09 2.459139e-09 7.455574e-10 1.861365e-09 1.037847e-10 1.234390e-11
3.081037e-09 -1.834417e-08 -4.254582e-09 1.001912e-08 -3.924678e-09 2.576856e-09
1.962679e-08 4.797808e-08 -9.418275e-08 -1.136738e-08 -3.377515e-08 1.605889e-09
-4.900997e-09 -8.981163e-09 6.784013e-10 3.466011e-09 -1.311001e-09 4.746627e-10
9.147217e-09 -3.280860e-08 2.206668e-09 1.022338e-08 -7.517920e-09 2.350476e-09
-3.206941e-09 6.433255e-08 -6.975397e-08 -6.847658e-09 -6.836783e-09 -6.427800e-09
-8.326381e-09 -1.214391e-08 6.939618e-10 1.492020e-08 1.186065e-09 -1.524912e-09
-5.404031e-09 -1.701307e-08 3.543743e-11 1.613598e-08 1.188491e-10 -3.743075e-10
1.736171e-08 -2.712001e-08 -1.924887e-08 8.993084e-09 -5.403383e-09 1.145501e-09
1.107546e-08 -1.775933e-08 -2.480192e-08 1.197566e-08 -3.134026e-09 8.702400e-10
3.012084e-08 -3.325619e-08 -3.585518e-08 -5.569306e-09 -1.982247e-08 -4.354696e-10
1.313760e-08 2.264905e-08 -7.243043e-09 3.216603e-08 -5.015557e-10 -1.353220e-10
2.570169e-08 -3.403365e-09 6.058337e-08 4.487022e-08 1.704330e-08 2.451848e-08
-1.560414e-09 2.546996e-08 6.567567e-09 3.500472e-08 4.880788e-09 -3.323189e-09
5.096712e-09 -1.882683e-08 -1.247348e-08 2.302322e-08 4.160133e-09 -8.886070e-10
-1.003802e-08 6.073432e-08 -3.721927e-08 1.325919e-08 -1.566737e-09 -6.308304e-09
3.524406e-10 -1.365294e-08 -1.262763e-08 2.513137e-08 3.890816e-09 -1.969034e-09
-5.767482e-09 3.276582e-09 -2.159307e-08 2.439104e-08 2.579165e-09 -2.288797e-09
1.629129e-08 -4.431946e-08 1.455108e-07 2.001493e-08 9.278114e-09 7.146870e-08
2.886710e-09 1.824209e-08 2.288511e-08 3.873696e-08 1.023251e-09 4.157109e-09
-2.761371e-10 -2.129509e-08 1.129748e-09 1.661393e-08 1.062324e-09 1.801452e-10
-6.538119e-09 -1.135264e-08 -3.052715e-09 1.961376e-08 4.741799e-09 -2.444891e-09
1.107683e-08 -3.490093e-09 2.600109e-10 -1.032858e-08 -4.088195e-10 4.545134e-10
7.389952e-09 -2.226274e-08 -8.849028e-09 -1.974679e-08 1.658931e-09 1.135131e-09
3.164638e-09 -1.177554e-09 -6.096181e-10 -3.987190e-09 -3.211321e-10 -3.598781e-10
1.043398e-08 6.577750e-08 -6.661654e-08 -1.787616e-08 -1.492176e-08 2.226693e-09
5.056355e-09 -2.202503e-09 -8.076162e-10 -3.796357e-09 -6.224024e-10 3.611328e-11
-6.864853e-08 1.015379e-07 9.228447e-08 -4.205618e-08 6.151659e-08 -2.418003e-08
-3.863988e-09 7.828825e-08 1.665976e-08 -3.408955e-08 3.227225e-08 -3.758306e-09
2.160412e-09 -6.060024e-10 -5.929151e-10 -2.845009e-09 -1.840372e-10 1.447109e-10
1.674881e-09 2.168798e-10 -5.357284e-10 -1.258355e-09 -1.760505e-10 4.888223e-11
8.889677e-09 -5.184834e-09 -1.198710e-09 -2.075419e-10 -1.653125e-10 -1.344789e-10
2.259454e-09 2.864495e-09 1.608696e-09 1.007857e-08 -4.733820e-10 -1.742156e-09
6.844333e-08 -1.453239e-08 -5.443079e-09 -3.284243e-09 3.167434e-10 1.644975e-08
-7.786025e-10 2.710495e-09 3.903011e-10 6.518879e-09 4.391259e-10 3.458301e-10
5.949307e-08 -2.128769e-08 -3.234782e-09 8.990725e-09 5.859185e-09 1.587695e-08
4.137442e-08 -1.170770e-08 -7.214283e-09 3.388327e-10 -3.437315e-10 1.555559e-09
4.974626e-08 -2.000486e-08 -2.097621e-09 -3.141678e-10 -1.669679e-10 1.049119e-19
4.309333e-08 -2.399507e-08 4.949872e-08 -2.330007e-08 -7.418440e-09 2.436781e-08
3.056392e-08 1.027188e-10 -5.963737e-09 -7.684376e-09 2.070091e-09 -1.133960e-09
-4.135364e-09 -2.027240e-08 6.562391e-09 7.051494e-09 6.580709e-10 2.701519e-10
-1.264546e-08 -3.395912e-09 3.661817e-09 7.187500e-09 1.465389e-09 -4.043766e-10
5.748656e-08 -1.542098e-08 -1.276828e-08 4.467564e-09 2.552526e-09 5.130028e-09
-5.593288e-09 -1.888179e-08 6.283972e-09 9.903397e-09 1.259556e-09 1.102447e-10
-8.303701e-09 -1.092172e-08 5.493180e-09 8.110425e-09 1.321804e-09 3.369032e-10
-6.274831e-09 -1.718529e-08 5.675341e-09 1.056105e-08 1.817571e-09 -1.619676e-10
-1.027278e-08 -1.371273e-08 5.240682e-09 7.766514e-09 1.315031e-09 -4.936824e-10
-1.758760e-09 -1.246780e-08 4.517745e-09 -1.758832e-10 -4.441680e-16 2.238889e-10
2.012140e-08 -4.930902e-08 4.904863e-09 9.613182e-10 -1.736607e-09 6.676027e-10
2.053160e-08 -4.157381e-08 -6.416318e-09 2.734577e-09 -1.196774e-09 1.103718e-10
2.461220e-08 -4.246212e-08 -1.174360e-08 -1.448301e-09 -2.245564e-09 2.505134e-09
-7.066397e-09 -1.349377e-09 2.491475e-09 -7.316501e-10 -1.522726e-11 -1.742294e-10
2.387960e-08 -4.033989e-08 -1.065311e-08 3.254168e-09 -5.290335e-09 8.792834e-10
-5.518283e-09 -1.712589e-08 6.513968e-09 2.190260e-09 4.573528e-10 4.972432e-10
-6.734436e-09 -1.245955e-09 2.393591e-09 -3.853144e-10 -1.993405e-10 -4.276637e-10
-5.243416e-09 -5.852836e-09 3.380150e-09 -3.593865e-09 -3.509234e-10 -1.204175e-09
-4.617317e-09 -9.100103e-09 3.863393e-09 -4.021236e-09 -7.887490e-11 -4.046045e-10
-8.066249e-09 -1.350361e-08 6.423618e-09 7.592566e-10 5.128167e-10 1.722089e-11
-7.524045e-09 3.507744e-09 1.263292e-09 2.549027e-11 2.277017e-11 -2.829630e-10
-7.449348e-09 3.968004e-09 1.038342e-09 9.205347e-11 1.860123e-11 -1.011748e-10
-8.186973e-09 -1.380938e-08 6.612641e-09 9.519434e-10 4.360239e-10 7.763168e-11
-6.305338e-09 -1.533502e-08 6.612292e-09 3.828413e-10 2.497067e-10 -5.704837e-11
-6.906853e-09 1.951809e-09 1.507128e-09 3.470871e-10 3.011720e-10 -3.918628e-10
-6.867763e-09 -1.117353e-09 2.520212e-09 -1.791130e-10 6.176548e-11 -6.220988e-10
-5.686200e-09 -3.457124e-09 2.839856e-09 8.788081e-12 1.487780e-10 -7.079766e-10
-4.757594e-09 -7.240615e-09 3.414443e-09 -3.265603e-09 -1.260476e-10 -7.039699e-10
-5.457903e-09 -1.415985e-08 6.129272e-09 2.674742e-09 -1.511409e-10 4.956144e-10
-5.375956e-09 -1.727409e-08 7.050929e-09 6.723262e-10 -2.159952e-10 2.810527e-10
-6.134224e-09 -1.569136e-08 6.818507e-09 4.012435e-10 1.133954e-10 1.608329e-10
-6.418031e-09 -1.417649e-08 6.428103e-09 5.530190e-10 1.744390e-10 9.324574e-11
1.809580e-08 -4.480139e-08 8.950147e-10 -2.114881e-09 -2.955731e-09 6.393624e-10
-5.202535e-09 -1.685263e-08 6.787409e-09 4.335323e-10 3.022003e-10 7.232170e-11
-6.134222e-09 -1.550716e-08 6.829214e-09 4.639746e-10 2.059672e-10 1.646983e-10
-5.071553e-09 -5.683152e-09 3.191468e-09 4.921974e-11 -1.698974e-11 -8.468584e-10
-5.005500e-09 -5.438351e-09 3.202331e-09 -1.189648e-09 5.218209e-11 -1.026712e-09
-2.939351e-09 -1.090154e-08 3.875478e-09 -8.338308e-11 4.179412e-11 -1.108316e-09
-3.086241e-10 -1.457657e-08 4.479444e-09 -1.951877e-09 1.948354e-10 -1.229045e-09
-3.632009e-10 -1.584711e-08 4.698943e-09 -4.496387e-09 5.034351e-11 -8.686734e-10
-3.926999e-09 -7.281304e-09 3.632887e-09 -9.992408e-10 9.633516e-11 -4.787097e-10
-2.769315e-09 -9.599765e-09 3.996201e-09 -1.790770e-09 1.286669e-10 -1.188270e-09
-1.600462e-08 1.383497e-09 6.054526e-10 3.631484e-09 1.016818e-09 -1.391831e-10
-9.742591e-09 -1.014134e-08 5.748874e-09 1.858444e-09 8.313692e-10 -4.522971e-10
2.936647e-09 2.345900e-08 -1.174511e-08 1.346748e-08 -9.175748e-09 -1.227813e-08
-1.555409e-08 1.330241e-09 1.381439e-09 3.265845e-09 3.741629e-10 4.744403e-10
-1.024050e-08 -5.848371e-09 3.807552e-09 6.226257e-09 8.628410e-11 4.419525e-10
-1.373574e-08 -2.929855e-09 3.226670e-09 2.457698e-09 4.157683e-10 2.043666e-18
-1.764582e-08 5.761391e-09 8.185976e-10 2.355292e-09 2.410740e-09 -6.409286e-10
2.801180e-09 -2.789809e-08 1.119851e-09 1.518243e-08 -1.042803e-08 4.990451e-09
1.897735e-08 -3.765654e-08 -5.573153e-09 6.264902e-09 -4.687530e-09 1.560832e-09
-1.710393e-08 5.761391e-09 -3.400111e-10 3.433428e-09 9.122610e-10 -6.007061e-10
2.106690e-08 -5.050376e-08 4.446463e-09 4.202638e-10 -2.521022e-09 5.719813e-10
2.430479e-08 -6.211129e-08 -2.531894e-09 1.061483e-08 -2.191286e-08 3.981962e-09
8.768956e-09 -5.021246e-09 -1.100680e-09 1.401632e-09 1.310392e-10 4.882444e-10
-1.654582e-08 1.739268e-09 1.095005e-09 7.614423e-09 2.883890e-09 -1.132593e-09
4.397956e-09 -1.557956e-09 -7.081666e-10 2.421035e-09 6.847278e-11 1.060161e-10
-1.696189e-08 8.335164e-09 -1.399299e-09 3.217338e-09 8.498955e-10 1.162237e-10
8.709846e-09 -5.144822e-09 -1.044470e-09 7.791057e-11 2.056684e-10 3.746276e-11
1.065506e-08 -5.838868e-09 -1.213969e-09 6.225958e-10 1.211678e-10 4.223792e-10
-4.175407e-10 5.822489e-10 -1.904255e-11 8.975067e-10 -8.459011e-11 3.279288e-11
-1.130675e-08 1.308599e-08 -3.368639e-09 -1.965054e-09 -5.092712e-09 -1.167505e-09
-5.333631e-09 1.300401e-08 -8.093869e-09 -3.480978e-09 1.578219e-09 -1.410770e-09
1.202916e-08 4.920819e-09 -4.494807e-09 -1.866021e-09 3.294402e-09 -2.293817e-09
-7.463811e-09 1.330455e-08 -5.637762e-09 7.073253e-10 -5.366988e-09 1.609064e-09
1.392971e-08 3.024076e-09 -6.238042e-09 1.870273e-10 -4.026477e-09 2.805583e-10
1.545174e-08 1.372962e-08 -1.068603e-08 1.343095e-08 -3.752867e-09 -4.985429e-09
4.108257e-09 -1.848367e-09 -7.302667e-10 -2.068674e-10 -8.273715e-11 4.202527e-11
6.639132e-09 -3.988438e-09 -1.035601e-09 -1.599970e-10 -1.253674e-10 1.080558e-11
1.490233e-08 4.451860e-09 -4.643111e-09 -5.458849e-09 7.751195e-10 -3.468895e-09
-1.466170e-08 1.476253e-08 -4.778523e-09 4.025490e-10 1.640962e-09 -2.480804e-10
-1.913038e-09 1.355788e-08 -6.472167e-09 -3.739636e-09 1.309386e-09 -1.504102e-09
4.090602e-09 8.921478e-09 -5.485887e-09 4.905936e-10 3.296585e-10 3.234567e-19
1.023819e-08 6.898615e-09 -5.977572e-09 -6.556145e-09 -3.559054e-10 -5.469936e-11
3.001651e-08 -6.587058e-09 -3.114377e-09 -1.096772e-09 8.207094e-10 2.364527e-09
2.447372e-09 -4.900737e-10 -4.922336e-10 -3.851604e-09 -6.327382e-10 -8.423673e-11
-7.297495e-09 -1.211367e-08 5.783273e-09 4.089417e-09 2.265787e-10 6.099727e-12
-8.186980e-09 -1.191960e-08 6.494403e-09 6.290470e-10 6.153762e-10 2.241318e-12
2.127448e-08 -1.343513e-09 -4.064486e-09 -1.207735e-09 -2.729866e-10 -8.875190e-16
1.506623e-08 1.225643e-09 -5.450969e-09 1.471161e-10 2.281051e-09 2.016520e-10
2.908658e-08 -6.587059e-09 -3.403370e-09 -1.163767e-09 5.490679e-10 4.435583e-10
-6.127763e-09 -1.581007e-08 6.452699e-09 4.466636e-10 -3.541955e-11 2.760059e-11
-2.620425e-09 1.602943e-09 3.416771e-10 1.687821e-09 8.814549e-11 -5.055245e-11
1.253330e-09 -2.555310e-08 7.342295e-09 7.472416e-09 5.061232e-10 1.125928e-09
3.291179e-09 -2.828894e-08 6.118115e-09 9.939765e-09 1.236422e-09 2.355535e-10
-6.049445e-08 -4.356909e-08 2.021596e-07 -3.071790e-08 -7.911664e-09 3.339325e-08
-1.964848e-08 1.734953e-08 6.186776e-08 -5.058584e-08 -1.588326e-08 1.705518e-08
-3.660889e-08 5.463020e-08 2.665988e-08 -3.937073e-08 -2.241143e-08 -2.099453e-08
-9.957356e-09 1.651035e-08 -1.169920e-08 -8.209178e-09 -4.710070e-09 6.481425e-09
-5.546554e-09 1.281216e-08 -6.054383e-09 -1.410870e-08 2.806156e-10 -1.212610e-09
2.755274e-10 1.402189e-08 -5.455040e-09 -1.899889e-08 1.365414e-10 3.509240e-10
3.273133e-09 -2.866418e-08 7.188905e-09 1.730563e-09 9.032299e-10 1.385625e-11
-1.340704e-08 -6.436084e-09 3.933683e-09 2.947804e-09 9.659652e-11 5.168395e-10
-3.480190e-09 2.180287e-09 3.818785e-10 -1.396216e-12 -3.465717e-11 8.881785e-16
-5.940679e-09 3.394605e-09 7.981438e-10 3.660987e-10 3.408829e-11 2.511857e-11
-2.773070e-09 1.742288e-09 2.705276e-10 7.568524e-10 -1.030553e-10 1.152340e-10
-6.001599e-11 5.619771e-10 -6.219225e-11 1.882867e-10 8.441603e-11 3.539347e-11
-3.030930e-09 2.091568e-09 3.278391e-10 3.856742e-10 3.909939e-11 -1.970479e-10
-5.130140e-09 1.334688e-08 -2.453977e-09 -1.811351e-08 -1.157504e-09 2.736205e-09
1.355509e-08 -3.217543e-09 -4.597797e-08 9.810810e-09 -6.785360e-09 2.288713e-09
-5.119460e-12 5.570959e-10 -5.823786e-11 -5.331680e-12 -3.855635e-11 -5.421441e-12
2.149612e-08 -1.697472e-08 -3.875357e-08 8.042534e-09 -5.726845e-09 7.303370e-10
-2.619854e-09 1.233985e-09 1.070641e-10 1.564837e-09 8.767259e-11 -1.360201e-11
-4.243610e-09 2.604045e-09 4.957115e-10 -1.727613e-11 -1.023749e-10 -2.473932e-11
1.151155e-08 -2.576312e-08 8.633917e-08 3.377435e-08 6.356344e-09 1.232558e-08
-6.030591e-09 3.384270e-09 8.779364e-10 3.189321e-10 -1.424999e-12 -6.537104e-11
-4.924271e-09 2.980145e-09 5.653558e-10 -6.394885e-13 -2.006129e-11 2.565792e-23
-6.985259e-09 3.900332e-09 9.492720e-10 1.029741e-10 3.070677e-11 8.833645e-11
-5.036068e-09 3.169900e-09 6.811605e-10 5.786347e-10 1.533562e-10 -1.033681e-10
-5.381722e-09 2.991239e-09 6.477774e-10 -3.243983e-11 1.147504e-10 -1.791634e-11
-1.621794e-08 6.019444e-08 -4.018004e-08 8.911358e-09 -4.688106e-09 -1.058928e-08
2.843801e-08 -9.773633e-09 4.457453e-08 3.805509e-08 1.676421e-09 2.021344e-08
3.348413e-08 -2.692139e-08 7.264311e-08 4.631969e-08 3.717632e-08 3.846326e-08
-6.570192e-09 -1.128877e-08 3.227359e-09 -4.232878e-09 -1.101848e-09 4.884170e-11
5.384140e-08 -2.129857e-08 3.766703e-08 2.363151e-08 6.221059e-09 2.167129e-08
4.028204e-08 -4.616797e-08 5.485998e-08 -1.383590e-08 -4.211965e-09 2.986646e-08
-9.330661e-09 -6.987548e-09 3.662167e-09 -7.065646e-10 -9.514896e-10 2.628191e-10
1.823056e-08 -1.110068e-08 -4.182862e-08 2.300810e-08 8.518458e-09 -2.482249e-09
1.555022e-08 9.270239e-09 -6.925378e-08 2.552055e-08 1.162564e-08 -4.759132e-09
-5.876700e-09 2.680239e-09 9.686518e-10 1.847336e-09 1.401106e-10 2.462719e-11
-6.811052e-09 1.862066e-09 1.623178e-09 8.308553e-10 -1.174287e-10 -3.512998e-10
-5.439621e-09 2.044639e-09 1.135129e-09 1.405822e-09 -7.168666e-11 5.864642e-11
-6.171796e-09 2.889347e-09 1.072114e-09 1.030062e-09 8.444140e-11 2.485450e-10
-6.716975e-09 -1.453954e-08 4.383930e-09 -6.065440e-09 -2.680175e-09 -8.623425e-11
-1.435517e-08 2.785461e-10 3.284936e-09 -9.969963e-10 -1.236810e-09 -6.979818e-11
-6.039092e-09 -6.914480e-09 2.941303e-09 5.034639e-11 1.295319e-11 -1.398229e-10
-8.023586e-09 -2.185377e-09 1.737651e-09 6.627332e-10 5.939960e-11 3.261378e-10
-6.759098e-09 2.580614e-09 1.419590e-09 7.660659e-10 1.278766e-10 2.049716e-10
-3.292212e-09 -1.120467e-08 1.321837e-09 1.385554e-10 -1.089898e-21 -3.933076e-12
-8.023586e-09 -3.718871e-09 1.737651e-09 1.426097e-09 4.829204e-10 -9.551515e-11
-7.628846e-09 -4.916078e-09 2.567184e-09 -1.459202e-10 1.148388e-10 -9.693779e-11
-2.014979e-08 2.079671e-08 -1.037060e-08 5.574198e-09 8.929189e-09 -7.769915e-09
1.268254e-08 6.898614e-09 -5.977572e-09 -6.822913e-09 -2.314315e-10 -6.249596e-10
9.761335e-09 -5.644818e-09 -1.304907e-09 2.692624e-12 -8.074552e-11 3.196665e-11
8.125463e-09 -4.925709e-09 -1.221069e-09 5.340249e-10 7.455819e-11 -5.488463e-11
-7.716201e-10 -1.568504e-08 2.090115e-10 -8.235337e-10 -5.779259e-10 -8.720757e-10
-7.183619e-09 -8.770590e-09 -1.520108e-10 -8.651972e-10 -3.497354e-10 9.747514e-11
1.826375e-09 -1.976406e-08 -3.144584e-09 -1.957956e-09 3.845448e-10 6.210761e-10
-3.907749e-09 -1.699119e-08 2.603597e-09 -5.248211e-10 -7.747216e-10 -7.701768e-10
-9.820998e-09 -4.323687e-09 1.376470e-09 -2.145439e-09 -5.698209e-10 -6.617074e-10
4.707377e-09 -2.206505e-08 -2.620931e-09 -4.324194e-09 -2.759902e-09 -4.877877e-10
-7.294215e-09 2.687103e-09 1.454103e-09 6.850580e-10 7.362594e-11 -2.966028e-11
-6.852775e-09 1.706626e-10 1.898900e-09 -6.395939e-10 3.962487e-10 -7.813749e-10
-6.965922e-09 -1.223392e-09 2.124884e-09 -4.495968e-09 4.766398e-11 -8.456438e-10
2.894938e-10 -1.426429e-08 1.559269e-09 -1.143173e-08 8.670035e-10 -1.610736e-10
-7.109496e-09 1.035730e-09 2.121101e-09 -4.785454e-10 5.270993e-10 -6.949498e-10
-5.821632e-09 -3.425392e-09 2.722523e-09 -1.891260e-09 2.144759e-10 -1.251509e-09
-7.322463e-09 4.642864e-11 2.306617e-09 -1.623737e-10 4.129386e-11 -3.830877e-10
-4.547090e-09 -7.611913e-09 3.551966e-09 -5.919434e-09 2.546801e-10 -3.389632e-10
-6.961955e-09 -2.226689e-09 2.903506e-09 -1.483431e-09 6.370615e-11 -3.179941e-10
-6.870400e-09 -7.111551e-10 2.852060e-09 -3.152700e-10 1.260671e-10 -5.019086e-10
-7.382283e-09 9.114585e-10 1.956259e-09 2.598263e-10 3.519034e-10 -5.070356e-10
-7.470169e-09 1.633230e-09 1.707062e-09 5.309977e-10 2.407330e-10 -5.573152e-10
-7.188852e-09 2.603432e-09 1.447761e-09 6.309366e-10 6.118062e-11 -2.515854e-10
2.495507e-08 -1.183482e-08 1.350870e-08 -2.025148e-09 3.970921e-10 -3.557783e-09
2.023838e-08 -1.198874e-08 1.712867e-08 -5.404802e-09 7.903558e-10 -3.088184e-09
2.229778e-08 -1.502519e-08 2.407840e-08 3.103586e-09 1.819691e-09 -4.851371e-09
-7.273540e-09 4.978468e-09 -8.305566e-10 -5.595247e-09 -4.779286e-10 1.732699e-10
-5.993108e-09 4.244766e-09 -9.309886e-11 -4.852167e-09 1.078892e-11 2.835865e-10
2.617020e-08 -1.506295e-08 3.969813e-08 2.333641e-09 2.191635e-09 -1.669456e-08
-8.991227e-09 1.086258e-08 8.108421e-10 6.575975e-09 -5.185918e-10 -1.794970e-10
-1.049425e-08 1.118260e-08 8.722081e-10 5.516019e-09 6.668610e-10 -4.454534e-10
-9.876305e-09 6.964558e-09 7.910801e-10 2.461649e-09 -4.752661e-10 -2.540345e-11
5.396824e-09 3.251599e-11 -1.015825e-09 -1.040407e-08 -8.816835e-11 -4.640128e-10
-4.375955e-09 5.076625e-09 1.573103e-09 8.984316e-09 7.279113e-10 -6.134231e-10
6.421272e-10 3.148912e-09 5.633645e-10 8.582534e-09 -2.698428e-10 -4.495400e-10
4.081677e-10 7.131943e-08 -7.171402e-08 -2.123441e-08 -1.566548e-08 2.997437e-09
8.744115e-09 -2.887460e-09 6.833067e-10 7.661667e-09 4.247449e-10 -4.942762e-10
7.105095e-09 5.021407e-08 -5.537318e-08 -1.636393e-08 -9.672633e-09 5.813119e-09
1.757026e-08 3.646065e-08 -8.247142e-08 -3.707411e-09 -3.312060e-08 9.842991e-09
5.288389e-09 2.971029e-08 -7.458774e-08 7.760543e-09 -2.816319e-08 2.392455e-08
-4.396038e-09 7.302535e-08 -5.550350e-08 -2.168619e-08 -1.033029e-08 5.509738e-11
1.112852e-08 -4.803184e-09 -2.370539e-10 5.404694e-09 3.570046e-10 -3.547362e-10
2.488835e-09 -8.476175e-11 6.387442e-10 7.300823e-09 -3.760615e-10 -9.544605e-10
7.189801e-09 -1.230300e-09 7.562195e-10 8.753273e-09 -1.816775e-10 -1.475750e-09
7.986188e-09 -2.845047e-09 7.330456e-10 7.514479e-09 -2.061047e-10 -7.352896e-10
2.199737e-08 -1.000405e-08 4.208168e-09 2.207313e-09 -2.282486e-10 -3.869369e-09
1.435973e-08 -7.046710e-09 1.259202e-09 6.414993e-09 3.221724e-10 -9.720276e-10
1.041420e-08 -3.519210e-09 4.923288e-10 9.128993e-09 2.446689e-11 -1.285747e-10
1.143181e-09 6.671612e-08 -6.059001e-08 -1.540948e-08 -1.222314e-08 1.423560e-08
-1.970493e-09 2.764875e-09 2.222519e-09 9.222462e-09 6.448007e-10 5.503552e-10
1.432752e-10 8.911828e-09 8.038104e-11 1.386462e-08 4.069507e-11 1.650764e-10
1.062219e-08 6.407207e-08 -8.400471e-08 -1.593344e-08 -5.169455e-09 7.173707e-10
1.109697e-08 5.307561e-08 -9.574056e-08 -1.119175e-08 -1.770719e-08 3.584453e-09
9.010015e-10 6.666803e-08 -1.089845e-07 -1.750261e-08 -3.803441e-08 5.287098e-09
1.506623e-08 4.894892e-09 -5.619824e-09 6.057509e-10 1.311075e-09 2.365494e-10
3.462464e-09 -3.101693e-10 4.834808e-10 7.449471e-09 6.588452e-10 -1.606109e-10
2.679168e-08 -1.303194e-08 2.136834e-08 -7.664564e-10 7.685517e-10 -5.950356e-09
2.425761e-08 -1.263501e-08 1.870892e-08 5.403568e-09 -1.775843e-09 -1.303411e-08
1.102574e-08 -4.673470e-09 9.358262e-09 1.257170e-08 2.498952e-10 -2.562149e-09
1.960216e-08 -1.261054e-08 1.792864e-08 4.829030e-09 1.647220e-09 -2.403647e-10
3.656606e-08 -1.120160e-08 -1.754826e-09 -1.416196e-08 9.463967e-10 4.162564e-09
1.283173e-08 -5.303198e-09 1.925681e-08 1.646927e-08 -7.525995e-10 -3.865611e-09
-7.096200e-09 -3.418990e-10 2.229915e-09 2.498481e-10 2.438871e-11 -5.710867e-10
1.368282e-08 8.489743e-10 -3.544645e-09 -5.830518e-09 1.970732e-09 -3.088864e-09
-5.067552e-09 1.518792e-08 -6.839336e-09 -1.233973e-08 1.131316e-09 -4.263495e-09
-1.301661e-09 -1.694611e-08 -1.853880e-09 -4.453975e-09 -9.886429e-10 -6.627379e-10
1.772058e-08 -1.902951e-08 9.044506e-08 1.375506e-08 -2.503880e-09 -1.800464e-08
-8.947293e-09 -1.115673e-08 1.549675e-09 -5.105472e-10 -4.084422e-10 -2.078295e-10
-9.387065e-09 -6.882071e-09 3.005798e-09 -2.751749e-09 -6.227559e-10 -4.419443e-10
1.082637e-08 -1.293860e-08 6.517881e-08 1.624108e-08 -3.050226e-09 -2.008721e-08
1.093120e-08 -3.809440e-08 4.206754e-09 -1.099203e-09 -2.238891e-09 3.278961e-10
1.879325e-08 -1.574682e-08 3.912417e-08 -6.912924e-09 5.343979e-09 -1.459317e-08
2.751432e-09 5.024198e-09 3.369828e-08 2.352438e-08 -9.420291e-09 -1.271123e-08
2.205707e-08 -4.387694e-08 -6.583905e-09 -5.954066e-09 -6.200198e-09 -1.049600e-09
-7.026769e-09 -5.920633e-10 2.119497e-09 -1.445565e-09 -1.315592e-11 -6.040162e-10
2.215834e-08 -5.192204e-08 4.346733e-09 -8.590462e-11 -1.549407e-09 2.642462e-10
-2.595099e-09 1.573648e-09 2.436000e-10 1.847600e-09 8.476167e-11 1.964080e-10
-5.827822e-09 -2.599285e-09 2.452334e-09 -1.219773e-09 4.805424e-10 -6.725509e-10
-1.279670e-09 1.113117e-09 1.833289e-11 4.671969e-10 1.803100e-10 -4.986467e-10
-7.074352e-09 1.926380e-09 1.658444e-09 3.838281e-10 1.858185e-10 -2.591418e-10
-6.697643e-09 -9.504442e-10 2.313107e-09 -1.069236e-09 1.962904e-10 -7.405082e-10
-1.688782e-08 1.476021e-08 -4.822369e-09 -9.333247e-09 -1.154411e-08 -1.115825e-08
-1.939143e-08 1.413829e-08 -7.334796e-09 -1.108288e-08 -1.362120e-08 -1.373038e-08
-1.770209e-08 1.473127e-08 -5.520857e-09 -1.007710e-08 -1.158710e-08 -9.987113e-09
-1.396431e-08 1.321285e-08 -4.742196e-09 -5.402779e-09 -1.039467e-08 -1.067843e-08
-1.309048e-08 2.182275e-08 -7.668222e-09 2.892289e-11 -1.033776e-08 -1.337579e-08
-1.309814e-08 2.321809e-08 -9.784961e-09 2.119356e-10 -1.080669e-08 -1.316892e-08
-1.530592e-08 1.270874e-08 -5.189690e-09 -9.979439e-09 -1.271034e-08 -1.225215e-08
-1.651123e-08 1.334773e-08 -4.841174e-09 -1.061325e-08 -1.188454e-08 -1.112221e-08
-1.424106e-08 1.270367e-08 -5.452245e-09 -1.039819e-08 -1.262846e-08 -1.163620e-08
-1.743788e-08 1.171850e-08 -4.322178e-09 -1.191602e-08 -1.531111e-08 -1.124732e-08
-1.610377e-08 7.067786e-09 -4.708612e-09 -1.320497e-08 -1.345554e-08 -8.770704e-09
-1.643054e-08 1.303349e-08 -5.355365e-09 -1.058145e-08 -1.119643e-08 -9.268557e-09
-1.251893e-08 1.321285e-08 -6.036883e-09 -6.982622e-09 -8.878999e-09 -1.069701e-08
-1.192745e-08 1.398169e-08 -6.155718e-09 -7.702069e-09 -9.494247e-09 -1.034482e-08
-1.262013e-08 2.182275e-08 -8.921056e-09 -2.401884e-09 -8.005691e-09 -1.294847e-08
-1.393402e-08 1.876782e-08 -6.709458e-09 -5.844620e-09 -1.125549e-08 -1.050893e-08
-1.202979e-08 1.942410e-08 -1.448710e-08 -4.476515e-09 -1.679050e-08 -1.486301e-08
-1.020190e-08 2.389974e-08 -1.252447e-08 -1.602311e-09 -1.243821e-08 -1.226948e-08
6.298222e-09 -3.235996e-09 -8.722525e-10 2.830345e-09 3.994920e-10 2.578207e-10
5.864308e-09 -3.379773e-09 -8.998412e-10 3.141001e-09 4.661637e-10 8.566015e-11
5.715737e-09 -3.035329e-09 -8.768076e-10 3.191440e-09 3.690113e-10 9.753798e-11
6.090310e-09 -3.235995e-09 -8.351098e-10 2.762576e-09 3.129224e-10 1.395646e-10
6.490012e-09 -3.035329e-09 -9.408176e-10 3.202940e-09 3.836993e-10 5.669965e-10
6.000372e-09 -3.157151e-09 -7.975482e-10 2.948785e-09 3.317390e-10 3.766534e-10
6.425392e-09 -3.643054e-09 -9.507457e-10 2.512122e-09 8.538754e-11 -7.560752e-11
6.584828e-09 -3.621214e-09 -9.451921e-10 2.452802e-09 6.146639e-11 -1.652412e-11
7.087536e-09 -3.580091e-09 -1.012365e-09 2.278781e-09 6.178924e-11 -1.431928e-10
8.584074e-09 -4.768218e-09 -1.078593e-09 2.467217e-09 3.210349e-10 2.469724e-11
8.108285e-09 -4.586674e-09 -1.095335e-09 2.475587e-09 3.777239e-10 1.553764e-10
8.511929e-09 -4.656439e-09 -1.104939e-09 2.402206e-09 4.050073e-10 2.066960e-10
7.604910e-09 -4.141868e-09 -1.097697e-09 1.962893e-09 3.456622e-10 2.634342e-10
7.510643e-09 -4.123366e-09 -1.070346e-09 2.199586e-09 3.567339e-10 1.716143e-10
7.573675e-09 -4.102028e-09 -1.091253e-09 2.128936e-09 3.289571e-10 1.648259e-10
7.971575e-09 -4.174602e-09 -1.100904e-09 2.049609e-09 3.566994e-10 2.166616e-10
8.187882e-09 -4.124936e-09 -1.049981e-09 2.258117e-09 4.076195e-10 4.594987e-10
7.198853e-09 -4.141220e-09 -1.027166e-09 1.939541e-09 3.867315e-10 5.608767e-10
7.183921e-09 -4.035970e-09 -9.713190e-10 1.929751e-09 2.617728e-10 5.342107e-10
7.558025e-09 -4.035259e-09 -1.084468e-09 1.899137e-09 3.058602e-10 2.754661e-10
8.307734e-09 -4.211092e-09 -1.145561e-09 2.857399e-09 2.152357e-10 -3.131440e-11
8.218457e-09 -4.210590e-09 -1.173266e-09 2.839648e-09 1.699720e-10 -1.471561e-10
8.144934e-09 -4.255060e-09 -1.008121e-09 2.678459e-09 1.494915e-10 7.721113e-11
7.001068e-09 -3.733173e-09 -9.187024e-10 2.615990e-09 2.467910e-10 2.109117e-10
7.132714e-09 -3.697132e-09 -1.141055e-09 2.503040e-09 2.945598e-10 -1.907964e-10
7.205688e-09 -3.694950e-09 -9.828824e-10 2.467778e-09 2.726280e-10 -1.229750e-11
8.705939e-09 -4.768218e-09 -1.208219e-09 2.444796e-09 3.029432e-10 -6.470157e-12
8.346521e-09 -4.634833e-09 -1.254595e-09 2.436343e-09 3.677618e-10 1.154779e-10
8.418368e-09 -4.586674e-09 -1.236204e-09 2.509663e-09 4.052186e-10 1.931726e-10
-1.977258e-08 1.313299e-08 -3.808482e-09 -1.224063e-08 -1.364918e-08 -1.287514e-08
-1.875061e-08 1.361734e-08 -3.468935e-09 -1.102545e-08 -1.264811e-08 -1.223582e-08
-1.988695e-08 1.344726e-08 -4.845122e-09 -1.177238e-08 -1.372849e-08 -1.355077e-08
-1.889563e-08 1.421814e-08 -3.836644e-09 -1.078808e-08 -1.249185e-08 -1.146296e-08
-1.867680e-08 1.557960e-08 -3.772947e-09 -9.457253e-09 -1.193150e-08 -1.195520e-08
-1.783566e-08 1.330558e-08 -3.540705e-09 -9.076163e-09 -1.147760e-08 -1.149074e-08
-1.731032e-08 1.972122e-08 -6.159812e-09 -5.757152e-09 -1.105456e-08 -1.304794e-08
-1.744063e-08 2.002530e-08 -5.852105e-09 -5.945511e-09 -1.139517e-08 -1.270195e-08
-1.855697e-08 1.196005e-08 -4.973214e-09 -1.286188e-08 -1.481945e-08 -1.342820e-08
-1.740064e-08 1.197503e-08 -4.712520e-09 -1.161040e-08 -1.408248e-08 -1.286626e-08
-1.757771e-08 1.269198e-08 -4.432882e-09 -1.138297e-08 -1.352978e-08 -1.227974e-08
-1.636149e-08 1.197560e-08 -4.826330e-09 -1.155980e-08 -1.408935e-08 -1.265237e-08
-1.777227e-08 8.451803e-09 -1.931488e-09 -1.241291e-08 -1.372150e-08 -1.093649e-08
-1.813517e-08 1.046879e-08 -2.775873e-09 -1.226963e-08 -1.448248e-08 -1.164027e-08
-1.734941e-08 7.869545e-09 -2.845433e-09 -1.279215e-08 -1.403998e-08 -1.021906e-08
-1.754406e-08 1.217830e-08 -3.350284e-09 -1.125150e-08 -1.225511e-08 -1.054397e-08
-1.623564e-08 1.557960e-08 -5.678853e-09 -9.590270e-09 -1.180388e-08 -1.213290e-08
-1.559336e-08 1.330558e-08 -5.373639e-09 -9.423804e-09 -1.114408e-08 -1.161108e-08
-1.501618e-08 1.321906e-08 -5.425150e-09 -9.870786e-09 -1.142995e-08 -1.148244e-08
-1.545531e-08 1.972122e-08 -7.640044e-09 -6.558468e-09 -1.028579e-08 -1.316633e-08
-1.850526e-08 1.581404e-08 -5.159324e-09 -1.025609e-08 -1.338457e-08 -1.215233e-08
-1.777245e-08 1.568314e-08 -4.752410e-09 -9.495500e-09 -1.224791e-08 -1.148024e-08
-1.679642e-08 1.608747e-08 -8.955984e-09 -8.682614e-09 -1.567475e-08 -1.369165e-08
-1.579047e-08 1.896430e-08 -7.920929e-09 -6.954923e-09 -1.294444e-08 -1.227376e-08
6.488309e-09 -3.532799e-09 -9.044214e-10 3.127026e-09 5.121921e-10 1.686584e-11
6.586985e-09 -3.368815e-09 -8.631966e-10 2.884084e-09 4.282259e-10 1.627490e-10
6.296577e-09 -3.517204e-09 -9.269989e-10 3.114833e-09 5.257197e-10 1.528822e-11
6.135657e-09 -3.283805e-09 -9.048953e-10 3.206235e-09 4.407148e-10 2.373835e-11
6.640175e-09 -3.532799e-09 -8.067698e-10 3.001232e-09 3.515059e-10 1.520759e-10
6.408882e-09 -3.368820e-09 -8.282490e-10 2.818406e-09 3.443461e-10 6.269119e-11
6.736443e-09 -3.283805e-09 -8.594068e-10 3.158862e-09 3.802048e-10 4.252438e-10
6.334417e-09 -3.360045e-09 -8.076775e-10 2.968135e-09 3.357703e-10 2.377294e-10
7.107296e-09 -3.698403e-09 -9.718044e-10 2.555452e-09 1.778370e-10 -1.466209e-10
6.661466e-09 -3.696995e-09 -9.450085e-10 2.634760e-09 1.447277e-10 -8.971712e-11
6.790854e-09 -3.662707e-09 -9.426260e-10 2.566421e-09 1.329321e-10 -6.282741e-11
7.189891e-09 -3.644336e-09 -1.016611e-09 2.441476e-09 1.159748e-10 -1.485305e-10
7.969696e-09 -4.273817e-09 -1.004546e-09 2.855726e-09 4.056673e-10 8.009060e-11
8.154856e-09 -4.505468e-09 -1.015816e-09 2.732789e-09 3.494252e-10 2.580292e-11
8.053249e-09 -4.411447e-09 -1.049339e-09 2.691114e-09 3.621678e-10 8.521706e-11
8.308406e-09 -4.481323e-09 -1.062853e-09 2.665001e-09 3.932780e-10 1.062820e-10
7.370950e-09 -4.075056e-09 -1.000099e-09 2.371946e-09 3.622921e-10 9.124745e-11
7.557517e-09 -4.124162e-09 -1.056782e-09 2.231126e-09 3.448290e-10 1.448868e-10
7.476800e-09 -4.075885e-09 -1.020944e-09 2.404425e-09 3.493235e-10 9.843593e-11
7.543228e-09 -4.056272e-09 -1.045148e-09 2.330658e-09 3.163174e-10 9.284085e-11
7.794760e-09 -4.128964e-09 -1.058725e-09 2.300496e-09 3.480399e-10 1.143921e-10
7.961809e-09 -4.077480e-09 -1.005368e-09 2.465164e-09 4.010648e-10 3.052176e-10
7.243919e-09 -4.123491e-09 -9.828813e-10 2.206241e-09 3.874061e-10 3.684302e-10
7.236153e-09 -4.046793e-09 -9.164101e-10 2.195880e-09 2.902834e-10 3.587881e-10
7.533103e-09 -4.046480e-09 -1.041036e-09 2.181397e-09 3.096812e-10 1.644400e-10
8.066023e-09 -4.173222e-09 -9.879635e-10 2.907823e-09 2.727037e-10 3.520517e-11
8.160111e-09 -4.172995e-09 -1.103193e-09 2.917179e-09 2.524951e-10 -5.069700e-11
8.221477e-09 -4.172762e-09 -1.172268e-09 2.908315e-09 2.318226e-10 1.107159e-11
8.198505e-09 -4.211134e-09 -1.043814e-09 2.855063e-09 2.187681e-10 7.522383e-11
7.349200e-09 -3.798499e-09 -9.675887e-10 2.721388e-09 3.613806e-10 -3.115463e-11
7.122516e-09 -3.776771e-09 -9.102772e-10 2.732890e-09 2.867442e-10 1.445903e-10
7.227358e-09 -3.749515e-09 -1.098015e-09 2.643407e-09 3.205021e-10 -1.744824e-10
7.297547e-09 -3.754970e-09 -1.019934e-09 2.613536e-09 3.250508e-10 -1.122080e-11
8.087518e-09 -4.273817e-09 -1.101490e-09 2.842295e-09 3.948295e-10 6.754286e-11
8.287302e-09 -4.505468e-09 -1.111699e-09 2.724013e-09 3.423442e-10 1.981704e-11
8.275264e-09 -4.433606e-09 -1.213590e-09 2.745028e-09 3.465017e-10 1.205312e-10
8.225882e-09 -4.411445e-09 -1.167734e-09 2.711594e-09 3.786942e-10 8.149503e-11
-4.213920e-09 2.884774e-09 9.977397e-11 -5.029201e-09 -6.689553e-10 -1.947830e-10
-2.429060e-09 1.934120e-09 -3.856596e-10 -5.567403e-09 -4.204286e-10 -4.120904e-10
-3.079663e-09 2.493908e-09 -7.076073e-11 -4.989167e-09 -8.465253e-10 -1.482712e-10
-3.752425e-09 2.803493e-09 -8.652323e-11 -5.315125e-09 -7.221231e-10 -4.990295e-10
-2.834287e-09 3.315488e-09 -3.821705e-10 -6.561096e-09 -7.249170e-10 2.983569e-10
-2.446457e-09 1.934291e-09 -3.319267e-10 -5.562344e-09 -4.134486e-10 -7.948753e-12
3.135064e-08 -8.662667e-09 2.980133e-09 -1.271588e-08 2.922073e-09 -1.046519e-08
3.765718e-08 -7.499737e-09 2.830138e-09 -1.694759e-08 7.498016e-09 -1.997408e-08
3.375943e-08 -7.935902e-09 1.472597e-08 -1.478399e-08 7.723130e-09 -2.766355e-08
2.380107e-08 -2.210640e-10 2.906479e-08 -2.744422e-08 2.052658e-08 -3.529620e-08
3.747284e-08 -8.204419e-09 5.959058e-09 -1.746129e-08 8.700743e-09 -2.008989e-08
4.895658e-09 1.447212e-08 -1.786109e-09 -2.499703e-08 3.350253e-09 -2.264301e-09
1.789018e-09 2.160877e-08 -4.105393e-09 -2.753331e-08 1.318373e-08 1.139514e-09
4.083087e-09 2.052084e-08 -2.238903e-09 -2.880279e-08 1.115447e-08 -4.508036e-09
2.388136e-08 3.640260e-09 3.352103e-09 -2.595046e-08 8.430343e-09 -1.236113e-08
-3.168200e-08 5.435126e-08 -3.407333e-08 1.368618e-08 -4.889758e-08 5.296111e-08
-5.234384e-08 1.642490e-07 -7.712650e-08 4.507285e-08 -2.740487e-08 9.651616e-08
2.190834e-08 -4.718381e-08 -1.803326e-10 2.909666e-09 9.366793e-09 -5.054264e-10
1.983880e-08 -4.340399e-08 -2.184742e-09 -4.267088e-09 7.678475e-09 9.880516e-10
1.193165e-08 -5.054184e-08 9.531236e-10 2.966207e-08 2.037970e-08 -6.456956e-09
2.172025e-08 -4.896198e-08 -6.472080e-09 -4.423184e-09 1.251433e-08 1.733309e-09
1.857129e-08 -4.707041e-08 2.818520e-09 -1.097256e-09 6.196817e-09 3.803127e-10
2.069662e-08 -4.388577e-08 2.880687e-09 -4.215592e-09 7.192987e-09 -1.139701e-10
2.976591e-08 -2.232332e-10 3.013040e-08 -2.700074e-08 1.960804e-08 -4.164047e-08
4.313878e-08 -1.153563e-08 4.808568e-08 -3.123585e-08 3.462040e-08 -5.982334e-08
1.655270e-08 -6.926027e-09 -1.218739e-09 -5.991181e-09 -1.149970e-10 -1.314688e-10
2.106374e-08 -3.074787e-09 1.769251e-08 -2.209162e-08 1.421502e-08 -1.911157e-08
3.966740e-08 -7.728695e-09 2.092686e-08 -1.286734e-08 6.551449e-09 -3.626128e-08
3.274037e-08 4.985759e-09 3.100884e-09 -3.578856e-08 1.973282e-08 -2.327057e-08
-3.714855e-09 -1.244448e-08 2.543073e-09 -1.294279e-08 3.231272e-09 1.263041e-09
-3.758936e-09 -1.214364e-08 2.973413e-09 -9.756169e-09 1.339701e-09 -7.421574e-11
-5.181108e-09 -5.881740e-09 2.278184e-09 -8.690321e-09 1.079841e-09 -1.081907e-09
-5.110151e-09 -5.880969e-09 2.967418e-09 -8.676441e-09 1.347564e-09 -3.255414e-10
-2.233153e-09 -1.448971e-08 4.333462e-09 -1.145514e-08 7.958851e-10 -1.175453e-09
1.251034e-08 -1.499557e-08 -2.647873e-08 -2.082124e-08 -2.784550e-08 -9.037673e-09
-4.975618e-09 -8.897473e-09 4.070712e-09 -9.055554e-09 3.246277e-10 -8.492387e-10
-2.790235e-09 3.886506e-08 -8.180366e-08 -4.714954e-08 -1.002904e-07 -5.613377e-08
2.829560e-08 5.921577e-09 -7.033141e-08 -5.118555e-08 -1.187507e-07 -2.228311e-08
4.225305e-08 -6.250349e-08 -5.483241e-08 -7.283432e-08 -1.037239e-07 -3.730630e-08
1.157730e-08 -3.149469e-08 -5.608751e-08 -4.215320e-08 -9.254364e-08 -3.802229e-08
1.207972e-08 -3.121181e-08 -4.335657e-08 -5.274052e-08 -8.319328e-08 -4.552295e-08
-2.402966e-08 1.389709e-08 -2.196386e-08 3.368802e-08 2.776718e-08 -2.574425e-08
-2.592826e-08 1.244584e-08 -1.265270e-08 3.578803e-08 1.282021e-08 -1.785998e-08
-2.614170e-08 3.221106e-08 -1.542824e-08 9.660186e-09 1.491967e-08 -2.096543e-08
-1.839289e-08 3.367046e-08 -2.406703e-08 2.297383e-08 1.626398e-08 -1.838745e-08
1.461028e-08 9.471338e-09 -1.288584e-09 -2.719876e-08 -5.434198e-09 8.678932e-09
1.137656e-08 3.978617e-09 6.979321e-09 -2.297565e-08 -4.051651e-09 7.278147e-09
1.116570e-08 -4.544370e-08 -3.750670e-09 2.900521e-08 1.862781e-08 -6.442930e-09
-2.238516e-08 4.335641e-08 -6.839200e-09 -2.578448e-08 -2.204013e-09 -1.064928e-08
-2.238547e-08 3.373501e-08 2.444317e-09 -2.572376e-08 -7.601848e-09 -1.064722e-08
1.376027e-08 -6.595786e-09 -7.233529e-10 -8.651168e-09 2.125047e-10 -1.105124e-09
-7.205116e-08 1.075275e-07 3.055529e-08 1.402466e-08 -4.728898e-08 2.250897e-08
-9.025762e-08 1.263778e-07 3.039079e-08 4.426788e-08 -5.317241e-08 1.515006e-09
-1.209224e-08 -2.997352e-08 -6.396746e-09 -3.965288e-08 -2.852477e-08 -1.647589e-08
-1.289677e-08 8.099516e-09 1.067668e-07 4.380392e-08 -3.731487e-08 -6.652177e-08
-3.473912e-09 6.051573e-09 -2.185549e-08 -1.453143e-08 -1.966316e-08 -9.510965e-09
-2.990529e-08 9.700272e-08 -4.300273e-09 5.380978e-08 -5.829188e-08 -2.301415e-08
-3.267325e-08 4.768228e-08 5.376719e-08 2.578974e-08 -5.255202e-08 -3.638985e-08
-1.673807e-07 1.516317e-07 7.672153e-08 3.798268e-09 -1.158760e-07 2.674755e-09
2.954884e-08 -1.056839e-08 6.386385e-09 5.750696e-09 -9.170793e-11 -1.348627e-08
2.791049e-08 -1.172688e-08 1.546995e-08 2.940516e-09 1.490809e-09 -1.783803e-08
2.148081e-08 -5.266053e-09 1.792187e-08 1.457249e-08 -3.596405e-09 -2.047563e-08
2.684466e-08 -1.855747e-09 1.399933e-08 2.128553e-08 -5.742073e-09 -1.826563e-08
1.607219e-08 -8.510696e-09 -1.438350e-09 -2.103155e-09 1.108534e-10 -5.693901e-10
1.765629e-08 -7.269720e-09 -2.241509e-10 -4.634104e-09 1.103728e-11 -1.074713e-09
-4.836941e-09 -8.925548e-09 -3.358454e-08 -3.197075e-08 -3.615534e-08 -1.807633e-08
1.824029e-08 -7.982832e-09 -2.090732e-10 -2.573451e-10 1.931920e-10 -1.578669e-09
1.666468e-08 -7.347044e-09 -1.387169e-09 -3.041930e-09 -2.013472e-10 -2.442308e-10
1.378815e-08 -6.919235e-09 -1.189146e-09 -3.845647e-09 6.372417e-12 -2.049769e-10
1.434999e-08 -6.690465e-09 -1.484399e-09 -2.822356e-09 -9.478500e-11 -3.538853e-10
1.479058e-08 -7.809345e-09 -1.153799e-09 -5.579219e-10 -2.090500e-10 -8.056329e-10
-4.898774e-09 2.468298e-09 8.491792e-10 2.689194e-09 4.961728e-10 -5.574031e-10
-6.504854e-09 1.828679e-09 1.639862e-09 7.112404e-10 4.210968e-10 -4.072958e-10
1.495113e-09 -7.525809e-10 -3.259220e-10 3.271774e-09 1.534384e-11 -1.756200e-09
4.474025e-08 -6.599436e-08 -3.185876e-07 1.994593e-08 3.733399e-07 -2.622213e-08
-1.194784e-09 -3.030375e-08 -7.907324e-10 2.310635e-08 1.136669e-08 -2.360646e-09
-6.176225e-09 2.093474e-09 1.312277e-09 1.658475e-09 4.815957e-10 -3.410763e-10
-5.627009e-09 2.209024e-09 1.098394e-09 1.383114e-09 4.397640e-10 -3.979215e-10
-7.960043e-09 2.033409e-08 -2.849799e-09 -1.565018e-08 8.937855e-10 -2.660035e-09
-2.139278e-08 2.861243e-08 -8.717260e-09 -3.751575e-09 6.737324e-09 -1.070910e-08
-1.879594e-08 2.791682e-08 -1.202642e-08 1.132301e-09 7.040483e-09 -1.121322e-08
-2.262916e-08 3.866449e-08 -1.862176e-08 1.847020e-09 9.571008e-09 -1.287075e-08
-3.038563e-08 4.132017e-08 -1.209630e-08 -4.439975e-09 5.966068e-09 -2.134674e-08
-1.981290e-08 6.132125e-08 -6.398614e-09 -1.898211e-08 -6.574481e-09 -1.225783e-08
-4.119963e-08 3.377162e-08 -1.760249e-08 1.256684e-08 2.316080e-08 -2.807019e-08
-3.117750e-08 3.576459e-08 -6.493859e-09 2.020127e-09 7.543711e-09 -1.680479e-08
-5.828313e-08 3.763297e-08 -1.309974e-08 5.709004e-08 6.719944e-08 -6.173695e-08
-9.262852e-08 1.001010e-07 -5.480176e-08 3.126715e-08 2.077129e-08 -6.700095e-08
-6.102804e-08 3.333739e-08 -2.610045e-08 5.912859e-08 7.017055e-08 -6.995038e-08
-3.555208e-08 5.516524e-08 -2.661762e-08 2.553768e-08 2.145924e-08 -4.604319e-08
-3.963261e-08 1.000623e-07 -2.886872e-08 -2.138351e-08 -9.525590e-09 -2.922029e-08
-3.959357e-08 4.642827e-08 -1.948105e-08 3.051774e-08 1.623553e-08 -3.710424e-08
-6.635069e-08 5.452513e-08 -2.063529e-08 1.683865e-08 1.001791e-08 -4.379448e-08
-8.815227e-09 -1.040509e-09 1.599166e-09 -5.023138e-09 1.141105e-09 -5.576829e-10
3.959657e-08 3.125839e-09 3.414469e-09 -2.105597e-08 5.892215e-09 -1.996880e-08
-9.165820e-09 3.718943e-09 1.419584e-09 -1.028598e-09 5.690884e-10 -2.794343e-11
-8.575336e-09 2.027078e-09 1.045431e-09 -3.210371e-09 1.222377e-09 1.582887e-10
-8.410521e-09 1.912266e-09 1.620304e-09 -1.378402e-09 7.217881e-10 -3.260559e-11
-1.224467e-08 2.108411e-08 -1.697770e-08 2.118870e-08 1.558604e-08 -1.496700e-08
-2.375587e-08 3.347132e-08 -1.471866e-08 7.726618e-09 1.269103e-08 -1.617618e-08
-1.305498e-08 -1.964873e-08 -2.828586e-08 4.998853e-08 4.528985e-08 -2.684556e-08
-2.385161e-08 2.717576e-09 -2.394496e-08 5.041340e-08 3.516682e-08 -2.865084e-08
-1.583146e-08 4.197491e-09 -3.092759e-08 3.052862e-08 2.725704e-08 -1.835328e-08
-9.316972e-09 1.965662e-08 -3.581812e-08 3.203430e-08 2.946445e-08 -2.558265e-08
-3.138077e-08 4.469085e-08 -1.281476e-08 2.031884e-08 1.255813e-08 -2.993038e-08
-2.874739e-08 2.421746e-08 -1.074273e-08 1.469807e-08 1.634044e-08 -1.773786e-08
-2.161432e-08 2.053213e-08 -1.657979e-08 1.891277e-08 1.586688e-08 -1.372020e-08
2.757800e-09 -2.216660e-11 -7.978596e-11 6.177872e-09 7.847994e-10 -1.259091e-09
4.011739e-08 -4.057608e-09 -6.086259e-09 -1.295214e-08 2.431901e-09 -9.524625e-09
2.701806e-08 -1.140750e-08 1.214917e-08 -5.871180e-09 1.434485e-09 -1.411824e-08
4.266934e-09 -2.381238e-10 -3.646616e-10 8.493227e-09 5.359845e-11 -1.134703e-09
5.609730e-10 3.301725e-09 1.361933e-11 7.405456e-09 -2.252882e-10 -1.420319e-09
2.289559e-08 -8.741125e-09 1.414368e-09 -8.363767e-09 5.699701e-10 -3.880432e-09
5.581189e-10 2.984873e-09 6.403906e-10 7.747233e-09 5.290558e-10 -1.292603e-09
3.295911e-09 1.412215e-09 -1.608569e-10 7.567450e-09 3.847669e-10 -4.023639e-10
-8.037127e-11 1.998131e-09 2.372125e-10 7.239007e-09 -2.381326e-10 -1.598519e-09
2.397805e-09 2.546356e-09 -4.169727e-10 9.011222e-09 8.671545e-10 -2.283629e-10
-4.324903e-09 4.035252e-09 -2.578338e-10 -6.975755e-09 -9.381758e-10 9.332035e-10
-3.987957e-09 3.257821e-09 7.913314e-11 -5.192866e-09 -1.057092e-09 1.828747e-10
-3.366197e-09 2.857847e-09 1.771805e-10 -4.779656e-09 -5.460066e-10 3.398282e-11
-3.927343e-09 2.842147e-09 2.905258e-10 -4.576325e-09 -5.065792e-10 1.867227e-10
-4.576055e-09 3.471259e-09 -8.217860e-11 -4.821826e-09 -9.379250e-10 1.432277e-11
-5.502058e-09 3.512549e-09 3.050018e-10 -5.113681e-09 -6.052643e-10 2.558176e-10
5.825190e-09 2.687805e-07 -3.422160e-07 -6.582290e-08 -1.773112e-08 3.066186e-08
-2.863861e-08 1.938986e-07 -3.177754e-07 2.938035e-08 3.361198e-09 -1.686053e-08
4.781298e-08 1.345067e-07 -4.099598e-07 -1.630178e-07 4.035758e-07 8.938194e-08
9.555596e-08 1.440395e-07 -2.115527e-07 -1.106084e-07 1.909113e-07 5.199043e-08
1.924058e-08 -3.693433e-09 -2.947324e-09 -1.350132e-08 -2.972440e-10 -1.982627e-09
1.554561e-08 -4.249219e-09 -1.810654e-09 -1.157429e-08 3.640132e-11 -1.141239e-09
1.579002e-08 -3.986998e-09 -1.837922e-09 -1.238869e-08 4.115997e-10 -1.171189e-09
2.109337e-08 -5.986871e-09 1.164877e-09 -1.089507e-08 1.486781e-09 -4.163987e-09
1.309708e-08 -3.832399e-09 -7.133814e-10 -1.260993e-08 1.677418e-10 -5.032187e-10
1.193013e-08 -3.048021e-09 -6.690462e-10 -1.358166e-08 4.636318e-10 -1.269178e-09
2.400372e-08 -3.272814e-09 2.675078e-10 -1.195970e-08 5.054836e-10 -7.617065e-09
1.539895e-08 -3.982090e-09 -1.295014e-09 -1.238480e-08 5.212546e-10 -2.171992e-10
-8.445323e-09 4.905851e-08 -4.747402e-08 -1.544155e-08 -2.763761e-08 -3.461825e-08
-5.723314e-08 1.430325e-08 -2.850205e-08 7.939675e-08 -6.457698e-08 7.955639e-08
-1.301960e-08 4.385351e-08 -5.227418e-08 -3.021152e-08 -5.964826e-08 -3.871142e-08
5.714131e-09 5.191182e-09 -4.970558e-08 -3.612646e-08 -6.463348e-08 -2.462492e-08
-1.989714e-08 2.261767e-08 7.288689e-09 2.487938e-08 -1.241457e-08 -6.939559e-09
-8.648146e-09 1.397070e-08 1.002911e-08 1.793826e-08 -6.492993e-09 -7.866905e-09
-1.005118e-08 1.768269e-08 1.601977e-08 2.326304e-08 -8.484354e-09 -7.230971e-09
-1.314992e-08 2.696304e-08 3.419445e-09 1.639180e-08 -7.200333e-09 -6.289645e-09
-2.184868e-08 2.666039e-08 6.458549e-09 1.402998e-08 -7.459810e-09 -2.910735e-09
-2.823009e-08 4.604222e-08 -2.136141e-08 5.387738e-09 -6.627808e-09 -3.205702e-08
2.282736e-08 -9.584274e-09 3.542596e-09 -8.081376e-09 1.546086e-09 -4.500362e-09
-2.086920e-08 4.107039e-08 -2.514171e-08 -2.261871e-09 -1.417134e-08 -3.155400e-08
3.645023e-08 -9.551276e-09 4.874915e-09 -6.736290e-09 2.138036e-09 -1.254060e-08
1.464342e-08 -7.330310e-09 -1.657439e-09 -2.833077e-09 -1.121802e-10 -3.574310e-10
-7.196335e-09 6.594165e-09 -1.557780e-09 -6.208088e-09 -1.628562e-09 1.647997e-09
1.627917e-08 -5.252812e-09 1.852784e-09 -1.577091e-08 2.552454e-09 -4.168423e-09
-7.742770e-09 4.424967e-09 -2.586580e-10 -4.855917e-09 -1.677780e-09 7.032312e-10
-7.621998e-09 4.686529e-09 2.388651e-10 -3.707211e-09 -1.607236e-09 -5.436815e-11
-7.470482e-09 3.800551e-09 3.441538e-10 -3.884713e-09 -9.703234e-10 6.464600e-10
1.159797e-08 3.915943e-09 -3.959624e-09 -1.620414e-08 5.256856e-10 -2.234969e-10
2.253262e-08 -3.620283e-09 -1.904205e-09 -1.484140e-08 1.451865e-09 -4.601366e-09
1.598564e-08 -3.296415e-09 -1.726762e-09 -1.152465e-08 1.833022e-10 -1.735727e-09
1.634250e-08 2.293362e-09 -1.259548e-09 -1.909303e-08 2.649414e-09 -5.644089e-09
1.657144e-08 2.841369e-09 -6.208840e-10 -1.959020e-08 1.946246e-09 -5.248119e-09
1.171058e-08 -2.593938e-10 4.287237e-10 -1.559213e-08 2.199490e-09 -5.157237e-09
3.472410e-08 -6.770981e-09 -1.281399e-09 -6.365401e-09 1.778879e-09 -9.562045e-09
3.400247e-08 -8.946648e-09 -4.890335e-10 -7.672013e-09 9.003672e-10 -9.820677e-09
3.151924e-08 -9.382142e-09 1.428427e-09 -6.239177e-09 1.917643e-09 -8.303087e-09
2.890577e-08 -7.245779e-09 5.158621e-09 -1.326511e-08 3.067692e-09 -1.447114e-08
2.416151e-08 -6.280212e-08 1.632591e-09 -2.411226e-08 2.349486e-08 6.307084e-09
2.572011e-08 -3.471219e-09 -3.474464e-09 -1.553344e-08 2.037038e-09 -7.005206e-09
2.174652e-08 -3.549770e-09 -1.320403e-09 -1.375636e-08 2.082873e-09 -4.299692e-09
-5.592679e-09 -2.749670e-10 -1.283312e-08 1.147749e-08 -1.307696e-08 9.992869e-09
3.514653e-08 -6.539685e-09 -1.926527e-10 -6.817235e-09 -5.263427e-10 -1.201118e-08
-7.621957e-09 -8.009797e-10 2.556786e-09 -3.630636e-09 5.140921e-11 -1.285785e-09
1.657656e-08 -3.967506e-08 5.668213e-10 7.718396e-09 4.369139e-09 -8.380454e-10
-7.696698e-09 -3.587921e-09 2.353971e-09 -5.797343e-09 1.533496e-09 -5.774804e-10
1.973825e-08 -8.397022e-09 -3.762266e-10 -1.188918e-09 5.067628e-11 -1.585603e-09
-5.994157e-09 -3.587675e-09 2.585483e-09 -3.844191e-09 8.540335e-10 -5.706189e-10
1.998495e-08 3.738270e-09 -5.000479e-09 -1.720743e-08 1.261149e-09 -3.286612e-09
-6.256503e-09 -2.542375e-09 2.544926e-09 -5.477627e-09 2.845106e-10 -5.727774e-10
-6.705336e-09 -6.387472e-09 2.625229e-09 -6.908564e-09 8.589634e-10 -2.410900e-10
-8.118098e-09 -8.267484e-10 2.334912e-09 -3.581309e-09 9.036043e-10 -1.978677e-10
-6.607868e-09 -2.064978e-09 1.779275e-09 -5.217479e-09 1.363159e-09 2.001394e-10
-4.572051e-09 2.399671e-09 6.432077e-10 2.255917e-09 2.221821e-10 -5.110867e-11
-4.770323e-09 2.274942e-09 6.932233e-10 1.937632e-09 -2.502465e-11 -1.600924e-10
-4.245332e-09 2.227185e-09 7.338268e-10 2.947513e-09 2.043852e-10 -2.450617e-10
-3.594812e-09 2.033033e-09 5.006791e-10 2.625301e-09 4.269267e-10 -3.696932e-11
-3.598596e-09 2.019940e-09 4.091429e-10 2.614270e-09 1.272567e-10 -4.825412e-10
-4.579952e-09 2.554998e-09 5.658565e-10 2.253635e-09 2.050669e-10 -7.593359e-11
-3.921498e-10 4.560702e-08 1.535807e-09 -4.261069e-08 -2.649324e-08 1.049391e-08
-1.852515e-08 3.258421e-08 -8.452505e-09 -2.237712e-08 -2.197743e-09 -1.233325e-08
2.352671e-09 2.955065e-08 6.428802e-09 -3.564989e-08 -8.935017e-09 7.813271e-10
3.742446e-09 5.764962e-08 -8.521056e-08 -1.062268e-08 -5.793247e-08 -2.895344e-08
3.075698e-08 9.927788e-09 -2.770337e-09 -3.544630e-08 -1.060097e-08 2.351505e-08
-1.642503e-08 4.029364e-08 -8.884922e-09 -1.775247e-08 -4.073499e-11 -1.119327e-08
1.387430e-08 -1.118129e-08 -3.706855e-08 1.688139e-08 -3.749284e-08 1.532494e-08
3.970646e-09 -9.223816e-09 -3.083759e-08 2.487066e-08 -3.295108e-08 2.033066e-08
-2.077094e-08 7.224633e-09 -7.453605e-09 -2.832350e-08 -2.482458e-08 -1.652978e-08
7.734010e-09 -2.092366e-08 -1.366375e-08 3.063676e-08 -3.008490e-08 1.940685e-08
1.672652e-08 -2.376116e-08 -3.063685e-08 2.038714e-08 -4.377115e-08 1.747362e-08
4.881679e-09 -2.005977e-08 -1.245606e-08 2.088613e-08 -2.424652e-08 1.110929e-08
-8.642774e-09 -2.056940e-08 -7.348913e-09 2.433310e-08 -1.792921e-08 1.284764e-08
-4.888504e-09 -1.734888e-08 -1.010597e-11 1.707579e-08 -1.251256e-08 5.797742e-09
5.719440e-10 -1.599342e-08 -1.289686e-08 1.581353e-08 -1.829348e-08 7.768809e-09
9.432607e-10 -2.262940e-08 -4.555959e-09 1.378198e-08 -1.299080e-08 3.561790e-09
-4.741660e-09 -1.681539e-08 -1.638521e-09 1.646753e-08 -8.872285e-09 5.451090e-09
-3.578238e-09 -9.968115e-09 -9.076614e-09 1.744159e-08 -1.346555e-08 9.544033e-09
-1.028810e-09 -2.185058e-08 8.107799e-10 1.608240e-08 -1.081190e-08 3.727942e-09
3.000641e-08 -1.153696e-08 1.135229e-08 -5.366380e-09 1.849392e-09 -1.411089e-08
8.116261e-10 -2.961688e-08 3.333945e-09 3.714414e-08 2.172149e-08 -8.403413e-09
1.068377e-09 -3.383369e-08 4.632149e-10 3.580498e-08 1.819248e-08 -9.286686e-09
7.437658e-09 -3.173398e-08 -2.203520e-09 3.869706e-08 2.607593e-08 -1.100784e-08
7.699435e-08 -4.402041e-08 6.385425e-08 9.022307e-09 2.665194e-08 1.660507e-07
8.503692e-09 -3.542809e-08 -1.078615e-08 2.721548e-08 2.032441e-08 -5.108088e-09
4.102084e-09 -1.306708e-08 -1.585308e-08 3.148736e-08 1.715686e-08 -7.640814e-09
6.573335e-09 -2.097980e-08 -2.159578e-08 3.243156e-08 2.471813e-08 -9.606636e-09
7.596289e-09 -3.990977e-08 -5.523607e-09 4.197089e-08 2.716911e-08 -1.183229e-08
1.115554e-08 -3.855697e-08 -8.897045e-09 2.664149e-08 2.318252e-08 -5.417409e-09
1.171341e-08 -4.355780e-08 -4.363237e-09 3.023722e-08 2.037033e-08 -6.060572e-09
1.114048e-08 -3.614473e-08 -1.532295e-08 2.686847e-08 1.849455e-08 -6.610745e-09
1.795030e-08 -4.095845e-08 -1.349542e-08 2.571786e-08 2.610115e-08 -7.344215e-09
7.406600e-09 -3.097437e-08 -9.796740e-09 3.787258e-08 2.599495e-08 -8.266842e-09
2.451970e-08 -5.349641e-08 -1.538366e-08 1.344909e-08 2.135094e-08 -5.699180e-09
1.960001e-08 -4.997314e-08 -4.085152e-09 1.530733e-08 1.490069e-08 -2.202097e-09
1.861544e-08 -4.334307e-08 -4.270570e-09 1.366018e-08 1.183137e-08 5.672166e-11
2.687056e-08 -5.352158e-08 -5.421908e-09 1.435900e-08 2.065093e-08 -3.544662e-09
2.156934e-08 -4.599541e-08 -8.551280e-09 8.979399e-09 1.405991e-08 -1.592042e-10
2.056516e-08 -4.524847e-08 -1.221103e-08 1.767617e-08 1.981529e-08 -2.793892e-09
5.127212e-09 -2.606661e-08 -2.163362e-09 2.031226e-08 7.603274e-09 -1.079414e-09
4.568139e-09 -2.869925e-08 -1.396505e-09 1.887697e-08 6.390837e-09 -1.196274e-09
-2.142057e-09 -2.357554e-08 -5.135314e-10 2.314650e-08 7.693542e-09 -3.778547e-09
3.803433e-10 -2.137266e-08 -7.592922e-09 2.627540e-08 1.114739e-08 -4.795394e-09
2.352995e-09 -2.274472e-08 -6.808147e-09 2.678558e-08 1.078665e-08 -6.040407e-09
-7.011804e-09 3.424157e-09 1.033434e-09 -3.095102e-09 -1.057322e-09 2.328019e-10
-1.989765e-09 1.524034e-09 -2.280176e-10 -3.854761e-09 -2.120470e-10 4.549383e-11
-7.221082e-09 3.470584e-09 2.992251e-10 -3.203580e-09 -1.445601e-09 -2.703564e-10
-7.403099e-09 3.964475e-09 6.176732e-10 -3.595829e-09 -7.804315e-10 -3.617706e-10
-8.944918e-09 4.242068e-09 8.560481e-10 -2.909239e-09 -7.796392e-10 -7.020495e-11
-8.944918e-09 3.628410e-09 1.093768e-09 -2.586674e-09 -7.160361e-10 -3.071665e-10
-7.205173e-09 3.359517e-09 2.978473e-10 -3.316964e-09 -1.224621e-09 -2.024327e-10
-6.801361e-09 1.199068e-09 1.651864e-09 3.754052e-10 3.674202e-10 -5.483995e-10
-6.966084e-09 1.843403e-09 1.704402e-09 6.642999e-10 2.114795e-10 -2.886713e-10
-6.296118e-09 2.867739e-09 1.194867e-09 1.412179e-09 1.758691e-10 -3.264174e-10
-5.649626e-09 2.199753e-09 1.171980e-09 1.368091e-09 3.673178e-10 -5.485890e-10
-6.498068e-09 1.274449e-09 1.539627e-09 2.231008e-10 4.020308e-10 -5.945268e-10
-6.643671e-09 1.870914e-09 1.250688e-09 5.580354e-10 4.265199e-10 -3.065042e-10
4.293793e-09 -1.642018e-09 -6.188188e-10 3.625326e-09 1.680149e-10 -4.041543e-10
5.452987e-09 -2.252958e-09 -6.206204e-10 4.584179e-09 1.265572e-10 -2.871746e-10
5.982381e-09 -2.553607e-09 -8.651299e-10 4.387042e-09 2.430135e-10 -2.707264e-10
4.485166e-09 -1.032264e-09 -5.221439e-10 5.748780e-09 2.688981e-10 -6.552454e-10
3.912172e-09 -1.225850e-09 -6.749638e-10 4.974657e-09 2.866766e-10 -2.834695e-10
-6.574991e-09 3.776430e-09 7.121259e-10 -3.317825e-09 -4.049995e-10 -2.294038e-10
-5.177295e-09 3.222698e-09 7.973093e-10 -3.626684e-09 -7.191445e-10 1.827770e-10
-7.022077e-09 3.812050e-09 7.680196e-10 -3.279585e-09 -4.531909e-10 -2.137572e-10
-5.432792e-09 3.661405e-09 3.020022e-10 -4.150734e-09 -8.428436e-10 -4.068752e-10
-5.610672e-09 3.487431e-09 5.316054e-10 -2.828870e-09 -2.821028e-10 -3.336247e-10
-6.862287e-09 3.676402e-09 7.688779e-10 -2.953448e-09 -6.472235e-10 -3.106648e-10
-7.354514e-09 4.020226e-09 1.010443e-09 -3.210324e-09 -3.506841e-10 -4.336766e-10
-3.753270e-08 1.948987e-08 -1.501018e-08 3.325824e-08 2.149804e-08 -2.626064e-08
-1.647172e-08 3.419002e-08 -2.659303e-08 6.621433e-09 1.687683e-08 -1.399325e-08
-4.304561e-08 3.519612e-08 -9.622552e-09 1.837416e-08 7.818328e-09 -2.726492e-08
8.291673e-09 -3.909335e-09 -1.118607e-09 -3.552565e-09 -5.261599e-10 2.739640e-10
-2.509288e-08 2.425275e-08 -9.767163e-09 1.094298e-08 7.139639e-09 -1.305220e-08
-2.689509e-08 3.185506e-08 -1.723169e-08 1.963579e-08 2.498569e-08 -2.557434e-08
3.313022e-08 -9.033258e-09 1.881855e-08 2.119753e-08 -6.182066e-09 -5.038411e-08
9.044848e-08 -8.042579e-09 5.083825e-08 3.233431e-08 -2.682857e-08 -1.068949e-07
-1.411080e-08 -3.967641e-09 -6.443845e-09 2.578237e-08 1.196574e-08 -6.544222e-09
-1.779501e-08 4.010925e-09 -5.198132e-09 2.545332e-08 8.699825e-09 -6.990086e-09
-2.277253e-08 4.325028e-09 -3.096415e-09 3.689669e-08 1.516124e-08 -1.629997e-08
1.129668e-08 -5.154450e-09 -1.617902e-09 -4.686834e-09 -2.143042e-10 1.134287e-10
-1.099095e-08 -1.388746e-08 -4.359366e-10 3.392951e-08 1.415221e-08 -9.232183e-09
-9.789450e-09 1.533881e-08 -6.292879e-09 -1.308224e-08 -3.325108e-09 8.494029e-09
3.475641e-09 1.694842e-07 -9.681873e-08 -5.968303e-08 4.355259e-09 -3.533753e-08
6.535422e-09 1.039963e-07 -1.121430e-07 -8.179310e-09 -5.164228e-08 4.095504e-08
-4.494514e-08 1.630189e-07 -1.425511e-07 -2.221345e-08 -3.616349e-08 8.074202e-08
-2.719164e-08 7.116566e-08 4.006386e-08 -6.963562e-08 5.629086e-08 -2.401904e-08
-6.648986e-08 7.750902e-08 5.727651e-08 -2.294884e-08 2.386398e-08 -2.417970e-08
1.143182e-09 5.336798e-08 -6.924966e-08 -3.319085e-08 -1.510335e-08 2.911161e-08
1.521359e-08 5.836941e-08 -2.632248e-08 -4.206617e-08 7.378993e-09 -2.066528e-08
-1.148997e-08 1.764197e-09 -7.017942e-12 2.525099e-09 -2.950918e-09 1.303421e-09
-1.052215e-08 -3.063161e-09 1.462413e-09 5.755974e-09 -3.119613e-09 1.983355e-09
-1.015249e-08 2.042557e-09 -5.380549e-10 1.777114e-09 -3.449128e-09 1.889437e-09
-1.017327e-08 1.979406e-09 -1.555401e-09 1.731086e-09 -4.124220e-09 1.115953e-09
-9.215637e-09 -1.039305e-09 4.647669e-10 8.950281e-10 -3.153439e-09 4.090116e-10
-9.215637e-09 2.816090e-09 -1.568561e-09 3.819209e-10 -3.409523e-09 8.172784e-10
2.059903e-08 -1.037112e-07 -2.957270e-08 -5.358186e-08 -9.804740e-08 -2.744144e-08
4.435632e-08 -7.367972e-08 -5.240569e-08 -1.324373e-08 -9.309554e-08 4.411715e-09
3.858224e-08 -3.649844e-08 -6.291332e-08 -1.024048e-08 -6.245079e-08 -3.357310e-09
2.796084e-08 -3.776794e-08 -6.404484e-08 -2.050272e-08 -6.816800e-08 -7.376190e-09
2.591232e-08 -7.108391e-09 -4.459069e-08 -2.895498e-08 -6.677852e-08 -2.357613e-08
2.241088e-08 -3.311396e-08 -2.502520e-08 -3.808880e-08 -5.062153e-08 -2.183300e-08
3.048336e-08 -4.200510e-08 -6.188690e-08 -2.229039e-08 -6.861553e-08 -1.025311e-08
3.021892e-09 7.122214e-09 -7.861467e-10 -1.725328e-08 1.785937e-10 3.433276e-10
-5.484372e-10 7.764611e-09 -3.662939e-09 -1.444804e-08 -2.611657e-09 3.561553e-09
1.074945e-08 -5.238377e-09 -1.286398e-09 -2.489005e-09 -3.357083e-10 2.486359e-10
-5.930373e-09 1.313186e-08 -3.323709e-09 -1.538248e-08 -1.084022e-09 4.023526e-09
-3.879628e-09 8.601059e-09 -1.868522e-09 -1.359605e-08 -1.847565e-09 3.164327e-09
-1.188136e-08 1.363364e-08 -3.502435e-09 -8.529498e-09 -3.439322e-09 6.318072e-09
-1.377781e-09 6.313727e-09 -6.826382e-10 -1.377633e-08 -6.128244e-10 1.102761e-09
-1.226691e-08 1.395295e-08 -3.196850e-09 -1.044331e-08 -4.149031e-09 6.688590e-09
9.276898e-09 1.042250e-08 -5.853896e-09 -2.224968e-08 -7.227100e-10 7.587508e-11
3.903276e-09 1.076810e-08 -3.640219e-09 -2.058276e-08 3.149338e-09 9.583359e-10
-2.337438e-08 1.195212e-07 3.107844e-08 3.025026e-08 6.747303e-08 -5.509134e-09
-3.327775e-08 6.895196e-08 -2.783062e-08 4.630175e-09 -1.710748e-08 -3.360355e-08
-2.890506e-08 1.254108e-07 2.487132e-08 5.496939e-08 5.710094e-08 2.673065e-09
-7.787099e-09 3.640609e-08 -8.952585e-08 -3.559492e-08 -6.752642e-08 -3.967269e-08
-9.864075e-09 6.687820e-08 -5.039280e-08 -1.746714e-08 -2.682227e-08 -3.688759e-08
-3.774314e-12 3.409535e-08 -7.390942e-08 -3.307784e-08 -7.389022e-08 -5.141761e-08
-7.407722e-08 1.798180e-07 1.143445e-07 4.780972e-08 -1.959683e-07 -9.584211e-09
-7.684795e-08 7.387783e-08 6.581829e-09 -3.990357e-10 -2.137463e-08 3.051818e-08
-3.102999e-08 3.205466e-08 2.155820e-08 1.611378e-08 -1.628418e-08 8.585537e-09
-2.583260e-08 4.035322e-08 4.526633e-08 2.298279e-08 -3.121282e-08 -5.011222e-09
-4.690651e-08 4.351659e-08 3.455686e-08 1.547979e-08 -4.166541e-08 7.652746e-10
-2.404681e-08 2.937202e-08 3.372426e-08 2.969500e-08 -1.906056e-08 -9.088947e-09
-6.396473e-09 2.928190e-09 1.217277e-09 1.436540e-09 2.963836e-10 -1.895431e-10
-1.699357e-10 3.332679e-08 2.514463e-08 5.385053e-08 -4.058203e-08 -2.476026e-08
-2.247267e-08 3.271327e-08 5.087486e-08 4.987054e-08 -4.084790e-08 -1.695212e-08
-1.780442e-09 2.434224e-09 -1.439862e-10 -6.199659e-09 -3.589411e-10 -1.638882e-10
-3.368895e-09 2.979999e-09 1.876101e-10 -3.877998e-09 -5.459484e-10 -3.982563e-10
3.392246e-08 -6.713307e-09 6.653580e-09 1.628304e-08 -1.202096e-09 -3.791508e-08
3.724346e-08 -7.272738e-09 -6.524088e-10 1.254349e-08 -1.263880e-09 -2.015337e-08
2.518292e-08 -2.022391e-09 1.285232e-08 1.944638e-08 -7.296326e-09 -2.398538e-08
-2.625777e-08 6.941595e-08 1.089103e-08 5.224166e-08 3.480078e-08 2.233892e-08
1.550276e-08 -4.632329e-09 1.236324e-08 1.569644e-08 -3.227535e-09 -1.349980e-08
3.204602e-08 -1.218722e-08 1.288254e-08 4.413462e-09 -3.451549e-10 -2.287323e-08
2.966461e-08 -1.179401e-08 8.902607e-09 2.613356e-09 7.612087e-10 -1.925814e-08
3.263686e-08 -5.332572e-09 3.004459e-08 1.831057e-08 -7.828524e-09 -4.165781e-08
-1.747431e-08 2.882188e-08 4.005766e-08 -3.351801e-08 1.155819e-08 -1.625957e-08
4.772068e-09 -8.951689e-10 7.235679e-08 -5.247320e-08 3.064316e-08 -4.320030e-08
-1.399515e-08 3.058774e-08 -1.829942e-08 -3.346541e-08 5.130877e-09 8.876282e-09
-3.331814e-09 3.677182e-08 1.181123e-08 -3.315106e-08 3.362485e-08 -1.680719e-09
1.365547e-08 2.297375e-08 4.548443e-08 -4.443541e-08 3.069923e-08 -3.464611e-08
1.286548e-08 2.782140e-09 1.979086e-08 -2.496284e-08 1.189528e-08 -1.638087e-08
1.133169e-07 -1.804640e-07 -4.798096e-08 -5.241293e-08 1.999405e-07 3.299873e-08
8.196324e-08 -1.081927e-07 -1.662140e-07 -3.802122e-08 2.762603e-07 1.799383e-09
5.737598e-08 -7.276504e-08 -9.813036e-08 -7.064264e-08 1.388568e-07 3.508069e-08
7.792897e-09 -3.871515e-09 -1.238303e-09 -4.421856e-09 -5.654481e-10 3.505241e-10
5.963728e-08 -2.170316e-07 -7.514211e-08 -8.886237e-08 1.940915e-07 5.623671e-08
-3.657960e-09 3.370364e-09 2.648592e-10 -4.355928e-09 -3.733960e-10 2.897869e-10
5.191641e-08 -1.054493e-07 -2.542981e-08 -4.015023e-08 1.252946e-07 3.061380e-08
-4.952456e-08 5.522450e-08 -4.785882e-08 -7.702660e-09 1.477527e-08 5.918183e-08
-7.393493e-08 1.068273e-07 2.372620e-08 1.274090e-08 -4.416830e-08 3.005409e-08
-2.582475e-08 1.043986e-07 1.118348e-07 6.188060e-08 -1.042720e-07 -1.015144e-07
-1.845509e-07 2.964576e-07 -2.732941e-07 -8.840758e-08 -1.025096e-07 1.774631e-07
4.483573e-09 1.843839e-07 7.791348e-09 1.125870e-07 -1.264979e-07 -1.573170e-07
-1.319335e-07 4.537614e-07 -1.709643e-07 1.292871e-08 -2.359127e-07 7.982671e-08
-9.571414e-08 1.867104e-07 1.235728e-07 5.400393e-08 -1.564818e-07 -5.527161e-08
3.445505e-09 -1.177528e-09 -6.971330e-10 -4.272730e-09 -2.568483e-10 -1.948330e-11
-2.279179e-09 2.855526e-09 4.709810e-11 -4.887335e-09 -4.358446e-10 -4.241291e-10
-1.342189e-08 -8.323242e-09 -4.049997e-09 1.651499e-08 -1.091874e-08 8.079033e-09
-4.881759e-09 -9.159735e-09 -2.551898e-11 1.614882e-08 -1.301566e-08 5.922127e-09
-2.757254e-09 -1.084679e-08 1.973488e-09 1.155962e-08 -7.211354e-09 3.004743e-09
-6.470358e-09 -1.065729e-08 2.407609e-09 1.081346e-08 -6.899051e-09 2.507058e-09
-7.324261e-09 2.347060e-09 1.603492e-09 5.654345e-10 6.159905e-10 -3.432629e-10
-6.078570e-09 3.159500e-09 1.159455e-09 1.743667e-09 2.947556e-10 -4.037934e-10
-4.524323e-09 3.319650e-09 8.651797e-10 3.321736e-09 3.433078e-10 -4.146703e-10
-6.327850e-09 3.043427e-09 8.502590e-10 2.108120e-09 1.131195e-09 2.403333e-10
-6.803041e-09 2.839107e-09 1.586071e-09 1.730388e-09 1.596386e-10 -4.308710e-10
-5.190146e-09 2.200065e-09 1.048349e-09 2.188610e-09 2.940914e-10 -3.945486e-10
-7.310068e-09 2.479155e-09 1.192765e-09 6.419444e-10 1.218994e-10 -8.902874e-10
-5.132298e-09 3.182960e-09 6.604024e-10 2.788961e-09 5.736454e-10 -3.741334e-10
-6.152651e-09 2.911370e-09 1.240305e-09 2.325065e-09 6.410342e-10 -3.520210e-10
1.455946e-08 -4.262248e-08 9.514514e-10 1.198088e-08 6.220029e-09 -8.642608e-10
1.205770e-08 -4.070394e-08 1.212283e-09 1.389215e-08 7.449024e-09 -1.162887e-09
8.833770e-09 -3.715483e-08 4.887738e-09 1.119970e-08 3.891350e-09 -5.134366e-10
-1.480694e-08 3.462906e-08 3.410290e-08 -2.182386e-08 3.010113e-08 -1.580707e-08
7.370143e-09 2.087151e-08 2.266193e-08 -3.402950e-08 2.856152e-08 -3.167821e-08
1.506391e-09 1.212852e-10 -4.657330e-10 -4.509496e-09 -4.540128e-10 -2.674825e-10
8.183298e-09 4.318814e-08 3.265183e-08 -4.485867e-08 4.929450e-08 -3.532154e-08
-2.989555e-08 6.058931e-08 -1.873140e-08 -2.196187e-08 7.084910e-09 1.155005e-08
-5.166247e-09 4.836673e-08 2.550118e-08 -3.688747e-08 3.881222e-08 -1.550307e-08
-4.154638e-09 -8.056034e-09 6.936838e-10 -1.408920e-08 4.043045e-09 3.639393e-10
-2.211222e-09 -2.247689e-08 2.183356e-09 -2.318410e-08 -1.670496e-08 -7.445603e-09
8.975186e-09 -1.717558e-08 -2.534447e-08 -2.392906e-08 -2.742255e-08 -9.478282e-09
9.032317e-09 -3.027091e-08 -1.536564e-08 -2.507379e-08 -2.581179e-08 -8.890981e-09
2.100387e-09 -1.452615e-10 -2.063110e-08 -1.898470e-08 -1.877205e-08 -8.056399e-09
9.370678e-09 -2.196420e-08 -1.097436e-08 -1.839550e-08 -1.977216e-08 -4.039957e-09
-2.386921e-09 -7.888355e-09 -1.730428e-08 -2.566555e-08 -1.834943e-08 -9.760060e-09
-8.275515e-09 -5.399298e-09 2.248751e-09 -9.594953e-09 2.238550e-09 -2.830194e-10
1.004594e-09 1.359547e-08 3.946509e-08 3.265327e-08 -2.652488e-08 -4.363366e-08
3.270805e-08 -5.029433e-09 3.133470e-08 1.863417e-08 -7.199013e-09 -4.105441e-08
-7.436437e-09 -7.284163e-09 -2.343490e-09 -1.528987e-08 2.744161e-09 1.787999e-09
-3.170511e-09 1.342046e-08 3.895882e-08 2.608116e-08 -2.501655e-08 -2.336309e-08
1.414503e-08 -7.872211e-09 7.000510e-08 2.115683e-08 -1.656493e-08 -4.627280e-08
-4.979992e-09 -7.521209e-09 -1.233035e-08 1.099292e-08 -8.773361e-09 4.809426e-09
-6.883930e-09 -3.208964e-09 -1.241811e-09 7.190668e-09 -5.179375e-09 2.508042e-09
9.886378e-09 -8.142463e-09 7.133310e-08 2.350790e-08 -1.868951e-08 -4.487775e-08
-2.439786e-08 1.921891e-08 4.038811e-08 3.459615e-08 -2.430902e-08 -1.090202e-08
2.229690e-08 -9.758703e-09 2.779676e-09 1.580537e-09 5.321403e-10 -4.646376e-09
-2.070447e-08 3.052745e-08 8.789743e-10 7.142607e-09 -4.733210e-09 6.975113e-10
2.210703e-08 -8.810325e-09 4.917216e-09 6.892171e-09 -5.595401e-10 -7.825786e-09
2.140303e-08 -7.881566e-09 -5.499103e-10 5.434767e-09 -8.900290e-11 -4.640713e-09
2.777064e-08 -9.924982e-09 1.452188e-09 3.049187e-09 -3.801978e-10 -7.950696e-09
2.771227e-08 -1.099201e-08 2.734719e-09 2.669629e-09 -7.766540e-10 -7.760676e-09
-1.131231e-07 3.080034e-07 -8.268628e-08 -8.968754e-09 -1.976670e-07 2.969680e-08
-2.926325e-07 3.212358e-07 1.766346e-07 1.631688e-08 -3.960591e-07 -5.522913e-08
-6.698539e-08 2.304737e-07 -7.886667e-08 2.553382e-08 -1.122486e-07 2.959368e-08
-1.683844e-07 4.437076e-07 2.879446e-08 -8.250782e-09 -3.516713e-07 -2.759078e-07
-7.104121e-08 1.106038e-07 1.908853e-08 2.111641e-08 -3.456331e-08 3.000638e-08
-5.798566e-08 1.022094e-07 -1.805418e-07 3.737777e-08 -1.723130e-09 -4.579597e-08
-6.804880e-08 1.444501e-07 5.185243e-09 4.388095e-08 -1.154710e-07 2.123769e-08
-2.627035e-09 1.720439e-09 3.601552e-10 2.680472e-09 5.808419e-10 -1.372144e-10
-2.633388e-09 1.633436e-09 4.280207e-10 2.707330e-09 2.771529e-10 -9.023010e-11
-6.515330e-10 1.224540e-09 2.237810e-11 4.107515e-09 4.022238e-10 -1.269198e-10
-1.118217e-11 6.692353e-10 1.594342e-10 3.759194e-09 5.464381e-10 1.160149e-10
-1.432792e-09 1.478846e-09 -8.843792e-11 3.980354e-09 4.013330e-10 -2.936826e-10
-5.931889e-09 2.539772e-09 1.360666e-09 1.701456e-09 2.364924e-10 -8.241061e-10
-6.264121e-09 1.934348e-09 1.231326e-09 7.088025e-10 7.123906e-10 -6.068701e-10
-1.162545e-08 -2.755948e-09 -1.986609e-09 -1.546627e-08 6.820514e-09 4.119415e-09
-1.040308e-08 3.866172e-09 1.992251e-09 -5.660681e-09 8.900586e-10 -1.168322e-09
-1.110761e-08 2.176584e-10 1.328009e-09 -8.824686e-09 2.846857e-09 1.048109e-09
-1.020163e-08 2.361776e-09 1.350410e-09 -1.215204e-08 2.561544e-09 1.748305e-09
6.423096e-09 -2.660536e-09 -1.153529e-09 -5.397547e-09 -2.203577e-10 1.411153e-10
7.333219e-09 -2.846242e-09 -1.310424e-09 -6.002066e-09 -4.496744e-10 6.075128e-10
6.972676e-09 -2.922770e-09 -1.061347e-09 -6.168329e-09 -6.776361e-10 8.707746e-11
7.523012e-09 -3.174695e-09 -1.169054e-09 -4.470730e-09 -3.175431e-10 4.050973e-10
2.466007e-09 -4.909734e-10 -6.761538e-10 -4.887434e-09 -3.834799e-10 -1.362143e-10
1.784906e-09 1.230021e-10 -6.946783e-10 -5.226069e-09 -7.140540e-10 -4.025912e-10
3.816162e-09 -7.293454e-10 -9.160808e-10 -6.246354e-09 -6.558355e-10 5.601823e-10
3.251815e-09 -8.304583e-10 -9.409671e-10 -6.259884e-09 -4.609334e-10 -5.967249e-11
1.761054e-09 -5.531246e-10 -7.728476e-10 -5.691334e-09 -2.370213e-10 2.159697e-10
3.449047e-09 -1.177644e-09 -7.054903e-10 -4.275530e-09 -5.571579e-10 1.678895e-10
-9.521679e-09 4.794702e-09 7.215968e-10 1.148346e-09 2.419968e-10 -9.005387e-10
-4.699765e-09 4.402596e-09 4.687168e-10 4.884836e-09 4.953000e-10 -3.993809e-10
-4.606349e-09 4.734701e-09 6.331831e-10 4.703007e-09 7.450369e-10 -5.241477e-10
-5.245883e-09 6.991636e-09 5.692420e-10 5.321931e-09 8.348986e-10 -8.732166e-10
-4.088642e-09 3.952537e-09 6.349716e-10 6.506448e-09 -1.911716e-10 -1.650457e-09
-2.794724e-09 2.325340e-09 4.092922e-10 4.337318e-09 9.106731e-10 -1.166998e-10
2.335692e-08 -5.084811e-08 -3.860781e-09 -1.515528e-08 -2.891687e-08 -4.466782e-09
2.371204e-08 -3.103944e-08 -3.151124e-08 -1.853005e-08 -3.817958e-08 -4.847899e-09
3.215745e-08 -5.054523e-08 -3.345945e-08 -1.053167e-08 -4.533098e-08 -1.257921e-09
2.420185e-08 -3.729785e-08 -3.078301e-08 -2.357261e-08 -3.551557e-08 -5.613159e-09
3.424473e-08 -4.867923e-08 -3.208462e-08 -2.024949e-08 -5.233763e-08 -8.384991e-09
-1.220781e-08 -1.723469e-09 -1.634209e-09 7.672618e-09 -6.445160e-09 4.880092e-09
-1.223096e-08 -1.841180e-09 8.507639e-12 7.846262e-09 -6.668610e-09 4.515745e-09
-7.796352e-09 -8.767469e-09 5.701812e-10 1.105164e-08 -6.814466e-09 3.746045e-09
-1.104443e-08 1.004878e-09 -1.838622e-09 5.964993e-09 -4.855494e-09 3.879212e-09
-8.591985e-09 1.423077e-09 -5.353939e-09 9.022239e-09 -7.927783e-09 4.461270e-09
-6.880994e-09 -2.861938e-09 2.085721e-09 7.110380e-09 -3.780188e-09 1.994091e-09
-8.716837e-09 -6.344066e-10 1.269657e-09 9.672716e-09 -7.344243e-09 4.382422e-09
1.103473e-08 -5.654793e-09 -1.319662e-09 3.511780e-09 1.166218e-10 -3.791256e-10
9.754994e-09 -4.603518e-09 -1.163381e-09 3.669260e-09 3.558696e-10 -1.966344e-11
1.222053e-08 -6.533497e-09 -1.216377e-09 1.141966e-09 1.930968e-10 -3.119213e-10
1.048367e-08 -5.162300e-09 -1.380925e-09 2.307630e-09 8.295745e-11 -5.023426e-11
1.136347e-08 -5.600832e-09 -1.208445e-09 3.386626e-09 7.127399e-11 -3.816301e-10
3.141942e-09 1.011114e-09 -2.450191e-10 8.203365e-09 5.897878e-10 -8.601735e-10
-4.802976e-09 1.391349e-08 2.538006e-08 3.492235e-08 -2.471992e-08 -2.579940e-08
3.282373e-08 -2.582604e-09 3.732169e-08 1.958805e-08 -1.713106e-08 -4.789190e-08
1.193892e-08 -2.992267e-08 -4.185842e-09 -1.616539e-08 8.868627e-09 2.246446e-09
-1.011634e-10 2.221718e-08 7.928816e-09 2.970304e-08 -1.632279e-08 -1.271022e-08
-1.845328e-08 1.704301e-08 5.308013e-08 2.960341e-08 -2.699131e-08 -3.374165e-08
1.449977e-08 -5.951687e-09 -1.761335e-09 -4.985580e-09 -3.308753e-10 -6.964451e-11
1.480736e-08 -6.130543e-09 -2.109312e-09 -5.350892e-09 -6.179489e-10 -3.112415e-10
1.580168e-08 -7.388426e-09 -9.030904e-10 -5.793502e-09 -9.813769e-11 -1.090878e-09
1.509662e-08 -6.451430e-09 -1.034636e-09 -5.696625e-09 -2.322548e-10 -5.514417e-10
1.292917e-08 -6.908642e-09 -1.386866e-09 -3.997040e-09 -6.690481e-11 -6.171035e-10
6.366654e-08 2.368593e-08 7.489116e-08 5.349618e-08 2.679023e-08 7.366028e-08
3.885015e-08 4.740983e-08 -5.071476e-08 6.255833e-08 1.505559e-08 8.218696e-09
4.073927e-08 2.748232e-08 -1.222906e-10 5.331368e-08 4.701896e-08 3.023578e-08
4.105730e-08 4.772601e-08 4.971147e-09 7.061468e-08 2.811647e-08 2.755955e-08
-8.239054e-09 5.475696e-08 8.873083e-09 6.764759e-08 3.598225e-08 2.657133e-08
6.624772e-08 -1.394930e-08 3.661063e-08 4.971513e-08 1.985839e-08 6.856142e-08
7.197020e-08 7.758581e-08 -1.716206e-08 1.231539e-07 1.238516e-07 9.900030e-08
5.379712e-08 9.082223e-09 1.629794e-07 7.550157e-08 1.040424e-07 1.379782e-07
1.762791e-08 7.531726e-09 -8.779395e-08 5.160749e-08 1.223441e-07 -6.898948e-08
1.866305e-08 3.809045e-09 -8.775343e-08 5.244711e-08 1.117052e-07 -6.048423e-08
1.920458e-08 -3.990396e-08 -3.049258e-08 9.516400e-08 1.070927e-07 -7.077163e-08
-3.530762e-08 2.973287e-08 -7.989885e-08 9.488764e-08 9.708324e-08 -7.745915e-08
-3.182232e-08 5.342491e-08 -3.271266e-08 4.739053e-09 -1.140965e-08 4.131579e-08
-3.720861e-08 1.985983e-08 -2.489156e-08 1.818617e-08 -2.667838e-08 4.731129e-08
-5.240664e-08 7.103494e-08 -2.074012e-08 9.470375e-09 -1.145469e-08 4.220954e-08
-1.128146e-08 3.719004e-08 -7.763860e-09 -2.106081e-08 1.835152e-09 1.483060e-08
-2.434568e-08 3.173424e-08 -6.056197e-09 -1.260768e-08 -4.506814e-10 1.866840e-08
-2.163555e-08 1.929793e-08 -1.783910e-09 -1.364037e-09 -8.245054e-09 1.587037e-08
-4.324381e-08 3.638169e-08 -1.120494e-08 1.786822e-08 -1.701230e-08 3.053992e-08
1.537354e-09 1.402333e-09 -6.520438e-10 -7.313833e-09 -1.198550e-10 1.494916e-10
1.586381e-08 -6.683653e-09 -1.651467e-09 2.609240e-09 8.277373e-11 -1.352474e-09
1.682105e-08 -6.625687e-09 -1.306145e-09 2.923351e-09 1.019057e-10 -6.693774e-10
2.664265e-08 -5.498289e-08 -2.171009e-08 4.013376e-09 2.644269e-08 3.669187e-10
2.790561e-08 -5.577082e-08 -2.105253e-08 4.079072e-09 2.626524e-08 -5.589070e-10
2.492496e-08 -4.630504e-08 -1.520485e-08 -7.144724e-10 1.770557e-08 -1.682722e-09
2.965037e-08 -4.996480e-08 -4.738575e-09 -1.189179e-09 2.059121e-08 1.800711e-09
2.188293e-08 -7.697878e-09 -6.166445e-11 4.674181e-09 -1.767805e-10 -4.167735e-09
2.276490e-08 -8.074434e-09 5.308300e-10 5.121532e-09 2.803614e-10 -6.092249e-09
2.155171e-08 -8.518604e-09 1.236331e-09 -2.204045e-09 1.111964e-10 -2.854649e-09
1.904400e-08 -9.202018e-09 1.306732e-09 1.301014e-09 -1.065559e-10 -3.208321e-09
1.912432e-08 -1.129267e-08 1.157427e-09 -9.417705e-10 2.941824e-10 -3.429366e-09
2.831742e-08 -1.129267e-08 4.561639e-09 -8.977910e-10 2.699936e-10 -9.052203e-09
1.722028e-08 -8.810325e-09 2.458095e-09 6.456951e-09 -3.129421e-10 -4.271307e-09
1.906948e-08 -8.393035e-09 9.356333e-10 4.535013e-09 2.584739e-10 -2.885535e-09
-3.100882e-09 2.604398e-09 1.118279e-10 5.132536e-09 1.070014e-09 9.783403e-10
-2.848945e-09 2.023794e-09 3.818563e-10 4.428637e-09 6.232277e-10 -3.870257e-10
-2.206315e-09 2.652285e-09 3.429379e-10 5.286961e-09 8.196829e-10 -8.270109e-10
-2.385775e-09 2.310045e-09 1.115152e-10 4.686330e-09 6.435789e-10 -4.701261e-10
-2.204859e-08 1.107623e-08 -4.505950e-09 -2.507078e-08 1.134315e-08 1.225080e-08
-2.453370e-08 -3.554953e-09 -1.803391e-08 -3.111254e-08 2.829665e-08 1.900723e-08
-2.790972e-08 7.904624e-10 5.763486e-09 -3.390826e-08 9.566072e-09 1.389276e-08
-2.200763e-08 2.348822e-09 5.370899e-09 -2.263087e-08 4.562727e-09 6.230623e-09
-1.837944e-08 1.605232e-08 -1.039360e-09 -1.401086e-08 2.196304e-09 5.298284e-09
-2.717539e-08 2.821806e-08 -9.973729e-09 -2.400285e-08 1.097631e-08 1.754976e-08
4.463182e-09 2.116743e-10 -1.346708e-09 -8.460570e-09 -7.111772e-10 4.449019e-11
1.548675e-09 3.227455e-10 -9.242760e-10 -7.136972e-09 -7.430203e-10 2.161608e-10
5.974083e-09 -1.801829e-09 -1.131588e-09 -7.751869e-09 -7.492054e-10 -1.363569e-10
5.810123e-09 -1.226626e-09 -1.033164e-09 -7.416619e-09 -4.514198e-10 1.787336e-10
4.373714e-09 -5.846119e-10 -9.355685e-10 -6.648083e-09 -7.094355e-10 2.457019e-10
1.458115e-09 1.414258e-11 -6.666607e-10 -6.914508e-09 -5.430854e-10 -9.236273e-11
8.213117e-09 -4.611178e-09 -1.149589e-09 4.120613e-09 4.123640e-10 -6.456707e-11
7.545968e-09 -2.978740e-09 -8.741066e-10 5.244442e-09 3.064409e-10 -4.386355e-10
1.137220e-08 -4.750006e-09 -1.293643e-09 4.956471e-09 4.150914e-10 -5.883607e-10
-5.174008e-09 -7.568699e-09 3.046221e-09 -9.036416e-09 1.247559e-09 -1.295065e-09
-7.033241e-09 -8.615058e-10 1.398837e-09 -8.108892e-09 1.826441e-09 -1.149900e-10
-8.230993e-09 -3.649329e-09 3.103759e-09 -8.026491e-09 7.264213e-10 -8.542485e-10
-6.515033e-09 -7.815269e-09 3.256192e-09 -1.186083e-08 1.711217e-09 -6.941882e-10
-8.657609e-09 -1.321492e-09 1.181396e-09 -1.238457e-08 1.444900e-09 5.549964e-10
-6.075787e-09 2.547234e-09 1.384056e-09 1.390352e-09 5.304541e-10 -5.447065e-10
-6.292716e-09 2.518849e-09 1.157500e-09 1.294175e-09 3.228462e-10 -6.551280e-10
-1.368416e-09 4.715443e-09 -1.805129e-09 -9.661426e-09 -1.729886e-09 1.556851e-09
-5.317819e-09 2.464425e-09 1.003010e-09 2.260785e-09 2.185555e-10 -5.755404e-10
-5.896347e-09 2.652325e-09 8.643539e-10 1.943042e-09 1.787555e-10 -2.563318e-10
-4.687915e-09 2.223290e-09 7.600560e-10 2.531074e-09 3.606806e-10 -4.629490e-10
-5.236755e-09 2.349361e-09 1.095979e-09 2.009623e-09 3.693212e-10 -1.183798e-10
-3.950939e-09 2.397776e-09 6.742933e-10 2.877230e-09 4.850058e-10 -2.363174e-10
-4.429895e-09 2.385260e-09 6.315417e-10 1.881590e-09 2.398097e-10 -2.648992e-10
-2.358416e-08 2.604568e-08 -2.542066e-08 -2.001705e-08 2.303680e-08 2.172291e-08
-5.743140e-09 2.371996e-09 9.323773e-10 1.429735e-09 2.614953e-10 -3.896627e-10
-9.478039e-09 1.098584e-08 1.048359e-09 3.848194e-09 -1.236145e-09 -1.094874e-09
-1.684156e-08 2.319149e-08 -1.869242e-09 7.019525e-10 9.024152e-10 1.552507e-09
2.511645e-08 -1.664130e-08 6.296827e-08 9.324275e-10 -2.985832e-09 -4.750517e-08
2.525663e-08 -1.139717e-08 6.050756e-08 3.523552e-09 -3.212197e-09 -4.593875e-08
8.359940e-08 -1.011672e-08 2.825634e-08 1.707274e-08 -1.083777e-08 -7.436203e-08
4.365339e-08 -1.056807e-08 2.743788e-08 -1.667609e-08 1.306263e-08 -4.149207e-08
2.075374e-08 1.480428e-08 5.301089e-09 -3.271390e-08 9.717773e-09 -1.915884e-08
3.005543e-08 -6.244182e-09 3.501537e-08 -2.310971e-08 1.140955e-08 -2.963389e-08
3.487194e-08 -1.490799e-08 2.000534e-08 -1.446915e-08 8.278120e-09 -2.523950e-08
2.733134e-08 -1.077891e-08 2.019354e-08 4.634719e-09 -9.419707e-09 -2.777277e-08
2.806258e-08 1.957308e-08 2.460459e-09 4.668256e-08 2.652123e-08 1.061465e-08
1.879021e-08 4.951562e-09 1.270383e-09 -2.702644e-08 9.118353e-09 -1.080627e-08
2.048675e-08 -4.976400e-08 -9.489162e-08 9.236440e-08 1.428184e-07 -7.225132e-08
-1.622133e-08 -3.069019e-08 -3.580467e-08 8.574222e-08 7.996820e-08 -4.945544e-08
-2.472745e-08 5.300480e-08 -7.505610e-08 7.228835e-08 6.590952e-08 -6.767014e-08
2.001171e-08 4.450802e-08 -1.043082e-07 3.738908e-08 8.244231e-08 -4.296256e-08
4.670018e-09 2.107138e-08 -7.384475e-08 3.724199e-08 6.182267e-08 -3.797585e-08
-3.192947e-09 -1.454966e-08 -2.814904e-09 -1.957749e-08 6.251569e-09 2.824437e-09
-2.173184e-08 1.798235e-08 -4.580134e-09 -1.170003e-08 4.691433e-09 6.703461e-09
-2.611548e-08 5.615772e-08 -3.924796e-08 3.288317e-08 2.655979e-08 -5.006836e-08
-2.317212e-08 8.217480e-08 -6.902955e-08 5.192194e-09 4.501785e-08 -4.442929e-08
-2.182491e-08 7.996674e-08 -1.524210e-07 4.344388e-08 8.546711e-08 -8.436560e-08
1.889342e-08 -7.564343e-09 -1.305938e-09 3.549492e-09 4.548466e-10 -2.225443e-09
2.243344e-08 -9.281836e-09 -6.507328e-11 1.079331e-09 2.177071e-10 -4.181259e-09
2.231933e-08 -8.910979e-09 -2.436748e-09 5.042897e-10 6.458738e-10 -3.147371e-09
2.470289e-08 -9.561804e-09 1.450808e-09 5.407945e-09 -3.433420e-10 -7.404522e-09
2.359929e-08 -8.916551e-09 -1.486319e-09 1.002891e-09 1.455158e-10 -4.262842e-09
8.100174e-08 -1.527457e-07 -1.852354e-07 1.001084e-07 3.702428e-07 -9.208715e-08
6.818376e-08 -2.918029e-07 -1.234729e-07 1.645963e-07 3.565413e-07 -1.185734e-07
-2.903446e-08 4.720213e-08 -2.307546e-08 -2.810350e-08 1.851435e-08 3.117132e-08
7.348100e-08 -2.097785e-07 1.047583e-09 8.177736e-08 1.551207e-07 -3.200513e-08
1.024352e-08 -5.119268e-09 -1.607371e-09 -4.793058e-09 -2.745421e-10 3.181855e-10
3.314857e-08 -7.272136e-08 -1.458580e-07 6.751597e-08 2.161313e-07 -8.224785e-08
4.691976e-08 -6.301064e-08 -9.882421e-09 2.593106e-08 6.197592e-08 -8.729456e-09
4.313832e-08 -1.457364e-07 -2.914184e-08 5.249287e-08 1.028518e-07 -1.974399e-08
4.880478e-08 -4.383190e-08 -4.871576e-08 4.041283e-08 1.033516e-07 -2.926572e-08
4.829887e-08 -3.808542e-08 -3.724839e-08 4.153588e-08 1.121931e-07 -2.878254e-08
3.761682e-08 -8.304278e-08 -3.336926e-08 8.342449e-09 5.383684e-08 -4.926446e-09
3.676971e-08 -8.309290e-08 -2.681095e-08 8.048651e-09 5.447548e-08 -4.768958e-09
2.788390e-08 -3.477232e-08 -1.900835e-08 1.468201e-08 2.376619e-08 -4.251431e-09
3.218350e-08 -4.520110e-08 -2.945892e-08 6.530236e-09 3.275115e-08 -3.209266e-09
2.955777e-08 -6.709680e-08 -1.237485e-08 4.843396e-10 3.202911e-08 6.814837e-10
-1.987479e-08 2.864631e-08 -9.726400e-09 -8.494079e-09 5.849356e-11 -9.997412e-09
-2.099378e-09 4.274649e-08 -1.294761e-08 -2.330228e-08 -1.022588e-09 -8.085125e-09
-1.853120e-08 6.052714e-08 -1.536641e-08 -1.928091e-08 -3.048873e-09 -1.398410e-08
-2.626229e-08 3.501260e-08 -9.396539e-09 -1.857120e-08 9.259677e-09 -1.498125e-08
-8.386001e-08 1.978463e-07 6.101125e-08 -4.979665e-08 -1.582942e-07 -4.306878e-08
-9.297177e-08 1.966658e-07 1.456764e-07 3.217652e-09 -2.325347e-07 -8.731628e-08
-7.023388e-08 2.071105e-07 1.708075e-07 -2.907271e-08 -2.489474e-07 -4.370711e-08
-1.070032e-07 1.447176e-07 -2.236376e-08 -1.006687e-07 -5.039397e-08 -1.093066e-09
7.758103e-10 4.407182e-09 -4.658469e-10 9.220808e-09 6.811253e-10 -1.210007e-09
4.714253e-09 2.765067e-09 1.429579e-10 9.908922e-09 5.022890e-10 -1.984249e-09
6.805188e-10 9.652779e-10 -1.812603e-10 6.820582e-09 7.736885e-10 -9.217193e-10
-1.037738e-09 4.277632e-09 -4.664737e-10 7.607529e-09 7.093992e-10 -5.395895e-10
7.143903e-09 -3.301068e-09 -1.175879e-09 -6.064091e-09 -3.627474e-10 -1.714662e-10
8.611367e-09 -3.338497e-09 -1.336679e-09 -6.457478e-09 -2.656509e-10 1.347320e-10
7.819819e-09 -2.942058e-09 -1.086963e-09 -6.225725e-09 -6.414243e-10 -1.283484e-11
7.953801e-09 -2.911531e-09 -1.426694e-09 -6.146514e-09 -5.462864e-10 4.473912e-10
1.233269e-08 -5.120121e-09 -1.586205e-09 -5.126817e-09 -2.214550e-10 8.573565e-11
8.272583e-09 -3.538332e-09 -1.434009e-09 -6.254905e-09 -7.085888e-10 3.110852e-10
1.034044e-08 -5.158752e-09 -1.457957e-09 -4.788209e-09 -2.205121e-10 4.591244e-10
-2.063647e-08 1.755118e-08 -2.233712e-08 -2.605495e-08 1.892071e-08 1.793081e-08
-1.846635e-08 4.921270e-09 -1.270160e-09 -1.894185e-08 4.963236e-09 6.288549e-09
-1.346367e-09 2.112793e-09 -2.154539e-10 -5.653298e-09 -9.458991e-10 -1.130077e-10
-1.673768e-08 1.144825e-08 1.285999e-09 -5.675645e-09 5.904850e-10 1.034214e-09
-1.709860e-08 1.003723e-08 2.066868e-09 -3.892601e-09 1.483210e-09 1.501842e-09
-2.150957e-08 1.585856e-08 -1.688430e-09 -5.163685e-09 2.901990e-09 3.020150e-09
-2.063647e-08 4.269183e-08 -1.672270e-08 -1.734094e-08 6.416743e-09 1.494809e-08
-1.726096e-08 1.302342e-08 -2.170764e-09 -9.182619e-09 3.164012e-09 3.293800e-09
-1.656947e-08 5.010603e-09 3.202268e-09 -8.945196e-09 1.979649e-09 1.763072e-09
-1.718091e-08 1.251345e-08 -1.651234e-09 -9.023957e-09 4.590024e-09 3.613876e-09
6.307230e-08 -1.132459e-08 2.932394e-08 2.205719e-08 -1.098601e-08 -7.353695e-08
1.840130e-08 2.137840e-08 7.143713e-08 4.995411e-08 -4.255764e-08 -8.350691e-08
3.551663e-08 2.397386e-08 5.981549e-08 6.887945e-08 -5.250292e-08 -7.849119e-08
3.607513e-08 8.529780e-10 6.983343e-09 2.796904e-08 -1.157322e-08 -3.907601e-08
3.075639e-08 -1.062091e-07 -4.279132e-09 -5.998441e-08 7.651846e-08 2.231649e-08
-6.628576e-08 4.317518e-08 2.692582e-08 -6.347284e-08 -6.195534e-08 1.051362e-08
2.479901e-08 -5.223071e-08 -1.987809e-08 -3.761239e-08 4.647599e-08 1.027135e-08
-4.206769e-10 -8.337950e-10 -1.291444e-08 -3.963321e-08 2.832965e-08 1.753176e-08
6.982055e-09 -5.254521e-08 -2.174483e-08 -4.614057e-08 4.807633e-08 1.706561e-08
1.979483e-08 -2.644791e-08 -4.019682e-08 -6.599028e-08 6.358088e-08 3.856279e-08
1.047551e-07 3.936636e-07 -1.856280e-07 1.140461e-07 -2.378059e-07 -4.253175e-07
2.805059e-09 -2.669940e-09 5.852478e-08 -1.555282e-08 -2.476149e-09 -9.365554e-08
-6.563779e-08 7.757213e-08 2.394490e-07 -4.844261e-08 1.150069e-07 -1.249350e-07
-1.704806e-08 1.809493e-08 1.097444e-07 -6.741803e-08 5.334834e-08 -7.694991e-08
5.702103e-10 -1.438863e-08 1.055556e-07 -3.666992e-09 -1.337459e-08 -5.890772e-08
-9.516348e-09 9.506572e-09 -2.641610e-09 -7.770891e-09 -3.135211e-09 4.570802e-09
-8.856538e-09 6.028165e-09 -1.409390e-09 -5.686911e-09 -2.514681e-09 2.315047e-09
3.446647e-09 -9.844752e-10 -7.191061e-10 -5.229739e-09 -5.722292e-10 -7.737002e-10
-9.053214e-09 8.598560e-09 -5.348322e-09 -4.850110e-09 -3.847391e-09 3.303001e-09
-3.927955e-09 8.517079e-09 -3.717991e-09 -1.120772e-08 -2.640695e-09 2.639090e-09
-3.022576e-09 2.699977e-09 -4.864775e-12 -3.953709e-09 -2.973981e-10 -4.326504e-10
-1.236238e-08 7.668411e-09 -1.582886e-09 -4.766503e-09 -3.051309e-09 3.836733e-09
-5.716470e-09 7.347324e-09 -6.735217e-10 -8.455718e-09 -2.395817e-09 8.702786e-10
-9.189684e-09 9.130527e-09 -1.651951e-09 -6.358393e-09 -2.299361e-09 2.321832e-09
-1.924560e-08 1.600114e-08 3.434426e-10 -1.145924e-09 6.686302e-10 1.956988e-09
-6.255684e-10 -1.977247e-08 5.118785e-09 2.099642e-08 3.836226e-09 -1.130506e-09
-5.288650e-09 -1.637216e-08 4.888038e-09 1.773743e-08 3.132416e-09 -2.113929e-10
-1.142152e-09 -2.444232e-08 2.952313e-09 2.254139e-08 6.662328e-09 -1.914929e-09
-1.128409e-09 -1.903816e-08 -1.687007e-09 2.557570e-08 1.102308e-08 -3.092171e-09
-1.967387e-09 -1.906650e-08 -1.043893e-09 2.405724e-08 7.854352e-09 -3.816605e-09
-5.759605e-09 -2.288413e-08 3.046590e-09 2.001738e-08 6.595795e-09 -1.410633e-09
-4.543696e-09 -1.723338e-08 3.272918e-09 2.895444e-08 7.271163e-09 -5.440348e-09
1.665900e-08 -2.126269e-08 -2.329114e-08 1.745468e-08 -2.118677e-08 7.680087e-09
2.150503e-08 -3.896620e-08 -3.135779e-08 1.428140e-08 -3.846550e-08 8.763744e-09
1.734936e-08 -2.718815e-08 -2.535611e-08 1.192236e-08 -2.559960e-08 6.234338e-09
-9.017503e-09 1.666837e-09 -2.325332e-08 3.102392e-08 -3.331268e-08 2.399439e-08
-9.052509e-09 1.790712e-08 -2.832846e-08 1.671395e-08 -2.410921e-08 2.143310e-08
5.185639e-09 -8.127254e-09 -1.709996e-08 2.358406e-08 -2.624628e-08 1.756377e-08
5.233821e-09 -6.781068e-09 -3.202208e-08 2.309072e-08 -2.896264e-08 1.691431e-08
1.778248e-08 -2.791287e-08 -2.885033e-08 1.975471e-08 -2.862489e-08 1.167341e-08
-9.022748e-09 -8.659242e-09 -1.986116e-08 2.347538e-08 -2.270470e-08 1.720873e-08
-1.457857e-08 2.664452e-08 -9.104208e-09 -1.310401e-08 -2.358721e-09 1.568705e-08
-1.209268e-09 1.947500e-08 9.637253e-09 -2.579857e-08 1.180473e-08 -2.601036e-09
1.556282e-08 1.809517e-08 9.976190e-09 -4.148710e-08 2.181799e-08 -1.768383e-08
-2.096618e-09 1.888347e-08 -2.011749e-09 -3.237690e-08 9.304957e-09 2.424945e-10
4.838704e-09 2.629818e-08 7.703180e-08 4.428839e-08 -4.408177e-08 -6.060652e-08
1.211342e-08 -6.453612e-09 -1.193825e-09 3.128102e-09 6.960171e-11 -1.614258e-10
3.269882e-09 1.759296e-09 8.707318e-08 7.757958e-09 -1.112540e-08 -5.133019e-08
1.260419e-08 2.289862e-07 -2.364762e-07 -2.372823e-08 4.138570e-08 -7.279316e-08
-1.537255e-07 1.395938e-07 -3.429188e-07 -2.403879e-07 3.344940e-07 8.760021e-08
1.696769e-09 3.116185e-07 -3.200128e-07 6.232875e-08 -5.869775e-09 -1.994257e-07
-1.317133e-08 1.835906e-08 2.395307e-10 3.942505e-09 2.152235e-10 -1.885325e-09
-4.743823e-09 1.423326e-08 1.650885e-09 1.212682e-08 -9.436254e-10 -5.118791e-09
-5.329981e-09 1.495458e-08 2.211901e-09 1.211027e-08 -2.390370e-09 -3.913891e-09
-9.579096e-09 1.055632e-08 4.951448e-10 5.272256e-09 3.531962e-10 -4.776780e-10
-1.183340e-08 1.000650e-08 1.930012e-09 6.327109e-09 -1.931671e-09 -1.656299e-09
-1.145419e-08 1.054361e-08 2.071710e-09 6.799586e-09 -7.337678e-10 -9.060702e-10
-9.345861e-09 1.262951e-08 2.989964e-11 4.380883e-09 5.942460e-10 -8.533442e-10
3.199595e-09 -2.409223e-08 -1.795805e-08 4.102530e-08 -6.818078e-08 4.986121e-08
1.100592e-08 3.630152e-09 -5.489562e-08 2.546831e-08 -9.948594e-08 6.251803e-08
3.157182e-08 5.918990e-09 -9.635103e-08 3.804832e-08 -1.060482e-07 2.657743e-08
2.200486e-08 -7.558272e-09 -8.557171e-08 2.533588e-08 -7.845079e-08 3.983699e-08
-1.395931e-08 9.098699e-09 -3.555569e-10 -6.663503e-09 2.848621e-09 2.181772e-09
-1.190535e-08 7.627709e-09 1.075922e-10 -2.861241e-09 1.661626e-10 -7.691170e-10
-1.176445e-08 3.703912e-09 1.506634e-09 -4.055392e-09 9.397515e-10 1.981480e-10
-9.253795e-09 3.681125e-09 1.293226e-09 -5.384111e-09 1.491643e-09 -5.702677e-11
-8.595345e-09 -4.255302e-10 1.019612e-09 -7.667881e-09 1.815183e-09 5.802146e-10
-9.131307e-09 -6.344635e-09 2.470929e-09 -1.367836e-08 2.183767e-09 8.181333e-10
-8.146370e-09 -2.704679e-09 1.946925e-09 -1.011922e-08 9.212351e-10 -1.901250e-10
-9.501232e-09 -1.874694e-09 2.374964e-09 -1.312371e-08 1.748043e-09 5.176133e-10
-1.109203e-08 3.916131e-10 5.643663e-10 -8.961859e-09 1.823133e-09 1.062588e-09
3.012084e-08 -4.691737e-08 -3.576705e-08 -6.711008e-09 -4.689575e-08 1.345623e-09
2.807832e-08 -3.787772e-08 -2.985992e-08 -5.849830e-10 -3.161385e-08 1.750659e-09
3.166159e-08 -7.046217e-08 -8.469049e-09 -1.258801e-08 -3.826180e-08 -3.505050e-09
3.215865e-08 -5.255621e-08 -3.084340e-08 -1.090542e-08 -3.968292e-08 -1.350850e-09
3.219605e-08 -6.180852e-08 -3.498985e-08 -1.085565e-08 -5.885267e-08 -2.486227e-09
2.867198e-08 -6.368661e-08 -6.444242e-09 1.355756e-09 -3.397175e-08 7.370272e-10
2.539976e-08 -3.943530e-08 -3.195966e-08 1.388832e-08 -3.783287e-08 8.263553e-09
2.470191e-08 -3.480112e-08 -3.015350e-08 6.841940e-09 -2.985201e-08 4.494272e-09
2.527508e-08 -5.010988e-08 -1.216439e-08 1.339273e-08 -2.631361e-08 7.181727e-09
2.890296e-08 -4.456299e-08 -3.556239e-08 3.368804e-09 -4.518476e-08 5.887569e-09
3.215345e-08 -5.827200e-08 -1.379206e-08 2.427432e-09 -4.118948e-08 3.304704e-09
3.218993e-08 -4.665024e-08 -3.431597e-08 1.440463e-09 -4.413334e-08 3.858612e-09
3.179223e-08 -2.911414e-08 -7.826313e-08 1.641407e-08 -8.111880e-08 2.429331e-08
3.319480e-08 -3.867857e-08 -2.822813e-08 1.823492e-08 -5.330652e-08 1.468640e-08
4.056413e-08 -3.916634e-08 -3.510695e-08 -1.566265e-11 -6.162326e-08 8.477623e-09
3.344727e-08 -7.063747e-08 -3.878492e-08 2.365433e-08 -7.465328e-08 2.038866e-08
4.606101e-08 -2.868402e-08 -4.974133e-08 1.930361e-08 -7.667054e-08 2.175665e-08
7.915599e-09 2.379825e-09 6.470052e-10 -1.849435e-08 1.648484e-09 -1.326753e-09
1.869314e-08 3.026937e-09 1.002499e-09 -2.568631e-08 8.896589e-09 -6.160738e-09
-7.420294e-09 1.855427e-08 -6.267293e-09 -2.206888e-08 4.396539e-09 7.689456e-09
2.542293e-08 -5.715537e-09 7.793651e-09 -2.156764e-08 8.446027e-09 -1.363493e-08
-8.465324e-09 1.843985e-08 -3.441691e-09 -1.666082e-08 2.385641e-09 4.765410e-09
-9.699459e-09 1.620358e-08 1.295673e-09 -1.961918e-08 4.005752e-10 7.573168e-09
7.033301e-09 1.067545e-08 -3.297197e-09 -2.131218e-08 2.100541e-09 5.657620e-10
8.394613e-09 5.472962e-09 9.982131e-10 -1.956093e-08 1.226129e-09 -2.083746e-09
1.247277e-08 -6.364961e-09 -1.631276e-09 -2.264474e-09 -1.153801e-10 2.277716e-10
1.200032e-08 -6.695797e-09 -1.623886e-09 -2.669689e-09 -1.335710e-10 2.196425e-10
1.195832e-08 -5.793316e-09 -1.414786e-09 -2.089118e-09 -2.477835e-10 3.544209e-10
1.199311e-08 -6.515782e-09 -1.646778e-09 -2.625532e-09 -1.865069e-11 4.278926e-10
1.295426e-08 -6.668027e-09 -1.634107e-09 -3.031932e-10 -1.448908e-10 4.424818e-10
4.920426e-09 -1.667433e-10 -1.374298e-09 -9.691596e-09 -3.662967e-10 -2.560530e-11
5.507390e-09 -1.761951e-09 -1.090747e-09 -7.534498e-09 -5.575291e-10 -2.974264e-10
5.846482e-09 -1.210542e-09 -1.070380e-09 -7.453200e-09 -4.462715e-10 2.096916e-10
6.462773e-09 -2.007942e-09 -1.043492e-09 -8.296051e-09 -4.570038e-10 -3.500977e-12
3.142766e-09 2.719364e-10 -9.972305e-10 -8.618671e-09 -7.791721e-10 4.836367e-10
5.163280e-09 -1.820348e-10 -1.138714e-09 -9.741518e-09 -5.957682e-10 4.471783e-10
-8.609589e-09 5.716064e-09 9.599099e-10 5.050348e-11 1.601872e-09 2.016349e-10
-8.939665e-09 3.728651e-09 1.419685e-09 -9.175186e-10 -4.497810e-10 -1.115905e-09
1.567196e-08 -7.682643e-09 -4.006120e-10 2.470948e-09 6.193477e-11 -1.626905e-09
-5.384053e-08 5.153592e-08 -2.259360e-08 5.301721e-09 2.804897e-08 -4.562102e-08
-3.692437e-08 5.239621e-08 -6.259231e-08 2.666209e-08 5.066528e-08 -4.973695e-08
-6.521016e-08 1.305887e-07 -8.895248e-08 -5.945568e-09 -5.636234e-09 -7.203474e-08
-2.145748e-08 9.304159e-08 -1.726210e-08 -5.069951e-08 -2.551876e-08 -6.384864e-09
-3.046030e-08 7.057456e-08 -8.381310e-08 3.315677e-08 5.122403e-08 -5.927148e-08
-2.457006e-08 9.935164e-08 -2.095426e-08 -3.749408e-08 -1.710866e-08 -2.445005e-08
-3.998350e-08 9.606713e-08 -7.976823e-08 1.814442e-08 2.070703e-08 -5.989006e-08
-2.113121e-08 2.675149e-08 -1.350645e-08 1.659972e-08 9.818114e-09 -1.044123e-08
-1.922076e-08 6.394005e-09 -1.307051e-08 3.242320e-08 2.234678e-08 -1.726181e-08
-1.681746e-08 4.563638e-09 -4.517603e-09 2.463807e-08 1.628734e-08 -9.330952e-09
-2.158740e-08 -3.603101e-10 -2.821919e-09 3.604467e-08 1.603804e-08 -1.537389e-08
-2.328188e-08 1.934206e-09 -2.263283e-10 3.613167e-08 1.883976e-08 -1.645148e-08
6.507052e-08 -2.546199e-08 3.067568e-08 3.337504e-08 2.536435e-08 4.046000e-08
-2.168766e-09 2.031424e-09 -5.265655e-11 -3.496595e-09 -5.147274e-10 -1.207812e-10
8.766243e-08 -2.738099e-08 2.722222e-08 4.595064e-08 4.959474e-08 1.125088e-07
-2.520310e-09 -2.765592e-08 2.531446e-10 2.610655e-08 -2.168527e-08 9.120661e-09
6.934860e-08 -2.792560e-08 3.797822e-08 -9.664062e-09 -9.729241e-09 5.368497e-08
1.079982e-07 -3.814002e-08 1.037471e-07 -2.244647e-08 -7.479797e-09 1.162357e-07
7.285857e-08 -3.442588e-08 2.760747e-08 1.898394e-08 5.949930e-09 1.001757e-07
8.469802e-08 -5.951969e-08 1.065472e-07 -2.580473e-11 -2.336903e-09 1.117680e-07
1.014954e-09 2.676307e-09 -3.030500e-10 -9.879761e-09 -4.655789e-10 -9.483880e-10
2.195163e-09 2.189110e-09 -1.683111e-09 -9.025569e-09 -1.631651e-09 1.319049e-09
-2.021006e-10 9.620118e-10 -6.516787e-10 -7.657961e-09 -1.064985e-09 5.003377e-10
-5.320495e-09 3.688988e-09 -2.269430e-10 -6.716378e-09 -1.236845e-09 5.633689e-10
-5.803333e-09 3.941131e-09 -2.498115e-10 -5.966892e-09 -1.302612e-09 8.004985e-10
-2.636281e-09 4.172944e-09 -9.207297e-10 -7.479482e-09 -1.442857e-09 4.515915e-10
1.520043e-09 1.285526e-09 -3.850946e-10 -5.083224e-09 -4.615353e-10 -2.645082e-10
1.220302e-09 1.186020e-10 -6.069146e-10 -5.308489e-09 -5.779847e-10 9.524082e-11
-7.632569e-09 -1.194277e-08 3.017710e-09 2.118046e-08 5.489254e-09 -1.470143e-09
-9.978969e-10 1.422744e-09 7.913692e-11 -4.851776e-09 -7.657677e-10 -2.958989e-11
9.689609e-10 1.410849e-09 -5.006819e-10 -6.370495e-09 -7.557685e-10 6.117062e-10
1.999076e-10 1.414364e-09 -6.941480e-10 -6.389471e-09 -8.555709e-10 -4.736875e-10
-9.447865e-10 1.611343e-09 -1.716565e-10 -4.720516e-09 -3.679447e-10 4.311507e-11
-7.132410e-10 8.370113e-10 -3.187723e-10 -4.975464e-09 -7.056104e-10 -7.451195e-11
-8.768108e-10 1.703606e-09 -1.348395e-08 -2.523094e-08 -2.549746e-08 -1.287337e-08
6.668978e-09 -1.587645e-09 -4.780491e-08 -3.266300e-08 -4.545724e-08 -2.205520e-08
4.284983e-10 -1.454262e-08 -2.622572e-08 -2.576192e-08 -2.774712e-08 -1.226052e-08
1.276150e-08 -2.271168e-08 -2.607209e-08 -2.782471e-08 -4.535622e-08 -1.601045e-08
1.297071e-08 -2.871290e-08 -2.378002e-08 -2.706673e-08 -4.029244e-08 -1.523513e-08
-2.434680e-09 6.034339e-08 -4.603592e-08 -2.748719e-08 -3.280539e-08 3.499357e-08
-3.431708e-09 7.685874e-08 -8.139819e-08 -2.937115e-09 -3.953583e-08 6.080941e-08
-3.984198e-08 4.760714e-08 -1.097298e-07 8.406974e-08 -1.269295e-07 9.323706e-08
-2.718262e-08 1.715782e-07 -1.230266e-07 6.461604e-08 -4.247250e-08 1.018561e-07
-5.125387e-08 -4.613967e-08 -6.858046e-08 1.199305e-07 -1.069255e-07 9.581863e-08
2.636419e-08 -6.076549e-08 -9.685250e-09 -1.139557e-08 -3.732920e-08 1.133187e-09
8.386229e-09 -4.152401e-08 1.837559e-09 -2.306594e-08 -2.598560e-08 -9.085309e-09
1.736321e-08 -2.545739e-08 -1.551831e-08 -1.489846e-08 -2.184628e-08 -3.522259e-09
1.980940e-08 -2.774285e-08 -1.909878e-08 -1.333005e-08 -2.481990e-08 -4.734620e-10
9.404156e-09 -3.617629e-08 -1.811254e-08 -2.476109e-08 -3.492886e-08 -1.050583e-08
9.464127e-09 -2.341731e-08 -2.500212e-08 -2.333693e-08 -3.964830e-08 -1.195719e-08
1.944824e-08 -3.796998e-08 -3.020542e-08 -2.014399e-08 -3.552736e-08 -8.265779e-09
1.443271e-08 -3.555268e-08 -1.313877e-08 -2.171927e-08 -2.491300e-08 -5.228368e-09
-7.393429e-09 -2.375472e-09 -1.750203e-08 -2.045284e-08 -2.008126e-08 -1.083204e-08
-3.967414e-09 -9.734006e-09 -1.730705e-08 -1.936923e-08 -1.847138e-08 -9.668398e-09
-1.022132e-08 -1.153835e-08 -9.285462e-10 -2.641400e-08 -1.758981e-08 -6.161756e-09
-7.728258e-09 3.299937e-09 -1.353707e-08 -2.493804e-08 -2.300075e-08 -1.158258e-08
-2.270806e-09 -1.328476e-08 -1.407856e-08 -2.587742e-08 -2.647431e-08 -1.146599e-08
-6.334186e-09 -1.531413e-08 1.488623e-09 -2.755754e-08 -1.693357e-08 -9.236515e-09
-7.550196e-09 4.166668e-10 -1.392552e-08 -2.058447e-08 -1.617645e-08 -1.157029e-08
-5.578203e-09 -1.756180e-08 -2.324070e-09 -2.481910e-08 -1.614709e-08 -6.954296e-09
-5.928767e-09 3.689813e-09 6.426744e-10 -2.877923e-09 -4.344757e-10 -3.314213e-10
-4.502089e-09 3.148663e-09 2.704910e-10 -3.581312e-09 -7.138103e-10 -5.114102e-10
-5.392436e-09 3.445889e-09 5.602250e-10 -4.149838e-09 -4.637521e-10 -2.152302e-10
-4.651027e-09 3.017908e-09 4.312373e-11 -3.746534e-09 -4.924313e-10 -3.256031e-10
-3.404506e-09 3.006607e-09 -6.036949e-12 -3.860959e-09 -5.288101e-10 -2.896988e-10
-4.403704e-09 3.666378e-09 4.140424e-10 -3.310622e-09 -5.734913e-10 -4.318952e-10
-3.308268e-09 2.934658e-09 2.787082e-10 -3.920115e-09 -4.344825e-10 3.110534e-11
1.900934e-08 -7.938361e-09 2.951446e-10 -7.879273e-09 -5.051080e-11 -3.344730e-09
2.003739e-08 -3.636121e-09 1.171044e-09 -1.377718e-08 7.983431e-10 -4.267047e-09
1.838239e-08 -8.694439e-09 1.465674e-09 -4.339286e-09 4.362801e-10 -3.254293e-09
2.258063e-08 -8.596411e-09 1.055913e-09 -5.021952e-09 3.073379e-10 -2.923821e-09
1.628114e-08 -5.622678e-09 4.119118e-10 -9.193544e-09 1.501114e-09 -2.927846e-09
1.940006e-08 -7.362789e-09 -1.365617e-09 -6.101848e-09 -5.005063e-11 -1.422464e-09
-2.365807e-07 1.105760e-07 3.206161e-07 -3.373467e-08 -3.410547e-08 -1.844924e-07
-4.519834e-08 1.272694e-07 -5.163537e-08 -4.072852e-08 4.738101e-08 -4.944885e-08
-6.501465e-08 1.525241e-07 6.911624e-09 -1.115093e-07 1.362690e-07 -6.301408e-08
-8.313890e-08 2.859297e-08 3.023744e-07 -5.715480e-08 4.395573e-08 2.309681e-08
-8.370744e-08 2.799550e-08 2.551637e-07 -4.761715e-08 5.130665e-08 -1.752266e-07
-5.390197e-08 1.340924e-07 3.418043e-07 -5.579611e-08 1.108783e-07 -9.862278e-08
-1.829827e-07 -2.469899e-08 3.123886e-07 -1.358448e-07 -7.927706e-08 -2.485220e-07
-1.811523e-07 8.976037e-08 3.991136e-07 -9.907607e-08 7.765419e-08 -2.541312e-07
-6.992479e-09 4.351617e-09 8.571988e-11 -4.663969e-09 -1.164590e-09 4.695337e-10
-5.063841e-09 3.473697e-09 -4.633094e-11 -5.172748e-09 -1.037007e-09 -1.857052e-10
-5.087060e-09 3.494920e-09 2.458198e-10 -4.885331e-09 -8.608478e-10 5.953808e-11
-3.989503e-09 3.245597e-09 3.123486e-10 -5.200698e-09 -1.011004e-09 2.499943e-10
-3.657835e-07 1.578212e-07 4.524400e-07 -9.024468e-09 -3.794706e-07 1.454234e-08
-5.140920e-09 3.207233e-09 4.581420e-10 -4.078471e-09 -9.236761e-10 -1.966614e-10
-5.065702e-09 3.403342e-09 2.311551e-10 -5.230283e-09 -7.291706e-10 3.369660e-10
4.679447e-08 -2.384104e-08 -1.164589e-07 3.221258e-08 1.269991e-07 -2.290419e-08
4.837795e-08 -8.107809e-08 -5.256185e-08 -5.755912e-09 7.770924e-08 3.049122e-09
5.301597e-08 -9.536337e-09 -9.564160e-08 -8.082936e-09 9.628371e-08 -3.383588e-09
1.057975e-08 -5.530853e-09 -1.239247e-09 2.890481e-09 1.219941e-10 4.312026e-10
6.645866e-08 -1.214612e-07 -1.090255e-08 -1.143894e-09 9.038932e-08 -4.861948e-09
3.291179e-08 -3.381197e-08 -8.178903e-08 3.377291e-08 9.002549e-08 -2.744831e-08
4.702684e-08 -3.810359e-08 -8.088232e-08 4.244156e-08 9.746356e-08 -2.158318e-08
4.866270e-08 1.179759e-09 -9.251341e-08 2.510017e-08 9.734166e-08 -1.316192e-08
5.303530e-08 -8.464231e-08 -5.485834e-08 4.973459e-09 1.084743e-07 9.072235e-09
2.754345e-08 2.951515e-08 -1.389000e-07 -2.775661e-08 -1.345025e-07 1.993392e-08
1.872358e-08 -1.196759e-09 -1.518446e-07 1.128036e-08 -1.625959e-07 4.175959e-08
2.056237e-08 8.132241e-08 -7.472945e-08 -3.485899e-09 -2.972292e-08 2.846876e-08
1.910853e-08 7.697423e-08 -1.016113e-07 -7.630539e-10 -5.037418e-08 3.717144e-08
5.226926e-08 1.732427e-08 -9.543979e-08 1.241249e-08 -1.103269e-07 3.113286e-08
8.148273e-09 9.731497e-09 -7.452002e-08 2.650354e-08 -6.405597e-08 4.441477e-08
3.311655e-08 -6.996954e-08 -8.334206e-08 3.780351e-08 -1.237211e-07 3.166499e-08
2.671951e-08 -5.152787e-08 -1.860482e-08 -3.568861e-08 -7.408932e-08 -1.920464e-08
4.602416e-09 -3.469399e-08 -3.904370e-08 -4.284699e-08 -6.748559e-08 -2.463153e-08
7.362719e-09 -5.824556e-08 -1.676624e-08 -5.079678e-08 -6.454690e-08 -3.180858e-08
9.205857e-08 -2.587887e-08 1.336655e-07 -7.341270e-08 -8.818507e-08 2.027035e-07
5.384991e-08 -3.738951e-08 4.420470e-08 -1.728999e-08 -4.665666e-10 5.857167e-08
6.983907e-08 -3.495366e-08 1.179318e-07 1.354238e-08 -1.906036e-08 1.025232e-07
1.208409e-07 -2.489864e-08 2.788869e-08 -8.467961e-09 6.131610e-09 1.041276e-07
6.794057e-08 -2.840393e-08 8.804022e-09 -6.010072e-08 -1.384106e-08 8.064286e-08
6.486575e-08 -1.276373e-08 5.801342e-08 -5.706208e-08 -4.862779e-08 8.404416e-08
9.420612e-08 -3.748618e-08 1.344767e-07 1.991691e-08 2.045676e-09 1.505548e-07
-1.809688e-09 4.787975e-09 2.574337e-09 1.027982e-08 -7.451883e-10 -3.437903e-09
1.062983e-08 3.339738e-10 -2.854558e-10 1.231893e-08 -4.367499e-10 -5.395951e-09
3.602452e-09 4.542905e-10 2.794122e-09 1.185912e-08 -8.426217e-10 -4.584869e-09
1.463184e-09 8.904948e-09 1.796071e-09 1.407763e-08 -1.130442e-09 -3.360033e-09
4.874470e-09 8.347639e-09 -1.195834e-09 1.612252e-08 -2.067834e-09 -3.105302e-09
-4.115660e-08 5.071741e-08 -4.601801e-09 -1.025887e-08 6.735498e-09 1.753341e-08
-2.686297e-08 2.601817e-08 3.509830e-09 6.997947e-09 -6.854200e-09 1.311578e-09
-4.695036e-08 4.296342e-08 -4.875985e-09 -3.482672e-09 4.843958e-09 1.934122e-08
-2.549831e-08 2.263001e-08 -9.498198e-10 7.531146e-09 -1.142553e-09 3.149053e-09
-3.593570e-08 5.626433e-08 -1.787454e-08 -2.034873e-08 6.754649e-09 2.579499e-08
-2.577031e-08 3.429883e-08 -5.732842e-09 -4.411744e-09 2.698576e-10 1.302378e-08
-4.313275e-08 3.733011e-08 -5.166551e-09 -1.900751e-08 1.300544e-10 2.463289e-08
-1.017579e-08 1.473250e-09 -1.050911e-08 6.566966e-09 -1.005276e-08 6.250680e-09
-1.230235e-08 1.359340e-08 -1.409059e-08 1.134200e-08 -1.750166e-08 1.698668e-08
-1.619106e-08 1.022395e-08 -9.689756e-09 8.388271e-10 -8.793336e-09 9.159290e-09
-1.312352e-08 1.222401e-08 -9.454567e-09 3.826975e-09 -7.945768e-09 1.000942e-08
-1.280602e-08 1.452531e-08 -9.553691e-09 2.642846e-09 -7.018554e-09 9.160937e-09
-1.206310e-08 1.346001e-08 -1.982788e-08 1.130295e-08 -1.520059e-08 1.474270e-08
-1.116068e-08 7.130361e-09 -1.639633e-08 5.053951e-09 -1.373051e-08 1.102861e-08
6.196527e-08 -5.563436e-08 -7.404792e-08 -9.540003e-09 -1.486985e-07 -4.608952e-09
5.208926e-08 -4.319268e-08 -9.034674e-08 -2.045912e-08 -1.272470e-07 8.765029e-09
5.579330e-08 -7.187622e-09 -1.544580e-07 7.195097e-09 -1.584267e-07 4.121457e-08
2.284685e-08 7.303297e-08 -9.904965e-08 -2.991886e-08 -4.515146e-08 -1.077133e-08
3.383682e-08 1.996071e-08 -1.100695e-07 1.232291e-08 -9.013739e-08 2.944288e-08
2.919614e-08 7.777761e-08 -1.086452e-07 -2.441260e-08 -4.685970e-08 -1.210807e-08
4.391432e-08 -4.471485e-08 -7.658020e-08 -9.479441e-09 -8.560139e-08 6.699207e-09
4.758822e-08 6.353514e-08 -1.100619e-07 -2.939957e-08 -4.164487e-08 -1.343181e-08
2.873319e-08 9.270641e-08 -1.726117e-07 -4.230551e-09 1.018338e-07 -9.906102e-09
9.486424e-08 -8.317483e-08 -2.135318e-07 -6.291748e-08 2.140835e-07 4.901858e-08
1.021433e-07 4.982940e-08 -1.941298e-07 -1.003540e-07 3.168372e-07 6.117211e-09
6.551397e-08 -5.674876e-08 -1.494240e-07 -1.369458e-09 1.837088e-07 1.477277e-08
-3.695493e-08 2.002932e-07 -4.491957e-08 2.882378e-09 1.296908e-07 -8.873509e-09
-3.033049e-08 1.902386e-08 1.179447e-09 -6.322371e-09 -7.429918e-10 8.244308e-09
-3.731851e-08 1.062621e-07 -1.278268e-08 -2.603756e-08 -3.284443e-08 -2.090687e-08
2.735553e-08 1.746495e-07 -1.997342e-07 -2.738837e-08 -1.504305e-07 6.532535e-09
-7.372937e-09 5.262903e-08 -1.024878e-07 -8.651379e-09 -5.616032e-08 -3.005254e-08
-2.529750e-08 5.801451e-08 -8.541309e-08 -3.271661e-10 -4.552302e-08 -2.602054e-09
9.005426e-08 1.090097e-07 -1.606492e-07 -4.520901e-08 -1.423184e-07 -4.329766e-08
9.137310e-08 -2.644235e-08 1.462296e-07 5.247842e-08 7.556421e-08 1.350284e-07
2.641474e-08 8.485919e-08 -1.267353e-07 -4.243276e-08 -9.800190e-08 2.522559e-09
-9.128380e-08 1.747539e-07 -2.878290e-08 1.073204e-08 7.793963e-08 -6.130968e-08
-2.479196e-09 3.361686e-09 -2.115175e-10 -7.470937e-09 -1.238932e-09 2.926205e-10
-5.950500e-09 1.355230e-08 5.104376e-08 6.532440e-08 6.093389e-08 4.391233e-08
-1.800077e-09 2.127466e-09 -6.424494e-10 -6.915612e-09 -9.574459e-10 5.309201e-10
-2.022599e-09 2.856160e-09 -3.519927e-10 -6.160231e-09 -7.411376e-10 5.015022e-10
-7.217120e-09 3.588502e-09 4.909824e-10 -3.296645e-09 -9.568284e-10 -1.380441e-10
-5.287286e-09 3.367583e-09 5.208409e-10 -3.955464e-09 -7.169714e-10 -3.892673e-10
-4.386197e-09 3.281715e-09 1.752394e-10 -5.144165e-09 -9.443004e-10 -9.757751e-13
-4.715703e-09 3.103984e-09 -1.795466e-10 -5.528111e-09 -1.296316e-09 -3.563391e-10
1.312037e-08 5.534638e-10 -3.304896e-09 -1.794673e-08 2.506983e-09 -1.299001e-09
9.462766e-09 2.074292e-09 -1.577318e-09 -1.468784e-08 -3.071584e-10 -1.244259e-09
1.051495e-08 -7.136994e-10 1.792946e-10 -1.503112e-08 2.672306e-10 -1.070764e-09
-1.090106e-08 1.290492e-08 -2.910741e-09 -1.207251e-08 -9.403926e-10 6.599928e-09
4.017240e-09 1.056526e-08 -3.188331e-09 -2.069156e-08 1.824721e-09 1.500234e-09
9.496564e-09 4.013840e-09 -3.839594e-09 -1.725748e-08 1.103901e-10 -4.514913e-10
8.630041e-08 -1.382765e-08 7.278364e-09 -2.810039e-08 -7.595443e-09 4.904634e-08
4.547728e-08 -3.239271e-08 4.842598e-08 -2.131584e-08 -3.327912e-09 3.923579e-08
7.220432e-08 -2.420282e-08 8.213476e-09 -1.293184e-08 -5.678232e-09 4.947118e-08
9.863212e-09 -4.170365e-09 -1.255299e-09 -7.056597e-09 -1.932035e-10 -1.949545e-10
8.459978e-09 -3.571097e-09 -1.201946e-09 -7.427259e-09 -5.469323e-10 2.020532e-10
1.294290e-08 -3.683342e-09 -1.573509e-09 -9.483510e-09 -5.659650e-11 -7.832516e-10
1.489902e-08 -6.074460e-09 -1.017849e-09 -5.511968e-09 -3.630303e-10 -1.201306e-09
1.787055e-08 -6.725895e-09 -2.398199e-09 -4.099838e-09 -2.205793e-10 6.574477e-11
1.564743e-08 -7.345833e-09 -1.250266e-09 -3.054003e-09 -1.773304e-10 1.377141e-10
8.141927e-09 1.646626e-09 1.831422e-09 -1.860654e-08 2.145201e-09 -3.391831e-09
-8.237882e-09 9.503004e-09 -2.980372e-09 -7.733887e-09 -3.170130e-09 5.002925e-09
-1.010253e-08 7.180664e-09 -2.116775e-10 -5.340752e-09 -3.030990e-09 2.556399e-09
1.318115e-09 6.731249e-09 -1.063187e-09 -1.548094e-08 -1.605289e-10 7.205567e-10
-7.005109e-09 9.158813e-09 -2.386894e-09 -1.032204e-08 -2.673326e-09 3.530834e-09
-3.493566e-09 4.398470e-09 -2.378642e-09 -9.592325e-09 -2.996656e-09 3.249530e-09
-1.007150e-09 6.586610e-09 -2.934448e-09 -1.348013e-08 -1.004919e-09 3.210476e-09
-2.215259e-07 7.278448e-08 2.685820e-07 1.057814e-07 1.486978e-07 3.325663e-08
-1.655733e-07 2.016829e-07 -1.243166e-09 1.324342e-08 1.068470e-07 -4.248340e-08
-1.714792e-07 1.455111e-07 3.744486e-07 -1.778966e-08 2.780686e-07 -2.257932e-08
-1.711943e-07 5.266136e-08 1.461377e-07 -1.919643e-08 8.226077e-08 -3.306478e-08
-5.795465e-08 1.762245e-07 -9.078216e-08 -3.407561e-08 -1.005361e-08 -1.910649e-08
-2.986061e-08 2.733925e-08 8.020383e-08 -3.799508e-08 4.048153e-08 -4.301650e-08
-5.781360e-08 1.415345e-07 -6.194503e-08 -2.925044e-08 -6.546345e-09 -6.386168e-08
-5.179429e-08 1.431497e-07 -9.503167e-08 3.149244e-08 -5.481234e-08 -4.558024e-08
-2.705230e-08 1.166477e-07 -1.155228e-07 -2.789585e-09 -1.192155e-08 -4.459239e-08
-3.351295e-08 7.260578e-08 -4.884325e-08 4.696207e-09 -2.108046e-08 -3.612249e-08
-4.351570e-10 3.277234e-10 -3.171181e-08 -2.550976e-08 -3.061996e-08 -1.459905e-08
-1.174130e-08 1.647440e-08 -2.577163e-10 -1.237666e-08 -1.379766e-09 4.878082e-09
-1.344677e-08 1.587348e-08 -6.815293e-09 -6.344494e-09 -6.909610e-09 9.788076e-09
-6.350853e-09 1.959174e-08 -3.240977e-09 -2.009130e-08 2.483059e-09 5.214063e-09
-5.058786e-09 2.631710e-09 7.755305e-10 1.641545e-09 2.093732e-10 -4.816125e-11
-5.819150e-09 2.444865e-09 1.268065e-09 1.039812e-09 1.549823e-10 -1.812684e-11
-4.697037e-09 2.484932e-09 6.591807e-10 2.080609e-09 3.234869e-10 -2.660888e-10
-4.442111e-09 2.319109e-09 7.646868e-10 1.912060e-09 2.857711e-10 -3.033982e-10
2.709192e-08 -7.966716e-08 -1.272269e-08 4.048886e-08 5.425629e-08 -1.259710e-08
4.284209e-08 -8.649395e-08 -6.094694e-09 8.754225e-09 6.007221e-08 -4.338021e-09
2.573834e-08 -7.105245e-08 -1.503795e-08 1.899445e-08 3.381637e-08 -7.184980e-09
3.689544e-08 -5.556927e-08 -1.283587e-08 4.198284e-09 3.385625e-08 -1.104922e-09
1.043719e-08 -4.826731e-09 -1.052559e-09 3.605488e-09 3.259182e-10 5.772027e-11
3.625228e-08 -5.448517e-08 -4.085851e-08 2.704220e-08 5.688634e-08 -1.324247e-08
2.393548e-08 -4.870054e-08 -1.113310e-08 3.384025e-08 3.545310e-08 -5.713560e-09
4.758044e-08 -6.369522e-08 -5.277054e-08 2.648206e-08 6.744986e-08 -1.412201e-08
1.661695e-08 -4.234059e-08 3.635977e-09 -6.962376e-10 4.344333e-09 -2.231090e-10
2.368968e-08 -4.946676e-08 -7.834468e-09 2.405423e-09 1.307047e-08 -1.524565e-09
-6.121688e-09 1.464066e-09 1.515562e-09 1.049636e-09 3.918137e-10 -3.761631e-10
1.795856e-08 -4.323503e-08 3.034208e-09 -7.959638e-10 5.111738e-09 1.392482e-10
2.293109e-08 -4.908893e-08 -1.001103e-08 -1.457342e-09 1.540050e-08 4.603548e-10
2.251576e-08 -4.857851e-08 -1.199132e-09 3.102175e-09 1.102527e-08 4.309375e-11
1.675221e-08 -4.510343e-08 2.764680e-09 -6.669729e-09 7.568925e-09 6.514693e-10
1.873400e-08 -4.351703e-08 -3.919250e-09 -4.506806e-09 8.022023e-09 -9.499605e-10
8.740749e-09 -3.536110e-11 -1.497178e-09 -1.319354e-08 1.002122e-10 -7.655804e-10
8.740689e-09 -1.809748e-10 -2.755667e-10 -1.308516e-08 7.895263e-10 -1.879856e-09
1.192202e-08 -9.480733e-11 -5.853882e-10 -1.445822e-08 -1.119551e-10 -1.010853e-09
-4.651645e-09 4.671167e-09 -9.758178e-10 -9.168287e-09 -1.666651e-09 2.277963e-09
5.252768e-09 2.659237e-10 1.725653e-10 -1.412726e-08 -1.122688e-11 -1.177710e-09
3.504338e-09 3.162393e-09 -1.247144e-09 -1.065189e-08 -7.314795e-10 -1.014210e-10
3.355494e-09 1.777209e-09 -1.106986e-09 -1.110830e-08 -5.522572e-10 -5.820655e-11
1.319361e-09 6.481542e-09 -6.974445e-10 -1.551587e-08 2.457083e-10 6.980399e-10
1.189647e-09 4.924173e-09 -3.075661e-09 -1.154805e-08 -2.627334e-09 4.136805e-09
-1.098794e-08 5.877251e-09 1.230978e-09 -9.413851e-09 2.486698e-09 5.542966e-10
-1.405928e-08 3.200608e-09 2.409997e-10 -1.328163e-08 3.152089e-09 2.454033e-09
-1.407678e-08 8.974640e-09 -1.331399e-09 -6.785679e-09 1.795272e-09 1.295109e-09
-1.143785e-08 4.513695e-09 -1.953578e-09 -8.901608e-09 3.462142e-09 2.134836e-09
-1.085740e-08 2.543825e-09 -1.235319e-09 -1.240869e-08 2.820287e-09 7.819102e-10
-1.635265e-08 3.710865e-09 -3.323728e-08 3.173517e-08 -3.292790e-08 3.402246e-08
-5.926734e-09 3.304133e-08 -4.023076e-08 1.276502e-08 -3.742887e-08 4.710937e-08
-2.397693e-08 1.743625e-08 -2.557297e-08 3.643784e-08 -5.131522e-08 5.228554e-08
8.182497e-10 -5.917834e-09 -3.008129e-08 2.398191e-08 -4.890632e-08 2.561616e-08
-1.489545e-08 2.163077e-08 -4.811350e-08 2.883545e-08 -4.733692e-08 5.792563e-08
-1.293947e-08 3.505949e-09 -2.844161e-08 2.960222e-08 -3.879045e-08 3.947596e-08
1.498232e-08 -7.227320e-09 -1.050694e-09 -1.804941e-10 1.544086e-10 -1.223718e-09
1.678438e-08 -6.974113e-09 -6.009484e-10 3.486824e-09 5.218017e-11 -1.378235e-09
1.622855e-08 -7.642895e-09 -1.300928e-09 2.096036e-09 1.506075e-10 -6.543976e-10
1.397599e-08 -6.811197e-09 -2.101801e-09 -4.811573e-10 1.227642e-10 -4.666350e-10
1.464988e-08 -5.851487e-09 -5.570370e-10 5.120030e-09 3.693180e-10 -1.370769e-09
1.333457e-08 -6.672398e-09 -1.090253e-09 2.942551e-09 6.552467e-11 -7.645266e-10
-3.461948e-09 8.865652e-09 3.358358e-11 1.250725e-08 -2.246106e-09 -4.121419e-09
-4.475146e-09 8.771246e-09 1.740519e-09 1.313088e-08 -9.329694e-10 -4.919167e-09
2.985205e-09 6.730330e-10 7.578940e-09 1.581438e-08 -3.688176e-09 -8.621258e-09
1.326009e-08 -3.157927e-10 2.677281e-10 1.461985e-08 -1.175830e-09 -5.048138e-09
1.207996e-08 -1.258316e-10 7.109388e-09 1.643401e-08 -3.032171e-09 -8.316410e-09
9.416419e-09 -3.122849e-09 -8.297134e-10 6.850691e-09 3.212263e-10 -9.191172e-10
7.614556e-09 -1.424672e-09 -6.781574e-10 7.687051e-09 9.229153e-10 -8.831265e-10
1.001631e-08 -8.388761e-10 -2.102998e-09 1.004282e-08 3.219536e-10 -1.158553e-09
1.382495e-08 -3.892551e-09 -2.086595e-10 8.049632e-09 -9.229050e-11 -3.065109e-09
-1.162392e-08 7.922546e-09 -1.022592e-09 -6.077950e-10 -2.891175e-09 3.587574e-09
-1.099654e-08 7.344871e-09 -3.129804e-09 -9.197604e-10 -3.517580e-09 2.413352e-09
-9.715772e-09 5.900881e-09 -8.531784e-10 -2.838584e-09 -1.972434e-09 1.565351e-09
-1.057013e-08 3.278584e-09 -1.073230e-10 -1.084558e-09 -2.357368e-09 8.925933e-10
-9.786592e-09 5.009003e-09 -3.435721e-10 -2.457829e-09 -2.705603e-09 2.262894e-09
-9.801976e-09 4.711882e-09 -2.019422e-09 -2.667420e-09 -2.872190e-09 1.113446e-09
-6.153313e-08 1.925541e-07 4.288268e-08 -7.757440e-08 -9.777342e-08 -4.101926e-08
-2.837469e-08 6.456081e-08 -4.658464e-08 5.436275e-08 6.990670e-08 -9.772576e-08
-2.048390e-08 1.206336e-07 -8.957920e-08 3.302909e-08 4.545570e-08 -8.494160e-08
-3.373087e-08 5.121115e-08 -1.274886e-07 1.217067e-07 1.118347e-07 -1.251513e-07
1.274134e-08 2.084078e-09 -5.749910e-08 -3.547746e-08 -5.632632e-08 -2.887514e-08
3.348413e-08 -2.692139e-08 6.211479e-08 4.631969e-08 4.194155e-08 5.545656e-08
1.326014e-08 -8.811391e-09 -4.613237e-08 -3.331784e-08 -7.838906e-08 -3.363690e-08
-3.920770e-08 7.640001e-08 -3.681046e-08 -1.555767e-08 -5.532524e-09 -4.384269e-08
-1.398879e-08 6.074812e-08 -9.623388e-08 -4.111002e-08 -7.390183e-08 -5.267001e-08
-2.844054e-08 4.793751e-08 -7.981392e-08 -1.780796e-08 -4.501908e-08 -5.831796e-08
1.097582e-08 -3.329881e-09 -9.029850e-10 -9.531613e-09 -6.310758e-10 1.339718e-11
7.941932e-09 -1.902433e-09 -8.718324e-10 -8.754151e-09 -3.318943e-10 -7.182630e-10
-7.556605e-09 4.378423e-09 -2.206857e-10 -4.860076e-09 -1.517008e-09 7.943695e-10
-7.565507e-09 4.387477e-09 -1.420453e-10 -4.851678e-09 -1.720561e-09 8.795464e-10
-6.462116e-09 5.867332e-09 -4.447331e-11 -7.694915e-09 -1.198501e-09 4.909357e-10
-5.921361e-09 4.374957e-09 -4.898570e-11 -6.975633e-09 -3.358243e-10 -7.942757e-10
1.251819e-08 -3.718080e-09 3.483468e-09 1.118655e-08 -7.025046e-10 -4.237259e-09
2.481563e-08 -5.813200e-08 -5.482824e-09 1.196692e-09 2.004026e-08 -3.379586e-10
2.637415e-08 -5.364532e-08 1.489163e-09 -3.149982e-09 1.896851e-08 1.301527e-09
2.196933e-08 -6.216538e-08 3.250592e-09 5.474093e-09 1.622335e-08 -7.013671e-10
1.915231e-08 -5.133599e-08 5.399353e-09 -3.057641e-09 7.266358e-09 6.583592e-10
2.321259e-08 -5.915456e-08 2.167948e-09 -8.281005e-09 1.638507e-08 6.438520e-10
8.499051e-09 -1.936092e-09 -1.258213e-09 -8.684360e-09 -4.682206e-10 -9.447729e-11
8.807380e-09 -1.506609e-09 -1.241905e-09 -9.612959e-09 -3.887551e-10 1.947021e-11
4.092504e-09 -4.157757e-10 -1.056670e-09 -9.289670e-09 -1.061691e-09 9.796237e-10
8.204455e-09 -1.424556e-09 -1.482813e-09 -8.758921e-09 -7.361245e-10 2.784386e-10
7.693111e-09 -1.372652e-09 -9.889606e-10 8.207638e-09 7.321971e-10 -5.151900e-10
-5.022371e-11 3.395216e-09 -9.263361e-10 -1.153149e-08 -3.616556e-10 -1.444200e-10
2.281020e-09 2.260644e-09 -1.370157e-09 -9.466420e-09 -1.336118e-09 1.043364e-09
2.056650e-09 1.142167e-09 -1.026543e-09 -9.625171e-09 -6.075673e-10 -3.518409e-10
-4.307799e-09 9.841682e-10 -2.458860e-08 3.318021e-08 2.340044e-08 -1.236684e-08
2.180429e-08 -6.003557e-08 -4.181159e-10 -1.613259e-08 -3.431441e-08 -7.828763e-09
2.081949e-09 -2.307974e-08 -3.112089e-08 4.054621e-08 3.815454e-08 -1.996868e-08
-9.423986e-09 -2.585015e-08 -1.001654e-09 5.351671e-08 3.449388e-08 -1.790728e-08
-1.468403e-10 1.021239e-08 -2.986521e-08 3.906735e-08 2.962143e-08 -1.776177e-08
4.547607e-08 -5.358256e-09 2.670044e-08 -1.052691e-08 7.725011e-09 -5.359996e-08
4.519681e-08 -1.333645e-08 1.320525e-08 6.885717e-09 1.739909e-09 -2.956264e-08
2.483705e-08 -7.186446e-09 3.556944e-09 1.144473e-08 -1.544852e-09 -8.905432e-09
4.846797e-08 1.253170e-08 -7.817511e-08 -2.747428e-08 -1.276322e-07 -2.262947e-08
4.822805e-08 -1.915349e-07 -1.024499e-07 4.702007e-08 -2.120892e-07 4.233634e-08
3.749888e-09 1.317956e-07 -9.081991e-08 -5.197669e-08 -1.587160e-08 -1.438638e-08
2.585002e-08 1.078956e-07 -1.208835e-07 -5.961513e-08 1.242727e-08 3.851228e-09
1.819847e-08 9.680181e-08 -1.611219e-07 -5.930193e-08 -1.672203e-07 -2.555186e-08
9.724103e-09 -4.777630e-09 -9.656071e-10 2.930905e-09 2.536027e-10 6.094763e-10
-2.781288e-09 4.786070e-09 2.044134e-09 1.020625e-08 -6.552672e-10 -2.600418e-09
-8.732342e-09 -3.704144e-09 1.636299e-09 5.853421e-09 -4.401078e-09 1.081740e-09
-1.119334e-08 1.509434e-08 -3.625102e-09 -9.484334e-09 -4.675035e-09 6.831207e-09
-1.486162e-08 1.174455e-08 4.698890e-10 -2.398761e-10 -3.300950e-09 6.189994e-09
7.657229e-09 1.532955e-10 -6.528127e-10 -1.244894e-08 -6.275678e-10 -3.501194e-10
-1.924717e-08 1.946982e-08 -7.186975e-09 3.805467e-12 -1.036712e-08 1.672325e-08
-1.532076e-08 5.944832e-09 1.063281e-09 -1.940465e-09 -4.281673e-09 6.075609e-09
-2.120457e-08 3.039100e-09 -1.229393e-09 1.007650e-08 -1.313371e-08 1.321436e-08
-6.450527e-09 4.691193e-08 -2.607724e-08 7.705878e-09 -1.100195e-08 -2.352361e-08
-2.526492e-08 2.879845e-08 -2.743999e-08 -1.092284e-08 -1.894435e-08 -2.992081e-08
-6.243249e-09 4.838600e-08 -5.959375e-08 -6.540439e-09 -3.581047e-08 -2.874666e-08
-1.455970e-08 1.710701e-08 -3.332661e-08 -1.120757e-08 -2.821142e-08 -2.619341e-08
-1.050709e-08 1.100694e-08 -2.454553e-08 -2.372441e-08 -2.777504e-08 -2.598209e-08
-1.024412e-08 1.205177e-08 -4.018487e-08 -2.037050e-08 -3.870877e-08 -2.412003e-08
7.547905e-10 1.733515e-09 -8.069641e-10 -7.129422e-09 -1.212034e-09 3.870705e-10
-3.656123e-09 2.745894e-09 1.549991e-10 -4.413838e-09 -6.167609e-10 -4.091972e-10
-4.425062e-09 3.019772e-09 5.026894e-10 -3.739669e-09 -6.224586e-10 -1.615030e-11
-3.733398e-09 3.387148e-09 -4.092152e-10 -5.716736e-09 -7.912959e-10 4.962231e-10
-5.258587e-09 3.390035e-09 4.196268e-10 -3.780499e-09 -7.539949e-10 -2.123919e-10
-5.179314e-09 3.388138e-09 3.139826e-10 -3.537155e-09 -1.018671e-09 -2.068154e-10
-2.277703e-09 2.119475e-09 -4.162004e-11 -4.922596e-09 -6.990777e-10 -4.408818e-10
-2.809664e-09 3.260187e-09 -2.234124e-11 -6.569644e-09 -8.856054e-10 4.199812e-10
-2.382802e-09 2.576172e-09 -7.528822e-11 -5.229967e-09 -9.017246e-10 3.152423e-11
-2.145937e-09 2.589250e-09 -2.794686e-10 -4.238597e-09 -1.553706e-10 1.758230e-10
-2.152379e-09 1.628024e-09 -3.538421e-10 -6.010785e-09 -5.485894e-10 -2.429945e-11
-8.219505e-10 1.392420e-09 3.602696e-11 -4.778603e-09 -7.292264e-10 -1.357405e-10
-5.823871e-08 7.574364e-08 -5.807110e-09 -2.944916e-08 1.061193e-08 5.158529e-08
-3.275872e-08 7.205763e-08 -2.204413e-07 -1.149119e-07 1.845149e-07 1.345027e-07
-1.540244e-08 -4.791182e-08 -5.233386e-08 -1.313580e-07 1.936891e-07 1.075035e-07
-1.080591e-08 3.736148e-08 -3.308867e-08 -8.199204e-08 3.899077e-08 7.114719e-08
-3.695219e-09 4.504389e-08 -9.684177e-08 -7.908570e-08 8.263513e-08 8.060524e-08
-3.022318e-08 5.009991e-08 -3.095463e-08 -1.346652e-09 -2.340045e-08 4.331071e-08
-4.162812e-08 -6.355949e-09 -2.934924e-09 3.169131e-08 -2.971998e-08 4.135389e-08
-1.094167e-08 3.159205e-08 -1.107618e-08 -1.434608e-08 -5.130755e-10 1.282804e-08
-7.894191e-09 3.107094e-08 -1.246963e-08 -1.536220e-08 -4.333872e-09 1.694810e-08
-2.888235e-08 5.509018e-08 3.729629e-09 -2.868930e-08 1.791111e-08 1.064578e-08
-5.192514e-08 5.631484e-08 -3.938356e-08 2.853026e-08 -2.975477e-08 7.342942e-08
4.468118e-08 9.019525e-09 2.782677e-08 1.962901e-08 -1.029488e-08 -6.828961e-08
2.604886e-08 5.202300e-09 1.475944e-07 -9.976415e-09 -3.333607e-08 -1.385321e-07
2.905684e-09 2.590805e-08 7.022510e-08 5.343780e-08 -4.236117e-08 -8.806572e-08
1.885981e-08 -1.014744e-08 6.033093e-08 3.798084e-09 -2.245856e-09 -4.816888e-08
1.285527e-08 -7.837934e-09 7.354532e-08 2.233845e-08 -1.693518e-08 -5.464378e-08
1.338449e-08 -1.534735e-08 4.881687e-08 -3.872275e-09 6.207553e-09 -3.291469e-08
2.171071e-08 -8.842298e-09 3.503865e-08 1.646905e-08 -6.515688e-09 -3.599037e-08
7.812884e-11 1.596185e-08 3.959325e-08 3.510276e-08 -1.863404e-08 -2.175389e-08
1.303643e-08 1.494511e-08 2.547280e-08 2.807792e-08 -2.386211e-08 -3.562692e-08
-1.771615e-08 2.775203e-08 5.023672e-08 2.379830e-08 -1.978142e-08 -3.334316e-08
-4.669891e-09 2.633727e-08 2.482159e-08 3.363645e-08 -2.524952e-08 -2.574674e-08
-6.462441e-09 2.471604e-08 2.625215e-08 3.575256e-08 -2.337000e-08 -3.731462e-08
-3.292934e-08 8.573049e-08 2.687039e-07 8.324296e-08 1.151621e-07 1.040044e-07
-5.179356e-08 1.279823e-07 -4.641713e-08 2.822657e-08 1.177261e-08 -1.575145e-08
1.518312e-07 8.221954e-08 7.495144e-08 8.080008e-08 8.606769e-08 1.777198e-07
-2.235241e-08 1.100067e-07 -3.260457e-08 7.289526e-08 2.510441e-08 -1.768191e-09
-3.268590e-07 2.706915e-07 3.120538e-07 -6.017941e-08 1.534539e-07 -1.883089e-07
-3.690508e-07 1.623972e-07 3.482634e-07 1.240709e-07 1.346107e-07 -3.200222e-09
2.821206e-08 -4.298263e-08 -2.447288e-08 -2.446376e-09 -3.185516e-08 4.982242e-09
-1.675674e-07 2.386310e-07 2.559309e-07 2.356534e-09 2.300109e-07 -4.097817e-08
-9.240519e-09 -1.265897e-08 -3.105720e-10 -2.186041e-08 9.168475e-09 2.967231e-09
-4.005644e-07 -1.718760e-08 9.842468e-07 7.726693e-08 1.778836e-07 8.087586e-08
-6.206358e-07 1.297858e-07 6.235635e-07 -1.031988e-07 2.542710e-07 -1.448483e-07
5.735422e-09 7.905275e-08 -1.418403e-07 -1.438126e-08 -7.892173e-08 3.449087e-08
5.814629e-09 1.750120e-07 -7.258507e-08 -4.372958e-08 1.890036e-08 -1.812914e-08
6.778870e-08 -1.025508e-07 -9.887438e-08 1.490706e-08 -1.639217e-07 6.248662e-08
5.440025e-09 6.384243e-08 4.709761e-08 -4.107552e-08 5.234536e-08 -4.240763e-08
-1.465365e-08 1.100197e-08 -3.311893e-08 2.424888e-08 -2.689866e-08 5.576382e-08
5.888253e-09 8.147310e-08 -7.315779e-08 -1.947336e-08 -2.601886e-08 2.674374e-08
-1.256405e-08 9.236749e-08 -4.888735e-08 1.539076e-09 -1.544255e-09 4.664982e-08
3.333487e-08 -5.719020e-09 4.048555e-09 -1.205497e-08 5.114600e-09 -2.060428e-08
-7.154047e-09 1.920138e-08 -3.950689e-09 -1.883338e-08 3.813235e-09 4.637962e-09
-8.286676e-09 1.849130e-08 -2.953324e-09 -1.681659e-08 2.081845e-09 6.303870e-09
1.888610e-08 1.539820e-08 4.516019e-08 -4.105929e-08 2.972764e-08 -3.300902e-08
1.763651e-08 1.983268e-08 6.876418e-09 -2.950990e-08 1.409970e-08 -1.895464e-08
3.888678e-08 8.403152e-09 2.452052e-08 -4.213441e-08 2.824463e-08 -4.017064e-08
2.930890e-08 4.298508e-09 6.924597e-09 -2.727729e-08 1.033952e-08 -1.951647e-08
3.973270e-08 -1.018300e-08 3.378368e-09 -2.349010e-09 2.149011e-09 -1.747695e-08
1.592182e-08 -7.354898e-09 -1.923975e-09 -5.872593e-09 -1.001089e-10 -8.257921e-10
2.161715e-08 -7.419189e-09 4.288569e-12 -6.182704e-09 1.025736e-10 -3.243161e-09
1.389401e-08 -6.725455e-09 -1.663245e-09 -4.155156e-09 -1.920699e-10 -3.123612e-11
2.072308e-08 -8.712578e-09 -2.861580e-10 -4.566958e-09 7.393455e-10 -3.877634e-09
1.707732e-08 -7.882919e-09 -2.420930e-09 -7.921867e-10 4.456840e-11 -8.301642e-10
2.068113e-08 -7.906738e-09 -1.616843e-09 -6.347268e-10 4.782405e-11 -2.784774e-09
2.372390e-08 -7.906075e-09 -2.375237e-09 -7.004572e-10 6.713949e-11 -2.557506e-09
-1.931420e-08 2.212696e-08 1.552641e-08 2.223077e-08 -9.695156e-09 -7.887593e-09
-2.667891e-08 4.542658e-08 -5.788844e-09 9.631454e-09 -2.690486e-09 4.477448e-09
-3.415475e-08 6.001385e-08 3.997360e-09 1.788714e-08 -1.500306e-08 -5.205006e-09
-4.905477e-08 8.546102e-08 2.229089e-08 2.520895e-08 -4.417108e-08 -1.599933e-09
-8.121974e-09 2.296048e-09 1.300550e-09 -3.436474e-09 1.253141e-09 -6.333026e-10
-8.625215e-09 5.760215e-09 9.524976e-10 1.692960e-10 7.189793e-10 -1.362846e-09
-8.567414e-09 4.952125e-09 1.297806e-09 -4.061031e-10 -2.268382e-10 -1.212311e-09
-7.065493e-09 3.335448e-09 1.129051e-09 7.034360e-10 1.446791e-09 1.371522e-10
-1.174319e-08 4.003606e-09 4.017411e-10 -3.971423e-09 2.040437e-09 6.147656e-10
-7.979255e-09 1.842339e-09 2.156532e-09 -1.512219e-09 2.112361e-10 -1.147667e-09
-8.270922e-09 9.889245e-11 1.885312e-09 -3.371113e-09 5.559041e-11 -9.548935e-10
-1.139810e-08 3.588724e-09 8.597181e-10 -3.839718e-09 1.237537e-09 -5.173039e-11
-1.046000e-08 5.199733e-09 1.061783e-09 -9.926411e-10 9.347383e-10 -6.484209e-10
-9.528942e-09 1.086212e-09 1.727337e-09 -5.467801e-09 4.647661e-10 -5.947689e-10
9.220552e-09 2.551352e-08 2.894124e-09 -2.255843e-08 1.586167e-08 -4.324336e-09
1.322877e-07 -5.002565e-07 -1.179253e-07 -7.195370e-08 3.453323e-07 4.131555e-08
8.009530e-08 -1.076358e-07 -1.473872e-07 9.712400e-08 2.428303e-07 -6.480337e-08
-2.368761e-08 5.395758e-08 -5.625474e-08 7.920659e-08 5.945725e-08 -7.952609e-08
4.104209e-08 -1.375632e-07 -8.765043e-08 6.761645e-08 1.646275e-07 -4.743583e-08
3.134624e-08 -7.986666e-08 -3.202548e-08 1.310611e-07 2.022768e-07 -9.177656e-08
-3.493249e-08 5.829215e-08 -6.401618e-08 3.671523e-08 4.292198e-08 -4.968725e-08
-3.165399e-08 4.877845e-08 -1.656701e-09 -2.844266e-08 -2.277979e-08 3.811091e-10
-2.366328e-09 4.576648e-08 1.691010e-08 -4.512652e-08 -3.437358e-08 9.979337e-09
-5.353699e-08 5.787650e-08 -3.884580e-08 1.295824e-11 6.851106e-09 -4.685739e-08
-2.976119e-09 4.330252e-08 -8.742440e-09 -2.508815e-08 -2.555039e-09 -2.814058e-09
3.142976e-08 -3.653924e-09 3.730383e-08 -5.245041e-08 -2.016236e-08 3.606923e-08
1.281580e-08 -5.261813e-08 -7.732290e-10 -3.279237e-08 -3.405288e-08 -9.663367e-09
-2.003179e-08 6.068165e-08 -1.439663e-08 -1.840642e-08 -3.744967e-09 -1.418588e-08
2.595842e-08 -8.215602e-09 6.285022e-08 5.341129e-09 -7.830357e-09 -4.978849e-08
5.154935e-09 2.731466e-08 7.862533e-08 4.609465e-08 -4.891202e-08 -8.211240e-08
3.120869e-08 -1.512806e-08 2.052205e-08 9.869715e-10 1.208878e-09 -2.212368e-08
3.633898e-08 -1.569280e-08 4.802008e-08 1.117419e-08 6.860695e-10 -6.581171e-08
1.816620e-08 -6.339325e-09 2.388096e-08 -2.669681e-08 1.332062e-08 -1.556150e-08
3.431129e-08 -8.086606e-09 1.874620e-08 -1.711630e-08 7.312487e-09 -2.029521e-08
-1.052690e-08 -3.456231e-09 1.324454e-09 5.712439e-09 -4.352232e-09 1.830279e-09
2.153159e-08 2.264597e-09 1.540367e-08 -2.387951e-08 9.080079e-09 -1.641982e-08
-9.794314e-09 1.062043e-08 -1.583951e-08 -1.668343e-08 1.093225e-08 6.914517e-09
3.718502e-09 2.022815e-08 -1.153705e-09 -2.923003e-08 1.205404e-08 -4.193605e-09
-8.848110e-09 2.012849e-08 -3.466354e-09 -2.194289e-08 2.163856e-09 8.235850e-09
-6.305640e-09 1.954723e-08 -3.133231e-09 -1.937871e-08 2.471269e-09 6.529592e-09
4.160143e-09 2.287222e-09 1.244658e-09 -1.766686e-08 3.273728e-09 -5.555519e-09
2.192226e-08 -7.930038e-09 -1.977274e-09 -9.825919e-10 1.216460e-10 -1.025035e-09
2.192071e-08 -8.448920e-09 -1.652319e-09 -2.368838e-09 -6.033931e-11 -2.710916e-09
1.874965e-08 -8.457144e-09 -1.802733e-09 -4.972243e-09 7.919390e-10 -1.961975e-09
2.640171e-08 -9.576616e-09 2.341334e-09 -4.874182e-09 1.623150e-09 -6.139005e-09
2.294102e-08 -8.628697e-09 4.311662e-10 -5.006536e-09 4.920629e-10 -2.613368e-09
9.227621e-09 -3.465619e-08 1.130944e-10 -1.772443e-08 8.245383e-09 1.463746e-09
1.327582e-08 -4.040955e-08 1.913000e-09 -1.819798e-08 8.422653e-09 2.361058e-09
1.699344e-08 -4.342000e-08 -1.551055e-09 -1.343993e-08 1.380622e-08 2.174659e-09
9.326974e-09 -2.642760e-08 -4.802064e-09 -1.786799e-08 6.370704e-09 2.364772e-09
1.428591e-08 -3.546547e-08 -8.711548e-09 -2.094355e-08 1.388010e-08 6.380136e-09
-5.989122e-09 4.484173e-09 1.006017e-09 3.442047e-09 -4.489440e-10 -1.263436e-09
-1.392835e-08 9.349620e-09 -7.463321e-10 -1.206645e-08 4.338450e-09 2.324023e-09
-1.440462e-08 1.920025e-09 -1.163888e-09 -2.205302e-08 7.125058e-09 5.192151e-09
-1.389767e-08 5.568393e-09 2.087647e-09 -1.250324e-08 1.729244e-09 1.829666e-09
-1.862225e-08 -7.132684e-10 2.060517e-09 -2.563836e-08 7.215265e-09 6.778850e-09
1.334182e-08 -6.545884e-09 -1.444473e-09 1.397394e-09 1.285530e-10 1.875388e-10
1.492161e-08 -6.807491e-09 -1.182630e-09 1.754732e-09 6.183553e-11 -4.807047e-10
1.306021e-08 -7.210498e-09 -1.412155e-09 9.458004e-11 1.163446e-10 -1.509789e-10
1.212929e-08 -6.047666e-09 -1.469858e-09 9.474359e-10 4.093068e-10 -1.552938e-10
1.220873e-08 -5.444629e-09 -1.365665e-09 3.419306e-09 2.904169e-10 -5.872835e-11
1.213780e-08 -6.453612e-09 -1.407769e-09 3.151532e-09 2.577567e-11 -1.270375e-10
1.193800e-08 -5.901692e-09 -1.573886e-09 2.201502e-09 8.564531e-11 4.754909e-10
1.157186e-08 -6.496493e-09 -1.244171e-09 1.155606e-09 1.204484e-10 -4.641576e-11
1.170666e-08 -6.045587e-09 -1.283278e-09 1.142859e-09 8.417375e-11 1.375160e-10
1.219614e-08 -5.539037e-09 -1.284178e-09 3.143528e-09 1.311873e-11 -2.583666e-11
-6.212336e-09 -7.282422e-09 2.993008e-09 -8.902003e-09 7.623624e-10 -5.408507e-10
-7.377401e-09 -2.658950e-09 2.546065e-09 -4.971664e-09 3.275346e-10 -8.947658e-10
-7.180956e-09 -4.330451e-09 3.043693e-09 -5.800777e-09 3.008316e-10 -1.223200e-09
-4.731948e-09 -5.860141e-09 2.552806e-09 -7.141743e-09 1.567418e-09 -4.915377e-10
-5.722642e-09 -4.703486e-09 2.904838e-09 -6.114417e-09 7.413180e-10 -1.035746e-09
1.248739e-08 -3.483996e-08 -1.071300e-08 1.726749e-08 -2.543933e-08 6.982390e-09
8.237695e-09 -8.636161e-09 -1.895044e-08 1.469596e-08 -1.914798e-08 1.010101e-08
1.635943e-08 -3.451952e-08 -3.069476e-08 2.268884e-08 -5.201569e-08 2.012335e-08
1.854704e-08 -1.224013e-08 -3.596055e-08 1.621433e-08 -3.347155e-08 1.331861e-08
5.396002e-09 -2.531115e-08 -1.215728e-08 2.253806e-08 -2.986792e-08 1.543317e-08
-1.166867e-08 1.362392e-08 -1.862674e-08 -2.441726e-08 1.765533e-08 1.215431e-08
-6.448144e-09 -1.034864e-08 -5.289782e-09 -2.753586e-08 1.404398e-08 8.113390e-09
-9.956065e-09 -5.774646e-09 -8.737966e-09 -3.045986e-08 1.715142e-08 1.159436e-08
-1.009501e-08 9.894860e-09 -8.119137e-09 -2.730152e-08 1.400811e-08 1.105614e-08
5.009152e-08 -7.776609e-08 -1.589923e-08 -1.903959e-08 -8.029268e-08 -4.220510e-09
4.036939e-08 -8.797094e-08 -5.608351e-08 -6.581602e-08 -1.098231e-07 -3.552266e-08
1.667040e-08 -1.378432e-08 -7.085822e-08 -3.063633e-08 -8.893138e-08 -3.246929e-08
2.710293e-08 2.072955e-09 -6.271995e-08 -2.298030e-08 -6.209579e-08 -1.657642e-08
1.105044e-08 3.203989e-08 -5.869260e-08 -3.526786e-08 -5.136627e-08 -2.699389e-08
-2.721554e-09 -2.181204e-08 -7.866329e-10 -2.893979e-08 1.466089e-08 4.506446e-09
2.721843e-08 2.897105e-11 -7.690542e-08 -4.480244e-08 -1.253178e-07 -1.725442e-08
-1.485669e-08 4.280045e-08 -7.315326e-08 -3.423097e-08 -6.977182e-08 -4.773344e-08
-1.249084e-08 2.566112e-08 -4.435809e-08 -2.526205e-08 -3.095017e-08 -3.653198e-08
1.879034e-08 -4.572165e-08 -3.610696e-08 -3.164376e-08 -6.621143e-08 -1.704593e-08
1.023915e-08 -2.121851e-08 -7.088076e-08 -4.216654e-08 -9.239613e-08 -3.357291e-08
1.793023e-08 -7.616879e-09 -9.217436e-10 -1.295523e-10 1.534687e-10 -7.060371e-10
-2.721554e-09 -2.723369e-08 -4.797993e-10 -2.890173e-08 1.354060e-08 4.502318e-09
1.711033e-08 -7.934760e-09 -9.135221e-10 -7.787083e-10 1.695204e-10 -6.056697e-10
1.819297e-08 -7.325573e-09 -2.526509e-09 4.427891e-11 1.740693e-10 -4.981271e-10
4.921604e-08 4.072311e-08 -1.807371e-08 4.719805e-08 1.488811e-08 1.194338e-08
3.481683e-08 -3.403365e-09 2.420068e-08 3.732720e-08 1.443610e-08 1.886748e-08
4.331579e-08 2.043188e-08 -1.110022e-08 2.251421e-08 1.769539e-08 3.862945e-08
3.391317e-08 3.967716e-08 -2.392399e-08 3.416619e-08 3.568847e-09 1.888734e-09
1.225561e-08 2.487756e-08 2.598900e-09 5.056703e-08 2.521154e-08 1.151274e-08
4.827234e-08 -4.183991e-09 1.424914e-08 2.456032e-08 -4.228333e-10 2.212514e-08
2.305946e-08 -4.626049e-08 -2.513744e-09 -1.373421e-08 1.652384e-08 3.532228e-09
2.326205e-08 -6.256326e-08 -9.438584e-09 -1.371155e-08 2.727857e-08 3.331731e-09
1.896405e-08 -3.995996e-08 -2.133429e-08 -2.704091e-08 2.569118e-08 1.196572e-08
3.966869e-09 2.074066e-10 -1.332467e-09 -8.414545e-09 -7.077128e-10 6.079469e-12
8.159144e-09 -2.013711e-09 -1.566650e-09 -8.590082e-09 -1.010067e-09 3.685137e-10
1.295789e-08 -3.758572e-09 -1.067279e-09 -9.495502e-09 5.199268e-11 -8.718019e-10
9.578564e-09 -3.545972e-09 -1.211408e-09 -7.248621e-09 -5.597125e-10 1.603637e-10
1.360804e-08 -3.763397e-09 -9.348314e-10 -9.839482e-09 -3.536019e-10 -4.341567e-10
8.774729e-09 -3.577258e-09 -1.628451e-09 -7.408056e-09 -6.394229e-10 -1.100103e-10
-2.345406e-09 2.549058e-09 2.136393e-10 -5.199126e-09 -5.883892e-10 2.074536e-10
6.658168e-09 -2.055298e-09 -1.056490e-09 -5.949768e-09 -4.309280e-10 3.045947e-10
3.629284e-09 -9.844756e-10 -7.511898e-10 -5.244150e-09 -7.181781e-10 2.211570e-11
2.415934e-11 1.300681e-09 -4.187577e-10 -6.562585e-09 -6.977512e-10 -1.783322e-10
-4.142385e-08 7.109515e-08 -2.718618e-08 2.126759e-08 2.230366e-08 -4.834398e-08
1.120569e-09 1.575508e-09 -6.559070e-10 -7.452203e-09 -6.776530e-10 -6.703538e-11
4.526713e-09 -8.471056e-10 -1.151041e-09 -6.833938e-09 -3.314704e-10 2.954705e-10
-2.389681e-09 2.262545e-09 -3.228307e-12 -4.856414e-09 -7.415772e-10 3.812636e-10
4.682871e-09 -6.697335e-10 -9.549648e-10 -6.479479e-09 -6.054910e-10 3.027915e-10
-4.979331e-09 3.352835e-09 -1.254827e-10 -5.906915e-09 -8.427081e-10 3.235656e-10
5.719443e-10 -1.346323e-08 -1.109576e-08 1.588675e-08 -1.303862e-08 7.781923e-09
-1.150360e-09 1.978077e-09 -3.694063e-10 -5.841484e-09 -3.979446e-10 3.734590e-11
-3.801982e-09 4.040819e-09 -3.005369e-10 -6.908009e-09 -9.787265e-10 7.590046e-10
-3.021969e-10 1.543713e-09 -6.437961e-10 -7.582949e-09 -6.740998e-10 -3.509300e-10
-1.828500e-09 2.159235e-09 -6.193179e-10 -7.022411e-09 -9.567257e-10 3.709879e-10
1.130632e-09 1.539626e-09 -1.025891e-09 -7.445058e-09 -5.616202e-10 -8.238954e-11
-2.021541e-09 1.700307e-09 -4.420219e-10 -6.111925e-09 -1.077888e-09 5.105892e-10
5.874403e-09 -1.817797e-09 -1.091945e-09 -1.036963e-08 -4.633280e-10 6.820580e-10
1.357269e-08 -4.487338e-09 -2.283592e-09 -7.438210e-09 -8.223717e-10 8.293988e-10
1.972277e-08 -7.414117e-09 1.340534e-10 -6.519710e-09 4.193934e-10 -2.245810e-09
1.554556e-08 -4.717534e-09 -1.639085e-09 -9.868973e-09 9.271656e-10 -7.693752e-10
1.445831e-08 -6.488637e-09 -1.518706e-09 -3.039996e-09 -2.092154e-10 -1.185335e-10
1.470796e-08 -7.409622e-09 -1.322763e-09 -2.808209e-09 3.594836e-11 -6.141782e-10
-1.904948e-08 -3.132516e-09 -2.013741e-09 1.985567e-08 -1.529046e-08 1.388821e-08
1.554920e-08 -7.373072e-09 -1.360323e-09 -1.705857e-11 -1.467215e-10 -3.582382e-10
9.023981e-09 -1.998963e-08 -2.388329e-08 -2.405100e-08 -2.519036e-08 -9.799616e-09
2.063150e-08 -7.576839e-09 -2.656101e-09 -2.171062e-09 1.041282e-10 -1.063318e-09
1.840795e-08 -7.235047e-09 -7.957754e-10 -2.568051e-09 -4.936916e-10 -1.693219e-09
1.591210e-08 -7.477613e-09 -1.699751e-09 6.858109e-11 6.272214e-13 -8.124438e-10
-1.813310e-08 1.565540e-08 -6.500132e-09 -2.071555e-08 8.198040e-09 8.288961e-09
1.297598e-08 -5.924402e-09 -1.514439e-09 -5.286288e-09 -1.027093e-10 -1.362167e-10
1.068611e-08 -3.510418e-09 -1.814821e-09 -7.050429e-09 -5.145678e-10 5.281646e-10
1.083002e-08 -4.139102e-09 -1.088059e-09 -8.094654e-09 -2.098359e-10 -6.232591e-10
1.297787e-08 -5.229028e-09 -1.501423e-09 -5.659986e-09 -1.374815e-10 -1.844875e-10
1.275311e-08 -5.767736e-09 -1.197802e-09 -5.259876e-09 -3.105138e-11 -4.168512e-10
1.298367e-08 -6.074206e-09 -1.573474e-09 -5.446740e-09 -4.071065e-10 -1.453082e-10
-3.159206e-08 6.008334e-08 -2.443697e-08 8.777117e-08 6.281694e-08 -7.849144e-08
-1.980136e-08 -5.065098e-08 -1.034876e-08 9.421875e-08 7.484569e-08 -5.240302e-08
1.239351e-08 -3.852406e-08 3.180657e-09 -6.564539e-09 3.126952e-09 -1.529584e-10
-1.057877e-08 -1.250374e-09 -4.036562e-08 7.279440e-08 7.056914e-08 -4.469477e-08
5.646231e-08 -5.313536e-08 -9.884213e-08 2.375034e-08 1.746034e-07 -4.306989e-08
-2.850052e-09 -3.703948e-08 -4.714461e-08 7.462073e-08 8.835872e-08 -4.158493e-08
-8.965596e-08 7.160892e-08 -7.818823e-08 -1.260552e-07 7.634558e-08 1.160754e-07
2.359353e-08 -3.189084e-08 -7.865563e-08 4.598890e-08 8.597267e-08 -3.151176e-08
4.252070e-08 -1.195781e-07 -6.980752e-09 7.518916e-08 1.145759e-07 -4.270673e-08
1.627960e-08 -4.854708e-09 1.777424e-09 1.046905e-08 -6.308047e-10 -6.159422e-09
1.264828e-08 -6.319119e-10 1.056097e-09 1.275031e-08 -3.918825e-10 -4.139830e-09
1.191075e-08 -8.482099e-10 -1.665272e-09 1.006745e-08 3.227942e-10 -2.086975e-09
2.336526e-09 9.750029e-09 1.830711e-09 1.709457e-08 -4.365871e-09 -7.429447e-09
-1.544661e-09 9.398875e-09 -1.058214e-09 1.036320e-08 1.490632e-10 -2.563967e-09
-8.894090e-09 1.974909e-08 3.083019e-09 1.597503e-08 -4.517099e-09 -7.147507e-09
1.206499e-08 1.761357e-09 1.148243e-08 1.902703e-08 -5.969769e-09 -1.476041e-08
6.630813e-09 9.015533e-09 -2.060993e-09 1.504382e-08 -8.220492e-10 -4.470772e-09
5.477025e-09 1.457663e-08 4.375674e-09 2.185504e-08 -6.473947e-09 -1.035112e-08
1.996750e-08 -1.365539e-10 4.091012e-09 1.628706e-08 -2.127521e-09 -1.061056e-08
-8.159474e-09 1.511613e-08 2.675296e-09 1.644317e-08 -5.917493e-09 -7.116345e-09
6.260429e-09 1.346894e-08 -1.862762e-09 1.836170e-08 -3.087090e-09 -8.084748e-09
-2.340081e-08 1.355230e-08 1.754767e-08 5.586918e-08 5.113647e-08 1.870832e-08
-6.610883e-09 4.972549e-08 8.108526e-09 6.834832e-08 3.062193e-08 2.439625e-08
1.240419e-08 7.037390e-08 8.565201e-09 4.430753e-08 3.553387e-08 2.510432e-08
-3.262824e-08 6.198768e-08 -2.855573e-08 9.605150e-09 -1.073868e-08 -3.710329e-08
4.988756e-08 -4.699759e-08 -5.563400e-08 -3.895362e-08 9.343005e-08 2.101748e-08
5.311500e-09 -3.455437e-09 9.377596e-08 7.187943e-09 -1.218285e-08 -5.526065e-08
5.477299e-09 1.107830e-08 1.162544e-07 1.350942e-08 -3.301981e-08 -7.736337e-08
2.579322e-08 -6.292077e-09 1.030023e-07 -9.799454e-09 -1.198801e-10 -1.049650e-07
-4.347461e-09 2.239728e-09 4.890086e-10 2.465763e-09 2.796534e-10 -3.944662e-10
-4.880589e-09 2.437089e-09 8.083876e-10 2.366004e-09 4.773837e-10 -3.998372e-10
-6.216810e-09 2.674380e-09 8.641330e-10 1.222381e-09 3.011646e-10 -4.911742e-10
-1.192224e-08 4.794299e-09 2.300429e-09 -4.792583e-09 1.492114e-09 -7.747385e-10
9.006511e-09 -5.392779e-08 9.723300e-11 -3.332744e-08 2.662019e-08 5.397721e-09
-1.028306e-08 1.468020e-09 1.548062e-09 -7.884177e-09 7.811603e-10 1.014472e-10
-1.099376e-08 4.403159e-09 7.048273e-11 -4.525913e-09 1.773193e-09 1.086829e-09
-8.657902e-09 -1.387719e-09 2.493854e-09 -1.238899e-08 1.935555e-09 5.849884e-10
-8.680353e-09 2.930265e-09 1.970915e-09 -3.559978e-09 1.276059e-09 -9.969767e-10
-1.056666e-08 2.812920e-09 1.497739e-09 -3.023981e-09 1.014016e-09 -5.091170e-11
-9.772391e-09 7.373173e-09 5.273049e-10 -1.352522e-09 1.368618e-09 8.921352e-11
2.529562e-08 -5.204202e-08 2.155598e-11 1.296365e-08 1.742854e-08 -4.526460e-09
2.966812e-08 -4.965128e-08 -1.866847e-08 -1.271705e-09 2.180815e-08 1.752614e-09
2.399910e-08 -5.229420e-08 -5.481080e-09 1.235066e-08 1.874960e-08 -1.839077e-09
2.958497e-08 1.328430e-07 -2.509544e-07 -7.541668e-08 1.185118e-07 1.148893e-07
1.054900e-07 -9.670216e-08 -3.815830e-07 -5.666644e-08 4.878266e-07 -2.872809e-08
4.766556e-08 2.235498e-07 -2.159879e-07 7.755911e-08 -5.168429e-08 -1.054106e-07
-8.107937e-09 1.367715e-07 -2.747486e-07 -8.257255e-08 7.914698e-08 6.967080e-08
-4.894285e-08 1.603163e-07 -9.707993e-08 -1.423035e-08 -6.013362e-08 -5.136359e-08
-2.661682e-08 2.980113e-07 -3.417991e-08 -6.586296e-08 -1.338126e-07 -3.962017e-08
-4.101672e-09 1.320347e-07 -2.391562e-07 -8.086444e-08 1.137317e-07 9.369165e-08
1.900394e-08 -4.810039e-08 6.526264e-10 5.642259e-09 8.913907e-09 -1.099933e-09
1.725809e-08 -4.995610e-08 5.095683e-09 7.235780e-09 8.185249e-09 -6.216143e-10
9.432607e-10 -8.800503e-09 -1.279005e-08 1.129617e-08 -1.353777e-08 5.580774e-09
2.234633e-08 -6.077244e-08 1.414342e-09 2.111833e-08 2.335482e-08 -3.099634e-09
1.679946e-08 -4.428819e-08 -3.039495e-09 1.166715e-08 9.040322e-09 -1.073782e-09
2.514188e-08 -3.174594e-08 -3.022825e-08 -1.744467e-08 2.821502e-08 7.937977e-09
-4.469816e-09 -3.515272e-09 -2.297472e-09 6.999400e-09 -5.168646e-09 1.890767e-09
2.228597e-08 -5.334108e-08 -3.677091e-09 -4.159393e-09 1.757670e-08 5.967364e-10
2.663929e-08 -5.502011e-08 -4.908019e-09 3.598128e-09 2.175086e-08 1.085975e-09
3.762770e-08 -4.979293e-08 -3.290237e-08 7.221189e-09 3.672803e-08 -3.875670e-09
4.629417e-08 -5.492237e-08 -2.584281e-08 -1.107357e-08 5.689169e-08 4.907837e-09
4.740750e-08 -5.156321e-08 -5.264485e-08 -7.742966e-09 6.155611e-08 9.975925e-10
3.784778e-08 -4.119517e-08 -4.464029e-08 2.209908e-09 5.159476e-08 -3.093717e-09
3.051801e-08 -4.968392e-08 -2.621475e-08 -1.635026e-08 3.197563e-08 9.154568e-09
-2.039166e-08 3.034752e-08 -1.528437e-08 -9.792303e-09 -4.219575e-09 2.114619e-08
-6.072186e-09 5.889684e-09 -1.624691e-09 -8.388515e-09 -3.641183e-09 2.786172e-09
-1.336584e-08 3.490473e-08 5.540765e-10 -2.063403e-08 1.158182e-08 1.392424e-08
-2.619434e-08 3.294304e-08 3.797676e-09 -2.510096e-08 2.315885e-08 3.211772e-09
-2.566117e-08 2.609063e-08 -8.834968e-09 -1.018856e-08 -2.134237e-09 1.574466e-08
-8.499174e-09 5.558226e-08 -2.196656e-08 -3.268518e-08 1.557527e-08 8.547153e-09
-2.529864e-08 3.159021e-08 -2.082236e-09 -1.201051e-08 2.584452e-09 1.625593e-08
-2.486182e-08 2.324271e-08 -3.095743e-09 -2.221902e-08 7.180066e-09 1.353817e-08
-2.114969e-08 1.277638e-08 -1.398816e-09 -8.695907e-09 4.894928e-09 5.322811e-09
-1.823057e-08 1.128670e-08 -1.774470e-09 -1.048337e-08 4.076257e-09 4.040690e-09
8.603908e-10 8.615504e-09 -4.094606e-09 -1.386054e-08 -1.868067e-09 3.058523e-09
-2.695365e-08 3.636772e-08 -3.398536e-10 4.810485e-09 -9.440671e-10 2.061269e-09
-2.667553e-08 2.982498e-08 -3.031887e-09 -2.484329e-09 2.213494e-09 7.721031e-09
-2.448900e-08 2.848594e-08 2.925684e-09 1.853013e-09 -4.850401e-09 4.907390e-09
2.639003e-08 -1.420461e-09 3.021369e-09 2.102745e-08 -3.613469e-09 -1.784118e-08
1.198662e-08 -4.167694e-09 1.072251e-08 1.501009e-08 -2.175371e-09 -1.078486e-08
2.597352e-08 4.619459e-09 -1.520272e-09 2.248900e-08 -6.639287e-09 -2.073331e-08
1.255852e-08 -3.944849e-09 3.888697e-09 1.442360e-08 -3.020495e-09 -1.168381e-08
4.166560e-08 -1.679281e-09 1.115809e-08 2.771942e-08 -9.853014e-09 -3.342894e-08
6.246146e-09 1.392882e-08 -1.346197e-09 2.129670e-08 -4.547909e-09 -8.615631e-09
2.277133e-08 -6.142700e-09 -3.919613e-09 8.760246e-09 2.365979e-09 -7.854233e-09
2.001298e-08 1.886782e-09 -3.336043e-09 1.414526e-08 -1.139652e-09 -7.749279e-09
2.390189e-08 -1.180154e-08 7.272659e-09 2.232614e-09 8.721226e-10 -1.341937e-08
1.362333e-08 3.137084e-09 1.180802e-08 2.064576e-08 -5.294988e-09 -1.400961e-08
1.935454e-08 -5.122036e-09 7.854410e-09 1.299462e-08 -1.155548e-09 -9.986129e-09
1.647889e-08 -4.520348e-09 1.457157e-09 1.180264e-08 -9.137124e-10 -7.353877e-09
3.330477e-08 -6.396601e-08 -1.071189e-08 1.881944e-08 -4.693291e-08 1.058651e-08
2.512643e-08 -2.900003e-08 -2.596250e-08 1.254354e-08 -2.487004e-08 8.717522e-09
3.018704e-08 -3.385395e-08 -3.156652e-08 1.949056e-08 -5.144933e-08 1.884615e-08
3.008135e-08 -3.074056e-08 -6.528519e-08 1.774886e-08 -6.361405e-08 1.628377e-08
1.850699e-08 -4.278870e-08 -2.829432e-08 1.846404e-08 -4.532500e-08 1.510825e-08
2.150503e-08 -2.848821e-08 -2.460983e-08 1.209758e-08 -2.585646e-08 8.094062e-09
2.186315e-08 -6.574660e-08 -6.458109e-09 2.336220e-08 -3.310513e-08 1.039514e-08
1.568733e-07 1.244397e-08 3.296176e-07 -1.288346e-07 -1.789231e-07 3.169069e-07
-3.086453e-08 6.255159e-07 2.785344e-07 8.325902e-08 -2.481722e-07 4.787392e-07
2.416808e-07 2.907862e-07 -2.006467e-07 -1.435215e-07 -2.844365e-07 2.914101e-07
2.504554e-07 -3.963810e-08 2.297513e-07 -9.721027e-08 -8.271598e-08 3.521925e-07
-9.701629e-08 -8.547147e-08 4.158410e-07 -5.881766e-08 -2.175216e-07 3.119840e-07
1.527474e-07 3.067104e-07 -1.434008e-07 -1.733844e-07 -2.541530e-07 2.275517e-07
-6.774304e-08 -2.685600e-08 4.536283e-07 -1.003108e-07 -1.406551e-07 2.550717e-07
-8.918529e-09 5.907143e-09 -4.177116e-10 -4.079187e-09 -2.297191e-09 1.191938e-09
-9.420046e-09 -2.247559e-09 -2.670479e-09 6.937364e-09 -4.708162e-09 3.194543e-09
-8.303087e-09 4.729762e-09 -1.181953e-09 -3.642664e-09 -3.477453e-09 1.946533e-09
-8.349374e-09 2.737755e-09 4.211151e-10 -4.407377e-09 -3.341269e-09 7.346961e-10
-8.853817e-09 5.653197e-09 -6.470957e-10 -5.906599e-09 -2.890785e-09 1.707685e-09
2.942623e-08 1.343234e-07 -1.158810e-07 -4.348879e-08 -7.234899e-08 -6.987124e-09
8.559168e-10 3.091075e-08 -1.540566e-07 3.939348e-09 -1.560765e-07 4.858230e-08
4.847608e-08 -2.063102e-07 -1.111216e-07 -4.044470e-08 -2.317841e-07 -2.520897e-08
5.031388e-08 -6.414572e-08 -9.118191e-08 2.804498e-08 -1.729359e-07 3.575124e-08
-5.592679e-09 -4.157080e-09 -1.779766e-08 1.193604e-08 -1.767552e-08 1.037435e-08
-4.227745e-08 2.072448e-07 2.155352e-07 2.847691e-09 2.320955e-07 7.212116e-08
1.119036e-08 -5.487860e-09 -1.255560e-09 3.100691e-09 5.417022e-11 -1.272096e-10
9.806843e-09 -5.137357e-09 -1.213188e-09 2.340607e-09 2.256445e-10 2.425880e-10
1.006470e-08 -5.574684e-09 -1.246013e-09 3.052462e-09 1.174930e-10 1.702928e-10
8.941615e-09 -4.220174e-09 -1.002770e-09 4.604252e-09 2.556060e-10 -1.460389e-10
8.470963e-09 -3.994513e-09 -1.037173e-09 3.804510e-09 1.455987e-10 -2.037952e-10
1.205155e-08 -5.574684e-09 -1.194735e-09 3.295421e-09 8.062201e-11 -1.494119e-10
5.741838e-09 -2.009035e-09 -9.532291e-10 -8.254170e-09 -4.292922e-10 -2.282816e-10
6.686765e-09 -1.509096e-09 -1.013553e-09 -9.468513e-09 -3.379527e-10 -1.138143e-10
8.712089e-09 -3.594325e-09 -1.076994e-09 -7.104247e-09 -2.244185e-10 -2.216183e-10
1.213962e-08 -5.277199e-09 -1.265620e-09 -5.312745e-09 -3.139441e-10 -1.243803e-10
8.752134e-09 -2.850016e-09 -1.315535e-09 -6.764519e-09 -5.996919e-10 4.843915e-10
4.143742e-09 1.231469e-10 -1.078458e-09 -8.398577e-09 -9.213153e-10 4.248577e-10
3.912606e-09 -2.001767e-10 -9.727943e-10 -7.891195e-09 -7.494647e-10 -2.014084e-10
9.627829e-09 -2.987291e-09 -1.685002e-09 -8.912443e-09 -4.919927e-10 6.464957e-11
-2.039860e-09 1.188469e-07 -6.290278e-08 5.164269e-08 3.668003e-08 -8.069463e-09
-1.410647e-08 2.345901e-08 -1.174511e-08 3.708723e-09 -9.175748e-09 -2.183043e-08
-8.780610e-10 3.626129e-08 -2.400950e-08 1.864217e-08 -9.813489e-09 -1.431350e-08
-7.000604e-09 2.192500e-08 -1.141662e-08 8.596716e-09 -1.321764e-08 -1.523140e-08
-4.037583e-08 7.647854e-08 -4.244784e-08 -9.473006e-09 -1.568334e-08 -4.414293e-08
7.038535e-09 -3.471885e-08 1.058855e-09 -1.811138e-08 8.297630e-09 1.340997e-09
6.426487e-09 -2.553877e-08 -1.148400e-09 -2.274348e-08 8.556934e-09 3.765843e-09
8.543408e-09 -3.117475e-09 -1.408750e-09 6.258334e-09 5.233066e-10 1.855789e-10
8.661732e-10 -2.125943e-08 1.825589e-09 -1.968705e-08 4.217854e-09 1.296739e-09
3.304031e-09 -2.146155e-08 -1.037416e-09 -1.714108e-08 4.035814e-09 1.395580e-09
4.161642e-09 -2.308051e-08 5.144329e-12 -1.614669e-08 5.322702e-09 2.346683e-09
6.828411e-09 -2.379496e-08 -4.002027e-09 -2.080007e-08 7.884933e-09 2.588434e-09
3.207215e-09 -1.859818e-08 -1.016705e-09 -1.731645e-08 4.310116e-09 1.403248e-09
3.123452e-08 -4.883152e-08 -5.480523e-08 -2.970977e-08 8.113951e-08 2.012129e-08
1.026721e-08 -1.463256e-08 -3.281497e-08 -5.742135e-08 5.313042e-08 3.639688e-08
-6.472877e-09 -2.436485e-08 -4.479234e-08 -6.156035e-08 6.189027e-08 3.384387e-08
2.161531e-08 -8.807091e-08 -1.736894e-08 -4.985899e-08 6.666009e-08 2.303247e-08
1.612026e-08 -3.793820e-08 -4.361543e-08 -7.254443e-08 7.720927e-08 4.723938e-08
2.076349e-08 -2.676245e-08 -1.259798e-08 -6.622237e-08 6.730063e-08 3.227396e-08
1.140124e-08 5.616771e-09 -3.854583e-08 -2.952987e-08 3.499563e-08 2.137325e-08
1.311900e-08 -6.696697e-09 -1.855456e-09 2.402656e-09 1.364717e-10 -4.072347e-10
3.148318e-08 -4.594846e-08 -5.071758e-08 -2.886305e-08 5.647213e-08 1.292488e-08
-6.102020e-09 -3.995099e-08 -1.479167e-09 3.893012e-08 -2.689611e-08 1.671483e-08
1.299787e-08 -4.197277e-08 -3.273329e-08 -6.707936e-08 7.352146e-08 4.442396e-08
3.827075e-08 1.040468e-08 -9.613214e-08 -3.615551e-08 7.425369e-08 2.487942e-08
5.270110e-08 -2.174929e-08 -9.288122e-08 -1.055632e-08 1.003904e-07 1.927662e-08
3.994145e-08 -6.442373e-09 -1.090548e-07 -4.354128e-08 1.171049e-07 3.698158e-08
6.556741e-09 8.406143e-09 -1.643328e-09 1.552251e-08 -9.070039e-10 -4.764158e-09
1.420531e-08 -5.324352e-08 -4.054477e-08 3.789896e-08 -6.758179e-08 3.161262e-08
1.189521e-08 -3.748530e-08 -4.458480e-09 3.107581e-08 -3.629827e-08 1.769584e-08
1.150213e-08 -6.297689e-08 -1.211069e-08 4.346716e-08 -5.144327e-08 2.230517e-08
2.571647e-08 -4.584035e-08 -2.632961e-08 1.469341e-08 -4.402840e-08 1.124622e-08
1.170652e-08 -3.720082e-08 -2.202891e-08 3.118344e-08 -4.201913e-08 2.104705e-08
1.515115e-08 -3.945490e-08 -6.763962e-09 2.160300e-08 -2.783366e-08 9.800478e-09
-1.952548e-09 -2.451653e-08 2.205695e-09 2.896834e-08 1.414184e-08 -5.577999e-09
-8.498462e-09 -8.398753e-09 6.268064e-10 1.792167e-08 -1.171574e-08 5.465026e-09
1.518678e-09 -2.881909e-08 -6.320283e-09 3.420307e-08 1.977216e-08 -8.634438e-09
-2.756701e-09 -1.070507e-08 -3.982674e-09 1.154499e-08 -8.929772e-09 3.342382e-09
4.098713e-09 -2.609291e-08 -6.038377e-09 3.196194e-08 1.362843e-08 -7.899444e-09
6.302661e-09 -3.335478e-08 -4.457551e-09 3.419993e-08 1.793744e-08 -9.170462e-09
7.989875e-10 1.005548e-09 -4.041435e-10 6.986905e-09 4.475235e-10 -9.927237e-10
-7.260791e-10 5.343698e-09 -1.213940e-09 8.165675e-09 1.502117e-09 -6.074187e-10
-1.271606e-09 2.615541e-09 -2.282285e-10 6.084927e-09 5.378182e-10 -7.475626e-10
-1.203024e-09 2.978029e-09 -3.255183e-10 6.597037e-09 5.661427e-10 -9.628224e-10
-2.148746e-09 2.427242e-09 1.326503e-10 5.785958e-09 7.082228e-10 -1.104369e-09
-2.777949e-09 4.257909e-09 -1.516160e-09 -7.661315e-09 -1.843463e-09 1.605926e-10
-8.751064e-09 5.944638e-09 -2.494742e-10 -4.181624e-09 -2.403108e-09 1.359983e-09
-9.188989e-09 9.144329e-09 -2.907973e-09 -6.350043e-09 -2.567490e-09 1.991776e-09
-8.237697e-09 4.632154e-09 2.895697e-10 -3.660393e-09 -2.600065e-09 1.304607e-09
-9.679725e-09 5.217214e-09 -1.017297e-09 -3.106608e-09 -2.870825e-09 1.536345e-09
-8.779989e-09 2.978204e-09 -6.174883e-10 -1.420927e-09 -3.086186e-09 1.727587e-09
-6.421735e-09 6.328870e-09 -1.473548e-09 -7.544177e-09 -1.608301e-09 8.700041e-10
-2.495122e-08 5.707291e-08 -1.723865e-08 -9.433605e-09 -2.404111e-09 3.161473e-08
-1.229791e-08 7.237932e-08 -7.791109e-08 9.983591e-09 -3.629571e-08 5.036055e-08
-2.527446e-08 5.231705e-08 -3.537099e-08 8.274806e-10 -1.164143e-08 3.662316e-08
-1.125001e-08 3.224742e-08 -1.207810e-08 -1.836089e-08 3.096931e-09 1.351996e-08
1.856769e-08 -8.258897e-09 -7.198568e-10 4.298938e-09 7.004470e-10 -3.060529e-09
-9.005243e-09 1.651242e-08 -3.238565e-08 -1.095177e-09 -2.667279e-08 2.529515e-08
-1.297449e-09 -1.581967e-08 4.140080e-09 -1.017802e-08 1.690412e-09 -1.093897e-09
-4.220385e-09 -1.383826e-08 -9.476500e-10 -1.926380e-08 7.429127e-09 3.034667e-09
-6.100120e-09 -1.347923e-08 2.689857e-09 -1.831953e-08 3.751670e-09 2.068163e-09
-5.167321e-09 2.727853e-09 8.481975e-10 1.585517e-09 3.028500e-10 -3.292360e-10
4.741622e-10 -1.896616e-08 4.988980e-10 -1.682285e-08 6.597759e-09 3.872127e-10
-2.908096e-09 -1.717264e-08 4.139303e-09 -1.646132e-08 3.081166e-09 -1.408848e-10
4.895796e-10 -2.058484e-08 9.810366e-10 -1.613744e-08 5.143306e-09 2.636188e-10
8.713306e-10 -1.866798e-08 3.020488e-09 -1.439412e-08 3.909919e-09 6.600790e-10
1.451768e-08 -5.760163e-09 -1.107690e-09 4.708663e-09 2.243224e-10 -1.395950e-10
-1.145051e-08 5.695413e-08 -9.444817e-08 -3.818202e-08 -8.315117e-08 -5.633726e-08
5.438420e-08 -1.871398e-08 -1.147845e-07 -1.151855e-07 -1.523676e-07 -7.359525e-08
-2.830822e-08 1.596693e-07 -1.814122e-08 -2.172648e-09 5.284969e-08 -4.325062e-08
-2.826658e-08 1.771387e-07 -1.248584e-07 -8.173068e-10 -2.396009e-08 -5.452278e-08
-9.943396e-08 7.346575e-08 2.383330e-08 -5.359456e-08 -5.951327e-08 2.625952e-08
1.056486e-07 -3.056986e-07 -3.509199e-07 -3.206361e-07 5.473547e-07 1.588018e-07
1.477865e-07 4.827744e-07 -7.144316e-07 -2.366105e-07 1.531192e-07 -7.805107e-08
-1.820051e-07 2.780368e-07 -1.944028e-07 -9.315358e-08 1.249647e-08 1.807970e-07
-4.999184e-08 1.201446e-07 -2.295083e-07 -1.109334e-07 1.190043e-07 1.368626e-07
-6.176374e-08 1.378928e-07 -3.165813e-07 -3.780230e-07 3.180918e-07 1.868467e-07
5.928509e-09 5.145329e-08 -2.219716e-08 1.993700e-08 4.195130e-09 -1.351798e-08
3.073752e-11 4.368795e-08 -1.892212e-08 3.834280e-08 1.210846e-08 -9.116016e-09
7.457357e-09 -3.650006e-09 -9.973076e-10 3.500534e-09 1.142484e-10 -2.605662e-10
-1.831705e-08 5.406506e-08 -2.276643e-08 6.467643e-08 2.884847e-08 6.537427e-09
1.196182e-08 -5.773172e-09 -6.335723e-10 5.964152e-09 9.383349e-11 -9.726690e-10
1.100968e-07 -3.076910e-08 1.375181e-07 4.638229e-08 4.446375e-08 1.646915e-07
-2.330144e-08 4.928904e-08 -1.506838e-08 2.836297e-08 9.553722e-09 -2.584181e-08
5.812594e-09 -2.644753e-08 -5.302386e-09 4.614358e-08 3.830668e-08 -1.698322e-08
-1.710655e-08 -2.922213e-08 -4.153840e-09 4.640450e-08 2.861240e-08 -1.402314e-08
2.291597e-09 2.979111e-08 -6.427246e-09 3.715388e-08 8.014793e-09 -3.776860e-09
-1.537453e-09 1.192958e-07 -2.688956e-08 5.241129e-08 3.265507e-08 -1.521056e-08
-9.957356e-09 1.651035e-08 -7.350226e-09 -8.209178e-09 -5.952707e-09 8.458448e-09
-3.190321e-08 3.178770e-08 -4.556363e-08 -5.039719e-08 4.969614e-08 4.620818e-08
-6.626190e-08 1.348444e-08 -3.438382e-08 -1.120005e-07 7.975715e-08 7.749760e-08
-5.903065e-08 4.990382e-08 -9.811547e-09 -3.631240e-08 2.226153e-08 5.581365e-08
-3.095962e-08 8.533916e-09 -4.553954e-08 -5.613097e-08 4.492467e-08 4.656946e-08
-2.858813e-08 2.083057e-08 -5.098602e-09 -4.904250e-08 1.843859e-08 3.700783e-08
1.364795e-08 -2.548723e-08 -4.154474e-08 -6.380554e-08 6.131788e-08 4.203239e-08
1.669909e-08 -1.078314e-07 -3.725165e-08 -9.700451e-08 1.130976e-07 4.661644e-08
1.384759e-08 -1.361621e-08 -2.404161e-08 -9.497814e-08 9.046928e-08 5.070038e-08
-5.667076e-08 4.819047e-08 1.547008e-08 -3.434094e-08 -9.943785e-11 4.323240e-08
-3.245854e-08 2.817362e-08 -5.097580e-08 -4.845077e-08 4.383260e-08 4.794428e-08
-1.440565e-08 1.697184e-08 1.160447e-09 6.903328e-09 -1.122156e-09 -1.639280e-09
-7.776514e-09 1.409328e-08 8.586267e-09 1.725006e-08 -5.854477e-09 -7.674277e-09
1.152649e-08 -6.212942e-10 -1.682384e-09 1.209642e-08 -3.070254e-11 -5.832347e-09
4.837649e-09 -2.600028e-08 3.051221e-09 -1.343075e-08 4.112811e-09 -4.153164e-10
2.429650e-09 -2.434257e-08 4.920352e-09 -1.391647e-08 1.998444e-09 -4.618734e-10
3.760612e-09 -2.198001e-08 4.872112e-09 -8.946578e-09 1.484489e-09 -3.665542e-10
-3.436722e-10 -1.842078e-08 3.013067e-09 -1.212358e-08 1.939042e-09 -3.722962e-10
-9.796541e-10 -1.640518e-08 2.934047e-09 -1.302026e-08 1.961115e-09 -7.746337e-10
6.460946e-10 -1.842301e-08 2.924388e-09 -1.208847e-08 2.002028e-09 2.508819e-10
-1.786870e-08 1.015693e-08 3.487207e-10 -9.867049e-09 4.573005e-09 2.491169e-09
-9.977780e-09 1.017475e-08 -1.925787e-08 -2.710038e-08 1.599812e-08 1.165498e-08
-2.544952e-08 1.139093e-09 4.565963e-09 -3.509660e-08 9.562551e-09 1.252469e-08
-9.818838e-09 -5.785232e-09 -2.017322e-08 -3.029400e-08 1.984327e-08 1.233055e-08
-1.515416e-08 -6.548503e-09 4.092847e-09 -2.449658e-08 6.591730e-09 4.117278e-09
-7.589434e-09 -8.260711e-09 1.140976e-09 -2.612468e-08 8.848055e-09 5.820294e-09
-7.563897e-09 -7.888961e-09 -6.709500e-09 -2.544499e-08 1.332898e-08 5.335639e-09
-5.205494e-08 1.149080e-07 1.466360e-08 2.596398e-08 -5.521533e-08 2.597256e-08
-7.401838e-08 1.178543e-07 1.860545e-08 2.702034e-08 -5.110289e-08 3.378587e-08
-1.185205e-07 -3.358238e-08 2.697656e-07 -4.837543e-08 -5.984957e-08 1.020711e-07
-9.536723e-08 -9.594263e-08 3.919662e-07 -4.448850e-08 -1.750857e-07 1.978029e-07
1.553524e-08 -2.679099e-08 1.610086e-07 -8.429358e-08 -1.121791e-07 1.184558e-07
5.437465e-08 -2.730185e-08 6.520471e-08 -8.114551e-08 -1.000025e-07 1.498315e-07
-5.519610e-09 4.861715e-09 8.112542e-10 4.813931e-09 -3.669372e-10 -1.002580e-09
2.314929e-09 5.758694e-09 -1.144355e-09 -1.258703e-08 -2.402683e-11 -1.248084e-10
1.691378e-08 -3.028476e-08 -2.691356e-08 1.822560e-08 -3.206738e-08 1.035510e-08
-2.138345e-08 -4.240885e-08 2.117589e-07 2.276686e-08 6.120843e-08 1.031843e-07
9.884458e-09 -3.128049e-09 -1.096522e-09 6.415898e-09 4.372933e-10 -4.647773e-10
-1.132490e-08 2.825288e-10 -1.341549e-08 -1.721730e-08 -1.576729e-08 -9.926308e-09
-2.004991e-09 -1.226998e-08 -1.453091e-08 -2.435106e-08 -1.843977e-08 -1.120073e-08
-7.145637e-09 1.996447e-09 -9.880035e-09 -1.840486e-08 -1.334865e-08 -6.280399e-09
-2.145477e-09 -3.861574e-09 -7.970834e-09 -1.486771e-08 -1.094436e-08 -3.186200e-09
-8.215091e-09 2.306105e-09 -1.306590e-08 -2.565831e-08 -2.603717e-08 -1.319765e-08
-2.365279e-09 6.821084e-09 -2.304056e-08 -1.583056e-08 -2.008919e-08 -1.003316e-08
2.009401e-08 -1.059372e-08 5.578787e-09 4.984595e-09 -5.284058e-12 -6.792525e-09
3.259096e-08 -9.346367e-09 1.384210e-09 -7.916955e-09 1.912453e-09 -9.927914e-09
3.419733e-08 -1.056246e-08 2.728876e-09 5.044990e-09 -8.544257e-10 -1.256806e-08
2.901836e-08 -1.031042e-08 4.647991e-09 -1.061153e-09 1.031859e-09 -1.123274e-08
2.059920e-08 -9.420589e-09 2.355830e-09 -7.756767e-09 1.781230e-09 -6.126504e-09
2.519768e-08 -9.396719e-09 1.702370e-09 -5.405136e-09 1.333774e-09 -6.193526e-09
2.683005e-08 -1.099201e-08 3.266983e-09 2.637940e-09 -6.891073e-10 -6.637264e-09
-7.900757e-09 3.970444e-09 -1.266308e-08 -2.020653e-08 -1.962901e-08 -1.284155e-08
-7.757673e-09 1.362017e-09 -4.145277e-09 -2.595658e-08 -1.964423e-08 -1.259200e-08
-1.361636e-08 1.127124e-09 -2.275727e-09 -1.794732e-08 -1.186405e-08 -9.475668e-09
-1.238265e-08 -1.042444e-09 -3.378206e-09 -1.842285e-08 -1.387299e-08 -8.909111e-09
-1.096720e-08 6.124944e-09 -6.759234e-09 3.836548e-09 -6.499125e-09 4.933887e-09
-1.099247e-08 7.143562e-09 -5.650194e-09 4.307360e-09 -5.340852e-09 5.244465e-09
-6.683859e-09 -2.971555e-09 -1.941308e-09 6.949216e-09 -4.727292e-09 1.781819e-09
8.564915e-10 1.942945e-08 8.768019e-10 1.690061e-08 -3.460163e-09 -6.205722e-09
-1.342680e-08 -8.510067e-09 -5.084215e-10 1.659350e-08 -1.110305e-08 7.833099e-09
-6.229071e-09 1.394749e-09 1.402608e-09 3.742202e-10 5.184040e-10 -6.731029e-10
-8.486516e-09 6.551177e-10 -3.610551e-09 9.113782e-09 -8.016039e-09 4.923538e-09
-1.107696e-08 -1.421181e-09 -3.354520e-09 6.475524e-09 -7.697834e-09 4.845979e-09
2.213921e-08 -9.207576e-08 -3.155452e-09 -5.002686e-08 6.442676e-08 2.580377e-08
5.500676e-09 -5.646559e-08 -6.355079e-09 4.826019e-08 3.679973e-08 -1.421771e-08
-1.056780e-08 -2.879472e-08 1.443875e-09 4.900589e-08 3.147969e-08 -1.687730e-08
2.244161e-09 -9.844767e-10 -7.350678e-10 -5.124539e-09 -6.974756e-10 -5.118006e-11
-1.001514e-08 2.033409e-08 1.290640e-09 -1.675111e-08 2.239902e-09 -3.096792e-09
-6.986906e-09 -8.358467e-09 -1.291943e-08 3.900698e-08 2.263745e-08 -1.644606e-08
7.042457e-09 -5.034583e-08 -4.737769e-09 4.448478e-08 4.011946e-08 -1.588561e-08
1.528792e-08 -5.811297e-08 -1.947362e-10 1.991458e-08 -2.345074e-08 5.232629e-09
5.004503e-09 -2.723939e-08 -3.281751e-08 4.429303e-08 3.386246e-08 -2.025052e-08
-6.354254e-09 -8.295700e-09 -2.063852e-08 3.835410e-08 2.341411e-08 -1.419407e-08
6.188330e-09 -3.403477e-08 -1.236129e-09 3.449006e-08 2.331108e-08 -1.080594e-08
-1.156520e-08 -6.282250e-09 -1.349872e-08 3.445426e-08 2.213047e-08 -1.213467e-08
-4.229034e-09 1.243241e-08 3.314020e-09 1.613438e-08 -2.086619e-09 -3.258834e-09
-6.143764e-07 5.372492e-07 1.413658e-06 -1.201345e-07 5.290261e-07 -9.486339e-07
2.364378e-08 -1.452492e-09 1.538663e-08 2.101319e-08 -3.676496e-09 -2.497015e-08
-4.296180e-09 5.615340e-09 9.068046e-10 4.862167e-09 1.477011e-10 -1.329738e-09
7.032337e-09 4.479024e-09 -1.995411e-09 1.184698e-08 6.422461e-10 -2.063121e-09
-8.956417e-10 4.789133e-09 1.848020e-10 1.031840e-08 -6.722392e-10 -2.617615e-09
-6.799069e-09 3.085316e-09 1.020844e-09 1.673009e-09 4.630473e-11 -4.806377e-10
-4.624895e-09 3.812330e-09 4.007821e-10 4.590289e-09 5.196535e-10 -1.080737e-09
1.984545e-08 5.685977e-10 -3.942739e-10 1.608983e-08 -1.744663e-09 -9.805677e-09
2.021221e-08 -5.029439e-09 3.554046e-10 9.105052e-09 2.849919e-11 -4.954569e-09
-5.720207e-10 5.069211e-09 4.113576e-10 8.581726e-09 -2.163182e-10 -1.421038e-09
1.958256e-08 -4.812453e-09 1.119660e-09 1.159259e-08 -1.332308e-09 -6.730805e-09
-6.035288e-08 3.862059e-08 -9.537470e-09 3.124612e-08 2.182677e-08 -3.587305e-08
1.906598e-08 -7.160212e-10 3.506258e-10 1.504728e-08 -1.407821e-09 -9.767898e-09
1.369228e-08 -6.905500e-10 -2.900009e-09 1.284482e-08 -8.735365e-10 -3.379167e-09
-6.580887e-08 -6.854504e-08 3.394061e-07 4.217064e-08 2.606691e-08 1.898500e-07
-3.581712e-09 -8.935487e-09 -1.381709e-09 -1.467873e-08 2.633740e-09 -1.598690e-10
4.881463e-10 -2.059819e-08 3.843979e-09 -1.613305e-08 2.965774e-09 1.042810e-09
2.480469e-09 -2.085813e-08 1.587056e-09 -1.657700e-08 5.185444e-09 1.616887e-09
-6.174602e-09 -7.912977e-09 2.791748e-09 -1.335708e-08 2.490528e-09 -3.175714e-10
-3.980713e-09 -9.864664e-09 3.442689e-09 -8.153254e-09 -4.213706e-11 -1.033231e-09
-2.163698e-09 -1.402241e-08 9.470620e-10 -1.429670e-08 3.607182e-09 1.604832e-09
1.179611e-08 -5.903033e-09 -1.263242e-09 1.446745e-09 2.498080e-11 -3.902722e-11
1.437853e-08 -6.797807e-09 -1.514841e-09 -5.574595e-10 3.395412e-11 4.761347e-11
1.340683e-08 5.787105e-08 -9.265434e-08 -1.434309e-08 -7.090721e-08 -2.205860e-08
1.411458e-08 -6.953081e-09 -1.405567e-09 -4.484448e-10 -1.149636e-11 -8.883399e-11
1.543767e-08 -6.414981e-09 -9.298478e-10 5.128302e-09 -2.402107e-10 -1.836950e-09
1.260280e-08 -6.545190e-09 -1.509395e-09 -4.249570e-10 9.218141e-11 -1.889428e-10
1.231140e-08 -6.247987e-09 -1.551925e-09 -4.603412e-10 -1.823208e-10 -3.603561e-12
1.312547e-08 -6.453612e-09 -1.192702e-09 2.848253e-09 1.245613e-10 -6.180285e-10
1.212335e-08 -6.441949e-09 -1.379948e-09 1.042737e-09 1.236525e-10 -1.500311e-11
4.592384e-10 2.301302e-09 -3.260068e-10 -8.043898e-09 -1.847611e-09 4.952437e-10
6.249619e-08 -7.152250e-09 4.134375e-08 3.844366e-08 2.655775e-08 5.097377e-08
7.092102e-09 -3.467895e-08 3.775221e-09 -1.815780e-08 7.858489e-09 1.883009e-09
6.783258e-09 -2.782455e-08 1.418085e-09 -1.320244e-08 4.911064e-09 6.347254e-11
4.914980e-09 -2.613418e-08 2.781400e-09 -1.268937e-08 2.316539e-09 -4.521993e-10
6.924943e-09 -2.858557e-08 3.367147e-09 -1.553515e-08 5.473826e-09 8.026893e-10
2.434902e-09 -2.416540e-08 -2.257908e-09 -2.161385e-08 8.635218e-09 1.488961e-09
-9.309343e-09 7.955505e-09 -3.185037e-09 -4.725269e-09 -3.166247e-09 3.204118e-09
8.938207e-09 -3.028070e-08 1.761101e-09 -1.537229e-08 5.992035e-09 1.345776e-09
-1.476593e-07 3.533790e-07 3.026696e-07 -2.226374e-07 -4.289766e-07 1.893214e-08
1.265637e-08 -7.180053e-09 -1.228384e-09 -2.395616e-09 -8.485679e-11 4.624967e-11
-2.792410e-07 9.531273e-07 8.154370e-07 2.584418e-07 -9.265456e-07 -4.129516e-07
-2.770145e-07 4.333681e-07 1.132078e-07 6.746630e-08 -3.544246e-07 -6.090551e-08
-1.337344e-07 6.767319e-07 -3.460084e-07 -9.466306e-08 -5.838718e-08 -9.433130e-08
-6.629711e-08 1.795540e-07 -9.108245e-08 6.355555e-10 -7.142341e-08 -5.583180e-08
-1.624389e-07 1.055977e-07 1.702939e-07 7.896315e-08 -2.614435e-07 -2.557741e-08
4.224240e-09 2.647595e-09 -1.355426e-09 -1.459283e-08 7.632575e-10 8.248824e-11
-7.350890e-09 -6.189888e-10 1.824684e-09 -2.282479e-09 1.108485e-09 -5.115806e-10
-8.625219e-09 4.342685e-09 1.348997e-09 -3.776535e-10 -1.009413e-10 -1.016746e-09
-8.751897e-09 3.203816e-09 8.368108e-10 -2.286278e-09 -1.259925e-09 -6.867995e-11
-7.314802e-09 2.095057e-09 1.720045e-09 6.849512e-10 3.994648e-11 -8.877493e-10
-7.084403e-09 8.150485e-10 1.602922e-09 -7.017269e-10 6.870635e-10 -2.252085e-10
2.178003e-08 -4.629187e-08 -3.450574e-09 -1.435603e-08 1.619259e-08 2.284946e-09
1.698999e-08 -4.372827e-08 -4.824925e-09 -1.357749e-08 1.261078e-08 1.360321e-09
-7.493413e-09 -1.049690e-09 2.056598e-09 -2.375949e-09 7.516412e-10 -4.298085e-10
1.246509e-08 -6.123302e-09 -1.468118e-09 -1.428831e-09 -1.055787e-10 -6.957100e-12
2.643234e-08 -5.366797e-08 -5.044861e-09 -3.156481e-09 1.847135e-08 6.459524e-10
6.883614e-10 4.787157e-10 -3.331855e-10 -4.005870e-09 -2.318938e-10 -4.604428e-11
1.691281e-08 -3.965275e-08 -2.274005e-09 -1.175495e-08 8.077411e-09 2.532386e-09
2.302121e-08 -4.558821e-08 -1.063705e-08 -1.477485e-08 1.672051e-08 7.018913e-09
6.032419e-09 8.967610e-09 -7.450948e-08 2.950574e-08 -6.405513e-08 4.409200e-08
-1.335690e-08 -2.269155e-08 -2.289233e-08 4.418008e-08 -6.733822e-08 4.041221e-08
-7.767339e-09 1.188817e-08 -2.253635e-08 1.614528e-08 -3.163958e-08 2.620523e-08
-1.349500e-08 -8.734129e-09 -1.678303e-08 4.881587e-08 -5.671419e-08 4.211937e-08
-2.376352e-08 3.055850e-08 -1.682051e-08 1.228697e-08 -1.476756e-08 2.586807e-08
-1.418051e-08 1.175542e-08 -2.266753e-08 1.452239e-08 -3.127794e-08 2.724009e-08
-4.365980e-08 2.841433e-08 -2.238652e-08 4.347919e-08 -4.360268e-08 4.988319e-08
-2.886190e-08 7.724008e-09 -2.266221e-08 2.607318e-08 -2.817663e-08 3.434615e-08
2.200311e-09 -2.560143e-08 3.356772e-09 1.736719e-08 4.184315e-09 -6.549590e-10
1.725948e-09 -2.756024e-08 5.681897e-09 1.461432e-08 2.115037e-09 -7.219761e-10
4.032822e-09 -2.769929e-08 5.432234e-09 1.488965e-08 1.903554e-09 -7.563181e-10
1.993966e-09 -2.926403e-08 5.529508e-09 1.660926e-08 4.263668e-09 -6.573360e-10
-1.002207e-08 -1.085925e-08 -1.540579e-08 -3.055432e-08 -3.436145e-08 -1.609265e-08
1.918624e-08 -1.074170e-07 -2.893187e-08 -5.795924e-08 -9.494847e-08 -2.726609e-08
-2.610592e-10 -1.970605e-08 2.087705e-09 2.032884e-08 5.105421e-09 -7.294547e-10
-5.151113e-09 3.679408e-09 8.178618e-10 3.170483e-09 7.649816e-10 -1.166027e-09
-1.840860e-09 -2.254569e-08 5.449056e-09 1.593300e-08 3.594442e-09 5.112841e-10
-1.314844e-09 -1.985104e-08 1.528076e-09 1.962704e-08 4.199389e-09 -1.657350e-09
8.295927e-09 -3.594326e-09 -1.013197e-09 -6.828717e-09 -3.272291e-10 -2.294631e-10
1.742310e-09 -2.564258e-08 5.635370e-09 1.321597e-08 2.888786e-09 -6.862657e-10
-1.597788e-08 1.672231e-08 9.445275e-10 6.218926e-09 -7.924599e-10 -9.938287e-10
-1.961256e-09 -1.725784e-08 1.603864e-09 -1.981818e-08 7.322092e-09 8.873676e-10
-1.246507e-08 1.701926e-08 1.509156e-08 2.085887e-08 -7.531886e-09 -5.442621e-09
-2.796501e-08 2.720296e-08 -6.294552e-09 -6.243232e-10 -2.128097e-09 1.045785e-08
-2.867498e-08 3.402862e-08 -5.736010e-09 -2.020873e-09 3.851394e-10 9.339257e-09
-2.220167e-08 1.622737e-08 1.907183e-08 1.786130e-08 -1.129578e-08 -1.375589e-08
-1.542925e-08 4.805755e-08 -4.036840e-09 2.359810e-08 -1.112981e-08 -2.397890e-09
-4.723678e-08 1.736256e-08 -9.180993e-09 4.599013e-08 2.552025e-08 -3.195588e-08
-1.203407e-08 2.637418e-08 4.828041e-09 1.563745e-08 -6.593649e-09 -3.454655e-09
-3.852444e-08 1.268060e-07 -1.396017e-07 -2.847086e-08 3.903732e-09 -6.367177e-08
-3.464474e-08 7.018839e-08 -5.476612e-08 -1.585633e-07 6.694855e-08 1.625200e-07
-6.782981e-09 1.382797e-09 -2.056874e-08 2.762417e-08 1.874908e-08 -1.090893e-08
4.127141e-08 -1.482078e-07 -3.858959e-08 5.768295e-08 -1.367743e-07 5.349187e-08
-2.233465e-08 -6.924547e-09 1.850641e-10 2.269159e-08 -1.460329e-08 1.344522e-08
6.886407e-10 6.818169e-08 -9.921836e-08 -2.670265e-08 -7.101926e-08 -5.445471e-08
-3.404083e-08 1.345802e-07 -6.333185e-08 8.982412e-09 1.193127e-08 -3.305218e-08
-4.219326e-08 1.945225e-08 -8.533321e-09 4.273914e-08 -3.564515e-08 4.488728e-08
1.568468e-08 -8.201791e-08 -8.572846e-08 -9.237468e-08 -1.613167e-07 -4.811815e-08
-2.586858e-09 2.892959e-09 -5.363265e-11 -5.478934e-09 -1.543121e-09 -5.148210e-10
5.829265e-08 6.244940e-08 -1.156783e-07 -9.629390e-09 -4.683190e-08 2.906014e-08
1.802706e-08 1.229498e-08 3.723112e-09 -2.498332e-08 1.458031e-08 -2.127685e-08
-1.056253e-08 1.077974e-07 -9.907776e-08 -1.324409e-08 -2.202599e-08 -2.494066e-08
-6.714936e-09 -1.345536e-10 2.308142e-09 -2.827608e-09 6.872590e-10 -7.472838e-10
-2.012704e-08 8.023261e-08 -6.149718e-08 -3.441731e-09 -3.372424e-08 -2.498729e-08
2.630311e-09 -5.252076e-09 -1.015293e-07 -1.378820e-08 -9.494856e-08 -2.520648e-08
9.648533e-08 -1.431548e-08 -1.724874e-07 -2.497728e-08 -1.976301e-07 -2.297855e-08
-1.979165e-08 3.578929e-08 -9.867357e-09 -2.514302e-10 7.999399e-09 -1.047474e-08
4.443955e-08 -2.924112e-08 -6.560586e-08 -1.670263e-08 -8.990470e-08 2.582934e-09
-2.658637e-08 4.177135e-08 -2.122106e-08 1.724549e-08 1.752916e-08 -2.537901e-08
-4.711732e-08 2.901195e-08 -2.002563e-08 4.205112e-08 2.786522e-08 -4.389885e-08
1.206779e-07 -2.909321e-08 2.543789e-08 -9.506042e-09 -1.169774e-09 1.033022e-07
-2.408331e-08 5.642362e-08 -1.692954e-08 -9.221181e-09 7.120790e-09 -1.904804e-08
-2.500194e-08 5.795102e-08 -1.374351e-08 -6.005369e-09 -2.007644e-09 -1.839273e-08
-5.275455e-08 5.226662e-08 -2.605430e-08 2.079649e-08 2.056470e-08 -3.749770e-08
-4.085913e-08 4.464057e-08 -6.593039e-09 3.273348e-08 2.733436e-08 -3.985532e-08
1.205770e-08 -3.536607e-08 2.513325e-09 1.271534e-08 3.140974e-09 -9.644598e-10
4.461153e-09 -5.837408e-10 -7.010148e-10 -6.680803e-09 -6.882158e-10 1.638778e-11
2.790286e-09 -4.295026e-10 -6.573564e-10 -4.604422e-09 -4.885303e-10 2.434315e-10
5.485131e-09 -1.659687e-09 -1.355561e-09 -7.641663e-09 -8.762243e-10 2.054417e-10
5.697403e-09 -2.888004e-09 -1.032448e-09 -5.099338e-09 -6.362163e-10 1.826908e-10
5.015508e-09 -8.066099e-10 -1.076075e-09 -6.581378e-09 -4.181412e-10 1.014466e-10
7.838553e-09 -3.844073e-09 -1.266408e-09 -4.458615e-09 -2.040605e-10 -2.603362e-12
-2.700312e-08 5.959768e-09 -4.918449e-11 1.230829e-08 -9.816380e-09 1.134271e-08
3.259707e-09 -7.294422e-10 -6.914972e-10 -6.231644e-09 -6.210499e-10 -1.045528e-10
4.995040e-09 -1.932864e-09 -9.226993e-10 -5.113292e-09 -6.806380e-10 2.661946e-10
7.859437e-09 4.101645e-10 5.241799e-09 1.220347e-08 -1.397496e-09 -8.344856e-09
-8.418096e-08 2.310340e-07 4.769035e-08 2.110156e-08 -1.836415e-08 3.477507e-09
1.000843e-08 -8.289907e-10 -1.858635e-09 1.000115e-08 2.830336e-10 -2.716206e-09
2.280319e-08 -5.073022e-09 2.057511e-09 8.945352e-09 -1.632817e-10 -8.291149e-09
1.670377e-08 -4.535098e-09 8.281114e-09 1.185816e-08 -6.416024e-10 -1.064486e-08
6.178529e-08 -2.425613e-08 2.526624e-08 -3.486660e-09 1.061227e-08 3.706052e-08
7.397241e-09 -6.160279e-10 7.839551e-10 1.024627e-08 3.603239e-10 -2.255832e-09
1.952734e-08 -4.829859e-09 4.266788e-09 1.156109e-08 -9.766140e-10 -5.950256e-09
1.173000e-08 2.511245e-09 4.598690e-09 1.598678e-08 -1.640322e-09 -7.376932e-09
-3.611732e-09 3.431786e-08 -1.865865e-08 1.573129e-08 -5.602847e-09 -1.377421e-08
1.019161e-07 9.200129e-08 -1.715440e-07 -1.059852e-07 2.799980e-07 7.971279e-09
-2.440239e-08 1.485669e-08 -3.477343e-09 2.294356e-08 1.125271e-08 -1.158786e-08
2.320704e-08 2.091788e-09 -6.813967e-10 -2.232580e-08 4.364198e-09 -5.157723e-09
2.102492e-08 -4.878814e-08 -1.106048e-09 -5.360082e-09 1.181263e-08 4.973499e-10
3.300568e-08 -4.762803e-09 1.650342e-10 -1.783706e-08 4.833335e-09 -1.252736e-08
5.138467e-08 -5.563843e-09 -5.248739e-09 -1.791236e-08 2.357896e-09 -2.532091e-08
2.840552e-08 -7.966412e-09 5.938234e-09 -1.386608e-08 4.378765e-09 -1.343185e-08
-1.113007e-07 1.118481e-07 3.195437e-07 -6.618546e-08 5.300036e-08 -3.593433e-07
5.589270e-08 3.800761e-08 -2.150664e-07 4.941833e-09 -2.160165e-07 4.540269e-08
-1.658307e-07 2.182525e-07 2.736794e-07 9.935390e-09 1.945277e-07 -4.681580e-08
-6.439168e-10 -2.270877e-08 6.296981e-09 1.179640e-08 1.464552e-09 -2.997036e-10
3.701601e-09 -3.022631e-08 6.644982e-09 1.370572e-08 1.613847e-09 -3.643881e-10
-2.439198e-08 1.699563e-07 -1.208005e-07 -5.439719e-08 4.340281e-09 1.018570e-08
2.189388e-08 -4.807458e-08 4.316042e-09 4.507164e-09 9.448517e-09 -7.939663e-10
-1.253056e-07 2.440349e-07 3.610634e-07 -7.494002e-08 1.677686e-07 -7.133758e-08
-2.958451e-07 -9.330831e-09 4.950355e-07 -7.643355e-10 1.035045e-07 -7.476103e-08
-6.359402e-09 -2.711709e-09 1.705608e-09 -1.057245e-08 1.010594e-09 3.043267e-10
-7.111407e-09 2.201373e-09 1.686728e-09 9.720935e-10 6.226974e-11 -2.360141e-10
-3.577831e-08 6.750903e-08 -5.419597e-08 -9.951001e-09 1.927231e-08 -4.542446e-08
-1.871816e-07 1.556711e-07 2.827005e-07 -9.588835e-08 2.143185e-07 -1.983528e-07
-6.896963e-09 2.949921e-09 1.444694e-09 1.079153e-09 6.760819e-10 -2.505431e-10
-2.857060e-08 1.663310e-07 -5.300867e-08 -8.184239e-08 -5.094230e-09 -1.661143e-08
-1.838559e-07 3.846914e-08 2.527164e-07 -1.232063e-07 4.350907e-08 -1.920970e-07
-1.277761e-07 -4.429695e-09 4.957446e-07 -4.422330e-08 8.177152e-08 -2.622513e-08
-5.848925e-09 -5.423983e-09 2.719431e-09 -4.874347e-09 1.064019e-09 -1.039279e-09
-4.068722e-08 1.749520e-07 -1.300451e-07 1.389986e-08 8.281603e-08 1.279898e-08
1.742508e-08 1.069317e-07 -1.448996e-07 -5.921355e-08 -1.331646e-07 -1.653257e-08
-8.864539e-10 4.717218e-09 2.614230e-08 1.925510e-08 -1.192049e-08 -2.034573e-08
2.386771e-08 -6.681232e-08 -7.918176e-09 3.787906e-08 6.216018e-08 -1.465720e-08
2.565408e-09 -2.550898e-08 -1.892664e-08 3.671073e-08 2.529585e-08 -9.842464e-09
2.654355e-08 -6.869172e-08 -1.861905e-08 2.162709e-08 3.733114e-08 -7.598929e-09
1.763295e-08 -3.634860e-08 -1.521073e-08 2.574393e-08 1.792338e-08 -5.098663e-09
-7.728064e-09 5.649446e-09 1.046817e-09 1.011165e-09 1.103292e-09 -1.165326e-09
2.092585e-08 -4.780976e-08 -1.116148e-08 1.727652e-08 2.373399e-08 -3.908823e-09
-8.034374e-09 -4.037214e-09 1.770031e-09 -7.493881e-09 1.366465e-10 -2.642455e-10
2.620139e-08 -4.408759e-08 -8.043268e-09 6.094688e-09 1.368081e-08 -1.034178e-09
4.649272e-09 -3.211508e-08 5.531371e-09 1.851127e-08 3.912134e-09 -1.676960e-09
-5.890228e-09 3.492046e-09 1.077496e-09 1.599504e-09 5.886378e-10 -8.298571e-10
7.374728e-09 -3.583937e-08 4.669814e-09 1.623406e-08 5.843506e-09 -1.255382e-09
-1.106410e-08 3.573473e-09 2.454423e-10 -1.042796e-08 4.219705e-09 1.660348e-09
2.933488e-08 -1.658908e-07 -9.739533e-09 -7.217337e-08 1.019857e-07 2.511483e-08
-2.695342e-09 -1.077901e-08 -1.077705e-08 -2.529144e-08 1.000907e-08 7.005228e-09
8.084357e-09 -3.381785e-08 4.778425e-09 1.375781e-08 3.310517e-09 -8.214203e-10
3.487091e-09 -1.009714e-09 -5.051777e-10 5.547981e-09 3.856109e-10 -4.155667e-10
4.569252e-09 -1.928392e-08 -2.896337e-09 -1.700121e-08 5.517723e-09 1.458186e-09
-5.607337e-09 -2.835925e-09 2.784182e-09 -2.505310e-09 6.524870e-10 -1.047584e-09
3.968063e-09 -2.622827e-08 2.250017e-09 1.770036e-08 3.348448e-09 -8.719803e-11
-6.897641e-09 1.222559e-09 1.873249e-09 -8.598470e-10 5.036378e-10 -7.117791e-10
1.221679e-08 -6.204925e-09 -1.554012e-09 4.034628e-10 9.810736e-11 3.629370e-10
1.192668e-08 -6.522739e-09 -1.608406e-09 -2.736653e-09 -2.649452e-10 3.620597e-10
-6.658805e-09 -1.654817e-08 -5.176965e-09 -3.325371e-08 1.758760e-08 8.813677e-09
-6.897642e-09 9.978685e-10 1.869285e-09 2.583547e-10 5.703645e-10 -7.468408e-10
1.164681e-08 -4.504111e-09 -1.305628e-09 4.756508e-09 4.091572e-10 1.478197e-10
-3.761791e-10 7.855040e-10 -2.473592e-10 4.409671e-09 1.004273e-09 -4.743916e-11
1.475166e-08 -6.875587e-09 -2.106803e-09 -1.904030e-09 -1.144821e-10 5.347142e-10
1.253727e-08 -6.341078e-09 -1.391561e-09 -2.337638e-09 -3.856349e-11 2.671891e-11
1.230963e-08 -6.247802e-09 -1.569576e-09 -4.556699e-10 7.164125e-11 -5.171374e-11
-9.767640e-09 1.324157e-08 -8.552625e-10 1.533938e-09 1.504502e-09 -4.754734e-10
1.211024e-08 -5.498432e-09 -1.501905e-09 -3.528594e-09 -9.814777e-11 -2.366518e-11
2.057573e-08 -8.622843e-09 7.098883e-09 -1.248465e-08 3.331608e-09 -7.026621e-09
1.510334e-08 -2.811623e-09 2.018249e-09 -1.552653e-08 1.839033e-09 -4.467100e-09
1.928811e-08 -8.740969e-09 2.200004e-09 -8.369192e-09 5.580997e-10 -4.142560e-09
7.524093e-09 -2.652338e-09 -1.066996e-09 5.535383e-09 4.693398e-10 -2.034410e-10
4.686568e-09 -3.083319e-10 -1.946985e-10 7.757757e-09 5.511079e-11 -9.496375e-10
3.743122e-09 -1.591835e-09 -6.817571e-10 3.537305e-09 5.727507e-10 4.915762e-11
1.660567e-08 -1.355652e-09 -3.045519e-09 -1.322999e-08 -2.190595e-10 -2.492009e-09
-5.136797e-09 7.437304e-09 1.023453e-09 7.943039e-09 -1.161334e-09 -2.302675e-09
2.628025e-08 -3.038822e-09 -1.480219e-09 -1.420558e-08 9.739431e-10 -3.768620e-09
-8.128074e-09 7.444103e-09 3.814824e-10 3.141688e-09 1.316741e-09 2.817022e-10
2.037595e-08 -5.203486e-09 5.576536e-09 -1.528518e-08 2.121396e-09 -8.240875e-09
1.112328e-08 -2.411013e-10 1.001940e-09 -1.565757e-08 2.095709e-09 -4.672815e-09
-2.694769e-08 4.106714e-08 -2.472417e-08 4.710548e-10 1.240956e-08 -2.342511e-08
-6.913927e-08 1.667314e-08 -2.457670e-08 8.638494e-08 5.683251e-08 -6.433434e-08
-2.980615e-08 1.188175e-08 -1.777453e-09 2.653239e-08 1.021060e-08 -1.304577e-08
1.257189e-08 -5.446804e-09 -1.375652e-09 -3.630807e-09 -2.525556e-10 9.320967e-11
-1.158135e-08 4.106714e-08 -1.612188e-08 -1.288318e-08 5.440498e-09 -1.117363e-08
-1.653569e-08 7.057456e-08 -4.356504e-08 9.523985e-09 3.024420e-08 -3.042197e-08
1.098978e-08 -6.136535e-09 -1.468412e-09 -2.854267e-09 -6.560996e-11 7.884304e-11
1.363237e-08 -6.744268e-09 -1.319488e-09 6.317626e-11 -8.344282e-11 -7.951557e-10
1.173679e-08 -6.046972e-09 -1.539994e-09 -2.635171e-09 -2.636521e-10 3.590925e-10
1.042087e-07 -3.726697e-09 -6.918748e-09 -1.002160e-08 -2.822050e-09 4.217123e-08
-7.157722e-08 1.123984e-07 -6.002807e-08 1.126278e-07 7.971468e-08 -1.041527e-07
1.204106e-08 -5.630739e-09 -1.748552e-09 -4.726230e-09 -4.919486e-10 2.438509e-10
1.531904e-08 -6.691850e-09 -1.707300e-09 -2.799427e-09 -1.196172e-10 6.046483e-10
1.189065e-08 -5.793200e-09 -1.402836e-09 -2.075644e-09 -7.933887e-11 -6.358070e-11
1.099560e-08 -6.075108e-09 -1.394957e-09 -1.299448e-09 -1.401809e-10 2.654823e-10
-7.527727e-09 -6.742160e-09 -4.595582e-09 -1.522355e-08 -1.209759e-08 -3.439949e-09
-8.844829e-10 2.990764e-09 -3.062790e-08 -2.508805e-08 -2.879402e-08 -1.401538e-08
-5.299529e-08 6.750903e-08 -3.780017e-08 -2.282522e-09 1.291679e-08 -4.818135e-08
-1.340700e-08 4.604182e-09 -1.268603e-08 -1.772609e-08 -1.972244e-08 -1.395475e-08
-9.323796e-09 2.773071e-08 -4.122610e-08 -2.558288e-08 -3.391715e-08 -2.428616e-08
-1.188617e-08 3.300654e-08 -3.606069e-08 -1.927902e-08 -2.941036e-08 -2.357927e-08
-1.474389e-08 2.312072e-08 -2.108524e-08 -1.388274e-08 -2.121753e-08 -1.960839e-08
-4.763160e-09 -1.113146e-08 -1.070297e-08 -3.067286e-08 -3.531646e-08 -2.304825e-08
-1.060240e-08 5.063112e-09 -9.685506e-09 -2.792819e-08 -3.096480e-08 -2.133221e-08
2.994218e-08 4.563901e-08 -2.190450e-07 6.887808e-09 -2.122485e-07 3.393681e-08
3.200481e-08 -4.677766e-08 -6.092498e-08 9.785573e-09 -6.409178e-08 1.097589e-08
4.388361e-08 -3.095766e-08 -8.462557e-08 -9.233300e-09 -1.078847e-07 5.055537e-09
5.231864e-08 8.826540e-09 -1.069982e-07 1.038008e-08 -9.436895e-08 3.808923e-08
4.355262e-08 -1.669566e-08 -8.008648e-08 -8.216730e-09 -7.681352e-08 5.476138e-09
4.049454e-08 3.898051e-09 -6.807434e-08 1.554357e-10 -5.982499e-08 1.002371e-08
-1.561887e-07 1.975111e-07 -2.280308e-08 5.646013e-09 -2.290601e-07 3.593111e-08
-5.555354e-09 1.979002e-09 1.090541e-09 1.353421e-09 6.204119e-10 -5.344136e-10
-4.451156e-09 -9.811149e-09 3.422108e-09 -7.513945e-09 1.079049e-09 -1.162402e-09
-5.242452e-08 5.974040e-08 2.314110e-07 -8.124012e-08 -1.542670e-07 6.939660e-08
-6.011712e-08 1.691643e-07 -2.044540e-08 -2.157320e-08 -1.449057e-07 -3.124781e-08
-1.157033e-07 2.135038e-07 3.426289e-07 -2.361112e-07 -5.287601e-07 1.060704e-07
1.454403e-09 -3.498646e-10 -2.494187e-10 3.285255e-09 2.153986e-10 -1.370810e-10
-1.442057e-07 -9.809230e-08 1.077438e-06 -8.228756e-08 -2.671408e-07 2.842631e-07
-6.082844e-09 3.818295e-09 4.722702e-10 -3.196779e-09 -4.714573e-10 -2.206020e-10
-6.709059e-09 -4.486172e-09 3.100267e-09 -5.479670e-09 -3.394417e-10 -1.022198e-09
-6.546259e-09 3.955000e-09 3.072467e-10 -3.957931e-09 -1.047368e-09 -3.027825e-10
1.219112e-08 -3.718080e-09 2.884911e-09 1.152963e-08 -6.263401e-10 -5.621637e-09
-5.380937e-09 3.636857e-09 1.637315e-10 -4.446515e-09 -5.417676e-10 -2.613709e-11
6.189200e-10 6.180737e-10 -4.673022e-10 -6.223001e-09 -1.062049e-09 3.366749e-10
1.886229e-08 -3.243143e-07 -1.616321e-07 -2.882078e-07 3.726336e-07 1.648238e-07
3.725837e-09 -9.221294e-10 -9.278618e-10 -7.257589e-09 -6.306770e-10 1.072835e-10
6.793861e-09 2.462465e-09 2.118919e-09 1.532821e-08 -9.252813e-10 -3.348875e-09
1.303144e-08 -1.925519e-09 -6.504721e-08 -3.059730e-08 -6.197973e-08 -2.361765e-08
-9.383050e-10 2.972160e-09 -1.500640e-09 -9.130615e-09 -9.307966e-10 1.577844e-09
2.640153e-08 -3.703089e-09 7.891164e-08 -6.235073e-08 -3.706612e-08 7.547078e-08
8.827218e-08 -5.951969e-08 1.106062e-07 -9.741463e-09 -2.590683e-09 1.895113e-07
-6.979428e-08 -1.025069e-07 3.896639e-07 -4.105441e-08 -1.663958e-07 1.773875e-07
5.719440e-10 -5.582751e-10 -2.281682e-08 1.279674e-08 -2.029544e-08 1.061003e-08
2.371204e-08 -2.800934e-08 -2.819216e-08 -1.571150e-08 -3.040867e-08 -4.218581e-09
-2.582354e-08 4.317518e-08 3.313036e-08 -6.027517e-08 -6.144023e-08 3.303083e-08
-3.666421e-08 5.671309e-08 8.298585e-08 -6.731679e-08 -9.180829e-08 3.255034e-08
7.275161e-08 6.231001e-07 -5.873521e-07 2.701048e-07 2.577345e-07 2.105197e-07
7.516102e-10 5.717179e-08 7.920144e-08 -6.150569e-08 -5.848734e-08 4.725418e-08
-3.776567e-08 8.302325e-08 -4.718675e-08 7.666904e-08 8.226140e-08 -6.450466e-09
-1.564052e-07 1.309750e-07 2.144496e-07 1.009242e-07 2.425065e-07 6.073951e-08
-2.541662e-07 1.679918e-07 8.442539e-07 1.761639e-07 4.045375e-07 2.489580e-07
-6.058666e-07 6.712309e-07 -1.286078e-07 8.750449e-08 4.063289e-07 -3.491486e-07
1.410881e-08 -3.519210e-09 7.204859e-10 9.397653e-09 -1.172750e-10 -2.372349e-09
1.016192e-08 6.797854e-08 -1.157674e-07 -2.155519e-08 -5.734319e-08 1.323036e-08
-5.841064e-09 1.692764e-09 1.063683e-09 8.329863e-10 9.347541e-10 -5.869030e-10
5.691987e-09 -4.826384e-11 -1.101827e-09 -1.012324e-08 -7.896306e-10 6.304945e-10
1.057577e-08 -3.519210e-09 3.869022e-09 9.329968e-09 -2.871852e-10 -5.067147e-09
2.024983e-08 -7.770190e-09 7.950947e-10 2.906972e-09 -1.546765e-11 -3.035076e-09
1.005391e-08 -1.566611e-09 -1.044386e-09 8.775180e-09 5.422409e-10 -1.351815e-09
1.521183e-09 1.298909e-09 -2.468117e-10 6.235012e-09 9.008103e-10 -1.099384e-10
-1.706882e-08 5.435732e-09 -6.730840e-09 -1.990134e-08 -1.647908e-08 -1.435689e-08
4.811985e-09 -3.321010e-08 -1.565500e-08 -4.613633e-08 -5.891596e-08 -3.003184e-08
1.754829e-09 -1.034240e-08 -9.502355e-09 -3.294349e-08 -3.722072e-08 -1.780170e-08
7.380692e-09 -9.917726e-09 -2.226597e-08 -3.169490e-08 -3.836102e-08 -1.777771e-08
-1.364406e-08 7.603692e-09 -1.225238e-08 -2.817933e-08 -2.643336e-08 -1.606562e-08
4.119748e-09 1.789676e-10 -5.454290e-10 6.920872e-09 8.218745e-10 -4.188278e-10
-6.766904e-08 -1.583930e-08 3.036775e-07 2.382476e-08 7.263674e-08 2.474779e-07
1.206662e-07 8.138359e-08 3.805882e-07 -1.113356e-07 -1.458325e-07 3.820536e-07
-1.329795e-08 -5.174524e-08 7.748582e-07 6.227493e-08 1.153464e-08 5.087524e-07
-2.860878e-07 2.787540e-07 1.944207e-07 2.719038e-07 -2.594387e-07 -9.942162e-08
-5.248703e-08 2.740136e-07 3.102338e-07 -4.019064e-09 -1.662247e-07 5.006591e-07
-1.179699e-07 2.492083e-07 3.591394e-10 -3.608200e-07 -6.798433e-07 -2.180428e-08
-1.689399e-07 -1.025291e-07 3.718930e-07 -6.295845e-08 -2.102898e-07 7.350947e-08
1.634612e-08 -7.221462e-10 -2.196523e-09 1.208169e-08 -3.035980e-10 -4.832260e-09
2.751432e-09 5.024197e-09 2.484922e-08 2.352438e-08 -1.366187e-08 -1.961082e-08
-1.561283e-08 5.700417e-09 -9.131104e-09 -1.915909e-08 -1.766992e-08 -1.549353e-08
4.113241e-09 -3.016244e-08 4.548222e-09 -1.918308e-08 5.308296e-09 9.983860e-10
4.480694e-08 5.384831e-09 5.414741e-09 2.703441e-08 -7.904998e-09 -3.362762e-08
3.648397e-07 -8.365197e-08 4.354994e-07 9.865376e-09 -2.781599e-09 5.345193e-07
-2.015390e-07 3.376432e-07 3.372702e-07 -1.120502e-07 -4.053230e-07 7.796454e-08
-4.456634e-09 2.376520e-09 8.053975e-10 3.771051e-09 6.339306e-11 -3.623295e-10
-2.873594e-08 2.475491e-07 -3.445994e-08 3.197979e-08 -1.397823e-07 -1.910392e-08
8.317810e-09 -3.790655e-08 4.613432e-09 1.968509e-08 7.109035e-09 -1.049752e-09
-2.925716e-09 1.675065e-09 3.957816e-10 3.380503e-09 4.484414e-10 -4.067199e-10
1.329979e-08 -3.718056e-08 9.746657e-10 1.702599e-08 7.365709e-09 -9.373511e-10
8.240928e-10 -1.543560e-11 -1.180531e-10 4.141472e-09 5.589742e-10 -1.824555e-10
3.672538e-09 -3.129520e-08 4.183865e-09 1.802562e-08 6.274721e-09 -1.492513e-09
3.429430e-09 -2.112203e-10 -4.612093e-10 5.681221e-09 7.092257e-10 6.566292e-11
-2.792816e-09 -8.911249e-09 3.799976e-09 -5.639791e-09 2.504925e-10 -6.827898e-10
7.194695e-09 -3.297171e-08 5.677783e-09 1.332134e-08 3.807429e-09 -5.906240e-10
-3.415420e-09 2.153058e-09 5.334813e-10 3.805245e-09 1.014221e-09 -5.326374e-10
-7.419695e-09 8.453318e-10 2.409552e-09 -1.783426e-09 -1.250167e-11 -4.565501e-10
2.185895e-09 -3.259090e-10 -5.676140e-10 5.032894e-09 9.348405e-10 1.295100e-10
-6.965923e-09 -1.223393e-09 2.409632e-09 -4.495968e-09 5.071212e-10 -4.924083e-11
4.471776e-09 -3.288618e-08 4.636981e-09 1.908558e-08 5.665611e-09 -2.103163e-09
3.193084e-08 8.475787e-09 -1.398403e-07 3.306889e-08 1.191374e-07 -4.251697e-08
9.917794e-08 -3.113618e-07 -1.585591e-08 6.722363e-08 2.362284e-07 -5.684768e-08
1.423947e-08 -3.942806e-08 5.220923e-09 -7.048596e-09 3.943631e-09 -3.214069e-10
2.939005e-09 -2.622337e-08 1.067453e-09 -1.882873e-08 7.037472e-09 2.177969e-09
4.274804e-08 1.183221e-08 -1.065766e-07 3.817301e-08 1.548335e-07 -6.271016e-08
2.054163e-08 -5.779254e-08 3.014367e-09 -7.947232e-09 1.515719e-08 1.189826e-09
4.104979e-08 -8.834220e-08 -5.089038e-08 1.073183e-09 -9.361013e-08 8.959603e-09
3.770652e-08 -1.384191e-07 -4.140365e-09 -3.310586e-08 6.229919e-08 6.052380e-09
3.650727e-08 -7.876891e-08 -1.055202e-08 -6.015308e-09 -4.248407e-08 6.325850e-10
3.296024e-08 -4.260363e-08 -3.647015e-08 -4.915370e-09 -6.349337e-08 2.720920e-10
3.819152e-08 -8.973031e-08 -2.273358e-09 -2.576757e-08 4.617770e-08 5.090766e-09
3.229574e-08 -5.994590e-08 -3.415278e-08 2.192267e-09 -5.784190e-08 6.089999e-09
3.505297e-08 -9.990341e-08 -1.301736e-08 -2.001883e-08 -6.581600e-08 -8.137271e-09
2.165020e-08 -2.218187e-08 -1.861202e-08 2.577455e-08 2.339660e-08 -4.516392e-09
3.218374e-08 -5.357740e-08 -1.477481e-08 -1.101223e-08 -4.081257e-08 -2.261495e-09
-8.587670e-09 5.552710e-09 1.204849e-09 1.004340e-09 1.478599e-10 -1.840086e-10
1.038444e-09 4.982488e-09 6.263203e-10 1.073818e-08 -5.567925e-11 -1.153813e-09
-9.794314e-09 -2.399135e-09 -3.910566e-09 -1.928918e-08 5.701102e-09 4.543305e-09
-9.391561e-09 4.998518e-10 7.906857e-10 -5.861999e-09 3.540002e-09 -2.069370e-11
-9.377175e-10 6.704388e-10 -6.741185e-11 2.806460e-09 1.403482e-10 7.635470e-11
-2.574614e-08 -1.010940e-08 -3.710633e-09 5.577583e-08 3.143253e-08 -2.797443e-08
1.019501e-09 2.786324e-09 -1.174865e-10 7.114398e-09 1.077073e-09 -7.878901e-10
1.109705e-10 -6.717646e-08 -1.574818e-09 7.444925e-08 6.090998e-08 -2.728330e-08
5.110166e-09 7.373762e-10 -8.949397e-10 8.210391e-09 1.058685e-09 -7.948759e-10
-1.542710e-08 2.164503e-08 -6.136381e-08 4.616076e-08 4.687316e-08 -3.955407e-08
-9.381963e-09 8.388307e-09 7.517027e-10 2.611686e-09 2.600586e-10 -2.477711e-10
-6.965923e-09 -4.453023e-09 2.425519e-09 -5.444998e-09 -4.191319e-10 -6.016221e-10
-1.063056e-08 -2.953012e-09 -8.652127e-09 7.319083e-08 5.253460e-08 -4.349944e-08
-3.181637e-08 1.601984e-07 -8.083992e-09 -1.499682e-09 5.016269e-08 -5.062657e-08
-1.659643e-08 1.289026e-08 -1.812914e-09 -4.210859e-09 -4.470825e-09 8.548681e-09
-6.266049e-09 1.274105e-08 -1.271659e-09 -1.418865e-08 -2.588408e-10 2.758986e-09
2.416151e-08 -8.649430e-08 1.999051e-09 -2.683525e-08 3.408478e-08 6.260848e-09
-2.515838e-09 1.472888e-08 -2.224207e-09 -2.392800e-08 5.686807e-09 3.109162e-09
5.257306e-09 1.743875e-08 1.903064e-08 2.389086e-08 -1.269933e-08 -2.280514e-08
-4.208173e-08 8.795618e-08 -1.432863e-07 4.191647e-08 -1.919139e-08 2.057023e-08
1.053343e-08 1.843818e-09 -9.864423e-10 -1.571797e-08 6.869209e-10 -7.307896e-10
2.625432e-08 -9.249227e-09 1.517723e-09 -4.881199e-09 1.732408e-09 -5.785117e-09
-7.090044e-08 5.085042e-08 4.044398e-08 2.041801e-08 -1.464879e-07 -9.577246e-08
-1.018991e-07 1.979421e-08 3.866278e-07 -5.058198e-08 -1.064942e-07 6.199027e-10
7.788846e-08 7.674501e-08 -2.696755e-07 1.120581e-07 2.924416e-07 -8.231168e-08
6.828411e-09 -1.707500e-08 -6.610534e-09 -2.159014e-08 9.611946e-09 4.458073e-09
7.462670e-09 1.033818e-08 3.291959e-10 -2.115308e-08 1.674995e-09 -6.826562e-10
8.312251e-09 2.265379e-09 2.495854e-09 -1.900207e-08 3.097234e-09 -2.212632e-09
-1.168118e-08 2.234352e-09 7.254748e-10 -6.237668e-09 3.956100e-09 -3.013856e-10
6.426178e-09 -2.888005e-09 -1.046007e-09 -5.031618e-09 -6.218489e-10 2.280472e-10
1.196764e-08 -4.015152e-09 -1.503165e-09 -7.668522e-09 -1.561425e-10 -5.984179e-11
9.561630e-09 -3.919606e-09 -1.302194e-09 -4.724482e-09 -2.729509e-10 2.307832e-11
1.021287e-08 -4.160495e-09 -1.339573e-09 -5.120817e-09 -3.150238e-10 2.314591e-10
7.950129e-09 -2.845408e-09 -1.410016e-09 -5.977371e-09 -4.509563e-10 4.616978e-10
6.515114e-09 -2.032550e-09 -1.314899e-09 -8.241853e-09 -5.427127e-10 2.534968e-10
5.875663e-09 -2.382622e-09 -9.670329e-10 -4.649468e-09 -4.218554e-10 3.673630e-10
-4.461231e-09 7.644588e-09 1.058915e-09 8.655647e-09 -4.471525e-11 -1.034527e-09
2.452686e-08 -9.513635e-09 1.381944e-09 5.250493e-09 -4.958018e-10 -7.523312e-09
1.002242e-08 -1.509860e-09 -8.911885e-10 8.517785e-09 5.916049e-10 -2.697540e-09
-6.377933e-09 5.808673e-09 5.750196e-10 6.471605e-09 1.804526e-10 -1.331229e-09
1.245886e-08 -5.452149e-09 -1.613682e-09 -3.655865e-09 -2.155626e-10 2.755931e-10
-4.470135e-09 6.006283e-09 5.379495e-10 7.849898e-09 -1.800584e-10 -1.744886e-09
-2.507767e-09 9.073175e-09 -4.736014e-10 9.705898e-09 5.444601e-10 -1.144021e-09
-5.870504e-10 4.374130e-09 5.027925e-10 9.470124e-09 1.261104e-10 -2.398576e-09
-6.535800e-09 5.839755e-09 9.327672e-11 6.680875e-09 9.389822e-11 -1.398859e-11
-1.878939e-08 5.897199e-08 -2.127676e-08 -1.466999e-08 1.015070e-08 2.383688e-08
-1.191835e-08 7.764128e-09 1.272673e-09 7.106402e-10 -3.393669e-10 -7.615257e-10
-6.572148e-09 -4.378103e-09 -1.761657e-10 -1.690239e-08 -1.072456e-08 -4.386353e-09
2.305925e-08 -6.989240e-09 3.201640e-08 2.351095e-08 -9.319317e-09 -3.305810e-08
-2.306374e-08 2.304178e-08 4.673317e-10 -2.774531e-09 -5.100234e-09 1.381091e-08
1.931676e-08 2.034303e-08 4.553743e-09 -2.822329e-08 1.192401e-08 -2.018150e-08
-6.641438e-08 3.105133e-08 1.282005e-08 3.410225e-08 1.058594e-09 2.788833e-08
4.410453e-09 2.005955e-09 7.995517e-09 -2.174210e-08 7.179083e-09 -2.596797e-09
-2.704051e-08 4.497386e-08 -2.772026e-08 -3.789772e-09 -7.597381e-09 3.581441e-08
-6.967561e-09 6.694390e-09 -2.645858e-08 1.012477e-08 -2.340877e-08 1.793634e-08
-6.733374e-09 5.562237e-08 -2.627834e-08 -3.083566e-08 1.069116e-09 2.204735e-08
-1.501504e-08 2.655373e-08 -2.644115e-08 8.088492e-09 -1.684487e-08 2.700718e-08
-2.525498e-08 5.970098e-08 -1.364728e-08 -8.273010e-09 -5.574286e-09 2.977887e-08
4.971970e-08 -8.556323e-09 6.104845e-09 2.456982e-08 7.744890e-09 2.531610e-08
-3.246491e-09 1.513644e-08 -6.302705e-09 -1.667591e-08 -3.374152e-09 8.003879e-09
-2.716198e-08 1.872957e-08 1.212727e-09 -2.436356e-09 -6.024756e-09 1.575974e-08
1.925199e-08 7.146577e-08 -1.261135e-07 -1.592146e-08 -5.978161e-08 8.920732e-09
-1.667985e-08 1.127125e-09 -3.550531e-09 -2.477445e-08 -1.819743e-08 -1.158373e-08
-2.509477e-08 1.940616e-08 -7.304637e-09 1.427897e-09 -1.197899e-08 2.024722e-08
-1.816538e-10 1.471175e-09 -5.204204e-11 5.239584e-09 2.421709e-10 -4.686843e-10
3.151672e-09 2.166641e-10 -4.626044e-11 6.102160e-09 5.478070e-10 -1.835205e-10
4.400387e-10 8.080013e-10 9.267809e-11 6.160766e-09 2.470944e-10 -1.068412e-09
1.720470e-08 -4.474331e-08 9.719416e-10 -7.170390e-09 7.542026e-09 2.770483e-11
1.762598e-09 -2.329265e-08 -2.220920e-09 -1.997847e-08 -1.904182e-08 -4.422731e-09
2.607065e-09 3.804425e-10 -5.139672e-10 6.034425e-09 5.362322e-10 -5.252508e-10
8.008705e-11 7.817972e-10 -2.506682e-10 4.809577e-09 7.498939e-10 -1.895577e-10
1.872222e-09 2.993358e-10 -3.622039e-10 5.617015e-09 5.341012e-10 -4.551206e-10
9.728559e-08 -4.331632e-08 1.990589e-08 2.271089e-08 -2.495546e-08 1.566900e-07
1.301828e-07 3.873603e-08 -2.917471e-08 9.228334e-08 5.193798e-08 1.282394e-07
-2.792665e-08 1.064452e-08 1.935911e-07 7.194275e-08 1.130449e-07 7.376635e-08
1.240245e-08 -3.575471e-08 9.577219e-10 -1.035025e-08 3.152992e-09 8.724130e-11
4.856953e-08 -2.542193e-08 3.377018e-08 3.134028e-08 1.996215e-08 5.785206e-08
6.421748e-08 -1.703610e-08 2.966773e-08 4.436823e-08 1.453926e-08 5.533830e-08
8.713436e-08 -4.669395e-08 1.226041e-07 9.323044e-09 2.445735e-08 1.911177e-07
1.401170e-08 -5.503671e-08 -8.521047e-09 3.853011e-08 -5.707252e-08 2.627943e-08
-2.193311e-08 1.053392e-08 6.669193e-08 7.536718e-08 7.047244e-08 4.227888e-08
-6.748399e-09 4.757726e-08 -3.868397e-08 4.223151e-09 -2.086417e-08 -2.232384e-08
-1.231675e-08 3.902383e-08 4.947026e-08 6.497453e-08 3.922759e-08 2.816943e-08
3.178039e-08 5.232261e-08 2.013269e-07 1.230070e-07 1.877683e-07 1.867738e-07
1.913918e-08 -5.421014e-08 1.199130e-07 3.199626e-08 1.994066e-08 2.048389e-07
2.665705e-08 -3.153312e-08 -8.559140e-08 4.770996e-09 -8.866148e-08 1.669760e-08
-6.116005e-09 -1.195788e-08 -6.516014e-10 -2.336231e-08 8.757012e-09 4.081272e-09
-5.670138e-09 -1.044659e-08 3.813086e-09 -1.297021e-08 1.513385e-09 1.662320e-10
1.326259e-08 -4.878245e-08 -5.606822e-10 2.960769e-08 -3.120346e-08 1.525090e-08
2.600821e-09 -2.403603e-08 2.189056e-09 -2.176070e-08 7.420126e-09 2.941297e-09
7.950319e-08 -1.971856e-07 -1.023388e-07 -1.036642e-07 -2.070424e-07 -4.258716e-08
-2.091312e-08 3.069970e-08 -1.811705e-08 -9.679676e-09 -3.173680e-09 1.966111e-08
6.828411e-09 -2.542745e-08 -6.617213e-09 -2.204599e-08 9.988413e-09 4.494620e-09
-1.873157e-08 3.179343e-08 1.636978e-08 2.540690e-08 -1.456164e-08 -6.696692e-09
8.446169e-09 -2.819148e-08 1.230826e-09 -1.216756e-08 2.882857e-09 6.813230e-10
-5.006758e-09 -1.153025e-08 1.484073e-09 -1.637828e-08 4.642019e-09 1.791008e-09
-6.234178e-09 -4.289156e-09 2.738876e-09 -1.802050e-08 2.964259e-09 1.991041e-09
-1.424908e-08 2.161549e-07 -4.912375e-09 1.707348e-07 1.366022e-07 1.308363e-08
1.407830e-07 5.478860e-08 -9.313496e-08 1.107596e-07 2.786602e-08 1.332010e-07
1.257258e-08 -3.573149e-08 -4.697377e-09 2.532964e-08 1.298225e-08 -4.341225e-09
4.864020e-11 1.444197e-09 -3.443801e-10 -5.303407e-09 -6.824563e-10 7.307055e-10
-6.497658e-09 3.952362e-09 7.831393e-10 -2.928935e-09 -2.411957e-10 -4.014328e-10
5.670680e-09 -3.128029e-08 4.517098e-09 1.212085e-08 3.871211e-09 -2.701594e-11
6.565057e-09 -2.982808e-08 -7.804779e-10 1.843569e-08 6.587205e-09 -2.307168e-09
9.845825e-09 -4.595148e-09 -1.290781e-09 -3.167015e-09 -1.822912e-10 -2.832246e-11
-8.107817e-09 4.214659e-09 1.040457e-09 -3.290166e-09 -3.086422e-10 -2.667153e-10
1.261825e-08 -4.846517e-08 5.515308e-10 1.948509e-08 1.372453e-08 -2.394450e-09
-1.039739e-09 1.239227e-09 -1.288267e-10 -3.635455e-09 -6.261236e-10 -1.589022e-10
1.264688e-08 -3.559383e-08 -6.694124e-10 2.511367e-08 1.210877e-08 -3.603825e-09
8.216569e-09 -3.662561e-09 -1.187616e-09 -3.928771e-09 -1.662367e-10 4.531642e-11
-5.998483e-09 3.681031e-09 6.383318e-10 -2.304771e-09 -4.326650e-10 1.075560e-10
-1.476580e-08 2.317109e-08 -1.864763e-08 -2.882495e-08 -4.226274e-08 -3.022839e-08
-2.247476e-08 7.443833e-08 5.654269e-07 5.471018e-08 -2.595329e-07 -2.650143e-07
-7.523213e-08 4.263351e-08 1.091150e-07 4.685748e-08 -1.437637e-07 -2.958754e-08
-8.480589e-09 3.912172e-07 -1.111488e-07 -7.706755e-08 -1.882689e-07 5.628549e-08
3.245962e-08 -7.622110e-08 -9.077155e-09 1.220553e-08 -3.972407e-08 6.018546e-09
-3.515494e-08 2.236992e-07 -3.599274e-07 -1.776665e-07 3.363314e-07 1.079587e-07
-1.572739e-08 1.312045e-08 -8.390111e-09 1.095238e-08 -1.804758e-08 1.700999e-08
-2.057476e-08 8.377927e-09 -1.615810e-09 8.101570e-09 -1.097456e-08 1.205940e-08
6.697439e-08 4.664121e-07 -5.813217e-07 -1.794656e-07 1.645814e-07 1.138685e-08
-3.583923e-09 2.574936e-09 -1.397753e-10 -4.483339e-09 -3.834985e-10 -5.045091e-10
-5.612635e-10 2.882110e-09 1.259906e-10 8.820373e-09 5.022876e-10 -1.473051e-09
-1.503690e-08 1.899236e-09 -6.359209e-10 1.265477e-08 -1.221944e-08 8.277194e-09
-1.054807e-08 3.009688e-09 -1.499723e-09 3.810424e-09 -4.754633e-09 2.663920e-09
-7.465639e-09 5.668151e-09 7.081731e-10 3.605239e-09 7.081879e-10 -1.070008e-09
1.312230e-09 3.180526e-09 7.528125e-10 9.681443e-09 -4.149938e-11 -1.675580e-09
-2.096544e-09 2.820200e-09 1.553750e-10 5.812421e-09 4.828615e-10 -9.468430e-10
-1.876402e-09 2.205886e-09 2.699028e-10 5.534916e-09 7.922652e-10 -7.020849e-10
-2.917488e-08 -3.138816e-09 7.685474e-09 2.638474e-08 -2.084846e-08 2.114301e-08
-2.266524e-08 2.299031e-08 -1.195778e-09 -8.024788e-10 -4.213012e-09 1.199393e-08
4.544221e-09 9.894958e-10 -5.605612e-10 7.864920e-09 7.374237e-10 -6.338304e-10
-1.270689e-09 2.645347e-09 -1.754950e-10 6.308602e-09 1.876972e-10 -7.207523e-10
-5.968961e-09 2.449141e-09 1.315904e-09 1.643470e-09 7.248957e-10 -5.030933e-10
1.282756e-08 -6.506934e-09 -1.237138e-09 -5.141875e-09 -2.325103e-10 -4.228029e-10
-6.283951e-09 2.732148e-09 9.693997e-10 1.852390e-09 6.872609e-10 -6.558873e-10
1.192978e-08 -5.420382e-09 -1.199594e-09 3.373325e-09 2.268495e-10 7.642748e-11
4.031358e-09 -1.908557e-09 -7.327485e-10 4.388904e-09 5.088118e-10 -2.526512e-11
-6.437874e-09 1.593461e-09 1.558485e-09 8.235012e-10 1.425118e-10 -3.956803e-10
-7.077110e-09 9.601431e-10 1.847314e-09 -6.659469e-10 -2.170420e-11 -4.701345e-10
-8.779265e-09 1.938074e-09 1.373283e-09 -2.263218e-09 8.636094e-10 1.215552e-10
6.044580e-09 3.337298e-10 -2.001874e-09 -1.126168e-08 -1.034088e-09 4.465868e-10
1.335510e-08 -6.046962e-09 -1.470381e-09 -2.565199e-09 -3.301815e-10 -4.474531e-10
-6.439159e-09 2.108101e-09 1.107443e-09 1.297754e-09 5.046613e-11 -9.331782e-10
1.127286e-08 -3.518924e-09 -1.311268e-09 8.109717e-09 2.562142e-10 -8.870864e-10
1.502440e-08 -6.446521e-09 -6.060414e-10 5.765909e-09 5.793432e-10 -1.434345e-09
1.526004e-08 -5.804801e-09 -6.768071e-10 4.903520e-09 2.301769e-10 -2.179168e-09
1.078027e-08 -5.145617e-09 -1.398428e-09 -2.909342e-09 -1.118502e-10 1.185452e-10
1.100087e-08 -1.079415e-09 -1.428236e-09 1.105992e-08 5.561340e-11 -3.621037e-09
1.469290e-08 -4.967285e-09 -6.676051e-10 8.741692e-09 6.068194e-12 -2.411153e-09
1.002261e-08 -8.339904e-10 -6.902480e-10 1.004907e-08 1.969838e-10 -1.263422e-09
1.771328e-08 -7.589957e-09 -7.410170e-10 2.610828e-09 -2.295574e-11 -2.162838e-09
1.135678e-08 -3.494609e-09 -2.742588e-10 8.154889e-09 -2.732652e-12 -1.368602e-09
1.903105e-08 -7.042994e-09 9.314629e-10 5.879690e-09 1.158887e-10 -3.494937e-09
5.139137e-09 -1.938939e-09 -9.410746e-10 -4.347141e-09 -1.333105e-10 1.068667e-10
1.810798e-08 -7.310370e-09 -2.237486e-09 3.692323e-09 -6.271091e-10 -1.241611e-09
3.145991e-09 -5.531255e-10 -6.532668e-10 -6.037800e-09 -5.372305e-10 8.849891e-10
1.443120e-08 -5.773172e-09 -1.398499e-10 6.316724e-09 -1.336861e-11 -2.159975e-09
4.384239e-09 -1.276265e-09 -8.279930e-10 -4.902885e-09 -4.161391e-10 4.405736e-10
3.864972e-08 6.321149e-09 3.223054e-09 2.309507e-08 -8.540406e-09 -3.867576e-08
3.692584e-08 4.625166e-10 1.848412e-08 2.762766e-08 -1.148218e-08 -3.535763e-08
2.707007e-08 -5.721219e-08 -1.617185e-08 6.853811e-09 -2.963171e-08 3.275762e-09
2.426095e-08 -7.607265e-08 -1.781573e-09 1.423300e-08 -3.126002e-08 4.786949e-09
-5.935039e-09 1.726432e-08 5.983412e-09 2.248944e-08 -1.074927e-08 -7.905833e-09
-9.649684e-09 -1.742603e-08 -1.433564e-09 -2.398860e-08 -1.569819e-08 -6.539299e-09
1.477720e-08 3.078235e-09 1.125514e-08 2.198962e-08 -5.099896e-09 -2.019356e-08
-2.248982e-08 6.096340e-08 9.110540e-10 3.327569e-08 -2.022996e-08 -1.716142e-08
1.346020e-08 3.574360e-08 1.938845e-08 4.522965e-08 -2.404217e-08 -3.327671e-08
3.218147e-08 -7.516321e-08 -9.761451e-09 -1.129722e-08 -5.363863e-08 -2.293510e-09
-2.520310e-09 -3.018034e-08 -1.855135e-09 2.435250e-08 -1.689202e-08 8.422683e-09
5.027395e-09 2.137030e-08 -4.422003e-09 2.228906e-08 -9.647101e-09 -1.303416e-08
2.564416e-08 9.370359e-09 -3.275737e-09 1.962737e-08 -5.512319e-09 -1.937426e-08
-7.358697e-09 1.505991e-08 3.324529e-09 1.577376e-08 -5.938573e-09 -4.966607e-09
2.105131e-08 -4.891469e-08 -1.464273e-09 1.446138e-08 -2.391663e-08 5.186635e-09
1.143181e-09 6.671612e-08 -9.684996e-08 -1.540948e-08 -5.058551e-08 3.312232e-08
3.176872e-09 -6.911513e-08 -4.710819e-08 1.142168e-07 -1.120961e-07 7.795621e-08
-2.016120e-08 2.464824e-08 -1.990168e-08 -9.235407e-09 -1.879357e-08 -1.945018e-08
-1.255080e-08 2.834305e-08 -1.566452e-08 1.706703e-09 -9.170908e-09 -1.732488e-08
-1.144392e-08 2.088405e-08 -1.545997e-08 -9.017749e-10 -9.901049e-09 -1.683369e-08
2.792205e-08 -1.071795e-07 -1.045399e-08 -2.891690e-08 -6.153011e-08 -7.264423e-09
-1.297638e-08 2.575793e-08 -2.429365e-08 -1.162882e-08 -1.644998e-08 -1.690431e-08
-2.112091e-08 -2.606778e-08 -9.546753e-09 -4.826464e-08 -3.481036e-08 -2.597770e-08
-1.797924e-08 2.435230e-08 -4.798326e-08 -5.853893e-08 -6.657771e-08 -6.441004e-08
-1.246617e-08 2.441412e-08 -2.316555e-08 -2.398909e-08 -2.346740e-08 -2.615622e-08
-9.559956e-09 -4.198596e-09 1.487053e-09 -1.685347e-08 -9.436119e-09 -3.567867e-09
-1.541113e-08 5.379356e-08 -3.525924e-08 1.214886e-08 -1.233580e-08 -2.391289e-08
7.402883e-09 1.803627e-08 1.748023e-08 -3.545515e-08 1.244826e-08 -1.372155e-08
-1.570282e-08 1.408745e-09 -4.490288e-09 -2.567768e-08 -1.968478e-08 -1.092258e-08
-9.559956e-09 -1.731111e-09 9.338463e-10 -1.680791e-08 -8.857549e-09 -3.533111e-09
2.371159e-08 -4.696525e-08 9.523261e-08 6.261645e-09 1.373865e-08 -8.020006e-08
1.471651e-10 2.124183e-08 -4.996875e-09 -2.738157e-08 7.523863e-09 2.478331e-09
3.029037e-08 2.167928e-08 7.684643e-08 -4.904870e-08 4.445304e-08 -7.001247e-08
1.331636e-09 4.682294e-08 6.758939e-09 -4.674994e-08 2.018442e-08 -1.279838e-09
-9.616419e-09 6.784695e-09 -9.206527e-09 -1.357401e-08 -1.051445e-08 -6.875714e-09
3.250587e-08 -8.913578e-09 4.590917e-08 2.143018e-08 -1.348214e-08 -4.742653e-08
4.804194e-09 6.120570e-09 8.765592e-09 -2.630882e-08 6.225674e-09 -7.644042e-10
-1.115693e-08 3.505860e-08 -1.450659e-08 -2.166765e-08 9.023668e-09 1.459619e-08
-6.334882e-09 -1.322213e-08 1.088159e-09 1.932711e-08 3.855011e-09 -1.399866e-09
-7.367899e-10 -2.650285e-08 6.196206e-09 1.812214e-08 2.585494e-09 -4.554521e-10
-1.235556e-08 3.127750e-08 -2.150663e-08 -9.767558e-09 -1.105456e-08 -1.495477e-08
2.572700e-08 -4.072342e-08 -1.944669e-08 -8.836786e-09 2.418770e-08 2.533903e-09
1.242449e-08 -3.783452e-08 4.585574e-09 1.780734e-08 7.055918e-09 -1.035085e-09
1.735136e-08 -5.769464e-08 3.340944e-09 -1.099775e-08 1.251874e-08 -1.765501e-10
-3.082901e-09 -1.718388e-08 3.694499e-09 1.364952e-08 1.848415e-09 -3.560856e-10
-1.683755e-09 -2.210222e-08 5.557828e-09 1.164844e-08 2.319521e-09 9.366529e-11
-1.551593e-09 -1.173556e-08 3.910108e-09 -6.618191e-09 8.407845e-10 -1.088716e-09
-5.879132e-09 -1.746664e-08 1.108412e-09 1.867080e-08 4.415763e-09 -1.542433e-09
1.316283e-08 -3.728987e-08 5.530506e-09 -8.646993e-09 2.118903e-09 -6.407942e-10
-5.106204e-09 -9.444593e-09 2.770870e-09 -8.266231e-09 1.369318e-10 -1.514602e-10
3.954816e-09 -3.311326e-08 -1.137813e-09 2.388472e-08 9.051572e-09 -2.733007e-09
-1.543372e-08 -1.388746e-08 -8.641638e-10 2.980634e-08 1.453370e-08 -6.712477e-09
1.556283e-08 -4.268968e-08 1.032525e-09 4.549767e-09 2.962081e-09 -7.043981e-10
3.941116e-09 -2.924673e-08 5.114648e-09 1.642535e-08 4.283526e-09 -9.300685e-10
-1.683757e-09 -1.775476e-08 3.544725e-09 1.077132e-08 2.979107e-09 -6.509248e-10
-2.144666e-09 -1.921149e-08 4.277790e-09 1.620890e-08 1.533690e-09 -1.315265e-09
2.415231e-08 -6.116067e-08 3.777033e-09 3.971193e-09 1.538945e-08 4.421392e-10
2.989185e-08 -7.363297e-08 -9.122331e-09 3.995643e-08 7.164312e-08 -1.688659e-08
1.232126e-08 -3.683691e-08 1.706731e-09 1.628447e-08 5.748032e-09 -1.659598e-09
2.527162e-08 5.838105e-09 -1.010458e-07 7.518541e-08 1.466966e-07 -7.161681e-08
5.045752e-08 -8.654793e-08 -7.347309e-08 2.818965e-08 9.670525e-08 -1.428467e-08
1.756875e-09 -3.337937e-08 6.208575e-10 3.387734e-08 1.789464e-08 -7.492141e-09
-8.798413e-09 1.431768e-09 -9.645955e-09 2.819496e-08 1.221703e-08 -8.638515e-09
-1.226779e-08 3.101191e-08 -3.236144e-08 4.051113e-08 4.628206e-08 -4.225455e-08
-3.044679e-09 -1.718529e-08 5.675341e-09 1.365727e-08 1.817572e-09 2.769447e-10
-2.508044e-08 1.736256e-08 -2.353321e-09 2.092585e-08 1.298704e-08 -1.196126e-08
-5.980876e-08 1.418775e-07 9.500762e-08 -6.218029e-08 8.945192e-08 -4.272757e-08
1.266462e-08 -1.859223e-08 -4.802194e-08 3.972311e-08 5.390307e-08 -2.347449e-08
-1.352440e-08 -6.038457e-09 1.242604e-09 2.586829e-08 8.072686e-09 -4.702976e-09
2.063015e-08 -5.867780e-08 3.235644e-09 1.955493e-08 2.139832e-08 -1.772658e-09
-5.597044e-09 1.421822e-08 -5.089973e-09 -1.431139e-08 -1.593543e-09 4.724986e-09
-6.569326e-09 5.736866e-08 -7.173117e-08 -2.167273e-08 -3.839612e-08 -4.217652e-08
9.150045e-10 -1.735552e-08 5.082894e-10 2.005038e-08 3.915340e-09 -2.047173e-09
-1.904506e-08 1.741554e-08 -9.005498e-09 2.872826e-09 -6.480830e-09 1.426019e-08
-1.531721e-08 2.409991e-08 -1.496301e-08 -2.178879e-09 -9.123958e-09 1.546398e-08
-7.761730e-09 1.118171e-08 -4.365739e-09 -9.473851e-09 -2.820747e-09 4.079585e-09
-7.624879e-09 1.866320e-08 -5.678791e-09 -1.522635e-08 -7.144690e-10 6.475291e-09
-5.141037e-09 2.369626e-09 7.428971e-10 2.078447e-09 2.888668e-10 -3.083003e-10
3.125654e-08 1.178346e-09 4.200489e-09 -3.203874e-08 -8.120112e-09 1.880475e-08
-4.480817e-09 2.841650e-09 4.773375e-10 3.275159e-09 5.937952e-10 -6.431444e-11
-7.268065e-09 4.285796e-09 9.485897e-10 1.840302e-09 1.172203e-09 -8.284701e-10
1.728431e-08 -3.121247e-08 -1.298833e-08 -1.893791e-08 1.714312e-08 4.305071e-09
-5.990365e-09 3.127069e-09 8.208507e-10 2.755819e-09 2.650106e-10 -1.191347e-09
-6.951619e-09 2.151159e-09 1.381556e-09 6.016909e-10 2.114333e-10 -6.780048e-10
-6.137009e-09 3.143107e-09 1.161454e-09 1.777314e-09 6.924346e-10 -8.998489e-10
-8.306339e-09 4.607619e-09 9.275922e-10 2.514758e-10 8.269071e-10 -7.387336e-11
8.758310e-10 7.805722e-10 -8.123058e-11 4.940215e-09 8.534029e-10 2.307178e-10
-7.156999e-09 1.526765e-09 1.357760e-09 -2.452703e-10 2.224455e-10 -7.744958e-10
-4.827607e-09 4.459885e-09 7.269958e-10 4.050048e-09 1.184380e-09 -1.152903e-09
-6.337887e-09 2.905052e-09 1.215131e-09 2.050946e-09 2.347296e-10 -4.196517e-10
-3.805706e-09 -1.215197e-08 3.019438e-09 -9.715065e-09 1.284625e-09 -5.545229e-11
-6.329592e-09 2.769530e-09 1.028152e-09 1.884601e-09 2.183210e-10 -4.061749e-10
-9.802033e-09 2.161247e-09 1.047024e-09 -2.498255e-09 1.171982e-09 -4.037920e-10
-5.354168e-09 4.236737e-09 6.872791e-10 4.221502e-09 3.860154e-10 -5.947648e-10
-8.910397e-09 4.371223e-10 5.492118e-11 2.333492e-09 -3.523958e-09 7.904615e-10
-8.651332e-09 2.028302e-09 1.487634e-09 -1.348718e-09 7.832927e-10 -2.194915e-10
-2.695341e-09 1.704866e-09 -1.114019e-08 -2.427880e-08 1.030426e-08 6.854812e-09
-4.594230e-09 2.736600e-09 6.934313e-10 2.945236e-09 1.733024e-10 -8.267244e-10
-3.269738e-08 6.920409e-08 -1.567115e-08 5.298486e-08 3.437254e-08 -2.836587e-09
-7.295787e-09 4.160154e-09 1.383887e-09 1.741105e-09 -4.229807e-11 -1.002486e-09
-1.333644e-09 2.548403e-09 2.975731e-10 4.857401e-09 9.382374e-10 -8.248684e-10
-5.901188e-09 3.465370e-09 9.137406e-10 1.565523e-09 1.350149e-09 -6.949442e-10
-6.780185e-09 3.489949e-09 1.070168e-09 1.328997e-09 5.835603e-10 -1.073926e-09
-4.134507e-09 5.162730e-09 -4.026901e-10 4.471480e-09 1.364841e-09 -2.131392e-10
-7.458911e-09 5.669947e-09 9.466690e-10 3.636098e-09 5.507492e-11 -1.147032e-09
3.025800e-08 -6.122553e-08 -1.470489e-08 -1.884843e-09 2.657635e-08 8.444681e-11
2.680569e-08 -6.094771e-08 -2.842518e-08 2.016870e-08 3.957003e-08 -7.658904e-09
1.425360e-08 -4.272899e-08 -6.652752e-09 -1.779034e-08 -2.972533e-08 -2.212614e-09
2.244084e-08 -5.329708e-08 -5.714049e-09 3.713849e-08 4.029539e-08 -1.221697e-08
4.108472e-08 -6.905664e-08 -1.014060e-08 -1.215558e-09 -5.189758e-08 3.157182e-09
3.567733e-08 -8.540954e-08 -2.380088e-09 6.422296e-09 5.763135e-08 -3.744517e-09
2.826242e-08 1.018650e-08 -8.998060e-08 -1.528358e-08 -7.331802e-08 -7.552990e-09
2.120148e-08 -4.807948e-08 -1.743443e-08 2.847396e-08 3.174289e-08 -1.104161e-08
-6.423686e-08 9.815925e-08 4.848456e-08 -9.974030e-08 3.972300e-08 -6.873014e-08
3.923141e-08 -9.506238e-08 -7.587520e-09 -2.149982e-08 5.207555e-08 2.691650e-09
2.710560e-08 -5.736398e-08 -3.068942e-09 6.834853e-09 -2.929164e-08 4.043140e-09
-2.506888e-08 -7.135728e-08 -1.769345e-08 8.634882e-08 -6.912492e-08 5.367096e-08
2.198828e-08 -8.245980e-08 -1.440388e-08 -4.901351e-08 -5.947594e-08 -1.851427e-08
-2.913168e-08 1.435016e-08 -7.606307e-09 3.649961e-08 -2.926867e-08 2.725746e-08
1.278857e-09 4.387886e-10 -4.760485e-10 -4.433460e-09 -4.397611e-10 2.489967e-10
-3.101090e-09 2.201122e-09 -3.051865e-10 -6.284624e-09 -1.837442e-09 1.089530e-09
-3.993127e-09 1.673813e-08 -7.696997e-09 -2.300760e-08 2.404686e-09 8.378428e-09
-2.774426e-08 5.178002e-08 -2.661664e-08 1.818182e-08 -9.467742e-09 -2.698082e-08
-2.302308e-08 8.851716e-09 -4.144792e-09 1.657167e-08 -1.480538e-08 1.689840e-08
5.747670e-08 -9.399197e-08 -1.671344e-08 3.412263e-08 -1.109091e-07 2.723776e-08
6.367243e-08 -9.590392e-08 -3.087922e-08 9.514619e-09 -1.187078e-07 7.703471e-09
4.598003e-08 -1.041633e-07 -8.197813e-08 2.195680e-08 -1.281234e-07 2.337860e-08
2.082335e-09 1.351657e-10 -6.248089e-10 -5.074739e-09 -3.354990e-10 -1.761591e-12
1.666675e-09 -1.020947e-08 -3.953283e-08 3.886906e-08 -5.582864e-08 4.014362e-08
5.442283e-08 -4.305370e-08 -7.160129e-08 8.727417e-09 -1.304310e-07 -6.724637e-09
7.104173e-08 -1.615320e-07 -9.311240e-08 -7.719225e-09 -2.053792e-07 6.498471e-09
4.058070e-09 -1.252059e-09 -8.409272e-10 5.062663e-09 2.115467e-10 -3.974695e-10
1.079911e-09 9.718371e-11 -3.969738e-10 4.536130e-09 5.188137e-10 2.517415e-10
-9.237657e-09 3.047122e-09 7.996910e-10 4.868684e-10 -2.062322e-09 6.718844e-10
1.424192e-08 -5.259350e-09 1.246410e-08 1.427430e-08 -3.318571e-09 -1.417972e-08
-9.957356e-09 1.950438e-08 -7.490004e-09 -1.545840e-08 -6.987134e-10 8.554515e-09
2.611817e-09 3.303998e-10 -5.099184e-10 6.045831e-09 2.814937e-10 -5.649808e-10
1.616236e-09 7.485035e-11 -3.607061e-10 4.368081e-09 3.924894e-10 -3.040489e-10
-3.448992e-08 5.020781e-08 -8.315668e-08 1.226581e-07 1.404252e-07 -1.613112e-07
-2.632981e-09 8.350551e-09 -1.023511e-09 -1.099845e-08 -3.579062e-09 2.116245e-09
3.653993e-10 1.442319e-09 -6.315273e-10 -6.801124e-09 -4.345201e-10 4.762009e-10
-1.173212e-08 1.548902e-08 -6.628637e-09 -6.758019e-09 -3.623970e-09 6.478076e-09
-6.920686e-10 2.087412e-09 -2.251301e-10 -6.981405e-09 -1.261449e-09 5.661397e-10
-6.133308e-09 4.199449e-09 -9.097079e-11 -4.827070e-09 -1.099191e-09 5.488951e-10
2.975121e-09 8.676333e-10 -7.871246e-10 -8.542903e-09 -1.237694e-09 3.205172e-10
-7.771120e-09 1.445358e-08 -4.184866e-09 -1.463385e-08 -1.047067e-09 4.951724e-09
-4.416169e-09 5.496885e-10 -2.858614e-08 3.364533e-08 2.825962e-08 -1.314007e-08
-1.017579e-08 1.342993e-08 -1.381019e-08 2.256314e-09 -9.180642e-09 8.222968e-09
2.581988e-09 -7.477112e-08 1.127123e-09 7.544191e-08 6.485909e-08 -3.131625e-08
5.200663e-09 -8.858864e-10 -4.497046e-10 7.071846e-09 2.611758e-10 -1.067461e-09
-6.327194e-09 4.786962e-09 1.314198e-09 4.096028e-09 -8.322234e-11 -1.352161e-09
-5.126506e-09 2.368950e-09 5.923781e-10 2.013976e-09 1.717241e-09 -5.894828e-10
-1.297449e-09 -1.297855e-08 3.504284e-09 -9.848431e-09 1.688637e-09 -1.250019e-09
-2.146881e-08 6.866657e-08 -6.988517e-08 4.560121e-08 7.573081e-08 -9.086310e-08
1.463888e-08 1.088763e-08 -1.016932e-07 6.153195e-09 -9.094811e-08 2.691758e-08
-5.351571e-09 3.318517e-09 1.022750e-09 2.547424e-09 8.263289e-10 -6.286891e-10
3.227799e-08 -1.747687e-09 -7.313143e-08 -1.777618e-09 -6.447994e-08 4.061846e-09
1.923411e-09 -4.959739e-10 -4.648903e-10 4.199617e-09 6.768491e-10 -1.044835e-10
-2.796746e-09 2.281913e-09 4.933538e-10 4.153051e-09 4.319377e-10 -2.586298e-10
4.605286e-09 -1.910422e-09 -8.916716e-10 4.365215e-09 6.711322e-10 5.702071e-10
2.159847e-08 -1.104214e-08 -7.850007e-08 -3.468738e-08 -8.875480e-08 -2.988649e-08
-9.179630e-09 1.805158e-08 -3.390023e-08 3.231416e-08 2.865471e-08 -2.478342e-08
-6.739177e-09 4.580064e-09 -6.666123e-11 -5.064579e-09 -7.911024e-10 -1.110679e-10
-1.056741e-08 3.043266e-09 8.670731e-11 -3.019771e-09 2.384768e-09 6.315857e-11
-8.270922e-09 -1.303104e-09 2.411310e-09 -4.081578e-09 5.260772e-10 -2.202689e-10
-4.780264e-09 2.379592e-09 8.081016e-10 2.814655e-09 3.913704e-10 -5.247218e-10
-8.050923e-09 4.992736e-09 -5.857625e-10 -4.096986e-09 -1.400560e-09 6.269483e-10
-8.858409e-09 -1.637709e-09 6.659875e-10 -7.644286e-09 2.689572e-09 -4.786824e-10
-1.554994e-08 1.051290e-08 -2.148205e-10 -1.382466e-08 5.481229e-09 3.061890e-09
1.233973e-08 -3.219639e-08 -7.246991e-08 -6.761554e-08 8.185950e-08 3.829125e-08
-9.437100e-09 3.704538e-09 8.166212e-10 -1.981369e-09 -1.467994e-09 1.093776e-10
-2.775113e-10 5.123814e-09 1.296058e-09 8.421573e-09 1.860248e-10 -1.997419e-09
3.010438e-08 2.778459e-08 -8.229983e-08 -2.638389e-08 7.522446e-08 1.951038e-08
-6.922938e-09 3.387646e-09 1.040356e-09 -3.072890e-09 -1.048957e-09 2.577938e-10
-8.916433e-09 4.070078e-09 4.129710e-10 -1.978656e-09 -1.070710e-09 -2.161696e-10
-8.794972e-09 3.674846e-09 2.402594e-10 -2.025872e-09 -1.599578e-09 -1.858913e-11
-5.587060e-09 2.681282e-09 7.303398e-10 1.528015e-09 1.951306e-10 -5.202232e-10
-6.494703e-09 4.114730e-08 2.920696e-08 -4.504270e-08 -2.610402e-08 1.491359e-08
-4.885499e-09 2.515733e-09 7.317373e-10 2.663615e-09 1.887719e-10 -3.585455e-10
1.213469e-08 2.178842e-08 -7.252725e-08 -2.224250e-08 -6.448008e-08 -1.753283e-08
-4.604143e-09 9.203462e-08 -1.009691e-07 -2.157731e-08 -4.927518e-08 -3.754112e-08
-5.673242e-09 2.227353e-09 1.187906e-09 1.466503e-09 2.445288e-10 -2.424974e-10
-6.670183e-09 1.854080e-09 1.627114e-09 6.489511e-10 2.888410e-10 -4.249455e-10
-5.996348e-09 2.260830e-09 1.238758e-09 2.071352e-09 2.576832e-10 -3.371210e-10
-6.958362e-09 1.687879e-09 1.744477e-09 3.463625e-10 1.674838e-10 -4.132656e-10
-4.955267e-09 3.176296e-09 7.036616e-10 3.323771e-09 2.490487e-10 -6.372719e-10
-5.419645e-09 2.945726e-09 7.370733e-10 2.566542e-09 2.863745e-10 -2.468661e-10
-6.741225e-09 1.801537e-09 1.577864e-09 7.648852e-10 1.671292e-10 -4.605365e-10
-3.863987e-09 7.828825e-08 -1.138265e-07 -3.408955e-08 -3.523534e-08 4.847092e-09
-6.710903e-09 1.802560e-09 1.423925e-09 1.471027e-10 2.937097e-10 -7.976522e-10
-2.453247e-07 2.136548e-07 -3.603597e-07 2.495971e-07 2.854764e-07 -3.876287e-07
-6.230760e-09 2.469253e-09 1.488461e-09 1.560938e-09 5.161396e-10 -1.876998e-10
-5.016764e-09 2.436662e-09 8.867818e-10 1.854344e-09 3.058924e-10 -2.478124e-10
1.669491e-08 -2.864995e-08 -2.201497e-08 2.458679e-08 -4.470571e-08 2.283056e-08
5.392438e-08 -1.129731e-07 -7.737664e-08 -8.298868e-08 -1.563897e-07 -6.898630e-08
-7.157006e-09 2.300423e-09 1.678439e-09 3.031175e-10 4.429570e-10 -5.065932e-10
-6.427419e-09 2.184309e-09 1.235056e-09 9.099519e-10 3.730107e-10 -3.920571e-10
2.070951e-08 4.688971e-08 -8.774539e-08 -1.854954e-08 -6.371184e-08 -9.800204e-09
-6.575796e-09 1.542950e-09 1.473541e-09 3.913448e-10 7.886289e-10 -4.580858e-10
-7.168627e-09 2.203354e-09 1.722722e-09 3.886846e-10 1.565590e-10 -4.923384e-10
-2.613078e-08 9.052190e-08 -1.005528e-07 -2.094675e-08 -5.701542e-08 -1.504864e-08
-3.552112e-08 3.706622e-08 -9.349070e-09 1.539220e-08 -1.986726e-08 3.734565e-08
1.416891e-08 4.191670e-08 -1.341085e-08 2.333760e-08 -3.112671e-09 7.494676e-10
3.304678e-09 5.350984e-08 -9.639929e-08 -2.102144e-08 -7.504670e-08 -2.824608e-08
1.585739e-09 4.150377e-08 -1.810630e-08 2.801523e-08 -1.718118e-09 -1.580473e-08
1.593778e-09 8.954269e-08 -1.074198e-07 -8.452025e-09 -5.451536e-08 -2.849205e-08
-1.526913e-08 5.076079e-08 -3.225856e-08 5.178836e-09 -9.741952e-09 -2.713556e-08
-2.720304e-08 2.453832e-08 -2.104130e-08 -1.463537e-08 -1.914521e-08 -2.721268e-08
-3.425101e-08 6.114018e-08 -3.469884e-08 8.420399e-09 -2.373574e-08 -5.273107e-08
-1.701514e-08 4.174933e-08 -2.964424e-08 2.201756e-08 -7.504044e-09 -2.128853e-08
-1.369541e-08 5.159681e-08 -3.180578e-08 1.586782e-08 -8.315783e-09 -2.185888e-08
2.367980e-09 -1.250007e-08 -2.930552e-08 2.742413e-08 -4.840786e-08 2.700630e-08
-6.983743e-09 2.070562e-10 -1.498662e-08 3.066573e-08 -3.826539e-08 3.007230e-08
-1.599325e-08 1.031894e-08 -6.887178e-09 1.275031e-09 -8.065035e-09 1.026293e-08
-1.309321e-08 1.261063e-08 -3.798511e-09 -3.340614e-09 -6.042823e-09 6.917143e-09
-4.153708e-08 2.252935e-08 -1.653815e-08 1.700428e-08 -2.698218e-08 3.171914e-08
1.499000e-08 -3.432783e-08 -1.320922e-08 4.041947e-08 -7.382328e-08 3.988636e-08
-8.572573e-09 -2.642107e-08 -1.689548e-09 2.573802e-08 -2.121389e-08 1.259664e-08
-5.592679e-09 1.274097e-08 -2.386127e-08 7.531604e-09 -1.800871e-08 1.310101e-08
2.807832e-08 -5.648552e-08 -1.785481e-08 -4.470065e-10 -3.218458e-08 1.643984e-09
-5.460375e-09 -7.594224e-09 -4.780670e-09 1.118790e-08 -9.762969e-09 6.533299e-09
1.494018e-08 -2.602575e-08 -6.135135e-08 3.082619e-08 -6.658954e-08 3.337605e-08
-8.699209e-09 -7.209055e-09 -1.269021e-08 2.187778e-08 -2.222251e-08 1.999752e-08
1.463888e-08 6.245662e-08 -1.096756e-07 -1.615558e-08 -6.318052e-08 2.978251e-08
-2.496662e-08 -4.871221e-10 -5.125203e-09 2.352825e-08 -2.202232e-08 2.393109e-08
9.117291e-10 -7.408823e-08 -2.098788e-08 5.364592e-08 -8.124771e-08 5.374798e-08
-6.741723e-09 5.037682e-09 1.010677e-09 1.341853e-09 1.341394e-09 -1.037393e-09
-1.171022e-08 4.777377e-08 -5.340777e-08 1.712452e-08 -3.527009e-08 3.682518e-08
5.242360e-09 -2.883532e-08 -1.195251e-08 2.095967e-08 -2.509387e-08 1.065651e-08
1.462997e-08 -1.242666e-08 -3.024569e-08 2.867926e-08 -4.861849e-08 2.717420e-08
7.307061e-09 2.258506e-09 -1.111316e-09 1.072829e-08 5.288792e-10 -1.792344e-09
-1.331665e-08 5.167143e-09 -2.372279e-08 2.713244e-08 -2.490245e-08 4.006535e-08
-6.220739e-09 3.450597e-09 1.169585e-09 2.507364e-09 5.226848e-10 -1.223803e-10
1.631233e-08 -7.122918e-08 -5.433895e-09 4.574526e-08 -6.150107e-08 3.312181e-08
1.947439e-08 -5.368794e-09 -3.071892e-09 -7.600338e-09 -5.170212e-10 -3.144693e-10
-7.225340e-09 1.192348e-09 2.060772e-09 -1.080876e-09 3.425848e-11 -5.600328e-10
-2.373499e-08 1.567005e-08 -6.622560e-09 -2.208731e-08 9.038225e-09 1.127263e-08
1.921681e-08 -4.032152e-08 -9.312512e-09 -1.064974e-08 1.252818e-08 1.497291e-10
3.255275e-09 1.148231e-09 1.992709e-09 1.173099e-08 -7.535999e-10 -4.052283e-09
-5.044346e-09 9.390745e-08 -2.770329e-07 -3.544624e-07 3.212425e-07 2.376749e-07
3.342098e-08 2.295570e-08 -8.158293e-08 5.405057e-09 -6.667575e-08 3.120284e-08
3.320051e-09 -5.166051e-10 -2.647662e-10 4.882892e-09 5.566437e-10 6.601342e-11
-7.727637e-09 5.931801e-09 6.642145e-10 2.730360e-09 9.477179e-10 -3.707444e-10
-4.360627e-10 9.631084e-10 3.842069e-10 4.842337e-09 4.174383e-10 -2.056426e-10
-1.297125e-08 1.805158e-08 -3.454560e-08 2.418131e-08 2.909855e-08 -1.876714e-08
-9.263542e-09 3.629248e-09 8.513164e-10 -5.284507e-09 2.032044e-09 -1.242995e-10
9.006511e-09 -4.574199e-08 3.046008e-09 -3.069418e-08 1.998332e-08 4.698113e-09
6.370513e-10 4.833578e-12 -5.229472e-11 4.746823e-09 5.966490e-10 -5.042256e-11
-8.754011e-09 -2.733056e-09 2.516094e-09 -8.117379e-09 8.172061e-10 -2.877240e-10
2.432552e-08 7.370436e-08 4.811406e-08 7.037656e-08 -4.996778e-08 -6.688528e-08
2.628497e-11 1.460553e-09 -4.592349e-11 5.015196e-09 1.768865e-10 -4.147990e-10
4.253028e-09 -9.909140e-10 -5.902003e-10 5.814162e-09 4.261083e-10 -1.516787e-11
1.708381e-09 -2.095630e-10 -1.941913e-10 4.907696e-09 3.584775e-10 -2.541340e-10
1.022488e-07 5.293865e-08 2.779373e-08 7.527229e-08 5.889743e-08 8.663734e-08
1.355458e-08 4.221717e-08 -6.866885e-09 -3.476088e-08 -1.189617e-08 4.767967e-09
2.977063e-08 -3.239314e-09 3.290028e-08 -5.179107e-08 -2.709039e-08 4.309004e-08
3.652386e-09 -9.703358e-10 -5.235075e-10 5.560794e-09 5.424319e-10 3.520806e-11
3.380692e-08 2.944084e-08 7.540711e-08 3.481801e-08 -4.621181e-08 -8.204230e-08
-8.596836e-08 1.996620e-07 -5.178394e-08 -4.656591e-08 -1.495930e-07 7.608280e-09
-9.279365e-08 1.262311e-07 -9.767357e-08 -3.612421e-09 3.394553e-08 -1.091710e-07
-1.604890e-07 5.282159e-08 3.968288e-07 4.437491e-08 2.248872e-07 1.288787e-07
-1.002107e-07 1.384294e-07 2.876419e-09 -4.662657e-09 -3.512868e-08 -5.651620e-08
4.265176e-08 -3.431172e-07 -2.967575e-07 2.721433e-07 4.794954e-07 -2.553602e-07
-6.603514e-08 2.314574e-07 -2.302966e-07 -8.230336e-08 1.463100e-08 -8.351433e-08
4.843215e-08 1.862064e-09 -1.158021e-07 -2.845722e-08 -1.034564e-07 -1.943336e-08
-8.808287e-08 2.270208e-07 -5.312327e-08 -3.762252e-08 -8.972527e-08 -3.967799e-08
1.605636e-07 -8.687606e-08 5.137756e-07 6.669156e-08 5.598828e-08 4.560402e-07
5.046671e-09 -1.985010e-07 -5.537753e-08 -1.606237e-07 1.683139e-07 8.291080e-08
-8.591051e-10 -1.263287e-07 -1.655451e-08 9.544416e-08 1.019963e-07 -3.946566e-08
-8.041219e-09 1.863906e-07 -1.706495e-07 1.663100e-08 2.630126e-09 -5.397690e-08
1.632373e-08 -4.623901e-08 1.263596e-09 1.287869e-08 9.064878e-09 -1.494755e-09
3.331858e-08 8.649992e-09 -3.336970e-09 -4.791482e-08 -1.814188e-08 2.381076e-08
1.438438e-08 -3.933820e-08 1.469441e-09 9.744043e-09 4.231176e-09 -5.894573e-10
1.037531e-08 -3.837711e-08 4.816689e-09 1.048571e-08 3.329368e-09 -2.359721e-10
3.760621e-08 7.202757e-08 -1.870730e-07 -7.609452e-09 1.206012e-07 -1.176239e-08
1.437353e-08 -4.442465e-08 5.761890e-09 1.246382e-08 6.950468e-09 -7.297028e-10
1.244828e-08 -3.842953e-08 3.729534e-09 9.863874e-09 2.543685e-09 4.939307e-10
4.572905e-08 -3.104253e-09 -1.411456e-07 -1.295208e-08 1.288993e-07 8.785200e-09
-1.114587e-08 -1.180375e-08 7.232468e-10 3.385252e-08 1.238539e-08 -8.935658e-09
-5.921162e-07 1.407112e-06 4.467433e-07 -3.798046e-07 -9.475074e-07 7.431816e-07
2.877024e-08 7.173952e-08 -1.831793e-07 1.990974e-08 1.170879e-07 -2.609083e-08
-6.967561e-09 2.855916e-08 -3.902986e-08 2.212123e-09 -2.496465e-08 2.452559e-08
-5.352259e-08 -2.496013e-08 3.345589e-09 6.722425e-08 -3.106159e-08 3.982075e-08
6.991417e-08 -9.148338e-08 -1.492523e-07 8.653346e-08 2.546558e-07 -5.766084e-08
6.067840e-08 -1.926064e-08 -1.208779e-07 -3.261833e-09 1.420145e-07 2.625314e-08
-1.040457e-07 5.576938e-08 -3.411112e-09 6.501226e-08 -5.902897e-09 5.749877e-08
-1.722988e-08 1.876598e-08 -9.203252e-09 1.166036e-09 -1.159618e-08 1.685167e-08
7.600632e-08 -7.624673e-08 -3.870327e-08 9.635963e-08 2.110248e-07 -8.612938e-08
6.801629e-08 -2.152937e-07 -3.892838e-08 2.985340e-08 1.494796e-07 -1.720908e-08
-4.396037e-09 7.302535e-08 -9.048042e-08 -2.168619e-08 -7.064303e-08 1.652979e-09
8.051997e-08 -1.643533e-07 -2.056354e-07 2.209069e-08 3.710206e-07 -3.517864e-08
-1.116068e-08 2.291226e-08 -2.088409e-08 -2.272279e-09 -1.183956e-08 1.415495e-08
-1.763459e-08 2.855643e-08 -2.657323e-08 8.074989e-09 -1.687405e-08 2.759653e-08
-4.480876e-08 6.502120e-08 -6.130905e-09 2.276563e-09 -6.066438e-09 2.703305e-08
-1.553444e-07 4.907710e-07 -9.273962e-08 5.328155e-08 -1.529032e-07 5.830529e-08
8.441498e-09 -5.705582e-09 -9.551490e-08 2.685374e-08 -1.491679e-07 5.796474e-08
1.042096e-08 -3.188835e-08 3.660904e-09 -7.931431e-09 2.931194e-09 -4.266870e-11
-2.141916e-07 5.149826e-07 7.663209e-07 -4.038056e-08 4.793085e-07 -3.115122e-07
1.383310e-08 -4.939214e-08 -4.038153e-08 3.644972e-08 -6.837502e-08 3.192220e-08
6.808908e-09 -2.742105e-08 3.137807e-09 -1.248722e-08 3.961639e-09 5.565887e-10
1.772394e-08 3.678753e-08 8.020226e-08 -3.958956e-08 5.484862e-08 -5.512513e-08
1.007944e-08 -3.200688e-08 -1.189622e-09 -1.629333e-08 6.942366e-09 2.952317e-09
6.773133e-09 -2.782814e-08 2.842622e-09 -1.319313e-08 4.300968e-09 4.318734e-10
1.693778e-08 -3.919999e-08 -1.683089e-09 -1.205678e-08 9.356771e-09 2.283183e-09
-2.580669e-08 1.115566e-07 -5.477460e-08 -1.769342e-08 -7.879853e-10 -1.067864e-08
9.270522e-09 -4.737368e-09 -1.313733e-09 -4.215313e-09 -4.683138e-10 1.748969e-10
-5.810586e-09 -6.381797e-09 3.039609e-09 -6.659842e-09 5.406779e-10 -9.818759e-10
-7.193672e-09 -5.988723e-09 2.466827e-09 -9.236721e-09 1.417409e-09 2.468207e-10
-4.802442e-07 6.740758e-07 8.732091e-07 2.227585e-08 1.012808e-06 -4.775505e-07
4.307015e-08 3.020959e-08 -1.037898e-07 -9.426368e-09 9.196436e-08 8.177247e-09
8.842794e-08 -2.188290e-07 -4.889164e-08 -8.335044e-08 1.918449e-07 2.668738e-08
6.613982e-08 -7.499597e-08 -9.407564e-08 -5.126643e-08 2.198065e-07 5.402357e-08
4.413061e-08 7.852884e-08 -1.883870e-07 2.159820e-08 1.930379e-07 -6.356508e-08
1.591274e-08 1.339794e-07 -2.395425e-07 -6.554021e-09 8.162561e-08 -3.306298e-08
-5.033231e-09 -8.149727e-09 2.741682e-09 -1.063912e-08 2.975290e-09 -2.104769e-10
-4.032801e-09 -8.644416e-09 3.016439e-09 -9.914724e-09 1.874120e-09 5.713423e-12
-2.229034e-10 5.302942e-09 2.959359e-08 2.728636e-08 -5.643558e-09 -1.785577e-08
-2.792800e-09 -7.994721e-09 2.911213e-09 -5.682898e-09 1.127552e-09 -7.829764e-10
-3.747956e-09 -1.304254e-08 4.264300e-09 -9.806298e-09 5.227833e-10 -2.871362e-10
-1.209568e-08 8.972033e-09 -4.949877e-10 5.714661e-09 3.678427e-11 -8.548838e-10
1.331636e-09 1.721539e-09 3.230141e-08 -3.213878e-08 1.244801e-08 -1.005122e-08
1.186506e-09 1.911307e-08 4.659812e-09 1.880895e-08 -6.315794e-09 -1.251783e-08
1.736164e-08 1.593458e-08 1.109793e-07 8.814457e-09 -1.438150e-08 -1.222188e-07
1.307744e-08 -4.534470e-08 1.262905e-09 -1.969382e-08 1.229882e-08 2.754539e-09
1.848670e-08 -4.749357e-08 4.336796e-09 -8.663636e-09 8.453519e-09 -2.324274e-10
1.547251e-08 -4.578866e-08 4.844610e-09 -8.436742e-09 7.283141e-09 5.604932e-10
2.063917e-08 -5.623673e-08 3.865696e-09 -8.777038e-09 1.384973e-08 1.594981e-09
1.648077e-08 -7.437524e-09 -1.094268e-09 4.284960e-10 2.392280e-10 -6.302984e-10
-1.798761e-07 2.807032e-07 -2.204267e-07 -8.163052e-08 1.094386e-08 2.099148e-07
-1.421008e-08 2.192406e-08 4.643414e-09 2.319875e-08 -7.322082e-09 -1.301433e-08
2.546232e-08 3.633578e-08 1.157447e-08 4.186865e-08 -2.631463e-08 -3.119379e-08
1.296171e-08 -4.122850e-08 4.281230e-09 -1.520956e-08 9.120399e-09 1.446911e-09
-2.847285e-08 1.727252e-08 -1.567747e-08 -2.735965e-08 1.291687e-08 1.883693e-08
1.079525e-08 -6.881460e-08 9.189705e-10 -1.149114e-07 7.010768e-08 5.495020e-08
-4.289713e-08 3.780515e-08 6.187331e-09 -1.691642e-08 -2.807715e-09 1.951873e-08
2.215248e-08 -4.526070e-09 1.073647e-08 1.473546e-08 -3.086833e-09 -1.284857e-08
-3.098521e-08 9.606713e-08 -3.181776e-08 -2.195769e-08 -1.489331e-08 -2.888900e-08
1.271182e-08 -3.987795e-08 4.749323e-09 -1.490522e-08 6.638536e-09 2.029298e-09
1.629283e-07 -6.227006e-08 2.609622e-07 3.720165e-08 5.112605e-08 2.954698e-07
4.108910e-09 1.975324e-08 3.351509e-08 -3.400853e-08 2.351893e-08 -2.939444e-08
-8.726032e-09 3.596697e-08 2.206769e-08 -1.433912e-08 -4.461202e-10 -8.101334e-09
1.726671e-09 3.115057e-08 5.053024e-08 -2.926967e-08 7.518825e-08 -1.036139e-07
-5.453682e-09 8.054628e-08 -3.106910e-08 -4.710130e-08 1.096316e-08 3.799939e-08
2.277789e-08 -7.385001e-09 8.451795e-08 -2.887471e-08 2.203812e-08 -6.088909e-08
-2.380370e-08 3.036084e-08 -3.563999e-08 -3.055735e-08 2.370014e-08 2.583231e-08
-2.535537e-08 -1.273675e-08 5.593724e-09 -5.649360e-08 2.397604e-08 3.098803e-08
3.231927e-08 -7.825493e-08 -3.816837e-08 -3.223672e-08 7.591975e-08 1.489149e-08
-1.124011e-08 3.979293e-08 -5.132804e-08 -8.226475e-08 4.043857e-08 6.800521e-08
2.566226e-08 -3.703089e-09 4.934830e-08 -5.588489e-08 -3.402074e-08 4.391272e-08
2.436823e-08 -4.927477e-08 -1.333315e-08 -1.765127e-08 3.174533e-08 2.585155e-09
4.465251e-08 -1.352376e-08 7.062790e-09 -2.541493e-08 -2.584248e-09 2.122183e-08
7.619905e-08 1.920860e-07 4.753371e-08 -1.396738e-07 -1.301457e-07 1.104819e-07
2.493313e-08 -6.801988e-08 -1.365480e-09 -1.968997e-08 2.750619e-08 3.529914e-09
2.307171e-08 -6.753075e-08 1.156339e-09 -2.862303e-08 2.744624e-08 7.063244e-09
2.266961e-08 -5.357021e-08 1.082113e-09 -2.736217e-08 1.833489e-08 8.002898e-09
1.808792e-08 -4.774234e-08 -5.319134e-11 -4.024242e-10 7.641840e-09 -8.784488e-10
1.366447e-08 -4.728562e-08 1.003500e-09 -2.064841e-08 1.772982e-08 1.453019e-09
1.572239e-08 -4.686634e-08 2.828962e-10 -2.025225e-08 1.354058e-08 2.901928e-09
1.133164e-08 -3.865115e-09 -8.388032e-10 7.620971e-09 1.752160e-10 -1.131370e-09
1.860412e-07 -6.336686e-09 1.898380e-08 7.448363e-09 1.206611e-09 1.080356e-07
1.320808e-08 -6.694634e-09 -1.323330e-09 2.418448e-09 1.716478e-10 -9.153963e-11
1.137633e-08 -5.515838e-09 -1.086313e-09 3.733452e-09 3.867276e-10 -7.469131e-12
1.498829e-09 2.097357e-08 -1.458391e-08 2.031635e-08 -3.877615e-09 -9.743211e-09
6.570510e-09 -1.857080e-09 -1.070261e-09 6.855230e-09 6.209221e-10 -1.005125e-09
1.067518e-08 -3.835598e-09 -9.686059e-10 7.577631e-09 9.930167e-11 -1.503708e-09
1.070493e-08 -4.803184e-09 -8.605845e-10 5.009497e-09 2.518739e-10 -6.827181e-10
1.387963e-08 -5.033598e-09 3.448126e-10 9.539808e-09 -1.245516e-10 -3.516818e-09
-1.034280e-07 9.462962e-08 -8.482185e-08 2.671354e-08 3.456217e-08 -1.105414e-07
9.133186e-09 -2.836774e-08 -3.497246e-09 -1.695299e-08 7.267062e-09 1.302761e-09
-5.891235e-09 2.324158e-09 -1.302921e-08 3.525528e-08 2.284272e-08 -1.635929e-08
-4.283081e-10 2.561456e-09 -4.378080e-10 6.601223e-09 7.152339e-10 8.562817e-11
-1.780887e-09 -1.495123e-08 2.397055e-09 -1.101582e-08 4.340314e-10 1.594517e-10
-1.124623e-08 -4.242948e-09 1.633485e-09 -1.289871e-08 3.646111e-09 5.535881e-10
-3.102698e-09 4.748755e-09 6.285228e-10 7.369650e-09 6.933716e-10 -5.260250e-10
4.612439e-10 2.609398e-09 5.642806e-10 8.531231e-09 2.607361e-10 -2.660221e-09
3.835432e-09 -8.846465e-10 -2.012297e-10 6.931599e-09 1.051265e-10 -1.694588e-09
-2.281018e-08 3.419002e-08 -2.512642e-08 1.883534e-08 1.581804e-08 -2.217774e-08
-5.492451e-10 -1.414489e-08 4.320569e-09 -7.752715e-09 8.459271e-10 -4.124296e-10
4.375007e-09 -2.182928e-10 8.081975e-10 8.418362e-09 2.335081e-10 -2.097049e-09
-4.798881e-10 3.412740e-09 1.171695e-09 9.040750e-09 -2.885596e-10 -1.838237e-09
-6.997682e-10 4.678919e-09 7.947536e-10 1.097329e-08 -8.760041e-10 -3.415023e-09
7.360158e-09 -7.522131e-10 -2.703504e-10 1.006114e-08 -9.069850e-11 -2.561897e-09
1.108414e-08 -5.581084e-09 -1.452270e-09 -2.711892e-09 -8.744028e-11 3.282137e-10
1.003024e-09 4.984122e-09 1.021213e-09 1.070699e-08 -1.600139e-11 -1.312275e-09
9.338323e-08 7.641123e-08 -3.129712e-07 -7.872765e-08 3.449649e-07 -5.702017e-09
-1.811649e-09 -1.121072e-08 3.649427e-09 -7.418428e-09 4.879921e-10 -2.892005e-10
-6.045809e-09 -1.353781e-08 1.079581e-11 -1.869125e-08 6.892497e-09 2.001007e-09
-6.456757e-10 -1.587206e-08 3.437293e-09 -1.042271e-08 1.975423e-10 -9.806790e-10
8.256256e-08 -1.891390e-07 -5.351294e-08 -3.232223e-08 2.076482e-07 1.970492e-08
1.470410e-08 9.551332e-08 -1.778513e-07 8.264798e-09 9.517058e-08 -5.743848e-08
-7.026769e-09 -3.776943e-10 2.119497e-09 -4.246763e-10 1.709213e-10 -6.040162e-10
6.578046e-08 1.701725e-07 -5.359942e-07 1.617630e-07 2.568766e-07 -1.931983e-07
4.377192e-08 7.999359e-08 -1.624933e-07 2.196228e-08 9.936669e-08 -3.508843e-08
-2.708100e-09 2.760526e-09 3.183409e-10 5.436779e-09 4.217980e-10 -9.899224e-10
-3.363743e-08 5.604109e-08 -4.762438e-08 1.203325e-07 1.684525e-07 -1.280798e-07
-6.864542e-08 1.890879e-07 3.066440e-08 -5.115804e-08 -1.116434e-07 -2.699789e-08
1.417571e-09 2.648383e-09 -8.807072e-10 9.041971e-09 4.022226e-11 -1.619789e-09
-1.905311e-09 7.585519e-09 2.419835e-09 9.969688e-09 -5.143025e-10 -3.313289e-09
1.017417e-09 4.335151e-09 -8.201799e-10 9.251861e-09 3.609775e-10 -1.593989e-09
-1.501014e-08 1.728767e-08 -5.184188e-10 7.078653e-09 -1.070999e-09 -5.227338e-10
5.429419e-09 7.659259e-10 2.078389e-09 1.104065e-08 -8.473880e-10 -3.739299e-09
2.947346e-09 -9.205249e-10 -6.525001e-10 4.119104e-09 3.480025e-10 -3.901286e-10
-6.028387e-09 2.399464e-09 1.040592e-09 9.417014e-10 2.483502e-11 -3.195394e-10
-4.823415e-09 2.303714e-09 6.939085e-10 1.940379e-09 4.582230e-10 -3.894463e-10
-6.307760e-09 -3.008216e-09 2.338192e-09 -3.881683e-09 7.660209e-10 -3.656124e-10
-6.897642e-09 1.652554e-09 1.522285e-09 3.329851e-10 2.777718e-10 -8.439494e-10
-6.882298e-09 2.591482e-09 1.226728e-09 1.227444e-09 1.791702e-10 -2.302182e-10
2.225806e-09 4.845777e-09 1.925976e-09 1.209734e-08 -4.491561e-10 -2.820588e-09
-4.530783e-09 2.874313e-09 9.820460e-10 3.297763e-09 1.280198e-10 -1.021181e-09
5.178213e-09 4.859805e-09 1.289040e-10 1.256353e-08 -4.942288e-10 -2.698729e-09
4.279912e-09 5.208617e-09 -2.804925e-10 1.204073e-08 -1.147153e-09 -4.908113e-09
-6.396034e-09 2.920703e-09 1.102971e-09 1.443138e-09 7.914691e-11 -1.948265e-10
-3.749033e-09 2.372342e-09 5.248966e-10 2.526627e-09 7.351719e-11 -1.339844e-10
-3.257884e-09 6.409635e-09 5.137633e-10 8.058751e-09 -4.107516e-10 -2.669724e-09
2.603044e-09 2.492105e-09 -8.147001e-10 9.919275e-09 5.902841e-11 -2.371243e-09
-4.849281e-09 2.046418e-09 1.092408e-09 1.945601e-09 5.876168e-10 -7.983514e-10
-6.642789e-09 -2.213921e-09 2.343406e-09 -2.767207e-09 7.365140e-10 -8.895680e-10
-1.234309e-09 7.489674e-09 6.178302e-11 1.019656e-08 -9.926022e-10 -2.367751e-09
9.367231e-09 -7.545961e-10 8.874461e-10 1.023924e-08 -1.695440e-10 -4.264892e-09
1.400012e-08 -2.249061e-08 -4.037544e-08 3.879969e-08 -6.441259e-08 3.211968e-08
-7.745734e-09 3.787044e-09 1.828135e-09 4.262984e-10 -1.881897e-10 -4.077734e-10
-6.169520e-09 3.007643e-09 1.051091e-09 2.303831e-09 2.202318e-10 -4.683040e-10
1.062065e-08 -4.737368e-09 -1.411590e-09 -4.159526e-09 -5.079123e-10 -2.353436e-10
-1.900462e-08 -3.140028e-09 -6.254878e-09 1.989443e-08 -1.490730e-08 1.384689e-08
-9.235770e-09 1.010062e-09 -1.202891e-08 3.152582e-08 -3.962186e-08 3.226142e-08
-8.434662e-09 -7.543676e-09 -1.744947e-08 2.266511e-08 -2.622285e-08 1.982477e-08
-9.009711e-09 3.069883e-09 -9.969987e-09 1.909880e-08 -1.614374e-08 1.450300e-08
-4.179530e-09 -1.596499e-10 -1.698915e-08 1.603594e-08 -2.195526e-08 1.414870e-08
-9.733804e-09 2.165598e-09 1.362857e-09 -2.480941e-09 1.102386e-09 -6.578686e-10
-9.739271e-09 -6.833236e-10 9.085643e-10 -7.042542e-09 2.011380e-09 -1.517676e-11
-8.435858e-09 4.544810e-10 2.243783e-09 -3.656649e-09 6.926961e-10 -1.016917e-09
-9.825801e-09 -6.362740e-09 2.692272e-09 -1.498630e-08 3.954940e-09 5.233524e-10
-9.227182e-09 2.892207e-09 5.995180e-10 -3.643406e-10 -2.373373e-09 5.549454e-10
1.869385e-09 -1.892249e-08 4.508758e-09 -8.309660e-09 1.315682e-09 -1.203582e-09
7.507675e-09 -2.782711e-08 -1.573356e-09 -1.303433e-08 4.236593e-09 -9.802785e-10
-1.066791e-08 9.870976e-10 6.725256e-10 2.390348e-09 -3.701691e-09 2.155802e-09
-1.071867e-08 8.127321e-09 -2.798726e-09 -3.535748e-09 -3.668898e-09 4.022144e-09
-9.558915e-09 1.105363e-08 -6.050249e-09 -7.767072e-09 -3.812978e-09 4.932318e-09
-6.819515e-09 6.466175e-09 -2.963709e-09 -6.698655e-09 -2.179422e-09 2.007673e-09
1.028878e-08 -3.433080e-08 5.195281e-09 -1.136830e-08 2.787106e-09 6.316540e-10
5.815030e-09 -2.654767e-08 5.030302e-09 -8.843188e-09 1.946687e-09 -1.037849e-09
4.853816e-10 -1.753057e-08 3.021175e-09 -1.300084e-08 2.826593e-09 2.606759e-10
-5.524833e-09 5.273818e-09 2.681104e-10 -6.391140e-09 -6.267209e-10 -5.398517e-10
-1.207063e-08 1.276163e-08 -3.853731e-09 -3.453450e-09 -4.956836e-09 6.441725e-09
-1.275150e-08 3.994408e-09 -2.315188e-09 2.118675e-09 -5.256449e-09 5.517615e-09
-1.888244e-08 2.735422e-08 -6.744794e-09 -1.391758e-08 -7.394450e-09 2.211897e-08
-5.077844e-08 6.935475e-07 -1.519939e-07 -8.469185e-08 -3.088345e-07 -2.153943e-07
-1.446670e-08 2.640793e-08 -5.172929e-09 -6.471602e-09 2.706833e-09 -6.315193e-09
3.008456e-08 4.450802e-08 -1.119559e-07 2.561896e-08 8.637618e-08 -3.320482e-08
-6.331692e-08 2.932880e-08 -1.637886e-08 7.772481e-08 4.836768e-08 -5.914381e-08
1.328785e-08 -7.437524e-09 -1.045112e-09 2.561011e-10 9.494128e-11 2.198131e-10
-1.783588e-08 -3.448249e-08 9.717083e-10 8.829342e-08 8.843989e-08 -5.753499e-08
-1.144591e-08 3.167179e-08 -8.664756e-09 -2.571035e-08 1.119367e-08 1.640501e-08
1.322888e-08 1.056023e-08 6.585511e-08 -3.634876e-08 3.506451e-08 -4.778806e-08
2.769083e-09 2.528921e-08 2.911985e-08 -3.693361e-08 2.180550e-08 -3.225899e-08
-1.611735e-09 1.417262e-09 1.018381e-10 3.843548e-09 3.563357e-10 -3.707536e-10
-6.176092e-09 2.666693e-09 1.143080e-09 1.646293e-09 2.246584e-10 -3.415568e-10
-1.744484e-09 1.691088e-09 2.459242e-10 3.319349e-09 8.295587e-11 1.973006e-10
-1.918803e-09 2.583180e-09 6.454131e-10 7.240879e-09 1.798306e-10 -9.630505e-10
-1.133863e-09 1.765705e-09 9.252243e-11 6.177151e-09 -4.607303e-11 -4.903782e-10
2.093790e-08 -5.517806e-09 -1.161427e-09 -1.040504e-08 1.014905e-09 -3.289697e-09
9.333307e-09 -1.714579e-09 -1.431507e-09 -1.181005e-08 -1.389736e-09 1.609028e-09
1.284304e-08 -2.645494e-09 -1.577490e-09 -1.083020e-08 -5.527578e-10 -8.565664e-10
3.056710e-08 -7.531287e-08 -1.816186e-09 -5.785335e-09 3.094636e-08 4.202989e-10
1.696244e-08 -6.239207e-09 -6.305085e-10 -9.343441e-09 5.287333e-12 -1.165188e-09
1.361455e-08 -4.180426e-08 5.793362e-09 -4.760150e-09 3.209843e-09 -7.379692e-10
1.365653e-08 -4.213923e-09 -1.462252e-09 -9.409656e-09 5.445848e-10 -6.058099e-10
7.704629e-09 -2.917866e-08 1.465512e-09 -1.594990e-08 5.236696e-09 6.238682e-10
-4.261806e-10 -9.394206e-09 -1.259297e-08 -3.791428e-08 2.399650e-08 1.932608e-08
1.532738e-08 -4.591914e-08 6.223413e-09 -3.248412e-10 3.726708e-09 -3.725286e-10
-2.281293e-09 2.276314e-09 -8.784866e-08 -6.539537e-08 7.758081e-08 5.334190e-08
2.528220e-09 1.368231e-08 -1.596476e-09 -1.668263e-08 -1.279140e-09 -1.768377e-09
-2.859938e-08 5.968441e-08 -1.785685e-08 -1.396477e-08 7.242867e-09 2.719435e-08
1.236762e-08 -3.428271e-08 -9.658860e-10 1.711608e-08 4.866917e-09 -1.129201e-09
1.832347e-08 -7.743959e-09 -5.222596e-10 2.726916e-09 1.944314e-10 -1.397357e-09
7.213635e-09 -3.554601e-08 1.579122e-09 1.615998e-08 6.158406e-09 -5.497424e-10
3.962681e-09 2.663655e-09 -4.668226e-10 9.061561e-09 7.991973e-10 -3.185028e-09
2.176447e-09 5.840375e-09 -5.858301e-10 1.036035e-08 9.228297e-10 -2.598834e-09
4.797412e-09 -3.498076e-08 5.196130e-09 2.126067e-08 8.595021e-09 -1.676314e-09
1.266403e-08 -4.061502e-08 4.293183e-09 1.855620e-08 8.543938e-09 -1.907392e-09
7.517144e-09 -3.633474e-08 2.584753e-09 2.714475e-08 1.247342e-08 -3.025586e-09
-2.207389e-08 6.195661e-08 3.884646e-08 3.629991e-08 -3.294208e-08 -1.147973e-08
9.086404e-09 -3.371986e-09 -1.381221e-09 -6.719625e-09 -1.841183e-10 1.492071e-10
5.648587e-09 -3.092053e-08 4.973177e-09 1.213535e-08 3.107432e-09 1.047593e-10
1.599712e-08 -4.622571e-08 4.545369e-09 1.288878e-08 8.843775e-09 -2.025989e-09
1.214058e-08 -5.070740e-08 5.498914e-09 2.102460e-08 1.243805e-08 -3.326058e-09
2.424885e-08 -5.332280e-09 2.004456e-08 2.267464e-08 -9.988806e-09 -2.948197e-08
1.487057e-08 -4.681943e-08 4.789877e-09 1.376584e-08 8.529848e-09 -1.298793e-09
-2.395766e-08 4.063625e-08 9.646721e-09 2.493936e-08 -1.839188e-08 -1.224022e-08
-1.060844e-08 1.097227e-08 -4.000063e-08 -9.765374e-08 8.453946e-08 7.209004e-08
-2.326790e-08 2.345051e-08 2.236677e-08 2.813159e-08 -2.054509e-08 -7.986420e-09
1.147573e-08 -3.621367e-08 4.496621e-10 2.441897e-08 1.136563e-08 -4.663564e-09
1.002950e-08 -5.169583e-09 -1.306071e-09 -3.146474e-09 -3.388615e-10 -9.378776e-11
1.131011e-08 -4.381269e-08 5.831966e-09 1.363919e-08 6.212830e-09 -5.885294e-11
4.804194e-09 1.899657e-08 -1.812036e-09 -2.746504e-08 6.578498e-09 1.184506e-10
-6.294740e-08 1.842996e-07 -5.753983e-08 -9.754520e-09 1.296484e-08 5.819442e-08
-4.375955e-09 5.076626e-09 1.203993e-09 8.984315e-09 -3.114038e-10 -1.148723e-09
4.804194e-09 1.646493e-08 8.885210e-09 -2.815429e-08 8.853244e-09 -8.084831e-10
-9.341078e-09 2.737520e-08 -9.271403e-09 -1.976852e-08 -2.251233e-09 1.524217e-08
-1.438709e-09 1.478251e-09 2.207163e-10 4.850329e-09 9.079050e-10 -6.926264e-10
-5.023285e-08 5.801375e-08 -4.021258e-08 2.648878e-08 -1.705305e-08 6.449111e-08
-1.656928e-08 9.800543e-08 -3.413513e-08 -1.347112e-08 3.543053e-08 3.188394e-08
-2.450737e-08 5.519575e-08 -8.719824e-08 5.298483e-09 -5.162867e-08 7.606428e-08
-6.309556e-08 -2.423954e-08 -2.461877e-08 6.073938e-08 -5.879438e-08 7.847541e-08
-1.294447e-07 3.639932e-08 3.303904e-07 7.494057e-09 -1.279041e-07 -1.549292e-07
6.751547e-08 8.831008e-08 -1.982738e-07 1.602630e-08 1.322758e-07 6.221867e-09
-6.854669e-08 2.663641e-07 -3.451315e-07 2.087857e-08 -5.468616e-08 4.999101e-08
2.223469e-08 9.535937e-08 -1.901630e-07 -1.729226e-08 1.162185e-07 3.324094e-08
7.220940e-08 1.367715e-07 -2.951937e-07 6.266566e-08 9.644246e-08 -1.139053e-08
4.942480e-09 7.375415e-08 1.155635e-07 5.736853e-08 -9.397813e-08 -8.496935e-08
8.500749e-09 1.348944e-08 5.369080e-08 3.628559e-08 -2.220664e-08 -3.320213e-08
-6.027136e-08 1.038392e-07 -1.420547e-08 -1.081240e-08 -4.069695e-08 -2.486054e-08
-5.950412e-08 1.078190e-07 8.926941e-08 4.604241e-08 -6.512665e-08 -6.213020e-08
3.684931e-09 1.733865e-07 -8.888518e-08 -1.408846e-09 -8.293481e-08 -1.873994e-08
6.744310e-08 7.024381e-08 -3.011808e-07 8.959586e-08 2.862923e-07 -1.336675e-07
-4.676155e-09 2.300793e-09 4.541070e-10 2.019916e-09 3.720713e-10 -3.506525e-10
-6.117628e-09 2.098576e-09 1.287706e-09 8.436485e-10 3.766263e-10 -4.323776e-10
-1.635051e-09 2.669233e-09 2.210601e-10 5.395892e-09 8.700437e-10 -6.903865e-10
-1.691306e-08 2.344340e-08 -1.323877e-08 2.161379e-09 -5.703328e-09 -1.833684e-08
-4.643894e-09 3.958039e-09 6.576992e-10 6.242465e-09 3.981464e-10 -1.042528e-09
-5.558377e-09 2.480011e-09 1.019936e-09 1.911509e-09 2.484190e-10 -2.173462e-11
-2.647091e-08 -1.190124e-08 -3.616696e-09 -5.055788e-08 2.509243e-08 1.739624e-08
-2.010049e-09 -9.443716e-09 -4.553566e-10 -1.458983e-08 2.955171e-09 1.122931e-09
-1.455937e-08 3.001058e-08 1.622348e-08 1.517541e-08 -5.563950e-09 -1.007193e-08
-4.204436e-08 1.941550e-08 -5.038303e-08 -3.864451e-08 4.343529e-08 4.931188e-08
-1.343935e-08 2.303355e-08 -1.079176e-08 -1.880155e-08 5.382645e-09 9.408446e-09
-6.387443e-09 2.467958e-09 1.238947e-09 1.106423e-09 1.893490e-10 -3.094027e-10
-8.034374e-09 1.190680e-09 1.775436e-09 -5.954022e-09 3.861313e-10 -1.364628e-10
-2.106965e-08 3.965085e-08 -1.592669e-08 -1.416788e-08 8.214152e-09 1.538516e-08
-5.556476e-09 2.878200e-09 7.650591e-10 1.071593e-09 1.220573e-10 -6.529866e-11
-3.847250e-08 4.357063e-08 -4.906118e-08 -6.678694e-09 -3.050890e-08 -4.325940e-08
-6.682645e-09 1.251763e-08 -1.750549e-09 -1.454026e-08 4.590852e-10 3.388835e-09
-1.571808e-08 1.350006e-08 -5.948696e-09 -3.248326e-09 -5.038459e-09 9.381714e-09
-8.317407e-09 1.034861e-08 -2.310588e-09 -8.793224e-09 -2.606966e-09 3.933378e-09
-2.515838e-09 2.136542e-08 -2.853541e-09 -2.049561e-08 2.298421e-09 3.403241e-09
-1.735926e-08 6.082954e-09 -1.219472e-09 3.950430e-09 -7.116755e-09 8.284289e-09
1.920234e-08 5.659195e-08 -1.048346e-07 -3.198147e-08 8.366883e-08 4.776432e-08
1.752534e-08 -8.740796e-09 5.198419e-10 -8.381095e-09 5.695349e-10 -2.421522e-09
-5.333801e-09 2.765283e-09 1.124547e-09 2.550506e-09 8.076575e-10 -1.191662e-10
-8.525562e-09 7.285415e-09 -2.074257e-09 -2.716261e-09 -3.833842e-09 2.678245e-09
-1.206719e-08 1.331633e-08 -1.303172e-09 -2.046598e-09 -4.052192e-09 4.497771e-09
-5.351767e-09 -7.680788e-09 -7.951108e-09 1.591057e-08 -1.383215e-08 8.117265e-09
1.171160e-08 -6.247852e-09 -1.382988e-09 -6.702545e-10 3.061208e-12 1.653793e-10
1.688031e-08 -3.459308e-08 -4.862574e-08 2.277074e-08 -5.086715e-08 1.889389e-08
1.293008e-08 -5.573458e-08 -4.799400e-09 2.762281e-08 -3.719730e-08 1.307321e-08
4.717268e-10 -9.937579e-09 -2.650315e-08 1.823104e-08 -2.714300e-08 1.548932e-08
-6.228788e-09 3.840405e-09 4.336163e-10 -2.396047e-09 -2.015932e-10 -6.084531e-10
1.425025e-08 -6.589740e-09 -1.551782e-09 -4.736900e-10 -5.385196e-11 -9.722856e-11
-3.082457e-09 2.495145e-09 1.032605e-10 -4.997882e-09 -5.016980e-10 -9.588974e-11
-4.021869e-09 2.875017e-09 -1.361578e-11 -4.625458e-09 -8.467074e-10 -1.062728e-10
4.035814e-08 -3.195420e-08 -6.503489e-08 3.434405e-09 -9.406567e-08 1.155522e-08
5.007323e-08 -1.070703e-07 -1.460357e-08 -2.310452e-08 -7.283195e-08 -1.865299e-09
-2.351221e-09 2.032622e-09 4.264056e-11 -3.430441e-09 -6.614114e-10 5.698253e-11
1.002336e-09 1.445181e-09 -4.660500e-10 -6.311045e-09 -8.248848e-10 5.772897e-10
-2.331317e-09 2.111782e-09 -5.025469e-11 -5.620939e-09 -9.447786e-10 -2.420955e-10
-2.065264e-09 2.233921e-09 1.040639e-10 -4.333330e-09 -7.874552e-10 -2.523203e-10
1.498268e-08 -6.818576e-09 -1.058525e-09 3.299850e-09 2.178313e-10 -4.438864e-10
7.218435e-08 2.672760e-08 4.753652e-08 4.510492e-08 -4.415594e-08 -9.670602e-08
-6.785441e-10 -8.619424e-09 5.227874e-08 1.547706e-08 -8.487070e-09 -2.951554e-08
7.032070e-09 -2.888005e-09 -1.024129e-09 -5.099922e-09 -6.358474e-10 -2.451424e-10
2.285322e-08 1.904750e-08 6.174122e-08 2.705997e-08 -1.834397e-08 -7.123543e-08
-2.326954e-08 5.586099e-08 3.851107e-09 -3.394197e-08 1.843845e-08 4.364660e-09
9.165131e-09 -3.123111e-09 -6.424905e-10 6.878731e-09 3.305022e-10 -4.436220e-10
-5.653153e-09 4.262555e-09 -9.280900e-10 -6.936196e-09 -1.396164e-09 1.181885e-09
-2.438020e-09 3.426346e-09 -8.528851e-10 -7.529765e-09 -1.561832e-09 2.134625e-10
6.385608e-10 3.138327e-09 -1.377053e-09 -1.038856e-08 -7.874736e-10 5.088614e-10
-1.714588e-09 5.911584e-09 -1.943110e-09 -1.045614e-08 -1.728238e-09 1.227621e-09
1.383154e-08 2.079378e-08 -7.956580e-09 -3.095958e-08 9.922595e-09 -3.843750e-09
1.104978e-08 1.632786e-08 4.551641e-08 -4.026148e-08 3.073427e-08 -3.464562e-08
-2.083129e-09 5.206637e-09 -1.250712e-09 -1.133236e-08 -1.219231e-09 9.863679e-10
5.008898e-09 2.164596e-08 -7.375975e-08 -1.328552e-08 -3.648906e-08 -2.141376e-08
-2.762063e-09 3.426944e-09 -9.053647e-11 -7.369834e-09 -1.074564e-09 6.755935e-11
-3.719875e-09 3.564856e-09 -3.798520e-10 -6.835012e-09 -1.561637e-09 6.470185e-10
-1.332193e-08 3.626129e-08 -2.167255e-08 1.394571e-08 -8.827513e-09 -1.857303e-08
-1.881312e-08 8.486626e-08 -2.281536e-08 3.547016e-08 2.958839e-08 -4.491539e-09
-1.469465e-08 8.750670e-08 -6.779737e-08 3.263488e-09 -2.924644e-08 -2.346321e-08
1.277893e-08 -1.999726e-08 -4.755655e-08 -2.760568e-08 -5.119284e-08 -1.657274e-08
-1.660446e-08 1.288130e-08 -4.681965e-08 -4.252657e-08 -7.556048e-08 -4.080997e-08
-2.800033e-09 3.154870e-08 -1.969760e-08 1.556733e-08 -8.376508e-09 -1.274319e-08
-5.800060e-09 3.854971e-09 -4.300619e-10 -5.970932e-09 -2.006688e-09 9.064093e-10
-9.489288e-09 -5.402629e-10 2.191310e-09 1.555854e-10 -2.135356e-09 -1.195641e-10
-1.097386e-08 4.122572e-09 -1.235593e-09 1.185164e-09 -2.512087e-09 5.700125e-10
-3.312179e-08 7.789604e-08 -7.227336e-08 -2.508621e-08 -6.414873e-08 -4.692744e-08
2.478265e-08 4.232489e-08 -9.043356e-08 -1.489930e-08 -6.723232e-08 -7.418647e-09
3.815678e-08 -1.344143e-08 -6.419672e-08 -7.741082e-09 -6.359437e-08 -4.447323e-09
-8.751901e-09 2.337844e-09 1.385789e-10 -2.531776e-09 -2.037771e-09 -2.835616e-10
-8.557087e-09 3.106643e-09 1.008835e-09 -8.277407e-10 -3.236766e-09 1.080968e-09
-2.987910e-08 2.506890e-08 -3.518557e-09 -1.882417e-09 -5.876348e-09 1.215414e-08
-2.910738e-08 -2.279218e-08 -2.873702e-10 4.585226e-08 -2.338566e-08 2.134534e-08
-2.913177e-08 1.852974e-09 -1.408070e-09 3.645649e-08 -2.681084e-08 2.724625e-08
-4.896322e-08 1.037912e-07 -2.424263e-08 -1.688655e-09 2.284606e-09 3.570743e-08
-9.341078e-09 3.117692e-08 -2.025620e-08 -1.587263e-08 -7.201199e-09 1.851146e-08
-6.446167e-09 6.572143e-09 -1.590721e-09 -7.830777e-09 -1.663496e-09 7.183274e-10
-1.261265e-08 3.436806e-08 -4.787868e-08 1.349351e-08 -3.288286e-08 3.677708e-08
-6.967561e-09 1.050193e-08 -2.439991e-08 1.005982e-08 -2.057297e-08 1.788027e-08
-9.307230e-09 2.727633e-09 2.872214e-10 -1.017697e-09 -1.782610e-09 3.635350e-10
-6.390886e-08 1.053726e-08 -3.786331e-10 8.686689e-08 -3.293197e-08 7.348763e-08
-1.044321e-08 3.917334e-09 3.752372e-10 -1.380607e-09 -1.570911e-09 5.987725e-10
-1.210889e-08 1.802294e-08 -1.712974e-08 1.098311e-08 -1.165800e-08 1.443467e-08
-1.352861e-08 5.195593e-09 -1.855824e-09 1.161426e-08 -1.201118e-08 8.915065e-09
-9.207194e-09 -1.788016e-08 -5.065971e-09 3.309435e-08 -2.777449e-08 2.170847e-08
4.717265e-10 1.193499e-08 -3.251040e-08 1.336666e-08 -2.910745e-08 1.851263e-08
-4.252511e-10 4.424986e-09 -3.649666e-08 2.089026e-08 -3.507095e-08 2.671735e-08
-8.337963e-09 6.033956e-08 -8.992268e-08 -3.646664e-08 -5.960802e-08 -4.925105e-08
-4.386944e-09 2.996590e-09 2.784983e-10 -3.707959e-09 -4.404046e-10 4.826328e-11
-2.222204e-09 2.566638e-09 -2.590479e-10 -4.589738e-09 -9.935297e-11 1.205560e-10
-1.141160e-09 1.972782e-09 -4.965783e-10 -5.847955e-09 -7.227428e-10 2.223237e-10
-1.500821e-08 -2.104943e-08 5.939996e-10 2.927374e-08 -1.598831e-08 1.108287e-08
-1.329685e-08 -2.197541e-09 7.918555e-10 8.146599e-09 -6.098088e-09 3.538762e-09
6.542846e-10 8.370495e-10 -3.552403e-10 -5.118703e-09 -7.352887e-10 -2.060568e-11
-1.332303e-09 1.982580e-09 -3.736065e-10 -5.883620e-09 -6.869683e-10 1.416310e-10
-1.500821e-08 -5.882306e-09 -1.251747e-09 2.557281e-08 -2.004529e-08 1.326482e-08
-6.728156e-10 1.797144e-08 7.100120e-09 2.412325e-08 -1.066523e-08 -1.312659e-08
-4.460307e-08 4.626247e-08 1.342127e-09 7.493806e-09 -1.076899e-08 1.599461e-08
-1.503927e-08 1.709302e-08 4.366215e-10 7.166922e-09 1.727592e-09 3.314573e-10
8.689367e-09 -3.820184e-09 -1.182399e-09 -8.374668e-09 -3.817748e-10 1.958111e-10
1.313937e-08 -3.061483e-09 -3.064033e-10 -1.381779e-08 5.033560e-10 -2.174826e-09
2.121910e-08 -9.410024e-09 1.012232e-09 1.594400e-09 1.732311e-10 -3.142654e-09
-5.200735e-09 1.111861e-08 3.377335e-08 2.853547e-08 -2.011726e-08 -3.034054e-08
-8.885751e-09 1.651621e-08 2.357521e-09 1.701543e-08 -3.865458e-09 -6.382011e-09
4.725070e-09 1.488967e-09 -1.516014e-09 -9.750364e-09 -2.019480e-09 2.387593e-10
-1.944520e-08 2.869526e-08 1.682850e-08 2.199830e-08 -1.492777e-08 -8.334134e-09
-2.145068e-08 4.582449e-08 9.795136e-09 1.794189e-08 -2.004267e-08 -4.716838e-09
2.328041e-08 -8.986208e-09 -1.304388e-09 -4.787921e-09 4.007112e-10 -3.829159e-09
2.431961e-08 -5.367208e-08 -2.561751e-09 1.220357e-08 1.900598e-08 -2.810480e-09
1.956735e-08 -3.971410e-08 -9.247500e-09 1.487608e-08 1.383461e-08 -2.674781e-09
1.760917e-08 -4.995920e-08 3.471612e-09 7.273305e-09 8.341728e-09 -2.676072e-10
5.546868e-09 -1.512536e-09 -1.023613e-09 -6.615661e-09 -1.010341e-09 1.068070e-10
-1.907977e-09 3.470671e-09 -6.865015e-10 -7.567338e-09 -2.563507e-09 7.225714e-10
3.977802e-09 1.734212e-09 -1.128618e-09 -1.143182e-08 -4.542326e-10 -1.061075e-10
1.213792e-08 -6.045458e-09 -1.563112e-09 9.402503e-10 6.446811e-11 7.494028e-11
-1.210363e-08 1.112235e-08 -6.166963e-09 -1.025988e-08 -3.645246e-09 8.613292e-09
2.277618e-09 1.610754e-09 -9.306032e-10 -9.169522e-09 -3.488405e-10 2.680645e-11
-1.003414e-08 -2.218649e-09 1.316490e-09 8.969054e-09 -7.774017e-09 2.920730e-09
1.232081e-11 4.897507e-09 -1.773943e-09 -1.112538e-08 -3.759022e-10 5.183609e-11
6.996274e-09 -3.033797e-09 -1.015888e-09 -4.110122e-09 -2.060654e-10 1.982852e-13
1.913878e-08 -4.634611e-08 2.452010e-10 1.844066e-09 8.701030e-09 -3.122056e-10
9.781441e-09 -4.595267e-09 -1.239866e-09 -3.146857e-09 -4.077427e-10 3.311687e-10
1.655583e-08 -4.647748e-08 2.611347e-09 1.267673e-08 9.085739e-09 -2.214699e-09
5.787262e-09 -2.575993e-09 -1.031457e-09 -4.806616e-09 -3.732802e-10 -6.953915e-11
1.969268e-08 -4.357777e-08 -2.756319e-09 9.876557e-09 8.788003e-09 -2.032736e-09
-1.795173e-08 1.753786e-09 2.472829e-09 -2.251789e-08 5.876696e-09 6.099994e-09
-1.756406e-09 2.425527e-09 -2.779053e-10 -6.106705e-09 -4.056687e-10 -9.712453e-12
-1.917897e-08 1.891422e-08 -1.338444e-09 -4.053369e-09 1.415267e-09 3.516363e-09
-1.264089e-08 9.360052e-09 -3.847568e-09 -1.237455e-08 4.696045e-09 2.716532e-09
-1.883981e-08 1.390088e-08 -9.679862e-09 -1.760131e-08 6.424888e-09 8.733885e-09
-1.739051e-08 1.880144e-08 -2.391829e-09 -3.923264e-09 1.440698e-09 3.247348e-09
-4.823764e-09 7.354778e-09 -1.039676e-09 -8.635226e-09 -2.858805e-09 2.024990e-09
-7.870238e-10 1.590546e-09 -1.959333e-10 -4.680949e-09 -3.408849e-10 -5.885525e-11
-6.863488e-09 6.710093e-09 -2.890098e-09 -8.721513e-09 -2.318522e-09 2.851228e-09
-8.611550e-09 5.287507e-09 -7.988454e-11 -4.223873e-09 -9.817522e-10 6.808796e-10
3.248004e-08 -9.606539e-09 8.962574e-09 -8.236845e-09 1.651425e-09 -1.173682e-08
-7.771120e-09 1.127907e-08 -3.813934e-09 -9.608712e-09 -3.063600e-09 4.518893e-09
-5.222616e-09 9.123602e-09 -1.497356e-09 -1.119526e-08 -4.592962e-10 1.133572e-09
-2.845554e-09 4.862558e-09 -1.751351e-09 -1.015066e-08 -1.682730e-09 1.939604e-09
-3.362437e-09 2.255714e-09 9.977708e-11 -4.068119e-09 -8.065262e-10 -1.763355e-10
3.344204e-09 -5.531255e-10 -7.868914e-10 -5.717780e-09 -2.327327e-10 1.309118e-10
2.131844e-09 1.398348e-10 -5.975780e-10 -4.983245e-09 -6.342302e-10 -1.235190e-11
-3.255931e-09 5.656912e-09 -4.236678e-10 -1.161114e-08 -8.893855e-10 8.836287e-10
1.454668e-09 7.304290e-09 -2.096084e-09 -1.514716e-08 4.880714e-10 7.785888e-10
-4.132592e-08 4.943350e-08 5.284574e-09 -1.257658e-08 -6.331356e-09 1.789466e-08
-1.821067e-07 -3.934451e-08 6.385928e-07 -2.126316e-08 9.079502e-08 4.391561e-08
-3.017063e-08 3.102520e-08 -5.251259e-09 -1.124846e-10 6.738841e-09 6.295269e-09
2.105176e-08 -4.909637e-08 -1.370963e-08 1.437601e-08 -2.542147e-08 4.573661e-09
3.012084e-08 -1.775313e-08 -4.995297e-08 -5.872390e-09 -4.902626e-08 6.962804e-10
2.822822e-08 -5.924043e-08 -3.730859e-09 -3.647688e-09 -3.061268e-08 3.480759e-10
2.515358e-08 -3.541958e-08 -1.844296e-08 -8.942893e-09 -2.510079e-08 -9.579391e-10
-3.892116e-08 5.563577e-08 -6.151960e-08 -2.688532e-08 3.443843e-08 4.943835e-08
-4.535253e-08 4.756533e-08 -1.506810e-08 1.525631e-09 -9.235450e-10 2.125686e-08
3.491825e-08 -5.985552e-08 -3.158891e-08 -2.184206e-08 -6.436683e-08 -6.619907e-09
1.739618e-08 -5.157183e-08 -8.903147e-09 -3.498322e-08 -3.433017e-08 -8.842795e-09
-1.730037e-09 -2.117034e-08 -1.051276e-09 -2.196179e-08 -1.545996e-08 -4.569707e-09
-4.106227e-08 4.987392e-08 -1.065235e-08 5.965518e-09 2.331018e-09 2.666019e-08
-5.734585e-09 1.289902e-08 2.939023e-09 1.330741e-08 -3.317942e-09 -3.952667e-09
-7.047992e-09 3.960502e-08 -6.791025e-08 -2.502077e-08 -4.939017e-08 -4.552100e-08
-5.764535e-09 5.699926e-09 7.520360e-10 4.292908e-09 1.429626e-10 -2.204261e-09
-5.781175e-09 5.832834e-09 -1.047535e-10 4.348850e-09 2.138878e-09 -2.510818e-10
5.944116e-09 4.307135e-09 -2.232245e-09 1.274956e-08 -1.398175e-10 -1.438941e-09
-7.834855e-09 7.811978e-09 8.542012e-11 3.306229e-09 2.081096e-09 -6.218559e-10
3.650728e-08 -7.490750e-08 -7.512993e-09 -7.674099e-09 -5.156967e-08 9.206375e-10
-8.296205e-09 8.384073e-09 4.028733e-10 2.886078e-09 4.822557e-10 -6.815319e-10
3.818504e-09 -2.287806e-08 -1.249597e-09 -2.140586e-08 -1.784622e-08 -5.878393e-09
3.646363e-09 4.601450e-09 -3.256821e-08 -2.029802e-08 -3.216076e-08 -1.468615e-08
-2.234491e-09 5.249680e-08 -2.054711e-08 2.867151e-08 6.048493e-09 -1.040705e-08
1.235398e-10 -2.282811e-08 4.445354e-09 2.079117e-08 5.493124e-09 -7.013516e-10
3.291181e-09 -2.747154e-08 6.118115e-09 1.169575e-08 2.451773e-09 2.355539e-10
-1.191555e-08 8.020735e-09 -6.008771e-10 7.682654e-10 2.414503e-09 4.214884e-10
-1.444542e-08 1.663777e-08 -6.260001e-10 1.720169e-09 5.280926e-10 2.046158e-09
-5.702158e-09 -7.317942e-09 2.209092e-09 -1.273986e-08 3.007995e-09 -1.970768e-10
4.302098e-08 -9.776347e-08 -1.051043e-08 8.113572e-09 5.292141e-08 -4.582699e-09
-8.388716e-10 -2.273951e-08 3.069520e-09 2.179244e-08 6.528788e-09 -1.863071e-09
-8.975792e-09 -5.000155e-10 1.584333e-09 -7.528077e-09 1.556919e-09 -7.588476e-10
-6.774102e-10 -1.304673e-08 -4.218405e-09 -2.163970e-08 5.549368e-09 4.525418e-09
1.738392e-08 -4.951745e-08 5.159875e-09 7.767459e-09 7.730558e-09 -7.132393e-10
4.710922e-10 -1.856601e-08 3.409955e-09 -1.689004e-08 4.254865e-09 1.174434e-09
-2.080266e-08 3.742741e-08 -1.726014e-08 3.112240e-09 7.198635e-09 -1.473927e-08
-1.028306e-08 5.924195e-09 -3.061729e-10 -7.229680e-09 1.767961e-09 6.927583e-10
-1.225671e-08 1.391082e-09 1.453401e-09 -7.830336e-09 2.361228e-09 2.485829e-10
-2.793678e-08 -3.603102e-10 -9.695236e-09 4.585355e-08 2.442613e-08 -2.210750e-08
-1.028842e-08 3.969352e-09 1.562444e-09 -5.542860e-09 2.276792e-09 -2.004924e-10
-1.641490e-08 1.759288e-08 -1.434984e-08 1.877014e-08 1.389966e-08 -9.149551e-09
1.037535e-08 -3.834044e-08 6.224327e-09 1.050359e-08 3.074789e-09 -4.160141e-10
-2.413720e-09 -2.070218e-08 -2.372721e-08 4.991939e-08 5.346720e-08 -3.226040e-08
-9.278124e-09 -5.843224e-09 2.597041e-09 -1.581093e-08 4.166369e-09 5.592329e-10
-2.443060e-08 1.486278e-08 -8.198318e-09 2.300515e-08 9.323695e-09 -1.107407e-08
-1.541515e-08 9.100954e-09 -4.281417e-09 -1.140801e-08 4.358193e-09 4.051449e-09
-2.224852e-08 1.160016e-07 -3.220150e-08 -4.170084e-08 -6.136244e-08 -1.595112e-08
-4.150042e-08 8.476706e-08 -6.149271e-08 3.232222e-08 -4.851805e-09 -3.140837e-08
7.921827e-08 -7.490526e-08 2.673621e-07 7.131691e-08 4.892000e-08 3.089764e-07
-3.483027e-07 -7.719997e-08 1.119172e-06 -4.632262e-08 -1.982158e-07 1.806855e-07
2.428210e-08 3.938006e-09 1.281044e-08 -4.052025e-08 -1.031278e-08 1.525114e-08
5.944373e-08 -1.848555e-08 3.928487e-08 -3.838479e-08 -1.716252e-08 4.356903e-08
-7.562494e-08 2.380429e-07 5.987222e-08 -2.992759e-08 -1.915674e-07 5.485650e-08
-2.727238e-07 -7.539903e-08 5.556746e-07 -5.853743e-08 -1.831682e-07 7.850389e-09
9.584757e-08 2.121223e-08 4.121280e-09 -3.404031e-08 -1.941770e-08 6.583323e-08
-2.089097e-07 -2.865971e-08 4.404825e-07 -1.658881e-10 -1.057157e-07 5.754177e-08
-3.291169e-08 2.123627e-08 -8.922577e-09 -3.063472e-08 1.650820e-08 2.105498e-08
8.053264e-08 -1.268889e-08 1.657513e-09 -2.285600e-08 -4.556162e-09 4.277319e-08
-2.227356e-08 1.591562e-08 -1.320597e-08 1.695350e-08 1.613378e-08 -1.284279e-08
-3.300060e-08 2.356394e-08 -4.724571e-09 -2.998537e-08 9.712337e-09 2.121452e-08
-3.130377e-08 1.489463e-08 -2.747824e-09 -2.969966e-08 1.320541e-08 1.782945e-08
3.199369e-08 -1.497320e-08 -4.341630e-08 9.037126e-09 -4.047667e-08 1.039294e-08
3.012084e-08 -3.325619e-08 -3.006642e-08 -5.569305e-09 -3.252476e-08 1.598738e-09
2.582316e-08 -5.289528e-08 -9.336422e-09 1.695804e-08 -4.157160e-08 6.600218e-09
2.890296e-08 -3.316295e-08 -2.960582e-08 4.173327e-09 -3.080339e-08 6.070703e-09
3.093735e-08 -1.397292e-08 -5.031446e-08 -2.004819e-09 -4.693121e-08 4.780095e-09
-7.440759e-09 1.724931e-10 1.969152e-09 -1.143535e-09 -2.175221e-10 -3.438283e-10
-1.769394e-08 2.083235e-08 1.233798e-09 2.173791e-09 -1.078379e-09 5.858557e-10
-3.005342e-08 2.982833e-08 5.008031e-09 -6.588414e-09 -6.039366e-09 6.325277e-09
2.415157e-08 -1.183968e-08 1.067948e-08 2.298548e-09 5.944893e-10 -1.153439e-08
-3.551480e-08 3.694307e-08 7.249107e-09 -4.734786e-08 3.318033e-08 3.571247e-08
2.737028e-08 2.062723e-08 -8.123644e-08 -2.568278e-08 -6.373410e-08 -1.787285e-08
-4.216211e-08 3.583843e-08 2.084624e-08 3.588414e-09 -1.905918e-08 -4.796286e-09
3.322211e-08 -4.211370e-08 -3.469918e-08 -2.681531e-09 -4.454729e-08 3.165992e-09
-3.013055e-08 2.254274e-08 3.568441e-09 -5.794099e-09 -1.830989e-09 5.769554e-09
-3.109825e-09 4.581981e-09 -6.126989e-10 -8.332236e-09 -2.044576e-09 9.050718e-10
-1.848175e-09 2.132756e-09 -4.173938e-10 -6.972791e-09 -9.015957e-10 4.200510e-10
-3.101690e-09 4.648979e-09 -8.950696e-10 -7.918571e-09 -2.319904e-09 1.102363e-09
-1.017327e-08 4.968177e-10 -1.011032e-09 2.865778e-09 -2.903444e-09 1.341678e-09
-1.250442e-08 7.658527e-09 -1.154237e-09 -4.804129e-09 -2.865464e-09 4.475537e-09
-9.237657e-09 3.753417e-09 8.027805e-10 -1.257787e-09 -2.630933e-09 -3.091480e-10
-7.320196e-09 4.863578e-09 4.387388e-10 -3.454781e-09 -1.317485e-09 4.849958e-10
-4.700670e-09 4.322584e-09 -1.699410e-10 -5.953048e-09 -1.451631e-09 3.734485e-10
-7.368130e-09 6.546892e-09 -1.050034e-09 -4.749059e-09 -2.274115e-09 2.400283e-09
-1.049058e-08 1.100977e-09 7.805379e-10 1.632728e-09 -3.393699e-09 1.133573e-09
-3.392861e-09 6.959194e-09 -3.091388e-09 -1.401847e-08 -7.776134e-10 1.914999e-09
4.663787e-08 -7.224508e-08 -1.658232e-08 2.013679e-08 -7.584237e-08 1.537926e-08
8.943593e-10 9.644723e-10 -6.801382e-10 -7.605991e-09 -1.086393e-09 3.166206e-11
4.666868e-08 -1.433139e-07 -3.128500e-08 2.147813e-08 -1.148972e-07 1.550042e-08
4.343712e-09 1.502332e-09 -1.548874e-09 -1.051868e-08 -1.089543e-09 7.561926e-10
-1.176128e-08 6.884809e-09 7.094560e-10 -1.114153e-09 -3.123977e-09 2.172277e-09
-1.173212e-08 1.021663e-08 -7.514497e-09 -1.264665e-09 -6.225869e-09 6.703409e-09
4.668667e-08 -1.055301e-07 -2.992825e-08 2.230748e-08 -1.242196e-07 1.528137e-08
-2.043509e-08 1.012148e-07 -4.972775e-08 -1.903673e-08 3.110053e-09 3.098747e-08
-1.045851e-07 2.110186e-07 -2.846763e-08 -6.836536e-08 9.338796e-08 -1.363309e-07
-1.503690e-08 -9.013989e-09 5.517422e-10 1.683749e-08 -1.030199e-08 6.697512e-09
2.811448e-09 -6.099216e-09 -5.782081e-08 3.669811e-08 -5.680024e-08 4.047036e-08
-8.073823e-09 4.573688e-09 -4.769296e-10 -3.697985e-09 -1.287282e-09 7.422194e-10
-5.648549e-09 3.414874e-09 2.901093e-10 -4.132493e-09 -8.764641e-10 -5.143305e-10
1.781770e-08 -1.599078e-08 -7.005340e-08 8.600842e-08 -1.221777e-07 8.620586e-08
-1.477273e-08 -4.647469e-08 -1.416613e-08 5.661508e-08 -5.241624e-08 4.220165e-08
2.956213e-08 -1.860181e-08 -4.961600e-08 2.059694e-08 -7.530716e-08 2.597980e-08
-7.367779e-09 6.263764e-09 -5.456200e-10 -6.372302e-09 -1.824164e-09 1.611065e-09
-5.088456e-09 -4.700424e-09 -5.229197e-09 1.499824e-08 -1.080685e-08 7.116533e-09
-2.864468e-09 2.732273e-09 -1.204244e-09 -8.228381e-09 -9.230607e-10 6.930434e-10
-3.371911e-09 -1.858903e-08 -1.589872e-08 1.920378e-08 -2.326078e-08 1.310840e-08
2.234686e-08 -7.668303e-08 -6.573469e-10 2.108728e-08 3.046710e-08 -3.060337e-09
-1.017579e-08 3.325021e-09 -7.547245e-09 6.388007e-09 -7.292033e-09 6.125150e-09
-8.498462e-09 -1.034784e-08 1.404561e-09 1.723580e-08 -1.217883e-08 4.839182e-09
-9.526071e-09 -2.905223e-09 7.758967e-10 4.946521e-09 -4.325614e-09 1.605961e-09
-6.546402e-09 1.000114e-08 -1.298887e-09 -8.515489e-09 -3.176183e-09 2.857719e-09
2.692370e-08 -6.445361e-08 -9.543003e-09 -2.736600e-08 -3.843929e-08 -9.235297e-09
1.964016e-09 7.732664e-09 -2.180651e-08 -1.767834e-08 -2.001475e-08 -8.958255e-09
3.705533e-09 -2.304304e-08 -9.132706e-09 -2.112038e-08 -1.947903e-08 -4.828856e-09
-4.053006e-09 -4.809778e-10 -2.072477e-08 1.609092e-08 -1.918158e-08 1.201676e-08
-1.436122e-08 9.782681e-09 -1.040581e-08 -1.689796e-08 -1.555708e-08 -1.436703e-08
2.371204e-08 -6.793660e-09 -3.968978e-08 -1.584142e-08 -4.051820e-08 -6.690153e-09
-9.095684e-09 -3.296978e-09 -1.271224e-08 2.145172e-08 -2.075351e-08 1.688957e-08
1.314343e-08 -2.453279e-08 -3.297451e-08 -2.606189e-08 -3.572465e-08 -1.314896e-08
5.084064e-08 -1.526848e-07 -3.109325e-08 -8.189814e-09 -1.187590e-07 -2.143896e-09
-8.375089e-09 2.440773e-09 -1.015295e-08 -1.380609e-08 -1.256841e-08 -7.161660e-09
-6.620832e-09 -8.593798e-09 -5.242275e-09 1.245235e-08 -9.077185e-09 5.603299e-09
-1.006508e-08 -8.469035e-09 -7.639895e-09 1.398014e-08 -1.379350e-08 8.278848e-09
-1.094531e-08 -8.393924e-10 -1.171899e-08 1.486088e-08 -1.267017e-08 1.136926e-08
-2.930004e-09 4.190104e-08 -2.224109e-08 1.915718e-08 -5.674178e-09 -1.556797e-08
-9.466817e-09 5.051756e-09 -1.207925e-08 9.571737e-09 -1.055383e-08 7.554931e-09
1.303730e-08 -6.592809e-08 -6.039877e-09 -3.726555e-08 -4.270072e-08 -1.179042e-08
1.552200e-08 -5.866073e-08 -3.009149e-08 -7.166995e-08 -7.916294e-08 -3.857188e-08
-1.127595e-08 -5.870626e-08 -9.568571e-09 -7.409606e-08 -5.326286e-08 -3.460164e-08
1.340998e-08 -3.393608e-09 -3.870110e-08 -2.365421e-08 -3.905837e-08 -1.374780e-08
2.256187e-08 -8.771033e-08 -9.633089e-09 -4.884319e-08 5.787982e-08 1.816278e-08
1.761055e-08 -7.325097e-08 -4.571757e-08 -8.651633e-08 1.264619e-07 4.510778e-08
1.396554e-08 -3.694670e-08 1.490861e-10 -9.899165e-09 5.514163e-09 6.309410e-10
1.745909e-08 -1.992802e-08 -3.012492e-08 -5.327514e-08 5.264806e-08 3.143244e-08
9.106098e-09 -3.166407e-08 1.698782e-09 -1.681084e-08 4.994989e-09 1.353922e-09
5.039686e-08 -1.054324e-07 -7.746373e-08 -3.875916e-08 1.298567e-07 2.022727e-08
2.985410e-09 -2.219604e-08 3.991750e-09 -1.185166e-08 3.061331e-09 -8.820716e-10
1.013270e-08 -3.510925e-08 5.514762e-09 -7.560147e-09 2.617576e-09 -9.193304e-10
-4.200121e-09 -1.335296e-08 2.176141e-09 -1.377964e-08 2.202840e-09 7.928840e-10
1.754853e-08 -7.269720e-09 -4.560103e-10 -5.128311e-09 -2.987917e-10 -1.293412e-09
-1.618248e-08 1.502712e-08 -1.197242e-08 1.190119e-08 -1.550065e-08 1.610439e-08
-1.915654e-08 -9.638536e-09 -1.289524e-09 2.080428e-08 -1.787341e-08 1.449864e-08
9.116302e-09 -3.153390e-08 -3.400703e-09 -1.670504e-08 6.850817e-09 1.315785e-09
-1.352713e-08 5.271095e-09 -5.603935e-09 1.162683e-08 -1.140556e-08 8.942880e-09
-2.920813e-08 7.660058e-08 -4.560646e-08 -9.169559e-09 1.859490e-08 4.549504e-08
-1.190535e-08 1.088939e-08 -8.832854e-10 -1.535399e-09 1.112343e-09 4.413010e-10
1.317920e-08 -3.486221e-08 -5.819316e-10 -1.656042e-08 1.214154e-08 1.465691e-09
2.203839e-08 -6.438164e-08 -1.536511e-09 -1.625443e-08 2.446085e-08 4.740596e-09
-4.216494e-08 1.167516e-07 2.739952e-09 2.618893e-08 -7.044492e-08 -1.293156e-09
-8.221109e-08 1.657863e-07 -1.319183e-07 -1.378996e-07 9.684511e-08 9.274135e-08
-7.436437e-09 2.839833e-09 -2.402987e-09 -1.357414e-08 2.824306e-09 1.933810e-09
-4.207395e-09 -2.311511e-08 -4.047472e-09 -4.318614e-08 2.633703e-08 1.017992e-08
-2.440129e-08 7.397615e-08 -9.890907e-08 -7.023193e-08 4.817982e-08 1.018293e-07
5.487209e-08 -2.622728e-08 -2.192041e-07 -5.749187e-08 2.340673e-07 7.359087e-08
-1.179186e-08 1.419436e-08 -2.587031e-09 -1.078196e-08 -4.878435e-09 7.712405e-09
4.603810e-08 9.721695e-08 -1.901279e-07 -2.784302e-08 1.217615e-07 2.617511e-08
-2.379548e-08 4.698409e-08 -6.354625e-08 -1.391909e-07 8.270495e-08 1.565665e-07
2.605814e-08 1.613936e-07 -2.121472e-07 -8.815766e-08 1.535704e-07 9.299205e-08
6.769943e-10 -3.021676e-08 -7.412274e-09 3.744952e-08 2.434098e-08 -9.616833e-09
-6.023930e-09 3.828373e-09 6.956946e-10 -2.981025e-09 -3.565223e-10 -1.336198e-10
-1.837822e-09 2.097553e-09 -3.755329e-11 -6.953013e-09 -1.207861e-09 3.739180e-10
3.632991e-08 -6.204794e-08 -1.377944e-08 6.783576e-09 2.993766e-08 -3.566652e-10
1.669459e-08 -5.038336e-08 -2.512335e-09 3.794443e-08 3.696891e-08 -1.125091e-08
2.873687e-08 -4.525265e-08 -2.833442e-08 2.973963e-08 3.650877e-08 -8.119508e-09
-5.389789e-09 3.601239e-09 5.919567e-10 -3.011619e-09 -7.271099e-10 7.301053e-10
1.587446e-08 -6.251052e-09 -9.928443e-10 -8.378083e-09 5.574513e-10 -1.793077e-09
1.214190e-08 -5.101020e-08 6.574940e-09 2.707406e-08 1.703450e-08 -4.246599e-09
1.039812e-09 1.564327e-09 -9.880692e-10 -8.885339e-09 -4.196094e-10 3.009601e-10
-9.281358e-09 8.614517e-09 -2.826289e-09 -4.798417e-09 -4.711209e-09 4.688109e-09
-7.533606e-09 6.939353e-09 -1.691283e-09 -6.813008e-09 -3.084516e-09 2.809788e-09
-3.671661e-09 4.571312e-09 -1.215825e-09 -7.426514e-09 -1.397195e-09 5.347887e-10
-9.972143e-08 1.073825e-07 -1.621757e-08 1.004519e-07 1.591851e-07 -9.751425e-10
-2.199978e-08 7.471607e-08 1.276740e-07 2.674015e-08 8.493897e-08 8.492133e-08
2.665704e-08 3.660628e-08 -9.483214e-08 -2.075447e-09 -7.402728e-08 1.814591e-08
-2.910651e-08 7.108336e-08 -3.302880e-11 -4.761684e-08 -1.092893e-08 -1.452863e-08
2.056760e-08 -5.645469e-08 -3.906569e-09 2.773008e-08 -3.704119e-08 1.038681e-08
2.781748e-10 -8.792288e-09 -4.067760e-08 2.259578e-08 -4.260433e-08 2.801223e-08
1.169270e-08 -4.412962e-08 6.867339e-10 3.034915e-08 2.373638e-08 -6.892580e-09
5.634627e-08 -2.127613e-07 -3.444781e-08 4.601765e-08 -1.643117e-07 3.196790e-08
-6.733374e-09 4.194329e-08 -1.904984e-08 -2.979709e-08 3.164432e-09 2.111672e-08
1.789920e-08 -2.951594e-08 -8.628230e-08 2.027358e-08 -1.250307e-07 4.514114e-08
8.787418e-09 -1.533951e-09 -1.294581e-09 8.695407e-09 4.739077e-10 -1.942900e-09
6.063002e-09 3.340936e-10 4.300951e-10 9.657009e-09 2.321395e-10 -1.458289e-09
5.288389e-09 5.379917e-08 -9.296780e-08 -3.782073e-09 -5.414384e-08 4.475444e-08
6.259332e-09 3.232451e-10 3.213393e-09 1.258982e-08 -7.716815e-10 -3.225227e-09
-5.660565e-09 8.712618e-09 3.669921e-09 1.375740e-08 -2.500055e-09 -3.710415e-09
-6.399394e-08 1.109846e-07 6.233261e-08 -6.783968e-08 2.380238e-08 -2.233078e-07
-3.572859e-09 8.769668e-09 -1.589029e-09 8.740072e-09 1.008642e-09 -1.525207e-09
7.047822e-09 -1.807079e-09 -8.645471e-10 6.600800e-09 8.287581e-10 -1.329235e-09
-6.257403e-09 8.919398e-09 8.932655e-10 5.228961e-09 -6.116001e-10 -1.682970e-09
5.267590e-09 2.496847e-09 -1.607960e-09 9.397606e-09 7.664928e-10 -4.835021e-10
-1.442787e-09 1.877000e-09 2.503844e-10 4.817946e-09 5.720648e-10 -4.266129e-10
1.106410e-09 1.779883e-09 7.751044e-11 6.928664e-09 1.288740e-10 -2.571144e-10
-1.557652e-07 1.286093e-07 4.120155e-07 -3.747604e-08 2.511330e-07 -1.097248e-07
-1.858165e-07 2.807497e-07 1.268702e-08 -1.104179e-07 1.711106e-07 -1.837454e-07
3.138972e-09 8.679544e-10 -8.895329e-10 7.332887e-09 7.010062e-10 -1.160030e-09
-4.983679e-10 -1.531235e-08 4.240712e-09 -1.194706e-08 1.472757e-09 1.997625e-10
-5.541712e-07 2.590877e-07 1.622896e-06 6.218641e-08 -8.815171e-07 2.222342e-07
-9.835335e-09 6.378182e-09 1.383444e-09 -2.302341e-09 -2.378031e-10 -1.832102e-10
-5.106204e-09 -4.803812e-09 2.761983e-09 -7.509166e-09 3.442868e-10 -7.028666e-11
-1.190535e-08 4.110708e-09 -1.675380e-10 -5.044820e-09 1.488719e-09 6.008760e-10
-8.392802e-09 5.566665e-09 1.382091e-09 3.132339e-11 8.440714e-10 -8.627759e-10
-2.063862e-07 -8.639368e-08 5.035375e-07 -6.966256e-08 -1.580199e-07 1.285594e-08
-9.734556e-09 -5.630642e-10 1.348381e-09 -7.140270e-09 1.434651e-09 3.665588e-11
-2.953029e-07 -3.907476e-08 5.539266e-07 -1.359479e-08 9.982149e-08 -5.735930e-08
3.718195e-08 -5.034292e-08 -5.436510e-08 -2.813524e-08 8.549981e-08 2.551802e-08
-5.675542e-07 2.188393e-07 1.505217e-06 -2.022284e-07 5.585559e-07 -8.609511e-07
-1.780379e-08 4.009062e-09 -2.409166e-10 2.547146e-08 9.446935e-09 -7.114678e-09
1.759602e-08 2.125066e-08 -9.935029e-08 5.019148e-08 7.445598e-08 -4.453835e-08
-3.041216e-08 -6.598750e-08 -4.654938e-09 -1.036262e-07 7.484273e-08 3.972176e-08
1.728609e-08 -8.902379e-08 -1.257109e-08 -4.872853e-08 6.157423e-08 1.650899e-08
-2.603525e-07 1.301474e-07 7.810565e-07 2.225553e-07 3.487043e-07 2.142936e-07
-3.824546e-07 3.352885e-07 1.066064e-06 -3.778364e-08 -7.075012e-07 -1.950505e-07
-6.822251e-09 2.408290e-08 -1.471544e-08 9.375926e-09 3.293638e-09 -1.367982e-08
-8.336570e-08 -6.881821e-08 -3.971991e-08 1.763558e-07 1.459521e-07 -1.056998e-07
-3.735567e-07 5.287329e-07 8.357203e-07 -9.443648e-08 4.362962e-07 -2.980686e-07
2.153180e-09 -3.142681e-08 5.155361e-09 2.334481e-08 7.254067e-09 -1.008763e-09
1.228068e-08 -3.552057e-08 1.819528e-09 2.516843e-08 1.253643e-08 -3.339935e-09
-8.302817e-08 5.217983e-08 1.417770e-07 -1.197457e-08 7.777443e-08 -5.154527e-08
-4.832252e-10 -2.904589e-08 2.100453e-09 2.439053e-08 8.156638e-09 -3.855225e-09
-1.363229e-07 1.936075e-08 2.219501e-07 3.840291e-08 1.079209e-07 3.574265e-08
-5.667453e-08 1.326773e-07 2.244277e-08 -5.061841e-08 5.202698e-08 -2.229613e-07
1.559245e-09 -3.336359e-08 -4.270712e-09 3.395794e-08 1.791408e-08 -9.123379e-09
-1.252018e-07 2.844330e-08 1.213181e-07 -5.410838e-08 4.916424e-08 -8.094165e-08
-1.464182e-09 -1.741499e-08 1.108652e-09 1.934050e-08 4.451738e-09 -1.401451e-09
1.065208e-09 -1.961361e-08 -3.110794e-08 4.694213e-08 4.727705e-08 -2.942261e-08
-4.775498e-08 8.554309e-08 2.790275e-08 2.613114e-08 -4.335164e-08 2.781777e-09
4.958138e-08 2.202900e-08 -1.531434e-07 -7.397932e-08 1.331425e-07 6.827195e-08
-1.540594e-07 1.086594e-07 2.299910e-08 7.975518e-09 -2.988696e-08 6.354591e-08
1.377020e-08 -2.569234e-09 -1.257506e-09 -9.897936e-09 -1.106976e-09 -1.401292e-09
1.871325e-09 -1.100066e-07 -6.383411e-08 1.248901e-07 -1.094497e-07 7.991132e-08
1.546987e-08 -4.776894e-08 -8.721142e-09 3.129380e-08 3.256387e-08 -7.866944e-09
1.463888e-08 3.766062e-08 -9.383925e-08 -4.126797e-09 -7.300302e-08 1.596819e-08
-3.526079e-09 -1.913526e-08 -4.484984e-08 4.934330e-08 5.091203e-08 -2.553419e-08
-3.005563e-08 8.141590e-09 -9.708569e-09 2.626630e-08 -2.574231e-08 3.673196e-08
-2.211693e-08 5.850408e-08 -1.948550e-08 -2.872652e-08 8.363238e-09 1.663460e-08
1.331636e-09 3.494689e-08 -2.338207e-08 -3.470774e-08 -5.131218e-09 7.334270e-09
-1.587471e-08 2.363733e-08 -1.787299e-08 4.642342e-08 3.395372e-08 -3.684959e-08
1.868031e-08 -2.592300e-08 -1.736841e-08 2.242700e-08 2.113814e-08 -6.279479e-09
2.530394e-09 -3.055455e-08 -9.271054e-09 3.718993e-08 2.516149e-08 -9.511270e-09
-7.254910e-09 -1.463006e-08 1.369633e-09 4.069328e-08 1.991502e-08 -1.323981e-08
-1.858103e-08 5.863995e-09 -9.936345e-09 2.390013e-08 1.386123e-08 -9.718131e-09
-1.682030e-08 4.305592e-09 -1.050420e-08 2.466553e-08 1.288034e-08 -8.911047e-09
1.116795e-08 2.784949e-08 1.098514e-07 -4.574758e-08 5.458016e-08 -7.519667e-08
-3.487286e-07 1.025315e-06 1.008038e-06 -6.735092e-08 -1.136168e-06 -2.673616e-07
-8.287507e-09 -3.859060e-09 -1.676208e-08 3.043249e-08 1.835014e-08 -1.068446e-08
-1.283993e-07 2.685358e-07 -2.442521e-07 -3.772778e-07 2.195796e-07 1.976973e-07
8.792220e-10 1.339794e-07 -2.407366e-07 1.204509e-08 7.914196e-08 -2.758821e-08
-1.292763e-07 -2.865971e-08 5.262066e-07 -3.594292e-08 -8.425782e-08 -3.780340e-08
-1.324281e-07 4.562492e-08 -6.071260e-08 -1.270370e-07 8.458162e-08 1.402998e-07
-5.361354e-08 2.699902e-08 -6.460806e-08 -9.859243e-08 7.488669e-08 7.723856e-08
5.066881e-08 -8.348133e-09 9.049962e-08 -4.139207e-09 5.267285e-09 -1.117188e-07
2.469891e-08 -1.129267e-08 7.002608e-09 -5.865613e-10 5.362671e-10 -9.173568e-09
2.440317e-08 -7.018166e-09 -3.687158e-09 -4.355025e-09 3.719603e-10 -3.931388e-09
2.229675e-08 -9.381607e-09 -5.960408e-10 1.596286e-09 6.313091e-10 -4.589767e-09
2.293948e-08 -1.059602e-08 3.252948e-09 4.223189e-09 -6.615067e-10 -6.930955e-09
1.064742e-08 -6.764718e-10 9.527819e-10 1.241375e-08 -5.271397e-10 -5.569149e-09
2.189173e-08 -9.162864e-09 5.884004e-11 -4.201307e-09 -4.468306e-10 -1.890457e-09
2.179463e-08 -1.215378e-08 1.170270e-08 -1.027449e-08 -1.111461e-09 -1.152678e-08
1.746099e-08 -6.595786e-09 -1.211651e-10 -8.108606e-09 1.127069e-10 -3.057166e-09
-1.301189e-08 1.431768e-09 -8.721384e-09 2.332271e-08 1.143896e-08 -6.080134e-09
-1.780486e-08 1.222459e-08 -8.016572e-09 2.150226e-08 9.309167e-09 -7.588521e-09
-5.939943e-09 1.431769e-09 -1.385095e-08 2.682079e-08 1.353359e-08 -7.813347e-09
1.244684e-08 -6.013504e-10 7.873897e-10 -1.550129e-08 5.286596e-10 -2.167725e-09
-3.337881e-09 2.204428e-09 4.890173e-10 2.857233e-09 4.083384e-10 -2.371809e-10
-3.062782e-09 1.688687e-09 4.313221e-10 2.738831e-09 5.811319e-10 -2.052286e-10
-1.434841e-09 1.414747e-09 1.169025e-10 3.866274e-09 3.570754e-10 -3.010064e-10
-2.814540e-09 2.170990e-09 4.101735e-10 4.104317e-09 1.462759e-10 -4.327266e-10
-1.981511e-08 1.725877e-08 -8.911812e-09 1.843379e-08 1.731235e-08 -1.333903e-08
-9.667152e-09 -1.076733e-08 -5.059029e-09 3.194113e-08 1.449661e-08 -8.286913e-09
1.967566e-08 -1.676991e-08 -7.111119e-08 1.688809e-08 -7.207407e-08 2.709362e-08
3.545761e-08 2.630686e-08 -1.238655e-07 7.397215e-09 -1.622355e-07 9.101793e-08
-2.053174e-08 2.547360e-08 -4.768177e-08 3.000490e-08 -3.571799e-08 4.704207e-08
-2.730081e-08 4.920775e-08 -6.084103e-08 3.437985e-08 -7.480988e-08 7.975196e-08
2.998215e-08 -1.582689e-08 -7.438133e-08 2.184423e-08 -7.356488e-08 2.866989e-08
-4.722306e-08 -2.856179e-08 -3.142084e-08 8.528317e-08 -6.780144e-08 7.111345e-08
5.288389e-09 -1.684190e-08 -6.595603e-08 1.403357e-08 -6.353726e-08 3.585497e-08
-1.175927e-08 6.942329e-09 -2.097229e-09 -1.145450e-09 -3.922852e-09 3.063969e-09
-1.013035e-08 1.431955e-09 -1.111062e-09 1.826014e-09 -4.213889e-09 2.050828e-09
-1.066784e-08 6.879197e-09 -2.761534e-09 2.829233e-10 -3.441810e-09 3.361029e-09
-1.096869e-08 9.368605e-10 1.325407e-09 1.350396e-09 -3.384624e-09 1.213544e-09
-1.500821e-08 1.526382e-09 -1.949572e-09 2.501183e-08 -1.735362e-08 1.279421e-08
-6.533106e-09 -2.649815e-09 3.086408e-09 -3.092150e-09 2.145728e-11 -5.877714e-10
2.104112e-08 -6.834904e-09 -1.844011e-09 -5.424230e-09 -2.807460e-10 -2.273368e-09
-2.498021e-08 -5.605851e-10 -1.232134e-08 2.356251e-08 -2.294503e-08 2.446389e-08
-1.061882e-08 -3.167959e-08 -4.370537e-09 4.066798e-08 -3.278078e-08 2.708188e-08
-1.018627e-08 2.332710e-09 -2.295835e-10 -1.217211e-08 3.149004e-09 1.605522e-09
-6.801234e-09 -1.191843e-09 2.447019e-09 -1.903002e-09 3.567657e-11 -9.032142e-10
-8.910437e-09 8.026202e-10 1.829145e-09 2.265912e-09 -2.305468e-09 3.958129e-10
-1.102442e-08 7.366449e-09 -2.108180e-09 -9.845587e-10 -3.703507e-09 3.331092e-09
-6.905961e-09 2.489642e-09 1.510793e-09 1.285700e-09 3.287017e-10 -3.855039e-10
-1.337740e-08 6.867621e-09 -8.306100e-10 3.021192e-09 -5.707978e-09 4.330535e-09
-8.966531e-09 2.831866e-09 1.504472e-10 -4.922216e-10 -2.538493e-09 2.432278e-10
-1.309707e-08 3.738036e-09 -2.446311e-09 2.434013e-09 -4.550148e-09 4.371802e-09
-1.695131e-08 7.613180e-09 -1.493843e-09 2.619333e-09 -5.653786e-09 5.891584e-09
-6.901273e-09 2.516197e-09 1.335183e-09 1.161369e-09 1.207143e-10 -3.589997e-10
-1.049058e-08 6.727456e-09 -1.915645e-10 -1.166330e-09 -3.516539e-09 2.359742e-09
3.659051e-09 -1.024462e-09 -6.792388e-10 5.499680e-09 3.232238e-10 -4.476600e-10
5.577944e-09 -9.010129e-10 -6.150748e-10 7.214588e-09 1.853625e-10 -9.603498e-10
4.015984e-09 -1.209949e-09 -7.861414e-10 5.078308e-09 6.234352e-10 1.918532e-10
-6.609950e-09 2.737345e-09 1.257247e-09 1.291009e-09 3.312486e-10 -3.525252e-10
8.044706e-09 -4.281502e-09 -9.390668e-10 4.221633e-09 1.051174e-10 -2.816614e-10
7.521503e-09 -2.820488e-09 -9.948422e-10 5.616148e-09 3.621707e-10 -8.898793e-11
1.709047e-08 -4.428679e-08 5.892889e-09 -2.271944e-09 4.271629e-09 -4.870979e-10
-2.320670e-09 1.685936e-09 2.537477e-10 2.762641e-09 8.404410e-11 -3.778831e-10
-1.503690e-08 6.012175e-09 -1.619772e-09 1.275738e-08 -1.075305e-08 8.375878e-09
-8.546917e-09 -2.023090e-08 -3.164468e-09 2.477019e-08 -1.922019e-08 1.176914e-08
-1.112283e-08 -3.892405e-10 -8.825492e-09 1.491233e-08 -1.591016e-08 1.293448e-08
-9.697911e-09 -1.173030e-09 -4.532139e-09 1.163401e-08 -8.006405e-09 5.660219e-09
-2.129940e-09 1.688687e-09 8.025092e-11 3.155215e-09 4.201975e-10 -3.869470e-10
2.758316e-09 -2.042395e-08 -6.749150e-09 1.644949e-08 -1.278696e-08 5.575221e-09
-9.430231e-09 6.147003e-09 -9.191048e-09 9.310361e-09 -8.283990e-09 7.229654e-09
-6.907121e-09 3.001408e-10 1.976647e-09 -1.513425e-09 4.974225e-10 -6.227527e-10
-5.795077e-09 2.485848e-09 1.146553e-09 1.563498e-09 3.523770e-10 -6.584238e-10
-6.595731e-09 8.856409e-10 1.712207e-09 2.468563e-10 4.097889e-10 -6.148764e-10
1.425501e-08 -4.882973e-09 2.286859e-09 9.777802e-09 4.856357e-10 -2.571398e-09
-5.817171e-09 2.607559e-09 9.993117e-10 1.481714e-09 6.579808e-10 -5.026901e-10
-6.420011e-09 3.047635e-09 9.788490e-10 1.092331e-09 3.156009e-10 -2.706099e-10
-7.363091e-09 -1.933781e-10 2.147878e-09 -2.580198e-09 5.510756e-10 -4.211484e-10
-7.377964e-09 1.860745e-09 1.707551e-09 -4.182875e-10 5.653920e-10 -9.250619e-10
1.252444e-08 -5.955360e-09 -1.934291e-09 -5.144874e-09 -2.392436e-10 6.757564e-10
1.577780e-08 -6.703069e-09 -1.102091e-09 -2.819248e-09 -2.474472e-10 -6.301397e-10
-5.152399e-09 2.750911e-09 7.449281e-10 1.564455e-09 1.727225e-10 -2.705057e-10
3.997478e-08 5.212916e-09 3.008585e-09 2.808393e-08 -8.549433e-09 -2.957080e-08
1.468358e-08 -7.844106e-09 -7.972130e-10 -6.241387e-10 5.117215e-11 -5.199378e-10
2.344057e-08 3.207225e-09 -1.860509e-09 -2.096994e-08 5.722177e-09 -8.087264e-09
1.391957e-08 -6.495888e-09 -1.417741e-09 1.110523e-09 1.705667e-10 -1.492236e-10
8.992536e-09 -5.297866e-09 1.799327e-08 1.622242e-08 -3.440445e-09 -2.074789e-08
1.433621e-08 -5.122036e-09 5.358849e-09 1.330448e-08 -1.357417e-09 -6.436154e-09
1.273040e-08 -6.437397e-09 -1.489276e-09 -2.343843e-09 4.473899e-11 8.166170e-10
1.414975e-08 -5.272873e-09 1.876740e-08 1.494950e-08 -4.784013e-09 -1.761700e-08
3.895803e-08 -2.909124e-09 8.625188e-08 -1.967232e-08 1.497027e-08 -8.050282e-08
1.292043e-08 -6.703513e-09 -1.376023e-09 -2.774205e-09 -2.599153e-10 2.735319e-10
1.698544e-08 -8.397022e-09 -1.539311e-10 -1.089551e-09 9.529414e-11 -1.956100e-09
5.962281e-08 1.091815e-08 1.422754e-08 3.931624e-08 -1.854160e-08 -5.421794e-08
3.154240e-08 -7.911298e-09 5.353160e-09 -1.454076e-08 4.420444e-09 -1.571922e-08
1.362611e-08 -6.518491e-09 -1.616748e-09 -2.713041e-09 -2.499223e-11 -2.243415e-10
-7.947233e-09 5.954599e-09 1.458853e-10 -3.696650e-09 -1.848272e-09 1.121684e-09
2.802460e-08 1.676623e-09 2.345532e-09 1.963392e-08 -4.553934e-09 -1.478550e-08
-1.278139e-08 2.601675e-09 -4.176169e-09 6.898488e-09 -8.701481e-09 7.494178e-09
1.831521e-08 -7.585592e-09 -1.297404e-09 -2.393025e-10 1.819719e-10 -8.056793e-10
-9.420046e-09 -1.254147e-09 -3.528040e-09 5.600989e-09 -6.928450e-09 2.946743e-09
-9.789257e-09 4.973639e-09 -1.159704e-09 -2.415593e-09 -2.397086e-09 1.595089e-09
-5.033231e-09 -1.078408e-08 3.272919e-09 -1.074918e-08 1.930551e-09 -3.200646e-10
1.232107e-08 -3.828825e-08 3.311494e-09 -1.410101e-08 7.123618e-09 1.150038e-09
-1.089944e-08 2.918943e-09 -5.294824e-09 1.474697e-09 -6.164679e-09 3.533966e-09
-9.489286e-09 2.812511e-09 2.596185e-10 -2.297889e-10 -2.701980e-09 2.452440e-10
2.938111e-08 1.322186e-08 4.718527e-10 -3.562404e-08 -5.953818e-09 2.540700e-08
-1.606905e-08 4.221717e-08 -2.484470e-09 -2.551602e-08 -1.329311e-08 -7.495164e-09
5.894566e-09 -3.410118e-08 1.811009e-09 -2.218425e-08 9.140146e-09 1.910614e-09
1.241425e-08 -3.721170e-08 6.024012e-10 -1.127867e-08 5.967861e-09 1.296198e-10
7.042631e-08 1.476976e-08 4.343683e-08 -6.944437e-08 -4.195759e-08 8.140350e-08
5.977126e-08 2.121223e-08 -4.828564e-09 -4.003661e-08 -2.024115e-08 3.076992e-08
1.280415e-08 -3.976130e-08 -1.066068e-10 -1.501059e-08 7.823773e-09 1.178212e-09
-4.580371e-09 -1.801973e-08 1.557708e-09 2.868602e-08 9.497799e-09 -4.178078e-09
2.074831e-08 -1.234819e-07 -4.355332e-08 1.528604e-07 1.798390e-07 -8.049467e-08
1.301897e-07 -3.988273e-07 -2.439624e-07 1.239316e-07 4.927131e-07 -1.266515e-07
3.016718e-08 6.394764e-09 5.314028e-09 -5.061589e-08 -1.423787e-08 2.962199e-08
2.880584e-08 3.938006e-09 2.093718e-08 -4.249247e-08 -1.081523e-08 3.177682e-08
1.084639e-09 6.353802e-08 -7.948840e-09 -5.094563e-08 -1.719330e-08 3.139588e-10
-3.797391e-08 1.679810e-08 -5.918556e-09 3.471030e-08 1.571789e-08 -2.585482e-08
-8.954157e-09 -3.988822e-08 -3.067550e-08 1.021656e-07 1.063432e-07 -6.841067e-08
6.390858e-09 6.435479e-08 -2.271392e-08 -4.789069e-08 -2.030019e-08 1.448401e-09
-2.923378e-08 6.286260e-08 -9.044098e-09 -3.551519e-08 -1.559121e-08 -6.765480e-09
1.057349e-08 8.645963e-08 4.662731e-08 -8.289059e-08 -9.150147e-08 4.668859e-08
-1.245675e-08 1.476584e-08 -7.664362e-09 -5.866829e-09 -4.629804e-09 7.349201e-09
-7.804615e-08 2.932880e-08 -2.786810e-08 1.427376e-07 6.790494e-08 -1.121361e-07
-1.564148e-08 9.541772e-08 -8.689029e-08 1.593235e-08 4.263836e-08 -5.100404e-08
-2.123230e-08 1.005143e-08 -1.233821e-08 7.430278e-09 -1.435284e-08 1.744667e-08
-1.072356e-08 1.707101e-08 -1.740500e-08 -2.492643e-09 -1.426320e-08 1.725596e-08
-1.916439e-07 1.267437e-07 -5.492376e-08 1.370269e-07 9.117078e-08 -1.542602e-07
-1.800545e-08 3.713756e-08 -2.936333e-08 7.751958e-09 -1.527113e-08 2.644837e-08
-1.240396e-08 1.780584e-08 -9.104648e-09 -4.784665e-09 -6.365733e-09 7.630334e-09
-1.660907e-08 5.077573e-09 -8.236968e-10 5.588602e-09 -7.241780e-09 7.302050e-09
-9.484140e-09 5.614930e-09 -8.637540e-09 9.426359e-09 -1.351333e-08 9.133938e-09
-4.590212e-09 2.867535e-09 2.906884e-10 2.988981e-09 9.749450e-10 -3.216707e-10
1.561051e-08 -4.402191e-08 1.877932e-09 -2.806590e-09 4.977695e-09 1.648879e-10
-7.038679e-09 7.648416e-10 1.379815e-09 -1.279583e-09 1.555449e-09 -9.058184e-10
-6.921971e-09 4.047231e-09 1.431426e-09 8.158651e-10 1.126737e-09 -1.252664e-09
-5.349559e-09 4.606517e-09 8.008767e-10 4.272203e-09 8.658627e-10 -5.635142e-10
-4.879037e-09 3.571490e-09 7.455996e-10 3.849195e-09 6.490413e-10 -6.206238e-10
1.194118e-08 -3.486576e-08 -3.095989e-09 -2.170596e-08 1.340239e-08 5.015437e-09
-6.788501e-09 2.493626e-09 1.474326e-09 3.036517e-10 1.113152e-09 -7.071116e-10
1.546149e-07 7.592604e-08 3.107449e-07 1.468207e-09 -3.085724e-07 3.821235e-07
-4.247539e-08 1.268060e-07 -1.357679e-07 -1.881296e-08 4.675182e-09 -3.983132e-08
6.789466e-08 -3.406333e-08 4.685626e-08 -6.634349e-09 -3.453556e-09 4.978961e-08
5.356714e-10 -1.752193e-08 2.332190e-09 -1.297964e-08 2.625345e-09 -3.290567e-10
5.664950e-09 -2.657368e-08 2.625665e-09 -1.382504e-08 3.418101e-09 -2.169447e-10
1.030643e-08 -3.503225e-08 4.740147e-09 -1.241150e-08 4.811763e-09 7.348902e-10
1.646870e-07 1.168405e-07 4.010901e-07 2.390287e-07 1.567760e-07 6.359069e-07
-5.539154e-07 -1.754638e-08 2.082568e-06 9.716927e-08 2.108040e-07 2.335506e-07
1.030909e-08 -3.494710e-08 2.958735e-09 -1.248981e-08 5.278386e-09 -2.427292e-10
-3.302297e-08 7.004272e-07 1.168491e-08 -1.095210e-07 -3.543904e-07 4.859083e-08
3.697907e-08 4.040869e-08 4.259947e-07 -3.643644e-08 -9.066822e-09 -3.134081e-07
1.516225e-07 -3.618287e-07 -2.499605e-07 -1.241922e-07 4.440850e-07 5.390117e-08
1.945305e-08 -4.133907e-09 -2.639093e-09 -1.109138e-08 -1.527448e-10 -5.903899e-10
1.546969e-08 -3.276319e-09 7.521184e-11 -1.169849e-08 1.764569e-09 -4.018144e-09
2.050880e-08 -3.473054e-08 -2.147031e-08 -2.302069e-08 -2.937882e-08 -8.812349e-09
-1.827412e-07 8.297556e-08 5.651229e-07 1.572242e-08 -2.671880e-07 -2.793003e-07
-1.091825e-08 1.325051e-08 -4.874274e-10 2.822618e-09 1.208150e-09 -1.153262e-09
1.780937e-08 -5.077915e-08 -4.217736e-09 -3.057340e-08 -3.730642e-08 -1.440519e-08
1.834250e-08 -4.758624e-08 -4.628583e-09 -3.223651e-08 -3.889742e-08 -1.294325e-08
1.483321e-08 -4.473600e-09 -1.966116e-09 -6.933355e-09 -1.177126e-09 1.587186e-10
-1.027553e-08 7.416298e-09 5.207550e-10 1.532104e-09 7.518736e-10 3.724223e-10
-1.506209e-08 8.701384e-09 -5.006520e-10 -4.476814e-09 1.392383e-09 1.395466e-09
1.251034e-08 1.271132e-09 -3.046527e-08 -1.937470e-08 -3.231987e-08 -1.025478e-08
-8.511871e-09 9.734232e-09 5.699674e-10 1.845986e-09 7.298053e-10 -5.070965e-10
-1.034596e-08 8.368338e-09 9.360055e-10 2.818435e-09 1.408114e-11 -1.156441e-09
3.026256e-08 -4.853827e-08 -3.060576e-08 -2.021449e-08 -5.286306e-08 -9.898958e-09
3.125140e-08 -2.490344e-07 -3.181763e-08 1.238889e-07 1.997175e-07 -5.991350e-08
2.999381e-08 -1.194176e-08 -4.725571e-08 -1.900384e-08 -4.736013e-08 -7.349079e-09
1.518522e-08 -1.582866e-08 -5.068500e-08 -2.309078e-08 -5.150329e-08 -1.411122e-08
3.107585e-08 -7.818039e-08 -1.970843e-08 -1.361776e-08 4.570776e-08 4.134812e-09
-9.865806e-09 -5.903974e-08 -1.224548e-08 -7.508126e-08 5.402009e-08 3.205737e-08
-1.922182e-08 4.114730e-08 3.088884e-08 -4.295186e-08 -2.511925e-08 1.370184e-08
-5.635030e-08 -7.873337e-08 8.784052e-07 -4.093696e-08 -1.557807e-07 5.022779e-07
-8.297072e-08 1.966122e-07 7.231097e-08 -4.553035e-08 -1.618656e-07 -1.232920e-08
-4.615164e-08 -2.861967e-08 1.666672e-07 -9.491840e-08 -1.140088e-07 1.072477e-07
-4.576616e-08 -4.625308e-08 2.787632e-07 5.580962e-08 2.850595e-08 3.405009e-07
2.514188e-08 -2.582422e-08 -3.007368e-08 -2.032035e-08 3.306989e-08 7.891745e-09
-1.085715e-07 1.070620e-07 -1.016474e-07 2.919708e-08 2.257859e-08 -1.002849e-07
-1.092903e-08 -1.481974e-08 1.869642e-08 -7.088470e-08 4.016810e-08 1.707040e-08
3.760504e-08 -2.355503e-08 -6.042060e-08 -1.491898e-08 5.675730e-08 8.975286e-09
-1.402273e-07 1.761939e-07 -1.200234e-07 4.198969e-08 9.357597e-09 -1.695428e-07
-4.645523e-08 7.656398e-08 -7.811041e-08 -2.054980e-09 3.568068e-08 -6.129116e-08
5.218483e-09 6.171007e-09 -5.528467e-08 -3.322095e-08 -5.325923e-08 -2.630672e-08
2.308722e-08 -2.220129e-08 -6.010889e-08 -3.197758e-08 -6.155042e-08 -1.671073e-08
1.652367e-09 -9.387188e-09 -2.320074e-08 -3.221712e-08 -3.774408e-08 -1.517352e-08
1.256256e-08 -6.204925e-09 -1.545262e-09 4.615344e-10 3.646991e-11 1.753147e-10
1.837234e-08 -2.405959e-08 -2.812993e-08 -2.976250e-08 -4.867246e-08 -1.362056e-08
6.986042e-09 -2.610025e-09 -6.654473e-10 6.079696e-09 9.356981e-11 -5.361551e-10
1.319371e-08 -6.136536e-09 -1.374574e-09 -3.185082e-09 -1.395661e-10 1.620324e-10
3.345431e-09 -5.849977e-10 -1.993712e-10 5.913107e-09 1.885485e-10 -3.116032e-10
1.679568e-08 3.975657e-09 -1.008882e-07 -3.154706e-08 -9.745791e-08 -1.946864e-08
3.578637e-08 -7.261411e-09 5.741852e-09 1.241808e-08 -1.539555e-09 -1.615373e-08
2.665705e-08 6.923142e-09 -6.775414e-08 -4.694841e-10 -6.101990e-08 1.172654e-08
1.962679e-08 4.797808e-08 -1.318223e-07 -1.136738e-08 -9.883659e-08 7.861777e-09
2.138962e-08 -8.135173e-09 3.051841e-09 5.334732e-09 -4.842793e-10 -5.128080e-09
-6.102020e-09 -3.327128e-08 1.407986e-09 4.002131e-08 -3.139882e-08 2.186810e-08
7.441763e-08 -1.953615e-07 -1.006210e-07 7.353334e-08 -1.950955e-07 5.196584e-08
-6.864853e-08 1.015379e-07 -1.010629e-07 -4.205618e-08 -1.798523e-08 4.752661e-10
2.104956e-08 -7.983596e-09 -1.229861e-11 5.233840e-09 1.156309e-10 -4.437771e-09
-8.248415e-09 1.581658e-07 -1.948323e-07 -4.044878e-08 -5.214774e-08 2.688160e-08
7.652862e-08 -6.236315e-08 -9.298098e-08 4.784765e-08 -1.601955e-07 4.314573e-08
2.888607e-08 -1.032380e-08 -2.755186e-09 -9.693863e-10 7.154498e-10 -8.865092e-09
-2.690042e-09 2.044793e-09 8.333230e-10 3.257336e-09 3.426783e-10 -1.340086e-09
-3.103819e-09 1.772840e-09 4.891447e-10 3.520437e-09 2.850540e-10 -3.798277e-10
-1.659972e-09 1.416149e-09 -7.754930e-11 3.816393e-09 3.915107e-10 -2.693155e-10
-4.286004e-09 2.402806e-09 6.083773e-10 2.914524e-09 4.364172e-10 -2.440381e-11
-3.580929e-09 2.063215e-09 7.151983e-10 3.287681e-09 4.458601e-10 -3.784282e-10
-8.751895e-09 2.471241e-09 1.501225e-09 -2.510738e-09 -8.582670e-10 7.575852e-11
-6.166861e-09 4.643352e-09 -5.079026e-11 -5.259914e-09 -8.429477e-10 7.748192e-11
-8.562716e-09 5.987680e-09 -1.354982e-09 -4.092865e-09 -2.305688e-09 8.826724e-10
-4.798720e-09 2.391447e-09 8.172845e-10 1.849613e-09 2.923879e-10 -1.632436e-10
-8.751903e-09 2.808157e-09 1.681912e-09 -1.919914e-09 -1.113171e-09 -4.835290e-10
-4.573469e-09 2.330425e-09 9.327894e-10 2.170021e-09 3.657128e-10 -3.075527e-10
-5.525157e-09 2.946882e-09 1.099489e-09 3.002283e-09 1.393343e-10 -2.856900e-10
-4.854850e-09 2.911922e-09 8.176952e-10 2.673806e-09 2.786316e-10 9.990673e-12
4.648311e-08 -3.578303e-08 -9.265744e-08 2.970426e-08 -1.518366e-07 4.732978e-08
1.879445e-08 -6.794688e-09 -5.062798e-10 5.557024e-09 1.427602e-10 -3.459688e-09
3.093735e-08 1.524482e-09 -7.263757e-08 -4.609946e-09 -6.311640e-08 3.412543e-09
-5.359245e-08 1.191615e-07 -5.523749e-08 4.986256e-08 3.825332e-08 -2.050762e-08
-3.388374e-09 2.107885e-09 4.586156e-10 2.796388e-09 2.720397e-10 -1.322759e-10
-5.912430e-08 6.430630e-09 -1.455727e-08 1.372514e-07 -5.168930e-08 1.066354e-07
1.009776e-09 7.257961e-09 -3.764158e-09 -1.492015e-08 6.169616e-10 1.783313e-09
1.756532e-08 8.757887e-10 1.811693e-08 -2.630295e-08 8.894940e-09 -1.589497e-08
-6.614488e-08 7.196717e-08 -3.557012e-08 -9.778092e-09 -1.431116e-09 5.436059e-08
-9.341078e-09 2.647286e-08 -1.047678e-08 -2.361007e-08 1.682492e-09 1.584145e-08
3.199811e-08 -5.259257e-08 -3.724262e-08 9.315103e-09 -5.802346e-08 1.063330e-08
-4.638306e-09 2.500779e-08 4.324613e-08 3.502298e-08 -2.651673e-08 -2.951678e-08
1.333766e-08 -2.389795e-08 -4.038972e-08 3.209233e-08 -7.367673e-08 3.165468e-08
7.051931e-08 -6.713866e-09 1.263800e-07 1.901779e-08 -1.423191e-08 -1.521109e-07
1.294573e-08 -5.550325e-08 -9.826818e-09 2.769748e-08 -3.604859e-08 1.374504e-08
3.315701e-08 -4.611907e-09 6.677881e-08 -1.178997e-08 9.121320e-09 -5.778117e-08
-6.773957e-08 1.133342e-07 3.340160e-08 1.976762e-08 -6.530133e-08 1.321252e-08
-5.630355e-09 3.453077e-09 2.916161e-10 -5.010187e-09 -1.750376e-09 5.025115e-10
-7.885327e-09 6.594788e-09 -2.085639e-09 -6.375227e-09 -1.748296e-09 1.033012e-09
1.682711e-09 -1.961986e-10 -5.669796e-10 -4.208895e-09 -1.878040e-10 9.378276e-11
3.773081e-08 -1.818130e-08 -1.037802e-07 -1.240920e-08 8.991414e-08 7.643323e-09
-1.484783e-07 1.761867e-07 1.479670e-07 4.283499e-08 -9.166544e-09 -8.301631e-08
-2.378203e-07 4.381291e-07 -6.337698e-07 1.945262e-07 1.721466e-07 -3.152624e-07
-2.110950e-07 2.890165e-07 -1.030060e-07 -1.085889e-08 9.410856e-09 -2.415155e-07
-2.352673e-08 5.112629e-08 -2.269652e-07 2.053981e-07 2.531366e-07 -2.164011e-07
-4.529869e-09 -9.445617e-09 -2.593406e-08 -3.161557e-08 -3.731524e-08 -1.965628e-08
3.650728e-08 -1.224161e-07 -1.287500e-08 -4.333612e-09 -7.392657e-08 3.593400e-09
9.846184e-09 -3.538330e-09 -1.315396e-09 -6.177401e-09 -7.498137e-10 -2.189516e-10
-7.405712e-09 3.729578e-09 7.566712e-10 -3.003986e-09 -5.284215e-10 -2.161040e-10
-1.597150e-07 1.979421e-08 2.841647e-07 -2.604689e-08 -1.305417e-07 8.122373e-08
-1.170161e-09 2.434057e-09 -3.155041e-10 -6.212067e-09 -4.779981e-10 2.014098e-10
-3.399536e-09 6.783041e-08 -1.513152e-07 2.708205e-08 1.523470e-07 -1.061662e-07
-7.552448e-11 1.283829e-09 -3.857934e-10 -5.002021e-09 -4.749277e-10 -1.140285e-10
-9.407228e-09 4.217956e-09 1.025077e-09 -2.155484e-09 -1.432542e-09 6.545269e-10
-4.793817e-09 3.499353e-09 4.493605e-10 -2.801928e-09 -6.277563e-10 -1.968570e-10
-7.046062e-10 1.189078e-09 -3.329839e-10 -4.757672e-09 -4.074150e-10 -2.983440e-10
-8.116637e-09 3.938046e-09 9.058791e-10 -2.211170e-09 -1.743145e-09 5.099131e-11
-4.651201e-09 3.292506e-09 4.596634e-10 -3.818893e-09 -6.931593e-10 -1.192513e-10
-5.624578e-09 3.519591e-09 -5.748184e-10 -5.047830e-09 -2.325084e-09 1.128663e-09
-6.995212e-09 4.387316e-09 3.037677e-10 -5.177349e-09 -9.740448e-10 4.221940e-10
-7.433647e-09 4.036366e-09 2.311695e-10 -3.102948e-09 -1.163666e-09 -3.696843e-11
-7.023740e-09 4.439111e-09 -2.294080e-10 -5.156167e-09 -1.287823e-09 -7.015832e-12
-8.184719e-09 3.394295e-09 1.300281e-09 -2.624076e-09 -1.189980e-09 -7.216934e-10
-6.228786e-09 3.732385e-09 5.977814e-10 -2.917319e-09 -2.567453e-10 -1.790474e-10
-6.585731e-09 4.093442e-09 5.379333e-10 -3.943566e-09 -8.644097e-10 -2.624730e-10
5.659200e-09 -2.986910e-08 2.290399e-09 1.430024e-08 3.085407e-09 -7.101739e-10
7.722288e-09 -3.002739e-08 4.987012e-09 -1.140081e-08 2.089539e-09 -6.188301e-10
7.123031e-09 -2.923429e-09 -1.203729e-09 5.083044e-09 4.147017e-10 -2.812601e-10
6.821733e-09 -2.598254e-09 -8.617702e-10 4.375818e-09 2.118064e-10 4.407508e-11
-2.987205e-09 -1.342938e-08 -1.358670e-08 2.657601e-08 1.513985e-08 -6.649048e-09
-1.885041e-09 -2.313624e-08 4.275359e-09 1.356270e-08 1.690670e-09 -1.120752e-09
8.236223e-09 -3.994513e-09 -1.002602e-09 4.161906e-09 5.672018e-11 -2.441172e-10
1.544611e-08 -5.132623e-08 5.774709e-09 9.920556e-09 6.626301e-09 -2.964392e-10
-1.830007e-08 1.759288e-08 -1.613965e-08 2.597677e-08 1.504809e-08 -1.491540e-08
1.149310e-08 -5.777215e-09 -1.153671e-09 4.938539e-09 2.638804e-10 -7.312284e-10
4.629383e-09 -2.876007e-08 2.586740e-09 1.936083e-08 5.437795e-09 -2.215341e-09
1.392132e-08 -4.060768e-08 5.590172e-09 1.092167e-08 3.800146e-09 -1.183301e-09
8.833770e-09 -3.343310e-08 2.333876e-09 1.168840e-08 3.681724e-09 -1.352025e-10
2.056760e-08 -8.266166e-08 -7.869428e-09 2.965384e-08 -5.024979e-08 1.197326e-08
1.127064e-08 -4.761175e-08 -4.312121e-09 2.878119e-08 -2.567946e-08 1.061765e-08
2.647167e-08 -1.438587e-08 -4.314708e-08 8.178043e-09 -4.099596e-08 1.228717e-08
8.769120e-09 -3.103378e-09 -7.768639e-10 6.787093e-09 2.328931e-10 -7.024246e-10
6.184046e-09 -2.602561e-08 -1.565761e-08 1.980227e-08 -1.955518e-08 1.102415e-08
8.679517e-08 2.633952e-08 1.351589e-09 -2.793985e-08 -2.734627e-08 7.205709e-08
-3.135009e-08 5.879098e-08 -1.695237e-08 -3.161671e-08 2.573501e-09 -1.328547e-08
6.655222e-08 -5.539962e-09 8.993702e-08 -5.355597e-08 -3.339660e-08 9.149071e-08
3.861597e-09 -3.176654e-08 -7.519768e-10 2.406624e-08 -1.841148e-08 1.068308e-08
-2.217082e-08 4.729723e-08 2.644726e-09 -3.194422e-08 -1.779530e-08 -7.182670e-09
1.752016e-08 -1.260326e-08 8.878212e-08 -7.309346e-08 -3.634679e-08 8.270786e-08
6.597790e-09 -1.784011e-08 -9.048350e-09 1.323094e-08 -1.218882e-08 4.186986e-09
4.753698e-09 -1.512536e-09 -9.834733e-10 -6.796966e-09 -9.706181e-10 1.020943e-10
8.318344e-09 -3.882290e-08 2.264694e-09 2.020862e-08 -1.705681e-08 6.785349e-09
1.987272e-09 -1.785120e-08 3.826496e-09 -9.197984e-09 8.343439e-10 4.458193e-11
1.524471e-09 -1.252472e-08 -1.990823e-08 -3.134922e-08 -3.197383e-08 -1.552074e-08
1.865820e-08 -4.695763e-08 -5.111578e-09 -3.226097e-08 -5.455711e-08 -1.620676e-08
1.853170e-08 -6.433866e-08 -5.430248e-09 -3.430316e-08 -4.389998e-08 -1.411486e-08
2.619528e-09 -3.595043e-08 -1.211596e-09 -3.626475e-08 -3.043080e-08 -1.330547e-08
-7.882728e-09 2.689930e-09 -3.936535e-08 -4.190216e-08 3.479021e-08 2.513994e-08
4.184302e-09 -2.721843e-08 3.593799e-09 -1.598011e-08 4.384391e-09 -2.032495e-10
-1.121640e-09 -3.789576e-08 -1.840370e-08 -5.378210e-08 -5.500122e-08 -2.549192e-08
-1.550090e-09 -1.795672e-08 3.139486e-09 -1.434568e-08 3.267810e-09 -4.405385e-10
3.672078e-09 -3.643628e-08 -9.356604e-10 -3.197130e-08 -2.707297e-08 -1.499350e-08
-6.549314e-09 -4.291351e-09 -6.550776e-09 -1.695541e-08 -1.227391e-08 -4.010296e-09
7.688162e-09 -3.168773e-08 -5.426977e-09 -3.433891e-08 2.521665e-08 1.135386e-08
1.348106e-08 -4.643453e-09 4.949913e-09 1.257649e-08 -1.340887e-09 -7.357776e-09
2.047324e-08 -5.197007e-09 4.180876e-10 9.554333e-09 -6.407318e-10 -5.583156e-09
2.274202e-08 -8.327221e-09 2.945806e-09 5.200943e-09 9.981838e-12 -6.082058e-09
-2.885809e-08 2.542086e-08 -6.856501e-09 2.367191e-08 8.689594e-09 -2.077221e-08
1.297264e-08 5.531199e-09 -4.790513e-08 -3.385373e-08 -6.744184e-08 -3.036868e-08
-4.395077e-08 4.664362e-08 8.385040e-09 2.931499e-08 1.885276e-08 -4.511417e-08
1.419276e-08 2.544076e-08 -5.239292e-09 3.332816e-08 5.429477e-09 -2.182421e-09
9.598849e-09 4.366319e-08 -2.764156e-09 2.885349e-08 2.151938e-08 6.017149e-10
-1.151456e-08 2.959651e-08 -1.759873e-08 -2.256904e-09 -1.484095e-08 -1.488630e-08
-1.623120e-08 3.559328e-08 -1.304758e-08 -6.080077e-10 1.010251e-08 -1.568189e-08
-1.560414e-09 2.546996e-08 -3.215569e-09 3.500472e-08 6.325266e-09 -1.963543e-09
3.480351e-09 -1.251134e-09 -3.748059e-08 -2.227915e-08 -3.780646e-08 -1.607828e-08
-4.518777e-09 -2.506588e-09 -5.078051e-08 -2.224389e-08 -5.143473e-08 -2.411166e-08
-2.263558e-08 5.659570e-08 -9.563718e-09 -7.428833e-09 9.672818e-09 -1.537801e-08
-4.539189e-09 3.641124e-09 4.390963e-10 -3.141204e-09 -1.355900e-10 -1.182421e-11
-2.014262e-08 4.867872e-08 -5.188828e-08 1.251037e-08 2.847799e-08 -2.701037e-08
-2.613623e-08 1.929000e-08 -3.535384e-08 2.590356e-08 2.879389e-08 -2.850323e-08
1.153699e-08 -2.245742e-08 -2.324550e-08 1.497461e-08 -2.048566e-08 9.244919e-09
-4.390965e-09 3.377680e-09 3.051115e-11 -6.238972e-09 -6.284790e-10 1.194564e-11
4.186487e-09 -2.133418e-08 -7.217060e-10 2.602942e-08 -1.948767e-08 1.042059e-08
-6.717249e-09 3.665633e-09 6.754532e-10 -3.444397e-09 -1.061236e-09 -3.620361e-11
-7.735962e-09 -5.299615e-09 1.570508e-10 4.698175e-09 -4.828241e-09 1.168844e-09
-1.254771e-09 1.524034e-09 -2.630207e-10 -3.927684e-09 -2.979121e-10 4.633615e-10
-1.804369e-09 2.395551e-09 -8.692068e-10 -6.942719e-09 -1.239724e-09 3.157305e-10
-2.520310e-09 -2.143697e-08 -1.235531e-09 2.519539e-08 -1.973872e-08 8.306254e-09
1.472328e-08 -3.346432e-08 -7.245012e-09 2.377371e-08 -1.651427e-08 1.014315e-08
6.261568e-09 -1.721214e-08 -1.554824e-08 2.286973e-08 -2.395791e-08 1.123456e-08
-3.763040e-11 -4.360746e-08 -6.941548e-09 3.695831e-08 -3.149935e-08 1.577256e-08
8.253006e-09 -4.731963e-08 -2.975118e-09 2.825949e-08 -2.501818e-08 1.023146e-08
1.248574e-08 -4.061817e-08 1.755945e-10 1.780101e-08 -1.912360e-08 5.478850e-09
-7.397428e-09 -6.759775e-10 2.209121e-09 -2.177532e-09 1.271716e-11 -7.114487e-10
-7.304346e-09 -6.191243e-10 1.954027e-09 -2.200976e-09 -8.154078e-11 -8.557230e-10
1.513556e-09 3.637166e-09 -2.154286e-10 8.557349e-09 2.257775e-10 -2.427254e-09
-6.850569e-09 2.797560e-09 1.283272e-09 1.253703e-09 4.035749e-11 -2.016891e-10
-6.624831e-09 -3.849206e-09 2.631620e-09 -3.872271e-09 1.183880e-10 -6.761653e-10
-6.301728e-09 -2.321326e-09 2.539899e-09 -2.767608e-09 7.460035e-10 -6.301057e-10
-7.166354e-09 -4.960645e-10 2.339738e-09 -2.344406e-09 1.593018e-10 -1.186434e-09
-6.710888e-09 -1.013677e-10 2.657866e-09 -2.791475e-09 -2.123376e-10 -8.057238e-10
-9.780911e-09 7.438346e-09 4.000851e-10 -1.329798e-09 1.822228e-09 4.797530e-10
1.360166e-08 -6.276758e-09 -1.475443e-09 1.780681e-09 2.108104e-10 3.160989e-11
7.342312e-09 -2.376440e-08 -3.840418e-08 -4.099023e-08 3.751353e-08 2.178929e-08
-1.394997e-08 1.006191e-08 -1.228388e-09 -6.095848e-09 2.188174e-09 1.434326e-09
-1.049425e-08 1.118260e-08 2.964908e-10 5.516019e-09 -9.061553e-11 6.951596e-11
-1.161625e-08 8.835840e-09 1.284086e-09 1.341658e-10 3.098903e-10 -1.165999e-09
-1.502022e-08 1.288168e-08 6.660223e-10 -4.154549e-10 -8.286885e-10 -5.334951e-10
1.409399e-08 -5.767737e-09 -1.273723e-09 -5.421875e-09 -2.743714e-10 5.648664e-10
1.612959e-08 -7.180053e-09 -8.125500e-10 -2.516113e-09 -2.536415e-11 -7.717181e-10
-1.038423e-08 1.298861e-08 1.453071e-09 8.564939e-09 -1.162128e-09 -1.592160e-09
8.968727e-08 -2.108369e-07 -9.332286e-08 -1.116202e-08 -2.127565e-07 1.875772e-09
1.288929e-08 1.748163e-08 -7.252746e-08 -1.892398e-08 -6.418643e-08 -1.750299e-08
1.622706e-08 -5.309305e-08 -8.040805e-09 -3.305962e-08 -3.411378e-08 -1.017862e-08
1.497119e-08 -5.624219e-10 -4.103747e-08 -2.051220e-08 -3.935373e-08 -1.194050e-08
-1.052555e-08 8.287670e-09 1.264938e-09 -5.699266e-10 2.098820e-10 -4.479508e-10
-2.066580e-08 3.258421e-08 -6.941360e-09 -2.912204e-08 2.744028e-09 -1.258033e-08
-1.687381e-08 9.892781e-09 2.941185e-10 -3.920214e-09 2.025591e-09 1.851905e-09
3.721377e-08 -1.142397e-07 -2.518520e-08 7.354729e-08 9.968843e-08 -2.931141e-08
-4.104954e-08 1.667314e-08 -7.136712e-09 4.098476e-08 2.369605e-08 -2.892572e-08
2.592902e-08 1.505045e-08 6.530655e-09 -3.605059e-08 -1.296779e-08 1.520461e-08
-1.394956e-08 2.073545e-08 -1.594669e-10 1.736569e-09 9.355905e-10 -8.471199e-10
-2.660284e-08 6.158721e-08 -6.624077e-08 3.228413e-08 3.304336e-08 -4.639916e-08
-2.137350e-08 1.875349e-08 -5.418811e-09 -8.980418e-09 6.413290e-09 7.018960e-09
-9.964549e-09 1.270810e-08 -8.595581e-10 1.209261e-09 2.156874e-09 -5.490690e-11
-1.542603e-08 1.710949e-08 6.254635e-10 6.412184e-09 -1.316666e-09 5.532539e-10
-1.297841e-08 -6.376160e-08 -1.075967e-08 6.815135e-08 5.821177e-08 -2.380064e-08
-1.588249e-08 1.944723e-08 7.751475e-10 8.551034e-09 -3.786353e-11 5.713096e-10
-9.825956e-09 2.392735e-08 6.239260e-09 1.569809e-08 -8.266680e-09 -7.344242e-09
1.103900e-08 -4.776943e-09 -1.084532e-09 -8.133375e-09 1.657412e-10 -3.825577e-10
-1.887524e-08 2.182906e-08 -5.393944e-09 7.024736e-09 3.151839e-09 2.069936e-09
6.925537e-09 -2.660536e-09 -1.098019e-09 -5.744504e-09 -3.562937e-10 2.115532e-10
-9.692206e-09 1.727273e-08 -1.559438e-09 7.337817e-09 -8.840028e-10 -1.957498e-10
1.249616e-08 -6.136536e-09 -1.422400e-09 -3.067056e-09 -3.090184e-11 -1.850540e-10
2.164915e-08 -8.810325e-09 5.556727e-09 6.977064e-09 -4.866803e-10 -7.649707e-09
-6.344401e-07 6.634349e-07 2.332654e-06 7.930356e-08 1.288498e-06 3.588623e-07
9.802489e-09 -3.520635e-09 -1.837295e-09 -7.157545e-09 -4.652923e-10 8.177974e-10
3.728550e-09 -6.146367e-10 -5.013394e-10 4.796231e-09 3.252177e-11 4.446721e-11
5.704279e-09 3.340934e-10 -7.215029e-11 9.801542e-09 1.518396e-10 -9.066405e-10
-5.330484e-08 3.753478e-08 6.363796e-07 5.742834e-08 -3.495584e-08 5.687022e-07
-7.769089e-08 1.257271e-07 1.000954e-07 -1.907806e-07 -2.004722e-07 1.357092e-07
2.512955e-09 -4.865692e-10 -5.399849e-10 4.418972e-09 5.748342e-10 -1.710736e-10
-4.271650e-08 6.274480e-08 1.658126e-07 -7.541850e-08 -1.218730e-07 1.066242e-07
5.272378e-09 1.203562e-07 -5.303510e-08 -1.529314e-07 -2.347452e-07 1.167068e-07
1.349084e-08 -3.963660e-09 -1.976185e-09 7.894579e-09 5.168393e-10 -1.854083e-09
-7.698386e-08 -3.638223e-08 4.329244e-07 3.951143e-08 1.278857e-07 2.324932e-07
3.462463e-09 -3.101691e-10 -1.163869e-11 7.449470e-09 1.926736e-10 -7.394775e-10
-5.284506e-07 1.251426e-06 1.669782e-06 3.275511e-07 -1.548623e-06 6.618415e-08
-2.074160e-09 4.508218e-09 -2.333969e-10 5.923827e-09 6.626599e-10 -8.627843e-10
-1.027076e-07 1.270862e-07 3.165017e-07 -4.349503e-08 -2.604340e-07 -6.038969e-08
-1.136408e-09 3.353702e-09 -4.416978e-10 6.716148e-09 1.172330e-09 3.491264e-10
-1.994676e-09 2.317844e-09 3.958209e-10 4.383825e-09 7.793067e-10 -8.800911e-10
-9.574843e-09 4.320322e-09 1.056375e-09 -3.615859e-10 5.242669e-10 -8.529828e-10
7.472220e-08 4.340447e-07 -6.279778e-07 -1.823876e-07 3.003923e-07 -4.109537e-08
-5.072396e-10 1.357108e-09 2.760339e-10 5.407314e-09 1.773362e-10 -9.703768e-10
-2.338036e-09 3.885818e-09 -3.786655e-10 6.521350e-09 1.298492e-09 -1.294892e-09
3.738593e-09 3.340936e-10 7.439596e-10 9.270515e-09 3.583332e-11 -1.739617e-09
-1.857366e-09 3.981985e-09 8.391243e-11 6.442406e-09 3.162191e-10 -2.206755e-10
-3.234447e-09 2.273328e-09 8.117589e-10 4.463168e-09 3.364406e-10 -1.048532e-09
-8.188069e-09 3.689025e-09 1.719421e-09 -2.762953e-09 1.343479e-09 -1.224175e-09
-3.476183e-09 2.403194e-09 5.477347e-10 4.607416e-09 2.527944e-10 -7.839733e-10
1.176881e-10 8.841207e-10 3.456679e-11 6.133561e-09 1.718252e-10 -8.317185e-10
-1.406967e-08 -3.305490e-08 -5.788552e-09 6.146499e-08 -4.125330e-08 4.525962e-08
2.653323e-08 -7.752486e-08 -2.806083e-08 6.136454e-08 -1.018671e-07 4.495222e-08
1.148032e-08 -5.593866e-09 -1.593241e-09 3.299955e-09 7.748621e-11 1.536746e-10
7.966790e-09 -4.256942e-09 -1.045933e-09 3.020811e-09 3.193840e-10 3.721890e-11
-2.004864e-10 -3.343880e-08 -7.270630e-10 3.815292e-08 2.077358e-08 -9.152327e-09
-1.111557e-08 -1.412124e-08 -6.341509e-09 3.430201e-08 1.838776e-08 -1.019540e-08
-2.455609e-08 3.672345e-09 -2.515920e-09 2.034753e-08 -1.859188e-08 2.197465e-08
-2.246185e-08 5.832082e-08 -8.839685e-08 2.190493e-08 -4.958192e-08 7.214625e-08
-1.520817e-08 -1.462246e-08 7.289050e-10 4.047144e-08 2.001707e-08 -1.083192e-08
1.154864e-08 -1.412576e-08 7.215793e-08 -8.921804e-11 2.158524e-09 -4.528089e-08
1.227056e-08 -6.927234e-09 4.848326e-08 8.811343e-09 -1.328954e-09 -6.524151e-08
-4.487215e-08 5.126355e-08 9.837691e-09 -3.066825e-09 -1.804426e-08 1.509332e-08
2.046665e-08 -8.158711e-09 3.509953e-08 -1.740652e-08 1.143895e-08 -3.051278e-08
-2.789188e-08 1.270217e-07 6.698025e-08 -8.874140e-09 -7.718374e-08 -5.258421e-08
1.523271e-08 1.808208e-09 -4.503706e-08 -2.709749e-08 4.004941e-08 1.706986e-08
-2.137193e-08 2.120525e-08 -8.066909e-09 -3.322211e-08 1.513171e-08 2.490713e-08
-4.086340e-10 -1.932418e-08 -7.531054e-09 2.898543e-08 1.475848e-08 -5.269223e-09
-1.134286e-08 -4.198915e-09 -1.275074e-08 3.207893e-08 1.736506e-08 -1.172509e-08
-7.770348e-08 8.653205e-08 6.784085e-09 -8.599755e-09 -1.939862e-08 2.457763e-08
-9.525362e-09 -7.647160e-09 -3.767953e-08 -1.939379e-07 8.329418e-08 1.140443e-07
4.281212e-10 -2.397306e-08 -3.465086e-09 2.223733e-08 9.096547e-09 -3.619319e-09
-3.413048e-08 6.750731e-08 -4.666952e-08 1.010970e-08 1.054360e-08 5.137076e-08
-4.817337e-08 6.808861e-08 1.541642e-08 -3.757086e-09 -2.555380e-09 -2.572247e-08
1.411845e-08 -7.207773e-09 -1.331829e-09 -4.322260e-10 1.484943e-10 -6.979215e-11
-1.795601e-08 1.015938e-07 -2.099071e-08 -3.716164e-08 -3.315403e-08 2.851040e-08
6.934095e-09 9.494094e-08 -4.177939e-08 -8.317051e-08 -6.506896e-08 2.085358e-08
-2.749380e-08 9.512735e-08 -4.720137e-08 -3.462267e-09 2.088284e-08 4.591296e-08
7.795963e-08 -2.126289e-08 1.375862e-08 1.341106e-08 4.703265e-09 4.006711e-08
-4.048176e-09 9.607734e-08 -1.930423e-07 9.330728e-09 1.018444e-07 4.298450e-08
-8.225974e-09 9.541772e-08 -1.627767e-07 5.794118e-08 8.350548e-08 -8.640029e-08
-6.483761e-08 1.025387e-07 -4.122885e-08 -4.954146e-09 -9.855153e-09 -6.744597e-08
1.651401e-09 2.109625e-07 1.679446e-08 1.154206e-07 -4.336070e-07 -2.953873e-07
-3.433934e-08 -6.802323e-08 -1.795635e-08 1.547146e-07 1.558078e-07 -1.411055e-07
-2.851084e-08 6.926791e-08 -2.303716e-08 -1.103296e-08 6.913045e-09 2.914205e-08
-2.365437e-08 9.026545e-08 -9.977871e-08 -6.655247e-08 5.175859e-08 1.030111e-07
-1.823817e-08 5.211260e-08 -3.867056e-08 1.593023e-08 1.931983e-08 -2.906268e-08
4.785342e-08 -3.718219e-08 7.442256e-08 1.374013e-08 1.210664e-08 4.859642e-08
-3.931978e-08 3.559010e-08 -3.092154e-08 3.306238e-08 4.093070e-08 -4.728164e-08
-6.631340e-08 1.893840e-07 -4.816109e-08 -5.417191e-08 -9.360752e-08 -2.789238e-08
-7.210624e-08 2.390631e-07 3.965285e-08 -3.196364e-08 -1.688569e-07 2.645608e-08
2.561017e-08 -6.610669e-09 -1.644113e-09 -1.238261e-08 3.224624e-09 -5.488707e-09
2.102315e-08 -8.045839e-09 5.307443e-10 -1.196223e-08 3.158345e-09 -6.772125e-09
2.199730e-08 -1.174056e-08 1.043322e-08 3.268897e-09 1.189829e-09 -1.238010e-08
3.338894e-08 -1.225218e-08 1.591681e-08 4.371820e-09 -2.627065e-10 -2.074694e-08
1.422610e-08 3.978617e-09 6.591116e-09 -3.083811e-08 1.790531e-09 6.480699e-09
7.929600e-09 3.938006e-09 4.381618e-08 -4.070725e-08 -1.257111e-08 3.041276e-08
2.822485e-08 -1.103830e-08 1.116308e-09 -2.062295e-09 2.795049e-09 -9.464439e-09
9.994787e-09 -4.803184e-09 -1.195392e-09 5.085497e-09 1.714695e-10 -1.488378e-10
1.844850e-08 3.942927e-09 -3.972348e-09 -1.552754e-08 6.111569e-10 -4.636854e-09
2.955841e-09 -6.441407e-10 -5.824718e-10 4.656117e-09 4.018432e-10 4.790557e-11
4.781104e-08 -1.482662e-08 4.911323e-08 5.284103e-09 -2.875214e-10 -5.900909e-08
-3.105549e-08 4.104793e-08 -1.220110e-08 2.026888e-08 4.254063e-09 -2.752033e-08
-3.120083e-08 3.839329e-08 -9.577212e-08 8.890565e-08 1.021912e-07 -8.029830e-08
-3.243107e-08 4.106714e-08 -2.097415e-08 -1.343308e-09 1.356283e-08 -2.463225e-08
1.555011e-07 -2.005446e-08 3.475634e-08 -2.223012e-08 -7.164094e-10 1.271158e-07
-2.521424e-08 2.126517e-09 -5.046477e-09 2.750284e-08 1.595092e-08 -1.290267e-08
-6.449341e-09 2.969229e-09 1.009295e-09 9.556533e-10 3.173262e-11 -5.391776e-11
-6.542649e-09 1.694242e-09 1.385760e-09 6.269220e-10 5.226419e-11 -5.050449e-10
2.619455e-08 3.238086e-08 -3.776099e-09 4.587718e-08 1.066582e-08 4.567094e-09
1.443470e-08 1.159122e-08 4.118051e-08 6.714404e-08 8.551668e-08 6.786406e-08
4.699073e-09 -1.642018e-09 -5.812821e-10 3.448534e-09 -6.403323e-12 -1.852130e-10
1.847726e-07 -1.018529e-08 -3.994020e-09 -1.152315e-07 -9.175807e-08 2.732895e-07
5.271336e-09 1.203114e-07 6.459264e-08 -1.529401e-07 -2.393766e-07 1.164292e-07
-7.212743e-09 3.393090e-10 2.141467e-09 1.286575e-10 -6.146639e-12 -3.432956e-10
2.197335e-08 -1.006706e-08 6.721084e-08 -6.516246e-08 -3.792230e-08 9.920175e-08
-6.482338e-09 2.479407e-09 9.809380e-10 1.212547e-09 3.568490e-10 -9.502511e-10
-6.630970e-09 -4.293632e-11 2.361193e-09 -8.336070e-10 4.555138e-10 -9.567366e-10
1.967406e-08 4.348337e-08 1.576775e-07 1.116685e-07 2.176362e-07 2.132700e-07
5.176384e-08 4.056731e-08 -1.921142e-08 3.562367e-08 1.531633e-08 3.793529e-08
2.570169e-08 -3.403365e-09 2.532999e-08 4.487022e-08 1.484253e-08 2.910169e-08
-6.154037e-09 -4.988199e-09 9.152457e-12 -1.820890e-08 5.517936e-09 1.749809e-09
-1.226306e-08 -2.309704e-09 -4.106760e-09 -1.557714e-08 6.661044e-09 2.955653e-09
-9.587361e-09 2.319490e-09 -8.501501e-09 -2.312146e-08 1.021694e-08 7.611996e-09
-6.878910e-09 2.213531e-09 1.547335e-09 9.491843e-10 3.753082e-10 -5.796038e-10
-7.011352e-09 -5.170619e-11 2.626482e-09 -1.038811e-09 -2.111045e-11 -3.045679e-10
-6.741697e-09 1.909747e-09 1.522398e-09 5.416363e-10 2.869696e-10 -4.028597e-10
-9.468162e-09 1.370612e-09 -7.475612e-09 -2.237881e-08 5.627687e-09 7.170766e-09
-1.491847e-07 -3.903106e-08 4.966061e-07 -1.105688e-08 9.973682e-08 -5.373076e-08
1.739331e-07 1.665038e-07 4.078355e-07 2.173385e-07 3.742442e-07 5.555750e-07
-4.091514e-08 1.085760e-07 -1.383811e-07 8.780118e-08 1.607353e-07 7.928573e-08
-2.913174e-07 1.224827e-07 9.030122e-07 1.341498e-07 3.651657e-07 2.249342e-07
-2.401522e-07 5.662936e-08 3.959691e-07 6.059586e-08 2.263479e-07 1.818267e-08
-1.723954e-07 1.935781e-08 2.522447e-07 2.050250e-08 1.188312e-07 2.189348e-08
1.428308e-08 -4.384927e-08 3.209964e-09 6.825168e-09 4.613211e-09 -3.961716e-10
-1.749015e-09 -2.194434e-08 6.283973e-09 1.168245e-08 1.081621e-09 2.367967e-10
1.556283e-08 -4.229389e-08 3.795697e-09 4.953730e-09 4.259862e-09 -1.641924e-10
1.408317e-08 -4.006431e-08 2.979844e-09 1.025254e-08 5.220834e-09 -8.863556e-10
1.998126e-08 -5.065514e-08 4.833695e-09 6.736721e-09 8.617856e-09 -1.798942e-10
7.647044e-09 -3.578380e-08 5.511160e-09 1.607592e-08 5.563266e-09 -7.766852e-10
1.287396e-08 -3.972434e-08 4.432125e-09 8.726245e-09 2.707069e-09 -3.777607e-10
1.759284e-08 -4.339086e-08 3.059649e-09 5.058147e-09 5.178542e-09 -5.123508e-10
1.653018e-08 -3.745889e-08 -1.480559e-09 1.431344e-08 7.189677e-09 -1.651684e-09
9.146056e-09 -3.627230e-08 5.878195e-09 1.173703e-08 2.467902e-09 2.369522e-10
2.559768e-09 -4.933741e-08 3.564149e-09 3.591929e-08 1.602699e-08 -5.630183e-09
1.798415e-08 -4.773519e-08 6.796452e-11 5.764094e-09 8.254547e-09 5.210781e-11
-6.516073e-10 -2.386042e-08 2.246642e-09 1.826494e-08 4.625017e-09 -2.440097e-09
2.229473e-09 -2.621099e-08 2.084194e-09 1.751390e-08 5.271333e-09 -7.093778e-10
7.983957e-09 -1.884943e-09 -9.393402e-10 6.905058e-09 6.876374e-10 -4.635726e-10
-7.473580e-09 8.053709e-10 2.371933e-09 -4.237737e-09 4.372296e-10 -5.926899e-10
-6.643451e-09 -1.857749e-09 2.098570e-09 -4.124874e-09 1.121630e-09 -4.930305e-10
-8.193447e-09 6.174746e-10 2.035897e-09 -3.879095e-09 5.511035e-10 -6.026619e-10
-8.719917e-09 -1.072210e-09 2.272361e-09 -4.989285e-09 1.013809e-09 -2.714651e-11
-5.529872e-09 2.381827e-09 1.110201e-09 1.776423e-09 4.006393e-10 -6.639492e-10
-6.488848e-09 1.975117e-09 1.517873e-09 8.030566e-10 4.135706e-10 -4.833322e-10
-7.098209e-09 1.411360e-09 1.649461e-09 -1.837681e-09 9.870085e-10 -7.680763e-10
-6.043773e-09 -3.399152e-09 3.119834e-09 -3.793009e-09 4.385428e-10 -8.390534e-10
-6.897642e-09 3.474376e-11 2.008236e-09 -8.276944e-10 5.037704e-11 -6.831377e-10
1.241138e-08 -3.718477e-08 2.698294e-09 -1.125087e-08 6.259562e-09 6.140188e-10
8.447630e-09 -3.366392e-08 5.069538e-09 -1.303048e-08 3.660037e-09 8.590067e-11
1.540831e-08 -4.016492e-08 2.501862e-09 -7.484191e-09 4.199248e-09 1.696808e-10
1.239904e-08 -3.434699e-08 2.422993e-09 -1.033528e-08 4.348529e-09 6.908076e-10
-7.454755e-09 2.458760e-09 1.734867e-09 -8.347587e-10 7.826202e-10 -9.772268e-10
-6.852775e-09 1.294503e-09 1.898900e-09 3.050051e-10 5.483211e-10 -7.813753e-10
-7.473834e-09 2.395987e-09 1.956744e-09 -7.787791e-10 8.328454e-11 -8.507012e-10
-6.852408e-09 1.835779e-09 1.559314e-09 6.214193e-10 2.125625e-10 -5.610563e-10
-7.092414e-09 1.849182e-09 1.679498e-09 6.827996e-10 1.351421e-10 -5.028034e-10
1.553534e-08 -4.576621e-08 3.131405e-09 -8.479340e-09 7.506193e-09 -1.284883e-10
1.969354e-08 -1.135385e-08 6.574856e-09 4.395696e-09 -6.431669e-11 -7.074476e-09
1.239409e-08 -3.862840e-08 5.614493e-09 -6.593696e-09 3.326110e-09 -2.540462e-10
1.116900e-08 -3.719376e-08 5.895896e-09 -9.122150e-09 1.904707e-09 -2.791748e-10
1.334413e-08 -5.122036e-09 8.351314e-09 1.340700e-08 -1.012816e-09 -1.030845e-08
-1.266866e-08 2.437612e-09 -6.330424e-09 6.915146e-09 -8.041269e-09 7.187360e-09
1.317090e-08 -8.381398e-09 3.013816e-08 1.319304e-08 -6.103240e-09 -2.597187e-08
-1.173212e-08 1.326582e-08 -5.713460e-09 -3.783634e-09 -3.878244e-09 4.879821e-09
-1.225678e-08 1.183652e-08 -5.376932e-09 -1.715390e-09 -4.057835e-09 6.070578e-09
2.145252e-08 -4.590652e-08 -7.113176e-09 9.041091e-09 1.362462e-08 -7.940747e-10
8.446169e-09 -2.813956e-08 1.087058e-09 -1.297466e-08 3.957956e-09 7.352016e-10
-1.096754e-08 6.131899e-09 -3.759351e-09 3.762296e-09 -6.910947e-09 5.212316e-09
-1.274732e-08 3.103800e-09 -3.773385e-09 6.763319e-09 -8.235257e-09 7.360307e-09
1.695074e-08 -4.066054e-08 5.062504e-10 -5.878531e-09 3.335096e-09 -3.615762e-10
8.682697e-09 -3.080567e-09 -9.979187e-10 6.722082e-09 3.640111e-10 -5.614877e-10
9.883149e-09 -3.112147e-09 -1.515597e-09 6.446709e-09 3.795240e-10 -7.725812e-10
7.326908e-09 -1.407540e-09 -8.045502e-10 8.010580e-09 5.581073e-10 -6.116490e-10
7.099911e-09 -2.610025e-09 -5.063372e-10 6.030897e-09 1.142729e-10 -7.478278e-10
1.618023e-08 -7.437524e-09 -8.918211e-10 2.209724e-10 1.094288e-10 -5.624496e-10
5.988698e-09 -1.375402e-09 -8.773769e-10 6.374090e-09 7.304588e-10 -1.995533e-10
5.023054e-09 -1.395794e-09 -6.913402e-10 6.213207e-09 3.310776e-10 -7.321965e-10
6.277823e-09 -1.396904e-09 -1.038289e-09 6.503032e-09 6.591894e-10 -5.503242e-11
6.009092e-09 -1.433812e-09 -7.843373e-10 6.376314e-09 1.795605e-10 -1.010167e-09
-6.739310e-09 2.293728e-09 1.577932e-09 1.137171e-09 2.640250e-10 -3.143327e-10
2.218751e-08 -8.008852e-08 -2.549476e-09 -3.197575e-08 3.796133e-08 9.634626e-09
-6.695501e-09 1.651353e-09 1.620154e-09 3.250502e-10 6.773548e-11 -2.695626e-10
-7.340036e-09 2.566773e-10 2.316589e-09 -1.250803e-09 -3.438250e-12 -7.007699e-10
-6.738970e-09 2.571004e-09 1.156969e-09 1.203570e-09 3.185230e-10 -2.193241e-10
-7.107513e-09 -6.723520e-10 2.067356e-09 -2.137945e-09 1.867384e-11 -4.994773e-10
-6.339478e-09 2.778513e-09 1.085689e-09 1.678012e-09 5.352670e-10 -9.081129e-10
-5.194509e-09 2.415717e-09 1.088799e-09 2.530772e-09 6.746999e-10 -4.850892e-10
-1.253315e-09 2.320848e-09 3.185494e-10 5.287274e-09 5.679661e-10 -8.021395e-10
-7.212743e-09 1.407569e-09 1.861437e-09 1.060569e-10 4.385674e-10 -3.676190e-10
-5.882431e-09 2.330834e-09 1.115893e-09 1.976347e-09 3.541007e-10 -4.060137e-10
-6.934012e-09 5.067555e-10 1.990631e-09 -8.902814e-11 5.177814e-11 -4.456053e-10
1.856701e-08 -4.306717e-08 1.852520e-09 -1.115833e-09 5.040936e-09 3.102929e-10
1.581975e-08 -4.590155e-08 3.744116e-09 2.185017e-09 4.474096e-09 -1.625302e-10
1.581975e-08 -4.590391e-08 6.322295e-09 2.185091e-09 4.265504e-09 -1.506266e-10
-7.510329e-08 8.602142e-08 3.380223e-08 2.053671e-08 -3.988661e-08 4.463186e-09
-5.623479e-08 -1.748520e-08 3.270391e-07 4.066734e-08 -6.392349e-08 -1.011212e-07
-1.390863e-08 4.756674e-09 1.159339e-07 2.812884e-08 -4.639164e-08 -5.957507e-08
1.752874e-08 -4.314246e-08 3.066844e-09 5.286788e-09 4.696015e-09 -4.511533e-10
-4.591793e-08 1.739391e-07 9.393524e-08 9.218310e-08 -1.106564e-07 -5.156697e-08
1.805502e-08 -4.360082e-08 8.550125e-10 -7.145152e-10 3.668189e-09 -1.742138e-10
-3.900179e-10 -1.892417e-08 4.587925e-09 -1.195064e-08 1.344615e-09 4.406889e-12
-4.237322e-09 7.482902e-09 2.291554e-10 8.364740e-09 5.243625e-10 -9.469816e-10
2.793455e-09 4.848709e-09 -5.328504e-10 1.216324e-08 -4.576055e-11 -1.030235e-09
3.425136e-10 7.704832e-10 -7.832157e-11 4.066385e-09 1.260585e-10 -5.382389e-10
-4.380687e-09 -9.884610e-09 2.415904e-09 -1.097165e-08 5.700664e-10 -7.398205e-10
8.464341e-09 -2.887460e-09 -3.748717e-10 7.498572e-09 7.893729e-11 -1.152059e-09
-1.979525e-09 2.601776e-09 4.052962e-10 4.984773e-09 7.882405e-11 -5.321628e-10
-2.963692e-10 7.704823e-10 -1.129843e-10 4.044719e-09 1.465055e-10 -2.184006e-10
-3.840076e-09 -7.899229e-09 2.524010e-09 -9.268262e-09 1.840568e-09 -4.554536e-10
-1.923265e-09 -1.331676e-08 2.947339e-09 -9.477324e-09 1.855928e-09 4.527722e-10
1.504157e-07 2.562230e-07 -6.330480e-07 -2.999044e-08 1.993405e-07 -2.252617e-07
1.049173e-07 -2.115323e-07 -4.453715e-07 -2.487322e-07 5.459195e-07 8.520673e-08
-5.869061e-10 -1.454500e-08 3.716338e-09 -8.079593e-09 1.338698e-09 -6.581435e-10
-1.231946e-07 2.056763e-07 -3.804722e-07 -5.245001e-07 1.915355e-07 5.953840e-08
-7.471935e-09 1.162052e-09 1.830278e-09 -8.297674e-10 3.723477e-10 -2.679865e-10
-8.425482e-09 1.495023e-10 2.045575e-09 -3.368135e-09 4.260725e-10 -8.640997e-10
-8.125449e-09 2.194963e-09 1.517781e-09 -3.495669e-09 1.504115e-09 -3.244387e-10
5.662871e-08 -6.236869e-08 -9.224670e-08 -4.829395e-08 2.253725e-07 5.280854e-08
2.505986e-07 1.019372e-07 -4.605003e-07 -1.031663e-07 1.458114e-07 -9.008844e-08
-7.333394e-09 1.002421e-09 1.846697e-09 -2.175588e-09 9.529200e-10 -5.415985e-10
-2.419781e-08 -7.106075e-08 -1.955616e-07 2.355502e-07 2.363283e-07 -2.273609e-07
2.487364e-08 -9.337551e-09 3.574724e-09 -8.353956e-09 2.215795e-09 -9.398694e-09
-1.721850e-08 1.367715e-07 -1.456356e-07 4.704972e-09 -1.777433e-08 1.659637e-08
-3.514781e-07 4.794760e-07 -5.829637e-07 -2.657381e-07 -1.668751e-07 1.799781e-07
-1.254059e-08 1.378311e-08 1.770822e-09 2.722569e-09 -9.317129e-10 -8.725019e-10
-1.005115e-08 -6.632470e-09 1.493121e-10 -1.527812e-08 5.004973e-09 2.033028e-09
-7.534219e-09 -1.485274e-08 1.458726e-09 -2.618455e-08 8.680422e-09 5.684776e-09
-1.998226e-08 1.934465e-08 -5.566273e-09 -9.907426e-09 6.221872e-09 7.433457e-09
3.266807e-09 -6.441411e-10 -5.286336e-10 4.769708e-09 3.731864e-10 -9.802603e-11
-7.364726e-10 1.704383e-08 2.377474e-08 2.945215e-08 -2.710326e-08 -3.447115e-08
2.213813e-08 -4.524507e-09 3.886666e-09 1.473589e-08 -2.909700e-09 -1.217551e-08
1.068217e-08 -3.569667e-08 2.426822e-09 -1.279561e-08 4.602429e-09 -3.218740e-10
2.954976e-08 -1.054970e-08 1.076411e-08 5.759375e-09 -5.461896e-10 -1.384117e-08
1.193103e-08 -6.130886e-09 -1.482184e-09 -1.945563e-09 -9.135770e-11 3.010037e-10
3.237827e-08 -5.062673e-08 -1.395132e-08 -1.555920e-08 3.347913e-08 4.151402e-09
1.693042e-08 -3.932776e-08 -4.547537e-09 -1.211599e-08 8.243586e-09 1.396761e-09
2.635920e-08 -6.984259e-08 8.904176e-10 -2.226079e-09 2.600012e-08 5.960718e-10
2.241664e-08 -1.489169e-07 -3.563282e-08 8.425219e-08 -1.251510e-07 5.268228e-08
3.075323e-08 -6.157935e-08 -2.784418e-09 -1.078085e-08 3.094351e-08 3.684756e-09
2.184693e-08 -4.798896e-08 7.669732e-11 4.664183e-09 9.028790e-09 -1.114826e-10
1.212904e-08 -3.140635e-08 -4.671043e-09 -2.391328e-08 1.465868e-08 5.788413e-09
1.967495e-08 -5.126747e-08 -2.226388e-09 1.228223e-08 -2.527303e-08 4.043260e-09
2.214472e-08 -4.629442e-08 -8.329598e-11 -1.453665e-08 1.540879e-08 3.462777e-09
-9.191052e-09 8.271419e-10 1.750302e-09 1.527313e-09 -2.548658e-09 2.468366e-10
-1.346369e-08 -1.048951e-08 3.068003e-10 1.581601e-08 -1.152460e-08 7.174583e-09
2.846579e-08 -4.004456e-08 -2.245173e-08 -1.020091e-08 2.472652e-08 1.540272e-09
-8.667457e-09 -9.136036e-09 1.354785e-09 1.161834e-08 -7.054118e-09 4.099220e-09
-8.896445e-09 -3.105677e-09 -4.054527e-09 2.172130e-08 -2.216854e-08 1.432386e-08
6.025644e-09 -2.430890e-08 -3.459713e-08 2.142743e-08 -3.572723e-08 1.608844e-08
1.153699e-08 -1.011202e-08 -2.326400e-08 1.412111e-08 -2.167232e-08 9.238514e-09
-4.527556e-09 -4.301769e-09 -1.221069e-08 1.421339e-08 -1.084528e-08 4.570140e-09
2.801180e-09 -2.021060e-08 1.119851e-09 1.634210e-08 -1.139967e-08 4.990451e-09
-8.498461e-09 -1.771223e-08 5.227696e-10 1.802011e-08 -1.070275e-08 5.451791e-09
-5.672613e-09 -4.254456e-09 3.189256e-09 -3.823950e-09 3.367551e-11 -6.584024e-10
-1.137507e-08 2.089783e-09 1.515838e-09 -6.972165e-09 1.970921e-09 -4.321903e-10
-6.063141e-09 -4.183486e-09 2.888460e-09 -3.831623e-09 1.127188e-10 -1.057036e-09
-6.632189e-09 -3.303352e-09 2.363294e-09 -6.394006e-09 1.419069e-09 -2.548372e-10
-6.913817e-08 7.517930e-08 2.284645e-07 2.704281e-08 7.588356e-08 1.893499e-08
1.521381e-08 -3.942958e-08 -1.133732e-08 2.165358e-08 -2.761418e-08 1.073724e-08
1.680944e-08 -4.512041e-08 -3.452785e-10 -6.715332e-09 7.333803e-09 1.814921e-10
3.248337e-08 -4.152366e-09 -6.755206e-08 8.785524e-09 -6.379256e-08 1.752947e-08
2.317901e-08 -5.069926e-08 -1.628888e-08 -1.501811e-08 -2.947653e-08 -2.879573e-09
1.560743e-08 -4.302068e-08 3.721213e-09 -2.493209e-09 3.589804e-09 -3.598223e-10
2.048204e-08 -5.256128e-08 5.089186e-09 7.733771e-10 8.061925e-09 -5.205414e-10
1.377039e-08 -4.431781e-08 5.817541e-09 -9.950334e-09 5.418552e-09 3.500454e-10
-6.102020e-09 -2.069867e-08 -1.667299e-09 3.430491e-08 -3.000859e-08 1.833903e-08
1.724846e-08 -4.018103e-08 -2.444091e-08 -2.638218e-08 2.699869e-08 9.139211e-09
1.560877e-08 -4.453866e-08 5.906124e-09 -2.883215e-09 4.425395e-09 -1.277538e-10
1.501544e-08 -4.287142e-08 6.312876e-09 -5.315097e-09 3.029764e-09 1.322567e-10
2.106363e-08 -7.314133e-09 -1.594523e-09 -1.573508e-10 3.529657e-10 -2.522349e-09
1.353736e-08 -6.595786e-09 -1.012970e-09 -8.682003e-09 2.622260e-10 -8.355954e-10
1.119969e-08 -5.621578e-09 -1.510597e-09 -4.471546e-09 -3.144277e-10 1.426322e-10
-4.144935e-09 2.614207e-09 1.684877e-10 -2.981017e-09 -1.493057e-10 -5.024892e-11
1.988661e-08 -9.237830e-09 -2.769094e-09 -3.521398e-09 -4.026668e-10 -1.596544e-09
2.314120e-08 -8.110316e-09 3.056710e-10 5.127017e-09 3.777767e-10 -5.985378e-09
-3.994331e-09 2.930765e-09 2.396809e-10 -3.376639e-09 -4.052980e-10 -3.668631e-10
5.558103e-09 -2.252958e-09 -6.098255e-10 4.803308e-09 7.127673e-11 -3.218308e-10
1.785494e-08 -7.374091e-09 -1.468816e-09 -5.941240e-09 -2.318178e-11 -1.840369e-09
1.562739e-08 -6.676657e-09 -1.496673e-09 -5.828308e-09 1.896637e-10 -7.514744e-10
-6.717249e-09 3.772484e-09 3.891758e-10 -3.972814e-09 -1.187609e-09 -4.783338e-10
2.162988e-08 -7.313325e-09 -2.743447e-09 -6.428747e-09 2.629675e-11 -1.814077e-09
6.017951e-09 -2.723007e-09 -7.982158e-10 3.315618e-09 2.090299e-10 2.367462e-11
1.804424e-08 -9.162864e-09 5.483334e-10 -3.799841e-09 -2.211730e-10 -2.536332e-09
-5.250469e-09 3.478635e-09 2.993423e-10 -2.573043e-09 -4.860330e-10 -2.820684e-10
-4.405313e-09 3.129227e-09 2.943727e-10 -3.126217e-09 -4.085696e-10 -1.450551e-11
-4.729310e-09 2.963930e-09 1.704183e-10 -3.681529e-09 -5.645595e-10 -2.381223e-10
1.488512e-07 2.524133e-07 -4.212883e-07 -3.188457e-07 3.886339e-07 1.334710e-07
9.070183e-08 -1.407113e-07 -1.622364e-07 -4.742166e-08 2.692715e-07 -1.280407e-08
6.454559e-08 1.909326e-07 -2.996526e-07 -5.564362e-08 2.967392e-07 -6.038605e-10
-1.188206e-08 3.859381e-08 -8.830252e-09 -1.789300e-07 1.199403e-07 1.271187e-07
-1.038702e-08 3.407379e-09 -2.226174e-07 -1.145914e-07 2.293623e-07 1.096601e-07
1.395156e-07 -2.322612e-07 -1.269110e-07 -1.379384e-07 3.152469e-07 5.928231e-08
2.431662e-08 1.497358e-08 -1.298757e-07 -4.115593e-08 1.162463e-07 5.675679e-08
-8.491108e-09 4.052145e-09 1.079104e-09 -3.077277e-09 -8.673904e-10 -2.205247e-10
-8.116636e-09 2.588276e-09 9.276040e-10 -1.477174e-09 -1.913987e-09 1.235482e-11
-6.726058e-09 3.555115e-09 6.693939e-10 -2.889469e-09 -5.372046e-10 -3.613989e-10
-6.206260e-09 3.721018e-09 8.493388e-10 -3.012581e-09 -5.703414e-10 -2.745124e-10
1.572239e-08 -4.727200e-08 1.165354e-09 -1.980675e-08 1.372206e-08 3.389250e-09
1.187643e-08 -3.154345e-08 -1.091857e-08 -2.371273e-08 1.600489e-08 4.352177e-09
-5.998483e-09 3.819757e-09 5.417611e-10 -2.762026e-09 -4.279075e-10 -2.899558e-10
-8.491176e-09 4.189303e-09 1.218503e-09 -3.133461e-09 -4.378560e-10 -5.632972e-10
-6.508904e-09 3.975218e-09 7.737000e-10 -2.937596e-09 -4.645668e-10 -1.383241e-10
6.020368e-09 -3.274560e-08 1.895653e-10 -3.031230e-08 1.590586e-08 8.101317e-09
5.944921e-09 -3.257360e-08 -9.494985e-09 -3.023266e-08 1.966988e-08 6.628536e-09
-7.325887e-09 4.116680e-09 9.024110e-10 -3.263220e-09 -6.566054e-10 -2.456046e-10
2.113790e-09 -2.274435e-08 1.335505e-09 -2.034292e-08 7.861883e-09 1.993460e-09
1.488769e-08 -4.085933e-08 8.217023e-10 -1.403946e-08 8.885664e-09 2.637626e-09
4.081438e-09 -3.013045e-08 -2.280990e-09 -2.823898e-08 1.595576e-08 5.165210e-09
-1.028086e-08 -1.773968e-08 1.856238e-09 2.512557e-08 8.963370e-09 -3.446908e-09
-5.517651e-09 -1.544254e-08 1.380261e-09 1.780382e-08 5.207137e-09 -1.862146e-09
-1.071973e-08 -2.201450e-09 -3.713517e-09 2.223562e-08 6.360518e-09 -3.039174e-09
-8.892397e-09 -9.404755e-09 -4.200936e-09 2.212859e-08 8.424601e-09 -3.444711e-09
5.428291e-09 -2.375381e-08 3.798949e-09 -9.167993e-09 1.930370e-09 1.444209e-10
5.428291e-09 -2.470497e-08 2.200484e-09 -9.589775e-09 6.947660e-10 -4.387567e-10
-3.821846e-09 -8.011566e-09 2.982969e-09 -9.278717e-09 9.402222e-10 -1.553518e-10
3.442133e-09 -2.608407e-08 5.327429e-09 1.177037e-08 1.649644e-09 -2.106309e-10
-6.020507e-10 -2.270012e-08 5.405492e-09 1.181592e-08 1.936536e-09 5.249000e-10
-2.177655e-08 2.229116e-08 -1.091492e-08 1.482082e-08 1.005456e-08 -9.938247e-09
6.815923e-09 -2.623882e-08 2.677524e-09 -1.239270e-08 2.731561e-09 4.275459e-10
-2.036449e-08 2.862082e-08 -7.944289e-09 -3.289537e-09 5.082363e-09 -1.267547e-08
4.855801e-09 -2.599415e-08 4.581469e-09 -1.344201e-08 3.327432e-09 5.245283e-10
4.952478e-09 -2.657499e-08 4.981456e-09 -1.248585e-08 1.907724e-09 3.188397e-10
3.760041e-09 -2.380057e-08 3.755891e-09 -9.480188e-09 1.822631e-09 -2.826840e-10
-4.230291e-09 5.461295e-08 5.086391e-08 -6.238714e-08 5.914236e-08 -8.089161e-09
-5.310192e-08 5.657779e-08 -3.305835e-08 2.905580e-08 -1.894227e-08 6.379662e-08
-2.770299e-08 3.195519e-08 -2.018601e-08 1.034084e-08 1.281519e-08 -1.713634e-08
-2.646021e-08 6.152311e-08 -2.552718e-08 9.719174e-09 9.365400e-09 -2.665084e-08
-1.875545e-08 -5.607002e-09 -2.898888e-09 2.946762e-08 1.451493e-08 -9.316924e-09
9.667361e-09 -3.138370e-08 -1.351698e-09 1.921785e-08 5.619190e-09 -2.150413e-09
-2.400791e-11 -3.852702e-09 1.876336e-08 -4.605672e-08 1.034081e-08 -1.015377e-09
-4.591883e-08 9.085861e-08 -4.403046e-08 4.872899e-08 -3.945660e-08 7.429780e-08
-1.073631e-08 7.188625e-09 -6.448657e-09 -2.944632e-08 -2.464366e-08 -2.017363e-08
-8.991172e-09 3.428352e-08 -1.881480e-08 1.030922e-08 -1.102143e-08 -1.288349e-08
-6.219641e-09 -2.349223e-09 2.689880e-09 -5.332076e-09 1.453204e-09 -4.022944e-10
1.682455e-09 -5.795186e-08 -9.496184e-09 -5.395693e-08 -4.645376e-08 -1.948351e-08
-8.221449e-09 -8.366853e-10 1.921872e-09 -3.482979e-09 1.027748e-09 -4.315334e-10
-7.322459e-09 -1.362993e-09 2.535655e-09 -2.383412e-09 6.467795e-10 -1.356797e-10
-7.246734e-09 1.343802e-09 2.066995e-09 -1.064722e-09 5.809549e-10 -5.522553e-10
-1.694453e-08 2.358922e-08 -1.307980e-08 -4.925145e-09 -9.698607e-09 -1.447757e-08
-1.311974e-09 -2.751335e-08 -1.307629e-08 -5.541793e-08 -4.618436e-08 -2.786487e-08
-1.245930e-08 3.500830e-08 -2.849857e-08 -4.551185e-09 -1.832040e-08 -2.300412e-08
7.905495e-09 1.980444e-08 -5.152327e-08 -2.712750e-08 -4.462386e-08 -2.269669e-08
-7.703548e-09 -3.707869e-09 2.370120e-09 -5.878690e-09 3.462215e-10 -6.286029e-10
-5.000399e-09 2.841509e-08 -4.290189e-08 -1.828198e-08 -3.576538e-08 -2.185690e-08
1.090810e-08 -5.733905e-09 -1.406063e-09 -2.879966e-09 -2.249063e-10 8.150702e-11
8.691002e-09 -4.188267e-09 -1.272523e-09 -3.853111e-09 -3.056712e-10 3.901526e-10
1.115064e-08 -5.767736e-09 -1.372721e-09 -5.065992e-09 -1.037557e-10 1.168348e-10
-6.450841e-09 -1.587130e-09 2.392499e-09 -1.818402e-09 -1.412125e-10 -1.128099e-09
-7.252950e-09 1.363734e-09 2.198605e-09 -9.947760e-10 1.341796e-10 -5.429920e-10
-2.948430e-08 8.198857e-08 -4.724487e-08 1.261303e-08 -1.601291e-08 -3.358410e-08
3.833219e-09 1.877595e-08 -4.159497e-08 -1.789792e-08 -3.806398e-08 -1.771373e-08
7.495915e-09 -1.100340e-07 -6.541668e-08 -9.593178e-08 -1.447101e-07 -6.072640e-08
-2.354729e-08 1.210074e-07 -5.518560e-08 3.052036e-08 3.983030e-08 -2.207812e-08
2.278566e-08 -5.995076e-08 -1.524036e-08 -4.468727e-08 -6.934423e-08 -1.999125e-08
2.448004e-09 7.034606e-11 -4.394092e-10 6.445502e-09 6.031900e-10 -9.033858e-10
5.973966e-09 -3.150227e-10 1.502038e-10 9.197722e-09 -4.922032e-11 -2.500093e-09
7.887664e-09 -4.426461e-08 4.622975e-09 2.270329e-08 1.083800e-08 -1.335899e-09
1.205770e-08 -3.668204e-08 -1.763309e-09 1.471801e-08 7.069064e-09 -5.262787e-10
2.514720e-10 -2.270202e-08 -1.616078e-10 2.579626e-08 9.803893e-09 -4.658997e-09
7.617251e-09 -1.445411e-09 -1.478705e-09 7.677560e-09 5.939818e-10 -1.210006e-09
3.343832e-09 1.412022e-09 -2.698464e-11 7.567486e-09 4.028815e-10 -7.022425e-10
-1.470789e-09 2.407204e-09 5.167116e-10 6.664183e-09 8.083458e-10 -7.733198e-10
2.293109e-08 -4.522288e-08 -1.170204e-08 -1.251998e-09 1.557996e-08 6.060272e-10
1.948516e-09 -2.432375e-08 -3.639468e-09 -2.297609e-08 1.091134e-08 2.308732e-09
-6.454192e-10 -1.756074e-08 -7.828967e-09 -2.567839e-08 1.513721e-08 5.629337e-09
1.820154e-08 -4.329455e-08 -2.937837e-10 -4.584389e-09 6.950365e-09 3.509797e-10
-9.825367e-09 -1.821289e-09 -1.053477e-08 -2.666395e-08 1.652274e-08 8.408974e-09
2.117882e-09 -2.443587e-08 1.824166e-09 -2.301922e-08 9.959543e-09 3.529572e-09
2.288326e-09 9.619080e-10 -2.456284e-08 3.337555e-08 2.331792e-08 -1.330293e-08
3.458618e-08 -8.952705e-08 -1.534392e-08 3.911146e-08 6.171252e-08 -1.637140e-08
1.669069e-08 -3.397134e-08 -9.602915e-09 1.652100e-08 1.387542e-08 -1.838274e-09
2.656865e-08 -5.218360e-08 -4.513191e-09 -3.806915e-09 1.940855e-08 3.297807e-10
-8.447504e-09 -1.879383e-08 -1.519463e-08 -3.547611e-08 2.558709e-08 1.330062e-08
1.003695e-08 -6.363265e-08 -1.061679e-08 6.616665e-08 5.877060e-08 -2.825885e-08
6.415976e-09 -2.800982e-08 -1.014192e-08 -3.313467e-08 2.197530e-08 6.740396e-09
-6.919146e-09 -7.523301e-09 2.107193e-09 -2.071077e-08 3.347425e-09 2.204197e-09
1.029109e-09 -1.425449e-08 -6.573851e-09 -2.285545e-08 8.168881e-09 2.991857e-09
-5.458126e-09 3.571913e-09 -3.012701e-11 -4.914623e-09 -6.737779e-10 -4.821250e-10
-1.364490e-08 6.806234e-09 -7.567322e-10 -6.630198e-10 -4.702848e-09 4.785576e-09
-4.498323e-09 3.697099e-09 -4.270584e-11 -7.117235e-09 -1.137448e-09 3.073287e-10
1.997844e-09 -3.686181e-08 -4.386942e-09 3.283635e-08 -3.665895e-08 1.810521e-08
-4.586889e-09 -5.556654e-09 -2.151197e-08 -3.189032e-08 2.029971e-08 1.279160e-08
2.647167e-08 1.729842e-09 -5.907885e-08 4.621252e-09 -5.593748e-08 1.621900e-08
2.434046e-08 -9.617796e-08 -2.720360e-08 7.250802e-08 -9.683200e-08 3.879862e-08
-1.350485e-08 -5.701626e-08 -1.081228e-08 6.394162e-08 -4.947569e-08 3.500555e-08
-6.390899e-09 -2.351229e-09 2.911634e-09 -1.926086e-09 5.231799e-10 -7.474295e-10
5.288389e-09 2.971029e-08 -6.137104e-08 7.760543e-09 -4.783692e-08 3.296451e-08
3.358850e-08 -7.084514e-08 -1.709280e-08 2.432852e-08 -7.444855e-08 1.258168e-08
-8.132023e-09 1.930618e-09 -9.493337e-09 -2.311620e-08 9.445128e-09 6.735887e-09
-7.506560e-09 -1.475269e-08 -6.484185e-09 -2.553760e-08 1.318366e-08 5.218003e-09
1.262505e-09 2.839704e-09 2.400746e-12 8.736067e-09 -6.887158e-11 -7.016501e-10
-1.107373e-08 5.031236e-09 9.343557e-10 -5.656698e-09 2.017490e-09 -2.084697e-10
1.041420e-08 -3.519210e-09 1.575753e-10 9.128993e-09 3.440925e-11 -8.308593e-10
3.590959e-09 1.007802e-09 -1.121997e-09 7.993781e-09 6.184212e-10 1.044356e-10
5.577086e-09 4.307113e-09 6.157634e-10 1.272295e-08 -4.133890e-10 -3.193049e-09
9.522672e-09 4.785223e-09 -8.179710e-10 1.368682e-08 -1.262267e-10 -4.144096e-09
-9.794314e-09 9.323254e-10 -4.541564e-09 -1.932262e-08 9.157361e-09 3.540236e-09
-3.387830e-09 2.090481e-09 4.001759e-10 2.251580e-09 2.610294e-10 5.303380e-11
-5.886075e-09 2.289163e-09 1.207014e-09 1.539177e-09 1.086731e-10 -2.181944e-10
-3.607461e-09 2.214837e-09 4.315379e-10 2.939521e-09 3.224967e-10 -7.660198e-11
2.627357e-08 -7.582370e-09 -1.602039e-09 -2.297376e-09 1.758403e-10 -3.538474e-09
6.118819e-09 -2.608306e-09 -8.072607e-10 4.034574e-09 3.911183e-10 2.471429e-10
-3.900224e-09 2.162244e-09 5.218805e-10 2.813865e-09 3.394513e-10 -2.131663e-10
3.606399e-09 1.026090e-09 -4.650933e-10 8.041567e-09 4.373453e-10 -7.212779e-10
-5.949703e-09 2.554741e-09 1.087703e-09 1.869086e-09 3.325309e-10 -1.752006e-10
1.375300e-08 -9.257058e-10 -4.413545e-10 1.020742e-08 7.505205e-10 -5.411685e-09
-4.009102e-09 2.125391e-09 4.338667e-10 1.766329e-09 3.047773e-10 -1.605098e-10
-4.705513e-09 2.532641e-09 7.554519e-10 2.076849e-09 2.540196e-10 -2.540699e-10
-8.972365e-09 1.252063e-08 -3.400495e-09 7.587306e-09 2.523471e-09 2.897508e-10
-4.153097e-09 2.316877e-09 5.860028e-10 2.033190e-09 3.480308e-10 3.846256e-11
2.011461e-08 2.979341e-10 -3.072365e-09 1.364393e-08 -1.708369e-09 -7.580305e-09
-3.807848e-09 2.125708e-09 6.550289e-10 1.791636e-09 2.654733e-10 -3.892464e-10
-4.809080e-09 2.336940e-09 8.018730e-10 1.811654e-09 1.851647e-10 -1.818542e-10
-5.782844e-09 2.593620e-09 1.127096e-09 1.842634e-09 2.425606e-10 -4.549758e-10
-4.536370e-09 2.166659e-09 6.903880e-10 2.603827e-09 3.094135e-10 -3.267449e-10
1.677185e-08 -5.951969e-08 2.679844e-07 -9.879072e-09 -2.444657e-09 1.532944e-07
-1.595770e-08 7.236871e-08 -1.078643e-08 -5.423982e-08 -1.492781e-08 3.953655e-09
2.456889e-08 -2.922886e-07 -1.153641e-07 1.987367e-07 3.453163e-07 -1.234949e-07
-2.075754e-08 1.697654e-08 -5.602741e-09 1.913979e-08 1.694398e-08 -1.065078e-08
-3.979669e-08 1.367568e-07 9.754838e-10 -2.410328e-08 -4.826753e-08 -1.054302e-08
-9.576506e-08 1.236131e-07 2.637417e-07 3.567386e-08 -2.175138e-07 -1.085393e-07
-6.687137e-08 1.038392e-07 -7.066011e-09 5.209975e-09 -3.718029e-08 -9.320703e-09
-2.394172e-08 2.771500e-09 -4.019164e-09 5.059312e-08 2.564891e-08 -2.655070e-08
7.001839e-08 6.492167e-08 -1.930682e-07 8.974371e-08 2.227808e-07 -8.463980e-08
-8.259357e-08 5.044664e-08 2.614907e-07 -4.133410e-08 8.112067e-08 -1.715131e-07
-3.205355e-08 -4.778093e-09 9.501181e-08 -3.209778e-08 -3.334404e-08 -7.527269e-08
-1.962808e-08 1.787714e-09 -1.175133e-08 3.413259e-08 2.392225e-08 -1.849596e-08
-2.906417e-08 2.489471e-09 -6.442743e-09 4.595682e-08 2.758113e-08 -2.251464e-08
-3.316595e-08 2.588539e-08 1.067101e-07 -4.033202e-08 1.063115e-08 -7.401544e-08
-2.803216e-07 4.310920e-07 -7.407658e-07 6.115500e-08 1.679889e-08 4.800279e-08
-4.649320e-08 4.034370e-07 2.724240e-07 7.770383e-08 -3.049380e-07 -1.460412e-07
-1.887219e-08 2.124685e-08 -2.523312e-08 4.074634e-08 3.864747e-08 -3.011405e-08
-2.366985e-08 1.529900e-08 -2.662003e-08 3.297727e-08 2.746815e-08 -2.554291e-08
1.523272e-08 -1.400686e-08 -4.463207e-08 -2.940052e-08 3.891575e-08 1.730860e-08
-1.204437e-08 -1.371733e-07 -6.957678e-08 -1.589544e-07 1.507869e-07 1.005766e-07
-4.768952e-08 3.222705e-08 -4.491913e-09 -4.239234e-08 1.291512e-08 2.927331e-08
-1.218155e-07 1.065810e-07 -4.024554e-08 -9.772480e-08 3.461634e-08 1.078251e-07
-1.907731e-08 2.948129e-09 -7.393972e-09 -2.591657e-08 1.251631e-08 9.232103e-09
-3.831081e-08 1.712712e-07 -5.533908e-08 -6.213883e-08 -1.441013e-08 8.744120e-08
1.855397e-08 3.785329e-08 -1.083706e-07 -2.634012e-08 9.345680e-08 4.610425e-08
-3.210805e-08 6.599161e-08 -6.000001e-08 -1.512658e-08 3.846405e-08 5.346513e-08
-7.335267e-08 6.655751e-08 5.923264e-09 -9.039172e-09 -2.513337e-08 2.260058e-08
-3.147778e-08 5.775673e-08 1.251164e-08 2.103598e-08 -1.904478e-08 1.166116e-08
-1.921935e-08 2.082386e-08 -6.716907e-09 -1.334680e-08 6.085370e-09 1.065170e-08
-3.612062e-08 5.532035e-08 9.370699e-09 1.631388e-08 -2.181923e-08 5.994948e-09
-3.554218e-08 3.410084e-08 2.004220e-09 -1.250847e-09 -1.785801e-09 1.144279e-08
2.716152e-08 -5.151056e-08 -1.332092e-08 1.834544e-08 2.664392e-08 -5.666825e-09
1.744447e-08 -4.424694e-08 1.550340e-09 1.504971e-08 1.070956e-08 -8.572717e-10
-1.250641e-08 1.725919e-07 4.536890e-08 9.274090e-08 -1.662910e-07 -5.980602e-08
3.835655e-08 -8.514560e-09 1.547005e-08 1.939908e-08 -9.029763e-09 -4.488761e-08
2.067041e-08 -4.361271e-08 -5.218723e-09 -4.358397e-09 8.613711e-09 3.932148e-10
2.047950e-08 -5.007491e-08 4.974797e-09 7.392713e-09 8.051776e-09 -5.035293e-10
2.170707e-08 -4.570436e-08 -6.178691e-09 2.805998e-09 8.628192e-09 6.986123e-10
1.662765e-08 -4.329588e-08 -6.728576e-09 1.550501e-08 1.330050e-08 -2.273328e-09
2.152831e-08 -4.940136e-08 -4.159736e-09 1.016222e-08 1.586329e-08 -2.191459e-09
3.916001e-09 3.258421e-08 -1.096296e-09 -3.335623e-08 -7.422436e-09 7.354744e-10
-1.430790e-08 3.973966e-08 -1.542541e-08 -1.264118e-08 8.291496e-09 -1.160685e-08
2.361994e-08 -4.947633e-08 5.799867e-10 2.367762e-09 1.278151e-08 -1.501987e-09
-1.617423e-08 9.578574e-09 -7.860177e-09 2.238767e-08 8.547488e-09 -6.482852e-09
-6.088367e-09 -1.206565e-08 4.435261e-09 1.875866e-08 4.082084e-09 -8.168162e-10
2.647167e-08 -2.937667e-08 -5.314187e-08 9.735502e-09 -5.325038e-08 1.349967e-08
4.031248e-08 -3.203239e-08 -8.680064e-08 3.258851e-09 -8.697544e-08 1.276107e-08
3.093735e-08 -3.874512e-08 -6.616171e-08 -4.029653e-09 -6.676173e-08 3.226512e-09
3.313132e-08 -5.636504e-08 -2.882220e-08 1.689588e-08 -4.986750e-08 1.489358e-08
3.305518e-08 -4.084681e-08 -6.407282e-08 -5.323969e-09 -6.647872e-08 9.108116e-10
3.220139e-08 -3.581826e-08 -2.849839e-08 2.469468e-09 -2.992431e-08 4.156540e-09
3.296382e-08 -5.549060e-08 -3.695613e-08 -4.660455e-09 -5.936544e-08 2.753310e-10
4.151254e-08 -5.621406e-08 -3.427806e-08 -3.795616e-09 -5.787308e-08 5.918476e-09
2.548432e-08 -3.062723e-09 -1.803827e-10 1.819588e-08 -3.608553e-09 -1.928486e-08
1.661695e-08 -4.291453e-08 1.203754e-09 -4.260127e-10 3.049309e-09 1.369798e-10
2.063417e-08 -4.633144e-08 -7.236851e-10 -7.133529e-09 9.204791e-09 3.832110e-10
3.093915e-08 -1.433353e-08 3.315711e-08 2.149867e-09 -1.925019e-10 -3.536919e-08
7.745982e-09 -3.086253e-08 2.345591e-09 1.388395e-08 2.351405e-09 1.446207e-10
2.794264e-08 1.917006e-09 1.171788e-09 1.854086e-08 -4.976241e-09 -1.597622e-08
1.342250e-08 -1.101110e-09 -1.297288e-09 1.102638e-08 8.439081e-11 -2.929775e-09
1.481349e-08 5.438660e-10 -7.237022e-10 1.674583e-08 -1.491674e-09 -1.123092e-08
-6.834737e-09 1.403215e-08 2.655053e-08 2.222751e-08 -2.502396e-08 -3.636106e-08
2.430751e-08 -7.046674e-09 2.852494e-09 1.060184e-08 -2.407511e-09 -9.520109e-09
-1.142871e-08 2.528707e-08 3.727967e-09 1.700168e-08 -8.199034e-09 -4.601111e-09
-2.265222e-08 3.455362e-08 -8.634340e-10 1.641557e-09 -2.300654e-09 3.761648e-09
7.722288e-09 -3.254463e-08 4.553054e-09 -1.223924e-08 4.240565e-09 -5.285706e-10
-4.205764e-09 -7.996411e-09 2.027172e-09 -1.401628e-08 2.775541e-09 7.094139e-10
1.531471e-08 -2.063389e-09 1.402411e-08 2.328763e-08 -5.638336e-09 -1.849415e-08
-6.373356e-09 -1.401187e-09 2.584096e-09 -1.627359e-09 1.478866e-10 -6.560361e-10
-6.533106e-09 -2.069536e-09 2.572100e-09 -3.035365e-09 1.616822e-10 -5.188578e-10
-5.680931e-09 -4.749435e-09 3.208582e-09 -6.096702e-09 4.186788e-10 -5.582007e-10
1.640375e-08 -5.180336e-08 5.099956e-09 -4.246019e-09 6.874868e-09 -4.253576e-10
1.657656e-08 -4.210695e-08 5.341327e-11 9.324512e-09 6.748588e-09 -1.022097e-09
1.700177e-08 -4.495588e-08 5.991942e-09 1.002419e-09 4.023038e-09 -1.874191e-10
1.009962e-09 -3.010054e-10 -3.933078e-10 3.066661e-09 4.875145e-10 -2.523370e-12
-5.664909e-09 2.566659e-09 1.027629e-09 1.843158e-09 1.641121e-10 -3.301996e-10
-5.517065e-09 2.886949e-09 9.251666e-10 1.957406e-09 -2.613465e-12 -1.606960e-10
-5.460825e-09 -1.030607e-08 1.687419e-09 1.021445e-08 -6.685652e-09 2.041768e-09
-7.396122e-09 -4.229848e-09 2.468103e-09 -7.472510e-09 1.995917e-10 -9.497390e-10
-3.250615e-09 2.288065e-09 7.531540e-10 3.519296e-09 6.715490e-10 -3.190022e-10
-7.047313e-09 -8.619362e-10 1.365130e-09 -8.111528e-09 1.782892e-09 -2.865680e-10
-7.196461e-09 -7.925611e-10 1.730537e-09 -5.491344e-09 1.864054e-09 -3.663532e-10
-2.752002e-09 -5.635529e-08 -3.981913e-09 5.070980e-08 3.553136e-08 -1.472504e-08
9.064683e-09 -3.123576e-09 -1.023426e-09 6.870820e-09 3.348969e-10 -1.183510e-09
4.650217e-09 -2.848322e-10 2.810863e-10 8.614658e-09 1.624987e-11 -1.850718e-09
4.802008e-09 -2.603975e-08 2.906591e-09 2.056268e-08 7.007680e-09 -1.980063e-09
8.714117e-09 -1.417634e-09 -1.251012e-09 7.898274e-09 6.922614e-10 -7.098916e-10
8.539373e-09 -2.887460e-09 -4.195422e-11 7.510856e-09 7.308217e-11 -1.519159e-09
2.060214e-08 -4.634914e-08 4.568973e-09 -7.102082e-09 9.169980e-09 8.026354e-10
-2.201223e-08 2.875335e-09 -8.498308e-10 2.924353e-08 1.034589e-08 -9.213521e-09
1.239563e-08 -3.884323e-08 3.677086e-09 -6.400744e-09 3.354995e-09 -5.083646e-10
1.400915e-08 -3.657461e-08 -2.138130e-09 -1.027035e-08 5.667443e-09 -3.982104e-10
2.619699e-08 -5.247949e-08 7.066602e-10 1.531650e-08 2.401088e-08 -3.160789e-09
-2.154666e-08 4.702098e-09 -1.378741e-08 3.483520e-08 1.944452e-08 -1.530186e-08
1.239872e-08 -3.468610e-08 2.909711e-09 -1.016961e-08 4.597577e-09 3.367967e-10
1.871944e-08 -3.807766e-08 -5.811604e-09 -9.764457e-09 8.639932e-09 1.615407e-09
2.730034e-08 -4.813465e-08 -1.550188e-08 1.747784e-08 2.304100e-08 -4.028735e-09
-3.110627e-08 -1.010940e-08 -5.970923e-09 5.141687e-08 3.303991e-08 -2.392137e-08
4.278700e-09 -7.820606e-09 8.653625e-08 2.287876e-08 -1.637898e-08 -4.841861e-08
-2.180904e-08 4.789354e-09 8.599325e-08 2.785888e-08 -2.879082e-08 -3.440035e-08
2.402779e-09 -1.083055e-08 7.238297e-08 -1.117493e-09 4.417678e-10 -4.222790e-08
1.029403e-08 -3.395895e-08 2.651452e-09 -1.161400e-08 3.010120e-09 -1.642836e-10
-1.954953e-09 2.694307e-08 1.516973e-08 -2.219277e-08 1.151168e-08 -8.727997e-09
-5.740866e-09 2.137639e-09 1.099290e-09 1.362606e-09 1.261260e-10 -3.199085e-10
-4.572458e-09 2.139043e-09 7.541523e-10 2.268303e-09 6.049663e-10 -3.466674e-10
-1.383944e-08 5.371480e-08 3.850977e-07 -7.181427e-08 1.297696e-07 -2.179971e-07
-2.781795e-08 5.168578e-08 2.069317e-07 -5.332802e-08 8.454834e-08 -1.420264e-07
-6.730125e-08 2.662566e-08 1.352823e-07 -2.978579e-08 4.689549e-09 -5.814916e-08
-1.384326e-08 9.487620e-08 5.750170e-08 -7.567677e-08 3.293234e-08 -2.231731e-07
-9.922052e-08 9.258760e-08 7.321813e-08 -7.080881e-08 -5.043383e-08 -3.737384e-08
-2.619864e-08 -2.303133e-09 -1.217977e-08 7.104175e-08 5.323334e-08 -3.596004e-08
2.238433e-08 -5.206685e-08 -2.793694e-10 1.646796e-08 1.632258e-08 -3.590309e-09
6.070864e-08 -1.265656e-07 7.550490e-09 -1.582558e-08 7.937194e-08 5.046452e-09
1.025243e-08 -5.145371e-09 -1.215512e-09 2.275576e-09 1.821809e-10 -5.866607e-10
-4.401004e-08 2.214157e-08 -3.163178e-08 4.177574e-08 3.723105e-08 -4.542659e-08
-3.571566e-08 5.220784e-08 -1.460651e-07 1.232558e-07 1.472762e-07 -1.482504e-07
3.537806e-08 -1.452805e-07 -2.390199e-08 6.153199e-08 9.989710e-08 -2.732895e-08
1.624587e-08 -2.520906e-09 -5.648356e-08 3.200751e-08 5.602252e-08 -2.345557e-08
-2.309536e-08 1.921967e-08 -1.937009e-08 3.121118e-08 3.183778e-08 -2.797520e-08
6.316047e-08 -3.734764e-08 -9.230568e-08 8.215607e-09 1.458064e-07 6.912401e-09
4.528526e-08 -2.911889e-10 -1.042493e-07 -2.101949e-09 9.570899e-08 7.245015e-09
-1.437355e-08 -3.115703e-09 1.665805e-09 2.571559e-08 9.257129e-09 -4.544225e-09
2.217646e-08 -3.710326e-08 -5.747506e-08 4.580100e-08 1.026390e-07 -3.733972e-08
-2.157084e-08 -3.603104e-10 -3.793189e-09 2.983249e-08 1.667813e-08 -1.066154e-08
1.454766e-08 -4.305523e-08 3.224045e-09 1.224092e-08 6.798470e-09 -5.485310e-10
3.028002e-08 -6.128983e-08 -1.213877e-08 -2.007043e-09 3.406170e-08 -5.965074e-10
1.964732e-09 -3.362392e-09 -2.591349e-08 4.217681e-08 2.802138e-08 -2.081456e-08
2.089485e-08 -5.004035e-08 -4.324687e-09 2.940964e-08 3.592198e-08 -1.128104e-08
-2.316632e-08 1.979759e-08 -3.519036e-08 3.111150e-08 2.908449e-08 -2.590317e-08
-5.062962e-09 3.681031e-09 5.417611e-10 -2.375724e-09 -3.723638e-10 -2.331386e-10
9.584789e-09 -3.509844e-09 2.329796e-10 8.322276e-09 6.855381e-11 -1.914292e-09
1.390678e-08 -5.773172e-09 3.763372e-10 6.299491e-09 -3.043119e-11 -2.158948e-09
2.127393e-08 -4.786642e-09 -3.125095e-09 9.615044e-09 5.980403e-10 -3.972376e-09
2.927191e-08 -8.927906e-09 -3.613987e-09 1.034429e-09 -1.909339e-11 -5.025836e-09
1.767352e-08 -7.046710e-09 1.687853e-09 6.847117e-09 -2.123321e-10 -4.368894e-09
2.303421e-08 -8.211926e-09 8.102650e-10 4.997061e-09 5.884863e-10 -5.952008e-09
-8.116637e-09 3.967347e-09 4.559908e-10 -2.908125e-09 -1.986501e-09 -5.608933e-10
1.540078e-08 -7.066198e-09 -4.886362e-10 5.404411e-09 4.060859e-10 -1.223334e-09
1.263780e-08 -5.832774e-09 -1.050442e-09 5.323071e-09 3.105478e-10 -3.179486e-10
1.945476e-08 -9.035175e-09 -1.136908e-09 1.624374e-09 -5.922718e-11 -2.388170e-09
-2.294969e-10 1.432715e-09 1.078166e-10 5.284391e-09 2.593514e-10 -4.616844e-10
-5.248294e-09 3.462104e-09 3.470868e-10 -2.577741e-09 -1.658136e-10 -4.300782e-11
7.324269e-08 -2.178516e-07 -6.121785e-08 5.738484e-09 -1.923885e-07 1.714184e-08
-2.881356e-09 2.528483e-09 5.812735e-10 4.584881e-09 3.896159e-10 -2.192664e-10
1.163911e-08 -6.589746e-09 -1.757334e-09 -5.078926e-10 -2.817446e-11 1.022248e-09
-4.880835e-09 3.520254e-09 4.981484e-10 3.885569e-09 2.951012e-10 -1.395796e-10
3.219361e-08 -5.408945e-08 -1.645250e-08 2.849589e-09 -3.034829e-08 4.124668e-09
1.024461e-07 -1.861570e-07 -9.206992e-08 6.583052e-09 -2.031010e-07 8.808129e-09
3.787150e-08 1.349436e-08 -1.170887e-07 -3.665049e-08 -9.907514e-08 -1.559390e-08
7.784552e-08 -1.090566e-07 -1.880238e-07 1.097190e-07 -2.393232e-07 1.162607e-07
-2.807529e-09 2.142952e-09 2.371772e-10 3.616145e-09 7.000237e-10 -2.920164e-10
4.747599e-08 -1.237837e-09 -1.626413e-07 -3.607380e-08 -1.829951e-07 -1.586163e-08
-1.791829e-09 1.280981e-09 4.173575e-10 3.619286e-09 3.798111e-10 -8.615553e-12
-5.310430e-09 5.419359e-09 -1.959150e-09 -6.178745e-09 -4.923651e-09 2.875068e-09
4.080146e-08 -1.160330e-07 -1.591684e-08 2.987270e-09 -7.504901e-08 5.951326e-09
2.722644e-08 -5.087559e-08 -7.595197e-08 -3.793439e-08 -1.281447e-07 -1.789177e-08
3.321221e-08 -1.541093e-08 -4.867262e-08 -2.807828e-09 -4.663923e-08 2.790783e-09
-8.308111e-09 -9.319618e-09 -5.616715e-09 1.130804e-08 -9.608547e-09 4.806812e-09
1.929111e-08 -4.520188e-08 -3.023423e-08 -2.224968e-08 -5.001743e-08 -8.848156e-09
-8.711929e-09 2.647346e-09 7.998775e-10 -2.192348e-09 -2.136495e-09 -4.270197e-10
-9.640361e-09 5.929220e-09 -1.384201e-09 -2.791682e-09 -2.101347e-09 1.302252e-09
-6.451409e-09 6.254665e-09 -1.859259e-09 -6.495653e-09 -1.899791e-09 1.638081e-09
-1.031253e-08 -2.580420e-09 9.127101e-10 5.045671e-09 -4.113792e-09 1.637672e-09
3.755230e-08 -4.159707e-08 -3.677719e-08 -7.617092e-09 -6.395132e-08 3.304936e-10
-1.052324e-08 2.639070e-09 -2.136957e-09 4.839855e-09 -3.126415e-09 2.714995e-09
-8.876689e-09 5.858185e-09 2.534972e-11 -4.033937e-09 -1.991846e-09 4.665733e-10
7.694323e-09 3.439070e-10 -2.440539e-09 -1.253694e-08 -1.532611e-09 2.141989e-10
1.176659e-08 -5.903033e-09 -1.243722e-09 1.497225e-09 1.037760e-10 -5.581757e-11
1.506387e-08 -6.086742e-09 -1.285679e-09 -6.281566e-09 -3.552996e-10 1.788902e-10
2.711723e-08 -8.161610e-08 -1.716974e-09 -1.119016e-08 -3.442327e-08 -1.386916e-09
6.293075e-09 -2.578437e-09 -8.883443e-10 4.430317e-09 2.073863e-10 -1.048309e-10
2.890296e-08 -1.949606e-08 -5.001078e-08 3.863420e-09 -4.646602e-08 5.485922e-09
6.268439e-08 -1.484661e-07 -2.501691e-08 -2.857015e-10 -1.124664e-07 6.513077e-09
6.707455e-09 3.376489e-08 -6.907113e-08 3.200143e-08 5.380181e-08 -3.447163e-08
1.740386e-08 -6.999943e-09 -1.176562e-09 -4.494186e-09 7.408413e-11 -1.602661e-09
4.380122e-08 -1.078680e-07 -1.307494e-08 1.171212e-08 -6.699560e-08 8.877312e-09
3.190985e-08 -2.901944e-08 -4.954617e-08 1.700167e-08 -7.565616e-08 2.640022e-08
8.345719e-09 9.360897e-08 -1.290670e-07 -3.172320e-08 3.864676e-08 2.446053e-08
2.480155e-08 1.283029e-08 -8.912173e-08 -1.400891e-08 -7.494484e-08 -7.576164e-09
4.374726e-08 -1.537501e-07 -2.478933e-08 1.010733e-08 -1.140262e-07 8.563543e-09
5.005217e-08 -1.670499e-07 -2.500178e-08 -2.781441e-08 -1.088160e-07 -6.934145e-09
1.864948e-08 -8.516098e-09 -5.151437e-10 -2.281558e-09 1.813606e-10 -5.871252e-10
1.576755e-08 -7.180053e-09 -9.023722e-10 -2.523323e-09 -3.219030e-11 -9.905361e-10
-9.005243e-09 3.043562e-08 -3.883103e-08 9.037741e-10 -2.619631e-08 2.672534e-08
2.458842e-09 3.245319e-08 -6.075903e-08 5.809881e-09 -4.590542e-08 2.981475e-08
2.458842e-09 8.353854e-10 -4.880328e-08 1.425740e-08 -4.784795e-08 2.511329e-08
-9.005243e-09 3.614555e-08 -4.729464e-08 -1.090854e-08 -2.726377e-08 3.414724e-08
1.841497e-08 -8.253463e-09 9.443970e-10 4.405841e-09 3.113654e-10 -3.027921e-09
1.523919e-08 -5.390579e-09 -1.964620e-09 -7.248938e-09 -4.408538e-10 -1.401408e-10
3.339668e-08 1.276768e-07 1.393467e-07 1.374677e-07 2.447289e-07 2.268083e-07
-2.659005e-09 2.071385e-09 -1.677742e-10 -5.112137e-09 -1.341153e-09 -3.874523e-11
7.403915e-09 1.737075e-09 -2.022319e-09 -1.141538e-08 -1.928889e-09 -2.850012e-10
-2.633589e-08 8.148417e-09 7.541914e-08 8.651109e-08 7.990424e-08 4.504834e-08
-9.284695e-09 1.226271e-08 -3.673830e-09 -9.016842e-09 -2.055767e-09 3.540874e-09
-3.161829e-08 5.312737e-08 2.662643e-07 1.203291e-07 1.953476e-07 1.399652e-07
-7.771120e-09 1.199905e-08 -6.415355e-09 -9.147519e-09 -4.050184e-09 4.967622e-09
-2.422338e-09 2.029398e-09 3.273271e-11 -3.307138e-09 -2.673040e-10 -5.863998e-11
-6.717251e-09 3.094671e-09 7.391634e-10 -2.519352e-09 -1.163308e-09 -2.213039e-10
3.494912e-08 -6.909684e-08 -1.508505e-08 -2.231121e-08 -7.682132e-08 -8.601435e-09
2.741677e-08 1.767225e-08 -8.027497e-08 -2.110092e-08 -7.025029e-08 -1.823949e-08
2.460526e-08 -4.575320e-08 -3.164857e-08 -2.067770e-08 -5.090137e-08 -6.496537e-09
3.007626e-08 -4.024765e-08 -3.542931e-08 -1.895850e-08 -4.436148e-08 -6.352831e-09
3.438504e-08 -6.354588e-08 -8.736498e-09 -1.918669e-08 -4.948722e-08 -6.315410e-09
2.828951e-08 -9.223269e-09 -6.518614e-08 -1.522140e-08 -6.902629e-08 -8.404962e-09
1.251034e-08 -1.779184e-08 -2.522187e-08 -2.102836e-08 -2.536259e-08 -9.084209e-09
3.006042e-08 -4.269653e-08 -2.296737e-08 -1.468423e-08 -3.086880e-08 -4.838972e-09
6.714426e-08 1.152530e-08 1.023707e-08 3.613227e-08 -1.851024e-08 -6.043473e-08
-4.784576e-08 1.604145e-07 -2.162906e-07 -1.202913e-07 1.561057e-07 1.274676e-07
6.177096e-08 -9.259819e-08 -7.901186e-08 -4.715609e-09 1.296306e-07 8.559222e-09
9.370678e-09 -1.315063e-08 -1.855287e-08 -1.736919e-08 -1.903855e-08 -4.910049e-09
-2.729672e-09 1.079558e-07 -6.428444e-08 -5.204943e-08 3.696461e-08 5.845674e-08
-7.820378e-08 7.596324e-08 3.092768e-08 -1.803851e-09 -9.667620e-09 3.239156e-08
-2.573957e-08 2.333893e-08 -7.343303e-09 -2.020384e-08 8.459154e-09 1.250375e-08
-4.305338e-08 5.119189e-08 -1.446141e-08 -1.404017e-08 1.076622e-08 2.299577e-08
-6.827711e-09 3.848331e-09 8.580514e-10 -2.930161e-09 -6.319112e-10 -4.335885e-10
-5.590649e-09 3.369309e-09 6.145213e-10 -2.907565e-09 -8.649498e-10 -2.745135e-10
1.743647e-08 -2.170036e-08 -6.717006e-08 -5.347548e-08 6.777724e-08 3.309195e-08
-7.527727e-09 5.176846e-09 -1.181082e-08 -1.201438e-08 -1.176308e-08 -5.848391e-09
-2.593024e-08 3.359623e-08 -1.445409e-08 -6.858790e-09 4.192041e-09 1.618795e-08
-3.389669e-08 1.297450e-08 -1.751320e-08 -5.021230e-08 3.116209e-08 2.816998e-08
-1.328870e-11 -1.052892e-09 -3.678913e-08 -3.954918e-08 3.210642e-08 2.034063e-08
1.994627e-11 -2.302037e-08 -1.495198e-08 -4.013799e-08 2.973710e-08 2.004358e-08
-1.776824e-08 1.786430e-09 -1.949532e-08 -3.727480e-08 2.633724e-08 2.040197e-08
-1.727113e-08 1.149845e-09 -3.764277e-08 -3.806843e-08 3.491999e-08 2.429869e-08
-1.208861e-09 -3.329059e-08 5.661768e-09 -5.085252e-08 2.585967e-08 1.906096e-08
2.437330e-08 -5.247716e-08 -5.800593e-09 -3.727746e-08 4.386397e-08 1.271162e-08
-1.410778e-08 5.176847e-09 -4.595582e-09 -1.812402e-08 -7.290553e-09 -8.368097e-09
-8.549191e-09 -6.416952e-09 -1.468743e-08 -3.549717e-08 2.288721e-08 1.339640e-08
1.171535e-10 -2.312929e-08 -3.768206e-08 -3.974750e-08 3.683431e-08 2.025735e-08
-6.600668e-09 -1.712591e-08 -9.374609e-09 -4.740404e-08 2.982709e-08 1.400550e-08
-8.314928e-09 -2.404490e-08 -4.744209e-09 -6.360064e-08 3.914595e-08 2.584765e-08
-8.859940e-09 -3.084021e-08 -1.126487e-08 -8.209425e-08 6.266258e-08 2.879837e-08
-1.498496e-09 -2.448946e-08 -3.032983e-08 -5.328457e-08 4.830111e-08 2.641269e-08
1.120564e-09 -1.043539e-08 -6.574753e-09 -2.946479e-08 1.479327e-08 8.596232e-09
1.136407e-09 -1.045287e-08 -1.812652e-08 -2.928319e-08 1.762134e-08 8.344510e-09
-4.647801e-09 -7.381670e-09 -1.097346e-08 -2.247758e-08 1.128449e-08 6.361016e-09
4.078209e-09 -2.782292e-08 -8.305649e-09 3.259107e-08 1.924747e-08 -8.118282e-09
-3.072458e-08 2.423874e-08 -4.953852e-09 1.654318e-08 1.078648e-08 -1.573972e-08
-2.976390e-08 1.515841e-08 -3.420460e-09 1.632769e-08 1.133772e-08 -1.449650e-08
-1.754798e-08 1.484624e-08 -2.319122e-08 -2.796096e-08 1.737633e-08 1.719266e-08
-9.060065e-09 -5.960249e-09 -2.172083e-09 -3.599579e-08 1.660143e-08 1.142237e-08
4.282166e-09 4.084978e-08 1.601305e-07 2.381862e-08 -6.868233e-08 -8.360039e-08
-6.790100e-08 5.948185e-08 -2.705829e-08 -1.573311e-08 8.758601e-10 5.857391e-08
1.251630e-08 -9.319269e-08 -1.055956e-08 6.006185e-08 5.571548e-08 -1.985250e-08
1.110745e-07 -4.187993e-07 -5.814420e-08 7.909593e-08 3.057276e-07 -5.858979e-08
1.403969e-08 -5.805161e-08 -3.519573e-09 3.725457e-08 3.202180e-08 -8.957101e-09
-2.153014e-08 4.867872e-08 -4.731434e-08 2.001099e-08 2.622371e-08 -3.441123e-08
6.250243e-09 -2.624695e-08 -1.193038e-08 3.484882e-08 1.932276e-08 -9.973803e-09
-2.595433e-08 -1.010940e-08 -1.563904e-08 7.315363e-08 4.799564e-08 -3.433121e-08
2.392966e-09 -2.072683e-08 2.953321e-09 -1.186449e-08 2.595696e-09 9.084387e-10
-3.243376e-07 5.527624e-07 -3.049357e-07 -2.205084e-07 3.741234e-08 3.210726e-07
-1.011079e-08 1.182045e-07 8.991868e-08 3.041031e-08 -8.536233e-08 -9.286186e-08
7.320921e-10 -1.826538e-08 2.245661e-09 -1.184792e-08 1.927230e-09 -3.113587e-10
-4.529159e-08 -1.610557e-08 2.185828e-07 2.157773e-08 -7.365011e-08 -1.782514e-07
-1.606208e-07 2.905687e-07 -1.711645e-07 -1.499041e-07 -1.150913e-08 2.163000e-07
1.316283e-08 -4.367419e-08 4.813793e-09 -9.548910e-09 5.497885e-09 -5.329621e-10
-3.470396e-09 -1.362411e-08 -3.434266e-09 -2.089406e-08 9.281500e-09 3.274677e-09
-1.443723e-08 4.788178e-09 4.026516e-09 -8.282057e-09 1.939073e-09 3.538876e-11
1.720904e-08 -4.001832e-08 -1.085357e-08 -2.645390e-08 2.535294e-08 9.398492e-09
1.063952e-08 -3.665879e-08 3.839657e-09 -1.507699e-08 5.698154e-09 7.275168e-10
-4.534733e-09 3.647192e-09 2.229772e-10 -4.674504e-09 -5.724442e-10 2.858005e-10
5.830386e-09 -1.880826e-09 -9.658599e-10 -5.477793e-09 -3.543248e-10 8.742351e-11
-3.133527e-09 -1.583901e-08 -3.015936e-08 -5.387499e-08 4.998839e-08 2.578200e-08
-2.353046e-09 2.858916e-09 9.994228e-11 -4.940474e-09 -4.781859e-10 8.964458e-10
1.113318e-09 -2.178579e-08 -6.388621e-09 -2.916366e-08 1.552427e-08 8.563679e-09
-7.286303e-09 4.068959e-09 8.473386e-10 -3.146376e-09 -1.640075e-10 -2.084168e-10
-7.077846e-09 3.999750e-09 7.959164e-10 -3.231804e-09 -5.428488e-10 -3.088843e-10
1.304119e-08 -3.880151e-08 -1.291628e-08 -2.685325e-08 2.474902e-08 6.409857e-09
-6.853460e-09 3.553796e-09 5.509815e-10 -2.812319e-09 -8.788400e-10 -6.411360e-11
-6.231016e-09 3.792698e-09 2.645466e-10 -4.378820e-09 -3.723659e-10 3.181599e-10
1.662714e-08 -6.885452e-09 -9.934304e-10 -5.928674e-09 -2.107269e-10 -2.754606e-10
1.283764e-08 -6.873613e-09 -1.536770e-09 -1.845240e-09 -5.453915e-11 1.792469e-10
1.232708e-08 -5.036709e-09 -1.794357e-09 -5.142243e-09 -3.635861e-10 1.737531e-10
1.026837e-08 -5.467731e-09 -1.426099e-09 -3.364500e-09 -2.903540e-10 4.351199e-10
-4.749889e-10 1.089566e-09 -5.838112e-10 -5.286524e-09 -1.335836e-10 -6.367433e-10
-4.755900e-09 3.287253e-09 2.972131e-10 -3.687070e-09 -3.573567e-10 -2.290295e-10
-4.489689e-09 3.577721e-09 4.674350e-11 -5.165014e-09 -7.080538e-10 -1.145291e-10
-1.251254e-09 1.432439e-09 -2.835154e-10 -6.963449e-09 -5.344813e-10 2.875389e-11
-2.438174e-09 3.447487e-09 -6.462417e-10 -7.531317e-09 -1.183995e-09 2.276731e-10
5.362139e-09 -1.737030e-09 -1.439645e-09 -7.720388e-09 -5.959574e-10 7.799517e-10
2.130768e-09 1.418030e-10 -6.488736e-10 -4.979874e-09 -3.199458e-10 -6.073997e-11
1.084384e-08 -5.574584e-09 -1.344884e-09 -4.819145e-09 -2.078199e-10 -1.486978e-10
1.131104e-09 -2.192256e-08 -1.804533e-08 -2.901142e-08 1.809619e-08 8.322556e-09
8.798343e-08 -1.858895e-07 -4.629531e-07 1.837805e-07 4.981623e-07 -2.388508e-07
4.587682e-09 -5.367983e-08 2.925310e-07 3.177041e-08 2.952307e-08 2.035467e-07
-9.591174e-08 1.936249e-08 3.429050e-07 4.900892e-08 1.322392e-07 1.362934e-07
9.227305e-09 -2.590496e-08 -3.769270e-09 -1.768962e-08 1.092419e-08 1.428182e-09
5.333340e-09 1.412338e-08 -1.261052e-09 -2.136127e-08 5.028345e-09 -1.600524e-09
1.063952e-08 -4.197015e-08 4.828686e-09 -1.652192e-08 8.586940e-09 5.102129e-10
7.628302e-09 -3.952157e-08 5.343542e-09 -2.555096e-08 1.191770e-08 4.807925e-09
1.185533e-08 -3.473014e-08 -1.053008e-08 -2.167801e-08 1.355677e-08 4.212303e-09
1.812785e-08 -7.590656e-09 -3.862115e-10 2.878462e-09 3.479911e-10 -1.167209e-09
6.655604e-09 -2.418643e-08 -1.745189e-08 -2.857186e-08 1.899753e-08 1.045888e-08
-3.684802e-09 4.588605e-09 9.450485e-10 5.922640e-09 2.581432e-10 -2.031777e-09
4.616203e-09 -3.662499e-10 -1.105688e-09 -9.576157e-09 -8.929173e-10 -8.377792e-10
2.355580e-08 -2.057137e-09 1.199577e-08 1.985419e-08 -7.481747e-09 -2.116107e-08
-7.176755e-09 1.490018e-09 1.684803e-09 -2.127274e-10 5.489159e-10 -8.925696e-10
-8.496507e-09 1.931079e-09 1.980333e-09 -1.035635e-09 4.131553e-10 -1.332852e-09
2.147673e-08 -4.626505e-09 4.490681e-09 1.433708e-08 -2.172480e-09 -1.160103e-08
-6.321547e-07 1.387818e-06 -3.668693e-07 -2.895179e-07 -8.161292e-07 -4.757106e-08
-1.369125e-07 1.019685e-07 2.628011e-07 -5.650974e-08 6.986288e-08 -1.599769e-07
7.395139e-09 2.664275e-10 9.255043e-10 1.026597e-08 -8.095093e-11 -2.279861e-09
-6.668133e-09 5.833204e-09 1.506424e-09 6.651383e-09 -2.062064e-10 -1.283775e-09
-1.001262e-08 1.367715e-07 -2.062776e-07 1.846831e-08 4.265761e-08 -2.488640e-08
-2.869119e-08 8.806615e-08 -1.251753e-07 2.068828e-08 -2.861812e-08 4.401999e-08
-2.253360e-07 4.391202e-07 3.964671e-07 -7.542774e-08 -3.645859e-08 -6.756073e-07
-1.627386e-08 2.074751e-07 -1.344468e-07 2.220803e-08 1.440223e-08 2.114062e-08
-7.947232e-09 5.004236e-09 -3.113714e-10 -4.501560e-09 -2.512887e-09 4.871532e-10
-4.927230e-07 1.078849e-06 -1.002672e-07 -3.038936e-07 -5.257796e-07 2.408524e-07
-4.687854e-08 1.038392e-07 -2.877427e-08 -2.641074e-08 -2.589491e-08 -2.353882e-08
-9.937606e-11 3.505034e-09 8.979053e-10 9.250362e-09 -3.373526e-10 -1.779866e-09
4.288506e-09 5.784252e-09 4.680167e-08 -3.696682e-08 2.215241e-08 -2.649663e-08
-6.237836e-09 9.032772e-09 5.038996e-10 5.276680e-09 5.331927e-10 -1.279706e-09
1.240448e-08 -5.931791e-09 4.004804e-08 -1.802110e-08 1.507422e-08 -2.866740e-08
3.283234e-09 -1.428820e-08 9.554874e-08 -4.466858e-09 -1.649126e-08 -5.384253e-08
-9.179745e-09 5.624498e-09 2.119948e-09 -6.498445e-11 -3.264231e-10 -1.632258e-09
-8.514763e-09 9.750726e-09 1.663578e-10 1.847030e-09 9.338005e-10 -4.011384e-10
-9.535200e-09 4.772618e-09 1.114395e-09 1.130867e-09 6.246887e-10 -5.507641e-10
-7.697207e-09 1.807905e-09 2.089641e-09 -1.133936e-09 4.727942e-10 -9.369877e-10
-1.261947e-08 9.792074e-09 -4.780483e-10 -5.685794e-09 2.341399e-09 1.328179e-09
-3.358517e-08 4.983226e-08 1.348797e-08 2.465222e-08 -3.189223e-08 1.491600e-08
-1.083582e-08 9.866211e-09 -2.265876e-10 -7.789804e-10 1.513619e-09 1.296124e-09
-4.959768e-09 2.485763e-09 5.995657e-10 1.427847e-09 4.029692e-10 -2.716878e-10
-6.744426e-09 1.243453e-09 1.671927e-09 1.427733e-10 2.460421e-11 -3.193203e-10
4.495321e-09 2.761752e-09 -8.843681e-10 1.016662e-08 2.932958e-10 -1.252535e-09
-7.874821e-10 7.704832e-10 -1.158993e-10 3.700256e-09 3.173817e-11 -3.045867e-10
-7.707809e-09 4.745770e-09 7.632877e-10 -4.027206e-10 1.637639e-09 -6.020708e-11
-6.638936e-09 4.719324e-09 2.787863e-10 2.325756e-09 1.382799e-09 1.978413e-10
2.297591e-08 -5.217274e-08 -3.068068e-09 -5.085433e-09 1.842433e-08 -9.127803e-11
2.123164e-08 -4.432004e-08 -2.461556e-09 9.566333e-09 9.449159e-09 -2.970706e-09
3.347071e-08 -3.611414e-08 -3.827190e-08 -2.355803e-09 3.690764e-08 1.631779e-09
1.398667e-08 2.546996e-08 -4.026544e-09 3.351923e-08 6.750538e-09 -2.772573e-09
2.095041e-08 -3.785494e-08 -1.036956e-08 1.710700e-08 1.563048e-08 -2.442458e-09
2.574592e-08 -6.144055e-08 4.479550e-09 4.170428e-09 1.536513e-08 -6.463692e-10
2.791792e-08 -4.165835e-08 -1.164151e-08 3.493237e-09 1.473989e-08 -8.470737e-11
2.646061e-08 -6.960895e-08 -1.121997e-08 -2.427096e-09 3.027464e-08 -5.398416e-10
2.057880e-08 -5.782421e-08 -1.053157e-09 -7.947564e-09 1.457946e-08 6.933404e-10
1.598743e-08 -2.920103e-08 -1.323236e-08 -2.056779e-08 1.588413e-08 3.681622e-09
1.319056e-08 -3.425887e-08 -4.609275e-10 -1.646952e-08 8.127154e-09 1.110281e-09
5.175167e-08 1.365348e-07 -1.135627e-07 -4.715687e-08 -7.404060e-08 7.276863e-08
2.269251e-08 -6.919273e-08 -2.008119e-08 -3.000491e-08 4.391505e-08 9.213785e-09
3.263789e-08 -5.736186e-08 -2.399384e-08 -1.684749e-08 5.756870e-08 6.650789e-09
3.245118e-08 -5.065165e-08 -3.106623e-08 -1.558304e-08 3.430392e-08 5.927893e-09
-7.031444e-09 4.705618e-08 -5.255439e-08 -1.934901e-09 -3.622405e-08 -2.850961e-08
-5.087552e-08 1.152078e-07 -7.718852e-08 -9.987532e-09 -1.054697e-08 -5.967732e-08
-1.989551e-10 -2.876256e-08 4.445031e-09 1.940737e-08 4.970422e-09 -8.261009e-10
-1.749015e-09 -1.888179e-08 5.985102e-09 1.090409e-08 -2.645010e-11 8.904849e-10
1.879325e-08 -1.574682e-08 4.510925e-08 -6.912924e-09 2.522497e-09 -3.134278e-08
1.471463e-08 1.868952e-08 -5.616228e-08 -1.743892e-08 -4.815270e-08 -1.640872e-08
4.572474e-08 -7.161361e-08 -1.623375e-08 -1.553643e-08 -8.265017e-08 -2.756687e-09
-7.151381e-09 1.290270e-08 -3.153575e-10 5.457253e-09 7.944210e-10 -1.988902e-09
2.426940e-08 -3.083927e-08 -4.130037e-08 -5.551958e-08 -8.517266e-08 -3.925818e-08
-1.539388e-08 2.909557e-08 -5.184003e-08 4.570578e-08 4.851404e-08 -5.342247e-08
1.186324e-08 -3.507100e-09 7.640342e-10 8.602688e-09 -8.667862e-11 -3.025373e-09
4.103343e-09 4.557245e-09 6.300227e-11 1.238402e-08 -8.266842e-10 -5.123752e-09
-7.221063e-08 4.121979e-07 8.558857e-08 1.771999e-07 -4.365255e-08 3.884015e-07
1.243698e-08 2.746318e-10 3.423355e-10 1.262365e-08 -4.741455e-10 -3.721940e-09
2.110994e-08 -7.703162e-09 -3.798251e-09 5.251303e-09 -5.234080e-10 -7.047344e-10
7.972914e-09 2.462130e-08 2.542437e-08 3.598251e-08 -2.304911e-08 -3.612248e-08
-7.690009e-10 -2.469020e-08 -1.775129e-09 2.869481e-08 1.324182e-08 -5.945124e-09
-5.718780e-09 -3.777865e-09 2.598409e-09 -3.807798e-09 7.154766e-10 -3.648020e-10
3.552864e-08 -6.326212e-08 -4.476064e-09 5.077177e-09 3.656891e-08 4.369748e-10
-8.461777e-09 1.595334e-10 1.984650e-09 -3.417546e-09 8.044296e-10 -7.257032e-10
-9.835335e-09 6.019363e-10 1.404779e-09 -4.918659e-09 -4.016543e-11 -2.761686e-10
2.983413e-08 -7.959197e-08 -9.818975e-09 3.792239e-08 6.922392e-08 -1.813866e-08
-5.650582e-09 -3.534536e-09 3.081434e-09 -3.572617e-09 3.606468e-10 -7.817296e-10
-7.137498e-09 -2.104601e-09 1.842621e-09 -3.766481e-09 1.377159e-09 -8.490197e-10
4.569252e-09 -2.350688e-08 -2.594178e-09 -1.645376e-08 4.259689e-09 1.402090e-09
2.531396e-09 -1.892772e-08 1.901903e-09 -1.255111e-08 2.455828e-09 4.895864e-10
-8.961971e-09 -1.907818e-08 -2.293760e-09 -3.631966e-08 1.813710e-08 1.153879e-08
-1.997032e-08 1.674466e-08 -9.559234e-10 -6.424965e-09 2.095651e-09 4.150002e-09
7.234246e-09 -1.404676e-09 -1.574603e-09 8.023933e-09 5.978893e-10 2.656098e-11
-3.971394e-09 1.343783e-08 6.876548e-10 1.202871e-08 -2.530852e-09 -3.999618e-09
1.233263e-08 -6.791408e-09 -1.353746e-09 -5.691611e-10 -1.460115e-11 1.336831e-10
-4.146789e-09 -1.335241e-08 7.329366e-10 -1.385271e-08 3.272471e-09 4.511337e-10
4.184302e-09 -2.744426e-08 3.048094e-09 -1.674629e-08 6.305502e-09 -9.350497e-11
-5.501522e-09 4.229050e-09 4.212710e-10 4.330456e-09 5.511072e-10 -7.943145e-10
-5.445310e-09 4.659226e-09 6.394176e-10 4.174814e-09 1.988903e-11 -5.954605e-10
3.061501e-08 -7.677326e-08 3.268246e-10 1.821906e-08 3.087034e-08 -6.887695e-09
-3.913415e-09 -1.572103e-08 4.442590e-09 1.635315e-08 2.968334e-09 -7.361405e-10
1.221076e-09 2.744804e-09 4.875940e-10 8.237134e-09 3.359712e-10 -9.630480e-10
6.014612e-08 -1.807245e-07 -1.499040e-07 1.686307e-07 3.783051e-07 -3.096588e-07
-2.061236e-10 1.472643e-09 -8.113132e-11 5.222404e-09 2.363762e-10 -5.091247e-10
-2.561002e-07 1.215709e-07 7.843320e-07 1.358579e-07 3.755784e-07 2.083896e-07
-2.319195e-09 5.432248e-09 -3.961382e-10 6.095851e-09 1.263330e-09 -1.327583e-09
-6.819034e-09 4.026112e-09 1.270047e-09 3.017019e-09 2.672699e-10 -1.620499e-09
-9.547915e-10 4.389147e-08 1.576543e-08 -5.111061e-08 -2.909228e-08 1.005305e-08
-6.972366e-09 3.659900e-09 1.033883e-09 2.458249e-09 6.149299e-10 -5.108870e-10
1.274957e-08 9.541772e-08 -1.758873e-07 1.020825e-08 9.369038e-08 -5.791594e-08
-4.291459e-08 9.606713e-08 -7.982561e-08 -1.050706e-08 2.965361e-08 -5.934055e-08
-1.562791e-09 4.006229e-09 4.749316e-10 6.324767e-09 4.714860e-10 -5.658182e-10
1.122963e-07 -3.427601e-07 -5.096012e-07 -1.435530e-07 6.663728e-07 2.672177e-08
3.249958e-08 -4.034330e-08 -4.669102e-08 -3.270291e-08 4.933654e-08 1.639831e-08
-1.169197e-07 1.604021e-07 -5.322284e-08 -3.722422e-08 -2.022810e-07 3.572281e-08
5.759326e-08 -1.401052e-07 -1.791278e-07 -9.908237e-10 1.634016e-07 2.415851e-09
4.466675e-09 -2.735920e-08 -2.531662e-09 -2.532981e-08 1.140887e-08 4.967325e-09
6.981479e-09 -5.353535e-08 -8.527406e-10 -4.616727e-08 3.736943e-08 1.691709e-08
3.756882e-08 -4.654729e-08 -4.307109e-08 -2.679332e-08 6.027778e-08 2.030021e-08
6.122166e-08 -7.092560e-08 -4.556599e-08 -7.358460e-08 1.283499e-07 4.935435e-08
6.162451e-08 -2.340529e-07 -1.105674e-08 -2.176546e-08 1.245693e-07 8.247627e-09
-9.021631e-10 -1.927430e-08 -1.673078e-08 -3.711435e-08 2.663785e-08 1.372054e-08
6.485412e-09 -2.853169e-08 -6.934572e-10 -3.313663e-08 1.837065e-08 8.271280e-09
1.803120e-08 -3.823679e-08 -2.500005e-08 -3.060863e-08 3.246446e-08 8.826730e-09
1.728609e-08 -5.351414e-08 1.437471e-09 -4.438868e-08 3.653778e-08 1.205896e-08
2.253566e-08 -6.919472e-08 -3.571575e-09 -3.002828e-08 4.436720e-08 1.078155e-08
-8.791329e-09 7.114170e-09 -3.212320e-09 -2.425892e-09 -7.548148e-09 4.734074e-09
-7.735962e-09 6.822134e-10 -3.615376e-09 3.676645e-09 -4.840814e-09 1.982225e-09
-1.256765e-08 -3.023961e-08 -5.583770e-09 -3.878188e-08 -2.888781e-08 -1.705048e-08
-1.055464e-08 3.355262e-09 -2.755936e-09 3.737639e-09 -4.675604e-09 2.480216e-09
-4.979992e-09 3.379834e-09 -1.352729e-08 7.783910e-09 -1.205560e-08 7.212397e-09
-1.510148e-08 1.184161e-08 -5.152381e-09 -1.597659e-08 -1.316526e-08 -1.208288e-08
-1.142021e-08 4.911707e-09 -9.756269e-10 4.161074e-09 -6.277130e-09 4.894619e-09
1.406522e-08 -6.496493e-09 -1.183243e-09 1.251246e-09 1.059343e-10 -4.363465e-10
-1.055861e-08 2.232183e-09 1.211484e-09 4.067649e-09 -4.401513e-09 2.084373e-09
4.048777e-08 -4.826783e-08 -4.854293e-08 -1.043111e-08 5.786961e-08 3.555724e-09
-5.464262e-09 2.922346e-08 -3.024485e-08 -9.790702e-09 -2.012925e-08 -1.623567e-08
4.673084e-08 -1.180057e-07 -4.687461e-08 -9.855470e-09 9.342180e-08 4.439363e-09
3.343561e-08 -1.996079e-09 -6.397227e-08 2.381787e-08 6.474717e-08 -1.711504e-08
2.349900e-08 -2.915920e-09 -6.126380e-08 3.783634e-08 6.196252e-08 -2.231048e-08
5.490819e-08 -1.296986e-07 -1.195232e-08 -1.095383e-08 8.732165e-08 -8.404570e-09
-1.864918e-08 3.358565e-10 -2.741183e-08 5.467613e-08 5.031382e-08 -4.318151e-08
6.494331e-08 -8.464643e-08 -2.559437e-08 5.428663e-09 1.077334e-07 -9.605968e-09
2.900257e-08 -8.559787e-08 -1.882854e-09 2.425769e-09 -3.453847e-08 2.381780e-09
3.199302e-08 -3.615969e-08 -3.138822e-08 9.240178e-09 -3.923157e-08 1.025638e-08
2.981862e-08 -7.348338e-08 -7.187473e-09 1.409571e-08 -3.744804e-08 7.490334e-09
3.197998e-08 -6.202180e-08 -4.844136e-09 3.587572e-08 -5.868605e-08 1.689987e-08
5.788870e-08 -1.329225e-07 -1.702569e-08 3.483526e-08 -9.866878e-08 2.823970e-08
5.142207e-08 -8.781606e-08 -3.332505e-08 2.612803e-08 1.177545e-07 -2.106829e-08
3.214165e-08 -7.197773e-08 -9.807015e-09 4.102731e-09 -5.155616e-08 3.061175e-09
3.208001e-08 -6.992875e-08 -1.257807e-08 -2.355269e-08 -4.375674e-08 -1.453323e-09
4.359166e-09 -9.890194e-10 -5.082561e-10 5.828369e-09 4.385802e-10 7.849832e-11
6.865655e-10 -7.518989e-10 -2.504414e-10 3.157619e-09 5.817380e-10 2.210947e-10
3.161201e-08 -7.037869e-08 -7.201168e-09 6.232101e-10 -3.683965e-08 2.970277e-09
-3.068430e-09 1.790904e-09 3.970912e-10 4.173751e-09 3.683371e-10 -5.337122e-10
1.841593e-08 -2.626709e-08 -2.724535e-08 -3.082625e-08 -4.202226e-08 -1.382694e-08
7.110412e-09 4.367962e-08 -7.231947e-08 2.185502e-08 -5.265517e-08 4.060717e-08
8.253006e-09 -5.043077e-08 -4.079506e-09 3.249698e-08 -2.876270e-08 1.090019e-08
2.458842e-09 1.322629e-08 -4.597834e-08 1.160115e-08 -4.193103e-08 2.382786e-08
-1.060974e-09 1.401336e-09 -7.537371e-11 5.471287e-09 4.558674e-10 -6.105019e-10
1.229004e-09 1.860707e-10 -4.092883e-10 4.566880e-09 2.325833e-10 -1.351217e-10
3.201146e-08 -9.017533e-08 -5.674819e-09 3.396865e-08 -5.084039e-08 1.789801e-08
1.967566e-08 1.027309e-08 -5.979216e-08 1.116763e-08 -5.363136e-08 2.195837e-08
-1.434449e-09 1.434182e-09 9.302070e-11 3.993402e-09 2.454473e-10 -2.877081e-10
-2.915094e-09 2.212985e-09 7.008962e-10 3.847736e-09 4.504085e-10 -5.050390e-10
-4.781149e-08 7.436062e-08 1.652811e-08 2.362829e-08 7.778967e-08 1.549183e-08
4.717265e-10 -4.528036e-09 -2.104348e-08 1.666253e-08 -2.135597e-08 1.438801e-08
6.404246e-09 -2.166244e-08 -1.506508e-08 2.450551e-08 -2.981267e-08 1.585426e-08
-8.621308e-09 -5.035358e-09 -1.258716e-08 2.259783e-08 -2.270017e-08 1.985679e-08
-3.480572e-09 2.231742e-09 4.004297e-10 3.151243e-09 3.187830e-10 -3.399486e-10
-1.768107e-09 1.311963e-09 3.284493e-10 3.651063e-09 5.757912e-10 8.381917e-11
2.830524e-09 6.393379e-09 -1.839395e-09 -1.317594e-08 -6.562725e-10 1.632821e-10
-2.133003e-08 3.597972e-08 -3.848918e-08 1.144174e-08 -4.109769e-08 4.202173e-08
-6.032059e-10 1.157689e-09 1.075642e-10 4.186494e-09 7.422271e-11 -2.293110e-10
1.309244e-09 1.300361e-09 -1.842679e-10 6.849370e-09 5.458241e-10 -4.065615e-11
7.306087e-09 -1.877030e-08 -9.215137e-09 1.251807e-08 -1.271827e-08 4.192131e-09
-1.011280e-09 1.243611e-09 3.693845e-11 3.830974e-09 3.163394e-10 -1.568772e-10
1.193892e-08 -3.114924e-08 -4.017756e-09 -1.498316e-08 6.863640e-09 2.197510e-09
-1.264754e-09 -2.045918e-08 1.005759e-09 1.482923e-08 -1.156931e-08 3.865538e-09
1.089302e-08 -4.475517e-09 -1.688846e-09 -7.029884e-09 -5.283716e-10 3.667143e-10
1.695360e-08 -4.011239e-08 3.361505e-09 -5.829537e-09 4.768025e-09 -2.703263e-10
8.181215e-09 -3.022255e-08 5.280561e-09 -8.716334e-09 2.477574e-09 -1.967018e-10
9.447973e-09 -3.187133e-08 4.747409e-09 -1.024654e-08 3.629616e-09 1.789943e-11
6.800944e-09 -2.851245e-08 1.580998e-09 -1.290366e-08 2.645646e-09 -1.282471e-11
8.179769e-09 -3.203747e-08 3.761779e-09 -8.898654e-09 2.544758e-09 -4.408686e-10
-2.803073e-09 1.725247e-09 2.978446e-10 2.897220e-09 4.485848e-10 -3.244946e-11
-4.822669e-09 2.337535e-09 6.985252e-10 1.931611e-09 4.436831e-10 -3.840969e-10
-3.888110e-09 2.200284e-09 6.754082e-10 2.520833e-09 -5.647705e-11 -1.865770e-10
1.062890e-08 -3.687237e-08 1.663099e-09 -2.105149e-08 1.036437e-08 2.839220e-09
-4.908310e-09 7.759635e-09 -7.730332e-10 -8.404314e-09 -2.458100e-09 2.085897e-09
-3.257140e-08 1.015445e-08 -1.177903e-08 2.511455e-08 -2.220381e-08 2.957673e-08
-2.014589e-08 2.166981e-08 -3.268305e-09 -1.974567e-09 -7.235114e-09 1.410481e-08
-2.364518e-08 2.187121e-08 -6.877369e-09 1.902129e-09 -7.809687e-09 1.497140e-08
-1.822400e-08 2.041490e-08 -5.469678e-09 -9.810703e-10 -5.483897e-09 1.190809e-08
-6.193770e-09 2.469356e-09 1.243191e-09 1.167949e-09 2.200272e-10 -3.536964e-10
-4.009041e-09 2.193476e-09 4.000880e-10 3.588796e-09 1.339602e-10 -4.220005e-10
-5.725159e-09 2.371941e-09 1.110169e-09 1.887300e-09 4.014198e-10 -6.781369e-10
-4.915505e-09 2.425772e-09 8.736105e-10 1.959584e-09 1.576641e-10 -2.113980e-10
-5.641191e-09 2.414885e-09 1.091453e-09 1.023924e-09 3.313255e-10 -3.251819e-10
-2.153104e-08 2.791682e-08 -1.172624e-08 1.178265e-10 8.061532e-09 -9.985937e-09
-1.583440e-09 1.168227e-09 1.201146e-10 2.351994e-09 1.045551e-10 -6.160285e-10
-8.766928e-09 -1.490810e-09 2.223079e-09 -7.798117e-09 1.497580e-09 1.796404e-11
-6.591688e-09 -3.648529e-09 2.333279e-09 -3.982397e-09 4.209860e-10 -9.857229e-10
-5.162295e-09 3.840404e-09 5.977814e-10 -2.340795e-09 -1.571021e-10 -7.711609e-11
-5.747964e-09 -6.697364e-09 3.261912e-09 -6.533485e-09 1.720424e-10 -5.623811e-10
-4.486873e-09 -7.555326e-09 2.769083e-09 -6.284590e-09 1.289846e-09 4.331046e-11
-5.036986e-09 -7.697793e-09 2.602145e-09 -9.030023e-09 5.115467e-10 -5.407556e-10
-5.991760e-09 3.643364e-09 4.351777e-10 -3.129236e-09 -1.348347e-10 7.176260e-11
-4.814306e-09 -8.174763e-09 3.730704e-09 -6.161104e-09 -1.471947e-10 -1.225268e-09
-1.233298e-09 6.012566e-08 3.133870e-08 -8.058847e-08 -1.010198e-07 3.318598e-08
2.890829e-08 1.851925e-08 3.738937e-08 -3.927883e-08 -2.630448e-08 2.833192e-08
-3.347071e-08 9.144862e-08 5.466802e-08 -5.913455e-08 -6.982444e-08 7.765574e-08
8.557160e-09 -4.381866e-09 -1.244941e-09 -4.070491e-09 -3.758832e-10 -3.330047e-11
6.976727e-09 -3.033914e-09 -1.040763e-09 -4.099669e-09 -4.727077e-10 2.513316e-10
6.287155e-08 -3.239271e-08 4.538158e-08 -2.730794e-08 -2.974797e-09 6.455383e-08
6.722794e-09 -2.660536e-09 -1.141776e-09 -5.582677e-09 -1.811662e-10 8.163248e-11
5.953686e-09 -1.888863e-09 -9.460410e-10 -5.577364e-09 -6.031161e-10 2.419481e-10
4.805382e-09 -1.211540e-09 -1.094820e-09 -7.420799e-09 -4.528511e-10 4.378533e-10
1.448767e-08 -6.490222e-09 -1.878255e-09 -3.040154e-09 -2.333514e-10 -1.055779e-10
-1.229391e-08 7.057456e-08 -1.009846e-07 1.903323e-08 6.326208e-08 -5.694028e-08
4.470244e-08 -1.253589e-07 -1.742669e-08 7.516147e-08 1.042951e-07 -3.862069e-08
-4.293468e-08 8.713012e-08 1.288576e-09 -7.815909e-08 -6.054579e-08 1.126828e-07
-3.638793e-08 -5.065098e-08 -1.458465e-08 9.397576e-08 7.497201e-08 -4.401761e-08
-9.125961e-09 3.376489e-08 -3.937626e-08 2.821664e-08 3.226797e-08 -2.447978e-08
-6.731720e-08 5.530456e-08 -1.440018e-08 1.825347e-08 1.276358e-08 -4.229604e-08
-4.583114e-10 1.924993e-07 7.354373e-08 -1.489960e-07 -1.242289e-07 1.067982e-07
-2.769311e-08 1.729004e-08 -1.756423e-08 -2.677618e-08 1.655007e-08 2.114115e-08
-3.403626e-08 1.235970e-08 -8.634954e-09 -5.742581e-08 2.952126e-08 4.238761e-08
7.279164e-09 -4.429696e-08 -8.696224e-09 -4.140476e-08 3.351966e-08 1.041773e-08
-2.649739e-09 -3.872714e-09 -2.122743e-08 -2.974368e-08 2.113166e-08 1.353418e-08
-3.931764e-08 2.861179e-08 1.057925e-08 -1.810018e-08 -3.157704e-09 1.541904e-08
5.602387e-09 2.413869e-08 -2.237645e-08 2.528219e-08 -1.128212e-08 -1.520407e-08
-7.638125e-09 7.847758e-10 2.073009e-09 -1.668397e-09 1.305583e-10 -7.286311e-10
3.613663e-09 1.018193e-08 -4.147202e-08 -3.157144e-08 3.816201e-08 2.663313e-08
2.735789e-09 -3.675986e-08 -2.112226e-08 3.222839e-08 -4.276362e-08 2.128533e-08
1.793297e-08 -3.829397e-08 -1.263706e-08 -3.053272e-08 3.226736e-08 9.270962e-09
2.308573e-08 -7.708838e-09 -6.195375e-08 -3.164701e-08 -5.936035e-08 -1.652059e-08
3.346625e-08 -1.030795e-07 -1.715966e-08 2.188081e-08 -6.719865e-08 1.344761e-08
1.150213e-08 -6.430089e-08 -1.240036e-08 4.508011e-08 -5.082274e-08 2.150153e-08
2.442967e-08 -3.562059e-08 -4.971663e-08 4.917696e-08 9.974947e-08 -4.561552e-08
-2.308111e-07 5.118105e-08 2.738308e-07 1.746607e-08 1.639156e-07 2.052133e-08
-9.238304e-08 7.346575e-08 -2.626807e-08 2.639573e-08 -1.916915e-08 -2.163036e-08
4.883047e-08 1.443093e-07 -1.700841e-07 -9.388400e-09 9.101368e-08 1.374677e-08
-2.710212e-09 1.774030e-07 -4.184149e-09 -1.329806e-07 -5.118509e-08 3.901908e-08
-2.761068e-08 2.446125e-08 -2.231619e-09 -2.562189e-08 5.181026e-09 1.714464e-08
-1.257057e-08 1.246772e-08 -6.152334e-09 -6.825136e-09 -3.806866e-09 8.410925e-09
2.617020e-08 -1.506295e-08 2.024731e-08 2.333641e-09 1.586073e-09 -2.331718e-08
2.422954e-08 -1.135385e-08 1.194688e-08 5.682486e-09 2.283317e-10 -1.502656e-08
1.935858e-08 6.187326e-08 -1.047077e-07 -1.678450e-08 -5.390514e-08 1.109670e-08
2.878535e-08 -1.592929e-08 2.450637e-08 2.559616e-11 4.754513e-09 -2.666093e-08
2.083526e-08 -1.511028e-08 1.213071e-08 1.250508e-09 9.973875e-10 -1.277853e-08
-1.618595e-08 5.424926e-08 -4.465678e-08 -1.359617e-08 -1.611284e-08 3.602825e-08
1.280941e-08 4.409209e-09 2.156410e-08 -2.658291e-08 9.578243e-09 -1.566996e-08
1.959114e-08 -1.673521e-08 4.610055e-08 -7.782589e-09 2.218644e-09 -3.030802e-08
5.959936e-09 1.102863e-09 9.495321e-08 1.098695e-08 -1.065122e-08 -6.602072e-08
4.083043e-08 1.100950e-08 -2.772219e-09 -2.105816e-08 -4.280161e-09 1.831919e-08
-9.186215e-09 -1.509764e-08 -2.341923e-08 3.270699e-08 -3.768321e-08 2.441722e-08
1.893867e-09 2.504781e-08 5.810060e-10 -3.124804e-08 -1.461994e-08 4.077973e-09
-3.874434e-08 3.862059e-08 -6.554642e-10 1.029776e-08 -9.302752e-11 -2.032357e-08
-1.204516e-08 4.009775e-08 -1.560952e-08 -1.801536e-08 1.111608e-09 -1.015249e-08
-3.436330e-08 1.736256e-08 2.105183e-11 3.076589e-08 1.177745e-08 -2.104848e-08
-2.636112e-08 5.586359e-08 -6.059799e-08 4.080338e-08 -1.001079e-07 7.779711e-08
-3.427196e-09 -1.888179e-08 6.283972e-09 1.255484e-08 1.259557e-09 4.286153e-10
-6.639391e-10 -1.993836e-08 -4.580537e-09 2.940643e-08 1.565285e-08 -5.506102e-09
-1.196440e-08 2.077175e-09 -4.178525e-09 2.214567e-08 7.306697e-09 -3.975847e-09
-4.243492e-09 -1.802430e-08 3.718767e-09 1.476491e-08 1.685918e-09 -6.978659e-12
-6.874982e-09 -2.256984e-08 3.964404e-09 3.193581e-08 1.132699e-08 -5.196171e-09
1.958958e-08 1.895356e-09 -5.441126e-08 1.932507e-08 -5.257087e-08 2.750845e-08
-5.261938e-09 -2.017381e-08 1.544874e-09 1.625171e-08 3.992221e-09 -1.656938e-09
-8.429464e-09 -1.298205e-08 -2.333779e-09 2.260868e-08 8.664458e-09 -4.473474e-09
-6.733374e-09 4.260750e-08 -4.971807e-08 -1.783182e-08 -2.561331e-08 2.855282e-08
-4.495368e-09 2.732236e-09 -4.558232e-10 -6.282475e-09 -1.802518e-09 7.014577e-10
-9.302590e-09 8.964541e-09 -2.735605e-09 -5.900795e-09 -2.477776e-09 2.235663e-09
-2.792779e-09 -7.952306e-09 3.286609e-09 -5.647105e-09 1.000890e-09 -8.991417e-10
-5.464471e-09 -5.134330e-09 3.114097e-09 -5.239982e-09 7.249069e-10 -6.246775e-10
-5.848926e-09 -2.487907e-09 2.674851e-09 -3.787989e-09 1.008733e-09 -1.195153e-09
-7.875151e-09 6.188188e-10 1.834643e-09 -1.446609e-09 -7.067869e-11 -4.413765e-10
-8.188069e-09 -1.083169e-09 1.622734e-09 -4.954141e-09 2.074801e-09 -7.639696e-10
-1.254121e-08 1.322330e-08 -5.793860e-09 -3.566575e-09 -3.814902e-09 4.621073e-09
-4.414868e-09 -5.921567e-09 3.173613e-09 -4.691184e-09 3.005904e-10 -3.846505e-10
-1.384044e-08 2.987599e-09 -1.222112e-09 6.406813e-09 -8.154323e-09 7.649889e-09
-1.157289e-08 2.856227e-09 5.653953e-10 1.174202e-09 -4.141049e-09 3.159571e-09
-1.153663e-08 6.447646e-09 -2.478778e-09 4.403730e-09 -5.970162e-09 5.435180e-09
-1.448577e-08 1.334151e-08 -5.826113e-09 -1.170337e-09 -5.846005e-09 8.984853e-09
-9.801976e-09 4.720823e-09 -1.428915e-09 -1.581048e-09 -2.537567e-09 2.083573e-09
1.845718e-09 -2.788976e-08 3.355488e-09 1.487854e-08 3.624208e-09 -6.989269e-10
5.726163e-09 -3.238343e-08 6.163346e-09 1.204612e-08 3.001505e-09 -4.616763e-10
-1.279131e-09 -2.451419e-08 5.288695e-09 1.365518e-08 2.364222e-09 4.825874e-10
-3.620824e-08 7.175686e-08 1.041526e-09 1.632656e-08 -1.802226e-08 1.641188e-08
-1.859793e-08 5.780916e-10 -5.774273e-10 1.045782e-08 -1.214434e-08 8.325956e-09
-1.090562e-08 -7.729951e-09 -1.189492e-08 1.701468e-08 -2.106918e-08 1.508712e-08
1.343720e-08 -1.881258e-08 4.688085e-08 -4.178564e-09 3.617345e-09 -3.314683e-08
-1.713063e-08 1.884811e-08 -1.567427e-08 1.075331e-09 -1.130878e-08 1.661746e-08
2.963945e-08 9.132797e-09 8.566778e-08 -4.054840e-08 2.945275e-08 -7.632547e-08
2.003355e-08 -6.157179e-09 2.744946e-08 2.062668e-08 -9.344066e-09 -2.525942e-08
3.186868e-08 -7.109298e-09 3.093367e-09 -1.397574e-08 3.135429e-09 -1.606778e-08
-2.323333e-08 2.042466e-08 -2.889085e-09 1.488053e-08 -9.960196e-09 1.559586e-08
-9.560063e-09 9.490148e-09 -4.442420e-09 -7.724646e-09 -3.701523e-09 4.927115e-09
1.017148e-08 -7.868733e-09 6.518464e-08 2.124908e-08 -1.668741e-08 -4.186366e-08
-1.101100e-08 1.618919e-08 -7.118743e-09 -4.617962e-09 -7.485211e-09 9.718990e-09
-2.949078e-09 2.111666e-09 4.735241e-10 3.478810e-09 4.965394e-10 1.117994e-11
-1.108314e-08 3.654429e-08 5.464119e-09 -2.304625e-08 1.500633e-08 7.200679e-09
1.858442e-08 -6.942845e-09 6.399253e-08 4.724139e-09 -6.622341e-09 -5.055484e-08
-1.692968e-07 1.368820e-07 -5.374614e-08 8.118689e-08 -1.945292e-07 2.993333e-08
-5.848227e-08 7.346575e-08 1.013990e-07 2.175950e-08 -1.137537e-07 -4.235864e-08
-1.143732e-09 2.302275e-09 -4.949396e-11 5.245994e-09 2.991525e-10 -5.574556e-10
-9.096848e-10 2.852256e-09 1.128315e-10 5.879538e-09 6.712571e-10 -4.197087e-10
-8.313671e-08 1.368062e-07 4.584424e-08 -2.420354e-08 -4.637813e-08 -4.887798e-08
-6.338963e-09 4.574415e-09 9.542145e-10 4.277621e-09 -3.706571e-10 -1.170763e-09
6.702935e-08 -1.255837e-07 -6.678113e-08 -2.790233e-08 1.852780e-07 -1.511497e-10
4.251997e-08 -4.009814e-08 -5.774789e-08 2.185312e-08 6.943176e-08 -8.969955e-09
7.148680e-09 -5.652621e-08 -1.295777e-08 6.559578e-08 5.424227e-08 -2.397905e-08
-2.925637e-08 5.824718e-08 -5.816833e-08 3.508476e-08 5.195658e-08 -6.560480e-08
3.101775e-08 -7.798916e-08 -2.857276e-09 -1.372959e-08 4.069481e-08 3.305037e-09
-8.048504e-08 1.325494e-07 2.921671e-09 1.824188e-10 -3.683773e-08 -5.152256e-08
8.088100e-08 -1.804957e-07 -2.889714e-08 -7.628140e-08 1.396246e-07 2.120366e-08
5.148643e-08 -1.479569e-07 -1.656134e-08 -4.753900e-08 1.090163e-07 2.419225e-08
1.572239e-08 -4.728676e-08 -1.095932e-09 -2.220717e-08 1.847045e-08 3.176963e-09
-2.597909e-08 -4.396841e-10 -5.915577e-10 5.316025e-08 3.693165e-08 -2.937383e-08
3.013640e-08 5.328581e-10 -7.872299e-08 -2.554648e-08 7.253340e-08 1.912199e-08
3.193451e-08 -4.161207e-08 -5.046109e-08 -3.130368e-08 5.158207e-08 1.347496e-08
-2.518458e-08 9.449408e-10 -3.044742e-08 5.206767e-08 5.056452e-08 -3.680022e-08
-6.436600e-08 2.883448e-08 -2.992386e-08 7.875496e-08 5.853860e-08 -6.568181e-08
-4.704047e-08 2.684922e-08 -6.406894e-09 4.220650e-08 2.270451e-08 -4.201738e-08
1.255802e-08 -3.942014e-08 -1.481750e-08 2.686628e-08 2.568972e-08 -4.659673e-09
1.317759e-08 -1.234819e-07 -3.753477e-08 1.182577e-07 1.416929e-07 -8.193794e-08
-7.262787e-09 3.696799e-09 9.896737e-10 -2.944418e-09 -7.746179e-10 -4.773351e-10
-5.698191e-09 3.899122e-09 2.731759e-10 -5.334822e-09 -1.601738e-09 2.505592e-10
-1.089944e-08 1.096834e-08 -7.472303e-09 -2.208993e-09 -5.411905e-09 5.136119e-09
-7.368443e-09 3.614373e-09 4.064802e-10 -3.305460e-09 -2.240991e-09 1.366689e-09
-1.049058e-08 5.816297e-09 1.191709e-10 -1.980283e-09 -3.769144e-09 1.607909e-09
-1.031253e-08 2.395165e-09 1.567715e-09 2.931148e-09 -4.109735e-09 7.811227e-10
-1.328837e-08 7.548344e-09 7.729195e-11 -3.994975e-10 -2.320846e-09 3.163460e-09
-1.017327e-08 6.489451e-09 -4.663281e-09 3.375713e-11 -4.316797e-09 2.599280e-09
-1.545019e-08 3.376489e-08 -6.419303e-08 4.353290e-08 5.018867e-08 -3.878464e-08
-1.003414e-08 -6.589563e-10 5.903156e-10 9.486241e-09 -7.499526e-09 3.376197e-09
-6.765815e-08 5.217468e-08 -8.265027e-09 1.901265e-08 2.110754e-08 -4.730626e-08
3.977545e-08 4.419516e-08 -1.267344e-07 1.459611e-07 -1.343199e-07 1.187994e-07
4.088431e-08 -8.863762e-08 -1.309511e-08 1.359644e-09 -8.534760e-08 6.442602e-09
3.245962e-08 -1.090716e-07 -1.306633e-08 1.583237e-08 -6.708931e-08 8.988449e-09
-1.445379e-08 3.150932e-08 -5.454407e-08 4.230533e-08 4.188971e-08 -3.512294e-08
3.191564e-08 -1.318651e-07 -1.904292e-08 4.027120e-08 -9.775614e-08 2.063360e-08
1.387430e-08 -1.194607e-08 -3.553159e-08 1.529107e-08 -3.384111e-08 1.499734e-08
-2.681409e-09 1.429159e-08 1.003461e-08 -3.043639e-08 1.267381e-08 -3.029284e-09
-2.515838e-09 1.575263e-08 -1.182420e-08 -1.724743e-08 -4.849926e-09 8.040747e-09
-1.839446e-08 3.220001e-08 -1.718825e-08 -1.219356e-08 -4.976414e-09 2.123417e-08
-9.967516e-09 2.762991e-08 1.142034e-09 -1.877378e-08 7.173867e-10 2.233614e-09
-1.235925e-08 -5.065098e-08 -4.329082e-08 1.082283e-07 9.274704e-08 -6.053844e-08
-2.971852e-08 3.623438e-08 -2.829216e-09 2.400128e-09 -1.113819e-08 1.898906e-08
7.428187e-10 1.288995e-07 -1.018988e-07 1.137860e-08 3.847117e-08 -7.975227e-08
1.199935e-08 5.772781e-09 -1.183612e-07 5.628730e-08 1.057953e-07 -5.417809e-08
-1.679939e-09 1.675065e-09 4.327987e-10 4.025142e-09 6.450948e-10 -1.560276e-10
-3.496855e-09 2.198165e-09 7.149690e-10 3.007208e-09 4.822874e-10 -6.569384e-11
7.494570e-08 3.296964e-09 3.385130e-08 -5.695986e-08 -3.379918e-08 6.607660e-08
-5.151001e-09 2.338094e-09 7.142855e-10 2.059700e-09 9.847043e-10 2.399334e-10
-2.940558e-08 1.065534e-07 -3.074451e-08 -6.727019e-08 -1.904836e-08 4.129926e-08
-6.297292e-09 2.704651e-09 1.149402e-09 1.216077e-09 1.587818e-10 -2.522611e-10
-1.238473e-09 2.100220e-09 -2.362572e-10 5.068359e-09 6.584013e-10 -5.293530e-10
-5.960325e-08 2.932880e-08 -1.846890e-08 6.050781e-08 6.052070e-08 -5.897404e-08
-2.030099e-08 1.209964e-07 -1.032848e-07 3.266901e-08 3.485774e-08 -6.690941e-08
1.466977e-08 -1.213382e-08 -5.392070e-08 2.829141e-08 -4.865484e-08 2.387250e-08
-2.252212e-08 1.274832e-09 -1.417686e-08 2.579698e-08 -2.177269e-08 2.506476e-08
-1.793401e-08 2.987135e-08 -1.981813e-08 8.124960e-09 -2.020626e-08 2.818335e-08
1.421849e-08 -4.305552e-08 1.193231e-09 1.200533e-08 7.541286e-09 2.924645e-10
1.184521e-08 -4.497410e-08 -4.389812e-09 2.027867e-08 1.198056e-08 -3.968882e-09
-1.858312e-09 1.168469e-09 6.681522e-11 2.264052e-09 3.998502e-10 -1.475531e-10
1.463931e-08 -4.574724e-08 5.389182e-09 1.465413e-08 7.489561e-09 -1.530907e-09
1.734936e-08 -4.859285e-08 -1.308757e-08 1.379549e-08 -2.599624e-08 4.850518e-09
1.193551e-08 -5.290345e-08 3.694492e-09 2.593264e-08 1.976263e-08 -3.313312e-09
2.150503e-08 -1.719869e-08 -4.343777e-08 1.218250e-08 -3.992723e-08 1.047461e-08
2.035539e-08 -4.421070e-08 -1.675213e-08 2.030404e-08 2.270879e-08 -4.770004e-09
3.245962e-08 -7.077025e-08 -6.769224e-09 1.235133e-08 -4.695404e-08 5.993675e-09
1.640375e-08 -4.197872e-08 6.419542e-09 -4.131015e-09 2.410275e-09 -4.467190e-10
1.735136e-08 -4.556882e-08 5.482515e-09 -1.005576e-08 6.218374e-09 -3.781795e-10
1.979158e-08 -5.087915e-08 8.946008e-10 1.530011e-08 1.505024e-08 -3.180175e-09
3.071063e-08 -6.150722e-08 -1.005739e-08 -1.087523e-08 2.720061e-08 2.797250e-09
1.880461e-08 -5.283175e-08 -9.169945e-10 -1.685027e-09 1.094206e-08 6.392835e-10
3.765420e-09 -2.248633e-08 3.448680e-09 -9.137839e-09 3.857644e-10 -1.053697e-09
1.741788e-08 -4.869583e-08 2.195915e-10 1.577262e-08 1.441209e-08 -1.857764e-09
-5.458961e-07 4.507268e-07 5.917295e-07 2.721888e-08 -1.833089e-07 9.232727e-07
2.062812e-08 -5.005071e-08 5.637385e-09 -1.499907e-09 6.269214e-09 -8.034472e-11
1.862685e-08 -4.324636e-08 5.642549e-09 -9.792339e-10 4.591924e-09 -2.451821e-10
-1.585109e-07 -1.056324e-07 7.232533e-07 -2.755340e-08 -3.271578e-08 1.194630e-07
-3.613689e-07 6.311056e-07 2.066803e-07 2.573228e-07 4.776284e-07 1.616760e-08
9.820761e-08 -2.692139e-08 1.032010e-07 4.554370e-08 4.175043e-08 1.468359e-07
-8.037621e-11 -3.854152e-09 -7.364162e-09 -1.547876e-08 -1.050928e-08 -4.348803e-09
-9.298506e-11 -3.363435e-08 -6.094757e-10 -3.173225e-08 -2.463755e-08 -8.555601e-09
-5.436253e-09 2.921546e-09 9.376548e-10 2.540214e-09 3.157199e-10 -2.682770e-10
-4.812247e-09 2.444820e-09 6.541900e-10 1.486159e-09 2.099720e-11 -4.431544e-11
4.052316e-07 1.681698e-08 2.800162e-07 -1.495920e-07 -2.341585e-07 5.191211e-07
-1.051758e-07 -1.056324e-07 6.929283e-07 -5.737551e-09 -4.044210e-08 1.528308e-07
1.305208e-08 2.460942e-08 -8.848796e-09 3.239521e-08 9.217330e-09 -6.459435e-10
1.364136e-08 2.406239e-08 -9.076651e-09 3.171467e-08 8.651562e-09 -6.335235e-10
-3.783285e-09 2.238957e-09 7.657990e-10 3.143841e-09 5.523226e-11 -4.468290e-10
4.992548e-08 2.030723e-08 -5.259513e-09 5.213223e-08 -1.114671e-08 3.241227e-08
-4.366937e-09 2.216955e-09 8.222294e-10 2.492520e-09 4.106878e-10 -6.624642e-10
6.775513e-10 1.366294e-10 -2.247775e-10 3.252151e-09 4.178017e-10 2.130041e-10
-7.320544e-10 6.692344e-10 -8.286127e-11 3.410489e-09 7.862001e-10 1.766805e-10
-6.305656e-09 4.142361e-08 -1.924547e-08 3.547141e-08 7.125881e-09 -1.068517e-08
5.053179e-09 3.302209e-08 3.557305e-08 4.616689e-08 2.499659e-08 2.248957e-08
9.168031e-10 9.971980e-10 -9.649570e-11 5.361482e-09 -4.619661e-11 -5.975461e-10
5.603181e-09 -2.252958e-09 -6.732441e-10 4.834363e-09 9.794743e-11 -3.393973e-10
-2.346218e-08 3.302209e-08 4.311441e-08 5.333199e-08 2.155831e-08 2.147352e-08
-1.780887e-09 -1.063322e-08 2.477115e-09 -1.091946e-08 1.027939e-09 1.708350e-10
-1.661237e-08 4.224083e-08 1.845323e-08 2.252286e-08 1.169940e-10 -1.059381e-08
2.092820e-09 -2.999307e-10 -4.385406e-10 4.077075e-09 4.185374e-10 2.907680e-10
2.666155e-09 -7.523600e-10 -5.340398e-10 3.330570e-09 1.985523e-10 7.164869e-11
3.248021e-09 -2.313524e-10 -6.862719e-10 5.569213e-09 6.121117e-10 -1.467344e-10
-6.598570e-09 -1.147957e-09 2.363259e-09 -5.343463e-09 1.714105e-09 -9.814189e-10
-7.137498e-09 1.756736e-09 1.845153e-09 -2.133715e-09 1.276887e-09 -8.984294e-10
-6.598570e-09 -5.646325e-09 2.379301e-09 -6.807002e-09 1.574082e-09 -1.125535e-09
-2.469686e-09 2.119024e-09 6.807666e-11 4.623536e-09 4.212482e-10 -5.387371e-10
-1.028306e-08 -2.320333e-09 1.682663e-09 -9.942354e-09 9.485299e-10 5.908463e-10
-7.419696e-09 -1.922088e-09 2.469158e-09 -2.947527e-09 1.280794e-10 -2.166260e-10
-8.275516e-09 -1.650617e-09 1.875540e-09 -9.321175e-09 3.215895e-09 -9.958203e-11
1.656205e-09 2.689554e-10 -3.665798e-10 5.509830e-09 4.746273e-10 -5.301595e-10
1.002849e-09 6.877787e-11 -5.052319e-10 4.267142e-09 3.141817e-10 -6.459880e-10
3.662333e-10 3.168301e-10 -2.288492e-10 3.501571e-09 1.671890e-10 -2.672124e-10
1.116474e-08 -4.695243e-08 7.952052e-10 2.875489e-08 1.976078e-08 -5.787088e-09
2.951275e-09 -2.564546e-08 -7.083272e-09 -1.874096e-08 1.155816e-08 3.079118e-09
2.448371e-08 1.091537e-07 -4.261534e-08 6.125555e-08 3.064866e-08 7.254893e-10
-6.545953e-09 -1.196489e-08 1.110561e-09 -1.555905e-08 5.103067e-09 8.981018e-10
-6.545953e-09 -4.580611e-09 1.142321e-09 -1.392009e-08 4.603638e-09 8.143480e-10
-1.072356e-08 2.387321e-08 -2.118018e-08 -3.321736e-09 -1.296865e-08 1.646068e-08
-4.058767e-09 -1.868331e-08 -7.837514e-09 2.897069e-08 1.537453e-08 -7.094619e-09
-9.001068e-09 1.270534e-08 -3.033082e-08 1.641126e-08 -2.734458e-08 2.127106e-08
-1.072356e-08 2.899964e-08 -2.098803e-08 -1.338281e-08 -8.463638e-09 1.993978e-08
1.697354e-08 -9.162864e-09 -5.012604e-10 -4.082239e-09 1.941114e-11 -1.464242e-09
1.004491e-08 -4.416173e-09 -1.312772e-09 3.949591e-09 1.212197e-10 -6.104225e-10
2.053448e-08 1.953786e-09 2.730062e-09 -2.160365e-08 6.558167e-09 -1.012980e-08
1.735281e-08 -3.645637e-08 -3.647618e-08 3.363499e-08 3.967083e-08 -1.333160e-08
-4.675912e-09 1.640628e-08 4.560192e-09 -2.003743e-08 3.664613e-09 -2.207320e-09
4.354444e-08 -1.625970e-08 -6.835879e-08 -8.031875e-09 -9.200305e-08 5.728436e-09
5.548888e-09 2.581277e-09 -8.724794e-10 -1.409915e-08 6.144865e-10 -8.307191e-10
2.024045e-08 -1.150109e-08 6.242917e-09 -5.063208e-09 1.626651e-09 -7.046860e-09
8.400368e-09 -2.012328e-09 -1.505678e-09 -7.849257e-09 -1.264044e-09 2.382333e-10
2.822855e-08 -5.895376e-08 -1.729977e-08 -3.531490e-09 -3.100833e-08 1.000207e-09
2.828202e-08 -7.513972e-09 -5.130756e-08 -1.530132e-08 -4.842082e-08 -3.686051e-09
4.035771e-08 -8.568708e-08 -5.261528e-08 3.607614e-09 -9.337683e-08 1.151263e-08
-1.362093e-08 2.646454e-08 -7.480032e-09 -1.339519e-08 -3.554443e-09 9.744010e-09
4.049997e-08 -3.731824e-08 -6.105462e-08 -1.986942e-10 -6.388978e-08 1.023953e-08
5.074692e-08 -8.538637e-08 -7.149038e-08 -9.134186e-09 -1.271190e-07 -4.131967e-09
4.127579e-08 -4.197384e-08 -3.341959e-08 -2.623699e-09 -6.190745e-08 5.894351e-09
1.050249e-07 -2.478683e-07 -4.459323e-08 4.624438e-08 2.199930e-07 -4.550979e-08
-2.624343e-08 2.421640e-08 -4.189501e-09 1.987033e-08 1.146796e-08 -1.342445e-08
1.918032e-08 -2.299873e-08 -5.451914e-08 4.888962e-08 6.193709e-08 -2.574665e-08
-4.211016e-09 -6.430142e-09 3.501253e-09 -4.440286e-09 4.309967e-10 -1.333694e-09
5.271798e-08 -1.198476e-07 -1.349309e-09 -1.160171e-08 7.749367e-08 1.388257e-08
3.607445e-08 9.523060e-10 -9.900794e-08 2.073052e-08 9.272250e-08 -2.296852e-08
2.463886e-08 -6.716946e-08 -4.896274e-08 3.824247e-08 6.600927e-08 -1.786559e-08
3.441430e-08 -3.071289e-08 -4.986922e-08 1.692941e-08 6.042757e-08 -7.096175e-09
8.035621e-08 -1.559175e-07 -4.068535e-08 5.904174e-08 1.496895e-07 -1.898489e-08
4.323419e-08 -8.690995e-08 -7.223602e-08 3.152289e-08 9.665741e-08 -1.924586e-08
6.181604e-08 -6.385132e-08 -6.084371e-08 -9.119876e-09 1.049317e-07 1.372975e-08
4.745324e-09 -3.124842e-08 5.988115e-09 1.416486e-08 2.701188e-09 -6.237347e-11
1.913878e-08 -4.104139e-08 5.020135e-10 2.033536e-09 4.583870e-09 -3.182386e-10
3.200003e-08 -4.808933e-08 -3.554982e-08 9.906778e-09 -6.364607e-08 1.053010e-08
1.913878e-08 -4.495359e-08 -3.653718e-09 2.868422e-09 7.251024e-09 6.399816e-10
2.293109e-08 -4.141014e-08 -3.993143e-09 -1.539247e-09 8.138378e-09 5.105625e-10
2.192657e-08 -6.209076e-08 -2.922844e-09 5.437138e-09 1.726302e-08 -9.308423e-11
2.243142e-08 -3.471868e-08 -5.150241e-08 -4.145450e-08 -9.414798e-08 -2.933091e-08
4.376610e-08 -8.008607e-08 -1.068444e-08 1.147774e-08 -7.585870e-08 9.079411e-09
1.393667e-08 -4.318794e-08 6.534278e-09 8.972692e-09 3.184835e-09 -3.742500e-10
1.754873e-08 -4.404437e-08 5.702474e-09 1.966658e-09 3.730452e-09 -7.106104e-11
1.457005e-08 -4.581415e-08 6.537547e-09 4.377749e-09 3.915861e-09 -5.218648e-11
4.611260e-08 -7.207063e-08 -4.022509e-08 1.994189e-08 -7.675606e-08 2.099609e-08
4.668835e-08 -1.240810e-07 -3.097860e-08 -6.990764e-08 -1.096616e-07 -2.245520e-08
-1.435756e-08 -3.703089e-09 1.142262e-07 -6.120983e-08 -3.797922e-08 6.971893e-08
-2.640335e-08 8.906828e-08 -1.747206e-07 1.046708e-07 1.214834e-07 -1.335965e-07
-6.540300e-09 2.192889e-09 1.388756e-09 8.745884e-10 2.774534e-10 -5.023275e-10
-6.107923e-09 2.657470e-09 1.112021e-09 1.202940e-09 1.913717e-10 -2.623111e-10
1.117563e-07 -1.491787e-07 -1.845335e-07 7.850286e-08 3.503960e-07 -7.668242e-08
2.187230e-08 8.001035e-08 -1.698233e-07 -1.423727e-08 1.042018e-07 -6.219128e-09
-8.283098e-09 5.418001e-08 1.115421e-07 3.767463e-08 -5.492833e-08 -1.104503e-07
-2.061850e-07 2.139392e-07 -2.008154e-07 -8.167585e-08 3.700027e-08 1.691020e-07
2.585072e-09 -9.874593e-09 7.452094e-08 1.227344e-09 2.402864e-09 -4.065777e-08
8.258768e-08 1.043605e-07 -2.676268e-07 1.898780e-08 -4.073550e-08 -3.823287e-07
7.192105e-08 -7.750952e-08 -1.476365e-07 9.202446e-08 2.430289e-07 -6.333198e-08
-4.039684e-08 -1.261307e-07 -4.736266e-08 1.282863e-07 1.291452e-07 -9.300715e-08
1.718110e-07 5.203588e-08 -7.027726e-09 5.912300e-08 -1.250382e-08 1.992804e-07
1.971311e-08 1.761246e-07 3.038748e-08 3.769904e-08 -2.051797e-08 5.549949e-08
2.207736e-08 -7.532930e-08 -1.428710e-07 9.195908e-08 2.096233e-07 -8.599713e-08
-2.705849e-09 -1.022169e-08 3.576545e-09 -7.639662e-09 1.259708e-09 -4.610934e-10
-1.487714e-08 7.743629e-08 -1.176598e-07 5.479697e-08 1.400199e-07 -8.846997e-08
9.590785e-09 -3.951240e-09 -1.203338e-09 -4.779021e-09 -4.963623e-10 9.236856e-11
1.016285e-08 -4.907601e-09 -1.416970e-09 -3.442720e-09 -1.631927e-10 4.653049e-10
2.985410e-09 -2.276416e-08 4.466628e-09 -1.141159e-08 1.785425e-09 -9.608299e-10
-6.359402e-09 -8.702227e-09 1.766215e-09 -1.160394e-08 9.228139e-10 3.940582e-10
9.000426e-09 -4.737368e-09 -1.289384e-09 -3.997310e-09 -4.448720e-10 2.735986e-10
-7.533506e-09 7.429533e-10 2.321757e-09 -4.168355e-09 7.716101e-10 -1.137422e-09
-4.451156e-09 -6.429900e-09 3.416020e-09 -6.714107e-09 1.504556e-09 -1.167971e-09
1.580633e-08 -7.354023e-09 -1.642580e-09 -2.770411e-09 -7.880307e-11 -7.322669e-10
-2.205064e-09 -1.408953e-08 -2.993459e-09 -1.888527e-08 5.523559e-09 1.995997e-09
7.274092e-09 -2.012921e-09 -1.348674e-09 -8.167070e-09 -6.316914e-10 9.518991e-11
-5.594996e-09 -1.052927e-08 2.040991e-09 -1.298887e-08 2.132141e-09 -1.703805e-10
-2.667478e-09 -1.394754e-08 4.455220e-09 -8.898683e-09 2.669389e-10 -7.544661e-10
-5.293556e-09 -6.686031e-09 1.684958e-09 -9.378230e-09 2.152042e-09 6.760287e-10
-2.010049e-09 -1.498654e-08 -5.542784e-10 -1.518958e-08 2.170613e-09 1.066095e-09
9.041289e-09 -4.670507e-09 -1.422159e-09 -4.462261e-09 -1.390617e-10 1.563838e-10
1.023189e-08 -5.326055e-09 -1.275164e-09 -4.866323e-09 -4.324721e-10 1.816922e-10
8.250951e-09 -3.538328e-09 -1.420542e-09 -6.077577e-09 -6.369152e-10 3.233732e-10
-2.800168e-09 2.582218e-09 2.172760e-10 -3.703156e-09 -5.867855e-10 1.778981e-10
2.453060e-10 1.089565e-09 -4.697349e-10 -5.260874e-09 -3.330107e-10 -3.954337e-11
-7.094874e-10 -1.335371e-08 -4.791801e-09 -2.244982e-08 9.615534e-09 4.663065e-09
8.788530e-10 1.221801e-09 -7.822365e-10 -6.629462e-09 -1.195023e-09 4.949194e-10
9.865193e-10 1.089565e-09 -5.242187e-10 -5.470216e-09 -2.927509e-10 3.083378e-11
-9.394974e-11 6.692353e-10 -1.298828e-11 3.728826e-09 5.345125e-10 -1.197586e-10
-4.275917e-09 2.443057e-09 5.459602e-10 2.019751e-09 1.159526e-10 -3.028604e-10
-1.752329e-09 2.127895e-09 9.929302e-11 4.422424e-09 -4.349233e-11 -7.066693e-10
6.924221e-10 4.786842e-10 -3.479035e-10 -4.010397e-09 -5.741970e-10 1.071234e-10
-6.485541e-10 1.549763e-09 -6.180647e-10 -6.111276e-09 -7.500767e-10 -3.500945e-10
5.837285e-08 -1.476382e-07 -1.258753e-08 1.458094e-08 8.151395e-08 -8.725430e-10
4.506568e-08 -1.493908e-07 -4.714918e-08 6.459001e-08 1.505689e-07 -3.446504e-08
-2.283234e-08 3.070913e-08 -2.293032e-08 -3.267453e-08 1.961559e-08 3.019855e-08
-2.746472e-09 3.424222e-09 -6.720809e-10 -7.375412e-09 -1.116346e-09 -5.826289e-11
1.163983e-07 -7.818635e-08 -8.998610e-08 -7.719286e-08 2.332978e-07 3.734838e-08
3.778401e-08 -5.563038e-08 -5.806367e-08 -1.185919e-08 7.400655e-08 9.670233e-09
3.754161e-08 2.630363e-08 -9.686204e-08 -3.617506e-08 8.672774e-08 2.209487e-08
-1.003414e-08 -8.489821e-09 5.297227e-10 1.072245e-08 -6.719375e-09 3.195220e-09
-9.024813e-09 2.354306e-09 3.188405e-10 -7.311089e-10 -1.886748e-09 6.180632e-10
-9.237658e-09 1.952616e-10 2.512710e-09 9.175534e-10 -1.617289e-09 2.641835e-10
1.431921e-08 -3.603121e-08 -3.318838e-09 -2.195913e-08 -2.496778e-08 -5.512813e-09
2.850134e-08 -6.934657e-08 1.444637e-09 -2.315689e-08 -4.031007e-08 -4.065736e-09
4.975421e-08 -8.581004e-08 -4.436034e-08 -4.254653e-08 8.353575e-08 1.844360e-08
5.378453e-08 -4.672919e-10 -9.419437e-08 -5.238046e-09 9.993275e-08 -2.187904e-09
3.772926e-08 7.599673e-08 -1.635127e-07 2.979033e-08 1.013981e-07 -3.941487e-08
6.328034e-08 -3.925201e-08 -1.200368e-07 -5.634521e-08 1.403121e-07 3.363043e-08
-1.817171e-08 1.230597e-08 1.672251e-10 3.660877e-09 -7.894166e-09 7.684369e-09
-1.329686e-08 6.035158e-09 -3.101355e-10 3.806231e-09 -4.824509e-09 4.591415e-09
-1.353035e-08 8.753078e-09 -4.945793e-09 1.160823e-08 -9.383205e-09 8.890731e-09
-1.736083e-08 1.033505e-09 -1.577477e-08 -3.784994e-08 2.872244e-08 2.531404e-08
-1.070257e-08 1.590696e-08 -2.738877e-09 -8.627410e-09 -3.145359e-09 7.537109e-09
-2.589110e-08 6.919271e-08 2.295780e-08 5.217819e-08 3.364316e-08 1.937328e-08
-1.945497e-08 1.426020e-08 -2.475892e-09 -2.979946e-09 -8.409067e-09 9.284500e-09
1.486336e-07 -3.814318e-07 -1.537200e-07 -1.165027e-07 3.932046e-07 2.779668e-08
-2.158649e-08 2.631396e-08 -1.026973e-08 -7.219036e-09 -6.032244e-09 2.068873e-08
4.112604e-08 -3.351498e-08 -5.710952e-08 -3.991971e-08 8.539617e-08 2.902965e-08
-2.666595e-09 1.684278e-09 2.450178e-10 2.881183e-09 3.363791e-10 1.142260e-10
-6.391971e-09 2.457324e-09 1.043462e-09 1.461969e-09 -1.024159e-11 -3.845484e-10
-3.719459e-09 2.287557e-09 4.556844e-10 2.377464e-09 4.282058e-10 -2.720640e-10
1.224508e-08 -6.075108e-09 -1.498415e-09 -1.213789e-09 -2.104700e-10 -1.841203e-10
1.211932e-08 -6.614523e-09 -1.556886e-09 9.867293e-10 1.850517e-10 8.344314e-11
-9.931469e-10 8.091270e-10 2.044009e-11 2.674058e-09 3.747940e-10 -2.544402e-10
-5.913576e-09 3.237054e-09 1.068695e-09 2.278962e-09 8.280339e-10 -7.448861e-10
-3.447303e-09 1.850052e-09 3.039347e-10 2.064523e-09 4.447834e-10 -1.800038e-10
-7.455614e-09 3.801303e-09 1.059014e-09 -2.992238e-09 -8.608810e-10 -4.578853e-10
-2.756891e-09 2.150497e-09 3.874234e-10 4.139360e-09 3.092275e-10 -2.525145e-10
-3.995057e-09 2.023240e-09 5.482121e-10 3.470134e-09 1.562342e-10 -5.273261e-10
-2.995596e-09 2.192737e-09 3.709590e-10 3.739548e-09 5.590982e-10 -2.794441e-10
-8.747652e-09 2.036989e-09 1.660615e-09 -9.533502e-10 -2.040213e-09 -4.633007e-10
-8.693400e-09 1.958970e-09 8.502563e-10 -9.576936e-10 -2.412416e-09 6.674128e-10
-4.570897e-09 2.815088e-09 8.046275e-10 3.058950e-09 7.313967e-10 -2.621471e-10
7.055866e-09 -3.655659e-10 -4.109646e-10 8.874441e-09 -7.235591e-11 -1.312190e-09
1.112852e-08 -4.803184e-09 -6.490812e-10 5.404694e-09 1.311574e-10 -8.542400e-10
-6.044157e-09 -1.206112e-08 1.360748e-09 1.874424e-08 4.423833e-09 -1.682037e-09
9.036663e-09 -3.121896e-09 -4.259788e-10 6.881370e-09 3.737560e-10 -7.710267e-10
-3.574863e-09 -1.775476e-08 5.557829e-09 1.311465e-08 1.133814e-09 -1.184553e-09
-1.652258e-08 1.701014e-08 -6.161444e-10 6.352056e-09 -7.361693e-10 8.361626e-12
3.539432e-09 -8.466893e-10 -3.191383e-10 6.936040e-09 6.772678e-10 -1.763367e-11
1.052430e-09 -2.465894e-08 5.155482e-09 1.268145e-08 1.140333e-09 4.894569e-10
3.453960e-09 -3.100266e-10 -3.208545e-11 7.473311e-09 2.108660e-10 -7.561036e-10
5.309366e-09 -8.886255e-10 -4.176899e-10 7.302377e-09 4.752605e-10 -3.377956e-10
-4.665444e-09 -1.214391e-08 3.233976e-09 1.612684e-08 2.473507e-09 -4.843108e-10
8.048559e-09 -3.547442e-08 6.224595e-09 1.133620e-08 3.019757e-09 1.738206e-10
4.540463e-09 -3.441204e-08 -2.869828e-10 2.340107e-08 1.129432e-08 -3.799706e-09
-3.509370e-09 4.903148e-09 -1.112299e-09 -8.220006e-09 -1.211217e-09 1.250678e-10
-7.396263e-09 -5.274134e-09 1.012829e-09 -1.220594e-08 3.153307e-09 1.328295e-09
-1.384741e-09 6.314318e-09 -1.700393e-09 -1.334256e-08 -7.909108e-10 2.337892e-09
1.088457e-09 1.820595e-09 -4.015497e-10 -7.313294e-09 -1.007433e-09 -1.090612e-10
-5.966853e-09 3.032531e-09 1.059011e-09 2.171064e-09 4.235911e-10 -1.510299e-10
-5.489551e-09 5.398794e-09 -6.694241e-10 -6.475122e-09 -1.878092e-09 8.348046e-10
1.042096e-08 -3.291491e-08 1.695513e-09 -8.126990e-09 1.510688e-09 -3.102476e-10
-3.629661e-09 3.140493e-09 -1.415024e-11 -5.749652e-09 -1.243718e-09 -1.849973e-10
1.491114e-08 -4.093787e-08 2.924982e-09 9.367544e-09 4.098445e-09 -1.570678e-09
1.754873e-08 -5.411326e-08 5.414288e-09 2.978056e-09 7.553945e-09 -1.112834e-10
1.536097e-08 -4.066227e-08 5.833426e-09 -7.316803e-09 3.741597e-09 5.074097e-10
1.396554e-08 -3.484070e-08 3.279395e-10 -9.063838e-09 3.898368e-09 5.829095e-10
1.448399e-08 -3.857560e-08 3.666415e-09 -5.027013e-09 3.929457e-09 -4.415257e-11
2.343708e-08 -5.789460e-08 2.842479e-09 -9.464387e-09 1.534396e-08 1.215787e-09
1.679951e-08 -4.068255e-08 1.512104e-09 -6.212443e-09 5.799883e-09 4.657544e-10
1.873914e-08 -5.371596e-08 4.858517e-09 -1.120978e-09 8.986989e-09 1.624078e-10
-6.114139e-09 3.608925e-09 3.046896e-11 -4.923524e-09 -1.619045e-09 1.307973e-10
2.790629e-08 -4.125999e-08 -2.297144e-08 3.961994e-09 2.766703e-08 -5.469034e-10
-4.527863e-09 2.356721e-09 9.373777e-10 3.078720e-09 3.914714e-10 -2.219653e-10
-2.318282e-09 1.688688e-09 1.155944e-10 2.985045e-09 3.533670e-10 -3.789331e-10
-3.150047e-09 4.785177e-09 -4.636778e-10 -7.922065e-09 -2.033686e-09 1.185798e-09
-5.565315e-09 2.872706e-09 7.438290e-10 1.080328e-09 2.184691e-10 -3.104084e-10
-5.895488e-09 2.826082e-09 9.555803e-10 1.256461e-09 1.996017e-10 -2.908796e-11
-2.393232e-09 1.680934e-09 4.131038e-10 2.907530e-09 3.064115e-10 -1.079237e-10
-4.491267e-09 3.441047e-09 -2.214087e-10 -5.122486e-09 -2.219959e-09 -1.288443e-10
-6.892569e-09 4.073634e-09 -1.005382e-10 -4.509072e-09 -1.032149e-09 3.453384e-10
-6.996751e-09 2.467780e-09 1.271750e-09 6.298787e-10 6.469577e-10 -8.230034e-10
-7.262387e-09 1.377464e-09 1.941504e-09 -1.000152e-09 1.765714e-10 -6.265093e-10
1.420457e-08 -6.791408e-09 -1.234168e-09 -7.976161e-10 -3.038692e-11 1.060596e-11
-8.119500e-09 -8.268754e-10 2.246143e-09 -3.340957e-09 -1.145463e-10 -8.664072e-10
-6.882712e-09 4.998020e-10 1.721731e-09 -7.965875e-11 9.586876e-11 -5.310627e-10
-6.627765e-09 3.611512e-09 7.425931e-10 -4.126178e-09 -7.436816e-10 -1.287966e-10
-4.866861e-09 3.537334e-09 -7.019643e-10 -6.307329e-09 -1.163491e-09 3.776848e-10
2.069231e-08 -3.651335e-08 -1.815226e-08 1.828114e-08 2.425211e-08 -5.752534e-09
3.302421e-09 -2.146506e-08 1.242329e-09 -1.714363e-08 4.442271e-09 1.796938e-09
-1.118750e-08 4.752471e-09 2.875215e-09 -5.885681e-09 -5.753757e-10 -9.466762e-10
3.265780e-08 -7.603842e-08 -1.090332e-09 -5.834978e-09 3.110254e-08 1.692097e-09
-5.768231e-09 -7.400495e-09 3.622994e-09 -1.262203e-08 1.283787e-09 3.090981e-10
4.512412e-08 -2.926675e-08 -5.176196e-08 5.082981e-09 6.118823e-08 7.421383e-10
2.938199e-08 -1.123477e-07 -7.612548e-09 2.489833e-08 5.120913e-08 -6.806911e-09
-6.621336e-10 -1.410731e-08 3.321879e-09 -8.001547e-09 7.031265e-10 -1.114159e-09
3.273706e-08 -7.602696e-08 -2.397841e-08 -1.824119e-08 4.989264e-08 5.274686e-09
-7.739308e-09 -6.328766e-09 -5.203264e-10 -1.444009e-08 4.190502e-09 2.451620e-09
1.143182e-09 8.315428e-08 -7.143202e-08 -2.852601e-08 -2.011121e-08 2.684091e-08
3.583720e-08 -6.496214e-08 -2.847160e-08 4.256156e-08 -1.067882e-07 4.568039e-08
-7.360462e-09 9.876739e-10 2.380407e-09 -2.114438e-09 4.308900e-10 -4.521352e-10
-3.835525e-09 -1.228701e-08 2.523578e-09 -9.583420e-09 1.590460e-09 -4.928046e-10
1.748060e-08 -7.046710e-09 2.347784e-09 7.161597e-09 5.435640e-11 -4.061598e-09
7.550910e-09 -2.810165e-09 -8.801397e-10 5.555143e-09 3.967399e-10 -2.746723e-10
1.714386e-08 -6.844330e-09 -1.673340e-09 1.169717e-09 1.491119e-10 -4.785090e-10
1.119658e-08 -4.803184e-09 -7.812149e-10 5.398712e-09 1.250747e-10 -8.846186e-10
-1.329622e-08 -1.388746e-08 -2.267138e-09 3.864325e-08 1.868343e-08 -1.129266e-08
1.844778e-08 -7.923588e-09 -1.399689e-09 -3.709455e-10 -4.061062e-11 -9.826092e-10
1.489108e-08 -6.723935e-09 -2.213488e-09 1.633329e-09 5.411730e-11 7.574809e-10
1.680086e-09 7.789199e-08 -1.001582e-07 -1.461553e-08 -5.364102e-08 -2.307735e-08
-1.840965e-07 2.739027e-07 3.426257e-07 -1.338322e-07 2.097285e-07 -2.633447e-07
2.429243e-08 -4.095246e-09 -3.250311e-09 -1.210084e-08 1.962950e-09 -4.373781e-09
-1.262599e-07 2.978793e-07 2.054492e-08 -6.606367e-08 1.924239e-07 -9.643688e-08
2.190349e-09 -8.728849e-09 -1.977896e-08 -1.976884e-08 -1.861962e-08 -8.414146e-09
-4.981317e-09 -1.434520e-08 -1.437594e-08 -2.308192e-08 -2.716775e-08 -1.049067e-08
-1.313145e-08 9.091143e-09 -1.438784e-08 -1.616706e-08 -1.552560e-08 -1.127269e-08
-1.522830e-08 1.808088e-07 -4.447899e-09 -1.670975e-08 8.716869e-08 -1.625200e-08
-1.253753e-08 6.139383e-08 -8.877859e-08 -2.789255e-09 -5.899055e-08 -3.120310e-08
-4.532541e-07 5.896795e-07 1.154077e-06 4.061385e-07 9.018963e-07 8.966137e-07
1.063165e-08 -4.670507e-09 -1.400282e-09 -4.847558e-09 -9.293388e-11 -3.017941e-11
-6.344199e-09 -1.965334e-08 1.493437e-09 -2.637905e-08 -1.740440e-08 -9.240294e-09
1.815978e-08 -2.692139e-08 1.781384e-07 5.233181e-08 3.744357e-08 1.131751e-07
4.225368e-10 -1.513629e-08 -1.367855e-08 -2.564139e-08 -2.733406e-08 -1.283174e-08
-3.212371e-08 1.867253e-07 2.849909e-08 -7.483229e-09 -1.356546e-08 6.556572e-08
-1.035755e-07 8.615341e-08 4.114072e-08 2.053925e-08 -5.435977e-08 3.522347e-09
3.293269e-08 -1.434687e-08 3.378546e-08 1.689261e-09 1.401815e-09 -3.881376e-08
1.806961e-08 -7.653958e-09 -2.704432e-09 -1.569977e-10 4.219975e-10 -3.464081e-10
-5.550092e-08 2.126697e-08 -5.055468e-09 -5.177744e-08 1.721262e-08 3.245086e-08
-7.021143e-08 -2.002133e-08 -4.629418e-08 -1.274936e-07 1.006994e-07 8.912831e-08
1.827336e-08 -7.573998e-09 -1.911273e-09 -2.122611e-09 5.275202e-11 -1.173255e-09
2.017561e-08 -7.666450e-09 -1.502816e-09 2.751069e-09 2.198170e-10 -2.454027e-09
2.738257e-08 -9.223813e-09 -3.536343e-09 -4.440144e-09 1.129400e-09 -5.009254e-09
1.900742e-08 -6.569039e-09 -6.414292e-10 5.793078e-09 2.504764e-10 -3.267391e-09
1.224526e-08 -4.223875e-08 6.378429e-09 8.604326e-09 3.520800e-09 2.053091e-10
1.184746e-08 -6.791408e-09 -1.262367e-09 -6.602316e-10 6.580617e-11 2.961177e-10
1.562326e-08 -7.590656e-09 -2.091252e-10 2.536970e-09 1.946546e-10 -1.532322e-09
6.666739e-08 -1.487312e-07 -3.736566e-08 7.703181e-08 -1.544460e-07 4.131424e-08
1.428307e-08 -4.309386e-08 4.196621e-09 6.785696e-09 3.603427e-09 -3.160303e-10
1.131011e-08 -3.768816e-08 5.270752e-09 1.238743e-08 3.395381e-09 -1.723404e-10
-2.998408e-08 4.128182e-08 -1.584910e-08 -4.410979e-09 6.345411e-09 -2.162900e-08
-3.347631e-08 2.139075e-08 -1.998676e-09 1.505193e-08 8.360950e-09 -1.389475e-08
-1.890307e-08 8.911965e-08 4.099323e-08 -9.016451e-08 -8.306158e-08 6.361104e-08
2.528542e-08 -4.999808e-08 -3.402643e-08 -3.414363e-08 -6.877566e-08 -2.391025e-08
3.050832e-08 -5.937851e-08 -3.237479e-08 -2.205104e-08 -6.517317e-08 -9.376849e-09
-2.205064e-09 -4.573911e-09 -3.104717e-09 -1.911251e-08 5.273334e-09 1.976685e-09
7.796895e-09 -2.918503e-08 3.661375e-09 -1.594099e-08 5.156458e-09 1.315886e-09
-1.961256e-09 -2.164669e-08 1.909626e-09 -2.017308e-08 6.942622e-09 9.552539e-10
-4.546884e-09 1.575369e-08 1.278462e-07 4.916506e-09 -4.063767e-08 -5.876050e-08
-2.530745e-09 4.650047e-08 -1.467165e-08 -2.248770e-08 -2.349343e-10 -6.842331e-09
-1.286462e-07 5.507513e-08 4.239783e-07 5.504664e-08 2.170381e-07 8.982969e-08
3.146629e-07 1.325310e-07 -1.146698e-07 1.854187e-07 1.580449e-07 3.058184e-07
-1.089032e-08 1.280739e-08 -3.196900e-10 -1.655218e-09 2.582774e-09 3.126991e-10
-8.730578e-09 4.980889e-09 8.329453e-10 -5.983528e-10 1.238772e-09 -5.766353e-10
-3.949564e-09 8.393725e-09 5.125464e-10 6.304827e-09 1.516384e-09 -2.349159e-09
5.862806e-09 3.209799e-09 7.236014e-09 1.905399e-08 -3.303222e-09 -7.418645e-09
1.310339e-08 9.080378e-09 -1.556406e-10 1.956256e-08 -2.923058e-09 -8.025501e-09
-5.033231e-09 -6.080035e-09 2.183837e-09 -9.901343e-09 2.590811e-09 -7.543404e-10
-4.422051e-09 4.760177e-09 6.751952e-10 4.922776e-09 2.649305e-10 -7.397487e-10
-7.239157e-09 -5.938211e-09 1.363717e-09 -9.237691e-09 1.896662e-09 -2.694474e-10
-1.550090e-09 -1.506604e-08 2.810506e-09 -1.420645e-08 4.063432e-09 -4.628366e-10
-9.206002e-09 -6.506087e-09 -3.696319e-10 -1.379705e-08 4.262058e-09 1.797957e-09
2.478251e-08 -4.598657e-08 -5.298789e-08 4.763628e-08 1.077708e-07 -4.311637e-08
-1.211144e-08 -3.120656e-09 6.855396e-10 7.559512e-09 -7.002589e-09 4.066135e-09
5.486278e-08 -5.267700e-08 -6.130036e-08 -2.128938e-08 7.846374e-08 6.833221e-09
-9.468955e-09 5.336780e-10 1.788151e-09 1.878261e-09 -2.429571e-09 2.149605e-10
7.801097e-08 -1.372751e-07 -4.173725e-08 -7.783360e-08 1.648136e-07 2.927223e-08
1.702559e-09 3.466379e-10 -5.853787e-10 5.573886e-09 8.147009e-10 -1.446574e-10
3.185451e-08 -4.173168e-08 -2.226073e-08 -3.118394e-08 5.178435e-08 1.433926e-08
4.530331e-08 -7.847978e-08 -9.935500e-09 -7.703759e-09 6.030159e-08 3.640279e-09
6.341490e-09 -2.069315e-09 -8.870700e-10 5.585295e-09 6.995471e-10 2.412798e-11
5.038911e-08 -8.553080e-08 -1.049127e-08 -4.208382e-08 8.799625e-08 2.361488e-08
4.677865e-08 -1.275509e-08 -1.053148e-07 -3.123024e-09 9.067913e-08 5.599787e-09
2.215627e-08 -2.201618e-08 -7.131037e-08 -5.439713e-08 6.988100e-08 3.067819e-08
3.147223e-08 -9.881461e-08 -1.291301e-08 -6.680080e-08 7.550584e-08 1.626121e-08
-1.552170e-08 6.588554e-09 -4.620722e-09 -8.803753e-09 6.092055e-09 3.745112e-09
-4.644212e-09 2.420951e-09 7.956498e-10 2.113308e-09 1.995438e-10 -4.092837e-11
-3.236775e-09 2.119904e-09 5.661662e-10 2.318261e-09 1.909339e-10 -1.060714e-10
-1.375386e-08 3.118124e-09 2.926079e-09 -1.302550e-08 1.525199e-09 1.319016e-09
-3.525727e-09 2.126269e-09 4.846634e-10 1.764710e-09 1.973355e-10 -4.000933e-11
-5.821205e-09 2.853035e-09 9.413719e-10 1.211624e-09 1.224418e-10 -3.124436e-10
2.339323e-08 -6.247636e-08 4.015836e-09 5.748766e-09 1.619294e-08 -1.805983e-09
4.645074e-08 -1.233508e-07 -2.028573e-08 -6.235182e-09 8.569298e-08 6.175280e-10
-7.644523e-09 3.793240e-09 8.410983e-10 -3.003545e-09 -6.080070e-10 -1.566833e-10
3.621022e-08 -9.360739e-08 -9.286488e-09 8.997700e-09 4.969389e-08 -2.273324e-09
3.265692e-08 -1.113759e-07 -1.726368e-09 -5.597515e-09 4.322943e-08 1.560618e-09
-1.018932e-08 -5.564305e-09 -1.925631e-09 2.248687e-08 6.767461e-09 -4.074030e-09
-7.455405e-09 -6.483478e-09 -2.374656e-10 1.998512e-08 4.571493e-09 -2.618633e-09
3.356606e-08 -3.480534e-08 -3.803865e-08 -2.918896e-09 4.499423e-08 8.556597e-10
-1.268644e-08 -7.646525e-09 9.237937e-10 2.561040e-08 1.115983e-08 -4.810440e-09
1.977784e-09 -3.387409e-08 -7.976423e-10 3.990377e-08 2.094937e-08 -9.920902e-09
-1.087118e-09 -1.736786e-08 -3.392384e-09 2.281602e-08 6.730826e-09 -2.708300e-09
8.344127e-09 -1.347288e-08 -2.502281e-08 2.621719e-08 2.444273e-08 -7.049259e-09
-1.966179e-08 4.309663e-09 -1.183513e-08 3.069614e-08 1.384146e-08 -1.330752e-08
1.416572e-08 -6.945683e-08 -5.867700e-10 3.714979e-08 2.922895e-08 -8.305066e-09
2.925140e-08 -5.281060e-08 -3.217726e-08 1.438635e-08 3.931585e-08 -4.977466e-09
-1.597692e-08 -1.477886e-08 -2.725529e-09 -3.271599e-08 1.550180e-08 8.445657e-09
2.470191e-08 -5.553674e-08 -1.573934e-08 8.204381e-09 -3.074986e-08 3.415798e-09
6.235266e-09 -2.324183e-08 -2.022183e-08 3.153365e-08 2.537519e-08 -9.515294e-09
1.659631e-08 -4.416568e-08 -2.902587e-08 2.918405e-08 3.588753e-08 -1.140787e-08
2.530920e-08 -5.228862e-08 -1.146139e-08 1.312501e-08 -3.609454e-08 7.708998e-09
5.802783e-09 -2.644599e-08 -1.693741e-08 1.940046e-08 -2.042894e-08 1.015030e-08
-5.243277e-09 -2.018057e-08 5.075290e-09 1.631415e-08 4.009490e-09 -3.576400e-10
-4.798562e-10 -1.884411e-08 -1.229847e-10 2.594356e-08 1.021635e-08 -4.325950e-09
1.161205e-08 -4.688510e-08 6.096944e-09 2.458606e-08 1.018390e-08 -3.749074e-09
-6.240992e-09 2.102889e-09 1.206505e-09 8.425926e-10 -9.421220e-11 -3.955229e-10
4.284038e-09 -3.313102e-08 -7.735687e-10 2.249156e-08 1.223775e-08 -3.437152e-09
-6.260767e-09 1.596190e-09 1.183429e-09 8.576817e-10 -1.669443e-10 -6.257297e-10
-6.302957e-09 2.750619e-09 1.205769e-09 1.806445e-09 -1.795675e-12 -1.136751e-10
-5.587514e-09 2.567947e-09 9.242624e-10 1.185925e-09 -2.005085e-11 -2.122793e-10
-4.909373e-09 2.418629e-09 7.459944e-10 2.062608e-09 6.522560e-11 -1.127386e-10
-3.301910e-09 1.850052e-09 4.575682e-10 2.105211e-09 4.047466e-10 -3.296038e-10
-2.362350e-10 -2.214059e-08 -3.952442e-09 2.240127e-08 8.738588e-09 -3.036196e-09
1.594451e-09 -7.520784e-10 -3.657887e-10 3.315921e-09 4.321193e-10 -1.460188e-10
2.157799e-08 -4.119382e-08 -7.521015e-09 7.135620e-09 9.938887e-09 -7.606058e-10
1.717371e-08 -6.629675e-09 -1.972183e-09 2.894731e-09 2.114048e-10 -1.026395e-09
-3.701906e-09 2.195125e-09 7.658487e-10 2.983342e-09 4.305710e-10 -3.693776e-10
1.226819e-08 -6.512798e-09 -1.464910e-09 1.109787e-09 6.457443e-11 -6.232439e-11
1.558972e-08 -6.845466e-09 -1.857444e-09 1.125765e-09 1.667109e-10 8.864377e-11
2.059733e-08 -5.204550e-09 6.847758e-10 9.515321e-09 -7.345313e-10 -5.384920e-09
-6.735924e-09 4.567087e-09 3.393881e-10 -5.094424e-09 -7.402703e-10 2.144130e-10
-6.230048e-09 4.129863e-09 -1.675424e-10 -6.100707e-09 -5.847929e-10 3.693397e-10
-6.715415e-09 -6.346937e-09 2.625780e-09 -6.774232e-09 7.940623e-10 -6.731085e-10
-7.023170e-09 7.833965e-10 1.967931e-09 -4.906845e-10 5.561889e-10 -6.193580e-10
-6.642789e-09 2.447589e-10 2.343095e-09 -1.538506e-09 6.304309e-10 -9.973640e-10
-8.270922e-09 2.895475e-09 1.422917e-09 -2.288733e-09 5.802413e-10 -2.671274e-10
-6.788502e-09 -9.799533e-11 1.470763e-09 -1.192783e-09 9.982938e-10 -8.097606e-10
-7.440759e-09 2.077457e-09 1.962582e-09 3.681994e-11 -1.783973e-10 -3.930189e-10
1.547824e-08 -6.674336e-09 -1.145887e-09 5.608966e-09 1.937019e-10 -1.951972e-09
6.977246e-09 -2.610025e-09 -4.392069e-10 6.125939e-09 1.987794e-10 -7.646125e-10
8.744115e-09 -2.887460e-09 -7.945644e-12 7.661668e-09 2.024508e-10 -1.411521e-09
1.556590e-08 -7.378933e-09 -2.119928e-09 -3.274525e-11 2.117542e-11 -3.963819e-10
1.229606e-08 -3.596652e-09 -1.364144e-09 -9.304519e-09 -4.125496e-10 5.442825e-10
4.570007e-10 1.366891e-10 9.342349e-11 3.236369e-09 4.963391e-10 7.219229e-10
5.006518e-09 -2.722773e-09 -8.593193e-10 3.289270e-09 1.867202e-10 -4.146872e-10
1.332699e-09 1.366125e-10 -1.883740e-10 3.276385e-09 3.948355e-10 -1.153233e-10
1.490442e-08 -6.670973e-09 -1.890770e-09 4.476837e-09 2.752611e-10 -2.307918e-10
2.265746e-08 -5.372266e-09 -1.915071e-09 -7.623914e-09 -5.241411e-10 -2.341768e-09
1.382660e-08 -7.269719e-09 -9.844765e-10 -4.775542e-09 1.244222e-10 9.345566e-10
1.507752e-08 -8.397022e-09 -7.680798e-10 -1.181174e-09 1.687439e-10 -8.082985e-10
1.584862e-08 -8.538242e-09 -2.308509e-10 -2.013158e-09 2.004308e-10 -1.187036e-09
1.749375e-08 -6.595786e-09 8.839836e-10 -8.900886e-09 -3.326190e-10 -2.153828e-09
1.055537e-08 -2.571246e-09 -1.380826e-09 -9.989156e-09 -1.105714e-10 -1.213298e-09
1.577433e-08 -7.966674e-09 -8.914283e-10 -3.937332e-10 3.398393e-10 -1.178891e-10
1.280759e-08 -6.782620e-09 -1.524247e-09 1.076020e-09 1.350661e-10 -7.694867e-11
1.478224e-08 -6.453612e-09 -1.200158e-09 3.400522e-09 4.699880e-10 -1.058591e-10
1.211481e-08 -6.685541e-09 -1.523317e-09 -8.680856e-11 -8.613055e-12 1.921073e-10
1.288230e-08 -6.848853e-09 -1.450082e-09 1.014048e-09 1.326569e-10 -1.784657e-10
-7.947233e-09 2.812843e-09 1.019227e-09 -1.834643e-09 -1.882458e-09 1.600172e-10
-1.206719e-08 2.983160e-09 8.586762e-10 1.169418e-09 -3.931166e-09 2.988618e-09
-6.491204e-08 4.862403e-08 -1.901341e-08 -4.764832e-08 1.667842e-08 4.420930e-08
-1.894390e-08 1.759184e-08 -6.085554e-09 -1.138514e-08 5.012820e-09 5.566331e-09
3.994696e-09 -1.255268e-09 -6.807177e-10 5.089716e-09 2.208885e-10 -3.005428e-10
6.379418e-09 -1.633321e-09 -1.468964e-09 -7.394414e-09 -6.707563e-10 5.694996e-10
-1.159982e-08 2.830960e-09 1.702793e-09 2.823736e-09 -9.443493e-10 1.233175e-09
-1.206719e-08 9.169686e-09 -1.027311e-09 -3.608325e-09 -4.568966e-09 3.855774e-09
-1.588636e-08 5.426185e-09 -1.588648e-09 -2.804094e-08 8.938393e-09 7.920176e-09
-2.751270e-09 2.614501e-09 -7.541017e-10 -8.250691e-09 -1.104407e-09 3.660331e-10
1.333567e-09 1.146532e-10 -4.959189e-11 4.713317e-09 6.696683e-10 7.704905e-11
6.669322e-09 -2.064511e-09 -1.134164e-09 5.531796e-09 6.796445e-10 -5.136091e-11
3.018229e-09 2.053765e-09 -9.343815e-10 -1.738960e-08 1.280245e-09 3.734678e-10
9.209344e-11 1.823726e-09 -3.493219e-10 -1.083947e-08 -2.525323e-10 -7.036898e-10
-7.890790e-10 5.634536e-09 -1.322680e-09 -1.188188e-08 -1.052607e-09 2.027697e-10
6.619081e-08 -3.718219e-08 5.622054e-08 1.733500e-08 1.111082e-08 7.891096e-08
2.062813e-08 -6.608175e-08 4.358778e-09 -1.395176e-09 1.310929e-08 -9.153444e-11
-1.456295e-07 -2.865971e-08 3.911620e-07 4.692918e-09 -1.038102e-07 7.071187e-09
-1.389612e-07 2.739586e-07 -3.626439e-07 -1.887462e-07 2.475512e-07 7.383839e-08
-6.947075e-08 2.016582e-07 -7.823042e-08 3.309285e-08 -1.756221e-07 1.022135e-08
1.432747e-10 8.911828e-09 1.032254e-09 1.386462e-08 -8.349617e-10 -2.189100e-09
-5.905367e-09 6.907902e-09 1.995124e-10 6.866614e-09 1.270365e-09 -7.383355e-10
-1.842469e-08 6.534025e-08 -2.836170e-08 -2.914468e-09 -1.460166e-08 -3.444890e-08
-1.294687e-08 1.094190e-08 9.658998e-10 8.269220e-10 2.380239e-10 3.780946e-10
-3.787236e-09 1.134119e-08 2.861960e-10 1.268853e-08 -1.451133e-09 -4.093316e-09
-1.352558e-08 6.207381e-09 -6.818413e-10 -3.735065e-09 3.721769e-09 8.027170e-10
-2.311921e-08 -2.664130e-08 -2.070317e-08 -6.826656e-08 -5.587490e-08 -4.717678e-08
-4.491942e-09 6.587086e-09 -1.320588e-11 7.316110e-09 4.873313e-10 -1.735307e-09
-1.469983e-08 1.184252e-08 -1.310604e-08 -1.582496e-08 -1.360778e-08 -1.133188e-08
-7.290320e-09 2.819460e-08 -2.462691e-08 -7.764193e-09 -1.670545e-08 -1.690996e-08
-1.226465e-08 1.614109e-08 -3.700867e-08 -3.180187e-08 -3.534504e-08 -3.117518e-08
2.620453e-08 -3.460035e-09 -3.012172e-09 -1.438957e-08 2.363383e-09 -6.117464e-09
-9.794314e-09 -2.371190e-09 -4.024966e-09 -1.848271e-08 5.726014e-09 3.479150e-09
-1.340496e-08 1.980310e-08 -1.774347e-08 -7.943723e-09 -1.578203e-08 -1.381494e-08
7.519046e-09 1.156431e-08 3.727953e-09 -2.524122e-08 6.088988e-09 -4.597126e-09
2.246326e-08 3.278837e-09 -2.106980e-09 -2.140063e-08 5.549995e-09 -8.586728e-09
1.809544e-08 2.060762e-09 1.791610e-08 -2.748910e-08 8.878833e-09 -1.624235e-08
-5.510952e-09 -2.530967e-08 2.727549e-09 -3.286702e-08 1.503263e-08 7.323350e-09
1.412680e-08 -4.703730e-09 1.002440e-09 9.135138e-09 -6.418569e-10 -2.686526e-09
2.843557e-08 -1.135385e-08 1.173837e-08 4.796313e-09 -3.519789e-10 -1.380860e-08
1.009079e-08 2.823713e-10 -5.495966e-10 1.258702e-08 -3.445580e-10 -1.557770e-09
-8.250599e-09 1.032674e-08 1.266344e-08 -2.491747e-08 1.083263e-08 -3.179564e-09
1.255460e-08 2.089829e-09 2.693126e-09 -2.173221e-08 4.609936e-09 -3.545948e-09
2.683823e-09 7.690411e-10 -4.202838e-10 7.869168e-09 5.356961e-10 -1.615927e-09
7.375954e-09 1.877050e-10 -1.788598e-10 1.020523e-08 -4.104905e-10 -2.621364e-09
-3.015356e-08 2.419627e-08 -1.479471e-09 -1.347910e-08 4.066773e-09 8.891515e-09
1.435973e-08 -7.046710e-09 4.185070e-10 6.414993e-09 3.164412e-11 -2.309301e-09
-1.245273e-08 1.977476e-09 -8.167734e-09 -1.728632e-08 -1.069182e-08 -7.191168e-09
4.939007e-09 2.350349e-08 7.627923e-09 2.981820e-08 -1.358578e-08 -1.527640e-08
-1.776247e-08 -7.450882e-09 -3.875012e-09 -2.815163e-08 -2.049671e-08 -1.275743e-08
7.079583e-08 9.239363e-09 1.171867e-08 -7.145682e-08 -2.676503e-08 8.360965e-08
1.744912e-07 -1.207958e-08 1.098607e-07 -1.098586e-07 -7.541588e-08 1.913915e-07
-2.494587e-08 4.240220e-08 -1.019055e-08 -1.148340e-08 -2.572697e-09 -1.592777e-08
-1.638160e-08 3.862059e-08 -4.181665e-09 -4.458252e-09 1.914642e-09 -8.886403e-09
-1.566083e-08 2.530292e-08 -2.393020e-09 -7.805199e-09 5.798668e-11 -7.564717e-09
-2.189190e-08 4.121285e-08 -1.056833e-08 -5.878501e-10 6.269702e-09 -1.482176e-08
3.047658e-08 8.879324e-08 -2.568438e-09 -6.902264e-08 -4.493635e-08 2.583263e-08
-4.089167e-08 2.816315e-08 -1.643823e-08 3.744056e-08 2.274538e-08 -3.159457e-08
-1.678629e-11 -1.623385e-08 4.018973e-09 -1.016985e-08 2.229522e-09 -2.421718e-10
-3.844985e-10 -1.549573e-08 3.239448e-09 -1.207967e-08 3.019788e-09 -2.713733e-10
1.386573e-09 -1.789353e-08 3.895111e-10 -1.325558e-08 1.772129e-09 -8.311737e-10
4.751286e-09 -2.391760e-08 4.414831e-09 -1.088255e-08 2.767672e-09 -1.559483e-10
-2.723044e-08 7.424542e-08 -6.142883e-09 -2.872102e-08 -2.941885e-08 -1.724180e-08
-2.963075e-08 5.311240e-08 -3.072898e-08 1.610835e-08 1.633456e-08 -3.292688e-08
-1.078468e-07 9.787111e-08 -1.958469e-08 2.385912e-08 1.929985e-08 -9.032488e-08
-1.331672e-08 2.301058e-09 -1.623663e-09 -1.154161e-08 2.509620e-09 1.968144e-09
2.536650e-08 -4.963223e-08 -2.248100e-08 -3.888462e-08 4.542752e-08 1.037526e-08
-2.038780e-08 6.750903e-08 -9.466799e-09 -1.982662e-08 2.143063e-09 -1.510007e-08
1.728609e-08 -6.678218e-08 2.181182e-09 -4.242860e-08 2.980155e-08 1.415213e-08
-1.487027e-08 -2.566776e-09 -2.546600e-09 -1.767657e-08 1.120478e-08 4.187572e-09
-4.657476e-08 1.667314e-08 5.634567e-09 4.538240e-08 2.089944e-08 -3.721025e-08
1.954514e-08 -6.472845e-08 -3.256927e-09 -2.116398e-08 -3.063956e-08 -4.237832e-09
-1.067478e-07 6.808861e-08 -1.659815e-08 5.266066e-08 2.988748e-08 -7.040049e-08
4.249223e-09 -8.795874e-10 -8.010206e-10 -6.986898e-09 -7.778039e-10 -1.521183e-10
-2.866433e-09 1.790055e-09 5.252145e-10 3.092375e-09 3.178868e-10 -2.724826e-10
-6.474732e-09 2.441332e-09 1.422371e-09 1.424764e-09 2.217724e-10 -3.620947e-10
7.085352e-09 -2.939802e-09 -7.539996e-10 5.148116e-09 3.820790e-10 -4.888330e-10
5.496633e-09 -8.869864e-10 -4.832296e-10 7.222860e-09 4.064157e-10 -2.924355e-10
-2.789139e-09 2.327226e-09 2.602616e-10 4.362482e-09 9.283119e-10 -2.033425e-10
3.086388e-09 4.071873e-10 -6.363247e-10 6.150096e-09 5.826959e-10 -3.895291e-10
-9.640361e-09 2.147787e-09 -7.847678e-10 -3.723969e-10 -1.394027e-09 -2.145108e-10
6.058845e-09 -1.406127e-09 -9.984944e-10 6.366248e-09 4.333459e-10 -7.209917e-10
7.031026e-09 -3.156505e-10 -7.218426e-11 8.874234e-09 2.901025e-10 -1.075017e-09
-7.163491e-09 3.800807e-09 8.601668e-10 -3.366193e-09 -8.547606e-10 -4.556790e-10
-8.116637e-09 1.734368e-09 1.410062e-09 -1.072628e-09 -1.764649e-09 -3.705998e-10
-7.481535e-10 2.565212e-09 1.704425e-10 6.664390e-09 6.673662e-10 -7.738433e-10
7.184751e-08 -5.223193e-09 -1.695885e-08 4.545496e-08 3.095291e-08 3.375092e-08
6.930368e-08 -3.830066e-08 4.066780e-08 -6.645013e-09 -1.181254e-08 4.595872e-08
1.470704e-08 -4.943261e-09 -7.516932e-10 8.829468e-09 9.231073e-11 -2.443455e-09
-1.248599e-09 9.506528e-10 4.732303e-10 4.647185e-09 3.717227e-10 -1.625882e-10
9.546880e-08 -5.879499e-09 -2.118720e-08 1.878918e-08 1.149966e-08 3.938574e-08
-2.308111e-09 2.823123e-09 3.293812e-10 5.754822e-09 5.996387e-10 -7.887306e-10
9.352898e-08 -2.082605e-09 -7.299237e-09 1.829729e-08 1.056025e-09 3.528634e-08
-1.508423e-09 1.272917e-09 2.848921e-11 3.200280e-09 3.845198e-10 2.862750e-10
3.757065e-09 -9.088836e-10 -6.802110e-10 5.091808e-09 2.692682e-10 -2.548213e-10
9.540315e-09 -3.309784e-08 -2.437950e-09 2.127600e-08 1.021374e-08 -2.536520e-09
-7.254945e-09 -1.963511e-08 3.493016e-09 2.183409e-08 7.681898e-09 -1.911432e-09
6.818326e-09 -2.491078e-09 -9.488255e-10 4.359778e-09 3.582942e-10 -1.870076e-11
-7.610235e-08 1.355230e-08 1.606025e-08 6.682421e-08 4.651089e-08 3.159589e-08
3.652939e-09 -6.994680e-10 -2.501150e-10 4.643829e-09 5.008887e-10 1.360495e-10
3.804360e-09 -5.849982e-10 -2.957776e-10 6.143240e-09 8.001222e-11 -3.176187e-10
-3.993127e-09 2.154910e-08 -6.422280e-09 -1.898464e-08 -3.345259e-09 7.909646e-09
-1.289094e-08 8.884722e-09 -1.011046e-08 6.461536e-09 -1.040873e-08 1.359046e-08
-1.610444e-08 1.277755e-08 -8.425913e-09 1.143084e-08 -1.475068e-08 1.544287e-08
4.981776e-08 -9.115888e-09 -5.874389e-09 2.414079e-08 3.945857e-09 1.997465e-08
-2.369308e-08 2.939193e-08 -1.220752e-08 1.188673e-08 -1.429322e-08 2.503159e-08
2.788378e-09 -5.849977e-10 -2.191367e-10 5.863662e-09 1.452967e-10 -5.665388e-10
-2.213328e-08 1.049266e-08 -9.471137e-09 7.553095e-09 -1.320147e-08 1.812555e-08
-1.023580e-08 2.286544e-08 -4.924250e-09 -1.980500e-08 3.085499e-09 1.000049e-08
1.412063e-08 -3.525516e-09 -7.222138e-10 8.595737e-09 9.125600e-11 -2.232660e-09
-9.240519e-09 -2.597066e-09 1.724483e-10 -1.913243e-08 6.922887e-09 2.242568e-09
4.933092e-09 -1.261402e-09 -8.095136e-10 5.246693e-09 5.294324e-10 3.276535e-11
5.865860e-09 -2.045456e-09 -1.014620e-09 5.376195e-09 8.167388e-10 1.699746e-10
-7.806973e-09 1.022125e-08 -2.857152e-09 -8.344106e-09 -2.872312e-09 4.754761e-09
-1.146919e-08 1.598253e-08 -4.962563e-10 -1.041250e-08 -7.193611e-10 4.534394e-09
2.195127e-08 -9.194182e-09 1.230392e-08 -9.222541e-09 5.132882e-10 -1.120061e-08
-1.116068e-08 1.123786e-08 -1.379138e-08 4.638504e-09 -1.041843e-08 1.064106e-08
1.256718e-08 3.302589e-09 1.418405e-09 -2.131369e-08 2.193823e-09 -3.483785e-09
3.010598e-09 8.792219e-09 -2.600212e-09 -1.744742e-08 1.882190e-10 9.435607e-11
1.327916e-08 -4.776944e-09 -1.057267e-09 -8.647944e-09 1.923364e-10 -7.042127e-10
-9.604374e-09 6.603491e-09 1.627497e-09 -2.740557e-09 1.275630e-09 -1.102126e-09
-8.006072e-09 -4.850993e-09 8.993490e-10 -1.326913e-08 4.344349e-09 1.463241e-09
9.308163e-09 -3.736017e-09 -1.668851e-09 -8.126210e-09 -2.427895e-10 8.925962e-10
3.066857e-09 1.512464e-09 -1.465739e-09 -1.109681e-08 -1.311697e-09 6.239180e-10
-1.735530e-08 8.406182e-09 -3.810248e-09 -1.258418e-08 4.386972e-09 4.255339e-09
9.316487e-09 -1.720532e-09 -1.076945e-09 -1.173040e-08 3.217213e-10 -3.720722e-10
9.437295e-09 1.498314e-09 -6.776952e-10 -1.704481e-08 8.828243e-10 -1.274235e-09
3.638976e-08 -9.559090e-09 -1.962594e-09 -6.692195e-09 1.861322e-09 -1.172599e-08
-1.832999e-08 3.992951e-09 -1.247650e-09 -1.848815e-08 5.738439e-09 5.419903e-09
1.095957e-08 -3.163107e-09 -1.850323e-09 -9.579818e-09 -9.545783e-10 3.249487e-10
1.229547e-08 3.727621e-09 -2.708904e-09 -1.686473e-08 1.055400e-09 -1.239816e-09
1.094874e-08 -1.032222e-08 -1.982200e-08 -2.687343e-08 2.050703e-08 9.666299e-09
-2.890822e-08 3.802185e-08 -3.410689e-08 -2.410009e-08 2.881408e-08 2.568906e-08
2.495490e-08 -2.635725e-08 -3.306237e-08 -1.974938e-08 3.452629e-08 5.683074e-09
-2.649739e-09 1.515796e-08 -2.056334e-08 -2.821172e-08 1.756435e-08 1.322319e-08
-2.463491e-08 -9.941319e-09 -3.637967e-09 -4.787050e-08 2.325364e-08 1.667185e-08
-4.235105e-09 -3.789373e-08 -4.037451e-09 -4.386051e-08 2.780595e-08 1.026881e-08
-2.121694e-08 1.597870e-08 -4.284336e-09 -9.164490e-09 5.264189e-09 6.421412e-09
-1.195973e-08 8.654270e-09 1.856705e-09 4.893984e-10 -2.872096e-10 -1.276242e-09
-2.254501e-09 -2.293898e-08 -4.468080e-09 -5.446571e-08 3.043486e-08 2.275857e-08
-1.924658e-08 1.572877e-08 -1.937372e-09 -3.688548e-09 2.702753e-09 4.244100e-09
-1.343935e-08 4.160503e-09 -1.222312e-08 -2.395435e-08 1.063381e-08 1.063771e-08
-1.348401e-08 5.931640e-09 5.304952e-10 -3.796234e-09 1.525635e-09 1.331041e-09
-8.527114e-08 8.416016e-08 2.428571e-08 2.644307e-09 -1.557532e-08 3.935145e-08
-4.161625e-09 -2.097483e-08 3.978783e-09 -2.374174e-08 7.045599e-09 2.751941e-09
-1.735530e-08 2.151418e-08 -2.655336e-09 -7.092767e-09 3.351603e-10 3.031600e-09
3.586253e-09 3.622784e-08 -4.172908e-08 -3.184255e-08 3.381810e-08 2.685060e-08
-2.934012e-09 7.037750e-08 -2.089745e-08 4.405378e-08 3.538788e-08 1.106323e-09
-2.370408e-08 3.678542e-08 -3.309229e-09 2.515996e-09 -7.930296e-10 6.550258e-09
-9.658437e-09 4.761632e-08 -7.278122e-08 -1.709245e-08 -4.996746e-08 5.298191e-08
-3.049128e-08 4.993362e-08 -1.548819e-08 9.189806e-09 -1.147889e-09 2.311112e-08
-2.295940e-08 2.807087e-08 2.753524e-08 2.942376e-08 -1.565835e-08 -6.619973e-09
-1.500441e-08 1.721512e-08 -1.826031e-09 1.125396e-09 2.692878e-10 1.070991e-09
-2.159170e-08 1.438502e-08 -1.858258e-09 -7.256695e-09 8.590814e-09 4.694755e-09
-2.409357e-08 5.315928e-08 9.460039e-09 2.230418e-08 -1.830217e-08 -1.261873e-08
-8.902724e-08 6.391269e-08 4.030110e-09 -2.460642e-08 -5.707270e-09 3.440349e-08
-1.562969e-07 1.821707e-07 7.660690e-08 6.064287e-08 -1.120241e-07 1.738653e-08
-2.015554e-08 2.782595e-08 1.043087e-08 1.872739e-08 -9.638824e-09 -4.015449e-09
5.216494e-09 -2.202503e-09 -8.076158e-10 -4.078702e-09 -6.224024e-10 1.288959e-10
1.396371e-08 4.496976e-08 1.524053e-07 1.622541e-08 -5.774129e-08 -1.718857e-07
-1.046904e-08 2.834305e-08 -2.354794e-08 7.343963e-09 -1.641527e-08 -1.559523e-08
1.660174e-08 1.129522e-07 7.776825e-08 5.292884e-08 -7.226070e-08 -9.872821e-08
-9.232467e-09 1.957589e-08 -3.069424e-08 -9.770185e-09 -2.159901e-08 -1.396668e-08
-1.199760e-08 1.567232e-08 -1.084779e-08 -1.326303e-08 -1.051170e-08 -8.857035e-09
-7.398232e-09 1.987137e-08 -2.937954e-08 -1.407725e-08 -1.940833e-08 -1.573686e-08
-6.960740e-09 3.504582e-08 -2.589068e-08 2.223922e-09 -1.688225e-08 -1.621661e-08
-3.149039e-08 5.831574e-08 1.894834e-07 -1.267766e-08 -4.033787e-08 -1.842823e-07
-1.286776e-07 4.965537e-07 -6.707727e-08 2.541854e-08 -1.664064e-07 9.824025e-08
-1.373209e-08 6.098463e-08 -1.327647e-08 -3.358421e-08 2.257161e-08 2.485848e-08
1.780624e-08 -4.355025e-08 6.549978e-10 4.797370e-09 3.668610e-09 -2.229950e-10
1.586286e-08 -4.416136e-08 5.988418e-09 6.210795e-09 4.341835e-09 -2.781053e-10
1.448399e-08 -3.914083e-08 7.833600e-10 -5.053540e-09 2.496253e-09 -8.083867e-11
1.398168e-08 9.139522e-09 -4.870142e-09 -2.664230e-08 -1.826710e-09 5.923849e-09
6.179720e-08 -4.059160e-08 -1.406495e-07 -6.228040e-08 1.696579e-07 3.939158e-08
-6.155234e-08 3.820666e-08 -5.547969e-08 5.379346e-08 6.097368e-08 -7.537942e-08
5.051562e-09 -1.512536e-09 -1.004237e-09 -6.604002e-09 -8.432254e-10 1.846913e-10
4.392006e-09 -2.015188e-07 -2.156557e-07 2.373521e-07 3.413086e-07 -1.908797e-07
1.268103e-09 1.260306e-07 -1.967808e-07 1.059952e-08 1.440657e-07 -1.039345e-07
-4.424161e-07 3.378336e-07 4.231875e-07 -9.477247e-08 -4.252185e-07 1.712050e-07
5.222446e-08 -2.707304e-08 -1.187018e-07 1.328548e-09 1.304101e-07 -1.050434e-08
5.866207e-09 4.450802e-08 -8.159407e-08 3.006896e-08 7.532113e-08 -3.816876e-08
-2.591585e-08 -1.234819e-07 -3.731323e-08 1.412666e-07 1.392510e-07 -8.090720e-08
1.024902e-07 -2.912209e-07 -9.537491e-08 1.237551e-07 3.110406e-07 -8.684624e-08
1.027375e-09 1.015001e-08 2.364273e-08 -3.408859e-08 -4.320504e-09 -3.743079e-09
-5.525869e-09 2.403688e-09 8.264205e-10 1.761017e-09 2.701220e-10 -4.866045e-10
-6.867310e-09 2.265675e-09 1.518010e-09 8.468095e-10 1.312234e-10 -3.687886e-10
1.908234e-08 4.355700e-08 2.123148e-08 -5.505994e-08 3.426425e-08 -3.099573e-08
-3.323686e-09 2.428736e-09 5.401137e-10 3.588279e-09 1.057539e-09 -5.630171e-10
-8.411927e-09 -1.299320e-08 3.790123e-09 2.214443e-08 5.904060e-09 -1.536877e-09
-1.008702e-08 -5.564263e-09 2.458470e-09 2.248437e-08 6.731567e-09 -3.050522e-09
-2.050476e-08 1.273434e-08 -2.159048e-09 2.504711e-08 1.186732e-08 -9.205111e-09
-6.290916e-09 2.416161e-09 1.306578e-09 1.099444e-09 5.570251e-10 -4.085530e-10
-3.535529e-09 2.179911e-09 5.073932e-10 2.895383e-09 3.093850e-10 -3.793232e-10
-1.376113e-08 1.759288e-08 -2.128467e-08 2.506390e-08 1.577488e-08 -1.349106e-08
8.091021e-10 1.203908e-10 -1.454281e-11 3.569007e-09 5.433865e-10 2.076147e-10
-1.372673e-08 -1.399887e-08 1.617936e-09 3.554095e-08 1.574884e-08 -9.676954e-09
-9.198360e-09 -1.033466e-08 -6.014110e-09 3.055890e-08 1.146977e-08 -7.963130e-09
-1.273933e-08 -7.656935e-09 -6.010040e-09 2.558524e-08 1.087524e-08 -5.580241e-09
-8.470465e-09 -3.384309e-08 6.130811e-10 3.678221e-08 1.780975e-08 -7.554413e-09
8.308974e-09 -2.261709e-08 -9.192332e-09 2.563970e-08 1.113571e-08 -5.371224e-09
-4.557744e-09 2.265790e-09 8.658412e-10 2.096327e-09 1.825659e-10 -3.040315e-10
-4.830333e-09 2.892055e-09 8.271521e-10 2.840539e-09 3.174996e-10 -9.270435e-10
3.569811e-12 -3.060331e-08 7.972126e-10 4.046356e-08 2.389082e-08 -1.089206e-08
-3.117755e-09 -3.022829e-08 5.735100e-09 2.619602e-08 7.262806e-09 -3.216675e-09
-1.695310e-09 -9.414332e-09 -4.257690e-09 2.428884e-08 8.233894e-09 -3.436194e-09
-7.305889e-09 -1.964621e-08 -1.017683e-09 2.193522e-08 7.927078e-09 -3.257438e-09
9.579563e-09 -3.348119e-08 -6.709880e-09 2.065447e-08 8.298009e-09 -3.286577e-09
6.006408e-10 -2.470077e-08 7.541860e-10 1.821358e-08 3.497517e-09 -2.349370e-09
7.452580e-09 -3.573236e-09 -1.098233e-09 -4.250676e-09 -4.225942e-10 -1.036782e-10
-2.266378e-08 -7.333113e-08 4.994763e-07 4.541380e-08 9.504629e-08 5.605120e-07
5.894204e-09 -2.491613e-09 -8.962749e-10 4.452589e-09 3.358078e-10 -8.974625e-12
-3.392962e-10 -2.439743e-08 -2.894923e-08 3.400071e-08 -4.489831e-08 2.620275e-08
2.237315e-07 3.072253e-08 1.441567e-08 -5.408074e-08 -2.104897e-08 2.001347e-07
2.244863e-08 -4.008651e-08 -9.544392e-09 -2.690681e-08 2.540340e-08 6.401111e-09
1.967566e-08 2.504140e-08 -8.057429e-08 6.892906e-09 -6.506011e-08 3.045897e-08
3.341235e-09 -8.397990e-09 -1.792145e-08 -2.682581e-08 1.857470e-08 9.067347e-09
1.094874e-08 -2.249340e-08 -1.917836e-08 -2.582005e-08 1.877247e-08 9.531438e-09
2.980026e-08 -6.682317e-08 -4.531776e-08 2.616203e-08 -7.567228e-08 2.572184e-08
1.387430e-08 1.078226e-08 -4.622371e-08 1.216675e-08 -4.402722e-08 2.007912e-08
-3.431323e-09 3.150898e-08 3.431556e-09 2.123534e-08 -6.477198e-09 -1.004624e-08
1.150213e-08 -7.528898e-08 -1.234888e-08 5.143797e-08 -5.543667e-08 2.722603e-08
-4.300111e-09 3.169946e-09 -2.795266e-10 -5.701974e-09 -1.211700e-09 -6.069021e-10
-1.005143e-08 1.209236e-08 1.758602e-10 6.404183e-09 7.551590e-10 -9.261545e-10
-2.173184e-08 3.486663e-08 -1.055972e-08 -4.536476e-09 8.709448e-10 9.643364e-09
-2.241232e-08 2.066990e-08 -7.589199e-09 -1.419545e-08 5.652882e-09 8.981023e-09
-4.653522e-09 3.424474e-09 3.226099e-10 -4.895745e-09 -8.788127e-10 2.450378e-10
-7.037984e-09 3.852343e-09 2.764060e-10 -2.930182e-09 -1.332504e-09 -1.626178e-10
-3.213684e-09 4.228091e-09 -1.569633e-09 -9.598821e-09 -6.051955e-10 8.434093e-10
-5.905826e-09 2.897940e-09 4.555818e-10 -3.371888e-09 -1.858085e-09 -6.954826e-10
9.063700e-09 -4.317482e-08 -2.067919e-09 -2.450855e-08 -2.320030e-08 -5.410801e-09
-1.249615e-08 1.982540e-09 -1.462701e-09 -1.726937e-08 -1.050724e-08 -6.619567e-09
-1.844889e-10 1.139833e-09 -2.227096e-10 -4.411894e-09 -5.097831e-10 2.089029e-10
-1.368479e-08 7.113982e-08 -6.440731e-08 -2.061312e-08 -5.809127e-09 3.503057e-08
-1.089944e-08 4.692023e-09 -3.929266e-09 1.960066e-09 -4.544899e-09 3.854203e-09
-1.827216e-08 1.033262e-08 -1.886342e-09 5.249998e-09 -9.908716e-09 9.246759e-09
7.515810e-09 -2.211586e-08 -3.299001e-08 2.677153e-08 -3.299356e-08 1.819323e-08
6.932513e-09 -3.782099e-08 5.718004e-10 1.962775e-08 -1.652199e-08 4.629218e-09
5.512161e-09 -1.469787e-08 -1.664796e-08 1.884119e-08 -1.848684e-08 1.015798e-08
5.960544e-10 4.835599e-08 -1.000915e-09 -3.800700e-08 1.476654e-08 3.203672e-09
-1.234073e-07 1.346797e-07 3.215825e-07 -5.767219e-08 7.784979e-08 -3.696257e-07
-9.801976e-09 8.501422e-09 -3.276406e-09 -5.120645e-09 -2.849475e-09 2.511710e-09
-5.874410e-08 7.575527e-08 -2.706442e-08 -2.918533e-08 8.439722e-09 5.495080e-08
-7.970554e-09 4.193263e-09 -8.366152e-10 -5.138190e-09 -1.880023e-09 2.681463e-10
-3.718793e-09 8.896172e-09 -2.612536e-09 -1.235225e-08 -1.889025e-09 1.487602e-09
-1.393611e-07 -6.634943e-08 4.960262e-07 -3.617256e-08 1.033586e-08 -1.513019e-07
5.997753e-09 -3.388542e-08 5.932250e-09 1.691680e-08 4.448763e-09 -5.836907e-10
-9.421179e-09 8.609347e-09 -2.555258e-09 -4.917649e-09 -2.552614e-09 3.079918e-09
-6.166536e-07 3.338510e-07 1.282487e-06 -7.229773e-08 -7.694718e-07 -3.726718e-07
-6.360209e-09 7.630773e-09 -1.884893e-09 -9.726284e-09 -1.352857e-09 1.730024e-09
-1.446067e-07 -6.156214e-08 5.639457e-07 -1.244104e-08 3.009812e-08 -9.430852e-08
6.947546e-08 7.651187e-08 -8.747580e-10 1.260411e-07 1.207207e-07 9.584742e-08
-6.980816e-10 1.363869e-10 -9.127898e-11 2.957452e-09 9.783130e-11 -1.686722e-10
5.162413e-10 3.329035e-10 -4.386196e-10 3.551601e-09 1.559491e-10 -3.374234e-10
6.077326e-09 -1.898679e-09 -7.520580e-10 4.588413e-09 5.182919e-10 -7.116862e-11
-9.321191e-09 6.130320e-08 -5.810853e-08 -3.052855e-09 -2.946952e-08 -2.447692e-08
-8.913425e-09 4.829129e-08 -2.574085e-08 1.123835e-08 -9.324233e-09 -1.479824e-08
2.231020e-08 -3.146307e-08 -5.131666e-08 -4.280801e-08 -9.293347e-08 -3.026342e-08
-8.611549e-09 3.336049e-09 2.224931e-10 -2.122421e-09 -8.134974e-10 -3.471257e-10
6.319175e-08 -2.862369e-08 1.976178e-08 -3.263841e-09 2.118376e-09 3.354211e-08
-8.088567e-09 7.931289e-08 9.214218e-09 1.208942e-07 1.338290e-07 3.500069e-08
-2.984949e-08 8.413086e-08 -6.604016e-08 1.344956e-08 6.375018e-09 -3.097175e-08
3.384693e-08 -9.751820e-09 4.148786e-09 4.692388e-09 2.196176e-10 -1.307490e-08
-1.800730e-08 2.417110e-08 1.825281e-09 5.503019e-09 -3.633814e-09 2.641502e-10
5.384140e-08 -2.129857e-08 1.393146e-08 2.363151e-08 4.915786e-09 2.516676e-08
-1.416852e-08 1.394550e-08 -3.648588e-09 -4.019508e-10 4.426009e-09 2.910461e-09
8.362316e-09 -6.854504e-08 3.142983e-07 2.555510e-08 3.494839e-08 1.935127e-07
-7.852509e-09 -6.854504e-08 1.780358e-07 1.635626e-08 2.699288e-08 1.077219e-07
-3.101221e-09 1.820806e-09 2.572518e-10 2.045275e-09 4.655587e-11 -1.931789e-13
-8.615579e-10 1.168256e-09 1.699869e-10 2.376702e-09 1.396019e-10 -8.236189e-11
-3.296448e-09 1.691088e-09 1.969394e-10 2.815504e-09 -5.876899e-11 -1.080463e-10
-1.042867e-08 9.064093e-09 1.849854e-09 9.006780e-09 -1.232664e-09 -1.538266e-09
6.113752e-10 2.376944e-09 4.929748e-09 1.422852e-08 -1.700241e-09 -6.097930e-09
1.458716e-08 -2.758625e-10 4.076125e-09 1.717658e-08 -2.080028e-09 -1.093358e-08
5.599139e-09 1.411060e-08 9.581150e-09 2.186383e-08 -6.332899e-09 -1.115487e-08
-9.570161e-09 3.769264e-09 8.699219e-10 -1.953496e-09 -9.937664e-10 -2.177698e-10
-1.066646e-08 1.072129e-09 2.952703e-10 2.401462e-09 -3.717166e-09 2.152943e-09
-1.720668e-08 2.248351e-08 -6.321083e-09 3.275752e-10 -3.683034e-09 -1.334543e-08
-7.874910e-08 -3.358238e-08 2.288703e-07 -4.998198e-08 -5.835743e-08 1.056171e-07
-1.031253e-08 2.217618e-09 9.185843e-10 3.875613e-09 -4.502809e-09 1.818117e-09
-9.237656e-09 3.823663e-09 8.512424e-10 -1.212065e-10 -2.572442e-09 7.038924e-10
1.779395e-07 -6.265549e-08 7.552573e-08 3.240013e-08 3.763167e-08 2.739117e-07
-8.644736e-09 5.991228e-09 -2.821448e-10 -4.110794e-09 -2.373143e-09 1.413921e-09
-6.827464e-08 2.868783e-07 -2.520325e-07 -1.397140e-08 -1.639250e-08 -1.243992e-07
7.300419e-09 1.925687e-09 -1.112290e-09 -1.321285e-08 1.573979e-10 -9.640892e-10
-7.210478e-09 -1.458787e-08 -8.124229e-09 4.054833e-08 1.971855e-08 -1.473766e-08
2.213500e-10 -2.487322e-09 -3.612944e-08 3.615534e-08 3.891691e-08 -1.637795e-08
1.506075e-08 -5.675161e-08 -4.119594e-09 4.177991e-08 3.352953e-08 -9.590834e-09
-9.660634e-09 -2.922213e-08 -3.105605e-09 4.765502e-08 2.808573e-08 -1.683555e-08
1.804208e-08 -8.508278e-09 -8.944823e-10 -1.883083e-09 -1.253542e-10 -1.895915e-09
1.139129e-08 -5.629025e-09 -1.454164e-09 1.760479e-09 2.787615e-10 3.097205e-10
1.874967e-08 -7.357982e-09 -2.420339e-09 -2.712911e-09 -1.706787e-11 -7.933132e-10
1.027675e-08 -5.525721e-09 -1.471167e-09 -3.295523e-09 -8.541845e-11 -5.646750e-11
4.764313e-09 -2.725320e-09 -7.455645e-10 3.209748e-09 4.311711e-10 -5.042677e-11
2.237991e-08 -5.707032e-08 2.947800e-09 1.701774e-08 1.490660e-08 -2.984053e-09
2.559314e-08 -9.518748e-09 -3.603362e-09 -5.434226e-09 -5.895218e-10 -3.479827e-09
5.941004e-09 -1.394678e-09 -7.647273e-10 6.409813e-09 5.674755e-10 -6.967282e-11
1.861172e-08 2.378049e-10 -5.865748e-10 1.400076e-08 -1.553067e-09 -7.169817e-09
-5.900244e-09 6.878643e-09 3.078178e-10 6.866997e-09 -4.628498e-10 -1.441597e-09
-8.661489e-10 4.754026e-09 -9.603328e-10 1.065129e-08 -1.861678e-10 -2.834741e-09
-5.081772e-08 5.504466e-08 3.132923e-08 1.489799e-08 -2.540238e-08 -1.214227e-09
1.388400e-08 -3.519210e-09 1.494960e-10 9.440671e-09 -1.060700e-10 -3.497674e-09
6.476728e-09 1.148231e-09 2.128735e-09 1.216631e-08 -7.059001e-10 -3.255087e-09
8.970853e-08 -1.060712e-07 -1.639267e-07 -4.397552e-08 2.875204e-07 -7.102238e-09
-1.619216e-08 1.447266e-08 2.219459e-09 1.256900e-08 -2.519482e-09 -2.303957e-10
1.651274e-08 -2.369608e-09 -3.800748e-08 3.172947e-08 4.036783e-08 -1.646446e-08
7.124058e-08 -2.118247e-07 -4.054414e-08 3.341162e-08 1.518898e-07 -1.355365e-08
4.328045e-08 -1.442998e-07 -1.334903e-08 8.412684e-09 8.062994e-08 -4.374577e-09
2.860059e-08 -2.719692e-08 -3.043344e-08 2.325000e-08 3.828488e-08 -6.388618e-09
-2.120098e-08 2.518128e-08 1.180654e-09 5.750904e-09 -5.595614e-10 1.512509e-10
2.572700e-08 -3.917193e-08 -2.131396e-08 -7.847644e-09 1.981387e-08 2.737605e-09
3.070314e-08 -5.416252e-08 -9.994013e-09 -1.076909e-08 2.995216e-08 2.930481e-09
-7.155698e-08 -5.670868e-08 3.488509e-07 1.552762e-08 -1.603329e-08 -7.839433e-08
2.562039e-08 -8.836135e-08 2.742386e-09 6.369198e-09 2.556474e-08 -1.140308e-09
2.851567e-08 -7.058778e-08 1.552577e-09 -2.153347e-09 2.618717e-08 1.816446e-09
1.403158e-08 -5.625501e-09 -1.571870e-09 -4.559004e-09 -5.870084e-10 -5.139870e-10
1.990625e-08 -6.733272e-09 -1.901066e-09 -4.185581e-09 -1.399206e-10 -1.041671e-09
8.429429e-09 4.210955e-08 1.462245e-07 1.234961e-08 -6.683265e-08 -1.412645e-07
-1.953402e-08 -1.583236e-08 1.011362e-07 1.736668e-08 -7.568541e-08 -7.482878e-08
5.124908e-08 1.923195e-08 -1.344307e-08 -3.227248e-08 -1.446692e-08 2.155554e-08
8.749212e-08 -2.121778e-08 3.740403e-08 1.261692e-08 2.643756e-09 5.862990e-08
1.678890e-08 -6.873530e-09 -1.882586e-09 -1.815103e-09 -1.781413e-10 -4.410425e-10
1.550826e-08 -7.305327e-09 -1.873052e-09 -1.593972e-10 2.206568e-11 -4.884659e-10
5.370907e-08 2.370897e-09 5.609991e-08 7.345371e-08 5.506019e-08 5.996803e-08
1.544611e-08 -4.229427e-08 6.143587e-09 7.753688e-09 2.837183e-09 -1.840127e-10
9.137827e-08 -1.480701e-08 -6.186214e-09 4.072080e-09 -1.777155e-09 4.290014e-08
4.749483e-09 -3.309421e-08 5.848544e-09 1.660313e-08 4.810295e-09 -1.425078e-10
1.428308e-08 -4.442565e-08 6.367046e-09 6.860143e-09 4.317073e-09 -2.944303e-10
1.129488e-08 3.302209e-08 3.885944e-09 4.939134e-08 2.848461e-08 1.121917e-08
1.169169e-08 -6.379767e-09 -1.280581e-09 1.009838e-09 3.571847e-11 1.374459e-10
1.131011e-08 -4.466116e-08 6.174951e-09 1.462834e-08 6.548021e-09 -1.190031e-09
6.276284e-09 -5.314857e-10 -1.251536e-09 -9.346939e-09 -6.453060e-10 -5.138344e-10
1.570058e-08 -7.459722e-09 -1.338336e-09 4.655843e-11 3.674908e-12 -2.318752e-10
-1.288042e-09 8.091279e-10 1.220859e-10 2.605588e-09 4.478858e-10 -1.446495e-10
9.765877e-10 4.860223e-12 -9.536203e-10 -6.838510e-09 -6.711556e-10 4.998560e-10
-2.606076e-08 8.879324e-08 1.951110e-08 -2.673383e-08 -1.199981e-08 1.670329e-08
-2.655939e-08 4.221717e-08 5.689591e-09 -7.166818e-09 2.348550e-09 -7.171883e-09
-3.040294e-08 6.808861e-08 -3.405246e-09 -2.722361e-09 -3.165392e-09 -1.499769e-08
-5.819303e-08 9.731592e-08 2.767036e-08 -4.805664e-08 -3.956031e-08 -8.294617e-09
-8.718073e-09 -2.776256e-09 2.185445e-09 -8.092908e-09 1.149918e-09 -1.428063e-10
-7.021832e-09 -4.309907e-09 2.062053e-09 -8.299118e-09 1.681579e-09 -1.905827e-12
2.872954e-09 8.354789e-09 3.508108e-09 1.616540e-08 -2.258959e-09 -5.207841e-09
-8.275516e-09 1.464613e-09 2.125391e-09 -7.111095e-09 1.781997e-09 -1.918779e-09
1.905963e-09 1.111907e-08 -3.732596e-10 1.339096e-08 -1.004624e-09 -4.132533e-09
-1.739313e-08 1.867535e-08 -2.480954e-09 -3.988884e-09 7.443436e-10 2.540826e-09
1.572239e-08 -5.770092e-08 1.857814e-10 -2.194953e-08 2.639720e-08 2.764928e-09
2.047950e-08 -6.495896e-08 4.342874e-09 8.752447e-09 1.420745e-08 -5.782921e-10
2.343708e-08 -7.812599e-08 3.242282e-09 -1.028373e-08 2.207761e-08 1.192461e-09
-1.239220e-09 6.751978e-08 6.035621e-08 -8.015147e-08 -7.359914e-08 3.632549e-08
-4.058501e-08 4.114730e-08 6.206131e-08 -4.541881e-08 -2.166488e-08 1.752796e-08
-4.802619e-08 8.926612e-08 -1.803341e-08 -1.475350e-08 -7.150744e-09 4.478506e-08
1.728431e-08 -3.273450e-08 -1.251370e-08 -1.751968e-08 1.391270e-08 4.202626e-09
-1.555598e-08 5.976401e-08 -2.649399e-08 -2.164185e-08 -2.256987e-09 -8.967991e-09
3.709993e-08 1.431202e-07 1.271028e-07 1.881182e-07 2.112910e-07 2.343903e-07
-9.346000e-08 1.685413e-07 8.056444e-09 -4.090665e-08 1.294612e-07 -1.173944e-07
8.055907e-08 -1.269138e-08 1.217794e-08 -2.278758e-08 -5.668973e-09 4.223504e-08
5.835488e-09 -3.596353e-08 -4.968071e-09 -3.089408e-08 -2.528393e-08 -9.143255e-09
2.385893e-08 -1.058956e-08 2.706616e-09 4.300602e-09 -7.606663e-10 -8.244227e-09
2.050691e-09 -3.313406e-08 -1.255385e-09 -3.308758e-08 -2.982686e-08 -1.177580e-08
2.693263e-09 -3.331886e-08 -5.119182e-09 -3.274519e-08 -2.518926e-08 -8.381482e-09
5.432118e-10 -3.571402e-08 -4.323009e-09 -3.673434e-08 -2.932797e-08 -1.051178e-08
-9.466539e-09 -4.198597e-09 9.338466e-10 -1.558864e-08 -8.494958e-09 -3.904838e-09
2.193101e-09 -4.900737e-10 -4.922338e-10 -4.027734e-09 -6.327382e-10 3.905620e-11
-2.086225e-10 2.637713e-09 -3.493383e-11 6.153464e-09 1.055682e-09 -2.728205e-10
1.713543e-08 -9.086654e-09 -3.755747e-10 1.526944e-09 2.341755e-11 -1.596551e-09
3.376398e-09 -4.702582e-10 -5.376890e-10 4.970394e-09 1.099550e-10 -7.138068e-11
-3.430969e-09 2.892882e-09 2.798592e-10 -4.059432e-09 -7.951336e-10 -5.991754e-10
9.081256e-09 -3.994512e-09 -1.158981e-09 4.410858e-09 3.430651e-10 -2.914352e-10
2.183664e-09 -6.441416e-10 -2.689937e-10 4.560281e-09 1.603151e-10 -5.207832e-10
-1.717263e-09 1.729922e-09 -8.900036e-11 -4.140842e-09 -4.642964e-10 -4.529512e-10
-3.458830e-09 2.534379e-09 1.890488e-10 -3.046388e-09 -5.487613e-10 -2.149826e-10
8.188780e-09 -3.388669e-08 5.318446e-09 1.369099e-08 3.195993e-09 -5.809175e-10
8.081094e-09 -3.342089e-08 5.347985e-09 1.392292e-08 2.241008e-09 -8.584456e-10
1.239156e-08 -4.526649e-08 1.465112e-09 1.974847e-08 1.100872e-08 -2.030016e-09
4.092858e-09 -2.929877e-08 3.623410e-09 1.428481e-08 4.078446e-09 -1.524767e-09
1.268552e-08 -3.306223e-08 -8.697611e-09 2.444728e-08 1.160434e-08 -2.968069e-09
-7.804454e-09 -3.195568e-09 1.135009e-09 5.127219e-09 -4.379349e-09 8.166766e-10
1.612328e-08 -4.102611e-08 -3.071259e-10 1.038177e-08 5.743050e-09 -6.172451e-10
1.468314e-08 -5.515071e-08 8.169666e-09 1.738275e-08 1.016190e-08 -5.864718e-10
-6.430957e-09 -1.811304e-08 2.738307e-09 2.066080e-08 7.293779e-09 -1.874293e-09
-3.733039e-09 -2.001682e-08 4.573347e-09 1.517629e-08 3.720351e-09 -8.933468e-10
3.825909e-08 -7.921017e-09 1.378535e-08 3.947334e-08 2.520490e-08 2.200167e-08
4.520687e-08 -7.287744e-08 -2.113324e-08 -4.770771e-09 4.685506e-08 5.023418e-09
2.652764e-08 -7.163965e-08 -6.531994e-10 1.816677e-08 3.350033e-08 -2.294865e-09
3.260025e-08 -5.864008e-08 -3.011066e-08 -1.711798e-08 4.391940e-08 5.416827e-09
4.806313e-08 -5.951969e-08 4.257783e-08 -5.972873e-09 -9.536008e-09 6.317213e-08
2.518025e-08 7.994710e-10 5.158848e-09 2.912889e-08 6.636038e-09 9.085840e-09
3.319239e-09 -9.163860e-10 -5.117451e-10 4.935772e-09 2.374807e-10 5.492826e-10
2.742622e-08 -7.615986e-08 4.594982e-10 -1.672868e-08 3.806833e-08 5.645036e-09
5.004434e-09 -1.905507e-09 -9.887846e-10 -5.130159e-09 -2.876814e-10 -5.177114e-11
-1.685880e-09 1.279613e-09 3.327116e-10 3.719240e-09 4.423005e-10 -4.431455e-11
7.202045e-09 -3.638008e-09 -9.172902e-10 3.257560e-09 3.457035e-11 -1.716465e-10
6.957070e-09 -1.509528e-09 -1.399012e-09 -9.446320e-09 -5.110783e-10 8.320512e-10
1.248550e-08 -2.990863e-08 -1.151122e-08 1.661241e-08 -1.913105e-08 5.256454e-09
2.056760e-08 -6.431006e-08 -5.735045e-09 2.437788e-08 -3.208577e-08 1.113907e-08
9.793665e-09 -3.594325e-09 -1.345636e-09 -7.228546e-09 -3.205389e-10 2.287515e-11
2.417969e-08 -4.683721e-08 -1.456015e-08 -1.650318e-08 2.276912e-08 3.357488e-09
2.303561e-08 -5.230936e-08 -5.254015e-09 -4.752006e-09 1.542426e-08 -2.282049e-10
2.313498e-08 -4.609093e-08 -1.481416e-08 -1.408404e-08 1.822252e-08 4.380299e-09
2.168975e-08 -9.086654e-09 9.066996e-10 2.138846e-09 1.151139e-10 -3.467944e-09
1.871944e-08 -4.019467e-08 -5.884582e-09 -1.064488e-08 1.151798e-08 1.626622e-09
-8.337192e-08 1.979421e-08 2.720758e-07 -4.081288e-08 -1.349185e-07 7.214670e-08
2.879676e-07 1.180875e-07 2.663996e-07 -1.749032e-07 -2.823684e-07 4.639446e-07
-3.038244e-09 7.053420e-08 -2.157886e-08 4.398936e-08 3.658870e-08 -5.239438e-10
1.427224e-08 -7.590656e-09 -1.109009e-09 2.612541e-09 1.280622e-10 -4.264615e-10
7.607243e-09 -2.904762e-09 -8.957147e-10 5.551599e-09 3.555806e-10 2.202387e-11
-6.912881e-08 1.045105e-07 -7.647340e-08 -8.078085e-09 -2.988953e-08 -5.012564e-08
1.255970e-08 -6.302387e-09 -1.327649e-09 1.531142e-10 -2.664788e-11 -8.789325e-11
2.975480e-08 -7.164476e-08 2.099564e-10 2.043171e-08 3.300516e-08 -4.615771e-09
4.831112e-09 -1.908777e-09 -6.929670e-10 4.396772e-09 5.064620e-10 3.241755e-10
1.923642e-08 -9.086654e-09 1.077985e-09 1.565845e-09 -1.044776e-11 -3.345912e-09
2.088689e-08 -7.389619e-08 -2.305769e-08 9.855245e-08 1.689078e-07 -9.251672e-08
2.974517e-08 -2.755036e-08 -3.210460e-08 1.795368e-08 4.071950e-08 -4.771927e-09
-2.205064e-09 -1.468157e-08 -1.539799e-09 -1.972632e-08 5.370557e-09 3.114335e-09
5.894566e-09 -3.635017e-08 2.455232e-09 -2.321868e-08 1.213517e-08 1.803525e-09
-1.418688e-08 4.115545e-09 3.193567e-09 -1.184702e-08 2.747965e-09 1.483891e-09
-1.843856e-08 1.282152e-08 -8.102083e-09 -2.165365e-08 1.141993e-08 9.253294e-09
-1.555343e-08 1.161240e-08 -1.403844e-09 -7.997777e-09 4.539384e-09 2.835068e-09
-2.030536e-08 1.573716e-08 -5.389069e-09 -9.111322e-09 4.638803e-09 7.248276e-09
7.790961e-09 -4.777630e-09 -1.158245e-09 2.644645e-09 7.733392e-11 -1.421254e-10
-2.801252e-08 2.748153e-08 -5.300801e-10 -1.082474e-08 1.407815e-09 6.677585e-09
-1.331672e-08 1.193236e-08 -1.406942e-09 -8.093627e-09 1.056041e-09 1.505036e-09
1.454806e-08 -6.723307e-09 -1.348426e-09 1.623548e-09 -1.490907e-11 8.030278e-12
1.223661e-08 -6.697866e-09 -1.424424e-09 -2.668842e-09 -1.532141e-10 -7.450929e-11
-2.187094e-08 2.375201e-08 9.521400e-09 1.437217e-08 -6.648125e-09 -2.762887e-09
1.305025e-08 -6.330476e-09 -1.746273e-09 -1.901627e-09 5.704798e-11 2.430419e-10
1.092876e-08 -6.046944e-09 -1.489752e-09 -2.441966e-09 -2.262294e-10 4.106129e-10
-9.687513e-09 1.849785e-09 2.085137e-10 -6.710087e-09 3.595757e-09 6.288819e-10
-6.425893e-09 1.795786e-08 8.208505e-09 1.970565e-08 -3.775355e-09 -6.913325e-09
-1.939601e-08 4.191783e-07 -7.402472e-07 -1.187419e-07 8.902544e-08 -3.851633e-09
6.198146e-08 7.951377e-08 -1.945797e-07 8.538618e-09 1.322473e-07 7.958947e-09
4.247289e-08 8.339958e-09 -1.187667e-07 3.957565e-08 1.098013e-07 -5.742350e-08
8.469886e-08 2.182208e-07 -1.380004e-07 1.472884e-07 1.498999e-07 5.335285e-08
-8.914689e-08 6.991112e-08 1.508843e-07 1.081148e-07 2.062778e-07 4.181080e-08
1.639934e-08 -4.503875e-08 6.047018e-09 3.173967e-09 3.986217e-09 -2.125322e-11
1.820154e-08 -3.934057e-08 6.624417e-10 -4.281837e-09 4.500782e-09 2.775402e-10
2.170687e-08 -4.893072e-08 5.643641e-11 -4.503837e-09 1.330736e-08 1.422074e-09
2.424444e-08 2.208906e-08 -1.539874e-08 2.084011e-08 2.065884e-09 2.674746e-09
6.701294e-08 -1.439218e-09 -3.540601e-10 4.240705e-08 1.860935e-08 3.056034e-08
1.467153e-09 -2.110840e-08 4.974327e-09 -1.036630e-08 5.962055e-10 -8.429174e-10
5.865843e-08 -1.094215e-08 3.102890e-08 3.281528e-08 1.955295e-08 3.712147e-08
5.493138e-09 4.190599e-08 -2.015918e-08 3.115616e-08 7.865493e-09 -9.892896e-09
6.028036e-09 -2.888134e-08 5.529284e-09 -1.085822e-08 1.192375e-09 -4.847521e-10
8.178928e-09 -3.076969e-08 3.322935e-09 -8.837010e-09 1.288634e-09 -5.823400e-10
-2.519001e-08 4.399577e-08 -1.662678e-08 4.584574e-09 -4.154811e-09 1.893288e-08
-4.800966e-08 4.153926e-08 5.452340e-09 -5.312305e-09 -5.077677e-09 1.672338e-08
2.531396e-09 -2.116476e-08 1.929482e-09 -1.225070e-08 1.903187e-09 4.824355e-10
-1.556805e-08 6.497633e-09 3.304585e-10 -8.872853e-09 2.806741e-09 2.121371e-09
-4.481106e-08 4.392156e-08 2.620280e-09 6.383418e-09 -1.091500e-08 1.528483e-08
-1.873592e-08 2.110478e-08 -8.622805e-09 -1.297225e-08 3.314807e-09 7.640929e-09
-1.523943e-08 2.526007e-08 -6.791146e-09 -1.166957e-08 -9.572028e-09 1.742239e-08
-5.964719e-08 4.165123e-08 3.792211e-07 -9.666020e-08 1.099839e-07 -2.706872e-07
-2.687472e-08 6.721556e-08 5.242663e-08 2.312106e-09 3.726497e-08 -2.129069e-08
-2.515838e-09 7.781134e-09 7.417921e-09 -1.903861e-08 5.105386e-09 -2.256138e-09
-9.879701e-08 5.196146e-08 2.172395e-07 -7.907580e-09 9.327069e-08 3.868836e-08
1.744904e-08 -5.280414e-08 4.735348e-09 1.448656e-08 1.213051e-08 -9.882314e-10
1.892824e-08 3.553263e-09 1.122460e-09 -2.526760e-08 7.473682e-09 -6.688393e-09
2.862161e-08 -3.302818e-08 -2.162256e-08 1.299047e-08 2.396016e-08 -2.896944e-09
2.322402e-08 -3.331706e-09 1.239818e-08 -2.180815e-08 5.048422e-09 -1.256475e-08
1.273654e-08 -5.248166e-09 7.732411e-09 -1.586983e-08 2.207861e-09 -6.950829e-09
7.317958e-09 1.456648e-10 3.991683e-09 -2.273067e-08 4.444520e-09 -3.816469e-09
2.595992e-08 3.879378e-09 7.835859e-09 -2.901672e-08 9.700643e-09 -1.946695e-08
1.970640e-08 -2.681893e-08 -3.685770e-08 2.878656e-08 4.190257e-08 -1.417709e-08
-7.418770e-09 -2.922212e-08 -3.976611e-09 5.294958e-08 3.084299e-08 -1.708807e-08
2.730065e-08 -7.643509e-08 -1.093814e-09 1.760724e-08 3.059307e-08 -3.686772e-09
-1.398641e-08 8.459498e-09 -2.786283e-09 -1.240025e-08 5.739375e-09 2.954579e-09
-1.292314e-08 1.136674e-08 -2.038223e-08 1.354087e-08 -1.769052e-08 1.932548e-08
-4.123098e-09 3.804896e-09 -1.596963e-08 1.580370e-08 -1.440075e-08 1.192357e-08
2.132272e-09 -3.144042e-08 -2.297754e-09 2.439129e-08 -1.766689e-08 8.843623e-09
-4.593754e-09 -1.884392e-08 -2.776812e-10 1.798257e-08 -1.166697e-08 5.706744e-09
9.907041e-09 -5.521327e-09 -1.068385e-09 2.914341e-09 2.149204e-10 -7.008905e-11
-9.489287e-09 2.875794e-09 4.023968e-10 -2.278594e-10 -2.157177e-09 2.781966e-10
1.759683e-08 -3.866887e-08 -1.134484e-08 2.620363e-08 2.265468e-08 -6.897884e-09
1.063255e-08 -5.398808e-09 -1.487243e-09 2.494108e-09 2.442271e-10 -1.445314e-10
1.450923e-08 -6.791408e-09 -1.374564e-09 -7.997215e-10 -3.240030e-11 8.286194e-11
5.516059e-09 -3.269695e-08 2.498067e-09 2.839328e-08 1.074611e-08 -2.134068e-09
-1.254237e-08 2.074512e-08 -1.585867e-08 -6.867254e-09 -1.345427e-08 -1.234711e-08
1.139098e-08 -6.290357e-09 -1.692895e-09 1.584189e-09 3.079325e-10 8.878875e-10
1.069293e-08 -4.072039e-09 -9.842922e-10 5.096531e-09 -4.446899e-11 -6.441675e-10
-7.028563e-09 8.538823e-10 2.338169e-09 -4.836434e-10 3.501079e-10 -6.023146e-10
-7.092568e-09 1.873458e-09 1.950113e-09 6.824887e-10 3.959746e-10 -5.262004e-10
-6.934531e-09 1.772957e-09 1.740764e-09 -3.182912e-10 2.646134e-10 -3.745699e-10
3.519218e-09 2.762849e-10 -1.063023e-09 -8.328150e-09 -5.653296e-10 5.786758e-10
-9.420046e-09 5.998760e-09 -8.373694e-09 3.606412e-09 -7.146516e-09 4.638127e-09
-1.169168e-08 1.715178e-09 1.274804e-09 2.385498e-09 -2.716743e-09 1.284635e-09
-2.620292e-09 -3.201502e-08 7.934829e-09 2.606556e-08 6.163915e-09 -2.089479e-09
4.598154e-09 -1.205748e-09 -9.518684e-10 -7.501625e-09 -5.030076e-10 -1.973786e-10
-4.880110e-09 3.330241e-09 -3.150227e-10 -5.972566e-09 -9.386054e-10 -2.062057e-10
1.548102e-09 6.181359e-10 -5.869967e-10 -6.596301e-09 -1.183592e-09 3.042058e-10
1.909564e-07 6.317043e-08 -2.566736e-08 -5.018832e-08 -6.890786e-08 2.550481e-07
4.358874e-09 -1.694863e-09 -8.050862e-10 -4.748515e-09 -4.939695e-10 -2.689951e-10
-2.743796e-10 8.370067e-10 -2.541838e-10 -4.960188e-09 -7.178957e-10 -2.909472e-10
-1.446847e-09 3.226503e-09 3.107977e-08 1.874828e-08 -8.968989e-09 -1.966966e-08
1.718579e-08 1.707311e-08 2.541851e-09 2.724704e-08 -8.378059e-09 -1.505236e-08
-7.445330e-09 3.992853e-09 -6.542482e-10 -3.954266e-09 -1.835503e-09 9.639154e-10
-3.864571e-09 1.475578e-08 2.121998e-09 1.517501e-08 -2.682121e-09 -3.219339e-09
3.935620e-09 1.007457e-08 2.660266e-09 1.552523e-08 -3.143711e-09 -8.585569e-09
5.127201e-09 2.349952e-08 -5.021897e-10 2.981161e-08 -1.385246e-08 -1.711528e-08
-6.170222e-09 4.000915e-09 -8.710455e-11 -5.334640e-09 -1.568686e-09 -1.678665e-10
-7.398262e-09 4.397807e-09 2.267235e-10 -4.691570e-09 -6.512461e-10 4.014495e-10
-7.040527e-09 3.464511e-09 6.759318e-10 -3.598387e-09 -1.247429e-09 -2.071863e-10
-8.306157e-09 3.382643e-09 8.788441e-10 -2.667203e-09 -9.614300e-10 -2.695817e-10
9.814846e-08 -2.128769e-08 -3.234782e-09 1.190264e-08 5.859185e-09 4.760023e-08
-4.554146e-09 2.989270e-09 3.863527e-10 -4.036371e-09 -1.136143e-09 -4.393534e-10
-6.115269e-09 3.802957e-09 2.517480e-10 -3.173339e-09 -3.651565e-10 -4.249692e-10
2.955702e-08 4.368997e-08 -1.938731e-08 3.913777e-08 1.210333e-08 4.971888e-10
-1.319385e-08 1.496325e-08 -6.830591e-09 -1.509075e-09 -6.002299e-09 -1.486997e-08
-5.629651e-09 3.367611e-09 5.767564e-10 -3.733070e-09 -7.408618e-10 -1.458387e-10
8.318108e-08 -6.167533e-09 -3.364938e-08 8.409654e-09 5.506648e-10 2.699736e-08
3.943893e-09 8.879324e-08 1.192849e-08 -7.687858e-08 -4.085944e-08 1.874999e-08
-1.854622e-08 -2.525987e-08 -1.065904e-08 -4.365364e-08 -4.143404e-08 -2.750869e-08
-1.925569e-07 1.762645e-07 -1.752107e-07 7.683656e-08 -4.473036e-08 -1.111630e-07
1.070237e-07 3.309766e-08 2.319050e-09 -4.697998e-08 -3.075171e-08 8.665269e-08
-2.470054e-08 -3.358238e-08 2.769656e-07 -4.347373e-08 -5.824969e-08 1.284118e-07
-1.196828e-08 -1.102227e-08 5.616183e-10 2.569900e-08 9.996222e-09 -4.947351e-09
1.729673e-08 -4.329360e-08 5.416432e-09 5.083712e-09 4.407332e-09 -4.948386e-10
1.232299e-08 -3.980748e-08 5.499814e-09 1.078789e-08 4.106286e-09 -6.545995e-10
5.803194e-09 -2.787135e-08 2.334590e-09 1.666746e-08 4.057541e-09 -6.265271e-10
-1.504156e-08 -7.815522e-09 -1.964835e-09 -3.764645e-08 -1.879445e-08 -1.806897e-08
-2.095287e-08 2.033302e-08 -1.748433e-08 -1.593537e-08 -2.398333e-08 -2.703183e-08
-2.464883e-08 2.291380e-08 -1.736794e-08 -1.683193e-08 -2.211352e-08 -2.545375e-08
-2.207668e-08 2.481235e-08 -2.127581e-08 -1.940986e-08 -2.495417e-08 -2.434848e-08
-1.974885e-08 1.942410e-08 -1.448710e-08 -1.260685e-08 -1.679050e-08 -2.093501e-08
-2.204542e-08 2.145028e-08 -1.268191e-08 -1.333828e-08 -1.454809e-08 -2.042831e-08
-2.162218e-08 2.389974e-08 -1.252447e-08 -1.231975e-08 -1.243821e-08 -1.952922e-08
-2.016470e-08 2.182275e-08 -7.668223e-09 -8.287322e-09 -1.033776e-08 -1.904413e-08
-1.795875e-08 2.737180e-08 -1.134015e-08 -4.740331e-09 -1.367400e-08 -2.176667e-08
-1.004924e-08 2.321809e-08 -9.784960e-09 -2.867868e-09 -1.080669e-08 -1.749689e-08
-2.425230e-08 2.182275e-08 -7.446583e-09 -1.601762e-08 -1.526739e-08 -2.017368e-08
-2.147031e-08 2.748094e-08 -1.091475e-08 -1.204583e-08 -1.845011e-08 -2.258581e-08
-2.143209e-08 2.774536e-08 -1.103229e-08 -1.221749e-08 -1.677530e-08 -2.455940e-08
-2.342869e-08 8.608288e-09 -4.333104e-09 -2.382162e-08 -2.104002e-08 -1.700933e-08
-2.187622e-08 9.466408e-09 -4.326102e-09 -2.569162e-08 -2.116044e-08 -1.658893e-08
-2.212597e-08 7.067786e-09 -4.758250e-09 -2.682888e-08 -2.218233e-08 -1.704295e-08
-1.998296e-08 1.157010e-08 -2.611752e-09 -1.652480e-08 -1.303789e-08 -1.429929e-08
-1.900332e-08 7.067786e-09 -4.708612e-09 -1.872921e-08 -1.345554e-08 -1.533770e-08
-2.025456e-08 1.171850e-08 -4.322178e-09 -1.774812e-08 -1.531111e-08 -1.501076e-08
-2.113244e-08 3.695664e-09 -5.227878e-09 -2.491007e-08 -2.315434e-08 -1.767417e-08
-1.894609e-08 3.657543e-09 -5.055901e-09 -2.573718e-08 -2.328352e-08 -1.697340e-08
-2.319177e-08 -6.498854e-10 -3.367994e-09 -3.023992e-08 -2.656069e-08 -2.178787e-08
-1.188099e-08 2.349717e-08 -1.182888e-08 -6.035287e-09 -1.619678e-08 -1.986897e-08
-1.221620e-08 2.929159e-08 -1.041856e-08 -4.404662e-09 -9.988967e-09 -1.560174e-08
-1.127162e-08 2.775396e-08 -1.137850e-08 -3.813712e-09 -1.149566e-08 -1.580056e-08
9.316113e-09 -4.768218e-09 -1.208219e-09 2.530892e-09 3.029431e-10 -3.392342e-11
9.433322e-09 -4.634833e-09 -1.254596e-09 2.665729e-09 3.677618e-10 7.016077e-11
9.056500e-09 -4.601052e-09 -1.249271e-09 2.763715e-09 3.529311e-10 -8.562066e-13
8.635177e-09 -4.343164e-09 -1.216735e-09 3.374603e-09 2.461929e-10 -4.011974e-10
8.841242e-09 -4.391986e-09 -1.117605e-09 3.383646e-09 2.825449e-10 -2.460134e-10
8.045296e-09 -4.239558e-09 -9.978685e-10 3.633291e-09 4.182081e-10 1.095490e-11
8.128274e-09 -4.210590e-09 -1.173265e-09 3.082110e-09 1.699720e-10 -2.129242e-10
8.178345e-09 -4.317834e-09 -1.074277e-09 3.094409e-09 2.189757e-10 -1.394959e-10
7.964468e-09 -4.255059e-09 -1.008122e-09 2.996327e-09 1.494920e-10 3.190992e-11
6.883395e-09 -3.379772e-09 -8.998406e-10 3.167318e-09 4.661638e-10 1.677563e-10
6.276013e-09 -3.006611e-09 -9.234462e-10 3.730776e-09 5.042147e-10 2.501577e-11
6.175372e-09 -3.035329e-09 -8.768077e-10 3.219905e-09 3.690115e-10 9.773549e-11
8.065455e-09 -3.797228e-09 -9.946359e-10 4.011358e-09 4.671081e-10 7.841383e-11
7.160413e-09 -3.361456e-09 -9.925616e-10 4.278497e-09 5.119641e-10 5.378387e-11
7.219381e-09 -3.308961e-09 -1.206913e-09 4.340318e-09 5.174179e-10 5.689672e-12
7.494456e-09 -3.789792e-09 -9.769221e-10 3.748417e-09 4.477143e-10 1.946654e-10
6.968829e-09 -2.934279e-09 -9.803842e-10 4.276215e-09 4.114697e-10 1.011888e-10
7.489245e-09 -3.344983e-09 -9.606618e-10 3.634833e-09 3.612101e-10 2.211411e-10
8.290858e-09 -4.415807e-09 -1.128758e-09 4.153598e-09 3.249819e-10 -1.492439e-11
8.211686e-09 -4.406389e-09 -1.049307e-09 4.156838e-09 3.528148e-10 9.650727e-12
8.200381e-09 -4.655781e-09 -1.154758e-09 4.069543e-09 1.431977e-10 -1.006235e-10
9.917076e-09 -4.780206e-09 -1.335883e-09 3.222703e-09 2.067334e-10 1.156720e-10
9.917265e-09 -4.945361e-09 -1.337096e-09 2.950041e-09 1.870601e-10 1.057640e-10
1.005800e-08 -4.942295e-09 -1.271357e-09 3.385839e-09 2.929478e-10 2.586073e-10
7.774364e-09 -3.638325e-09 -1.221642e-09 4.427175e-09 5.131612e-10 3.425394e-10
8.061192e-09 -3.070926e-09 -1.315796e-09 5.075898e-09 5.027729e-10 1.235050e-10
7.867161e-09 -3.067953e-09 -1.043541e-09 5.080379e-09 4.725378e-10 1.619274e-10
7.699029e-09 -3.384414e-09 -1.013881e-09 4.721598e-09 4.884994e-10 -6.636702e-11
7.604759e-09 -3.311505e-09 -1.031945e-09 4.335880e-09 5.158549e-10 3.483325e-11
7.313661e-09 -3.254933e-09 -9.122829e-10 4.671844e-09 4.334108e-10 -4.214660e-10
1.085705e-08 -5.096185e-09 -1.327768e-09 3.440466e-09 4.536849e-10 -7.697587e-11
1.147362e-08 -5.165994e-09 -1.301562e-09 3.350317e-09 3.889331e-10 9.086443e-11
1.112261e-08 -5.212534e-09 -1.373987e-09 3.097857e-09 3.281447e-10 -3.231618e-10
1.008446e-08 -5.201881e-09 -1.411878e-09 3.031394e-09 3.765749e-10 -1.301459e-11
9.908200e-09 -5.173898e-09 -1.322011e-09 3.193246e-09 4.376686e-10 3.992406e-10
1.008409e-08 -5.172611e-09 -1.519814e-09 3.010036e-09 3.942230e-10 1.760287e-11
9.058116e-09 -4.012637e-09 -1.169606e-09 5.081944e-09 4.190563e-10 6.795827e-11
8.419677e-09 -3.703017e-09 -1.127740e-09 5.107428e-09 5.378669e-10 2.889533e-11
8.680811e-09 -3.575846e-09 -1.190577e-09 5.334567e-09 4.669332e-10 -2.194680e-10
7.715857e-09 -3.308648e-09 -1.200864e-09 4.315413e-09 5.160381e-10 1.109691e-10
6.286214e-09 -3.365399e-09 -9.930845e-10 4.169611e-09 4.958165e-10 -1.807621e-11
7.907820e-09 -3.255599e-09 -1.042575e-09 4.653018e-09 4.234549e-10 -5.585572e-10
1.000499e-08 -4.403098e-09 -1.157229e-09 4.314071e-09 2.979190e-10 -5.206233e-10
1.001593e-08 -4.646415e-09 -1.202520e-09 4.280787e-09 1.416086e-10 -5.127792e-10
9.984751e-09 -4.847397e-09 -1.060917e-09 4.200669e-09 1.688872e-10 -5.124086e-10
8.392503e-09 -3.718149e-09 -1.160263e-09 4.615249e-09 3.503973e-10 8.000023e-11
7.953362e-09 -3.208025e-09 -1.129002e-09 4.961731e-09 5.179939e-10 6.712986e-11
7.983734e-09 -3.078334e-09 -1.112755e-09 5.133610e-09 4.716623e-10 1.347733e-11
9.296032e-09 -4.320814e-09 -1.049565e-09 3.763412e-09 3.504542e-10 3.578924e-11
9.565704e-09 -4.603977e-09 -1.273225e-09 3.559996e-09 9.876378e-11 -1.499612e-10
9.804241e-09 -4.636854e-09 -1.130358e-09 3.617289e-09 8.539547e-11 9.734436e-11
1.154194e-08 -5.256980e-09 -1.463663e-09 3.813915e-09 2.240662e-10 -8.961098e-11
1.195903e-08 -5.384785e-09 -1.473966e-09 3.593750e-09 9.028245e-11 1.353811e-12
1.216445e-08 -5.631489e-09 -1.348977e-09 3.311102e-09 8.631651e-11 -2.604519e-10
1.369227e-08 -5.530406e-09 -1.649987e-09 4.688350e-09 1.140884e-10 -8.799247e-10
1.349976e-08 -5.791193e-09 -1.399987e-09 4.922263e-09 2.583962e-10 -9.338388e-10
1.201350e-08 -5.211220e-09 -1.295676e-09 5.499006e-09 5.309289e-10 -4.416409e-10
1.331172e-08 -5.517461e-09 -1.832278e-09 4.589978e-09 1.912734e-10 -6.151113e-10
1.348946e-08 -5.717353e-09 -1.340644e-09 4.540348e-09 5.169780e-10 -9.750383e-10
1.406720e-08 -5.758549e-09 -1.422998e-09 4.691120e-09 5.772779e-11 -1.679597e-09
1.124094e-08 -5.378232e-09 -1.474517e-09 4.009007e-09 3.315390e-10 -2.295539e-10
1.104389e-08 -5.663568e-09 -1.553025e-09 3.578028e-09 1.672213e-10 -9.336314e-10
1.133577e-08 -5.305300e-09 -1.562948e-09 4.101731e-09 4.659539e-10 -1.466962e-10
1.389742e-08 -5.757861e-09 -1.693398e-09 3.408801e-09 3.187360e-10 -6.017451e-10
1.428027e-08 -5.752271e-09 -1.814509e-09 3.658287e-09 2.828384e-10 -2.594652e-10
1.344895e-08 -5.759783e-09 -1.811585e-09 4.052536e-09 3.087914e-10 -2.655251e-10
1.134540e-08 -3.966078e-09 -1.501891e-09 5.741565e-09 6.153219e-10 -3.997380e-11
1.004847e-08 -3.506252e-09 -1.516435e-09 5.818574e-09 6.142555e-10 -1.781834e-10
9.441867e-09 -3.058196e-09 -1.184984e-09 6.289272e-09 2.281105e-10 -6.222133e-10
1.275888e-08 -5.743943e-09 -1.779769e-09 3.357704e-09 3.610704e-10 -2.230313e-10
1.323025e-08 -5.723495e-09 -1.919018e-09 3.657372e-09 3.298293e-10 1.752930e-10
1.368078e-08 -5.903401e-09 -1.816101e-09 3.344144e-09 3.152942e-10 -1.719795e-10
9.716637e-09 -3.610706e-09 -1.421769e-09 5.437015e-09 5.584017e-10 -3.797056e-10
9.536461e-09 -3.746493e-09 -1.370162e-09 5.210980e-09 6.429400e-10 -9.601863e-11
8.013033e-09 -3.095353e-09 -1.136032e-09 6.012393e-09 2.521876e-10 -5.468013e-10
1.185814e-08 -4.812997e-09 -1.337675e-09 5.931276e-09 4.639376e-10 -3.319525e-10
1.089950e-08 -4.073412e-09 -1.373725e-09 6.205488e-09 4.656389e-10 -5.268423e-10
1.106859e-08 -3.961054e-09 -1.814741e-09 6.363372e-09 3.649039e-10 -8.358267e-10
9.812335e-09 -3.576088e-09 -1.453852e-09 5.629437e-09 6.030790e-10 -3.417717e-10
9.746677e-09 -3.581764e-09 -1.446001e-09 5.303228e-09 6.417695e-10 -3.706710e-10
9.002780e-09 -3.096741e-09 -1.098601e-09 6.030666e-09 2.305798e-10 -9.405420e-10
1.246679e-08 -5.743643e-09 -1.617696e-09 3.366560e-09 3.443183e-10 -6.330902e-11
1.221922e-08 -5.907855e-09 -1.504652e-09 3.254957e-09 2.943802e-10 -2.261804e-10
1.196485e-08 -5.674549e-09 -1.653774e-09 3.489487e-09 3.203803e-10 7.292284e-11
1.154990e-08 -4.723891e-09 -1.467258e-09 4.640491e-09 2.287040e-10 -2.770732e-10
1.158890e-08 -4.861061e-09 -1.552773e-09 4.632003e-09 3.888631e-10 -2.038281e-10
1.161629e-08 -4.521162e-09 -1.679292e-09 4.729766e-09 2.313091e-10 -2.612011e-10
9.930296e-09 -3.931525e-09 -1.354049e-09 5.472724e-09 8.255871e-10 3.161959e-10
8.404480e-09 -3.057496e-09 -1.224895e-09 6.263411e-09 2.505430e-10 -2.212325e-10
9.959519e-09 -3.664477e-09 -1.484201e-09 5.565545e-09 6.479650e-10 2.819299e-10
1.225279e-08 -4.656508e-09 -1.808167e-09 6.111812e-09 5.144874e-10 -5.388119e-10
1.302509e-08 -4.630198e-09 -1.967105e-09 6.313975e-09 8.369610e-10 1.469953e-10
1.133545e-08 -3.857995e-09 -1.356723e-09 7.609586e-09 1.504136e-10 -9.984555e-10
1.486630e-08 -4.601091e-09 -1.878246e-09 6.617087e-09 6.499604e-10 -5.906933e-10
1.307518e-08 -3.842559e-09 -1.899030e-09 6.775251e-09 5.393213e-10 -8.732783e-10
1.246308e-08 -3.854935e-09 -1.176442e-09 7.547345e-09 1.813246e-10 -1.492102e-09
1.471909e-08 -6.016749e-09 -1.804925e-09 4.108541e-09 2.069772e-10 -4.888394e-10
1.495370e-08 -6.269488e-09 -1.816220e-09 3.893167e-09 5.352208e-11 -4.345768e-10
1.488398e-08 -6.266145e-09 -1.702829e-09 3.647218e-09 2.010299e-10 -5.088166e-10
1.747269e-08 -6.293975e-09 -1.765383e-09 3.722125e-09 4.253660e-10 -1.987884e-09
1.743444e-08 -6.120970e-09 -1.569300e-09 3.763579e-09 6.769868e-10 -2.018059e-09
1.676905e-08 -6.233286e-09 -7.728982e-10 4.155363e-09 1.108895e-09 -2.211962e-09
1.509982e-08 -6.069632e-09 -2.042894e-09 4.524615e-09 4.702396e-10 -5.803308e-10
1.412886e-08 -6.305820e-09 -2.028685e-09 3.928965e-09 3.695136e-10 -1.008616e-09
1.470872e-08 -6.179124e-09 -2.045619e-09 4.202564e-09 5.085853e-10 -6.651670e-10
1.279777e-08 -3.743488e-09 -1.848890e-09 6.618239e-09 6.105863e-10 -1.010540e-09
1.273552e-08 -3.966724e-09 -1.857241e-09 6.297989e-09 6.538510e-10 -9.521545e-10
1.188552e-08 -3.859251e-09 -1.067007e-09 7.228621e-09 2.269613e-10 -1.808657e-09
1.441570e-08 -5.234183e-09 -1.814715e-09 5.512732e-09 6.456713e-10 -1.483813e-10
1.486304e-08 -5.781728e-09 -1.984395e-09 4.808631e-09 2.653910e-10 -9.947996e-10
1.515121e-08 -5.799141e-09 -2.037498e-09 4.911263e-09 4.528998e-10 -7.748878e-10
1.276345e-08 -4.010476e-09 -2.124206e-09 6.496225e-09 5.099634e-10 -7.372499e-10
1.228129e-08 -4.118239e-09 -1.810879e-09 6.267782e-09 6.116453e-10 -4.922771e-10
1.095964e-08 -3.864582e-09 -1.238956e-09 7.299808e-09 1.912391e-10 -1.372537e-09
1.559350e-08 -5.023822e-09 -1.332838e-09 6.962981e-09 1.251530e-10 -1.260899e-09
1.396961e-08 -4.131520e-09 -1.356030e-09 7.292449e-09 -1.269740e-11 -1.590466e-09
1.434265e-08 -4.195197e-09 -2.261331e-09 7.528611e-09 3.019271e-10 -1.856864e-09
2.011048e-08 -7.066817e-09 -2.585543e-09 3.999270e-09 5.789335e-10 -1.991473e-09
1.833010e-08 -6.911651e-09 -2.623950e-09 3.521093e-09 5.481340e-10 -2.277169e-09
1.836462e-08 -6.884024e-09 -2.247339e-09 3.558339e-09 6.774001e-10 -2.043030e-09
2.017494e-08 -7.009986e-09 -2.559818e-09 4.059964e-09 5.390609e-10 -2.034958e-09
1.983221e-08 -7.022614e-09 -2.168349e-09 4.126581e-09 6.427042e-10 -2.477787e-09
1.938382e-08 -7.001132e-09 -2.037808e-09 4.122849e-09 5.113875e-10 -1.905590e-09
2.014569e-08 -5.159741e-09 -2.162724e-09 7.850669e-09 3.899476e-10 -2.294871e-09
1.745137e-08 -4.439636e-09 -2.209693e-09 7.805919e-09 2.328178e-10 -2.753244e-09
1.670269e-08 -4.886583e-09 -1.322835e-09 8.521047e-09 2.041483e-10 -3.300261e-09
1.579875e-08 -5.132973e-09 -2.657297e-09 7.163116e-09 7.890911e-10 -6.364306e-10
1.695945e-08 -4.869477e-09 -1.465058e-09 8.417595e-09 2.279164e-10 -3.189753e-09
1.459243e-08 -4.976500e-09 -1.986715e-09 8.937252e-09 -1.268836e-10 -1.147258e-09
1.905302e-08 -7.018903e-09 -2.096893e-09 3.622623e-09 3.446785e-10 -1.793809e-09
1.853033e-08 -7.003556e-09 -1.856541e-09 3.713380e-09 2.798431e-10 -1.988690e-09
1.783246e-08 -6.844421e-09 -1.748672e-09 3.745377e-09 -3.841297e-11 -1.442515e-09
1.943806e-08 -4.624978e-09 -2.162620e-09 9.119020e-09 -1.991241e-10 -4.543024e-09
1.896059e-08 -4.327260e-09 -1.063635e-09 8.894567e-09 -7.717835e-10 -4.070903e-09
2.111797e-08 -5.493289e-09 -1.262283e-09 8.042395e-09 -2.652967e-10 -3.457092e-09
1.714700e-08 -3.969962e-09 -2.050387e-09 7.763584e-09 5.069184e-10 -2.792190e-09
1.711290e-08 -4.239831e-09 -2.051492e-09 7.580718e-09 5.443872e-10 -2.747620e-09
1.643160e-08 -4.629743e-09 -1.235142e-09 8.432630e-09 3.550445e-10 -3.369213e-09
2.017872e-08 -6.821953e-09 -2.166286e-09 5.472159e-09 7.104448e-10 -2.448401e-09
1.936269e-08 -6.797701e-09 -2.031157e-09 5.256157e-09 6.420966e-10 -1.442835e-09
1.966504e-08 -6.891004e-09 -2.047102e-09 4.966544e-09 5.579896e-10 -1.972094e-09
1.905181e-08 -7.027058e-09 -2.066830e-09 3.619012e-09 3.347509e-10 -1.802258e-09
1.851072e-08 -6.846200e-09 -1.478332e-09 4.186668e-09 -1.611867e-10 -2.020242e-09
1.818663e-08 -6.823246e-09 -1.732126e-09 2.965658e-09 1.725546e-10 -1.516521e-09
2.121791e-08 -6.756152e-09 -9.564003e-10 3.863703e-09 1.287647e-09 -3.873316e-09
2.294956e-08 -6.843987e-09 -1.501989e-09 3.126589e-09 8.689336e-10 -3.998382e-09
2.294820e-08 -6.876076e-09 -2.035272e-09 3.113399e-09 7.153515e-10 -4.090172e-09
1.614608e-08 -4.247989e-09 -2.709270e-09 7.670905e-09 4.658234e-10 -1.933719e-09
1.346113e-08 -4.314479e-09 -1.685503e-09 7.767039e-09 3.207543e-10 -2.007026e-09
1.679399e-08 -4.576125e-09 -1.381526e-09 8.266419e-09 3.948828e-10 -3.328702e-09
1.828053e-08 -6.687805e-09 -1.832102e-09 4.940723e-09 3.488672e-10 -1.677953e-09
1.888937e-08 -6.759490e-09 -1.693260e-09 4.466667e-09 2.987732e-10 -1.129307e-09
1.925022e-08 -6.756294e-09 -1.854437e-09 4.638102e-09 3.075655e-10 -1.937458e-09
2.689148e-08 -8.502892e-09 -1.566991e-09 6.146170e-09 -4.424605e-10 -6.485255e-09
2.590829e-08 -8.631633e-09 2.919092e-10 6.502599e-09 -1.119627e-10 -7.301354e-09
2.993355e-08 -8.524416e-09 2.263240e-09 5.545574e-09 6.559970e-10 -1.016339e-08
2.136534e-08 -5.826950e-09 -2.008525e-09 8.969474e-09 5.308346e-10 -4.749178e-09
2.110511e-08 -5.956179e-09 -2.419570e-09 9.156662e-09 1.438129e-10 -4.098252e-09
2.069073e-08 -5.849088e-09 -1.507985e-09 9.110711e-09 4.750511e-10 -4.461813e-09
2.425524e-08 -5.810215e-09 -1.493878e-09 8.632682e-09 7.217448e-10 -6.048280e-09
2.397051e-08 -5.820800e-09 -1.188789e-09 8.577610e-09 7.780810e-10 -5.722161e-09
2.324826e-08 -5.447685e-09 -1.237837e-09 8.102277e-09 9.018569e-10 -6.225745e-09
2.147172e-08 -5.577990e-09 -2.839223e-09 9.134924e-09 2.132833e-10 -4.893782e-09
2.275470e-08 -4.882748e-09 -3.083097e-09 1.011436e-08 4.683765e-10 -4.715164e-09
2.130586e-08 -4.880309e-09 -2.622683e-09 9.663731e-09 3.387015e-10 -4.101877e-09
2.434520e-08 -5.550665e-09 -2.246010e-09 8.786586e-09 4.115689e-10 -6.270325e-09
2.391441e-08 -4.276137e-09 -1.960236e-09 8.986646e-09 1.027960e-09 -6.098089e-09
2.394288e-08 -4.676537e-09 -1.859836e-09 9.107770e-09 1.182960e-09 -6.042787e-09
2.460584e-08 -7.577066e-09 -2.128142e-09 5.600610e-09 6.225398e-10 -4.954826e-09
2.286678e-08 -7.976875e-09 -1.376474e-09 5.061543e-09 1.086755e-09 -5.040514e-09
2.476042e-08 -7.994470e-09 -2.813871e-09 4.949079e-09 1.252447e-09 -3.414545e-09
2.555373e-08 -7.268932e-09 -1.981313e-09 4.824707e-09 2.213638e-10 -4.559205e-09
2.280853e-08 -7.359299e-09 -2.173395e-09 4.326241e-09 3.635858e-10 -3.786444e-09
2.467114e-08 -7.470330e-09 -2.529832e-09 4.008310e-09 2.416522e-11 -3.383994e-09
2.570151e-08 -6.303137e-09 1.042712e-09 1.042187e-08 -2.502213e-09 -7.860583e-09
2.581268e-08 -5.380924e-09 5.745215e-10 9.907381e-09 -1.734399e-09 -8.730226e-09
2.681106e-08 -5.382805e-09 -2.700280e-09 1.060011e-08 -7.115194e-10 -9.106557e-09
2.434289e-08 -7.920977e-09 -2.125579e-09 3.712978e-09 5.318330e-10 -4.079249e-09
2.434273e-08 -7.769654e-09 -2.108166e-09 3.679464e-09 -3.985029e-10 -3.665354e-09
2.354737e-08 -7.319098e-09 -1.691340e-09 7.055868e-10 6.483724e-10 -4.159029e-09
3.108281e-08 -7.358784e-09 -3.300282e-09 6.606396e-10 9.955622e-10 -7.417033e-09
2.816856e-08 -7.364089e-09 -3.543966e-09 8.091013e-10 9.526442e-10 -5.857535e-09
2.837135e-08 -7.905720e-09 -3.655154e-09 4.042430e-09 5.800845e-10 -5.315659e-09
3.262555e-08 -7.837926e-09 -4.447715e-09 1.482276e-09 1.443954e-10 -6.994860e-09
3.270124e-08 -8.370390e-09 -1.677992e-09 1.437348e-09 4.168018e-10 -7.452718e-09
2.875087e-08 -8.379855e-09 -3.109416e-09 1.243024e-09 5.346127e-10 -4.996563e-09
3.999765e-08 -7.049345e-09 -9.052870e-11 1.112532e-08 -1.679903e-09 -2.152553e-08
3.653734e-08 -6.439809e-09 1.459062e-09 8.941429e-09 -2.702376e-09 -1.649523e-08
3.701355e-08 -6.940956e-09 1.695484e-09 9.026291e-09 -2.768351e-09 -1.613729e-08
3.573724e-08 -6.493288e-09 -1.086593e-09 8.639413e-09 -1.114880e-09 -1.378240e-08
3.546374e-08 -6.056588e-09 -1.486181e-09 8.333728e-09 -8.389428e-10 -1.450450e-08
3.215161e-08 -7.164489e-09 3.280831e-09 1.179890e-08 -1.957504e-09 -1.766744e-08
3.646129e-08 -9.057339e-09 -3.729992e-09 4.824133e-09 5.744132e-10 -1.170390e-08
3.459722e-08 -9.268997e-09 -1.301171e-09 5.658190e-09 4.724347e-10 -1.317959e-08
3.379648e-08 -9.639859e-09 -7.452347e-10 4.801361e-09 8.160814e-10 -1.137039e-08
2.929847e-08 -8.960572e-09 1.838565e-10 5.011829e-09 -8.598726e-11 -1.087186e-08
2.884094e-08 -9.430176e-09 2.076910e-09 4.540330e-09 3.998231e-11 -1.092028e-08
2.502923e-08 -9.588238e-09 7.491567e-10 5.322682e-09 -5.091125e-10 -8.389995e-09
2.889281e-08 -6.525380e-09 -2.839806e-09 7.043284e-09 -8.563419e-11 -1.020867e-08
2.988291e-08 -7.118999e-09 2.244091e-09 1.030531e-08 -1.049930e-09 -1.612551e-08
2.428467e-08 -7.081949e-09 -4.881242e-10 1.063645e-08 -1.923499e-09 -9.803409e-09
3.662253e-08 -5.695471e-09 -1.619273e-09 9.268528e-09 -8.193204e-10 -1.404239e-08
3.700585e-08 -5.630878e-09 -1.427219e-09 1.117457e-08 -1.134864e-09 -1.467146e-08
3.494706e-08 -6.855677e-09 2.771066e-09 1.375928e-08 -2.197465e-09 -1.659881e-08
4.160290e-08 -8.031665e-09 2.191975e-09 -2.505209e-09 4.065106e-09 -1.791003e-08
4.123331e-08 -7.578351e-09 6.347733e-11 -2.603097e-09 2.579161e-09 -1.593543e-08
4.157341e-08 -7.475447e-09 -1.308496e-09 -2.341973e-09 2.358700e-09 -1.572362e-08
3.082957e-08 -5.379233e-09 -4.406420e-09 1.036377e-08 -4.899039e-10 -1.036900e-08
2.401943e-08 -5.641059e-09 -3.031502e-10 1.066946e-08 -1.222418e-09 -9.991147e-09
3.148157e-08 -6.492915e-09 1.393126e-09 1.246335e-08 -1.207763e-09 -1.438878e-08
3.561688e-08 -8.712498e-09 -4.245443e-09 1.818439e-09 7.608018e-10 -9.246401e-09
2.842023e-08 -7.576134e-09 -3.499145e-09 -1.184835e-09 1.841408e-09 -1.003907e-08
2.823578e-08 -7.698384e-09 -2.653674e-09 -1.347840e-09 1.992043e-09 -9.654069e-09
3.236729e-08 -7.937462e-09 -4.157727e-09 1.275781e-09 -2.092806e-10 -7.215620e-09
3.136887e-08 -7.393709e-09 -1.743693e-09 -2.458786e-09 1.172588e-09 -7.403966e-09
3.231490e-08 -8.810139e-09 -1.805546e-09 1.020152e-09 6.565206e-10 -7.230730e-09
4.673551e-08 -9.374596e-09 1.220700e-08 5.352110e-09 6.655976e-10 -3.407145e-08
4.866170e-08 -1.213112e-08 1.216193e-08 3.825473e-09 -1.365202e-09 -3.319068e-08
4.719642e-08 -1.318497e-08 1.219312e-08 7.440730e-09 -7.369458e-10 -3.745246e-08
5.578169e-08 -1.238028e-08 1.297060e-08 2.489265e-09 7.902188e-10 -4.302561e-08
4.677885e-08 -1.404291e-08 1.407257e-08 6.471692e-09 -6.419202e-10 -3.847625e-08
4.776179e-08 -1.109642e-08 1.816032e-08 4.119177e-09 -4.180867e-09 -3.526894e-08
4.856687e-08 -7.081817e-09 -4.911516e-09 1.080438e-08 -1.099051e-09 -2.387095e-08
4.535248e-08 -6.473966e-09 -3.956458e-09 8.429650e-09 -1.989536e-09 -1.830261e-08
3.868629e-08 -8.637960e-09 2.962239e-09 1.354551e-08 -2.904150e-09 -2.243753e-08
4.447486e-08 -9.856880e-09 -2.458158e-10 -1.759399e-09 1.731901e-09 -1.827218e-08
4.375844e-08 -9.596535e-09 -2.084877e-09 -1.731602e-09 3.673540e-10 -1.587463e-08
4.508346e-08 -1.001956e-08 3.222821e-09 -3.343855e-09 2.083264e-09 -1.890764e-08
4.144627e-08 -7.857470e-09 6.037354e-09 7.624676e-09 -1.538288e-09 -2.834681e-08
4.398087e-08 -7.847964e-09 5.790527e-09 7.428534e-09 -9.659365e-10 -3.291106e-08
4.766845e-08 -7.227884e-09 6.062199e-09 4.428211e-09 -3.059204e-10 -3.394451e-08
4.165974e-08 -6.894226e-09 -1.714566e-09 -2.062753e-09 -7.525947e-10 -1.528933e-08
3.910309e-08 -5.037130e-09 1.991716e-09 -1.159501e-08 3.726888e-09 -1.916472e-08
3.552314e-08 -6.770988e-09 9.475190e-10 -7.188680e-09 2.128487e-09 -1.329413e-08
4.848727e-08 -9.812015e-09 -4.058252e-09 -7.466891e-10 2.272218e-09 -2.002197e-08
4.899584e-08 -1.038547e-08 2.447631e-11 -2.535960e-09 3.228493e-09 -2.291898e-08
4.384834e-08 -1.024189e-08 5.806223e-09 -2.891838e-09 1.852392e-09 -2.619110e-08
4.680445e-08 -5.095377e-09 -5.118736e-09 -1.152869e-08 4.388860e-09 -2.171011e-08
3.778977e-08 -7.740758e-09 5.986633e-11 -1.155983e-08 4.349958e-09 -1.759955e-08
4.575598e-08 -6.830914e-09 -3.514171e-09 -8.249562e-09 3.444211e-09 -1.662295e-08
5.567624e-08 -9.870573e-09 6.905839e-09 1.380871e-08 -1.569679e-09 -3.182024e-08
5.416766e-08 -8.084850e-09 3.147147e-10 1.229510e-08 -3.277424e-09 -2.848752e-08
5.337480e-08 -7.455353e-09 -4.017348e-09 1.224663e-08 -1.599174e-09 -2.596816e-08
5.437427e-08 -8.669012e-09 6.839316e-09 1.379427e-08 -3.041810e-09 -3.024203e-08
5.643117e-08 -8.861734e-09 4.060558e-09 9.926082e-09 -1.538837e-09 -3.169783e-08
5.682895e-08 -7.436711e-09 4.152143e-09 1.197239e-08 -1.153609e-09 -3.132326e-08
4.689054e-08 -7.571364e-09 6.000599e-09 1.251831e-08 -1.554880e-09 -2.691258e-08
5.589132e-08 -7.263983e-09 6.554339e-09 1.012626e-08 4.709732e-10 -3.158536e-08
4.137525e-08 -8.504424e-09 -2.167125e-09 1.713208e-09 1.689040e-10 -1.979346e-08
3.225542e-08 -1.210269e-08 5.803540e-09 4.691896e-09 -1.910065e-09 -2.297677e-08
3.203638e-08 -9.014542e-09 6.563954e-09 3.895857e-09 1.368173e-09 -2.489593e-08
5.625336e-08 -7.684209e-09 4.214033e-09 1.022644e-08 -2.135662e-09 -3.833998e-08
5.614581e-08 -8.496111e-09 9.161541e-09 9.859497e-09 -2.795300e-09 -3.920348e-08
5.372751e-08 -8.725400e-09 9.272582e-09 1.099861e-08 -2.754453e-09 -3.878718e-08
5.607903e-08 -7.481954e-09 4.913504e-09 -1.381263e-08 1.068912e-08 -3.156976e-08
5.301186e-08 -8.168638e-09 3.186373e-09 -1.199195e-08 4.276378e-09 -2.468488e-08
5.409703e-08 -5.349471e-09 -3.327750e-09 -1.020329e-08 3.963114e-09 -2.545399e-08
6.426316e-08 -6.955364e-09 4.055782e-09 -2.266574e-08 1.083162e-08 -4.235921e-08
4.613883e-08 -1.419541e-09 1.840423e-09 -1.816806e-08 9.418434e-09 -3.601711e-08
6.237977e-08 2.347062e-09 1.935682e-09 -3.385398e-08 1.025459e-08 -3.739327e-08
5.447167e-08 -6.342413e-09 8.884255e-09 -1.640617e-08 7.121167e-09 -4.419851e-08
5.389671e-08 -1.068597e-08 8.297038e-09 -1.433582e-08 1.215789e-08 -4.807022e-08
4.812457e-08 -1.056968e-08 2.319002e-09 -1.600497e-08 1.216655e-08 -3.486231e-08
5.923997e-08 -7.697316e-09 4.296308e-09 1.012276e-08 -8.500557e-10 -5.008688e-08
5.919703e-08 -8.548517e-09 1.132231e-08 1.046726e-08 -2.520905e-09 -4.841340e-08
4.796268e-08 -6.466047e-09 1.210969e-08 1.227349e-08 -4.495525e-09 -4.639932e-08
8.045257e-08 -6.275680e-09 3.607061e-08 -1.686157e-08 9.131070e-09 -7.557077e-08
5.428473e-08 -7.268926e-09 2.127569e-08 -1.082630e-08 5.276681e-09 -5.345652e-08
5.769969e-08 -5.104818e-09 2.298797e-08 -1.438272e-08 2.724785e-09 -5.103788e-08
8.726710e-08 -8.430143e-09 4.237597e-09 2.801504e-09 -1.941173e-09 -5.863023e-08
8.886235e-08 -8.186114e-09 7.568139e-09 1.073258e-08 -3.368697e-09 -6.916440e-08
8.584786e-08 -7.085027e-09 2.250129e-08 1.387279e-08 -8.263360e-09 -7.408493e-08
6.831013e-08 -7.609335e-09 1.085374e-08 -2.168366e-08 1.154186e-08 -4.989077e-08
6.671303e-08 1.359414e-09 1.256115e-08 -2.775635e-08 7.465161e-09 -4.804229e-08
7.122361e-08 1.561783e-09 8.198201e-10 -2.921841e-08 9.379954e-09 -4.843305e-08
6.550088e-08 -1.168182e-08 1.249362e-08 5.125440e-09 -2.003930e-09 -5.193267e-08
5.843243e-08 -1.519639e-08 9.527070e-09 8.511392e-09 -4.753642e-09 -4.362730e-08
6.058366e-08 -1.441969e-08 1.742129e-08 -2.460247e-10 -1.360124e-09 -5.601281e-08
5.188098e-08 -1.182597e-09 5.007109e-09 -1.390801e-08 1.151388e-08 -3.133651e-08
4.999766e-08 -2.034607e-09 2.749178e-09 -1.160334e-08 1.935648e-09 -2.684387e-08
4.571294e-08 1.457777e-09 1.009359e-08 -2.755343e-08 1.203635e-08 -3.190467e-08
8.991384e-08 -7.022570e-09 1.200344e-08 5.146409e-09 -8.972789e-09 -6.447354e-08
7.581353e-08 -6.873948e-09 2.566263e-08 5.239878e-09 -1.043810e-08 -6.873493e-08
7.638064e-08 -2.962112e-09 2.526334e-08 -1.354697e-08 7.101785e-10 -6.856913e-08
8.469529e-08 -6.332096e-09 3.928346e-08 -2.180429e-08 2.070847e-08 -1.018470e-07
8.351749e-08 -4.987402e-09 4.927763e-08 -2.502012e-08 1.689596e-08 -9.541806e-08
8.662005e-08 -6.111390e-09 4.644057e-08 -2.606357e-08 2.014208e-08 -9.756372e-08
5.921088e-08 1.713866e-08 -2.406431e-09 -3.695683e-08 2.202115e-08 -4.736747e-08
3.935981e-08 2.898238e-08 9.487903e-09 -5.574833e-08 3.481926e-08 -5.786980e-08
3.850399e-08 2.749091e-08 1.707239e-08 -5.692654e-08 3.538788e-08 -5.665611e-08
5.024843e-08 1.752772e-08 4.974101e-08 -5.052408e-08 3.749981e-08 -8.116709e-08
3.842230e-08 2.336264e-08 3.368451e-08 -4.704518e-08 2.899215e-08 -6.634936e-08
3.907395e-08 2.730753e-08 2.080744e-08 -4.510722e-08 2.971260e-08 -6.797220e-08
4.661815e-08 2.149734e-08 3.322361e-09 -3.760695e-08 1.910518e-08 -4.458347e-08
4.178642e-08 2.890669e-08 2.384391e-08 -5.536353e-08 3.437395e-08 -4.698021e-08
4.785391e-08 1.606106e-08 1.443331e-08 -3.329996e-08 2.071145e-08 -3.851779e-08
6.128062e-08 -2.072434e-09 3.523690e-08 -1.901095e-08 1.131479e-08 -8.300394e-08
5.753941e-08 -5.153636e-09 1.657986e-08 -7.709822e-09 3.657922e-09 -5.865815e-08
4.724692e-08 -5.001018e-09 2.693702e-08 -9.465036e-09 5.019080e-09 -6.694140e-08
1.061143e-07 -7.055682e-09 1.888252e-08 -9.594087e-09 9.787398e-09 -9.881068e-08
1.063635e-07 -2.219984e-09 1.931356e-08 -1.095043e-08 6.006586e-09 -9.717455e-08
1.105971e-07 -8.281087e-09 1.947955e-08 9.760099e-09 -6.355086e-09 -9.856260e-08
7.998809e-08 1.466705e-08 8.560084e-08 -2.319036e-08 1.013956e-08 -1.227616e-07
5.346374e-08 2.776196e-08 4.566611e-08 -3.689875e-08 6.959160e-09 -7.864125e-08
4.630738e-08 2.599552e-08 4.841359e-08 -3.249865e-08 4.428456e-09 -7.726120e-08
3.008785e-08 2.963904e-08 6.387559e-08 -5.428385e-08 5.269762e-08 -7.562441e-08
2.460287e-08 4.095767e-08 4.471742e-08 -4.930209e-08 4.327352e-08 -6.537323e-08
2.448228e-08 1.579148e-08 5.900634e-08 -4.231095e-08 3.563551e-08 -5.775136e-08
2.241284e-08 1.141574e-08 9.625665e-08 -5.192904e-09 1.450585e-08 -1.205753e-07
3.283753e-08 2.495488e-08 4.930425e-08 -2.681284e-08 1.069688e-08 -8.047338e-08
2.644076e-08 4.467251e-08 5.514255e-08 -3.064071e-08 -4.560971e-09 -8.403928e-08
1.860290e-12 7.531297e-08 -7.567902e-09 -5.215630e-08 3.557314e-08 -2.810646e-08
-3.356704e-09 1.092337e-07 1.591359e-08 -6.259442e-08 6.472676e-08 -3.386073e-08
-7.878770e-09 8.984386e-08 1.797843e-08 -5.319960e-08 4.016497e-08 -2.096334e-08
7.476340e-08 2.355646e-08 1.164915e-07 -2.847514e-08 4.722182e-09 -1.346429e-07
8.133636e-08 8.824727e-09 1.523816e-07 3.410940e-09 1.568222e-09 -1.803894e-07
1.081212e-07 3.041900e-08 8.244892e-08 -3.147615e-08 -6.689358e-11 -1.322273e-07
-1.969265e-08 7.135850e-08 9.893478e-08 -2.683371e-08 5.416832e-08 -8.939514e-08
-6.536958e-08 7.655744e-08 7.714057e-08 -2.652654e-08 4.914240e-08 -5.479358e-08
-1.001024e-08 7.869562e-08 2.368956e-08 -3.818256e-08 4.080669e-08 -3.587077e-08
1.195737e-08 1.167001e-07 8.297395e-08 -3.856831e-08 -9.873166e-09 -8.522932e-08
-1.503774e-08 1.128242e-07 7.734995e-08 -1.939368e-08 9.938460e-09 -1.026750e-07
-1.401085e-08 5.276773e-08 9.586439e-08 -2.612117e-08 4.640745e-08 -9.008122e-08
4.397110e-08 2.916558e-08 4.714866e-08 -5.744928e-08 6.180181e-08 -8.924911e-08
5.347712e-08 1.803853e-08 4.937001e-08 -5.481470e-08 5.182492e-08 -7.625111e-08
2.751284e-08 2.056522e-08 8.724064e-08 -5.283881e-08 4.172598e-08 -9.243126e-08
-7.289212e-09 1.113704e-07 1.155489e-08 -5.173759e-08 4.294312e-08 -3.078854e-08
-5.044428e-08 8.911329e-08 1.883570e-08 -2.071478e-08 3.351215e-08 -1.862672e-08
-5.545749e-08 1.026548e-07 1.773600e-08 -1.878745e-08 4.924477e-08 -2.650986e-08
-3.408585e-08 7.380399e-08 7.781372e-08 -3.052112e-08 4.989750e-08 -6.501240e-08
-4.791574e-09 6.924501e-08 3.749167e-09 -4.987528e-11 2.365411e-08 -2.354193e-08
-1.637121e-08 4.325737e-08 -2.225394e-08 -7.270130e-08 -3.181363e-08 -4.558798e-08
-7.784391e-09 9.217412e-08 2.581561e-08 -6.063466e-08 4.414176e-08 -2.302082e-08
-1.173151e-08 3.173083e-08 4.667683e-09 -1.749691e-08 2.743953e-09 -7.382327e-09
-1.240640e-08 3.661855e-08 2.791928e-08 -2.226295e-08 1.816457e-08 -1.079210e-08
2.347074e-08 6.845285e-08 8.018290e-08 -2.243945e-08 2.470102e-08 -1.188387e-07
8.878995e-09 6.101817e-08 7.836721e-08 -5.017456e-08 4.462336e-08 -1.122175e-07
-9.323472e-09 5.048629e-08 2.863863e-08 -2.942538e-08 2.128935e-08 -5.956390e-08
-2.329449e-08 1.602850e-07 -8.291271e-08 -3.487414e-08 5.112007e-08 2.092103e-08
1.430732e-08 1.408395e-07 -7.926218e-08 -4.882307e-08 4.170527e-08 3.393626e-08
-2.920655e-08 1.745740e-07 -5.725080e-08 -3.758762e-08 6.992631e-09 -3.076252e-09
1.023191e-08 1.737187e-07 -7.180494e-08 -3.287873e-08 -2.169369e-08 -2.411693e-08
-6.605100e-08 1.642247e-07 -1.081387e-07 8.671515e-09 -4.132387e-08 4.060184e-08
3.031332e-09 1.417731e-07 -1.301156e-07 -5.185320e-09 -1.890648e-08 6.005418e-08
2.965679e-08 3.116484e-07 -2.202873e-07 -7.342339e-08 -4.184638e-08 3.985425e-08
1.039538e-07 1.497567e-07 -8.117918e-09 -8.009566e-08 6.145207e-08 -9.989203e-08
7.971088e-09 1.605925e-07 -5.179293e-08 -4.487990e-08 1.330528e-08 -2.353922e-08
8.088136e-09 4.891135e-08 1.006064e-07 -3.045209e-08 3.770929e-08 -7.230691e-08
-2.489918e-08 5.782530e-08 6.633369e-08 -2.598844e-08 3.132484e-08 -3.851428e-08
-1.261293e-08 4.649714e-08 4.259815e-08 -2.318124e-08 3.871084e-09 -8.139734e-09
-5.008096e-08 1.215247e-07 -3.032684e-08 -2.603039e-09 1.891140e-08 5.028594e-08
-4.453574e-08 1.330176e-07 -2.997634e-08 8.399970e-09 2.299760e-08 5.185293e-08
-1.116859e-08 9.486937e-08 -4.181755e-08 -1.104659e-08 8.318641e-10 4.725638e-08
6.303179e-08 2.378701e-07 2.928552e-09 -7.680034e-08 6.099411e-08 -1.278179e-07
8.012676e-08 1.071128e-07 1.541119e-07 1.473322e-09 -4.665741e-08 -1.872152e-07
8.672603e-08 8.863863e-08 8.064531e-08 -1.825171e-09 -8.246120e-09 -1.871386e-07
1.686812e-08 1.102756e-07 5.268948e-08 -7.305891e-08 1.411735e-09 -1.176022e-07
1.345188e-08 9.050989e-08 7.813263e-08 -4.157496e-08 2.208084e-08 -1.324412e-07
1.321468e-08 8.051834e-08 6.667589e-08 -3.979896e-08 5.446851e-09 -1.306133e-07
1.668758e-08 8.561278e-08 4.649176e-08 -7.094114e-08 3.109149e-08 -1.203474e-07
1.713822e-08 7.039355e-08 7.968836e-08 -8.349619e-08 2.765615e-08 -1.040198e-07
1.676875e-08 1.256439e-07 6.451157e-08 -7.966798e-08 -1.207871e-08 -1.120428e-07
1.432664e-08 1.204506e-07 6.348269e-08 -5.582222e-08 -1.457830e-08 -9.624753e-08
1.582160e-08 1.299407e-07 4.048026e-08 -6.201428e-08 -5.474999e-09 -1.111746e-07
-7.100099e-08 1.580041e-07 -2.666152e-08 -7.685394e-09 3.505979e-08 4.388547e-08
-6.693989e-08 1.335299e-07 -3.010264e-08 6.031201e-09 2.297625e-08 4.989193e-08
-6.909685e-08 1.224898e-07 -3.039110e-08 -2.845409e-09 1.900391e-08 4.908161e-08
9.748842e-08 -4.445769e-08 9.615413e-08 -1.256629e-07 3.231045e-08 -1.527086e-07
1.198094e-08 6.366967e-08 4.768011e-08 -2.290240e-08 -3.586674e-09 -8.885943e-08
3.773799e-08 1.564366e-07 5.446461e-08 -1.236801e-07 8.451511e-08 -1.043370e-07
4.799879e-08 -3.885927e-08 1.307909e-07 -7.209364e-08 7.051776e-08 -1.436184e-07
2.825889e-08 5.116889e-08 5.250651e-08 -1.107737e-07 1.084197e-08 -1.041301e-07
9.428679e-08 -1.625316e-08 6.354218e-08 -1.465658e-07 5.310816e-08 -1.381839e-07
3.003601e-08 8.172445e-08 1.188436e-07 -5.711696e-08 8.246174e-08 -1.260017e-07
5.384042e-08 5.250602e-08 8.996159e-08 -1.244063e-07 2.484734e-08 -1.356159e-07
3.476713e-09 1.602275e-07 -8.250292e-08 -1.142228e-08 -5.224747e-08 6.674119e-08
-7.873086e-08 5.928626e-08 -1.068432e-07 8.045349e-08 -1.031885e-07 1.144992e-07
-1.024166e-07 1.207417e-07 -7.459016e-08 8.859143e-08 -4.963414e-08 1.026967e-07
1.249300e-07 3.431028e-07 -2.791468e-07 -2.222558e-07 -6.596473e-08 -6.306067e-08
9.279042e-08 1.413995e-07 3.755761e-09 -1.371176e-07 6.338651e-08 -1.549305e-07
1.419141e-07 2.212771e-07 -2.556666e-08 -2.129355e-07 7.635914e-08 -1.940369e-07
-3.596839e-08 2.656329e-07 -1.845032e-07 -3.036886e-08 -7.277300e-08 -1.632738e-08
-5.681679e-08 2.834075e-07 -1.941069e-07 -8.669482e-08 -3.476314e-08 -2.177241e-09
1.994004e-08 2.830710e-07 -2.698195e-07 -8.726712e-08 -2.926015e-08 4.053294e-08
2.839614e-08 1.869260e-07 -5.201984e-08 -9.880535e-08 -5.095271e-09 -8.868764e-08
6.530980e-08 1.548214e-07 -1.200467e-07 -6.440623e-08 -5.190632e-08 -4.262667e-08
-1.449958e-08 1.497938e-07 -7.967608e-08 -8.445010e-08 -6.005856e-08 -7.281237e-08
2.442368e-08 7.604729e-07 -4.914938e-07 -2.496110e-07 5.185204e-08 -1.933038e-07
2.396737e-08 3.552705e-07 1.387384e-07 -2.722833e-07 1.290167e-08 -2.181759e-07
-2.699497e-08 2.183115e-07 1.933444e-07 -1.845626e-07 1.197950e-07 -3.134872e-07
8.571976e-08 7.615936e-07 -5.756463e-07 -2.066356e-07 1.471098e-07 -1.433048e-07
-3.273200e-08 7.321559e-07 -3.379252e-07 -6.574147e-08 3.107668e-07 -1.278969e-07
-5.346536e-08 1.118313e-07 -1.560043e-07 4.789255e-08 -4.659728e-08 -5.677112e-08
-2.675938e-08 2.055218e-07 -1.143089e-07 1.193552e-08 -4.981836e-08 1.047404e-07
-7.410793e-08 8.270468e-08 -1.222691e-07 9.244966e-08 -9.140588e-08 1.262362e-07
-6.000844e-08 -1.889464e-09 -1.322387e-07 1.400964e-07 -1.225233e-07 1.359877e-07
1.721493e-08 2.152135e-07 -1.217614e-07 -6.031622e-08 -6.223712e-08 8.981349e-08
1.890494e-08 1.281141e-08 -1.446012e-07 4.368568e-08 -1.378996e-07 1.113666e-07
3.108545e-09 -5.648073e-09 -2.313184e-07 1.614651e-07 -2.738732e-07 1.585346e-07
5.224379e-08 1.419374e-07 -2.318104e-07 9.532335e-09 -1.506384e-07 -4.351514e-09
-2.108442e-09 1.992938e-07 -2.748829e-07 -1.186653e-09 -1.229182e-07 4.688053e-08
-4.361649e-09 1.311922e-07 -2.767392e-07 -1.445362e-08 -1.752422e-07 3.312269e-08
-7.085238e-09 -4.866483e-08 -2.477209e-07 1.383203e-07 -3.024044e-07 1.455701e-07
8.279988e-09 2.674902e-09 -1.202598e-07 4.227346e-08 -1.261193e-07 9.270355e-08
6.646432e-09 7.756714e-08 -1.259459e-07 5.009626e-08 -9.310824e-08 1.031940e-07
-9.237020e-09 1.292646e-07 -2.162356e-07 -5.327961e-08 -1.579419e-07 2.975442e-08
2.109112e-08 1.265315e-07 -2.737976e-07 -3.574923e-08 -1.787192e-07 4.330347e-08
-2.100364e-08 1.100397e-07 -2.878814e-07 -7.807412e-08 -2.205206e-07 1.420243e-08
3.013936e-08 1.818602e-07 -2.713388e-07 -1.228452e-08 -2.092998e-07 3.394587e-08
2.258257e-07 -1.948554e-07 -3.639070e-07 -2.648539e-07 -3.978614e-07 -6.673985e-08
5.662784e-08 -5.967682e-08 -2.459789e-07 -1.229481e-07 -2.360294e-07 -5.216343e-08
5.025335e-08 -1.234929e-07 -2.516852e-07 1.469848e-07 -2.818600e-07 1.333017e-07
5.777676e-08 -2.617372e-07 -1.541381e-07 1.662454e-07 -1.952831e-07 9.363028e-08
4.012885e-08 1.317457e-07 -1.846308e-07 1.256461e-07 -1.487483e-07 1.168653e-07
-2.761678e-08 8.185715e-07 -8.721872e-07 -1.327474e-07 6.817757e-08 -3.820060e-07
-6.219052e-08 5.224771e-07 -3.742284e-07 -2.633407e-07 1.994037e-07 -4.372852e-07
1.036938e-07 -6.318581e-10 -1.879779e-07 -5.760138e-08 -8.155913e-08 -3.831953e-08
-7.470382e-08 1.627364e-07 -1.682343e-07 -6.484829e-08 -1.394040e-07 -2.426967e-08
-1.611687e-07 1.010408e-06 -5.038165e-07 -1.564506e-07 2.636489e-07 -2.932257e-07
-1.931409e-07 7.911252e-07 -3.533911e-07 -3.262034e-07 2.356536e-07 -1.911504e-07
5.229396e-08 8.677959e-08 -1.528958e-07 -1.005138e-07 -7.399623e-08 -3.859471e-08
2.345122e-08 1.721186e-07 -1.643407e-07 -1.515207e-07 -8.117567e-08 -6.104031e-08
9.796413e-08 8.000049e-07 -3.984152e-07 -3.826859e-07 2.585728e-07 -2.526612e-07
9.816391e-08 8.219974e-08 -3.236755e-07 -4.653784e-08 -2.529528e-07 -2.593715e-09
1.247643e-07 -9.787644e-08 -3.667234e-07 4.516888e-08 -3.669113e-07 9.280315e-09
1.833751e-07 -2.408186e-07 -5.343761e-07 2.853387e-08 -5.872007e-07 8.564482e-08
1.229940e-08 9.153166e-08 -1.918632e-07 -1.017747e-07 -1.634584e-07 -9.283499e-08
-1.221746e-08 1.272502e-07 -1.678737e-07 -5.009339e-08 -1.318177e-07 -6.708008e-08
-3.648573e-08 1.905354e-07 -1.487895e-07 -4.841577e-08 -1.691759e-07 -7.656640e-08
1.044257e-07 1.280315e-07 -1.890832e-07 -1.737495e-07 -2.112316e-07 -5.317924e-08
1.103600e-07 -1.871965e-07 -2.129636e-07 -1.805071e-07 -2.980005e-07 -5.489550e-08
3.504410e-08 -4.531732e-08 -1.825563e-07 -6.802623e-08 -2.210702e-07 -3.703055e-08
5.931667e-08 1.501925e-07 -2.324041e-07 -3.087129e-08 -1.741736e-07 1.508475e-08
8.516805e-08 -7.247008e-08 -2.756030e-07 2.910919e-08 -3.127267e-07 9.898233e-09
8.277436e-08 7.780301e-08 -2.442918e-07 1.028182e-08 -1.742431e-07 1.394200e-08
-6.194982e-08 7.777024e-07 -5.455652e-07 5.573460e-08 1.348303e-07 -8.652178e-08
-8.881151e-08 4.622242e-07 1.659564e-08 -5.671854e-08 2.778936e-07 -1.265816e-07
-7.950850e-08 2.912205e-07 2.897321e-07 -2.124327e-08 2.314431e-07 -4.794262e-08
-2.089578e-08 1.801843e-07 -2.860466e-07 1.130800e-08 -1.448056e-07 -2.336527e-09
-6.550260e-08 5.124424e-07 -2.144678e-07 1.204602e-07 1.778108e-07 -3.580235e-08
-6.646834e-08 1.974966e-07 -3.360714e-08 -1.485846e-09 6.550150e-08 2.179296e-08
-7.297610e-10 1.487555e-07 -1.887530e-07 -7.170451e-08 -1.438216e-07 -1.045800e-07
-2.048312e-08 1.683925e-07 -1.895410e-07 -7.616541e-08 -1.118094e-07 -7.868447e-08
2.206159e-08 1.201521e-07 -1.949609e-07 -7.250630e-08 -9.555486e-08 -8.148001e-08
-1.137835e-07 2.484483e-07 -3.205639e-07 -8.098520e-09 3.152234e-09 -1.324962e-07
-1.266116e-07 8.003177e-07 -5.280991e-07 -4.398291e-08 2.007084e-07 -8.039016e-08
-9.504791e-08 2.767555e-07 1.264331e-07 3.712294e-08 1.798727e-07 9.289557e-08
2.549395e-08 6.672774e-08 -1.368842e-07 -1.026111e-07 -1.553112e-07 -6.467675e-08
7.319650e-08 -3.578826e-08 -1.466705e-07 -9.275570e-08 -1.929071e-07 -7.501470e-08
1.109586e-07 -1.952652e-07 -2.179089e-07 -1.293209e-07 -3.434232e-07 -5.235839e-08
1.018536e-07 -2.282848e-07 -2.140448e-07 -1.978721e-08 -3.621399e-07 -5.534360e-08
1.085996e-07 -2.166443e-07 -2.142089e-07 6.459504e-09 -3.152794e-07 -4.786090e-08
1.037080e-07 2.374391e-08 -1.907861e-07 3.899933e-09 -2.398104e-07 -4.751113e-08
2.048629e-08 3.000061e-07 -2.947529e-07 -5.175419e-08 -6.508333e-09 -2.613809e-08
-3.329598e-08 2.861814e-07 -2.231105e-07 -2.196827e-08 -8.516334e-09 5.530638e-09
-3.918895e-08 2.495287e-07 -3.036307e-07 -3.925844e-08 4.649500e-08 2.932962e-08
-9.535517e-08 2.142280e-07 -1.441195e-07 -7.617221e-09 1.830234e-08 -2.271400e-07
-1.632587e-07 1.050582e-07 2.236947e-07 -9.407452e-08 4.538953e-08 -1.911208e-07
-1.322831e-09 -2.389919e-08 -1.114933e-07 -5.700703e-08 -1.647276e-07 -9.555411e-08
-9.490922e-08 2.755788e-07 -3.661242e-07 -1.019200e-07 -1.347379e-07 -1.758397e-07
-7.699591e-08 2.996704e-07 -2.275978e-07 -7.284698e-08 -5.489020e-08 -1.260174e-07
-9.210941e-08 2.497740e-07 -2.958201e-07 -4.447486e-08 5.428342e-09 -1.581279e-07
-5.932197e-08 1.382170e-07 -1.762602e-07 -1.094836e-07 -1.375881e-07 -1.174940e-07
-1.297498e-08 1.717728e-07 -1.800743e-07 -6.691929e-08 -1.182944e-07 -1.036957e-07
-8.784726e-08 1.625560e-07 -1.644574e-07 -1.074664e-07 -1.327882e-07 -1.044059e-07
-5.899157e-08 1.331613e-07 -1.270303e-07 -9.781834e-08 -1.204217e-07 -1.330791e-07
-5.961949e-08 1.885549e-07 -1.509036e-07 -7.843966e-08 -1.607802e-07 -1.273324e-07
-2.160548e-08 1.353962e-07 -1.661391e-07 -8.511397e-08 -1.250744e-07 -1.044141e-07
4.014948e-08 2.229335e-09 -1.035082e-07 -1.385237e-07 -1.669442e-07 -1.062144e-07
7.260605e-08 -1.568166e-07 -1.216831e-07 -1.395671e-07 -2.210766e-07 -1.094154e-07
7.898015e-08 -1.449344e-07 -1.256180e-07 -1.147087e-07 -2.233751e-07 -1.000874e-07
3.214762e-10 -1.547320e-08 -1.056042e-07 -9.167906e-08 -1.764750e-07 -6.501392e-08
-2.337262e-09 -1.449432e-07 -1.241189e-07 -1.114498e-07 -2.256128e-07 -7.273776e-08
1.205442e-08 -1.430570e-07 -1.130952e-07 -1.239881e-07 -2.088981e-07 -8.661818e-08
-2.319867e-08 1.271998e-07 -1.795328e-09 -3.128119e-08 7.608539e-08 -5.301681e-09
-8.189412e-08 9.267324e-08 -8.827543e-08 -1.146258e-07 -1.114002e-07 -1.061557e-07
2.269928e-08 2.116264e-07 -2.134810e-07 -2.202869e-09 -6.721658e-09 -2.620425e-08
2.124113e-08 1.070188e-07 4.715528e-09 -4.207876e-08 3.055107e-08 4.440460e-08
-6.185654e-08 4.911565e-08 -2.610165e-07 -1.298883e-07 -2.073326e-07 -1.084905e-07
-4.058210e-08 2.182636e-07 -4.487296e-08 -2.904220e-08 4.417825e-08 -3.684598e-08
-2.604611e-08 1.136392e-07 -3.203352e-08 -5.665357e-08 -3.787795e-08 -4.796529e-08
-2.104453e-08 1.292527e-07 -2.326443e-08 -7.269937e-08 -6.208124e-08 -4.918244e-09
-1.646523e-08 3.741043e-08 -7.861743e-08 -6.481313e-08 -1.003237e-07 -7.378895e-08
-1.235934e-08 2.398422e-08 -6.213989e-08 -5.560050e-08 -5.784904e-08 -6.327330e-08
-3.013021e-09 3.756374e-08 -9.519496e-08 -3.988122e-08 -8.084583e-08 -6.465111e-08
-1.939665e-08 -4.972775e-09 -3.946595e-08 -7.599292e-08 -9.741025e-08 -7.385187e-08
-3.089250e-08 -5.108030e-08 -4.226524e-08 -1.007393e-07 -1.089803e-07 -7.963058e-08
-1.888123e-08 -8.399268e-09 -4.294179e-08 -7.018751e-08 -7.356006e-08 -7.149385e-08
-1.328388e-08 3.776621e-08 -8.613443e-08 -8.042455e-08 -1.123503e-07 -7.740729e-08
8.003365e-09 4.237386e-08 -8.999409e-08 -5.344977e-08 -1.030351e-07 -5.352134e-08
3.379741e-08 5.007669e-08 -8.910313e-08 -3.573147e-08 -1.138373e-07 -6.376322e-08
-2.139593e-08 -2.760010e-09 -6.245041e-08 -1.016457e-07 -1.177274e-07 -8.877843e-08
-5.982894e-09 -6.384314e-08 -4.692121e-08 -1.053568e-07 -1.099808e-07 -7.223865e-08
-3.768817e-09 -5.196246e-08 -4.951109e-08 -9.620885e-08 -1.040169e-07 -7.283955e-08
-4.686381e-08 4.948636e-08 -6.031039e-08 -5.012103e-08 -5.089624e-08 -6.331496e-08
-4.763704e-08 6.991041e-08 -7.516475e-08 -3.674060e-08 -5.585849e-08 -7.894323e-08
-3.190231e-08 8.630457e-08 -1.068412e-07 -1.715171e-08 -8.351218e-08 -8.747358e-08
-2.485211e-08 -3.373527e-09 -5.273035e-08 -6.460420e-08 -7.660825e-08 -5.911673e-08
-1.823838e-08 -9.727284e-09 -5.271779e-08 -6.543229e-08 -7.718139e-08 -5.984860e-08
-2.615852e-08 -5.323007e-08 -4.969291e-08 -8.728171e-08 -1.140937e-07 -6.814669e-08
-4.370031e-08 6.351846e-08 -7.781305e-08 -4.024640e-08 -6.013440e-08 -8.328805e-08
-5.187719e-08 6.792721e-08 -7.246765e-08 -4.123647e-08 -5.441056e-08 -8.038783e-08
-2.750951e-08 5.155769e-08 -6.330903e-08 -4.324590e-08 -5.256629e-08 -6.497763e-08
-6.488317e-08 7.480135e-08 -4.116381e-08 -5.508113e-08 -3.869255e-08 -6.987994e-08
-5.971744e-08 9.205654e-08 -5.078923e-08 -4.533389e-08 -4.784481e-08 -7.282993e-08
-4.451193e-08 6.001725e-08 -4.672608e-08 -3.677489e-08 -4.455162e-08 -8.248428e-08
-4.896947e-08 1.190910e-07 -9.739861e-08 -8.613228e-09 -5.803786e-08 -1.087612e-07
-2.569828e-08 9.351242e-08 -4.915123e-08 1.529911e-09 -2.821414e-08 -6.854541e-08
-4.538646e-08 6.006031e-08 -8.687520e-09 -2.493837e-08 -1.505754e-08 -6.570149e-08
-4.668586e-08 8.734716e-08 -5.490956e-08 -3.079412e-08 -2.252682e-09 -5.466197e-08
-5.849213e-08 6.247086e-08 -5.257679e-08 -5.889499e-08 -3.979631e-08 -7.793119e-08
-2.170897e-08 1.195708e-07 -1.398802e-07 -1.273875e-08 -5.849763e-08 -8.603244e-08
-1.814955e-08 6.028022e-08 -5.695557e-08 -2.841821e-08 -1.396690e-08 -4.431076e-08
-5.777993e-08 5.303163e-08 -8.107150e-08 -5.772322e-08 -5.829276e-08 -7.305700e-08
-5.262883e-08 1.226810e-07 -8.340128e-08 -3.133025e-08 -1.746986e-08 -6.887263e-08
-2.270012e-08 6.563020e-08 -4.418049e-08 -2.330179e-08 -2.373013e-08 -6.054803e-08
-4.730373e-08 8.561636e-08 -4.586576e-08 -3.880526e-08 -2.212467e-08 -5.364140e-08
-3.742084e-08 6.751700e-08 -4.919004e-08 -1.741179e-08 -4.026374e-08 -6.310705e-08
-3.419716e-08 6.970913e-08 -4.627967e-08 -1.415922e-08 -3.627384e-08 -5.454647e-08
-1.931448e-08 6.531473e-08 -3.182556e-08 -2.487761e-09 -1.424743e-08 -3.735969e-08
-2.116813e-08 3.870883e-08 -4.111055e-08 -4.371175e-08 -5.418105e-08 -4.649121e-08
-1.851106e-08 3.346748e-08 -4.011382e-08 -4.904044e-08 -5.318729e-08 -4.857435e-08
-1.795109e-08 6.724869e-08 -4.405733e-08 -3.221366e-08 -4.486694e-08 -3.758346e-08
-3.900975e-08 4.784749e-08 -4.338740e-08 -3.710049e-08 -5.577076e-08 -5.524187e-08
-1.942331e-08 5.061544e-08 -4.542619e-08 -2.622164e-08 -4.004899e-08 -3.945446e-08
-2.473242e-08 4.189394e-08 -3.475899e-08 -1.909059e-08 -3.892432e-08 -4.274867e-08
-4.627555e-08 7.002999e-08 -3.413247e-08 -1.204019e-08 -2.619628e-08 -5.541716e-08
-5.050427e-08 7.840393e-08 -4.263372e-08 -1.148335e-08 -3.101653e-08 -6.267313e-08
-1.309513e-08 4.374861e-08 -3.126350e-08 -1.956911e-09 -2.194201e-08 -4.171047e-08
-4.007514e-08 3.620104e-08 -1.694694e-08 -3.097350e-08 -1.640022e-08 -3.669396e-08
-3.560199e-08 7.037222e-08 -5.719959e-08 -1.545627e-08 -2.346482e-08 -5.026246e-08
-2.916813e-08 4.791271e-08 -4.091031e-08 -2.110131e-08 -3.689820e-09 -2.902437e-08
-3.884956e-08 4.375629e-08 -2.327009e-08 -3.330032e-08 -2.634273e-08 -4.272189e-08
-3.780838e-08 4.103622e-08 -2.241401e-08 -2.946304e-08 -2.276761e-08 -4.177750e-08
-4.425209e-08 4.096783e-08 -8.403575e-09 -3.209218e-08 -2.660319e-08 -4.198225e-08
-2.879112e-08 -1.890951e-08 -1.815882e-08 -5.171835e-08 -5.744222e-08 -4.357325e-08
-1.903800e-08 -5.901659e-09 -1.649193e-08 -4.036359e-08 -4.725641e-08 -3.368147e-08
-2.266012e-08 -2.292763e-09 -1.625652e-08 -4.066680e-08 -4.473797e-08 -3.624931e-08
-2.587840e-08 3.134123e-08 -2.969268e-08 -3.980084e-08 -3.510607e-08 -4.324560e-08
-3.790743e-08 2.837890e-08 -2.499749e-08 -3.380290e-08 -3.505212e-08 -4.409045e-08
-3.444085e-08 2.878072e-08 -2.910569e-08 -3.509503e-08 -3.569191e-08 -4.391191e-08
-3.101910e-08 -1.613353e-08 -1.356687e-08 -7.140197e-08 -5.228939e-08 -5.355590e-08
-3.124708e-08 5.766749e-09 -2.681273e-09 -6.661963e-08 -3.168818e-08 -4.643647e-08
-2.145083e-08 -2.023956e-08 -2.159714e-09 -7.155842e-08 -5.257156e-08 -6.402612e-08
-2.753648e-08 2.225661e-08 -1.168941e-08 -2.947507e-08 -3.402176e-08 -3.031292e-08
-2.538418e-08 2.361408e-08 -1.245062e-08 -3.327246e-08 -3.622283e-08 -3.021193e-08
-2.477421e-08 3.829351e-08 -1.343518e-08 -2.579142e-08 -3.303506e-08 -2.626999e-08
-3.526895e-08 4.484305e-08 -1.526747e-08 -1.231953e-08 -1.757513e-08 -3.215336e-08
-1.727122e-08 2.219738e-08 -1.057141e-08 -6.737894e-09 -1.860343e-08 -2.231431e-08
-2.592417e-08 4.184926e-08 -1.220026e-08 1.365083e-09 -1.012242e-08 -2.678202e-08
-3.306024e-08 1.989846e-08 -1.039723e-08 -2.581904e-08 -3.352271e-08 -3.153601e-08
-2.584711e-08 2.556939e-08 -1.554693e-08 -1.865900e-08 -2.715076e-08 -2.823321e-08
-2.861561e-08 2.344608e-08 -1.367013e-08 -1.596705e-08 -2.370297e-08 -3.040962e-08
-3.119535e-08 5.167653e-10 -9.635786e-10 -4.551681e-08 -2.379584e-08 -2.861592e-08
-3.261744e-08 6.118930e-09 -1.688026e-09 -4.266132e-08 -1.890516e-08 -2.310275e-08
-2.905069e-08 -9.698846e-10 1.202008e-09 -4.504923e-08 -2.469634e-08 -3.082527e-08
-2.919226e-08 4.063635e-08 -1.738413e-08 -1.512329e-08 -2.069060e-08 -3.299905e-08
-2.914329e-08 3.754246e-08 -1.367422e-08 -1.398744e-08 -2.286770e-08 -3.063692e-08
-2.140282e-08 3.504768e-08 -2.972878e-09 -6.077326e-09 -8.576561e-09 -2.083019e-08
-2.190354e-08 2.345540e-08 -1.055398e-08 -1.507482e-08 -1.418996e-08 -2.112998e-08
-2.183411e-08 2.098573e-08 -1.054786e-08 -1.449129e-08 -1.544756e-08 -2.046675e-08
-2.005253e-08 4.175829e-08 -1.753303e-08 -2.036500e-09 -8.187565e-09 -2.347218e-08
-2.480545e-08 1.710235e-08 -4.734432e-09 -2.111794e-08 -1.646187e-08 -2.001684e-08
-2.199618e-08 1.513424e-08 -4.290649e-09 -1.779596e-08 -1.522518e-08 -1.657704e-08
-2.231965e-08 1.809166e-08 -4.448068e-09 -1.894758e-08 -1.451241e-08 -1.858434e-08
-1.954904e-08 1.533396e-08 -4.377958e-09 -1.704109e-08 -1.527809e-08 -1.697989e-08
-2.048811e-08 1.632045e-08 -9.217641e-09 -1.730101e-08 -1.835628e-08 -1.998380e-08
-2.327511e-08 1.769223e-08 -7.293485e-09 -1.812065e-08 -1.625511e-08 -1.917994e-08
-2.236152e-08 1.841678e-08 -8.040396e-09 -1.901719e-08 -1.664798e-08 -1.912732e-08
-2.128997e-08 1.581404e-08 -5.159324e-09 -1.570342e-08 -1.338457e-08 -1.653041e-08
-1.960913e-08 1.608747e-08 -8.955986e-09 -1.461299e-08 -1.567475e-08 -1.783405e-08
-2.259664e-08 1.703475e-08 -5.752871e-09 -1.457583e-08 -1.392615e-08 -1.803697e-08
-2.269218e-08 1.896430e-08 -7.920929e-09 -1.440893e-08 -1.294444e-08 -1.849367e-08
-1.924873e-08 1.557959e-08 -3.772947e-09 -1.472628e-08 -1.193150e-08 -1.517617e-08
-2.102165e-08 1.972122e-08 -6.159811e-09 -1.294082e-08 -1.105456e-08 -1.735568e-08
-2.054264e-08 2.175044e-08 -6.148107e-09 -1.193133e-08 -1.269451e-08 -1.799702e-08
-1.804069e-08 2.002531e-08 -5.852105e-09 -1.083930e-08 -1.139517e-08 -1.680205e-08
-2.428708e-08 1.523162e-08 -5.241933e-09 -2.128364e-08 -1.763452e-08 -2.046899e-08
-2.163934e-08 1.557959e-08 -5.015522e-09 -1.829586e-08 -1.523269e-08 -1.695341e-08
-1.945117e-08 1.523162e-08 -3.210223e-09 -1.721945e-08 -1.480758e-08 -1.732667e-08
-2.066329e-08 1.523162e-08 -4.381821e-09 -1.768319e-08 -1.443708e-08 -1.610925e-08
-2.225377e-08 1.972122e-08 -5.985418e-09 -1.689648e-08 -1.471282e-08 -1.783114e-08
-2.186177e-08 2.038685e-08 -6.025343e-09 -1.638088e-08 -1.521672e-08 -1.827722e-08
-2.125325e-08 2.036459e-08 -5.640935e-09 -1.654986e-08 -1.453681e-08 -1.944069e-08
-2.161965e-08 8.451799e-09 -5.679511e-09 -2.171603e-08 -2.058420e-08 -1.693095e-08
-2.244533e-08 1.084301e-08 -2.955981e-09 -2.138301e-08 -1.803077e-08 -1.652320e-08
-2.218861e-08 1.262280e-08 -3.094585e-09 -2.207276e-08 -1.882250e-08 -1.614433e-08
-2.270851e-08 7.869545e-09 -4.565408e-09 -2.442501e-08 -2.147449e-08 -1.753201e-08
-1.825057e-08 8.451803e-09 -1.931488e-09 -1.545279e-08 -1.372150e-08 -1.337486e-08
-1.965914e-08 8.169128e-09 -1.175612e-09 -1.467100e-08 -1.275726e-08 -1.429571e-08
-1.789818e-08 7.869542e-09 -2.845433e-09 -1.598100e-08 -1.403998e-08 -1.443763e-08
-1.939619e-08 1.046880e-08 -2.775873e-09 -1.580843e-08 -1.448248e-08 -1.437369e-08
-2.272059e-08 1.191970e-08 -8.107409e-11 -2.230554e-08 -1.717886e-08 -1.683423e-08
-1.996672e-08 1.185176e-08 -2.396714e-09 -1.934436e-08 -1.723381e-08 -1.458868e-08
-2.383397e-08 1.213402e-08 -5.992165e-10 -2.300380e-08 -1.765224e-08 -1.759378e-08
-2.157322e-08 1.206395e-08 -1.481782e-09 -2.211994e-08 -1.658175e-08 -1.669299e-08
-2.156916e-08 9.726399e-09 -3.261585e-09 -2.210321e-08 -1.865168e-08 -1.669308e-08
-2.148856e-08 1.028895e-08 -3.147765e-09 -2.242334e-08 -1.939281e-08 -1.597530e-08
-2.286802e-08 9.783435e-09 -2.058607e-09 -2.356531e-08 -1.960351e-08 -1.763985e-08
-2.051269e-08 1.586062e-08 -3.470535e-09 -1.442752e-08 -1.153814e-08 -1.538450e-08
-1.724948e-08 1.869746e-08 -7.030939e-09 -1.126041e-08 -1.437762e-08 -1.723337e-08
-1.884973e-08 2.033705e-08 -5.276300e-09 -1.097565e-08 -1.187042e-08 -1.617392e-08
-1.784730e-08 2.030256e-08 -6.645013e-09 -1.109156e-08 -1.219329e-08 -1.574174e-08
8.392291e-09 -4.293712e-09 -1.132995e-09 3.148646e-09 4.379176e-10 2.118754e-10
8.008584e-09 -4.273818e-09 -1.101490e-09 2.958501e-09 3.948299e-10 7.056422e-11
8.450638e-09 -4.293710e-09 -1.135001e-09 3.166114e-09 4.313070e-10 2.034932e-10
8.238743e-09 -4.293711e-09 -1.094162e-09 3.134139e-09 4.034775e-10 1.347247e-10
8.562708e-09 -4.505468e-09 -1.111699e-09 2.817460e-09 3.423442e-10 3.379808e-11
8.654453e-09 -4.433605e-09 -1.213590e-09 2.912710e-09 3.465015e-10 9.867129e-11
8.713570e-09 -4.418514e-09 -1.192010e-09 2.881814e-09 3.245491e-10 1.370624e-10
8.222369e-09 -4.237350e-09 -1.110191e-09 3.326926e-09 4.012171e-10 6.743450e-11
8.020027e-09 -4.297075e-09 -1.061399e-09 2.950835e-09 3.701113e-10 9.285750e-11
8.090989e-09 -4.238721e-09 -1.073516e-09 3.284335e-09 3.905154e-10 1.134630e-10
8.357055e-09 -4.260910e-09 -1.063887e-09 3.237792e-09 3.711612e-10 1.710609e-10
8.286000e-09 -4.265044e-09 -1.235812e-09 3.220367e-09 3.114465e-10 -1.215310e-10
8.502919e-09 -4.318609e-09 -1.174908e-09 3.239183e-09 3.657008e-10 2.033884e-11
8.095332e-09 -4.240116e-09 -1.076058e-09 3.298186e-09 4.550376e-10 1.232334e-10
8.108278e-09 -4.173223e-09 -9.879626e-10 3.068471e-09 2.727037e-10 8.970048e-12
8.101217e-09 -4.172762e-09 -1.172268e-09 3.064454e-09 2.318213e-10 -3.508971e-11
8.204855e-09 -4.289381e-09 -1.125140e-09 3.057684e-09 3.050054e-10 6.754886e-11
8.216011e-09 -4.211135e-09 -1.043815e-09 3.089832e-09 2.187683e-10 3.742962e-11
7.050971e-09 -3.532799e-09 -9.044210e-10 3.199068e-09 5.121916e-10 8.794077e-11
7.106252e-09 -3.517208e-09 -9.269998e-10 3.136223e-09 5.257208e-10 1.158436e-10
6.802644e-09 -3.401540e-09 -9.230416e-10 3.434416e-09 5.042415e-10 6.619860e-11
6.768592e-09 -3.283805e-09 -9.048957e-10 3.267877e-09 4.407141e-10 9.011203e-11
7.928133e-09 -3.933168e-09 -1.118803e-09 3.589629e-09 4.600018e-10 2.202272e-10
7.506671e-09 -3.865923e-09 -1.053602e-09 3.431361e-09 4.356723e-10 1.182157e-10
7.728936e-09 -3.873161e-09 -1.153508e-09 3.459648e-09 4.672773e-10 3.352709e-10
8.034583e-09 -3.877308e-09 -1.064021e-09 3.467514e-09 4.495430e-10 1.387006e-10
8.049286e-09 -4.020642e-09 -1.062970e-09 3.471367e-09 5.096426e-10 1.567939e-10
7.311016e-09 -3.774025e-09 -1.061170e-09 3.693281e-09 4.881886e-10 1.453198e-10
7.392750e-09 -3.665288e-09 -1.187531e-09 3.790919e-09 4.133462e-10 4.564194e-11
7.460223e-09 -3.838887e-09 -9.629275e-10 3.405390e-09 3.641976e-10 1.031073e-10
7.725038e-09 -4.022509e-09 -1.015693e-09 3.320851e-09 4.760947e-10 2.230705e-10
7.332924e-09 -3.544798e-09 -9.911603e-10 3.785917e-09 3.614521e-10 9.507795e-11
7.672748e-09 -3.650773e-09 -9.956609e-10 3.518203e-09 3.832953e-10 1.516209e-10
8.740901e-09 -4.378450e-09 -1.170779e-09 3.292828e-09 5.084052e-10 3.134211e-10
9.184497e-09 -4.458146e-09 -1.197746e-09 3.387562e-09 4.508120e-10 2.699307e-10
8.893664e-09 -4.458146e-09 -1.176654e-09 3.388369e-09 4.803483e-10 3.143468e-10
8.985573e-09 -4.458147e-09 -1.206311e-09 3.371307e-09 4.625895e-10 3.479088e-10
9.032362e-09 -4.490349e-09 -1.205643e-09 3.278910e-09 4.409673e-10 2.170506e-10
9.429506e-09 -4.534375e-09 -1.205183e-09 3.185876e-09 4.214724e-10 2.493339e-10
9.231911e-09 -4.542168e-09 -1.238039e-09 3.027217e-09 4.053917e-10 -1.096838e-10
8.490641e-09 -4.224697e-09 -1.185297e-09 3.539660e-09 4.393199e-10 3.088907e-11
8.787556e-09 -4.249529e-09 -1.236916e-09 3.786883e-09 4.593226e-10 7.200019e-11
8.929973e-09 -4.242830e-09 -1.228718e-09 3.622720e-09 4.111378e-10 1.777609e-10
8.577796e-09 -4.233162e-09 -1.203429e-09 3.712432e-09 4.357352e-10 1.958118e-10
8.550734e-09 -4.236597e-09 -9.877112e-10 3.722282e-09 4.826370e-10 2.969486e-11
8.632330e-09 -4.258891e-09 -1.147199e-09 3.718911e-09 4.199454e-10 5.734613e-11
8.936579e-09 -4.240886e-09 -1.213624e-09 3.619056e-09 4.303840e-10 1.339393e-10
8.290023e-09 -4.035328e-09 -1.205891e-09 3.722808e-09 5.198156e-10 2.526352e-10
8.695963e-09 -4.105811e-09 -1.343203e-09 3.857760e-09 5.397929e-10 2.500669e-10
8.574222e-09 -4.034992e-09 -1.231118e-09 3.707723e-09 5.259488e-10 2.095772e-10
8.468270e-09 -4.034508e-09 -1.350559e-09 3.710084e-09 5.282201e-10 3.442264e-10
8.077700e-09 -3.742777e-09 -1.312732e-09 4.083759e-09 4.219771e-10 1.807403e-10
8.037127e-09 -3.821628e-09 -1.124715e-09 4.027026e-09 4.959050e-10 2.417853e-10
8.506856e-09 -4.069385e-09 -1.119491e-09 3.830694e-09 4.648659e-10 1.417038e-10
9.150973e-09 -4.295507e-09 -1.392155e-09 3.848775e-09 3.737357e-10 1.996980e-10
8.916146e-09 -4.327501e-09 -1.382136e-09 3.942105e-09 3.974687e-10 9.831158e-11
8.755180e-09 -4.329094e-09 -1.182658e-09 3.903656e-09 3.795244e-10 2.202176e-10
8.805692e-09 -4.340362e-09 -1.326308e-09 3.898342e-09 3.035083e-10 3.242553e-10
9.399187e-09 -4.538077e-09 -1.307639e-09 3.531984e-09 3.459681e-10 3.447287e-10
9.475578e-09 -4.531029e-09 -1.278235e-09 3.502565e-09 3.605050e-10 2.789005e-10
9.534000e-09 -4.678068e-09 -1.329912e-09 3.223015e-09 2.525529e-10 2.012071e-10
9.574080e-09 -4.609357e-09 -1.267554e-09 3.528142e-09 3.216978e-10 4.108114e-10
8.618569e-09 -3.837528e-09 -1.747573e-09 4.624638e-09 6.289058e-10 1.590589e-09
8.475559e-09 -4.010762e-09 -1.457902e-09 4.133346e-09 4.598508e-10 3.572588e-10
8.567620e-09 -3.783759e-09 -1.273662e-09 4.452515e-09 2.552580e-10 7.679468e-11
7.806663e-09 -3.708534e-09 -1.318101e-09 4.530788e-09 3.855361e-10 6.893284e-10
8.640955e-09 -4.114725e-09 -1.222485e-09 3.907965e-09 4.219075e-10 8.004553e-11
8.307024e-09 -3.845797e-09 -1.230840e-09 4.250663e-09 4.022235e-10 1.418476e-10
8.272377e-09 -3.749961e-09 -1.229351e-09 4.113060e-09 3.793625e-10 2.050034e-10
8.131209e-09 -3.758398e-09 -1.050226e-09 4.283491e-09 3.399647e-10 -9.404477e-11
1.012555e-08 -4.760102e-09 -1.401395e-09 3.766809e-09 4.365019e-10 2.145986e-10
9.683706e-09 -4.794026e-09 -1.349569e-09 3.657331e-09 4.350140e-10 2.719334e-10
9.841393e-09 -4.760788e-09 -1.388018e-09 3.780874e-09 4.327063e-10 3.052976e-10
9.869119e-09 -4.762268e-09 -1.351592e-09 3.793365e-09 4.419667e-10 3.392358e-10
1.018737e-08 -4.988045e-09 -1.376346e-09 3.486236e-09 3.353902e-10 5.710610e-11
1.028267e-08 -4.914881e-09 -1.384989e-09 3.577377e-09 4.001512e-10 1.724616e-10
9.913058e-09 -4.765574e-09 -1.377655e-09 3.640055e-09 4.356955e-10 1.662395e-10
9.510185e-09 -4.780719e-09 -1.355297e-09 3.542977e-09 4.646865e-10 3.052572e-10
9.726758e-09 -4.972963e-09 -1.383530e-09 3.364001e-09 3.689427e-10 1.297811e-10
9.602994e-09 -4.789388e-09 -1.431642e-09 3.432877e-09 5.470046e-10 4.333307e-10
9.745287e-09 -4.914954e-09 -1.444588e-09 3.315104e-09 4.173697e-10 1.369394e-10
9.549328e-09 -4.293859e-09 -1.371203e-09 4.310128e-09 4.409586e-10 4.221821e-10
9.120953e-09 -4.291954e-09 -1.229301e-09 4.177545e-09 5.317699e-10 2.574652e-10
9.341647e-09 -4.292180e-09 -1.353799e-09 4.166497e-09 4.820836e-10 4.210115e-10
9.290041e-09 -4.287002e-09 -1.310241e-09 4.145679e-09 4.972862e-10 3.718861e-10
9.390206e-09 -4.243770e-09 -1.354882e-09 4.211515e-09 4.466607e-10 2.978391e-10
8.515798e-09 -4.147248e-09 -1.335286e-09 4.287151e-09 4.029575e-10 2.501923e-10
8.903562e-09 -4.027508e-09 -1.343983e-09 4.599562e-09 2.709788e-10 -3.508125e-10
8.375035e-09 -4.091352e-09 -1.344875e-09 3.795490e-09 5.421270e-10 2.747601e-10
8.446547e-09 -3.741022e-09 -1.311368e-09 4.057132e-09 4.237180e-10 1.579114e-10
7.595782e-09 -3.773372e-09 -1.102261e-09 4.013904e-09 4.503709e-10 1.586397e-10
8.488931e-09 -3.736813e-09 -1.069541e-09 4.195054e-09 3.716871e-10 -2.065337e-10
9.989940e-09 -4.512082e-09 -1.390434e-09 3.863893e-09 3.604455e-10 1.384985e-10
9.206225e-09 -4.401154e-09 -1.365027e-09 4.106090e-09 3.778586e-10 5.322987e-11
9.622266e-09 -4.507965e-09 -1.381019e-09 3.918137e-09 3.666816e-10 2.146026e-10
9.718043e-09 -4.427972e-09 -1.364160e-09 4.045967e-09 4.065281e-10 2.602691e-10
9.421690e-09 -4.503366e-09 -1.361633e-09 4.028199e-09 3.571841e-10 -3.931078e-11
9.420035e-09 -4.351878e-09 -1.435475e-09 4.022929e-09 3.389722e-10 -5.048584e-11
9.711858e-09 -4.328709e-09 -1.387494e-09 4.111207e-09 3.934151e-10 2.165856e-10
9.060777e-09 -4.199412e-09 -1.244953e-09 4.169059e-09 3.628482e-10 4.135043e-10
8.728740e-09 -4.190309e-09 -1.372795e-09 4.262378e-09 4.550574e-10 1.889910e-10
8.423029e-09 -3.856588e-09 -1.342121e-09 4.327341e-09 3.482619e-10 2.015934e-10
8.422806e-09 -3.794774e-09 -1.208583e-09 4.503480e-09 2.375957e-10 6.633538e-11
9.077757e-09 -4.289944e-09 -1.375890e-09 3.839836e-09 3.843514e-10 1.639189e-10
9.020251e-09 -4.294661e-09 -1.202033e-09 3.807994e-09 3.697750e-10 2.511755e-10
9.234826e-09 -4.297208e-09 -1.305286e-09 3.735735e-09 3.410701e-10 1.430430e-10
9.326358e-09 -4.295584e-09 -1.343773e-09 3.719090e-09 3.102709e-10 2.368521e-10
1.070886e-08 -4.885737e-09 -1.505652e-09 3.927675e-09 4.230568e-10 2.150431e-10
1.132853e-08 -4.886593e-09 -1.464191e-09 4.039578e-09 4.085645e-10 1.337730e-11
1.090881e-08 -4.887663e-09 -1.513826e-09 4.060867e-09 4.076358e-10 2.398108e-10
1.077652e-08 -4.886967e-09 -1.516681e-09 4.058344e-09 4.026248e-10 1.837357e-10
1.090835e-08 -4.970587e-09 -1.448563e-09 3.873989e-09 4.037743e-10 -5.235142e-12
1.142622e-08 -5.022158e-09 -1.447988e-09 3.720915e-09 3.965325e-10 1.260281e-11
1.131577e-08 -5.044251e-09 -1.479576e-09 3.638695e-09 3.675824e-10 -1.303855e-10
1.011264e-08 -4.439947e-09 -1.354923e-09 4.498007e-09 4.327249e-10 2.449103e-10
1.065191e-08 -4.474571e-09 -1.317050e-09 4.707711e-09 4.583751e-10 1.113096e-10
1.021773e-08 -4.449162e-09 -1.389989e-09 4.534333e-09 4.628119e-10 2.515477e-10
1.032894e-08 -4.441913e-09 -1.326392e-09 4.495145e-09 4.962715e-10 1.662868e-10
9.869490e-09 -4.102570e-09 -1.325021e-09 4.935564e-09 4.025820e-10 -1.142366e-10
9.712160e-09 -4.218139e-09 -1.158141e-09 4.784695e-09 4.527437e-10 3.770296e-11
9.938050e-09 -4.464987e-09 -1.217030e-09 4.847877e-09 3.065914e-10 1.569136e-10
1.042576e-08 -4.717158e-09 -1.411975e-09 4.208073e-09 2.969822e-10 2.675194e-11
1.092778e-08 -4.763609e-09 -1.388123e-09 4.462254e-09 2.926674e-10 -1.370632e-10
1.069818e-08 -4.716254e-09 -1.462494e-09 4.225524e-09 3.057570e-10 1.026059e-10
1.036687e-08 -4.736803e-09 -1.462316e-09 4.354096e-09 3.057179e-10 9.370150e-11
1.029264e-08 -4.741341e-09 -1.097926e-09 4.379574e-09 3.242915e-10 -1.846472e-10
1.046193e-08 -4.796675e-09 -1.211911e-09 4.359664e-09 2.442240e-10 -2.316241e-10
1.075838e-08 -4.726713e-09 -1.355328e-09 4.207804e-09 2.512365e-10 -1.776941e-10
1.151826e-08 -5.035112e-09 -1.583218e-09 4.111207e-09 2.663509e-10 1.995116e-11
1.168410e-08 -5.047591e-09 -1.562647e-09 4.105708e-09 2.626175e-10 -4.210542e-11
1.191143e-08 -5.151129e-09 -1.571855e-09 3.997740e-09 1.970608e-10 -5.681894e-12
1.203400e-08 -5.282911e-09 -1.520640e-09 3.825748e-09 1.799678e-10 -1.641651e-10
1.238585e-08 -5.208609e-09 -1.677706e-09 4.808712e-09 3.400764e-10 -2.262910e-10
1.175347e-08 -5.279880e-09 -1.571934e-09 4.658182e-09 3.642854e-10 -2.173190e-10
1.221871e-08 -5.233816e-09 -1.696437e-09 4.732663e-09 3.628313e-10 -1.470242e-10
1.258020e-08 -5.277280e-09 -1.693802e-09 4.611468e-09 3.605130e-10 -1.095572e-10
1.310074e-08 -5.356613e-09 -1.749486e-09 4.547968e-09 2.563714e-10 -4.080682e-10
1.299773e-08 -5.450364e-09 -1.524676e-09 4.675850e-09 3.592182e-10 -7.036594e-10
1.210933e-08 -5.345740e-09 -1.487363e-09 4.852936e-09 4.517422e-10 -3.170951e-10
1.231985e-08 -5.252776e-09 -1.579776e-09 4.525366e-09 3.797117e-10 -3.303930e-10
1.236703e-08 -5.293743e-09 -1.768376e-09 4.505859e-09 2.573521e-10 -2.887133e-10
1.247133e-08 -5.420117e-09 -1.548781e-09 4.434894e-09 5.551686e-10 -4.859220e-10
1.297415e-08 -5.501340e-09 -1.530116e-09 4.516430e-09 2.615024e-10 -9.859229e-10
1.127266e-08 -5.154071e-09 -1.603870e-09 4.286695e-09 3.687743e-10 -1.012060e-10
1.130469e-08 -5.148163e-09 -1.554605e-09 4.301364e-09 3.383551e-10 -1.984461e-10
1.134454e-08 -5.352977e-09 -1.607454e-09 4.071526e-09 2.653875e-10 -5.184995e-10
1.140638e-08 -5.087179e-09 -1.637157e-09 4.382463e-09 4.426268e-10 -9.985789e-11
1.273722e-08 -5.292339e-09 -1.713330e-09 4.432758e-09 3.972124e-10 -5.254862e-11
1.207294e-08 -5.292736e-09 -1.685558e-09 4.302277e-09 4.336092e-10 7.493829e-11
1.256751e-08 -5.290775e-09 -1.736912e-09 4.428572e-09 3.977603e-10 1.156764e-11
1.231927e-08 -5.294203e-09 -1.669067e-09 4.460842e-09 4.056220e-10 6.585406e-12
1.274794e-08 -5.497351e-09 -1.642356e-09 4.024660e-09 3.687894e-10 -2.860057e-10
1.304921e-08 -5.477021e-09 -1.772852e-09 4.227146e-09 3.331002e-10 -6.583566e-11
1.288448e-08 -5.455747e-09 -1.769521e-09 4.249715e-09 3.244123e-10 -6.861355e-11
1.108260e-08 -4.481705e-09 -1.548779e-09 4.949291e-09 4.810739e-10 -7.651923e-11
1.147838e-08 -4.507075e-09 -1.544990e-09 5.100795e-09 5.631054e-10 2.511281e-11
1.066036e-08 -4.151898e-09 -1.547539e-09 5.215293e-09 6.062408e-10 -4.258149e-11
1.044381e-08 -3.853905e-09 -1.520744e-09 5.548647e-09 4.950169e-10 -2.601428e-10
1.240687e-08 -5.286371e-09 -1.726177e-09 4.247103e-09 4.632334e-10 -2.133404e-11
1.228444e-08 -5.481301e-09 -1.727946e-09 3.934124e-09 4.443409e-10 -5.654687e-11
1.246883e-08 -5.495288e-09 -1.840975e-09 4.085214e-09 3.949464e-10 1.430388e-10
1.305453e-08 -5.579372e-09 -1.769080e-09 3.790012e-09 4.101179e-10 -1.516365e-10
1.041988e-08 -4.483870e-09 -1.498217e-09 4.762870e-09 4.999994e-10 -1.577805e-10
1.063908e-08 -4.143109e-09 -1.515039e-09 5.078528e-09 5.036828e-10 -1.895002e-10
1.052055e-08 -4.243730e-09 -1.311632e-09 4.953025e-09 5.318932e-10 -6.469635e-11
9.705380e-09 -3.897153e-09 -1.390423e-09 5.347975e-09 4.982315e-10 -4.252811e-10
1.200547e-08 -4.768864e-09 -1.626811e-09 5.137999e-09 5.094714e-10 -4.566561e-12
1.132821e-08 -4.759447e-09 -1.539405e-09 5.019895e-09 4.944567e-10 -1.313065e-10
1.178380e-08 -4.757920e-09 -1.654645e-09 4.987980e-09 5.342944e-10 9.297342e-11
1.207524e-08 -4.762768e-09 -1.648939e-09 4.994147e-09 5.139226e-10 -4.645750e-11
1.193141e-08 -5.058170e-09 -1.487229e-09 5.233020e-09 5.150032e-10 -1.366538e-10
1.116886e-08 -4.661334e-09 -1.492265e-09 5.385091e-09 5.597514e-10 -2.104796e-10
1.125983e-08 -4.478302e-09 -1.627619e-09 5.514161e-09 4.176388e-10 -3.075637e-10
1.084833e-08 -4.493287e-09 -1.569879e-09 4.782413e-09 4.648733e-10 -2.517519e-10
1.051218e-08 -4.200761e-09 -1.508751e-09 5.094797e-09 5.998309e-10 -1.352198e-10
1.049021e-08 -4.121864e-09 -1.510713e-09 4.989675e-09 5.703200e-10 -1.417963e-10
1.013636e-08 -3.902502e-09 -1.504569e-09 5.338211e-09 4.735067e-10 -4.778402e-10
1.171577e-08 -5.269005e-09 -1.661700e-09 4.156181e-09 4.135384e-10 -6.234635e-11
1.198876e-08 -5.473739e-09 -1.659615e-09 3.894341e-09 4.186591e-10 -1.910560e-11
1.208988e-08 -5.569638e-09 -1.630955e-09 3.752199e-09 3.708014e-10 -1.505380e-10
1.193615e-08 -5.456802e-09 -1.686364e-09 3.900196e-09 3.962403e-10 2.866963e-11
1.131828e-08 -4.705184e-09 -1.606100e-09 4.617601e-09 3.368524e-10 -9.486711e-11
1.131294e-08 -4.695272e-09 -1.382208e-09 4.619210e-09 2.896224e-10 -1.000159e-10
1.135534e-08 -4.775893e-09 -1.496462e-09 4.521218e-09 1.876980e-10 -2.724582e-10
1.151408e-08 -4.713511e-09 -1.650421e-09 4.630507e-09 3.624638e-10 -1.114151e-10
1.048784e-08 -4.489954e-09 -1.499883e-09 4.875696e-09 4.955199e-10 -1.531441e-11
1.050639e-08 -4.474118e-09 -1.309765e-09 4.892841e-09 4.347147e-10 -8.188949e-11
1.089351e-08 -4.527959e-09 -1.384110e-09 4.985414e-09 6.001464e-10 1.205613e-10
9.936571e-09 -3.850505e-09 -1.421502e-09 5.542345e-09 5.146533e-10 -2.108060e-10
1.300616e-08 -5.240118e-09 -1.849235e-09 5.076779e-09 3.615640e-10 -7.271397e-10
1.360797e-08 -5.094941e-09 -1.833643e-09 5.334235e-09 4.313283e-10 -5.098291e-10
1.406156e-08 -5.260354e-09 -2.001300e-09 5.021348e-09 4.276389e-10 -2.688600e-10
1.304709e-08 -5.094643e-09 -1.982129e-09 5.147606e-09 4.868088e-10 -1.771103e-10
1.312438e-08 -5.097931e-09 -1.772166e-09 5.290856e-09 4.460572e-10 -5.271956e-10
1.279468e-08 -5.091312e-09 -1.765486e-09 5.294532e-09 4.689986e-10 -3.590230e-10
1.407210e-08 -5.370038e-09 -1.740938e-09 4.976899e-09 4.587162e-10 -1.685948e-10
1.352102e-08 -5.411011e-09 -1.851151e-09 4.536640e-09 4.545603e-10 -1.042681e-10
1.437751e-08 -5.533244e-09 -1.806050e-09 4.567593e-09 4.438982e-10 -2.449449e-10
1.367392e-08 -5.532446e-09 -1.848954e-09 4.588424e-09 3.769988e-10 -1.663469e-10
1.397041e-08 -5.538832e-09 -1.894923e-09 4.620271e-09 4.184750e-10 -5.424770e-11
1.380068e-08 -5.529960e-09 -1.720867e-09 4.423632e-09 4.985927e-10 -2.526794e-10
1.398538e-08 -5.496027e-09 -1.787511e-09 3.959455e-09 4.468330e-10 -4.920633e-10
1.416660e-08 -5.577207e-09 -1.852558e-09 4.045103e-09 3.642600e-10 -3.332139e-10
1.275376e-08 -4.918296e-09 -1.816202e-09 5.288589e-09 8.299176e-10 8.520563e-11
1.350187e-08 -4.925466e-09 -1.933284e-09 5.415655e-09 6.292814e-10 -1.955263e-10
1.293993e-08 -4.900666e-09 -2.085571e-09 5.197894e-09 7.327308e-10 1.100391e-10
1.318786e-08 -4.905167e-09 -1.905238e-09 5.204877e-09 6.923047e-10 -2.022515e-10
1.255571e-08 -4.473796e-09 -1.679973e-09 5.818762e-09 3.761675e-10 -7.505492e-10
1.232250e-08 -4.564778e-09 -1.873843e-09 5.624041e-09 5.686813e-10 -1.405680e-10
1.305810e-08 -4.801969e-09 -1.814646e-09 5.396867e-09 5.494423e-10 -3.996419e-10
1.323352e-08 -5.000234e-09 -2.050795e-09 5.540698e-09 6.548225e-10 -3.647087e-10
1.344610e-08 -4.987008e-09 -1.917105e-09 5.603007e-09 5.689480e-10 -5.840355e-10
1.352547e-08 -4.973212e-09 -2.002183e-09 5.637423e-09 7.573828e-10 -2.452545e-10
1.265927e-08 -4.652405e-09 -1.712253e-09 6.162024e-09 4.447024e-10 -9.164585e-10
1.419871e-08 -4.962547e-09 -2.043829e-09 5.734979e-09 6.196103e-10 -5.155369e-10
1.440047e-08 -4.928714e-09 -2.039024e-09 5.846895e-09 6.904702e-10 -4.366729e-10
1.355066e-08 -4.707763e-09 -2.010260e-09 5.852087e-09 5.826328e-10 -5.816307e-10
1.320216e-08 -4.649804e-09 -1.741443e-09 6.199917e-09 4.388537e-10 -9.818772e-10
1.452935e-08 -5.865211e-09 -1.927297e-09 4.537211e-09 2.150102e-10 -1.906981e-10
1.458179e-08 -5.748657e-09 -1.846288e-09 4.451507e-09 3.297429e-10 -2.934390e-10
1.474675e-08 -5.901004e-09 -1.988183e-09 4.294574e-09 1.567277e-10 -3.381366e-10
1.470393e-08 -6.048718e-09 -1.839128e-09 4.132940e-09 1.736162e-10 -4.619212e-10
1.639507e-08 -5.888391e-09 -2.177669e-09 4.812714e-09 5.573252e-10 -7.604868e-10
1.537210e-08 -5.901461e-09 -1.932692e-09 4.734311e-09 5.471690e-10 -5.349716e-10
1.559443e-08 -5.895667e-09 -2.253262e-09 4.890437e-09 5.288230e-10 -4.887197e-10
1.562426e-08 -5.897386e-09 -1.980358e-09 4.900184e-09 5.305230e-10 -3.454947e-10
1.614927e-08 -6.092474e-09 -1.972413e-09 4.354010e-09 3.966052e-10 -1.173348e-09
1.632416e-08 -5.981863e-09 -1.894226e-09 4.510406e-09 5.698786e-10 -8.338148e-10
1.591175e-08 -5.765516e-09 -1.704082e-09 4.550742e-09 8.234928e-10 -9.986574e-10
1.466431e-08 -5.909218e-09 -2.059968e-09 4.811448e-09 5.143561e-10 -1.826317e-10
1.476649e-08 -6.084555e-09 -1.885619e-09 4.757077e-09 4.524441e-10 -3.546596e-10
1.436502e-08 -6.099412e-09 -2.067762e-09 4.468307e-09 3.703261e-10 -7.607501e-10
1.499091e-08 -6.011675e-09 -2.073848e-09 4.710348e-09 4.954520e-10 -3.277236e-10
1.393084e-08 -4.960001e-09 -2.145361e-09 5.549848e-09 5.674009e-10 -7.308030e-10
1.355254e-08 -4.595947e-09 -2.160314e-09 5.893639e-09 5.568151e-10 -6.372278e-10
1.355969e-08 -4.510952e-09 -2.153289e-09 5.933431e-09 5.298663e-10 -6.456686e-10
1.324185e-08 -4.482039e-09 -1.894807e-09 6.283944e-09 4.035045e-10 -1.019236e-09
1.421007e-08 -5.117197e-09 -2.089882e-09 5.436020e-09 5.764778e-10 -3.151221e-10
1.421286e-08 -5.062382e-09 -1.955430e-09 5.494778e-09 4.801308e-10 -4.642357e-10
1.416579e-08 -5.059987e-09 -1.884574e-09 5.515679e-09 4.931563e-10 -3.503061e-10
1.434233e-08 -5.147182e-09 -2.066716e-09 5.597069e-09 6.460238e-10 -3.457526e-10
1.339066e-08 -4.926301e-09 -2.299742e-09 5.425549e-09 6.534833e-10 -4.369501e-10
1.356551e-08 -4.503469e-09 -2.270395e-09 5.898940e-09 5.419483e-10 -5.567147e-10
1.323923e-08 -4.555265e-09 -2.145372e-09 5.762657e-09 6.002452e-10 -3.248692e-10
1.259084e-08 -4.450775e-09 -1.968546e-09 6.220431e-09 4.599103e-10 -7.638268e-10
1.535417e-08 -5.193336e-09 -2.182374e-09 5.826930e-09 4.872769e-10 -6.904790e-10
1.432896e-08 -5.183435e-09 -1.934649e-09 5.745931e-09 5.231125e-10 -6.514442e-10
1.510382e-08 -5.173914e-09 -2.298176e-09 5.660040e-09 5.868315e-10 -5.189853e-10
1.487747e-08 -5.187925e-09 -2.253946e-09 5.736403e-09 5.613415e-10 -5.112106e-10
1.477014e-08 -5.344574e-09 -1.744569e-09 5.995566e-09 4.624319e-10 -7.763066e-10
1.408214e-08 -5.011623e-09 -1.725921e-09 6.111841e-09 3.319626e-10 -9.756924e-10
1.440609e-08 -4.890356e-09 -1.981617e-09 6.380479e-09 2.864033e-10 -1.348602e-09
1.748250e-08 -6.032212e-09 -2.436171e-09 4.910633e-09 7.014418e-10 -1.122753e-09
1.876148e-08 -6.072097e-09 -2.758714e-09 4.996066e-09 8.494266e-10 -1.818715e-09
1.778060e-08 -6.080248e-09 -2.397377e-09 5.086451e-09 6.982538e-10 -9.194405e-10
1.746846e-08 -6.090141e-09 -2.737008e-09 5.161579e-09 7.574601e-10 -1.307442e-09
1.760414e-08 -6.066278e-09 -1.868711e-09 4.886265e-09 1.025819e-09 -1.846951e-09
1.845435e-08 -6.076033e-09 -2.457787e-09 4.559333e-09 7.310070e-10 -1.815629e-09
1.836226e-08 -6.186602e-09 -2.459066e-09 4.456907e-09 5.933314e-10 -1.964973e-09
1.641649e-08 -5.295177e-09 -2.495097e-09 5.943706e-09 6.600314e-10 -7.883769e-10
1.765476e-08 -5.227842e-09 -2.992755e-09 6.050998e-09 8.596778e-10 -1.052365e-09
1.703463e-08 -5.321764e-09 -2.836666e-09 6.031250e-09 7.608899e-10 -9.275926e-10
1.729552e-08 -5.271158e-09 -3.045459e-09 5.785908e-09 9.357151e-10 -9.064325e-10
1.636554e-08 -4.775779e-09 -2.649735e-09 6.720007e-09 4.823966e-10 -1.534450e-09
1.598022e-08 -4.716126e-09 -2.279992e-09 6.473857e-09 3.264290e-10 -1.121733e-09
1.690347e-08 -5.333030e-09 -2.316511e-09 6.351338e-09 4.908038e-10 -1.172133e-09
1.987775e-08 -6.644688e-09 -2.764757e-09 5.226712e-09 8.564007e-10 -1.110068e-09
2.042531e-08 -6.805087e-09 -2.868679e-09 4.857092e-09 7.168427e-10 -1.588160e-09
1.936296e-08 -6.793384e-09 -2.900726e-09 4.317295e-09 6.783081e-10 -1.841978e-09
1.980496e-08 -6.843481e-09 -2.648024e-09 4.471179e-09 6.854625e-10 -1.382213e-09
2.050685e-08 -6.512692e-09 -2.813570e-09 5.663545e-09 7.885098e-10 -1.596214e-09
2.059051e-08 -6.778353e-09 -2.842016e-09 4.975726e-09 6.896633e-10 -1.727507e-09
2.058899e-08 -6.807482e-09 -2.648545e-09 4.955622e-09 6.741110e-10 -1.688301e-09
2.061256e-08 -6.905435e-09 -2.556078e-09 5.004890e-09 5.616271e-10 -1.735243e-09
1.891532e-08 -5.486791e-09 -2.643641e-09 6.598473e-09 4.035224e-10 -1.999567e-09
1.986268e-08 -5.429970e-09 -2.646007e-09 6.857714e-09 4.776779e-10 -1.814007e-09
1.836089e-08 -5.266957e-09 -2.653169e-09 6.837398e-09 4.135755e-10 -2.026685e-09
1.747835e-08 -5.238216e-09 -1.951161e-09 7.274788e-09 1.972026e-10 -2.676037e-09
1.713099e-08 -5.517252e-09 -3.081960e-09 6.153741e-09 6.870679e-10 -1.079153e-09
1.713858e-08 -5.485720e-09 -3.028834e-09 6.196468e-09 8.339445e-10 -7.019597e-10
1.766813e-08 -5.234314e-09 -2.034046e-09 6.992482e-09 3.223329e-10 -2.625607e-09
1.579073e-08 -5.237157e-09 -2.406355e-09 7.116473e-09 2.895239e-10 -1.044562e-09
1.931252e-08 -6.489390e-09 -2.502746e-09 5.195035e-09 6.116249e-10 -1.349285e-09
1.923693e-08 -6.833326e-09 -2.520269e-09 4.438899e-09 5.339476e-10 -1.525789e-09
1.944783e-08 -6.963984e-09 -2.312547e-09 4.645121e-09 4.401145e-10 -1.761833e-09
1.907407e-08 -6.569499e-09 -2.235971e-09 4.773845e-09 7.149431e-11 -1.548389e-09
2.026225e-08 -5.713895e-09 -2.622564e-09 6.536484e-09 3.502916e-10 -2.167473e-09
1.888763e-08 -5.697115e-09 -2.449038e-09 6.503541e-09 4.565288e-10 -2.031804e-09
2.013484e-08 -5.700928e-09 -2.916056e-09 6.452659e-09 5.770062e-10 -1.945036e-09
1.996462e-08 -5.712142e-09 -2.947967e-09 6.513180e-09 5.469021e-10 -1.870025e-09
1.995837e-08 -5.738554e-09 -2.159471e-09 6.701383e-09 3.420921e-10 -2.191754e-09
1.876744e-08 -5.500098e-09 -2.044276e-09 7.035844e-09 1.725189e-10 -2.524231e-09
1.923868e-08 -5.412169e-09 -2.105070e-09 7.394779e-09 8.674971e-11 -3.253279e-09
1.834719e-08 -5.285502e-09 -2.605583e-09 6.276352e-09 4.930863e-10 -2.186983e-09
1.796520e-08 -5.028983e-09 -2.601436e-09 6.648233e-09 5.257100e-10 -2.140387e-09
1.802820e-08 -4.850468e-09 -2.467022e-09 6.969991e-09 2.936560e-10 -2.264618e-09
1.759524e-08 -4.925920e-09 -2.114989e-09 7.473007e-09 1.752000e-10 -2.728403e-09
2.044991e-08 -6.540789e-09 -3.003759e-09 5.739391e-09 9.728893e-10 -1.705707e-09
2.028518e-08 -6.498505e-09 -2.676869e-09 5.730439e-09 8.435529e-10 -1.785328e-09
1.994750e-08 -6.516666e-09 -2.521517e-09 5.595405e-09 8.643581e-10 -1.285074e-09
2.058978e-08 -6.763771e-09 -2.654520e-09 5.288151e-09 6.305889e-10 -1.876237e-09
1.877026e-08 -6.572147e-09 -2.391230e-09 4.809941e-09 6.245584e-10 -9.124128e-10
1.916529e-08 -6.773161e-09 -2.452276e-09 4.410857e-09 4.693388e-10 -1.484841e-09
1.896995e-08 -6.769097e-09 -2.299290e-09 4.629415e-09 2.225586e-10 -1.443495e-09
1.876768e-08 -6.719168e-09 -2.307772e-09 3.869714e-09 3.950523e-10 -1.401859e-09
2.182735e-08 -6.457118e-09 -2.620635e-09 4.944287e-09 5.933439e-10 -2.283272e-09
2.034497e-08 -6.623387e-09 -2.698874e-09 5.073122e-09 9.376225e-10 -1.300612e-09
2.019313e-08 -6.443933e-09 -2.945109e-09 4.924977e-09 6.135871e-10 -1.544083e-09
2.028357e-08 -6.470757e-09 -2.916465e-09 5.091654e-09 7.557356e-10 -1.488970e-09
2.115567e-08 -6.783165e-09 -2.579557e-09 4.181818e-09 7.373943e-10 -2.633407e-09
2.145590e-08 -6.835642e-09 -2.308818e-09 4.357352e-09 7.376428e-10 -2.144092e-09
2.025795e-08 -6.444459e-09 -2.289466e-09 4.671159e-09 8.465924e-10 -1.930462e-09
1.697188e-08 -5.189433e-09 -3.099519e-09 5.913022e-09 8.156317e-10 -1.324664e-09
1.740385e-08 -4.778801e-09 -2.914525e-09 6.676947e-09 5.289458e-10 -1.735561e-09
1.528802e-08 -4.732461e-09 -2.518450e-09 6.583601e-09 3.934273e-10 -1.531369e-09
1.770248e-08 -4.779953e-09 -2.310908e-09 7.117419e-09 3.684899e-10 -2.613631e-09
1.946049e-08 -6.462156e-09 -2.542468e-09 5.301905e-09 7.457061e-10 -1.258951e-09
1.867888e-08 -6.437660e-09 -2.233889e-09 5.358481e-09 6.575462e-10 -1.373532e-09
1.923636e-08 -6.722858e-09 -2.315663e-09 4.820757e-09 4.790979e-10 -1.252028e-09
1.996235e-08 -6.714846e-09 -2.321721e-09 5.107718e-09 4.733714e-10 -1.768553e-09
2.199797e-08 -5.743427e-09 -3.218515e-09 6.383695e-09 5.117136e-10 -2.582260e-09
2.373415e-08 -5.885355e-09 -3.292344e-09 6.255244e-09 7.170730e-10 -3.221672e-09
2.301083e-08 -5.782267e-09 -3.692355e-09 6.505574e-09 6.668430e-10 -2.618066e-09
2.367936e-08 -5.738686e-09 -3.494270e-09 6.269985e-09 8.816389e-10 -3.057642e-09
2.224366e-08 -5.085547e-09 -2.399801e-09 7.736905e-09 -2.350987e-11 -4.220789e-09
2.164178e-08 -5.138780e-09 -2.697091e-09 7.299718e-09 1.023967e-10 -3.225658e-09
2.227627e-08 -5.795238e-09 -2.696488e-09 7.381692e-09 1.316978e-10 -3.194220e-09
2.350974e-08 -6.540972e-09 -3.080510e-09 4.863498e-09 6.542066e-10 -3.159647e-09
2.528297e-08 -6.694207e-09 -2.707210e-09 4.695962e-09 8.866810e-10 -4.576114e-09
2.347247e-08 -6.696160e-09 -3.118904e-09 4.779674e-09 5.488988e-10 -3.200261e-09
2.373775e-08 -6.721543e-09 -3.502040e-09 4.930329e-09 6.790744e-10 -3.398589e-09
2.372301e-08 -6.704761e-09 -1.633829e-09 4.162598e-09 1.175676e-09 -4.887303e-09
2.399127e-08 -6.533942e-09 -2.343945e-09 3.934337e-09 9.892969e-10 -4.821499e-09
2.418814e-08 -6.736489e-09 -2.622448e-09 3.984940e-09 6.751281e-10 -4.533859e-09
2.872974e-08 -7.714896e-09 -3.308937e-09 6.070121e-09 -1.257164e-10 -6.325887e-09
2.695683e-08 -7.662116e-09 -2.597103e-09 5.577441e-09 5.076257e-10 -5.786949e-09
2.765513e-08 -7.777723e-09 -3.506614e-09 5.540074e-09 1.254558e-10 -5.862057e-09
2.710891e-08 -7.793977e-09 -3.395205e-09 5.651360e-09 9.827660e-11 -5.859915e-09
2.710057e-08 -7.816633e-09 -2.577026e-09 5.711983e-09 -7.955366e-12 -6.025707e-09
2.653460e-08 -7.953619e-09 -1.496357e-09 5.997749e-09 2.895560e-10 -6.418123e-09
2.777044e-08 -7.800944e-09 -1.237915e-09 5.548029e-09 5.027705e-10 -6.987063e-09
2.426344e-08 -6.063800e-09 -3.038948e-09 5.764898e-09 1.269716e-09 -4.380052e-09
2.436978e-08 -6.059117e-09 -3.016722e-09 5.667688e-09 1.469774e-09 -4.496210e-09
2.435714e-08 -5.852602e-09 -2.963366e-09 5.730584e-09 1.151085e-09 -4.711323e-09
2.355253e-08 -6.415528e-09 -2.176689e-09 6.411205e-09 1.191161e-09 -4.639525e-09
2.497564e-08 -6.074860e-09 -2.964053e-09 5.766646e-09 1.249259e-09 -4.660228e-09
2.491370e-08 -6.081446e-09 -3.125747e-09 5.646939e-09 1.420317e-09 -4.559366e-09
2.389253e-08 -6.322212e-09 -2.267392e-09 6.190316e-09 1.257789e-09 -4.638225e-09
2.359043e-08 -5.171724e-09 -2.396990e-09 6.448215e-09 1.512866e-09 -4.839885e-09
2.504615e-08 -5.943937e-09 -4.039148e-09 6.450881e-09 9.266260e-10 -3.847466e-09
2.503067e-08 -5.934286e-09 -4.190498e-09 6.444794e-09 9.727990e-10 -3.961428e-09
2.566176e-08 -5.180156e-09 -3.656500e-09 7.981719e-09 3.215850e-10 -5.022343e-09
2.566889e-08 -5.271723e-09 -4.273851e-09 7.454676e-09 5.602421e-10 -3.767941e-09
2.590621e-08 -5.955365e-09 -3.911758e-09 6.455970e-09 9.071253e-10 -4.211005e-09
2.591951e-08 -5.952475e-09 -4.174080e-09 6.440388e-09 9.468071e-10 -4.186051e-09
2.498369e-08 -5.340544e-09 -4.038350e-09 7.355110e-09 6.319287e-10 -4.410631e-09
2.508474e-08 -5.147987e-09 -3.800043e-09 7.866431e-09 3.769811e-10 -4.734462e-09
2.527906e-08 -7.350263e-09 -3.217615e-09 5.369566e-09 7.463701e-10 -4.738186e-09
2.539025e-08 -7.392721e-09 -2.673129e-09 5.353484e-09 7.002115e-10 -5.019758e-09
2.468252e-08 -7.428847e-09 -2.118020e-09 5.478152e-09 1.064564e-09 -5.141010e-09
2.543202e-08 -7.386742e-09 -3.053716e-09 5.246373e-09 7.764161e-10 -4.791968e-09
2.554460e-08 -6.970330e-09 -3.119519e-09 4.760553e-09 5.487852e-10 -4.479012e-09
2.569405e-08 -7.116664e-09 -2.501155e-09 4.842329e-09 3.872915e-10 -4.783036e-09
2.524973e-08 -7.135417e-09 -2.716372e-09 4.750079e-09 4.515180e-10 -4.460365e-09
2.540549e-08 -7.082392e-09 -3.126645e-09 4.645621e-09 3.331552e-10 -4.043510e-09
2.809362e-08 -6.531079e-09 -3.178980e-09 6.520953e-09 3.005905e-10 -6.025578e-09
2.604645e-08 -6.527849e-09 -2.676958e-09 6.347308e-09 6.808124e-10 -5.279119e-09
2.765095e-08 -6.518756e-09 -3.320882e-09 6.217941e-09 6.590683e-10 -5.705984e-09
2.687561e-08 -6.510855e-09 -3.259561e-09 6.224316e-09 6.869930e-10 -5.512695e-09
2.619661e-08 -7.095474e-09 -1.726888e-09 7.351179e-09 -4.799368e-11 -6.011188e-09
2.548639e-08 -6.481590e-09 -1.778160e-09 7.293525e-09 5.152682e-11 -6.240166e-09
2.606698e-08 -5.980812e-09 -2.501862e-09 7.877019e-09 -1.102053e-10 -6.706169e-09
2.523775e-08 -7.322589e-09 -3.193534e-09 4.425442e-09 7.354834e-10 -4.284151e-09
2.537092e-08 -7.746152e-09 -2.637107e-09 4.370181e-09 6.845923e-10 -4.571806e-09
2.524838e-08 -7.384603e-09 -2.761237e-09 4.427305e-09 4.924624e-11 -4.268187e-09
2.487343e-08 -7.431453e-09 -2.487877e-09 3.008195e-09 5.747117e-10 -4.561966e-09
2.992785e-08 -7.313368e-09 -4.359569e-09 4.635235e-09 3.927971e-10 -5.578896e-09
2.768829e-08 -7.379984e-09 -3.228401e-09 4.693185e-09 8.280328e-10 -5.366348e-09
2.782108e-08 -7.326302e-09 -4.088768e-09 4.800312e-09 3.799778e-10 -5.419489e-09
2.787447e-08 -7.504753e-09 -4.097912e-09 4.766654e-09 4.330427e-10 -5.429391e-09
2.923675e-08 -7.496371e-09 -3.576404e-09 3.248338e-09 8.033263e-10 -6.495700e-09
2.801346e-08 -7.493173e-09 -3.474962e-09 3.276228e-09 8.255365e-10 -6.023800e-09
2.786027e-08 -7.655735e-09 -3.575836e-09 4.862561e-09 5.644436e-10 -5.685301e-09
3.122674e-08 -7.791767e-09 -3.697866e-09 5.714283e-09 3.204227e-10 -7.566666e-09
3.357488e-08 -8.160990e-09 -4.476779e-09 5.787749e-09 3.246747e-10 -8.447566e-09
3.082837e-08 -7.976791e-09 -3.964852e-09 5.442701e-09 8.856725e-11 -7.909466e-09
3.318012e-08 -8.184746e-09 -4.543688e-09 5.422387e-09 4.562865e-10 -8.283467e-09
3.296656e-08 -8.198820e-09 -1.929360e-09 5.524603e-09 5.217470e-10 -1.000134e-08
3.029360e-08 -8.261514e-09 -3.075876e-09 6.000221e-09 2.223047e-10 -8.244767e-09
3.084460e-08 -7.982907e-09 -3.407071e-09 5.496630e-09 -2.773658e-10 -8.005614e-09
3.048293e-08 -6.387300e-09 -4.123902e-09 6.236939e-09 2.375963e-10 -6.961613e-09
3.293695e-08 -5.814706e-09 -5.175038e-09 5.981832e-09 1.891394e-10 -7.779244e-09
3.206108e-08 -6.414272e-09 -5.031896e-09 6.273678e-09 3.977994e-10 -7.446075e-09
3.310371e-08 -6.346312e-09 -5.421484e-09 5.906294e-09 6.095873e-10 -7.595892e-09
3.107301e-08 -5.693567e-09 -3.568101e-09 8.041501e-09 -7.902522e-10 -8.956987e-09
3.024490e-08 -5.802450e-09 -3.322219e-09 7.427161e-09 -7.539353e-10 -7.927070e-09
3.054346e-08 -6.578581e-09 -3.315632e-09 7.854212e-09 -6.457759e-10 -8.094082e-09
3.249446e-08 -7.259199e-09 -4.491718e-09 4.172059e-09 5.480672e-10 -6.537638e-09
3.542844e-08 -7.195013e-09 -5.110552e-09 3.491125e-09 7.156451e-10 -7.686970e-09
3.150655e-08 -7.181230e-09 -4.320131e-09 3.558132e-09 6.935038e-10 -6.920939e-09
3.123676e-08 -7.167561e-09 -4.521083e-09 3.482003e-09 5.829663e-10 -7.176849e-09
3.122558e-08 -7.761582e-09 -4.195241e-09 3.587594e-09 5.269902e-10 -7.217024e-09
3.379267e-08 -7.724547e-09 -4.196357e-09 2.645578e-09 5.136586e-10 -6.522180e-09
3.284541e-08 -7.481587e-09 -4.028495e-09 2.121428e-09 8.365311e-10 -7.955480e-09
3.446698e-08 -7.680880e-09 -3.609926e-09 2.678147e-09 1.043543e-09 -7.967050e-09
3.149089e-08 -7.781818e-09 -3.917491e-09 3.661614e-09 6.074891e-10 -6.945299e-09
3.266567e-08 -7.722358e-09 -3.910312e-09 1.911927e-09 6.728407e-10 -7.064867e-09
3.266508e-08 -8.283976e-09 -3.334956e-09 1.514937e-09 8.600580e-10 -7.355139e-09
3.929306e-08 -6.843975e-09 -4.040166e-09 5.251900e-09 -3.072751e-10 -1.212873e-08
3.591449e-08 -6.765131e-09 -3.292910e-09 5.605026e-09 -4.034818e-10 -1.045554e-08
3.966865e-08 -6.793891e-09 -4.298183e-09 5.530785e-09 -1.378888e-10 -1.217459e-08
3.700728e-08 -6.793021e-09 -4.892191e-09 5.672535e-09 -1.919852e-10 -1.089212e-08
3.681621e-08 -6.612326e-09 -2.251346e-09 6.432941e-09 -1.120324e-09 -1.211214e-08
3.685285e-08 -6.854443e-09 -2.480303e-09 6.576108e-09 -8.801232e-10 -1.228783e-08
3.809572e-08 -7.075242e-09 -2.002222e-09 7.359844e-09 -7.210984e-10 -1.439669e-08
3.673381e-08 -6.434272e-09 -3.487000e-09 6.293158e-09 -5.014260e-10 -1.102871e-08
3.650510e-08 -6.408339e-09 -3.632842e-09 6.375482e-09 -4.745409e-10 -1.123513e-08
3.661355e-08 -6.546696e-09 -3.858577e-09 6.520680e-09 -2.692022e-10 -1.159418e-08
3.396632e-08 -6.498836e-09 -8.313847e-10 8.360620e-09 -1.241361e-09 -1.394036e-08
3.636176e-08 -8.231143e-09 -4.623969e-09 4.537232e-09 9.634594e-10 -9.691898e-09
3.591618e-08 -8.123325e-09 -1.427987e-09 4.468519e-09 4.468518e-11 -1.061216e-08
3.639126e-08 -8.569955e-09 -3.667858e-09 4.659934e-09 1.055312e-09 -1.120705e-08
3.645868e-08 -8.953764e-09 -2.583447e-09 4.823738e-09 1.143378e-09 -1.163411e-08
3.142880e-08 -8.230738e-09 -2.468304e-09 4.160861e-09 1.226324e-09 -9.534313e-09
2.941364e-08 -8.828399e-09 -1.657543e-09 5.228149e-09 5.445175e-10 -8.763719e-09
3.148929e-08 -8.149756e-09 -2.699016e-09 4.054780e-09 8.314268e-10 -8.605672e-09
3.236370e-08 -8.250414e-09 -2.827678e-09 3.747559e-09 5.336730e-10 -8.347022e-09
3.039115e-08 -8.864575e-09 -6.739338e-10 5.094203e-09 5.707570e-10 -9.882037e-09
2.978457e-08 -7.927304e-09 -2.919682e-09 4.390070e-09 4.984453e-10 -7.846897e-09
3.002387e-08 -8.372438e-09 -3.132079e-09 4.597263e-09 8.747627e-11 -7.418802e-09
3.303061e-08 -8.930724e-09 -1.755675e-09 5.331963e-09 2.618048e-10 -9.895042e-09
2.974064e-08 -8.931739e-09 -2.589932e-09 5.389955e-09 2.324609e-10 -8.199164e-09
3.201241e-08 -6.619226e-09 -4.644733e-09 5.032622e-09 2.212111e-10 -8.642490e-09
3.201639e-08 -6.601338e-09 -5.149036e-09 5.041722e-09 4.084235e-10 -8.587444e-09
3.324747e-08 -6.525225e-09 -1.422293e-09 7.073467e-09 -5.388876e-10 -1.320106e-08
2.909747e-08 -6.526091e-09 -3.213252e-09 7.009999e-09 -4.609610e-10 -9.107989e-09
3.664376e-08 -5.951693e-09 -3.973951e-09 6.404328e-09 -7.214237e-10 -1.134000e-08
3.661849e-08 -6.476223e-09 -3.827094e-09 6.549478e-09 -2.220751e-10 -1.157445e-08
3.707025e-08 -5.935824e-09 -3.006333e-09 8.819235e-09 -1.543228e-09 -1.244600e-08
3.611492e-08 -6.168408e-09 -1.847408e-09 9.943870e-09 -1.887617e-09 -1.351589e-08
4.213611e-08 -7.545216e-09 -4.011036e-09 2.215218e-09 7.549624e-10 -1.264738e-08
3.859512e-08 -8.016270e-09 -4.511210e-09 2.873144e-09 1.156333e-09 -9.555616e-09
3.773199e-08 -7.528966e-09 -5.220021e-09 2.285569e-09 7.338056e-10 -1.032600e-08
3.785817e-08 -7.573420e-09 -4.867707e-09 2.562734e-09 9.637351e-10 -1.006888e-08
3.962185e-08 -8.059647e-09 -3.372552e-09 6.903327e-10 1.405289e-09 -1.249356e-08
4.004832e-08 -8.260145e-09 -3.191442e-09 8.913606e-10 1.217952e-09 -1.183279e-08
3.785069e-08 -7.690088e-09 -3.206238e-09 1.606720e-09 1.327439e-09 -1.136239e-08
3.228420e-08 -5.717943e-09 -5.681172e-09 5.575769e-09 5.758554e-11 -8.497759e-09
3.375006e-08 -5.672198e-09 -4.926264e-09 7.797353e-09 -6.642892e-10 -9.910207e-09
2.925899e-08 -5.783326e-09 -4.135361e-09 7.363134e-09 -7.062096e-10 -9.144671e-09
3.438848e-08 -5.740161e-09 -3.001550e-09 8.823966e-09 -1.087919e-09 -1.209658e-08
3.622062e-08 -7.999149e-09 -5.055991e-09 2.858016e-09 1.164892e-09 -8.418149e-09
3.512440e-08 -9.345966e-09 -2.828981e-09 9.936482e-10 2.165204e-09 -9.133249e-09
3.375523e-08 -8.064261e-09 -3.863231e-09 9.507064e-10 1.351262e-09 -1.056406e-08
3.548327e-08 -8.233490e-09 -3.823200e-09 1.106039e-09 1.210747e-09 -9.893673e-09
3.427500e-08 -7.924308e-09 -3.459231e-09 2.459652e-09 7.021473e-10 -8.222445e-09
3.408662e-08 -8.071639e-09 -3.586220e-09 2.704006e-09 -7.929592e-11 -7.859886e-09
3.339881e-08 -7.930504e-09 -2.563273e-09 1.158201e-10 9.222824e-10 -8.536249e-09
3.385398e-08 -8.529224e-09 -2.662227e-09 1.795155e-09 5.988794e-10 -8.254607e-09
4.340108e-08 -6.847369e-09 -4.926158e-09 3.880070e-09 3.899035e-11 -1.425066e-08
4.780036e-08 -6.653391e-09 -4.656854e-09 2.828946e-09 -3.830659e-10 -1.746298e-08
4.425153e-08 -6.858050e-09 -6.292013e-09 3.882276e-09 1.882226e-10 -1.506365e-08
4.873956e-08 -6.811570e-09 -5.487936e-09 3.424313e-09 4.066995e-10 -1.728964e-08
4.561260e-08 -7.082956e-09 3.145751e-10 6.996370e-09 -1.601432e-09 -2.097173e-08
4.326088e-08 -6.754380e-09 -1.889666e-09 5.481307e-09 -1.546396e-09 -1.667924e-08
4.193347e-08 -6.765114e-09 -1.754104e-09 5.947207e-09 -1.724259e-09 -1.659125e-08
4.617272e-08 -7.711502e-09 -4.714531e-09 9.598263e-10 1.571227e-09 -1.515681e-08
5.080328e-08 -7.880368e-09 -2.980187e-09 -2.702436e-10 2.009687e-09 -1.970771e-08
4.469404e-08 -7.874568e-09 -4.289950e-09 -6.641069e-11 1.739984e-09 -1.582220e-08
4.643233e-08 -7.883289e-09 -5.627768e-09 -7.953415e-11 1.857547e-09 -1.630430e-08
4.628082e-08 -7.876878e-09 -1.160235e-09 -1.333211e-09 3.114169e-09 -1.846780e-08
4.611574e-08 -7.862691e-09 -2.326832e-09 -1.268811e-09 2.434509e-09 -1.762525e-08
4.592037e-08 -7.945347e-09 -2.727305e-09 -1.427844e-09 2.252245e-09 -1.798853e-08
4.809435e-08 -7.435261e-09 -4.044582e-09 1.984857e-09 8.819975e-10 -2.239971e-08
4.876160e-08 -7.541413e-09 8.844260e-10 2.520617e-09 8.514190e-10 -2.632541e-08
4.942615e-08 -8.650298e-09 1.144002e-09 2.271191e-09 -6.194291e-11 -2.567692e-08
4.685104e-08 -9.284118e-09 1.081012e-09 4.805306e-09 3.708397e-10 -2.608170e-08
5.554321e-08 -7.210092e-09 -2.346842e-09 1.530626e-09 -3.364950e-10 -2.681111e-08
5.035920e-08 -7.401026e-09 -3.768496e-09 3.274307e-09 7.123303e-10 -2.367644e-08
5.467683e-08 -7.725539e-09 -4.162548e-09 8.334353e-10 6.774343e-10 -2.532263e-08
4.863478e-08 -7.622618e-09 -4.182482e-09 2.276775e-09 3.028913e-10 -2.454620e-08
4.852271e-08 -7.696705e-09 1.459121e-09 2.155100e-09 -8.613454e-10 -2.500884e-08
4.635779e-08 -9.426016e-09 1.250233e-09 4.520037e-09 4.160466e-10 -2.586943e-08
5.179776e-08 -7.976081e-09 1.169315e-09 1.683391e-09 1.847698e-09 -2.907508e-08
4.821338e-08 -6.600586e-09 -7.671474e-09 2.565232e-09 -3.557886e-10 -1.925388e-08
5.217149e-08 -7.006410e-09 -6.001190e-09 6.287745e-09 -1.424024e-09 -2.252379e-08
5.034989e-08 -6.777928e-09 -5.357576e-09 5.213236e-09 -1.832204e-09 -1.983708e-08
4.565552e-08 -7.464761e-09 -3.124044e-09 7.510489e-09 -2.041117e-09 -2.175875e-08
5.012550e-08 -8.753299e-09 -2.733420e-09 -1.046823e-09 1.510011e-09 -2.023572e-08
4.815114e-08 -8.823450e-09 -2.792349e-09 -1.562226e-09 1.717709e-09 -1.971358e-08
4.718867e-08 -9.094584e-09 -4.062299e-09 -1.042116e-09 8.699826e-10 -1.786682e-08
4.794505e-08 -9.846912e-09 3.271726e-10 -1.571606e-09 1.649372e-09 -1.974057e-08
5.230621e-08 -6.644066e-09 -3.117546e-09 -1.774616e-10 1.738434e-09 -2.473442e-08
4.870323e-08 -7.033657e-09 -5.242920e-10 2.229613e-09 3.593846e-10 -2.539186e-08
4.755970e-08 -7.368869e-09 -6.300603e-10 3.550649e-09 6.149734e-10 -2.579744e-08
5.174464e-08 -6.716910e-09 -2.639265e-10 8.089162e-10 2.691195e-09 -2.775557e-08
4.731815e-08 -6.889743e-09 -3.921167e-09 -2.161566e-09 2.211393e-09 -1.840949e-08
4.616545e-08 -6.896126e-09 -4.077756e-09 -8.656423e-10 3.287683e-10 -1.751751e-08
4.487204e-08 -6.617749e-09 -1.062439e-09 -5.731769e-09 3.259314e-09 -1.971676e-08
4.310163e-08 -7.714626e-09 -1.439205e-09 -3.499382e-09 2.325651e-09 -1.673998e-08
5.099609e-08 -8.875956e-09 -5.227386e-09 -2.091208e-10 2.314898e-09 -2.144603e-08
5.071084e-08 -8.875261e-09 -4.110163e-09 -2.825380e-10 2.242042e-09 -2.099050e-08
5.087071e-08 -9.799861e-09 -2.241079e-09 -6.503856e-10 1.979775e-09 -2.186629e-08
4.942192e-08 -9.799802e-09 -1.827499e-09 -6.350379e-10 2.008377e-09 -2.298051e-08
4.959807e-08 -6.969527e-09 -7.166895e-09 -1.745001e-09 2.779004e-09 -1.949418e-08
4.893067e-08 -6.696368e-09 -6.118981e-09 -5.392667e-09 3.909139e-09 -2.120170e-08
4.744038e-08 -7.935390e-09 -5.831602e-09 -3.893747e-09 2.922900e-09 -1.873220e-08
4.832035e-08 -7.827408e-09 -5.650185e-09 -3.560217e-09 3.068642e-09 -1.823412e-08
5.739925e-08 -6.867180e-09 -6.530837e-09 3.279495e-09 -2.930765e-10 -2.300299e-08
5.789529e-08 -9.317774e-09 -1.083419e-09 8.383369e-09 -1.354577e-09 -2.746947e-08
5.426545e-08 -7.326969e-09 -5.251448e-09 6.901168e-09 -1.652907e-09 -2.389415e-08
5.541815e-08 -7.319178e-09 -5.413883e-09 7.538026e-09 -1.553769e-09 -2.430424e-08
5.623409e-08 -7.452816e-09 -7.052526e-10 8.423191e-09 -2.447447e-09 -2.683259e-08
5.725992e-08 -8.840150e-09 -5.717025e-10 3.875176e-09 1.300681e-10 -2.816034e-08
5.803607e-08 -7.407976e-09 -1.646226e-09 7.800122e-09 -1.932204e-09 -2.745901e-08
5.031249e-08 -7.201927e-09 -1.075272e-09 5.949093e-09 -5.531295e-10 -2.442100e-08
5.846237e-08 -7.663778e-09 -1.791407e-09 5.133757e-09 6.575049e-10 -2.713799e-08
4.696708e-08 -7.221307e-09 -4.453140e-09 1.353017e-10 1.091636e-09 -2.097025e-08
4.664787e-08 -7.244777e-09 -3.501454e-09 1.110351e-11 1.105635e-09 -2.032649e-08
4.169926e-08 -8.513936e-09 -1.707826e-09 1.756935e-09 2.537532e-10 -2.098264e-08
4.159418e-08 -7.516253e-09 -1.287376e-09 1.194171e-09 1.439186e-09 -2.229743e-08
5.667236e-08 -6.733717e-09 -9.582751e-10 1.565151e-10 8.234281e-10 -2.813962e-08
5.271795e-08 -6.046067e-09 -3.305720e-09 3.237532e-10 1.644319e-09 -2.485450e-08
5.745664e-08 -6.225622e-09 -1.413458e-09 8.841112e-10 1.275154e-09 -2.796258e-08
5.475505e-08 -6.089194e-09 -3.562454e-09 4.091238e-10 1.766597e-09 -2.554205e-08
5.054767e-08 -8.583509e-09 5.102099e-10 5.440195e-09 3.011535e-10 -2.799987e-08
5.618667e-08 -8.125990e-09 2.018148e-09 3.386834e-09 1.781208e-09 -3.121735e-08
5.536378e-08 -6.680399e-09 -1.172082e-10 3.335666e-09 7.072193e-10 -2.962401e-08
5.938316e-08 -5.732984e-09 -5.485602e-09 -3.110534e-09 2.122184e-09 -2.572254e-08
5.463694e-08 -7.021412e-09 -6.677366e-09 -1.614183e-09 2.875767e-09 -2.163472e-08
5.263842e-08 -5.639804e-09 -6.945232e-09 -3.436235e-09 2.135955e-09 -2.237618e-08
5.245722e-08 -5.777144e-09 -6.871539e-09 -2.557443e-09 2.914817e-09 -2.241641e-08
5.446897e-08 -6.859459e-09 -5.390863e-09 -4.575732e-09 3.978811e-09 -2.425230e-08
5.548575e-08 -8.209310e-09 -3.830893e-09 -4.430884e-09 3.265634e-09 -2.276179e-08
5.284510e-08 -7.589897e-09 -3.891606e-09 -3.588680e-09 3.521113e-09 -2.320736e-08
5.952873e-08 -8.431068e-09 -2.711709e-09 1.184730e-09 4.237881e-10 -3.168864e-08
6.546791e-08 -7.480385e-09 -3.022834e-09 -1.941918e-09 1.135588e-10 -3.534852e-08
5.850121e-08 -8.870433e-09 -3.853619e-09 3.824866e-10 -2.854592e-10 -3.294748e-08
6.728953e-08 -8.891379e-09 -2.408936e-09 -2.682844e-09 1.136967e-09 -3.654262e-08
6.322945e-08 -9.567187e-09 7.160611e-09 -4.446291e-10 1.056837e-09 -4.194430e-08
5.687627e-08 -1.095176e-08 5.087247e-09 2.663104e-09 -9.852459e-10 -3.659660e-08
5.853763e-08 -8.730556e-09 4.938409e-09 5.688923e-10 -1.791309e-09 -3.620837e-08
6.185570e-08 -6.134665e-09 -1.698925e-09 -1.939710e-09 1.968891e-09 -3.401803e-08
6.665579e-08 -4.244165e-09 -2.918368e-09 -3.996362e-09 1.751131e-09 -3.667835e-08
6.706237e-08 -6.015767e-09 -2.658513e-09 -2.767671e-09 2.160873e-09 -3.619727e-08
6.963570e-08 -6.085634e-09 -2.590113e-09 -2.589573e-09 1.763017e-09 -3.784124e-08
6.443715e-08 -6.825290e-09 4.315970e-10 3.413143e-09 -1.046220e-09 -3.945176e-08
6.426398e-08 -7.699354e-09 3.592572e-09 2.978242e-09 -8.722804e-10 -3.973682e-08
5.925354e-08 -8.377199e-09 1.500172e-09 5.321862e-09 -2.596854e-09 -3.643842e-08
6.511608e-08 -4.735441e-09 -5.973385e-09 -5.912658e-09 2.881649e-09 -3.013345e-08
7.081018e-08 -3.634660e-09 -4.360342e-09 -8.797499e-09 3.681352e-09 -3.605453e-08
6.037685e-08 -3.606056e-09 -5.006541e-09 -8.568065e-09 4.558074e-09 -2.998714e-08
6.246127e-08 -3.478899e-09 -7.381672e-09 -9.457204e-09 4.144227e-09 -3.101540e-08
6.339628e-08 -5.738879e-09 -2.039566e-09 -1.118171e-08 6.284164e-09 -3.345502e-08
6.218465e-08 -5.720579e-09 -3.270685e-09 -1.059687e-08 3.909339e-09 -3.087739e-08
6.187346e-08 -4.035341e-09 -4.184152e-09 -1.015321e-08 4.997352e-09 -3.142257e-08
7.116755e-08 -1.230876e-09 -8.055530e-09 -1.256725e-08 8.115691e-09 -4.096002e-08
7.033655e-08 -2.829694e-09 -3.387755e-09 -1.441495e-08 8.873677e-09 -4.264472e-08
5.964812e-08 -2.162137e-09 -5.586185e-09 -1.045361e-08 7.348215e-09 -3.775501e-08
6.462464e-08 5.213610e-10 -3.885047e-09 -2.073769e-08 1.068960e-08 -4.135753e-08
6.658299e-08 -4.626042e-10 -7.065150e-09 -8.906047e-09 5.810842e-09 -4.051910e-08
6.425246e-08 -1.545614e-09 -7.713293e-10 -1.076129e-08 5.888237e-09 -4.269721e-08
6.420201e-08 -3.212036e-09 -4.770139e-09 -1.035918e-08 8.561691e-09 -4.345860e-08
6.075297e-08 -2.931706e-09 -5.733575e-09 -1.097670e-08 7.698538e-09 -3.738402e-08
7.446296e-08 -4.151146e-09 -4.915116e-09 -4.848554e-09 2.636149e-09 -4.475711e-08
6.838292e-08 -6.956406e-09 -1.514690e-09 3.795751e-09 -6.511906e-11 -4.754066e-08
6.836803e-08 -7.774332e-09 4.077569e-09 3.953898e-09 -6.455622e-10 -4.712152e-08
6.669817e-08 -6.690119e-09 3.607654e-09 3.699774e-09 -1.142272e-10 -4.836989e-08
7.754691e-08 -2.875340e-09 -1.533390e-09 -1.074278e-08 4.459195e-09 -5.092715e-08
7.509740e-08 -1.440164e-09 -3.934013e-09 -8.036551e-09 5.909581e-09 -4.600821e-08
7.774137e-08 -3.063370e-09 -2.982297e-09 -1.063852e-08 5.803222e-09 -5.023780e-08
7.027958e-08 -2.554712e-09 -2.940157e-09 -1.082353e-08 5.434328e-09 -4.880092e-08
6.975779e-08 -2.697878e-09 3.055247e-09 -1.053026e-08 5.127284e-09 -4.744705e-08
6.737334e-08 -3.154163e-09 2.794656e-09 -9.064867e-09 6.063770e-09 -4.849059e-08
7.818974e-08 -2.958791e-09 5.336774e-09 -1.115886e-08 6.768691e-09 -5.616924e-08
8.325115e-08 -4.489229e-09 -4.623847e-09 -3.786112e-09 8.576943e-10 -4.998419e-08
8.388556e-08 -7.141274e-09 -4.182641e-09 -3.908176e-09 8.632530e-10 -4.945253e-08
8.557203e-08 -7.306942e-09 1.814671e-09 4.455063e-09 -1.766308e-09 -5.895292e-08
8.488747e-08 -7.057630e-09 4.774157e-09 5.168330e-09 -2.800712e-09 -6.000685e-08
8.465058e-08 2.701295e-11 -6.194854e-09 -1.936644e-08 8.962658e-09 -4.962006e-08
8.061944e-08 -1.011264e-09 -5.915582e-09 -1.433339e-08 9.040977e-09 -4.551062e-08
7.362762e-08 -3.842854e-11 -6.661379e-09 -1.851691e-08 8.652577e-09 -4.566854e-08
7.724986e-08 -2.451805e-09 -5.588807e-09 -1.708200e-08 8.422354e-09 -4.774490e-08
7.607352e-08 5.539593e-10 -1.262757e-09 -2.139557e-08 1.112301e-08 -5.014989e-08
7.147829e-08 5.472340e-10 -9.465305e-10 -2.117188e-08 1.106293e-08 -4.659358e-08
7.561537e-08 -3.053506e-09 -1.220725e-09 -1.574553e-08 9.158195e-09 -4.672834e-08
7.266321e-08 -7.576039e-09 -8.564154e-09 -1.975113e-09 -9.027824e-10 -4.185670e-08
7.102508e-08 -9.295360e-09 5.124873e-09 1.011366e-09 -4.232649e-10 -4.969410e-08
6.861873e-08 -1.120598e-08 -3.175210e-11 3.791519e-09 -3.604492e-09 -4.410952e-08
7.070482e-08 -1.008749e-08 2.864506e-09 5.049609e-10 -1.762122e-09 -5.054704e-08
6.253603e-08 -1.076266e-09 -2.707869e-09 -1.320852e-08 7.176088e-09 -3.503975e-08
6.043288e-08 -2.147380e-09 -1.948290e-09 -1.060820e-08 7.034957e-09 -3.288721e-08
5.996974e-08 -1.187987e-09 -3.341245e-09 -1.030166e-08 3.792059e-09 -3.129052e-08
5.728008e-08 5.053963e-10 1.938714e-09 -2.034706e-08 1.011864e-08 -3.500872e-08
8.144946e-08 -4.530338e-09 1.351326e-09 -1.475700e-08 5.443432e-09 -5.541943e-08
7.619936e-08 -4.337337e-09 -6.007600e-09 -8.629123e-09 3.416731e-09 -4.681354e-08
8.216073e-08 -4.569806e-09 -1.393370e-10 -1.427721e-08 6.496298e-09 -5.502612e-08
8.955366e-08 -4.398527e-09 -7.382791e-09 -9.080942e-09 3.930390e-09 -5.002180e-08
7.845479e-08 -5.848892e-09 3.069114e-09 -1.060804e-08 4.116341e-09 -5.541553e-08
7.700160e-08 -6.500708e-09 1.951517e-09 -2.863315e-09 -5.620453e-10 -5.404938e-08
8.468275e-08 -6.533184e-09 -3.691507e-09 -3.135616e-09 -1.338087e-10 -5.026012e-08
7.990134e-08 -3.135325e-09 7.649379e-09 -1.584995e-08 7.161356e-09 -6.055564e-08
8.301850e-08 -3.133138e-10 1.244890e-08 -2.252065e-08 7.238508e-09 -6.615358e-08
7.216681e-08 -3.458738e-09 9.712399e-09 -2.038269e-08 8.505557e-09 -6.237571e-08
8.867302e-08 -3.848652e-09 9.699550e-09 -2.451513e-08 1.105437e-08 -6.704772e-08
8.550338e-08 -3.831046e-09 2.353773e-08 -2.451781e-08 1.192684e-08 -7.683436e-08
7.422273e-08 -4.911403e-09 1.678273e-08 -1.955945e-08 9.174471e-09 -6.248462e-08
7.246286e-08 -3.577131e-09 2.222183e-08 -2.060637e-08 6.480538e-09 -6.038084e-08
8.671644e-08 6.440460e-10 5.764075e-10 -2.434478e-08 1.025939e-08 -5.665499e-08
8.744777e-08 4.428852e-09 5.297088e-09 -2.855047e-08 1.145056e-08 -6.557049e-08
7.568557e-08 4.725241e-09 4.848474e-09 -2.996825e-08 1.512508e-08 -5.800106e-08
7.961168e-08 5.098378e-09 4.182279e-10 -3.249109e-08 1.257931e-08 -5.770757e-08
7.892045e-08 1.404655e-09 5.045878e-09 -3.003651e-08 1.367585e-08 -5.627859e-08
7.590337e-08 -1.148047e-09 6.310486e-09 -2.725563e-08 1.059259e-08 -5.316834e-08
7.380265e-08 2.280589e-09 3.673167e-09 -2.730948e-08 1.335193e-08 -5.640691e-08
8.549323e-08 -4.088775e-09 9.769296e-09 -2.191750e-08 9.925234e-09 -6.412998e-08
8.582979e-08 2.680970e-09 1.566521e-08 -2.634435e-08 1.035176e-08 -6.992240e-08
8.862015e-08 -4.089851e-09 8.899801e-09 -2.208380e-08 1.015428e-08 -6.588572e-08
9.542638e-08 -4.158886e-09 1.657778e-08 -2.214127e-08 1.015045e-08 -7.314334e-08
9.021604e-08 -3.426153e-09 2.499026e-08 -1.645308e-08 3.219108e-09 -7.383237e-08
9.155988e-08 -4.753263e-09 1.943566e-08 -1.599744e-08 5.936582e-09 -7.488704e-08
8.493018e-08 -5.333090e-09 1.884073e-08 -1.345027e-08 5.340251e-09 -7.255680e-08
9.537852e-08 8.016932e-11 2.291386e-08 -2.951018e-08 1.738413e-08 -8.579078e-08
8.519527e-08 -1.281380e-09 3.502094e-08 -2.505328e-08 1.661781e-08 -9.071492e-08
8.658333e-08 -1.276098e-09 3.661588e-08 -2.716818e-08 1.512113e-08 -8.909656e-08
1.000619e-07 -3.981766e-09 2.803196e-08 -2.968007e-08 2.166092e-08 -9.371174e-08
8.144860e-08 1.541097e-08 3.049957e-09 -4.342077e-08 2.205673e-08 -6.459545e-08
7.520951e-08 1.424244e-08 -5.865284e-09 -3.498557e-08 1.710916e-08 -5.452468e-08
5.897112e-08 2.000341e-08 8.888391e-09 -4.939240e-08 2.932641e-08 -6.093070e-08
6.170787e-08 1.871101e-08 6.268520e-09 -4.904209e-08 2.733190e-08 -5.925105e-08
7.596985e-08 2.264551e-08 1.917658e-08 -4.400279e-08 2.721583e-08 -8.382745e-08
8.188362e-08 1.463815e-08 1.112053e-08 -3.853301e-08 2.086979e-08 -7.469941e-08
7.013454e-08 2.297360e-08 1.414594e-08 -4.585524e-08 2.805123e-08 -7.774459e-08
6.699195e-08 2.287097e-08 1.748317e-08 -4.508007e-08 2.846004e-08 -7.716250e-08
6.538619e-08 1.885930e-08 1.980226e-08 -4.238372e-08 2.746811e-08 -7.576804e-08
6.680300e-08 1.617314e-08 2.230239e-08 -4.249076e-08 2.502846e-08 -7.327651e-08
6.973866e-08 1.631956e-08 2.401636e-08 -4.390202e-08 2.718514e-08 -7.615929e-08
6.571954e-08 1.477166e-08 1.788918e-08 -3.874366e-08 2.552102e-08 -6.501160e-08
5.709135e-08 1.220303e-08 7.058599e-09 -2.848222e-08 1.861146e-08 -5.325231e-08
5.925624e-08 1.561757e-08 7.494120e-09 -3.167357e-08 1.575176e-08 -5.184546e-08
5.517973e-08 1.961905e-08 1.915835e-08 -4.680363e-08 3.084109e-08 -5.624704e-08
7.150583e-08 4.993181e-10 1.822967e-08 -2.390495e-08 9.446695e-09 -6.816990e-08
7.206499e-08 1.475970e-10 2.340265e-08 -2.345945e-08 1.159662e-08 -7.542912e-08
6.737859e-08 -2.282089e-10 1.667876e-08 -1.820181e-08 9.650924e-09 -6.339691e-08
5.995329e-08 -1.066197e-09 2.261555e-08 -2.082879e-08 8.691514e-09 -6.879169e-08
1.016666e-07 2.070967e-09 5.787331e-09 -2.442630e-08 1.297145e-08 -8.363802e-08
1.073496e-07 -7.185245e-09 2.302413e-08 -1.095257e-08 7.283831e-09 -9.654870e-08
9.456710e-08 -5.536976e-10 1.263023e-08 -1.586911e-08 8.344110e-09 -8.621539e-08
8.655547e-08 -7.649203e-10 3.029634e-08 -1.769112e-08 9.675552e-09 -8.890016e-08
1.091431e-07 -1.516617e-09 1.724250e-08 -2.248562e-08 1.570536e-08 -9.377215e-08
1.012661e-07 -4.442277e-09 1.431790e-08 -1.241866e-08 6.548410e-09 -8.957850e-08
1.013667e-07 -3.250341e-09 2.875412e-08 -1.014879e-08 1.938766e-09 -9.457316e-08
1.040472e-07 -1.990703e-09 3.077184e-08 -2.619551e-08 1.796836e-08 -1.001960e-07
1.070957e-07 -4.778397e-09 2.346333e-08 -1.120318e-08 5.279476e-09 -9.692689e-08
7.609828e-08 1.816437e-08 1.920664e-08 -4.314945e-08 2.394028e-08 -8.236386e-08
8.077917e-08 9.689305e-09 1.467192e-08 -3.619101e-08 1.740870e-08 -7.321376e-08
9.171272e-08 9.398125e-09 2.723755e-08 -3.546020e-08 2.116494e-08 -9.404364e-08
6.602174e-08 9.118887e-09 1.735025e-08 -3.277854e-08 1.948438e-08 -7.802325e-08
6.643968e-08 1.625285e-08 3.378034e-08 -3.451925e-08 8.648639e-09 -7.536543e-08
7.936517e-08 1.333635e-08 2.401245e-08 -3.782087e-08 1.593949e-08 -7.898368e-08
8.958591e-08 7.798459e-09 3.264921e-08 -3.271564e-08 2.036834e-08 -9.654955e-08
6.446520e-08 3.132548e-08 3.027662e-08 -5.253613e-08 3.876687e-08 -9.116062e-08
5.046516e-08 3.632048e-08 4.047372e-08 -5.138272e-08 4.498321e-08 -9.296775e-08
4.986513e-08 3.762445e-08 4.636914e-08 -5.963498e-08 5.020438e-08 -9.377113e-08
5.551178e-08 3.747040e-08 4.179817e-08 -5.887975e-08 5.109256e-08 -9.585758e-08
5.453906e-08 2.635760e-08 4.512724e-08 -5.547432e-08 4.324417e-08 -9.265968e-08
4.470296e-08 2.913936e-08 3.351475e-08 -5.249888e-08 3.850028e-08 -8.171821e-08
4.435170e-08 3.107499e-08 3.154937e-08 -5.198529e-08 4.034223e-08 -8.257586e-08
6.582768e-08 2.993683e-08 2.967817e-08 -5.375709e-08 3.696833e-08 -9.068852e-08
5.602938e-08 4.249418e-08 4.042735e-08 -5.900580e-08 4.609226e-08 -9.530936e-08
4.990711e-08 2.897402e-08 3.595106e-08 -4.848933e-08 3.897391e-08 -9.005036e-08
7.577341e-08 2.902559e-08 5.190935e-08 -5.014106e-08 4.022332e-08 -1.103967e-07
6.992477e-08 3.098867e-08 6.523308e-08 -4.400994e-08 3.196109e-08 -1.130453e-07
5.650817e-08 3.590696e-08 3.922209e-08 -5.155782e-08 3.332229e-08 -8.944979e-08
5.141068e-08 4.222622e-08 4.017972e-08 -5.299191e-08 3.039878e-08 -8.732296e-08
4.067332e-08 2.971780e-08 6.467739e-08 -6.029705e-08 5.566152e-08 -8.819677e-08
3.942982e-08 3.121594e-08 6.381809e-08 -6.110220e-08 5.742645e-08 -8.692594e-08
3.386732e-08 3.594242e-08 5.117090e-08 -5.695101e-08 5.252682e-08 -7.845300e-08
3.400920e-08 3.318382e-08 6.772412e-08 -5.801509e-08 5.708555e-08 -8.034199e-08
4.743431e-08 4.277648e-08 4.093521e-08 -5.982409e-08 4.555258e-08 -9.614193e-08
4.452144e-08 3.001745e-08 6.932383e-08 -3.818456e-08 3.292626e-08 -1.118944e-07
4.433930e-08 3.517050e-08 4.020412e-08 -4.803642e-08 3.428205e-08 -9.081020e-08
3.877567e-08 3.783094e-08 4.592557e-08 -4.582676e-08 3.021343e-08 -9.226472e-08
1.820393e-08 6.415013e-08 3.459560e-08 -6.173249e-08 5.036317e-08 -6.159242e-08
1.245685e-08 7.207752e-08 2.235980e-08 -5.704316e-08 4.571399e-08 -5.305123e-08
1.079867e-08 7.119184e-08 4.223231e-08 -6.336389e-08 5.882319e-08 -5.590300e-08
5.069511e-09 6.106994e-08 9.178873e-09 -5.467666e-08 3.975910e-08 -3.732157e-08
6.365146e-08 3.965002e-08 7.095403e-08 -4.643713e-08 3.309917e-08 -1.193388e-07
6.705817e-08 3.831572e-08 7.345012e-08 -4.996590e-08 3.017729e-08 -1.164216e-07
7.197597e-08 2.704623e-08 1.018197e-07 -2.612167e-08 2.131087e-08 -1.418998e-07
7.297052e-08 4.294447e-08 1.071504e-07 -3.077775e-08 7.106719e-09 -1.393879e-07
-1.174687e-08 9.467493e-08 4.808119e-08 -4.344526e-08 3.640081e-08 -6.006705e-08
1.103072e-08 6.094695e-08 5.706458e-08 -4.298633e-08 4.119477e-08 -8.417157e-08
2.031957e-08 5.709468e-08 6.481091e-08 -4.883450e-08 4.274738e-08 -8.333520e-08
1.569272e-08 5.461854e-08 6.396600e-08 -4.432669e-08 4.084732e-08 -7.839469e-08
1.251042e-08 5.273084e-08 5.598229e-08 -4.183110e-08 3.209224e-08 -6.486700e-08
1.089712e-08 5.442357e-08 4.703991e-08 -4.567795e-08 2.655923e-08 -6.902277e-08
2.073467e-08 5.565344e-08 5.529470e-08 -4.924768e-08 2.993427e-08 -7.954517e-08
4.830488e-09 9.546912e-08 5.892779e-08 -6.223873e-08 4.445716e-08 -7.650886e-08
2.470357e-08 7.378750e-08 5.862449e-08 -6.119967e-08 4.725277e-08 -9.673775e-08
3.406019e-08 4.698993e-08 7.176031e-08 -5.938815e-08 4.332116e-08 -9.588491e-08
2.866450e-08 7.217825e-08 5.684617e-08 -5.406895e-08 4.895101e-08 -1.049638e-07
3.793524e-08 6.420141e-08 6.750915e-08 -6.792561e-08 4.127845e-08 -9.614321e-08
3.853896e-08 8.728713e-08 6.607208e-08 -7.218733e-08 1.998748e-08 -9.417660e-08
3.043832e-08 8.445068e-08 6.546605e-08 -5.879299e-08 3.555184e-08 -9.928824e-08
4.806459e-08 2.897910e-08 6.017065e-08 -6.099072e-08 6.110350e-08 -1.000037e-07
4.780382e-08 2.968273e-08 5.549725e-08 -6.091923e-08 6.315915e-08 -9.810294e-08
4.971636e-08 2.957299e-08 6.606770e-08 -5.979751e-08 6.558538e-08 -9.359345e-08
4.395454e-08 2.996423e-08 5.793503e-08 -5.975797e-08 6.489420e-08 -1.010071e-07
-9.308440e-09 8.130248e-08 4.043940e-08 -4.320676e-08 4.804592e-08 -6.274547e-08
1.322795e-08 6.164044e-08 4.167922e-08 -4.560823e-08 5.006595e-08 -8.617915e-08
2.291110e-08 8.481102e-08 4.305564e-08 -6.674362e-08 5.362763e-08 -7.213311e-08
-7.994612e-09 8.258599e-08 6.079152e-08 -5.140464e-08 7.117201e-08 -8.500553e-08
-2.143778e-08 6.656703e-08 4.663536e-08 -3.274167e-08 5.587605e-08 -6.911629e-08
-1.091292e-08 5.195183e-08 2.904679e-08 -3.148882e-08 3.423715e-08 -5.486660e-08
1.426400e-08 6.607419e-08 2.593507e-08 -5.036114e-08 3.571716e-08 -5.646978e-08
-2.915144e-08 1.199733e-07 4.454664e-08 -4.251960e-08 3.384660e-08 -3.990365e-08
-4.930300e-08 1.278182e-07 4.082867e-08 -2.333715e-08 4.034190e-08 -1.856289e-08
-2.670010e-08 1.139762e-07 5.135636e-08 -4.601924e-08 3.175716e-08 -3.530306e-08
-2.282476e-08 9.677993e-08 5.128178e-08 -3.541120e-08 3.490652e-08 -3.953332e-08
-1.598704e-08 9.494528e-08 7.154029e-08 -3.496763e-08 4.039463e-08 -5.681984e-08
-4.572301e-08 9.914018e-08 4.457830e-08 -3.427287e-08 4.085847e-08 -2.834630e-08
-2.680871e-08 1.097912e-07 3.197464e-08 -4.913872e-08 4.173295e-08 -2.474497e-08
-1.411357e-08 1.107286e-07 5.105460e-08 -5.734939e-08 3.835730e-08 -5.105636e-08
-3.769433e-08 1.276861e-07 6.604699e-08 -3.634448e-08 5.286762e-08 -3.722380e-08
-2.134127e-08 1.095687e-07 5.287694e-08 -5.165769e-08 4.047630e-08 -5.059781e-08
-2.768569e-08 1.064432e-07 6.179143e-08 -3.703968e-08 2.889609e-08 -5.313000e-08
-2.169011e-08 1.437286e-07 7.476862e-08 -5.207311e-08 6.782315e-09 -4.411830e-08
-1.034139e-08 1.125591e-07 6.960118e-08 -5.541072e-08 3.401467e-08 -5.596802e-08
-1.755368e-08 1.045082e-07 7.000955e-08 -4.774101e-08 3.738668e-08 -5.959469e-08
-3.193583e-08 9.697651e-08 3.726388e-08 -3.427325e-08 4.755504e-08 -4.442758e-08
-5.776226e-08 1.063454e-07 4.079367e-08 -9.057100e-09 4.211935e-08 -2.008601e-08
-3.874165e-08 1.101058e-07 5.508279e-08 -3.367232e-08 6.545511e-08 -3.690003e-08
-2.685251e-08 1.123943e-07 4.400751e-08 -4.866488e-08 4.817126e-08 -3.423774e-08
-2.647520e-08 1.195532e-07 2.722409e-08 -4.320660e-08 4.819032e-08 -2.625363e-08
-5.441253e-08 9.471886e-08 2.114105e-08 -1.670890e-08 3.165138e-08 -9.892563e-09
-5.551468e-08 1.046438e-07 2.134797e-08 -1.361998e-08 4.414087e-08 -1.166275e-08
-2.889724e-08 9.305465e-08 1.228325e-08 -4.339622e-08 3.596704e-08 -1.048861e-08
-1.946410e-08 9.666818e-08 3.613966e-08 -2.784606e-08 2.660648e-08 -4.602681e-08
-2.456550e-08 1.037669e-07 -9.693688e-09 -2.038564e-08 3.392755e-08 -1.204795e-08
-2.813152e-08 9.118017e-08 -1.304943e-09 -4.426303e-08 1.389357e-08 -9.056237e-09
-4.139522e-08 7.274189e-08 2.391738e-08 -1.128075e-08 1.096251e-08 -8.063426e-09
-2.263681e-08 1.136676e-07 3.180204e-08 -5.010814e-08 4.528936e-08 -2.118889e-08
-2.356917e-08 4.524386e-08 1.825353e-09 -1.558637e-08 -6.441782e-10 -1.777021e-09
-2.726617e-08 5.964456e-08 2.796869e-08 -2.860767e-08 1.943653e-08 -1.457323e-08
-1.202906e-08 1.012523e-07 3.290925e-09 -3.163276e-08 1.857797e-08 -3.469370e-08
-1.143405e-08 1.043154e-07 3.059916e-08 -1.969675e-08 9.430559e-09 -6.970340e-08
-6.844103e-09 8.773733e-08 6.784444e-08 -5.022999e-08 4.787849e-08 -8.657867e-08
-1.518483e-08 7.851451e-08 2.123978e-08 -4.009673e-08 2.257182e-08 -5.078792e-08
-2.818751e-08 1.385512e-07 7.104629e-09 -3.751137e-08 5.746419e-08 -8.596322e-09
-2.929622e-08 1.388780e-07 -4.106787e-08 -3.341326e-08 4.663806e-08 1.785525e-09
-1.707120e-08 1.314451e-07 -1.945873e-08 -3.676891e-08 5.089662e-08 2.188592e-08
-3.152284e-08 1.469428e-07 -4.185561e-08 -4.550728e-08 3.392290e-08 3.273539e-09
-8.905293e-08 1.746842e-07 -5.759104e-08 3.098161e-08 -2.579098e-08 7.946359e-08
-7.115272e-08 1.256906e-07 -1.733294e-08 2.441697e-08 1.368470e-08 2.388698e-08
-4.981074e-08 1.442577e-07 -1.105955e-08 -1.343541e-08 1.380241e-08 3.623936e-08
-4.545041e-08 1.122943e-07 -1.117628e-08 1.154245e-08 1.187074e-08 3.775679e-08
-4.825724e-08 1.113520e-07 -4.208444e-08 1.526118e-08 4.019032e-09 4.850282e-08
-5.798987e-08 1.433838e-07 -5.740458e-08 -2.043156e-08 -8.933511e-09 3.103426e-08
-5.044635e-08 1.455982e-07 -5.154111e-08 -2.566693e-08 -5.293173e-09 2.319275e-08
-4.884372e-08 1.552077e-07 -3.849135e-08 -9.838305e-09 -2.293209e-09 5.146338e-08
-3.625027e-08 1.342717e-07 -1.227637e-08 -1.668940e-08 2.407190e-08 9.025972e-09
-4.030447e-08 1.332518e-07 4.956490e-09 -1.181065e-08 -2.474681e-08 2.538676e-08
-1.514494e-08 1.434648e-07 -9.163984e-09 -5.981923e-08 1.698476e-08 2.163253e-08
-2.447942e-08 1.813100e-07 -3.474327e-08 -7.286827e-08 2.326380e-08 2.771231e-10
2.364675e-08 1.420499e-07 -2.862026e-08 -3.104755e-08 3.422874e-09 -1.727505e-08
-1.272506e-08 1.619058e-07 -6.304333e-08 -4.916163e-08 -1.465353e-08 5.109390e-08
-2.854777e-08 1.025560e-07 2.311343e-08 -3.126565e-08 8.245230e-09 -5.482309e-09
-7.650081e-11 8.187847e-08 7.357234e-08 -3.796366e-08 4.095764e-08 -5.084870e-08
-2.989327e-08 8.569623e-08 4.696328e-08 -3.501073e-08 4.009918e-08 -2.218066e-08
-2.126446e-08 7.887159e-08 2.831583e-08 -4.021299e-08 1.320112e-08 -9.513277e-09
-4.647905e-08 1.020418e-07 2.554022e-08 -9.352132e-09 4.361239e-08 1.109827e-08
-5.617156e-08 1.068022e-07 -5.446585e-09 -3.386833e-09 2.489860e-08 3.001455e-08
-5.539122e-08 1.150520e-07 1.323783e-09 1.463005e-10 4.287207e-08 3.284034e-08
-4.218006e-08 9.849978e-08 -1.806613e-09 -7.863412e-09 3.279117e-08 3.513286e-08
-8.951275e-09 1.200085e-07 8.625844e-09 -2.863549e-09 2.588319e-09 -5.032183e-08
1.695679e-08 1.400388e-07 1.492302e-08 -3.641782e-08 2.841307e-08 -6.498071e-08
2.268955e-08 1.336059e-07 6.004649e-08 -8.284576e-09 -2.944915e-08 -8.179810e-08
1.424218e-08 1.236508e-07 2.651075e-08 3.418122e-09 -1.045715e-08 -1.003402e-07
-1.167123e-08 1.307736e-07 3.042656e-08 -5.186633e-08 4.828774e-08 -6.116704e-08
-1.166268e-08 1.433181e-07 5.162742e-08 -5.074782e-08 1.007705e-08 -6.162798e-08
-2.055801e-08 1.092107e-07 5.755134e-08 -7.078261e-08 2.714931e-08 -9.854561e-08
-1.128543e-08 1.502715e-07 1.486694e-08 -3.943057e-08 1.314871e-08 -8.285327e-08
-5.379862e-08 1.019023e-07 2.855960e-08 -8.178325e-09 4.343942e-08 1.542847e-08
-6.316474e-08 1.381886e-07 8.239329e-09 -5.737855e-09 4.617414e-08 2.959887e-08
-6.316520e-08 1.162564e-07 3.924997e-10 -7.191489e-09 4.208657e-08 2.892208e-08
-6.378113e-08 1.106394e-07 -6.155606e-09 -9.889379e-09 2.496276e-08 2.626877e-08
1.267946e-08 9.667468e-08 2.242438e-08 3.760533e-09 2.833853e-09 -3.237818e-08
4.773606e-08 4.328080e-08 4.930781e-08 -2.405840e-08 1.739023e-09 -7.815864e-08
-4.245310e-10 1.201020e-07 2.290037e-08 -1.746136e-08 -6.339522e-09 -3.410503e-08
2.578992e-08 7.940215e-08 3.406864e-08 -5.210942e-08 1.803523e-08 -5.124189e-08
2.552860e-08 3.876205e-08 6.026841e-08 -1.011169e-08 6.820576e-09 -7.520179e-08
-1.044203e-08 6.871272e-08 1.988258e-08 -5.643099e-08 9.550301e-09 -2.814027e-08
5.994526e-08 4.553715e-08 4.136421e-08 -4.057738e-08 6.181111e-09 -6.808228e-08
1.503842e-08 9.466038e-08 4.323519e-08 -1.843003e-08 2.250858e-08 -6.168064e-08
1.587036e-08 7.811924e-08 4.548026e-08 -3.850603e-08 -6.157575e-09 -6.030104e-08
-8.913024e-08 1.249044e-07 -3.654676e-08 4.215013e-08 -2.318463e-08 8.605073e-08
-7.774273e-08 9.466064e-08 2.113198e-08 3.872539e-08 8.621856e-09 2.566679e-08
-4.248363e-08 1.307787e-07 -4.177436e-09 3.030193e-09 -5.688924e-11 4.406515e-08
-8.861168e-08 1.247389e-07 1.144664e-08 4.317996e-08 2.327564e-08 4.176409e-08
-1.049081e-07 1.050030e-07 -1.620036e-08 6.587463e-08 -5.377032e-09 6.301920e-08
-9.393915e-08 7.502593e-08 -2.428160e-08 6.152406e-08 -3.013473e-08 7.140309e-08
-4.716560e-08 1.269426e-07 -2.173618e-08 1.107641e-08 -1.388676e-08 5.322627e-08
-6.282298e-08 1.508700e-07 -9.113665e-08 3.069830e-08 -8.068969e-08 1.256354e-07
-2.016897e-09 1.333858e-07 -1.956376e-07 -5.794594e-09 -1.013501e-07 1.589909e-07
3.427373e-09 1.490241e-07 -1.216196e-07 -6.885053e-09 -1.049605e-07 1.213639e-07
1.630528e-08 1.330225e-07 -1.205890e-07 -4.544170e-09 -1.070911e-07 1.175072e-07
2.352309e-09 1.454239e-07 -1.447472e-07 -6.938578e-09 -1.177640e-07 9.764397e-08
-7.094424e-10 1.855004e-07 -1.647350e-07 -2.376661e-08 -7.793393e-08 1.054825e-07
2.263905e-09 1.505549e-07 -1.631944e-07 -5.632148e-09 -7.337065e-08 1.082581e-07
-2.611603e-08 1.263142e-07 -5.078626e-08 -5.057807e-09 -6.443484e-08 8.194584e-08
1.187666e-08 6.140987e-08 -1.226817e-07 -5.374439e-09 -1.508283e-07 1.207253e-07
9.744305e-09 1.340584e-07 -6.243407e-08 -4.238013e-08 -7.998065e-08 7.830813e-08
-1.526408e-08 1.253417e-07 -1.230293e-07 -1.211908e-09 -1.480230e-07 1.173158e-07
1.861577e-08 1.270687e-07 -1.214028e-07 -3.964405e-08 -1.497454e-07 1.469892e-07
5.027368e-08 1.008933e-07 -1.124972e-07 -2.707864e-08 -1.132857e-07 8.205557e-08
5.497041e-09 1.644461e-07 -8.378658e-08 -4.680152e-08 -7.045941e-08 6.601336e-08
-7.018837e-08 1.304182e-07 -8.761237e-08 4.352263e-08 -7.798361e-08 1.223184e-07
-2.539947e-08 1.208395e-07 -1.835486e-07 2.325745e-08 -1.247338e-07 1.637070e-07
-5.226374e-08 1.167960e-07 -9.235135e-08 4.997896e-08 -9.184345e-08 1.148705e-07
-5.399887e-09 1.221984e-07 -1.089740e-07 1.384547e-08 -1.130064e-07 1.171741e-07
-2.873788e-09 1.650259e-07 -1.424020e-07 2.824274e-09 -1.048176e-07 1.117727e-07
-5.881919e-08 9.463877e-08 -1.565426e-07 6.560969e-08 -1.369012e-07 1.402219e-07
-6.661227e-08 1.119500e-07 -1.260094e-07 6.717141e-08 -1.128662e-07 1.376457e-07
4.098322e-08 6.693682e-08 -2.330623e-07 -3.220334e-08 -1.640318e-07 6.501731e-08
6.339149e-08 1.390843e-07 -2.301838e-07 -9.695709e-08 -1.872468e-07 9.865787e-08
9.570705e-08 9.045533e-08 -1.397842e-07 -8.543125e-08 -1.307553e-07 1.132079e-08
8.641398e-08 1.806659e-07 -1.773893e-07 -1.431428e-07 -1.325446e-07 -2.924193e-08
4.346958e-08 2.909237e-07 -3.024493e-07 1.216716e-08 -1.327957e-07 1.096826e-07
3.152816e-09 3.780240e-07 -2.373167e-07 1.294704e-09 -4.203141e-08 1.174110e-07
2.422893e-08 2.411325e-07 -2.851105e-07 -1.981673e-08 -1.529687e-07 1.024932e-07
8.311403e-09 2.470328e-07 -2.765578e-07 -3.231911e-08 -1.600725e-07 1.175397e-07
1.062629e-08 2.479791e-07 -2.059510e-07 -3.843295e-08 -3.216601e-08 9.132047e-08
9.444380e-10 2.789154e-07 -2.736287e-07 -1.097005e-07 -1.111047e-07 5.686967e-08
1.885001e-08 2.433341e-07 -3.014457e-07 -2.266291e-08 -2.098213e-07 6.003061e-08
1.520141e-08 1.631624e-07 -2.504048e-07 -5.968502e-08 -1.006998e-07 9.148374e-08
2.847008e-08 1.599532e-07 -1.437888e-07 -5.314752e-08 -1.095634e-07 5.050276e-08
3.026875e-08 1.902633e-07 -1.720503e-07 -4.351977e-08 -7.188353e-08 5.274558e-08
1.497931e-08 2.300998e-07 -2.164531e-07 -1.046680e-07 -1.475072e-07 2.559123e-08
1.321004e-08 5.650627e-08 -1.945411e-07 1.694162e-08 -2.054047e-07 5.674862e-08
2.920828e-08 3.231340e-07 -2.872857e-07 -6.037986e-08 -1.046154e-07 -1.474073e-09
2.135004e-08 1.421176e-07 -4.791891e-08 -1.085045e-07 -1.636638e-07 1.855710e-08
-4.358314e-09 1.774587e-07 -6.042438e-08 -8.750098e-08 -1.905002e-07 -3.283005e-08
5.187885e-08 1.519611e-07 -2.714160e-07 3.365847e-08 -1.762409e-07 9.352194e-08
9.176050e-09 1.457060e-07 -1.827181e-07 4.624782e-08 -1.420572e-07 9.884759e-08
2.963861e-08 1.235367e-07 -2.414916e-07 7.980436e-09 -1.916473e-07 8.565565e-08
2.190161e-08 1.528042e-07 -1.937792e-07 1.314185e-08 -1.528011e-07 8.673837e-08
-1.267929e-08 1.730628e-07 -2.613409e-07 2.489674e-08 -1.932202e-07 5.418180e-08
5.580018e-09 3.589468e-07 -2.297278e-07 -4.130856e-08 -5.377259e-08 2.422341e-08
3.265373e-08 3.594147e-07 -2.778452e-07 -4.492745e-08 -5.578827e-08 3.260598e-08
-4.261567e-08 1.649192e-07 -1.885493e-07 2.894632e-08 -1.330361e-07 1.517804e-07
-3.464570e-08 1.981384e-07 -1.512806e-07 1.260082e-08 -9.677174e-08 1.335254e-07
-6.742556e-08 1.151809e-07 -1.598851e-07 6.788073e-08 -1.236110e-07 1.519755e-07
-6.309197e-08 7.571711e-08 -1.696126e-07 8.163408e-08 -1.432147e-07 1.584939e-07
2.234312e-08 1.183567e-07 -1.913954e-07 7.430844e-08 -2.112904e-07 1.514960e-07
-1.987110e-08 1.573196e-07 -1.888093e-07 7.628296e-08 -1.151868e-07 1.556306e-07
1.244630e-08 1.172126e-07 -1.904074e-07 8.195975e-08 -2.100317e-07 1.529742e-07
-1.802020e-08 6.677392e-08 -1.901034e-07 4.275583e-08 -2.040007e-07 1.577342e-07
-7.012718e-09 7.022651e-08 -2.093754e-07 1.142724e-07 -2.433251e-07 1.794439e-07
8.259451e-09 8.322180e-08 -1.733701e-07 3.119330e-08 -1.510893e-07 1.546978e-07
-2.220752e-10 2.112822e-07 -1.522425e-07 -1.842061e-08 -9.854617e-08 1.308864e-07
4.884801e-08 2.111218e-07 -3.692804e-07 1.597954e-08 -2.284899e-07 8.767010e-08
7.459773e-08 2.159950e-07 -3.821070e-07 2.435591e-08 -2.690821e-07 6.807283e-08
4.724042e-08 1.798600e-07 -3.883449e-07 5.489905e-09 -2.529058e-07 7.938190e-08
2.741824e-08 2.002212e-07 -3.838765e-07 -1.204851e-08 -2.637003e-07 8.206096e-08
7.109451e-09 2.218429e-07 -3.111514e-07 -8.122666e-09 -1.859485e-07 3.023314e-08
-1.556956e-08 2.384248e-07 -2.926043e-07 -9.189125e-09 -1.679963e-07 3.357502e-08
4.803249e-08 2.311372e-07 -3.070732e-07 -1.127355e-09 -1.468028e-07 6.861471e-08
7.882848e-08 2.023806e-07 -3.463904e-07 -1.574316e-08 -1.694488e-07 5.457585e-08
1.093680e-07 1.560412e-07 -3.358182e-07 -1.345189e-09 -2.171957e-07 2.569707e-08
4.833012e-08 2.099601e-07 -3.428554e-07 -4.868018e-08 -1.875934e-07 5.018941e-08
6.968478e-08 2.017683e-07 -3.459645e-07 -1.244673e-08 -2.118495e-07 4.576439e-08
8.630254e-08 4.544528e-07 -5.950542e-07 -8.735998e-08 -2.167416e-07 9.886821e-09
1.276966e-07 2.386089e-07 -3.010619e-07 -1.363047e-07 -8.404843e-08 -1.004323e-07
-7.372522e-09 8.037548e-08 -2.965710e-07 3.714113e-08 -1.536214e-07 1.977553e-08
3.889792e-08 1.003823e-07 -2.306165e-07 5.180587e-08 -2.697088e-07 1.168996e-07
7.805334e-08 4.997333e-08 -3.032538e-07 5.743400e-08 -2.928572e-07 1.015564e-07
6.773336e-08 5.095084e-08 -2.358128e-07 5.163651e-08 -2.981613e-07 1.347580e-07
2.949616e-08 5.053130e-08 -3.085031e-07 5.580538e-08 -2.921979e-07 8.170505e-08
3.335689e-08 2.018955e-07 -2.459013e-07 2.985627e-08 -1.888009e-07 6.615171e-08
-7.229948e-10 8.255067e-08 -1.982208e-07 1.088159e-07 -2.182280e-07 1.172070e-07
3.726985e-08 -7.786132e-09 -2.741718e-07 9.892329e-08 -3.486824e-07 1.692054e-07
7.275898e-08 1.792151e-07 -4.230275e-07 7.243043e-09 -3.087667e-07 5.301783e-08
7.490912e-08 1.592990e-07 -3.299576e-07 7.579062e-09 -2.247489e-07 2.054008e-08
3.644950e-08 1.665098e-07 -3.214627e-07 1.402271e-08 -2.165425e-07 3.398485e-08
4.530054e-08 1.433498e-07 -3.673009e-07 1.748584e-08 -2.497953e-07 4.318251e-08
7.833748e-08 6.663431e-08 -2.871512e-07 6.401035e-08 -2.762625e-07 1.071142e-07
6.338241e-08 1.509080e-07 -2.568525e-07 9.106611e-09 -2.256905e-07 7.574536e-08
4.629387e-08 -8.949136e-08 -2.897752e-07 7.346221e-08 -3.466699e-07 1.061560e-07
4.496388e-08 4.322496e-08 -2.114515e-07 6.411173e-08 -2.446597e-07 9.855831e-08
1.333014e-08 1.853067e-07 -3.986483e-07 -6.679126e-08 -3.609422e-07 5.052036e-08
9.371079e-09 1.572431e-07 -3.227482e-07 -4.811907e-08 -2.324576e-07 4.001067e-08
4.393804e-08 1.318788e-07 -3.501129e-07 -3.639485e-08 -2.625404e-07 7.214936e-08
-4.448756e-09 1.256944e-07 -3.549455e-07 -6.766347e-08 -2.933032e-07 4.411680e-08
2.286707e-08 5.664966e-08 -3.604112e-07 -7.989575e-08 -3.702774e-07 2.900094e-08
4.975817e-08 1.726687e-07 -3.283915e-07 -2.087178e-08 -2.924407e-07 6.063942e-08
1.501771e-07 -6.114765e-08 -4.065024e-07 -1.930871e-07 -4.381257e-07 6.979159e-09
1.930749e-08 2.589882e-08 -3.162932e-07 -7.873563e-08 -3.107616e-07 9.899428e-09
9.831720e-08 3.346070e-08 -2.885188e-07 6.430608e-08 -2.694657e-07 1.063472e-07
6.383493e-08 -1.442373e-08 -3.081184e-07 1.136901e-07 -3.159122e-07 1.337874e-07
6.823036e-08 -1.105878e-07 -2.427450e-07 1.239235e-07 -2.623667e-07 1.202937e-07
5.935162e-08 1.115894e-07 -2.485829e-07 1.051007e-07 -2.292894e-07 1.281084e-07
1.561695e-07 1.742013e-08 -3.326382e-07 -4.012606e-08 -3.282382e-07 -5.197707e-08
1.176541e-07 1.302971e-07 -4.225704e-07 -2.297194e-08 -2.675912e-07 -3.083755e-08
1.137532e-07 1.315551e-07 -3.559839e-07 -2.850199e-08 -3.054655e-07 -1.478689e-08
1.238436e-07 1.361071e-07 -3.707664e-07 -4.983818e-08 -2.970780e-07 -1.958430e-09
1.185962e-07 7.481315e-09 -3.110152e-07 -2.077580e-08 -2.342542e-07 -2.707539e-08
8.722686e-08 1.988955e-07 -4.104060e-07 -1.438643e-07 -1.860118e-07 -1.691316e-07
8.619129e-08 4.255519e-07 -6.850776e-07 -6.299739e-08 -3.238546e-07 -1.147996e-07
1.836070e-08 1.735623e-07 -4.163520e-07 -7.636072e-08 -2.856323e-07 6.104228e-09
6.548764e-09 1.280661e-07 -2.879950e-07 -5.296760e-08 -2.890424e-07 2.583424e-09
-1.080933e-08 4.781955e-07 -4.795694e-07 -1.114180e-07 -2.070367e-07 -8.670747e-08
-2.648014e-08 4.781126e-07 -4.826179e-07 -1.892116e-07 -2.053493e-07 -1.463885e-08
8.704548e-08 1.782053e-07 -3.996588e-07 -1.013206e-07 -2.761301e-07 -3.154824e-08
9.016885e-08 2.809554e-07 -3.498836e-07 -1.948577e-07 -8.017152e-08 -7.522182e-08
7.871371e-08 1.605436e-07 -3.760206e-07 -8.830248e-08 -2.734029e-07 -2.804445e-08
8.584963e-08 2.371541e-07 -3.097146e-07 -1.262989e-07 -1.394361e-07 -5.014095e-08
5.079650e-08 2.525301e-07 -2.621799e-07 -1.542935e-07 -1.704579e-07 -2.964553e-08
1.463785e-08 4.450211e-07 -4.788792e-07 -4.037252e-08 -1.993180e-07 7.831756e-08
6.894515e-08 2.367830e-07 -2.767883e-07 -1.482089e-07 -7.801227e-08 -3.219663e-08
6.436059e-09 1.339136e-07 -3.546981e-07 -3.804007e-08 -2.944880e-07 4.105742e-08
9.057393e-08 4.825989e-07 -4.902274e-07 -2.161047e-07 -1.935938e-07 -4.392291e-08
1.721816e-07 -4.790702e-08 -3.965183e-07 -4.356526e-08 -4.583552e-07 -2.593100e-09
1.419555e-07 4.836784e-08 -3.742147e-07 -3.202428e-08 -3.887469e-07 3.164827e-08
1.196809e-07 -5.099019e-08 -4.094133e-07 -2.192923e-08 -4.688493e-07 2.343546e-08
2.000833e-07 -4.992652e-08 -4.448926e-07 -3.184714e-08 -4.743131e-07 4.668085e-08
1.871953e-07 -9.048574e-08 -4.482885e-07 -8.344569e-09 -5.026750e-07 6.658147e-08
1.324093e-07 -1.877441e-08 -3.568025e-07 -1.654105e-08 -3.876861e-07 -1.850987e-08
1.270099e-07 7.387143e-08 -3.597792e-07 -5.397599e-08 -3.506515e-07 -1.437018e-08
1.343740e-07 5.743858e-08 -2.864467e-07 -6.066852e-08 -3.529298e-07 -6.275323e-08
7.632005e-08 3.436635e-08 -2.189556e-07 -5.784025e-08 -3.160681e-07 -7.472654e-08
7.249113e-08 5.151768e-08 -2.466401e-07 -3.024624e-08 -3.362908e-07 -5.783386e-08
8.072648e-08 5.515342e-08 -2.188846e-07 -4.729743e-08 -3.207854e-07 -7.808870e-08
6.199063e-08 3.657580e-07 -5.274050e-07 -9.540176e-08 -2.348729e-07 -1.846742e-07
3.962716e-08 2.094860e-07 -2.431420e-07 -1.671848e-07 -1.651051e-07 -2.104752e-07
8.138690e-08 -6.150932e-08 -2.318040e-07 -2.230312e-08 -2.976939e-07 -4.427159e-08
1.489791e-07 -9.133079e-08 -3.915890e-07 -4.395208e-08 -5.119770e-07 -1.217638e-08
8.569780e-08 -7.000269e-08 -4.197229e-07 -4.513758e-08 -4.759197e-07 -3.333220e-08
1.536885e-07 -7.224841e-08 -3.420473e-07 -3.356283e-08 -4.808992e-07 5.751118e-09
7.644729e-08 -7.153836e-08 -3.844490e-07 -3.502674e-08 -4.820530e-07 -5.148225e-08
7.834105e-08 2.034022e-08 -3.033215e-07 -2.063124e-08 -3.584338e-07 -2.656226e-08
1.110743e-07 -9.053434e-08 -3.966993e-07 2.006386e-08 -4.657445e-07 -9.530290e-09
1.396625e-07 -1.770315e-07 -4.128688e-07 5.514892e-09 -5.952762e-07 4.296762e-08
2.229051e-08 2.928404e-08 -2.620722e-07 -1.369795e-07 -3.616239e-07 -1.095678e-07
3.722285e-08 6.769138e-08 -1.918016e-07 -8.570527e-08 -2.142306e-07 -7.562091e-08
5.330972e-08 3.792351e-08 -2.113110e-07 -1.384030e-07 -2.444805e-07 -9.412437e-08
3.244734e-09 5.653411e-08 -1.943951e-07 -1.317547e-07 -2.630257e-07 -1.098060e-07
8.482947e-08 -7.853669e-08 -2.225748e-07 -8.689113e-08 -3.475521e-07 -5.655012e-08
7.024379e-08 2.109954e-07 -1.902865e-07 -1.773209e-07 -2.292799e-07 -6.729179e-08
7.337828e-08 -1.305345e-07 -2.230134e-07 -1.734125e-07 -3.402144e-07 -6.278011e-08
9.655028e-08 -8.281950e-08 -2.072495e-07 -1.166992e-07 -3.074513e-07 -4.109604e-08
7.790713e-08 9.406449e-08 -2.309342e-07 1.272143e-08 -2.708651e-07 -4.641688e-09
2.858250e-08 9.350338e-08 -2.211150e-07 2.531570e-08 -2.788069e-07 4.729346e-09
8.035070e-08 2.693920e-08 -2.693959e-07 4.510368e-08 -3.400979e-07 1.267612e-09
6.701706e-08 1.104306e-07 -2.705619e-07 3.693366e-08 -2.544206e-07 2.836703e-08
-2.501260e-08 4.008191e-08 -2.861744e-07 -7.838819e-08 -3.289209e-07 -1.582921e-07
-1.933712e-08 3.537317e-07 -4.319945e-07 -3.603820e-08 -2.042044e-07 -1.443426e-07
-4.130667e-08 2.081581e-07 -1.627319e-07 -9.642768e-08 -1.324242e-07 -1.452092e-07
-8.615073e-08 2.105124e-07 -1.726152e-07 -6.705240e-08 -1.283466e-07 -1.778236e-07
5.998698e-08 1.296884e-07 -3.642030e-07 -1.339755e-07 -2.616199e-07 -1.009034e-07
4.257535e-08 1.113064e-07 -3.301108e-07 -7.623684e-08 -2.422345e-07 -6.723665e-08
-8.355869e-09 3.486894e-07 -3.405024e-07 -8.760426e-08 -1.731684e-07 -1.101583e-07
-3.648943e-09 2.659150e-07 -3.517259e-07 -9.192260e-08 -1.328671e-07 -1.016198e-07
6.205377e-08 2.561921e-08 -2.989795e-07 -1.542589e-07 -3.035697e-07 -1.219149e-07
6.504068e-08 2.608156e-08 -3.234359e-07 -1.415528e-07 -3.464042e-07 -1.110820e-07
6.027607e-08 4.465959e-08 -3.277581e-07 -1.182460e-07 -3.371394e-07 -1.069990e-07
8.669059e-08 3.630998e-08 -3.279169e-07 -1.203047e-07 -3.358442e-07 -1.077453e-07
8.586429e-08 4.349931e-08 -2.883703e-07 -1.204365e-07 -2.571103e-07 -8.307765e-08
2.828417e-08 6.090278e-08 -2.737551e-07 -1.164187e-07 -2.732319e-07 -9.111909e-08
6.103485e-08 5.085112e-08 -2.468317e-07 -1.205401e-07 -2.755854e-07 -1.228450e-07
5.560136e-08 5.763714e-08 -3.734102e-07 -1.629566e-07 -2.893587e-07 -1.087891e-07
1.421802e-09 2.009113e-07 -3.765452e-07 -1.340069e-07 -2.463125e-07 -1.311486e-07
-5.464718e-09 3.805279e-07 -4.850893e-07 -1.591454e-07 -1.364357e-07 -1.037628e-07
-1.282114e-08 2.181477e-07 -3.217473e-07 -1.147358e-07 -1.104341e-07 -8.255052e-08
8.626844e-08 -7.370805e-08 -2.295017e-07 -1.593407e-07 -3.000050e-07 -8.045814e-08
8.927805e-08 -6.899801e-08 -2.269379e-07 -1.476057e-07 -3.041820e-07 -5.512385e-08
8.822581e-08 -7.732532e-08 -2.253465e-07 -1.364600e-07 -3.139958e-07 -8.441190e-08
1.062172e-07 -7.694023e-08 -2.156957e-07 -1.396128e-07 -3.168992e-07 -7.042521e-08
1.211813e-07 -1.355652e-07 -2.473463e-07 -1.433669e-07 -3.645444e-07 -6.310733e-08
1.282471e-07 -8.306774e-08 -2.196975e-07 -1.186238e-07 -3.092678e-07 -4.890463e-08
8.660237e-08 -4.642479e-09 -2.187251e-07 -1.273741e-07 -2.781399e-07 -7.440364e-08
7.878752e-08 -8.354958e-08 -2.232628e-07 -5.483774e-08 -3.362963e-07 -5.859062e-08
9.123807e-08 -2.132651e-07 -2.610340e-07 -3.994341e-08 -4.101470e-07 -5.789046e-08
9.359222e-08 -1.537115e-07 -2.219656e-07 -2.711059e-08 -3.369486e-07 -4.567022e-08
9.584928e-08 2.290486e-08 -1.950049e-07 -6.895019e-09 -2.593374e-07 -3.614965e-08
2.450327e-08 1.302966e-07 -3.285731e-07 -1.217544e-07 -2.498827e-07 -9.667487e-08
3.836196e-08 1.891712e-07 -3.107511e-07 -7.185793e-08 -1.212183e-07 -7.415887e-08
-3.033084e-09 1.980440e-07 -2.739860e-07 -1.140179e-07 -1.521796e-07 -5.830005e-08
1.399607e-09 2.632587e-07 -4.156407e-07 -9.245367e-08 -1.562692e-07 -7.921899e-08
6.638416e-08 1.527430e-08 -2.267230e-07 -1.568190e-07 -2.733634e-07 -1.426618e-07
6.728574e-08 6.406164e-08 -2.709530e-07 -1.525289e-07 -2.762229e-07 -1.398240e-07
5.382729e-08 6.328753e-08 -2.469226e-07 -1.482576e-07 -2.509777e-07 -1.178982e-07
6.239584e-08 5.976539e-08 -2.546772e-07 -1.326452e-07 -2.708587e-07 -1.199090e-07
6.189268e-08 -1.928380e-08 -2.251482e-07 -1.243843e-07 -2.363503e-07 -1.275226e-07
-1.613024e-08 1.234434e-07 -1.948837e-07 -1.740823e-07 -1.673250e-07 -1.687958e-07
5.195981e-09 2.131070e-07 -3.256969e-07 -1.269957e-07 -2.367783e-07 -1.802111e-07
-2.230218e-08 1.793257e-07 -3.416471e-07 -1.025111e-07 -2.848311e-07 -1.558320e-07
-3.786166e-08 1.786712e-07 -3.036560e-07 -1.087882e-07 -2.873669e-07 -1.339513e-07
-2.650083e-08 2.267349e-07 -2.406501e-07 -6.803382e-08 -1.764772e-07 -1.068050e-07
-8.696885e-08 2.870729e-07 -3.639246e-07 -8.337344e-08 -2.151814e-07 -1.946022e-07
2.863399e-08 4.153371e-08 -2.076203e-07 -1.419763e-07 -2.418593e-07 -1.269608e-07
-1.462297e-09 7.932347e-08 -1.377530e-07 -1.404615e-07 -1.710940e-07 -1.271911e-07
1.243393e-08 6.656416e-08 -1.876945e-07 -9.872849e-08 -2.100134e-07 -1.152066e-07
-1.512338e-09 9.044459e-08 -1.981450e-07 -1.103569e-07 -2.039595e-07 -1.028243e-07
-5.524594e-09 9.129063e-08 -1.807723e-07 -1.091759e-07 -2.087431e-07 -1.169022e-07
-2.011519e-08 1.330295e-07 -1.668119e-07 -1.340092e-07 -1.443959e-07 -1.051552e-07
1.201713e-08 6.720682e-08 -1.691495e-07 -1.007375e-07 -1.308892e-07 -1.073739e-07
5.983728e-08 -7.606270e-08 -1.496744e-07 -1.508395e-07 -2.638337e-07 -8.414588e-08
3.039860e-08 -8.190696e-08 -1.251004e-07 -1.403497e-07 -2.213144e-07 -9.713096e-08
6.111474e-08 -8.031874e-08 -1.549266e-07 -1.516396e-07 -2.741824e-07 -9.142326e-08
2.492891e-08 -8.607539e-08 -1.352482e-07 -1.136784e-07 -2.502611e-07 -8.947953e-08
2.346392e-08 8.816319e-09 -1.335839e-07 -1.222700e-07 -1.918454e-07 -8.599797e-08
5.583160e-08 -5.636527e-08 -1.345189e-07 -1.103966e-07 -2.148936e-07 -9.758354e-08
6.670280e-08 -1.552341e-07 -1.822361e-07 -1.412378e-07 -3.266852e-07 -9.230089e-08
4.073331e-08 -3.346593e-09 -1.758664e-07 -1.455731e-07 -2.552713e-07 -1.490833e-07
1.003756e-08 -6.570582e-10 -1.227941e-07 -1.355712e-07 -2.239071e-07 -1.482100e-07
6.827490e-09 -1.065782e-08 -1.704966e-07 -1.103346e-07 -2.548807e-07 -1.238957e-07
7.670692e-09 -4.479309e-09 -1.270434e-07 -1.385909e-07 -2.113945e-07 -1.391552e-07
-2.714553e-08 7.276485e-08 -1.631966e-07 -1.166873e-07 -1.403648e-07 -1.835349e-07
-4.557207e-08 5.642828e-08 -2.654217e-08 -1.353656e-07 -1.563317e-07 -1.806724e-07
-2.283041e-09 -1.898050e-08 -1.674081e-07 -9.772395e-08 -2.595313e-07 -1.243894e-07
-2.540548e-08 7.947074e-08 -1.218679e-07 -1.339681e-07 -1.690582e-07 -9.909674e-08
-3.673027e-08 8.587750e-08 -1.768819e-07 -1.542850e-07 -2.015770e-07 -1.250903e-07
-1.281249e-08 1.428075e-07 -1.667608e-07 -9.551403e-08 -1.451030e-07 -1.078633e-07
-7.184245e-08 1.386645e-07 -1.510597e-07 -1.340719e-07 -1.687409e-07 -1.153869e-07
-3.397907e-08 2.717506e-08 -1.087305e-07 -1.405981e-07 -1.571921e-07 -1.120050e-07
-2.823200e-08 2.250406e-08 -1.370436e-07 -1.563235e-07 -2.146862e-07 -1.282754e-07
-2.847784e-08 1.984426e-08 -1.110514e-07 -1.393765e-07 -1.498453e-07 -1.078662e-07
-1.611885e-08 1.609287e-08 -1.108959e-07 -1.159731e-07 -1.504498e-07 -1.104236e-07
-1.856611e-08 5.661677e-08 -1.507407e-07 -1.207435e-07 -1.672927e-07 -1.203131e-07
-5.641223e-08 1.065148e-07 -1.477367e-07 -1.347911e-07 -2.024704e-07 -1.405939e-07
-4.932656e-08 9.718043e-08 -1.497677e-07 -1.331791e-07 -1.941025e-07 -1.483861e-07
3.209149e-08 -7.256707e-08 -1.359738e-07 -1.356636e-07 -2.473337e-07 -1.175930e-07
2.837948e-08 -2.704796e-08 -1.232399e-07 -1.416281e-07 -2.105614e-07 -1.136784e-07
4.964087e-08 -1.298497e-07 -1.319322e-07 -1.426199e-07 -2.444383e-07 -1.212556e-07
5.270369e-08 -1.027264e-07 -1.410051e-07 -1.292577e-07 -2.441358e-07 -1.154542e-07
-1.265825e-08 -4.726231e-08 -9.912563e-08 -1.479709e-07 -1.921449e-07 -9.151477e-08
-3.693734e-10 -6.733126e-08 -1.268715e-07 -1.676152e-07 -2.571985e-07 -1.038373e-07
4.011872e-09 -4.600921e-08 -9.899887e-08 -1.565806e-07 -1.917311e-07 -9.371038e-08
7.303416e-09 -2.212456e-09 -1.012267e-07 -1.376350e-07 -1.892067e-07 -8.920676e-08
1.357008e-08 -9.832207e-08 -1.327605e-07 -1.556691e-07 -2.386182e-07 -1.017875e-07
4.021383e-09 -9.957222e-08 -1.344826e-07 -1.473586e-07 -2.487555e-07 -9.504220e-08
7.387394e-09 -3.065755e-08 -1.191113e-07 -1.302676e-07 -2.153969e-07 -8.594619e-08
-3.979183e-08 7.435539e-09 -1.181846e-07 -1.697924e-07 -2.301427e-07 -1.156807e-07
-5.209847e-08 5.748027e-08 -7.689703e-08 -1.434289e-07 -1.326331e-07 -8.760380e-08
-5.626542e-08 5.638477e-08 -1.336598e-07 -1.599578e-07 -2.012846e-07 -1.343653e-07
-2.915821e-08 7.695411e-08 -1.506261e-07 -1.357046e-07 -1.518692e-07 -9.031633e-08
-3.477148e-08 5.548676e-08 -7.334944e-08 -1.508135e-07 -1.496913e-07 -6.905862e-08
-5.977923e-08 5.527605e-08 -2.238828e-07 -1.554750e-07 -2.329328e-07 -1.154061e-07
-5.693471e-08 7.865433e-08 -8.679929e-08 -1.419467e-07 -1.388839e-07 -9.565927e-08
-3.044439e-08 6.366566e-08 -1.142190e-07 -1.440345e-07 -1.771754e-07 -1.049565e-07
-5.201461e-08 7.045598e-08 -1.048619e-07 -1.446184e-07 -1.904008e-07 -8.498790e-08
-3.836024e-08 2.530553e-08 -8.027544e-08 -1.252325e-07 -1.188229e-07 -1.098949e-07
-4.540189e-08 3.728575e-08 -6.304329e-08 -1.057551e-07 -1.047226e-07 -9.781002e-08
-3.374099e-08 2.148771e-08 -6.730439e-08 -1.011022e-07 -9.720902e-08 -1.006772e-07
-4.107197e-08 2.261278e-08 -7.123243e-08 -1.079787e-07 -9.360252e-08 -9.507001e-08
-5.412936e-08 8.511047e-08 -1.122597e-07 -1.072279e-07 -1.183414e-07 -1.211360e-07
-6.421032e-08 7.372043e-08 -8.439159e-08 -1.183473e-07 -1.132547e-07 -1.113394e-07
-2.712325e-08 4.172349e-08 -7.677311e-08 -1.128182e-07 -1.063131e-07 -9.390791e-08
-2.066771e-08 -3.101084e-08 -6.983588e-08 -1.325647e-07 -1.445620e-07 -9.289830e-08
-3.436287e-08 -4.535960e-09 -6.392531e-08 -1.088420e-07 -1.263625e-07 -8.862680e-08
-1.486069e-08 -3.196619e-09 -6.593486e-08 -1.181106e-07 -1.292020e-07 -8.771049e-08
-2.389058e-08 -4.007026e-09 -6.443163e-08 -1.126115e-07 -1.245765e-07 -9.100365e-08
-2.555195e-08 -2.495707e-08 -7.595479e-08 -1.049697e-07 -1.422927e-07 -8.256800e-08
6.698900e-10 -5.432329e-08 -7.836792e-08 -1.047682e-07 -1.512984e-07 -8.552974e-08
-5.117929e-09 -6.938417e-08 -8.133602e-08 -1.143176e-07 -1.683321e-07 -9.424400e-08
-3.617090e-08 3.709324e-08 -6.194770e-08 -7.798973e-08 -1.012632e-07 -8.651043e-08
-3.184026e-08 3.572059e-08 -6.139161e-08 -7.892675e-08 -1.007444e-07 -8.808980e-08
-2.941423e-08 3.750963e-08 -6.489096e-08 -7.531905e-08 -7.441827e-08 -7.853883e-08
-2.245527e-08 3.482991e-08 -7.041331e-08 -6.042389e-08 -9.246528e-08 -8.026916e-08
-3.878318e-08 1.061443e-08 -2.901717e-08 -8.639594e-08 -9.452196e-08 -8.576852e-08
-3.115372e-08 2.924748e-09 -3.438138e-08 -8.135982e-08 -1.011265e-07 -8.327843e-08
-3.211424e-08 -1.705842e-08 -4.568711e-08 -8.820466e-08 -1.179575e-07 -8.705038e-08
-2.890677e-08 6.786135e-09 -3.455806e-08 -7.921013e-08 -8.960683e-08 -7.431008e-08
-3.408093e-08 3.464127e-08 -6.904371e-08 -9.362980e-08 -1.127752e-07 -9.078708e-08
-3.433214e-08 3.633944e-08 -6.617836e-08 -9.540424e-08 -1.105555e-07 -9.283110e-08
-3.715774e-08 3.550373e-08 -7.171804e-08 -8.865196e-08 -1.143776e-07 -8.680321e-08
-9.467248e-09 8.541117e-09 -7.380968e-08 -8.725988e-08 -1.223013e-07 -8.895916e-08
-3.966418e-08 1.360448e-08 -4.641693e-08 -1.053383e-07 -1.123115e-07 -9.512545e-08
-3.829073e-08 1.088599e-08 -5.308343e-08 -1.062755e-07 -1.173027e-07 -9.890484e-08
-2.232698e-08 -3.771350e-08 -5.382767e-08 -1.133841e-07 -1.253906e-07 -9.688921e-08
-1.946200e-08 -1.511014e-08 -6.059901e-08 -1.010682e-07 -1.263991e-07 -9.231888e-08
-4.837714e-08 3.307112e-08 -5.640866e-08 -7.079771e-08 -1.044823e-07 -8.305803e-08
-4.856409e-08 3.986828e-08 -6.259951e-08 -6.959022e-08 -8.026059e-08 -7.266116e-08
-4.910805e-08 4.274291e-08 -6.090287e-08 -6.433790e-08 -8.344808e-08 -8.280204e-08
-4.925682e-08 4.703067e-08 -6.387849e-08 -5.386537e-08 -1.016487e-07 -8.182251e-08
-4.200829e-08 1.141052e-08 -3.620327e-08 -8.873952e-08 -7.965806e-08 -6.787889e-08
-4.489957e-08 1.280668e-08 -3.483097e-08 -1.000686e-07 -9.034233e-08 -7.634548e-08
-3.608627e-08 1.104748e-08 -3.377390e-08 -8.666864e-08 -7.986268e-08 -7.342955e-08
-4.592170e-08 1.329527e-08 -3.746213e-08 -1.005473e-07 -9.553273e-08 -8.054139e-08
-3.932515e-08 -1.489033e-08 -4.896676e-08 -1.016809e-07 -1.135441e-07 -8.108087e-08
-3.115496e-08 7.700326e-09 -3.805191e-08 -8.769040e-08 -8.743465e-08 -6.799634e-08
-3.639119e-08 8.136744e-09 -3.951252e-08 -8.571973e-08 -8.456878e-08 -7.198634e-08
-5.308928e-08 3.135813e-08 -4.646738e-08 -8.073599e-08 -7.250988e-08 -7.854994e-08
-5.169724e-08 2.930823e-08 -5.052634e-08 -9.610821e-08 -9.135259e-08 -8.763736e-08
-4.559381e-08 3.744725e-08 -4.852598e-08 -7.139504e-08 -7.585825e-08 -7.852399e-08
-3.626517e-08 3.924461e-08 -4.890854e-08 -7.596932e-08 -7.476748e-08 -7.974569e-08
-3.631220e-08 3.865013e-08 -5.995162e-08 -7.536472e-08 -7.813121e-08 -7.845476e-08
-4.887534e-08 3.972647e-08 -5.773967e-08 -7.131005e-08 -7.968969e-08 -8.544047e-08
-4.708312e-08 3.847275e-08 -5.635076e-08 -7.095218e-08 -8.019893e-08 -8.703378e-08
-5.103293e-08 2.905349e-08 -4.198749e-08 -8.253226e-08 -7.110631e-08 -8.175002e-08
-5.491170e-08 2.969639e-08 -4.159381e-08 -9.258472e-08 -8.240744e-08 -8.975401e-08
-4.855695e-08 2.840861e-08 -4.113503e-08 -8.100450e-08 -6.347239e-08 -7.625511e-08
-4.492258e-08 2.748758e-08 -3.514864e-08 -7.269748e-08 -6.978828e-08 -8.152111e-08
-4.826350e-08 3.432070e-08 -4.112604e-08 -6.710214e-08 -6.811572e-08 -8.726493e-08
-5.959558e-08 5.548970e-08 -4.124036e-08 -7.534535e-08 -6.813048e-08 -8.596976e-08
-5.884853e-08 5.434292e-08 -4.752250e-08 -7.522021e-08 -6.519186e-08 -8.531606e-08
-4.925340e-08 3.054666e-08 -4.090881e-08 -6.268985e-08 -7.786960e-08 -8.221859e-08
-5.107805e-08 7.554728e-08 -8.851256e-08 -4.644992e-08 -7.977697e-08 -1.020504e-07
-4.791665e-08 5.576536e-08 -4.093757e-08 -4.275830e-08 -5.925014e-08 -7.625768e-08
-5.019211e-08 3.829301e-08 -2.457042e-08 -5.432863e-08 -4.763854e-08 -7.995820e-08
-4.852881e-08 3.427280e-08 -4.652174e-08 -8.644605e-08 -6.456310e-08 -7.756284e-08
-5.256482e-08 5.774929e-08 -5.277855e-08 -6.485428e-08 -3.816733e-08 -7.367404e-08
-5.420504e-08 3.719863e-08 -5.349468e-08 -8.039965e-08 -6.153776e-08 -8.485898e-08
-3.467943e-08 7.623345e-08 -1.120185e-07 -5.146323e-08 -7.885586e-08 -8.640783e-08
-3.615119e-08 3.856490e-08 -5.153643e-08 -6.143933e-08 -4.296229e-08 -6.637517e-08
-5.605323e-08 3.906735e-08 -6.402713e-08 -7.862586e-08 -6.746782e-08 -8.030635e-08
-5.404607e-08 7.888882e-08 -7.359432e-08 -6.761214e-08 -4.714176e-08 -7.923651e-08
-3.887161e-08 4.351359e-08 -4.492595e-08 -5.746374e-08 -4.886045e-08 -7.268831e-08
-5.282312e-08 5.834058e-08 -4.495110e-08 -6.953906e-08 -4.786228e-08 -7.201914e-08
-4.073826e-08 1.397254e-08 -2.793650e-08 -7.534219e-08 -6.233267e-08 -5.711721e-08
-4.010685e-08 2.161756e-08 -3.214429e-08 -6.558924e-08 -4.951386e-08 -4.791438e-08
-4.011526e-08 2.257066e-08 -2.602927e-08 -7.163792e-08 -5.825640e-08 -5.551788e-08
-3.126511e-08 2.090630e-08 -2.880070e-08 -6.142333e-08 -5.064766e-08 -5.435899e-08
-3.143522e-08 1.628155e-08 -3.950548e-08 -6.045608e-08 -5.848141e-08 -5.300786e-08
-3.015918e-08 1.577960e-08 -4.017013e-08 -6.090981e-08 -5.961205e-08 -5.224844e-08
-3.625692e-08 -1.559203e-11 -3.147710e-08 -7.094288e-08 -7.003779e-08 -5.680043e-08
-5.340024e-08 3.566793e-08 -3.622470e-08 -6.595226e-08 -5.316103e-08 -6.741229e-08
-5.062651e-08 3.794077e-08 -3.265760e-08 -5.740926e-08 -3.978077e-08 -5.264655e-08
-3.616711e-08 3.987395e-08 -3.160704e-08 -4.773281e-08 -4.068959e-08 -5.806989e-08
-3.756372e-08 4.277668e-08 -3.267774e-08 -4.940503e-08 -4.178532e-08 -5.556704e-08
-4.150947e-08 4.918824e-08 -5.877921e-08 -4.883620e-08 -5.211489e-08 -6.955294e-08
-4.952993e-08 5.200367e-08 -4.953398e-08 -4.974779e-08 -4.573154e-08 -6.502654e-08
-3.623073e-08 4.104810e-08 -4.716188e-08 -4.785580e-08 -4.305920e-08 -5.906900e-08
-4.851491e-08 3.045145e-08 -3.800449e-08 -7.027730e-08 -5.652198e-08 -7.200635e-08
-4.708091e-08 3.820588e-08 -3.375638e-08 -6.145004e-08 -4.012065e-08 -5.690373e-08
-3.312774e-08 2.870327e-08 -3.282478e-08 -5.474222e-08 -4.888535e-08 -6.297025e-08
-4.646109e-08 2.975651e-08 -3.364147e-08 -6.399048e-08 -4.032183e-08 -5.655724e-08
-5.635025e-08 5.738897e-08 -3.815434e-08 -5.903615e-08 -3.345768e-08 -6.351275e-08
-5.184082e-08 6.512736e-08 -4.052384e-08 -5.311040e-08 -3.754955e-08 -6.700402e-08
-4.216222e-08 5.435092e-08 -3.920835e-08 -4.844234e-08 -4.058361e-08 -7.072831e-08
-3.829177e-08 4.632596e-08 -1.792612e-08 -3.533772e-08 -2.382072e-08 -3.739470e-08
-4.207161e-08 5.639623e-08 -4.405049e-08 -3.218326e-08 -3.930291e-08 -5.767329e-08
-3.907100e-08 5.909302e-08 -3.502224e-08 -2.855648e-08 -3.346121e-08 -4.720845e-08
-3.129635e-08 5.683947e-08 -2.606325e-08 -1.923671e-08 -1.801913e-08 -3.815968e-08
-3.897242e-08 5.015651e-08 -2.734397e-08 -5.390234e-08 -3.598126e-08 -4.480225e-08
-3.538295e-08 3.554387e-08 -3.236844e-08 -4.864734e-08 -4.669781e-08 -4.488949e-08
-3.442603e-08 4.637417e-08 -3.070557e-08 -5.195450e-08 -4.245369e-08 -4.618160e-08
-3.414127e-08 5.834458e-08 -3.465302e-08 -4.560789e-08 -4.059922e-08 -4.158677e-08
-4.130849e-08 3.804818e-08 -2.553602e-08 -4.697347e-08 -3.677505e-08 -4.260739e-08
-4.218318e-08 4.152460e-08 -3.217702e-08 -4.779414e-08 -4.863368e-08 -4.690126e-08
-3.450830e-08 4.448403e-08 -3.480506e-08 -3.944883e-08 -3.706382e-08 -4.182482e-08
-3.520640e-08 3.979585e-08 -2.457712e-08 -3.710113e-08 -3.684368e-08 -3.972387e-08
-2.996912e-08 3.548302e-08 -2.496454e-08 -3.706583e-08 -3.278182e-08 -4.060030e-08
-4.480936e-08 5.432026e-08 -3.099746e-08 -3.134260e-08 -2.495485e-08 -5.062945e-08
-4.851270e-08 6.344923e-08 -3.470671e-08 -3.033967e-08 -3.108873e-08 -5.676798e-08
-2.278635e-08 3.948511e-08 -2.858327e-08 -1.945869e-08 -2.844865e-08 -4.394151e-08
-4.059645e-08 3.693324e-08 -1.792915e-08 -5.001161e-08 -2.181392e-08 -4.063235e-08
-4.275383e-08 2.653882e-08 -1.385489e-08 -4.507177e-08 -2.279735e-08 -4.105534e-08
-3.984379e-08 5.464569e-08 -4.087372e-08 -3.444898e-08 -2.288069e-08 -4.655035e-08
-3.586423e-08 3.305542e-08 -2.891255e-08 -3.663208e-08 -7.026279e-09 -3.499020e-08
-4.077987e-08 2.218717e-08 -6.601853e-09 -4.873419e-08 -2.601889e-08 -4.155669e-08
-4.403331e-08 2.300391e-08 -1.447260e-08 -5.745123e-08 -3.324644e-08 -4.936336e-08
-3.777176e-08 2.967625e-08 -1.438889e-08 -4.393998e-08 -2.764802e-08 -4.189514e-08
-3.941847e-08 2.326867e-08 -9.515654e-09 -4.740726e-08 -2.947686e-08 -4.177202e-08
-3.864220e-08 2.926257e-08 -1.234101e-08 -4.319176e-08 -2.845699e-08 -4.175588e-08
-3.859037e-08 3.078559e-08 -1.118803e-08 -4.004377e-08 -2.309051e-08 -4.136950e-08
-4.372176e-08 3.067597e-08 -1.210068e-08 -4.422356e-08 -2.938014e-08 -4.556039e-08
-3.693765e-08 1.379495e-08 -7.415461e-09 -5.118082e-08 -3.462089e-08 -4.067333e-08
-3.933680e-08 1.172288e-08 -9.617329e-09 -6.021418e-08 -4.061237e-08 -4.703473e-08
-2.983545e-08 1.361553e-08 -7.239787e-09 -5.015297e-08 -3.505264e-08 -4.217216e-08
-3.913100e-08 1.488633e-08 -1.114798e-08 -5.887320e-08 -4.156986e-08 -4.825313e-08
-3.607858e-08 -1.998312e-09 -1.724331e-08 -5.854235e-08 -5.171862e-08 -4.817444e-08
-3.109688e-08 1.079179e-08 -7.854428e-09 -5.039947e-08 -3.857287e-08 -4.071882e-08
-2.957990e-08 9.116532e-09 -8.360791e-09 -4.960962e-08 -3.739058e-08 -4.206349e-08
-3.841807e-08 1.532855e-08 -9.951735e-09 -4.985969e-08 -3.091442e-08 -4.296652e-08
-4.112703e-08 2.177883e-08 -1.636381e-08 -6.044231e-08 -3.493132e-08 -5.139150e-08
-3.622353e-08 2.573654e-08 -1.551921e-08 -4.501215e-08 -2.992783e-08 -4.310520e-08
-3.245654e-08 2.889011e-08 -1.453996e-08 -4.903933e-08 -2.760998e-08 -4.706340e-08
-3.255307e-08 3.109531e-08 -2.409300e-08 -4.887277e-08 -3.275547e-08 -4.898577e-08
-3.378615e-08 2.492939e-08 -1.333672e-08 -4.422294e-08 -3.126990e-08 -4.507937e-08
-3.674006e-08 2.542158e-08 -1.266133e-08 -4.459839e-08 -3.004224e-08 -4.323488e-08
-4.002770e-08 1.294160e-08 -6.484248e-09 -6.886577e-08 -3.847433e-08 -5.601831e-08
-3.705635e-08 -5.097396e-10 -1.485296e-08 -6.910496e-08 -4.939837e-08 -5.498932e-08
-3.925817e-08 1.521300e-08 -9.893447e-10 -6.939199e-08 -3.222246e-08 -5.376840e-08
-3.541353e-08 3.112589e-10 -4.628063e-09 -7.026785e-08 -4.572812e-08 -6.035124e-08
-2.769025e-08 2.064877e-08 -7.612774e-09 -2.520708e-08 -1.922866e-08 -2.347652e-08
-3.039192e-08 2.313512e-08 -8.380917e-09 -3.061062e-08 -2.218840e-08 -2.706183e-08
-2.766964e-08 2.135822e-08 -7.381290e-09 -2.443557e-08 -1.967427e-08 -2.376207e-08
-2.788921e-08 2.510718e-08 -9.077285e-09 -2.797308e-08 -2.000457e-08 -2.592772e-08
-2.752933e-08 2.389673e-08 -1.438245e-08 -2.809136e-08 -2.400057e-08 -2.802973e-08
-2.935538e-08 2.223159e-08 -1.022502e-08 -2.562619e-08 -2.165450e-08 -2.781399e-08
-2.893089e-08 2.116549e-08 -1.060431e-08 -2.503724e-08 -2.263467e-08 -2.789807e-08
-2.725349e-08 1.728664e-08 -7.974081e-09 -2.494911e-08 -2.055078e-08 -2.364417e-08
-3.146631e-08 2.024610e-08 -8.255561e-09 -2.876093e-08 -2.259648e-08 -2.665875e-08
-2.571256e-08 2.024610e-08 -8.071404e-09 -2.280758e-08 -1.901739e-08 -2.262279e-08
-2.804429e-08 2.024611e-08 -5.915520e-09 -2.362089e-08 -1.854945e-08 -2.382556e-08
-3.124106e-08 2.475236e-08 -8.098280e-09 -2.170375e-08 -1.901991e-08 -2.701823e-08
-2.518742e-08 2.160026e-08 -7.914803e-09 -2.047770e-08 -2.062172e-08 -2.384294e-08
-2.626702e-08 1.944303e-08 -6.946205e-09 -2.200614e-08 -1.933781e-08 -2.285750e-08
-2.566493e-08 1.417227e-08 -2.503671e-09 -2.603980e-08 -1.975363e-08 -2.022960e-08
-2.936528e-08 1.447770e-08 -1.097604e-09 -2.983630e-08 -1.998372e-08 -2.432693e-08
-2.708784e-08 1.442507e-08 -2.510112e-09 -2.935607e-08 -1.963950e-08 -2.334059e-08
-3.007232e-08 1.450221e-08 -2.132580e-09 -3.031979e-08 -2.112144e-08 -2.537075e-08
-2.746177e-08 5.455299e-09 -4.016847e-09 -3.123749e-08 -2.581834e-08 -2.462310e-08
-2.562199e-08 8.365049e-09 -1.452379e-09 -2.891175e-08 -2.227088e-08 -2.160389e-08
-2.654352e-08 1.150953e-08 -3.787811e-09 -3.018421e-08 -2.158380e-08 -2.377147e-08
-3.760834e-08 2.482618e-08 -1.083817e-08 -4.171630e-08 -2.449306e-08 -3.443529e-08
-3.576616e-08 2.679960e-08 -9.376676e-09 -3.586542e-08 -2.254730e-08 -2.954341e-08
-3.219265e-08 2.503065e-08 -1.085072e-08 -3.394718e-08 -2.445027e-08 -3.031257e-08
-3.432334e-08 2.498893e-08 -9.369220e-09 -3.553892e-08 -2.256126e-08 -2.964749e-08
-3.827284e-08 3.667152e-08 -1.921780e-08 -3.370426e-08 -2.372651e-08 -3.632872e-08
-3.971050e-08 3.540195e-08 -1.496773e-08 -3.515208e-08 -2.307553e-08 -3.459723e-08
-3.159412e-08 2.859172e-08 -1.640966e-08 -3.247647e-08 -2.656892e-08 -3.143338e-08
-3.418842e-08 1.470114e-08 -7.747770e-09 -4.330295e-08 -3.153484e-08 -3.380042e-08
-3.275285e-08 1.974280e-08 -9.195184e-09 -3.767848e-08 -2.758987e-08 -2.784432e-08
-3.485279e-08 2.030436e-08 -7.549813e-09 -4.160242e-08 -3.047853e-08 -3.344253e-08
-3.014923e-08 1.974621e-08 -6.518129e-09 -3.779419e-08 -2.741048e-08 -3.094111e-08
-3.022919e-08 1.369755e-08 -1.258830e-08 -3.709862e-08 -3.358094e-08 -3.023451e-08
-3.020615e-08 1.449336e-08 -1.302026e-08 -3.758412e-08 -3.428052e-08 -2.927291e-08
-3.323268e-08 1.025488e-08 -1.440925e-08 -4.118466e-08 -3.883493e-08 -3.347717e-08
-3.513057e-08 1.606584e-08 -1.247155e-08 -4.254870e-08 -2.884032e-08 -3.600576e-08
-3.522620e-08 2.446096e-08 -1.100019e-08 -3.595119e-08 -2.474152e-08 -3.011006e-08
-3.073920e-08 2.441399e-08 -1.040770e-08 -3.487503e-08 -2.440373e-08 -3.281227e-08
-3.234252e-08 2.480758e-08 -1.145850e-08 -3.491858e-08 -2.494574e-08 -3.105226e-08
-3.188653e-08 2.688321e-08 -1.734526e-08 -3.393507e-08 -2.798140e-08 -3.216893e-08
-3.483616e-08 2.691108e-08 -1.460548e-08 -3.359189e-08 -2.753351e-08 -3.230984e-08
-3.066860e-08 2.721458e-08 -1.524371e-08 -3.552292e-08 -2.726069e-08 -3.136750e-08
-3.372918e-08 2.713553e-08 -9.245761e-09 -3.550029e-08 -2.472184e-08 -2.837123e-08
-3.284592e-08 2.384261e-08 -1.019611e-08 -3.210696e-08 -2.858815e-08 -2.835198e-08
-3.244343e-08 2.850549e-08 -1.056280e-08 -3.370921e-08 -2.828248e-08 -2.821771e-08
-3.261562e-08 3.201851e-08 -1.179254e-08 -3.281638e-08 -2.740239e-08 -2.723327e-08
-3.512082e-08 2.698187e-08 -5.309454e-09 -2.896758e-08 -1.690749e-08 -2.678062e-08
-3.796578e-08 3.690562e-08 -1.361902e-08 -2.484874e-08 -1.648019e-08 -3.276196e-08
-3.959492e-08 3.996476e-08 -1.335450e-08 -2.454302e-08 -2.008927e-08 -3.054820e-08
-3.496677e-08 3.114813e-08 -6.465641e-09 -1.868318e-08 -1.401790e-08 -2.487028e-08
-3.447771e-08 2.285629e-08 -7.982350e-09 -3.168501e-08 -2.235520e-08 -2.786890e-08
-3.410366e-08 2.175923e-08 -9.450363e-09 -2.995755e-08 -2.777133e-08 -2.818319e-08
-3.286581e-08 2.410850e-08 -1.225043e-08 -2.767747e-08 -2.474115e-08 -2.779986e-08
-3.357304e-08 2.225605e-08 -6.322831e-09 -2.606061e-08 -2.214085e-08 -2.747278e-08
-3.428027e-08 1.528208e-08 -2.694915e-09 -4.038070e-08 -2.128980e-08 -3.027514e-08
-3.118954e-08 6.259672e-09 -5.223842e-09 -4.180430e-08 -2.717613e-08 -2.911879e-08
-3.635410e-08 1.567812e-08 2.019140e-09 -4.316355e-08 -1.698194e-08 -2.822148e-08
-3.532658e-08 9.370073e-09 4.557650e-10 -4.289506e-08 -2.294589e-08 -3.002528e-08
-3.352916e-08 2.517674e-08 -5.915177e-09 -2.828018e-08 -1.795551e-08 -2.645271e-08
-3.055979e-08 3.120204e-08 -1.564554e-08 -2.326739e-08 -2.503293e-08 -2.768558e-08
-3.166061e-08 3.371755e-08 -9.253890e-09 -2.330324e-08 -2.057559e-08 -2.646103e-08
-3.180874e-08 3.158153e-08 -7.624886e-09 -2.050522e-08 -1.425442e-08 -2.628427e-08
-2.856597e-08 2.710416e-08 -7.185217e-09 -2.429918e-08 -1.794151e-08 -2.355938e-08
-2.376036e-08 3.053602e-08 -1.503809e-08 -1.517198e-08 -1.422105e-08 -2.401615e-08
-3.087020e-08 2.648658e-08 -8.546545e-09 -2.194643e-08 -1.685419e-08 -2.578268e-08
-3.049189e-08 2.768199e-08 -9.354333e-09 -1.996053e-08 -1.576483e-08 -2.626619e-08
-2.352214e-08 2.430685e-08 -9.169331e-09 -1.832791e-08 -1.778014e-08 -2.200913e-08
-2.686789e-08 3.715318e-08 -1.701901e-08 -1.541258e-08 -1.858459e-08 -2.683114e-08
-2.648786e-08 3.220520e-08 -1.518787e-08 -1.568017e-08 -1.381886e-08 -2.498180e-08
-2.664483e-08 1.639426e-08 -1.342052e-08 -2.330867e-08 -2.400205e-08 -2.583588e-08
-2.553171e-08 3.715778e-08 -1.828003e-08 -1.522970e-08 -1.882963e-08 -2.735641e-08
-2.583105e-08 2.231882e-08 -7.161399e-09 -2.275795e-08 -1.683861e-08 -2.223950e-08
-2.593790e-08 2.262681e-08 -9.792737e-09 -2.268046e-08 -2.136722e-08 -2.633612e-08
-2.614132e-08 2.409861e-08 -9.280907e-09 -2.279379e-08 -2.006633e-08 -2.606839e-08
-2.255687e-08 2.652049e-08 -8.769077e-09 -1.977957e-08 -1.573283e-08 -2.177468e-08
-2.246864e-08 1.824222e-08 -5.804947e-09 -1.923258e-08 -1.666934e-08 -1.942930e-08
-2.312454e-08 1.892580e-08 -9.468421e-09 -1.936409e-08 -2.210017e-08 -2.403134e-08
-1.767913e-08 2.024467e-08 -9.511976e-09 -1.588761e-08 -1.791995e-08 -2.004305e-08
-1.826995e-08 1.936570e-08 -8.657856e-09 -1.490344e-08 -1.743051e-08 -1.983220e-08
-2.244070e-08 1.728665e-08 -4.667891e-09 -1.920986e-08 -1.633181e-08 -1.962643e-08
-2.345375e-08 1.944302e-08 -6.012075e-09 -1.774398e-08 -1.620466e-08 -2.118810e-08
-2.412279e-08 2.255743e-08 -7.683443e-09 -1.743488e-08 -1.935226e-08 -2.334314e-08
-1.823092e-08 1.745782e-08 -6.428339e-09 -1.512637e-08 -1.638147e-08 -2.013695e-08
-2.297281e-08 1.728665e-08 -4.784416e-09 -1.961412e-08 -1.603578e-08 -1.935204e-08
-2.455228e-08 1.944303e-08 -5.914109e-09 -1.832038e-08 -1.578255e-08 -2.085275e-08
-2.141603e-08 1.722260e-08 -5.580120e-09 -1.759404e-08 -1.435820e-08 -1.926698e-08
-2.203589e-08 1.737923e-08 -5.975640e-09 -1.751749e-08 -1.505388e-08 -1.809342e-08
-2.692520e-08 1.232461e-08 -3.822724e-09 -2.758070e-08 -2.139953e-08 -2.154184e-08
-2.665850e-08 1.398039e-08 -2.537202e-09 -2.824881e-08 -1.981264e-08 -2.220819e-08
-2.604723e-08 1.098269e-08 -1.130649e-09 -2.826794e-08 -2.121261e-08 -2.109477e-08
-2.626726e-08 1.021474e-08 -1.698704e-09 -2.920470e-08 -2.229856e-08 -2.147458e-08
-2.257246e-08 1.205126e-08 -5.356826e-14 -2.404820e-08 -1.701117e-08 -1.731074e-08
-2.211710e-08 1.304133e-08 1.097322e-09 -2.477411e-08 -1.576581e-08 -1.803393e-08
-2.298693e-08 1.001416e-08 -1.718509e-09 -2.661432e-08 -1.926597e-08 -1.960818e-08
-2.132347e-08 1.135551e-08 -1.708651e-09 -2.508032e-08 -1.796191e-08 -1.777877e-08
8.838715e-09 -4.378451e-09 -1.158864e-09 3.332229e-09 4.711316e-10 2.608513e-10
8.810308e-09 -4.542168e-09 -1.225915e-09 3.068631e-09 3.662157e-10 8.335885e-11
8.937339e-09 -4.508651e-09 -1.202049e-09 3.173360e-09 4.088478e-10 2.945478e-10
9.061629e-09 -4.551481e-09 -1.275164e-09 3.132240e-09 3.520646e-10 2.588709e-10
8.556151e-09 -4.378450e-09 -1.129728e-09 3.251368e-09 4.169465e-10 1.879219e-10
8.786886e-09 -4.542168e-09 -1.163469e-09 3.028697e-09 3.394582e-10 1.221019e-10
8.774753e-09 -4.570613e-09 -1.193678e-09 3.054340e-09 3.086183e-10 1.558635e-10
8.837864e-09 -4.552733e-09 -1.217343e-09 3.020001e-09 3.219098e-10 1.400681e-10
8.325671e-09 -4.211734e-09 -1.140215e-09 3.538095e-09 4.041850e-10 1.261550e-10
8.364576e-09 -4.204256e-09 -1.215159e-09 3.558028e-09 4.198363e-10 2.070243e-10
8.252734e-09 -4.221332e-09 -1.132276e-09 3.658244e-09 3.958522e-10 1.121460e-10
8.200783e-09 -4.239156e-09 -1.112070e-09 3.622152e-09 4.167786e-10 1.852658e-10
8.655473e-09 -4.218225e-09 -1.144484e-09 3.446994e-09 3.928308e-10 1.251455e-10
8.737405e-09 -4.214770e-09 -1.215504e-09 3.463828e-09 4.126439e-10 2.172031e-10
8.735981e-09 -4.237591e-09 -1.118685e-09 3.449244e-09 4.316594e-10 1.995355e-10
8.907378e-09 -4.335681e-09 -1.269586e-09 3.422906e-09 3.099816e-10 1.643106e-10
8.125443e-09 -3.942413e-09 -1.214346e-09 3.629812e-09 4.964451e-10 3.368013e-10
8.046927e-09 -4.015589e-09 -1.163070e-09 3.734274e-09 4.915011e-10 2.834859e-10
7.810840e-09 -3.642290e-09 -1.153317e-09 3.916300e-09 5.528755e-10 3.239162e-10
7.788955e-09 -3.666777e-09 -1.199396e-09 3.780329e-09 6.155529e-10 3.824003e-10
8.294325e-09 -3.945386e-09 -1.137006e-09 3.637790e-09 4.754166e-10 1.857960e-10
8.242791e-09 -4.031878e-09 -1.102686e-09 3.713377e-09 4.843472e-10 1.553697e-10
8.337828e-09 -3.696474e-09 -1.197959e-09 3.913355e-09 4.413031e-10 8.032108e-11
8.217537e-09 -3.821617e-09 -1.079290e-09 3.783941e-09 5.343445e-10 2.269647e-10
1.227229e-07 2.497275e-08 -3.021096e-07 -7.277881e-08 -3.578699e-07 -4.621794e-08
1.240423e-07 4.402122e-07 -6.779109e-07 -1.320064e-07 -3.778005e-07 -9.519881e-08
1.229090e-07 1.984213e-07 -3.280431e-07 -1.038182e-07 -1.637894e-07 -8.607463e-08
9.999759e-08 1.329638e-07 -1.874669e-07 -5.543356e-08 -1.529273e-07 -5.132467e-08
1.091008e-07 2.860157e-08 -2.871829e-07 -8.860159e-08 -3.481944e-07 -5.843787e-08
2.305869e-08 3.143536e-07 -2.285420e-07 -7.741077e-08 -1.236460e-07 -1.592926e-07
1.077602e-07 2.019063e-07 -4.745814e-07 -1.256762e-07 -3.212576e-07 -1.063472e-07
6.824872e-08 3.198845e-07 -3.456003e-07 -1.075678e-07 -1.893778e-07 -1.140294e-07
5.908716e-08 4.442275e-07 -3.438554e-07 -1.467832e-07 -2.163434e-07 -9.612632e-08
7.162507e-08 2.400006e-07 -2.976351e-07 5.050375e-08 -1.991995e-07 3.127876e-08
2.130317e-08 4.223765e-07 -2.913658e-07 -1.032803e-07 -1.019111e-07 -1.413834e-07
1.030160e-07 4.234549e-07 -7.177376e-07 -5.434420e-08 -4.191708e-07 -4.878128e-08
9.736026e-08 1.401799e-07 -1.942182e-07 -7.218071e-09 -1.985181e-07 -4.651655e-08
2.022731e-07 -9.213906e-08 -4.215095e-07 -4.092154e-08 -4.969751e-07 1.596446e-08
2.106205e-07 6.508592e-09 -3.929664e-07 -7.225623e-08 -4.024880e-07 -4.073993e-09
2.002504e-07 -1.551191e-07 -4.032303e-07 -2.462973e-08 -4.797419e-07 8.806724e-09
2.045120e-07 -1.750127e-07 -4.092253e-07 -9.852651e-09 -4.952491e-07 2.996112e-08
1.207025e-07 -9.012999e-08 -3.953852e-07 -5.045942e-08 -5.086697e-07 -1.463340e-09
1.229655e-07 1.147970e-08 -3.754985e-07 -7.364768e-08 -4.119678e-07 -8.749660e-09
1.385926e-07 -1.625848e-07 -3.914093e-07 -8.613223e-08 -5.499227e-07 2.064462e-08
1.021112e-07 -5.460458e-08 -3.578565e-07 -4.735630e-08 -3.892353e-07 -2.344565e-08
-4.098123e-08 1.684375e-07 -6.590675e-08 -7.460225e-09 -5.327864e-08 8.936416e-08
-4.381351e-08 1.557153e-07 -6.845099e-08 -7.970758e-10 -5.340094e-09 5.343588e-08
-4.744956e-08 1.563152e-07 -6.927093e-08 4.130344e-09 -5.346263e-09 5.939929e-08
-1.209986e-09 1.330019e-07 -1.162752e-07 9.179941e-10 -4.155858e-08 7.518284e-08
-2.830171e-08 1.513173e-07 -6.519056e-08 -3.215916e-09 -5.711044e-08 9.496290e-08
-1.599175e-08 1.533581e-07 -7.509006e-08 -1.064090e-08 -1.094674e-08 5.150675e-08
6.494776e-08 1.519855e-07 -1.075620e-07 -3.974083e-08 -2.859671e-08 4.572772e-08
5.339350e-08 1.790725e-07 -1.073420e-07 -5.075384e-08 -3.294743e-08 4.472587e-08
-1.792043e-08 1.629946e-07 -3.053467e-08 -4.708532e-08 -2.271098e-08 6.720554e-08
-2.221397e-08 1.665284e-07 -1.802968e-08 -6.974783e-08 -3.077001e-08 8.924171e-08
-8.459092e-09 1.345321e-07 -5.498643e-08 -5.327181e-08 1.812036e-08 3.509266e-08
3.469234e-08 1.882993e-07 -6.801889e-08 -1.119318e-07 1.314393e-08 2.375037e-08
-2.826502e-08 1.522000e-07 -5.097599e-08 2.767395e-09 -6.081997e-08 8.480933e-08
2.053034e-08 1.799707e-07 -1.238807e-07 -3.386087e-08 -1.133495e-07 8.065724e-08
-1.001278e-08 1.996605e-07 -5.969674e-08 -2.829560e-08 -6.544044e-08 9.219937e-08
1.008855e-08 1.457046e-07 -8.561527e-08 -3.885839e-08 -1.038681e-07 7.900708e-08
1.365678e-08 1.553471e-07 -8.559856e-08 -2.066017e-08 -1.053910e-07 7.350849e-08
-1.890352e-08 1.891700e-07 -8.095441e-08 -6.521326e-08 -8.354916e-08 6.326392e-08
2.003045e-08 1.257275e-07 -1.084134e-07 -3.914428e-08 -1.252898e-07 8.001035e-08
-1.413268e-08 1.607146e-07 -2.188462e-08 -4.364567e-08 -5.076729e-08 8.883641e-08
-1.629952e-08 2.185985e-07 -1.075662e-07 -4.784454e-08 -8.800994e-08 7.507664e-08
-8.136962e-08 1.296218e-07 -3.444876e-08 4.901747e-08 -1.559208e-08 9.234563e-08
-7.677775e-08 1.526505e-07 -4.191027e-08 3.873419e-08 -1.155416e-08 9.052452e-08
-9.746409e-08 1.080487e-07 -4.138017e-08 7.189434e-08 -1.297847e-08 9.007233e-08
-9.471351e-08 1.097261e-07 -5.042561e-08 8.239297e-08 -3.630685e-08 8.896235e-08
-4.219008e-08 1.371464e-07 -5.838422e-08 -2.825062e-10 -4.923467e-08 9.031288e-08
-3.436626e-08 1.882826e-07 -5.792267e-08 -2.035976e-08 -2.743167e-08 8.103074e-08
1.115981e-09 1.219656e-07 -7.977315e-08 9.373105e-10 -6.990034e-08 7.962751e-08
-1.552170e-09 1.277060e-07 -8.460429e-08 3.287456e-09 -6.685046e-08 7.603661e-08
1.039351e-08 -4.881760e-09 -1.407861e-09 3.900861e-09 4.071117e-10 2.631886e-10
1.040036e-08 -4.891063e-09 -1.379481e-09 3.895241e-09 4.148890e-10 2.489859e-10
1.061196e-08 -5.141447e-09 -1.395459e-09 3.713342e-09 3.499046e-10 2.192493e-10
1.059455e-08 -5.043632e-09 -1.358925e-09 3.653285e-09 4.097684e-10 1.848662e-10
1.052111e-08 -4.884563e-09 -1.495494e-09 3.922412e-09 4.285856e-10 2.482392e-10
1.054142e-08 -4.899416e-09 -1.460112e-09 3.913023e-09 4.416010e-10 2.214247e-10
1.048741e-08 -5.039119e-09 -1.475053e-09 3.615860e-09 3.894036e-10 5.904255e-11
1.059837e-08 -5.019680e-09 -1.444950e-09 3.686664e-09 4.152393e-10 1.780620e-10
9.813736e-09 -4.303471e-09 -1.340041e-09 4.339538e-09 4.860166e-10 2.365379e-10
9.521306e-09 -4.036894e-09 -1.386415e-09 4.608592e-09 4.579972e-10 4.148171e-11
9.756895e-09 -4.187194e-09 -1.235904e-09 4.624726e-09 4.723577e-10 2.297945e-10
9.387961e-09 -4.005503e-09 -1.193269e-09 4.636071e-09 5.738157e-10 1.641410e-10
9.446078e-09 -4.300560e-09 -1.357506e-09 4.346376e-09 4.903233e-10 3.422991e-10
9.477169e-09 -4.048362e-09 -1.424166e-09 4.663375e-09 4.287530e-10 9.167375e-11
9.235924e-09 -4.133765e-09 -1.393782e-09 4.422896e-09 5.270051e-10 6.183656e-10
9.107032e-09 -4.198493e-09 -1.207405e-09 4.537653e-09 5.181950e-10 5.157190e-10
9.801104e-09 -4.558250e-09 -1.382512e-09 3.961693e-09 3.865930e-10 6.268208e-11
9.784337e-09 -4.557532e-09 -1.352724e-09 3.958571e-09 3.819085e-10 8.803492e-11
9.771421e-09 -4.475739e-09 -1.212049e-09 4.066709e-09 3.989469e-10 5.179679e-11
9.789778e-09 -4.388742e-09 -1.422815e-09 4.022611e-09 3.585321e-10 4.197731e-11
1.015139e-08 -4.714105e-09 -1.410328e-09 4.195784e-09 3.070811e-10 8.752444e-11
1.014610e-08 -4.714045e-09 -1.374262e-09 4.197461e-09 3.090238e-10 1.043614e-10
1.001439e-08 -4.718654e-09 -1.379856e-09 4.168465e-09 2.735626e-10 -2.330133e-12
9.978763e-09 -4.827715e-09 -1.180739e-09 4.230818e-09 3.177165e-10 -2.953304e-11
1.269332e-08 -5.235041e-09 -1.757826e-09 4.781160e-09 3.261085e-10 -3.171778e-10
1.332704e-08 -5.305477e-09 -1.784471e-09 4.776094e-09 4.598555e-10 7.210367e-11
1.244675e-08 -4.954855e-09 -1.828613e-09 5.287845e-09 4.522365e-10 -2.075306e-10
1.244354e-08 -5.116118e-09 -1.699990e-09 5.262759e-09 5.289377e-10 -1.848746e-10
1.270439e-08 -5.221314e-09 -1.750958e-09 4.759546e-09 3.060852e-10 -2.629914e-10
1.333444e-08 -5.298028e-09 -1.839166e-09 4.764274e-09 4.592645e-10 9.796920e-11
1.340944e-08 -5.345821e-09 -1.700680e-09 4.873201e-09 4.645080e-10 -1.259988e-10
1.364270e-08 -5.465008e-09 -1.966286e-09 4.757186e-09 2.764761e-10 -4.126868e-10
1.336783e-08 -5.420604e-09 -1.835987e-09 4.606761e-09 4.387661e-10 -1.104539e-10
1.385487e-08 -5.599543e-09 -1.897304e-09 4.206726e-09 3.167138e-10 -2.092497e-10
1.381980e-08 -5.617076e-09 -1.913062e-09 4.119156e-09 2.978204e-10 -3.465723e-10
1.348865e-08 -5.514665e-09 -1.998525e-09 4.428569e-09 3.246071e-10 7.649363e-11
1.297154e-08 -5.408352e-09 -1.713437e-09 4.539229e-09 3.927851e-10 -5.307220e-11
1.336800e-08 -5.585947e-09 -1.782768e-09 4.133531e-09 2.675437e-10 -1.806584e-10
1.299908e-08 -5.576191e-09 -1.765989e-09 4.251688e-09 2.831431e-10 -1.129485e-10
1.313612e-08 -5.611617e-09 -1.767527e-09 4.231199e-09 2.907426e-10 -1.048530e-10
1.247117e-08 -4.775686e-09 -1.862595e-09 5.143648e-09 6.764651e-10 5.427077e-10
1.210268e-08 -4.483656e-09 -1.944933e-09 5.492457e-09 1.811054e-10 -9.000463e-10
1.257544e-08 -4.636579e-09 -1.954596e-09 5.423432e-09 5.189349e-10 -1.383005e-10
1.195759e-08 -4.343676e-09 -1.967175e-09 5.450184e-09 6.239530e-10 4.780666e-11
1.272396e-08 -4.782477e-09 -1.686498e-09 5.160816e-09 5.379777e-10 -4.989741e-11
1.187308e-08 -4.471808e-09 -1.706183e-09 5.450930e-09 4.293055e-10 -4.057932e-10
1.244326e-08 -4.728632e-09 -1.663709e-09 5.393857e-09 6.703086e-10 -1.109129e-10
1.244556e-08 -4.608466e-09 -1.798177e-09 5.410899e-09 5.879080e-10 -1.274039e-10
1.674344e-08 -6.052365e-09 -2.481958e-09 5.067735e-09 6.165477e-10 -8.501066e-10
1.690303e-08 -6.208201e-09 -2.473530e-09 4.651544e-09 5.044669e-10 -1.485867e-09
1.689164e-08 -6.091488e-09 -2.472422e-09 4.716424e-09 6.705358e-10 -1.287904e-09
1.641379e-08 -6.076478e-09 -2.338567e-09 4.928651e-09 7.190224e-10 -8.837976e-10
1.656638e-08 -6.020704e-09 -2.221983e-09 4.873582e-09 4.766390e-10 -6.921572e-10
1.695797e-08 -6.179844e-09 -2.214504e-09 4.469248e-09 3.774759e-10 -1.257622e-09
1.613303e-08 -6.105454e-09 -2.009886e-09 4.698028e-09 5.008654e-10 -8.694896e-10
1.666056e-08 -6.253899e-09 -2.137517e-09 4.625244e-09 3.123440e-10 -7.110101e-10
1.620036e-08 -5.203417e-09 -2.574167e-09 5.826626e-09 7.121892e-10 -6.555800e-10
1.567823e-08 -4.897831e-09 -2.531740e-09 6.344957e-09 5.309957e-10 -1.264748e-09
1.657052e-08 -5.212482e-09 -2.576863e-09 6.232432e-09 7.783921e-10 -8.030234e-10
1.560036e-08 -4.678156e-09 -2.562088e-09 6.223697e-09 6.836645e-10 -7.571986e-10
1.615747e-08 -5.234435e-09 -2.492657e-09 5.970596e-09 6.286005e-10 -7.055984e-10
1.571428e-08 -4.931101e-09 -2.448499e-09 6.494892e-09 4.409766e-10 -1.341360e-09
1.586514e-08 -5.167505e-09 -2.392007e-09 6.206848e-09 7.067371e-10 -5.464444e-10
1.599402e-08 -5.213281e-09 -2.509815e-09 6.265398e-09 7.808344e-10 -6.620816e-10
2.109794e-08 -5.747223e-09 -3.306934e-09 6.642896e-09 5.189745e-10 -2.259855e-09
2.099188e-08 -5.456609e-09 -3.256473e-09 7.501687e-09 3.279967e-10 -3.269622e-09
2.092397e-08 -5.519112e-09 -2.935350e-09 7.222118e-09 3.454815e-10 -2.570497e-09
2.116662e-08 -5.743252e-09 -3.038481e-09 7.188366e-09 5.764070e-10 -2.352986e-09
2.205787e-08 -5.713441e-09 -3.265266e-09 6.436095e-09 5.962394e-10 -2.529547e-09
2.138810e-08 -5.283679e-09 -3.226447e-09 7.075718e-09 6.830119e-10 -2.793643e-09
2.149469e-08 -5.646570e-09 -3.068886e-09 7.053680e-09 4.599132e-10 -3.073756e-09
2.131533e-08 -5.020211e-09 -3.163109e-09 7.115665e-09 5.578382e-10 -2.921535e-09
2.132900e-08 -5.386928e-09 -3.343104e-09 7.165076e-09 8.192238e-10 -2.945422e-09
2.215946e-08 -5.619276e-09 -3.089777e-09 7.299460e-09 5.792977e-10 -2.915738e-09
2.139347e-08 -5.124084e-09 -3.089812e-09 7.132552e-09 5.306787e-10 -2.836471e-09
2.176457e-08 -5.434292e-09 -3.295683e-09 7.357483e-09 3.712542e-10 -3.409223e-09
2.201057e-08 -5.787800e-09 -3.231051e-09 7.138995e-09 7.383509e-10 -2.770165e-09
2.180746e-08 -6.536308e-09 -2.759919e-09 4.900947e-09 4.848311e-10 -2.348663e-09
2.155089e-08 -6.408712e-09 -2.663962e-09 5.160678e-09 6.142016e-10 -1.919034e-09
2.207839e-08 -7.000130e-09 -2.834366e-09 4.699948e-09 2.967270e-10 -2.162189e-09
2.194534e-08 -6.758578e-09 -2.329647e-09 4.213474e-09 6.721012e-10 -2.622396e-09
2.192172e-08 -6.554143e-09 -3.252090e-09 5.009638e-09 6.006826e-10 -2.605007e-09
2.168510e-08 -6.449200e-09 -3.062768e-09 5.268836e-09 7.432611e-10 -2.190839e-09
2.071571e-08 -6.743297e-09 -2.880082e-09 4.164926e-09 6.332216e-10 -3.446833e-09
2.122567e-08 -6.573308e-09 -2.918992e-09 4.499917e-09 8.379708e-10 -2.836250e-09
3.044934e-08 -7.684910e-09 -3.830949e-09 5.601348e-09 3.430899e-10 -7.238972e-09
3.046190e-08 -7.767892e-09 -3.423250e-09 5.566540e-09 -1.119507e-10 -7.710680e-09
3.026367e-08 -8.387889e-09 -3.272280e-09 5.918623e-09 4.311212e-10 -8.051770e-09
2.978046e-08 -8.527438e-09 -2.858443e-09 5.633715e-09 5.222761e-10 -7.649770e-09
2.836645e-08 -7.645790e-09 -3.224454e-09 5.931611e-09 -4.768240e-11 -6.530541e-09
2.831406e-08 -7.708927e-09 -2.620807e-09 5.872201e-09 -5.169789e-10 -7.092011e-09
2.813686e-08 -8.193318e-09 -2.000212e-09 5.519753e-09 -4.433866e-11 -7.040923e-09
2.680093e-08 -8.492788e-09 -2.542134e-09 6.157987e-09 -4.615132e-10 -6.182691e-09
3.060954e-08 -6.508731e-09 -4.259922e-09 6.281161e-09 5.492084e-10 -6.767349e-09
2.933606e-08 -5.956811e-09 -4.002012e-09 7.588439e-09 1.701264e-10 -7.768931e-09
3.021864e-08 -6.484327e-09 -3.908708e-09 7.624634e-09 4.381683e-10 -7.336632e-09
2.988964e-08 -5.706660e-09 -3.917283e-09 7.214906e-09 2.792470e-10 -7.103340e-09
2.936594e-08 -6.552452e-09 -4.014076e-09 6.548873e-09 4.413785e-10 -6.557083e-09
2.797588e-08 -5.998068e-09 -3.765161e-09 7.851286e-09 6.878396e-11 -7.514106e-09
2.802751e-08 -6.591949e-09 -3.170505e-09 7.431161e-09 4.436244e-10 -6.684123e-09
2.829510e-08 -6.475419e-09 -3.610688e-09 7.665914e-09 4.912277e-10 -6.895429e-09
2.945947e-08 -7.267989e-09 -4.399693e-09 4.347394e-09 4.678731e-10 -5.555189e-09
3.142840e-08 -7.482658e-09 -3.949346e-09 2.184046e-09 7.657492e-10 -7.084308e-09
2.981956e-08 -7.721913e-09 -3.799522e-09 2.910372e-09 5.803016e-10 -6.102991e-09
2.897783e-08 -7.536616e-09 -3.965178e-09 3.064156e-09 4.135799e-10 -5.688192e-09
2.969971e-08 -7.248293e-09 -4.347965e-09 4.511517e-09 4.301993e-10 -5.717716e-09
3.042930e-08 -8.047269e-09 -3.823996e-09 3.758208e-09 6.728645e-10 -6.416578e-09
2.852985e-08 -7.773860e-09 -3.991519e-09 3.881838e-09 4.433676e-10 -5.282293e-09
3.012007e-08 -7.764586e-09 -3.963058e-09 3.721125e-09 4.735506e-10 -6.094092e-09
3.979692e-08 -6.901386e-09 -5.595636e-09 5.486440e-09 6.933107e-12 -1.292239e-08
3.889003e-08 -7.120393e-09 -4.120310e-09 7.522505e-09 -4.115386e-10 -1.543497e-08
3.895263e-08 -6.855189e-09 -3.890517e-09 6.694521e-09 -8.154225e-10 -1.318820e-08
3.782742e-08 -6.857573e-09 -3.771291e-09 7.188924e-09 -8.457686e-10 -1.405458e-08
4.463139e-08 -6.798537e-09 -5.212988e-09 4.752138e-09 2.874682e-10 -1.453016e-08
4.279502e-08 -7.023086e-09 -3.870125e-09 6.864398e-09 -1.581295e-10 -1.667588e-08
4.279130e-08 -6.906781e-09 -3.513448e-09 6.786452e-09 -3.621533e-10 -1.653086e-08
4.435405e-08 -6.880030e-09 -3.546658e-09 6.195315e-09 -3.247407e-10 -1.636580e-08
4.082284e-08 -7.730073e-09 -3.546706e-09 1.288428e-09 8.897170e-10 -1.334114e-08
3.992999e-08 -7.673925e-09 -3.813373e-09 2.278625e-09 8.506995e-10 -1.170707e-08
4.092063e-08 -8.529432e-09 -4.102323e-09 1.356564e-09 3.457605e-10 -1.211710e-08
4.033234e-08 -8.004802e-09 -2.052631e-09 -8.303868e-10 1.731064e-09 -1.394118e-08
4.312991e-08 -7.786202e-09 -5.475947e-09 1.553784e-09 1.268812e-09 -1.363404e-08
4.210950e-08 -7.836438e-09 -5.192410e-09 2.431365e-09 1.329895e-09 -1.243830e-08
3.986140e-08 -8.024366e-09 -3.753470e-09 -6.876668e-10 1.915464e-09 -1.543201e-08
4.081632e-08 -8.063215e-09 -3.912642e-09 -2.285758e-10 1.836332e-09 -1.438342e-08
5.306118e-08 -7.309326e-09 -3.307018e-09 1.027599e-09 -6.457819e-10 -2.839493e-08
5.305855e-08 -8.152633e-09 1.890649e-09 1.753803e-09 7.490879e-10 -3.175794e-08
5.004407e-08 -1.048503e-08 6.358379e-10 5.056529e-09 -1.294816e-09 -2.791956e-08
4.751581e-08 -1.128324e-08 6.286995e-10 3.633466e-09 -2.352978e-09 -2.991703e-08
5.706554e-08 -8.377366e-09 -3.275896e-09 7.276115e-10 5.536772e-10 -3.043181e-08
5.845127e-08 -8.791108e-09 3.534159e-09 9.274308e-10 1.926388e-09 -3.519899e-08
5.832526e-08 -9.911951e-09 3.346290e-09 -8.105353e-10 -3.128515e-11 -3.535338e-08
5.662902e-08 -1.218664e-08 3.446868e-09 1.372867e-09 7.928786e-10 -3.574511e-08
5.690560e-08 -6.841719e-09 -3.012694e-09 6.368707e-10 1.295093e-09 -3.035046e-08
5.630014e-08 -6.724816e-09 -2.830267e-09 3.487199e-09 1.126619e-09 -3.240108e-08
5.655364e-08 -7.921691e-09 3.106289e-09 4.024812e-09 1.180893e-09 -3.414003e-08
5.595055e-08 -7.437328e-09 2.925156e-09 3.965419e-09 1.160979e-09 -3.447084e-08
6.456242e-08 -6.733727e-09 -1.608156e-09 -2.754489e-10 1.824279e-09 -3.457610e-08
6.191946e-08 -6.612258e-09 -1.506760e-09 2.665594e-09 1.669636e-09 -3.566490e-08
5.839717e-08 -7.376399e-09 -3.023984e-10 4.477947e-09 7.114731e-10 -3.475887e-08
6.303576e-08 -6.861934e-09 1.068137e-09 2.426638e-09 1.840304e-09 -3.728068e-08
5.547165e-08 -4.773430e-09 -4.531822e-09 -5.291651e-09 3.397179e-09 -2.605817e-08
5.321631e-08 -6.243216e-09 -4.203629e-09 -2.431667e-09 3.034499e-09 -2.417667e-08
5.478634e-08 -6.346028e-09 -4.172137e-09 -4.171945e-09 2.175763e-09 -2.376163e-08
5.330838e-08 -4.068923e-09 -2.190274e-09 -9.602698e-09 5.336177e-09 -2.540861e-08
5.833574e-08 -4.651436e-09 -7.571661e-09 -6.178742e-09 2.891432e-09 -2.667265e-08
5.606837e-08 -5.750867e-09 -6.581045e-09 -3.679998e-09 3.186017e-09 -2.543194e-08
5.198202e-08 -3.954416e-09 -5.215911e-09 -1.027719e-08 5.063461e-09 -2.821538e-08
5.376738e-08 -5.414407e-09 -5.024533e-09 -1.011241e-08 3.973918e-09 -2.674630e-08
7.185266e-08 -4.180554e-09 6.248841e-09 -1.703055e-08 8.142008e-09 -5.432813e-08
7.334552e-08 -4.309496e-09 9.886347e-09 -1.658498e-08 8.578223e-09 -5.977339e-08
6.189084e-08 -4.346140e-09 4.559599e-09 -1.242995e-08 7.428136e-09 -4.829461e-08
5.879300e-08 -4.806381e-09 1.148081e-08 -1.506330e-08 7.723936e-09 -5.582807e-08
8.040947e-08 -4.359910e-09 6.209894e-09 -1.595296e-08 8.535363e-09 -6.021028e-08
8.037639e-08 -4.558778e-09 7.867090e-09 -1.543375e-08 9.321821e-09 -6.477448e-08
7.723264e-08 -5.532089e-09 1.917588e-08 -1.736065e-08 9.215976e-09 -6.774007e-08
8.199691e-08 -6.413954e-09 1.490151e-08 -1.705137e-08 1.116442e-08 -6.880980e-08
7.917257e-08 -1.443203e-09 8.678149e-10 -2.350054e-08 1.061405e-08 -5.238011e-08
7.618348e-08 -1.529191e-09 -8.472684e-10 -2.212300e-08 9.882805e-09 -4.993491e-08
7.445323e-08 -2.237610e-09 4.846891e-09 -2.763187e-08 1.264811e-08 -5.277849e-08
7.307417e-08 -1.264593e-09 -7.264064e-10 -2.163507e-08 1.059330e-08 -4.594811e-08
7.567968e-08 8.024658e-10 7.470110e-10 -2.491548e-08 9.749046e-09 -5.042425e-08
7.383307e-08 6.683080e-10 -3.351155e-10 -2.281184e-08 8.658806e-09 -4.889147e-08
7.184555e-08 2.745060e-09 3.779778e-09 -3.018026e-08 1.300163e-08 -5.247984e-08
6.956492e-08 -4.014087e-10 2.011785e-09 -2.691864e-08 9.678756e-09 -4.765117e-08
9.654518e-08 -4.770509e-09 1.915490e-09 -1.448697e-08 6.286179e-09 -6.373076e-08
9.542979e-08 -4.630584e-09 3.951815e-09 -1.326552e-08 4.532888e-09 -6.371377e-08
9.743911e-08 -6.630009e-09 5.287986e-10 -3.391996e-09 6.225891e-10 -6.380457e-08
9.568795e-08 -6.162746e-09 2.109118e-09 -1.206115e-08 6.445008e-09 -6.440749e-08
8.854827e-08 -5.054659e-09 9.699699e-09 -2.014335e-08 1.036332e-08 -6.583749e-08
8.399414e-08 -5.814784e-09 1.166883e-08 -1.908750e-08 1.042937e-08 -6.863047e-08
8.466340e-08 -5.515216e-09 1.162942e-08 -1.735086e-08 9.604941e-09 -6.767890e-08
8.450024e-08 -4.314290e-09 1.160206e-08 -2.074257e-08 8.815252e-09 -6.775630e-08
8.470461e-08 -5.782433e-09 9.884303e-09 -1.924180e-08 1.051837e-08 -6.882762e-08
8.049891e-08 -5.422538e-09 1.157849e-08 -1.739011e-08 9.720342e-09 -6.682572e-08
8.414903e-08 -4.357522e-09 1.158667e-08 -2.100206e-08 9.849757e-09 -6.700985e-08
8.463096e-08 -5.567229e-09 9.376656e-09 -1.739871e-08 1.029185e-08 -6.732786e-08
8.225163e-08 -5.567495e-09 1.166727e-08 -1.752613e-08 1.036402e-08 -6.857575e-08
5.623840e-08 3.152167e-08 3.470789e-08 -5.345725e-08 3.966521e-08 -8.950438e-08
4.919695e-08 2.485223e-08 2.673362e-08 -4.406486e-08 3.200189e-08 -7.644507e-08
5.113650e-08 3.001309e-08 2.512430e-08 -4.739190e-08 3.135440e-08 -7.661675e-08
4.860910e-08 3.180996e-08 3.880036e-08 -5.681768e-08 4.028657e-08 -8.351123e-08
6.938239e-08 3.163454e-08 2.737792e-08 -5.469134e-08 3.951395e-08 -8.947303e-08
6.230879e-08 2.507813e-08 2.139696e-08 -4.592353e-08 3.268461e-08 -7.804487e-08
5.217239e-08 3.149665e-08 3.363603e-08 -5.496955e-08 4.183957e-08 -8.661831e-08
5.142196e-08 3.045112e-08 3.672513e-08 -5.588536e-08 4.135840e-08 -8.662592e-08
6.089404e-08 1.732104e-08 2.473536e-08 -3.846644e-08 2.637477e-08 -8.423715e-08
5.766340e-08 6.203021e-09 4.447136e-08 -2.368323e-08 2.487299e-08 -1.003377e-07
5.625154e-08 1.315274e-08 3.081384e-08 -3.205604e-08 1.859130e-08 -7.785862e-08
4.534174e-08 1.221408e-08 3.846168e-08 -2.615503e-08 1.720016e-08 -8.505890e-08
8.602245e-08 1.822039e-08 3.740692e-08 -4.394859e-08 2.981088e-08 -1.032370e-07
8.899318e-08 6.773340e-09 6.029759e-08 -3.154599e-08 2.694228e-08 -1.186420e-07
7.713862e-08 1.328481e-08 5.415663e-08 -3.287315e-08 2.383252e-08 -1.093952e-07
8.427395e-08 1.247862e-08 5.913025e-08 -4.070679e-08 2.867064e-08 -1.155939e-07
8.668567e-08 7.021611e-09 6.502731e-08 -2.900988e-08 2.553002e-08 -1.234137e-07
7.218657e-08 1.319025e-08 5.700005e-08 -3.405188e-08 2.346276e-08 -1.075404e-07
8.881506e-08 1.197194e-08 5.642406e-08 -3.773523e-08 2.707142e-08 -1.133868e-07
8.237718e-08 7.402944e-09 5.438828e-08 -3.051507e-08 2.868658e-08 -1.164602e-07
8.241708e-08 1.086708e-08 6.239977e-08 -3.120092e-08 2.302964e-08 -1.156831e-07
-1.674431e-08 8.969122e-08 6.672001e-08 -4.844359e-08 4.238036e-08 -5.343609e-08
-1.851534e-08 9.155690e-08 6.652477e-08 -4.850012e-08 5.401437e-08 -6.514432e-08
-2.254109e-08 8.853141e-08 5.698120e-08 -4.283783e-08 4.864091e-08 -5.507460e-08
-9.740757e-09 7.636807e-08 4.573602e-08 -3.784198e-08 3.365858e-08 -3.857309e-08
-8.599907e-09 8.298407e-08 6.712832e-08 -3.979381e-08 4.576753e-08 -6.419904e-08
-1.595257e-08 8.305436e-08 7.615958e-08 -3.801948e-08 5.195650e-08 -7.513263e-08
1.760934e-08 7.242305e-08 5.876159e-08 -3.677191e-08 3.631080e-08 -5.952406e-08
-5.226987e-09 6.951054e-08 6.423372e-08 -2.809249e-08 3.668824e-08 -5.655960e-08
1.024023e-08 9.209763e-08 5.603723e-08 -4.714124e-08 4.794018e-08 -8.491745e-08
1.064070e-08 9.314856e-08 6.732168e-08 -4.782493e-08 3.836744e-08 -8.052380e-08
1.390675e-08 7.885357e-08 6.561346e-08 -3.233231e-08 1.605509e-08 -9.059642e-08
1.345887e-08 8.919734e-08 6.633862e-08 -3.403463e-08 4.034933e-08 -8.819045e-08
9.382168e-09 7.590957e-08 7.568496e-08 -5.356416e-08 4.983833e-08 -7.836881e-08
1.649367e-08 7.114097e-08 7.829787e-08 -5.056277e-08 4.288707e-08 -7.934344e-08
7.480627e-09 7.443391e-08 8.425569e-08 -5.186935e-08 4.881785e-08 -7.655079e-08
7.844794e-09 7.978429e-08 8.572538e-08 -5.457732e-08 4.103641e-08 -7.576049e-08
3.793761e-09 7.437805e-08 7.665935e-08 -4.732465e-08 4.819074e-08 -8.686851e-08
1.769899e-08 7.121458e-08 8.494615e-08 -5.741643e-08 4.776797e-08 -8.287926e-08
1.537549e-08 6.655090e-08 8.603601e-08 -5.411044e-08 4.060685e-08 -7.731046e-08
3.266437e-09 7.624458e-08 8.192156e-08 -5.389733e-08 5.319268e-08 -9.059904e-08
2.297487e-08 7.161693e-08 7.759318e-08 -5.511752e-08 4.625497e-08 -8.139955e-08
-2.951583e-08 9.935309e-08 6.748786e-08 -4.945206e-08 7.239316e-08 -5.978717e-08
-3.584348e-08 1.028347e-07 4.656665e-08 -4.312105e-08 6.336865e-08 -4.808075e-08
-4.244737e-08 9.758399e-08 4.651152e-08 -3.453588e-08 6.412174e-08 -4.868510e-08
-4.258910e-08 1.078365e-07 5.408157e-08 -3.439241e-08 7.330047e-08 -4.825162e-08
4.366875e-09 1.020176e-07 4.082357e-08 -6.769754e-08 5.642104e-08 -5.599026e-08
-5.248161e-09 1.006936e-07 1.807376e-08 -5.788447e-08 4.326506e-08 -4.103528e-08
-3.267411e-09 1.104400e-07 3.042321e-08 -5.246530e-08 5.508908e-08 -3.589608e-08
-5.536176e-09 1.062944e-07 3.687776e-08 -5.557916e-08 5.119343e-08 -3.797996e-08
4.300736e-08 1.798333e-07 -3.714024e-07 -2.069269e-08 -2.251634e-07 9.088413e-08
4.238239e-08 1.828430e-07 -3.129725e-07 -1.890478e-08 -2.418522e-07 7.338479e-08
2.578812e-08 3.184093e-07 -2.735251e-07 -7.295820e-08 -9.271339e-08 8.286850e-08
2.073837e-08 2.756513e-07 -2.989488e-07 -8.814650e-08 -1.472937e-07 6.738989e-08
4.503860e-09 1.797046e-07 -3.665384e-07 -2.297218e-08 -2.250795e-07 9.540399e-08
1.653730e-08 1.831368e-07 -3.133540e-07 -1.621484e-08 -2.409992e-07 6.918402e-08
1.819113e-08 2.532196e-07 -3.018312e-07 -4.978265e-09 -1.594954e-07 7.874412e-08
-4.315897e-08 2.570561e-07 -2.873415e-07 -2.199187e-08 -1.808692e-07 5.391596e-08
7.748577e-08 1.655793e-07 -2.782854e-07 -2.992253e-08 -1.791956e-07 6.218215e-08
9.033404e-08 4.130865e-07 -4.332056e-07 -9.945001e-08 -1.431318e-07 1.933429e-08
8.630468e-08 3.755079e-07 -2.392217e-07 -1.213442e-07 -6.062016e-08 -4.103371e-09
9.536573e-08 2.041702e-07 -2.799955e-07 -8.499447e-08 -1.960202e-07 -8.706533e-09
6.268984e-08 1.726715e-07 -3.245634e-07 -3.764588e-08 -1.957542e-07 3.581693e-08
2.796078e-08 2.731581e-07 -2.284063e-07 -6.896898e-08 -1.007205e-07 -3.465701e-08
4.481319e-08 2.536483e-07 -3.531911e-07 -4.896715e-08 -2.186879e-07 1.287995e-08
4.513756e-08 5.012617e-07 -3.473215e-07 -9.910122e-08 -5.535315e-08 1.144854e-08
5.178480e-08 2.861687e-07 -2.261560e-07 -9.466555e-08 -1.295258e-07 -1.846801e-08
-3.985909e-08 3.082107e-07 -3.333466e-07 7.259060e-10 -1.835238e-07 6.404026e-08
4.166281e-08 4.531562e-07 -3.619072e-07 -1.188304e-07 -1.123785e-07 -2.758308e-08
4.065605e-08 2.396437e-07 -2.800193e-07 -6.261536e-08 -1.862709e-07 7.659194e-09
-1.676483e-09 2.560174e-07 -1.996131e-07 -4.456165e-08 -1.321946e-07 -1.088940e-08
1.506071e-08 5.290262e-08 -2.066076e-07 4.445409e-08 -2.618190e-07 1.407264e-07
-1.826457e-08 8.090621e-09 -2.221518e-07 8.310392e-08 -2.906867e-07 1.657971e-07
-8.674578e-09 2.621916e-08 -1.924822e-07 2.200398e-08 -1.899182e-07 1.329830e-07
-9.342784e-09 1.069535e-07 -1.629531e-07 2.931316e-08 -1.311435e-07 1.425034e-07
3.949835e-08 9.639861e-08 -2.147209e-07 7.706566e-08 -2.628954e-07 1.402475e-07
1.618537e-08 3.671017e-08 -2.276578e-07 1.165341e-07 -2.912116e-07 1.601471e-07
2.343843e-08 -1.425926e-08 -2.659998e-07 1.405512e-07 -3.355772e-07 1.787913e-07
5.204283e-08 9.138206e-08 -1.975312e-07 8.491067e-08 -2.155351e-07 1.086646e-07
5.614551e-08 5.529077e-08 -2.671326e-07 -1.163356e-07 -2.612397e-07 -1.072089e-07
5.885015e-08 5.471488e-08 -2.469938e-07 -1.149157e-07 -2.746941e-07 -1.195948e-07
4.459156e-08 6.648591e-08 -2.733107e-07 -1.039786e-07 -2.748209e-07 -9.436075e-08
2.710892e-08 1.090777e-07 -2.300145e-07 -6.205512e-08 -1.854948e-07 -9.842724e-08
2.179480e-08 5.881376e-08 -2.732819e-07 -1.093047e-07 -2.673225e-07 -9.096424e-08
2.346890e-08 5.904060e-08 -2.525606e-07 -1.082281e-07 -2.810240e-07 -1.033423e-07
2.543765e-08 9.121577e-08 -2.337697e-07 -5.146500e-08 -1.959086e-07 -9.551985e-08
-3.456554e-10 1.659314e-07 -2.287582e-07 -7.557857e-08 -2.249739e-07 -1.006757e-07
8.758790e-08 -7.495555e-08 -2.471651e-07 -1.589593e-07 -3.213181e-07 -9.624805e-08
7.939780e-08 -3.016361e-08 -2.105132e-07 -1.597330e-07 -2.800823e-07 -9.368199e-08
1.103203e-07 -1.694648e-07 -2.056002e-07 -1.634491e-07 -3.287171e-07 -6.891871e-08
1.154202e-07 -1.552200e-07 -1.989759e-07 -1.432461e-07 -3.156064e-07 -6.164627e-08
6.910317e-08 -8.053064e-08 -1.716366e-07 -1.228477e-07 -2.851971e-07 -7.198043e-08
5.660555e-08 -6.727826e-08 -1.686436e-07 -1.124500e-07 -2.767150e-07 -5.823210e-08
4.136052e-08 -1.538841e-07 -1.913271e-07 -1.488078e-07 -3.211021e-07 -7.690069e-08
3.106467e-08 -5.967610e-08 -1.546567e-07 -1.010101e-07 -2.243343e-07 -7.435528e-08
2.978557e-08 5.922262e-09 -2.050453e-07 -1.121152e-07 -2.635256e-07 -1.143776e-07
1.084125e-08 2.049733e-07 -3.133725e-07 -9.016761e-08 -2.270973e-07 -1.599267e-07
1.333004e-08 1.332516e-07 -2.019370e-07 -1.003735e-07 -1.703964e-07 -1.270422e-07
-1.080327e-09 7.509261e-08 -1.493109e-07 -6.249170e-08 -1.813551e-07 -9.621163e-08
4.117076e-08 1.184908e-08 -1.861057e-07 -1.397995e-07 -2.287865e-07 -1.290680e-07
1.346904e-09 2.161219e-07 -2.380786e-07 -1.405506e-07 -1.600182e-07 -1.840194e-07
1.941112e-08 7.641249e-08 -1.971472e-07 -5.189683e-08 -1.970279e-07 -9.912882e-08
-1.342208e-08 1.397407e-07 -8.337760e-08 -8.304766e-08 -1.119999e-07 -1.453076e-07
-2.858206e-08 2.052070e-08 -8.712072e-08 -9.843549e-08 -1.068336e-07 -9.978676e-08
-4.219460e-08 8.875175e-08 -1.378401e-07 -7.978586e-08 -1.298132e-07 -1.391399e-07
-4.209189e-08 9.019795e-08 -1.325764e-07 -8.562439e-08 -1.326449e-07 -1.251394e-07
-1.943986e-08 5.024631e-08 -9.713731e-08 -7.775089e-08 -9.758488e-08 -9.201838e-08
-3.580374e-08 2.453603e-08 -8.699274e-08 -1.237213e-07 -1.053695e-07 -1.007872e-07
-4.320455e-08 7.627725e-08 -1.114766e-07 -1.028842e-07 -9.271758e-08 -1.088942e-07
-4.517117e-08 4.415063e-08 -1.050851e-07 -1.175680e-07 -1.101102e-07 -1.170172e-07
-4.995971e-08 5.582845e-08 -1.056230e-07 -1.147900e-07 -1.101924e-07 -1.153237e-07
-4.751488e-08 9.220864e-08 -1.234887e-07 -1.015902e-07 -1.082787e-07 -1.211195e-07
-1.042515e-08 4.567644e-08 -9.448310e-08 -9.219042e-08 -8.957610e-08 -9.632077e-08
-4.328760e-08 7.110749e-08 -9.772637e-08 -1.046614e-07 -9.803059e-08 -1.075362e-07
-2.659004e-08 8.999169e-08 -1.386615e-07 -8.829433e-08 -1.299917e-07 -1.318948e-07
-1.241529e-08 4.356611e-08 -1.016818e-07 -9.425474e-08 -8.478091e-08 -9.130173e-08
-8.365784e-09 2.020393e-08 -7.679475e-08 -1.192933e-07 -1.374939e-07 -8.144740e-08
1.378412e-08 -9.726841e-09 -9.928773e-08 -1.215444e-07 -1.653490e-07 -9.229251e-08
6.784845e-09 2.864678e-08 -1.001711e-07 -1.088775e-07 -1.485509e-07 -7.418227e-08
7.278588e-09 -1.571854e-08 -9.952660e-08 -1.151568e-07 -1.762759e-07 -8.309071e-08
-9.700249e-09 -2.999866e-08 -7.002733e-08 -1.394208e-07 -1.443589e-07 -9.140406e-08
6.349555e-09 -6.839933e-08 -9.124122e-08 -1.488965e-07 -1.736415e-07 -1.031590e-07
9.192341e-09 -6.574393e-08 -8.158120e-08 -1.379849e-07 -1.672755e-07 -9.233749e-08
6.154967e-09 -2.939070e-08 -8.029315e-08 -1.426666e-07 -1.299361e-07 -8.553049e-08
-4.109148e-08 1.573040e-08 -3.744645e-08 -8.648491e-08 -7.935322e-08 -6.829311e-08
-3.978396e-08 8.796581e-09 -3.751117e-08 -8.640970e-08 -8.232373e-08 -6.951799e-08
-3.601887e-08 8.469642e-09 -3.718033e-08 -9.056520e-08 -8.581794e-08 -6.775910e-08
-3.556121e-08 2.858024e-09 -3.576508e-08 -8.920833e-08 -8.555802e-08 -6.676295e-08
-3.264161e-08 1.281902e-08 -2.753870e-08 -6.834002e-08 -6.363716e-08 -5.893402e-08
-3.076749e-08 4.646963e-09 -2.784281e-08 -6.759710e-08 -6.677481e-08 -5.997113e-08
-3.201304e-08 -1.210080e-10 -2.976509e-08 -7.044103e-08 -6.980865e-08 -6.172015e-08
-2.703446e-08 1.576352e-08 -3.577384e-08 -6.137474e-08 -5.845407e-08 -5.690378e-08
-4.163434e-08 3.929372e-08 -3.739295e-08 -5.950196e-08 -5.419435e-08 -6.834816e-08
-3.799986e-08 4.540394e-08 -5.053215e-08 -5.478265e-08 -6.965233e-08 -7.954565e-08
-3.906402e-08 4.679628e-08 -5.228285e-08 -5.466863e-08 -6.900254e-08 -7.800754e-08
-2.847350e-08 5.120760e-08 -4.685796e-08 -4.445043e-08 -4.506672e-08 -6.290748e-08
-4.894452e-08 3.999682e-08 -3.739272e-08 -5.825569e-08 -5.513555e-08 -6.655364e-08
-4.614160e-08 4.683807e-08 -5.018320e-08 -5.381960e-08 -7.064489e-08 -7.848867e-08
-2.789418e-08 4.537668e-08 -4.761878e-08 -4.068488e-08 -4.748176e-08 -6.219695e-08
-4.099036e-08 5.811737e-08 -5.038209e-08 -4.186001e-08 -5.110812e-08 -6.894185e-08
-4.403965e-08 2.665761e-08 -3.381972e-08 -6.085539e-08 -5.928055e-08 -7.249035e-08
-4.967418e-08 5.157981e-08 -4.581818e-08 -5.025121e-08 -5.117551e-08 -8.122727e-08
-4.968864e-08 5.511340e-08 -3.846769e-08 -5.052656e-08 -5.641838e-08 -8.069469e-08
-3.981501e-08 3.970082e-08 -3.463264e-08 -4.543011e-08 -5.079572e-08 -7.430538e-08
-4.749768e-08 2.772652e-08 -3.619863e-08 -7.051720e-08 -5.356715e-08 -6.946540e-08
-5.427426e-08 4.512967e-08 -4.183395e-08 -6.038978e-08 -3.319216e-08 -6.688595e-08
-5.445870e-08 3.563473e-08 -4.081571e-08 -6.446033e-08 -4.690524e-08 -7.525605e-08
-5.656138e-08 4.390690e-08 -4.763163e-08 -6.394049e-08 -4.511208e-08 -7.122108e-08
-5.585568e-08 5.269917e-08 -4.716605e-08 -6.029891e-08 -3.634976e-08 -7.016771e-08
-4.356780e-08 3.850246e-08 -3.923724e-08 -5.345198e-08 -4.173975e-08 -7.099442e-08
-5.425327e-08 5.037861e-08 -4.052631e-08 -6.002196e-08 -3.789400e-08 -6.709757e-08
-4.813696e-08 5.201610e-08 -5.149099e-08 -5.427558e-08 -4.905930e-08 -7.693317e-08
-4.466375e-08 3.393365e-08 -4.286475e-08 -5.627659e-08 -3.752203e-08 -6.797087e-08
-3.545403e-08 2.927462e-08 -1.323348e-08 -3.861699e-08 -2.826605e-08 -3.689606e-08
-3.343385e-08 2.561912e-08 -1.183049e-08 -3.748133e-08 -2.493045e-08 -3.468395e-08
-3.355467e-08 3.684237e-08 -1.512718e-08 -3.041190e-08 -2.353057e-08 -3.778677e-08
-3.418587e-08 3.596768e-08 -1.445090e-08 -3.210117e-08 -2.342613e-08 -3.623888e-08
-3.680713e-08 2.236275e-08 -9.179209e-09 -4.206743e-08 -2.718235e-08 -3.510595e-08
-3.846677e-08 2.827555e-08 -6.892616e-09 -3.576372e-08 -2.283457e-08 -3.664847e-08
-3.959245e-08 2.878585e-08 -1.506310e-08 -4.036934e-08 -2.778689e-08 -3.964914e-08
-3.942929e-08 2.804561e-08 -1.209950e-08 -3.764602e-08 -2.385719e-08 -3.853105e-08
-3.915045e-08 2.870108e-08 -7.747930e-09 -3.820043e-08 -2.614448e-08 -3.742708e-08
-4.070263e-08 2.829561e-08 -1.237131e-08 -4.137046e-08 -2.814212e-08 -4.203437e-08
-3.973591e-08 3.083051e-08 -1.082350e-08 -3.835260e-08 -2.268742e-08 -4.071339e-08
-4.192749e-08 3.083484e-08 -1.054601e-08 -3.820318e-08 -2.278465e-08 -4.032657e-08
-3.752266e-08 2.731066e-08 -2.527740e-09 -3.660917e-08 -2.280205e-08 -3.390773e-08
-2.938856e-08 1.456073e-08 -5.429162e-09 -4.247197e-08 -3.208060e-08 -3.713906e-08
-2.828445e-08 1.066193e-08 -1.030017e-08 -4.425610e-08 -3.668337e-08 -3.820564e-08
-2.680867e-08 1.419916e-08 -1.026100e-08 -4.144672e-08 -3.278379e-08 -3.331446e-08
-2.257046e-08 1.209614e-08 -5.716688e-09 -4.246781e-08 -3.242174e-08 -3.780855e-08
-3.686736e-08 1.571184e-08 -8.525528e-09 -5.040393e-08 -3.616006e-08 -4.205461e-08
-3.482537e-08 1.175621e-08 -1.273611e-08 -5.181656e-08 -4.059557e-08 -4.224469e-08
-3.298684e-08 1.038500e-08 -1.007059e-08 -5.143078e-08 -3.995741e-08 -4.482595e-08
-3.454202e-08 1.209459e-08 -9.592488e-09 -5.216194e-08 -4.113325e-08 -4.353718e-08
-3.315779e-08 2.201957e-08 -1.480307e-08 -3.908888e-08 -3.232419e-08 -3.843660e-08
-3.001188e-08 2.059164e-08 -1.336765e-08 -3.811610e-08 -2.696661e-08 -3.302965e-08
-3.330784e-08 2.168491e-08 -1.321027e-08 -3.664446e-08 -2.748971e-08 -3.443394e-08
-3.127195e-08 2.589974e-08 -1.840974e-08 -3.349836e-08 -2.979114e-08 -3.757216e-08
-3.470498e-08 2.438946e-08 -1.066459e-08 -4.286652e-08 -2.918031e-08 -4.295462e-08
-2.964785e-08 2.246056e-08 -1.003334e-08 -4.129656e-08 -2.443833e-08 -3.799096e-08
-3.042762e-08 3.025657e-08 -1.840366e-08 -3.777427e-08 -2.656743e-08 -4.356008e-08
-2.782765e-08 2.932390e-08 -1.847762e-08 -3.752615e-08 -2.845966e-08 -4.622492e-08
SCALARS stress double 6
LOOKUP_TABLE default
-2.285356e+09 -2.085358e+09 -2.245359e+09 -1.074091e+03 5.382628e+02 -2.576594e+02
-1.795480e+09 -1.595480e+09 -1.755481e+09 -3.975544e+02 4.482651e+02 -1.113587e+02
-1.734038e+09 -1.534037e+09 -1.694039e+09 -2.368486e+02 5.214430e+02 -5.793750e+02
-2.432581e+09 -2.232580e+09 -2.392582e+09 -1.122527e+03 2.331133e+02 -5.530835e+02
-1.953573e+09 -1.753571e+09 -1.913573e+09 -4.029540e+02 6.803074e+02 -6.797008e+02
-4.071524e+09 -3.871524e+09 -4.031523e+09 3.679805e+02 -2.105549e+02 7.624414e+01
-3.481971e+09 -3.281971e+09 -3.441970e+09 1.851984e+02 -9.960150e+01 -4.074447e+01
-3.371941e+09 -3.171941e+09 -3.331940e+09 2.906424e+02 -2.475466e+02 8.106049e+00
-4.229964e+09 -4.029963e+09 -4.189963e+09 2.946057e+02 7.305653e+01 -2.433442e+01
-4.038496e+09 -3.838495e+09 -3.998495e+09 1.213707e+02 -1.034999e+02 -1.099160e+01
-3.856373e+09 -3.656373e+09 -3.816372e+09 1.617946e+02 -6.382384e+01 -3.687834e+01
-3.819422e+09 -3.619422e+09 -3.779421e+09 1.597795e+02 -1.180753e+02 -1.392022e+01
-2.996899e+09 -2.796902e+09 -2.956903e+09 -8.324991e+02 2.071093e+02 -1.580836e+02
-2.784148e+09 -2.584149e+09 -2.744150e+09 -1.335483e+03 -1.641989e+01 -1.028813e+01
-2.027569e+09 -1.827570e+09 -1.987571e+09 -1.056386e+03 6.066628e+02 -2.591369e+02
-2.779292e+09 -2.579294e+09 -2.739295e+09 4.078869e-01 3.383854e+02 8.201198e+01
-2.184454e+09 -1.984455e+09 -2.144457e+09 -3.941943e+02 2.355271e+02 2.740078e+02
-1.893872e+09 -1.693874e+09 -1.853875e+09 4.089614e+01 3.696729e+02 2.959858e+01
-2.861606e+09 -2.661603e+09 -2.821605e+09 5.949685e+02 8.450086e+02 -5.143665e+02
-2.950087e+09 -2.750083e+09 -2.910085e+09 6.808565e+02 6.885997e+02 -5.401661e+02
-3.445720e+09 -3.245718e+09 -3.405720e+09 2.039879e+02 3.787864e+02 -8.322131e+01
-2.651079e+09 -2.451076e+09 -2.611077e+09 5.212628e+02 5.952141e+02 -2.026566e+02
-2.620687e+09 -2.420683e+09 -2.580685e+09 6.843189e+02 7.762768e+02 -3.623524e+02
-2.911393e+09 -2.711389e+09 -2.871391e+09 1.068101e+03 7.628876e+02 -4.018976e+02
-2.199457e+09 -1.999459e+09 -2.159458e+09 -3.160753e+02 -4.244162e+01 -8.605085e+01
-2.136595e+09 -1.936594e+09 -2.096594e+09 -5.387072e+01 -2.294662e-01 -1.388458e+01
-2.108275e+09 -1.908273e+09 -2.068274e+09 -8.974892e+01 -1.305028e+01 -3.525481e+01
-2.088278e+09 -1.888277e+09 -2.048277e+09 -1.098240e+02 -1.816372e+01 -3.783864e+01
-2.706200e+09 -2.506198e+09 -2.666199e+09 -7.981089e+01 -1.056883e+01 -4.698638e+01
-2.492897e+09 -2.292895e+09 -2.452896e+09 -1.151064e+02 -1.739144e+01 1.431577e+01
-2.769854e+09 -2.569852e+09 -2.729853e+09 -1.410867e+02 -2.033376e+01 -2.604555e+01
-3.726169e+09 -3.526168e+09 -3.686168e+09 7.525995e+01 1.491314e+01 -5.017840e+01
-3.976310e+09 -3.776309e+09 -3.936309e+09 7.482268e+01 1.310233e+01 -9.464742e+00
-3.748659e+09 -3.548658e+09 -3.708658e+09 4.542920e+01 -1.166449e-01 -1.826852e+00
-4.126438e+09 -3.926443e+09 -4.086449e+09 -1.498332e+03 3.301629e+03 7.906360e+02
-3.421557e+09 -3.221560e+09 -3.381556e+09 3.569281e+02 3.316506e+00 -3.197074e+01
-2.674636e+09 -2.474639e+09 -2.634635e+09 1.336650e+02 -6.752509e+01 3.981944e+01
-3.610335e+09 -3.410338e+09 -3.570334e+09 2.164564e+02 -2.211939e+01 2.366807e+01
-3.509134e+09 -3.309137e+09 -3.469133e+09 1.443347e+02 -3.003695e+01 1.707928e+01
-3.425588e+09 -3.225590e+09 -3.385589e+09 -3.178435e+01 -6.589410e+00 5.830437e+00
-3.110695e+09 -2.910697e+09 -3.070696e+09 1.896365e+00 -4.678381e+00 8.194036e+00
-4.663708e+09 -4.463714e+09 -4.623711e+09 -1.021372e+03 3.474249e+02 1.307286e+01
-3.590273e+09 -3.390275e+09 -3.550274e+09 3.207485e+01 4.155615e+00 6.156569e-01
-3.165316e+09 -2.965318e+09 -3.125318e+09 4.336567e+00 3.010786e+00 5.500537e+00
-3.323290e+09 -3.123291e+09 -3.283291e+09 -6.348296e+00 -3.254304e+00 4.192316e+00
-4.710030e+09 -4.510027e+09 -4.670028e+09 -2.069200e+02 4.600734e+01 -2.873550e+01
-3.037257e+09 -2.837259e+09 -2.997258e+09 -1.552995e+02 -1.693931e+01 -7.812371e+00
-2.029209e+09 -1.829210e+09 -1.989209e+09 -1.807740e+02 -2.676842e+01 -2.123079e+01
-2.099878e+09 -1.899879e+09 -2.059879e+09 -2.182368e+02 -4.029710e+01 6.239354e+01
-2.425362e+09 -2.225363e+09 -2.385363e+09 -1.899689e+02 -5.707763e+01 1.708868e+01
-2.462437e+09 -2.262439e+09 -2.422438e+09 -1.659321e+02 -3.627200e+01 -1.719939e+01
-2.358764e+09 -2.158768e+09 -2.318764e+09 -4.207433e+02 -1.395721e+02 -5.273504e+01
-2.611772e+09 -2.411776e+09 -2.571772e+09 -3.789465e+02 2.887988e+01 -7.825156e+01
-2.710995e+09 -2.510999e+09 -2.670995e+09 -5.157696e+02 -2.696162e+01 -8.731762e+01
-2.118528e+09 -1.918533e+09 -2.078529e+09 -3.734836e+02 6.935472e+01 -5.772773e+01
-1.809506e+09 -1.609509e+09 -1.769506e+09 -4.568926e+02 1.074348e+02 -7.442955e+01
-1.989729e+09 -1.789733e+09 -1.949729e+09 -5.499184e+02 -1.289889e+01 -2.607780e+01
-1.873221e+09 -1.673225e+09 -1.833221e+09 -2.837520e+02 -5.178717e+00 -1.404973e+02
-4.238129e+09 -4.038135e+09 -4.198133e+09 -1.167733e+03 -7.173445e+02 -5.081629e+01
-4.729224e+09 -4.529230e+09 -4.689227e+09 -5.769167e+02 -3.165604e+02 -6.901940e+01
-4.816524e+09 -4.616529e+09 -4.776526e+09 -7.652748e+02 2.724217e+01 -4.227008e+01
-3.759088e+09 -3.559094e+09 -3.719090e+09 -1.016949e+03 -5.835774e+02 -3.123647e+02
-3.880938e+09 -3.680943e+09 -3.840940e+09 -6.283080e+02 -5.118970e+02 -1.630764e+01
-4.244105e+09 -4.044110e+09 -4.204107e+09 -8.040444e+02 -3.692531e+02 -2.100080e+02
-4.468290e+09 -4.268290e+09 -4.428289e+09 1.389632e+02 -3.233972e+01 -1.912100e+01
-4.793410e+09 -4.593410e+09 -4.753409e+09 1.671895e+02 -6.965669e+01 -3.346950e+01
-4.957968e+09 -4.757968e+09 -4.917967e+09 -4.298152e+01 5.119591e+01 4.564058e+00
-3.423643e+09 -3.223652e+09 -3.383650e+09 -5.819863e+01 -1.974226e+01 8.104246e+02
-2.092964e+09 -1.892964e+09 -2.052963e+09 -8.610553e+02 -3.902482e+02 -1.432887e+02
-3.201558e+09 -3.001557e+09 -3.161557e+09 -7.654396e+02 -2.438976e+02 -6.683178e+01
-3.074090e+09 -2.874089e+09 -3.034088e+09 -4.504854e+02 -2.371908e+02 -1.529413e+01
-2.685722e+09 -2.485721e+09 -2.645721e+09 -5.311156e+02 -2.212493e+02 -1.433840e+02
-2.987813e+09 -2.787811e+09 -2.947811e+09 -6.614786e+02 -2.799585e+02 -9.263644e+01
-4.985980e+09 -4.785973e+09 -4.945999e+09 -4.205796e+01 3.521945e+03 -1.983308e+02
-2.107586e+09 -1.907585e+09 -2.067584e+09 -6.288297e+02 -4.061964e+02 -3.843197e+01
-2.984186e+09 -2.784185e+09 -2.944184e+09 2.369299e+01 -1.385914e+02 -2.684775e+01
-2.981754e+09 -2.781751e+09 -2.941753e+09 1.075843e+03 7.387737e+02 -3.907710e+02
-3.021214e+09 -2.821210e+09 -2.981212e+09 9.007009e+02 7.670568e+02 -5.028130e+02
-3.461541e+09 -3.261539e+09 -3.421539e+09 1.482740e+03 2.324736e+02 -1.533559e+02
-3.414272e+09 -3.214268e+09 -3.374271e+09 1.057745e+03 4.386485e+02 -2.712302e+02
-3.667305e+09 -3.467302e+09 -3.627304e+09 1.358271e+03 5.712626e+02 -3.791673e+02
-3.744029e+09 -3.544026e+09 -3.704028e+09 1.540167e+03 5.573562e+02 -3.183147e+02
-3.789709e+09 -3.589706e+09 -3.749708e+09 1.339150e+03 6.413690e+02 -3.861203e+02
-2.464810e+09 -2.264816e+09 -2.424812e+09 -1.243068e+03 -1.578824e+03 -3.544887e+02
-2.155560e+09 -1.955567e+09 -2.115561e+09 -1.498134e+03 -1.512629e+03 -2.591881e+02
-2.231890e+09 -2.031895e+09 -2.191891e+09 -1.982718e+03 -1.474972e+03 -4.916663e+02
-2.435958e+09 -2.235962e+09 -2.395959e+09 -1.523619e+03 -1.374989e+03 -2.399826e+02
-2.541140e+09 -2.341145e+09 -2.501141e+09 -2.000007e+03 -1.313861e+03 -5.847617e+02
-1.846639e+09 -1.646646e+09 -1.806641e+09 -2.215997e+03 -2.249320e+03 -6.362191e+02
-3.059244e+09 -2.859250e+09 -3.019245e+09 1.391772e+01 2.382064e+02 -1.385076e+01
-1.547466e+09 -1.347468e+09 -1.507467e+09 4.506938e+01 1.187703e+01 1.581320e+00
-1.835872e+09 -1.635874e+09 -1.795874e+09 4.430496e+01 1.098802e+01 5.340923e+01
-2.094500e+09 -1.894502e+09 -2.054501e+09 -5.972983e+01 -1.020081e+01 1.809474e+01
-2.185287e+09 -1.985289e+09 -2.145288e+09 -5.301942e+01 -8.849113e+00 2.225821e+01
-2.387345e+09 -2.187347e+09 -2.347346e+09 -1.312674e+02 -1.566514e+01 1.215557e+01
-2.473693e+09 -2.273695e+09 -2.433694e+09 -5.475961e+01 1.112342e+01 2.344069e+01
-1.676714e+09 -1.476716e+09 -1.636715e+09 -1.247099e+02 -1.570026e+01 4.532533e+01
-4.835395e+09 -4.635394e+09 -4.795394e+09 1.407151e+02 3.578380e+01 3.429982e+01
-2.091500e+09 -1.891498e+09 -2.051500e+09 -4.434497e+02 -1.038143e+03 -7.545676e+02
-2.149156e+09 -1.949153e+09 -2.109155e+09 -5.986127e+02 -8.573859e+02 -8.754907e+02
-2.552533e+09 -2.352529e+09 -2.512532e+09 -5.126709e+02 -1.076182e+03 -1.091558e+03
-2.413635e+09 -2.213634e+09 -2.373635e+09 -1.051132e+02 -3.006346e+01 -1.535141e+01
-1.996270e+09 -1.796269e+09 -1.956270e+09 -1.057807e+02 -1.795830e+01 1.895390e+01
-2.723098e+09 -2.523097e+09 -2.683097e+09 -1.049623e+02 -1.865359e+01 -1.587634e+01
-1.798745e+09 -1.598744e+09 -1.758744e+09 -1.632863e+02 -3.903898e+01 -1.253466e+01
-1.785517e+09 -1.585516e+09 -1.745516e+09 -1.423808e+02 -1.309514e+01 1.829578e+01
-2.681140e+09 -2.481139e+09 -2.641139e+09 -1.516363e+02 -2.015616e+01 -1.995126e+01
-1.976384e+09 -1.776383e+09 -1.936384e+09 -1.339462e+02 -2.080871e+01 3.548420e+01
-2.372908e+09 -2.172907e+09 -2.332907e+09 -1.500016e+02 -4.221330e+01 -1.791632e+01
-3.767856e+09 -3.567853e+09 -3.727854e+09 6.056890e+02 4.664851e+02 -1.885152e+02
-4.277331e+09 -4.077328e+09 -4.237352e+09 8.049532e+02 8.156648e+03 -9.299713e+02
-3.983606e+09 -3.783612e+09 -3.943607e+09 4.512698e+01 2.235186e+01 -6.126825e+00
-3.466777e+09 -3.266783e+09 -3.426778e+09 -1.036358e+02 4.134416e+01 -3.125230e+01
-4.742162e+09 -4.542167e+09 -4.702162e+09 -6.599251e+01 -3.667858e+01 -2.628400e+01
-4.439273e+09 -4.239279e+09 -4.399274e+09 -1.045270e+02 -1.190237e+01 -3.004540e+01
-4.820617e+09 -4.620616e+09 -4.780616e+09 1.578136e+02 -3.860026e+01 -4.681178e+01
-3.616944e+09 -3.416949e+09 -3.576944e+09 -1.013787e+02 2.885863e+01 -2.953297e+01
-3.750570e+09 -3.550576e+09 -3.710571e+09 2.871090e+01 4.427838e+01 -2.904435e+01
-3.062548e+09 -2.862545e+09 -3.022546e+09 7.102343e+02 3.090980e+02 -1.555315e+02
-2.576936e+09 -2.376932e+09 -2.536934e+09 1.180304e+03 6.154382e+02 -4.805053e+02
-3.069690e+09 -2.869687e+09 -3.029688e+09 1.218425e+03 5.286698e+02 -1.541488e+02
-3.329132e+09 -3.129128e+09 -3.289130e+09 1.145866e+03 9.198593e+02 -5.392559e+02
-3.248170e+09 -3.048167e+09 -3.208169e+09 5.574872e+02 5.027947e+02 -1.721679e+02
-3.668956e+09 -3.468954e+09 -3.628954e+09 -2.173954e+02 -1.311829e+02 -2.718066e+01
-4.310298e+09 -4.110303e+09 -4.270312e+09 -4.311325e+02 4.133469e+03 3.146007e+02
-2.855744e+09 -2.655742e+09 -2.815742e+09 -2.100388e+02 -2.927985e+02 -6.129233e+01
-3.127326e+09 -2.927329e+09 -3.087325e+09 9.050099e+02 2.049565e+02 6.159789e+01
-3.011427e+09 -2.811425e+09 -2.971425e+09 -2.091396e+02 -5.894255e+01 -5.895550e+01
-2.996976e+09 -2.796974e+09 -2.956974e+09 -8.064309e+01 -1.406464e+01 -7.937171e+01
-2.769749e+09 -2.569752e+09 -2.729749e+09 4.949702e+02 -2.811995e+02 1.847768e+01
-2.078236e+09 -1.878238e+09 -2.038235e+09 3.439314e+02 -2.636917e+02 -4.232349e+01
-3.968614e+09 -3.768613e+09 -3.928613e+09 1.873771e+02 5.057970e+01 -4.702379e+01
-2.009754e+09 -1.809758e+09 -1.969754e+09 8.634450e+02 -2.020667e+02 5.669536e+01
-2.763144e+09 -2.563147e+09 -2.723144e+09 9.800323e+01 -2.875821e+01 4.021287e+01
-2.491068e+09 -2.291072e+09 -2.451069e+09 8.989969e+02 -4.893491e+02 1.670520e+02
-2.629236e+09 -2.429233e+09 -2.589235e+09 1.113630e+02 4.978670e+02 -2.742771e+02
-1.780994e+09 -1.580990e+09 -1.740992e+09 9.238798e+02 6.412025e+02 -3.217791e+02
-2.062736e+09 -1.862733e+09 -2.022734e+09 5.141110e+02 4.189598e+02 -2.242735e+02
-1.799117e+09 -1.599114e+09 -1.759115e+09 1.011262e+03 6.095778e+02 -3.007355e+02
-2.087130e+09 -1.887128e+09 -2.047129e+09 -9.187493e+01 3.875833e+02 -2.158271e+02
-1.981629e+09 -1.781626e+09 -1.941628e+09 5.231874e+02 5.934606e+02 -4.641077e+02
-2.822881e+09 -2.622878e+09 -2.782880e+09 -3.493160e+02 6.554864e+02 -4.428064e+02
-2.351444e+09 -2.151441e+09 -2.311443e+09 5.260881e+02 5.880722e+02 -3.277141e+02
-2.961446e+09 -2.761442e+09 -2.921445e+09 -3.047086e+01 7.740299e+02 -5.883471e+02
-3.209434e+09 -3.009430e+09 -3.169433e+09 5.992892e+01 5.182827e+02 -2.541758e+02
-2.869110e+09 -2.669108e+09 -2.829111e+09 -6.262327e+02 3.508422e+02 -1.877468e+02
-1.721536e+09 -1.521534e+09 -1.681534e+09 1.159808e+03 6.553164e+02 -2.148875e+02
-2.572119e+09 -2.372117e+09 -2.532117e+09 7.691752e+02 5.533340e+02 -1.526948e+02
-2.574903e+09 -2.374900e+09 -2.534902e+09 1.027761e+03 6.046984e+02 -1.780887e+02
-2.435344e+09 -2.235341e+09 -2.395342e+09 4.618115e+02 5.290830e+02 -1.291961e+02
-2.527707e+09 -2.327704e+09 -2.487706e+09 7.295232e+02 6.865036e+02 -5.343488e+02
-1.988593e+09 -1.788590e+09 -1.948591e+09 1.078940e+03 4.671579e+02 -3.254989e+02
-2.488855e+09 -2.288852e+09 -2.448853e+09 1.148588e+03 7.002007e+02 -2.914292e+02
-2.006063e+09 -1.806060e+09 -1.966061e+09 1.259262e+03 5.283408e+02 -1.538186e+02
-3.714670e+09 -3.514669e+09 -3.674669e+09 -1.657862e+01 -3.280046e+00 -4.817348e+00
-3.414120e+09 -3.214118e+09 -3.374119e+09 -3.082079e+01 -5.387395e+00 3.625029e+00
-3.077583e+09 -2.877581e+09 -3.037582e+09 -6.267738e+01 -1.505619e+00 2.382251e+00
-3.983632e+09 -3.783630e+09 -3.943631e+09 -3.350252e+01 -5.468294e+00 -1.735446e+00
-3.828939e+09 -3.628937e+09 -3.788938e+09 -4.633203e+01 -4.676882e+00 -1.518296e+01
-4.142595e+09 -3.942594e+09 -4.102594e+09 -7.532588e+01 4.310458e+01 -4.675989e+00
-3.959539e+09 -3.759537e+09 -3.919538e+09 -9.390023e+00 1.210225e+00 -1.038796e+01
-2.761086e+09 -2.561085e+09 -2.721085e+09 2.032856e+01 2.215768e+01 1.878703e+01
-3.126247e+09 -2.926246e+09 -3.086246e+09 8.355724e+01 4.266798e+00 -1.154976e+01
-2.609889e+09 -2.409889e+09 -2.569889e+09 3.606484e+01 3.747640e+01 2.462531e+00
-4.996765e+09 -4.796766e+09 -4.956778e+09 -1.339635e+03 1.583777e+03 2.450241e+02
-2.663257e+09 -2.463256e+09 -2.623256e+09 5.463302e+01 3.797938e+01 -2.122283e+00
-3.914891e+09 -3.714891e+09 -3.874891e+09 4.767319e+01 -3.113474e-01 -2.356686e+00
-3.581393e+09 -3.381392e+09 -3.541392e+09 2.572384e+01 4.660052e+00 -1.871708e+01
-2.948311e+09 -2.748311e+09 -2.908310e+09 3.672894e+02 -1.551087e+02 -4.569230e+00
-2.596692e+09 -2.396692e+09 -2.556691e+09 6.277005e+02 -2.802218e+02 8.194242e+01
-2.578266e+09 -2.378266e+09 -2.538265e+09 3.467980e+02 -4.521978e+02 2.491703e+01
-4.581298e+09 -4.381299e+09 -4.541299e+09 -1.711798e+02 -2.891197e+01 2.041148e+01
-4.785093e+09 -4.585094e+09 -4.745094e+09 -3.218604e+02 -2.743951e+01 3.841213e+01
-4.592636e+09 -4.392637e+09 -4.552636e+09 -2.888237e+02 -1.675971e+01 3.436224e+00
-4.773755e+09 -4.573756e+09 -4.733756e+09 -1.698545e+02 -3.279450e+00 3.130325e+01
-2.790610e+09 -2.590615e+09 -2.750611e+09 -2.514489e+02 -3.679936e+01 -2.433731e+01
-3.097881e+09 -2.897886e+09 -3.057882e+09 -1.792316e+02 8.649693e+01 -4.226357e+01
-2.664598e+09 -2.464603e+09 -2.624599e+09 -9.223480e+01 5.604664e+01 -5.872193e+01
-3.148869e+09 -2.948873e+09 -3.108869e+09 -2.002068e+02 -8.544560e+01 -3.381687e+01
-2.890873e+09 -2.690878e+09 -2.850874e+09 -7.382774e+01 -1.637996e+01 -4.312069e+01
-3.176486e+09 -2.976491e+09 -3.136486e+09 -5.134074e+00 2.753740e+01 -4.409315e+01
-3.904572e+09 -3.704571e+09 -3.864571e+09 5.274744e+01 2.654915e+00 -1.265550e+01
-3.841702e+09 -3.641701e+09 -3.801701e+09 2.276757e+01 -1.597659e+00 -6.379606e+00
-3.237546e+09 -3.037542e+09 -3.197544e+09 -3.147338e+02 -5.683880e+02 -1.919567e+02
-2.993893e+09 -2.793901e+09 -2.953899e+09 3.056887e+03 8.674277e+02 1.996377e+03
-3.482962e+09 -3.282959e+09 -3.442961e+09 -4.414701e+02 -4.979735e+02 -1.216914e+02
-3.967102e+09 -3.767101e+09 -3.927101e+09 -1.280760e+02 -2.361291e+01 -5.521438e+01
-3.176026e+09 -2.976023e+09 -3.136025e+09 -6.920447e+02 -7.581453e+02 -3.891414e+02
-3.241639e+09 -3.041636e+09 -3.201638e+09 -7.209009e+02 -6.124478e+02 -3.517297e+02
-2.057699e+09 -1.857704e+09 -2.017699e+09 2.262456e+02 4.639431e+01 2.652559e+01
-2.139494e+09 -1.939499e+09 -2.099494e+09 2.987419e+02 2.102373e+01 7.172944e+00
-2.147868e+09 -1.947873e+09 -2.107868e+09 4.860324e+02 -5.370283e+01 3.551852e+01
-3.038090e+09 -2.838095e+09 -2.998095e+09 9.190447e+02 -1.837050e+02 7.977433e+02
-1.766114e+09 -1.566119e+09 -1.726114e+09 2.805139e+02 1.121417e+02 2.263029e+00
-2.590954e+09 -2.390954e+09 -2.550954e+09 1.221105e+02 2.823899e+01 -3.007743e+00
-2.737886e+09 -2.537885e+09 -2.697886e+09 1.790529e+02 1.284589e+01 5.115726e+00
-4.992302e+09 -4.792301e+09 -4.952301e+09 -1.128095e+02 -1.463777e+01 1.602120e+01
-2.895354e+09 -2.695354e+09 -2.855354e+09 6.999876e+01 1.499961e+01 -2.176298e+01
-2.197879e+09 -1.997879e+09 -2.157879e+09 6.099458e+01 8.920398e+00 -1.574531e+00
-2.533169e+09 -2.333167e+09 -2.493167e+09 9.666933e+02 4.927610e+02 -1.614346e+02
-3.125374e+09 -2.925372e+09 -3.085373e+09 1.324243e+03 5.155998e+02 -2.208343e+02
-2.935712e+09 -2.735710e+09 -2.895710e+09 8.973606e+02 3.676437e+02 -5.152104e+01
-2.394364e+09 -2.194363e+09 -2.354362e+09 9.069658e+02 7.100158e+01 -1.295400e+02
-3.132704e+09 -2.932703e+09 -3.092703e+09 1.247411e+03 4.221775e+02 -1.165924e+02
-3.659008e+09 -3.459006e+09 -3.619007e+09 8.094652e+02 4.363924e+02 -1.116595e+02
-3.620824e+09 -3.420822e+09 -3.580822e+09 8.137185e+02 3.888177e+02 -7.211539e+01
-2.006856e+09 -1.806855e+09 -1.966855e+09 1.344117e+02 1.934077e+01 -2.181866e+01
-1.684264e+09 -1.484263e+09 -1.644263e+09 1.459179e+02 3.534741e+01 -1.937616e+01
-3.098663e+09 -2.898662e+09 -3.058662e+09 9.109314e+01 9.631377e+00 -1.741295e+01
-3.413362e+09 -3.213361e+09 -3.373362e+09 7.213350e+01 3.589118e+00 -3.093812e+01
-3.394561e+09 -3.194560e+09 -3.354560e+09 1.225342e+02 1.138695e+01 -8.915666e+00
-3.500965e+09 -3.300964e+09 -3.460964e+09 1.426744e+02 -1.356877e+00 -8.945703e+00
-2.292814e+09 -2.092813e+09 -2.252813e+09 1.153880e+02 9.641361e+00 -8.891768e+00
-2.163284e+09 -1.963283e+09 -2.123283e+09 6.730495e+01 8.963607e+00 -2.467244e+01
-1.875732e+09 -1.675731e+09 -1.835731e+09 -6.400511e+01 2.689832e-01 -8.250871e+01
-2.656137e+09 -2.456137e+09 -2.616136e+09 -1.231727e+02 2.924184e+01 -9.406088e+01
-3.029599e+09 -2.829598e+09 -2.989598e+09 -9.555439e+01 -2.669403e+01 -5.786083e+01
-2.165270e+09 -1.965269e+09 -2.125269e+09 -6.831215e+01 -9.698411e+00 -4.724796e+01
-2.626155e+09 -2.426155e+09 -2.586154e+09 -9.959118e+01 2.698619e+01 -7.431687e+01
-1.893844e+09 -1.693846e+09 -1.853843e+09 8.559909e+02 4.816334e+01 5.966756e+01
-2.223599e+09 -2.023597e+09 -2.183598e+09 7.999112e+00 6.350895e+00 -3.281501e+00
-1.595488e+09 -1.395489e+09 -1.555487e+09 8.407042e+02 7.976279e+01 6.782550e+01
-2.872234e+09 -2.672235e+09 -2.832233e+09 5.728953e+02 3.727572e+01 1.560110e+01
-2.540272e+09 -2.340274e+09 -2.500271e+09 5.846046e+02 -8.135690e+01 2.780511e+00
-2.077038e+09 -1.877039e+09 -2.037037e+09 5.475630e+02 2.736811e+01 7.584815e+01
-4.829698e+09 -4.629699e+09 -4.789709e+09 -1.765565e+03 -1.684447e+03 -1.486862e+02
-4.317613e+09 -4.117615e+09 -4.277624e+09 -1.244051e+03 -3.723930e+03 -1.503472e+01
-4.653618e+09 -4.453615e+09 -4.613629e+09 -1.658125e+03 -1.212152e+03 -3.326039e+02
-4.483635e+09 -4.283633e+09 -4.443644e+09 -1.300797e+03 -2.206175e+03 -6.025623e+02
-2.862306e+09 -2.662311e+09 -2.822307e+09 -4.377318e+02 -2.726681e+02 -4.756668e+01
-2.811420e+09 -2.611425e+09 -2.771421e+09 -6.404116e+02 -7.318258e+02 -1.337470e+02
-2.582325e+09 -2.382330e+09 -2.542326e+09 -4.699135e+02 -2.537853e+02 -5.405352e+01
-3.029018e+09 -2.829023e+09 -2.989019e+09 -3.301583e+02 -2.465693e+02 -7.213672e+01
-2.751244e+09 -2.551250e+09 -2.711245e+09 -3.099798e+02 -3.409143e+02 -9.586672e+01
-4.150256e+09 -3.950259e+09 -4.110258e+09 -1.379043e+03 -5.515642e+02 -2.729735e+02
-4.645933e+09 -4.445937e+09 -4.605938e+09 -1.808598e+03 -3.140320e+02 -3.050516e+02
-4.302701e+09 -4.102705e+09 -4.262705e+09 -1.850280e+03 -1.479170e+03 -2.291553e+02
-4.069106e+09 -3.869112e+09 -4.029110e+09 -1.211410e+03 -1.423325e+03 -1.216715e+02
-4.133824e+09 -3.933829e+09 -4.093828e+09 -1.492772e+03 -1.154415e+03 -2.070112e+02
-1.828968e+09 -1.628967e+09 -1.788967e+09 4.926692e+01 1.423857e+01 -3.053547e+01
-2.830002e+09 -2.630001e+09 -2.790001e+09 7.760131e+01 1.110200e+01 -2.010104e+01
-4.310518e+09 -4.110518e+09 -4.270523e+09 -2.878572e+03 1.935440e+03 1.295293e+03
-2.172018e+09 -1.972019e+09 -2.132019e+09 -8.676915e+01 -9.759017e+00 -7.753382e+00
-4.310109e+09 -4.110111e+09 -4.270115e+09 -2.692922e+03 1.762284e+03 7.333355e+02
-4.823107e+09 -4.623108e+09 -4.783118e+09 -1.707887e+03 1.510208e+03 9.973613e+02
-4.136641e+09 -3.936643e+09 -4.096651e+09 -1.838471e+03 2.971564e+03 1.027795e+03
-3.163648e+09 -2.963652e+09 -3.123650e+09 -1.419432e+03 -1.084524e+03 -2.334916e+02
-4.655763e+09 -4.455765e+09 -4.615765e+09 -7.372832e+02 4.910712e+00 4.676090e+01
-2.969104e+09 -2.769109e+09 -2.929107e+09 -2.064261e+03 -1.735075e+03 -5.855771e+02
-4.811165e+09 -4.611167e+09 -4.771167e+09 -1.151346e+03 -4.881570e+01 1.274293e+02
-3.638807e+09 -3.438810e+09 -3.598809e+09 -1.264503e+03 -1.375606e+03 -3.106483e+02
-3.672603e+09 -3.472607e+09 -3.632606e+09 -1.781737e+03 -1.451270e+03 -3.619452e+02
-2.108685e+09 -1.908687e+09 -2.068686e+09 -1.213072e+02 -2.016626e+01 2.886996e+01
-4.983596e+09 -4.783599e+09 -4.943598e+09 -1.009908e+03 1.286921e+01 -6.389638e+01
-2.177162e+09 -1.977163e+09 -2.137163e+09 -7.441839e+01 -1.009320e+01 1.915860e+01
-2.506777e+09 -2.306779e+09 -2.466778e+09 -6.873724e+01 -1.700065e+01 2.297749e+01
-2.352985e+09 -2.152987e+09 -2.312986e+09 -5.312982e+01 -1.316708e+01 -2.315346e+01
-2.683289e+09 -2.483289e+09 -2.643288e+09 -2.520259e+02 -2.888657e+02 -6.337103e+01
-2.157017e+09 -1.957017e+09 -2.117016e+09 -1.620690e+02 -7.327886e+01 -7.540501e+01
-2.173875e+09 -1.973877e+09 -2.133874e+09 -4.633648e+02 -4.045368e+02 2.994137e+01
-1.912865e+09 -1.712866e+09 -1.872864e+09 -2.391358e+02 -2.233927e+02 -5.148297e+01
-3.005856e+09 -2.805855e+09 -2.965855e+09 4.925633e+01 6.057528e+00 -1.481720e+00
-2.355384e+09 -2.155385e+09 -2.315385e+09 -3.275633e+02 -1.182513e+01 2.173063e+01
-3.841896e+09 -3.641895e+09 -3.801895e+09 1.734140e+01 8.003912e+00 -5.523006e+00
-4.983231e+09 -4.783228e+09 -4.943231e+09 -5.866845e+02 -1.206228e+02 -1.307144e+02
-2.188668e+09 -1.988667e+09 -2.148667e+09 3.720869e+01 4.508707e+00 -4.541153e+00
-3.575601e+09 -3.375600e+09 -3.535600e+09 1.634530e+01 1.402680e+00 -6.577240e+00
-2.009420e+09 -1.809425e+09 -1.969421e+09 -4.198731e+02 8.552069e+01 -4.341596e+01
-2.920012e+09 -2.720016e+09 -2.880013e+09 -5.510521e+02 9.108026e+01 -9.049054e+01
-3.965423e+09 -3.765428e+09 -3.925432e+09 -2.245399e+02 -3.328937e+03 2.915703e+02
-2.322870e+09 -2.122875e+09 -2.282870e+09 -5.113326e+02 1.674062e+00 -1.168019e+02
-1.787136e+09 -1.587141e+09 -1.747137e+09 -4.307586e+02 1.127472e+02 -9.482755e+01
-4.315889e+09 -4.115890e+09 -4.275890e+09 7.213030e+02 9.708054e+00 -1.265165e+02
-4.823379e+09 -4.623380e+09 -4.783380e+09 9.758203e+02 4.371808e+01 6.153301e+01
-4.835043e+09 -4.635045e+09 -4.795044e+09 8.737086e+02 3.617841e+01 8.821185e+01
-4.327556e+09 -4.127558e+09 -4.287557e+09 8.493455e+02 -1.698994e+01 -8.381978e+01
-3.586954e+09 -3.386956e+09 -3.546953e+09 4.952946e+02 4.847559e+01 5.788260e+01
-3.081610e+09 -2.881613e+09 -3.041609e+09 4.561375e+02 -1.264611e+00 5.411068e+01
-3.651095e+09 -3.451096e+09 -3.611094e+09 3.323406e+02 3.970823e+01 6.949243e+00
-3.853871e+09 -3.653872e+09 -3.813869e+09 2.164354e+02 -5.389806e+00 -8.485376e+00
-3.234325e+09 -3.034327e+09 -3.194324e+09 3.334685e+02 5.472037e+01 6.282320e+01
-3.233307e+09 -3.033309e+09 -3.193306e+09 2.147646e+02 2.078641e+01 1.120720e+01
-3.426355e+09 -3.226354e+09 -3.386354e+09 -3.577149e+01 -1.019794e+01 -2.978880e+01
-3.610890e+09 -3.410889e+09 -3.570889e+09 -2.933036e+01 -1.963370e+00 -2.204746e+01
-1.567473e+09 -1.367479e+09 -1.527479e+09 9.631282e+01 1.261104e+02 -1.981048e+02
-3.547838e+09 -3.347836e+09 -3.507837e+09 -4.399308e+01 -1.966901e+00 -2.632179e+01
-2.555802e+09 -2.355801e+09 -2.515801e+09 -1.320433e+01 -5.704289e+00 -4.524988e+01
-2.680689e+09 -2.480687e+09 -2.640688e+09 -2.110950e+01 -2.311250e+00 -3.770237e+01
-4.615905e+09 -4.415905e+09 -4.575904e+09 2.377893e+02 -3.940602e+01 -1.181155e+01
-3.849105e+09 -3.649105e+09 -3.809104e+09 2.009932e+01 -4.945105e+01 -3.278751e+01
-2.946802e+09 -2.746802e+09 -2.906801e+09 1.228097e+02 -5.024169e+01 -3.961478e+01
-3.291719e+09 -3.091719e+09 -3.251718e+09 1.489593e+02 -6.064555e-01 -5.697911e+01
-4.279353e+09 -4.079353e+09 -4.239352e+09 2.448799e+02 -4.038316e+01 3.931345e+01
-4.334123e+09 -4.134124e+09 -4.294122e+09 -2.856403e+00 8.752394e-01 -3.113765e+01
-3.729973e+09 -3.529973e+09 -3.689972e+09 7.378908e+01 7.637271e+01 -2.824598e+01
-3.050596e+09 -2.850596e+09 -3.010595e+09 -6.301555e+00 -2.192012e+01 -7.944316e+01
-3.282174e+09 -3.082174e+09 -3.242173e+09 7.628296e+01 -1.469024e+02 -2.952089e+01
-1.589037e+09 -1.389036e+09 -1.549035e+09 -1.177040e+03 -6.356372e+02 -1.430951e+02
-2.530906e+09 -2.330906e+09 -2.490905e+09 -1.111704e+03 -5.422428e+02 -2.051801e+02
-2.865089e+09 -2.665088e+09 -2.825087e+09 -9.236879e+02 -4.889968e+02 -7.040271e+01
-2.552119e+09 -2.352117e+09 -2.512118e+09 -8.771104e+02 -5.048836e+02 -9.175283e+01
-2.088701e+09 -1.888699e+09 -2.048699e+09 -9.203128e+02 -4.370359e+02 -1.233418e+02
-1.909038e+09 -1.709037e+09 -1.869037e+09 -1.781167e+02 -2.329392e+01 -4.251168e+00
-3.889221e+09 -3.689221e+09 -3.849221e+09 7.085806e+01 -5.140471e+00 2.201513e+01
-4.782380e+09 -4.582380e+09 -4.742380e+09 1.834103e+02 1.745744e+01 7.137526e+00
-4.788990e+09 -4.588990e+09 -4.748990e+09 2.094637e+02 3.842857e+00 -2.723095e+01
-4.798075e+09 -4.598074e+09 -4.758074e+09 1.343457e+02 4.557442e+00 -4.069020e+01
-4.209476e+09 -4.009476e+09 -4.169476e+09 1.807964e+02 1.085542e+01 -1.435446e+01
-3.963889e+09 -3.763894e+09 -3.923898e+09 4.327030e+02 -3.172461e+03 5.543046e+02
-2.115075e+09 -1.915074e+09 -2.075074e+09 -1.053558e+02 -5.962404e+00 -5.738203e+01
-2.103507e+09 -1.903506e+09 -2.063506e+09 1.810125e+01 6.661639e+00 -4.823510e+01
-1.931193e+09 -1.731192e+09 -1.891192e+09 -4.318181e+01 1.251806e+01 -6.769509e+01
-2.424794e+09 -2.224793e+09 -2.384792e+09 -5.238410e+01 5.908763e+01 -5.479013e+01
-2.064746e+09 -1.864745e+09 -2.024745e+09 -1.433862e+01 -1.572641e+01 -3.005535e+01
-4.124387e+09 -3.924390e+09 -4.084387e+09 9.192393e+02 9.358806e+01 -1.097608e+02
-4.477556e+09 -4.277559e+09 -4.437556e+09 1.183880e+03 8.003737e+01 -2.863905e+01
-4.621666e+09 -4.421670e+09 -4.581666e+09 8.713695e+02 3.231646e+01 -5.284030e+01
-4.072251e+09 -3.872254e+09 -4.032250e+09 6.922190e+02 1.094571e+02 2.009763e+01
-4.806066e+09 -4.606070e+09 -4.766066e+09 9.914178e+02 8.626266e+01 4.451182e+01
-3.973020e+09 -3.773029e+09 -3.933025e+09 -3.006266e+02 9.496660e+01 8.819567e+02
-3.941180e+09 -3.741188e+09 -3.901184e+09 2.606615e+02 3.489639e+02 7.066627e+02
-4.305509e+09 -4.105517e+09 -4.265514e+09 -1.504564e+02 -2.667920e+01 1.226888e+02
-4.584245e+09 -4.384253e+09 -4.544250e+09 6.351850e+02 1.545800e+02 3.455163e+02
-3.892303e+09 -3.692311e+09 -3.852309e+09 -4.336654e+01 -2.686294e+01 2.499385e+01
-3.947821e+09 -3.747829e+09 -3.907827e+09 2.780242e+02 1.165368e+02 6.568954e+01
-4.486466e+09 -4.286468e+09 -4.446476e+09 -9.500256e+02 -2.529898e+03 -4.177594e+02
-1.984181e+09 -1.784190e+09 -1.944183e+09 -2.452129e+02 -1.124442e+03 3.102535e+01
-2.558414e+09 -2.358423e+09 -2.518418e+09 -7.601465e+02 -2.137404e+03 -1.847849e+02
-2.401336e+09 -2.201345e+09 -2.361339e+09 5.488998e+01 -1.853720e+03 2.719549e+02
-2.503742e+09 -2.303751e+09 -2.463745e+09 -4.080967e+02 -1.924860e+03 1.249404e+02
-2.321889e+09 -2.121898e+09 -2.281892e+09 -1.131243e+01 -1.228165e+03 7.441624e+01
-1.792795e+09 -1.592804e+09 -1.752797e+09 -3.254751e+02 -1.237810e+03 5.590560e+01
-1.930249e+09 -1.730247e+09 -1.890250e+09 3.178933e+02 -8.347022e+02 -8.244552e+02
-2.147242e+09 -1.947239e+09 -2.107242e+09 1.131442e+02 -1.203765e+03 -1.042400e+03
-2.696633e+09 -2.496633e+09 -2.656635e+09 6.364626e+02 -4.520646e+02 -3.685031e+02
-2.262724e+09 -2.062724e+09 -2.222726e+09 1.170149e+03 -2.522049e+02 -6.692103e+02
-1.968656e+09 -1.768652e+09 -1.928657e+09 1.589053e+03 -6.003926e+02 -1.272858e+03
-2.752124e+09 -2.552123e+09 -2.712125e+09 1.598076e+03 1.754193e+02 -4.571832e+02
-2.204254e+09 -2.004256e+09 -2.164258e+09 1.916651e+03 -3.478361e+02 -2.974588e+02
-2.448915e+09 -2.248914e+09 -2.408914e+09 -1.151892e+02 3.294595e+00 -8.462760e+01
-2.533692e+09 -2.333691e+09 -2.493691e+09 -1.795650e+02 7.975816e+01 -4.628920e+01
-5.014107e+09 -4.814106e+09 -4.974108e+09 -1.032025e+03 -3.276464e+02 -1.715867e+02
-2.448452e+09 -2.248452e+09 -2.408451e+09 -7.557304e+01 2.507983e+01 -8.896555e+01
-2.567079e+09 -2.367078e+09 -2.527078e+09 -2.615990e+01 1.118512e+01 -4.749955e+01
-1.857799e+09 -1.657798e+09 -1.817798e+09 -5.600468e+01 4.565451e+01 -7.247278e+01
-3.848511e+09 -3.648510e+09 -3.808510e+09 -6.146438e+01 -1.594886e+00 -7.011899e+00
-3.279738e+09 -3.079736e+09 -3.239737e+09 -1.217525e+02 -1.305063e+01 -1.512674e+01
-3.463989e+09 -3.263988e+09 -3.423989e+09 -1.322341e+02 -9.315801e+00 -1.413041e+01
-2.900488e+09 -2.700486e+09 -2.860487e+09 -6.617872e+01 -8.404999e+00 -2.100902e+01
-2.068298e+09 -1.868304e+09 -2.028303e+09 -2.448834e+02 4.471247e+02 7.916609e+02
-2.583238e+09 -2.383236e+09 -2.543237e+09 -5.230626e+01 -6.445447e+00 -3.333129e+00
-3.984409e+09 -3.784407e+09 -3.944409e+09 -1.345610e+03 -6.576336e+02 -2.457935e+02
-1.674097e+09 -1.474103e+09 -1.634098e+09 1.993037e+02 2.479413e+02 1.308470e+01
-2.231861e+09 -2.031868e+09 -2.191862e+09 1.005591e+02 2.336433e+02 8.301758e+00
-3.536379e+09 -3.336385e+09 -3.496380e+09 -2.167604e+01 5.124935e+01 -3.822824e+00
-4.664146e+09 -4.464149e+09 -4.624152e+09 -1.798131e+03 -7.547583e+02 -3.102820e+02
-4.317437e+09 -4.117442e+09 -4.277445e+09 -9.279215e+01 -2.589669e+03 2.429349e+02
-3.315140e+09 -3.115146e+09 -3.275141e+09 1.330429e+02 8.356024e+01 -4.451794e+01
-3.085141e+09 -2.885147e+09 -3.045142e+09 1.707604e+02 1.784498e+02 -4.630791e+01
-3.445718e+09 -3.245717e+09 -3.405717e+09 -1.674997e+02 -9.363786e+00 -1.338894e+00
-3.119168e+09 -2.919167e+09 -3.079167e+09 -1.357271e+02 -2.257457e+01 -9.582770e-01
-3.180455e+09 -2.980455e+09 -3.140455e+09 -1.675869e+02 -2.798448e+01 -1.032369e+01
-4.784920e+09 -4.584920e+09 -4.744920e+09 2.722128e+02 2.179424e+01 3.087366e+01
-1.727307e+09 -1.527305e+09 -1.687305e+09 -5.871032e+02 -3.421191e+02 -2.243577e+01
-2.864996e+09 -2.664993e+09 -2.824995e+09 -7.030319e+02 -5.701274e+02 -1.575794e+02
-2.732057e+09 -2.532055e+09 -2.692055e+09 -7.172714e+02 -4.254599e+02 -2.259698e+02
-2.856204e+09 -2.656202e+09 -2.816203e+09 -1.101987e+03 -6.444966e+02 -3.505866e+02
-1.888080e+09 -1.688079e+09 -1.848079e+09 -8.261124e+02 -4.987035e+02 -9.356524e+01
-1.597192e+09 -1.397191e+09 -1.557190e+09 -1.341219e+03 -3.723372e+02 -2.344228e+02
-1.895548e+09 -1.695546e+09 -1.855547e+09 -1.220104e+03 -6.338282e+02 -1.689705e+02
-2.815616e+09 -2.615619e+09 -2.775619e+09 1.015145e+03 -1.701025e+02 -2.528684e+02
-2.096828e+09 -1.896830e+09 -2.056831e+09 1.284269e+03 -9.548064e+01 1.371890e+02
-2.379985e+09 -2.179989e+09 -2.339989e+09 7.060183e+02 -1.021104e+02 3.246373e+01
-1.963953e+09 -1.763957e+09 -1.923957e+09 6.986476e+02 -1.036555e+02 1.203017e+02
-1.786045e+09 -1.586048e+09 -1.746049e+09 9.135743e+02 -3.325482e+02 -1.019174e+02
-2.621630e+09 -2.421634e+09 -2.581634e+09 7.647590e+02 -1.522561e+02 6.434136e+01
-4.799597e+09 -4.599598e+09 -4.759597e+09 3.802763e+02 -1.705815e+01 -3.425958e+01
-2.807191e+09 -2.607195e+09 -2.767195e+09 3.215641e+02 -2.257929e+02 -1.176896e+02
-1.951942e+09 -1.751941e+09 -1.911943e+09 4.077688e+02 -5.142980e+02 -2.863766e+02
-3.109446e+09 -2.909443e+09 -3.069448e+09 1.331465e+03 -7.018244e+02 -1.233359e+03
-2.888873e+09 -2.688870e+09 -2.848873e+09 -1.772145e+02 -9.914922e+02 -8.922927e+02
-2.912168e+09 -2.712165e+09 -2.872168e+09 9.774536e+01 -7.578081e+02 -1.015062e+03
-3.049007e+09 -2.849007e+09 -3.009010e+09 1.597323e+03 -3.430207e+02 -5.243353e+02
-3.226616e+09 -3.026614e+09 -3.186616e+09 -4.993934e+01 -5.631072e+02 -2.814859e+02
-1.947516e+09 -1.747518e+09 -1.907516e+09 -1.066557e+02 -7.634221e+01 1.760665e+01
-1.924130e+09 -1.724129e+09 -1.884130e+09 5.570561e+01 -6.969171e+02 -3.227977e+02
-4.003507e+09 -3.803509e+09 -3.963508e+09 3.578066e+02 2.245307e+01 4.439007e+01
-3.187532e+09 -2.987531e+09 -3.147533e+09 5.290507e+02 -5.380431e+02 -5.142989e+02
-2.599079e+09 -2.399079e+09 -2.559079e+09 -1.908201e+02 -2.777402e+01 4.036112e+01
-2.287353e+09 -2.087353e+09 -2.247353e+09 -2.159196e+02 -6.285770e+01 -2.408168e+00
-1.729107e+09 -1.529107e+09 -1.689107e+09 -2.230750e+02 -2.201449e+01 -3.243572e+01
-2.069055e+09 -1.869055e+09 -2.029055e+09 -1.831762e+02 -2.460500e+01 -4.095074e+01
-1.791659e+09 -1.591659e+09 -1.751659e+09 -1.993747e+02 -1.534805e+01 -2.261947e+01
-2.560511e+09 -2.360515e+09 -2.520512e+09 -1.570033e+02 -1.609877e+02 4.362962e+01
-3.829894e+09 -3.629902e+09 -3.789900e+09 6.725517e+02 5.593564e+01 7.926478e+02
-3.631028e+09 -3.431036e+09 -3.591034e+09 -3.598597e+01 -1.299376e+01 1.885072e+02
-3.612879e+09 -3.412886e+09 -3.572884e+09 1.396878e+01 1.430328e+01 1.565980e+02
-2.946330e+09 -2.746338e+09 -2.906336e+09 3.864769e+02 1.247602e+02 3.335440e+02
-3.375970e+09 -3.175977e+09 -3.335975e+09 3.047057e+02 1.867355e+02 1.547641e+02
-3.104938e+09 -2.904946e+09 -3.064944e+09 -2.660952e+01 -1.040092e+02 2.058482e+02
-3.966427e+09 -3.766435e+09 -3.926433e+09 5.224152e+01 -4.665492e+01 1.008452e+02
-2.954723e+09 -2.754731e+09 -2.914729e+09 3.026148e+01 1.527170e+02 2.841555e+02
-2.981169e+09 -2.781170e+09 -2.941167e+09 8.449828e+01 3.451173e+01 -3.707732e+01
-3.774249e+09 -3.574250e+09 -3.734247e+09 9.603401e+01 -5.628972e+00 4.116264e+01
-4.021161e+09 -3.821162e+09 -3.981160e+09 7.797906e+01 1.598411e+01 -1.581301e+00
-3.050124e+09 -2.850125e+09 -3.010123e+09 2.662835e+02 -2.291621e+01 4.065478e+01
-4.256110e+09 -4.056106e+09 -4.216110e+09 -7.960994e+02 -4.726997e+02 -5.002943e+02
-4.792188e+09 -4.592184e+09 -4.752188e+09 -4.177206e+02 -1.661027e+02 -2.475176e+01
-3.944910e+09 -3.744908e+09 -3.904909e+09 -9.792616e+02 -4.899458e+02 -2.540076e+02
-4.647232e+09 -4.447229e+09 -4.607231e+09 -6.936454e+02 -1.684595e+02 -3.628270e+02
-4.447153e+09 -4.247150e+09 -4.407153e+09 -9.601929e+02 -4.664765e+02 -3.839102e+02
-3.812396e+09 -3.612395e+09 -3.772394e+09 -4.845089e+02 -2.221514e+02 -7.431174e+01
-3.302421e+09 -3.102420e+09 -3.262420e+09 -2.270352e+02 -1.714626e+02 -2.011994e+01
-3.285828e+09 -3.085827e+09 -3.245826e+09 -2.069313e+02 -7.262246e+01 -1.083575e+01
-2.265697e+09 -2.065695e+09 -2.225695e+09 -3.796900e+02 -1.645740e+02 1.295862e+01
-4.281219e+09 -4.081217e+09 -4.241217e+09 -2.793497e+02 -6.097443e+01 -6.014544e+01
-3.772245e+09 -3.572243e+09 -3.732243e+09 -1.486705e+02 -1.640449e+02 -4.810931e+01
-2.414243e+09 -2.214241e+09 -2.374241e+09 -4.043020e+02 -2.149897e+02 -8.409962e+01
-3.012263e+09 -2.812261e+09 -2.972261e+09 -5.552691e+02 -2.373424e+02 -2.371671e+01
-2.748755e+09 -2.548754e+09 -2.708753e+09 -3.156658e+02 -2.194954e+02 -5.079632e+01
-2.037825e+09 -1.837827e+09 -1.997826e+09 -1.625829e+02 -1.006484e+01 2.623979e+01
-3.416753e+09 -3.216754e+09 -3.376754e+09 9.686430e+01 3.591131e+01 7.136855e+00
-3.132821e+09 -2.932823e+09 -3.092823e+09 -1.942578e+02 -1.669920e+01 5.864329e+01
-4.289470e+09 -4.089471e+09 -4.249470e+09 3.119761e+02 -1.249987e+01 -3.561633e+01
-3.628666e+09 -3.428668e+09 -3.588667e+09 -1.477186e+02 -1.328139e+01 9.854159e+00
-3.271311e+09 -3.071313e+09 -3.231312e+09 -1.437583e+02 -9.047568e+00 1.911834e+01
-2.988002e+09 -2.788004e+09 -2.948003e+09 -1.320946e+02 -1.009563e+01 1.711497e+01
-2.420499e+09 -2.220500e+09 -2.380499e+09 -2.311879e+02 9.599646e+01 -9.011432e+01
-2.534086e+09 -2.334086e+09 -2.494085e+09 -5.568984e+02 1.226145e+02 -2.934419e+01
-2.404087e+09 -2.204087e+09 -2.364086e+09 -3.383387e+02 -2.528187e+01 -1.206326e+02
-2.050263e+09 -1.850263e+09 -2.010262e+09 -2.534868e+02 -3.419655e+01 -8.052464e+01
-2.445934e+09 -2.245935e+09 -2.405934e+09 -3.711405e+02 6.097966e+01 -1.004363e+02
-2.747622e+09 -2.547621e+09 -2.707622e+09 2.526466e+02 2.178048e+01 7.278608e+00
-3.956582e+09 -3.756581e+09 -3.916581e+09 1.347999e+02 2.765144e+01 -6.372302e+01
-4.055737e+09 -3.855737e+09 -4.015737e+09 2.908741e+02 1.432065e+01 -1.186088e+00
-4.995121e+09 -4.795124e+09 -4.955131e+09 -6.694510e+02 -1.083478e+03 3.341897e+01
-2.749897e+09 -2.549898e+09 -2.709898e+09 3.728759e+02 6.368251e+01 2.371426e+01
-3.050380e+09 -2.850380e+09 -3.010380e+09 3.616762e+02 4.839742e+01 -2.404036e+01
-3.408638e+09 -3.208638e+09 -3.368638e+09 2.444171e+02 1.203284e+01 -1.678403e+01
-3.695261e+09 -3.495261e+09 -3.655261e+09 2.603140e+02 -1.225743e+00 4.346877e+00
-4.679211e+09 -4.479210e+09 -4.639209e+09 7.781744e+02 6.214404e+01 3.186738e+01
-4.451478e+09 -4.251478e+09 -4.411488e+09 2.772022e+03 2.865828e+03 -1.021177e+03
-4.624882e+09 -4.424882e+09 -4.584881e+09 2.533807e+02 3.518391e+01 -6.245605e+01
-4.353152e+09 -4.153151e+09 -4.313150e+09 2.201924e+02 3.888372e+01 -1.185659e+01
-3.849582e+09 -3.649581e+09 -3.809580e+09 7.087014e+02 1.013123e+02 -9.628889e+00
-3.923575e+09 -3.723574e+09 -3.883573e+09 8.475445e+02 1.758393e+02 4.499518e+01
-4.064271e+09 -3.864270e+09 -4.024269e+09 3.727161e+02 6.924325e+00 -3.758707e-01
-1.784132e+09 -1.584134e+09 -1.744131e+09 5.894783e+02 -4.421896e+01 -1.343130e+01
-3.049685e+09 -2.849688e+09 -3.009684e+09 4.854189e+02 -7.296044e-01 9.486162e+01
-2.858580e+09 -2.658582e+09 -2.818578e+09 8.081663e+02 2.449415e+01 2.868357e+00
-2.547528e+09 -2.347530e+09 -2.507527e+09 8.441020e+02 1.324893e+02 -7.063710e+01
-1.869965e+09 -1.669967e+09 -1.829964e+09 4.647981e+02 2.656943e+01 1.031018e+01
-1.893844e+09 -1.693846e+09 -1.853843e+09 8.368225e+02 1.846773e+01 4.948748e+01
-4.470361e+09 -4.270364e+09 -4.430375e+09 -7.079395e+02 3.729561e+03 6.450346e+01
-2.084294e+09 -1.884295e+09 -2.044292e+09 7.691330e+02 -7.687207e+00 1.114797e+02
-2.624520e+09 -2.424519e+09 -2.584518e+09 5.237660e+02 4.789151e+02 -1.363244e+01
-2.761362e+09 -2.561362e+09 -2.721361e+09 8.372549e+02 1.386296e+02 -4.854240e+01
-2.538973e+09 -2.338972e+09 -2.498971e+09 6.306548e+02 2.934871e+02 -3.093051e+01
-2.207770e+09 -2.007770e+09 -2.167769e+09 9.486809e+02 1.951440e+02 -1.000828e+01
-2.192026e+09 -1.992024e+09 -2.152024e+09 5.233691e+02 4.174480e+01 7.213673e+00
-3.731456e+09 -3.531453e+09 -3.691455e+09 -5.178184e+01 3.612753e+02 -3.165235e+02
-3.960983e+09 -3.760980e+09 -3.920983e+09 -3.722266e+02 3.631855e+02 -3.723624e+02
-4.764846e+09 -4.564843e+09 -4.724846e+09 -2.604087e+02 4.601117e+01 -3.007838e+02
-4.022127e+09 -3.822124e+09 -3.982127e+09 -4.502845e+02 1.653504e+02 3.247744e+00
-2.087134e+09 -1.887135e+09 -2.047135e+09 -1.040638e+01 5.233740e-01 9.878063e+00
-1.807676e+09 -1.607678e+09 -1.767678e+09 3.455514e+00 3.974964e+00 2.879979e+00
-2.609153e+09 -2.409155e+09 -2.569155e+09 3.302868e+01 3.928959e+00 1.311654e+01
-2.971782e+09 -2.771783e+09 -2.931783e+09 4.076753e+01 7.591783e+00 6.425639e+00
-2.049974e+09 -1.849975e+09 -2.009975e+09 2.100803e+01 6.226715e-01 8.997099e+00
-2.055581e+09 -1.855583e+09 -2.015582e+09 1.774578e+00 -3.720829e-01 2.478444e+00
-2.521546e+09 -2.321548e+09 -2.481548e+09 1.527364e+00 -2.038173e+00 1.525887e+01
-2.478411e+09 -2.278413e+09 -2.438412e+09 6.889455e+00 9.261506e+00 3.986500e-01
-2.401185e+09 -2.201186e+09 -2.361186e+09 3.929932e+01 7.165588e+00 1.564372e+00
-1.802069e+09 -1.602071e+09 -1.762070e+09 1.940087e+01 7.810936e+00 -4.590357e+00
-2.643236e+09 -2.443235e+09 -2.603236e+09 -8.700458e+01 -1.438875e+01 1.685210e+00
-3.107304e+09 -2.907303e+09 -3.067303e+09 -1.418027e+02 -1.485270e+01 1.254191e+01
-2.878664e+09 -2.678664e+09 -2.838664e+09 -2.313783e+02 -5.497209e+01 -2.406487e+01
-2.677533e+09 -2.477533e+09 -2.637533e+09 -1.895271e+02 -3.671785e+01 -4.823606e+00
-2.210561e+09 -2.010560e+09 -2.170560e+09 -2.070932e+02 -4.552896e+01 3.283879e+01
-1.787861e+09 -1.587858e+09 -1.747860e+09 4.317628e+02 6.835804e+02 -4.933922e+02
-1.778528e+09 -1.578525e+09 -1.738527e+09 2.179584e+02 5.469753e+02 -2.544080e+02
-2.967731e+09 -2.767728e+09 -2.927730e+09 1.045585e+02 4.876488e+02 -1.811197e+02
-2.546777e+09 -2.346774e+09 -2.506777e+09 -1.867403e+02 4.653274e+02 -5.032376e+02
-2.690712e+09 -2.490711e+09 -2.650713e+09 8.410168e+01 4.965224e+02 -1.961118e+02
-2.174611e+09 -1.974609e+09 -2.134611e+09 1.180349e+02 4.283502e+02 -1.584358e+02
-1.884029e+09 -1.684028e+09 -1.844029e+09 -8.192668e+01 5.015656e+02 -2.768380e+02
-1.998061e+09 -1.798059e+09 -1.958061e+09 -5.099244e+02 5.710201e+02 -5.825324e+02
-4.824486e+09 -4.624493e+09 -4.784492e+09 6.816369e+02 9.788227e+02 -8.850796e-01
-3.011952e+09 -2.811954e+09 -2.971954e+09 9.953725e+00 1.003976e+01 6.811655e+00
-4.505620e+09 -4.305626e+09 -4.465631e+09 2.635880e+03 2.495229e+03 -5.709050e+02
-2.836459e+09 -2.636461e+09 -2.796460e+09 4.614414e+01 8.025561e+00 1.368015e+01
-1.630478e+09 -1.430479e+09 -1.590479e+09 4.273945e+01 1.320419e+01 1.419288e+01
-2.246068e+09 -2.046067e+09 -2.206067e+09 -1.725048e+01 9.649825e+00 -3.836894e+01
-2.586477e+09 -2.386476e+09 -2.546476e+09 -2.500140e+01 1.666583e+01 -6.018646e+01
-2.867987e+09 -2.667986e+09 -2.827986e+09 3.165848e+01 1.156296e+01 -3.220343e+01
-2.689686e+09 -2.489685e+09 -2.649685e+09 4.245576e+01 2.121945e+01 -4.824351e+01
-2.408225e+09 -2.208224e+09 -2.368224e+09 2.479494e+01 9.204755e+00 3.323753e+00
-2.114657e+09 -1.914656e+09 -2.074656e+09 4.970213e+01 3.124368e+00 -3.330149e+01
-1.903373e+09 -1.703372e+09 -1.863372e+09 -2.366534e+00 5.804874e+00 -5.265083e+01
-2.625239e+09 -2.425238e+09 -2.585238e+09 1.433547e+01 1.755489e+01 -4.247780e+01
-2.929257e+09 -2.729255e+09 -2.889256e+09 -2.498300e+01 -2.814051e+00 -2.386511e+01
-2.715344e+09 -2.515343e+09 -2.675344e+09 -2.422689e+01 -7.358861e+00 -2.820577e+01
-2.561432e+09 -2.361431e+09 -2.521431e+09 -1.730156e+01 -8.454663e+00 1.407137e+00
-2.802125e+09 -2.602123e+09 -2.762124e+09 -3.821912e+01 -1.791911e+01 1.540077e+01
-2.653556e+09 -2.453555e+09 -2.613555e+09 -3.092186e+01 -2.013801e+01 -2.845411e+00
-2.140842e+09 -1.940841e+09 -2.100842e+09 -2.493619e+01 -1.830582e+00 7.817444e-01
-1.872107e+09 -1.672105e+09 -1.832106e+09 -3.005110e+01 -1.349133e+01 -9.947151e+00
-2.983336e+09 -2.783335e+09 -2.943335e+09 -5.008193e+01 -3.822079e+00 -7.775292e-01
-3.283293e+09 -3.083292e+09 -3.243293e+09 -7.920278e+01 -5.501718e+00 -9.796867e+00
-2.670714e+09 -2.470715e+09 -2.630715e+09 -1.492237e+02 -2.949239e+01 -2.651619e+00
-2.508305e+09 -2.308305e+09 -2.468305e+09 -2.226758e+02 -2.419995e+01 5.993096e+00
-2.485990e+09 -2.285991e+09 -2.445991e+09 -1.214857e+02 -3.732552e+01 6.369921e+01
-3.550925e+09 -3.350926e+09 -3.510925e+09 -1.159194e+02 -1.744882e+01 1.601904e+01
-3.102980e+09 -2.902980e+09 -3.062980e+09 -2.371380e+02 -4.581513e+01 2.796361e+01
-2.180757e+09 -1.980758e+09 -2.140758e+09 1.150463e+02 2.318330e+01 2.084737e+00
-2.775473e+09 -2.575474e+09 -2.735474e+09 4.531858e+01 1.790717e+01 -2.737307e+01
-3.007635e+09 -2.807636e+09 -2.967636e+09 1.120251e+02 1.563024e+01 4.877370e-01
-2.686771e+09 -2.486772e+09 -2.646772e+09 1.165064e+02 1.432470e+01 2.748795e+00
-2.014171e+09 -1.814172e+09 -1.974172e+09 1.121500e+02 1.046765e+01 2.639911e+01
-2.051595e+09 -1.851596e+09 -2.011596e+09 -1.585751e+02 -2.736045e+01 3.883786e+01
-1.758631e+09 -1.558632e+09 -1.718632e+09 -1.762206e+02 -1.208633e+01 3.047994e+01
-2.808855e+09 -2.608855e+09 -2.768855e+09 -2.327160e+02 -3.038266e+01 -2.499720e+01
-2.561196e+09 -2.361197e+09 -2.521197e+09 -1.225756e+02 -2.800703e+01 -5.533252e+00
-2.692516e+09 -2.492516e+09 -2.652516e+09 -2.953533e+02 -2.525772e+01 2.554077e+01
-1.972075e+09 -1.772075e+09 -1.932075e+09 -2.018370e+02 -3.928091e+01 -3.271836e+01
-1.934387e+09 -1.734388e+09 -1.894388e+09 -2.850538e+02 -5.146196e+01 3.161783e+01
-1.796873e+09 -1.596873e+09 -1.756873e+09 -1.455305e+02 -5.643043e+01 1.191103e+01
-2.538400e+09 -2.338396e+09 -2.498398e+09 1.480469e+03 7.807424e+02 -6.249111e+02
-1.789784e+09 -1.589780e+09 -1.749782e+09 1.681995e+03 1.135951e+03 -7.976966e+02
-2.361202e+09 -2.161198e+09 -2.321200e+09 1.093979e+03 7.542884e+02 -4.103182e+02
-3.280252e+09 -3.080248e+09 -3.240251e+09 8.081540e+02 7.563223e+02 -6.965370e+02
-2.177002e+09 -1.977002e+09 -2.137004e+09 -1.736697e+03 4.172617e+01 3.035270e+02
-2.396496e+09 -2.196493e+09 -2.356496e+09 -5.501774e+02 3.238019e+02 -9.247152e+01
-2.093089e+09 -1.893084e+09 -2.053087e+09 3.365228e+02 1.246662e+03 -1.064089e+03
-2.792113e+09 -2.592109e+09 -2.752113e+09 -1.584180e+03 6.551293e+00 -5.822219e+02
-1.757227e+09 -1.557225e+09 -1.717227e+09 -1.072030e+03 4.398520e+02 -6.193545e+01
-1.899320e+09 -1.699316e+09 -1.859318e+09 -2.148008e+02 9.364264e+02 -6.155818e+02
-2.565536e+09 -2.365532e+09 -2.525535e+09 -5.638188e+00 4.768558e+02 -6.896959e+02
-2.558655e+09 -2.358655e+09 -2.518655e+09 2.335557e+02 1.805014e+01 -4.682216e+01
-2.444496e+09 -2.244496e+09 -2.404496e+09 1.742604e+02 4.132682e+01 -3.695676e+00
-2.573727e+09 -2.373726e+09 -2.533726e+09 1.037788e+02 2.407733e+01 -2.178494e+01
-1.778447e+09 -1.578446e+09 -1.738446e+09 1.157762e+02 1.586698e+01 1.826689e+01
-2.595292e+09 -2.395291e+09 -2.555292e+09 1.206884e+02 3.261173e+01 -2.513211e+00
-2.326904e+09 -2.126903e+09 -2.286903e+09 1.762307e+02 4.126734e+01 -6.781900e-01
-2.411015e+09 -2.211013e+09 -2.371014e+09 -1.034295e+02 -1.396891e+01 -5.519720e+01
-3.995405e+09 -3.795412e+09 -3.955415e+09 1.896094e+03 3.333846e+03 -8.277672e+02
-3.074326e+09 -2.874325e+09 -3.034325e+09 -8.762879e+01 -1.138641e+01 -8.615428e+00
-1.890761e+09 -1.690760e+09 -1.850760e+09 -1.000405e+02 -1.703665e+01 -4.409298e+01
-3.958892e+09 -3.758889e+09 -3.918898e+09 6.507067e+02 -1.647084e+03 2.191632e+03
-1.814923e+09 -1.614922e+09 -1.774922e+09 -1.294022e+02 -2.128471e+01 -5.811864e+01
-4.123518e+09 -3.923518e+09 -4.083517e+09 -2.871902e+02 5.278161e+01 -1.651698e+01
-1.897328e+09 -1.697327e+09 -1.857327e+09 -1.819664e+02 -2.813107e+01 -4.542874e+01
-1.809393e+09 -1.609392e+09 -1.769393e+09 -1.575236e+02 -2.058235e+01 -2.677595e+01
-1.794927e+09 -1.594925e+09 -1.754926e+09 -9.188313e+01 -1.758784e+01 -2.530012e+01
-1.920146e+09 -1.720145e+09 -1.880145e+09 -1.191674e+02 -2.472148e+01 -3.556174e+01
-2.245489e+09 -2.045487e+09 -2.205488e+09 -1.069538e+02 -2.986559e+01 -6.618358e+01
-2.762959e+09 -2.562958e+09 -2.722958e+09 -1.346944e+02 -4.300739e+01 -5.571501e+00
-2.177246e+09 -1.977245e+09 -2.137245e+09 -5.659059e+01 -3.763318e+01 -5.964936e+01
-3.876051e+09 -3.676052e+09 -3.836052e+09 2.274589e+01 6.205265e+00 6.224461e+00
-3.730067e+09 -3.530068e+09 -3.690068e+09 4.629022e+00 -1.513550e-01 -2.424988e+00
-4.011864e+09 -3.811866e+09 -3.971866e+09 1.852766e+00 -2.372546e-01 -3.271753e+00
-4.686598e+09 -4.486600e+09 -4.646599e+09 -7.788118e+00 2.685938e+00 6.059412e+00
-3.554632e+09 -3.354633e+09 -3.514633e+09 2.199006e+01 3.675571e+00 1.409525e+00
-3.694425e+09 -3.494427e+09 -3.654426e+09 2.484625e+00 -1.593195e+00 3.940032e+00
-3.287648e+09 -3.087650e+09 -3.247650e+09 3.406799e+00 -5.290739e+00 5.472398e+00
-4.073317e+09 -3.873318e+09 -4.033318e+09 -1.810175e+00 -5.710714e+00 1.399433e+01
-4.596272e+09 -4.396273e+09 -4.556273e+09 4.205768e+01 -2.762667e+00 -1.401855e+01
-4.447290e+09 -4.247291e+09 -4.407291e+09 -3.483053e+01 -2.314941e+00 6.003463e+00
-2.733255e+09 -2.533255e+09 -2.693253e+09 2.165543e+02 1.257958e+02 2.525426e+01
-2.806666e+09 -2.606666e+09 -2.766664e+09 2.297172e+02 5.144856e+01 2.881864e+01
-2.413694e+09 -2.213694e+09 -2.373692e+09 5.479595e+02 1.115281e+02 -8.081082e+01
-2.037861e+09 -1.837861e+09 -1.997859e+09 5.527428e+02 2.058263e+01 -2.661470e+01
-1.818685e+09 -1.618686e+09 -1.778684e+09 2.207878e+02 5.326608e+01 5.487043e+01
-2.052727e+09 -1.852728e+09 -2.012728e+09 -1.411541e+02 -3.346718e+01 2.825602e+01
-4.321640e+09 -4.121641e+09 -4.281656e+09 -1.164448e+03 5.520988e+03 9.976788e+02
-2.585488e+09 -2.385490e+09 -2.545489e+09 -2.231874e+02 -2.185303e+01 2.194347e+01
-1.811012e+09 -1.611013e+09 -1.771013e+09 -2.102191e+02 -4.273171e+01 2.862906e+01
-2.116536e+09 -1.916538e+09 -2.076537e+09 -5.751866e+01 -1.090262e+01 1.747850e+01
-2.770132e+09 -2.570134e+09 -2.730133e+09 -1.471246e+02 -1.597830e+01 1.021365e+01
-2.822912e+09 -2.622914e+09 -2.782913e+09 -1.244652e+02 -1.764906e+01 1.480650e+00
-2.570777e+09 -2.370778e+09 -2.530778e+09 -8.364988e+01 -3.105635e+01 -1.900362e+01
-4.619503e+09 -4.419502e+09 -4.579502e+09 -1.316635e+02 -1.932769e+00 -2.407791e+00
-4.976239e+09 -4.776236e+09 -4.936237e+09 7.451709e+02 -1.287631e+02 2.254422e+01
-4.593033e+09 -4.393033e+09 -4.553033e+09 -4.444821e+01 -1.006966e+01 -2.161529e+01
-4.321303e+09 -4.121302e+09 -4.281302e+09 -8.194334e+00 -2.779710e+01 -1.462396e+00
-3.791040e+09 -3.591039e+09 -3.751039e+09 -1.300432e+02 -3.100865e+00 -1.601318e+01
-3.872091e+09 -3.672091e+09 -3.832091e+09 -1.807600e+02 -3.198899e+01 2.001161e+01
-4.005421e+09 -3.805420e+09 -3.965420e+09 -1.523627e+02 -4.203547e+01 2.394536e+01
-2.545827e+09 -2.345825e+09 -2.505825e+09 1.078378e+03 4.687708e+02 -1.950747e+02
-4.669168e+09 -4.469167e+09 -4.629167e+09 -1.456468e+01 -3.677926e+00 5.284885e+00
-3.868838e+09 -3.668834e+09 -3.828838e+09 -2.833185e+02 -6.756858e+02 -5.543690e+02
-4.435984e+09 -4.235984e+09 -4.395982e+09 9.971866e+02 7.965619e+01 2.982662e+00
-4.641741e+09 -4.441740e+09 -4.601740e+09 -1.884010e+01 -7.319567e+00 -9.731810e+00
-3.709567e+09 -3.509566e+09 -3.669566e+09 -3.295704e+01 -5.696741e+00 -2.892762e-01
-4.980242e+09 -4.780238e+09 -4.940245e+09 -2.368276e+03 -6.231285e+02 5.401048e+02
-3.591285e+09 -3.391283e+09 -3.551284e+09 -1.261699e+01 -4.153371e-01 -1.082013e+01
-3.546785e+09 -3.346784e+09 -3.506785e+09 -4.842322e+01 -2.560711e+00 -1.817225e+01
-3.074929e+09 -2.874926e+09 -3.034930e+09 -7.194462e+02 -1.564745e+03 -1.375976e+03
-2.070444e+09 -1.870443e+09 -2.030443e+09 -1.051063e+01 -6.588667e+00 -1.129251e+00
-2.791433e+09 -2.591432e+09 -2.751432e+09 -1.951853e+02 -2.797201e+01 -7.285863e+00
-2.562621e+09 -2.362620e+09 -2.522620e+09 -3.085218e+01 -1.600593e+01 -2.444278e+01
-2.826199e+09 -2.626198e+09 -2.786199e+09 -7.466105e+01 -2.567948e+01 3.597151e+00
-3.100811e+09 -2.900815e+09 -3.060811e+09 -5.267684e+02 -2.761692e+02 -5.651892e+01
-2.709952e+09 -2.509955e+09 -2.669952e+09 -3.797190e+02 -2.913624e+02 7.552777e+00
-2.527100e+09 -2.327103e+09 -2.487100e+09 -7.520157e+02 -2.109682e+02 5.993958e+01
-2.019080e+09 -1.819084e+09 -1.979081e+09 -1.451350e+03 -7.788640e+02 -2.498161e+02
-2.283769e+09 -2.083774e+09 -2.243770e+09 -6.087151e+02 -5.417420e+02 -5.536995e+01
-2.027570e+09 -1.827575e+09 -1.987571e+09 -5.374034e+02 -8.058705e+02 1.901046e+02
-3.122081e+09 -2.922085e+09 -3.082082e+09 -1.286726e+03 -6.877252e+02 -3.457546e+02
-2.730697e+09 -2.530696e+09 -2.690696e+09 -4.556699e+01 -3.666492e+01 -8.083329e+01
-4.600213e+09 -4.400217e+09 -4.560213e+09 6.296716e+02 3.609503e+01 -6.790079e+01
-4.205919e+09 -4.005923e+09 -4.165919e+09 8.674119e+02 1.029844e+02 -7.915796e-01
-4.020755e+09 -3.820759e+09 -3.980755e+09 3.677977e+02 -6.828006e+01 8.889000e+01
-4.384314e+09 -4.184318e+09 -4.344314e+09 2.399979e+02 -6.775918e+01 3.512241e+01
-4.467916e+09 -4.267913e+09 -4.427920e+09 -2.916498e+02 -9.608142e+02 1.361706e+03
-4.658171e+09 -4.458175e+09 -4.618171e+09 2.916006e+02 1.531460e+01 5.821446e+00
-4.658171e+09 -4.458175e+09 -4.618171e+09 4.815851e+02 -6.343882e+00 -1.240764e+01
-2.415337e+09 -2.215342e+09 -2.375337e+09 -2.534836e+02 6.536656e+01 -5.975484e+01
-2.040678e+09 -1.840683e+09 -2.000679e+09 -6.279688e+02 1.726330e+02 -2.316121e+01
-2.516084e+09 -2.316089e+09 -2.476085e+09 -4.234438e+02 1.056709e+02 -4.244648e+01
-1.988303e+09 -1.788308e+09 -1.948303e+09 -2.704024e+02 1.427801e+02 -1.933988e+01
-1.793303e+09 -1.593308e+09 -1.753304e+09 -4.261133e+02 -8.679721e+00 -6.828556e+01
-2.369827e+09 -2.169824e+09 -2.329825e+09 -7.161250e+02 -1.000235e+03 -4.518957e+02
-4.282195e+09 -4.082190e+09 -4.242202e+09 -1.677311e+03 -2.043440e+03 2.160305e+03
-2.343765e+09 -2.143762e+09 -2.303764e+09 -9.841342e+02 -1.108638e+03 -9.343080e+02
-3.488496e+09 -3.288492e+09 -3.448496e+09 -3.077144e+02 -7.735127e+02 -7.272889e+02
-3.914469e+09 -3.714465e+09 -3.874469e+09 2.147147e+00 -7.870720e+02 -6.945019e+02
-3.534127e+09 -3.334124e+09 -3.494127e+09 -5.088177e+00 -8.604609e+02 -6.608587e+02
-3.517261e+09 -3.317258e+09 -3.477261e+09 -6.240981e+02 -8.702236e+02 -5.994386e+02
-3.045775e+09 -2.845772e+09 -3.005775e+09 -1.210368e+03 -1.290354e+03 -7.960051e+02
-3.647425e+09 -3.447432e+09 -3.607429e+09 -1.127431e+03 -1.603113e+02 6.017761e+02
-4.899360e+09 -4.699359e+09 -4.859359e+09 -2.058755e+02 -4.265754e+00 -7.318796e+00
-4.456834e+09 -4.256842e+09 -4.416840e+09 -5.065200e+02 5.580992e+01 3.101246e+02
-4.176258e+09 -3.976264e+09 -4.136263e+09 -9.885395e+02 -1.918195e+02 9.714143e+01
-4.607524e+09 -4.407531e+09 -4.567529e+09 -9.894408e+02 9.128422e+00 2.041284e+01
-4.789760e+09 -4.589768e+09 -4.749766e+09 -6.701879e+02 -8.939145e+01 5.002175e+02
-4.784601e+09 -4.584606e+09 -4.744604e+09 -1.841433e+03 -1.404748e+02 7.704500e+02
-4.596652e+09 -4.396658e+09 -4.556656e+09 -1.436445e+03 -8.520629e+01 1.201702e+02
-4.026480e+09 -3.826489e+09 -3.986485e+09 -1.606131e+03 -1.385011e+02 1.213522e+03
-3.059410e+09 -2.859409e+09 -3.019409e+09 -1.893255e+02 -2.762152e+01 -1.264389e+01
-2.797691e+09 -2.597690e+09 -2.757690e+09 9.180504e+01 1.396930e+01 -1.272999e+01
-3.416880e+09 -3.216878e+09 -3.376879e+09 2.629197e+01 2.258130e+00 -1.770250e+01
-2.487545e+09 -2.287544e+09 -2.447544e+09 2.573011e+01 -4.890140e+00 -1.662086e+01
-2.540743e+09 -2.340742e+09 -2.500742e+09 5.461291e+01 -1.333525e+01 -1.436418e+01
-2.635703e+09 -2.435702e+09 -2.595702e+09 4.985239e+00 8.971416e+00 -1.666282e+01
-2.616957e+09 -2.416956e+09 -2.576956e+09 4.468459e-01 -1.093147e+01 -2.176726e+01
-2.676919e+09 -2.476921e+09 -2.636919e+09 -9.335760e+02 -4.637019e+02 -2.632129e+02
-3.502051e+09 -3.302051e+09 -3.462050e+09 -7.560526e+02 -4.497973e+02 -1.456356e+02
-3.241179e+09 -3.041181e+09 -3.201180e+09 -1.144863e+03 -6.125297e+02 -1.851396e+02
-2.707045e+09 -2.507046e+09 -2.667045e+09 -1.125902e+03 -5.446678e+02 -2.184515e+02
-4.782771e+09 -4.582770e+09 -4.742770e+09 -6.314588e+00 2.240527e+01 -5.908277e+00
-4.225985e+09 -4.025984e+09 -4.185984e+09 9.160727e-01 8.131590e+00 -1.147769e+01
-3.972741e+09 -3.772740e+09 -3.932740e+09 1.598348e+01 6.116284e+00 -3.498909e+01
-4.211987e+09 -4.011986e+09 -4.171986e+09 2.166903e+01 2.668294e+00 -2.499935e+01
-4.580292e+09 -4.380291e+09 -4.540291e+09 -7.211824e+00 3.733179e+01 2.239608e+00
-4.230816e+09 -4.030815e+09 -4.190815e+09 -8.516849e+00 2.084262e+01 7.816226e+00
-4.050676e+09 -3.850675e+09 -4.010675e+09 -1.899348e+01 2.092950e+01 -3.154778e+01
-4.687350e+09 -4.487351e+09 -4.647350e+09 -7.131660e+02 3.413370e+00 -1.118734e+02
-4.618955e+09 -4.418957e+09 -4.578955e+09 -3.047477e+02 -1.876844e+02 -8.171738e+01
-4.347224e+09 -4.147226e+09 -4.307224e+09 -9.273808e+01 -6.414279e+01 -1.302009e+01
-3.656744e+09 -3.456742e+09 -3.616743e+09 -6.209152e+01 -5.086306e+00 -5.092268e+01
-4.037562e+09 -3.837563e+09 -3.997562e+09 -7.067260e+02 -2.671373e+02 -3.561439e+01
-3.994221e+09 -3.794225e+09 -3.954222e+09 -8.855736e+02 -3.631343e+02 -6.174906e+01
-4.099519e+09 -3.899522e+09 -4.059520e+09 -6.738566e+02 -8.701443e+01 2.792866e-02
-2.994135e+09 -2.794136e+09 -2.954134e+09 3.551895e+02 8.261125e+01 4.560586e+01
-4.117188e+09 -3.917188e+09 -4.077187e+09 1.774520e+03 6.400991e+01 1.939379e+00
-3.594437e+09 -3.394438e+09 -3.554436e+09 1.059156e+02 2.064593e+01 2.213415e+01
-2.274655e+09 -2.074656e+09 -2.234654e+09 1.980451e+02 2.454946e+01 2.397249e+01
-4.773916e+09 -4.573915e+09 -4.733915e+09 -1.709021e+02 -2.041494e-01 -3.101742e+01
-2.149684e+09 -1.949685e+09 -2.109683e+09 1.841138e+02 -1.454750e+01 4.458444e+01
-3.062082e+09 -2.862083e+09 -3.022080e+09 2.391277e+02 -3.885243e+01 4.577900e+01
-3.099319e+09 -2.899320e+09 -3.059318e+09 1.062222e+02 -5.738868e+00 -1.842794e-02
-1.936367e+09 -1.736368e+09 -1.896365e+09 1.796495e+02 -8.790691e+00 3.152526e+01
-2.876704e+09 -2.676703e+09 -2.836702e+09 1.232917e+03 2.294279e+02 -1.208649e+02
-2.252662e+09 -2.052661e+09 -2.212660e+09 2.262122e+03 9.024900e+02 -4.331535e+02
-2.727182e+09 -2.527181e+09 -2.687180e+09 2.253056e+03 5.324764e+02 -3.473775e+02
-3.293890e+09 -3.093889e+09 -3.253889e+09 1.691909e+03 4.599211e+02 -9.591377e+01
-4.992492e+09 -4.792488e+09 -4.952502e+09 -8.099000e+02 -1.537208e+03 5.294010e+02
-3.381375e+09 -3.181373e+09 -3.341373e+09 1.362372e+03 9.364625e+02 -2.484244e+02
-3.773732e+09 -3.573730e+09 -3.733730e+09 1.524068e+03 4.408702e+02 -2.304116e+02
-3.713601e+09 -3.513600e+09 -3.673600e+09 1.644410e+03 3.742925e+02 -2.236535e+02
-3.819411e+09 -3.619410e+09 -3.779410e+09 1.649987e+03 4.890437e+02 -1.521896e+02
-3.196512e+09 -2.996510e+09 -3.156511e+09 1.945746e+03 8.009175e+02 -2.666768e+02
-4.591585e+09 -4.391582e+09 -4.551584e+09 -2.071208e+02 -2.055458e+02 -5.401625e+01
-3.573666e+09 -3.373663e+09 -3.533665e+09 -4.216716e+02 -5.151562e+02 -3.597611e+02
-4.618910e+09 -4.418907e+09 -4.578909e+09 -5.904253e+01 -1.911554e+02 -8.435864e+01
-3.770646e+09 -3.570643e+09 -3.730645e+09 -5.038177e+02 -4.061168e+02 -1.684746e+02
-4.299924e+09 -4.099921e+09 -4.259929e+09 3.113329e+02 -1.918683e+03 1.343987e+03
-4.556435e+09 -4.356431e+09 -4.516434e+09 -3.903345e+02 -4.115305e+02 -1.875462e+02
-4.220826e+09 -4.020823e+09 -4.180826e+09 -1.655735e+02 -4.826958e+02 -3.251343e+02
-4.618910e+09 -4.418907e+09 -4.578909e+09 -4.325032e+02 -2.218990e+02 5.102747e+01
-4.289882e+09 -4.089890e+09 -4.249886e+09 -1.392948e+02 -6.408648e+02 2.906587e+01
-4.475300e+09 -4.275307e+09 -4.435306e+09 -2.957769e+02 -1.024487e+03 -8.545525e+01
-4.193062e+09 -3.993068e+09 -4.153066e+09 -8.016242e+02 -7.377341e+02 4.825860e+00
-4.784323e+09 -4.584329e+09 -4.744327e+09 -6.909910e+02 -2.272597e+02 6.116741e+01
-3.817878e+09 -3.617879e+09 -3.777879e+09 1.207469e+02 2.426870e+01 1.565150e+01
-4.195347e+09 -3.995348e+09 -4.155348e+09 1.631701e+02 -3.469794e+00 -9.659230e+00
-3.116225e+09 -2.916226e+09 -3.076225e+09 1.114445e+02 3.492303e+01 2.589097e+01
-3.674567e+09 -3.474568e+09 -3.634568e+09 2.481571e+02 2.691323e+01 1.403246e+01
-3.288358e+09 -3.088359e+09 -3.248359e+09 1.973258e+02 2.118155e+01 -3.395210e+01
-1.968135e+09 -1.768134e+09 -1.928133e+09 2.107375e+03 7.539355e+02 -2.503037e+02
-3.089726e+09 -2.889723e+09 -3.049724e+09 1.193194e+03 6.342918e+02 -2.436529e+02
-2.170864e+09 -1.970861e+09 -2.130862e+09 2.066018e+03 8.892289e+02 -4.535318e+02
-4.482277e+09 -4.282281e+09 -4.442288e+09 1.484696e+03 2.977073e+03 -8.223063e+02
-2.613834e+09 -2.413831e+09 -2.573832e+09 2.007476e+03 6.949338e+02 -5.191930e+02
-4.478397e+09 -4.278396e+09 -4.438396e+09 2.774798e+01 3.704523e+00 -4.366150e+00
-3.680261e+09 -3.480260e+09 -3.640260e+09 9.959187e+00 -1.314749e+00 -8.881216e-01
-4.030919e+09 -3.830918e+09 -3.990919e+09 2.581451e+01 -3.486372e+00 2.200412e+00
-3.765967e+09 -3.565966e+09 -3.725966e+09 2.150760e+01 3.966903e+00 -1.610516e+00
-4.662506e+09 -4.462505e+09 -4.622505e+09 3.751587e+00 -1.134287e+00 2.169870e+00
-4.980060e+09 -4.780058e+09 -4.940059e+09 -9.438177e+01 1.552698e+01 4.651751e+01
-4.957832e+09 -4.757831e+09 -4.917831e+09 -2.011669e+02 5.207567e-01 7.943157e+00
-4.614867e+09 -4.414866e+09 -4.574866e+09 1.016585e+01 1.500123e+00 -2.060272e+00
-1.863575e+09 -1.663574e+09 -1.823574e+09 3.396971e+01 -3.805821e+01 -1.117722e+02
-2.149106e+09 -1.949105e+09 -2.109105e+09 1.366590e+02 -8.401068e+01 -1.242665e+02
-2.599996e+09 -2.399996e+09 -2.559995e+09 6.406325e+01 -1.367212e+01 -1.021067e+02
-2.742246e+09 -2.542246e+09 -2.702245e+09 7.666358e+01 3.534344e+01 -7.067535e+01
-2.841334e+09 -2.641334e+09 -2.801333e+09 2.516118e+01 -4.325764e+01 -9.515399e+01
-2.631967e+09 -2.431968e+09 -2.591966e+09 -3.180039e+02 3.906786e+01 -1.299010e+02
-3.052329e+09 -2.852329e+09 -3.012328e+09 -2.887860e+02 8.051838e+01 -5.447071e+01
-1.764918e+09 -1.564919e+09 -1.724917e+09 -2.586502e+02 -6.220819e+01 -9.097988e+01
-2.943173e+09 -2.743173e+09 -2.903172e+09 -3.466078e+02 5.186976e+00 -1.124507e+02
-2.604314e+09 -2.404314e+09 -2.564313e+09 -2.370096e+02 3.774901e+01 -9.569332e+01
-3.617197e+09 -3.417196e+09 -3.577196e+09 4.969544e+01 -8.686678e-01 -9.023665e+00
-3.303877e+09 -3.103876e+09 -3.263876e+09 6.851354e+01 7.770019e+00 -2.054870e+01
-2.599321e+09 -2.399320e+09 -2.559320e+09 1.390889e+01 2.491187e+01 -4.282011e+01
-2.524175e+09 -2.324174e+09 -2.484174e+09 7.185401e+01 1.050042e+01 -4.353735e+01
-3.150608e+09 -2.950607e+09 -3.110607e+09 -6.953011e+02 -4.688015e+02 -1.987022e+02
-2.938405e+09 -2.738403e+09 -2.898404e+09 -6.536445e+02 -3.549453e+02 -1.753829e+02
-2.651343e+09 -2.451343e+09 -2.611342e+09 -8.166419e+02 -5.271638e+02 -9.224681e+01
-2.855446e+09 -2.655445e+09 -2.815444e+09 -1.014361e+03 -7.127770e+02 -2.208560e+02
-3.959692e+09 -3.759690e+09 -3.919691e+09 -7.574573e+02 -2.724210e+02 -1.290341e+02
-3.749494e+09 -3.549492e+09 -3.709493e+09 -7.167760e+02 -3.559957e+02 -1.340676e+02
-3.344200e+09 -3.144200e+09 -3.304198e+09 9.703826e+02 1.996295e+02 1.724587e+01
-2.497934e+09 -2.297935e+09 -2.457933e+09 8.675500e+02 -9.198677e+00 8.942901e+00
-3.084239e+09 -2.884239e+09 -3.044238e+09 9.111419e+02 1.719954e+02 -3.805902e+00
-2.870724e+09 -2.670729e+09 -2.830724e+09 -2.323591e+02 5.793484e+01 -3.689099e+01
-3.189910e+09 -2.989914e+09 -3.149910e+09 -4.146356e+02 6.799996e+00 -8.024745e+01
-2.496304e+09 -2.296310e+09 -2.456305e+09 -7.236374e+02 3.499307e+01 3.275038e+01
-3.124398e+09 -2.924404e+09 -3.084399e+09 -2.064938e+02 -8.539532e+01 1.104895e+01
-2.983173e+09 -2.783178e+09 -2.943173e+09 -4.895880e+02 1.999735e+02 -2.436749e+01
-4.289486e+09 -4.089478e+09 -4.249488e+09 3.443936e+02 1.475461e+03 -2.287672e+03
-4.315237e+09 -4.115230e+09 -4.275238e+09 -5.953094e+02 4.028477e+02 -1.055429e+03
-4.825187e+09 -4.625179e+09 -4.785188e+09 -3.692694e+02 1.542370e+02 -2.911605e+01
-4.138723e+09 -3.938714e+09 -4.098723e+09 6.310570e+02 1.199004e+03 -2.428854e+03
-4.619503e+09 -4.419502e+09 -4.579502e+09 -9.928947e+01 -3.766832e+00 -1.414897e+00
-3.744398e+09 -3.544397e+09 -3.704397e+09 1.128983e+02 -1.049040e+02 -5.469916e+01
-3.073122e+09 -2.873121e+09 -3.033120e+09 1.997023e+02 -9.260754e+01 -2.425106e+01
-1.921427e+09 -1.721426e+09 -1.881426e+09 8.849150e+01 -1.830247e+02 -4.265560e+01
-2.327983e+09 -2.127983e+09 -2.287982e+09 1.445517e+02 -2.158995e+02 2.845483e+00
-3.471959e+09 -3.271958e+09 -3.431957e+09 4.016279e+01 -1.260723e+02 4.625136e+00
-2.718015e+09 -2.518014e+09 -2.678014e+09 1.902317e+00 -9.205137e+00 -6.330701e+01
-2.614341e+09 -2.414338e+09 -2.574339e+09 -1.101487e+02 -4.925992e+02 -5.390429e+01
-2.760905e+09 -2.560902e+09 -2.720903e+09 -1.228813e+02 -4.361908e+02 -3.984723e+01
-3.385910e+09 -3.185907e+09 -3.345909e+09 -3.630079e+02 -4.476614e+02 -2.352926e+02
-3.683979e+09 -3.483977e+09 -3.643978e+09 -1.300057e+02 -3.640769e+02 -8.890957e+01
-3.526889e+09 -3.326886e+09 -3.486887e+09 -1.442761e+02 -4.122551e+02 -7.741738e+01
-4.128991e+09 -3.928996e+09 -4.088996e+09 -1.897881e+03 1.607086e+03 3.090972e+02
-4.820558e+09 -4.620561e+09 -4.780561e+09 -2.512360e+03 4.622504e+02 1.600402e+02
-4.639802e+09 -4.439805e+09 -4.599805e+09 -2.430435e+03 6.188395e+02 2.687831e+02
-4.815456e+09 -4.615462e+09 -4.775462e+09 -1.874055e+03 4.829997e+02 1.531010e+02
-4.918807e+09 -4.718806e+09 -4.878806e+09 -1.181222e+02 -5.798157e+00 -8.732300e+00
-3.914458e+09 -3.714463e+09 -3.874460e+09 -4.432062e+02 -3.142835e+02 -1.572839e+01
-3.878112e+09 -3.678118e+09 -3.838115e+09 -5.304617e+02 -6.229357e+02 1.995582e+01
-3.722294e+09 -3.522301e+09 -3.682297e+09 -3.114984e+02 -2.386535e+02 -7.069319e+01
-4.086633e+09 -3.886625e+09 -4.046650e+09 -1.689634e+02 4.367203e+03 8.326454e+02
-3.950544e+09 -3.750539e+09 -3.910545e+09 -1.221756e+03 2.338132e+02 1.923926e+03
-4.448353e+09 -4.248359e+09 -4.408356e+09 -3.356436e+02 -1.644857e+02 -3.471925e+01
-4.646573e+09 -4.446567e+09 -4.606576e+09 -3.368802e+03 8.981766e+02 3.333503e+02
-4.826003e+09 -4.625999e+09 -4.786004e+09 -3.733823e+03 -3.876225e+02 7.467207e+02
-4.807811e+09 -4.607803e+09 -4.767809e+09 -3.879256e+03 -4.382959e+02 -8.836551e+01
-4.121347e+09 -3.921337e+09 -4.081348e+09 -4.764161e+03 8.913606e+02 1.834757e+02
-4.982659e+09 -4.782659e+09 -4.942659e+09 -2.400667e+02 -1.337574e+01 5.542575e+01
-3.304449e+09 -3.104446e+09 -3.264448e+09 -1.962217e+02 -4.133465e+02 -5.336931e+01
-3.310446e+09 -3.110449e+09 -3.270445e+09 5.214574e+02 1.002031e+02 5.600058e+01
-3.322233e+09 -3.122237e+09 -3.282233e+09 4.040246e+02 3.004595e+01 1.095573e+01
-2.713069e+09 -2.513072e+09 -2.673069e+09 2.968840e+02 5.530124e+01 1.038362e+02
-2.540079e+09 -2.340082e+09 -2.500078e+09 3.828034e+02 8.028668e+01 5.500704e+01
-2.885832e+09 -2.685835e+09 -2.845831e+09 5.049732e+02 9.013508e+01 -2.982850e+01
-1.752054e+09 -1.552060e+09 -1.712055e+09 5.237572e+01 9.524118e+00 -2.537498e+01
-1.766907e+09 -1.566912e+09 -1.726907e+09 8.614180e+00 -4.586410e+00 -3.131578e+01
-1.833943e+09 -1.633948e+09 -1.793943e+09 2.298761e+01 2.858413e+01 -1.145961e+01
-2.964533e+09 -2.764534e+09 -2.924533e+09 2.848897e+02 -7.459179e+01 -8.022302e+00
-3.100105e+09 -2.900105e+09 -3.060105e+09 3.980147e+02 -1.971384e+02 -5.242891e+01
-2.870499e+09 -2.670499e+09 -2.830498e+09 3.346515e+02 -3.026142e+02 -7.768150e+00
-1.962868e+09 -1.762868e+09 -1.922867e+09 3.755992e+02 -9.888430e+01 -2.301467e+01
-2.489249e+09 -2.289249e+09 -2.449248e+09 9.473699e+02 -6.204870e+02 2.888337e+02
-2.086141e+09 -1.886141e+09 -2.046140e+09 4.573953e+02 -1.614157e+02 1.876085e+01
-1.778112e+09 -1.578113e+09 -1.738111e+09 7.309375e+02 -2.047712e+02 3.413838e+01
-2.136681e+09 -1.936684e+09 -2.096681e+09 2.385638e+02 -5.146757e+01 -6.140310e+00
-2.538879e+09 -2.338883e+09 -2.498880e+09 5.695394e+02 -4.884657e+02 2.227050e+01
-1.786841e+09 -1.586845e+09 -1.746841e+09 8.490734e+02 -4.220069e+02 9.341400e+01
-2.607695e+09 -2.407697e+09 -2.567695e+09 7.124628e+02 -4.044857e+02 9.892966e+01
-2.543207e+09 -2.343209e+09 -2.503207e+09 6.810930e+02 -3.126480e+02 1.320938e+02
-3.264830e+09 -3.064829e+09 -3.224829e+09 -1.447548e+02 -4.288626e+01 -3.124551e+01
-2.281019e+09 -2.081018e+09 -2.241018e+09 -9.885179e+01 -2.199799e+01 -5.507032e+01
-2.381524e+09 -2.181522e+09 -2.341522e+09 -8.906629e+01 -3.240955e+01 -4.879400e+01
-1.936726e+09 -1.736725e+09 -1.896725e+09 -7.466797e+01 -6.437047e+01 -7.833682e+01
-2.463596e+09 -2.263595e+09 -2.423595e+09 1.678262e+01 -1.738118e+02 -2.295933e+01
-1.868166e+09 -1.668165e+09 -1.828165e+09 -1.544862e+01 -8.538469e+01 -6.643618e+01
-2.680716e+09 -2.480715e+09 -2.640715e+09 -2.847254e+01 -3.704341e+01 -8.793160e+01
-2.748959e+09 -2.548957e+09 -2.708957e+09 -1.005637e+02 -4.851082e+01 -3.827361e+01
-3.307199e+09 -3.107198e+09 -3.267198e+09 -1.444740e+02 -1.137826e+01 -2.590146e+01
-2.918525e+09 -2.718524e+09 -2.878525e+09 -1.434010e+02 -6.846832e+00 -2.957872e+01
-3.732067e+09 -3.532066e+09 -3.692066e+09 -1.396847e+02 -2.709002e+01 -2.478570e+01
-3.035972e+09 -2.835971e+09 -2.995971e+09 -1.330345e+02 -1.449597e+01 -2.137602e+01
-3.771411e+09 -3.571410e+09 -3.731410e+09 -1.385208e+02 -2.176899e+01 -2.894940e+01
-2.772177e+09 -2.572179e+09 -2.732181e+09 1.813485e+03 -1.530760e+02 -4.512841e+01
-2.177702e+09 -1.977705e+09 -2.137706e+09 6.423982e+02 -3.589776e+02 -3.069585e+02
-1.892334e+09 -1.692335e+09 -1.852336e+09 8.583900e+02 -3.332907e+02 -4.891048e+02
-2.728835e+09 -2.528838e+09 -2.688839e+09 1.671998e+03 -9.343068e-01 -2.064408e+02
-2.755097e+09 -2.555097e+09 -2.715099e+09 1.236592e+03 -1.367507e+02 -1.421587e+02
-3.164624e+09 -2.964627e+09 -3.124628e+09 1.892570e+03 8.652806e+01 2.576243e+02
-2.516381e+09 -2.316384e+09 -2.476384e+09 1.404618e+03 8.786323e+01 4.475317e+01
-4.052928e+09 -3.852927e+09 -4.012927e+09 -1.673916e+02 -3.742038e+00 -4.325506e+01
-4.809432e+09 -4.609431e+09 -4.769431e+09 -1.018010e+02 -5.244031e+01 -2.899093e+01
-2.332371e+09 -2.132370e+09 -2.292370e+09 6.287921e+01 1.982270e+00 -3.752709e+01
-4.221171e+09 -4.021171e+09 -4.181170e+09 -7.176230e+01 6.009991e+00 -2.177693e+01
-3.992943e+09 -3.792942e+09 -3.952942e+09 -1.626160e+00 2.396227e+00 -3.147590e+01
-4.606325e+09 -4.406325e+09 -4.566324e+09 -1.677628e+01 1.101740e+01 -3.226536e+01
-4.471510e+09 -4.271510e+09 -4.431509e+09 -1.016168e+02 1.313722e+01 -3.606780e+01
-4.613767e+09 -4.413767e+09 -4.573766e+09 -1.124543e+02 4.049996e+01 -6.234844e+00
-4.791516e+09 -4.591515e+09 -4.751515e+09 -4.922450e+01 -1.914913e+01 -8.750753e+00
-3.885599e+09 -3.685604e+09 -3.845603e+09 -9.630129e+02 -9.853738e+01 5.994053e+02
-3.891993e+09 -3.692001e+09 -3.851999e+09 -3.831535e+02 -2.988229e+01 1.800615e+01
-4.521616e+09 -4.321621e+09 -4.481620e+09 -8.152936e+02 9.304419e+01 -1.258826e+02
-4.707876e+09 -4.507881e+09 -4.667880e+09 -6.998211e+02 7.801503e+01 -3.207751e+02
-4.043007e+09 -3.843013e+09 -4.003012e+09 -8.850937e+02 1.360241e+02 3.145777e+02
-2.877330e+09 -2.677331e+09 -2.837331e+09 1.022997e+02 9.239146e+00 9.385857e+00
-2.097602e+09 -1.897604e+09 -2.057603e+09 8.246121e+01 6.235161e+00 -5.367214e+00
-3.381908e+09 -3.181910e+09 -3.341909e+09 1.763442e+02 1.223586e+01 2.947093e+01
-3.285979e+09 -3.085980e+09 -3.245980e+09 1.476559e+02 2.309294e+01 1.960827e+01
-3.470219e+09 -3.270218e+09 -3.430218e+09 -3.453147e+02 -1.847140e+02 -7.828756e+01
-2.662948e+09 -2.462950e+09 -2.622949e+09 1.809641e+02 7.992553e+00 -9.540788e+00
-2.728365e+09 -2.528366e+09 -2.688366e+09 7.300861e+01 6.149428e+00 1.586766e+01
-2.551608e+09 -2.351609e+09 -2.511609e+09 1.555980e+02 3.320962e+01 3.487765e+00
-3.044064e+09 -2.844065e+09 -3.004065e+09 8.311987e+01 1.213865e+01 7.776634e+00
-3.537683e+09 -3.337684e+09 -3.497684e+09 7.904604e+01 3.215313e+00 4.106880e+01
-2.700769e+09 -2.500768e+09 -2.660768e+09 3.645422e+01 5.723003e+00 5.201686e+00
-2.940498e+09 -2.740497e+09 -2.900497e+09 1.600921e+01 8.049873e+00 3.674145e+00
-3.637069e+09 -3.437069e+09 -3.597069e+09 -1.016729e+01 -4.572861e+00 1.369038e-01
-4.069800e+09 -3.869798e+09 -4.029799e+09 2.120649e+01 -7.362218e-01 5.469189e-01
-3.161557e+09 -2.961556e+09 -3.121556e+09 -4.710522e-01 9.062029e-01 -2.471630e+01
-2.985326e+09 -2.785325e+09 -2.945325e+09 8.873083e+00 -2.707251e+00 -9.304965e+00
-4.017875e+09 -3.817874e+09 -3.977874e+09 1.840556e+01 -4.529852e+00 5.911273e+00
-3.552406e+09 -3.352405e+09 -3.512405e+09 2.516178e+01 8.440139e+00 2.710362e+01
-1.778907e+09 -1.578907e+09 -1.738907e+09 1.873265e+02 3.055959e+01 -4.655383e+01
-2.489994e+09 -2.289994e+09 -2.449994e+09 2.385021e+02 3.066710e+01 2.432474e+01
-2.808782e+09 -2.608782e+09 -2.768782e+09 2.336824e+02 2.620378e+01 1.781456e+01
-2.496232e+09 -2.296232e+09 -2.456232e+09 2.129631e+02 4.774807e+01 -5.995393e+00
-1.892081e+09 -1.692081e+09 -1.852081e+09 2.534831e+02 2.930943e+01 -4.130718e+01
-2.739262e+09 -2.539262e+09 -2.699262e+09 2.498337e+02 2.962224e+01 2.695302e+00
-2.200506e+09 -2.000507e+09 -2.160507e+09 3.545387e+02 1.095711e+01 -6.736414e+00
-4.062011e+09 -3.862009e+09 -4.022010e+09 -3.971469e+01 -4.035964e+00 -1.965711e+01
-3.358067e+09 -3.158066e+09 -3.318067e+09 -4.585694e+01 -1.306470e+01 -1.457587e+01
-4.030139e+09 -3.830138e+09 -3.990138e+09 -4.789619e+01 -2.150186e+00 -6.165419e+00
-3.237541e+09 -3.037539e+09 -3.197540e+09 -1.198877e+02 -5.967825e+00 -2.895013e+01
-1.855828e+09 -1.655825e+09 -1.815827e+09 -3.180673e+02 -7.659699e+02 -1.054607e+03
-2.924853e+09 -2.724850e+09 -2.884852e+09 -7.081424e+02 -9.705281e+02 -6.997916e+02
-2.767807e+09 -2.567804e+09 -2.727806e+09 -3.779820e+02 -5.750806e+02 -4.686151e+02
-3.101504e+09 -2.901506e+09 -3.061503e+09 6.010478e+01 1.049069e+01 -7.063491e+00
-2.268798e+09 -2.068795e+09 -2.228797e+09 -6.537307e+02 -9.936891e+02 -7.165730e+02
-2.571076e+09 -2.371073e+09 -2.531076e+09 2.999900e+01 -1.088656e+03 -1.147038e+03
-1.777585e+09 -1.577594e+09 -1.737588e+09 3.400957e+02 -1.300092e+03 5.666270e+01
-2.370604e+09 -2.170613e+09 -2.330607e+09 7.254090e+01 -1.254928e+03 1.411096e+02
-2.571223e+09 -2.371232e+09 -2.531226e+09 6.022955e+02 -1.974781e+03 3.834256e+02
-3.976732e+09 -3.776732e+09 -3.936732e+09 -1.842019e+01 -1.784972e+01 -3.535260e+01
-1.857032e+09 -1.657042e+09 -1.817035e+09 -8.277644e+01 -2.462232e+03 2.106285e+02
-2.146035e+09 -1.946039e+09 -2.106035e+09 4.498517e+02 -2.774778e+01 5.962389e+01
-2.614174e+09 -2.414178e+09 -2.574174e+09 4.450113e+02 4.523589e+01 -1.877386e+00
-2.625231e+09 -2.425236e+09 -2.585231e+09 4.573034e+02 9.571010e+01 2.791890e+01
-2.807682e+09 -2.607686e+09 -2.767682e+09 6.605581e+02 1.084865e+02 4.033815e+01
-2.199440e+09 -1.999444e+09 -2.159440e+09 5.670881e+02 8.793498e+01 3.077682e+01
-2.826701e+09 -2.626703e+09 -2.786700e+09 3.839369e+02 -1.530262e+01 3.069714e+01
-2.730853e+09 -2.530855e+09 -2.690852e+09 6.079465e+02 8.129177e+01 6.841178e+01
-2.586269e+09 -2.386272e+09 -2.546268e+09 1.767616e+02 -3.546383e+01 1.010667e+02
-2.056592e+09 -1.856595e+09 -2.016591e+09 3.832803e+02 2.130834e+01 3.109420e+01
-1.858105e+09 -1.658108e+09 -1.818104e+09 2.055430e+02 -5.862517e+01 3.625832e+01
-2.837008e+09 -2.637011e+09 -2.797007e+09 2.092312e+02 -5.083096e+01 -1.832930e+01
-2.706409e+09 -2.506413e+09 -2.666409e+09 1.827807e+02 -6.192458e+01 3.944248e+01
-1.959029e+09 -1.759036e+09 -1.919035e+09 1.190799e+03 3.971068e+02 6.995151e+02
-2.746047e+09 -2.546056e+09 -2.706054e+09 2.572962e+02 -6.505311e+01 4.713094e+02
-2.755323e+09 -2.555331e+09 -2.715330e+09 6.021969e+02 6.497883e+00 5.156272e+02
-2.529202e+09 -2.329210e+09 -2.489208e+09 7.929546e+02 -1.634866e+02 6.555420e+02
-2.113170e+09 -1.913177e+09 -2.073176e+09 5.657231e+02 2.859560e+01 6.323731e+02
-2.262444e+09 -2.062450e+09 -2.222449e+09 9.377976e+02 -3.448142e+01 6.118706e+02
-2.740819e+09 -2.540825e+09 -2.700825e+09 1.470618e+03 2.110956e+02 -1.022064e+02
-2.381069e+09 -2.181077e+09 -2.341076e+09 4.950393e+02 4.477836e+02 1.199843e+03
-4.639916e+09 -4.439915e+09 -4.599915e+09 5.319279e+01 3.110912e+00 -6.353904e+00
-4.060442e+09 -3.860441e+09 -4.020442e+09 -5.150076e+01 -5.313136e-01 7.819173e+00
-4.565796e+09 -4.365795e+09 -4.525795e+09 2.165388e+01 5.846278e+00 -4.309026e+00
-4.294065e+09 -4.094064e+09 -4.254064e+09 3.542111e+01 3.106038e+00 -1.740253e+01
-3.948025e+09 -3.748024e+09 -3.908024e+09 7.275852e+01 -1.939981e+00 -3.004550e+01
-3.996531e+09 -3.796529e+09 -3.956529e+09 3.134612e+01 -2.077369e+00 -3.128314e+01
-4.089217e+09 -3.889216e+09 -4.049216e+09 -3.097717e+01 -2.215156e+01 -5.410151e+00
-2.674773e+09 -2.474780e+09 -2.634779e+09 -1.643297e+02 1.581208e+02 -1.629169e+01
-2.680971e+09 -2.480978e+09 -2.640977e+09 -4.499565e+02 9.611434e+00 5.510053e+02
-3.357002e+09 -3.157009e+09 -3.317008e+09 -3.886223e+02 -3.368651e+01 4.080987e+02
-2.431007e+09 -2.231014e+09 -2.391013e+09 -2.543367e+02 1.788297e+01 5.257191e+01
-3.246781e+09 -3.046790e+09 -3.206788e+09 8.172992e+01 5.069289e+01 8.639609e+02
-2.479072e+09 -2.279078e+09 -2.439077e+09 -3.464078e+02 1.726074e+02 5.960511e+02
-2.735648e+09 -2.535656e+09 -2.695655e+09 5.392736e+01 7.722201e+01 6.831355e+02
-3.651212e+09 -3.451213e+09 -3.611211e+09 3.021922e+02 5.658487e+01 9.407792e+00
-2.789048e+09 -2.589049e+09 -2.749047e+09 1.864159e+02 -6.052169e+00 1.318093e+01
-3.217428e+09 -3.017429e+09 -3.177426e+09 2.987102e+02 -1.806120e+01 -1.355786e+01
-3.981224e+09 -3.781225e+09 -3.941222e+09 9.008852e+01 -2.148998e+00 -2.123898e+01
-3.058147e+09 -2.858148e+09 -3.018146e+09 6.004848e+01 -1.883841e+01 1.150887e+00
-3.734144e+09 -3.534146e+09 -3.694143e+09 8.566941e+01 -4.599732e+01 2.364967e+01
-4.211445e+09 -4.011447e+09 -4.171446e+09 -1.448183e+02 -3.377119e+00 8.236922e+00
-2.705126e+09 -2.505127e+09 -2.665125e+09 1.196588e+02 2.044735e-01 -3.595561e-01
-2.961631e+09 -2.761633e+09 -2.921630e+09 8.621250e+01 6.217730e+01 1.821945e+01
-3.624793e+09 -3.424794e+09 -3.584792e+09 6.215500e+02 6.339294e+01 1.900586e+01
-3.170754e+09 -2.970755e+09 -3.130753e+09 5.062789e+02 4.777067e+01 6.064709e+01
-3.053490e+09 -2.853491e+09 -3.013489e+09 4.830823e+02 5.592597e+01 5.700064e+01
-3.407294e+09 -3.207294e+09 -3.367292e+09 3.283198e+02 3.396135e+01 -1.570186e+01
-2.274100e+09 -2.074101e+09 -2.234098e+09 4.987094e+02 -1.450994e+02 1.327882e+01
-1.858734e+09 -1.658738e+09 -1.818734e+09 1.232824e+02 6.299626e+01 1.965705e+01
-3.175058e+09 -2.975056e+09 -3.135057e+09 -5.625747e+02 -2.848613e+02 -2.256094e+01
-2.906827e+09 -2.706825e+09 -2.866825e+09 -3.597745e+02 -4.959893e+02 -5.006121e+01
-2.954329e+09 -2.754327e+09 -2.914327e+09 -1.920861e+02 -9.311500e+01 -1.008480e+01
-4.431927e+09 -4.231924e+09 -4.391925e+09 -5.300508e+01 -3.358155e+01 -2.448328e+01
-4.643593e+09 -4.443594e+09 -4.603594e+09 7.572509e+02 4.486208e+01 4.103742e+01
-3.951104e+09 -3.751106e+09 -3.911122e+09 -1.055753e+03 6.581133e+03 7.079733e+02
-4.923575e+09 -4.723573e+09 -4.883573e+09 -1.261381e+02 -3.573177e+00 -1.267170e+01
-3.786734e+09 -3.586732e+09 -3.746732e+09 -1.136197e+02 -1.856099e+02 -1.429297e+01
-3.554353e+09 -3.354351e+09 -3.514351e+09 -1.169894e+02 -2.078939e+02 1.630038e+01
-2.174646e+09 -1.974647e+09 -2.134647e+09 -2.231495e+02 -1.517429e+01 9.389924e+00
-2.463569e+09 -2.263571e+09 -2.423570e+09 -1.463236e+02 -1.795350e+01 9.682744e+00
-3.592127e+09 -3.392129e+09 -3.552128e+09 -1.393934e+02 -6.406701e+00 1.898126e-01
-3.026672e+09 -2.826674e+09 -2.986673e+09 -1.462810e+02 -2.962752e+01 3.321582e+01
-3.130081e+09 -2.930083e+09 -3.090082e+09 -1.077057e+02 -8.230450e+00 6.048289e+00
-2.931784e+09 -2.731785e+09 -2.891785e+09 -9.179081e+01 -1.662531e+01 -1.260994e+01
-3.055611e+09 -2.855612e+09 -3.015612e+09 -1.730108e+02 -3.685416e+01 9.329350e+01
-4.647942e+09 -4.447942e+09 -4.607942e+09 -1.185311e+03 -2.844210e+01 9.955025e+01
-4.447089e+09 -4.247090e+09 -4.407090e+09 -1.430901e+03 6.756312e+00 2.725250e+00
-4.637908e+09 -4.437909e+09 -4.597909e+09 -1.102922e+03 -5.178622e+00 6.927915e+01
-4.301488e+09 -4.101489e+09 -4.261489e+09 -9.380909e+02 -1.288281e+01 -1.028537e+02
-4.821505e+09 -4.621505e+09 -4.781506e+09 -1.217386e+03 -5.783825e+01 7.555124e+01
-4.791513e+09 -4.591513e+09 -4.751513e+09 1.555842e+02 1.249120e+00 -3.754099e+01
-4.588012e+09 -4.388012e+09 -4.548012e+09 2.821612e+02 3.294191e+01 -1.273631e+01
-4.988225e+09 -4.788225e+09 -4.948225e+09 2.261492e+02 -1.585498e+01 9.261214e+00
-4.766982e+09 -4.566982e+09 -4.726982e+09 1.951378e+02 1.094462e+01 5.702232e+01
-4.227829e+09 -4.027829e+09 -4.187829e+09 1.882441e+02 8.657892e+00 6.178976e+00
-4.026236e+09 -3.826236e+09 -3.986236e+09 2.103334e+02 2.441933e+01 -4.469953e+00
-3.931091e+09 -3.731092e+09 -3.891092e+09 1.153941e+02 -6.491641e+00 -2.670607e+00
-4.990802e+09 -4.790801e+09 -4.950801e+09 6.516396e+02 -4.281402e+01 -9.653933e+01
-2.905002e+09 -2.705001e+09 -2.865001e+09 3.368152e+01 -3.750317e+01 -6.760128e+01
-2.540965e+09 -2.340964e+09 -2.500963e+09 -1.344308e+01 -8.666805e+01 -1.021928e+02
-2.124198e+09 -1.924198e+09 -2.084197e+09 4.716636e+01 -7.109029e+01 -9.636405e+01
-2.828874e+09 -2.628873e+09 -2.788872e+09 -1.710323e+01 9.284765e+00 -8.067584e+01
-2.176447e+09 -1.976446e+09 -2.136446e+09 -3.457228e+01 -1.133345e+01 -7.678720e+01
-4.976041e+09 -4.776040e+09 -4.936040e+09 1.175389e+02 -8.159518e+00 -3.691852e+00
-4.319902e+09 -4.119912e+09 -4.279905e+09 7.741992e+02 1.350583e+02 1.482396e+03
-4.106188e+09 -3.906195e+09 -4.066192e+09 1.950602e+03 3.202032e+02 7.031150e+02
-4.837745e+09 -4.637754e+09 -4.797749e+09 2.643263e+02 2.794126e+01 -2.485153e+02
-4.312371e+09 -4.112381e+09 -4.272375e+09 8.428224e+01 3.450214e+02 1.290011e+03
-4.663135e+09 -4.463144e+09 -4.623137e+09 8.166361e+02 8.393121e+01 6.785783e+02
-3.663172e+09 -3.463170e+09 -3.623174e+09 1.052116e+03 -6.408553e+02 -5.621441e+02
-3.634410e+09 -3.434406e+09 -3.594410e+09 1.667864e+02 -7.880171e+02 -8.324337e+02
-3.223308e+09 -3.023307e+09 -3.183310e+09 3.721348e+02 -1.626646e+03 -1.445965e+03
-3.952959e+09 -3.752950e+09 -3.912968e+09 2.131722e+03 3.353745e+03 -4.016236e+03
-2.494877e+09 -2.294875e+09 -2.454877e+09 -3.679067e+02 -1.191339e+03 -8.092430e+02
-3.336847e+09 -3.136844e+09 -3.296847e+09 -1.232041e+02 -9.597177e+02 -8.080192e+02
-4.131533e+09 -3.931539e+09 -4.091539e+09 2.507003e+03 2.144654e+03 -4.641446e+02
-3.081714e+09 -2.881715e+09 -3.041713e+09 6.212362e+02 5.895791e+01 2.276418e+01
-2.851324e+09 -2.651325e+09 -2.811323e+09 6.690032e+02 3.722265e+01 8.378827e+00
-3.629805e+09 -3.429806e+09 -3.589804e+09 5.097598e+02 1.012546e+02 4.821914e+01
-3.252165e+09 -3.052166e+09 -3.212163e+09 7.833582e+02 9.876863e+01 3.878332e+01
-3.741306e+09 -3.541308e+09 -3.701305e+09 8.314646e+02 1.005534e+02 -4.071660e+00
-4.990705e+09 -4.790704e+09 -4.950710e+09 3.017037e+03 6.745182e+02 -4.037644e+02
-2.398754e+09 -2.198752e+09 -2.358752e+09 -5.972672e+02 -5.536725e+02 -1.814021e+02
-5.011399e+09 -4.811402e+09 -4.971401e+09 2.531783e+03 3.436259e+02 -1.044638e+02
-3.893923e+09 -3.693920e+09 -3.853922e+09 -4.630942e+02 -3.652061e+02 -4.786188e+01
-4.219004e+09 -4.019001e+09 -4.179002e+09 -3.927377e+02 -2.708634e+02 -3.362124e+01
-3.012649e+09 -2.812647e+09 -2.972648e+09 -4.366295e+02 -3.938623e+02 -1.057662e+02
-3.552390e+09 -3.352388e+09 -3.512388e+09 -4.298624e+02 -2.977233e+02 -1.148837e+02
-3.366911e+09 -3.166908e+09 -3.326909e+09 -4.391554e+02 -2.996913e+02 -1.050235e+02
-1.760922e+09 -1.560919e+09 -1.720920e+09 -1.608025e+03 -1.244498e+03 -8.758806e+02
-2.445118e+09 -2.245115e+09 -2.405117e+09 -1.269800e+03 -1.022543e+03 -6.957697e+02
-1.896293e+09 -1.696290e+09 -1.856292e+09 -6.123769e+02 -1.076466e+03 -6.393164e+02
-1.895348e+09 -1.695346e+09 -1.855347e+09 -4.918942e+02 -6.951066e+02 -3.059286e+02
-4.964381e+09 -4.764383e+09 -4.924395e+09 1.630742e+03 2.413774e+03 -6.091109e+02
-2.803143e+09 -2.603140e+09 -2.763141e+09 -6.564676e+02 -6.229003e+02 -2.709058e+02
-3.386847e+09 -3.186844e+09 -3.346847e+09 4.391996e+01 -9.922865e+02 -7.808699e+02
-3.109083e+09 -2.909080e+09 -3.069082e+09 -5.078782e+02 -6.856988e+02 -4.020334e+02
-2.601093e+09 -2.401090e+09 -2.561092e+09 -5.293402e+02 -8.239405e+02 -2.787276e+02
-4.104882e+09 -3.904882e+09 -4.064882e+09 -2.231159e+02 -2.994650e+00 9.074286e+00
-4.450489e+09 -4.250489e+09 -4.410489e+09 -3.044360e+02 3.404006e-01 2.424447e+00
-4.609469e+09 -4.409468e+09 -4.569469e+09 -3.182401e+02 -2.297998e+01 1.158313e+01
-4.790784e+09 -4.590784e+09 -4.750784e+09 -3.236089e+02 -2.671810e+01 -2.722605e+01
-2.762949e+09 -2.562956e+09 -2.722955e+09 -4.500266e+02 2.261143e+02 7.427427e+02
-3.029414e+09 -2.829422e+09 -2.989420e+09 -4.103034e+02 5.267300e+01 3.174573e+02
-3.584786e+09 -3.384794e+09 -3.544792e+09 3.593646e+02 2.621540e+02 7.355013e+02
-2.202163e+09 -2.002173e+09 -2.162172e+09 -3.855292e+02 2.716286e+02 2.075709e+03
-2.729671e+09 -2.529681e+09 -2.689679e+09 -4.901612e+02 2.030024e+02 1.989727e+03
-1.553272e+09 -1.353273e+09 -1.513273e+09 2.573355e+02 5.108833e+01 1.673982e+01
-3.121754e+09 -2.921763e+09 -3.081760e+09 4.028103e+02 1.841744e+02 1.175005e+03
-2.606034e+09 -2.406043e+09 -2.566041e+09 6.059745e+02 3.854122e+02 1.152457e+03
-2.609751e+09 -2.409751e+09 -2.569751e+09 2.793052e+02 1.739382e+01 -7.016246e+01
-2.559338e+09 -2.359338e+09 -2.519338e+09 2.084243e+02 1.641154e+01 1.815581e+01
-2.339484e+09 -2.139484e+09 -2.299484e+09 1.275409e+02 1.453046e+01 -6.661755e+01
-1.777031e+09 -1.577031e+09 -1.737031e+09 1.653194e+02 2.958883e+01 -4.008714e+01
-1.890304e+09 -1.690304e+09 -1.850304e+09 2.063305e+02 2.947384e+01 -3.359545e+01
-3.196944e+09 -2.996943e+09 -3.156943e+09 6.975017e+01 8.127076e+00 4.537970e-01
-2.133412e+09 -1.933411e+09 -2.093411e+09 9.225850e+01 1.557421e+01 1.216767e+01
-3.878229e+09 -3.678228e+09 -3.838228e+09 1.608599e+02 4.773462e+00 -6.002596e+00
-3.975086e+09 -3.775085e+09 -3.935085e+09 1.444100e+02 4.631882e+00 -7.748906e+00
-2.201202e+09 -2.001201e+09 -2.161201e+09 1.318240e+02 1.156395e+01 -1.026057e+01
-3.782507e+09 -3.582506e+09 -3.742506e+09 1.585376e+02 3.361565e+01 -1.415686e+01
-3.835040e+09 -3.635039e+09 -3.795040e+09 1.951944e+02 1.465930e+01 2.353283e+01
-3.162117e+09 -2.962117e+09 -3.122117e+09 1.692720e+02 2.504184e+01 1.313707e+01
-4.994250e+09 -4.794255e+09 -4.954256e+09 2.045674e+03 6.040014e+02 -2.872845e+01
-3.961552e+09 -3.761551e+09 -3.921551e+09 -1.323706e+02 -1.268723e+01 -3.745365e+01
-3.657404e+09 -3.457403e+09 -3.617403e+09 -1.605777e+02 -2.322178e+01 -4.945724e+01
-3.780745e+09 -3.580744e+09 -3.740744e+09 -3.463618e+01 -5.922054e+00 -3.639763e+01
-4.682329e+09 -4.482327e+09 -4.642328e+09 -4.292060e+01 5.536783e+00 -7.704813e+00
-4.408471e+09 -4.208470e+09 -4.368470e+09 -5.744648e+01 7.968573e+00 -3.148067e+00
-4.498008e+09 -4.298014e+09 -4.458017e+09 5.775512e+02 1.961954e+03 -2.580499e+02
-4.682329e+09 -4.482327e+09 -4.642328e+09 -1.380239e+02 -6.080271e+00 -6.096510e+00
-1.800788e+09 -1.600790e+09 -1.760789e+09 1.448588e-01 -3.463971e-01 1.038612e+01
-1.827642e+09 -1.627644e+09 -1.787643e+09 -6.662476e+01 -1.130398e+01 6.990227e+00
-1.781655e+09 -1.581657e+09 -1.741656e+09 -4.493871e+01 -1.628222e+01 1.296035e+01
-1.744980e+09 -1.544982e+09 -1.704981e+09 -3.181163e+01 -6.336788e+00 4.502964e+01
-2.301995e+09 -2.101996e+09 -2.261996e+09 -2.324136e+00 9.985302e+00 9.276993e+00
-2.642024e+09 -2.442026e+09 -2.602026e+09 -3.778319e+01 -6.218533e+00 1.060411e+01
-2.849114e+09 -2.649120e+09 -2.809116e+09 -1.197638e+03 -1.673217e+03 -1.787701e+02
-1.770308e+09 -1.570315e+09 -1.730309e+09 -1.611079e+03 -1.634402e+03 -1.215048e+02
-1.982866e+09 -1.782872e+09 -1.942868e+09 -1.153365e+03 -9.908999e+02 -1.785709e+02
-5.025103e+09 -4.825108e+09 -4.985114e+09 1.440590e+03 1.932923e+03 -3.381342e+02
-2.129220e+09 -1.929228e+09 -2.089222e+09 -7.020096e+02 -1.427935e+03 -1.442649e+02
-1.789000e+09 -1.589009e+09 -1.749002e+09 -8.011004e+02 -1.280240e+03 -1.187318e+02
-1.853814e+09 -1.653821e+09 -1.813815e+09 -6.123672e+02 -6.628801e+02 5.993174e+01
-1.597614e+09 -1.397622e+09 -1.557616e+09 -1.053743e+03 -1.067294e+03 -1.054756e+02
-2.532510e+09 -2.332514e+09 -2.492514e+09 -6.227574e+02 1.635272e+02 1.958558e+02
-2.601359e+09 -2.401361e+09 -2.561361e+09 -1.001370e+03 -1.139214e+01 3.501469e+02
-2.069568e+09 -1.869572e+09 -2.029572e+09 -6.358171e+02 1.628925e+02 1.639498e+02
-2.008438e+09 -1.808439e+09 -1.968440e+09 -8.493535e+02 1.677151e+02 5.643558e+00
-2.587780e+09 -2.387784e+09 -2.547784e+09 -8.941930e+02 1.290269e+02 5.275373e+01
-1.878288e+09 -1.678290e+09 -1.838291e+09 -1.755093e+03 3.185784e+02 1.416228e+02
-1.750650e+09 -1.550651e+09 -1.710653e+09 -7.096420e+02 2.837790e+02 -3.187288e+01
-2.122499e+09 -1.922502e+09 -2.082503e+09 -8.848933e+02 1.321846e+02 1.825943e+02
-3.456816e+09 -3.256812e+09 -3.416815e+09 1.982856e+02 3.761780e+02 -2.830374e+02
-2.621594e+09 -2.421590e+09 -2.581592e+09 1.444538e+03 8.784477e+02 -6.810120e+02
-3.641221e+09 -3.441217e+09 -3.601220e+09 8.908276e+02 5.889061e+02 -5.081077e+02
-3.704879e+09 -3.504875e+09 -3.664878e+09 1.054110e+03 6.134264e+02 -4.859824e+02
-3.781602e+09 -3.581598e+09 -3.741602e+09 5.827508e+02 6.707887e+02 -5.731204e+02
-3.180660e+09 -2.980657e+09 -3.140659e+09 1.471638e+03 9.859669e+02 -5.720684e+02
-3.836109e+09 -3.636106e+09 -3.796109e+09 -8.434516e+02 2.964376e+02 -2.829099e+02
-3.953579e+09 -3.753574e+09 -3.913578e+09 -2.481531e+02 2.826845e+02 -6.895348e+02
-3.468017e+09 -3.268014e+09 -3.428017e+09 -8.899553e+02 2.521236e+02 -2.965243e+02
-1.886813e+09 -1.686811e+09 -1.846812e+09 4.273774e+02 4.839072e+02 -1.613444e+02
-3.375740e+09 -3.175737e+09 -3.335740e+09 -1.388113e+02 5.435848e+02 -5.562384e+02
-1.801718e+09 -1.601714e+09 -1.761717e+09 6.187332e+02 1.029587e+03 -1.117557e+03
-2.555897e+09 -2.355895e+09 -2.515896e+09 2.772346e+02 6.055588e+02 -5.200332e+02
-3.724052e+09 -3.524047e+09 -3.684051e+09 1.136113e+02 3.277795e+02 -5.109759e+02
-3.104181e+09 -2.904181e+09 -3.064180e+09 9.206559e+01 -1.002036e+02 -2.503367e+01
-3.597006e+09 -3.397007e+09 -3.557006e+09 2.742200e+02 -4.127395e+01 4.139984e+01
-2.664366e+09 -2.464367e+09 -2.624365e+09 2.401551e+02 -1.576017e+02 -4.049959e+01
-3.630219e+09 -3.430220e+09 -3.590219e+09 5.889701e+01 -8.381537e+01 -3.609364e+01
-3.305855e+09 -3.105856e+09 -3.265854e+09 2.865804e+02 -8.136153e+01 2.837242e+01
-2.306888e+09 -2.106893e+09 -2.266888e+09 6.806360e+02 6.284547e+01 -9.135579e+00
-2.666322e+09 -2.466326e+09 -2.626322e+09 5.717768e+02 -1.240777e+01 1.814370e+01
-2.667579e+09 -2.467583e+09 -2.627579e+09 5.552120e+02 9.300827e+01 6.300038e+01
-2.793689e+09 -2.593693e+09 -2.753688e+09 3.837803e+02 2.431984e+01 -3.140857e+01
-2.169775e+09 -1.969779e+09 -2.129775e+09 7.240680e+02 1.192178e+01 1.432041e+01
-1.954178e+09 -1.754182e+09 -1.914178e+09 7.494126e+02 1.838416e+01 5.146769e+01
-2.229841e+09 -2.029846e+09 -2.189841e+09 2.728159e+02 1.277085e+01 4.162280e+01
-2.081296e+09 -1.881295e+09 -2.041295e+09 4.292244e+01 1.353846e+01 4.295746e+00
-1.795338e+09 -1.595337e+09 -1.755337e+09 4.192644e+01 1.115685e+01 3.716808e+00
-2.397418e+09 -2.197417e+09 -2.357417e+09 4.673063e+01 1.530771e+01 -1.866993e+01
-2.056878e+09 -1.856877e+09 -2.016877e+09 5.154791e+01 9.977422e+00 -1.952733e+01
-3.674274e+09 -3.474272e+09 -3.634272e+09 -7.156044e+01 -1.050646e+02 -1.989108e+01
-1.816509e+09 -1.616507e+09 -1.776508e+09 4.593634e+01 8.476896e+00 -4.604433e+00
-2.530332e+09 -2.330331e+09 -2.490331e+09 5.484199e+01 2.794106e+00 -6.819334e+00
-3.950414e+09 -3.750421e+09 -3.910425e+09 -1.670926e+03 3.353651e+03 6.585638e+02
-2.484743e+09 -2.284742e+09 -2.444742e+09 8.300664e+01 6.934918e+00 3.045731e+00
-1.877326e+09 -1.677325e+09 -1.837325e+09 6.786759e+01 2.629608e+01 -2.254748e+01
-1.581477e+09 -1.381476e+09 -1.541476e+09 7.074896e+01 1.874491e+01 -1.967733e+01
-3.941153e+09 -3.741154e+09 -3.901154e+09 1.011572e+02 4.374870e+00 4.574651e-01
-3.778664e+09 -3.578666e+09 -3.738665e+09 1.316342e+02 1.427819e+01 2.959547e+01
-3.304936e+09 -3.104938e+09 -3.264938e+09 1.188188e+02 9.744283e+00 -5.583991e+00
-4.479499e+09 -4.279502e+09 -4.439500e+09 -1.596299e+03 6.499693e+01 -4.010866e+02
-2.953878e+09 -2.753880e+09 -2.913880e+09 6.981762e+01 7.201000e+00 6.353879e+00
-2.730022e+09 -2.530024e+09 -2.690023e+09 1.203161e+02 1.585389e+01 7.220780e-01
-4.791349e+09 -4.591355e+09 -4.751350e+09 -1.910583e+02 1.196726e+02 -1.793341e+01
-4.984611e+09 -4.784614e+09 -4.944612e+09 -6.518429e+02 6.167036e-01 -1.855262e+02
-4.602259e+09 -4.402265e+09 -4.562260e+09 2.888572e+01 5.074133e+00 -8.087982e+00
-4.775700e+09 -4.575706e+09 -4.735701e+09 1.528337e+02 1.011988e+02 9.526541e+00
-3.461887e+09 -3.261893e+09 -3.421888e+09 7.820424e+00 -2.543093e+01 -3.021413e+01
-3.969569e+09 -3.769575e+09 -3.929570e+09 3.432822e+01 3.590123e+01 -1.463666e+01
-4.861086e+09 -4.661092e+09 -4.821087e+09 -1.810119e+01 1.303732e+01 5.071758e+00
-4.974000e+09 -4.774006e+09 -4.934001e+09 1.105788e+02 -7.472461e+00 5.420506e+01
-3.562489e+09 -3.362490e+09 -3.522490e+09 2.033752e+01 5.623592e+00 -1.175465e+01
-3.105747e+09 -2.905749e+09 -3.065748e+09 4.842862e+01 -3.431191e+00 2.580317e+01
-2.517101e+09 -2.317102e+09 -2.477102e+09 6.342029e+01 2.292989e+01 -1.755924e+01
-2.614761e+09 -2.414763e+09 -2.574762e+09 1.691404e+01 2.275575e+00 1.128968e+01
-2.016930e+09 -1.816931e+09 -1.976931e+09 4.428093e+01 7.349799e+00 1.815770e+01
-2.488735e+09 -2.288737e+09 -2.448737e+09 -2.762159e+00 -2.385721e-01 1.106576e+01
-3.142294e+09 -2.942290e+09 -3.102292e+09 4.807472e+02 5.550615e+02 -2.743168e+02
-1.880543e+09 -1.680540e+09 -1.840541e+09 1.959442e+03 9.702882e+02 -4.812810e+02
-3.363551e+09 -3.163548e+09 -3.323551e+09 5.211931e+01 4.325137e+02 -2.369474e+02
-1.992884e+09 -1.792880e+09 -1.952882e+09 6.796142e+02 7.432742e+02 -4.084583e+02
-2.950852e+09 -2.750849e+09 -2.910851e+09 8.375198e+02 7.920746e+02 -4.632543e+02
-1.582184e+09 -1.382181e+09 -1.542182e+09 1.438434e+03 1.035090e+03 -6.102167e+02
-1.596017e+09 -1.396014e+09 -1.556015e+09 2.084587e+03 1.236608e+03 -5.356338e+02
-3.806417e+09 -3.606416e+09 -3.766416e+09 -3.178009e+01 -9.307719e-01 -7.083983e+00
-2.065695e+09 -1.865695e+09 -2.025693e+09 1.764820e+02 8.861448e+01 -3.423416e+00
-3.452314e+09 -3.252313e+09 -3.412313e+09 -5.101248e+01 -1.532962e+01 -3.647354e+01
-3.782431e+09 -3.582430e+09 -3.742430e+09 -3.906646e+01 -5.528465e+00 -1.364132e+01
-4.124440e+09 -3.924442e+09 -4.084441e+09 -9.888025e+02 1.830863e+01 8.128959e+01
-2.854621e+09 -2.654621e+09 -2.814621e+09 -1.555122e+02 -1.183422e+01 1.578731e+01
-2.128064e+09 -1.928064e+09 -2.088064e+09 -2.259316e+02 -3.571021e+01 -2.645720e+01
-3.961583e+09 -3.761586e+09 -3.921585e+09 -9.968993e+02 2.477074e+01 -1.159249e+02
-1.952863e+09 -1.752863e+09 -1.912863e+09 -2.952451e+02 -6.323685e+01 -5.685127e+00
-2.339834e+09 -2.139834e+09 -2.299834e+09 -2.528630e+02 -1.684486e+01 3.734795e+00
-2.688105e+09 -2.488105e+09 -2.648105e+09 -1.050451e+02 -2.675396e+01 -8.601464e+00
-1.943737e+09 -1.743736e+09 -1.903737e+09 -2.728699e+02 -5.338800e+01 -4.313552e+00
-2.213551e+09 -2.013551e+09 -2.173551e+09 -8.735220e+01 -1.639531e+01 5.474039e-01
-3.072746e+09 -2.872754e+09 -3.032749e+09 1.231815e+02 -3.644369e+02 4.806290e+01
-2.649899e+09 -2.449907e+09 -2.609902e+09 2.482359e+02 -3.555534e+02 1.088975e+02
-1.635408e+09 -1.435416e+09 -1.595409e+09 2.170396e+02 -2.878025e+02 6.759772e+01
-2.013858e+09 -1.813866e+09 -1.973860e+09 5.900947e+02 -1.272894e+03 4.263730e+02
-2.597600e+09 -2.397608e+09 -2.557602e+09 4.188608e+02 -7.326214e+02 -7.962086e-01
-1.830788e+09 -1.630796e+09 -1.790790e+09 7.575566e+02 -1.183474e+03 2.743002e+02
-2.070019e+09 -1.870017e+09 -2.030017e+09 1.155412e+03 7.047665e+02 -2.374173e+02
-3.323877e+09 -3.123874e+09 -3.283875e+09 7.719754e+02 1.958162e+02 -4.936372e+01
-2.767514e+09 -2.567513e+09 -2.727512e+09 9.055751e+02 3.876181e+02 -6.478087e+01
-2.562562e+09 -2.362561e+09 -2.522561e+09 9.075600e+02 3.137914e+02 -7.789370e+01
-1.786795e+09 -1.586793e+09 -1.746793e+09 1.007490e+03 3.607677e+02 -9.922933e+01
-2.015184e+09 -1.815182e+09 -1.975182e+09 7.133727e+02 3.938494e+02 -1.543987e+02
-1.825708e+09 -1.625706e+09 -1.785706e+09 8.819908e+02 3.055609e+02 -1.808725e+02
-1.949459e+09 -1.749458e+09 -1.909457e+09 1.041572e+03 3.157603e+02 3.393456e+01
-1.838366e+09 -1.638365e+09 -1.798364e+09 1.099120e+03 4.551195e+02 -1.129701e+02
-2.805393e+09 -2.605393e+09 -2.765392e+09 -7.806344e+02 -3.922192e+02 -1.174705e+02
-3.331590e+09 -3.131588e+09 -3.291589e+09 -4.832296e+02 -2.469498e+02 -1.080778e+02
-4.027869e+09 -3.827868e+09 -3.987868e+09 -6.342178e+02 -1.950773e+02 -2.308882e+01
-1.878894e+09 -1.678895e+09 -1.838894e+09 -3.034445e+02 -5.559664e+01 6.534870e+00
-2.786540e+09 -2.586541e+09 -2.746541e+09 -1.301029e+02 -4.129119e+01 2.048968e+01
-3.092456e+09 -2.892457e+09 -3.052457e+09 -1.147977e+02 -9.663961e+00 -2.669202e+00
-3.457461e+09 -3.257458e+09 -3.417459e+09 -7.135964e+01 -2.748829e+02 1.832728e+01
-2.997465e+09 -2.797466e+09 -2.957466e+09 -1.287446e+02 -1.216316e+01 2.571063e+00
-2.215299e+09 -2.015300e+09 -2.175300e+09 -3.010462e+02 -2.017012e+01 6.933893e+00
-1.586865e+09 -1.386866e+09 -1.546864e+09 7.820533e+02 2.093796e+02 8.591183e+00
-4.779324e+09 -4.579326e+09 -4.739325e+09 -1.624557e+03 7.842060e+01 -2.624319e+02
-4.441852e+09 -4.241841e+09 -4.401852e+09 -2.030851e+03 -1.710820e+03 7.715270e+02
-4.613060e+09 -4.413053e+09 -4.573070e+09 -1.658809e+03 -3.020838e+02 5.221403e+02
-4.491665e+09 -4.291658e+09 -4.451667e+09 -2.931608e+03 -1.929054e+03 -5.345384e+02
-4.442283e+09 -4.242278e+09 -4.402295e+09 -4.444677e+01 -3.265924e+03 1.023916e+03
-4.604812e+09 -4.404807e+09 -4.564824e+09 -1.343056e+03 -1.749005e+02 4.519168e+02
-4.690454e+09 -4.490460e+09 -4.650456e+09 -4.199985e+02 2.699821e+02 -2.055562e+01
-4.837727e+09 -4.637734e+09 -4.797730e+09 -2.455519e+02 -2.184440e+01 -4.467158e+01
-4.839599e+09 -4.639604e+09 -4.799601e+09 -9.892759e+02 6.271779e+01 -2.408914e+01
-4.684545e+09 -4.484551e+09 -4.644547e+09 -9.364694e+02 2.110647e+02 1.938728e+01
-4.767955e+09 -4.567955e+09 -4.727955e+09 1.437196e+02 8.076953e+00 1.179459e+01
-4.220682e+09 -4.020681e+09 -4.180681e+09 1.295700e+02 -2.943892e+00 1.060668e+01
-4.142817e+09 -3.942816e+09 -4.102816e+09 1.530251e+02 1.107478e+01 1.057947e+01
-4.783209e+09 -4.583208e+09 -4.743208e+09 1.158490e+02 2.439151e-01 -6.109156e+00
-4.291537e+09 -4.091536e+09 -4.251537e+09 9.852589e+01 -3.880311e-01 -4.626616e+01
-4.470489e+09 -4.270486e+09 -4.430489e+09 -1.751748e+03 2.488618e+02 2.783549e+02
-4.275725e+09 -4.075722e+09 -4.235724e+09 -7.023265e+02 2.083854e+02 4.001167e+02
-4.814871e+09 -4.614867e+09 -4.774869e+09 -7.661453e+02 1.735901e+02 2.336758e+02
-4.624746e+09 -4.424743e+09 -4.584745e+09 -4.520417e+02 6.299713e+01 2.956400e+01
-4.128405e+09 -3.928402e+09 -4.088404e+09 -7.276316e+02 1.640205e+00 1.043177e+01
-4.622896e+09 -4.422894e+09 -4.582894e+09 -1.379701e+02 -4.031941e+01 1.428003e+01
-2.681138e+09 -2.481137e+09 -2.641137e+09 2.087336e+01 9.748721e+00 -6.527316e+00
-2.774872e+09 -2.574870e+09 -2.734871e+09 5.658567e+01 1.378741e+01 -1.557407e+01
-1.628785e+09 -1.428783e+09 -1.588784e+09 9.519931e+01 2.313060e+01 -1.363910e+01
-2.448344e+09 -2.248343e+09 -2.408343e+09 5.356667e+01 1.795675e+01 -1.833156e+01
-2.894392e+09 -2.694389e+09 -2.854391e+09 2.340538e+02 4.825699e+02 -2.017349e+02
-3.879266e+09 -3.679263e+09 -3.839266e+09 -1.774044e+02 2.368540e+02 -1.077871e+02
-3.746233e+09 -3.546230e+09 -3.706232e+09 1.470929e+02 3.857118e+02 -3.629869e+02
-4.624121e+09 -4.424131e+09 -4.584119e+09 7.284203e+02 3.261286e+02 2.196660e+03
-4.302793e+09 -4.102792e+09 -4.262793e+09 -1.016038e+03 -3.808332e+01 6.287566e+01
-4.308053e+09 -4.108052e+09 -4.268053e+09 -9.410943e+02 -2.587390e+01 2.840283e+01
-4.824428e+09 -4.624427e+09 -4.784428e+09 -9.863051e+02 -5.039927e-01 -1.068107e+02
-4.323681e+09 -4.123679e+09 -4.283681e+09 8.881361e-01 -4.222336e+02 3.541555e+02
-4.129031e+09 -3.929029e+09 -4.089031e+09 1.393439e+00 -4.283322e+02 3.272235e+02
-2.107367e+09 -1.907366e+09 -2.067367e+09 -6.423771e+01 -1.113151e+01 -6.822995e+00
-4.815497e+09 -4.615494e+09 -4.775497e+09 -7.563819e+01 -2.051751e+02 4.476868e+02
-4.302992e+09 -4.102990e+09 -4.262992e+09 2.248861e+02 -4.417083e+02 4.713156e+02
-2.521082e+09 -2.321090e+09 -2.481089e+09 2.081346e+02 8.148161e+01 5.162488e+02
-4.621255e+09 -4.421258e+09 -4.581257e+09 -2.644971e+02 4.822185e+00 -1.102269e+02
-1.762524e+09 -1.562530e+09 -1.722530e+09 7.755925e+02 2.969511e+01 4.626161e+01
-2.178678e+09 -1.978685e+09 -2.138684e+09 1.022805e+02 9.576705e+01 -4.452611e+01
-4.435884e+09 -4.235884e+09 -4.395883e+09 2.792181e+01 -2.905445e+00 -3.773400e+01
-1.815377e+09 -1.615384e+09 -1.775383e+09 -1.793806e+02 7.611418e+01 1.365285e+02
-3.956418e+09 -3.756408e+09 -3.916386e+09 7.484311e+03 7.926200e+03 6.074745e+03
-2.159934e+09 -1.959936e+09 -2.119935e+09 -7.928398e+01 -1.931188e+01 2.421604e+01
-3.539134e+09 -3.339135e+09 -3.499135e+09 -2.158453e+02 -1.180477e+01 -4.931298e+00
-3.846011e+09 -3.646013e+09 -3.806012e+09 -7.655811e+01 -2.831091e+01 2.474428e+01
-3.586821e+09 -3.386822e+09 -3.546822e+09 -1.132292e+02 -1.407481e+01 2.031553e+01
-2.477474e+09 -2.277482e+09 -2.437481e+09 1.355233e+03 2.011929e+02 1.405017e+03
-1.909665e+09 -1.709673e+09 -1.869672e+09 1.451932e+03 4.188545e+02 1.731340e+03
-1.599038e+09 -1.399047e+09 -1.559047e+09 2.455137e+02 -6.881026e+01 1.697412e+03
-4.246294e+09 -4.046289e+09 -4.206292e+09 -5.202132e+01 3.296792e+01 4.125869e+02
-4.781683e+09 -4.581679e+09 -4.741682e+09 -3.854437e+02 2.099595e+02 3.920364e+02
-4.107169e+09 -3.907166e+09 -4.067167e+09 4.849561e+02 -2.832965e+02 -2.478228e+02
-4.095218e+09 -3.895214e+09 -4.055216e+09 -3.942615e+02 -3.044096e+01 1.043100e+02
-2.706503e+09 -2.506508e+09 -2.666504e+09 -1.626226e+02 6.914183e+01 -6.939641e+01
-2.822938e+09 -2.622943e+09 -2.782938e+09 -4.029661e+02 3.467277e+01 -4.930902e+01
-3.366336e+09 -3.166342e+09 -3.326337e+09 -1.911119e+02 4.951180e+01 -6.268968e+01
-2.041899e+09 -1.841904e+09 -2.001899e+09 -2.638099e+02 6.485646e+01 -2.050945e+00
-2.671784e+09 -2.471789e+09 -2.631784e+09 -3.795689e+02 3.752954e+01 -8.734458e+01
-3.210392e+09 -3.010397e+09 -3.170393e+09 -5.918506e+02 1.963754e+02 2.073079e+00
-3.486380e+09 -3.286385e+09 -3.446381e+09 -5.481849e+02 1.175694e+02 -2.541852e+01
-4.477218e+09 -4.277218e+09 -4.437218e+09 -4.649526e+02 -1.468954e+01 2.386881e+01
-4.841033e+09 -4.641032e+09 -4.801032e+09 -3.573988e+02 -3.119418e+01 -5.030563e+00
-4.497800e+09 -4.297799e+09 -4.457800e+09 -3.391399e+02 -6.092431e+00 7.462937e-01
-4.154567e+09 -3.954566e+09 -4.114567e+09 -3.422241e+02 -3.282011e+00 -1.476149e+01
-2.107876e+09 -1.907878e+09 -2.067880e+09 1.826484e+03 -3.610925e+02 -4.019923e+02
-1.866758e+09 -1.666762e+09 -1.826762e+09 2.353238e+02 -1.692382e+02 2.289476e+02
-1.797094e+09 -1.597095e+09 -1.757098e+09 1.907064e+03 -3.328767e+02 -3.358162e+02
-4.983657e+09 -4.783647e+09 -4.943648e+09 3.645084e+03 -1.415907e+02 -5.906876e+02
-1.592907e+09 -1.392910e+09 -1.552911e+09 7.138807e+02 -2.934118e+02 -1.635793e+02
-4.000471e+09 -3.800476e+09 -3.960471e+09 9.372999e+02 2.386201e+02 -5.781532e+01
-4.290173e+09 -4.090177e+09 -4.250173e+09 1.311929e+03 1.546511e+02 -5.196421e+01
-3.938229e+09 -3.738233e+09 -3.898229e+09 8.692620e+02 5.518062e+01 3.197979e+01
-4.134323e+09 -3.934327e+09 -4.094323e+09 1.197080e+03 6.348712e+01 6.680797e+01
-3.612191e+09 -3.412190e+09 -3.572190e+09 4.060182e+01 4.268514e-01 -3.117620e+01
-4.184466e+09 -3.984470e+09 -4.144466e+09 6.285724e+02 1.268291e+02 6.275648e+00
-4.006957e+09 -3.806963e+09 -3.966958e+09 2.528159e+02 2.838880e+02 -2.648414e+01
-4.160216e+09 -3.960222e+09 -4.120217e+09 2.183025e+02 8.382473e+01 -2.397643e+01
-4.663620e+09 -4.463626e+09 -4.623621e+09 6.550372e+02 7.515234e+01 -6.441055e+01
-4.787282e+09 -4.587287e+09 -4.747282e+09 6.633155e+02 -9.667493e+01 3.242260e+01
-4.288233e+09 -4.088239e+09 -4.248234e+09 7.419700e+02 1.592514e+02 5.610217e+01
-4.451071e+09 -4.251076e+09 -4.411072e+09 7.859091e+02 -1.196341e+01 -8.835836e+02
-4.449914e+09 -4.249918e+09 -4.409915e+09 -8.052664e+02 1.884620e+02 -4.308560e+02
-4.629275e+09 -4.429279e+09 -4.589275e+09 -1.305824e+02 1.184911e+02 -8.901003e+02
-3.850479e+09 -3.650479e+09 -3.810479e+09 -2.114434e+02 -1.534007e+01 -2.377725e+01
-3.364984e+09 -3.164983e+09 -3.324983e+09 3.449693e+01 7.477261e+00 -7.397382e+01
-4.471462e+09 -4.271467e+09 -4.431463e+09 -8.844593e+02 2.186720e+02 -6.866036e+02
-4.814696e+09 -4.614700e+09 -4.774697e+09 -8.825749e+02 2.189640e+02 -5.470138e+00
-4.833202e+09 -4.633204e+09 -4.793201e+09 -1.059737e+03 -1.032373e+02 -8.357286e+01
-4.065183e+09 -3.865186e+09 -4.025183e+09 -7.938906e+02 1.223223e+02 3.622835e+01
-3.265900e+09 -3.065908e+09 -3.225904e+09 6.448219e+01 -1.161527e+03 6.872830e+01
-3.475787e+09 -3.275794e+09 -3.435791e+09 -4.034228e+02 -1.666799e+03 4.165472e+01
-3.227484e+09 -3.027492e+09 -3.187488e+09 -7.717885e+02 -2.225298e+03 -3.487907e+02
-2.893986e+09 -2.693995e+09 -2.853989e+09 -7.754413e+02 -2.053131e+03 -1.331557e+02
-4.355888e+09 -4.155885e+09 -4.315886e+09 -1.620358e+02 -1.022945e+02 -4.709193e+00
-2.330205e+09 -2.130214e+09 -2.290208e+09 -2.564426e+02 -1.340029e+03 -3.301978e+01
-4.988881e+09 -4.788875e+09 -4.948882e+09 -3.934243e+03 -1.088390e+03 3.300531e+02
-4.464578e+09 -4.264573e+09 -4.424571e+09 -5.015806e+03 3.526670e+02 -4.890934e+02
-3.964016e+09 -3.764018e+09 -3.924023e+09 -2.297366e+03 -2.320768e+03 -9.924362e+02
-4.828301e+09 -4.628290e+09 -4.788288e+09 -3.345031e+03 2.170183e+03 -1.906213e+03
-4.141838e+09 -3.941824e+09 -4.101829e+09 -2.983203e+03 2.803090e+03 -1.059080e+03
-2.951725e+09 -2.751727e+09 -2.911724e+09 2.920093e+02 6.557623e+01 3.109980e+01
-4.098616e+09 -3.898608e+09 -4.058621e+09 -2.894702e+03 -1.256210e+03 4.464874e+02
-4.982904e+09 -4.782896e+09 -4.942900e+09 -4.081556e+03 -1.326925e+03 -2.563616e+02
-4.136680e+09 -3.936680e+09 -4.096679e+09 -8.768982e+02 4.726482e+01 1.754860e+01
-4.313466e+09 -4.113467e+09 -4.273465e+09 -1.279048e+03 1.497552e+02 6.006532e+01
-4.489969e+09 -4.289971e+09 -4.449969e+09 -1.157554e+03 5.912579e+01 -3.641382e+00
-4.136178e+09 -3.936180e+09 -4.096178e+09 -1.251922e+03 4.963658e+01 -5.020651e+01
-2.678730e+09 -2.478736e+09 -2.638731e+09 -2.848612e+02 2.308416e+02 8.458216e+00
-3.137448e+09 -2.937454e+09 -3.097449e+09 -3.599118e+01 1.070223e+02 -2.637019e+01
-3.838104e+09 -3.638110e+09 -3.798105e+09 -2.225547e+02 5.693397e+01 -1.881463e+01
-2.995369e+09 -2.795374e+09 -2.955369e+09 -9.970784e+01 8.825251e+01 -6.015825e+01
-2.766499e+09 -2.566505e+09 -2.726500e+09 -2.684748e+02 1.934158e+02 -8.095981e+01
-3.868789e+09 -3.668789e+09 -3.828787e+09 2.322900e+02 5.017852e+01 -1.445571e+01
-2.826831e+09 -2.626833e+09 -2.786830e+09 3.177521e+02 8.130679e+01 1.043025e+02
-2.688521e+09 -2.488521e+09 -2.648519e+09 4.979894e+02 7.162513e+01 1.176087e+01
-2.355888e+09 -2.155889e+09 -2.315887e+09 6.058409e+02 8.913013e+01 7.880051e+00
-4.119379e+09 -3.919380e+09 -4.079378e+09 3.055080e+02 4.441287e+01 9.818746e+00
-4.037708e+09 -3.837708e+09 -3.997706e+09 2.080418e+02 -1.857842e+01 1.234264e+01
-3.743998e+09 -3.543999e+09 -3.703997e+09 1.488868e+02 4.984791e+01 -3.618971e+01
-3.633297e+09 -3.433297e+09 -3.593295e+09 2.224255e+02 3.485161e+01 4.788729e+01
-3.986792e+09 -3.786792e+09 -3.946790e+09 2.010534e+02 -8.146264e-01 2.097307e+01
-3.394424e+09 -3.194425e+09 -3.354423e+09 1.568992e+02 3.091850e+01 4.878352e+00
-2.970055e+09 -2.770055e+09 -2.930053e+09 1.351271e+02 1.467514e+02 -8.815982e+01
-3.225922e+09 -3.025922e+09 -3.185920e+09 2.960968e+02 9.376580e+01 1.359921e+01
-4.318306e+09 -4.118307e+09 -4.278270e+09 -2.329249e+03 -4.203628e+03 8.343308e+03
-4.149830e+09 -3.949828e+09 -4.109801e+09 -5.687375e+03 -5.755451e+03 6.516782e+03
-4.281767e+09 -4.081771e+09 -4.241732e+09 4.714104e+02 -4.189998e+02 1.165314e+04
-4.113287e+09 -3.913295e+09 -4.073261e+09 -6.777121e+01 -6.022866e+02 1.294216e+04
-3.773207e+09 -3.573207e+09 -3.733207e+09 1.072821e+02 2.627146e+01 -1.636828e+00
-4.412091e+09 -4.212091e+09 -4.372091e+09 7.565795e+00 2.505156e+01 -1.362224e+00
-3.697833e+09 -3.497833e+09 -3.657833e+09 9.561764e+01 2.287226e+01 1.803500e+01
-4.563346e+09 -4.363346e+09 -4.523346e+09 2.339225e+02 1.431538e+01 1.552340e+01
-3.805884e+09 -3.605885e+09 -3.765885e+09 8.736232e+01 2.484365e+01 8.016595e+00
-3.891106e+09 -3.691106e+09 -3.851106e+09 7.540859e+01 -7.989488e+00 -2.048270e+01
-4.683905e+09 -4.483905e+09 -4.643905e+09 6.743934e+01 5.370733e+00 3.089799e+01
-4.499422e+09 -4.299425e+09 -4.459422e+09 1.341681e+03 3.320803e+01 -4.358200e+01
-4.842655e+09 -4.642658e+09 -4.802655e+09 1.434171e+03 -2.385970e+01 1.040296e+02
-4.821165e+09 -4.621169e+09 -4.781165e+09 1.430131e+03 -7.242170e+01 6.434589e+01
-4.499423e+09 -4.299425e+09 -4.459423e+09 1.559044e+03 2.293956e+02 -5.820637e+00
-4.633029e+09 -4.433033e+09 -4.593029e+09 1.089994e+03 4.182722e+01 2.662485e+01
-4.125143e+09 -3.925145e+09 -4.085145e+09 -3.510690e+02 -1.396501e+01 6.255080e+01
-4.807667e+09 -4.607669e+09 -4.767668e+09 -2.550202e+02 -1.318299e+01 4.665692e+01
-4.121201e+09 -3.921203e+09 -4.081203e+09 -2.472551e+02 1.221462e+01 -5.815789e+01
-4.158800e+09 -3.958805e+09 -4.118801e+09 -8.327585e+02 1.882563e+02 3.720164e+01
-4.489719e+09 -4.289725e+09 -4.449720e+09 -6.873224e+02 1.078676e+02 -4.870859e+00
-4.845265e+09 -4.645271e+09 -4.805267e+09 -8.388776e+02 1.091931e+02 -2.207892e+01
-4.797261e+09 -4.597262e+09 -4.757260e+09 -4.796118e+02 -1.244768e+02 -3.396981e+01
-4.083817e+09 -3.883818e+09 -4.043816e+09 -3.451854e+02 1.223898e+01 -5.867280e+00
-4.984043e+09 -4.784045e+09 -4.944042e+09 -2.651757e+02 2.836127e+01 3.793860e+01
-4.804873e+09 -4.604874e+09 -4.764873e+09 -2.929029e+02 6.385938e+01 -3.483678e+01
-3.846726e+09 -3.646725e+09 -3.806725e+09 6.321868e+01 1.883503e+01 -2.204695e+01
-3.001138e+09 -2.801137e+09 -2.961138e+09 1.227722e+02 1.709482e+01 -4.643166e+00
-2.147915e+09 -1.947914e+09 -2.107913e+09 2.368320e+02 1.961148e+02 1.004697e+01
-4.582907e+09 -4.382906e+09 -4.542906e+09 1.529128e+02 1.605249e+01 5.248751e+00
-2.101039e+09 -1.901038e+09 -2.061039e+09 1.342202e+02 1.189194e+01 2.496723e+00
-2.677960e+09 -2.477962e+09 -2.637959e+09 -2.077476e+02 6.251436e+01 -8.556596e+01
-2.899386e+09 -2.699388e+09 -2.859386e+09 -1.611431e+02 5.825470e+01 -9.950966e+01
-3.024058e+09 -2.824060e+09 -2.984058e+09 -1.117634e+01 -3.428576e+00 -7.849886e+01
-2.164140e+09 -1.964142e+09 -2.124140e+09 -1.446257e+02 -6.040094e+00 -8.950444e+01
-1.932998e+09 -1.733000e+09 -1.892997e+09 -4.841958e+01 3.416401e+01 -1.003820e+02
-2.180677e+09 -1.980679e+09 -2.140677e+09 -4.139176e+01 -3.208996e+00 -6.815754e+01
-4.786328e+09 -4.586334e+09 -4.746333e+09 1.567691e+03 3.915254e+01 -8.882848e+01
-4.109433e+09 -3.909439e+09 -4.069438e+09 1.257241e+03 -3.848449e+01 2.220826e+02
-3.595747e+09 -3.395746e+09 -3.555745e+09 8.284122e+02 2.246258e+02 -6.420693e+01
-4.692971e+09 -4.492978e+09 -4.652976e+09 7.564386e+02 6.669659e+01 3.014858e+02
-3.617652e+09 -3.417658e+09 -3.577657e+09 1.487428e+03 2.626458e+02 4.290055e+02
-3.627852e+09 -3.427860e+09 -3.587858e+09 -4.271933e+01 2.077447e+02 7.907781e+02
-4.439279e+09 -4.239287e+09 -4.399285e+09 5.381367e+02 2.495859e+01 2.531468e+02
-4.837936e+09 -4.637945e+09 -4.797941e+09 8.233524e+02 -2.158903e+01 6.332262e+02
-4.271075e+09 -4.071075e+09 -4.231075e+09 1.166619e+03 -8.305556e+01 -1.654956e+02
-4.459845e+09 -4.259844e+09 -4.419844e+09 8.696109e+02 -5.804331e+00 -4.011030e+01
-4.501057e+09 -4.301056e+09 -4.461057e+09 7.900583e+02 -1.992908e+01 -3.946198e+01
-4.501057e+09 -4.301056e+09 -4.461057e+09 7.963066e+02 -1.385355e+00 -1.225849e+02
-4.475919e+09 -4.275918e+09 -4.435919e+09 1.005921e+03 8.661932e+00 -7.962719e+01
-4.469907e+09 -4.269909e+09 -4.429909e+09 2.845308e+02 1.504728e+01 -1.160045e+00
-4.132882e+09 -3.932883e+09 -4.092883e+09 4.469357e+02 5.595458e-01 -7.725325e+01
-4.126675e+09 -3.926677e+09 -4.086676e+09 3.506106e+02 2.575825e+01 4.841645e+01
-4.828697e+09 -4.628699e+09 -4.788698e+09 5.234749e+02 1.685455e+01 7.491845e+01
-4.498010e+09 -4.298017e+09 -4.458023e+09 3.667321e+02 2.387747e+03 8.098643e+01
-4.807551e+09 -4.607558e+09 -4.767560e+09 1.310721e+02 1.676878e+03 1.613251e+01
-4.288477e+09 -4.088484e+09 -4.248484e+09 -5.937342e+02 2.165801e+03 2.524065e+02
-4.298081e+09 -4.098086e+09 -4.258091e+09 -1.477076e+03 2.863262e+03 8.230367e+02
-4.632680e+09 -4.432686e+09 -4.592689e+09 -1.455359e+03 1.141676e+03 2.657018e+02
-4.122057e+09 -3.922063e+09 -4.082066e+09 -1.672888e+03 2.904289e+03 6.739301e+02
-4.130202e+09 -3.930202e+09 -4.090202e+09 -8.104012e+02 -5.029736e+01 -9.504184e+00
-4.512385e+09 -4.312384e+09 -4.472384e+09 -6.586315e+02 -3.997015e+01 -1.028579e+01
-3.964017e+09 -3.764018e+09 -3.924023e+09 -2.169967e+03 -2.266013e+03 -7.653013e+02
-4.828504e+09 -4.628504e+09 -4.788504e+09 -6.497968e+02 -3.807219e+01 -7.756391e-01
-4.473435e+09 -4.273435e+09 -4.433435e+09 -7.523828e+02 -2.720183e+01 2.019069e+01
-4.303490e+09 -4.103482e+09 -4.263485e+09 1.212272e+03 -2.877214e+02 1.721871e+03
-3.832389e+09 -3.632396e+09 -3.792392e+09 3.293931e+02 -6.075703e+02 1.048717e+02
-2.884135e+09 -2.684143e+09 -2.844138e+09 -1.808464e+02 -7.198167e+02 -1.214848e+01
-3.095194e+09 -2.895201e+09 -3.055197e+09 -5.245422e+02 -1.260700e+03 7.652931e+01
-4.301125e+09 -4.101132e+09 -4.261129e+09 4.689536e+01 -6.707513e+02 5.335603e+01
-3.881143e+09 -3.681151e+09 -3.841148e+09 -2.744811e+02 -1.223842e+03 2.458136e+01
-3.474063e+09 -3.274071e+09 -3.434067e+09 3.984007e+02 -1.321114e+03 1.941501e+02
-4.032775e+09 -3.832783e+09 -3.992779e+09 -1.803429e+02 -6.204311e+02 7.983100e+01
-3.395455e+09 -3.195463e+09 -3.355458e+09 -2.580449e+02 -1.322988e+03 4.934648e+01
-3.992226e+09 -3.792223e+09 -3.952224e+09 7.251682e+02 4.371505e+02 -2.007629e+02
-4.789357e+09 -4.589354e+09 -4.749356e+09 1.122714e+03 2.523094e+02 -1.368542e+02
-4.107282e+09 -3.907279e+09 -4.067280e+09 2.971569e+02 7.923432e+01 -5.430516e+01
-4.702382e+09 -4.502379e+09 -4.662380e+09 3.312413e+02 1.611398e+02 -3.282426e+01
-4.133467e+09 -3.933464e+09 -4.093466e+09 4.700958e+01 1.638234e+02 -5.902875e+01
-4.786315e+09 -4.586313e+09 -4.746314e+09 7.338109e+02 -3.547903e+01 -5.028456e+01
-3.396636e+09 -3.196635e+09 -3.356635e+09 -2.787704e+02 -1.759541e+01 -2.577216e+01
-1.997501e+09 -1.797500e+09 -1.957500e+09 -1.518355e+02 -1.384464e+01 -2.194992e+01
-2.643350e+09 -2.443349e+09 -2.603349e+09 -1.452993e+02 -2.480503e+01 -2.550685e+01
-2.351791e+09 -2.151790e+09 -2.311790e+09 -1.331054e+02 -4.250004e+01 -1.850174e+01
-2.768545e+09 -2.568543e+09 -2.728544e+09 -1.183986e+02 -1.289364e+01 -2.686538e+01
-2.715944e+09 -2.515943e+09 -2.675944e+09 -1.973420e+02 -2.933493e+01 -3.541413e+01
-4.121336e+09 -3.921335e+09 -4.081331e+09 -5.096164e+03 -2.720091e+03 2.126653e+03
-4.640377e+09 -4.440374e+09 -4.600374e+09 -4.518857e+03 -5.487790e+02 5.900173e+02
-4.807721e+09 -4.607711e+09 -4.767717e+09 -4.061506e+03 -7.176077e+02 -8.047275e+02
-4.815622e+09 -4.615618e+09 -4.775619e+09 -4.278281e+03 -8.874282e+02 9.177996e+02
-4.311695e+09 -4.111697e+09 -4.271696e+09 9.119598e+02 -2.719122e+01 -2.187706e+02
-1.908733e+09 -1.708739e+09 -1.868734e+09 1.510346e+02 -1.162799e+02 5.208661e+00
-4.461751e+09 -4.261753e+09 -4.421752e+09 6.437065e+02 2.030475e+01 -2.626364e+02
-4.281850e+09 -4.081853e+09 -4.241852e+09 1.935580e+02 1.808912e+01 -8.900221e+01
-4.817268e+09 -4.617270e+09 -4.777269e+09 9.726867e+02 3.925664e+01 1.585698e+02
-4.130802e+09 -3.930804e+09 -4.090803e+09 9.907830e+02 -8.551244e+01 -4.382299e+02
-4.293540e+09 -4.093543e+09 -4.253542e+09 1.047294e+03 -3.289540e+01 -2.588542e+02
-4.451257e+09 -4.251242e+09 -4.411238e+09 -4.906598e+03 -3.722391e+03 6.238338e+02
-4.989954e+09 -4.789948e+09 -4.949953e+09 1.906856e+03 6.984104e+02 2.518889e+02
-4.268554e+09 -4.068539e+09 -4.228559e+09 -5.590472e+02 -3.461946e+02 -2.325342e+03
-4.101468e+09 -3.901454e+09 -4.061422e+09 -1.756717e+03 -7.401739e+03 -9.860049e+02
-4.619023e+09 -4.419012e+09 -4.578990e+09 -4.874823e+03 -7.670182e+03 -7.126814e+02
-4.282122e+09 -4.082110e+09 -4.242070e+09 -9.160153e+02 -7.237123e+03 3.511407e+03
-4.625356e+09 -4.425344e+09 -4.585310e+09 -8.322571e+02 -6.441095e+03 4.445113e+01
-4.787929e+09 -4.587920e+09 -4.747893e+09 -1.828025e+03 -5.886960e+03 2.967326e+03
-1.585557e+09 -1.385562e+09 -1.545558e+09 3.562661e+02 6.043662e+01 3.144038e+00
-4.474424e+09 -4.274418e+09 -4.434421e+09 4.124796e+03 6.032304e+02 -6.868267e+02
-4.817657e+09 -4.617651e+09 -4.777656e+09 4.348453e+03 4.785450e+02 -7.176135e+02
-4.286953e+09 -4.086942e+09 -4.246957e+09 1.841115e+03 -5.574654e+02 -1.307215e+03
-4.113987e+09 -3.913973e+09 -4.073982e+09 3.386050e+03 3.459325e+03 -2.837272e+03
-3.951073e+09 -3.751061e+09 -3.911078e+09 3.972658e+03 2.909086e+03 -6.643817e+01
-4.481636e+09 -4.281641e+09 -4.441638e+09 1.947297e+03 4.504819e+02 -2.987015e+01
-4.159077e+09 -3.959083e+09 -4.119080e+09 2.241616e+03 1.103145e+03 -1.996401e+02
-3.451113e+09 -3.251114e+09 -3.411114e+09 -9.524390e-01 -9.987855e-01 -7.053345e-01
-4.498840e+09 -4.298843e+09 -4.458843e+09 3.070582e+03 6.991623e+02 -1.561249e+02
-4.845543e+09 -4.645547e+09 -4.805546e+09 2.240892e+03 1.225664e+02 -2.658769e+01
-4.842073e+09 -4.642076e+09 -4.802075e+09 2.671021e+03 3.437474e+02 -8.171000e+01
-1.623447e+09 -1.423446e+09 -1.583446e+09 3.451937e+01 1.090487e+01 -1.543065e+01
-4.175350e+09 -3.975353e+09 -4.135351e+09 2.415304e+03 5.411110e+02 -1.359920e+02
-4.134279e+09 -3.934268e+09 -4.094280e+09 -1.235691e+03 -5.844011e+02 3.050063e+03
-4.654122e+09 -4.454123e+09 -4.614122e+09 -1.820665e+03 3.326068e+02 1.908904e+02
-4.828825e+09 -4.628825e+09 -4.788824e+09 -1.269869e+03 3.125380e+01 7.957969e+00
-4.662344e+09 -4.462345e+09 -4.622344e+09 -1.283481e+03 8.311937e+01 -1.306762e+01
-4.142359e+09 -3.942360e+09 -4.102359e+09 -1.281208e+03 1.088754e+02 2.770638e+01
-4.306399e+09 -4.106401e+09 -4.266400e+09 -1.824480e+02 -5.356828e+00 2.272999e+01
-4.141127e+09 -3.941129e+09 -4.101128e+09 -1.893105e+02 -7.052797e+00 -7.760706e+01
-4.824559e+09 -4.624562e+09 -4.784561e+09 7.546307e+01 1.618275e+01 3.593632e+01
-4.827592e+09 -4.627594e+09 -4.787594e+09 -1.943023e+02 3.105049e+00 7.456498e+01
-4.293795e+09 -4.093797e+09 -4.253799e+09 1.518656e+03 -1.699675e+03 7.041186e+02
-4.637028e+09 -4.437030e+09 -4.597033e+09 1.521193e+03 -7.602969e+02 4.410611e+02
-4.310441e+09 -4.110443e+09 -4.270444e+09 1.284940e+03 -1.328969e+03 5.334954e+02
-4.807252e+09 -4.607254e+09 -4.767258e+09 1.315283e+03 -8.229457e+02 5.807384e+02
-3.183402e+09 -2.983400e+09 -3.143401e+09 4.713151e+01 -1.185458e+00 -4.516334e+00
-2.851808e+09 -2.651807e+09 -2.811807e+09 2.123996e+01 5.994920e+00 -1.096275e+01
-2.222433e+09 -2.022432e+09 -2.182432e+09 1.962711e+00 -1.435202e+00 -1.171427e+01
-1.938619e+09 -1.738618e+09 -1.898618e+09 3.246994e+01 6.061097e+00 -1.268993e+01
-2.178988e+09 -1.978987e+09 -2.138987e+09 2.174301e+01 -2.472202e+00 3.214069e+00
-1.855997e+09 -1.655995e+09 -1.815996e+09 4.581000e+01 1.073423e+01 -1.310749e+01
-2.741013e+09 -2.541012e+09 -2.701012e+09 5.056006e+01 5.729841e+00 -1.797267e+01
-2.921210e+09 -2.721209e+09 -2.881209e+09 3.503096e+00 -1.212376e+00 -1.306639e+01
-3.125087e+09 -2.925086e+09 -3.085086e+09 1.413084e+01 -1.402013e+01 -1.011183e+01
-2.865550e+09 -2.665548e+09 -2.825550e+09 5.795615e+01 -5.679478e+02 -2.964180e+01
-2.695065e+09 -2.495063e+09 -2.655065e+09 -9.312696e+01 -6.631839e+02 -1.570798e+02
-4.072999e+09 -3.872997e+09 -4.033000e+09 3.780439e+02 -3.192318e+02 -1.301253e+02
-3.728447e+09 -3.528445e+09 -3.688448e+09 -8.071250e+01 -5.855695e+02 -5.386665e+02
-2.792935e+09 -2.592940e+09 -2.752939e+09 -5.332901e+02 2.666009e+02 7.028654e+01
-2.024619e+09 -1.824618e+09 -1.984620e+09 -5.971252e+02 1.822212e+02 -1.369349e+02
-2.742379e+09 -2.542385e+09 -2.702384e+09 -4.166542e+02 1.046398e+02 1.241360e+02
-2.565134e+09 -2.365140e+09 -2.525140e+09 -1.210184e+03 -9.612050e+01 6.293905e+02
-2.147097e+09 -1.947101e+09 -2.107101e+09 -1.170112e+02 1.770454e+02 1.406406e+01
-1.899424e+09 -1.699428e+09 -1.859428e+09 -1.158679e+02 2.214494e+02 1.612503e+02
-4.652004e+09 -4.452005e+09 -4.612003e+09 9.612983e+02 -1.694867e+01 4.380945e+01
-4.144478e+09 -3.944479e+09 -4.104476e+09 4.162274e+02 -6.700963e+00 -4.323550e+00
-4.100111e+09 -3.900113e+09 -4.060110e+09 6.404582e+02 6.844022e+01 3.798600e+01
-3.955026e+09 -3.755028e+09 -3.915025e+09 8.095511e+02 1.161459e+02 -5.162547e+01
-2.653820e+09 -2.453818e+09 -2.613818e+09 2.556933e+02 2.574464e+02 -9.611354e+01
-2.588136e+09 -2.388135e+09 -2.548134e+09 4.876164e+02 2.855960e+02 -9.594844e+00
-3.052207e+09 -2.852205e+09 -3.012205e+09 2.829229e+02 1.868045e+02 -1.117217e+01
-3.061877e+09 -2.861876e+09 -3.021875e+09 3.205880e+02 1.259241e+02 7.541870e+00
-1.937348e+09 -1.737346e+09 -1.897346e+09 2.705640e+02 3.485055e+02 -4.495530e+01
-2.184960e+09 -1.984958e+09 -2.144957e+09 3.203294e+02 3.097389e+02 -1.080513e+01
-2.660831e+09 -2.460832e+09 -2.620830e+09 -1.568686e+02 8.095853e+01 -1.124218e+02
-2.214626e+09 -2.014628e+09 -2.174626e+09 -1.284800e+02 -2.354706e+01 -8.172758e+01
-2.598291e+09 -2.398292e+09 -2.558290e+09 -7.022762e+02 2.276295e+02 -3.445156e+01
-2.096925e+09 -1.896927e+09 -2.056925e+09 -4.485617e+02 2.300641e+01 -8.046923e+01
-1.787007e+09 -1.587009e+09 -1.747007e+09 -4.999076e+02 -4.208681e+01 -1.032232e+02
-1.867230e+09 -1.667232e+09 -1.827230e+09 -1.959241e+02 -8.459797e+00 -1.312686e+02
-2.135277e+09 -1.935277e+09 -2.095276e+09 -3.001927e+02 9.015145e+01 -8.087960e+01
-2.662563e+09 -2.462564e+09 -2.622562e+09 -4.051192e+02 1.055199e+01 -2.214666e+01
-3.710589e+09 -3.510588e+09 -3.670588e+09 -1.523619e+02 1.135407e+00 -8.755569e+01
-4.187112e+09 -3.987111e+09 -4.147111e+09 -1.104286e+02 -1.349823e+01 -1.043478e+01
-3.730043e+09 -3.530042e+09 -3.690042e+09 -9.919440e+01 -2.247465e+01 -5.899735e+01
-4.811062e+09 -4.611062e+09 -4.771065e+09 -2.720350e+03 7.374144e+02 4.010031e+02
-4.297088e+09 -4.097088e+09 -4.257090e+09 -2.736945e+03 9.059099e+02 5.283545e+02
-4.124597e+09 -3.924596e+09 -4.084599e+09 -2.783485e+03 9.399968e+02 6.308746e+02
-4.139449e+09 -3.939452e+09 -4.099453e+09 -2.918323e+03 1.618989e+03 7.394818e+02
-4.303488e+09 -4.103482e+09 -4.263485e+09 2.285049e+03 -2.841460e+02 6.699983e+01
-4.140534e+09 -3.940537e+09 -4.100540e+09 -2.736540e+03 1.761937e+03 6.833157e+02
-3.847721e+09 -3.647721e+09 -3.807720e+09 -3.230470e+02 -6.007844e+01 -1.071974e+02
-4.092848e+09 -3.892849e+09 -4.052848e+09 -6.000861e+02 -1.917695e+01 1.853821e+01
-4.250756e+09 -4.050756e+09 -4.210755e+09 -2.877975e+02 1.445435e+02 1.334917e+01
-3.799705e+09 -3.599706e+09 -3.759704e+09 -5.531693e+02 -2.916117e+01 -6.930488e+01
-3.751367e+09 -3.551368e+09 -3.711366e+09 -3.948208e+02 -3.643139e+01 -6.055790e+01
-3.347592e+09 -3.147593e+09 -3.307591e+09 -2.634694e+02 2.432681e+02 -3.290058e+01
-4.501430e+09 -4.301432e+09 -4.461430e+09 4.773698e+02 -8.868317e+01 -9.181851e+00
-4.437081e+09 -4.237083e+09 -4.397081e+09 -5.817343e+00 -2.823474e+01 -1.176504e+01
-4.708923e+09 -4.508924e+09 -4.668923e+09 2.249948e+02 -1.550177e+02 1.995053e+01
-4.316194e+09 -4.116193e+09 -4.276194e+09 5.033266e+02 -1.209465e+01 -9.395725e+01
-4.832725e+09 -4.632724e+09 -4.792724e+09 4.960623e+02 1.324012e+01 1.271462e+01
-4.146259e+09 -3.946259e+09 -4.106259e+09 5.212622e+02 2.617631e+01 -6.632884e+01
-2.784901e+09 -2.584901e+09 -2.744901e+09 7.721909e+01 1.958060e+01 -1.433623e+00
-3.753204e+09 -3.553204e+09 -3.713204e+09 9.429163e+01 2.284796e+01 4.816204e+00
-3.017434e+09 -2.817434e+09 -2.977434e+09 9.960588e+01 2.511120e+01 -3.174869e+01
-3.766923e+09 -3.566923e+09 -3.726923e+09 2.058803e+02 1.895125e+01 4.166479e+01
-3.430658e+09 -3.230658e+09 -3.390658e+09 2.110673e+02 -9.277708e+00 1.097310e+01
-4.345973e+09 -4.145963e+09 -4.305981e+09 -5.186768e+02 -3.241383e+03 -1.573558e+03
-4.137941e+09 -3.937937e+09 -4.097952e+09 -1.902669e+03 -3.675496e+03 -1.082352e+03
-4.639298e+09 -4.439294e+09 -4.599308e+09 -1.738209e+03 -1.276739e+03 -3.721428e+02
-4.837378e+09 -4.637381e+09 -4.797380e+09 6.817723e+02 -3.269444e+01 -1.633934e+02
-4.140842e+09 -3.940845e+09 -4.100844e+09 5.491204e+02 -1.234220e+01 -2.499949e+02
-4.150913e+09 -3.950915e+09 -4.110914e+09 7.001976e+02 4.243897e+01 4.211127e+01
-4.827308e+09 -4.627310e+09 -4.787309e+09 5.514396e+02 1.517640e+01 9.256347e+01
-4.016331e+09 -3.816330e+09 -3.976330e+09 3.549592e+01 1.075156e+01 -2.244039e+01
-4.432101e+09 -4.232100e+09 -4.392100e+09 2.887474e+01 2.973113e+00 -4.923415e+00
-4.662391e+09 -4.462390e+09 -4.622390e+09 8.892208e+00 3.983018e-01 4.974098e+00
-4.328430e+09 -4.128429e+09 -4.288432e+09 -1.488983e+03 -8.770909e+02 -3.527527e+02
-2.739237e+09 -2.539237e+09 -2.699237e+09 9.012459e+01 1.505197e+01 -7.947882e-01
-3.223611e+09 -3.023612e+09 -3.183612e+09 1.338409e+02 2.001952e+01 7.201826e+01
-4.102173e+09 -3.902176e+09 -4.062175e+09 -2.885284e+02 -1.646340e+01 -2.841874e+02
-4.610679e+09 -4.410682e+09 -4.570681e+09 -2.985040e+02 3.720940e+01 -3.995095e+01
-4.796638e+09 -4.596641e+09 -4.756639e+09 1.857045e+02 -8.475994e+00 -9.036746e+00
-4.788639e+09 -4.588642e+09 -4.748641e+09 -3.068974e+02 2.989601e+01 8.960991e+01
-4.161108e+09 -3.961115e+09 -4.121112e+09 -6.178844e+02 -7.611417e+02 -1.136042e+02
-3.948870e+09 -3.748875e+09 -3.908874e+09 -1.212719e+03 -9.688797e+02 -1.660470e+00
-4.156805e+09 -3.956810e+09 -4.116807e+09 -6.037472e+02 -1.019497e+02 -1.591541e+02
-4.464182e+09 -4.264187e+09 -4.424184e+09 -5.680602e+02 -2.632697e+02 -3.488281e+01
-3.609259e+09 -3.409265e+09 -3.569261e+09 -5.117953e+02 -6.929246e+02 -3.439758e+01
-3.985197e+09 -3.785197e+09 -3.945201e+09 -1.979974e+03 -1.632014e+03 -6.082029e+02
-3.460991e+09 -3.260997e+09 -3.420993e+09 -9.586117e+02 -7.856990e+02 -2.527521e+02
-2.909664e+09 -2.709662e+09 -2.869663e+09 -1.024206e+02 -3.349324e+01 -6.230849e+01
-2.010373e+09 -1.810371e+09 -1.970372e+09 -2.125809e+02 -5.275154e+01 -7.195710e+01
-2.318972e+09 -2.118970e+09 -2.278971e+09 -2.134571e+02 -2.851099e+01 -4.857176e+01
-2.702369e+09 -2.502367e+09 -2.662367e+09 -1.183445e+02 -1.809011e+01 -4.207669e+01
-2.852416e+09 -2.652415e+09 -2.812415e+09 -2.405103e+02 -3.814334e+01 -4.994019e+01
-2.225248e+09 -2.025246e+09 -2.185246e+09 -5.501748e+01 -1.440660e+01 -5.486687e+01
-1.921266e+09 -1.721265e+09 -1.881265e+09 -1.222064e+02 -3.182689e+01 -7.817002e+01
-3.973640e+09 -3.773641e+09 -3.933642e+09 1.779315e+03 -1.056469e+03 7.072073e+02
-3.570029e+09 -3.370032e+09 -3.530030e+09 -1.234597e+03 -5.362020e+02 -2.320980e+02
-2.150339e+09 -1.950341e+09 -2.110339e+09 -6.582725e+02 -4.737023e+02 -1.085171e+02
-1.926562e+09 -1.726563e+09 -1.886561e+09 -1.235109e+03 -6.126996e+02 -1.975259e+02
-2.426583e+09 -2.226590e+09 -2.386589e+09 4.475252e+01 6.841485e+01 1.053511e+02
-1.636313e+09 -1.436319e+09 -1.596319e+09 3.347538e+01 1.717971e+02 2.501940e+02
-4.828394e+09 -4.628400e+09 -4.788399e+09 1.962648e+03 1.035506e+03 -1.891869e+02
-4.661469e+09 -4.461475e+09 -4.621474e+09 1.572241e+03 5.908156e+02 -1.430446e+02
-4.141929e+09 -3.941934e+09 -4.101933e+09 1.989462e+03 8.150466e+02 -1.980542e+02
-4.626320e+09 -4.426321e+09 -4.586322e+09 -1.169817e+03 -2.384934e+02 3.417564e+02
-4.707877e+09 -4.507880e+09 -4.667880e+09 -6.725126e+02 -6.841805e+01 3.646421e+02
-4.805279e+09 -4.605280e+09 -4.765281e+09 -1.000128e+03 -4.437312e+01 3.391720e+02
-3.744296e+09 -3.544301e+09 -3.704300e+09 -4.762235e+02 -9.025081e+01 -3.005229e+01
-4.981734e+09 -4.781738e+09 -4.941737e+09 -8.849299e+02 -1.669596e+02 9.770954e+00
-4.637675e+09 -4.437671e+09 -4.597682e+09 -7.834898e+02 -2.173344e+02 9.532704e+02
-4.130641e+09 -3.930637e+09 -4.090648e+09 -1.611430e+01 -1.795071e+03 1.682317e+03
-4.811150e+09 -4.611146e+09 -4.771154e+09 -2.762162e+01 -8.079230e+02 9.513604e+02
-4.817107e+09 -4.617103e+09 -4.777115e+09 -2.348205e+02 -1.515147e+03 1.397240e+03
-4.833325e+09 -4.633317e+09 -4.793300e+09 -5.618130e+03 -3.727253e+03 2.425638e+03
-4.304547e+09 -4.104541e+09 -4.264497e+09 -2.768343e+03 -2.788521e+03 6.146114e+03
-4.140183e+09 -3.940179e+09 -4.100138e+09 -1.827298e+03 -3.551103e+03 8.288602e+03
-4.146863e+09 -3.946851e+09 -4.106839e+09 -5.630238e+03 -6.147941e+03 1.267382e+03
-4.787472e+09 -4.587469e+09 -4.747470e+09 -8.055547e+01 -1.267649e+02 -1.660906e+02
-3.954060e+09 -3.754058e+09 -3.914059e+09 7.172686e+02 6.713516e+01 -9.253644e+01
-4.781695e+09 -4.581691e+09 -4.741694e+09 4.184036e+02 -1.782260e+02 -1.999959e+02
-3.892247e+09 -3.692251e+09 -3.852249e+09 1.146017e+03 -8.816516e+02 2.296880e+02
-4.782424e+09 -4.582422e+09 -4.742423e+09 5.236218e+02 -1.367361e+02 -1.719124e+02
-4.252812e+09 -4.052809e+09 -4.212810e+09 2.614385e+02 4.326378e+00 3.355755e+01
-3.860834e+09 -3.660839e+09 -3.820836e+09 4.614263e+02 -1.423775e+02 7.727727e+01
-3.821104e+09 -3.621108e+09 -3.781105e+09 4.921196e+02 -1.223738e+02 1.315389e+02
-2.752283e+09 -2.552288e+09 -2.712284e+09 9.054411e+02 -7.001442e+02 1.369014e+02
-4.460476e+09 -4.260483e+09 -4.420481e+09 8.718200e+02 -8.147969e+02 1.939366e+02
-3.027185e+09 -2.827190e+09 -2.987187e+09 5.782158e+02 -5.795034e+02 7.163155e+01
-3.799775e+09 -3.599780e+09 -3.759777e+09 9.238321e+02 -4.145205e+02 1.851853e+02
-3.309064e+09 -3.109064e+09 -3.269062e+09 1.170720e+03 1.254111e+02 -5.003830e+01
-3.218650e+09 -3.018651e+09 -3.178649e+09 8.227829e+02 1.265095e+02 -1.393201e+01
-4.054834e+09 -3.854840e+09 -4.014837e+09 7.054805e+02 -5.491042e+02 1.609414e+02
-3.216251e+09 -3.016252e+09 -3.176250e+09 1.179021e+03 1.269873e+02 3.921321e+01
-2.891198e+09 -2.691198e+09 -2.851196e+09 3.784588e+02 1.177297e+02 -2.215442e+00
-2.374589e+09 -2.174590e+09 -2.334588e+09 1.378128e+03 1.948592e+02 -9.078689e+01
-2.975247e+09 -2.775247e+09 -2.935245e+09 1.356948e+03 2.965800e+02 -1.533684e+02
-4.823137e+09 -4.623139e+09 -4.783138e+09 7.332347e+02 -2.836578e+01 -2.545265e+02
-4.636773e+09 -4.436776e+09 -4.596774e+09 1.049665e+03 -1.252807e+01 -1.750007e+02
-4.807826e+09 -4.607827e+09 -4.767826e+09 1.199485e+03 2.547356e+01 5.092220e+01
-4.638991e+09 -4.438992e+09 -4.598991e+09 1.335290e+03 2.902640e+01 -5.702515e+01
-4.121360e+09 -3.921361e+09 -4.081361e+09 1.210067e+03 -5.082187e+01 -2.956791e+02
-4.288315e+09 -4.088315e+09 -4.248315e+09 1.175329e+03 -8.997070e+01 -3.702206e+02
-3.142086e+09 -2.942088e+09 -3.102088e+09 -6.636043e+01 -1.817399e+01 2.930214e+00
-4.028796e+09 -3.828797e+09 -3.988797e+09 -2.583379e+01 -1.579723e+01 -1.747848e+01
-2.628970e+09 -2.428971e+09 -2.588971e+09 -2.793177e+02 -3.029578e+01 -2.736848e+01
-2.089837e+09 -1.889837e+09 -2.049837e+09 -1.155858e+02 -1.875488e+01 -5.759237e+00
-1.681377e+09 -1.481379e+09 -1.641378e+09 -1.073753e+02 -4.399427e+01 8.247249e+00
-2.533107e+09 -2.333108e+09 -2.493108e+09 -1.820192e+02 -3.893977e+01 -1.386422e+00
-2.642578e+09 -2.442580e+09 -2.602579e+09 -4.854510e+01 -2.009269e+01 -3.833344e+01
-1.929050e+09 -1.729051e+09 -1.889051e+09 -5.340791e+01 -2.731441e+01 2.669045e+01
-4.414488e+09 -4.214487e+09 -4.374487e+09 -3.016639e+01 -5.510385e+00 -1.350633e+01
-3.938624e+09 -3.738622e+09 -3.898623e+09 -1.125698e+02 -7.657114e+00 -2.447609e+01
-4.181885e+09 -3.981883e+09 -4.141884e+09 -1.302603e+02 -6.393098e+00 -6.832110e+00
-3.841592e+09 -3.641590e+09 -3.801591e+09 -1.231785e+02 -1.231058e+01 -2.055844e+01
-4.113677e+09 -3.913676e+09 -4.073676e+09 -1.220462e+02 -1.088456e+01 -1.198303e+01
-4.803578e+09 -4.603581e+09 -4.763580e+09 1.198762e+02 3.175916e+00 -1.965658e+02
-4.111275e+09 -3.911278e+09 -4.071276e+09 -5.941781e+01 7.250552e+01 -1.643297e+02
-4.618379e+09 -4.418383e+09 -4.578381e+09 -2.624575e+02 8.085345e+01 -1.991362e+02
-4.823897e+09 -4.623900e+09 -4.783899e+09 -5.965971e+02 2.179272e+01 2.017518e+02
-4.137431e+09 -3.937435e+09 -4.097433e+09 -6.130454e+02 1.999635e+01 -5.137728e+02
-4.644535e+09 -4.444539e+09 -4.604537e+09 -5.941130e+02 1.970094e+01 -1.136532e+02
-4.275837e+09 -4.075839e+09 -4.235838e+09 2.004232e+02 2.500776e+00 -1.763638e+01
-4.832086e+09 -4.632087e+09 -4.792087e+09 2.523542e+02 2.335906e+01 -2.864913e+01
-4.820598e+09 -4.620596e+09 -4.780605e+09 1.598957e+02 -5.998684e+02 2.208423e+02
-4.297437e+09 -4.097432e+09 -4.257448e+09 -1.398350e+03 -4.044390e+03 2.032768e+03
-4.126596e+09 -3.926592e+09 -4.086605e+09 2.259157e+02 -3.483089e+03 3.311047e+03
-4.625428e+09 -4.425423e+09 -4.585434e+09 -1.663244e+03 -2.240822e+02 9.445764e+02
-3.756399e+09 -3.556405e+09 -3.716400e+09 -2.061587e+02 1.515997e+02 -3.689948e+01
-4.078830e+09 -3.878834e+09 -4.038830e+09 -3.292534e+02 -2.803423e+01 -2.076234e+01
-3.969275e+09 -3.769280e+09 -3.929276e+09 -3.715031e+02 5.847619e+01 -1.604920e+00
-4.851944e+09 -4.651943e+09 -4.811943e+09 1.754361e+02 -1.275924e+01 -3.121265e+01
-4.511158e+09 -4.311157e+09 -4.471157e+09 1.761879e+02 7.401386e+00 -1.700017e+01
-4.150834e+09 -3.950833e+09 -4.110833e+09 1.092639e+02 1.511562e+01 -4.389119e+01
-4.634820e+09 -4.434819e+09 -4.594819e+09 4.048856e+01 -1.027271e+01 -2.028843e+01
-4.113885e+09 -3.913884e+09 -4.073884e+09 1.020104e+02 2.944725e+01 -2.427140e+00
-4.631726e+09 -4.431728e+09 -4.591727e+09 -7.244507e+02 2.005789e+01 -6.768924e+00
-4.114808e+09 -3.914810e+09 -4.074809e+09 -7.443944e+02 1.291989e+01 -2.747408e+02
-4.285349e+09 -4.085352e+09 -4.245351e+09 -7.675323e+02 -5.796800e+00 -1.570699e+02
-4.801273e+09 -4.601276e+09 -4.761275e+09 -7.546301e+02 -5.468482e+00 1.439144e+02
-4.808227e+09 -4.608225e+09 -4.768226e+09 -7.145400e+02 1.051503e+02 9.530041e+01
-4.131269e+09 -3.931268e+09 -4.091269e+09 -1.351950e+03 1.929207e+02 4.669872e+01
-4.121761e+09 -3.921759e+09 -4.081760e+09 -6.894950e+02 1.222226e+01 -3.232999e+01
-4.278613e+09 -4.078611e+09 -4.238612e+09 -4.975067e+02 1.611951e+02 1.185847e+02
-4.319673e+09 -4.119673e+09 -4.279673e+09 -1.757939e+03 2.936947e+02 1.536079e+02
-4.817801e+09 -4.617801e+09 -4.777801e+09 -1.184754e+03 8.563297e+01 6.234968e+01
-4.131336e+09 -3.931335e+09 -4.091335e+09 -1.180751e+03 9.158733e+01 2.326152e+01
-4.150609e+09 -3.950608e+09 -4.110608e+09 -1.638758e+03 2.970767e+02 1.332801e+02
-4.828290e+09 -4.628290e+09 -4.788289e+09 -1.460564e+03 -8.126516e+01 7.208672e+00
-4.308022e+09 -4.108021e+09 -4.268021e+09 -1.492284e+03 2.302874e+02 1.736708e+02
-4.618677e+09 -4.418680e+09 -4.578679e+09 1.146312e+02 -3.255937e+00 -1.162117e+01
-4.986012e+09 -4.786015e+09 -4.946014e+09 4.086324e+01 3.171564e+01 2.911001e+01
-4.816464e+09 -4.616467e+09 -4.776466e+09 -4.048502e+02 -1.671502e+01 1.137622e+02
-4.106536e+09 -3.906539e+09 -4.066538e+09 -1.312048e+02 1.657265e+01 9.046861e+01
-4.970962e+09 -4.770965e+09 -4.930964e+09 -1.407870e+02 -6.589003e+00 -1.242888e+01
-3.951951e+09 -3.751954e+09 -3.911953e+09 -4.572108e+02 2.451998e+01 -1.375051e+02
-4.129999e+09 -3.930001e+09 -4.090000e+09 -3.913267e+02 2.578194e+00 -1.537270e+02
-4.627537e+09 -4.427536e+09 -4.587536e+09 -4.632035e+02 -3.973743e+01 -2.883286e+01
-4.652586e+09 -4.452585e+09 -4.612585e+09 -2.174894e+02 -2.400853e+01 -2.035604e+01
-4.138548e+09 -3.938546e+09 -4.098547e+09 -3.535413e+02 -3.765221e+01 -7.786761e+01
-4.649745e+09 -4.449744e+09 -4.609744e+09 -4.162395e+02 -1.895781e+01 -2.779210e+01
-2.860617e+09 -2.660622e+09 -2.820617e+09 4.684167e+02 5.556970e+01 6.493096e+01
-3.128785e+09 -2.928790e+09 -3.088786e+09 5.627527e+02 1.063636e+02 -4.417236e-01
-2.275986e+09 -2.075991e+09 -2.235986e+09 4.226691e+02 6.048554e+01 -1.134569e+00
-2.986578e+09 -2.786584e+09 -2.946579e+09 9.877125e+01 1.471456e+02 -1.267754e+01
-3.098926e+09 -2.898933e+09 -3.058929e+09 3.934345e+02 -6.167946e+02 1.072505e+02
-3.358782e+09 -3.158788e+09 -3.318783e+09 4.688346e+02 2.539531e+02 -4.975991e+01
-4.296027e+09 -4.096027e+09 -4.256033e+09 1.115995e+03 -2.179253e+03 1.030885e+03
-4.995984e+09 -4.795982e+09 -4.955990e+09 9.025052e+02 -8.043491e+02 5.570498e+02
-4.643156e+09 -4.443154e+09 -4.603162e+09 2.836792e+02 -7.059991e+02 7.207487e+02
-4.822943e+09 -4.622943e+09 -4.782952e+09 7.902080e+02 -1.161827e+03 7.007039e+02
-4.308226e+09 -4.108225e+09 -4.268235e+09 5.333176e+02 -3.047087e+03 1.568590e+03
-4.988590e+09 -4.788586e+09 -4.948597e+09 -1.097229e+02 -1.092360e+03 5.190043e+02
-4.134134e+09 -3.934131e+09 -4.094140e+09 6.974735e+02 -2.422010e+03 2.236969e+03
-4.136477e+09 -3.936477e+09 -4.096486e+09 9.210671e+02 -2.899018e+03 1.355602e+03
-1.849698e+09 -1.649699e+09 -1.809699e+09 9.314519e+01 7.952974e+00 -2.142091e-01
-1.814174e+09 -1.614175e+09 -1.774175e+09 7.732565e+01 1.369308e+01 2.640081e+01
-3.441753e+09 -3.241755e+09 -3.401755e+09 8.517171e+01 2.740430e+01 2.715926e+01
-2.746859e+09 -2.546861e+09 -2.706860e+09 1.640570e+01 1.604574e+01 -7.620756e+00
-1.855538e+09 -1.655540e+09 -1.815539e+09 4.759086e+01 1.966242e+01 -2.549067e+01
-3.724987e+09 -3.524993e+09 -3.684988e+09 7.435417e+02 1.799742e+02 1.088416e+01
-2.845176e+09 -2.645182e+09 -2.805177e+09 6.602246e+02 1.643023e+02 5.598827e+01
-3.570605e+09 -3.370611e+09 -3.530606e+09 5.207923e+02 5.686295e+01 -3.307371e+01
-2.743159e+09 -2.543165e+09 -2.703160e+09 5.310054e+01 1.204502e+02 -1.591092e+01
-4.817286e+09 -4.617285e+09 -4.777288e+09 6.321584e+02 -1.398568e+02 7.665212e+01
-4.823016e+09 -4.623014e+09 -4.783016e+09 -4.689523e+02 -1.242295e+02 2.866488e+02
-4.114153e+09 -3.914150e+09 -4.074153e+09 -5.349571e+02 -4.585035e+02 8.520859e+02
-4.096936e+09 -3.896932e+09 -4.056937e+09 1.265327e+01 -1.011302e+03 1.348752e+03
-4.590482e+09 -4.390479e+09 -4.550482e+09 -4.126472e+02 -2.844270e+02 3.632964e+02
-4.845274e+09 -4.645283e+09 -4.805277e+09 2.089909e+03 1.953907e+02 1.189610e+03
-4.435424e+09 -4.235423e+09 -4.395423e+09 3.399865e+01 2.022347e+00 -1.124720e+01
-4.478163e+09 -4.278170e+09 -4.438166e+09 2.266394e+03 1.086862e+02 8.208840e+02
-4.119799e+09 -3.919808e+09 -4.079798e+09 1.609927e+03 8.718641e+02 2.309591e+03
-4.297504e+09 -4.097513e+09 -4.257503e+09 2.494745e+03 8.021061e+02 2.693683e+03
-4.828206e+09 -4.628213e+09 -4.788208e+09 3.220847e+03 2.651815e+02 -8.775506e+02
-4.662677e+09 -4.462683e+09 -4.622675e+09 3.782393e+03 3.330637e+02 1.133240e+03
-4.445805e+09 -4.245807e+09 -4.405806e+09 -3.640589e+02 -1.519079e+00 1.055791e+01
-4.300948e+09 -4.100949e+09 -4.260949e+09 -5.424790e+02 -2.483562e+01 -4.396784e+01
-1.861310e+09 -1.661316e+09 -1.821311e+09 -4.733664e+02 6.612890e+01 -9.026770e+01
-4.642471e+09 -4.442473e+09 -4.602472e+09 -4.445209e+02 -4.839432e+00 9.641735e+00
-4.143343e+09 -3.943345e+09 -4.103345e+09 -5.251735e+02 -3.473060e+01 6.815642e+01
-4.102572e+09 -3.902574e+09 -4.062574e+09 -3.140398e+02 -1.833327e+01 6.282945e+01
-4.653487e+09 -4.453488e+09 -4.613488e+09 -6.213132e+02 -4.034045e+00 4.478737e+01
-4.628492e+09 -4.428495e+09 -4.588494e+09 -1.315109e+03 8.138444e+01 2.070499e+00
-4.822550e+09 -4.622551e+09 -4.782551e+09 -1.811015e+03 -6.521502e+01 1.971613e+02
-4.606633e+09 -4.406635e+09 -4.566634e+09 -1.346992e+03 3.022754e+01 3.483456e+01
-4.980544e+09 -4.780546e+09 -4.940545e+09 -1.669257e+03 4.003570e+01 -1.440984e+02
-4.159041e+09 -3.959048e+09 -4.119044e+09 -4.828831e+02 2.176346e+02 -2.406614e+01
-3.974441e+09 -3.774447e+09 -3.934443e+09 -4.795656e+02 4.374957e+02 -2.044465e+01
-4.832952e+09 -4.632958e+09 -4.792953e+09 -5.195174e+02 2.055631e+02 1.280756e+01
-4.673117e+09 -4.473123e+09 -4.633119e+09 -4.715087e+02 1.469168e+02 -5.813806e+01
-4.846878e+09 -4.646884e+09 -4.806879e+09 1.411380e+02 -5.980595e+01 -1.633587e+01
-4.609097e+09 -4.409103e+09 -4.569098e+09 -6.762063e+01 1.735345e+02 -4.213474e+01
-4.265864e+09 -4.065870e+09 -4.225866e+09 -8.689614e+01 2.723066e+01 2.307784e+01
-5.008920e+09 -4.808926e+09 -4.968922e+09 -5.017605e+02 4.335631e+01 2.858464e+01
-3.706054e+09 -3.506055e+09 -3.666055e+09 -2.898948e+02 -2.657014e+01 3.086955e+01
-4.194704e+09 -3.994704e+09 -4.154704e+09 -3.613757e+02 -5.415920e+00 -8.477169e+00
-3.303746e+09 -3.103747e+09 -3.263747e+09 -3.256075e+02 -1.474386e+01 1.072516e+01
-2.553608e+09 -2.353616e+09 -2.513610e+09 4.715159e+01 -2.820264e+02 3.027793e+01
-4.457027e+09 -4.257009e+09 -4.417023e+09 1.105141e+03 3.158277e+03 -4.843096e+02
-4.134279e+09 -3.934272e+09 -4.094275e+09 1.804743e+03 -1.408910e+03 1.736466e+03
-4.630185e+09 -4.430175e+09 -4.590188e+09 1.890275e+03 1.753081e+03 -4.634317e+02
-4.813392e+09 -4.613380e+09 -4.773390e+09 2.089094e+03 1.511658e+03 -1.295253e+03
-4.462566e+09 -4.262558e+09 -4.422554e+09 3.884773e+03 5.286863e+03 1.779700e+02
-2.157718e+09 -1.957727e+09 -2.117721e+09 -4.333374e+02 -2.742871e+03 3.898452e+01
-2.644445e+09 -2.444453e+09 -2.604447e+09 9.867894e+01 -7.037522e+02 1.582976e+02
-1.778079e+09 -1.578088e+09 -1.738081e+09 -1.886162e+02 -1.208024e+03 2.850631e+01
-1.877125e+09 -1.677133e+09 -1.837127e+09 -3.432331e+01 -6.852367e+02 6.996133e+01
-2.752728e+09 -2.552736e+09 -2.712730e+09 -5.629898e+02 -1.158827e+03 5.607722e+01
-2.118299e+09 -1.918307e+09 -2.078301e+09 -5.817010e+02 -1.424016e+03 -5.569971e+01
-2.618610e+09 -2.418618e+09 -2.578612e+09 -2.197549e+02 -1.031884e+03 8.159319e+00
-2.928881e+09 -2.728886e+09 -2.888881e+09 5.402709e+02 1.772131e+02 -3.823752e+01
-2.875522e+09 -2.675527e+09 -2.835523e+09 1.584050e+02 6.786040e+01 4.720775e+01
-2.762413e+09 -2.562419e+09 -2.722414e+09 1.037587e+02 1.134305e+01 1.801746e+01
-3.006482e+09 -2.806488e+09 -2.966483e+09 5.828746e+01 -2.854064e+01 2.026581e+01
-1.681821e+09 -1.481826e+09 -1.641821e+09 1.853325e+02 -5.023243e+00 2.226918e+01
-1.929503e+09 -1.729508e+09 -1.889503e+09 1.602763e+02 -2.721665e+01 1.581002e+01
-4.131609e+09 -3.931610e+09 -4.091610e+09 5.743819e+02 -2.096189e+01 -7.247312e+01
-4.650722e+09 -4.450723e+09 -4.610723e+09 5.563343e+02 2.312417e+01 1.680055e+01
-4.818074e+09 -4.618075e+09 -4.778075e+09 5.814718e+02 4.683523e+01 4.667215e+01
-3.967160e+09 -3.767162e+09 -3.927162e+09 -1.877196e+01 -1.763169e+01 1.088407e+01
-3.459109e+09 -3.259110e+09 -3.419110e+09 -4.900298e+01 -1.243313e+01 3.156152e+01
-3.532377e+09 -3.332379e+09 -3.492378e+09 -1.598569e+02 -2.132691e+01 7.060855e+00
-3.079756e+09 -2.879757e+09 -3.039757e+09 -4.685295e+01 -1.198916e+01 -1.634591e+01
-2.898623e+09 -2.698624e+09 -2.858624e+09 -6.960658e+01 -5.960946e+00 -4.158245e+00
-2.370013e+09 -2.170018e+09 -2.330013e+09 -7.286563e+01 -2.057513e+01 -4.026868e+01
-2.856342e+09 -2.656346e+09 -2.816342e+09 -1.410179e+02 -7.114251e+01 -1.017480e+02
-3.378966e+09 -3.178971e+09 -3.338967e+09 -5.141363e+02 9.510562e+01 -1.715507e+01
-1.860455e+09 -1.660460e+09 -1.820455e+09 -5.969022e+02 2.186841e+02 -5.620839e+01
-2.870478e+09 -2.670481e+09 -2.830478e+09 -3.017111e+02 4.910448e+01 -4.782894e+01
-3.071024e+09 -2.871027e+09 -3.031024e+09 -2.473691e+02 1.240274e+01 -7.443571e+01
-1.896244e+09 -1.696249e+09 -1.856245e+09 -2.365377e+02 4.123066e-01 -1.073384e+02
-2.118928e+09 -1.918933e+09 -2.078929e+09 -2.381971e+02 7.456429e+01 -4.219367e+01
-2.162552e+09 -1.962556e+09 -2.122552e+09 -1.975515e+02 3.817645e+01 -7.359658e+01
-2.611003e+09 -2.411007e+09 -2.571003e+09 -1.302665e+02 -1.010218e+02 -9.273344e+01
-4.131650e+09 -3.931640e+09 -4.091649e+09 -2.274377e+03 -3.672597e+02 -1.637921e+03
-4.282413e+09 -4.082404e+09 -4.242416e+09 -1.122043e+03 6.623348e+02 -1.895086e+03
-4.643263e+09 -4.443266e+09 -4.603273e+09 7.117973e+02 -1.221212e+03 3.254834e+02
-4.651540e+09 -4.451545e+09 -4.611547e+09 8.727570e+02 -8.773852e+02 3.130712e+02
-4.129838e+09 -3.929842e+09 -4.089846e+09 1.011012e+03 -2.780622e+03 6.475940e+02
-4.816303e+09 -4.616307e+09 -4.776312e+09 8.225220e+02 -8.769604e+02 4.013369e+02
-4.031778e+09 -3.831777e+09 -3.991777e+09 7.631362e+00 -5.699162e+01 -7.458774e+01
-4.571495e+09 -4.371494e+09 -4.531494e+09 9.973450e+01 -2.223624e+01 -3.382101e+01
-4.146962e+09 -3.946960e+09 -4.106960e+09 -3.271165e+01 -2.245262e+01 -1.324817e+01
-4.814007e+09 -4.614005e+09 -4.774006e+09 -1.382009e+02 -2.564754e+01 3.949821e+01
-4.292432e+09 -4.092430e+09 -4.252431e+09 -2.488209e+02 -9.237927e+01 2.200380e+01
-4.762052e+09 -4.562038e+09 -4.722059e+09 2.497811e+03 -2.401474e+03 -1.544998e+03
-4.146458e+09 -3.946452e+09 -4.106425e+09 4.584803e+03 -5.197932e+03 -9.286899e+03
-4.844635e+09 -4.644635e+09 -4.804641e+09 -1.936094e+03 -6.678542e+02 -4.848219e+02
-4.631700e+09 -4.431694e+09 -4.591685e+09 3.822697e+03 -2.626395e+03 8.733120e+02
-3.097924e+09 -2.897926e+09 -3.057924e+09 -2.768474e+02 -4.382871e+01 -9.208730e+01
-2.724536e+09 -2.524537e+09 -2.684535e+09 -2.965362e+02 8.799007e+01 -1.077887e+02
-1.761850e+09 -1.561850e+09 -1.721849e+09 -3.433966e+02 3.732971e+01 -7.543229e+01
-2.849360e+09 -2.649361e+09 -2.809359e+09 -4.113083e+02 -2.205874e+01 -4.360835e+01
-3.012423e+09 -2.812424e+09 -2.972423e+09 -8.148519e+00 3.875603e+00 -7.760813e+01
-1.917716e+09 -1.717717e+09 -1.877716e+09 -3.163999e+01 3.050962e+01 -1.046057e+02
-2.165390e+09 -1.965390e+09 -2.125389e+09 -2.264730e+01 3.668276e+00 -5.813556e+01
-3.488284e+09 -3.288292e+09 -3.448287e+09 -1.030143e+02 -1.180249e+02 -3.052447e+00
-3.977831e+09 -3.777839e+09 -3.937834e+09 -6.847964e+01 -3.105113e+02 -2.953949e+01
-2.981517e+09 -2.781525e+09 -2.941520e+09 -9.332790e+02 -1.467475e+03 -5.757781e+02
-3.817745e+09 -3.617752e+09 -3.777748e+09 -1.374008e+02 -2.171019e+02 3.330326e+01
-3.681563e+09 -3.481571e+09 -3.641567e+09 -2.014560e+02 -7.425933e+02 -5.913224e+01
-4.293945e+09 -4.093948e+09 -4.253946e+09 -3.675347e+03 -5.187909e+02 1.056533e+03
-4.816512e+09 -4.616515e+09 -4.776506e+09 -5.120316e+03 -2.011774e+03 2.228095e+03
-4.473281e+09 -4.273282e+09 -4.433274e+09 -4.886679e+03 -1.568986e+03 1.444362e+03
-4.127871e+09 -3.927872e+09 -4.087872e+09 -3.942954e+03 -4.035340e+01 3.460428e+02
-4.130048e+09 -3.930050e+09 -4.090044e+09 -4.594409e+03 -1.332552e+03 1.552415e+03
-3.915135e+09 -3.715132e+09 -3.875135e+09 -9.119801e+02 -6.753041e+02 -3.447503e+02
-4.599343e+09 -4.399339e+09 -4.559343e+09 -8.064855e+02 -3.845339e+02 -2.679357e+02
-4.614116e+09 -4.414112e+09 -4.574117e+09 -2.655478e+02 -4.966869e+02 -3.994782e+02
-4.045091e+09 -3.845088e+09 -4.005092e+09 8.679805e+01 -7.677233e+02 -9.228355e+02
-4.577825e+09 -4.377822e+09 -4.537826e+09 3.629148e+02 -2.154129e+02 -1.778460e+02
-4.251119e+09 -4.051115e+09 -4.211120e+09 -4.237094e+01 -6.072115e+02 -6.735933e+02
-4.995982e+09 -4.795982e+09 -4.955990e+09 8.159191e+02 -8.130415e+02 2.503666e+02
-4.817518e+09 -4.617519e+09 -4.777530e+09 -1.517818e+02 -1.334256e+03 6.485405e+02
-4.300031e+09 -4.100033e+09 -4.260039e+09 7.537311e+02 -3.017164e+03 9.216814e+02
-4.295518e+09 -4.095516e+09 -4.255530e+09 -2.816483e+02 -4.398748e+03 1.161494e+03
-4.132986e+09 -3.932985e+09 -4.092997e+09 9.561469e+02 -3.943814e+03 2.110958e+03
-4.636817e+09 -4.436816e+09 -4.596829e+09 -3.099395e+02 -1.180605e+03 4.683229e+02
-4.814374e+09 -4.614379e+09 -4.774359e+09 -8.827381e+02 -6.535327e+02 3.183457e+03
-4.820739e+09 -4.620736e+09 -4.780729e+09 4.826304e+03 -2.284376e+02 8.321784e+02
-4.443773e+09 -4.243768e+09 -4.403749e+09 5.611579e+03 6.075640e+03 3.599432e+03
-4.278398e+09 -4.078398e+09 -4.238376e+09 4.025338e+03 5.522358e+03 4.208701e+03
-4.614837e+09 -4.414845e+09 -4.574824e+09 2.584982e+03 1.008906e+03 4.023323e+03
-4.799331e+09 -4.599337e+09 -4.759311e+09 5.006244e+03 4.119350e+03 4.117339e+03
-4.299165e+09 -4.099172e+09 -4.259171e+09 -5.711080e+02 1.278899e+03 1.269263e+02
-4.136722e+09 -3.936729e+09 -4.096725e+09 -1.398727e+02 5.494554e+02 -5.604288e+01
-4.128446e+09 -3.928452e+09 -4.088450e+09 -1.008462e+03 1.222578e+03 1.911875e+02
-4.308082e+09 -4.108089e+09 -4.268087e+09 2.149112e+02 1.203376e+03 9.149477e+01
-3.982679e+09 -3.782678e+09 -3.942678e+09 9.254554e+01 1.687258e+01 -2.105034e+01
-4.571723e+09 -4.371722e+09 -4.531722e+09 3.568287e+01 8.657401e+00 6.639897e+00
-4.971143e+09 -4.771142e+09 -4.931142e+09 9.267896e+01 -1.006184e+01 -2.689129e+01
-4.141137e+09 -3.941136e+09 -4.101136e+09 1.283540e+02 4.352795e+00 -1.642627e+01
-4.484370e+09 -4.284369e+09 -4.444369e+09 1.113415e+02 -3.389756e+00 -1.890044e+00
-4.780126e+09 -4.580125e+09 -4.740125e+09 6.747088e+01 -1.874923e+00 -5.335146e-01
-4.818398e+09 -4.618401e+09 -4.778403e+09 3.114927e+03 7.608097e+02 -6.692976e+02
-4.301895e+09 -4.101897e+09 -4.261901e+09 3.329134e+03 2.133839e+03 -8.392557e+02
-4.644783e+09 -4.444785e+09 -4.604789e+09 3.221026e+03 1.011705e+03 -4.911817e+02
-4.848852e+09 -4.648856e+09 -4.808861e+09 2.529404e+03 8.323441e+02 -6.089746e+02
-4.651438e+09 -4.451441e+09 -4.611440e+09 -3.837275e+02 7.938547e-01 5.380662e+00
-4.640790e+09 -4.440793e+09 -4.600792e+09 -7.889919e+02 -5.407838e+00 8.228409e-01
-3.956314e+09 -3.756316e+09 -3.916316e+09 -2.818046e+02 3.705219e+00 -2.677657e+01
-4.812102e+09 -4.612104e+09 -4.772103e+09 -5.777747e+02 -1.416297e+00 -1.430920e+02
-3.964727e+09 -3.764729e+09 -3.924728e+09 -5.348606e+02 7.533067e+00 -1.907311e+01
-2.628533e+09 -2.428532e+09 -2.588533e+09 -1.825574e+02 -1.551430e+01 9.294837e+00
-3.434332e+09 -3.234331e+09 -3.394331e+09 -2.016438e+02 -1.311350e+01 -4.836504e+00
-2.107794e+09 -1.907793e+09 -2.067793e+09 -2.090697e+02 -1.718768e+01 -2.633913e+00
-1.895810e+09 -1.695809e+09 -1.855809e+09 -2.073306e+02 -4.678747e+01 8.454713e-01
-2.208956e+09 -2.008955e+09 -2.168955e+09 -1.923816e+02 -2.237138e+01 -1.990241e+01
-1.697054e+09 -1.497053e+09 -1.657053e+09 -2.710655e+02 -4.035527e+01 -2.597047e+01
-2.343643e+09 -2.143642e+09 -2.303642e+09 -2.261802e+02 -2.174821e+01 -5.075134e+00
-2.944300e+09 -2.744299e+09 -2.904299e+09 -2.365986e+02 -3.298875e+01 -4.645580e+01
-4.833172e+09 -4.633165e+09 -4.793171e+09 6.461585e+02 -3.403862e+02 -2.664046e+02
-4.128572e+09 -3.928566e+09 -4.088570e+09 2.761233e+02 -3.818412e+02 1.284868e+02
-4.971464e+09 -4.771470e+09 -4.931468e+09 -4.688991e+02 -3.467549e+02 -3.557162e+01
-4.625663e+09 -4.425663e+09 -4.585662e+09 1.723893e+03 1.998457e+02 5.059207e+01
-4.815038e+09 -4.615032e+09 -4.775036e+09 2.644929e+02 1.308253e+02 4.949984e+02
-4.489939e+09 -4.289932e+09 -4.449936e+09 9.240594e+02 -7.290362e+01 3.754976e+02
-4.658580e+09 -4.458581e+09 -4.618574e+09 -5.429489e+03 -2.550093e+03 1.216353e+03
-4.615266e+09 -4.415273e+09 -4.575250e+09 -1.794270e+02 -3.927134e+02 3.465469e+03
-1.532059e+09 -1.332058e+09 -1.492057e+09 9.968265e+02 2.965448e+02 -3.217062e+01
-3.971702e+09 -3.771690e+09 -3.931663e+09 -4.571042e+03 -1.348505e+04 4.315056e+03
-4.799757e+09 -4.599764e+09 -4.759735e+09 -2.551968e+02 9.156914e+01 9.466167e+02
-5.001400e+09 -4.801391e+09 -4.961365e+09 -3.793838e+03 -2.431515e+02 2.281465e+03
-4.823592e+09 -4.623579e+09 -4.783582e+09 -3.793803e+03 -1.515742e+03 -4.489061e+02
-4.668221e+09 -4.468216e+09 -4.628197e+09 -6.017747e+03 -2.466689e+03 2.802234e+03
-4.137124e+09 -3.937112e+09 -4.097114e+09 -4.213884e+03 -5.624799e+03 7.860926e+00
-3.637672e+09 -3.437677e+09 -3.597676e+09 3.537862e+02 5.950850e+01 3.133883e+02
-3.018727e+09 -2.818732e+09 -2.978731e+09 6.542087e+02 -1.116982e+02 -3.245024e+02
-2.593554e+09 -2.393561e+09 -2.553560e+09 3.708600e+02 -5.013088e+01 5.620672e+01
-3.131030e+09 -2.931039e+09 -3.091036e+09 4.392523e+02 -1.105138e+02 1.122848e+03
-3.778666e+09 -3.578671e+09 -3.738671e+09 1.070427e+03 2.562576e+01 1.643087e+02
-4.653674e+09 -4.453676e+09 -4.613678e+09 1.327354e+03 -4.735431e+02 2.573990e+02
-2.300811e+09 -2.100811e+09 -2.260811e+09 -4.294562e+02 -4.358950e+01 -5.279352e+01
-4.508552e+09 -4.308557e+09 -4.468554e+09 2.203766e+03 4.057940e+02 -4.118454e+01
-4.661552e+09 -4.461556e+09 -4.621552e+09 1.532840e+03 7.142052e+01 -9.832468e+00
-4.854779e+09 -4.654782e+09 -4.814780e+09 1.990381e+03 -4.942736e+00 9.323891e+01
-5.004362e+09 -4.804366e+09 -4.964363e+09 1.802059e+03 1.825484e+02 1.131162e+01
-4.133986e+09 -3.933985e+09 -4.093985e+09 -5.209868e+02 -4.851490e+01 -1.021385e+01
-4.702202e+09 -4.502206e+09 -4.662203e+09 2.205642e+03 2.091524e+02 -6.503705e+01
-4.487447e+09 -4.287446e+09 -4.447446e+09 6.476992e+02 1.599929e+01 -4.546235e+01
-4.459057e+09 -4.259055e+09 -4.419056e+09 3.266863e+02 3.303900e+01 -3.658088e+01
-4.972530e+09 -4.772529e+09 -4.932529e+09 -4.759253e+02 3.235556e+00 -5.487747e+01
-4.487448e+09 -4.287446e+09 -4.447447e+09 2.865289e+02 1.927468e+01 -4.106148e+01
-4.347274e+09 -4.147273e+09 -4.307273e+09 4.762195e+02 -2.968115e+00 -3.648548e+01
-4.844290e+09 -4.644289e+09 -4.804289e+09 7.923507e+02 2.343776e+00 -9.512451e+01
-4.482302e+09 -4.282301e+09 -4.442302e+09 6.861448e+02 1.130148e+01 -6.417526e+01
-4.180282e+09 -3.980281e+09 -4.140281e+09 6.186415e+02 -2.885979e+01 -1.022079e+02
-4.866747e+09 -4.666746e+09 -4.826747e+09 5.437027e+02 4.568611e+01 6.324506e+01
-4.484976e+09 -4.284981e+09 -4.444978e+09 2.738509e+03 6.079093e+02 5.239833e+02
-4.990755e+09 -4.790763e+09 -4.950756e+09 2.560443e+03 -2.631560e+02 3.586130e+02
-4.117862e+09 -3.917866e+09 -4.077865e+09 3.305116e+03 4.586564e+02 3.869807e+02
-4.334908e+09 -4.134908e+09 -4.294907e+09 3.605202e+03 -1.214347e+01 9.568220e+02
-4.645303e+09 -4.445303e+09 -4.605303e+09 7.811234e+02 3.324984e+01 4.023140e+01
-4.817598e+09 -4.617599e+09 -4.777599e+09 7.774659e+02 3.088651e+01 4.641559e+01
-4.645135e+09 -4.445135e+09 -4.605135e+09 6.632420e+02 5.751679e+01 3.228401e+01
-4.131132e+09 -3.931133e+09 -4.091133e+09 7.669181e+02 1.609247e+00 -8.695708e+01
-2.963074e+09 -2.763074e+09 -2.923073e+09 6.511552e+02 -2.490171e+02 -1.145439e+01
-4.050102e+09 -3.850102e+09 -4.010101e+09 5.632350e+02 -2.435857e+02 6.112006e+01
-4.229949e+09 -4.029949e+09 -4.189948e+09 4.634295e+02 -1.206341e+02 4.116376e+01
-3.421774e+09 -3.221774e+09 -3.381773e+09 4.111652e+02 -5.132317e+01 -4.764227e+01
-3.441886e+09 -3.241887e+09 -3.401885e+09 2.528922e+02 -1.863479e+02 1.932867e+01
-3.165053e+09 -2.965054e+09 -3.125052e+09 4.662984e+02 -4.602063e+02 1.077681e+02
-4.304433e+09 -4.104434e+09 -4.264437e+09 -1.896292e+03 -1.767247e+03 -5.733446e+02
-4.158170e+09 -3.958171e+09 -4.118176e+09 -1.988957e+03 -2.416890e+03 -6.295872e+02
-4.670279e+09 -4.470280e+09 -4.630283e+09 -2.091786e+03 -5.746037e+02 -3.798541e+02
-3.946523e+09 -3.746522e+09 -3.906522e+09 -3.338742e+02 -4.120243e+01 -2.041794e+00
-2.528975e+09 -2.328976e+09 -2.488976e+09 7.979237e+01 3.083932e+01 -1.069093e+01
-4.811687e+09 -4.611690e+09 -4.771689e+09 9.401551e+01 1.281939e+01 5.967178e+01
-4.142231e+09 -3.942234e+09 -4.102233e+09 5.395419e+02 -1.622182e+01 -1.305152e+02
-4.824892e+09 -4.624894e+09 -4.784894e+09 2.415289e+02 3.869274e+00 6.228445e+01
-4.475393e+09 -4.275396e+09 -4.435395e+09 2.800954e+02 1.258395e+01 -2.329397e+01
-3.941264e+09 -3.741267e+09 -3.901266e+09 1.710177e+02 1.749649e+01 -1.797786e+02
-4.484075e+09 -4.284077e+09 -4.444076e+09 5.983474e+02 3.464344e+00 -9.060501e+01
-4.275444e+09 -4.075447e+09 -4.235446e+09 1.102914e+02 -5.683753e+00 -1.065263e+02
-4.323600e+09 -4.123602e+09 -4.283601e+09 8.929165e+02 7.762072e+00 -1.997021e+02
-4.484075e+09 -4.284078e+09 -4.444077e+09 4.618589e+02 9.140078e+00 -8.003403e+01
-4.136084e+09 -3.936085e+09 -4.096085e+09 -1.875697e+03 8.181841e+01 -3.502626e+02
-4.301303e+09 -4.101306e+09 -4.261305e+09 -5.969685e+02 3.294465e+01 -3.275169e+02
-1.863718e+09 -1.663719e+09 -1.823718e+09 -1.224575e+02 -4.983577e+01 1.865130e+01
-4.136267e+09 -3.936269e+09 -4.096268e+09 -1.806493e+03 1.321664e+02 7.572060e+01
-4.251066e+09 -4.051070e+09 -4.211067e+09 -2.129023e+02 -8.924803e+00 -6.515883e+02
-4.785763e+09 -4.585766e+09 -4.745764e+09 -2.455368e+02 1.251565e+02 1.374761e+02
-4.099297e+09 -3.899301e+09 -4.059298e+09 -1.868488e+02 -2.792315e+00 -8.511722e+02
-3.203080e+09 -3.003084e+09 -3.163080e+09 -7.702658e+02 3.722499e+01 -5.057673e+01
-3.981689e+09 -3.781688e+09 -3.941689e+09 -7.812846e+02 -3.156425e+01 -8.342187e+01
-2.537741e+09 -2.337745e+09 -2.497742e+09 -6.241688e+02 8.193351e+01 -9.924266e+00
-1.855143e+09 -1.655147e+09 -1.815144e+09 -7.634533e+02 2.117197e+02 -6.831256e+01
-3.178564e+09 -2.978567e+09 -3.138564e+09 -6.436835e+02 7.350983e+01 -1.004185e+02
-2.629838e+09 -2.429842e+09 -2.589838e+09 -6.514500e+02 1.514480e+02 -1.919042e+01
-2.176723e+09 -1.976724e+09 -2.136724e+09 -3.691056e+01 -5.041219e+00 7.342372e+00
-3.479068e+09 -3.279072e+09 -3.439068e+09 -7.180026e+02 1.238839e+02 -4.690386e+00
-2.983379e+09 -2.783384e+09 -2.943380e+09 -6.585883e+02 1.846199e+02 -1.126273e+02
-4.297595e+09 -4.097593e+09 -4.257595e+09 -1.650892e+03 -4.220438e+01 1.797373e+02
-1.583547e+09 -1.383547e+09 -1.543547e+09 2.338097e+02 5.781657e+01 -1.110515e+01
-4.478205e+09 -4.278205e+09 -4.438206e+09 -1.963574e+03 -1.878428e+01 1.254615e+01
-4.504301e+09 -4.304300e+09 -4.464301e+09 -1.785702e+03 -2.559365e+01 -1.642921e+00
-4.806497e+09 -4.606496e+09 -4.766497e+09 -1.491280e+03 -6.431568e+00 -7.397544e+01
-4.289325e+09 -4.089323e+09 -4.249324e+09 -1.365508e+03 -1.676071e+01 1.314653e+02
-4.313967e+09 -4.113967e+09 -4.273966e+09 -8.898103e+02 1.168753e+02 2.826382e+01
-4.144715e+09 -3.944715e+09 -4.104714e+09 -8.394953e+02 5.373954e+01 -2.029879e+01
-4.651486e+09 -4.451486e+09 -4.611485e+09 -7.788594e+02 -4.920083e+00 -6.675739e+01
-4.662476e+09 -4.462476e+09 -4.622475e+09 -9.107709e+02 -4.992409e+01 -4.663840e+01
-4.994770e+09 -4.794771e+09 -4.954770e+09 -1.167848e+03 2.486369e+02 9.703802e+01
-4.831180e+09 -4.631180e+09 -4.791179e+09 -8.671818e+02 3.708482e+01 -9.874907e+00
-4.122135e+09 -3.922134e+09 -4.082134e+09 -1.339530e+02 -2.883493e+01 -9.937645e+01
-4.633755e+09 -4.433753e+09 -4.593754e+09 -7.456610e+01 2.301698e+01 -6.036302e+01
-4.433963e+09 -4.233962e+09 -4.393962e+09 2.647529e+02 1.961239e+01 -4.174806e+01
-4.635500e+09 -4.435498e+09 -4.595499e+09 -3.064413e+02 3.499564e+00 -5.271521e+01
-2.125815e+09 -1.925814e+09 -2.085814e+09 -8.203486e+01 -9.504209e+00 -2.148118e+01
-2.695226e+09 -2.495224e+09 -2.655225e+09 -4.965299e+01 -9.551870e+00 -2.344425e+01
-3.048299e+09 -2.848297e+09 -3.008298e+09 -1.376015e+02 -1.083916e+01 -2.492933e+01
-1.901727e+09 -1.701725e+09 -1.861726e+09 -9.142057e+01 -9.951229e+00 -4.895898e+01
-2.620532e+09 -2.420530e+09 -2.580531e+09 -1.584298e+02 -2.725546e+01 -2.509021e+01
-1.773037e+09 -1.573036e+09 -1.733036e+09 -2.315804e+02 -4.271430e+01 -5.768635e+01
-1.990551e+09 -1.790550e+09 -1.950550e+09 -1.399986e+02 -1.873108e+01 -4.651229e+01
-1.919082e+09 -1.719080e+09 -1.879081e+09 -6.430691e+01 -7.914235e+00 -3.313435e+01
-4.298001e+09 -4.097999e+09 -4.258000e+09 1.435799e+02 -3.645432e+02 1.900885e+02
-4.850227e+09 -4.650226e+09 -4.810227e+09 -1.439946e+02 -9.556163e+01 1.687002e+02
-4.837353e+09 -4.637351e+09 -4.797353e+09 2.223816e+02 -1.125281e+02 2.532744e+02
-4.311180e+09 -4.111179e+09 -4.271180e+09 4.241504e+02 -3.230195e+02 2.590988e+02
-4.797971e+09 -4.597959e+09 -4.757984e+09 9.905972e+02 -1.148742e+02 -7.714801e+02
-4.111505e+09 -3.911495e+09 -4.071526e+09 -1.167861e+02 3.911289e+03 -3.328874e+02
-4.241858e+09 -4.041847e+09 -4.201878e+09 3.757795e+01 3.770628e+03 -1.087766e+02
-4.811181e+09 -4.611179e+09 -4.771180e+09 -5.978784e+02 6.791390e+01 3.166728e+01
-4.644331e+09 -4.444330e+09 -4.604330e+09 -7.041687e+02 -3.102836e+01 -5.251635e+01
-4.132735e+09 -3.932734e+09 -4.092734e+09 -1.909105e+02 -4.401291e+00 -6.981983e+01
-4.124715e+09 -3.924714e+09 -4.084714e+09 -5.815216e+02 2.900075e+01 -4.843510e+01
-1.959782e+09 -1.759788e+09 -1.919783e+09 7.083051e+02 2.387685e+02 -3.297624e+01
-3.094158e+09 -2.894160e+09 -3.054160e+09 -6.781424e+02 2.397960e+01 6.169248e+02
-3.628919e+09 -3.428922e+09 -3.588923e+09 -2.001856e+03 -1.283976e+02 7.680500e+01
-4.050126e+09 -3.850128e+09 -4.010129e+09 -1.137364e+03 8.407317e+01 3.647865e+01
-3.970594e+09 -3.770593e+09 -3.930592e+09 -3.399610e+02 6.234656e+01 -7.485966e+01
-3.863015e+09 -3.663013e+09 -3.823015e+09 -1.291861e+03 1.041000e+02 -2.479787e+02
-3.027311e+09 -2.827311e+09 -2.987313e+09 -1.360074e+03 2.366538e+02 1.008205e+02
-4.648481e+09 -4.448485e+09 -4.608483e+09 -1.618162e+03 1.948973e+02 3.233102e+01
-4.141425e+09 -3.941427e+09 -4.101425e+09 -1.585074e+03 -5.045479e+01 -1.085215e+02
-4.829236e+09 -4.629241e+09 -4.789238e+09 -1.502769e+03 6.447619e+01 -8.381299e+01
-4.827890e+09 -4.627893e+09 -4.787891e+09 -1.616979e+03 3.497251e+02 1.747807e+02
-4.458263e+09 -4.258265e+09 -4.418264e+09 2.819792e+02 6.121477e+00 7.817134e+00
-4.130345e+09 -3.930347e+09 -4.090346e+09 3.793414e+02 -1.941133e+01 -5.235999e+01
-4.477505e+09 -4.277508e+09 -4.437502e+09 -9.590402e+02 9.396365e+02 -1.605912e+03
-4.115271e+09 -3.915272e+09 -4.075272e+09 3.043788e+02 2.733262e+01 2.867816e+01
-4.801496e+09 -4.601498e+09 -4.761497e+09 2.507922e+02 6.676825e+00 5.245103e+01
-4.816811e+09 -4.616812e+09 -4.776812e+09 3.738730e+02 3.381796e+01 5.237840e+01
-3.423401e+09 -3.223405e+09 -3.383403e+09 -1.292828e+03 -1.236660e+03 -2.472454e+02
-4.797212e+09 -4.597210e+09 -4.757211e+09 -2.784584e+02 -1.173165e+01 -4.919063e+01
-2.155889e+09 -1.955896e+09 -2.115891e+09 -2.083517e+03 -2.112547e+03 -6.174351e+02
-3.135111e+09 -2.935118e+09 -3.095113e+09 -5.107910e+02 -9.528085e+02 -6.011182e+01
-2.239065e+09 -2.039071e+09 -2.199067e+09 -1.099504e+03 -7.102205e+02 -1.983443e+02
-1.870357e+09 -1.670364e+09 -1.830359e+09 -2.023993e+03 -2.068595e+03 -4.746373e+02
-4.130330e+09 -3.930331e+09 -4.090331e+09 9.033552e+02 -9.784061e+00 -1.040495e+02
-4.301195e+09 -4.101195e+09 -4.261196e+09 9.342605e+02 -3.370980e+01 -9.300567e+01
-4.131038e+09 -3.931038e+09 -4.091038e+09 7.348827e+02 2.963735e+01 -3.353012e+01
-4.825535e+09 -4.625534e+09 -4.785534e+09 6.890128e+02 9.804725e+00 -3.688484e+01
-4.690507e+09 -4.490506e+09 -4.650506e+09 4.703512e+02 3.917906e+01 -9.609281e+00
-3.969009e+09 -3.769009e+09 -3.929009e+09 7.215495e+02 8.406437e+01 2.896945e+01
-4.606746e+09 -4.406747e+09 -4.566746e+09 3.374915e+02 7.171949e+00 3.378901e+00
-4.263513e+09 -4.063514e+09 -4.223514e+09 3.351917e+02 -3.277560e+00 -2.997565e+01
-4.290642e+09 -4.090643e+09 -4.250643e+09 5.988330e+02 -2.335488e+00 -4.646657e+01
-4.669614e+09 -4.469619e+09 -4.629614e+09 1.928483e+02 6.758734e+01 -2.469951e+01
-4.121197e+09 -3.921198e+09 -4.081198e+09 4.091118e+02 -3.506802e+00 -4.277907e+01
-4.807663e+09 -4.607664e+09 -4.767664e+09 4.199122e+02 1.000089e+01 2.406008e+01
-4.998590e+09 -4.798592e+09 -4.958595e+09 -2.507296e+03 4.307926e+02 1.142446e+02
-4.702187e+09 -4.502192e+09 -4.662187e+09 1.256790e+02 4.816141e+01 -1.871581e+01
-4.775739e+09 -4.575738e+09 -4.735739e+09 1.394597e+02 -3.766101e+00 -2.110781e+00
-3.962687e+09 -3.762690e+09 -3.922694e+09 -3.292858e+03 2.685064e+03 1.483355e+03
-4.132262e+09 -3.932264e+09 -4.092269e+09 -3.239690e+03 2.634007e+03 1.531894e+03
-4.641314e+09 -4.441319e+09 -4.601325e+09 -1.514101e+03 1.447871e+03 3.294426e+02
-4.808522e+09 -4.608528e+09 -4.768532e+09 -1.402640e+03 7.985032e+02 2.849238e+02
-4.643866e+09 -4.443871e+09 -4.603873e+09 -1.931417e+03 9.651447e+02 1.569615e+02
-4.044379e+09 -3.844380e+09 -4.004380e+09 -1.292355e+03 -3.791047e+02 -1.527766e+02
-4.099130e+09 -3.899131e+09 -4.059131e+09 -1.726343e+03 -1.199654e+03 -4.100083e+02
-4.561398e+09 -4.361400e+09 -4.521399e+09 -1.160237e+03 -2.225661e+02 -2.462543e+01
-3.068386e+09 -2.868386e+09 -3.028386e+09 -3.103649e+02 -5.734733e+01 1.999382e+01
-4.480600e+09 -4.280599e+09 -4.440599e+09 -4.442018e+02 -4.418484e+01 9.966287e+00
-4.678996e+09 -4.479000e+09 -4.638998e+09 -1.104492e+03 -7.141475e+02 -5.934967e+01
-4.234509e+09 -4.034515e+09 -4.194512e+09 -6.458402e+02 -7.234102e+02 -4.818810e+01
-4.120819e+09 -3.920823e+09 -4.080821e+09 -1.071031e+03 -6.135448e+02 -7.779981e+01
-4.596044e+09 -4.396042e+09 -4.556043e+09 2.605761e+02 7.472672e+01 -7.165082e+00
-4.264034e+09 -4.064032e+09 -4.224033e+09 1.108258e+01 3.370435e+01 3.251454e+01
-4.606332e+09 -4.406330e+09 -4.566331e+09 -1.738231e+02 4.574752e+01 -1.997505e+01
-3.946523e+09 -3.746522e+09 -3.906522e+09 -5.140507e+02 -4.406956e+01 6.778719e+01
-4.439191e+09 -4.239190e+09 -4.399190e+09 5.787768e+02 9.194228e+00 -3.653137e+01
-4.686114e+09 -4.486112e+09 -4.646113e+09 -1.144309e+02 -5.576450e+00 5.776757e+00
-4.675347e+09 -4.475345e+09 -4.635346e+09 -5.941094e+01 2.359123e+00 -1.955588e+01
-4.688374e+09 -4.488372e+09 -4.648373e+09 -1.285687e+02 -6.886722e+00 -2.530056e+01
-3.426398e+09 -3.226402e+09 -3.386398e+09 1.127660e+03 9.030146e+01 -2.359058e+01
-3.973552e+09 -3.773551e+09 -3.933551e+09 -3.427266e+01 -4.143175e-02 2.174943e+00
-4.696947e+09 -4.496945e+09 -4.656946e+09 -4.281849e+01 -3.224041e+00 -1.162623e+01
-4.949204e+09 -4.749203e+09 -4.909203e+09 -3.189528e+01 -1.142059e+00 -2.757027e+01
-3.646091e+09 -3.446090e+09 -3.606090e+09 -5.392175e+01 -1.629609e+01 -3.971429e+01
-2.966854e+09 -2.766853e+09 -2.926853e+09 -5.663328e+01 -5.507040e+00 -6.458626e+01
-3.354560e+09 -3.154558e+09 -3.314559e+09 -3.477049e+01 -7.653350e+00 -3.013048e+01
-4.425321e+09 -4.225320e+09 -4.385320e+09 -5.556132e+01 -2.891319e+00 -1.184018e+01
-4.817896e+09 -4.617895e+09 -4.777896e+09 -9.739824e+02 -1.368506e+01 -1.151527e+02
-4.632557e+09 -4.432556e+09 -4.592557e+09 -1.367732e+03 -1.165902e+02 1.775421e+02
-4.130632e+09 -3.930631e+09 -4.090632e+09 -1.214807e+03 -9.535544e+01 7.742707e-01
-4.819168e+09 -4.619167e+09 -4.779168e+09 -1.158219e+03 -6.710852e+01 1.983243e+02
-4.304071e+09 -4.104071e+09 -4.264071e+09 -5.395937e+02 -1.337104e+01 -5.292254e+01
-4.173739e+09 -3.973739e+09 -4.133739e+09 -1.257138e+03 -6.931521e+01 1.251860e+02
-4.307165e+09 -4.107164e+09 -4.267164e+09 2.023209e+02 7.667509e+00 -2.498348e+01
-4.159223e+09 -3.959222e+09 -4.119222e+09 2.801572e+02 -1.431318e+01 -7.028605e+01
-4.822072e+09 -4.622071e+09 -4.782071e+09 2.571371e+02 -5.468473e+01 -8.435958e+01
-4.135606e+09 -3.935605e+09 -4.095605e+09 2.382974e+02 9.062386e+01 2.814265e+01
-3.983116e+09 -3.783114e+09 -3.943115e+09 -1.686601e+02 -1.357730e+01 -4.019976e+01
-4.022460e+09 -3.822458e+09 -3.982459e+09 -1.394005e+02 -1.011412e+01 -2.829788e+01
-3.963559e+09 -3.763558e+09 -3.923558e+09 -1.470540e+02 -1.127113e+01 -3.320797e+01
-4.491125e+09 -4.291124e+09 -4.451124e+09 -3.705792e+01 -3.644651e+00 -1.164135e+01
-3.653626e+09 -3.453625e+09 -3.613625e+09 -2.300105e+02 -1.739045e+01 -3.045291e+01
-3.608016e+09 -3.408015e+09 -3.568015e+09 -1.865451e+02 -1.224462e+01 -2.497836e+01
-4.088982e+09 -3.888981e+09 -4.048981e+09 -9.580005e+01 -8.598629e+00 8.286324e+00
-2.199545e+09 -1.999544e+09 -2.159544e+09 -1.703078e+02 -2.184277e+01 -3.734027e+01
-2.986413e+09 -2.786412e+09 -2.946412e+09 -1.527788e+02 -9.929599e+00 -2.586304e+01
-2.731935e+09 -2.531938e+09 -2.691935e+09 8.869749e+02 2.011761e+02 -9.981198e+01
-3.799313e+09 -3.599316e+09 -3.759313e+09 4.546443e+02 7.243911e+01 -1.521566e+01
-2.123433e+09 -1.923438e+09 -2.083433e+09 3.657068e+02 1.381901e+01 1.267210e+01
-3.530982e+09 -3.330986e+09 -3.490982e+09 8.771729e+02 5.047670e+01 2.856535e+01
-1.803282e+09 -1.603286e+09 -1.763282e+09 6.016019e+02 9.378761e+00 -5.975861e+01
-2.268701e+09 -2.068704e+09 -2.228700e+09 7.477436e+02 6.736866e+01 3.866754e+01
-2.573507e+09 -2.373507e+09 -2.533506e+09 -7.448922e+02 -4.565504e+02 -1.336095e+02
-3.700638e+09 -3.500639e+09 -3.660638e+09 -6.392886e+02 -3.291904e+02 -8.345567e+01
-2.259680e+09 -2.059680e+09 -2.219679e+09 -5.735674e+02 -1.977244e+02 9.416569e+00
-1.838249e+09 -1.638252e+09 -1.798248e+09 -1.000867e+03 -6.929808e+02 -2.109073e+02
-1.861784e+09 -1.661785e+09 -1.821783e+09 -6.145656e+02 -2.980619e+02 4.398342e+01
-3.328703e+09 -3.128705e+09 -3.288702e+09 -2.943276e+02 -8.097141e+01 -3.807813e+01
-3.078762e+09 -2.878763e+09 -3.038761e+09 -8.680069e+01 -2.964926e+02 -4.661294e+01
-2.577598e+09 -2.377600e+09 -2.537598e+09 -4.551803e+02 -5.828478e+02 -1.052814e+02
-2.973909e+09 -2.773909e+09 -2.933907e+09 -3.214468e+02 -8.933802e+01 -2.960119e+01
-3.282666e+09 -3.082668e+09 -3.242666e+09 -7.454969e+02 -3.758258e+02 -1.571011e+02
-3.697343e+09 -3.497344e+09 -3.657343e+09 -1.068588e+03 -3.980768e+02 -1.060351e+02
-2.169784e+09 -1.969784e+09 -2.129783e+09 -7.677401e+02 -4.045612e+02 -1.370050e+02
-2.229610e+09 -2.029610e+09 -2.189609e+09 -1.197280e+03 -5.597531e+02 -2.172435e+02
-3.139543e+09 -2.939543e+09 -3.099542e+09 -7.972037e+02 -4.598530e+02 -8.380257e+01
-4.429865e+09 -4.229855e+09 -4.389884e+09 7.161545e+02 3.414615e+03 1.117331e+03
-4.272040e+09 -4.072027e+09 -4.232059e+09 1.113966e+03 5.200343e+03 -1.643714e+03
-4.620563e+09 -4.420559e+09 -4.580581e+09 7.563201e+02 2.244481e+03 -3.144135e+01
-4.277800e+09 -4.077792e+09 -4.237822e+09 5.685283e+02 6.916918e+03 -2.355609e+03
-4.116344e+09 -3.916341e+09 -4.076365e+09 -5.179190e+02 7.043864e+03 -3.149136e+02
-4.802811e+09 -4.602806e+09 -4.762828e+09 -1.334014e+02 2.986386e+03 5.978278e+02
-4.651319e+09 -4.451322e+09 -4.611330e+09 -2.892729e+02 -1.284920e+03 1.948618e+02
-4.303899e+09 -4.103901e+09 -4.263909e+09 3.631617e+01 -3.463415e+03 7.242813e+02
-4.134082e+09 -3.934085e+09 -4.094092e+09 6.414687e+02 -3.156716e+03 1.149475e+03
-4.824735e+09 -4.624739e+09 -4.784744e+09 -2.023622e+02 -7.307948e+02 1.737798e+02
-4.321526e+09 -4.121531e+09 -4.281533e+09 2.264429e+02 -2.114428e+03 3.380093e+02
-4.444924e+09 -4.244923e+09 -4.404924e+09 -4.320115e+02 -1.087372e+01 1.922060e+01
-4.137367e+09 -3.937366e+09 -4.097367e+09 -4.986998e+02 -2.270630e+01 -6.598707e+01
-4.306512e+09 -4.106511e+09 -4.266511e+09 -4.183341e+02 -3.511152e+01 1.986177e+01
-4.101692e+09 -3.901691e+09 -4.061691e+09 -4.481442e+02 -3.901344e+01 4.729942e+01
-4.693646e+09 -4.493648e+09 -4.653647e+09 -5.966070e+01 -5.852297e-01 2.376496e+01
-4.064393e+09 -3.864394e+09 -4.024394e+09 -1.324960e+02 -5.134229e+00 8.976091e+00
-4.693646e+09 -4.493648e+09 -4.653647e+09 -7.453970e+01 -5.141279e+00 -3.030959e+01
-3.794653e+09 -3.594655e+09 -3.754655e+09 -1.061980e+02 1.709843e+00 3.075687e+01
-3.968332e+09 -3.768332e+09 -3.928331e+09 -8.410266e+02 1.481631e+01 -8.547688e+01
-4.132621e+09 -3.932621e+09 -4.092620e+09 -4.729848e+02 9.274890e-01 -5.452311e+01
-4.130966e+09 -3.930966e+09 -4.090965e+09 -7.840405e+02 1.101978e+02 -8.959206e+00
-4.301098e+09 -4.101097e+09 -4.261097e+09 -6.983105e+02 7.703660e+01 3.322704e+01
-4.833543e+09 -4.633545e+09 -4.793544e+09 -4.521371e+02 -1.054629e+01 7.937522e+01
-4.310254e+09 -4.110255e+09 -4.270255e+09 -6.235607e+02 -3.454617e+00 -1.978169e+01
-4.822247e+09 -4.622248e+09 -4.782248e+09 -6.568416e+02 -3.607191e+01 7.849702e+01
-4.121409e+09 -3.921411e+09 -4.081411e+09 -4.136436e+02 2.966001e+00 -4.562066e+01
-3.965515e+09 -3.765516e+09 -3.925516e+09 -4.997733e+02 -1.213401e+01 3.909660e+01
-4.822834e+09 -4.622834e+09 -4.782834e+09 6.050271e+02 3.211749e+01 3.634198e+01
-4.633875e+09 -4.433875e+09 -4.593875e+09 5.983113e+02 2.478347e+01 5.798017e+01
-4.650466e+09 -4.450466e+09 -4.610466e+09 5.996920e+02 3.604104e+01 3.410320e+01
-4.635368e+09 -4.435369e+09 -4.595369e+09 4.084360e+02 1.912640e+01 3.636172e+01
-4.161068e+09 -3.961068e+09 -4.121068e+09 -1.646402e+03 2.061660e+01 -1.274599e+02
-4.175571e+09 -3.975571e+09 -4.135571e+09 -1.286249e+03 -9.017980e+01 3.549114e+01
-4.487621e+09 -4.287621e+09 -4.447621e+09 -1.462762e+03 1.097785e+01 1.084904e+01
-4.346934e+09 -4.146934e+09 -4.306934e+09 -1.291248e+03 -4.594035e+01 9.262743e+00
-4.132703e+09 -3.932702e+09 -4.092703e+09 -1.220750e+03 -2.352802e+01 -8.654975e+01
-3.878865e+09 -3.678869e+09 -3.838865e+09 5.921207e+02 5.060436e+00 1.131512e+01
-3.962406e+09 -3.762406e+09 -3.922406e+09 -1.246043e+03 -1.342450e+02 1.197412e+02
-4.860205e+09 -4.660204e+09 -4.820205e+09 -1.287759e+03 -3.657752e+01 -5.720992e+01
-4.847533e+09 -4.647533e+09 -4.807534e+09 -1.570379e+03 -8.238199e+01 2.145092e+02
-4.644721e+09 -4.444722e+09 -4.604722e+09 -9.378363e+02 -3.792947e+01 6.146263e+01
-4.304709e+09 -4.104709e+09 -4.264709e+09 -1.184382e+03 3.486037e+00 -4.414273e+01
-4.479572e+09 -4.279572e+09 -4.439572e+09 -8.850392e+02 -1.598015e+01 1.526691e+01
-4.309534e+09 -4.109534e+09 -4.269535e+09 -9.612943e+02 -1.786353e+01 -8.026011e+01
-4.642244e+09 -4.442243e+09 -4.602243e+09 -2.595514e+02 -3.195318e+01 -4.927585e+01
-4.137874e+09 -3.937873e+09 -4.097873e+09 -2.779317e+02 2.708758e+01 -3.730307e+01
-4.467042e+09 -4.267041e+09 -4.427041e+09 -2.241328e+02 1.887314e+01 -2.407205e+01
-4.824339e+09 -4.624339e+09 -4.784338e+09 -2.888094e+02 -1.611013e-01 -1.628680e+01
-4.845368e+09 -4.645367e+09 -4.805367e+09 3.676317e+02 3.314987e+00 -3.732679e+01
-4.659427e+09 -4.459426e+09 -4.619426e+09 5.044569e+02 5.459137e+01 1.224758e+01
-4.158902e+09 -3.958902e+09 -4.118902e+09 3.730913e+02 2.178111e+01 -2.464407e+00
-4.489492e+09 -4.289491e+09 -4.449492e+09 4.883853e+02 1.433188e+01 -1.298224e+01
-4.824694e+09 -4.624693e+09 -4.784693e+09 5.435955e+02 2.882473e+01 -1.952399e+01
-3.998223e+09 -3.798229e+09 -3.958224e+09 -1.167931e+02 6.073960e+01 -5.574258e+00
-2.829230e+09 -2.629236e+09 -2.789231e+09 -2.132686e-01 3.329129e+02 -6.762619e+01
-3.772325e+09 -3.572331e+09 -3.732327e+09 -4.668934e+01 1.881982e+02 -2.489787e+01
-3.157792e+09 -2.957798e+09 -3.117793e+09 -7.607956e+01 2.986459e+02 -5.393153e+01
-3.938690e+09 -3.738695e+09 -3.898690e+09 -1.829842e+02 5.360809e+01 -5.361361e+01
-3.616727e+09 -3.416732e+09 -3.576728e+09 -2.308490e+02 2.179336e+02 -7.518266e+01
-4.631428e+09 -4.431434e+09 -4.591430e+09 -3.079343e+02 1.233065e+02 -2.993274e+01
-4.153298e+09 -3.953292e+09 -4.113304e+09 -1.517411e+03 -2.663008e+03 -2.264583e+03
-4.839763e+09 -4.639757e+09 -4.799769e+09 -5.104970e+02 -7.071578e+02 -2.019761e+02
-4.350190e+09 -4.150188e+09 -4.310194e+09 -1.387190e+03 -1.695053e+03 -9.447341e+02
-4.501915e+09 -4.301913e+09 -4.461924e+09 -1.602915e+03 -2.591368e+03 -9.910289e+02
-4.862385e+09 -4.662383e+09 -4.822390e+09 -1.506050e+03 -1.135126e+03 -2.157227e+02
-4.175919e+09 -3.975917e+09 -4.135924e+09 -1.998818e+03 -1.638762e+03 -1.202065e+03
-4.605326e+09 -4.405325e+09 -4.565326e+09 -3.533191e+02 -2.462678e+01 2.426930e+01
-3.343878e+09 -3.143878e+09 -3.303878e+09 -2.233551e+02 -2.137878e+01 2.006185e+01
-4.501914e+09 -4.301912e+09 -4.461921e+09 -1.524147e+03 -1.736318e+03 -7.632983e+02
-4.826330e+09 -4.626330e+09 -4.786331e+09 -1.007024e+03 2.104163e+01 -3.304259e+01
-4.157315e+09 -3.957315e+09 -4.117315e+09 -8.162167e+02 -2.900098e+01 4.589887e+01
-4.139865e+09 -3.939865e+09 -4.099865e+09 -1.039809e+03 -8.140109e+01 5.492905e+01
-4.994003e+09 -4.794003e+09 -4.954003e+09 -6.161488e+02 7.673080e+00 -8.878207e+00
-4.473435e+09 -4.273435e+09 -4.433435e+09 -8.104316e+02 -3.429303e+01 -8.958038e+00
-3.960859e+09 -3.760862e+09 -3.920871e+09 -5.258210e+01 -4.108494e+03 8.148187e+02
-4.820548e+09 -4.620550e+09 -4.780558e+09 3.104568e+02 -1.379627e+03 8.569875e+01
-4.990934e+09 -4.790935e+09 -4.950945e+09 6.595958e+01 -1.298901e+03 2.837867e+02
-4.650916e+09 -4.450918e+09 -4.610927e+09 -1.024220e+03 -1.195774e+03 -1.759851e+01
-4.821705e+09 -4.621708e+09 -4.781716e+09 -7.217966e+02 -1.554702e+03 -7.413838e+00
-4.296065e+09 -4.096062e+09 -4.256077e+09 -1.642958e+03 -4.486010e+03 -8.917281e+02
-4.308086e+09 -4.108089e+09 -4.268097e+09 -2.854722e+02 -3.519986e+03 5.464079e+02
-4.275297e+09 -4.075297e+09 -4.235297e+09 -4.569257e+02 -1.540584e+00 -2.230465e+01
-4.554992e+09 -4.354992e+09 -4.514992e+09 -1.840975e+02 -7.428288e+00 1.007625e+01
-3.889950e+09 -3.689950e+09 -3.849950e+09 -3.373209e+02 -3.315450e+01 2.656458e+01
-4.262093e+09 -4.062093e+09 -4.222093e+09 -3.510833e+02 -1.646392e+01 -1.012221e+02
-4.035841e+09 -3.835841e+09 -3.995841e+09 -3.450519e+02 -5.950153e-01 -4.158782e+01
-4.591009e+09 -4.391009e+09 -4.551009e+09 -3.298188e+02 -2.062809e+01 1.107680e+01
-2.800101e+09 -2.600109e+09 -2.760103e+09 2.353301e+02 -3.450205e+02 1.825387e+02
-2.641288e+09 -2.441295e+09 -2.601290e+09 -5.449205e+02 -8.036169e+02 -9.739999e+01
-3.965040e+09 -3.765039e+09 -3.925039e+09 -5.406319e+02 -9.190930e+01 5.213959e+00
-2.615905e+09 -2.415913e+09 -2.575907e+09 -6.680407e+02 -1.251120e+03 -2.147787e+02
-1.597615e+09 -1.397624e+09 -1.557616e+09 -1.279211e+03 -1.546923e+03 -2.188794e+00
-2.464323e+09 -2.264331e+09 -2.424326e+09 -6.222595e+02 -1.451300e+03 -5.444434e+00
-2.569344e+09 -2.369352e+09 -2.529347e+09 -5.708988e+02 -7.868137e+02 2.098968e+01
-4.509148e+09 -4.309153e+09 -4.469150e+09 -9.074090e+02 -1.602126e+02 -1.550283e+02
-4.683356e+09 -4.483360e+09 -4.643359e+09 -1.114556e+03 -3.686824e+02 -6.099786e+01
-4.473523e+09 -4.273524e+09 -4.433523e+09 -6.005019e+02 -5.969356e+01 -5.707584e+01
-4.002074e+09 -3.802078e+09 -3.962075e+09 -7.625090e+02 -4.779476e+02 -1.721490e+02
-4.805226e+09 -4.605229e+09 -4.765228e+09 -1.133653e+03 -1.725576e+02 -5.374538e+01
-4.321467e+09 -4.121463e+09 -4.281467e+09 2.158679e+03 -4.680179e+02 -4.015376e+02
-4.654393e+09 -4.454390e+09 -4.614395e+09 2.340707e+03 -4.752534e+01 -4.691991e+02
-4.644097e+09 -4.444091e+09 -4.604100e+09 1.580917e+03 -1.983604e+02 -6.857100e+02
-4.156937e+09 -3.956934e+09 -4.116939e+09 2.006171e+03 -3.695554e+02 -3.956802e+02
-3.740864e+09 -3.540863e+09 -3.700863e+09 2.595537e+01 -1.089337e+00 -4.512765e+00
-3.798026e+09 -3.598024e+09 -3.758025e+09 2.863655e+01 8.609621e+00 -1.427437e+01
-2.950678e+09 -2.750677e+09 -2.910677e+09 2.336872e+01 2.518931e+00 -2.957732e+00
-1.932813e+09 -1.732811e+09 -1.892812e+09 8.212468e+01 1.427187e+01 -2.007965e+01
-3.407282e+09 -3.207281e+09 -3.367281e+09 4.397773e+01 7.160479e+00 -1.054577e+01
-3.791912e+09 -3.591911e+09 -3.751911e+09 7.343222e+01 1.276359e+01 -5.314430e+00
-3.100861e+09 -2.900869e+09 -3.060864e+09 -1.253955e+02 -2.854012e+02 6.613191e+01
-1.929745e+09 -1.729753e+09 -1.889747e+09 -9.422069e+01 -1.857533e+02 7.859928e+01
-2.147474e+09 -1.947481e+09 -2.107475e+09 -5.364564e+02 -7.702114e+02 -6.973679e+01
-2.156069e+09 -1.956077e+09 -2.116070e+09 -1.975401e+02 -7.937036e+02 4.034833e+01
-2.635184e+09 -2.435192e+09 -2.595186e+09 -7.564283e+01 -2.535515e+02 3.498130e+01
-2.082660e+09 -1.882667e+09 -2.042661e+09 -6.626548e+02 -8.381989e+02 -4.283308e+00
-2.846386e+09 -2.646393e+09 -2.806388e+09 -2.936832e+02 -4.109071e+02 -1.993906e+01
-4.261581e+09 -4.061575e+09 -4.221595e+09 -1.368021e+03 -4.109317e+03 6.639223e+02
-4.629220e+09 -4.429218e+09 -4.589233e+09 -9.122228e+02 -1.265630e+03 3.669131e+02
-4.516237e+09 -4.316226e+09 -4.476247e+09 -2.827096e+03 -2.701598e+03 -1.280815e+03
-4.173003e+09 -3.972995e+09 -4.133014e+09 -1.856500e+03 -3.706577e+03 -1.692852e+03
-4.810086e+09 -4.610080e+09 -4.770097e+09 -1.726480e+03 -2.023770e+03 -3.159333e+02
-4.812548e+09 -4.612546e+09 -4.772560e+09 -1.443003e+03 -1.866029e+03 -1.756569e+02
-4.824408e+09 -4.624404e+09 -4.784417e+09 -1.508504e+03 -1.637897e+03 -5.086176e+02
-4.438980e+09 -4.238979e+09 -4.398978e+09 -3.073605e+02 -1.083365e+02 -2.498120e+01
-4.436649e+09 -4.236650e+09 -4.396649e+09 -6.519544e+02 -1.116084e+02 -8.451255e+00
-4.494460e+09 -4.294460e+09 -4.454460e+09 -7.884423e+02 -9.860819e+01 -3.159701e+01
-4.767842e+09 -4.567843e+09 -4.727842e+09 -1.012490e+03 -3.158157e+02 -7.055974e+01
-4.117939e+09 -3.917939e+09 -4.077938e+09 -1.039855e+03 -3.420212e+02 -1.432417e+02
-4.568926e+09 -4.368925e+09 -4.528925e+09 -5.313743e+02 -3.685468e+01 -7.801855e+01
-4.821035e+09 -4.621035e+09 -4.781042e+09 3.309849e+03 8.827828e+02 -1.141684e+03
-4.131933e+09 -3.931937e+09 -4.091938e+09 3.002611e+03 1.720902e+03 -2.369987e+02
-4.615303e+09 -4.415302e+09 -4.575315e+09 2.944017e+03 1.501710e+03 -6.504193e+02
-4.128431e+09 -3.928429e+09 -4.088441e+09 3.862795e+03 4.289376e+03 -2.948597e+03
-4.307145e+09 -4.107143e+09 -4.267153e+09 3.198695e+03 3.274086e+03 -1.815624e+03
-4.818054e+09 -4.618056e+09 -4.778062e+09 2.773046e+03 1.466589e+03 1.714899e+02
-4.301005e+09 -4.101003e+09 -4.261014e+09 2.812223e+03 3.578336e+03 -1.894993e+03
-4.310342e+09 -4.110341e+09 -4.270341e+09 8.769474e+01 4.531457e+01 -6.821429e+00
-4.254441e+09 -4.054440e+09 -4.214440e+09 4.665458e+01 2.924585e+01 -3.710094e+00
-4.632977e+09 -4.432976e+09 -4.592976e+09 -3.300371e+01 -1.476323e+01 -2.696652e+01
-4.144805e+09 -3.944804e+09 -4.104803e+09 4.527826e+01 -9.230700e+00 -4.779281e+01
-4.458504e+09 -4.258505e+09 -4.418505e+09 3.222654e+02 1.063714e+01 2.707152e+00
-4.488853e+09 -4.288854e+09 -4.448854e+09 2.667108e+02 1.890253e+01 -7.008375e+00
-4.297769e+09 -4.097771e+09 -4.257770e+09 1.548157e+02 -8.957582e+00 -1.881889e+01
-4.315153e+09 -4.115154e+09 -4.275154e+09 2.404383e+02 -5.448737e-01 -4.992396e+01
-4.153889e+09 -3.953890e+09 -4.113890e+09 2.927789e+02 1.212125e+01 7.042581e+01
-4.297312e+09 -4.097314e+09 -4.257313e+09 2.592362e+02 4.592960e+01 8.053689e+01
-4.821661e+09 -4.621662e+09 -4.781662e+09 2.972467e+02 2.045147e+01 -3.289124e+01
-4.990369e+09 -4.790371e+09 -4.950370e+09 4.958410e+02 -1.192545e+00 -7.305904e+01
-4.307490e+09 -4.107491e+09 -4.267490e+09 5.557647e+02 -5.408425e+00 -2.144503e+01
-4.136552e+09 -3.936553e+09 -4.096553e+09 4.811347e+02 3.594741e+01 6.605422e+01
-4.847160e+09 -4.647161e+09 -4.807161e+09 3.613065e+02 -9.621355e+00 -1.435881e+01
-4.984162e+09 -4.784164e+09 -4.944164e+09 3.055634e+02 6.747502e+00 -3.051247e+01
-4.281301e+09 -4.081301e+09 -4.241301e+09 4.464831e+02 3.783345e+00 -7.869493e+01
-4.116254e+09 -3.916255e+09 -4.076255e+09 5.256278e+02 4.680078e+01 2.325157e+01
-4.996622e+09 -4.796623e+09 -4.956623e+09 3.647224e+02 -6.961991e+00 -1.847836e+01
-4.160695e+09 -3.960696e+09 -4.120695e+09 3.628884e+02 2.743640e+01 9.941083e+00
-4.442869e+09 -4.242872e+09 -4.402869e+09 1.168008e+03 9.085330e+01 -1.648453e+01
-4.260051e+09 -4.060051e+09 -4.220051e+09 2.860731e+02 1.377875e+01 -5.157589e+01
-4.302700e+09 -4.102700e+09 -4.262700e+09 5.639433e+02 -1.405138e+01 -4.159290e+01
-4.815093e+09 -4.615093e+09 -4.775093e+09 4.048584e+02 2.732227e+01 -4.060958e+00
-4.304301e+09 -4.104301e+09 -4.264301e+09 3.911015e+02 -1.142984e+01 -5.869702e+01
-2.079558e+09 -1.879566e+09 -2.039561e+09 -1.798416e+03 -2.287226e+03 -3.117728e+02
-3.457197e+09 -3.257201e+09 -3.417199e+09 -1.351462e+03 -1.124132e+03 -3.173111e+01
-2.749037e+09 -2.549042e+09 -2.709038e+09 -1.574979e+02 -7.259787e+01 -3.606920e+01
-2.808924e+09 -2.608930e+09 -2.768925e+09 -1.095568e+02 -1.583460e+02 -4.993470e+01
-3.567833e+09 -3.367838e+09 -3.527835e+09 -1.195823e+03 -1.051605e+03 -1.937501e+02
-4.034955e+09 -3.834961e+09 -3.994958e+09 -1.006385e+03 -5.532084e+02 -2.342995e+02
-3.905643e+09 -3.705649e+09 -3.865645e+09 -1.159192e+02 -2.879692e+02 -2.760829e+01
-3.431644e+09 -3.231649e+09 -3.391646e+09 -7.545706e+02 -6.474122e+02 -1.112560e+02
-3.306167e+09 -3.106175e+09 -3.266171e+09 -6.209619e+02 -1.337139e+03 -1.645305e+02
-4.437071e+09 -4.237071e+09 -4.397071e+09 -1.799172e+01 -2.061406e+01 -2.390408e-01
-4.197758e+09 -3.997758e+09 -4.157758e+09 -3.287179e+02 -6.898162e-01 -1.505370e+00
-4.208307e+09 -4.008307e+09 -4.168307e+09 -2.095550e+02 -1.043241e+01 3.502999e+01
-3.724009e+09 -3.524008e+09 -3.684009e+09 -3.054568e+02 -3.101173e+01 4.070612e+01
-4.800161e+09 -4.600160e+09 -4.760160e+09 -2.537023e+02 2.091480e-01 5.528572e+01
-4.982659e+09 -4.782659e+09 -4.942659e+09 -1.201263e+02 2.564043e+01 -6.229684e-02
-4.068319e+09 -3.868319e+09 -4.028320e+09 -1.722113e+02 -7.918736e+00 -6.427591e+00
-4.823188e+09 -4.623195e+09 -4.783191e+09 -3.487130e+01 4.970416e+02 3.822374e+01
-4.313028e+09 -4.113036e+09 -4.273032e+09 1.562754e+02 7.133954e+02 9.677240e+00
-4.318236e+09 -4.118242e+09 -4.278241e+09 1.569854e+03 1.382915e+03 -8.038672e+01
-2.133406e+09 -1.933411e+09 -2.093406e+09 -3.160251e+02 1.769024e+02 -2.644177e+01
-4.835405e+09 -4.635412e+09 -4.795409e+09 1.032067e+03 6.701242e+02 -5.233473e+01
-4.324559e+09 -4.124566e+09 -4.284562e+09 6.509013e+02 6.238910e+02 5.897954e+01
-4.829809e+09 -4.629811e+09 -4.789810e+09 -5.213813e+02 1.810147e+01 -6.310060e+01
-4.312531e+09 -4.112532e+09 -4.272532e+09 -7.386270e+02 -9.719829e+00 -3.444879e+01
-4.814393e+09 -4.614394e+09 -4.774394e+09 -7.907153e+02 1.832179e+01 -7.692388e+01
-4.126476e+09 -3.926477e+09 -4.086477e+09 -6.326807e+02 -5.148365e+01 4.867937e+01
-4.648915e+09 -4.448916e+09 -4.608916e+09 -7.626524e+02 -3.807952e+01 4.347742e+01
-4.831635e+09 -4.631638e+09 -4.791644e+09 -1.281552e+03 -7.080352e+02 1.441740e+01
-4.819768e+09 -4.619769e+09 -4.779781e+09 -1.075943e+03 -1.202694e+03 1.074409e+02
-4.990557e+09 -4.790558e+09 -4.950570e+09 -8.128264e+02 -1.510631e+03 7.496293e+01
-4.135239e+09 -3.935242e+09 -4.095250e+09 -4.641872e+02 -3.471320e+03 5.187635e+02
-4.138269e+09 -3.938274e+09 -4.098279e+09 1.149192e+01 -3.459846e+03 3.812639e+02
-4.660846e+09 -4.460848e+09 -4.620857e+09 -1.295106e+03 -1.160853e+03 -3.635060e+01
-4.834279e+09 -4.634278e+09 -4.794278e+09 1.786133e+02 -3.398796e+00 -8.318437e+00
-4.982717e+09 -4.782716e+09 -4.942716e+09 2.101786e+02 -2.028614e+00 1.429408e+01
-4.639484e+09 -4.439484e+09 -4.599484e+09 2.483603e+02 7.029594e+00 -2.921110e+01
-4.296251e+09 -4.096251e+09 -4.256251e+09 2.383628e+02 1.999815e+00 -1.604911e+01
-4.491046e+09 -4.291045e+09 -4.451045e+09 1.657236e+02 9.746259e+00 -2.631719e+01
-4.436297e+09 -4.236296e+09 -4.396297e+09 2.524862e+02 -7.067769e+00 -1.761859e+01
-4.586697e+09 -4.386697e+09 -4.546697e+09 1.308773e+02 2.088079e+01 4.598799e+00
-3.123843e+09 -2.923842e+09 -3.083842e+09 3.377443e+01 1.338135e+01 -3.118282e+01
-3.166688e+09 -2.966687e+09 -3.126687e+09 3.613343e+01 -1.153522e+01 -3.198675e+01
-2.423926e+09 -2.223925e+09 -2.383925e+09 4.803999e+01 1.630404e+01 -3.639696e+01
-3.686037e+09 -3.486035e+09 -3.646036e+09 4.552760e+01 5.957340e+00 -2.714780e+01
-3.407923e+09 -3.207921e+09 -3.367922e+09 1.218113e+01 4.421048e+00 -8.187769e+00
-3.020791e+09 -2.820790e+09 -2.980790e+09 3.180369e+01 7.836115e+00 -1.021050e+01
-2.211354e+09 -2.011353e+09 -2.171353e+09 5.193188e+01 2.257309e+00 -3.008639e+00
-3.303986e+09 -3.103985e+09 -3.263985e+09 8.898284e+01 4.035857e+00 -7.994886e-01
-3.897633e+09 -3.697633e+09 -3.857632e+09 1.201419e+03 1.890580e+02 7.781850e+01
-4.450303e+09 -4.250304e+09 -4.410302e+09 1.566378e+03 1.917211e+02 9.301402e+00
-4.271691e+09 -4.071691e+09 -4.231691e+09 1.779905e+03 1.036078e+02 -2.281065e+02
-4.158222e+09 -3.958221e+09 -4.118221e+09 1.015250e+03 -1.160268e+01 -4.904606e+01
-4.036201e+09 -3.836200e+09 -3.996200e+09 1.659044e+03 2.840770e+02 -2.620050e+02
-4.195866e+09 -3.995865e+09 -4.155865e+09 1.160041e+03 2.162198e+02 -8.096758e+01
-4.307256e+09 -4.107251e+09 -4.267260e+09 2.275815e+03 1.964974e+03 -1.651198e+03
-4.645477e+09 -4.445474e+09 -4.605480e+09 2.856355e+03 8.858917e+02 -5.235450e+02
-4.819292e+09 -4.619289e+09 -4.779294e+09 2.634920e+03 2.549942e+02 1.958053e+02
-4.302788e+09 -4.102786e+09 -4.262791e+09 3.079304e+03 1.416226e+03 -1.065563e+03
-4.679706e+09 -4.479704e+09 -4.639706e+09 -3.303730e+02 -8.689307e+01 1.892587e+01
-4.837618e+09 -4.637616e+09 -4.797617e+09 -3.837349e+02 -6.363571e+01 1.296285e+02
-4.663914e+09 -4.463913e+09 -4.623914e+09 -5.021516e+02 -7.696943e+01 5.307028e+01
-4.321242e+09 -4.121241e+09 -4.281242e+09 -5.411672e+02 -1.190860e+02 7.692803e+01
-4.835332e+09 -4.635332e+09 -4.795326e+09 4.728508e+03 1.074081e+03 -5.200065e+02
-4.314397e+09 -4.114392e+09 -4.274392e+09 5.177312e+03 3.182215e+03 -2.382139e+02
-5.000863e+09 -4.800860e+09 -4.960859e+09 4.996187e+03 4.036176e+02 1.901247e+02
-4.154227e+09 -3.954225e+09 -4.114228e+09 4.105515e+03 7.226623e+02 -5.419099e+02
-4.638954e+09 -4.438948e+09 -4.598953e+09 3.640753e+03 6.544345e+02 -5.528596e+02
-4.626677e+09 -4.426675e+09 -4.586677e+09 -7.258959e+02 -1.655745e+02 2.078959e+02
-4.797116e+09 -4.597113e+09 -4.757116e+09 -1.040273e+03 -1.688620e+02 4.818218e+02
-4.082057e+09 -3.882054e+09 -4.042058e+09 -7.100646e+02 -4.587330e+02 5.426813e+02
-4.768523e+09 -4.568519e+09 -4.728524e+09 -7.959352e+02 -2.530499e+02 7.495216e+02
-2.144294e+09 -1.944293e+09 -2.104293e+09 -5.238920e+01 -9.275043e+00 -2.206320e+01
-4.855617e+09 -4.655617e+09 -4.815617e+09 -6.208987e+02 2.909626e+00 1.541495e+01
-4.656567e+09 -4.456565e+09 -4.616565e+09 -7.904620e+01 -3.721844e+01 -2.481423e+01
-2.180450e+09 -1.980449e+09 -2.140449e+09 -5.408420e+01 -1.117698e+01 -1.802269e+01
-2.591652e+09 -2.391650e+09 -2.551651e+09 -2.226253e+01 -2.880190e+00 -3.799084e+01
-3.368743e+09 -3.168742e+09 -3.328742e+09 -4.807595e+01 -2.561295e+00 -2.123238e+01
-2.140903e+09 -1.940902e+09 -2.100902e+09 -1.915599e+01 -7.489472e+00 -9.138063e+00
-2.961384e+09 -2.761383e+09 -2.921383e+09 -4.460861e+01 -1.056470e+01 -9.496972e+00
-3.338955e+09 -3.138954e+09 -3.298954e+09 -2.688117e+01 -4.229955e+00 -1.360052e+01
-4.629659e+09 -4.429661e+09 -4.589659e+09 -7.855903e+02 1.363358e+01 -2.573473e+01
-4.017539e+09 -3.817541e+09 -3.977539e+09 -6.377221e+02 5.824891e+01 -2.703808e+01
-3.829175e+09 -3.629178e+09 -3.789175e+09 -3.266417e+02 9.197599e+00 -6.292589e+01
-4.251471e+09 -4.051473e+09 -4.211470e+09 -3.632784e+02 6.598314e+01 -2.520561e+01
-4.697496e+09 -4.497499e+09 -4.657496e+09 -2.314092e+02 -1.113304e+02 -1.511096e+01
-3.736859e+09 -3.536861e+09 -3.696858e+09 -3.534685e+02 2.671415e+01 -7.784682e+01
-4.791421e+09 -4.591423e+09 -4.751421e+09 -3.327970e+02 7.972749e+01 -3.053352e+01
-4.838385e+09 -4.638391e+09 -4.798386e+09 1.204707e+03 -1.242534e+02 3.699350e+01
-4.320387e+09 -4.120393e+09 -4.280389e+09 6.486344e+02 1.644806e+02 -7.302880e+00
-4.132277e+09 -3.932283e+09 -4.092278e+09 8.822855e+02 2.185950e+01 1.536536e+01
-4.860543e+09 -4.660536e+09 -4.820507e+09 -2.494653e+03 2.822549e+03 -2.805355e+03
-4.682549e+09 -4.482537e+09 -4.642507e+09 -2.814098e+03 3.316949e+03 -1.900996e+03
-4.647972e+09 -4.447961e+09 -4.607934e+09 1.061074e+03 6.377858e+03 6.347844e+02
-4.629297e+09 -4.429296e+09 -4.589297e+09 -4.421154e+02 -9.092901e+00 -6.832160e+00
-2.568799e+09 -2.368808e+09 -2.528802e+09 2.230148e+02 -1.378874e+03 1.435375e+02
-4.123900e+09 -3.923899e+09 -4.083899e+09 -5.361254e+02 -5.893559e+01 -8.336043e+01
-4.079921e+09 -3.879920e+09 -4.039920e+09 -2.984526e+02 -3.591837e+01 3.101213e+00
-4.494109e+09 -4.294108e+09 -4.454108e+09 -2.576054e+02 -7.563383e+00 -9.773267e-01
-4.837342e+09 -4.637341e+09 -4.797341e+09 -3.109081e+02 -1.210228e+01 5.690138e+01
-4.150876e+09 -3.950875e+09 -4.110875e+09 -3.528289e+02 -2.550733e+01 -7.393806e+01
-4.822280e+09 -4.622283e+09 -4.782280e+09 -8.201374e+02 -7.678690e+01 -7.273019e+01
-3.866928e+09 -3.666930e+09 -3.826927e+09 -6.543957e+02 7.069269e+01 -2.836762e+01
-3.913457e+09 -3.713458e+09 -3.873456e+09 -5.817244e+02 -3.306095e+01 -6.720981e+01
-4.803417e+09 -4.603418e+09 -4.763416e+09 -6.310415e+02 5.409393e+01 -8.062513e+01
-4.797577e+09 -4.597579e+09 -4.757576e+09 -6.127261e+02 -9.677093e+01 -2.923171e+00
-2.815406e+09 -2.615407e+09 -2.775404e+09 1.461504e+02 -2.418584e+00 2.620168e+01
-2.205102e+09 -2.005104e+09 -2.165101e+09 1.137602e+02 -5.773704e-01 2.929936e+01
-2.037616e+09 -1.837618e+09 -1.997615e+09 4.373783e+02 -1.192363e+01 3.027972e+01
-2.326255e+09 -2.126256e+09 -2.286253e+09 3.329731e+02 -5.017867e+01 4.812553e+01
-1.889415e+09 -1.689416e+09 -1.849413e+09 2.037528e+02 -3.017168e+00 4.898757e+01
-1.824802e+09 -1.624803e+09 -1.784801e+09 1.367178e+02 -3.881530e+01 4.744788e+01
-2.001373e+09 -1.801374e+09 -1.961371e+09 3.721105e+02 -6.173564e+00 1.350692e+01
-4.441091e+09 -4.241098e+09 -4.401096e+09 -7.702022e+02 -9.568802e+02 -8.849114e+01
-4.846977e+09 -4.646984e+09 -4.806983e+09 -1.398317e+02 -9.151322e+02 -8.813856e+00
-4.649988e+09 -4.449996e+09 -4.609993e+09 3.032959e+02 -3.420556e+02 4.511829e+01
-4.160511e+09 -3.960518e+09 -4.120517e+09 -5.499219e+01 -1.110543e+03 8.116700e+01
-4.831255e+09 -4.631262e+09 -4.791260e+09 2.829182e+02 -2.069038e+02 5.682884e+01
-4.296165e+09 -4.096161e+09 -4.256178e+09 -1.173483e+03 -4.030564e+03 1.992803e+03
-4.793760e+09 -4.593753e+09 -4.753768e+09 -1.929293e+03 -1.441632e+03 8.036480e+02
-4.812152e+09 -4.612147e+09 -4.772159e+09 -2.062336e+03 -1.042807e+03 1.222359e+03
-4.293826e+09 -4.093820e+09 -4.253832e+09 -2.534243e+03 -1.430697e+03 2.106113e+03
-4.125686e+09 -3.925679e+09 -4.085694e+09 -1.954904e+03 -1.341471e+03 1.727992e+03
-4.107257e+09 -3.907256e+09 -4.067256e+09 -3.407651e+02 -3.620779e+01 -2.514444e+01
-3.286672e+09 -3.086676e+09 -3.246674e+09 1.372579e+03 -1.208374e+03 5.264322e+02
-3.271926e+09 -3.071930e+09 -3.231928e+09 9.789088e+02 -1.196010e+03 1.410594e+02
-3.725244e+09 -3.525247e+09 -3.685245e+09 8.619497e+02 -2.505317e+02 1.066320e+02
-4.245073e+09 -4.045076e+09 -4.205074e+09 6.140857e+02 -3.623527e+02 6.729554e+01
-3.262518e+09 -3.062521e+09 -3.222519e+09 1.024217e+03 -5.100250e+02 1.013323e+02
-2.886901e+09 -2.686901e+09 -2.846901e+09 -2.731415e+02 -5.443573e+01 -2.949687e+01
-4.837074e+09 -4.637074e+09 -4.797074e+09 -1.482387e+03 5.279171e+01 5.063476e+01
-3.967797e+09 -3.767797e+09 -3.927797e+09 -1.712465e+03 2.508637e+02 8.122045e+01
-4.134137e+09 -3.934138e+09 -4.094137e+09 -1.663247e+03 1.919669e+02 2.824683e+01
-4.829387e+09 -4.629387e+09 -4.789387e+09 -1.932111e+03 2.732938e+01 -7.474366e+01
-4.840829e+09 -4.640828e+09 -4.800829e+09 -1.634658e+03 -6.761890e+01 -1.225374e+01
-3.948458e+09 -3.748456e+09 -3.908457e+09 -1.292660e+03 6.333224e+01 8.628604e+01
-4.142921e+09 -3.942921e+09 -4.102922e+09 -2.011639e+03 6.339766e+02 4.503153e+02
-3.962340e+09 -3.762339e+09 -3.922339e+09 -1.444991e+02 -3.494183e+01 -1.180136e+01
-3.803023e+09 -3.603022e+09 -3.763022e+09 -2.431655e+02 -5.053330e+01 -4.749377e+01
-4.813207e+09 -4.613205e+09 -4.773206e+09 -2.370076e+02 -1.970022e+01 -7.322189e+01
-4.027795e+09 -3.827794e+09 -3.987794e+09 -2.455974e+02 -4.485034e+01 -4.598489e+01
-4.601490e+09 -4.401488e+09 -4.561489e+09 -1.097999e+02 -1.172893e+01 -2.934890e+01
-4.785406e+09 -4.585404e+09 -4.745405e+09 -2.091527e+02 -6.968492e+00 3.388222e+01
-2.139954e+09 -1.939960e+09 -2.099955e+09 -1.419447e+02 -1.687667e+02 -8.120150e+01
-4.215951e+09 -4.015951e+09 -4.175951e+09 8.294934e+01 1.297478e+01 1.502087e+00
-4.277526e+09 -4.077525e+09 -4.237525e+09 -4.495519e+01 5.805556e+01 4.552978e+00
-3.102216e+09 -2.902221e+09 -3.062217e+09 -5.082566e+02 -2.112627e+02 -1.511491e+02
-4.028747e+09 -3.828747e+09 -3.988746e+09 -8.615335e+01 1.223152e+01 -3.065882e+01
-4.603791e+09 -4.403790e+09 -4.563790e+09 -7.262727e+01 2.672176e+01 -1.807862e+01
-4.778585e+09 -4.578584e+09 -4.738584e+09 2.517548e+01 -6.525624e+00 -2.572399e+00
-4.798507e+09 -4.598506e+09 -4.758506e+09 -1.481632e+01 -1.073744e+01 -2.029634e+01
-2.856700e+09 -2.656699e+09 -2.816699e+09 -1.098757e+01 -3.028074e+00 -6.720448e+00
-3.800480e+09 -3.600479e+09 -3.760479e+09 -5.701008e+01 -7.642143e+00 -9.798733e+00
-2.716796e+09 -2.516794e+09 -2.676795e+09 -7.747766e+01 -1.125147e+01 -2.135008e+01
-4.474198e+09 -4.274196e+09 -4.434197e+09 -4.864343e+01 -6.475691e+00 -7.616876e+00
-3.754326e+09 -3.554325e+09 -3.714325e+09 -1.491075e+01 -1.484480e+00 -8.090556e+00
-4.801482e+09 -4.601481e+09 -4.761482e+09 -2.701740e+03 -2.402908e+02 -3.903588e+00
-4.115016e+09 -3.915015e+09 -4.075016e+09 -2.908534e+03 5.061874e+02 2.022615e+02
-4.433375e+09 -4.233374e+09 -4.393373e+09 -2.941649e+03 9.548045e+02 3.259259e+02
-4.811133e+09 -4.611131e+09 -4.771134e+09 -3.229109e+03 -2.896883e+02 5.349887e+02
-4.776607e+09 -4.576607e+09 -4.736606e+09 -3.261776e+03 1.028027e+03 -1.043431e+02
-3.918926e+09 -3.718925e+09 -3.878925e+09 -2.444031e+02 -3.753828e+01 -2.621870e+00
-4.601558e+09 -4.401558e+09 -4.561558e+09 -2.089989e+02 5.475802e+00 -8.166140e+01
-3.996803e+09 -3.796804e+09 -3.956804e+09 -3.236047e+02 -3.673024e+01 -3.794243e+01
-4.119818e+09 -3.919818e+09 -4.079818e+09 -4.441905e+02 -4.342199e+01 -8.649884e+00
-4.254462e+09 -4.054462e+09 -4.214462e+09 -3.855105e+02 -2.591942e+01 -6.171873e+01
-4.282813e+09 -4.082813e+09 -4.242813e+09 -5.126452e+02 -1.482615e+00 -1.839468e+01
-4.739336e+09 -4.539338e+09 -4.699339e+09 1.131303e+03 -7.240715e+01 2.553277e+02
-4.577042e+09 -4.377044e+09 -4.537046e+09 2.051223e+03 -1.439966e+02 -2.492679e+02
-3.434878e+09 -3.234883e+09 -3.394883e+09 9.513588e+02 1.999919e+01 3.595868e+02
-3.914016e+09 -3.714020e+09 -3.874020e+09 2.020792e+03 1.161514e+02 -1.144420e+01
-4.640846e+09 -4.440853e+09 -4.600851e+09 1.770499e+03 2.093806e+02 3.337510e+02
-4.482009e+09 -4.282016e+09 -4.442015e+09 1.113088e+03 1.294879e+02 1.417715e+01
-4.668027e+09 -4.468031e+09 -4.628031e+09 1.076073e+03 3.926553e+01 1.522149e+02
-3.004898e+09 -2.804898e+09 -2.964898e+09 -2.102679e+02 -2.557707e+01 -3.971929e+01
-2.114326e+09 -1.914334e+09 -2.074333e+09 3.402482e+02 -1.686271e+01 5.759118e+02
-1.566317e+09 -1.366322e+09 -1.526322e+09 4.246716e+02 -1.171842e+02 -1.135117e+02
-2.488564e+09 -2.288571e+09 -2.448571e+09 1.417755e+03 1.692967e+02 5.115000e+02
-2.363058e+09 -2.163065e+09 -2.323064e+09 1.170973e+03 4.096018e+02 5.846987e+02
-1.960873e+09 -1.760877e+09 -1.920878e+09 1.766144e+03 7.744714e+01 -2.987421e+02
-1.745327e+09 -1.545331e+09 -1.705333e+09 1.361046e+03 1.621075e+01 -4.442878e+02
-4.800850e+09 -4.600844e+09 -4.760855e+09 1.727577e+03 7.633857e+02 -5.358246e+01
-4.813909e+09 -4.613904e+09 -4.773917e+09 2.649443e+03 1.207127e+03 -1.626255e+03
-4.127443e+09 -3.927439e+09 -4.087450e+09 2.606516e+03 3.293759e+03 -1.665513e+03
-4.650377e+09 -4.450376e+09 -4.610384e+09 3.168589e+03 1.039385e+03 -5.624187e+02
-4.114386e+09 -3.914378e+09 -4.074391e+09 2.748976e+03 2.862026e+03 -3.240918e+03
-4.463809e+09 -4.263808e+09 -4.423808e+09 4.654630e+01 6.849605e+00 -3.689527e+00
-3.788428e+09 -3.588427e+09 -3.748427e+09 4.239776e+01 9.025301e+00 -1.025540e+01
-2.940092e+09 -2.740091e+09 -2.900091e+09 2.883560e+01 1.560582e+01 -1.507149e+01
-2.733269e+09 -2.533268e+09 -2.693268e+09 2.751386e+01 1.660893e+01 -7.027356e+00
-2.749813e+09 -2.549811e+09 -2.709812e+09 3.343189e+01 7.505339e+00 -1.417392e+01
-3.804368e+09 -3.604367e+09 -3.764368e+09 7.410655e+01 9.131945e+00 2.227379e+00
-4.079314e+09 -3.879313e+09 -4.039313e+09 5.567452e+01 1.667043e+00 -6.189333e+00
-3.904521e+09 -3.704520e+09 -3.864520e+09 4.222932e+01 7.912742e+00 -1.050800e+01
-2.142054e+09 -1.942053e+09 -2.102054e+09 -4.658008e+01 -1.719510e+01 4.117516e+00
-4.399484e+09 -4.199483e+09 -4.359483e+09 -1.098522e+02 -1.928257e+01 5.852918e-01
-4.356864e+09 -4.156863e+09 -4.316863e+09 -1.327913e+02 -4.969646e+00 5.437214e+00
-4.656168e+09 -4.456167e+09 -4.616167e+09 -1.918384e+02 4.673313e+00 9.597990e+00
-4.094835e+09 -3.894833e+09 -4.054834e+09 -7.642501e+01 1.213582e+00 1.356350e+01
-4.399381e+09 -4.199381e+09 -4.359379e+09 7.790653e+02 5.215409e+01 3.919570e+01
-4.666837e+09 -4.466838e+09 -4.626836e+09 7.584085e+02 2.172844e+01 -6.721736e+01
-4.445976e+09 -4.245976e+09 -4.405975e+09 3.315899e+02 2.990944e+01 -9.513141e-01
-3.956072e+09 -3.756072e+09 -3.916070e+09 8.265031e+02 -5.191985e+01 5.964677e+01
-1.986904e+09 -1.786901e+09 -1.946903e+09 -1.233624e+03 -8.933976e+02 -4.246299e+02
-3.611402e+09 -3.411403e+09 -3.571401e+09 4.904301e+02 1.288309e+02 -1.671241e+01
-3.220169e+09 -3.020168e+09 -3.180168e+09 5.516754e+01 2.795101e+00 -2.979290e+01
-3.055632e+09 -2.855631e+09 -3.015631e+09 2.648751e+01 6.843730e-01 -1.884214e+01
-3.333321e+09 -3.133320e+09 -3.293320e+09 9.586222e+01 5.559420e+00 -3.583600e+01
-2.218603e+09 -2.018602e+09 -2.178602e+09 4.083011e+01 -6.331893e+00 -2.741560e+01
-2.927527e+09 -2.727526e+09 -2.887526e+09 1.010750e+02 2.468077e+01 -3.454761e+01
-4.797889e+09 -4.597875e+09 -4.757861e+09 -1.709213e+03 -9.057838e+02 4.907943e+03
-4.159774e+09 -3.959766e+09 -4.119714e+09 -1.646727e+03 -3.465247e+03 -5.960774e+03
-4.360997e+09 -4.160993e+09 -4.320955e+09 1.273338e+02 -3.576211e+03 -1.670843e+03
-4.853060e+09 -4.653051e+09 -4.813022e+09 2.792913e+03 -9.579577e+02 -7.703019e+02
-4.846238e+09 -4.646234e+09 -4.806195e+09 7.701433e+02 -2.393187e+03 -1.622562e+02
-4.589526e+09 -4.389522e+09 -4.549525e+09 -5.366979e+01 -5.302933e+01 1.467441e+02
-4.971808e+09 -4.771803e+09 -4.931807e+09 -6.218668e+02 1.942869e+02 1.816830e+02
-5.008205e+09 -4.808204e+09 -4.968205e+09 -6.478234e+02 2.428552e+01 -1.845682e+01
-4.457393e+09 -4.257389e+09 -4.417393e+09 -1.743706e+03 4.292919e+02 6.057545e+02
-4.815025e+09 -4.615020e+09 -4.775024e+09 -3.532759e+02 3.349921e+01 -1.769602e+02
-4.114160e+09 -3.914156e+09 -4.074160e+09 -1.727968e+03 4.277638e+02 6.675080e+02
-4.128560e+09 -3.928554e+09 -4.088560e+09 -9.444742e+02 5.591044e+02 1.103847e+03
-4.788313e+09 -4.588312e+09 -4.748313e+09 1.109456e+03 2.882692e+01 1.956916e+01
-4.132686e+09 -3.932686e+09 -4.092686e+09 1.151584e+03 -1.214268e+01 -1.320155e+02
-3.966065e+09 -3.766067e+09 -3.926066e+09 1.044956e+03 4.706418e+01 -1.264828e+02
-3.955779e+09 -3.755781e+09 -3.915780e+09 8.020988e+02 -3.223740e+01 -1.869240e+02
-4.113292e+09 -3.913292e+09 -4.073292e+09 1.339112e+03 -1.757968e+01 -1.029909e+02
-4.299426e+09 -4.099425e+09 -4.259426e+09 1.465530e+03 -1.040866e+02 -2.204551e+02
-4.829174e+09 -4.629175e+09 -4.789174e+09 1.030356e+03 -3.535761e+01 -1.887106e+02
-2.025526e+09 -1.825526e+09 -1.985526e+09 9.627818e+01 1.779305e+01 1.979464e+01
-1.860374e+09 -1.660375e+09 -1.820375e+09 8.158808e+01 3.675013e+01 -4.103547e+01
-1.951377e+09 -1.751378e+09 -1.911378e+09 1.790775e+02 3.077254e+01 -3.385498e+01
-2.913630e+09 -2.713630e+09 -2.873630e+09 -1.726158e+02 -1.984188e+01 3.735512e+01
-1.786518e+09 -1.586519e+09 -1.746519e+09 1.629599e+02 1.522957e+01 -1.550348e+01
-2.246180e+09 -2.046181e+09 -2.206181e+09 1.585563e+02 2.688858e+01 -4.654608e+00
-1.586522e+09 -1.386523e+09 -1.546523e+09 1.105162e+02 5.811895e+01 -3.811683e+00
-2.172325e+09 -1.972326e+09 -2.132326e+09 1.432031e+02 2.617241e+01 -5.289844e+00
-4.648025e+09 -4.448024e+09 -4.608025e+09 -3.380416e+02 -4.950382e+01 -1.512975e+01
-4.326737e+09 -4.126736e+09 -4.286736e+09 -2.546172e+02 -9.277717e+01 5.394150e+01
-4.134407e+09 -3.934406e+09 -4.094407e+09 -5.511614e+02 -1.327979e+02 1.708198e+02
-4.664475e+09 -4.464473e+09 -4.624474e+09 -5.411641e+02 -6.843042e+01 1.147409e+01
-4.477640e+09 -4.277638e+09 -4.437639e+09 -6.346123e+02 -6.270876e+01 3.909195e+01
-2.900510e+09 -2.700509e+09 -2.860509e+09 -5.672319e+00 -1.113867e+01 -6.422739e+01
-2.709937e+09 -2.509936e+09 -2.669936e+09 -4.403090e+01 -3.698107e+01 -9.040995e+01
-3.929649e+09 -3.729648e+09 -3.889648e+09 -1.392675e+02 -1.808470e+01 -5.683854e+01
-3.000888e+09 -2.800887e+09 -2.960887e+09 -1.448315e+02 -2.899966e+01 -1.848256e+01
-3.671353e+09 -3.471352e+09 -3.631352e+09 -2.804734e+01 -3.720787e+01 -7.200657e+01
-3.851109e+09 -3.651108e+09 -3.811108e+09 -1.956779e+01 6.440846e+00 -2.505510e+01
-3.954912e+09 -3.754916e+09 -3.914914e+09 -5.670792e+02 1.725523e+02 -4.262261e+02
-4.797740e+09 -4.597744e+09 -4.757742e+09 -4.202938e+01 4.453536e+00 -4.409715e+02
-4.100457e+09 -3.900460e+09 -4.060457e+09 5.437454e+02 5.120020e+01 -5.538250e+02
-4.098164e+09 -3.898168e+09 -4.058165e+09 6.843237e+02 -3.157580e+01 -6.765817e+02
-4.252226e+09 -4.052229e+09 -4.212227e+09 4.309754e+02 -2.560676e+01 -6.067907e+02
-4.441397e+09 -4.241401e+09 -4.401399e+09 6.755214e+02 -2.277841e+01 -3.600154e+02
-3.959566e+09 -3.759567e+09 -3.919567e+09 -6.045253e+02 -2.684931e+01 4.934175e+01
-4.134038e+09 -3.934039e+09 -4.094039e+09 -5.157106e+02 -1.106894e+00 -3.805635e+01
-4.623943e+09 -4.423943e+09 -4.583943e+09 -5.429162e+02 -1.284766e+01 3.380623e+01
-4.819293e+09 -4.619294e+09 -4.779294e+09 -5.677654e+02 -3.675580e+01 3.848778e+01
-4.265548e+09 -4.065549e+09 -4.225549e+09 -3.907262e+02 -2.901361e+01 -3.541519e+01
-4.966569e+09 -4.766570e+09 -4.926565e+09 -2.462539e+03 3.761317e+02 -8.013654e+02
-4.477505e+09 -4.277508e+09 -4.437502e+09 -2.397155e+03 -3.858888e+02 -1.621230e+03
-3.936871e+09 -3.736870e+09 -3.896865e+09 -3.599543e+03 1.946308e+03 -1.110915e+03
-4.779846e+09 -4.579849e+09 -4.739841e+09 -2.008908e+03 8.208223e+02 -1.816817e+02
-4.093380e+09 -3.893383e+09 -4.053374e+09 -1.403223e+03 6.192086e+02 -2.782724e+03
-3.980807e+09 -3.780813e+09 -3.940808e+09 6.712676e+02 2.343257e+02 -3.523398e+01
-4.443360e+09 -4.243365e+09 -4.403360e+09 6.917640e+01 2.154135e+01 3.118622e+00
-4.015156e+09 -3.815162e+09 -3.975157e+09 1.983004e+02 3.484426e+01 3.232738e+01
-4.566220e+09 -4.366226e+09 -4.526221e+09 3.571881e+02 6.294010e+01 -4.943191e+01
-3.844250e+09 -3.644256e+09 -3.804251e+09 9.552643e+01 1.401273e+02 -1.766261e+01
-4.588423e+09 -4.388429e+09 -4.548424e+09 2.194316e+02 4.901194e+01 -2.045836e+01
-4.074629e+09 -3.874635e+09 -4.034630e+09 9.878950e+01 8.703636e+01 -1.011379e+01
-3.786180e+09 -3.586185e+09 -3.746180e+09 5.889443e+01 1.670058e+01 -1.749947e+01
-4.715173e+09 -4.515179e+09 -4.675174e+09 6.442714e+01 1.242955e+01 1.683646e+01
-2.484497e+09 -2.284496e+09 -2.444497e+09 -4.560678e+02 3.931753e+02 1.115154e+02
-2.797812e+09 -2.597812e+09 -2.757813e+09 -4.794806e+02 2.424895e+02 1.523328e+02
-2.856194e+09 -2.656197e+09 -2.816197e+09 -1.985451e+03 -1.456724e+02 5.521324e+01
-2.656824e+09 -2.456824e+09 -2.616823e+09 3.457047e+02 -4.046530e+01 -5.130096e+01
-4.993185e+09 -4.793184e+09 -4.953197e+09 -1.578655e+03 -1.653824e+03 -2.826050e+02
-3.567250e+09 -3.367247e+09 -3.527249e+09 -3.056128e+01 4.084331e+02 -1.892415e+02
-4.145169e+09 -3.945174e+09 -4.105179e+09 -1.118107e+03 -3.588114e+03 -2.574453e+02
-3.650303e+09 -3.450301e+09 -3.610303e+09 -2.106687e+02 -4.681015e+02 -1.168998e+02
-4.143232e+09 -3.943234e+09 -4.103243e+09 -1.877788e+03 -3.036836e+03 -4.050630e+02
-2.782498e+09 -2.582495e+09 -2.742496e+09 -9.911589e+02 -7.579339e+02 -3.194980e+02
-4.484166e+09 -4.284165e+09 -4.444174e+09 -2.471512e+03 -2.059673e+03 -6.442258e+02
-4.984188e+09 -4.784194e+09 -4.944192e+09 5.985039e+02 -3.941281e+02 4.289800e+01
-4.319755e+09 -4.119759e+09 -4.279763e+09 -1.358651e+03 -2.649869e+03 -2.433492e+02
-4.830228e+09 -4.630229e+09 -4.790235e+09 -1.845614e+03 -8.684396e+02 -3.026228e+02
-4.502135e+09 -4.302134e+09 -4.462135e+09 3.837918e+02 1.345496e+01 1.753009e+00
-4.997992e+09 -4.797991e+09 -4.957991e+09 3.484487e+02 -2.367509e+01 -5.827701e+01
-4.502135e+09 -4.302134e+09 -4.462135e+09 3.549147e+02 1.318920e+01 -3.376003e+01
-4.517233e+09 -4.317232e+09 -4.477233e+09 2.187973e+02 1.575277e+01 -1.632968e+01
-3.960337e+09 -3.760335e+09 -3.920337e+09 -1.009886e+03 -2.386981e+02 2.840358e+02
-4.998312e+09 -4.798311e+09 -4.958311e+09 1.963639e+02 -1.977717e+01 -6.954913e+00
-4.657087e+09 -4.457091e+09 -4.617087e+09 -1.142823e+03 6.644242e+01 3.223818e+01
-4.502455e+09 -4.302454e+09 -4.462455e+09 1.941896e+02 4.119226e+00 -2.455453e+00
-3.981653e+09 -3.781652e+09 -3.941652e+09 3.362557e+02 2.883197e+01 -6.822821e+01
-3.969249e+09 -3.769251e+09 -3.929250e+09 -2.683089e+02 -5.328182e+00 -1.658599e+01
-4.986012e+09 -4.786015e+09 -4.946014e+09 -2.997911e+02 -2.488608e+01 -2.938421e+00
-3.832179e+09 -3.632179e+09 -3.792178e+09 2.213774e+02 1.177041e+02 -1.123750e+01
-1.574534e+09 -1.374534e+09 -1.534532e+09 2.308771e+02 4.289396e+01 1.147900e+01
-4.308206e+09 -4.108208e+09 -4.268207e+09 -3.829796e+02 -4.310560e+00 -3.378948e+01
-4.142556e+09 -3.942558e+09 -4.102557e+09 -5.875891e+02 -2.602608e+01 8.603772e+01
-4.646205e+09 -4.446207e+09 -4.606206e+09 -4.387314e+02 5.030157e-01 9.926087e+00
-4.299408e+09 -4.099410e+09 -4.259409e+09 -2.678632e+02 -7.193419e+00 -2.306189e+01
-4.811609e+09 -4.611611e+09 -4.771610e+09 -3.413137e+02 5.665721e+00 -6.174126e+01
-4.277993e+09 -4.077991e+09 -4.237993e+09 1.921410e+03 2.584017e+02 -2.982476e+02
-1.643152e+09 -1.443151e+09 -1.603150e+09 9.671834e+02 3.715081e+02 -2.321909e+01
-4.788366e+09 -4.588363e+09 -4.748365e+09 1.485594e+03 -4.101731e+01 1.587071e+02
-3.968533e+09 -3.768538e+09 -3.928535e+09 -1.678114e+03 6.723546e+02 1.728165e+02
-4.643218e+09 -4.443215e+09 -4.603217e+09 1.786762e+03 3.443543e+02 -1.157958e+02
-4.003592e+09 -3.803588e+09 -3.963591e+09 1.232185e+03 6.944956e+02 -5.644970e+02
-4.815431e+09 -4.615428e+09 -4.775430e+09 -1.133088e+03 1.074062e+02 2.086895e+01
-3.681144e+09 -3.481143e+09 -3.641143e+09 -3.045756e+00 -2.428383e+00 2.210717e+00
-3.980487e+09 -3.780484e+09 -3.940486e+09 9.695419e+02 2.220801e+02 -1.153278e+02
-4.256812e+09 -4.056808e+09 -4.216811e+09 1.548510e+03 2.643569e+02 -4.183372e+02
-2.434520e+09 -2.234519e+09 -2.394520e+09 -8.759584e+01 -2.751997e+01 -4.912389e+01
-4.976221e+09 -4.776220e+09 -4.936221e+09 -4.529464e+02 6.488620e+00 -7.423694e+00
-3.782495e+09 -3.582494e+09 -3.742494e+09 -4.734961e+02 -3.276666e+02 -7.113595e+01
-4.450577e+09 -4.250576e+09 -4.410576e+09 -2.109595e+02 -1.045745e+02 -6.238189e+00
-2.897397e+09 -2.697396e+09 -2.857395e+09 -1.528564e+02 -2.538611e+02 -4.349162e+01
-2.426122e+09 -2.226121e+09 -2.386120e+09 -1.821451e+02 -6.192405e+01 -4.146408e+01
-2.925558e+09 -2.725557e+09 -2.885557e+09 9.859612e+00 4.788003e+00 -1.036535e+01
-3.879088e+09 -3.679087e+09 -3.839086e+09 -3.915232e+02 -3.153212e+01 -3.007290e+01
-4.492911e+09 -4.292910e+09 -4.452910e+09 -4.714416e+02 -1.630664e+02 9.172736e+00
-4.140173e+09 -3.940172e+09 -4.100172e+09 1.221912e+02 -3.932968e+01 -9.084557e+01
-3.726495e+09 -3.526495e+09 -3.686494e+09 -5.608479e+02 -2.212675e+02 -1.060725e+02
-3.167743e+09 -2.967743e+09 -3.127742e+09 -9.286414e+01 2.102261e+02 -1.608832e+00
-4.294701e+09 -4.094696e+09 -4.254704e+09 -2.546201e+03 -7.721337e+02 1.714635e+03
-4.292189e+09 -4.092180e+09 -4.252194e+09 -3.428765e+03 -2.296447e+03 3.711341e+02
-4.991584e+09 -4.791576e+09 -4.951591e+09 -2.811637e+03 -1.559668e+03 5.043830e+02
-4.929399e+09 -4.729398e+09 -4.889399e+09 0.000000e+00 3.053913e-01 -2.719275e+00
-4.800812e+09 -4.600807e+09 -4.760816e+09 -1.997207e+03 -1.095619e+03 1.326466e+03
-4.114346e+09 -3.914341e+09 -4.074350e+09 -2.346661e+03 -4.206920e+02 1.447551e+03
-4.813060e+09 -4.613055e+09 -4.773069e+09 -1.232809e+03 -2.215315e+02 1.788877e+02
-3.963620e+09 -3.763616e+09 -3.923625e+09 3.160264e+03 2.777678e+03 -2.006707e+03
-4.130024e+09 -3.930018e+09 -4.090030e+09 -2.255902e+03 -1.627710e+03 2.020165e+03
-4.420939e+09 -4.220938e+09 -4.380938e+09 -2.542791e+02 -1.757131e+01 -1.571959e+01
-4.081246e+09 -3.881245e+09 -4.041245e+09 -1.436852e+02 -1.190633e+01 -1.832262e+01
-3.008689e+09 -2.808688e+09 -2.968688e+09 -2.600765e+01 -6.835007e+00 -1.177599e+01
-3.958025e+09 -3.758030e+09 -3.918031e+09 2.886750e+03 1.734344e+03 -4.133609e+02
-2.198143e+09 -1.998141e+09 -2.158143e+09 1.433320e+02 -4.671471e+02 -3.167331e+02
-3.932264e+09 -3.732265e+09 -3.892265e+09 -3.112002e+02 -4.667944e+01 5.748966e+00
-3.831229e+09 -3.631228e+09 -3.791228e+09 -1.344066e+02 -1.981154e+01 -3.762599e+01
-4.713507e+09 -4.513505e+09 -4.673506e+09 -1.868085e+02 -1.229896e+00 1.634341e+01
-1.853994e+09 -1.653994e+09 -1.813994e+09 -1.728054e+02 -2.402161e+01 1.161135e+01
-3.952311e+09 -3.752309e+09 -3.912310e+09 -5.901333e+01 -8.426660e+00 -2.691681e+01
-2.964232e+09 -2.764230e+09 -2.924231e+09 -1.387050e+02 -1.671484e+01 -3.541152e+01
-4.618530e+09 -4.418529e+09 -4.578530e+09 -4.500656e+02 -2.881491e+01 4.597855e+01
-4.652767e+09 -4.452767e+09 -4.612767e+09 -9.635299e+02 -5.054861e+01 5.764494e+01
-4.816668e+09 -4.616667e+09 -4.776668e+09 -7.614922e+02 -9.589762e+00 2.826849e+01
-3.874168e+09 -3.674167e+09 -3.834167e+09 -2.426758e+02 -4.056781e+01 -7.227537e+01
-4.500477e+09 -4.300477e+09 -4.460477e+09 -8.805959e+02 -4.181122e+01 5.937224e-01
-3.129501e+09 -2.929502e+09 -3.089502e+09 -3.836495e+02 -3.314020e+01 -2.197005e+01
-4.157245e+09 -3.957244e+09 -4.117244e+09 -7.876747e+02 -3.816462e+01 -7.701789e+01
-4.467132e+09 -4.267131e+09 -4.427132e+09 -6.299779e+02 -4.709335e+01 -3.794462e+00
-4.140549e+09 -3.940548e+09 -4.100549e+09 -6.137497e+02 -4.265819e+01 6.031223e+01
-4.475308e+09 -4.275306e+09 -4.435307e+09 7.894762e+01 2.717439e+01 -2.299015e+01
-4.984513e+09 -4.784515e+09 -4.944515e+09 6.105509e+01 -4.657714e+00 -2.536265e+00
-4.650398e+09 -4.450397e+09 -4.610397e+09 2.026657e+02 4.167676e+01 -3.363934e+01
-4.287383e+09 -4.087382e+09 -4.247382e+09 9.326427e+01 -9.113381e+00 -2.052406e+01
-3.958037e+09 -3.758036e+09 -3.918036e+09 2.808248e+02 4.238782e+01 -4.764109e+01
-4.169309e+09 -3.969307e+09 -4.129308e+09 3.575292e+02 9.271908e+01 3.213212e+01
-4.968060e+09 -4.768059e+09 -4.928059e+09 7.768500e+01 -6.069826e+00 4.208829e-01
-4.987735e+09 -4.787734e+09 -4.947734e+09 3.779670e+02 -1.003643e+01 1.598660e+00
-3.057575e+09 -2.857576e+09 -3.017576e+09 1.288308e+01 1.061807e+01 2.055522e+00
-3.958037e+09 -3.758036e+09 -3.918036e+09 3.855093e+02 6.842286e+01 -5.185017e+01
-4.115824e+09 -3.915823e+09 -4.075823e+09 2.383592e+02 -4.833062e+01 -1.290482e+02
-4.309449e+09 -4.109451e+09 -4.269450e+09 7.311389e+01 7.921009e+00 -5.691151e+00
-3.324473e+09 -3.124474e+09 -3.284474e+09 2.371381e+02 1.319375e+00 1.354532e+01
-4.315391e+09 -4.115393e+09 -4.275393e+09 -1.950574e+02 -5.666842e+00 -2.463871e+01
-4.481659e+09 -4.281662e+09 -4.441661e+09 2.150467e+02 9.250506e+00 -3.235922e+00
-5.002829e+09 -4.802828e+09 -4.962828e+09 1.019958e+02 -1.508188e+01 1.323558e+01
-3.164550e+09 -2.964551e+09 -3.124551e+09 -3.734045e+02 -3.349354e+01 -2.119550e+01
-2.772469e+09 -2.572470e+09 -2.732470e+09 -4.186795e+00 -1.108637e+01 4.623843e+00
-1.590007e+09 -1.390007e+09 -1.550006e+09 7.186622e+01 -1.817310e+02 -1.293918e+02
-1.575896e+09 -1.375896e+09 -1.535895e+09 2.224556e+02 -1.666215e+02 -1.453682e+02
-4.132161e+09 -3.932163e+09 -4.092162e+09 3.368262e+02 3.642689e+01 4.090926e+00
-1.674129e+09 -1.474128e+09 -1.634128e+09 -1.766456e+02 -8.727367e+01 -5.128315e+01
-3.962920e+09 -3.762922e+09 -3.922922e+09 2.868338e+01 3.017558e+01 -1.566045e+01
-4.616259e+09 -4.416261e+09 -4.576261e+09 -5.598185e+00 -4.699115e+00 -1.485176e-01
-3.107387e+09 -2.907386e+09 -3.067386e+09 -1.243231e+02 -1.093931e+01 -3.588912e+01
-4.813248e+09 -4.613250e+09 -4.773249e+09 1.758011e+02 -3.696546e+00 -7.917654e+00
-4.481327e+09 -4.281329e+09 -4.441328e+09 6.719777e+01 5.232874e+00 -1.850179e+00
-4.481659e+09 -4.281661e+09 -4.441661e+09 2.888513e+02 5.579281e+00 -1.527253e+01
-4.983519e+09 -4.783520e+09 -4.943520e+09 -1.702879e+02 4.593701e+00 -1.252602e+00
-4.126782e+09 -3.926784e+09 -4.086783e+09 1.698805e+02 5.613784e+00 2.595841e+01
-3.701082e+09 -3.501087e+09 -3.661084e+09 -4.651049e+02 -1.698228e+02 2.230127e+01
-4.517248e+09 -4.317256e+09 -4.477252e+09 8.264700e+01 -1.512138e+02 1.143670e+01
-2.106905e+09 -1.906908e+09 -2.066905e+09 7.130376e+01 -4.986224e+01 4.337755e+01
-4.944589e+09 -4.744588e+09 -4.904588e+09 -1.441456e+01 -3.957901e+01 3.789403e+01
-4.125298e+09 -3.925297e+09 -4.085298e+09 5.846146e+02 -3.378879e+02 4.100084e+02
-4.990733e+09 -4.790737e+09 -4.950735e+09 -5.360003e+02 -5.556746e+01 -1.570158e+02
-2.804082e+09 -2.604089e+09 -2.764085e+09 -1.311004e+03 -1.690916e+03 -2.272838e+02
-3.890087e+09 -3.690091e+09 -3.850089e+09 -1.042625e+03 -4.038911e+02 -8.132488e+01
-4.445145e+09 -4.245149e+09 -4.405146e+09 -1.144744e+02 -7.336933e+01 -1.725951e+01
-4.696611e+09 -4.496610e+09 -4.656609e+09 -4.569901e+00 -4.759946e+01 -1.221921e+01
-4.621402e+09 -4.421408e+09 -4.581406e+09 -6.577263e+02 -3.051877e+02 -9.634391e+01
-4.629576e+09 -4.429582e+09 -4.589578e+09 -1.742905e+02 3.989912e+01 3.789505e+01
-4.551481e+09 -4.351486e+09 -4.511483e+09 -6.767084e+02 -2.273602e+02 -5.191245e+01
-2.811173e+09 -2.611179e+09 -2.771174e+09 6.739662e+02 -5.435959e+02 2.018945e+02
-4.903433e+09 -4.703439e+09 -4.863435e+09 -3.977942e+02 -6.436392e+01 -4.672586e+01
-4.468269e+09 -4.268264e+09 -4.428272e+09 7.401236e+02 -5.914288e+02 -1.210403e+03
-3.945317e+09 -3.745318e+09 -3.905318e+09 5.134281e+02 3.160832e+01 3.674225e+01
-1.919677e+09 -1.719676e+09 -1.879678e+09 -2.157563e+02 -6.954244e+02 -1.035575e+02
-4.840692e+09 -4.640691e+09 -4.800693e+09 3.685176e+03 6.398270e+00 6.588198e+02
-4.300360e+09 -4.100361e+09 -4.260361e+09 7.560447e+02 -5.209211e+00 -1.314707e+02
-4.318756e+09 -4.118752e+09 -4.278758e+09 3.765745e+03 4.446323e+02 -1.771045e+02
-4.002295e+09 -3.802300e+09 -3.962295e+09 -1.081405e+01 -5.181119e+01 -1.758132e+01
-4.804500e+09 -4.604494e+09 -4.764502e+09 1.551361e+03 -1.683114e+02 -5.169093e+02
-4.300864e+09 -4.100858e+09 -4.260866e+09 1.593163e+03 -4.157016e+02 -9.231671e+02
-4.664700e+09 -4.464696e+09 -4.624701e+09 2.142572e+03 -2.107540e+02 -4.686833e+02
-4.126559e+09 -3.926564e+09 -4.086559e+09 5.408120e+02 -1.041615e+01 2.687459e+01
-1.636074e+09 -1.436077e+09 -1.596073e+09 9.150070e+01 3.671014e+01 5.171564e+01
-4.569655e+09 -4.369660e+09 -4.529656e+09 5.413489e+02 2.754674e+01 -4.781447e+01
-4.334660e+09 -4.134666e+09 -4.294662e+09 -2.487047e+02 3.412884e+02 2.608716e+01
-4.641251e+09 -4.441250e+09 -4.601250e+09 -4.577921e+02 3.048689e+00 -6.921383e+01
-4.705717e+09 -4.505722e+09 -4.665717e+09 2.396770e+02 -6.258531e+01 1.250838e+01
-4.304793e+09 -4.104791e+09 -4.264792e+09 -3.352567e+02 -1.014306e+02 3.153491e+01
-3.932972e+09 -3.732976e+09 -3.892972e+09 7.787851e+02 4.670907e+01 4.416802e+01
-4.809425e+09 -4.609429e+09 -4.769425e+09 7.687534e+02 -7.638372e+01 -4.987018e+01
-4.759071e+09 -4.559076e+09 -4.719071e+09 4.173560e+02 -5.536137e+01 5.102787e+01
-4.287981e+09 -4.087981e+09 -4.247981e+09 1.057560e+03 -1.047905e+02 -3.276547e+02
-4.009463e+09 -3.809467e+09 -3.969463e+09 3.164324e+02 3.351857e+01 2.853757e+01
-3.994537e+09 -3.794539e+09 -3.954539e+09 -3.277308e+02 3.422397e+00 1.577664e+00
-4.461436e+09 -4.261443e+09 -4.421434e+09 -2.138238e+03 -1.834776e+00 1.458645e+03
-1.859636e+09 -1.659633e+09 -1.819633e+09 8.277210e+02 4.123851e+02 -1.851375e+02
-4.992795e+09 -4.792791e+09 -4.952797e+09 -2.457860e+03 5.370269e+02 4.228558e+02
-4.145313e+09 -3.945314e+09 -4.105314e+09 -2.889496e+02 3.833357e+00 -4.995771e+00
-4.196239e+09 -3.996240e+09 -4.156240e+09 -3.451230e+02 -9.480757e+00 -6.728730e+00
-3.956072e+09 -3.756074e+09 -3.916072e+09 1.501584e+03 -3.239638e+01 -4.718523e+02
-4.812942e+09 -4.612943e+09 -4.772942e+09 -6.190214e+02 2.025955e+01 -3.433095e+01
-4.984610e+09 -4.784614e+09 -4.944612e+09 -1.009346e+03 6.525243e+00 -1.952536e+02
-4.995213e+09 -4.795214e+09 -4.955214e+09 -4.383734e+02 -1.262350e+00 -3.303916e+01
-4.783491e+09 -4.583492e+09 -4.743492e+09 -3.661560e+02 -2.421365e+01 4.983826e+01
-4.133582e+09 -3.933580e+09 -4.093587e+09 3.985285e+03 2.558394e+03 -2.417376e+03
-4.820591e+09 -4.620590e+09 -4.780594e+09 3.181746e+03 6.517875e+02 -7.594678e+02
-4.695664e+09 -4.495668e+09 -4.655665e+09 2.964825e+02 1.299357e+02 -3.788841e+01
-3.025538e+09 -2.825545e+09 -2.985542e+09 1.326051e+03 -1.901223e+03 5.122500e+02
-4.996328e+09 -4.796327e+09 -4.956327e+09 -2.162321e+02 -5.624531e+01 3.654616e+01
-4.962753e+09 -4.762754e+09 -4.922754e+09 -1.314181e+03 5.880875e+00 -1.742021e+02
-4.134914e+09 -3.934915e+09 -4.094918e+09 3.755708e+03 1.811722e+03 -1.186607e+03
-1.889931e+09 -1.689935e+09 -1.849931e+09 -3.259654e+02 -2.437851e+01 1.969413e+01
-4.639642e+09 -4.439633e+09 -4.599635e+09 -4.422199e+03 -2.016558e+03 1.515372e+03
-4.134682e+09 -3.934677e+09 -4.094684e+09 2.512735e+03 1.768917e+03 -2.024009e+03
-2.218537e+09 -2.018539e+09 -2.178538e+09 2.575726e+02 9.291225e+00 1.556426e+01
-4.993319e+09 -4.793315e+09 -4.953324e+09 2.730609e+03 7.416271e+02 -5.279307e+02
-4.994980e+09 -4.794983e+09 -4.954981e+09 -1.762674e+03 1.598849e+02 8.344144e+01
-4.307233e+09 -4.107234e+09 -4.267233e+09 5.978883e+02 -5.206473e+00 -9.055761e+01
-4.134125e+09 -3.934125e+09 -4.094128e+09 3.145001e+03 1.200135e+03 -4.287709e+02
-4.318272e+09 -4.118272e+09 -4.278272e+09 -6.349586e+02 -5.929738e+00 -8.787460e+00
-4.626046e+09 -4.426046e+09 -4.586046e+09 -5.110662e+02 -2.449180e+01 4.025661e+01
-4.259798e+09 -4.059797e+09 -4.219797e+09 -3.175949e+02 -4.731550e+00 -5.484270e+01
-4.809222e+09 -4.609221e+09 -4.769222e+09 -4.535328e+02 -2.950361e+01 -3.029790e+00
-3.877946e+09 -3.677945e+09 -3.837946e+09 1.206644e+00 -2.841096e+00 -2.616765e+00
-4.806284e+09 -4.606284e+09 -4.766284e+09 -4.011806e+02 3.867721e+00 -8.774528e+00
-4.474840e+09 -4.274841e+09 -4.434839e+09 -8.161786e+02 7.596484e+00 -2.515138e+01
-3.967278e+09 -3.767277e+09 -3.927277e+09 -4.399005e+02 -4.606079e+01 -4.973836e+00
-2.169610e+09 -1.969610e+09 -2.129609e+09 -2.892895e+01 3.561495e+00 -5.704565e+01
-4.641575e+09 -4.441578e+09 -4.601576e+09 -5.890842e+02 3.077984e+01 -5.152709e+01
-2.639849e+09 -2.439849e+09 -2.599848e+09 -7.660690e+01 8.785950e+01 -6.492345e+01
-2.826183e+09 -2.626183e+09 -2.786182e+09 -4.990506e+01 3.115618e+01 -6.386234e+01
-2.991811e+09 -2.791811e+09 -2.951810e+09 2.112224e+01 -1.226870e+01 -5.232606e+01
-4.305245e+09 -4.105245e+09 -4.265245e+09 -1.229009e+02 -1.070521e+01 6.331298e+00
-1.675470e+09 -1.475470e+09 -1.635469e+09 -9.969811e+01 8.494447e+00 -9.495943e+01
-1.923142e+09 -1.723142e+09 -1.883141e+09 -3.036049e+01 -2.582690e+01 -6.452388e+01
-4.819152e+09 -4.619151e+09 -4.779151e+09 1.079051e+03 -2.242704e+01 -1.218158e+01
-4.320411e+09 -4.120409e+09 -4.280410e+09 9.097651e+02 6.212131e+01 -1.528741e+01
-3.977178e+09 -3.777176e+09 -3.937177e+09 9.368509e+02 5.423657e+01 -7.053668e+01
-4.905172e+09 -4.705177e+09 -4.865173e+09 -2.022896e+01 9.946876e-05 1.999942e+01
-4.675796e+09 -4.475797e+09 -4.635796e+09 2.451760e+03 1.458802e+02 -3.753150e+01
-4.823926e+09 -4.623927e+09 -4.783928e+09 2.888792e+03 3.953085e+02 -2.989262e+02
-4.843668e+09 -4.643670e+09 -4.803669e+09 2.437240e+03 1.629259e+02 4.846964e+01
-4.157203e+09 -3.957204e+09 -4.117204e+09 2.659721e+03 5.764557e+02 -3.977616e+02
-2.000894e+09 -1.800893e+09 -1.960893e+09 9.026575e+01 1.450013e+01 -2.952611e+01
-4.934330e+09 -4.734329e+09 -4.894329e+09 5.525965e+01 1.480327e+00 5.353051e+00
-4.960869e+09 -4.760869e+09 -4.920868e+09 -6.333148e+01 -9.866799e+00 -8.441532e-01
-3.990757e+09 -3.790756e+09 -3.950756e+09 6.934814e+01 1.761197e+01 -9.609567e-01
-2.894729e+09 -2.694729e+09 -2.854729e+09 9.263964e+01 2.196486e+01 -6.083578e+00
-3.495179e+09 -3.295177e+09 -3.455178e+09 5.671853e+01 2.401350e+01 -2.001638e+01
-3.823026e+09 -3.623025e+09 -3.783026e+09 1.144880e+02 3.112715e+01 -1.631221e+01
-4.148157e+09 -3.948156e+09 -4.108156e+09 7.727961e+01 1.223536e+00 -3.771733e+00
-1.589813e+09 -1.389816e+09 -1.549813e+09 -2.893356e+02 1.381726e+02 -1.277755e+02
-4.669705e+09 -4.469704e+09 -4.629705e+09 6.560322e+01 -1.652545e+00 5.003592e+00
-5.005328e+09 -4.805330e+09 -4.965328e+09 -9.708968e+02 1.014100e+01 2.222514e+01
-3.644980e+09 -3.444985e+09 -3.604980e+09 7.085992e+02 4.109538e+01 -2.756095e+01
-5.014392e+09 -4.814395e+09 -4.974393e+09 2.288738e+03 1.979936e+02 -1.041859e+02
-4.462425e+09 -4.262425e+09 -4.422425e+09 7.630432e+01 1.494173e+01 1.032486e+01
-4.996885e+09 -4.796888e+09 -4.956886e+09 -1.285235e+03 6.399379e+01 7.710963e+01
-4.588246e+09 -4.388246e+09 -4.548246e+09 7.933175e+01 9.004678e+00 3.974705e+01
-2.903655e+09 -2.703654e+09 -2.863654e+09 -3.278072e+01 2.619790e+01 -5.893442e+01
-4.989808e+09 -4.789808e+09 -4.949808e+09 -2.050856e+03 -6.384294e+00 7.236521e+01
-4.477512e+09 -4.277506e+09 -4.437516e+09 -3.136637e+03 1.974088e+03 2.114232e+03
-4.791434e+09 -4.591433e+09 -4.751433e+09 8.377907e+01 1.291139e+01 1.925422e+01
-4.130821e+09 -3.930820e+09 -4.090822e+09 9.800148e+02 -9.757660e+02 9.911054e+02
-4.305883e+09 -4.105880e+09 -4.265891e+09 1.431487e+02 -2.752451e+03 1.845693e+03
-4.288195e+09 -4.088201e+09 -4.248197e+09 -3.179590e+02 1.295910e+02 4.527148e+01
-1.598966e+09 -1.398965e+09 -1.558964e+09 -3.611114e+02 -2.535569e+02 -3.387014e+01
-4.818542e+09 -4.618540e+09 -4.778547e+09 8.618240e+02 -4.890426e+02 7.641737e+02
-4.783999e+09 -4.583995e+09 -4.744002e+09 -5.408432e+02 -5.339574e+02 7.159269e+02
-2.022203e+09 -1.822202e+09 -1.982202e+09 -1.902802e+02 -9.450907e+01 -8.651699e+01
-4.988591e+09 -4.788587e+09 -4.948597e+09 -6.356497e+02 -1.022203e+03 6.170591e+02
-1.605929e+09 -1.405928e+09 -1.565928e+09 -1.088958e+02 -2.699888e+01 -7.045679e+01
-4.132076e+09 -3.932075e+09 -4.092081e+09 1.131528e+03 -1.756490e+03 1.028816e+03
-4.097534e+09 -3.897530e+09 -4.057536e+09 -1.866101e+02 -9.830911e+02 1.249229e+03
-3.608765e+09 -3.408764e+09 -3.568765e+09 8.961155e+01 7.698247e+00 -2.055621e+01
-5.000487e+09 -4.800489e+09 -4.960496e+09 -1.612724e+03 -1.292872e+03 -8.287639e+01
-2.496687e+09 -2.296687e+09 -2.456686e+09 -7.978850e+02 -5.110630e+02 -1.288025e+02
-3.014035e+09 -2.814036e+09 -2.974036e+09 8.468307e+01 1.766613e+01 3.750419e+00
-3.207924e+09 -3.007923e+09 -3.167923e+09 3.103409e+01 -6.447039e-01 -7.560399e+00
-4.310044e+09 -4.110046e+09 -4.270050e+09 -1.764224e+03 -2.355123e+03 -5.375824e+02
-4.484165e+09 -4.284165e+09 -4.444173e+09 -1.001563e+03 -2.070588e+03 -6.477644e+02
-4.819359e+09 -4.619361e+09 -4.779364e+09 -1.878317e+03 -1.106085e+03 -1.711512e+02
-4.327046e+09 -4.127048e+09 -4.287051e+09 -2.031739e+03 -1.785007e+03 -7.228884e+02
-2.772780e+09 -2.572782e+09 -2.732781e+09 -2.224613e+00 -7.267995e-01 4.258853e+00
-4.519152e+09 -4.319149e+09 -4.479158e+09 -2.297132e+03 -1.549060e+03 -6.447744e+02
-1.581653e+09 -1.381653e+09 -1.541653e+09 1.995598e+02 4.231992e+01 -1.699221e+01
-3.985197e+09 -3.785197e+09 -3.945201e+09 -2.273378e+03 -1.645486e+03 -1.032393e+03
-4.294301e+09 -4.094294e+09 -4.254292e+09 4.616376e+03 8.755077e+02 3.460792e+03
-4.642159e+09 -4.442166e+09 -4.602146e+09 -2.266659e+03 -7.828368e+02 2.489110e+03
-4.983227e+09 -4.783236e+09 -4.943231e+09 -3.310057e+02 1.397350e+02 2.144356e+02
-4.637178e+09 -4.437181e+09 -4.597179e+09 -3.677019e+03 7.528014e+00 7.969203e+02
-4.303677e+09 -4.103676e+09 -4.263677e+09 -4.171843e+03 -6.962707e+02 5.966429e+02
-4.456100e+09 -4.256103e+09 -4.416084e+09 5.337730e+03 7.251948e+03 2.673496e+03
-4.464568e+09 -4.264566e+09 -4.424561e+09 -5.388096e+03 -1.790889e+03 1.437559e+03
-4.120793e+09 -3.920804e+09 -4.080788e+09 -1.917194e+03 -7.411812e+02 6.892530e+03
-4.978752e+09 -4.778753e+09 -4.938751e+09 3.388982e+02 1.089147e+00 -5.318583e+00
-3.958025e+09 -3.758030e+09 -3.918031e+09 3.224094e+03 2.347287e+03 -7.708215e+02
-4.981649e+09 -4.781652e+09 -4.941651e+09 -6.039056e+02 -2.440285e+01 9.736212e-01
-4.625122e+09 -4.425132e+09 -4.585118e+09 -1.601378e+03 -2.478282e+02 2.134417e+03
-4.804669e+09 -4.604677e+09 -4.764670e+09 -2.053948e+03 -1.360581e+02 5.661183e+02
-1.576290e+09 -1.376292e+09 -1.536292e+09 -1.005765e+02 -3.624557e+01 -3.082922e+00
-3.950846e+09 -3.750848e+09 -3.910847e+09 -1.547593e+03 -6.316900e+01 -1.251190e+02
-4.812202e+09 -4.612201e+09 -4.772201e+09 3.872061e+02 1.670869e+01 2.784825e+01
-4.807262e+09 -4.607270e+09 -4.767254e+09 -1.422968e+03 -2.529376e+02 6.295282e+02
-2.645523e+09 -2.445524e+09 -2.605522e+09 -2.449254e+02 7.090287e+01 -5.883875e+01
-3.751078e+09 -3.551078e+09 -3.711077e+09 1.863729e+02 -2.109575e+02 2.013253e+01
-4.561570e+09 -4.361569e+09 -4.521569e+09 9.260023e+01 -2.356939e+01 -1.926977e+01
-4.218337e+09 -4.018336e+09 -4.178336e+09 1.294865e+02 -2.780896e+02 1.012716e+02
-3.958433e+09 -3.758440e+09 -3.918440e+09 -1.953803e+03 1.939661e+03 4.907614e+02
-2.897120e+09 -2.697118e+09 -2.857118e+09 -2.918436e+01 -1.030146e+02 -2.433911e+01
-4.996730e+09 -4.796730e+09 -4.956730e+09 2.737502e+02 -2.375208e+01 -3.145025e+01
-4.251257e+09 -4.051256e+09 -4.211256e+09 1.329407e+02 -1.101911e+02 8.918571e+01
-3.645493e+09 -3.445501e+09 -3.605496e+09 4.941535e+01 -1.569710e+02 3.922570e+01
-4.744021e+09 -4.544021e+09 -4.704020e+09 2.035829e+02 8.125994e+00 4.728765e+01
-4.304143e+09 -4.104141e+09 -4.264142e+09 -8.740404e+02 -1.242039e+02 1.317948e+02
-4.290908e+09 -4.090911e+09 -4.250910e+09 -4.161168e+02 -1.996918e+01 -6.852995e+01
-4.651286e+09 -4.451284e+09 -4.611285e+09 -9.420825e+02 -8.034551e+01 2.670596e+01
-4.981524e+09 -4.781523e+09 -4.941523e+09 2.098409e+02 -6.609366e+01 5.734790e+01
-4.824778e+09 -4.624776e+09 -4.784777e+09 -5.068756e+02 -4.119286e+01 1.097781e+02
-3.964317e+09 -3.764316e+09 -3.924316e+09 -4.141744e+02 -1.082282e+02 4.510686e+01
-4.496068e+09 -4.296074e+09 -4.456069e+09 -1.065601e+02 1.131874e+02 -1.958552e+01
-4.820873e+09 -4.620871e+09 -4.780872e+09 -6.134495e+02 -1.232298e+01 -8.103779e+01
-4.820312e+09 -4.620310e+09 -4.780312e+09 -6.753445e+02 -7.840939e+01 2.064841e+02
-3.954584e+09 -3.754583e+09 -3.914583e+09 -1.113544e+03 4.647277e+01 1.701580e-01
-2.432660e+09 -2.232657e+09 -2.392658e+09 -4.196696e+02 -3.261808e+02 -3.123775e+01
-4.986534e+09 -4.786532e+09 -4.946538e+09 5.380149e+02 -6.188106e+02 4.777504e+02
-3.052776e+09 -2.852773e+09 -3.012774e+09 -1.225681e+02 -3.809613e+02 -3.074812e+01
-2.191715e+09 -1.991712e+09 -2.151713e+09 -5.667981e+02 -4.753338e+02 -1.994027e+02
-5.001632e+09 -4.801635e+09 -4.961634e+09 7.065690e+02 -2.189232e+00 -9.313921e+01
-1.552188e+09 -1.352192e+09 -1.512193e+09 1.349391e+03 1.070194e+02 -1.016839e+02
-4.890112e+09 -4.690117e+09 -4.850116e+09 -1.661697e+02 -3.865250e+01 9.959068e-05
-4.280695e+09 -4.080704e+09 -4.240698e+09 -1.720992e+03 -3.201817e+02 1.081481e+03
-4.479606e+09 -4.279613e+09 -4.439609e+09 1.388710e+03 5.005695e+02 -5.441828e+01
-2.184107e+09 -1.984104e+09 -2.144105e+09 -2.111241e+02 -4.535049e+02 -7.005596e+00
-2.174258e+09 -1.974261e+09 -2.134261e+09 -1.446807e+03 -1.548917e+02 2.280275e+02
-1.940036e+09 -1.740033e+09 -1.900034e+09 -2.216428e+02 -5.671346e+02 -5.583455e+01
-2.885298e+09 -2.685298e+09 -2.845300e+09 4.643669e+02 -4.809924e+02 -2.009499e+01
-3.108606e+09 -2.908604e+09 -3.068607e+09 3.201866e+02 -5.441179e+02 -1.545471e+02
-2.907448e+09 -2.707450e+09 -2.867448e+09 -3.182647e+02 -3.875313e+01 -9.373597e+01
-1.979282e+09 -1.779287e+09 -1.939282e+09 6.088018e+00 4.584853e+01 -4.245308e+01
-3.034091e+09 -2.834090e+09 -2.994092e+09 -5.778454e+01 -5.388088e+02 -2.348380e+02
-2.540449e+09 -2.340452e+09 -2.500448e+09 8.787338e+01 3.564672e+00 8.719071e+01
-4.740648e+09 -4.540649e+09 -4.700646e+09 7.143958e+02 -3.159146e+01 7.420441e+01
-1.671812e+09 -1.471810e+09 -1.631812e+09 1.570583e+02 -7.395689e+02 -1.360562e+02
-1.595488e+09 -1.395490e+09 -1.555487e+09 7.649498e+02 1.102813e+02 4.412066e+01
-1.919494e+09 -1.719492e+09 -1.879494e+09 -2.624421e+01 -6.624754e+02 -2.420345e+02
-4.812836e+09 -4.612835e+09 -4.772834e+09 -3.285427e+02 -3.256242e+01 -3.983062e+01
-2.156974e+09 -1.956974e+09 -2.116972e+09 1.903241e+02 8.797977e+01 2.663441e+01
-3.956239e+09 -3.756238e+09 -3.916237e+09 -4.571368e+02 4.343556e+00 -7.650108e+01
-4.126370e+09 -3.926369e+09 -4.086369e+09 -3.795025e+02 9.974323e+01 -5.753687e+00
-4.646300e+09 -4.446299e+09 -4.606299e+09 -2.312890e+02 -2.551348e+01 -6.166073e+01
-4.303290e+09 -4.103289e+09 -4.263289e+09 -8.613708e+01 7.851624e+01 1.961192e+01
-3.608088e+09 -3.408089e+09 -3.568089e+09 -7.548583e+01 -1.328288e+01 3.332422e-01
-3.783681e+09 -3.583682e+09 -3.743682e+09 -5.702677e+01 -2.044269e+01 2.393342e+00
-3.355423e+09 -3.155425e+09 -3.315424e+09 1.467696e+02 2.797813e+00 7.941169e-01
-2.720401e+09 -2.520402e+09 -2.680402e+09 -1.522936e+02 -1.407249e+01 1.256029e+01
-2.784222e+09 -2.584224e+09 -2.744223e+09 -3.050512e+01 -1.780446e+01 7.622615e+00
-4.410776e+09 -4.210778e+09 -4.370778e+09 1.705298e-01 1.078194e+01 -3.526523e+00
-2.340759e+09 -2.140760e+09 -2.300760e+09 -1.034184e+02 -1.179571e+01 1.451649e+01
-5.015537e+09 -4.815536e+09 -4.975536e+09 1.414377e+02 -1.368431e+01 1.236902e+01
-2.219730e+09 -2.019732e+09 -2.179731e+09 -5.203508e+01 -8.719555e+00 7.031559e+00
-1.926766e+09 -1.726768e+09 -1.886767e+09 -3.861967e+01 -2.088722e+01 2.388961e+01
-3.016051e+09 -2.816052e+09 -2.976052e+09 -4.097826e+00 -1.097447e+01 6.168257e-01
-2.766852e+09 -2.566852e+09 -2.726851e+09 2.415720e+01 -6.275713e+01 -1.101692e+02
-2.118508e+09 -1.918508e+09 -2.078507e+09 -2.883515e+01 -1.389933e+01 -9.800475e+01
-1.837335e+09 -1.637335e+09 -1.797334e+09 1.864718e+02 -1.253255e+02 -7.184311e+01
-3.887884e+09 -3.687881e+09 -3.847881e+09 -6.148606e+01 -6.693032e+01 6.616745e+00
-1.657151e+09 -1.457150e+09 -1.617150e+09 -1.894520e+00 1.239047e+01 -6.547758e+00
-1.857885e+09 -1.657885e+09 -1.817884e+09 7.524664e+01 -1.056822e+02 -1.037943e+02
-2.100998e+09 -1.900997e+09 -2.060997e+09 2.013349e+02 -1.314079e+02 -9.640750e+01
-1.581477e+09 -1.381476e+09 -1.541476e+09 7.643802e+01 2.528753e+01 -2.360441e+01
-1.711007e+09 -1.511006e+09 -1.671006e+09 1.005909e+02 3.472419e+01 -2.246768e+01
-2.160846e+09 -1.960845e+09 -2.120844e+09 1.996286e+02 -1.341247e+02 -6.502769e+01
-4.982717e+09 -4.782716e+09 -4.942716e+09 2.340730e+02 -1.111584e+01 1.720537e+00
-2.464479e+09 -2.264478e+09 -2.424478e+09 2.112617e+02 -1.790949e+02 -9.173312e+01
-4.268872e+09 -4.068879e+09 -4.228876e+09 1.727239e+03 1.746390e+02 7.408936e+01
-4.907933e+09 -4.707932e+09 -4.867932e+09 -2.997908e+00 -7.155506e+00 -4.973761e-05
-1.695813e+09 -1.495812e+09 -1.655812e+09 1.918049e+02 4.513246e+01 -1.681965e+01
-5.018487e+09 -4.818494e+09 -4.978490e+09 1.976373e+03 1.128300e+02 3.062667e+01
-4.401903e+09 -4.201905e+09 -4.361906e+09 2.137686e+03 2.421243e+02 3.608965e+02
-4.329548e+09 -4.129550e+09 -4.289548e+09 4.624313e+03 1.191832e+03 9.274108e+02
-3.089813e+09 -2.889813e+09 -3.049813e+09 3.806399e+00 -5.127838e+00 -1.997453e+00
-3.525386e+09 -3.325385e+09 -3.485386e+09 3.984655e+01 1.141014e+01 2.480749e+01
-4.498020e+09 -4.298020e+09 -4.458022e+09 3.369243e+03 2.880573e+02 -2.360508e+02
-4.434638e+09 -4.234640e+09 -4.394641e+09 2.652988e+03 -6.767253e+00 8.815281e+01
-3.814478e+09 -3.614482e+09 -3.774482e+09 3.088336e+03 7.224428e+02 4.900555e+02
-1.838975e+09 -1.638976e+09 -1.798976e+09 1.678064e+02 2.683875e+01 1.264777e+01
-1.674101e+09 -1.474100e+09 -1.634100e+09 -1.268020e+02 -1.223591e+02 -1.062642e+02
-2.281950e+09 -2.081949e+09 -2.241949e+09 -1.913899e+02 -1.846634e+01 -3.688599e+01
-4.944589e+09 -4.744588e+09 -4.904588e+09 2.048014e+02 -2.196278e+01 3.656777e+01
-3.026655e+09 -2.826654e+09 -2.986654e+09 -5.931739e+01 -1.059831e+02 -7.692121e+00
-4.575368e+09 -4.375373e+09 -4.535372e+09 1.286641e+03 2.307663e+02 4.169573e+02
-3.068383e+09 -2.868382e+09 -3.028382e+09 -9.291614e+01 -2.387551e+01 -4.568285e+01
-4.379950e+09 -4.179954e+09 -4.339954e+09 2.097575e+03 2.684575e+02 1.106346e+02
-4.983597e+09 -4.783598e+09 -4.943598e+09 -9.790630e+02 -1.758094e+01 -8.956825e+01
-4.297558e+09 -4.097560e+09 -4.257559e+09 -7.903478e+02 -2.292884e+01 -6.434840e+01
-1.908677e+09 -1.708676e+09 -1.868676e+09 -1.146515e+02 -2.254415e+01 -1.947049e+01
-4.478272e+09 -4.278273e+09 -4.438273e+09 -1.215866e+03 -5.885413e+01 -5.559989e+00
-3.961844e+09 -3.761845e+09 -3.921845e+09 -1.313805e+03 5.218159e+00 9.278911e+01
-4.288493e+09 -4.088495e+09 -4.248494e+09 -7.248071e+02 -2.298984e+00 -7.091828e+01
-4.628582e+09 -4.428585e+09 -4.588584e+09 -7.685685e+02 4.130864e+00 -3.032926e+01
-4.810905e+09 -4.610908e+09 -4.770907e+09 -1.029860e+03 2.630505e+01 -2.501054e+02
-1.676403e+09 -1.476403e+09 -1.636403e+09 -4.047384e+02 -7.012584e+01 -2.568954e+01
-4.814896e+09 -4.614894e+09 -4.774906e+09 2.712219e+03 1.410249e+03 9.802550e+01
-4.621441e+09 -4.421435e+09 -4.581448e+09 2.332821e+03 8.827380e+02 -1.299370e+03
-4.802319e+09 -4.602314e+09 -4.762333e+09 2.001298e+03 1.945119e+03 -2.059960e+03
-1.587171e+09 -1.387170e+09 -1.547170e+09 -2.097552e+02 -4.836803e+01 -2.150784e+01
-2.207112e+09 -2.007111e+09 -2.167111e+09 -5.954027e+01 -1.451381e+02 -5.159493e+01
-1.908023e+09 -1.708021e+09 -1.868022e+09 -2.207680e+02 -7.737598e+02 -1.067523e+02
-2.747142e+09 -2.547139e+09 -2.707142e+09 -7.623554e+02 -1.383563e+03 -1.353754e+03
-4.116782e+09 -3.916774e+09 -4.076793e+09 2.906588e+03 4.308314e+03 -4.377064e+03
-4.267545e+09 -4.067537e+09 -4.227553e+09 1.490336e+03 3.120234e+03 -2.717583e+03
-3.281507e+09 -3.081505e+09 -3.241505e+09 -4.971614e-05 -3.839305e+01 -3.187508e+01
-3.325165e+09 -3.125173e+09 -3.285171e+09 -1.502629e+03 -2.509293e+02 1.425080e+03
-3.775954e+09 -3.575963e+09 -3.735960e+09 -1.420645e+03 3.518094e+01 1.491053e+03
-1.598015e+09 -1.398019e+09 -1.558015e+09 7.092310e+02 1.065580e+02 2.081826e+01
-2.781503e+09 -2.581508e+09 -2.741508e+09 -1.908302e+03 4.602044e+01 7.680964e+02
-4.605643e+09 -4.405646e+09 -4.565646e+09 -2.230985e+03 -2.346791e+02 1.074874e+02
-4.013382e+09 -3.813384e+09 -3.973384e+09 -2.154398e+03 -7.334795e+01 -1.863047e+02
-1.957468e+09 -1.757470e+09 -1.917470e+09 -1.825236e+03 -5.077008e+01 5.473178e+02
-1.947015e+09 -1.747021e+09 -1.907016e+09 -2.794314e+02 2.570474e+02 -5.545540e+01
-3.105241e+09 -2.905247e+09 -3.065246e+09 -1.582807e+03 -4.918438e+01 7.777828e+02
-4.315007e+09 -4.115006e+09 -4.275007e+09 2.496075e+03 6.587855e+02 -3.997874e+02
-2.877519e+09 -2.677525e+09 -2.837520e+09 9.657322e+02 1.962014e+02 -2.642885e+01
-4.142499e+09 -3.942498e+09 -4.102498e+09 2.495113e+03 6.725829e+02 -5.153211e+02
-1.597410e+09 -1.397408e+09 -1.557409e+09 -1.161683e+02 -2.829577e+01 -4.043237e+01
-4.136339e+09 -3.936339e+09 -4.096340e+09 -9.305756e+02 1.295625e+01 -4.264560e+01
-2.638059e+09 -2.438060e+09 -2.598060e+09 -7.689290e+01 -4.452202e+01 2.813892e+01
-4.990410e+09 -4.790411e+09 -4.950411e+09 -1.041836e+03 1.745222e+01 -4.376807e+01
-4.332563e+09 -4.132564e+09 -4.292563e+09 2.445451e+03 4.964267e+02 -2.324178e+02
-4.640234e+09 -4.440233e+09 -4.600234e+09 1.865423e+03 3.022569e+02 -5.074591e+00
-3.799963e+09 -3.599961e+09 -3.759962e+09 -5.972314e+01 -5.110454e-01 -4.535346e+00
-4.442043e+09 -4.242042e+09 -4.402042e+09 -8.738073e+01 -7.123393e+00 -3.828004e+00
-1.830017e+09 -1.630016e+09 -1.790016e+09 -1.358216e+02 -2.349334e+01 -7.947077e+01
-4.908635e+09 -4.708634e+09 -4.868634e+09 -5.079020e+01 2.972740e+00 5.999670e+00
-4.686999e+09 -4.486998e+09 -4.646999e+09 -5.960281e+01 6.092801e+00 -5.186678e-01
-3.325075e+09 -3.125073e+09 -3.285074e+09 -1.919842e+01 -2.506123e+00 -2.306849e+01
-4.723236e+09 -4.523235e+09 -4.683236e+09 -1.324248e+02 9.901224e+00 4.978475e+00
-1.697014e+09 -1.497013e+09 -1.657013e+09 -2.075476e+02 -5.112447e+01 -4.856192e+01
-1.996972e+09 -1.796971e+09 -1.956971e+09 -2.729964e+02 -4.170496e+01 -1.841251e+00
-2.152202e+09 -1.952202e+09 -2.112202e+09 1.105584e+02 2.554071e+01 -1.289904e+01
-2.865273e+09 -2.665272e+09 -2.825273e+09 8.745710e+01 2.743010e+01 2.693292e+01
-2.079473e+09 -1.879473e+09 -2.039473e+09 9.799797e+01 2.151545e+01 -4.380885e+00
-4.803377e+09 -4.603377e+09 -4.763377e+09 -1.862714e+02 -3.053647e+01 -2.207106e+01
-2.944487e+09 -2.744487e+09 -2.904487e+09 6.333959e+00 1.714391e+01 1.567288e+01
-2.637212e+09 -2.437211e+09 -2.597212e+09 1.005014e+02 2.390684e+01 -1.160433e+01
-1.964406e+09 -1.764406e+09 -1.924406e+09 -4.478237e+02 -2.597208e+01 -3.354318e+00
-3.435875e+09 -3.235876e+09 -3.395875e+09 6.065061e+01 -1.833322e+01 -9.541097e+01
-3.097371e+09 -2.897370e+09 -3.057370e+09 9.586535e+01 5.992359e+00 -2.135501e-01
-2.247085e+09 -2.047093e+09 -2.207088e+09 -1.717696e+03 -2.315297e+03 -2.291475e+02
-3.960859e+09 -3.760862e+09 -3.920871e+09 -5.163140e+02 -4.169900e+03 4.809066e+02
-2.014110e+09 -1.814119e+09 -1.974113e+09 -5.258960e+02 -2.346395e+03 -1.730802e+02
-2.732880e+09 -2.532886e+09 -2.692882e+09 -1.056392e+03 -9.002490e+02 -1.644121e+02
-1.598966e+09 -1.398965e+09 -1.558964e+09 -7.477650e+02 -2.724956e+02 -5.464069e+01
-4.792972e+09 -4.592970e+09 -4.752970e+09 -3.626917e+02 3.694322e+01 -2.077190e+01
-4.634016e+09 -4.434020e+09 -4.594013e+09 -6.088252e+02 7.398683e+02 -1.298534e+03
-3.011346e+09 -2.811347e+09 -2.971345e+09 2.803022e+01 -3.584458e+01 1.243530e+01
-1.674099e+09 -1.474098e+09 -1.634098e+09 3.830074e+02 -2.854179e+02 2.764569e+01
-4.751233e+09 -4.551231e+09 -4.711232e+09 -6.598294e+02 -2.329699e+02 -7.404030e+01
-2.754406e+09 -2.554412e+09 -2.714407e+09 4.544309e+01 -1.722902e+02 1.040100e+02
-2.260887e+09 -2.060885e+09 -2.220885e+09 -2.647215e+02 -2.200398e+02 -1.972310e+01
-4.029860e+09 -3.829860e+09 -3.989859e+09 -2.744095e+02 -1.023086e+00 1.627725e+01
-3.009060e+09 -2.809056e+09 -2.969059e+09 -2.171505e+02 -9.024999e+02 -9.950327e+02
-4.610420e+09 -4.410419e+09 -4.570419e+09 -9.653333e+01 -7.370305e+01 -2.994545e+01
-4.002316e+09 -3.802315e+09 -3.962315e+09 4.790936e+02 8.464313e+01 -4.816841e+01
-4.877314e+09 -4.677313e+09 -4.837312e+09 -2.521382e+02 1.106546e+00 -6.396505e+00
-2.122893e+09 -1.922891e+09 -2.082891e+09 1.117500e+03 5.178156e+02 -1.420773e+02
-2.925347e+09 -2.725344e+09 -2.885345e+09 2.717435e+02 3.476961e+02 -6.161943e+01
-3.060190e+09 -2.860187e+09 -3.020188e+09 2.876343e+02 3.733271e+02 -4.467002e+01
-1.917831e+09 -1.717829e+09 -1.877829e+09 2.655735e+02 5.748086e+02 -6.248938e+01
-4.802290e+09 -4.602288e+09 -4.762289e+09 2.014035e+02 8.275765e+01 6.466110e+01
-3.961176e+09 -3.761175e+09 -3.921175e+09 -2.563381e+02 3.956714e+01 -9.416516e+01
-1.917831e+09 -1.717828e+09 -1.877829e+09 2.919180e+02 4.925754e+02 -4.215667e+01
-4.493488e+09 -4.293492e+09 -4.453490e+09 -1.302813e+03 -3.700786e+02 -1.507173e+02
-3.836669e+09 -3.636675e+09 -3.796673e+09 -8.475074e+02 -1.323063e+03 7.195197e+00
-4.451833e+09 -4.251838e+09 -4.411835e+09 -6.942060e+02 -1.113536e+02 1.585612e+01
-4.548001e+09 -4.348007e+09 -4.508004e+09 -5.273621e+02 -3.356360e+02 1.162333e+01
-4.808542e+09 -4.608549e+09 -4.768546e+09 -5.740172e+02 -2.599807e+01 9.216706e+01
-1.571212e+09 -1.371212e+09 -1.531212e+09 1.435955e+02 3.836182e+01 -2.528512e+01
-4.799231e+09 -4.599236e+09 -4.759235e+09 -1.182195e+03 -1.587523e+02 9.095141e+00
-4.467837e+09 -4.267837e+09 -4.427837e+09 6.805596e+02 -2.215162e+02 1.151592e+02
-4.165947e+09 -3.965949e+09 -4.125947e+09 4.467976e+02 -3.793495e+02 1.158299e+02
-4.480693e+09 -4.280694e+09 -4.440694e+09 2.727244e+03 5.216465e+02 -2.918448e+02
-4.476664e+09 -4.276660e+09 -4.436664e+09 -1.038407e+03 1.080914e+02 -3.100253e+02
-3.967350e+09 -3.767358e+09 -3.927354e+09 1.012602e+03 1.222223e+03 -1.344660e+02
-3.822646e+09 -3.622646e+09 -3.782645e+09 5.804593e+02 -2.565142e+02 7.665600e+01
-4.022182e+09 -3.822183e+09 -3.982183e+09 9.674939e+02 -3.665198e+02 7.718408e+01
-4.784108e+09 -4.584108e+09 -4.744108e+09 6.165716e+02 -2.311737e+02 1.022670e+02
-2.825982e+09 -2.625979e+09 -2.785982e+09 -3.619484e+02 -8.048122e+02 -3.989152e+02
-4.308284e+09 -4.108287e+09 -4.268293e+09 -1.997420e+03 2.971280e+03 1.218292e+03
-4.990316e+09 -4.790317e+09 -4.950326e+09 -2.132658e+03 1.355558e+03 5.013317e+02
-3.670313e+09 -3.470311e+09 -3.630311e+09 2.928492e+02 1.693415e+02 -4.371039e+01
-4.479874e+09 -4.279876e+09 -4.439886e+09 -1.823272e+03 2.226962e+03 1.137003e+03
-4.127128e+09 -3.927133e+09 -4.087144e+09 -2.377883e+02 4.901349e+03 4.983316e+01
-4.996764e+09 -4.796767e+09 -4.956778e+09 -4.767416e+02 1.703701e+03 2.987416e+02
-2.618046e+09 -2.418048e+09 -2.578045e+09 -9.972749e+01 -7.601870e+01 1.956787e+01
-3.622814e+09 -3.422816e+09 -3.582815e+09 1.745031e+02 2.463411e+00 3.781399e+01
-4.095503e+09 -3.895505e+09 -4.055504e+09 2.784976e+01 1.058511e+00 1.949825e+01
-3.748586e+09 -3.548587e+09 -3.708587e+09 6.829438e+01 9.490811e+00 2.164206e+00
-3.998865e+09 -3.798867e+09 -3.958866e+09 5.647686e+01 6.950237e+00 1.827412e+01
-4.471437e+09 -4.271437e+09 -4.431437e+09 3.351731e+02 4.203022e+00 -4.552406e+00
-3.351321e+09 -3.151323e+09 -3.311320e+09 1.078199e+03 1.058935e+02 1.049041e+01
-4.467708e+09 -4.267707e+09 -4.427707e+09 3.120640e+02 2.410773e+01 1.208658e+01
-4.790486e+09 -4.590484e+09 -4.750484e+09 7.950462e+02 -4.326026e+01 -7.299364e+01
-4.978185e+09 -4.778184e+09 -4.938184e+09 4.498553e+02 -1.582713e+01 1.200767e+01
-4.471437e+09 -4.271437e+09 -4.431437e+09 3.212126e+02 1.356920e+01 -2.093264e+01
-3.043685e+09 -2.843681e+09 -3.003684e+09 -1.125089e+01 7.996396e+02 -6.458918e+02
-4.621191e+09 -4.421195e+09 -4.581193e+09 6.008396e+02 -1.050754e+02 7.764515e+01
-4.423823e+09 -4.223826e+09 -4.383823e+09 5.136197e+01 -4.276015e+01 1.317876e+01
-3.911445e+09 -3.711447e+09 -3.871445e+09 5.031783e+02 -2.271212e+02 5.939077e+01
-4.767782e+09 -4.567783e+09 -4.727782e+09 7.125865e+02 1.010640e+02 -2.392383e+01
-4.773271e+09 -4.573273e+09 -4.733271e+09 4.253110e+02 -1.780729e+02 9.021848e+00
-3.985555e+09 -3.785551e+09 -3.945570e+09 -3.581925e+03 3.548632e+03 2.974609e+03
-3.966847e+09 -3.766844e+09 -3.926847e+09 -3.735898e+03 -8.199013e+02 3.070574e+02
-4.791923e+09 -4.591927e+09 -4.751925e+09 5.375291e+02 4.919431e+01 -9.979058e+00
-2.677953e+09 -2.477953e+09 -2.637955e+09 -1.641286e+03 1.388015e+02 -5.601150e+01
-3.028484e+09 -2.828480e+09 -2.988483e+09 1.306720e+03 1.044254e+03 -5.979718e+02
-4.055490e+09 -3.855494e+09 -4.015491e+09 5.189528e+02 -1.963401e+02 5.604861e+01
-3.778862e+09 -3.578864e+09 -3.738862e+09 4.263742e+02 -3.451207e+01 5.973338e+01
-4.697680e+09 -4.497683e+09 -4.657681e+09 3.222500e+02 -2.055483e+02 8.307110e+01
-3.951062e+09 -3.751069e+09 -3.911067e+09 -1.134786e+02 7.028862e+01 3.342410e+01
-3.283608e+09 -3.083616e+09 -3.243612e+09 2.693677e+02 -2.049352e+03 7.629710e+00
-4.256692e+09 -4.056699e+09 -4.216696e+09 8.051095e+02 -4.275134e+02 1.678204e+02
-3.406626e+09 -3.206633e+09 -3.366629e+09 3.516479e+02 -6.391208e+02 1.684557e+02
-2.989786e+09 -2.789789e+09 -2.949786e+09 -1.302818e+02 -1.239258e+02 -1.471610e+02
-2.899040e+09 -2.699047e+09 -2.859042e+09 6.188950e+02 -9.241923e+02 2.672338e+02
-4.424658e+09 -4.224666e+09 -4.384661e+09 -2.466970e+01 -7.791188e+01 1.875901e+01
-3.772368e+09 -3.572376e+09 -3.732371e+09 9.055768e+01 -6.735734e+02 4.495617e+01
-4.989514e+09 -4.789511e+09 -4.949513e+09 -3.330834e+02 1.953092e+01 2.813919e+01
-2.702342e+09 -2.502348e+09 -2.662347e+09 5.917263e+02 -3.215860e+02 6.942929e+01
-4.115703e+09 -3.915700e+09 -4.075705e+09 -1.069335e+03 -1.091127e+03 -4.184012e+02
-4.096932e+09 -3.896939e+09 -4.056936e+09 8.601904e+02 -1.045696e+03 2.047891e+02
-3.234758e+09 -3.034758e+09 -3.194758e+09 -8.065209e+01 -1.057028e+01 2.734321e+00
-3.673446e+09 -3.473446e+09 -3.633446e+09 -5.684669e+01 -2.045654e+01 3.179108e+01
-1.828032e+09 -1.628038e+09 -1.788038e+09 2.199711e+02 8.051789e+01 9.402944e+01
-2.009928e+09 -1.809927e+09 -1.969926e+09 -1.151785e+02 -1.789168e+01 9.271894e+00
-4.953009e+09 -4.753013e+09 -4.913013e+09 1.148191e+03 7.309546e+00 8.791272e+01
-1.910007e+09 -1.710007e+09 -1.870006e+09 -2.175925e+02 2.215416e+00 1.827956e+01
-3.557763e+09 -3.357762e+09 -3.517763e+09 -6.163353e+01 -8.457199e+00 -3.285531e+01
-3.509428e+09 -3.309435e+09 -3.469433e+09 3.847554e+02 -5.011326e+00 8.131472e+01
-4.442760e+09 -4.242759e+09 -4.402759e+09 -9.089121e+00 -2.221689e+01 6.890701e-01
-4.918806e+09 -4.718806e+09 -4.878806e+09 -9.855503e+01 -1.777686e+00 -4.684772e+00
-3.583315e+09 -3.383315e+09 -3.543315e+09 -7.872951e+01 -1.265336e+01 2.064157e+01
-4.000162e+09 -3.800161e+09 -3.960162e+09 -1.796526e+02 -1.552797e+01 -1.942846e+01
-3.115197e+09 -2.915194e+09 -3.075196e+09 1.174563e+02 4.222477e+02 -3.139194e+02
-4.748790e+09 -4.548789e+09 -4.708789e+09 -8.733862e+01 -1.386345e+01 1.139749e+01
-3.685283e+09 -3.485282e+09 -3.645283e+09 -1.972952e+02 -1.014304e+01 -1.534636e+01
-4.149932e+09 -3.949931e+09 -4.109932e+09 -2.114047e+02 -2.897026e+00 -6.298968e+01
-4.671121e+09 -4.471121e+09 -4.631121e+09 -1.140713e+02 -1.861847e+01 -3.889312e+00
-1.591517e+09 -1.391514e+09 -1.551515e+09 9.536212e+02 7.649063e+02 -2.758266e+02
-4.174377e+09 -3.974380e+09 -4.134380e+09 -2.242130e+03 -1.180025e+02 -5.360708e+01
-1.636085e+09 -1.436086e+09 -1.596087e+09 1.147139e+02 3.911978e+02 1.116372e+01
-3.765432e+09 -3.565429e+09 -3.725432e+09 5.313448e+01 4.468014e+02 -2.614279e+02
-4.737491e+09 -4.537490e+09 -4.697491e+09 -1.728669e+02 -1.944905e+01 -2.561407e+00
-4.831270e+09 -4.631269e+09 -4.791269e+09 1.686003e+01 2.324629e+01 1.537740e+01
-4.653108e+09 -4.453107e+09 -4.613107e+09 -3.739807e+01 1.237406e+00 -5.012122e+01
-4.810274e+09 -4.610274e+09 -4.770273e+09 -1.569266e+02 -2.418057e+01 -2.555384e+01
-4.299866e+09 -4.099866e+09 -4.259865e+09 -1.624580e+02 4.133008e+01 9.266859e+00
-4.112042e+09 -3.912041e+09 -4.072041e+09 -7.087853e+01 3.825807e+01 -1.029964e+01
-1.964475e+09 -1.764475e+09 -1.924475e+09 -4.540993e+02 -2.876701e+01 3.626397e+00
-4.134382e+09 -3.934381e+09 -4.094381e+09 -8.928136e+01 1.582198e+01 -3.717477e+01
-1.670159e+09 -1.470156e+09 -1.630157e+09 2.400166e+02 6.017161e+02 -4.045611e+01
-4.143634e+09 -3.943632e+09 -4.103634e+09 2.533450e+03 8.763497e+02 -8.563623e+02
-4.985633e+09 -4.785632e+09 -4.945632e+09 -3.260255e+02 -3.762361e+01 1.365835e+01
-4.825013e+09 -4.625012e+09 -4.785012e+09 -3.106247e+02 -3.738397e+01 6.249161e+01
-4.147652e+09 -3.947651e+09 -4.107651e+09 -3.980727e+02 -5.615046e+01 5.494433e+01
-4.297211e+09 -4.097209e+09 -4.257210e+09 -9.520003e+01 -7.893009e+01 4.683299e+01
-4.631466e+09 -4.431472e+09 -4.591467e+09 7.516388e+02 7.352879e+01 -4.315403e+01
-2.340087e+09 -2.140087e+09 -2.300087e+09 -3.043175e+02 -2.700959e+01 1.469076e+01
-4.646435e+09 -4.446434e+09 -4.606435e+09 -4.059231e+02 -3.959753e+01 1.765201e+01
-1.984493e+09 -1.784493e+09 -1.944491e+09 1.801145e+03 3.890496e+02 -5.344908e+01
-2.135938e+09 -1.935944e+09 -2.095939e+09 1.729100e+02 2.118376e+01 2.078983e+00
-3.966406e+09 -3.766406e+09 -3.926405e+09 2.478402e+03 5.636015e+02 -2.266082e+02
-4.121642e+09 -3.921640e+09 -4.081641e+09 1.869145e+03 1.956430e+02 -1.361856e+01
-4.299985e+09 -4.099982e+09 -4.259984e+09 1.788022e+03 3.531737e+02 -3.354426e+02
-4.983759e+09 -4.783756e+09 -4.943757e+09 6.673375e+02 -6.264386e+01 -2.704210e+01
-3.958385e+09 -3.758392e+09 -3.918389e+09 -1.192226e+03 1.166613e+03 9.741001e+01
-1.674920e+09 -1.474926e+09 -1.634921e+09 -4.997387e+02 1.393591e+02 -8.265253e+01
-4.826722e+09 -4.626721e+09 -4.786723e+09 2.604082e+03 4.046346e+02 -4.418557e+02
-3.964164e+09 -3.764163e+09 -3.924165e+09 3.093907e+03 1.271702e+03 -6.472559e+02
-4.052568e+09 -3.852573e+09 -4.012568e+09 -5.426446e+02 4.480567e+01 -7.828865e+01
-1.938832e+09 -1.738836e+09 -1.898832e+09 1.807419e+02 -3.595873e+01 1.609303e+01
-4.134569e+09 -3.934571e+09 -4.094576e+09 3.280629e+03 3.049476e+03 -7.339152e+02
-4.477358e+09 -4.277357e+09 -4.437360e+09 3.104694e+03 9.149771e+02 -5.269150e+02
-1.878382e+09 -1.678384e+09 -1.838383e+09 3.198990e+01 6.533147e+00 1.692345e+01
-4.309321e+09 -4.109319e+09 -4.269322e+09 2.361085e+03 1.034733e+03 -7.334728e+02
-4.822669e+09 -4.622665e+09 -4.782670e+09 2.236623e+03 5.175822e+02 -6.816429e+02
-3.963554e+09 -3.763555e+09 -3.923554e+09 2.976513e+03 9.107778e+02 -3.518621e+02
-4.829170e+09 -4.629170e+09 -4.789170e+09 4.129860e+02 -9.877940e+00 -1.560365e+01
-4.316752e+09 -4.116750e+09 -4.276753e+09 2.503982e+03 8.907553e+02 -6.757958e+02
-4.823137e+09 -4.623137e+09 -4.783139e+09 2.761666e+03 2.518641e+02 9.236541e+01
-4.655998e+09 -4.455997e+09 -4.615998e+09 2.645076e+03 3.526084e+02 -1.002908e+02
-2.579276e+09 -2.379276e+09 -2.539276e+09 -7.664811e+01 -2.970832e+01 -6.336718e+01
-4.039356e+09 -3.839357e+09 -3.999357e+09 -1.849264e+02 -1.572715e+00 -1.778067e+01
-3.957956e+09 -3.757957e+09 -3.917957e+09 -2.616651e+01 -1.013195e+01 -3.751319e+01
-1.586522e+09 -1.386523e+09 -1.546523e+09 1.305862e+02 4.852108e+01 -2.329566e+00
-4.851902e+09 -4.651903e+09 -4.811903e+09 1.098042e+02 -9.926310e+00 2.622659e+00
-2.889918e+09 -2.689918e+09 -2.849918e+09 -1.572265e+02 -1.154247e+01 6.644822e+00
-3.765140e+09 -3.565141e+09 -3.725140e+09 -1.337585e+02 -3.666446e+01 2.364261e+01
-4.653276e+09 -4.453279e+09 -4.613282e+09 -1.711730e+03 -8.002215e+02 -2.618851e+02
-4.289916e+09 -4.089921e+09 -4.249921e+09 -1.154674e+03 -1.604765e+03 -4.257682e+01
-4.997892e+09 -4.797896e+09 -4.957898e+09 -1.605366e+03 -6.340135e+02 -1.167843e+02
-3.831739e+09 -3.631739e+09 -3.791739e+09 -2.980732e+02 -2.401534e+01 5.881443e+00
-2.709343e+09 -2.509344e+09 -2.669344e+09 1.004671e+02 3.089575e+00 3.123164e+01
-1.595650e+09 -1.395649e+09 -1.555649e+09 4.768327e+01 3.376160e+01 -5.055153e+01
-3.032115e+09 -2.832116e+09 -2.992116e+09 1.054673e+02 1.539963e+01 6.275686e+01
-3.082685e+09 -2.882685e+09 -3.042685e+09 2.077744e+02 4.410740e+01 2.349154e+01
-4.393404e+09 -4.193404e+09 -4.353404e+09 4.671561e+01 1.916082e+01 -8.207763e+00
-1.638465e+09 -1.438463e+09 -1.598464e+09 -7.163116e-10 2.231706e+00 3.480030e+00
-5.002829e+09 -4.802828e+09 -4.962828e+09 1.307924e+02 1.882086e+01 -5.815068e+00
-1.628785e+09 -1.428783e+09 -1.588784e+09 3.216817e+01 1.361958e+01 -3.460669e+01
-2.947513e+09 -2.747515e+09 -2.907514e+09 1.158472e+02 1.992519e+01 2.248781e+01
-1.563616e+09 -1.363616e+09 -1.523616e+09 -1.394661e+02 -4.121571e+01 3.146562e+01
-2.755206e+09 -2.555208e+09 -2.715207e+09 7.902225e+01 1.896127e+01 9.948668e+00
-4.338638e+09 -4.138646e+09 -4.298652e+09 8.172569e+02 3.580862e+03 4.593819e+02
-4.139044e+09 -3.939048e+09 -4.099057e+09 2.709773e+03 3.819483e+03 -1.643759e+03
-3.050659e+09 -2.850659e+09 -3.010659e+09 3.508960e+02 4.422158e+01 -1.805240e+00
-5.025103e+09 -4.825108e+09 -4.985114e+09 1.709481e+03 1.940793e+03 -1.640440e+02
-3.131742e+09 -2.931747e+09 -3.091743e+09 9.693780e+02 2.610648e+02 -4.680817e+01
-4.808108e+09 -4.608106e+09 -4.768107e+09 1.891226e+03 3.047767e+02 -2.754874e+02
-4.855379e+09 -4.655385e+09 -4.815387e+09 1.614316e+03 1.565235e+03 -1.615332e+02
-4.478455e+09 -4.278463e+09 -4.438464e+09 1.038926e+03 1.563651e+03 -9.260540e+01
-4.426340e+09 -4.226337e+09 -4.386338e+09 3.928375e+02 1.380639e+02 -2.352090e+01
-4.168913e+09 -3.968919e+09 -4.128920e+09 1.659910e+03 1.571934e+03 -1.953829e+02
-4.841242e+09 -4.641247e+09 -4.801253e+09 5.151133e+02 1.020610e+03 -5.718517e+01
-4.474822e+09 -4.274824e+09 -4.434831e+09 3.862433e+03 2.360793e+03 -7.999036e+02
-4.308584e+09 -4.108580e+09 -4.268585e+09 2.021096e+03 8.149092e+02 -8.526429e+02
-4.773098e+09 -4.573090e+09 -4.733115e+09 4.438930e+02 3.151519e+03 1.670309e+03
-3.353548e+09 -3.153544e+09 -3.313548e+09 -4.460844e+02 7.885341e+02 -9.264886e+02
-3.413113e+09 -3.213112e+09 -3.373112e+09 -1.261355e-01 1.507785e+01 -1.253198e+00
-2.541164e+09 -2.341161e+09 -2.501162e+09 5.450124e+02 4.691571e+02 -3.704074e+01
-4.648259e+09 -4.448249e+09 -4.608252e+09 -4.445547e+03 -2.159197e+03 -7.448400e+02
-4.161701e+09 -3.961702e+09 -4.121702e+09 -2.032187e+03 1.367892e+02 -2.902930e+02
-1.601368e+09 -1.401372e+09 -1.561373e+09 -5.030405e+02 5.048311e+02 5.235520e+02
-3.101410e+09 -2.901413e+09 -3.061414e+09 -3.505117e+03 -6.086302e+02 8.734396e+02
-4.282430e+09 -4.082430e+09 -4.242429e+09 1.726216e+03 1.232885e+02 -1.331595e+02
-4.319693e+09 -4.119698e+09 -4.279693e+09 -1.093868e+03 8.895416e+01 -7.997081e+02
-3.976461e+09 -3.776465e+09 -3.936462e+09 -1.150743e+03 8.940467e+01 -1.107046e+03
-2.352732e+09 -2.152732e+09 -2.312731e+09 1.433345e+03 3.073560e+02 -8.640718e+01
-1.680256e+09 -1.480257e+09 -1.640254e+09 1.483358e+03 3.324533e+02 -6.625732e+01
-4.473278e+09 -4.273282e+09 -4.433275e+09 -4.798577e+03 -1.460610e+03 2.647647e+03
-5.006160e+09 -4.806163e+09 -4.966160e+09 -1.948329e+03 2.230247e+02 -4.163641e+02
-1.636089e+09 -1.436086e+09 -1.596087e+09 3.705882e+02 5.449229e+02 -1.072669e+02
-4.319694e+09 -4.119697e+09 -4.279695e+09 -2.484331e+03 4.137430e+02 -1.121996e+03
-4.534333e+09 -4.334332e+09 -4.494332e+09 2.304749e+01 1.777735e+00 -2.221753e+01
-3.905940e+09 -3.705939e+09 -3.865939e+09 4.297855e-01 9.018120e+00 2.135724e+00
-4.435036e+09 -4.235035e+09 -4.395035e+09 4.852906e+01 2.640093e+00 -1.888151e+01
-4.708894e+09 -4.508893e+09 -4.668893e+09 5.302169e+00 2.146416e+01 -6.535398e+00
-4.429028e+09 -4.229027e+09 -4.389027e+09 -3.067640e+00 1.521425e+01 -2.693088e+00
-2.803722e+09 -2.603717e+09 -2.763720e+09 8.837861e+02 6.873583e+02 -9.938785e+02
-2.787602e+09 -2.587599e+09 -2.747601e+09 1.656207e+03 7.449880e+02 -7.337645e+02
-3.424565e+09 -3.224563e+09 -3.384564e+09 7.576767e+01 4.478633e+00 8.670513e-01
-4.974054e+09 -4.774051e+09 -4.934052e+09 3.156830e+02 2.227368e+02 -2.999738e+01
-4.771646e+09 -4.571646e+09 -4.731646e+09 6.262501e+01 9.831460e+00 4.100872e+00
-1.553905e+09 -1.353906e+09 -1.513905e+09 -1.651012e+02 -4.200059e+01 2.371105e+01
-3.509458e+09 -3.309456e+09 -3.469457e+09 -1.909611e+01 -4.825630e+00 -6.916267e+00
-4.081503e+09 -3.881502e+09 -4.041502e+09 -4.997613e+01 1.309433e+01 -9.981022e+00
-4.351618e+09 -4.151616e+09 -4.311617e+09 -5.958059e+01 -3.978617e+00 -1.725518e+01
-4.162854e+09 -3.962840e+09 -4.122850e+09 9.362467e+01 1.709808e+03 2.072970e+03
-1.921103e+09 -1.721101e+09 -1.881102e+09 -2.108786e+02 -4.049284e+01 -4.431282e+01
-1.636087e+09 -1.436088e+09 -1.596087e+09 -1.449186e+01 -3.571525e+01 7.593462e+00
-4.003023e+09 -3.803010e+09 -3.963026e+09 -2.346036e+03 5.962862e+02 -6.458026e+02
-4.506085e+09 -4.306073e+09 -4.466085e+09 1.145213e+03 2.275706e+03 7.661299e+02
-4.862455e+09 -4.662444e+09 -4.822460e+09 6.505287e+02 -1.449311e+03 -9.379674e+02
-4.003019e+09 -3.803009e+09 -3.963025e+09 -9.466268e+02 -8.434505e+00 -1.269278e+03
-1.966118e+09 -1.766117e+09 -1.926117e+09 7.831182e+01 -1.802103e+02 -9.318985e+01
-4.470163e+09 -4.270148e+09 -4.430159e+09 9.514805e+02 6.692144e+02 -2.354564e+03
-4.859469e+09 -4.659460e+09 -4.819477e+09 -4.138794e+02 -6.709822e+02 -3.550065e+02
-2.872584e+09 -2.672589e+09 -2.832585e+09 2.873355e+02 3.353649e+01 -3.577377e+01
-1.688333e+09 -1.488332e+09 -1.648333e+09 -1.871021e+02 -3.292515e+01 -3.247515e+01
-2.025942e+09 -1.825946e+09 -1.985942e+09 4.936667e+02 -4.979521e+01 2.837502e+01
-3.949423e+09 -3.749425e+09 -3.909422e+09 1.674344e+03 3.693429e+01 -9.879251e+02
-4.990035e+09 -4.790033e+09 -4.950035e+09 -1.093275e+03 -1.342309e+01 7.603959e+01
-4.969522e+09 -4.769524e+09 -4.929523e+09 6.850849e+02 1.066193e+02 -5.145959e+01
-2.745448e+09 -2.545452e+09 -2.705448e+09 7.124531e+02 -6.111488e+01 4.896011e+01
-3.004929e+09 -2.804934e+09 -2.964929e+09 9.047502e+01 6.745541e-01 2.974178e+01
-4.358552e+09 -4.158550e+09 -4.318550e+09 -4.934307e+01 -3.643479e+01 -1.369640e+01
-2.786422e+09 -2.586426e+09 -2.746422e+09 1.725434e+02 1.286013e+02 5.263971e+01
-4.767047e+09 -4.567046e+09 -4.727046e+09 5.559754e-01 -1.065671e+01 3.238774e+01
-1.938855e+09 -1.738859e+09 -1.898855e+09 5.414811e+01 2.431422e+01 1.089553e+01
-2.871773e+09 -2.671781e+09 -2.831776e+09 -4.503501e+02 -7.294778e+02 -1.071852e+02
-4.478029e+09 -4.278027e+09 -4.438029e+09 -7.684372e+02 -5.414013e+02 -2.264451e+02
-4.524473e+09 -4.324468e+09 -4.484438e+09 -3.050766e+03 3.514661e+03 -2.810588e+03
-2.186514e+09 -1.986518e+09 -2.146514e+09 1.195132e+02 2.375029e+01 -1.700184e+01
-3.954838e+09 -3.754840e+09 -3.914843e+09 1.581564e+03 -1.998873e+03 8.957629e+02
-2.415918e+09 -2.215920e+09 -2.375918e+09 -1.419866e+03 -1.064984e+03 -2.637708e+02
-2.303322e+09 -2.103324e+09 -2.263322e+09 -1.153610e+03 -7.340745e+02 -1.727382e+02
-1.893688e+09 -1.693696e+09 -1.853690e+09 5.324856e+02 -1.747257e+03 1.093016e+02
-2.861341e+09 -2.661341e+09 -2.821340e+09 -3.613908e+02 -2.247666e+02 -3.282936e+01
-4.434992e+09 -4.235000e+09 -4.394995e+09 2.536294e+01 -9.527742e+01 3.599479e+01
-4.619449e+09 -4.419455e+09 -4.579452e+09 4.140114e+02 -3.539504e+02 1.005728e+02
-3.295872e+09 -3.095873e+09 -3.255872e+09 1.226739e+03 -8.758770e+02 3.989205e+02
-2.839611e+09 -2.639612e+09 -2.799610e+09 -1.132909e+03 -5.469956e+02 -2.377402e+02
-2.127183e+09 -1.927184e+09 -2.087182e+09 -1.163260e+03 -5.483855e+02 -2.086179e+02
-3.181862e+09 -2.981862e+09 -3.141862e+09 -2.870936e+02 3.275216e-01 -2.767423e-01
-4.708802e+09 -4.508802e+09 -4.668802e+09 -9.309112e+01 -1.907054e+00 4.095742e+01
-2.734245e+09 -2.534244e+09 -2.694244e+09 -1.276055e+03 -7.818028e+02 -2.037495e+02
-2.183925e+09 -1.983925e+09 -2.143925e+09 -8.328716e+01 -1.475427e+01 1.405969e-01
-2.028990e+09 -1.828991e+09 -1.988989e+09 -1.808641e+03 -9.771710e+02 -4.531125e+02
-1.887393e+09 -1.687392e+09 -1.847392e+09 -1.035018e+03 -7.325080e+02 -8.100722e+01
-3.016576e+09 -2.816578e+09 -2.976577e+09 -1.421648e+03 -1.390024e+03 -4.167487e+02
-4.596517e+09 -4.396517e+09 -4.556517e+09 2.960961e+02 2.672972e+01 4.614815e+00
-4.791648e+09 -4.591648e+09 -4.751648e+09 2.524258e+02 1.385327e+01 2.817063e+01
-4.970225e+09 -4.770227e+09 -4.930226e+09 -2.162165e+02 1.658290e+01 -1.659558e+01
-3.731893e+09 -3.531894e+09 -3.691894e+09 2.928881e+02 5.554963e+00 -2.264555e+00
-3.964727e+09 -3.764729e+09 -3.924728e+09 -6.072500e+02 -1.293660e+01 -1.173946e+01
-4.603283e+09 -4.403284e+09 -4.563284e+09 2.763637e+02 2.474376e+01 2.015936e+01
-4.177727e+09 -3.977727e+09 -4.137727e+09 2.649559e+02 1.174903e+01 2.668116e+01
-4.295570e+09 -4.095561e+09 -4.255572e+09 9.639002e+02 -2.497047e+03 -1.829309e+03
-4.992274e+09 -4.792268e+09 -4.952279e+09 1.625885e+02 -8.259652e+02 -8.367596e+02
-4.967567e+09 -4.767566e+09 -4.927567e+09 -8.383343e+01 2.588589e+00 -5.602587e+00
-4.461269e+09 -4.261262e+09 -4.421270e+09 7.837444e+02 -6.430152e+02 -1.151420e+03
-4.135542e+09 -3.935534e+09 -4.095547e+09 1.922533e+02 -1.728058e+03 -1.565755e+03
-4.465833e+09 -4.265826e+09 -4.425837e+09 2.194622e+03 -7.579399e+02 -1.211557e+03
-2.506843e+09 -2.306849e+09 -2.466844e+09 -2.925973e+02 1.541985e+02 -1.005004e+02
-2.132047e+09 -1.932046e+09 -2.092046e+09 5.472145e+01 1.198738e+01 -1.696422e+01
-2.390022e+09 -2.190026e+09 -2.350022e+09 -5.986804e+02 1.240606e+02 -7.332929e+01
-2.691258e+09 -2.491257e+09 -2.651257e+09 -7.330559e+00 -2.014901e+01 -3.892893e+00
-1.769803e+09 -1.569809e+09 -1.729804e+09 -2.328857e+02 1.215052e+02 -5.724525e+01
-3.281506e+09 -3.081504e+09 -3.241505e+09 4.973829e-05 -3.777389e+00 -4.408502e+00
-1.973526e+09 -1.773531e+09 -1.933527e+09 -4.946426e+02 7.735017e+01 -5.346117e+01
-1.790921e+09 -1.590925e+09 -1.750922e+09 -5.780894e+02 -1.070830e+01 -7.211998e+01
-4.613491e+09 -4.413494e+09 -4.573493e+09 -2.507132e+03 -1.000590e+02 2.847012e+02
-4.478925e+09 -4.278924e+09 -4.438925e+09 -3.234761e+03 -2.068165e+02 1.887055e+01
-3.855608e+09 -3.655607e+09 -3.815609e+09 -2.467816e+03 -4.107409e+02 4.232287e+02
-2.219983e+09 -2.019982e+09 -2.179983e+09 -1.494169e+01 6.490874e-03 -3.247742e+00
-4.295366e+09 -4.095365e+09 -4.255367e+09 -1.510361e+03 -2.034508e+02 3.879111e+02
-4.810623e+09 -4.610625e+09 -4.770625e+09 -2.724448e+03 -3.274215e+02 6.502715e+02
-2.491010e+09 -2.291009e+09 -2.451010e+09 -2.010171e+01 -3.886658e+01 -1.965944e+00
-4.807652e+09 -4.607650e+09 -4.767652e+09 -1.377583e+03 7.733786e+01 2.568290e+02
-4.065097e+09 -3.865101e+09 -4.025097e+09 -8.519071e+02 1.532031e+02 3.316161e+01
-3.456859e+09 -3.256859e+09 -3.416859e+09 2.663675e+02 5.214257e+00 -8.742397e+00
-4.980927e+09 -4.780931e+09 -4.940928e+09 -9.447228e+02 -2.330871e+01 3.857045e+01
-4.127372e+09 -3.927376e+09 -4.087373e+09 -9.991629e+02 1.578965e+02 -6.766262e+01
-4.215794e+09 -4.015797e+09 -4.175794e+09 -7.947801e+02 -3.490602e+01 3.694978e+01
-4.192175e+09 -3.992178e+09 -4.152175e+09 -4.752626e+02 -1.213627e+02 2.868351e+00
-4.789725e+09 -4.589729e+09 -4.749725e+09 -8.354490e+02 -8.765669e+01 -4.827548e+01
-3.941396e+09 -3.741398e+09 -3.901397e+09 -3.585928e+01 4.995413e+00 -1.149432e+01
-3.581221e+09 -3.381223e+09 -3.541222e+09 -2.004238e+01 -1.784835e+00 6.680956e+00
-4.800563e+09 -4.600565e+09 -4.760564e+09 9.580176e+01 -6.511278e+00 4.793872e+01
-3.741768e+09 -3.541770e+09 -3.701769e+09 2.773135e+01 4.056058e+00 1.344100e+01
-2.167732e+09 -1.967737e+09 -2.127732e+09 -8.142748e+01 6.723915e+01 -3.727706e+01
-1.560004e+09 -1.360006e+09 -1.520006e+09 3.071955e+00 4.295451e+00 4.509315e+00
-1.794951e+09 -1.594952e+09 -1.754952e+09 9.719623e+01 4.326120e+01 1.508797e+01
-4.459432e+09 -4.259433e+09 -4.419433e+09 1.148105e+01 2.111776e+01 4.256080e-01
-1.662266e+09 -1.462267e+09 -1.622266e+09 1.656444e+01 4.650030e+01 2.853655e+00
-2.291160e+09 -2.091165e+09 -2.251161e+09 -7.710868e+01 5.394409e+01 -5.696108e+01
-3.012497e+09 -2.812502e+09 -2.972497e+09 -2.221239e+01 1.176390e+02 -4.084287e+01
-1.959841e+09 -1.759843e+09 -1.919842e+09 5.082321e+00 -5.101663e+00 1.898855e+01
-3.606384e+09 -3.406390e+09 -3.566385e+09 -1.204184e+01 -1.407782e+00 -1.863208e+01
-3.142791e+09 -2.942796e+09 -3.102792e+09 -1.117509e+02 3.056984e+01 -4.896755e+01
-4.298003e+09 -4.098004e+09 -4.258004e+09 1.215565e+03 -4.937167e+01 -1.632599e+02
-3.451094e+09 -3.251096e+09 -3.411095e+09 1.563881e+00 6.592018e+00 -1.389033e+00
-2.928886e+09 -2.728887e+09 -2.888887e+09 -4.284687e+02 -5.294328e+01 2.532191e+01
-3.240861e+09 -3.040862e+09 -3.200862e+09 -1.745653e+02 -4.248798e+01 4.508980e+01
-2.204554e+09 -2.004554e+09 -2.164554e+09 -1.008892e+02 -1.718634e+01 -1.592620e+01
-3.414880e+09 -3.214881e+09 -3.374881e+09 -4.604836e+02 -1.493077e+01 1.447378e+01
-2.672849e+09 -2.472854e+09 -2.632849e+09 -7.000917e+00 6.456258e+01 -3.527798e+01
-2.583975e+09 -2.383975e+09 -2.543975e+09 -2.650229e+01 -5.735278e+01 2.696520e+00
-2.157638e+09 -1.957643e+09 -2.117638e+09 -4.001709e+01 3.857864e+01 -2.000390e+01
-3.000141e+09 -2.800147e+09 -2.960142e+09 -3.013779e+01 8.792118e+00 -1.442725e+01
-4.303341e+09 -4.103335e+09 -4.263346e+09 -3.397587e+03 -1.566438e+03 1.598156e+03
-3.988553e+09 -3.788554e+09 -3.948554e+09 -3.077701e+02 -4.224877e+01 -2.854923e+01
-4.804858e+09 -4.604854e+09 -4.764863e+09 -1.353210e+03 1.573233e+01 2.495223e+02
-4.252123e+09 -4.052119e+09 -4.212124e+09 -1.596330e+03 -4.008147e+02 9.949540e+02
-3.655163e+09 -3.455162e+09 -3.615162e+09 -4.100343e+01 -5.664859e+00 -2.816443e+01
-4.595356e+09 -4.395352e+09 -4.555359e+09 -1.620966e+03 -1.608212e+02 6.325967e+02
-2.759132e+09 -2.559132e+09 -2.719132e+09 -7.664227e+00 -1.297985e+01 -2.617362e+00
-1.823434e+09 -1.623433e+09 -1.783433e+09 -3.152160e+01 -2.125590e+01 1.756825e+01
-1.677687e+09 -1.477686e+09 -1.637687e+09 -3.437619e+02 -6.146126e+01 -2.990111e+01
-4.111424e+09 -3.911421e+09 -4.071425e+09 -2.002731e+03 -6.369931e+01 5.932657e+02
-4.790279e+09 -4.590276e+09 -4.750281e+09 -2.925244e+03 3.876730e+02 2.424584e+02
-4.655604e+09 -4.455613e+09 -4.615607e+09 1.581806e+02 9.459925e+00 7.027077e+02
-1.636282e+09 -1.436280e+09 -1.596280e+09 -6.579600e+01 -2.267327e+01 -1.232054e+02
-3.666356e+09 -3.466361e+09 -3.626357e+09 5.150772e+01 -1.627955e+02 1.128829e+02
-1.625684e+09 -1.425690e+09 -1.585685e+09 4.790753e+02 -1.734742e+02 -2.082333e+01
-4.096042e+09 -3.896041e+09 -4.056041e+09 6.512854e+01 -4.336476e+01 -8.604250e+00
-1.605929e+09 -1.405928e+09 -1.565928e+09 -1.558726e+02 -3.780888e+01 -8.984990e+01
-4.265704e+09 -4.065711e+09 -4.225706e+09 -1.773305e+03 -4.381626e+01 1.170087e+03
-4.541587e+09 -4.341595e+09 -4.501592e+09 -3.747506e+02 -4.911052e+01 6.086836e+02
-3.187452e+09 -2.987459e+09 -3.147456e+09 -1.153847e+03 -2.930915e+02 7.203808e+02
-3.851637e+09 -3.651646e+09 -3.811642e+09 3.400750e+02 2.564069e+02 1.594037e+03
-1.636087e+09 -1.436093e+09 -1.596088e+09 8.516824e+01 -2.012341e+02 -1.147245e+01
-2.096270e+09 -1.896275e+09 -2.056271e+09 3.860207e+02 -9.958270e+01 1.555851e+02
-4.114621e+09 -3.914630e+09 -4.074624e+09 -5.202542e+02 1.683540e+02 5.402178e+02
-4.712519e+09 -4.512523e+09 -4.672520e+09 3.302755e+02 -2.148176e+02 9.764993e+01
-1.926422e+09 -1.726424e+09 -1.886422e+09 1.577470e+02 1.652005e+01 -1.122638e+02
-2.763440e+09 -2.563439e+09 -2.723439e+09 -4.021416e+01 -1.999820e+01 -6.914014e+01
-4.845147e+09 -4.645144e+09 -4.805155e+09 -1.420800e+03 -1.514104e+03 -8.053601e+02
-4.827398e+09 -4.627398e+09 -4.787406e+09 -1.631088e+03 -1.507568e+03 -1.569060e+02
-3.967960e+09 -3.767959e+09 -3.927968e+09 -2.119485e+03 -2.914675e+03 -1.152333e+03
-4.990724e+09 -4.790718e+09 -4.950734e+09 -1.039449e+03 -1.824195e+03 -7.822123e+02
-2.110307e+09 -1.910307e+09 -2.070306e+09 -2.731126e+01 -6.569722e+01 -7.368889e+01
-4.712038e+09 -4.512038e+09 -4.672037e+09 -3.108321e+01 6.547658e+00 -4.450431e+00
-3.967959e+09 -3.767959e+09 -3.927968e+09 -1.953159e+03 -2.888468e+03 -1.121754e+03
-4.826869e+09 -4.626867e+09 -4.786879e+09 -1.607471e+03 -1.232139e+03 -3.200410e+02
-1.674084e+09 -1.474084e+09 -1.634083e+09 3.033429e+02 -1.900565e+02 -7.233634e+01
-1.588652e+09 -1.388654e+09 -1.548652e+09 4.071057e+02 -3.314142e+02 -8.314142e+01
-2.543854e+09 -2.343859e+09 -2.503855e+09 1.005252e+02 -1.549269e+02 -8.362889e+01
-4.645932e+09 -4.445933e+09 -4.605933e+09 5.616235e+02 3.537695e+01 6.610378e+01
-2.598752e+09 -2.398754e+09 -2.558752e+09 9.212258e+01 -5.581065e+01 -6.740063e+01
-1.575896e+09 -1.375896e+09 -1.535895e+09 4.248728e+02 -2.890956e+02 -2.777672e+01
-4.306230e+09 -4.106231e+09 -4.266231e+09 7.295094e+02 -1.648369e+01 -4.424155e+01
-4.136368e+09 -3.936369e+09 -4.096369e+09 6.012839e+02 -4.109055e+00 -5.163619e+01
-4.136296e+09 -3.936296e+09 -4.096296e+09 6.857685e+02 4.107759e+01 1.091759e+01
-4.161946e+09 -3.961945e+09 -4.121945e+09 -1.889363e+02 -6.197528e+00 8.824564e+00
-4.654271e+09 -4.454271e+09 -4.614271e+09 5.261900e+02 4.475275e+01 2.824964e+01
-4.106913e+09 -3.906914e+09 -4.066914e+09 4.524330e+02 1.506738e+00 -4.354947e+01
-4.624533e+09 -4.424534e+09 -4.584534e+09 4.465248e+02 3.032898e+01 3.497106e+01
-4.802006e+09 -4.602009e+09 -4.762008e+09 1.042023e+03 -2.810726e+01 -2.522141e+00
-3.714371e+09 -3.514370e+09 -3.674371e+09 -1.455970e+01 -4.327155e+00 -2.347484e+00
-4.298136e+09 -4.098138e+09 -4.258137e+09 1.077891e+03 -6.406211e+02 2.793881e+02
-4.812763e+09 -4.612767e+09 -4.772765e+09 1.053242e+03 -3.494029e+01 7.296984e+01
-4.304978e+09 -4.104978e+09 -4.264977e+09 -2.498670e+03 -1.548671e+02 -1.773461e+02
-3.107483e+09 -2.907482e+09 -3.067482e+09 -9.762792e+01 -6.489546e+01 -2.015281e+01
-4.625475e+09 -4.425473e+09 -4.585474e+09 -4.771162e+01 -5.851849e+00 -6.775707e+00
-3.884609e+09 -3.684607e+09 -3.844608e+09 -1.414909e+01 -1.961070e+00 -7.755925e+00
-4.826779e+09 -4.626777e+09 -4.786779e+09 -2.285794e+03 1.303333e+02 -8.797600e+01
-3.616671e+09 -3.416670e+09 -3.576670e+09 6.005025e+00 7.551054e+00 -4.472490e+00
-2.144512e+09 -1.944511e+09 -2.104512e+09 3.758879e+01 -2.879830e-01 -9.993606e-02
-1.826292e+09 -1.626291e+09 -1.786291e+09 -4.807863e+01 -1.894575e+01 -2.737506e+01
-4.355277e+09 -4.155276e+09 -4.315276e+09 -1.242286e+01 -1.386198e+00 -1.168694e+00
-4.791659e+09 -4.591657e+09 -4.751660e+09 -2.729003e+03 3.776575e+02 -2.983256e+01
-4.833449e+09 -4.633449e+09 -4.793450e+09 -2.306166e+03 -4.616852e+01 1.112060e+02
-4.490216e+09 -4.290216e+09 -4.450216e+09 -2.498045e+03 1.886311e+02 -8.734605e+01
-4.644427e+09 -4.444425e+09 -4.604427e+09 -2.031620e+03 -1.216218e+02 4.609023e+02
-3.951924e+09 -3.751921e+09 -3.911925e+09 -2.126280e+03 -2.021440e+02 6.254047e+02
-4.586170e+09 -4.386166e+09 -4.546171e+09 -1.248184e+03 -1.061474e+02 5.287907e+02
-4.100208e+09 -3.900214e+09 -4.060210e+09 5.418003e+02 -2.078591e+02 9.467807e+01
-4.624037e+09 -4.424035e+09 -4.584038e+09 -1.697337e+03 -1.428087e+02 3.196810e+02
-4.130491e+09 -3.930489e+09 -4.090491e+09 -2.031428e+03 -2.722867e+01 3.203686e+02
-1.893584e+09 -1.693592e+09 -1.853586e+09 1.752337e+03 -1.946215e+03 6.651114e+02
-4.816956e+09 -4.616954e+09 -4.776957e+09 -1.894110e+03 -1.721939e+02 5.109440e+02
-4.798584e+09 -4.598583e+09 -4.758584e+09 2.689054e+02 -4.287251e+01 1.158791e+02
-4.112119e+09 -3.912118e+09 -4.072118e+09 2.759855e+02 -2.655356e+02 3.848942e+01
-4.792269e+09 -4.592269e+09 -4.752269e+09 7.720679e+02 -1.911047e+02 5.390531e+01
-4.116443e+09 -3.916443e+09 -4.076443e+09 5.009763e+02 -2.919638e+02 1.359953e+02
-4.308253e+09 -4.108253e+09 -4.268253e+09 -7.742399e+02 1.567900e+02 2.924907e+01
-1.918696e+09 -1.718704e+09 -1.878698e+09 5.905876e+00 -2.643903e+02 1.076439e+02
-4.502701e+09 -4.302698e+09 -4.462703e+09 -1.360323e+03 -9.730019e+02 -4.859357e+02
-4.477226e+09 -4.277218e+09 -4.437234e+09 -1.188416e+02 -1.781105e+03 -1.311287e+03
-2.729251e+09 -2.529259e+09 -2.689253e+09 3.500711e+02 -7.598457e+02 1.211107e+02
-3.967428e+09 -3.767427e+09 -3.927427e+09 -8.393147e+02 1.382441e+01 -5.422525e+01
-4.817432e+09 -4.617431e+09 -4.777431e+09 -7.218133e+02 -9.263204e+00 -2.075363e+01
-4.319111e+09 -4.119112e+09 -4.279111e+09 -1.283076e+03 1.587281e+02 4.876569e+01
-1.636086e+09 -1.436095e+09 -1.596088e+09 3.069558e+01 -2.908039e+02 3.298132e+01
-1.571484e+09 -1.371495e+09 -1.531487e+09 5.063218e+02 -2.185964e+03 2.011378e+02
-2.764373e+09 -2.564381e+09 -2.724375e+09 1.936947e+01 -1.974668e+02 6.234137e+01
-4.015815e+09 -3.815822e+09 -3.975817e+09 8.137585e+01 -1.397739e+02 8.972877e+01
-3.967797e+09 -3.767797e+09 -3.927796e+09 -1.184115e+03 2.033180e+01 -3.746816e+01
-4.308623e+09 -4.108623e+09 -4.268622e+09 -1.222337e+03 1.106397e+02 7.309262e+01
-4.134480e+09 -3.934478e+09 -4.094479e+09 -4.306915e+02 1.376142e+02 5.922445e+01
-4.111996e+09 -3.911995e+09 -4.071995e+09 -1.000150e+03 1.704986e+02 1.135249e+02
-4.285300e+09 -4.085299e+09 -4.245299e+09 -8.789283e+02 1.423980e+02 1.096374e+02
-4.781714e+09 -4.581713e+09 -4.741713e+09 -1.088273e+02 -1.982507e+00 -3.246914e+01
-3.968307e+09 -3.768304e+09 -3.928308e+09 -7.691326e+02 -1.092737e+03 -1.013743e+03
-4.760322e+09 -4.560318e+09 -4.720323e+09 3.359807e+02 -1.533912e+02 -7.226266e+01
-4.570728e+09 -4.370726e+09 -4.530727e+09 -1.311433e+02 -8.909069e+00 -1.724522e+01
-4.499270e+09 -4.299267e+09 -4.459275e+09 -1.188022e+03 -1.352708e+03 -9.720569e+02
-4.806961e+09 -4.606958e+09 -4.766962e+09 -2.000515e+02 -3.733410e+02 -5.394394e+02
-4.745932e+09 -4.545931e+09 -4.705931e+09 -7.989409e+01 -4.331707e+00 5.596892e+00
-3.382623e+09 -3.182622e+09 -3.342622e+09 -5.390336e+01 -3.787480e+00 -1.105178e+01
-4.087886e+09 -3.887891e+09 -4.047889e+09 1.231219e+03 -7.316762e+02 1.864978e+02
-4.631511e+09 -4.431510e+09 -4.591510e+09 -1.914679e+01 -6.260024e-01 -4.141235e+00
-4.981479e+09 -4.781476e+09 -4.941479e+09 2.223448e+02 -1.854037e+02 -1.635851e+02
-4.898520e+09 -4.698518e+09 -4.858519e+09 -1.914420e+01 3.425704e-01 4.405791e-01
-4.776261e+09 -4.576259e+09 -4.736260e+09 1.662878e+01 1.408034e+02 1.417628e+02
-4.988727e+09 -4.788728e+09 -4.948723e+09 -4.544229e+03 -1.093172e+02 5.380496e+02
-4.158809e+09 -3.958817e+09 -4.118813e+09 2.231675e+03 3.712074e+02 8.329503e+02
-4.121201e+09 -3.921199e+09 -4.081200e+09 -3.937248e+02 2.156456e+02 1.335003e+02
-4.089796e+09 -3.889794e+09 -4.049795e+09 5.574459e+01 -1.002764e+02 -1.564475e+02
-3.932943e+09 -3.732941e+09 -3.892942e+09 1.715956e+02 8.827648e+01 -3.998211e+01
-5.001251e+09 -4.801248e+09 -4.961250e+09 -8.816529e+02 2.338787e+02 2.760078e+02
-3.272210e+09 -3.072206e+09 -3.232210e+09 -7.112873e+02 -1.506878e+03 -1.260053e+03
-4.101006e+09 -3.901003e+09 -4.061005e+09 -2.141877e+02 2.868930e+02 3.051001e+02
-4.977596e+09 -4.777593e+09 -4.937595e+09 -3.913844e+02 -1.065291e+01 2.480953e+01
-4.628587e+09 -4.428582e+09 -4.588584e+09 1.025146e+03 -3.114042e+02 -2.496038e+02
-2.792551e+09 -2.592549e+09 -2.752549e+09 -1.019776e+02 1.519906e+01 -1.920774e+01
-4.820743e+09 -4.620738e+09 -4.780741e+09 1.694897e+03 -5.566998e+01 -2.663132e+02
-5.007194e+09 -4.807189e+09 -4.967194e+09 3.503934e+01 1.161127e+02 2.912783e+02
-4.285355e+09 -4.085350e+09 -4.245353e+09 7.972960e+02 -2.511676e+02 3.882840e+02
-1.788681e+09 -1.588680e+09 -1.748680e+09 4.875666e+01 -3.029777e+00 -3.383207e+01
-4.829516e+09 -4.629513e+09 -4.789515e+09 1.064835e+03 3.314960e+02 3.599407e+02
-4.042123e+09 -3.842122e+09 -4.002122e+09 5.671713e+01 4.658174e+00 -2.286630e+00
-4.486283e+09 -4.286279e+09 -4.446281e+09 1.461613e+03 -1.299004e+02 -4.676390e+00
-3.953019e+09 -3.753018e+09 -3.913018e+09 2.829822e+02 3.454092e+01 2.228580e+01
-3.993988e+09 -3.793987e+09 -3.953987e+09 2.567413e-01 -1.867837e+00 7.889689e-01
-4.095230e+09 -3.895226e+09 -4.055229e+09 2.284691e+02 1.991133e+02 5.129383e+02
-4.188602e+09 -3.988609e+09 -4.148606e+09 -2.736322e+02 -6.387265e+02 1.940295e+01
-3.880328e+09 -3.680335e+09 -3.840333e+09 -9.391327e+02 -1.274706e+03 -1.602019e+02
-2.265050e+09 -2.065051e+09 -2.225053e+09 -2.870202e+03 -2.045915e+02 1.677649e+02
-3.742607e+09 -3.542605e+09 -3.702607e+09 -2.704318e+02 3.956922e+02 -5.265707e+02
-1.697066e+09 -1.497065e+09 -1.657066e+09 2.642421e+02 4.981569e+01 -1.107903e+01
-1.588498e+09 -1.388497e+09 -1.548497e+09 -7.681599e+00 2.557366e+01 -5.765199e+01
-2.157214e+09 -1.957217e+09 -2.117217e+09 -3.809185e+02 3.233177e+02 -5.757861e+01
-2.470832e+09 -2.270833e+09 -2.430834e+09 -1.258241e+03 1.625535e+02 1.349210e+02
-3.727453e+09 -3.527453e+09 -3.687455e+09 -1.457030e+03 2.286077e+02 -2.948452e+02
-4.641781e+09 -4.441779e+09 -4.601783e+09 -2.214389e+03 3.723304e+02 -5.422394e+02
-3.931241e+09 -3.731248e+09 -3.891245e+09 -1.387695e+03 5.061436e+00 6.068802e+02
-3.144185e+09 -2.944188e+09 -3.104189e+09 -2.011723e+03 -1.878555e+02 8.683239e+01
-1.972163e+09 -1.772163e+09 -1.932163e+09 2.296408e+02 1.633754e+01 -7.498189e+00
-4.468969e+09 -4.268968e+09 -4.428969e+09 4.624326e+02 2.783971e+01 -3.057842e+01
-4.513843e+09 -4.313844e+09 -4.473844e+09 -1.301281e+02 -1.296676e+01 8.546853e-02
-3.860708e+09 -3.660709e+09 -3.820708e+09 1.597371e+02 1.507566e+01 -7.726761e+00
-4.984346e+09 -4.784347e+09 -4.944347e+09 1.367223e+02 -1.231314e+01 -2.370513e+00
-3.920056e+09 -3.720058e+09 -3.880057e+09 2.085870e+02 2.619516e+01 4.686573e+01
-4.615623e+09 -4.415622e+09 -4.575622e+09 -3.120562e-01 0.000000e+00 -4.124772e-01
-4.777768e+09 -4.577769e+09 -4.737769e+09 -2.052550e+02 -8.541343e+00 -3.902555e+01
-1.583547e+09 -1.383547e+09 -1.543547e+09 2.268882e+02 5.891588e+01 -1.712081e+01
-1.595650e+09 -1.395649e+09 -1.555649e+09 1.174286e+02 3.843202e+01 -2.537941e+01
-4.106183e+09 -3.906184e+09 -4.066184e+09 -1.264745e+02 -1.829784e+01 -3.948698e+01
-3.966716e+09 -3.766716e+09 -3.926716e+09 4.144286e+02 4.388492e+01 3.588882e+00
-4.441860e+09 -4.241861e+09 -4.401861e+09 -3.383885e+02 -1.350558e+01 4.091149e+00
-4.124475e+09 -3.924474e+09 -4.084475e+09 3.651160e+02 -2.211302e+00 -6.162497e+01
-3.416617e+09 -3.216617e+09 -3.376617e+09 4.595790e-01 2.932370e+01 -1.179338e+00
-3.824804e+09 -3.624805e+09 -3.784805e+09 -8.932138e+01 -2.974653e+01 3.090823e+01
-2.155458e+09 -1.955458e+09 -2.115458e+09 9.927902e+00 5.247010e+00 -2.613881e+00
-4.697659e+09 -4.497661e+09 -4.657660e+09 -8.997514e+01 2.784034e+00 3.894597e+01
-2.095531e+09 -1.895531e+09 -2.055531e+09 5.879374e+01 1.991852e+01 2.035300e+01
-4.697659e+09 -4.497661e+09 -4.657660e+09 -9.624652e+01 -4.800587e+00 -3.672454e+01
-4.489860e+09 -4.289862e+09 -4.449859e+09 1.931965e+02 3.618899e+01 1.327895e+01
-4.981306e+09 -4.781308e+09 -4.941308e+09 1.816194e+02 -9.854924e+00 -1.135518e+00
-3.687544e+09 -3.487545e+09 -3.647545e+09 5.771068e+00 2.587004e+00 5.484608e-01
-4.468455e+09 -4.268457e+09 -4.428457e+09 8.065732e+01 1.282368e+01 -2.243011e+01
-2.687461e+09 -2.487462e+09 -2.647459e+09 2.972066e+02 4.740896e+00 2.850785e+01
-4.303853e+09 -4.103853e+09 -4.263859e+09 -3.697139e+03 3.137574e+03 2.344039e+03
-3.390611e+09 -3.190613e+09 -3.350610e+09 1.462488e+02 3.264895e+00 1.910434e+01
-4.298342e+09 -4.098345e+09 -4.258344e+09 -5.894487e+02 1.036671e+00 -1.620480e+02
-4.280889e+09 -4.080899e+09 -4.240889e+09 6.918599e+02 1.358657e+02 3.309580e+03
-4.981828e+09 -4.781836e+09 -4.941828e+09 -1.987973e+03 -1.298389e+02 1.756998e+02
-4.715563e+09 -4.515565e+09 -4.675562e+09 2.680732e+02 -1.286990e+01 -2.875857e+01
-2.003682e+09 -1.803682e+09 -1.963682e+09 -2.591234e+02 -5.451301e+01 -5.368967e-01
-3.825775e+09 -3.625776e+09 -3.785776e+09 -3.209104e+02 -3.830507e+01 -2.386363e+01
-4.527686e+09 -4.327688e+09 -4.487685e+09 3.431461e+02 4.742115e+01 3.655500e+01
-4.634141e+09 -4.434144e+09 -4.594143e+09 -4.170318e+02 -6.854706e+00 -9.817334e+00
-1.584141e+09 -1.384143e+09 -1.544142e+09 -3.669370e+01 -1.227367e+01 7.562115e+00
-4.984513e+09 -4.784515e+09 -4.944515e+09 4.877498e+01 7.615148e+00 -2.271285e+00
-3.381314e+09 -3.181314e+09 -3.341314e+09 -1.407446e+01 -3.723329e+01 -1.107441e+00
-3.881656e+09 -3.681658e+09 -3.841655e+09 3.208883e+02 -3.876176e+01 1.274177e+01
-4.345549e+09 -4.145547e+09 -4.305548e+09 7.220321e+02 5.796383e+01 -4.181071e+01
-1.696948e+09 -1.496948e+09 -1.656948e+09 3.076168e+02 4.197692e+01 -2.270437e+01
-2.982086e+09 -2.782084e+09 -2.942085e+09 -4.082937e+01 -2.757692e-01 -1.923282e+01
-4.491431e+09 -4.291430e+09 -4.451430e+09 -2.510649e+01 -8.222312e+00 -2.330200e+01
-3.952639e+09 -3.752640e+09 -3.912640e+09 5.214850e+02 4.073599e+01 2.708828e+01
-4.823017e+09 -4.623019e+09 -4.783018e+09 4.779334e+02 -1.975350e+01 -7.794811e+01
-4.296303e+09 -4.096305e+09 -4.256305e+09 4.322022e+02 1.578209e+01 -3.614788e+01
-4.656773e+09 -4.456772e+09 -4.616773e+09 -1.846754e+03 -7.464072e+01 2.097871e+02
-4.986809e+09 -4.786816e+09 -4.946811e+09 -2.002909e+03 -2.341749e+02 5.345369e+02
-4.788704e+09 -4.588701e+09 -4.748704e+09 -1.543375e+03 -8.121135e+01 -3.238415e+01
-2.562330e+09 -2.362332e+09 -2.522331e+09 9.923004e+01 3.168632e+01 7.303483e+00
-4.140313e+09 -3.940312e+09 -4.100314e+09 -1.960662e+03 -1.081255e+02 4.212019e+02
-3.961980e+09 -3.761981e+09 -3.921981e+09 5.414486e+02 3.717396e+01 1.705889e+00
-4.325550e+09 -4.125550e+09 -4.285551e+09 -2.366528e+03 1.464367e+02 -4.067332e+01
-3.965431e+09 -3.765431e+09 -3.925431e+09 6.880430e+02 4.320153e+01 5.002769e+01
-4.138904e+09 -3.938901e+09 -4.098904e+09 -1.372091e+03 -2.470161e+02 6.985891e+02
-4.999309e+09 -4.799307e+09 -4.959309e+09 -1.675074e+03 7.999680e+01 -3.913420e+01
-3.963427e+09 -3.763423e+09 -3.923427e+09 1.659931e+03 8.841241e+02 -8.551433e+02
-4.128302e+09 -3.928301e+09 -4.088302e+09 -1.924458e+03 1.412232e+02 -4.068453e+01
-4.476863e+09 -4.276863e+09 -4.436862e+09 -2.995339e+02 -1.170559e+00 -2.849828e+01
-3.937108e+09 -3.737094e+09 -3.897086e+09 -5.665182e+03 -1.282278e+04 -1.302363e+03
-4.462321e+09 -4.262321e+09 -4.422320e+09 -2.752587e+02 2.041043e+01 -4.363855e+01
-1.678366e+09 -1.478365e+09 -1.638364e+09 2.167954e+03 9.041409e+02 -3.407799e+02
-5.008159e+09 -4.808164e+09 -4.968160e+09 1.026559e+03 8.624965e+01 6.613213e+01
-4.829831e+09 -4.629828e+09 -4.789832e+09 -2.552474e+03 -2.156720e+02 5.380398e+02
-4.122248e+09 -3.922248e+09 -4.082247e+09 -2.415488e+02 -2.038801e+01 -3.585440e+01
-4.136373e+09 -3.936380e+09 -4.096376e+09 1.333262e+03 8.017582e+02 -1.041509e+02
-4.034860e+09 -3.834860e+09 -3.994859e+09 -4.181976e+02 3.108284e+01 -4.412439e+01
-4.133630e+09 -3.933630e+09 -4.093629e+09 -4.131609e+02 9.637994e+01 -3.746052e+01
-2.752552e+09 -2.552554e+09 -2.712554e+09 -2.013689e+01 6.225772e+00 2.770437e+01
-1.963417e+09 -1.763418e+09 -1.923418e+09 1.842096e+02 3.122130e+01 3.892950e+01
-4.996549e+09 -4.796544e+09 -4.956547e+09 -3.550561e+03 6.278089e+01 -3.918575e+02
-3.962056e+09 -3.762059e+09 -3.922049e+09 -6.259108e+03 -4.329319e+03 4.247755e+03
-2.932660e+09 -2.732658e+09 -2.892659e+09 1.715534e+02 4.394865e+02 -6.531531e+01
-2.214562e+09 -2.014568e+09 -2.174563e+09 1.775272e+03 -1.542661e+03 6.136312e+02
-4.015845e+09 -3.815847e+09 -3.975846e+09 -3.837473e+00 2.704820e+00 -2.769849e+00
-3.995405e+09 -3.795412e+09 -3.955415e+09 2.010812e+03 2.778897e+03 -3.381048e+02
-3.002804e+09 -2.802810e+09 -2.962809e+09 -4.652412e+02 2.364262e+02 2.157092e+02
-4.661539e+09 -4.461539e+09 -4.621501e+09 -2.541206e+03 -3.313216e+03 4.096314e+03
-2.479923e+09 -2.279925e+09 -2.439924e+09 -1.221700e+01 -7.112558e+00 1.065250e+01
-1.695991e+09 -1.495994e+09 -1.655995e+09 -2.839159e+03 -4.793781e+02 8.797129e+02
-2.618183e+09 -2.418183e+09 -2.578185e+09 3.290388e+02 -2.815824e+02 3.731136e+02
-1.840169e+09 -1.640174e+09 -1.800174e+09 4.350049e+02 -1.319390e+02 -1.249551e+02
-1.772329e+09 -1.572335e+09 -1.732335e+09 -9.704881e+01 2.308998e+02 7.854606e+02
-3.545136e+09 -3.345144e+09 -3.505142e+09 -4.017147e+02 -7.352439e+01 8.370782e+01
-2.793761e+09 -2.593763e+09 -2.753763e+09 -1.601585e+01 4.006701e+00 2.125275e+01
-1.845338e+09 -1.645340e+09 -1.805340e+09 6.372991e+01 1.923493e+00 2.989498e+01
-1.757518e+09 -1.557520e+09 -1.717520e+09 3.729007e+00 -6.096812e+00 1.462379e+01
-4.839930e+09 -4.639929e+09 -4.799930e+09 -2.273660e+02 -1.439184e+01 -7.419660e+01
-2.080105e+09 -1.880101e+09 -2.040103e+09 1.639127e+03 1.164398e+03 -7.921844e+02
-4.303203e+09 -4.103201e+09 -4.263202e+09 -4.062577e+02 -5.190765e+01 8.520535e+00
-3.969169e+09 -3.769170e+09 -3.929145e+09 -4.869058e+03 -6.288582e+03 7.320798e+03
-3.971720e+09 -3.771725e+09 -3.931724e+09 4.180646e+03 1.686765e+03 7.237802e+02
-3.952128e+09 -3.752137e+09 -3.912128e+09 -2.387374e+03 -6.751903e+02 3.085231e+03
-3.965040e+09 -3.765039e+09 -3.925039e+09 -5.254558e+02 -8.652431e+01 -3.359822e+01
-4.483782e+09 -4.283781e+09 -4.443781e+09 -6.174970e+02 -4.077105e+01 8.598231e+00
-3.949904e+09 -3.749903e+09 -3.909904e+09 -5.235445e+02 -7.903165e+01 -1.369555e+01
-1.636088e+09 -1.436090e+09 -1.596087e+09 -8.837568e+00 1.880417e+01 -1.447333e+02
-4.834118e+09 -4.634117e+09 -4.794117e+09 -4.274500e+02 -1.062824e+01 -7.556782e+01
-4.994738e+09 -4.794737e+09 -4.954737e+09 -5.188243e+02 -3.626298e+00 1.042826e+01
-4.483828e+09 -4.283827e+09 -4.443827e+09 -6.785999e+02 -4.787678e+01 1.297869e+01
-4.324988e+09 -4.124983e+09 -4.284965e+09 -6.051771e+03 -2.782080e+03 5.552159e+03
-4.647781e+09 -4.447775e+09 -4.607735e+09 -2.952274e+03 -2.790359e+03 2.549032e+03
-4.811359e+09 -4.611358e+09 -4.771318e+09 2.169240e+03 3.278995e+03 4.329959e+02
-4.632357e+09 -4.432351e+09 -4.592305e+09 2.999005e+02 1.494384e+03 1.851285e+03
-4.290122e+09 -4.090116e+09 -4.250052e+09 2.244137e+03 7.596487e+03 8.298788e+03
-4.358970e+09 -4.158973e+09 -4.318971e+09 2.207070e+03 3.370251e+02 -1.857538e+02
-4.124887e+09 -3.924887e+09 -4.084836e+09 4.884509e+03 6.737788e+03 1.619218e+04
-1.597382e+09 -1.397386e+09 -1.557382e+09 1.175620e+03 -7.258250e+02 1.440452e+02
-4.460227e+09 -4.260226e+09 -4.420227e+09 -9.998581e+02 -3.462515e+02 -7.376905e+01
-4.589632e+09 -4.389631e+09 -4.549633e+09 -1.055489e+03 -1.789752e+02 -1.585905e+02
-4.478001e+09 -4.278001e+09 -4.438002e+09 -1.476722e+03 -4.873235e+02 -3.662194e+02
-4.624142e+09 -4.424140e+09 -4.584141e+09 -9.010249e+02 -1.542588e+02 -1.800165e+02
-3.931744e+09 -3.731740e+09 -3.891745e+09 -2.544952e+02 -7.747772e+02 1.025540e+03
-4.090142e+09 -3.890142e+09 -4.050142e+09 -3.061533e+03 5.574825e+02 -8.660765e+01
-4.478030e+09 -4.278027e+09 -4.438031e+09 -1.805966e+03 -7.885653e+02 -5.712012e+02
-4.443397e+09 -4.243394e+09 -4.403396e+09 -1.210695e+03 -4.224796e+02 -3.269531e+02
-4.120629e+09 -3.920628e+09 -4.080633e+09 1.436871e+03 -1.758824e+03 1.371414e+03
-4.821262e+09 -4.621260e+09 -4.781263e+09 -1.104896e+03 -2.248208e+02 -5.686938e+00
-4.305843e+09 -4.105841e+09 -4.265843e+09 -7.260216e+02 -2.823692e+02 3.230779e+02
-4.494469e+09 -4.294471e+09 -4.454469e+09 1.895022e+03 1.962082e+02 -1.257663e+02
-4.134274e+09 -3.934273e+09 -4.094271e+09 -3.817922e+03 3.626009e+03 -5.541989e+02
-3.985994e+09 -3.785996e+09 -3.945993e+09 1.519023e+03 1.622348e+02 -3.468158e+01
-3.084098e+09 -2.884097e+09 -3.044097e+09 1.791058e+02 -2.600537e+02 6.349452e+01
-4.786102e+09 -4.586105e+09 -4.746102e+09 1.058603e+03 7.315613e+01 -4.870441e+01
-4.099637e+09 -3.899639e+09 -4.059636e+09 1.153789e+03 3.653154e+01 7.346299e+01
-4.820789e+09 -4.620792e+09 -4.780789e+09 1.183118e+03 1.032673e+02 -6.633623e+01
-3.561576e+09 -3.361577e+09 -3.521576e+09 3.319225e+02 -1.916023e+02 8.857027e+00
-3.963839e+09 -3.763837e+09 -3.923839e+09 -2.474072e+02 -3.346713e+02 3.214982e+02
-4.990939e+09 -4.790941e+09 -4.950938e+09 1.284915e+03 1.981277e+02 6.493109e+00
-4.837702e+09 -4.637703e+09 -4.797701e+09 1.549865e+03 -4.034241e+01 -2.910228e+00
-5.015692e+09 -4.815694e+09 -4.975691e+09 1.073015e+03 2.775039e+02 -5.162306e+01
-3.999089e+09 -3.799088e+09 -3.959088e+09 -3.518148e+02 -3.760732e+01 4.165805e-01
-4.122756e+09 -3.922756e+09 -4.082756e+09 -4.478259e+02 -8.338027e+00 -1.481558e+01
-4.976221e+09 -4.776220e+09 -4.936221e+09 -3.100701e+02 2.934900e+00 -6.181637e+01
-4.342322e+09 -4.142320e+09 -4.302321e+09 -2.829695e+02 -2.836778e+01 -1.712184e+01
-3.985839e+09 -3.785838e+09 -3.945838e+09 1.070332e+02 2.133041e+01 -7.778226e+00
-4.972530e+09 -4.772529e+09 -4.932529e+09 -3.210472e+02 -4.133326e+00 -1.772715e+01
-4.983220e+09 -4.783222e+09 -4.943221e+09 -1.805278e+03 3.875654e+02 8.288048e+01
-4.262534e+09 -4.062532e+09 -4.222533e+09 -2.605373e+02 -2.384648e+01 4.656968e+00
-4.976448e+09 -4.776446e+09 -4.936449e+09 -2.380825e+03 3.157670e+02 2.209224e+02
-4.235085e+09 -4.035084e+09 -4.195085e+09 -2.321448e+02 -1.421581e+01 2.727469e+01
-4.685554e+09 -4.485553e+09 -4.645554e+09 -2.381360e+02 -3.018114e+00 8.967138e+00
-3.963537e+09 -3.763538e+09 -3.923538e+09 -2.832641e+03 8.610391e+02 5.454967e+02
-3.958385e+09 -3.758391e+09 -3.918388e+09 -1.962204e+03 1.067278e+03 3.114963e+02
-4.499701e+09 -4.299700e+09 -4.459700e+09 -2.006515e+02 -1.037804e+01 4.722274e+00
-4.299668e+09 -4.099665e+09 -4.259661e+09 2.434888e+03 -9.433567e+02 -2.407370e+02
-4.783401e+09 -4.583398e+09 -4.743402e+09 -2.888421e+02 -2.673974e+02 2.745437e+01
-4.651702e+09 -4.451706e+09 -4.611708e+09 9.679322e+02 -7.887545e+02 2.560044e+02
-1.674676e+09 -1.474678e+09 -1.634675e+09 1.758107e+03 -1.031698e+03 4.175295e+02
-4.106305e+09 -3.906306e+09 -4.066299e+09 2.585988e+03 -8.442787e+02 -1.113143e+03
-4.456180e+09 -4.256179e+09 -4.416170e+09 7.072720e+02 2.624249e+02 -6.988471e+02
-3.979685e+09 -3.779668e+09 -3.939653e+09 -6.060139e+03 8.634553e+03 -2.787395e+03
-4.299666e+09 -4.099663e+09 -4.259654e+09 2.641679e+03 -2.663912e+03 2.445865e+02
-4.792771e+09 -4.592771e+09 -4.752765e+09 2.515850e+03 -6.279448e+02 -1.769794e+03
-3.976280e+09 -3.776281e+09 -3.936281e+09 -2.387133e+03 1.770267e+02 9.224334e+01
-4.627380e+09 -4.427382e+09 -4.587375e+09 1.473295e+03 6.800320e+01 -8.735390e+02
-4.277224e+09 -4.077224e+09 -4.237224e+09 3.919314e+02 -1.963929e+02 1.139330e+02
-4.449538e+09 -4.249540e+09 -4.409531e+09 2.537816e+03 -8.016797e+02 -1.508538e+03
-3.940913e+09 -3.740915e+09 -3.900910e+09 2.379897e+03 -1.034574e+03 -1.428953e+03
-4.125768e+09 -3.925768e+09 -4.085763e+09 2.721498e+03 -3.647994e+02 -1.337225e+03
-4.469000e+09 -4.269000e+09 -4.428995e+09 2.470978e+03 -5.787673e+02 -9.900365e+02
-4.974010e+09 -4.774009e+09 -4.934010e+09 -3.084222e+03 -7.843155e+01 7.302563e+01
-4.319128e+09 -4.119127e+09 -4.279124e+09 2.956605e+03 -8.709076e+02 -1.359591e+03
-4.292656e+09 -4.092656e+09 -4.252653e+09 2.823111e+03 -8.524684e+02 -1.075962e+03
-4.635890e+09 -4.435890e+09 -4.595888e+09 2.530845e+03 1.615704e+02 1.210545e+02
-3.975895e+09 -3.775894e+09 -3.935892e+09 3.056072e+03 -9.405347e+02 -1.140859e+03
-4.436615e+09 -4.236617e+09 -4.396611e+09 -1.786399e+03 1.003794e+03 -1.151455e+03
-3.889045e+09 -3.689047e+09 -3.849047e+09 -7.055468e+00 1.184319e+00 3.452175e+01
-4.319513e+09 -4.119514e+09 -4.279514e+09 -1.822487e+03 2.133481e+01 9.481933e+01
-4.662364e+09 -4.462359e+09 -4.622359e+09 2.584752e+03 -4.633266e+02 -2.357796e+02
-3.950846e+09 -3.750848e+09 -3.910847e+09 -1.766342e+03 1.593467e+02 -6.638623e+01
-4.319129e+09 -4.119124e+09 -4.279126e+09 3.539800e+03 -1.370769e+03 -1.446541e+03
-3.975896e+09 -3.775891e+09 -3.935891e+09 2.845573e+03 -1.985717e+03 -5.802605e+02
-4.127800e+09 -3.927803e+09 -4.087802e+09 -4.422764e+02 3.843068e+01 -2.131967e+01
-4.996588e+09 -4.796591e+09 -4.956590e+09 2.070717e+02 9.127822e+01 -3.189799e+01
-4.110651e+09 -3.910648e+09 -4.070650e+09 -1.001614e+03 -2.809121e+02 2.388138e+02
-4.134272e+09 -3.934276e+09 -4.094270e+09 -8.716499e+02 6.300207e+02 -1.543291e+03
-4.818093e+09 -4.618096e+09 -4.778094e+09 2.931095e+02 6.030331e+01 2.949856e+01
-4.289217e+09 -4.089215e+09 -4.249217e+09 -1.353294e+03 -2.680365e+02 5.517217e+02
-4.971057e+09 -4.771054e+09 -4.931057e+09 -9.102830e+02 -1.656271e+02 1.935595e+02
-4.632450e+09 -4.432447e+09 -4.592450e+09 -1.361867e+03 -1.041256e+02 2.776866e+02
-4.817098e+09 -4.617096e+09 -4.777098e+09 -1.204061e+03 -1.204027e+02 3.053243e+02
-4.133049e+09 -3.933047e+09 -4.093048e+09 -7.787976e+02 -2.917861e+02 4.633134e+02
-3.933054e+09 -3.733056e+09 -3.893056e+09 -1.521146e+03 6.332571e+01 5.401796e+01
-4.640827e+09 -4.440826e+09 -4.600828e+09 -1.646633e+03 -1.135197e+02 1.751341e+02
-2.303523e+09 -2.103526e+09 -2.263524e+09 1.152427e+03 -8.613355e+02 3.398738e+02
-2.205792e+09 -2.005793e+09 -2.165790e+09 2.952969e+02 4.120345e+01 1.380220e+01
-2.035154e+09 -1.835155e+09 -1.995152e+09 2.355015e+02 -3.025113e+00 3.180750e+01
-2.874461e+09 -2.674462e+09 -2.834460e+09 5.723599e+00 2.122820e+01 5.418955e-01
-5.007195e+09 -4.807189e+09 -4.967194e+09 6.906608e+01 2.351626e+02 1.177566e+02
-2.899771e+09 -2.699778e+09 -2.859775e+09 -2.064327e+03 -6.349250e+02 1.667480e+03
-4.292655e+09 -4.092658e+09 -4.252652e+09 1.101957e+03 2.394841e+02 -2.090998e+03
-4.134276e+09 -3.934275e+09 -4.094274e+09 2.099807e+03 -3.590184e+02 -6.238472e+02
-1.614911e+09 -1.414910e+09 -1.574910e+09 -3.320743e+01 -1.868094e+01 -4.728452e-01
-3.966716e+09 -3.766716e+09 -3.926716e+09 6.004861e+02 3.984660e+01 3.701720e+01
-2.215513e+09 -2.015512e+09 -2.175512e+09 -2.529818e+01 -1.525340e-01 -1.693888e+01
-4.995763e+09 -4.795765e+09 -4.955764e+09 1.019970e+03 -4.422491e+01 -1.569664e+02
-4.976036e+09 -4.776037e+09 -4.936036e+09 9.988652e+02 -6.303848e+01 -1.565983e+02
-2.040653e+09 -1.840652e+09 -2.000652e+09 -5.540195e+01 -1.726055e+01 -2.393544e+01
-1.843136e+09 -1.643135e+09 -1.803135e+09 -4.352920e+01 -1.531888e+01 -1.202369e+01
-4.980544e+09 -4.780546e+09 -4.940545e+09 -1.680326e+03 1.639539e+01 -1.603194e+02
-4.812234e+09 -4.612233e+09 -4.772229e+09 2.303555e+03 -4.253712e+02 -4.980575e+02
-2.152463e+09 -1.952465e+09 -2.112462e+09 2.564666e+02 2.658099e+00 3.581021e+01
-3.956072e+09 -3.756074e+09 -3.916071e+09 1.598722e+03 -2.381329e+02 -6.347147e+02
-4.134276e+09 -3.934276e+09 -4.094275e+09 1.593595e+03 -1.487802e+02 -3.185203e+02
-2.673463e+09 -2.473461e+09 -2.633462e+09 -6.819999e+00 -1.066331e+01 -9.696446e+00
-3.896085e+09 -3.696084e+09 -3.856083e+09 3.723099e+02 6.257900e+01 -2.174729e+01
-3.963095e+09 -3.763093e+09 -3.923098e+09 -3.159713e+03 1.516748e+03 1.263862e+03
-3.326090e+09 -3.126089e+09 -3.286089e+09 2.205333e+01 3.592667e+00 -4.887781e+00
-4.320729e+09 -4.120723e+09 -4.280729e+09 -1.982934e+03 5.295479e+02 1.681606e+03
-2.087358e+09 -1.887356e+09 -2.047357e+09 2.220214e+01 5.434622e+00 -6.218494e-01
-4.094746e+09 -3.894751e+09 -4.054764e+09 7.322975e+02 6.910039e+03 -1.560063e+02
-2.239600e+09 -2.039599e+09 -2.199599e+09 1.427003e+01 1.463864e+00 1.636628e-01
-3.958947e+09 -3.758932e+09 -3.918945e+09 -2.459261e+03 -3.037149e+03 -1.200984e+03
-2.670568e+09 -2.470566e+09 -2.630567e+09 3.676813e+01 8.906346e+00 -5.461766e+00
-3.964607e+09 -3.764609e+09 -3.924615e+09 3.584842e+03 3.725152e+03 -1.593396e+03
-2.901441e+09 -2.701440e+09 -2.861440e+09 1.888452e+00 2.815394e+00 -6.168779e+00
-4.648210e+09 -4.448211e+09 -4.608210e+09 -2.626270e+03 1.851799e+02 -8.968162e+01
-4.102239e+09 -3.902235e+09 -4.062239e+09 -1.445141e+03 -5.312120e+02 1.230580e+03
-4.998591e+09 -4.798591e+09 -4.958595e+09 -2.839260e+03 3.577122e+02 4.003339e+01
-4.971056e+09 -4.771054e+09 -4.931057e+09 -1.114727e+03 -1.952794e+02 2.293893e+02
-4.440767e+09 -4.240763e+09 -4.400770e+09 -2.328756e+02 -9.395563e+02 1.088594e+03
-4.091244e+09 -3.891239e+09 -4.051246e+09 -1.128100e+03 -7.358344e+02 1.864100e+03
-4.961442e+09 -4.761438e+09 -4.921444e+09 -6.656102e+02 -4.053637e+02 4.022240e+02
-3.956238e+09 -3.756235e+09 -3.916238e+09 5.195124e+02 -8.145195e+02 8.182279e+02
-4.679483e+09 -4.479486e+09 -4.639482e+09 7.138504e+02 3.794468e+01 -1.033511e+01
-2.206084e+09 -2.006086e+09 -2.166083e+09 1.485549e+02 -3.380766e+01 9.068803e+00
-4.054092e+09 -3.854095e+09 -4.014091e+09 2.110198e+02 -3.580895e+01 3.410478e+01
-4.118394e+09 -3.918390e+09 -4.078398e+09 -5.227083e+02 -1.793386e+03 2.641011e+03
-4.979574e+09 -4.779579e+09 -4.939575e+09 5.672456e+02 9.480431e+01 6.552593e+01
-3.248791e+09 -3.048798e+09 -3.208793e+09 3.997174e+02 2.832512e+02 -1.838955e+01
-4.986533e+09 -4.786530e+09 -4.946537e+09 -2.444895e+02 -4.366686e+02 3.228014e+02
-4.159303e+09 -3.959307e+09 -4.119303e+09 8.318754e+02 1.797127e+01 6.233038e-01
-3.582236e+09 -3.382242e+09 -3.542237e+09 2.649468e+02 9.947575e+01 -2.782958e+01
-3.727335e+09 -3.527340e+09 -3.687336e+09 2.351536e+02 -3.776382e+01 5.450536e+01
-1.686772e+09 -1.486774e+09 -1.646771e+09 1.062183e+03 2.694612e+01 2.652123e+01
-4.397800e+09 -4.197805e+09 -4.357800e+09 1.064723e+02 2.210225e+01 1.462110e+01
-3.354200e+09 -3.154198e+09 -3.314199e+09 1.929864e+03 8.183501e+02 -3.278901e+02
-4.985070e+09 -4.785071e+09 -4.945069e+09 5.311768e+02 -4.274831e+01 -4.019626e+00
-4.785082e+09 -4.585071e+09 -4.745083e+09 -3.625815e+03 2.540254e+02 -1.359784e+02
-2.857285e+09 -2.657288e+09 -2.817284e+09 8.539317e+01 -4.953058e+00 -1.501058e+01
-3.723287e+09 -3.523291e+09 -3.683287e+09 6.857609e+02 5.504418e+01 -4.640117e+01
-3.558096e+09 -3.358101e+09 -3.518097e+09 3.833261e+02 2.835776e+01 -3.321631e+01
-3.735345e+09 -3.535350e+09 -3.695345e+09 1.332978e+02 -1.841882e+01 4.610839e+00
-4.162620e+09 -3.962626e+09 -4.122622e+09 -4.156175e+02 3.321627e+02 3.645021e+01
-2.987143e+09 -2.787149e+09 -2.947144e+09 2.693831e+02 2.227899e+01 1.952521e+01
-2.601108e+09 -2.401113e+09 -2.561109e+09 -6.316894e+02 1.682196e+02 -1.520577e+01
-3.406261e+09 -3.206264e+09 -3.366261e+09 -9.666527e+02 8.619012e+01 1.617514e+01
-4.671657e+09 -4.471663e+09 -4.631658e+09 1.703221e+02 -3.235789e+01 1.022571e+01
-4.075351e+09 -3.875355e+09 -4.035351e+09 -4.263208e+02 -3.494779e+01 1.029748e+01
-4.697496e+09 -4.497499e+09 -4.657496e+09 -1.987906e+02 9.441539e+01 -9.855817e+00
-3.405820e+09 -3.205820e+09 -3.365820e+09 -2.988003e+02 -2.166006e+01 7.779643e-01
-3.075635e+09 -2.875638e+09 -3.035635e+09 -3.220812e+02 3.386354e+01 -5.118488e+01
-1.566317e+09 -1.366322e+09 -1.526322e+09 5.249855e+02 -1.288651e+02 2.752620e+02
-4.448115e+09 -4.248114e+09 -4.408115e+09 -2.174080e+02 -1.367397e+01 7.716327e+00
-2.773021e+09 -2.573024e+09 -2.733021e+09 -4.843960e+02 -1.298025e+01 -1.027838e+02
-2.640996e+09 -2.440995e+09 -2.600995e+09 -1.640205e+02 -3.251457e+01 -9.691684e+00
-3.935345e+09 -3.735348e+09 -3.895345e+09 -4.557950e+02 1.872228e+01 2.269224e+01
-3.449427e+09 -3.249426e+09 -3.409426e+09 -4.563958e+00 -2.859392e+01 1.222908e+00
-3.128874e+09 -2.928877e+09 -3.088874e+09 -2.526222e+02 -1.954142e+01 -1.107056e+02
-4.997048e+09 -4.797055e+09 -4.957052e+09 1.159896e+03 3.083768e+02 7.591700e+01
-4.487960e+09 -4.287966e+09 -4.447963e+09 1.368180e+03 5.848270e+02 -1.268189e+02
-4.334222e+09 -4.134229e+09 -4.294225e+09 5.366909e+02 3.430650e+02 -3.016511e+00
-4.667023e+09 -4.467029e+09 -4.627025e+09 1.241684e+03 1.548437e+02 -1.177405e+02
-4.822839e+09 -4.622845e+09 -4.782841e+09 1.353937e+03 -5.512216e-01 -1.184520e+01
-4.689255e+09 -4.489261e+09 -4.649257e+09 8.234318e+02 1.794611e+02 -5.540004e+01
-1.861527e+09 -1.661528e+09 -1.821527e+09 2.911548e+02 4.111212e+01 -1.808475e+01
-2.082671e+09 -1.882671e+09 -2.042671e+09 2.673398e+02 2.859108e+01 6.345133e+00
-4.412741e+09 -4.212743e+09 -4.372743e+09 -3.570899e+00 1.855144e+00 -1.714204e+00
-4.639536e+09 -4.439538e+09 -4.599538e+09 4.332302e+02 -1.532651e+01 -9.470800e+01
-4.147077e+09 -3.947079e+09 -4.107079e+09 -4.461990e+02 -4.331383e+00 -7.605416e+01
-2.383458e+09 -2.183459e+09 -2.343459e+09 2.524665e+02 3.309310e+01 -8.722489e-01
-2.514182e+09 -2.314183e+09 -2.474183e+09 2.348613e+02 2.735241e+01 1.460208e+01
-4.115030e+09 -3.915032e+09 -4.075031e+09 2.435316e+02 8.195528e+00 -5.828867e+01
-1.935812e+09 -1.735812e+09 -1.895810e+09 5.259512e+02 1.004277e+02 4.409136e+00
-4.134521e+09 -3.934523e+09 -4.094522e+09 -2.686945e+02 -5.679893e+00 6.936898e+01
-4.406162e+09 -4.206163e+09 -4.366163e+09 9.986523e+01 2.006669e+01 -2.100284e+01
-4.215974e+09 -4.015976e+09 -4.175975e+09 1.147527e+02 5.467962e+00 -4.056128e+01
-2.725638e+09 -2.525639e+09 -2.685639e+09 -1.812738e+00 -7.145602e+00 -3.635847e-01
-3.174423e+09 -2.974425e+09 -3.134424e+09 -1.087673e+01 -3.055262e+00 -3.913193e+00
-4.996622e+09 -4.796623e+09 -4.956623e+09 4.532909e+02 1.754109e+00 -4.102330e+01
-4.480417e+09 -4.280419e+09 -4.440419e+09 -5.704759e+01 -5.103918e+00 1.051857e+01
-4.230127e+09 -4.030127e+09 -4.190127e+09 2.976978e+02 4.633591e+00 -2.750255e+01
-4.066522e+09 -3.866522e+09 -4.026522e+09 3.292573e+02 -5.232337e+00 -3.487063e+01
-2.292955e+09 -2.092954e+09 -2.252954e+09 -3.706681e+02 -3.490258e+01 -6.582841e+01
-1.542621e+09 -1.342623e+09 -1.502620e+09 5.024164e+02 -1.150357e+02 7.572960e+01
-4.795705e+09 -4.595705e+09 -4.755705e+09 3.230666e+02 1.994374e+01 3.200675e+01
-4.632703e+09 -4.432703e+09 -4.592703e+09 3.034333e+02 1.299861e+01 5.231765e+00
-2.086421e+09 -1.886421e+09 -2.046419e+09 2.305889e+02 1.122681e+02 6.893971e+00
-4.099208e+09 -3.899210e+09 -4.059207e+09 3.536556e+02 2.129059e+01 -2.355451e+01
-1.600399e+09 -1.400398e+09 -1.560398e+09 -1.516984e+02 -3.820313e+01 -2.445718e+01
-3.837375e+09 -3.637377e+09 -3.797374e+09 5.230677e+02 7.481908e+01 8.903275e+00
-3.448411e+09 -3.248411e+09 -3.408409e+09 2.641521e+02 1.191762e+01 -2.497928e+01
-3.407924e+09 -3.207932e+09 -3.367930e+09 5.036763e+02 2.594556e+02 8.075167e+02
-4.115793e+09 -3.915795e+09 -4.075792e+09 4.968365e+02 4.430347e+01 -2.909276e+01
-2.305725e+09 -2.105723e+09 -2.265724e+09 -2.353118e+02 -2.781119e+01 -4.619573e+01
-2.257346e+09 -2.057345e+09 -2.217345e+09 -1.959912e+02 -3.767165e+01 -7.754548e+01
-3.886970e+09 -3.686972e+09 -3.846969e+09 4.430509e+02 -1.311291e+00 4.041552e+01
-3.149844e+09 -2.949845e+09 -3.109842e+09 6.699961e+02 2.622438e+01 2.202317e+01
-4.538409e+09 -4.338411e+09 -4.498408e+09 6.557549e+02 -3.345919e+01 -3.600899e+01
-1.584614e+09 -1.384621e+09 -1.544622e+09 6.572515e+02 3.269440e+00 4.666081e+02
-2.213260e+09 -2.013265e+09 -2.173260e+09 -1.512626e+02 5.449532e+01 -5.161233e+01
-2.679745e+09 -2.479750e+09 -2.639746e+09 -1.102325e+02 -8.977170e+01 -5.349485e+01
-2.619678e+09 -2.419683e+09 -2.579678e+09 -2.119648e+02 1.342763e+02 -2.278152e+01
-3.888141e+09 -3.688146e+09 -3.848141e+09 -6.276966e+01 -3.084148e+01 -3.873543e+01
-3.516941e+09 -3.316946e+09 -3.476942e+09 -2.150105e+02 1.438804e+02 -5.073278e+01
-3.793123e+09 -3.593128e+09 -3.753124e+09 -5.112936e+02 1.255200e+02 -3.980259e+01
-3.844054e+09 -3.644060e+09 -3.804055e+09 -7.698212e+01 -1.938116e+01 -3.513392e+01
-1.907262e+09 -1.707264e+09 -1.867263e+09 1.928802e+02 2.204076e+01 1.750346e+01
-2.126482e+09 -1.926484e+09 -2.086483e+09 1.576019e+02 1.808037e+01 -1.373191e+00
-1.807630e+09 -1.607631e+09 -1.767631e+09 1.160161e+02 8.927012e+00 1.895670e+01
-2.993899e+09 -2.793900e+09 -2.953900e+09 2.004325e+02 -2.484145e+00 7.017882e+00
-4.981479e+09 -4.781476e+09 -4.941479e+09 -9.340426e+01 -2.344650e+00 -9.270306e+01
-2.882558e+09 -2.682560e+09 -2.842559e+09 1.583207e+02 2.700206e+01 3.472240e+01
-3.298616e+09 -3.098625e+09 -3.258622e+09 3.289360e+02 2.332310e+02 1.135659e+03
-4.707622e+09 -4.507619e+09 -4.667622e+09 -7.308310e+01 -2.417363e+02 1.974176e+01
-2.885848e+09 -2.685850e+09 -2.845849e+09 1.467273e+02 1.692200e+01 1.288724e+01
-2.639619e+09 -2.439620e+09 -2.599620e+09 3.031591e+02 8.734349e+00 5.633280e+01
-3.768881e+09 -3.568879e+09 -3.728883e+09 8.711864e+02 -4.242138e+02 -4.424206e+02
-2.194758e+09 -1.994760e+09 -2.154759e+09 1.941060e+02 1.372303e+01 3.450078e+01
-2.880060e+09 -2.680061e+09 -2.840061e+09 1.982595e+02 -3.838716e+00 2.059678e+01
-4.826409e+09 -4.626403e+09 -4.786409e+09 -5.827467e+01 -2.650736e+01 4.374340e+01
-4.826387e+09 -4.626383e+09 -4.786387e+09 1.484399e+03 7.447588e+01 1.146348e+02
-4.139944e+09 -3.939938e+09 -4.099944e+09 2.903911e+02 6.507102e+02 -1.300621e+03
-4.439579e+09 -4.239574e+09 -4.399578e+09 7.478048e+02 3.457090e+02 -4.427776e+02
-4.651817e+09 -4.451813e+09 -4.611818e+09 2.034229e+03 4.699112e+02 -3.977179e+02
-3.942547e+09 -3.742546e+09 -3.902546e+09 3.438049e+02 -1.218186e+02 7.798370e+00
-4.571533e+09 -4.371532e+09 -4.531532e+09 -8.156776e+00 -1.370225e+02 -1.001730e+01
-4.075672e+09 -3.875671e+09 -4.035671e+09 2.055643e+02 -1.514970e+02 1.045041e+02
-4.478775e+09 -4.278766e+09 -4.438782e+09 -4.092738e+02 -1.781577e+03 -1.207364e+03
-4.247249e+09 -4.047246e+09 -4.207250e+09 -4.476826e+02 -5.738809e+02 7.994161e+02
-3.771160e+09 -3.571159e+09 -3.731159e+09 3.900876e+02 -1.262839e+02 3.228120e+01
-3.793201e+09 -3.593200e+09 -3.753200e+09 2.704401e+02 -4.838300e+01 5.378743e+00
-4.785281e+09 -4.585280e+09 -4.745280e+09 3.998360e+02 -1.878600e+02 1.113412e+02
-3.692905e+09 -3.492903e+09 -3.652905e+09 1.992319e+02 3.266379e+02 -8.300410e+01
-3.296095e+09 -3.096101e+09 -3.256098e+09 1.230819e+03 -1.862325e+03 5.908568e+02
-3.835560e+09 -3.635567e+09 -3.795563e+09 9.046270e+01 -2.628870e+02 4.656961e+01
-1.583794e+09 -1.383802e+09 -1.543796e+09 9.419373e+02 -1.085721e+03 2.589867e+02
-4.993537e+09 -4.793535e+09 -4.953537e+09 -3.620075e+02 -1.082016e+02 1.339400e+02
-4.075653e+09 -3.875660e+09 -4.035656e+09 3.200999e+02 -2.263739e+02 5.999897e+01
-4.986376e+09 -4.786381e+09 -4.946378e+09 7.824954e+02 -2.548898e+02 -4.135969e+01
-4.890117e+09 -4.690123e+09 -4.850119e+09 6.213593e+01 4.097986e-08 3.693310e+01
-2.297014e+09 -2.097018e+09 -2.257018e+09 1.697165e+03 3.045469e+02 1.960076e+02
-1.767731e+09 -1.567737e+09 -1.727737e+09 2.169872e+03 4.484483e+02 1.311666e+03
-1.913482e+09 -1.713482e+09 -1.873482e+09 -4.284769e+01 -3.015619e+01 -1.668790e+01
-2.960617e+09 -2.760620e+09 -2.920621e+09 1.799017e+03 -2.570877e+01 2.801842e+01
-3.250492e+09 -3.050494e+09 -3.210495e+09 1.942308e+03 -1.011547e+02 3.958208e+00
-3.063263e+09 -2.863262e+09 -3.023267e+09 3.020846e+03 1.724669e+02 -7.332219e+02
-4.986471e+09 -4.786471e+09 -4.946470e+09 3.123362e+02 -1.336006e+02 3.724107e+01
-3.996584e+09 -3.796587e+09 -3.956585e+09 9.022517e+02 -4.467288e+02 9.125457e+01
-4.632848e+09 -4.432848e+09 -4.592847e+09 1.187645e+02 2.897693e+01 1.187967e+00
-1.894132e+09 -1.694132e+09 -1.854136e+09 3.312610e+03 2.313790e+02 -4.823102e+02
-3.440482e+09 -3.240480e+09 -3.400480e+09 -4.978609e+01 -1.450559e+00 -7.893946e+01
-1.894685e+09 -1.694684e+09 -1.854686e+09 1.399889e+03 -2.916217e+02 -6.328792e+02
-3.544152e+09 -3.344156e+09 -3.504152e+09 5.024906e+02 8.929293e+01 -1.964212e+01
-4.298565e+09 -4.098564e+09 -4.258565e+09 5.731772e+02 -5.385595e+02 3.380741e+02
-3.494651e+09 -3.294651e+09 -3.454650e+09 -4.484760e+01 -1.414780e+01 -7.120531e+01
-4.487998e+09 -4.288001e+09 -4.447997e+09 6.411907e+02 4.385374e+01 -5.703592e+01
-4.974607e+09 -4.774606e+09 -4.934606e+09 -1.141820e+02 1.131957e+01 1.976160e+01
-3.192234e+09 -2.992238e+09 -3.152234e+09 9.792158e+02 1.743594e+02 -4.513270e+01
-2.947740e+09 -2.747743e+09 -2.907740e+09 9.257833e+02 1.465440e+02 5.139171e+01
-3.827407e+09 -3.627406e+09 -3.787406e+09 -1.376672e+02 -2.536165e+01 -2.402253e+01
-3.165636e+09 -2.965641e+09 -3.125636e+09 5.156222e+02 2.305868e+02 1.744566e-01
-2.945765e+09 -2.745767e+09 -2.905765e+09 8.001219e+02 -2.866352e+02 2.313921e+01
-3.355102e+09 -3.155105e+09 -3.315101e+09 6.808823e+02 5.156625e+01 3.138646e+01
-3.961058e+09 -3.761067e+09 -3.921059e+09 1.538894e+03 9.313295e+02 2.562255e+03
-4.127411e+09 -3.927410e+09 -4.087410e+09 -3.515090e+01 -1.328946e+02 -1.372152e+01
-4.991754e+09 -4.791761e+09 -4.951746e+09 -2.040196e+03 -5.273347e+02 7.553953e+02
-1.959784e+09 -1.759783e+09 -1.919783e+09 -6.219305e+01 -1.145647e+02 -5.415522e+01
-4.298926e+09 -4.098933e+09 -4.258913e+09 -2.085302e+03 -3.285436e+02 6.366904e+03
-4.991549e+09 -4.791548e+09 -4.951548e+09 -2.224820e+02 -1.285093e+01 1.964014e+01
-4.813947e+09 -4.613955e+09 -4.773939e+09 2.699538e+03 7.115383e+02 -6.197585e+01
-3.017655e+09 -2.817653e+09 -2.977654e+09 -6.524514e+01 -2.668878e-01 -2.076568e+01
-4.269017e+09 -4.069019e+09 -4.228987e+09 2.478634e+03 3.140176e+03 7.936330e+03
-4.998864e+09 -4.798870e+09 -4.958844e+09 -8.683901e+02 -6.705051e+02 1.005211e+03
-4.256166e+09 -4.056165e+09 -4.216165e+09 -1.105512e+02 -1.420943e+02 5.440142e+01
-1.579799e+09 -1.379808e+09 -1.539801e+09 -4.179545e+02 -1.163994e+03 2.519437e+01
-4.127907e+09 -3.927915e+09 -4.087893e+09 -8.694904e+02 -5.219011e+02 6.332228e+03
-4.127475e+09 -3.927487e+09 -4.087469e+09 2.845634e+03 1.293130e+03 8.005515e+03
-4.482005e+09 -4.282005e+09 -4.442005e+09 -8.893868e+02 -1.544327e+01 1.526839e+01
-4.130687e+09 -3.930688e+09 -4.090688e+09 -9.202810e+02 3.083557e+00 -7.905819e+01
-4.132635e+09 -3.932635e+09 -4.092635e+09 -7.445149e+02 1.603951e+00 -3.369480e+01
-3.954575e+09 -3.754575e+09 -3.914576e+09 -8.191492e+02 -6.031522e+01 5.706846e+01
-4.305896e+09 -4.105896e+09 -4.265896e+09 -7.295145e+02 -9.094119e+00 -3.472244e+01
-4.826643e+09 -4.626643e+09 -4.786603e+09 -2.920656e+03 -2.828409e+03 3.734745e+03
-4.987651e+09 -4.787652e+09 -4.947652e+09 -6.482842e+02 -4.416186e+00 -4.462861e+01
-4.985271e+09 -4.785266e+09 -4.945272e+09 1.683459e+03 -2.480849e+02 -1.076800e+02
-4.304536e+09 -4.104537e+09 -4.264536e+09 -7.223775e+02 -6.856943e+00 -3.613052e+01
-4.981479e+09 -4.781476e+09 -4.941479e+09 -4.377431e+00 -8.414973e+00 -1.252001e+02
-3.970210e+09 -3.770217e+09 -3.930217e+09 4.674126e+02 -2.184606e+03 3.232128e+02
-4.142364e+09 -3.942365e+09 -4.102365e+09 -6.616444e+02 -5.531573e+01 2.642047e+01
-4.819100e+09 -4.619101e+09 -4.779101e+09 -7.477784e+02 -5.207540e+01 3.467439e+01
-4.995013e+09 -4.795009e+09 -4.955016e+09 -4.761679e+02 -5.587433e+02 -3.229684e+02
-2.555196e+09 -2.355204e+09 -2.515199e+09 -1.764959e+02 -7.212799e+02 -1.272665e+01
-3.392558e+09 -3.192556e+09 -3.352557e+09 -9.385438e+02 -7.137421e+02 -2.809520e+02
-3.037024e+09 -2.837032e+09 -2.997027e+09 2.236118e+01 -2.855107e+02 5.885831e+01
-4.001093e+09 -3.801101e+09 -3.961096e+09 -2.405739e+01 -2.410468e+02 2.087289e+01
-1.684378e+09 -1.484383e+09 -1.644383e+09 -1.183586e+03 1.756630e+01 2.605689e+02
-4.624497e+09 -4.424498e+09 -4.584495e+09 1.622224e+01 8.425467e+00 0.000000e+00
-2.861190e+09 -2.661198e+09 -2.821193e+09 4.382882e+01 -3.512554e+02 -4.275123e+00
-3.054195e+09 -2.854203e+09 -3.014198e+09 1.481936e+02 -8.819035e+02 1.251066e+01
-3.414042e+09 -3.214050e+09 -3.374046e+09 1.575966e+02 -1.194277e+03 1.763562e+02
-2.211480e+09 -2.011477e+09 -2.171478e+09 2.096219e+02 5.543686e+02 -3.129635e+01
-4.985071e+09 -4.785071e+09 -4.945069e+09 2.570294e+02 7.668275e+01 3.545324e+01
-2.124119e+09 -1.924128e+09 -2.084121e+09 1.061897e+02 -7.317023e+02 1.564241e+02
-1.872170e+09 -1.672179e+09 -1.832173e+09 -1.179583e+03 -2.514943e+03 -2.441655e+02
-4.971527e+09 -4.771526e+09 -4.931525e+09 1.479868e+03 3.397602e+00 -4.768580e+01
-3.493310e+09 -3.293309e+09 -3.453309e+09 -1.255416e+02 -1.174192e+01 -2.344541e+01
-4.693217e+09 -4.493215e+09 -4.653216e+09 -2.285513e+02 -1.341778e+01 2.335348e+01
-4.759019e+09 -4.559017e+09 -4.719018e+09 -1.560501e+02 -1.568737e-01 2.488009e+01
-4.842934e+09 -4.642933e+09 -4.802933e+09 -2.452990e+02 -9.009540e+00 -4.258242e+01
-3.172085e+09 -2.972082e+09 -3.132083e+09 6.304135e+02 4.595178e+02 -1.574226e+02
-3.592422e+09 -3.392421e+09 -3.552420e+09 2.850756e+02 1.463069e+02 -8.326033e+01
-4.907949e+09 -4.707949e+09 -4.867947e+09 1.596552e+02 -8.321166e-01 -2.372352e-09
-4.477825e+09 -4.277824e+09 -4.437824e+09 -8.333407e+01 -6.954825e+00 -8.521483e+00
-2.972426e+09 -2.772421e+09 -2.932425e+09 -6.841063e+02 4.937805e+02 -1.085631e+03
-3.420976e+09 -3.220974e+09 -3.380975e+09 -7.567961e+01 -5.340194e+00 -1.191617e+01
-3.845721e+09 -3.645720e+09 -3.805720e+09 -8.353928e+01 -1.089414e+01 -2.112721e+01
-4.113815e+09 -3.913814e+09 -4.073815e+09 -1.490353e+03 -7.664299e+02 -3.215201e+02
-3.626801e+09 -3.426800e+09 -3.586800e+09 -7.668325e+02 -3.617630e+02 -8.435282e+01
-3.933022e+09 -3.733021e+09 -3.893021e+09 -9.668415e+02 -5.100839e+02 -3.043485e+02
-4.756727e+09 -4.556725e+09 -4.716726e+09 -7.603657e+02 -7.414932e+01 1.691900e+01
-4.803460e+09 -4.603458e+09 -4.763459e+09 -1.125681e+03 -3.020860e+02 -6.121661e+01
-4.996730e+09 -4.796730e+09 -4.956730e+09 4.289936e+02 -2.376994e+01 -3.770093e+01
-3.690368e+09 -3.490367e+09 -3.650368e+09 -7.707980e+02 -4.473397e+02 -1.500555e+02
-3.957013e+09 -3.757012e+09 -3.917012e+09 -1.050195e+03 -3.817347e+02 -1.643994e+02
-2.916761e+09 -2.716761e+09 -2.876760e+09 -7.292572e+01 -2.233116e+01 -6.425749e+01
-3.063394e+09 -2.863394e+09 -3.023393e+09 -6.461525e+01 4.957238e+01 -4.654741e+01
-4.652681e+09 -4.452684e+09 -4.612683e+09 5.425755e+01 1.124408e+01 1.116121e+01
-3.829150e+09 -3.629152e+09 -3.789152e+09 1.357651e+02 1.652555e+01 8.525763e+00
-3.753534e+09 -3.553533e+09 -3.713533e+09 -1.018809e+02 1.661928e+01 -6.606913e+01
-3.881534e+09 -3.681533e+09 -3.841533e+09 -1.372876e+01 9.685604e-01 -2.384252e+01
-2.695455e+09 -2.495454e+09 -2.655455e+09 1.233267e+02 3.160064e+01 -1.681129e+01
-2.018405e+09 -1.818404e+09 -1.978404e+09 1.409559e+02 2.911789e+01 1.416252e+00
-2.620240e+09 -2.420239e+09 -2.580239e+09 2.486178e+01 2.468554e+01 -1.664331e+01
-4.190405e+09 -3.990405e+09 -4.150405e+09 1.189800e+02 2.067182e+00 -4.128950e+01
-4.292135e+09 -4.092136e+09 -4.252136e+09 4.203205e+02 2.143060e+00 -8.000565e+01
-4.942732e+09 -4.742732e+09 -4.902732e+09 1.271200e+02 -1.514024e+01 2.462528e+00
-3.985839e+09 -3.785838e+09 -3.945838e+09 1.328236e+02 2.768317e+01 -1.188651e+01
-2.160612e+09 -1.960611e+09 -2.120611e+09 7.326409e+01 1.813961e+01 -2.158614e+01
-3.700120e+09 -3.500123e+09 -3.660120e+09 -3.627596e+02 1.044769e+02 -4.572049e+01
-2.063297e+09 -1.863297e+09 -2.023297e+09 1.057763e+02 3.396132e+01 -6.228266e+00
-3.828068e+09 -3.628067e+09 -3.788067e+09 9.358939e+01 1.685320e+01 -1.432286e+01
-1.881608e+09 -1.681607e+09 -1.841607e+09 7.589918e+01 1.933875e+01 -1.796174e+01
-1.832385e+09 -1.632385e+09 -1.792385e+09 5.470207e+01 2.811628e+01 -1.861750e+01
-4.981708e+09 -4.781711e+09 -4.941708e+09 -5.755905e+02 -1.391132e+02 -3.783512e+01
-3.821505e+09 -3.621503e+09 -3.781504e+09 -2.747508e+02 -2.921145e+01 3.577529e-01
-4.988006e+09 -4.788011e+09 -4.948007e+09 -4.321816e+02 3.849362e+01 -1.353800e+01
-4.419347e+09 -4.219346e+09 -4.379347e+09 -1.199138e+02 -8.152828e+00 -1.260976e+00
-4.455130e+09 -4.255128e+09 -4.415129e+09 -1.333926e+02 -9.888076e+00 -8.141334e+00
-3.813376e+09 -3.613375e+09 -3.773375e+09 -1.461341e+02 -3.239059e+01 -6.033184e+01
-3.824851e+09 -3.624857e+09 -3.784852e+09 8.069136e+02 9.437648e+01 -6.868272e+01
-4.980928e+09 -4.780931e+09 -4.940928e+09 -6.461108e+02 1.274502e+02 -7.695165e-01
-4.762373e+09 -4.562372e+09 -4.722372e+09 -2.408524e+02 -1.655780e+01 -1.740110e+01
-4.971353e+09 -4.771356e+09 -4.931353e+09 -3.390615e+02 -3.432866e+01 1.519384e+01
-3.657338e+09 -3.457342e+09 -3.617338e+09 -6.578244e+00 2.086598e+01 -1.290950e+01
-1.873728e+09 -1.673731e+09 -1.833728e+09 -7.612315e+02 -2.900545e+01 -1.321258e+02
-3.989945e+09 -3.789946e+09 -3.949946e+09 -2.806557e+02 -7.055990e+00 3.815110e+01
-1.883081e+09 -1.683089e+09 -1.843082e+09 1.591139e+02 -3.523223e+02 4.429849e+01
-3.970762e+09 -3.770761e+09 -3.930762e+09 2.170148e+02 3.509975e+01 -2.228829e+01
-3.985966e+09 -3.785973e+09 -3.945969e+09 3.972333e+02 -5.944319e+02 9.857426e+01
-4.151136e+09 -3.951132e+09 -4.111138e+09 4.226924e+02 -9.108374e+02 -1.149668e+03
-2.496327e+09 -2.296325e+09 -2.456326e+09 -3.310961e+02 -7.735716e+02 -2.366380e+02
-3.941433e+09 -3.741429e+09 -3.901434e+09 -1.094261e+03 -1.051070e+03 -7.969019e+02
-4.800716e+09 -4.600722e+09 -4.760719e+09 6.108151e+02 -5.472498e+02 3.376349e+01
-4.980502e+09 -4.780508e+09 -4.940505e+09 3.234039e+02 -9.613003e+01 7.465277e+01
-4.821396e+09 -4.621403e+09 -4.781400e+09 2.068094e+03 -3.621366e+01 3.519399e+02
-4.799234e+09 -4.599241e+09 -4.759238e+09 3.279521e+02 -1.889253e+01 2.900930e+00
-3.839948e+09 -3.639955e+09 -3.799950e+09 2.860060e+02 -2.835276e+02 7.611238e+01
-3.601104e+09 -3.401102e+09 -3.561102e+09 -7.446225e+01 -1.838876e+02 -1.909556e+01
-4.682618e+09 -4.482620e+09 -4.642619e+09 2.441055e+00 -5.561143e-01 -1.409873e+00
-4.001106e+09 -3.801107e+09 -3.961107e+09 3.478022e+00 -1.466448e+00 3.260044e+01
-1.585927e+09 -1.385929e+09 -1.545928e+09 -3.052841e+01 -5.281056e+00 1.391141e+01
-4.992618e+09 -4.792621e+09 -4.952620e+09 2.293318e+01 -4.450195e+00 -5.203365e+00
-1.747512e+09 -1.547510e+09 -1.707510e+09 -1.571396e+02 -3.355378e+02 -3.177801e+01
-3.521440e+09 -3.321441e+09 -3.481441e+09 -7.550379e+01 -2.344561e+01 4.712165e+01
-4.890116e+09 -4.690118e+09 -4.850118e+09 -5.802857e+00 -1.010664e+00 1.047274e-10
-2.123354e+09 -1.923352e+09 -2.083352e+09 -3.967970e+02 -2.176468e+02 -1.227997e+02
-4.134275e+09 -3.934277e+09 -4.094276e+09 1.714869e+01 3.559297e+00 -8.006697e-01
-3.963350e+09 -3.763352e+09 -3.923351e+09 7.885676e+01 3.227797e+00 -1.041262e+01
-4.976635e+09 -4.776637e+09 -4.936637e+09 -3.164103e+02 -1.077981e+01 -1.438445e+01
-2.549074e+09 -2.349071e+09 -2.509072e+09 -4.250428e+02 -2.043401e+02 -8.595264e+01
-4.107449e+09 -3.907449e+09 -4.067449e+09 -4.778072e+02 -3.986886e+01 5.749990e+01
-1.877628e+09 -1.677625e+09 -1.837626e+09 -4.681850e+02 -2.709947e+02 -5.161406e+01
-1.576291e+09 -1.376292e+09 -1.536292e+09 -2.085301e+02 -4.136158e+01 -1.150241e+00
-2.943789e+09 -2.743790e+09 -2.903790e+09 -4.956197e+01 -2.131269e+01 -4.911502e+00
-3.455923e+09 -3.255923e+09 -3.415923e+09 3.961643e+02 -7.171721e-01 -3.881826e+00
-4.481327e+09 -4.281329e+09 -4.441328e+09 8.142334e+01 7.280144e+00 -1.429984e+01
-3.831073e+09 -3.631075e+09 -3.791074e+09 1.484571e+01 9.409387e+00 2.501453e+01
-1.585927e+09 -1.385929e+09 -1.545928e+09 1.539060e+00 -4.482436e+00 8.364625e+00
-2.716857e+09 -2.516854e+09 -2.676855e+09 -1.356462e+02 -3.804528e+02 -7.329254e+01
-2.971043e+09 -2.771044e+09 -2.931045e+09 -1.297046e+03 -1.375526e+02 4.899491e+00
-3.219294e+09 -3.019291e+09 -3.179292e+09 -8.799760e+01 -3.132950e+02 -1.574307e+00
-2.296172e+09 -2.096170e+09 -2.256170e+09 -1.439350e+02 -3.952905e+02 -1.392771e+01
-4.043132e+09 -3.843131e+09 -4.003133e+09 -6.435073e+02 2.410949e+02 -1.899660e+02
-4.997260e+09 -4.797257e+09 -4.957260e+09 -1.791658e+03 7.108330e+02 -3.073751e+02
-4.635016e+09 -4.435002e+09 -4.595019e+09 -1.512290e+03 -3.461446e+02 -8.740907e+02
-4.291783e+09 -4.091770e+09 -4.251787e+09 -1.447112e+03 7.967424e+02 -2.732917e+03
-4.123882e+09 -3.923868e+09 -4.083888e+09 3.319330e+02 2.302050e+03 -4.044194e+03
-4.284414e+09 -4.084400e+09 -4.244420e+09 -1.574800e+03 3.774732e+03 -3.344313e+03
-4.768252e+09 -4.568249e+09 -4.728252e+09 -4.691479e+02 -2.771506e+01 1.103009e+02
-3.959028e+09 -3.759028e+09 -3.919025e+09 -4.559212e+03 -1.338418e+03 2.037387e+03
-4.814336e+09 -4.614338e+09 -4.774336e+09 -3.910331e+03 -9.574066e+02 1.082421e+03
-4.995903e+09 -4.795893e+09 -4.955885e+09 -5.893731e+03 -7.247363e+02 2.856260e+02
-4.810346e+09 -4.610333e+09 -4.770350e+09 -6.327425e+02 -1.217951e+03 -1.008354e+03
-2.833532e+09 -2.633531e+09 -2.793531e+09 -3.202577e+01 -1.059248e+00 -2.416374e+01
-3.425993e+09 -3.225991e+09 -3.385991e+09 -1.400479e+02 -1.560552e+01 -3.036761e+01
-3.152374e+09 -2.952372e+09 -3.112373e+09 -1.569800e+02 -1.864028e+01 -2.716235e+01
-4.678141e+09 -4.478141e+09 -4.638141e+09 3.614527e+03 2.117481e+02 -3.315242e+01
-4.502520e+09 -4.302519e+09 -4.462519e+09 -1.227395e+02 -1.252664e+01 -1.912580e+01
-3.956550e+09 -3.756548e+09 -3.916548e+09 -2.860095e+01 -1.755390e+00 -7.085674e+00
-4.985633e+09 -4.785632e+09 -4.945632e+09 -2.501928e+02 -5.478393e-01 1.996120e+01
-5.032074e+09 -4.832074e+09 -4.992074e+09 -1.649419e+03 3.503634e+01 -2.872876e+01
-3.184833e+09 -2.984831e+09 -3.144832e+09 -2.038305e+02 -1.933803e+01 -3.328432e+01
-4.756581e+09 -4.556580e+09 -4.716580e+09 -9.691159e+01 -2.238906e+00 1.377131e+01
-2.117663e+09 -1.917662e+09 -2.077662e+09 -7.452569e+01 -1.183321e+01 -3.065962e+01
-4.996328e+09 -4.796327e+09 -4.956327e+09 -7.660004e+01 -1.704767e+01 3.782932e+01
-2.106194e+09 -1.906193e+09 -2.066193e+09 -7.679387e+01 -1.024366e+01 -1.797070e+01
-4.991039e+09 -4.791037e+09 -4.951038e+09 -1.115687e+03 1.189126e+01 1.901124e+01
-2.772477e+09 -2.572476e+09 -2.732476e+09 2.269336e+01 -7.369678e-01 -1.674173e+01
-3.067325e+09 -2.867323e+09 -3.027324e+09 -3.359960e+01 2.585300e+00 -1.625829e+01
-2.363390e+09 -2.163388e+09 -2.323389e+09 -5.985619e+01 -9.004466e+00 5.117368e+00
-2.202388e+09 -2.002387e+09 -2.162387e+09 -3.226752e+01 -7.390494e+00 -2.486798e+01
-3.675251e+09 -3.475250e+09 -3.635250e+09 3.670281e+01 1.473339e+00 -2.571897e+01
-1.689582e+09 -1.489580e+09 -1.649581e+09 -1.943263e+01 -6.867822e-01 -2.772192e+01
-2.933880e+09 -2.733879e+09 -2.893879e+09 -1.584255e+00 -6.286882e-01 -2.519677e+00
-3.828150e+09 -3.628149e+09 -3.788149e+09 2.259035e+01 5.287571e+00 2.213341e+00
-1.623447e+09 -1.423446e+09 -1.583446e+09 2.849246e+01 9.293830e+00 -1.143348e+01
-3.756111e+09 -3.556110e+09 -3.716111e+09 8.892810e+01 1.259229e+01 -1.084623e+01
-2.686827e+09 -2.486826e+09 -2.646826e+09 4.071553e+01 1.485103e+01 3.798509e+00
-3.116542e+09 -2.916541e+09 -3.076542e+09 4.448225e+01 6.144966e+00 -4.322803e+00
-1.720815e+09 -1.520814e+09 -1.680814e+09 2.612573e+01 1.408381e+01 -2.308353e+00
-4.368185e+09 -4.168184e+09 -4.328184e+09 2.025918e+01 -1.367220e+01 -7.321731e+00
-4.243464e+09 -4.043464e+09 -4.203464e+09 1.301676e+02 1.493629e-01 -7.125488e+01
-3.564667e+09 -3.364667e+09 -3.524667e+09 3.333043e+02 -2.887490e+00 -5.129891e+01
-2.184726e+09 -1.984724e+09 -2.144725e+09 1.372391e+01 9.593215e-01 6.099581e+00
-2.686882e+09 -2.486885e+09 -2.646885e+09 -1.352559e+03 2.864724e+01 -2.642061e+00
-1.635445e+09 -1.435444e+09 -1.595444e+09 -2.785129e+00 2.691350e+01 -6.996506e+00
-2.583770e+09 -2.383769e+09 -2.543769e+09 2.050395e+01 1.356970e+01 -1.676536e+01
-4.395181e+09 -4.195180e+09 -4.355180e+09 8.921170e+01 9.960953e+00 -1.277794e+00
-2.213680e+09 -2.013679e+09 -2.173679e+09 1.889019e+01 3.354388e+00 -9.146055e+00
-2.664573e+09 -2.464572e+09 -2.624573e+09 1.998617e+01 7.435220e+00 -2.558449e+01
-4.019586e+09 -3.819584e+09 -3.979585e+09 -5.201904e+00 1.341191e+00 -1.107456e+01
-1.867435e+09 -1.667434e+09 -1.827434e+09 7.964360e+01 2.238016e+01 -1.917505e+01
-2.734671e+09 -2.534670e+09 -2.694670e+09 6.696783e+01 2.047463e+01 -2.379202e+01
-2.233621e+09 -2.033620e+09 -2.193620e+09 1.651500e+00 1.228056e+00 -6.079624e+00
-1.837308e+09 -1.637307e+09 -1.797307e+09 2.981867e+01 1.005764e+01 -1.161697e+01
-3.985994e+09 -3.785996e+09 -3.945993e+09 1.206388e+03 1.768186e+01 2.874336e+01
-1.964885e+09 -1.764884e+09 -1.924885e+09 6.634352e+00 8.549588e+00 -8.032611e+00
-4.993252e+09 -4.793253e+09 -4.953253e+09 2.689807e+03 2.488021e+02 -1.569529e+02
-4.321323e+09 -4.121330e+09 -4.281326e+09 -2.334547e+02 5.487345e+02 5.469263e+01
-3.961713e+09 -3.761721e+09 -3.921721e+09 -2.638499e+02 1.932241e+03 -1.252019e+01
-3.964607e+09 -3.764609e+09 -3.924616e+09 3.553700e+03 3.259138e+03 -1.333875e+03
-3.154423e+09 -2.954431e+09 -3.114427e+09 -1.461270e+02 -2.097394e+03 3.628537e+02
-4.651517e+09 -4.451520e+09 -4.611527e+09 -1.958416e+03 1.203383e+03 6.219929e+02
-3.961714e+09 -3.761722e+09 -3.921721e+09 4.437434e+02 1.904854e+03 -8.128161e+01
-4.646021e+09 -4.446019e+09 -4.606024e+09 3.092604e+03 5.459270e+02 -3.487137e+02
-4.803709e+09 -4.603714e+09 -4.763713e+09 8.007903e+02 -1.144174e+02 1.376549e+02
-4.993252e+09 -4.793252e+09 -4.953253e+09 2.512712e+03 2.770359e+02 -1.834278e+02
-4.456920e+09 -4.256920e+09 -4.416920e+09 3.045239e+02 4.703078e+00 8.351889e+00
-4.819424e+09 -4.619431e+09 -4.779430e+09 5.160790e+02 -9.050254e+02 8.136380e+01
-4.134277e+09 -3.934276e+09 -4.094276e+09 2.290708e+02 1.771185e+01 -1.082424e+01
-4.488023e+09 -4.288031e+09 -4.448029e+09 3.310311e+02 -9.349224e+02 1.343898e+02
-3.948487e+09 -3.748486e+09 -3.908486e+09 3.153366e+02 4.670905e+01 1.480277e+00
-3.953019e+09 -3.753018e+09 -3.913018e+09 1.664497e+02 2.841932e+01 -1.325843e+01
-3.940362e+09 -3.740369e+09 -3.900366e+09 3.504737e+02 -1.220134e+03 9.763346e+01
-3.983392e+09 -3.783391e+09 -3.943391e+09 2.023218e+02 3.463933e+01 -3.733819e+01
-4.476192e+09 -4.276198e+09 -4.436197e+09 5.316828e+02 -8.569300e+02 2.697686e+02
-2.204260e+09 -2.004259e+09 -2.164261e+09 6.596207e+02 -4.072486e+02 -1.646462e+02
-3.695622e+09 -3.495619e+09 -3.655622e+09 5.450792e+01 -6.207292e+02 -1.009762e+03
-4.982338e+09 -4.782338e+09 -4.942338e+09 3.461218e+02 -9.924393e+00 -6.739518e+01
-4.967398e+09 -4.767397e+09 -4.927398e+09 2.908774e+02 -5.189264e+00 1.069708e+01
-3.967032e+09 -3.767032e+09 -3.927032e+09 3.143235e+02 4.135326e+01 -8.985205e+00
-2.184202e+09 -1.984200e+09 -2.144203e+09 1.730923e+03 -1.289655e+02 -1.164984e+03
-4.988556e+09 -4.788556e+09 -4.948556e+09 2.407169e+02 -1.452722e+01 -2.362356e+00
-4.800153e+09 -4.600153e+09 -4.760153e+09 2.947894e+02 -7.246486e+00 3.231477e+00
-3.137237e+09 -2.937236e+09 -3.097238e+09 1.322199e+03 -3.984090e+02 -4.982832e+02
-4.647533e+09 -4.447533e+09 -4.607533e+09 3.930201e+02 3.712414e+01 1.251497e+01
-4.504604e+09 -4.304603e+09 -4.464603e+09 3.065888e+02 2.137031e+01 -2.322759e+01
-4.823328e+09 -4.623328e+09 -4.783328e+09 -1.882892e+03 3.867016e+02 1.325783e+02
-3.962151e+09 -3.762152e+09 -3.922150e+09 -1.233772e+03 5.893900e+01 -3.653812e+01
-3.267050e+09 -3.067048e+09 -3.227052e+09 8.599307e+02 -4.974346e+02 -3.798487e+02
-4.122537e+09 -3.922546e+09 -4.082542e+09 3.769247e+02 2.307711e+02 1.620304e+03
-4.845507e+09 -4.645513e+09 -4.805509e+09 -3.624561e+02 2.731787e+02 5.504715e+01
-4.142521e+09 -3.942526e+09 -4.102526e+09 1.058881e+03 -1.423854e+03 4.000283e+02
-4.828986e+09 -4.628991e+09 -4.788992e+09 9.695683e+02 -5.800146e+02 2.188712e+02
-4.835145e+09 -4.635151e+09 -4.795152e+09 2.426203e+02 -6.128241e+02 1.423453e+02
-4.977193e+09 -4.777194e+09 -4.937192e+09 -5.999397e+02 -2.433807e+01 1.823196e+00
-3.960109e+09 -3.760110e+09 -3.920110e+09 -2.140602e+03 7.151097e+02 2.549784e+02
-3.963535e+09 -3.763538e+09 -3.923538e+09 -2.418095e+03 1.055086e+03 3.237005e+02
-4.446492e+09 -4.246497e+09 -4.406493e+09 -8.896384e+02 8.057893e+01 -2.366111e+01
-4.491912e+09 -4.291918e+09 -4.451918e+09 2.392507e+02 -1.179159e+03 1.444974e+02
-4.664759e+09 -4.464764e+09 -4.624767e+09 2.274164e+02 -9.251245e+02 1.315578e+02
-4.655173e+09 -4.455175e+09 -4.615177e+09 -2.503081e+03 6.182506e+02 2.174131e+02
-4.093632e+09 -3.893632e+09 -4.053631e+09 1.319621e+02 -1.936268e+01 -1.517076e+01
-4.767085e+09 -4.567084e+09 -4.727083e+09 1.070199e+02 1.300982e+01 -2.930980e+01
-4.477369e+09 -4.277371e+09 -4.437370e+09 -1.719801e+03 2.328747e+02 -9.326267e+00
-3.965281e+09 -3.765285e+09 -3.925283e+09 -1.453162e+03 5.053846e+02 8.433147e+01
-3.985555e+09 -3.785555e+09 -3.945571e+09 -2.954996e+03 5.578382e+03 1.983237e+03
-4.790920e+09 -4.590919e+09 -4.750918e+09 2.619909e+01 -6.959429e+01 2.353286e+01
-4.179497e+09 -3.979496e+09 -4.139496e+09 -1.471841e+01 -2.982200e+01 -1.803533e+01
-4.821913e+09 -4.621913e+09 -4.781912e+09 2.214441e+02 3.614216e+01 9.576379e+00
-4.521637e+09 -4.321636e+09 -4.481636e+09 -2.316808e+00 -6.344439e+01 -1.355268e+01
-4.470992e+09 -4.270995e+09 -4.430992e+09 -1.844128e+03 2.191864e+02 8.658934e+01
-4.780464e+09 -4.580463e+09 -4.740463e+09 1.443336e+02 6.038321e+01 -1.437786e+01
-1.947463e+09 -1.747469e+09 -1.907464e+09 7.368686e+01 4.134849e+01 -8.707593e+00
-1.932611e+09 -1.732617e+09 -1.892612e+09 9.524168e+01 3.251420e+01 -2.443031e+00
-3.956418e+09 -3.756405e+09 -3.916379e+09 5.489000e+03 1.452714e+04 8.450402e+03
-3.275298e+09 -3.075306e+09 -3.235302e+09 -2.877361e+02 -1.428026e+03 1.372532e+01
-4.983231e+09 -4.783228e+09 -4.943231e+09 -5.083401e+02 -2.696734e+01 -4.187016e+01
-2.725693e+09 -2.525699e+09 -2.685694e+09 5.803986e+01 5.404080e+01 -1.506500e+01
-2.535062e+09 -2.335067e+09 -2.495062e+09 2.072079e+02 5.072967e+01 2.946168e-01
-2.912582e+09 -2.712588e+09 -2.872583e+09 1.046078e+02 -5.821115e+00 -4.139367e+00
-2.741386e+09 -2.541385e+09 -2.701385e+09 -2.926176e+01 -1.106215e+01 -5.304661e+01
-4.986112e+09 -4.786103e+09 -4.946076e+09 4.845186e+03 -6.589083e+02 1.098037e+03
-4.998004e+09 -4.798000e+09 -4.958006e+09 3.679933e+02 -2.310301e+02 -1.879494e+02
-1.625730e+09 -1.425729e+09 -1.585729e+09 -2.258881e+01 -8.439766e+00 -5.002529e+01
-4.115905e+09 -3.915898e+09 -4.075922e+09 -1.914606e+03 4.161208e+03 2.769108e+03
-4.310385e+09 -4.110382e+09 -4.270397e+09 -1.610982e+03 -4.425717e+03 -8.283516e+02
-2.220248e+09 -2.020247e+09 -2.180247e+09 -7.441654e+01 -1.218820e+01 -2.109693e+01
-1.887099e+09 -1.687097e+09 -1.847098e+09 -5.567655e+01 -9.874732e+00 -2.166663e+01
-4.953329e+09 -4.753327e+09 -4.913328e+09 -6.854668e+02 -1.325851e+02 -4.069025e+01
-4.672275e+09 -4.472275e+09 -4.632275e+09 1.295405e+02 -1.646919e+01 2.534151e-01
-3.257408e+09 -3.057409e+09 -3.217409e+09 1.361224e+02 1.558674e+01 -2.331943e+01
-3.795209e+09 -3.595210e+09 -3.755209e+09 1.243418e+02 1.343565e+01 -2.377451e+01
-4.076126e+09 -3.876127e+09 -4.036127e+09 1.421515e+02 -4.927841e+00 -1.892399e+01
-4.999719e+09 -4.799721e+09 -4.959720e+09 5.940871e+02 -1.332383e+01 -3.752861e+01
-3.970305e+09 -3.770305e+09 -3.930305e+09 1.393563e+02 -8.678297e+00 -2.295577e+01
-3.960671e+09 -3.760673e+09 -3.920672e+09 4.940161e+02 2.492470e+01 3.726530e+01
-3.983133e+09 -3.783134e+09 -3.943133e+09 6.421145e+01 2.107642e+01 5.154870e+01
-3.432913e+09 -3.232914e+09 -3.392914e+09 8.490939e+01 1.076059e+01 4.671933e+01
-4.651772e+09 -4.451774e+09 -4.611773e+09 -7.465696e+01 -5.066522e+00 6.039112e+00
-4.347145e+09 -4.147146e+09 -4.307146e+09 3.219237e+01 2.597708e+01 -3.842011e+00
-4.976376e+09 -4.776377e+09 -4.936377e+09 -2.964568e+02 -2.941206e+00 -1.903995e+00
-4.587685e+09 -4.387686e+09 -4.547686e+09 1.670009e+02 -1.047766e+01 -8.007374e+01
-2.362283e+09 -2.162282e+09 -2.322282e+09 -2.661530e+02 -1.692828e+01 2.575682e-01
-4.784536e+09 -4.584537e+09 -4.744537e+09 1.583383e+02 2.184415e+01 2.511997e+01
-4.994015e+09 -4.794014e+09 -4.954015e+09 -4.566132e+02 -5.326641e+00 3.599504e+01
-4.605972e+09 -4.405973e+09 -4.565973e+09 3.479652e+01 5.779157e+00 1.092769e+01
-3.746946e+09 -3.546946e+09 -3.706946e+09 2.341397e+02 1.644052e+01 -1.057527e+01
-3.177447e+09 -2.977447e+09 -3.137447e+09 2.354759e+02 3.058886e+01 1.263653e+01
-4.998569e+09 -4.798571e+09 -4.958571e+09 -5.561037e+02 -1.460059e+01 -3.531099e+01
-4.005451e+09 -3.805451e+09 -3.965450e+09 1.984135e+02 -1.170138e+02 1.882066e+01
-4.131514e+09 -3.931515e+09 -4.091514e+09 -1.077312e+03 -5.920076e+01 7.210994e+01
-4.625039e+09 -4.425039e+09 -4.585039e+09 3.080822e+02 -1.067318e+02 -2.737479e+01
-4.990935e+09 -4.790934e+09 -4.950945e+09 2.548439e+02 -1.273747e+03 2.591616e+02
-5.007578e+09 -4.807576e+09 -4.967577e+09 -2.512562e+02 -2.638670e+01 5.397427e+01
-3.963839e+09 -3.763837e+09 -3.923839e+09 -1.416425e+02 -4.075936e+02 4.866303e+02
-4.657479e+09 -4.457477e+09 -4.617478e+09 -1.621815e+02 -4.772613e+01 -2.425781e+01
-4.985935e+09 -4.785932e+09 -4.945936e+09 4.211802e+02 -3.462246e+02 2.407128e+02
-3.743033e+09 -3.543033e+09 -3.703032e+09 1.602833e+02 -6.271751e+01 -3.801536e+01
-4.478046e+09 -4.278047e+09 -4.438045e+09 3.426353e+02 -1.663667e+02 -7.715268e+00
-4.957968e+09 -4.757969e+09 -4.917968e+09 1.963440e+02 -9.269908e+01 -1.688789e+01
-3.931744e+09 -3.731740e+09 -3.891745e+09 -3.720344e+02 -8.825529e+02 1.279425e+03
-4.262726e+09 -4.062723e+09 -4.222728e+09 1.795978e+02 -9.665958e+02 1.208971e+03
-3.946971e+09 -3.746972e+09 -3.906971e+09 3.276500e+02 -1.742698e+02 3.123772e+01
-5.001096e+09 -4.801092e+09 -4.961096e+09 -3.515904e+03 -6.066811e+02 3.755103e+02
-4.785903e+09 -4.585903e+09 -4.745902e+09 2.642609e+02 -7.119232e+01 -1.046835e+01
-4.640669e+09 -4.440663e+09 -4.600678e+09 -1.495235e+03 -2.383916e+02 8.154640e+02
-4.638435e+09 -4.438443e+09 -4.598440e+09 -6.360571e+01 -1.205064e+02 1.253479e+02
-4.993936e+09 -4.793936e+09 -4.953937e+09 -1.284436e+03 2.235484e+01 -2.746435e+01
-1.636083e+09 -1.436083e+09 -1.596083e+09 -2.057119e+01 -5.125800e+01 -2.676837e-01
-4.703852e+09 -4.503858e+09 -4.663857e+09 -4.797867e+02 -5.002015e+01 2.620586e+02
-4.389402e+09 -4.189410e+09 -4.349408e+09 -3.521680e+02 4.109319e+01 3.157282e+02
-4.313540e+09 -4.113539e+09 -4.273540e+09 -1.883326e+03 1.596081e+02 -9.277649e+01
-4.345608e+09 -4.145609e+09 -4.305609e+09 -1.614940e+03 -2.953177e+01 1.060398e+02
-4.795278e+09 -4.595287e+09 -4.755283e+09 -7.130977e+02 -9.968227e+01 8.914555e+02
-4.372941e+09 -4.172949e+09 -4.332946e+09 -2.886529e+02 3.984742e-01 1.207894e+02
-4.705867e+09 -4.505875e+09 -4.665873e+09 -2.448384e+02 4.075694e+01 -1.059643e+02
-3.960671e+09 -3.760673e+09 -3.920672e+09 5.695756e+02 3.183351e+01 -3.863162e+00
-4.998569e+09 -4.798571e+09 -4.958571e+09 -5.764700e+02 1.416638e+00 -2.204696e+01
-4.605929e+09 -4.405930e+09 -4.565930e+09 -2.121538e+02 -8.397450e-01 -6.663861e+01
-4.998947e+09 -4.798949e+09 -4.958948e+09 -2.801566e+02 -4.791982e+00 -4.512827e+00
-3.268278e+09 -3.068280e+09 -3.228279e+09 -2.614710e+02 -4.020023e+01 -9.628106e+00
-3.969248e+09 -3.769251e+09 -3.929250e+09 -3.567293e+02 -1.034145e+01 -7.667783e+00
-4.649631e+09 -4.449634e+09 -4.609633e+09 -1.813987e+02 -1.288985e+00 -2.582220e+01
-4.138094e+09 -3.938096e+09 -4.098096e+09 7.603793e+01 -1.149731e+00 -5.045521e+01
-4.439395e+09 -4.239396e+09 -4.399396e+09 -2.900201e+02 -1.039468e+01 -1.507932e+00
-2.771459e+09 -2.571460e+09 -2.731460e+09 -2.815508e+02 -4.491066e+01 2.514632e+01
-4.821167e+09 -4.621169e+09 -4.781169e+09 -7.664459e+02 -2.097869e+01 1.058128e+02
-3.137395e+09 -2.937396e+09 -3.097396e+09 -3.388859e+02 -2.964693e+01 -2.705772e+01
-3.781489e+09 -3.581490e+09 -3.741490e+09 -3.465946e+02 -4.257187e+01 2.563882e+00
-3.189607e+09 -2.989606e+09 -3.149606e+09 7.583313e+01 2.289024e+01 -6.038789e+00
-3.957301e+09 -3.757300e+09 -3.917300e+09 7.536760e+01 6.709655e+00 -2.222423e+01
-4.663995e+09 -4.463997e+09 -4.623996e+09 -4.662940e+02 -7.490916e-01 6.258407e+00
-3.962920e+09 -3.762922e+09 -3.922922e+09 -8.933300e+01 1.277471e+00 1.699647e+00
-3.554956e+09 -3.354955e+09 -3.514955e+09 9.706716e+00 2.791311e+01 -8.083381e+00
-4.125099e+09 -3.925103e+09 -4.085098e+09 -4.255510e+03 -1.746736e+03 2.572138e+03
-4.981735e+09 -4.781736e+09 -4.941737e+09 -1.703470e+03 1.750021e+02 -3.799990e+02
-4.738414e+09 -4.538413e+09 -4.698413e+09 7.844850e+01 8.154245e+00 8.849582e+00
-4.993445e+09 -4.793437e+09 -4.953446e+09 -2.448809e+03 2.562730e+02 -2.474875e+02
-4.169915e+09 -3.969914e+09 -4.129914e+09 2.633338e+01 -5.214307e+00 8.026456e+00
-3.424385e+09 -3.224394e+09 -3.384389e+09 -4.261688e+02 2.372581e+02 2.256452e+03
-3.784437e+09 -3.584435e+09 -3.744436e+09 2.992352e+01 6.560448e+00 -3.100816e+01
-4.993447e+09 -4.793440e+09 -4.953447e+09 -8.499765e+02 7.212099e+01 -5.966213e+01
-4.537528e+09 -4.337527e+09 -4.497527e+09 3.328471e+01 8.395549e+00 -1.447284e+01
-3.005979e+09 -2.805976e+09 -2.965978e+09 5.144890e+02 5.497521e+02 -1.958675e+02
-1.699031e+09 -1.499037e+09 -1.659038e+09 1.662595e+03 1.182748e+02 1.209693e+03
-4.216210e+09 -4.016209e+09 -4.176209e+09 6.873787e+01 5.087580e-02 7.772357e+00
-4.966879e+09 -4.766882e+09 -4.926882e+09 2.737498e+03 -1.834895e+02 -1.464821e+02
-4.632719e+09 -4.432711e+09 -4.592721e+09 4.087884e+02 6.501416e+02 -1.115059e+03
-2.817919e+09 -2.617920e+09 -2.777920e+09 -6.012585e+01 -1.792684e+01 -3.537463e+01
-2.902342e+09 -2.702344e+09 -2.862344e+09 -2.414019e+02 -9.124226e+00 1.592643e+01
-3.386365e+09 -3.186366e+09 -3.346366e+09 -3.634167e+02 1.169257e+01 -1.209128e+01
-4.971508e+09 -4.771498e+09 -4.931513e+09 2.589807e+02 1.089087e+03 -7.419473e+02
-2.232817e+09 -2.032817e+09 -2.192817e+09 -2.918641e+02 -1.252785e+01 1.472734e+01
-4.475834e+09 -4.275834e+09 -4.435835e+09 -2.516334e+03 4.295627e+02 2.549173e+02
-3.718368e+09 -3.518368e+09 -3.678371e+09 1.610463e+03 -4.068716e+01 -4.490644e+02
-4.465819e+09 -4.265821e+09 -4.425819e+09 -1.978391e+03 2.341464e+02 1.032163e+02
-4.983219e+09 -4.783224e+09 -4.943221e+09 -1.723183e+03 -1.252579e+02 -3.021050e-01
-3.177856e+09 -2.977857e+09 -3.137857e+09 -3.752495e+02 -3.206988e+01 4.887432e+01
-4.162387e+09 -3.962393e+09 -4.122396e+09 2.484004e+03 3.137302e+03 -6.830999e+01
-2.040170e+09 -1.840171e+09 -2.000171e+09 -2.842000e+02 -5.150029e+01 2.064154e+01
-4.990833e+09 -4.790831e+09 -4.950832e+09 -7.200398e+02 -7.463188e-01 1.117675e+01
-4.996298e+09 -4.796297e+09 -4.956298e+09 -8.011459e+02 2.429194e+01 1.526797e+01
-1.676536e+09 -1.476537e+09 -1.636537e+09 -2.955682e+02 -4.068128e+01 7.142527e+01
-4.312856e+09 -4.112855e+09 -4.272856e+09 8.596286e+02 -5.262981e+02 4.134493e+02
-3.961135e+09 -3.761133e+09 -3.921134e+09 -7.275131e+02 -1.643390e+02 1.205231e+02
-4.120032e+09 -3.920031e+09 -4.080032e+09 -1.415943e+03 -1.152791e+02 3.132051e+02
-4.648014e+09 -4.448012e+09 -4.608015e+09 5.692047e+02 -2.437062e+02 2.633487e+02
-4.993937e+09 -4.793937e+09 -4.953937e+09 -9.978202e+02 2.623540e+01 -8.207445e+01
-4.790322e+09 -4.590323e+09 -4.750323e+09 -1.327929e+03 -5.809862e+00 -1.329404e+02
-4.979433e+09 -4.779433e+09 -4.939434e+09 -1.875026e+03 4.330958e+01 -3.752622e+01
-4.139590e+09 -3.939589e+09 -4.099590e+09 7.349964e+02 -6.590879e+02 3.127859e+02
-3.954839e+09 -3.754839e+09 -3.914841e+09 1.433235e+03 -1.069967e+03 6.179547e+02
-4.295870e+09 -4.095869e+09 -4.255875e+09 1.146067e+03 -1.913873e+03 9.398800e+02
-3.965629e+09 -3.765629e+09 -3.925631e+09 1.285479e+03 -7.552242e+02 7.287123e+02
-4.477508e+09 -4.277504e+09 -4.437502e+09 -4.777243e+03 2.134081e+03 -1.766233e+02
-4.826055e+09 -4.626054e+09 -4.786056e+09 6.520129e+02 -1.726958e+02 3.422748e+02
-4.993537e+09 -4.793535e+09 -4.953537e+09 -3.195548e+02 -1.052397e+02 1.354581e+02
-4.120786e+09 -3.920789e+09 -4.080792e+09 1.544564e+03 -1.934426e+03 7.613153e+02
-4.639259e+09 -4.439260e+09 -4.599266e+09 1.082999e+03 -6.977479e+02 4.955327e+02
-3.962051e+09 -3.762062e+09 -3.922048e+09 -3.058489e+03 -5.392496e+02 6.473685e+03
-4.823899e+09 -4.623900e+09 -4.783902e+09 1.432830e+03 -5.908327e+02 1.605865e+02
-4.621000e+09 -4.420993e+09 -4.581012e+09 1.490936e+03 1.091480e+03 -1.682334e+03
-4.997658e+09 -4.797655e+09 -4.957667e+09 -1.266251e+03 -1.795962e+03 -5.163031e+02
-4.790188e+09 -4.590179e+09 -4.750194e+09 6.308397e+02 1.268289e+03 -1.618384e+03
-3.671632e+09 -3.471640e+09 -3.631635e+09 2.528566e+00 -1.752013e+02 -2.167791e+01
-4.610778e+09 -4.410770e+09 -4.570785e+09 1.397995e+03 9.377755e+02 -1.255590e+03
-3.961236e+09 -3.761238e+09 -3.921246e+09 5.175802e+02 -3.711949e+03 1.071884e+03
-4.122028e+09 -3.922025e+09 -4.082030e+09 6.976250e+02 -8.854733e+02 6.691781e+02
-4.108246e+09 -3.908249e+09 -4.068258e+09 2.607446e+03 4.583609e+03 -1.008242e+03
-4.477506e+09 -4.277510e+09 -4.437505e+09 -7.409867e+02 -1.301660e+02 -6.291207e+02
-4.271626e+09 -4.071616e+09 -4.231630e+09 -3.477515e+02 2.107534e+03 -3.400386e+03
-2.111389e+09 -1.911388e+09 -2.071389e+09 2.397491e+01 9.808755e+00 -7.244270e+00
-4.991038e+09 -4.791037e+09 -4.951038e+09 -1.329353e+03 -7.170554e+00 5.142381e+01
-5.032075e+09 -4.832074e+09 -4.992075e+09 -1.187885e+03 9.636931e+01 -2.169926e+02
-4.979434e+09 -4.779433e+09 -4.939434e+09 -1.467898e+03 7.064496e+01 -9.227963e+01
-2.167238e+09 -1.967237e+09 -2.127237e+09 4.407741e+01 5.122118e+00 -5.490390e+00
-3.132196e+09 -2.932195e+09 -3.092195e+09 1.666969e-01 8.550850e+00 5.917783e+00
-3.019852e+09 -2.819851e+09 -2.979851e+09 -6.275652e-01 1.619533e+01 -3.559114e+00
-4.980112e+09 -4.780117e+09 -4.940122e+09 -3.941572e+02 1.345816e+03 7.363813e+01
-4.641585e+09 -4.441590e+09 -4.601587e+09 -1.777639e+03 3.507128e+02 1.029142e+02
-5.000320e+09 -4.800324e+09 -4.960320e+09 -1.262335e+03 -1.023267e+02 -2.358799e+01
-4.296332e+09 -4.096338e+09 -4.256337e+09 -1.841245e+03 1.050327e+03 2.930265e+02
-1.914448e+09 -1.714448e+09 -1.874448e+09 1.574426e+01 1.386185e+01 -1.166265e+01
-3.964552e+09 -3.764558e+09 -3.924557e+09 2.047488e+03 1.869784e+03 -3.064931e+02
-1.911489e+09 -1.711488e+09 -1.871489e+09 1.920896e+01 1.396931e+01 1.035738e+01
-4.472793e+09 -4.272792e+09 -4.432794e+09 -2.221993e+03 5.408724e+02 1.657279e+02
-4.989808e+09 -4.789809e+09 -4.949808e+09 -2.092636e+03 1.572609e+02 8.491494e+01
-4.132601e+09 -3.932602e+09 -4.092602e+09 -2.437418e+03 2.964134e+02 7.733187e+01
-4.132970e+09 -3.932976e+09 -4.092971e+09 4.502435e+02 3.997132e+01 -5.936055e+00
-4.819436e+09 -4.619442e+09 -4.779437e+09 4.895960e+02 2.253468e+02 -2.540933e+01
-4.850897e+09 -4.650903e+09 -4.810899e+09 7.320848e+02 -1.133893e+02 8.773234e+00
-4.677455e+09 -4.477462e+09 -4.637458e+09 5.374817e+02 2.013587e+02 -8.866654e+01
-4.160050e+09 -3.960057e+09 -4.120052e+09 9.811383e+02 1.575201e+02 -2.717005e+01
-5.001095e+09 -4.801093e+09 -4.961096e+09 -4.074685e+03 -6.308185e+02 3.881572e+02
-4.295721e+09 -4.095715e+09 -4.255718e+09 3.631123e+03 4.778104e+02 -8.583387e+02
-4.837150e+09 -4.637142e+09 -4.797099e+09 -7.299194e+02 9.044411e+02 1.857812e+02
-3.978460e+09 -3.778466e+09 -3.938462e+09 8.644605e+02 3.119674e+02 -1.271089e+02
-4.820606e+09 -4.620603e+09 -4.780604e+09 -4.497149e+02 -1.009522e+01 2.703852e+01
-3.124937e+09 -2.924944e+09 -3.084943e+09 1.004317e+02 6.337310e+01 1.285312e+02
-4.974932e+09 -4.774917e+09 -4.934925e+09 4.521286e+02 1.818458e+03 -7.675400e+02
-3.505053e+09 -3.305050e+09 -3.465051e+09 -4.879046e+02 -2.527278e+02 -1.305219e+02
-4.984566e+09 -4.784560e+09 -4.944577e+09 1.819647e+03 1.743737e+03 -9.025419e+02
-4.469671e+09 -4.269676e+09 -4.429683e+09 -1.171404e+03 3.112736e+03 -1.454048e+02
-4.242913e+09 -4.042911e+09 -4.202912e+09 -2.059571e+02 -8.453643e+01 -2.849445e+01
-4.476409e+09 -4.276407e+09 -4.436407e+09 -4.388225e+02 -1.708836e+02 -6.470568e+01
-4.297002e+09 -4.097001e+09 -4.257001e+09 1.859565e+03 1.944022e+02 -1.957319e+02
-3.937445e+09 -3.737443e+09 -3.897443e+09 -3.940787e+02 -2.679229e+02 -4.891679e+01
-4.793264e+09 -4.593251e+09 -4.753271e+09 -4.504964e+02 2.285930e+03 1.492699e+02
-4.469628e+09 -4.269626e+09 -4.429626e+09 -2.433996e+02 -2.164150e+01 -3.215264e+01
-4.998865e+09 -4.798867e+09 -4.958843e+09 -5.306333e+03 -3.008558e+02 1.888809e+03
-4.140265e+09 -3.940258e+09 -4.100264e+09 -1.363274e+03 2.149431e+01 -7.801191e+02
-4.585088e+09 -4.385078e+09 -4.545101e+09 6.211998e+02 -3.543364e+02 7.801847e+01
-4.995068e+09 -4.795066e+09 -4.955067e+09 -1.383845e+02 -1.270871e+02 -3.394600e+01
-4.142861e+09 -3.942861e+09 -4.102860e+09 -9.155502e+02 3.839474e+01 -3.455955e+01
-4.465257e+09 -4.265257e+09 -4.425256e+09 -5.099146e+02 3.471483e+01 -1.930178e+01
-4.991849e+09 -4.791850e+09 -4.951849e+09 -7.960727e+02 1.820459e+02 3.415210e+01
-4.831588e+09 -4.631588e+09 -4.791587e+09 -5.329180e+02 8.368616e+00 -3.550169e+01
-4.145122e+09 -3.945122e+09 -4.105121e+09 -5.122404e+02 7.796873e+01 -5.074693e+00
-4.986012e+09 -4.786015e+09 -4.946014e+09 -1.459048e+02 2.142700e+00 -5.018785e+01
-3.954912e+09 -3.754915e+09 -3.914914e+09 -9.367418e+02 1.090099e+02 -3.402991e+02
-4.979122e+09 -4.779124e+09 -4.939120e+09 1.771374e+03 -1.662794e+02 -8.842961e+02
-4.122024e+09 -3.922024e+09 -4.082023e+09 -5.799579e+02 9.834912e+01 -4.443358e+01
-4.815269e+09 -4.615271e+09 -4.775270e+09 1.249664e+03 -6.193568e+01 -3.846696e+02
-2.132130e+09 -1.932129e+09 -2.092129e+09 -1.414377e+02 -1.497743e+01 -2.165240e+01
-4.449234e+09 -4.249237e+09 -4.409236e+09 2.690157e+02 -1.335950e+01 -1.642606e+02
-4.983478e+09 -4.783481e+09 -4.943479e+09 7.776534e+02 7.633295e+00 -5.380805e+01
-3.935425e+09 -3.735429e+09 -3.895427e+09 4.923180e+02 1.338960e+01 -5.437075e+02
-4.987695e+09 -4.787695e+09 -4.947695e+09 1.720171e+03 -1.393735e+02 -3.761449e+02
-4.820739e+09 -4.620742e+09 -4.780738e+09 -2.046853e+03 1.376431e+02 -6.392281e+02
-3.971721e+09 -3.771724e+09 -3.931723e+09 3.262436e+03 4.381378e+02 7.131993e+02
-4.642537e+09 -4.442539e+09 -4.602537e+09 1.880428e+03 -3.481391e+02 -7.209601e+02
-3.963098e+09 -3.763094e+09 -3.923099e+09 -2.918154e+03 1.225539e+03 1.580326e+03
-3.417420e+09 -3.217419e+09 -3.377419e+09 -1.514773e+02 -1.538854e+01 -2.474119e+01
-3.439961e+09 -3.239960e+09 -3.399961e+09 -1.589496e+02 -3.970460e+00 2.206228e+01
-4.437977e+09 -4.237978e+09 -4.397991e+09 1.414826e+03 3.963823e+03 -8.810515e+02
-3.711756e+09 -3.511755e+09 -3.671755e+09 -2.692894e+01 -3.149857e+00 -2.343000e+01
-3.031546e+09 -2.831545e+09 -2.991545e+09 -1.294241e+02 -1.599445e+01 -2.352905e+01
-3.967066e+09 -3.767072e+09 -3.927080e+09 -1.389830e+03 4.515987e+03 7.292426e+02
-3.954868e+09 -3.754865e+09 -3.914879e+09 3.584161e+03 4.119553e+03 -2.626002e+03
-1.783458e+09 -1.583456e+09 -1.743457e+09 -6.532498e+01 -1.236648e+01 -3.384844e+01
-3.079489e+09 -2.879487e+09 -3.039489e+09 -7.918365e+02 4.303807e+02 -2.114528e+02
-4.976447e+09 -4.776446e+09 -4.936448e+09 -2.455637e+03 2.222757e+02 -3.377551e+01
-3.967067e+09 -3.767070e+09 -3.927080e+09 -2.861206e+03 4.822193e+03 1.793894e+03
-4.477510e+09 -4.277506e+09 -4.437519e+09 -2.614440e+03 1.314254e+03 5.349648e+02
-3.294782e+09 -3.094783e+09 -3.254783e+09 -1.702372e+03 3.584571e+02 -1.042727e+02
-3.953521e+09 -3.753526e+09 -3.913523e+09 -1.810524e+03 9.855538e+02 1.344239e+02
-4.159011e+09 -3.959007e+09 -4.119010e+09 1.145629e+02 3.107836e+02 -2.865085e+02
-3.972634e+09 -3.772640e+09 -3.932636e+09 1.044345e+03 6.094423e+02 -6.963913e+01
-4.779088e+09 -4.579085e+09 -4.739090e+09 -1.542322e+03 -3.218772e+01 2.012618e+02
-3.373607e+09 -3.173606e+09 -3.333607e+09 -2.334311e+02 2.643556e+02 1.970564e+02
-3.280827e+09 -3.080825e+09 -3.240828e+09 -6.954523e+02 3.493186e+02 -5.271141e+01
-4.991443e+09 -4.791443e+09 -4.951444e+09 -2.819634e+03 1.407341e+02 -3.139125e+02
-4.812101e+09 -4.612103e+09 -4.772103e+09 1.321207e+03 -5.055748e+02 3.415336e+02
-4.614718e+09 -4.414726e+09 -4.574724e+09 2.032697e+02 -7.067470e+00 -1.164456e+02
-3.954845e+09 -3.754839e+09 -3.914851e+09 -4.235921e+02 -6.508377e+02 2.856085e+03
-4.146647e+09 -3.946651e+09 -4.106650e+09 1.455974e+03 -1.012406e+03 4.591516e+02
-4.125636e+09 -3.925637e+09 -4.085637e+09 1.350584e+03 -5.449706e+02 1.759479e+02
-4.303489e+09 -4.103480e+09 -4.263490e+09 1.661935e+02 -2.590645e+01 9.775943e+02
-3.091822e+09 -2.891823e+09 -3.051821e+09 1.590860e+02 -3.454771e+01 9.999312e+01
-5.005596e+09 -4.805593e+09 -4.965590e+09 1.927285e+03 -7.009336e+02 -1.334650e+03
-4.820739e+09 -4.620738e+09 -4.780725e+09 -3.352939e+03 -9.237688e+02 -1.162600e+03
-5.015254e+09 -4.815251e+09 -4.975269e+09 -3.780615e+02 2.861724e+03 1.118068e+03
-4.102831e+09 -3.902832e+09 -4.062830e+09 2.331327e+02 2.019314e+01 4.469599e+00
-4.532328e+09 -4.332329e+09 -4.492326e+09 2.313925e+02 1.089732e+01 2.324256e+00
-4.668783e+09 -4.468783e+09 -4.628784e+09 -2.377677e+03 -7.822711e+00 1.347669e+02
-2.868092e+09 -2.668093e+09 -2.828090e+09 8.204421e+01 -4.463288e+00 2.908041e+01
-4.454661e+09 -4.254643e+09 -4.414659e+09 2.343151e+03 -4.441053e+03 -2.358733e+03
-4.977249e+09 -4.777252e+09 -4.937243e+09 1.188880e+02 -1.334243e+02 -1.203084e+03
-3.435541e+09 -3.235542e+09 -3.395539e+09 1.194175e+02 1.121443e+01 -2.161716e+00
-4.739653e+09 -4.539652e+09 -4.699653e+09 -3.492701e+01 3.364029e-01 -9.961525e+00
-3.974859e+09 -3.774857e+09 -3.934860e+09 7.931596e+01 -4.172597e+02 -3.882916e+02
-2.120661e+09 -1.920660e+09 -2.080660e+09 -1.447491e+02 -1.311213e+01 -2.794635e+00
-4.357205e+09 -4.157203e+09 -4.317204e+09 -2.373457e+01 -3.325184e+00 -1.967560e+00
-4.936062e+09 -4.736060e+09 -4.896061e+09 -2.171125e+01 5.918815e+00 8.500571e+00
-3.285757e+09 -3.085765e+09 -3.245762e+09 6.981794e+02 -2.052436e+03 6.044557e+02
-2.680640e+09 -2.480638e+09 -2.640639e+09 -7.643145e+01 -1.065614e+01 -1.296659e+01
-4.961881e+09 -4.761879e+09 -4.921879e+09 -2.637160e+02 -5.259015e+01 7.204250e+00
-1.584344e+09 -1.384347e+09 -1.544344e+09 -8.336237e+02 -8.924356e+02 -7.375354e+01
-4.433969e+09 -4.233968e+09 -4.393968e+09 -7.169224e+01 -1.568413e+00 -7.726697e+00
-4.702112e+09 -4.502110e+09 -4.662111e+09 -4.528379e+01 -4.825232e+00 -9.364178e+00
-3.027749e+09 -2.827746e+09 -2.987747e+09 -3.559011e+02 -4.836110e+02 -1.613694e+02
-3.888194e+09 -3.688192e+09 -3.848192e+09 -5.323955e+01 -1.324279e+01 -3.673424e+01
-3.074682e+09 -2.874686e+09 -3.034682e+09 -4.867593e+02 -9.613517e+00 -7.266247e+01
-3.018244e+09 -2.818248e+09 -2.978244e+09 -2.237988e+01 7.614025e-01 -7.640911e+01
-2.875956e+09 -2.675960e+09 -2.835956e+09 -2.061982e+02 2.515137e+01 -1.187780e+02
-1.650937e+09 -1.450941e+09 -1.610938e+09 -2.352635e+02 -1.159890e+01 -1.222340e+02
-2.146514e+09 -1.946518e+09 -2.106514e+09 -4.539485e+01 1.774259e+01 -5.689650e+01
-3.411896e+09 -3.211893e+09 -3.371896e+09 8.860897e+01 -5.260296e+02 -2.404148e+02
-4.890119e+09 -4.690116e+09 -4.850118e+09 -2.342130e+02 -1.263618e+02 2.539749e-05
-3.163754e+09 -2.963756e+09 -3.123753e+09 4.920316e+02 2.737493e+00 9.780621e+00
-1.977750e+09 -1.777747e+09 -1.937748e+09 -6.452745e+02 -5.243533e+02 -1.951911e+02
-2.894341e+09 -2.694349e+09 -2.854348e+09 -1.595214e+01 7.038813e+01 2.205495e+02
-1.593265e+09 -1.393271e+09 -1.553271e+09 -4.713784e+02 1.923989e+02 -1.539601e+02
-2.788899e+09 -2.588896e+09 -2.748898e+09 -1.328356e+02 -5.473597e+02 -8.051053e+01
-2.596106e+09 -2.396104e+09 -2.556105e+09 -6.272851e+02 -5.431233e+02 -2.751022e+02
-2.480831e+09 -2.280839e+09 -2.440837e+09 -5.352977e+02 -1.874269e+02 9.981220e+02
-1.603955e+09 -1.403955e+09 -1.563960e+09 2.987358e+03 5.052632e+02 -5.359465e+02
-4.595446e+09 -4.395443e+09 -4.555445e+09 1.801489e+02 -4.453485e+00 -1.770116e+01
-4.983226e+09 -4.783235e+09 -4.943230e+09 -9.268961e+02 2.674972e+01 3.792650e+02
-3.382815e+09 -3.182813e+09 -3.342816e+09 -2.260774e+03 1.001040e+02 -5.588540e+01
-1.840937e+09 -1.640943e+09 -1.800943e+09 -4.380365e+02 1.477319e+02 -1.667713e+02
-4.890118e+09 -4.690115e+09 -4.850118e+09 -1.398400e+02 -9.875961e+01 -9.922937e-05
-3.190453e+09 -2.990459e+09 -3.150458e+09 1.425967e+03 1.805548e+02 3.558537e+02
-4.989581e+09 -4.789584e+09 -4.949583e+09 -3.020767e+03 3.132559e+00 3.202341e+01
-2.939873e+09 -2.739870e+09 -2.899872e+09 -2.323386e+02 -4.618540e+02 -1.738896e+02
-4.890119e+09 -4.690116e+09 -4.850118e+09 3.181542e+02 1.053682e+02 2.546763e-05
-2.126970e+09 -1.926968e+09 -2.086968e+09 8.914682e+02 1.908254e+02 -1.217339e+02
-1.662536e+09 -1.462533e+09 -1.622535e+09 -1.791353e+02 -7.420913e+02 -7.476983e+01
-3.080538e+09 -2.880539e+09 -3.040540e+09 -5.198370e+02 1.718240e+02 1.162000e+02
-4.720718e+09 -4.520715e+09 -4.680717e+09 -6.862898e+01 1.240599e+02 -1.852836e+02
-1.909566e+09 -1.709563e+09 -1.869564e+09 -1.941233e+02 -5.909754e+02 -5.414882e+01
-4.997892e+09 -4.797896e+09 -4.957898e+09 -1.515394e+03 -6.776016e+02 -6.910695e+01
-4.796746e+09 -4.596746e+09 -4.756749e+09 -1.855878e+03 -3.034306e+02 -1.989820e+02
-4.268005e+09 -4.068007e+09 -4.228008e+09 -1.866020e+03 -1.087962e+03 -3.852074e+02
-4.140932e+09 -3.940932e+09 -4.100940e+09 -2.092868e+03 -2.413767e+03 -1.239706e+03
-4.993715e+09 -4.793715e+09 -4.953722e+09 -1.757199e+03 -1.166102e+03 -2.846266e+02
-4.110281e+09 -3.910283e+09 -4.070284e+09 -1.954136e+03 -1.699714e+03 -5.131474e+02
-3.338820e+09 -3.138816e+09 -3.298819e+09 9.053006e+02 1.126110e+03 -8.242677e+02
-4.283276e+09 -4.083279e+09 -4.243278e+09 -1.566171e+03 -8.236757e+02 -1.195839e+02
-2.763485e+09 -2.563482e+09 -2.723484e+09 2.425925e+02 4.325268e+02 -4.541506e+01
-3.377429e+09 -3.177429e+09 -3.337428e+09 1.112188e+02 5.183962e+01 -5.569163e+00
-4.621226e+09 -4.421224e+09 -4.581225e+09 1.921713e+03 2.543914e+02 -7.985539e+01
-2.999540e+09 -2.799538e+09 -2.959538e+09 1.728775e+03 4.177851e+02 -2.022251e+02
-2.882441e+09 -2.682438e+09 -2.842439e+09 5.789946e+02 5.454260e+02 -1.969730e+02
-3.066429e+09 -2.866426e+09 -3.026427e+09 2.282494e+02 2.734233e+02 1.801281e+01
-3.010873e+09 -2.810881e+09 -2.970878e+09 9.961326e+02 5.267657e+02 1.673548e+03
-2.456945e+09 -2.256943e+09 -2.416945e+09 -1.700735e+02 5.584162e+02 -3.641675e+01
-3.289511e+09 -3.089513e+09 -3.249510e+09 8.210090e+02 9.332489e+01 3.491069e+01
-2.093101e+09 -1.893100e+09 -2.053099e+09 1.049140e+03 3.015976e+02 -5.587856e+01
-3.160395e+09 -2.960393e+09 -3.120393e+09 2.426418e+02 2.398865e+02 -2.193227e+01
-3.865462e+09 -3.665463e+09 -3.825461e+09 9.055565e+02 1.578418e+02 2.474386e+01
-1.929737e+09 -1.729735e+09 -1.889735e+09 2.865898e+02 5.007691e+02 -6.834849e+01
-3.642374e+09 -3.442374e+09 -3.602372e+09 1.518108e+02 4.914126e+01 1.818128e+01
-4.713433e+09 -4.513433e+09 -4.673431e+09 2.905952e+02 6.871055e+00 6.745655e+01
-4.508321e+09 -4.308322e+09 -4.468320e+09 2.150560e+02 1.160641e+01 -1.113280e+01
-2.177406e+09 -1.977404e+09 -2.137404e+09 2.857750e+02 3.944742e+02 -7.594493e+00
-2.365492e+09 -2.165489e+09 -2.325491e+09 6.720855e+02 7.845923e+02 -5.501339e+02
-3.352927e+09 -3.152924e+09 -3.312926e+09 1.628908e+02 3.727215e+02 -1.901223e+02
-2.168555e+09 -1.968553e+09 -2.128554e+09 5.810881e+02 3.963669e+02 -2.735737e+02
-2.186083e+09 -1.986080e+09 -2.146081e+09 3.639675e+02 3.824640e+02 -1.621389e+02
-4.717889e+09 -4.517886e+09 -4.677888e+09 -1.302461e+02 -7.564079e+01 -2.735321e+01
-1.931385e+09 -1.731383e+09 -1.891384e+09 2.028997e+02 5.743871e+02 -3.242740e+01
-4.790386e+09 -4.590383e+09 -4.750386e+09 -9.713068e+02 -3.449611e+02 -4.787374e+02
-1.581549e+09 -1.381552e+09 -1.541553e+09 7.011475e+02 -4.884841e+02 -1.150483e+02
-1.623423e+09 -1.423421e+09 -1.583422e+09 -9.175493e+02 -1.000438e+03 -4.336146e+02
-2.179058e+09 -1.979055e+09 -2.139057e+09 2.677579e+02 5.058538e+02 -7.980147e+01
-3.335786e+09 -3.135783e+09 -3.295785e+09 -2.345165e+02 -5.324109e+02 -1.128148e+02
-3.796736e+09 -3.596733e+09 -3.756735e+09 -2.151863e+02 -3.912479e+02 -6.676355e+01
-2.653483e+09 -2.453480e+09 -2.613482e+09 -1.124929e+02 4.693796e+02 -2.905244e+02
-2.993838e+09 -2.793834e+09 -2.953838e+09 2.984046e+01 -1.086244e+03 -9.753415e+02
-4.919677e+09 -4.719673e+09 -4.879676e+09 -4.282838e+02 -6.096913e+01 -1.765109e+01
-2.155682e+09 -1.955679e+09 -2.115681e+09 -2.300427e+02 -6.477811e+02 -1.272948e+02
-4.123148e+09 -3.923157e+09 -4.083148e+09 -2.732875e+03 -2.864430e+02 2.991429e+03
-1.636280e+09 -1.436279e+09 -1.596281e+09 -2.470016e+02 -6.623219e+02 -1.574913e+02
-4.504042e+09 -4.304040e+09 -4.464041e+09 -5.139556e+02 -8.983979e+01 1.873687e+01
-4.995068e+09 -4.795066e+09 -4.955066e+09 -3.958128e+02 -5.202455e+01 -5.450090e+01
-3.556097e+09 -3.356094e+09 -3.516096e+09 -1.794275e+02 -4.835812e+02 -9.045378e+01
-4.808615e+09 -4.608625e+09 -4.768617e+09 6.945973e+02 2.818246e+01 -1.102609e+02
-4.789678e+09 -4.589684e+09 -4.749681e+09 -2.192544e+03 -7.135556e+02 8.569246e+02
-1.929966e+09 -1.729966e+09 -1.889965e+09 -4.043266e+01 -2.898362e+01 -8.901208e+01
-3.957110e+09 -3.757117e+09 -3.917112e+09 -2.846472e+03 -2.931487e+02 2.082560e+03
-4.272057e+09 -4.072061e+09 -4.232059e+09 -2.973708e+03 -3.384522e+02 7.978504e+02
-1.974808e+09 -1.774806e+09 -1.934806e+09 -3.683668e+02 -2.324981e+02 -2.351836e+01
-1.729081e+09 -1.529080e+09 -1.689079e+09 -4.384375e+02 -3.703916e+02 -3.407459e+01
-2.090475e+09 -1.890474e+09 -2.050473e+09 -8.497349e+02 -2.928011e+02 -1.250676e+02
-2.916440e+09 -2.716441e+09 -2.876439e+09 -3.889651e+02 -3.130932e+02 -3.336238e+01
-2.394050e+09 -2.194055e+09 -2.354056e+09 2.748931e+03 4.969931e+02 9.186587e+02
-2.319134e+09 -2.119132e+09 -2.279132e+09 -1.741437e+02 -6.732507e+01 1.251229e+01
-3.988130e+09 -3.788129e+09 -3.948128e+09 -7.658674e+01 1.965839e+01 -4.030042e+01
-3.502326e+09 -3.302325e+09 -3.462325e+09 -2.418226e+02 1.181054e+00 -3.411161e+01
-1.889855e+09 -1.689853e+09 -1.849853e+09 -7.287988e+02 -3.769470e+02 -1.078138e+02
-1.673916e+09 -1.473915e+09 -1.633915e+09 4.533649e+01 -1.541602e+01 -7.518124e+01
-3.445147e+09 -3.245151e+09 -3.405148e+09 -3.308097e+02 -2.950233e+02 -5.114632e+01
-1.892285e+09 -1.692292e+09 -1.852287e+09 -3.337267e+02 -3.784364e+02 -8.055120e+01
-2.170815e+09 -1.970814e+09 -2.130814e+09 8.672465e+00 6.165074e+00 -4.613251e+01
-1.673760e+09 -1.473760e+09 -1.633759e+09 -3.649732e+02 4.619106e+01 -1.173295e+02
-3.240570e+09 -3.040576e+09 -3.200573e+09 -1.628993e+03 -2.022680e+03 -5.055260e+02
-3.565668e+09 -3.365675e+09 -3.525673e+09 1.998773e+03 6.239351e+02 9.826711e+02
-2.997390e+09 -2.797396e+09 -2.957391e+09 -3.741881e+02 -2.682507e+02 -1.050431e+02
-3.461772e+09 -3.261779e+09 -3.421774e+09 -3.303571e+02 -1.620303e+01 -5.337919e+01
-3.379054e+09 -3.179057e+09 -3.339055e+09 -1.669538e+03 -8.926831e+02 -4.530245e+02
-3.504691e+09 -3.304695e+09 -3.464692e+09 -1.158667e+03 -7.494106e+02 -1.813771e+02
-3.051329e+09 -2.851334e+09 -3.011331e+09 -7.405632e+02 -6.575613e+02 -2.101723e+02
-1.908000e+09 -1.707997e+09 -1.867999e+09 -1.372146e+02 -6.978780e+02 -1.460393e+02
-3.104691e+09 -2.904688e+09 -3.064691e+09 2.105567e+02 -6.417699e+02 -6.269315e+02
-3.049963e+09 -2.849960e+09 -3.009962e+09 -7.315915e+02 -1.050714e+03 -6.567123e+02
-2.983973e+09 -2.783969e+09 -2.943972e+09 -4.492212e+02 -7.432746e+02 -3.733410e+02
-3.059189e+09 -2.859191e+09 -3.019188e+09 1.065797e+03 6.763721e+01 5.878873e+01
-3.509650e+09 -3.309652e+09 -3.469649e+09 5.368510e+01 8.380006e+00 3.944156e+01
-3.688673e+09 -3.488670e+09 -3.648672e+09 5.214068e+01 -4.399807e+02 -9.731210e+01
-1.660341e+09 -1.460339e+09 -1.620340e+09 -4.939963e+01 -8.431089e+02 -1.106983e+02
-2.984505e+09 -2.784502e+09 -2.944505e+09 1.467658e+02 -7.633363e+02 -5.943198e+02
-3.025712e+09 -2.825716e+09 -2.985716e+09 8.640103e+02 -2.018196e+02 -5.130073e+01
-3.687350e+09 -3.487357e+09 -3.647352e+09 5.930015e+01 1.786227e+02 -1.327413e+01
-2.550619e+09 -2.350616e+09 -2.510619e+09 2.189614e+02 -9.104585e+02 -1.208475e+03
-4.974000e+09 -4.774006e+09 -4.934001e+09 2.171021e+02 1.395330e+01 1.602349e+01
-1.872735e+09 -1.672738e+09 -1.832734e+09 1.463477e+02 -4.712682e+01 4.109151e+01
-3.094274e+09 -2.894274e+09 -3.054276e+09 6.143806e+02 -3.740484e+02 -1.733738e+02
-1.632486e+09 -1.432488e+09 -1.592485e+09 7.079387e+01 1.776928e+01 5.812272e+01
-3.100172e+09 -2.900174e+09 -3.060175e+09 -4.151163e+01 -3.932215e+02 -3.297739e+02
-1.662426e+09 -1.462425e+09 -1.622427e+09 5.429849e+02 -5.590941e+02 -1.727393e+02
-1.910292e+09 -1.710291e+09 -1.870293e+09 2.800491e+02 -5.455191e+02 -3.492035e+02
-4.617644e+09 -4.417646e+09 -4.577644e+09 -3.611897e+02 1.244105e+02 -2.544870e+00
-3.486733e+09 -3.286731e+09 -3.446732e+09 -1.272521e+02 -2.253742e+01 -2.834158e+01
-2.776986e+09 -2.576991e+09 -2.736986e+09 3.947864e+01 1.801858e+01 -4.875691e+00
-3.630690e+09 -3.430695e+09 -3.590690e+09 5.315812e+01 3.001218e+01 -2.011815e+01
-2.898737e+09 -2.698736e+09 -2.858736e+09 -4.057807e+01 -2.084809e+01 -2.876500e+01
-4.943471e+09 -4.743477e+09 -4.903472e+09 3.622968e+02 -2.814772e+00 1.336066e+01
-3.094737e+09 -2.894743e+09 -3.054738e+09 1.219528e+01 3.616293e+01 -2.224538e+01
-2.658667e+09 -2.458666e+09 -2.618666e+09 -1.538864e+01 -2.783414e+01 -6.957184e+01
-1.574804e+09 -1.374809e+09 -1.534804e+09 -4.421847e+02 1.191292e+02 -1.024096e+02
-4.502837e+09 -4.302843e+09 -4.462838e+09 9.659706e+01 9.472772e+01 -2.658297e+00
-1.931872e+09 -1.731871e+09 -1.891871e+09 -4.548017e+01 -7.338095e+00 -6.592870e+01
-4.972772e+09 -4.772777e+09 -4.932773e+09 -8.115165e+02 7.972144e+01 -5.279714e+00
-4.452942e+09 -4.252946e+09 -4.412942e+09 -1.204253e+01 1.254273e+01 -2.667848e+01
-2.622547e+09 -2.422545e+09 -2.582546e+09 -6.366473e+01 -1.343968e+01 -5.461269e+01
-4.800452e+09 -4.600443e+09 -4.760449e+09 3.741707e+03 -2.382821e+02 1.156552e+03
-3.356062e+09 -3.156068e+09 -3.316063e+09 7.948301e+02 2.126833e+02 -4.230920e+01
-4.890118e+09 -4.690122e+09 -4.850117e+09 1.151870e+02 -2.492320e-05 -2.635382e+01
-1.593682e+09 -1.393685e+09 -1.553681e+09 6.521513e+02 5.370208e+00 4.017646e+01
-4.822008e+09 -4.622001e+09 -4.782013e+09 4.262787e+02 -1.345863e+03 -1.211884e+03
-3.964012e+09 -3.764001e+09 -3.924018e+09 3.655106e+02 4.167900e+02 -9.824353e+02
-4.175989e+09 -3.975977e+09 -4.135993e+09 1.087229e+02 7.217215e+02 -1.915565e+03
-2.545722e+09 -2.345724e+09 -2.505721e+09 6.703795e+02 6.703409e+01 5.504443e+01
-4.650793e+09 -4.450795e+09 -4.610792e+09 8.279883e+01 3.776001e+01 2.023640e+00
-3.962575e+09 -3.762568e+09 -3.922580e+09 -3.419197e+02 -1.163307e+03 -1.199082e+03
-4.993711e+09 -4.793703e+09 -4.953716e+09 1.591251e+02 -1.110838e+03 -7.816194e+02
-4.382891e+09 -4.182894e+09 -4.342890e+09 5.635677e+02 3.619028e+01 -3.593458e+00
-3.693312e+09 -3.493314e+09 -3.653311e+09 5.420775e+01 3.590934e+00 -1.906233e+01
-3.241654e+09 -3.041658e+09 -3.201654e+09 7.113745e+02 6.199490e+01 -6.009036e+01
-3.282520e+09 -3.082523e+09 -3.242519e+09 1.013878e+02 -5.742599e+00 4.069418e+01
-3.964013e+09 -3.764004e+09 -3.924018e+09 -3.123964e+02 -2.157052e+03 -2.655696e+03
-2.257510e+09 -2.057508e+09 -2.217509e+09 -1.726673e+02 -2.972017e+01 -5.652075e+01
-2.161492e+09 -1.961496e+09 -2.121492e+09 1.858099e+02 -9.395294e+00 -2.296229e+01
-3.100941e+09 -2.900940e+09 -3.060939e+09 6.259968e+01 -1.915513e+01 -6.340667e+01
-3.129219e+09 -2.929218e+09 -3.089218e+09 2.224790e+01 -1.132377e+01 -6.762728e+01
-3.048265e+09 -2.848263e+09 -3.008263e+09 -4.293335e+01 -9.831622e+00 -6.587711e+01
-1.762558e+09 -1.562564e+09 -1.722559e+09 1.456658e+02 9.132239e+01 -4.510060e+01
-1.568637e+09 -1.368641e+09 -1.528638e+09 -5.489385e+02 -2.598119e+01 -1.442284e+02
-1.668275e+09 -1.468274e+09 -1.628274e+09 3.527824e+01 -2.361244e+01 -1.154176e+02
-1.915957e+09 -1.715956e+09 -1.875956e+09 -1.930299e+01 -7.756266e-01 -1.034959e+02
-4.619070e+09 -4.419071e+09 -4.579071e+09 2.003951e+02 1.413176e+01 -2.859263e+00
-3.357855e+09 -3.157859e+09 -3.317859e+09 3.096877e+03 7.432363e+02 9.681063e+02
-3.079971e+09 -2.879976e+09 -3.039972e+09 3.799448e+02 5.836746e+01 2.087046e+01
-4.984162e+09 -4.784164e+09 -4.944164e+09 3.417888e+02 -1.337090e+01 5.860628e-01
-2.610634e+09 -2.410639e+09 -2.570635e+09 -3.106412e+01 2.974760e+01 -1.150574e+02
-4.710949e+09 -4.510950e+09 -4.670948e+09 -1.525550e+02 -8.474906e+01 -2.836408e+01
-4.225701e+09 -4.025703e+09 -4.185702e+09 1.836530e+02 -4.225088e+00 -2.424384e+01
-3.544558e+09 -3.344563e+09 -3.504559e+09 -4.004729e+00 3.658896e+01 -7.380112e+01
-3.977512e+09 -3.777514e+09 -3.937514e+09 7.022532e+01 2.335003e+00 2.691343e+01
-4.820740e+09 -4.620742e+09 -4.780742e+09 5.171787e+00 3.348317e+00 1.161625e+01
-3.769116e+09 -3.569122e+09 -3.729116e+09 2.129134e+01 2.441170e+01 -5.249465e+01
-3.532739e+09 -3.332745e+09 -3.492740e+09 1.593740e+01 1.932019e+02 -1.040133e+00
-1.583413e+09 -1.383419e+09 -1.543414e+09 -1.131219e+02 6.943122e+01 -7.297068e+01
-4.373934e+09 -4.173936e+09 -4.333935e+09 -2.865058e+01 6.567724e-01 8.461773e+00
-4.470015e+09 -4.270017e+09 -4.430016e+09 1.460403e+02 9.803768e-01 1.113528e+01
-3.951608e+09 -3.751610e+09 -3.911610e+09 1.676891e+02 2.120899e+01 1.369284e+01
-3.672531e+09 -3.472530e+09 -3.632531e+09 -1.177498e+02 -2.356035e+01 -1.545852e+01
-4.061928e+09 -3.861930e+09 -4.021930e+09 1.936286e+02 -7.623149e+00 -2.129051e+01
-4.132161e+09 -3.932166e+09 -4.092163e+09 1.750564e+03 4.144617e+02 -9.428335e+01
-3.385955e+09 -3.185954e+09 -3.345957e+09 1.165975e+03 -4.344217e+02 -7.984833e+02
-4.474765e+09 -4.274770e+09 -4.434769e+09 2.303183e+03 1.109581e+03 -2.086276e+02
-4.998119e+09 -4.798125e+09 -4.958123e+09 1.874902e+03 5.102192e+02 -4.262377e+01
-4.485162e+09 -4.285167e+09 -4.445166e+09 1.967318e+03 8.922384e+02 -2.813930e+02
-3.876987e+09 -3.676989e+09 -3.836989e+09 6.221186e+01 -2.375859e-01 6.317465e+00
-4.502310e+09 -4.302316e+09 -4.462314e+09 2.329302e+03 7.697960e+02 -1.010677e+02
-1.831821e+09 -1.631822e+09 -1.791822e+09 -2.506529e+01 -9.589410e+00 1.668225e+01
-4.274728e+09 -4.074728e+09 -4.234728e+09 4.436747e+02 5.664225e+00 -1.577315e+01
-4.144728e+09 -3.944735e+09 -4.104732e+09 1.470235e+03 1.522648e+03 -2.125899e+02
-2.053581e+09 -1.853582e+09 -2.013580e+09 3.545824e+02 -2.102487e+02 -1.503800e+00
-2.447518e+09 -2.247519e+09 -2.407517e+09 3.771909e+02 -3.359044e+02 -1.086065e+01
-2.174446e+09 -1.974447e+09 -2.134447e+09 -2.410835e+01 -5.621923e+00 1.220943e+01
-1.636086e+09 -1.436088e+09 -1.596087e+09 -3.299991e+00 -9.719773e+00 7.309557e+00
-3.043172e+09 -2.843174e+09 -3.003173e+09 1.122364e+02 9.427432e+00 2.068504e+01
-2.542738e+09 -2.342737e+09 -2.502738e+09 4.413620e+00 4.093658e+01 -1.111346e+00
-4.717167e+09 -4.517169e+09 -4.677168e+09 -2.196176e+01 -4.880910e+00 2.527541e+01
-1.907261e+09 -1.707260e+09 -1.867260e+09 7.067321e+00 5.153813e+00 -8.781591e+00
-2.747685e+09 -2.547686e+09 -2.707684e+09 4.519558e+02 -2.326032e+02 1.690762e+01
-2.995022e+09 -2.795024e+09 -2.955022e+09 2.958051e+02 -1.023539e+02 2.361195e+01
-2.055559e+09 -1.855561e+09 -2.015559e+09 7.112392e+02 -6.662286e+01 2.776166e+01
-3.003120e+09 -2.803123e+09 -2.963120e+09 4.252430e+02 -9.723545e+01 1.938318e+01
-4.897082e+09 -4.697081e+09 -4.857081e+09 1.362413e+01 4.083488e-10 1.678458e+00
-3.000766e+09 -2.800768e+09 -2.960766e+09 6.443448e+01 -3.833328e+01 -1.711213e+00
-2.174327e+09 -1.974329e+09 -2.134326e+09 9.904931e+01 -4.311125e+01 -1.421519e+01
-1.997756e+09 -1.797758e+09 -1.957756e+09 1.025174e+03 -4.532630e+02 1.292555e+02
-2.511260e+09 -2.311261e+09 -2.471260e+09 6.058235e+02 -1.054921e+02 -3.641890e+01
-1.762631e+09 -1.562631e+09 -1.722630e+09 3.574217e+02 -8.907991e+01 -7.856046e+01
-1.866100e+09 -1.666102e+09 -1.826100e+09 3.715187e+02 -2.171863e+02 -1.043826e+02
-2.799254e+09 -2.599257e+09 -2.759254e+09 2.412971e+02 -1.922325e+02 -3.487650e+01
-1.665863e+09 -1.465865e+09 -1.625863e+09 3.720673e+02 -1.045601e+02 -1.045904e+02
-4.009206e+09 -3.809207e+09 -3.969207e+09 2.524679e+02 1.153238e+01 1.350123e+01
-4.971123e+09 -4.771124e+09 -4.931124e+09 2.578057e+02 6.024762e-01 -1.215577e+01
-4.092236e+09 -3.892236e+09 -4.052236e+09 3.633890e+02 5.213424e+01 2.615801e+01
-3.916140e+09 -3.716141e+09 -3.876140e+09 3.934528e+02 1.731748e+01 -6.399016e+00
-4.975015e+09 -4.775016e+09 -4.935016e+09 3.846776e+02 -1.428602e+01 -5.240062e+01
-4.793379e+09 -4.593379e+09 -4.753379e+09 4.516265e+02 2.762470e+01 3.210809e+01
-4.503661e+09 -4.303660e+09 -4.463660e+09 -4.562516e+01 1.596316e+00 -2.771145e+01
-4.808928e+09 -4.608929e+09 -4.768928e+09 2.501172e+02 -8.514796e+00 3.109376e+01
-1.638465e+09 -1.438463e+09 -1.598464e+09 1.115404e+01 8.960772e+00 -4.123503e+00
-4.968424e+09 -4.768423e+09 -4.928423e+09 -6.640464e+01 -1.317515e+01 2.569659e+01
-3.205788e+09 -3.005787e+09 -3.165787e+09 -2.354492e+00 -1.201718e+02 -2.439024e+01
-1.948747e+09 -1.748746e+09 -1.908746e+09 -2.131957e+02 -5.493483e+01 -1.003559e+02
-2.075639e+09 -1.875644e+09 -2.035639e+09 4.853846e+01 2.196126e+01 -1.490926e+01
-1.955381e+09 -1.755387e+09 -1.915382e+09 1.184880e+02 4.396803e+01 -1.605901e+01
-1.612504e+09 -1.412502e+09 -1.572503e+09 -9.426613e+01 -3.526104e+01 -9.701379e+01
-2.047477e+09 -1.847483e+09 -2.007478e+09 4.527179e+02 1.872957e+02 5.521521e+00
-4.706203e+09 -4.506201e+09 -4.666201e+09 -3.658826e+01 1.761076e+01 -2.301683e+01
-3.341629e+09 -3.141628e+09 -3.301628e+09 -1.437540e+02 -7.062394e+01 -3.440262e+01
-3.409515e+09 -3.209514e+09 -3.369514e+09 -6.201755e+01 -5.601915e+00 -6.595454e+01
-2.158519e+09 -1.958518e+09 -2.118518e+09 1.036172e+01 2.072657e+00 -1.889994e+00
-2.583069e+09 -2.383075e+09 -2.543070e+09 2.960405e+02 8.437878e+01 9.427973e+00
-1.815015e+09 -1.615020e+09 -1.775016e+09 1.131171e+02 -1.513398e+01 2.260492e+00
-2.391039e+09 -2.191044e+09 -2.351039e+09 7.459127e+01 3.994317e+01 -3.545421e+01
-1.958937e+09 -1.758942e+09 -1.918938e+09 3.647865e+02 2.199295e+01 1.159303e+01
-1.566794e+09 -1.366794e+09 -1.526794e+09 1.108135e+02 5.600456e+01 -5.512934e+00
-2.685230e+09 -2.485236e+09 -2.645231e+09 2.037280e+02 3.609800e+01 -2.065825e+01
-1.830819e+09 -1.630824e+09 -1.790819e+09 4.241901e+02 2.965452e+01 1.880485e+01
-2.669462e+09 -2.469461e+09 -2.629461e+09 7.657606e+01 1.991148e+01 -1.232746e+01
-2.119839e+09 -1.919839e+09 -2.079839e+09 2.565685e+00 8.727749e+00 -1.212985e+00
-3.148096e+09 -2.948095e+09 -3.108095e+09 3.904928e+01 1.215906e+01 -1.319432e+00
-3.986528e+09 -3.786528e+09 -3.946528e+09 6.165912e+00 4.708611e+00 -3.563043e+01
-2.574083e+09 -2.374082e+09 -2.534082e+09 2.412049e+01 2.206268e+01 -2.550962e+01
-1.872810e+09 -1.672809e+09 -1.832809e+09 2.893115e+01 1.580604e+01 -2.153311e+01
-2.694111e+09 -2.494111e+09 -2.654111e+09 -1.955415e+02 -3.959686e+01 -3.019815e+01
-1.594954e+09 -1.394955e+09 -1.554955e+09 1.303586e+01 2.495544e+01 -3.402945e+01
-3.028402e+09 -2.828402e+09 -2.988402e+09 -1.937701e+01 -1.913108e+01 -5.455910e+00
-3.035263e+09 -2.835262e+09 -2.995262e+09 -1.226404e+02 -2.480390e+01 1.194914e+01
-3.036678e+09 -2.836679e+09 -2.996678e+09 3.901385e+02 4.829111e+01 8.573561e+00
-2.613610e+09 -2.413609e+09 -2.573610e+09 -8.284300e+01 -2.606640e+01 3.000817e-01
-1.946784e+09 -1.746784e+09 -1.906784e+09 -5.093767e+01 -2.804778e+01 -1.900428e+01
-1.607633e+09 -1.407635e+09 -1.567634e+09 8.375749e+01 3.742713e+01 1.192529e+01
-1.585941e+09 -1.385939e+09 -1.545940e+09 -1.112071e+02 -2.494748e+01 1.008792e+01
-4.967567e+09 -4.767566e+09 -4.927567e+09 -7.667505e+01 5.839738e+00 6.771918e+00
-2.981816e+09 -2.781815e+09 -2.941815e+09 2.801370e+01 6.450918e+00 -9.848620e+00
-2.170967e+09 -1.970966e+09 -2.130966e+09 -2.111442e+01 9.696919e-01 -3.907274e+01
-1.632567e+09 -1.432566e+09 -1.592566e+09 -5.566974e+00 -2.501003e+01 -6.342688e+00
-5.018485e+09 -4.818494e+09 -4.978489e+09 7.064777e+02 1.145081e+02 -1.476286e+01
-4.977709e+09 -4.777716e+09 -4.937714e+09 -5.407812e+02 -4.655371e+01 1.402783e+02
-3.342817e+09 -3.142817e+09 -3.302817e+09 5.335693e+00 3.780373e+01 -3.733334e-01
-2.194396e+09 -1.994396e+09 -2.154396e+09 -3.415558e+01 -1.503206e+00 1.868010e+00
-2.530988e+09 -2.330989e+09 -2.490988e+09 2.593659e+02 -7.979844e+01 -6.051226e+01
-4.133304e+09 -3.933306e+09 -4.093316e+09 -1.067203e+03 -4.504360e+03 -7.090218e+01
-2.767934e+09 -2.567935e+09 -2.727933e+09 1.927738e+02 -2.375843e+02 1.598205e+01
-3.402662e+09 -3.202664e+09 -3.362662e+09 2.499114e+02 6.446796e+01 -1.485830e+01
-3.911093e+09 -3.711094e+09 -3.871093e+09 -7.537849e+00 -9.805049e+00 -1.416175e+01
-2.117695e+09 -1.917694e+09 -2.077694e+09 8.266016e+01 1.399172e+01 -1.516053e+01
-2.132996e+09 -1.932995e+09 -2.092995e+09 5.802883e+01 -6.117027e-01 -6.177558e+00
-1.988292e+09 -1.788291e+09 -1.948291e+09 8.465973e+01 5.307168e+00 -3.030821e+01
-3.369537e+09 -3.169536e+09 -3.329537e+09 1.246742e+01 2.214776e+01 -1.045692e+00
-4.402932e+09 -4.202929e+09 -4.362932e+09 -5.932329e+02 -4.622556e+02 -1.913365e+02
-1.892627e+09 -1.692626e+09 -1.852626e+09 4.012928e+01 6.555467e+00 -2.477378e+01
-4.354393e+09 -4.154391e+09 -4.314391e+09 -8.567011e+01 4.060311e+00 4.609213e-01
-1.642319e+09 -1.442323e+09 -1.602319e+09 -6.091614e+02 -2.198120e+02 -2.165044e+00
-3.969022e+09 -3.769021e+09 -3.929021e+09 5.305186e+01 -5.319167e+00 -2.306699e+00
-2.326870e+09 -2.126869e+09 -2.286869e+09 1.032781e+02 7.228874e+00 -2.300064e+01
-1.638465e+09 -1.438463e+09 -1.598464e+09 7.110220e+00 7.052888e+00 -2.083505e+01
-2.880782e+09 -2.680781e+09 -2.840781e+09 2.215788e+01 2.580840e+01 -5.801569e+01
-3.208171e+09 -3.008170e+09 -3.168170e+09 1.364169e+02 3.553954e+00 -1.636974e+01
-1.890187e+09 -1.690187e+09 -1.850187e+09 2.470983e+02 3.133506e+01 9.611282e+00
-2.639823e+09 -2.439822e+09 -2.599822e+09 4.364618e+01 1.681684e+01 -5.134906e+01
-2.131665e+09 -1.931664e+09 -2.091664e+09 2.251734e+01 -1.540609e+01 -2.944490e+01
-3.031996e+09 -2.831995e+09 -2.991995e+09 2.562953e+01 -2.360528e+00 -3.108118e+01
-3.090816e+09 -2.890815e+09 -3.050815e+09 -3.097048e+01 8.866419e-01 -1.624384e+01
-2.687352e+09 -2.487351e+09 -2.647351e+09 -8.938315e+00 -3.761684e-01 -2.999967e+01
-2.205708e+09 -2.005707e+09 -2.165707e+09 -7.888048e+00 -6.095888e+00 -3.795151e+01
-1.664529e+09 -1.464528e+09 -1.624528e+09 -2.860636e+01 2.652819e+00 -6.261057e+01
-2.081815e+09 -1.881815e+09 -2.041814e+09 -8.349300e+01 2.464003e+01 -6.379014e+01
-4.628533e+09 -4.428531e+09 -4.588531e+09 -8.875579e+02 -3.062622e+01 -3.050704e+01
-3.942122e+09 -3.742117e+09 -3.902120e+09 6.441013e+02 -5.304794e+01 2.259536e+02
-2.159809e+09 -1.959808e+09 -2.119808e+09 2.671179e+01 5.956572e+00 -3.355870e+01
-1.818005e+09 -1.618007e+09 -1.778006e+09 -1.259624e+02 -1.837042e+01 2.061017e+01
-1.864850e+09 -1.664851e+09 -1.824851e+09 -1.381780e+02 -3.078719e+01 2.124703e+01
-2.795816e+09 -2.595818e+09 -2.755817e+09 -6.240568e+01 -7.630156e+00 4.160585e+01
-2.823158e+09 -2.623159e+09 -2.783159e+09 -1.855746e+01 -1.112263e+01 7.032722e+00
-2.079494e+09 -1.879495e+09 -2.039495e+09 -4.774748e+00 -5.429275e+00 6.645518e+00
-1.831814e+09 -1.631816e+09 -1.791815e+09 -1.242022e+01 -8.715103e+00 -2.895845e+00
-3.573043e+09 -3.373045e+09 -3.533042e+09 6.672577e+02 4.132528e+01 4.087706e+01
-2.146961e+09 -1.946966e+09 -2.106962e+09 -7.041835e+02 1.549287e+02 -2.845318e+01
-3.186560e+09 -2.986565e+09 -3.146561e+09 -6.471752e+02 1.318968e+02 -1.127294e+02
-3.663220e+09 -3.463224e+09 -3.623220e+09 -1.374093e+01 2.878027e+01 -1.801202e+01
-1.574804e+09 -1.374809e+09 -1.534804e+09 -4.171287e+02 -8.058916e+00 -9.804286e+01
-1.898609e+09 -1.698613e+09 -1.858609e+09 -1.366559e+02 -5.520354e+01 -9.980421e+01
-1.636089e+09 -1.436086e+09 -1.596088e+09 3.220882e+02 5.888026e+02 -1.042072e+02
-2.895926e+09 -2.695928e+09 -2.855925e+09 8.249839e+02 7.289121e+01 -3.747117e+01
-2.663799e+09 -2.463801e+09 -2.623798e+09 1.032796e+03 -5.685039e+01 1.801381e+01
-3.615250e+09 -3.415252e+09 -3.575249e+09 4.670972e+02 6.650329e+01 4.842018e+00
-3.922488e+09 -3.722491e+09 -3.882487e+09 5.746069e+02 1.470306e+01 -1.633316e+01
-1.651753e+09 -1.451756e+09 -1.611756e+09 -6.115923e+02 2.678992e+02 2.964642e+01
-2.595275e+09 -2.395277e+09 -2.555274e+09 3.633552e+02 2.511296e+01 5.590085e+01
-3.813881e+09 -3.613884e+09 -3.773880e+09 9.322909e+02 1.042391e+02 -2.623000e+01
-2.102192e+09 -1.902198e+09 -2.062198e+09 -1.236487e+03 -8.894034e+01 8.188836e+02
-4.143051e+09 -3.943047e+09 -4.103049e+09 1.045425e+03 -4.524199e+02 -3.247240e+02
-4.841456e+09 -4.641453e+09 -4.801455e+09 1.007002e+03 -2.513478e+02 -2.766976e+02
-4.623928e+09 -4.423936e+09 -4.583930e+09 -1.727232e+03 -1.963346e+02 7.674560e+02
-4.864574e+09 -4.664572e+09 -4.824573e+09 1.254861e+03 -3.205738e+01 -3.174684e+01
-5.021672e+09 -4.821670e+09 -4.981671e+09 1.652683e+03 -1.748419e+02 -1.483747e+02
-4.678439e+09 -4.478438e+09 -4.638438e+09 1.835612e+03 -2.238686e+02 -2.091369e+02
-2.044665e+09 -1.844670e+09 -2.004670e+09 4.764185e+02 -5.029203e+01 -7.293612e+01
-4.178108e+09 -3.978106e+09 -4.138107e+09 1.363070e+03 -1.871526e+02 -1.277917e+02
-4.772459e+09 -4.572464e+09 -4.732463e+09 1.195649e+03 1.557258e+02 3.107763e+02
-4.463861e+09 -4.263860e+09 -4.423864e+09 3.909685e+02 -9.927744e+02 8.049499e+02
-1.696940e+09 -1.496943e+09 -1.656940e+09 -2.351125e+03 -1.460283e+03 -5.118071e+02
-1.599042e+09 -1.399049e+09 -1.559049e+09 1.306502e+02 -1.764856e+02 7.051008e+01
-3.274790e+09 -3.074788e+09 -3.234788e+09 -3.000820e+02 -3.236733e+02 -1.164842e+02
-4.487364e+09 -4.287363e+09 -4.447363e+09 1.410329e+03 -6.250282e+01 -2.744651e+02
-2.812242e+09 -2.612242e+09 -2.772242e+09 1.165277e+02 1.489104e+01 -7.903317e+00
-2.859712e+09 -2.659718e+09 -2.819717e+09 1.720395e+02 -2.456066e+01 1.574572e+02
-2.043043e+09 -1.843043e+09 -2.003043e+09 4.421513e+01 1.542688e+01 -1.981190e+01
-4.667443e+09 -4.467445e+09 -4.627445e+09 7.785302e+01 -9.537259e+00 -9.950881e+00
-1.960262e+09 -1.760263e+09 -1.920263e+09 1.574271e+02 1.846591e+01 1.794015e+01
-4.004620e+09 -3.804617e+09 -3.964620e+09 5.701172e+01 3.193435e+02 -2.723921e+02
-2.466359e+09 -2.266359e+09 -2.426359e+09 1.311508e+02 2.907540e+01 3.830181e+01
-2.268879e+09 -2.068884e+09 -2.228884e+09 -1.932381e+03 -1.252483e+02 1.008944e+03
-3.001692e+09 -2.801691e+09 -2.961693e+09 -2.009523e+03 -1.482820e+02 1.539575e+02
-2.861032e+09 -2.661032e+09 -2.821032e+09 1.118477e+02 2.330018e+01 2.157135e+01
-3.056126e+09 -2.856126e+09 -3.016127e+09 -2.895589e+02 2.408805e+02 -1.091817e+02
-3.386099e+09 -3.186099e+09 -3.346099e+09 9.501837e+01 2.391645e+01 6.017540e+01
-1.907776e+09 -1.707776e+09 -1.867776e+09 2.951624e+01 1.952343e+01 1.266528e+01
-2.993841e+09 -2.793840e+09 -2.953840e+09 1.492438e+02 9.458450e+00 -8.120111e+01
-3.918911e+09 -3.718907e+09 -3.878909e+09 6.493873e+01 2.409572e+02 -7.100770e+01
-4.435491e+09 -4.235490e+09 -4.395492e+09 2.018989e+02 1.518534e+02 -3.192311e+01
-2.802544e+09 -2.602544e+09 -2.762544e+09 6.702533e+01 3.679985e+01 -4.748119e+01
-2.230655e+09 -2.030652e+09 -2.190654e+09 -9.281924e+01 5.473254e+02 -8.102795e+01
-2.584092e+09 -2.384097e+09 -2.544092e+09 -4.815955e+02 2.376742e+02 6.388049e+00
-2.772905e+09 -2.572910e+09 -2.732906e+09 -4.339938e+00 2.759086e+01 -5.362371e+01
-2.055722e+09 -1.855722e+09 -2.015722e+09 1.305803e+02 1.648970e+01 -1.757629e+01
-1.938304e+09 -1.738309e+09 -1.898305e+09 -4.868378e+01 6.161003e+01 -6.735252e+01
-1.636319e+09 -1.436323e+09 -1.596319e+09 -1.388291e+01 2.371730e+01 -1.212440e+02
-2.760701e+09 -2.560706e+09 -2.720702e+09 -2.117272e+00 3.602466e+01 -5.941582e+01
-1.968090e+09 -1.768090e+09 -1.928090e+09 1.265513e+02 1.764614e+01 2.509530e+00
-3.421987e+09 -3.221993e+09 -3.381988e+09 -9.118648e+01 1.070431e+02 -4.834898e+01
-2.361740e+09 -2.161746e+09 -2.321741e+09 -2.870456e+02 3.514194e+01 -4.488340e+01
-1.571212e+09 -1.371212e+09 -1.531212e+09 1.609840e+02 3.743915e+01 -1.730786e+01
-1.965989e+09 -1.765994e+09 -1.925989e+09 -1.097393e+02 -1.786269e+01 -6.606697e+01
-2.570799e+09 -2.370798e+09 -2.530798e+09 6.381003e+01 3.790650e+01 7.441512e+00
-1.907799e+09 -1.707799e+09 -1.867799e+09 2.430546e+01 2.284018e+01 -1.552837e+01
-4.434821e+09 -4.234819e+09 -4.394819e+09 3.203071e+02 7.332173e+01 -9.279965e+00
-4.601756e+09 -4.401754e+09 -4.561754e+09 1.106712e+03 3.205494e+02 -1.375700e+02
-4.643380e+09 -4.443380e+09 -4.603380e+09 4.740758e+02 2.732027e+01 4.740770e+01
-4.599229e+09 -4.399228e+09 -4.559228e+09 1.160038e+03 1.651281e+02 1.336465e+01
-3.408115e+09 -3.208118e+09 -3.368115e+09 -1.777375e+01 1.943323e+01 -8.621276e+01
-3.737521e+09 -3.537520e+09 -3.697519e+09 1.040458e+03 3.290357e+02 -6.298386e+01
-4.787959e+09 -4.587958e+09 -4.747957e+09 1.178519e+03 8.799241e+01 5.046016e+01
-4.708678e+09 -4.508677e+09 -4.668676e+09 3.695887e+02 9.593439e+01 -7.923732e+01
-4.089531e+09 -3.889529e+09 -4.049529e+09 4.026027e+02 1.083729e+02 -4.323079e+01
-3.762265e+09 -3.562267e+09 -3.722266e+09 1.145696e+03 -8.018575e+02 3.288462e+02
-2.587638e+09 -2.387638e+09 -2.547638e+09 1.335731e+01 4.689325e+01 3.089326e+00
-1.675921e+09 -1.475922e+09 -1.635922e+09 1.737207e+02 1.980640e+01 1.589882e+01
-3.233754e+09 -3.033755e+09 -3.193754e+09 9.599587e+02 -5.311293e+02 1.716307e+02
-3.085142e+09 -2.885144e+09 -3.045142e+09 4.281155e+02 -4.207420e+02 8.373233e+01
-1.703587e+09 -1.503586e+09 -1.663586e+09 4.955545e+00 1.916815e+00 -2.020628e+01
-2.613470e+09 -2.413473e+09 -2.573470e+09 1.611863e+03 -5.960101e+02 4.359239e+02
-2.381051e+09 -2.181052e+09 -2.341050e+09 1.336689e+03 -9.505107e+02 3.261594e+02
-2.975033e+09 -2.775034e+09 -2.935033e+09 1.002964e+03 -6.820976e+02 1.492962e+02
-3.615683e+09 -3.415684e+09 -3.575683e+09 1.549178e+02 2.416383e+01 7.490156e+00
-4.358840e+09 -4.158838e+09 -4.318839e+09 2.018288e+01 2.991094e+00 -3.150529e+00
-2.907433e+09 -2.707435e+09 -2.867432e+09 1.180985e+03 2.070225e+02 -6.787600e+01
-2.008420e+09 -1.808420e+09 -1.968418e+09 1.343154e+03 1.574140e+02 4.137343e+01
-4.771770e+09 -4.571771e+09 -4.731771e+09 1.316902e+02 1.900448e+01 1.563549e+01
-2.276333e+09 -2.076333e+09 -2.236331e+09 1.757037e+03 4.571934e+02 -9.679553e+01
-4.346022e+09 -4.146028e+09 -4.306024e+09 8.248877e+02 3.046612e+02 5.544224e+01
-3.985994e+09 -3.785996e+09 -3.945993e+09 1.815396e+03 2.865921e+02 1.416598e+02
-3.076070e+09 -2.876071e+09 -3.036071e+09 8.715078e+01 1.621912e+01 5.919508e+00
-3.536780e+09 -3.336777e+09 -3.496778e+09 2.518841e+02 2.667010e+02 1.092995e+01
-2.503615e+09 -2.303616e+09 -2.463616e+09 1.495078e+02 2.939284e+01 -1.639618e+01
-1.883949e+09 -1.683949e+09 -1.843949e+09 2.661873e+02 5.088523e+01 -1.694026e+00
-4.491369e+09 -4.291368e+09 -4.451367e+09 3.911512e+02 7.047068e+01 -1.282663e+01
-4.975247e+09 -4.775246e+09 -4.935246e+09 1.487269e+03 -2.047081e+01 -3.385198e+01
-4.985985e+09 -4.785986e+09 -4.945985e+09 1.534921e+03 1.443780e+02 -1.256206e+02
-1.986563e+09 -1.786563e+09 -1.946561e+09 1.562263e+03 4.387155e+02 -1.444748e+02
-2.423425e+09 -2.223426e+09 -2.383426e+09 1.566423e+02 3.510810e+01 -4.574311e+01
-4.136013e+09 -3.936013e+09 -4.096013e+09 -7.310649e+02 -1.077125e+00 -4.640781e+01
-1.936726e+09 -1.736725e+09 -1.896725e+09 2.886120e+01 -4.119905e+01 -6.643942e+01
-2.673326e+09 -2.473325e+09 -2.633325e+09 -5.404156e+01 -7.842119e+01 -1.439071e+01
-4.992618e+09 -4.792621e+09 -4.952620e+09 -1.085762e+02 -8.628932e+00 9.730418e+00
-3.964317e+09 -3.764316e+09 -3.924316e+09 -4.730739e+02 -1.079427e+02 -3.887894e+00
-4.823650e+09 -4.623652e+09 -4.783652e+09 -1.043768e+02 -4.561889e+00 -4.082783e+01
-4.137184e+09 -3.937187e+09 -4.097186e+09 -8.765538e+01 -2.723209e-03 3.814422e+01
-4.477508e+09 -4.277510e+09 -4.437509e+09 2.028798e+01 1.355897e+00 1.753150e+01
-4.131520e+09 -3.931519e+09 -4.091519e+09 -2.347945e+02 -9.610939e+01 -5.232409e+01
-3.946937e+09 -3.746939e+09 -3.906938e+09 -3.196780e+02 1.795047e+01 2.209988e+01
-4.464434e+09 -4.264436e+09 -4.424435e+09 -2.495971e+02 4.186641e+00 -1.755285e+00
-4.002376e+09 -3.802376e+09 -3.962376e+09 -1.214021e+03 -1.415589e+02 1.657331e+02
-4.138312e+09 -3.938311e+09 -4.098311e+09 -5.357460e+02 -6.153139e+01 -8.114858e+01
-1.674101e+09 -1.474100e+09 -1.634100e+09 -1.045645e+02 -1.159802e+02 -8.082966e+01
-4.554678e+09 -4.354680e+09 -4.514679e+09 -1.601910e+02 4.230965e+00 -4.368662e+00
-2.519528e+09 -2.319529e+09 -2.479529e+09 -1.252192e+02 -1.232510e+01 -4.176188e-01
-4.308539e+09 -4.108541e+09 -4.268541e+09 -1.516828e+02 -4.085877e+00 9.956626e+00
-4.142039e+09 -3.942038e+09 -4.102039e+09 -6.234702e+02 -1.202125e+01 7.271508e+00
-4.579043e+09 -4.379040e+09 -4.539042e+09 7.535477e+02 3.144000e+02 -1.075397e+02
-4.176567e+09 -3.976563e+09 -4.136566e+09 7.320228e+02 2.792617e+02 -2.405506e+02
-3.985180e+09 -3.785176e+09 -3.945179e+09 4.660223e+02 5.880734e+02 -5.407351e+02
-2.906933e+09 -2.706933e+09 -2.866933e+09 2.728029e+00 3.303415e+01 4.208879e+00
-4.600044e+09 -4.400041e+09 -4.560044e+09 1.572785e+03 3.632255e+02 -2.339529e+02
-4.272840e+09 -4.072836e+09 -4.232840e+09 1.113376e+03 3.587827e+02 -4.837059e+02
-3.342783e+09 -3.142783e+09 -3.302783e+09 3.337522e+02 2.412467e+01 -9.067634e+00
-1.625151e+09 -1.425150e+09 -1.585150e+09 5.971280e+01 3.001577e+01 -7.384283e+00
-4.813877e+09 -4.613875e+09 -4.773876e+09 -1.190718e+01 -4.293311e+01 8.836775e+01
-4.669970e+09 -4.469969e+09 -4.629969e+09 -2.578091e+02 -4.148576e+01 7.099014e+00
-4.621852e+09 -4.421853e+09 -4.581852e+09 2.785227e+02 1.838976e+01 -1.548682e+01
-2.922895e+09 -2.722896e+09 -2.882896e+09 2.268706e+02 1.583764e+01 -1.781285e+01
-4.818786e+09 -4.618785e+09 -4.778785e+09 -1.165832e+02 -2.577835e+01 -5.366920e+01
-4.817986e+09 -4.617984e+09 -4.777985e+09 -2.008185e+02 -3.376486e+01 6.947291e+01
-3.390082e+09 -3.190082e+09 -3.350082e+09 9.838180e+01 3.519878e+01 -5.432558e+00
-3.973657e+09 -3.773656e+09 -3.933656e+09 -3.364464e+02 -4.156591e+01 -7.477187e+00
-1.649037e+09 -1.449038e+09 -1.609038e+09 1.072443e+01 4.818809e+01 1.658949e+00
-4.942732e+09 -4.742732e+09 -4.902732e+09 1.077190e+02 -1.590944e+01 2.328335e+00
-4.129208e+09 -3.929206e+09 -4.089207e+09 -3.391462e+02 -1.049194e+02 8.846407e+01
-2.050733e+09 -1.850735e+09 -2.010735e+09 2.075884e+01 -6.485150e-01 6.409541e+01
-3.937560e+09 -3.737561e+09 -3.897559e+09 -8.525894e+02 2.471007e+01 -3.346037e+01
-4.151773e+09 -3.951775e+09 -4.111773e+09 -1.183483e+03 -8.868455e+01 -1.335121e+02
-2.254613e+09 -2.054614e+09 -2.214613e+09 7.273281e+01 2.059250e+01 -2.937481e+00
-2.545220e+09 -2.345220e+09 -2.505220e+09 1.695894e+02 4.268117e+01 -1.298735e+01
-4.462798e+09 -4.262798e+09 -4.422797e+09 -2.313914e+02 2.634631e+01 -2.770333e+01
-4.796997e+09 -4.596997e+09 -4.756996e+09 -4.205259e+02 6.711806e+01 -1.000124e+01
-3.464804e+09 -3.264804e+09 -3.424803e+09 -3.587229e+02 2.364840e+01 -2.984863e+01
-4.460184e+09 -4.260185e+09 -4.420183e+09 -6.563599e+02 2.627146e+01 -4.548916e+01
-4.488355e+09 -4.288355e+09 -4.448354e+09 -5.009067e+02 3.206591e+01 -1.048266e+01
-4.998030e+09 -4.798030e+09 -4.958029e+09 -8.222978e+02 1.247894e+02 5.354523e+01
-4.667219e+09 -4.467218e+09 -4.627218e+09 -1.893902e+02 4.828148e+00 -8.979498e+00
-4.653751e+09 -4.453752e+09 -4.613757e+09 -2.903907e+03 9.635231e+02 5.236331e+02
-4.119240e+09 -3.919240e+09 -4.079242e+09 -2.649491e+03 1.183730e+03 6.703427e+02
-4.967567e+09 -4.767566e+09 -4.927566e+09 -6.221079e+01 6.091710e+00 2.327121e+01
-5.001250e+09 -4.801248e+09 -4.961250e+09 -1.646136e+03 1.844447e+02 -2.390027e+01
-4.465850e+09 -4.265846e+09 -4.425849e+09 -1.533339e+03 3.005811e+02 2.531918e+02
-4.462033e+09 -4.262031e+09 -4.422033e+09 -2.126109e+03 5.620430e+02 5.389171e+02
-4.127257e+09 -3.927254e+09 -4.087256e+09 -1.842104e+03 3.530425e+02 2.075086e+02
-3.182346e+09 -2.982345e+09 -3.142346e+09 9.317040e+01 7.432112e+00 -5.703779e+00
-3.251293e+09 -3.051292e+09 -3.211293e+09 1.917928e+02 4.976087e+00 -1.316553e+01
-4.403597e+09 -4.203596e+09 -4.363597e+09 -8.459437e+00 -2.164100e+00 2.746930e+00
-4.035566e+09 -3.835566e+09 -3.995566e+09 2.053387e+02 -1.188489e+00 -1.935927e-01
-4.420978e+09 -4.220978e+09 -4.380978e+09 2.273220e+02 1.323972e+01 -1.865803e+01
-3.552742e+09 -3.352741e+09 -3.512742e+09 9.048077e+01 1.682171e+01 -2.067176e+01
-4.274322e+09 -4.074322e+09 -4.234322e+09 2.584296e+02 2.074320e+01 -1.985569e+01
-4.497800e+09 -4.297799e+09 -4.457799e+09 -3.619718e+02 -2.560870e+01 -2.257784e+01
-4.971143e+09 -4.771142e+09 -4.931142e+09 1.817310e+02 -1.334351e+01 -6.749445e+00
-1.946727e+09 -1.746727e+09 -1.906727e+09 -5.327613e+01 -1.977331e+01 2.316379e+01
-4.641446e+09 -4.441445e+09 -4.601445e+09 1.983896e+02 6.613910e+00 2.880091e+01
-4.896967e+09 -4.696966e+09 -4.856966e+09 -2.116958e+01 1.013786e-09 -2.681773e+00
-3.539201e+09 -3.339201e+09 -3.499201e+09 -1.457242e+02 -2.296869e+01 -1.168265e+01
-4.960788e+09 -4.760787e+09 -4.920787e+09 2.361844e+02 -6.348906e+00 -2.620327e+01
-3.502378e+09 -3.302385e+09 -3.462380e+09 3.088225e+02 -3.166073e+02 5.948318e+01
-1.890781e+09 -1.690783e+09 -1.850783e+09 7.925412e+01 1.073199e+01 3.792296e+01
-2.104742e+09 -1.904748e+09 -2.064743e+09 4.648400e+02 -5.609361e+02 8.081015e+01
-2.792520e+09 -2.592520e+09 -2.752520e+09 -9.738102e+00 -4.213405e+00 -2.227615e+00
-1.597410e+09 -1.397408e+09 -1.557409e+09 -1.956551e+02 -3.405329e+01 1.215005e+01
-4.892337e+09 -4.692336e+09 -4.852337e+09 -1.165451e+01 4.794494e+00 -9.978118e-10
-2.848073e+09 -2.648078e+09 -2.808074e+09 2.764706e+02 -1.377705e+02 4.498311e+01
-2.759984e+09 -2.559984e+09 -2.719984e+09 -4.369980e+00 -5.444221e+00 -1.184834e+00
-2.135070e+09 -1.935069e+09 -2.095069e+09 -1.470948e+02 -2.481585e+01 2.738297e+01
-3.033651e+09 -2.833657e+09 -2.993652e+09 8.122133e+01 -2.412128e+02 5.756260e+01
-3.104991e+09 -2.904998e+09 -3.064993e+09 3.216825e+02 -2.058879e+02 8.963063e+01
-1.661060e+09 -1.461067e+09 -1.621062e+09 4.115447e+02 -2.676114e+02 4.838667e+01
-1.908739e+09 -1.708747e+09 -1.868741e+09 2.530344e+02 -3.283246e+02 1.215141e+02
-1.585927e+09 -1.385929e+09 -1.545928e+09 -5.466868e+01 -9.088188e+00 1.154389e+01
-3.787726e+09 -3.587725e+09 -3.747726e+09 8.167500e+00 1.299864e+01 -2.479588e+00
-4.956475e+09 -4.756477e+09 -4.916477e+09 -5.324906e+00 4.027720e-01 3.830522e+00
-4.041858e+09 -3.841857e+09 -4.001857e+09 7.392384e+01 -5.540315e-01 -8.911556e-01
-1.630478e+09 -1.430479e+09 -1.590479e+09 5.422517e+01 1.376356e+01 1.890447e+01
-4.771241e+09 -4.571240e+09 -4.731240e+09 2.654643e+01 -4.010611e+00 8.517780e+00
-4.517277e+09 -4.317276e+09 -4.477276e+09 2.125682e+01 3.459053e+00 -5.211124e+00
-2.945179e+09 -2.745179e+09 -2.905177e+09 6.070405e+02 7.995509e+01 1.752835e+01
-1.749694e+09 -1.549695e+09 -1.709692e+09 5.043537e+02 7.393879e+00 8.619963e+01
-4.280710e+09 -4.080711e+09 -4.240711e+09 -5.429647e+02 -4.836970e+00 -2.114605e+00
-2.222008e+09 -2.022009e+09 -2.182007e+09 9.198616e+02 8.043036e+01 6.828812e+01
-1.574534e+09 -1.374534e+09 -1.534532e+09 6.153316e+02 3.588997e+00 -1.655271e+01
-1.585932e+09 -1.385931e+09 -1.545931e+09 -8.293328e+01 -2.241413e+01 -3.858291e+01
-2.640265e+09 -2.440264e+09 -2.600263e+09 8.902304e+02 8.394808e+01 -6.151697e+01
-2.106478e+09 -1.906478e+09 -2.066477e+09 6.576409e+02 1.071405e+02 5.276834e+01
-2.493191e+09 -2.293192e+09 -2.453192e+09 2.694668e+02 3.884374e+01 1.432044e+01
-2.506988e+09 -2.306988e+09 -2.466986e+09 2.119385e+02 1.324041e+02 5.957427e+01
-2.722589e+09 -2.522590e+09 -2.682588e+09 9.862884e+02 6.385692e+01 -9.149744e+01
-2.116877e+09 -1.916876e+09 -2.076876e+09 1.816504e+01 -5.894734e+01 -8.199946e+01
-4.968424e+09 -4.768423e+09 -4.928423e+09 5.269949e+01 8.118633e+00 -2.506700e+01
-3.309423e+09 -3.109424e+09 -3.269422e+09 7.297092e+02 -2.387970e+02 1.243581e+02
-2.269531e+09 -2.069530e+09 -2.229530e+09 -1.107681e+02 -7.264704e+01 -8.117573e+01
-3.043288e+09 -2.843289e+09 -3.003287e+09 -2.001961e+02 -1.364153e+01 -7.665750e+01
-2.981682e+09 -2.781682e+09 -2.941681e+09 1.119732e+01 -4.270511e+01 -6.114916e+01
-1.849748e+09 -1.649748e+09 -1.809747e+09 1.721350e+02 5.094007e+01 -9.650421e+01
-3.029521e+09 -2.829521e+09 -2.989520e+09 -1.759502e+02 -5.822410e+00 -4.619256e+01
-2.640297e+09 -2.440297e+09 -2.600296e+09 -4.305810e+01 3.298344e+01 -1.014783e+02
-2.778179e+09 -2.578178e+09 -2.738178e+09 -1.222393e+02 -5.086279e+01 -3.990307e+01
-3.969692e+09 -3.769691e+09 -3.929690e+09 -8.345899e+01 -5.735372e+01 -1.067693e+01
-1.929967e+09 -1.729967e+09 -1.889966e+09 -3.119303e+01 2.927073e+01 -8.090775e+01
-2.177639e+09 -1.977639e+09 -2.137638e+09 -4.777931e+00 -3.227672e+00 -5.392842e+01
-3.343632e+09 -3.143631e+09 -3.303631e+09 9.494106e+01 -8.713211e+01 -9.332352e+01
-4.627401e+09 -4.427398e+09 -4.587404e+09 -3.237666e+03 5.522304e+02 2.766174e+02
-4.991445e+09 -4.791444e+09 -4.951445e+09 -2.281995e+03 4.940003e+01 -8.811498e+01
-4.479318e+09 -4.279318e+09 -4.439318e+09 -1.774183e+03 1.267111e+01 7.204336e+01
-4.664738e+09 -4.464739e+09 -4.624739e+09 -1.961220e+03 6.848676e+01 -1.375484e+02
-1.636075e+09 -1.436073e+09 -1.596073e+09 -5.991951e+01 -1.147559e+01 -7.439531e+01
-2.785697e+09 -2.585695e+09 -2.745696e+09 -4.911955e+01 -1.193610e+01 -6.551287e+01
-4.321505e+09 -4.121507e+09 -4.281506e+09 -1.966661e+03 1.476076e+02 -1.883961e+02
-5.005979e+09 -4.805979e+09 -4.965979e+09 -1.912621e+03 7.935175e+01 -1.630131e+02
-4.626931e+09 -4.426939e+09 -4.586936e+09 -9.065576e+01 -3.530725e+02 2.265627e+00
-3.611456e+09 -3.411455e+09 -3.571455e+09 -8.517337e+01 -1.445177e+01 -8.223697e+01
-4.030491e+09 -3.830499e+09 -3.990495e+09 8.686378e+01 -6.784481e+02 9.742608e+01
-4.117894e+09 -3.917899e+09 -4.077897e+09 -1.111182e+03 -7.713444e+02 -1.655942e+02
-3.016538e+09 -2.816537e+09 -2.976536e+09 1.986566e+02 -7.464439e+01 -3.678047e+01
-2.947549e+09 -2.747557e+09 -2.907551e+09 -2.244230e+02 -1.016061e+03 -1.951849e+01
-2.549904e+09 -2.349902e+09 -2.509902e+09 7.986241e+02 2.954557e+02 -6.644973e+01
-4.056220e+09 -3.856218e+09 -4.016219e+09 1.569566e+03 6.184013e+02 -3.700511e+02
-3.145410e+09 -2.945408e+09 -3.105408e+09 1.293020e+03 6.094559e+02 -3.411098e+02
-4.905149e+09 -4.705148e+09 -4.865148e+09 -6.586429e+01 1.253317e-09 -1.065612e+00
-3.337515e+09 -3.137514e+09 -3.297514e+09 -7.232901e+01 -1.603758e+02 7.673291e+00
-4.727644e+09 -4.527644e+09 -4.687643e+09 4.316901e+01 -8.547155e+01 -6.257512e+00
-4.417713e+09 -4.217712e+09 -4.377712e+09 -1.309652e+02 -9.246914e+00 -2.586499e-03
-3.759281e+09 -3.559280e+09 -3.719280e+09 1.650217e+03 4.041769e+02 -1.572713e+02
-4.580053e+09 -4.380054e+09 -4.540053e+09 5.391723e+01 5.600524e+01 -2.617008e+01
-4.516834e+09 -4.316832e+09 -4.476832e+09 6.528361e+00 -5.656304e+00 -2.360970e+01
-2.742348e+09 -2.542345e+09 -2.702346e+09 1.146343e+03 6.964371e+02 -1.824253e+02
-2.768708e+09 -2.568710e+09 -2.728709e+09 2.479099e+02 2.590165e+01 -1.702743e+01
-5.000461e+09 -4.800460e+09 -4.960460e+09 1.787781e+02 -1.176005e+01 -4.009907e+01
-1.657151e+09 -1.457150e+09 -1.617150e+09 -2.163006e+01 -8.518551e+00 -2.302045e+01
-4.421498e+09 -4.221497e+09 -4.381497e+09 -1.465543e+02 -7.692142e+00 -2.239209e+01
-4.892350e+09 -4.692349e+09 -4.852349e+09 -6.096256e+01 1.226409e-08 -1.126575e+01
-1.931243e+09 -1.731242e+09 -1.891242e+09 -3.097767e+01 -5.079231e+00 -6.100367e+01
-4.847836e+09 -4.647836e+09 -4.807836e+09 2.648561e+02 2.578383e+01 2.436162e+01
-3.993905e+09 -3.793903e+09 -3.953903e+09 -8.264655e+01 -1.551002e+01 -2.011349e+01
-5.011351e+09 -4.811350e+09 -4.971351e+09 2.321016e+02 -2.520334e+01 -4.951633e+01
-4.978185e+09 -4.778184e+09 -4.938185e+09 2.993147e+02 -2.653681e+01 -6.520748e+01
-4.124159e+09 -3.924159e+09 -4.084159e+09 4.623251e+02 7.142425e+00 -3.849663e+01
-4.161371e+09 -3.961370e+09 -4.121370e+09 3.120882e+02 -6.241915e+00 -3.316713e+01
-4.128205e+09 -3.928204e+09 -4.088204e+09 3.207984e+02 1.474416e+01 -1.067249e+01
-2.906053e+09 -2.706062e+09 -2.866056e+09 2.176200e+02 -9.975746e+02 7.515367e+01
-3.398308e+09 -3.198316e+09 -3.358311e+09 6.268633e+01 -1.648321e+02 3.763892e+01
-3.409412e+09 -3.209418e+09 -3.369414e+09 6.311329e+02 -1.040953e+03 2.019275e+02
-4.132737e+09 -3.932736e+09 -4.092736e+09 2.658690e+02 1.324455e+01 -3.246859e+01
-4.791105e+09 -4.591113e+09 -4.751109e+09 4.287676e+01 -7.776844e+01 -1.043488e+01
-3.431037e+09 -3.231044e+09 -3.391039e+09 8.201592e+01 -1.313074e+02 5.939301e+01
-4.518066e+09 -4.318070e+09 -4.478067e+09 4.973651e+02 -6.905235e+01 5.042148e+00
-2.099995e+09 -1.900002e+09 -2.059997e+09 1.002283e+03 -1.366014e+03 3.058076e+02
-4.982706e+09 -4.782714e+09 -4.942710e+09 1.380803e+02 -1.267139e+02 5.439009e+01
-4.810365e+09 -4.610364e+09 -4.770364e+09 -5.057290e+02 -1.570127e+01 6.644871e+01
-3.495785e+09 -3.295792e+09 -3.455788e+09 9.836212e+01 -2.154891e+02 6.576132e+00
-4.708849e+09 -4.508857e+09 -4.668852e+09 1.955917e+02 -1.659958e+02 1.246820e+02
-2.103434e+09 -1.903442e+09 -2.063436e+09 4.079389e+02 -7.347984e+02 4.743546e+01
-4.138914e+09 -3.938914e+09 -4.098914e+09 2.520717e+03 5.275868e+02 -1.103867e+02
-4.963016e+09 -4.763016e+09 -4.923016e+09 -2.987231e+02 7.526850e+00 -1.407008e+01
-4.974607e+09 -4.774606e+09 -4.934606e+09 2.115546e+01 2.118145e+01 -1.523604e+01
-3.152401e+09 -2.952400e+09 -3.112400e+09 -2.104702e+02 -5.156533e+01 -4.639978e+01
-3.773488e+09 -3.573487e+09 -3.733487e+09 -1.233531e+02 -7.238273e+01 -3.547837e+01
-4.828964e+09 -4.628963e+09 -4.788964e+09 2.158005e+03 3.914528e+00 1.037736e+02
-3.881698e+09 -3.681697e+09 -3.841696e+09 1.631550e+03 2.366131e+02 -4.521859e+01
-4.312543e+09 -4.112541e+09 -4.272542e+09 -4.170320e+02 -4.771594e+01 -1.667167e+01
-3.686020e+09 -3.486018e+09 -3.646018e+09 -4.650145e+01 -4.192913e+00 -5.860592e+01
-3.669836e+09 -3.469835e+09 -3.629835e+09 -1.236290e+01 -8.817784e+01 -6.053370e+01
-4.198393e+09 -3.998391e+09 -4.158391e+09 1.110054e+03 9.237354e+01 -3.089831e+01
-3.993048e+09 -3.793046e+09 -3.953046e+09 1.165862e+03 2.237211e+02 -1.237794e+02
-1.697054e+09 -1.497053e+09 -1.657053e+09 -2.150644e+02 -4.528647e+01 -1.890575e+01
-4.977096e+09 -4.777093e+09 -4.937095e+09 1.470291e+03 -1.827558e+01 -5.281061e+01
-2.908574e+09 -2.708573e+09 -2.868573e+09 -1.556357e+02 -9.549851e+01 -2.469877e+01
-3.306312e+09 -3.106311e+09 -3.266311e+09 -9.790735e+01 -1.331932e+01 -5.147793e+01
-2.767799e+09 -2.567799e+09 -2.727798e+09 -2.227100e+01 -2.381168e+01 -3.063233e+01
-4.996976e+09 -4.796975e+09 -4.956976e+09 -5.692881e+02 7.914608e+00 -2.603834e+01
-2.653396e+09 -2.453396e+09 -2.613395e+09 1.482869e+01 2.738974e+01 -5.769678e+01
-1.696840e+09 -1.496840e+09 -1.656840e+09 2.553976e+02 2.879947e+01 -2.679568e+01
-4.984346e+09 -4.784347e+09 -4.944347e+09 2.291903e+02 1.842146e+00 -4.946801e+01
-3.039669e+09 -2.839669e+09 -2.999669e+09 1.135015e+02 1.529897e+01 -2.977515e+00
-2.942285e+09 -2.742284e+09 -2.902285e+09 1.225703e+02 1.532767e+01 1.199207e+01
-1.655417e+09 -1.455416e+09 -1.615416e+09 -5.285885e+01 5.629843e-01 -7.521640e+01
-2.472803e+09 -2.272805e+09 -2.432805e+09 1.432621e+01 8.575089e+00 -9.349443e+00
-4.653498e+09 -4.453497e+09 -4.613497e+09 3.179195e+02 1.634052e+01 1.675713e+01
-2.976515e+09 -2.776515e+09 -2.936515e+09 2.370680e+02 3.413506e+01 -1.451762e+01
-3.950255e+09 -3.750254e+09 -3.910255e+09 1.278756e+01 1.285645e+01 1.343832e+01
-4.613240e+09 -4.413240e+09 -4.573240e+09 1.905802e+02 2.356285e+01 -1.581091e+01
-3.930151e+09 -3.730150e+09 -3.890150e+09 4.465479e+01 3.518650e+01 -2.617783e+01
-4.113688e+09 -3.913688e+09 -4.073688e+09 3.325754e+02 3.142133e+01 -1.097862e+01
-2.586628e+09 -2.386626e+09 -2.546626e+09 -4.528701e+01 -6.761880e+00 -8.204670e+01
-2.591296e+09 -2.391296e+09 -2.551295e+09 -9.872487e+01 -1.220374e+01 -5.398813e+01
-3.973131e+09 -3.773130e+09 -3.933130e+09 1.404146e+02 2.345154e+01 -3.384772e+01
-1.903086e+09 -1.703085e+09 -1.863085e+09 -6.865982e+00 -1.673757e+01 -5.611346e+01
-3.973131e+09 -3.773130e+09 -3.933130e+09 9.437040e+01 1.851641e+01 -2.891780e+01
-2.612970e+09 -2.412969e+09 -2.572969e+09 -4.788627e+01 7.442732e+01 -5.849121e+01
-1.636088e+09 -1.436087e+09 -1.596087e+09 2.943814e+01 7.969183e+00 -9.768323e+01
-4.983780e+09 -4.783779e+09 -4.943779e+09 -3.794712e+02 -2.957709e+01 1.319161e+01
-2.961953e+09 -2.761952e+09 -2.921952e+09 3.031283e+01 -1.220119e+01 -4.561638e+01
-2.950467e+09 -2.750466e+09 -2.910466e+09 -1.802508e+02 2.474833e+01 -6.745919e+01
-4.996800e+09 -4.796800e+09 -4.956799e+09 -1.007708e+02 1.503264e+01 2.152894e+01
-4.484448e+09 -4.284450e+09 -4.444448e+09 -1.660086e+03 1.418406e+02 2.233582e+01
-2.780987e+09 -2.580987e+09 -2.740987e+09 4.992307e+01 2.927096e+01 -1.430447e+01
-3.475055e+09 -3.275055e+09 -3.435055e+09 8.272612e+01 1.686240e+01 -4.496036e+01
-4.475969e+09 -4.275969e+09 -4.435969e+09 2.580581e+02 2.306929e+01 -3.154709e+01
-4.343181e+09 -4.143180e+09 -4.303180e+09 1.526541e+02 3.476487e+01 -8.459587e+00
-1.564657e+09 -1.364657e+09 -1.524656e+09 -3.453322e+02 1.827790e+01 -1.271615e+02
-1.957532e+09 -1.757532e+09 -1.917532e+09 1.325248e+02 1.290590e+01 -3.138246e+01
-1.864663e+09 -1.664663e+09 -1.824663e+09 1.022059e+02 4.785377e+01 7.584919e+00
-2.494474e+09 -2.294474e+09 -2.454474e+09 1.406430e+02 4.222740e+01 2.294093e+01
-3.473029e+09 -3.273030e+09 -3.433030e+09 1.333928e+01 2.735193e+01 9.780727e-01
-2.804852e+09 -2.604852e+09 -2.764852e+09 1.815226e+02 3.602730e+01 6.928867e+01
-4.981307e+09 -4.781309e+09 -4.941308e+09 1.619624e+02 -1.113371e+01 -7.133249e+00
-1.612504e+09 -1.412502e+09 -1.572503e+09 -1.535311e+02 -6.009984e+01 -1.187016e+02
-4.658624e+09 -4.458626e+09 -4.618625e+09 -1.957744e+02 3.878427e+00 8.259690e+00
-1.772712e+09 -1.572711e+09 -1.732712e+09 1.479317e+02 3.098577e+01 2.965422e+01
-4.470015e+09 -4.270017e+09 -4.430016e+09 2.098201e+02 1.254806e+00 6.563718e+00
-3.963252e+09 -3.763255e+09 -3.923254e+09 3.808584e+02 3.953444e+01 1.936631e+01
-1.955509e+09 -1.755509e+09 -1.915509e+09 1.756629e+02 1.096189e+01 -7.317080e-01
-2.698892e+09 -2.498892e+09 -2.658892e+09 1.470101e+02 3.617241e+01 7.477355e+00
-3.961980e+09 -3.761981e+09 -3.921981e+09 6.809260e+02 2.660179e+01 5.520570e+01
-4.309004e+09 -4.109003e+09 -4.269003e+09 7.287742e+02 -1.461402e+01 -4.780882e+01
-2.385198e+09 -2.185198e+09 -2.345198e+09 1.463140e+02 3.663189e+01 -1.946633e+01
-4.144215e+09 -3.944213e+09 -4.104214e+09 4.650760e+02 -8.004333e+01 -1.809534e+02
-1.916968e+09 -1.716967e+09 -1.876967e+09 4.226148e+01 2.889479e+01 2.401958e+01
-1.917151e+09 -1.717151e+09 -1.877151e+09 2.090259e+01 2.721558e+01 -8.542811e+00
-3.971934e+09 -3.771936e+09 -3.931935e+09 7.055430e+02 3.746038e+01 -9.780765e+01
-4.639397e+09 -4.439393e+09 -4.599407e+09 -1.041364e+03 -2.204684e+02 8.816015e+02
-3.967032e+09 -3.767032e+09 -3.927032e+09 4.554351e+02 4.543700e+01 6.240113e+01
-4.992490e+09 -4.792487e+09 -4.952501e+09 -4.515213e+02 -1.534623e+03 5.802217e+02
-4.124416e+09 -3.924411e+09 -4.084429e+09 -1.356796e+03 -3.866467e+03 2.131022e+03
-3.405261e+09 -3.205264e+09 -3.365261e+09 -9.582305e+02 7.628279e+01 4.993173e+00
-4.996885e+09 -4.796888e+09 -4.956885e+09 -1.404315e+03 1.979050e+01 1.113008e+02
-4.142771e+09 -3.942775e+09 -4.102772e+09 -1.511332e+03 3.937740e+02 1.706196e+02
-3.953576e+09 -3.753573e+09 -3.913587e+09 -4.622012e+02 -3.657639e+03 1.381242e+03
-4.295078e+09 -4.095080e+09 -4.255079e+09 -2.099422e+03 5.555420e+02 1.770956e+02
-4.802636e+09 -4.602632e+09 -4.762649e+09 -1.225673e+03 -1.679133e+03 5.826938e+02
-4.320475e+09 -4.120481e+09 -4.280478e+09 -1.021570e+03 4.140114e+02 4.243251e+01
-4.809857e+09 -4.609855e+09 -4.769869e+09 -8.267286e+02 -1.450541e+03 -1.130647e+01
-4.144859e+09 -3.944863e+09 -4.104860e+09 -1.404518e+03 3.690944e+02 3.672054e+01
-4.099049e+09 -3.899043e+09 -4.059063e+09 -1.711153e+03 -3.832058e+03 7.032491e+02
-4.831324e+09 -4.631328e+09 -4.791325e+09 -1.332237e+03 -6.760651e+01 4.012171e+01
-5.015144e+09 -4.815138e+09 -4.975097e+09 -3.654700e+02 6.952484e+02 -1.736341e+03
-4.116171e+09 -3.916168e+09 -4.076183e+09 -7.817739e+02 -4.169810e+03 2.755767e+02
-4.648270e+09 -4.448266e+09 -4.608273e+09 -1.996441e+02 -6.424697e+02 -4.351870e+02
-4.485258e+09 -4.285263e+09 -4.445264e+09 -4.571202e+02 -1.292666e+03 2.177471e+01
-4.296100e+09 -4.096106e+09 -4.256105e+09 -1.267564e+03 -1.551645e+03 -2.250100e+02
-5.032719e+09 -4.832709e+09 -4.992726e+09 5.539835e+02 -1.395186e+03 -1.551869e+03
-4.805415e+09 -4.605421e+09 -4.765421e+09 -9.387516e+02 -1.002772e+03 -4.472803e+01
-4.147939e+09 -3.947943e+09 -4.107947e+09 -1.761820e+03 -2.133036e+03 -4.780137e+02
-1.698204e+09 -1.498212e+09 -1.658206e+09 1.906560e+03 -1.871636e+03 5.860544e+02
-3.953507e+09 -3.753502e+09 -3.913510e+09 -5.097328e+02 -1.468022e+03 -1.710234e+03
-4.662988e+09 -4.462992e+09 -4.622995e+09 -1.386916e+03 -8.488469e+02 -4.543251e+01
-2.166926e+09 -1.966936e+09 -2.126929e+09 5.820789e+02 -2.677934e+03 4.528317e+02
-4.983203e+09 -4.783198e+09 -4.943207e+09 8.561675e+02 -7.442702e+02 -6.097551e+02
-4.302426e+09 -4.102427e+09 -4.262434e+09 9.386633e+02 -2.896682e+03 1.301573e+03
-4.785515e+09 -4.585507e+09 -4.745524e+09 -2.134537e+03 -1.025491e+03 -9.378376e+01
-4.462182e+09 -4.262188e+09 -4.422188e+09 -1.153151e+03 -1.184663e+03 4.111193e+01
-4.991667e+09 -4.791655e+09 -4.951667e+09 -2.069064e+03 6.993450e+00 -3.612564e+02
-4.816335e+09 -4.616324e+09 -4.776335e+09 -2.602945e+03 6.267583e+02 -9.038121e+02
-4.129868e+09 -3.929854e+09 -4.089865e+09 -2.916758e+03 -2.714414e+03 -2.336326e+03
-3.963621e+09 -3.763618e+09 -3.923626e+09 3.619185e+03 2.683501e+03 -2.065115e+03
-3.941812e+09 -3.741804e+09 -3.901816e+09 2.241231e+03 2.684126e+03 -2.984830e+03
-4.814973e+09 -4.614967e+09 -4.774963e+09 -5.455968e+03 -2.491925e+03 2.205455e+03
-4.587483e+09 -4.387480e+09 -4.547483e+09 -5.320240e+02 1.447526e+02 -1.738131e+02
-3.963747e+09 -3.763738e+09 -3.923748e+09 -2.220582e+03 -4.129754e+02 -1.555688e+03
-4.109713e+09 -3.909703e+09 -4.069717e+09 1.923865e+01 1.825955e+03 -3.605001e+03
-3.961007e+09 -3.761007e+09 -3.921011e+09 3.738061e+03 1.645207e+03 -9.311006e+02
-4.625646e+09 -4.425636e+09 -4.585649e+09 -1.144120e+03 6.741106e+01 -8.702381e+02
-3.883732e+09 -3.683732e+09 -3.843732e+09 -4.526275e+02 -2.284814e+01 5.874460e+01
-4.991542e+09 -4.791543e+09 -4.951543e+09 -1.084305e+03 -8.241545e+00 -8.410873e+01
-4.103856e+09 -3.903857e+09 -4.063857e+09 -1.344229e+03 -2.540810e+01 1.090483e+02
-4.983052e+09 -4.783045e+09 -4.943045e+09 -4.661964e+03 4.479958e+01 3.769505e+02
-3.948926e+09 -3.748926e+09 -3.908926e+09 -2.008566e+02 -2.107896e-01 2.788764e+00
-4.125636e+09 -3.925639e+09 -4.085638e+09 -5.585496e+02 -1.457817e+01 5.981551e+01
-4.994425e+09 -4.794427e+09 -4.954427e+09 -5.634889e+02 -1.244407e+01 -3.028201e+01
-4.796178e+09 -4.596167e+09 -4.756180e+09 -8.472344e+02 -2.547326e+02 -4.462175e+02
-3.224156e+09 -3.024155e+09 -3.184156e+09 5.931618e+01 8.320047e+00 -2.258913e+01
-3.953898e+09 -3.753900e+09 -3.913900e+09 -9.685697e+02 -8.285703e+00 -1.108053e+01
-2.296743e+09 -2.096742e+09 -2.256742e+09 6.854890e+01 -3.740222e+00 -2.182060e+01
-4.305756e+09 -4.105758e+09 -4.265757e+09 -6.834352e+02 -2.661603e+01 -4.208839e+01
-3.942110e+09 -3.742106e+09 -3.902109e+09 -1.310404e+03 4.875223e+02 7.702215e+02
-3.592832e+09 -3.392831e+09 -3.552831e+09 6.035166e+01 -1.274834e+00 -1.117020e+01
-3.946338e+09 -3.746338e+09 -3.906338e+09 1.038298e+03 6.481773e+01 -6.657405e+01
-4.805705e+09 -4.605705e+09 -4.765707e+09 -2.434799e+03 -4.648165e+00 -1.327801e+01
-4.639880e+09 -4.439879e+09 -4.599883e+09 -2.731744e+03 5.781015e+02 5.037971e+02
-2.609782e+09 -2.409781e+09 -2.569781e+09 3.457402e+01 3.234675e+01 -3.173627e+01
-1.902823e+09 -1.702822e+09 -1.862822e+09 1.850019e+01 7.813267e+00 -2.816297e+01
-4.136862e+09 -3.936862e+09 -4.096862e+09 -1.833163e+03 3.057389e+02 6.103581e+01
-4.486155e+09 -4.286155e+09 -4.446155e+09 -2.079618e+03 4.298735e+02 1.862539e+02
-3.168229e+09 -2.968227e+09 -3.128229e+09 -2.462727e+02 3.437254e+02 -5.133484e+01
-2.164347e+09 -1.964342e+09 -2.124346e+09 6.828478e+02 1.208086e+03 -1.004539e+03
-3.419392e+09 -3.219390e+09 -3.379392e+09 -5.538036e+02 3.077138e+02 -1.651767e+02
-4.806856e+09 -4.606855e+09 -4.766855e+09 2.527624e+01 -5.911544e+01 -7.625241e+01
-4.823145e+09 -4.623146e+09 -4.783144e+09 -8.850290e+02 2.756956e+01 -5.531629e+01
-4.980771e+09 -4.780764e+09 -4.940772e+09 2.398692e+03 -4.440802e+02 -5.787807e+02
-4.075589e+09 -3.875576e+09 -4.035603e+09 7.268392e+02 1.153920e+03 3.126889e+03
-4.805800e+09 -4.605790e+09 -4.765779e+09 4.622654e+03 5.065086e+03 -1.781711e+03
-3.959515e+09 -3.759515e+09 -3.919465e+09 4.723111e+03 5.914809e+03 1.639900e+04
-4.981278e+09 -4.781264e+09 -4.941283e+09 -3.469959e+03 2.679439e+03 3.875287e+02
-4.117755e+09 -3.917745e+09 -4.077723e+09 -5.610093e+03 -1.276999e+04 7.486284e+03
-1.607950e+09 -1.407946e+09 -1.567949e+09 8.896739e+01 6.835690e+02 -5.818507e+02
-4.990757e+09 -4.790766e+09 -4.950757e+09 1.537872e+03 -1.056774e+02 4.774976e+02
-4.297145e+09 -4.097142e+09 -4.257142e+09 -4.515071e+03 -7.778782e+02 3.570124e+02
-4.103644e+09 -3.903646e+09 -4.063614e+09 2.094859e+03 3.490868e+03 7.583693e+03
-4.995897e+09 -4.795892e+09 -4.955884e+09 -4.996496e+03 -4.110313e+02 1.000669e+03
-4.966797e+09 -4.766787e+09 -4.926780e+09 3.658083e+01 1.731153e+02 -4.966675e+02
-4.281488e+09 -4.081473e+09 -4.241452e+09 9.329633e+02 6.721324e+03 1.542324e+03
-4.296411e+09 -4.096402e+09 -4.256408e+09 -4.394645e+03 -2.281804e+03 -9.118465e+02
-3.953505e+09 -3.753499e+09 -3.913509e+09 4.729930e+02 -6.529519e+02 -1.309918e+03
-4.121653e+09 -3.921636e+09 -4.081601e+09 4.235002e+03 1.529006e+04 2.439401e+03
-1.695561e+09 -1.495568e+09 -1.655568e+09 -9.708683e+02 -3.160696e+02 1.357491e+03
-3.959524e+09 -3.759524e+09 -3.919474e+09 -6.426057e+02 -5.418498e+03 1.003243e+04
-4.995061e+09 -4.795050e+09 -4.955028e+09 -2.591003e+03 -3.575284e+02 -2.387433e+03
-4.129561e+09 -3.929559e+09 -4.089561e+09 -2.065229e+03 3.878848e+02 3.544193e+02
-4.989216e+09 -4.789216e+09 -4.949170e+09 1.713430e+03 2.123448e+02 2.606657e+03
-4.364910e+09 -4.164909e+09 -4.324909e+09 -1.001780e+01 1.580512e+00 -1.309808e+01
-4.406902e+09 -4.206901e+09 -4.366902e+09 7.071355e+01 5.764369e+00 -2.264614e+01
-4.136671e+09 -3.936674e+09 -4.096673e+09 7.257491e+02 4.052626e+01 -2.967346e+01
-4.644462e+09 -4.444462e+09 -4.604462e+09 1.595360e+03 -3.825650e+00 -2.532799e+02
-4.279636e+09 -4.079631e+09 -4.239634e+09 -1.567305e+02 8.459789e+01 4.882786e+02
-4.820740e+09 -4.620742e+09 -4.780740e+09 1.510990e+03 3.216979e+01 -1.880430e+02
-4.813722e+09 -4.613720e+09 -4.773723e+09 -1.995090e+03 6.675147e+02 4.443220e+02
-3.942121e+09 -3.742117e+09 -3.902120e+09 6.163382e+02 -8.159604e+01 2.234319e+02
-3.944154e+09 -3.744150e+09 -3.904152e+09 1.260444e+02 1.770488e+01 -1.796570e+01
-3.932943e+09 -3.732941e+09 -3.892942e+09 2.925088e+02 7.416924e+01 -8.690460e+01
-4.099648e+09 -3.899647e+09 -4.059647e+09 3.284702e+01 9.410429e-02 -2.452158e+00
-4.777196e+09 -4.577194e+09 -4.737195e+09 1.733627e+02 -8.426181e+01 -1.073647e+02
-4.060237e+09 -3.860236e+09 -4.020236e+09 1.244508e+01 2.482871e+00 -5.325316e+00
-4.636548e+09 -4.436547e+09 -4.596547e+09 4.217831e+01 4.888573e+00 -1.957886e+00
-3.673511e+09 -3.473513e+09 -3.633512e+09 7.572357e+01 -8.696066e-01 -1.988366e+01
-3.554618e+09 -3.354619e+09 -3.514618e+09 6.721886e+01 2.323284e+01 -5.663038e+01
-3.969611e+09 -3.769609e+09 -3.929611e+09 -1.638991e+03 -8.062392e+01 4.983066e+02
-4.504934e+09 -4.304935e+09 -4.464934e+09 -2.243135e+03 2.356895e+01 -1.931200e+02
-4.146984e+09 -3.946984e+09 -4.106984e+09 -2.500241e+03 3.794266e+02 -1.121950e+02
-4.136690e+09 -3.936689e+09 -4.096690e+09 -8.056588e+02 -5.184882e+01 -8.531844e+01
-4.821438e+09 -4.621438e+09 -4.781439e+09 -1.975595e+03 9.982821e+01 -1.512735e+02
-2.729064e+09 -2.529066e+09 -2.689066e+09 1.057515e+02 1.856608e+01 3.056116e+01
-2.522028e+09 -2.322029e+09 -2.482029e+09 7.701181e+01 4.733882e+00 6.587124e+01
-4.992105e+09 -4.792104e+09 -4.952105e+09 -1.196699e+03 8.582813e+00 1.933515e+00
-3.961340e+09 -3.761339e+09 -3.921340e+09 -1.089344e+03 -1.519768e+02 1.226990e+02
-4.487983e+09 -4.287985e+09 -4.447985e+09 8.391211e+01 1.123528e+01 -1.549299e+01
-4.094264e+09 -3.894266e+09 -4.054265e+09 9.960685e+01 -9.943096e+00 -4.667816e+01
-4.143095e+09 -3.943096e+09 -4.103096e+09 1.362518e+02 -1.709421e+01 2.596833e+01
-2.163823e+09 -1.963822e+09 -2.123822e+09 -4.604922e+01 -6.388298e+00 -8.599395e+01
-4.859838e+09 -4.659839e+09 -4.819839e+09 7.025312e+01 -7.702724e+00 -1.210747e+00
-3.447779e+09 -3.247780e+09 -3.407780e+09 1.820035e+01 2.307504e+01 -2.868925e+01
-3.254818e+09 -3.054819e+09 -3.214819e+09 2.305257e+02 2.553985e+01 -1.334625e+01
-4.635889e+09 -4.435892e+09 -4.595888e+09 1.190097e+03 1.380689e+02 -5.861261e+02
-3.944154e+09 -3.744150e+09 -3.904152e+09 -1.283436e+02 1.238491e+02 1.910745e+02
-3.942109e+09 -3.742105e+09 -3.902108e+09 -7.943899e+02 2.334289e+02 2.980428e+02
-2.681150e+09 -2.481151e+09 -2.641150e+09 2.355377e+02 1.248895e+01 4.820737e+01
-4.134278e+09 -3.934273e+09 -4.094274e+09 1.609684e+03 -7.821918e+02 9.668063e+01
-2.217987e+09 -2.017988e+09 -2.177987e+09 2.530000e+02 4.205409e+00 7.455874e+00
-4.654927e+09 -4.454930e+09 -4.614929e+09 9.174429e+02 -5.482871e+00 -1.151590e+01
-2.581740e+09 -2.381741e+09 -2.541740e+09 2.418112e+02 1.142588e+01 1.259352e+01
-3.015521e+09 -2.815522e+09 -2.975522e+09 2.636944e+02 1.631460e+01 -1.504074e+01
-4.977249e+09 -4.777252e+09 -4.937243e+09 -2.030763e+02 -8.595363e+00 -1.278440e+03
-1.636098e+09 -1.436096e+09 -1.596097e+09 -6.561774e+01 -1.733426e+01 -9.573773e+01
-1.674084e+09 -1.474085e+09 -1.634083e+09 7.670965e+02 -4.815067e+02 9.146777e+01
-4.457687e+09 -4.257690e+09 -4.417686e+09 1.361342e+03 -6.928540e+01 -8.589726e+02
-2.804038e+09 -2.604036e+09 -2.764037e+09 -1.826311e+02 -3.562737e+01 -5.419215e+01
-2.081636e+09 -1.881635e+09 -2.041635e+09 -2.257191e+02 -3.784958e+01 -4.484151e+01
-2.640674e+09 -2.440673e+09 -2.600673e+09 -2.334814e+01 -1.100036e+01 -1.713991e+01
-4.134273e+09 -3.934275e+09 -4.094274e+09 -3.078780e+03 1.078840e+03 -9.528299e+02
-4.134275e+09 -3.934275e+09 -4.094274e+09 -2.545835e+03 6.439889e+02 -2.134222e+02
-2.140969e+09 -1.940969e+09 -2.100968e+09 2.307293e+02 -1.256144e+02 -7.654417e+01
-3.228985e+09 -3.028984e+09 -3.188984e+09 -2.438770e+02 -2.773730e+01 -3.541342e+01
-2.381554e+09 -2.181553e+09 -2.341554e+09 -1.910258e+02 -1.305436e+01 -4.496045e+01
-3.592484e+09 -3.392483e+09 -3.552483e+09 -7.257594e+01 -7.894613e+00 2.204884e-01
-3.803691e+09 -3.603691e+09 -3.763690e+09 5.197799e+02 1.054370e+02 -1.354887e+01
-3.865372e+09 -3.665373e+09 -3.825370e+09 4.979936e+02 -2.391576e+00 1.254949e+01
-3.979222e+09 -3.779228e+09 -3.939224e+09 -5.659964e+02 2.663533e+02 -2.830415e+01
-1.674128e+09 -1.474133e+09 -1.634128e+09 1.043596e+03 1.487257e+02 1.946791e+01
-2.553028e+09 -2.353029e+09 -2.513026e+09 4.056892e+02 4.116387e+01 6.380089e+01
-4.799847e+09 -4.599847e+09 -4.759845e+09 4.830445e+02 -8.063118e+01 2.839733e+01
-3.859961e+09 -3.659962e+09 -3.819959e+09 6.669442e+02 5.362342e+01 -2.011290e+01
-4.325296e+09 -4.125297e+09 -4.285297e+09 2.228019e+03 5.025360e+02 -2.294914e+02
-4.579125e+09 -4.379126e+09 -4.539123e+09 2.997813e+02 8.740386e+00 -1.531174e+01
-3.025402e+09 -2.825404e+09 -2.985401e+09 3.512694e+02 6.468757e+01 1.562919e+01
-3.956109e+09 -3.756113e+09 -3.916109e+09 1.155478e+02 5.260116e+01 4.202354e+01
-4.851785e+09 -4.651789e+09 -4.811787e+09 2.102435e+03 4.505882e+02 -5.769206e+01
-4.753049e+09 -4.553051e+09 -4.713048e+09 1.988291e+02 2.300335e+01 -3.332296e+01
-2.030292e+09 -1.830296e+09 -1.990292e+09 8.542397e+02 1.477272e+02 4.132343e+01
-2.338817e+09 -2.138821e+09 -2.298817e+09 1.143318e+03 2.392941e+02 -1.969815e+01
-2.186209e+09 -1.986213e+09 -2.146209e+09 -4.750376e+01 3.132001e+01 -3.980098e+01
-2.939475e+09 -2.739479e+09 -2.899475e+09 1.153998e+03 1.629624e+02 1.173307e+01
-1.660509e+09 -1.460515e+09 -1.620510e+09 -1.252601e+02 1.817063e+02 -4.133642e+01
-2.958772e+09 -2.758777e+09 -2.918772e+09 6.549437e+02 -4.310171e+00 7.088701e+01
-2.276862e+09 -2.076867e+09 -2.236862e+09 9.686897e+02 2.744754e+02 -3.534830e+00
-4.652107e+09 -4.452109e+09 -4.612108e+09 7.088146e+02 2.267435e+01 7.066209e+01
-2.347340e+09 -2.147345e+09 -2.307340e+09 8.890762e+02 1.536488e+02 -2.912376e+01
-3.862024e+09 -3.662030e+09 -3.822025e+09 3.879930e+02 1.495228e+02 -8.192559e+01
-4.485464e+09 -4.285466e+09 -4.445466e+09 5.615792e+02 -1.075631e+00 -4.598025e+01
-4.153133e+09 -3.953139e+09 -4.113135e+09 -9.789815e+02 5.289966e+02 8.210057e+01
-5.004139e+09 -4.804145e+09 -4.964141e+09 -3.579382e+02 1.200939e+01 5.037126e+01
-4.992951e+09 -4.792953e+09 -4.952952e+09 3.858268e+02 -2.560383e+01 -6.354757e+01
-4.164431e+09 -3.964438e+09 -4.124433e+09 7.067788e+02 4.592624e+02 -3.873102e+01
-3.007291e+09 -2.807298e+09 -2.967293e+09 -3.188223e+02 1.871125e+02 -4.030008e+01
-3.332688e+09 -3.132689e+09 -3.292687e+09 -4.468005e+02 7.546531e+00 -1.113580e+02
-3.164267e+09 -2.964273e+09 -3.124268e+09 5.179686e+02 1.166125e+02 -5.796545e+01
-4.988092e+09 -4.788098e+09 -4.948093e+09 -1.735670e+02 6.180458e+01 -3.879633e+01
-4.060330e+09 -3.860336e+09 -4.020331e+09 3.852475e+00 1.784248e+01 -1.218592e+01
-4.825711e+09 -4.625713e+09 -4.785712e+09 7.129426e+02 2.493000e+01 6.634436e+01
-4.670789e+09 -4.470791e+09 -4.630790e+09 8.482441e+02 1.481503e+01 5.142312e+00
-1.984610e+09 -1.784611e+09 -1.944611e+09 2.523553e+02 7.859277e+00 -6.274970e+00
-4.142708e+09 -3.942710e+09 -4.102709e+09 1.058889e+03 3.774017e+01 3.776780e+00
-3.970021e+09 -3.770023e+09 -3.930022e+09 6.679849e+02 1.145946e+01 -1.237670e+01
-4.139246e+09 -3.939247e+09 -4.099247e+09 7.070406e+02 -2.718182e+00 -1.209492e+02
-3.138054e+09 -2.938054e+09 -3.098053e+09 5.325475e+02 1.778155e+02 -3.389403e+01
-2.040794e+09 -1.840796e+09 -2.000793e+09 4.908706e+02 2.510488e+01 5.467176e+01
-4.601036e+09 -4.401037e+09 -4.561037e+09 3.871892e+01 3.375680e+00 -1.513032e+01
-2.915297e+09 -2.715299e+09 -2.875299e+09 -5.720390e+01 3.428564e-01 3.943750e+01
-2.847091e+09 -2.647091e+09 -2.807089e+09 1.106666e+03 2.751471e+02 -4.914158e+01
-2.756318e+09 -2.556317e+09 -2.716316e+09 2.892063e+02 6.443172e+01 5.501148e+01
-1.900303e+09 -1.700303e+09 -1.860302e+09 2.231493e+02 1.174693e+02 4.507032e+01
-4.127777e+09 -3.927772e+09 -4.087780e+09 -8.077974e+02 -1.557278e+03 -1.903703e+03
-3.991974e+09 -3.791971e+09 -3.951973e+09 1.699602e+03 -1.021372e+02 -1.997044e+02
-4.802169e+09 -4.602166e+09 -4.762171e+09 -1.124547e+03 -6.378859e+02 -7.234556e+02
-4.458936e+09 -4.258933e+09 -4.418938e+09 -1.224953e+03 -9.021715e+02 -6.468753e+02
-1.619755e+09 -1.419756e+09 -1.579756e+09 1.739658e+02 2.450833e+01 -6.126390e+00
-4.292965e+09 -4.092962e+09 -4.252967e+09 -9.381251e+02 -1.071441e+03 -7.266511e+02
-3.985198e+09 -3.785197e+09 -3.945201e+09 -1.627520e+03 -1.552164e+03 -7.248588e+02
-2.622440e+09 -2.422441e+09 -2.582440e+09 2.629167e+02 2.406529e+01 -1.658074e+01
-4.693423e+09 -4.493421e+09 -4.653426e+09 -1.354890e+03 -8.654314e+02 -5.566965e+02
-3.467725e+09 -3.267724e+09 -3.427725e+09 -1.492817e+02 -3.211463e+01 1.632084e+00
-4.981476e+09 -4.781476e+09 -4.941476e+09 -3.119243e+02 1.144441e+01 7.982525e+00
-4.528659e+09 -4.328659e+09 -4.488659e+09 -1.684602e+02 -2.276495e+01 -8.489554e+00
-3.781377e+09 -3.581376e+09 -3.741376e+09 -4.043768e+01 -3.803812e+00 -1.627163e+01
-2.102907e+09 -1.902906e+09 -2.062906e+09 -9.016568e+01 -1.105176e+01 4.560141e+00
-3.370142e+09 -3.170143e+09 -3.330143e+09 -2.094760e+01 -2.491147e+01 -1.245638e+00
-1.676613e+09 -1.476615e+09 -1.636614e+09 -2.446578e+02 -2.372130e+01 4.999198e+01
-2.527934e+09 -2.327933e+09 -2.487933e+09 -4.828614e+01 -1.901730e+01 3.466952e+01
-4.995213e+09 -4.795215e+09 -4.955214e+09 -5.053405e+02 6.654595e+00 -1.976284e+01
-2.926682e+09 -2.726684e+09 -2.886683e+09 -2.021689e+02 -2.775176e+01 4.901759e+01
-3.412135e+09 -3.212134e+09 -3.372134e+09 -5.476695e+01 -5.399954e+00 -2.831186e+00
-2.538026e+09 -2.338025e+09 -2.498025e+09 -1.257699e+02 -2.271505e+01 -2.877360e+01
-1.991751e+09 -1.791751e+09 -1.951751e+09 -3.108015e+02 -5.576659e+01 1.414382e+01
-2.894179e+09 -2.694180e+09 -2.854180e+09 -2.348876e+02 -4.982675e+01 1.935365e+01
-2.549552e+09 -2.349553e+09 -2.509553e+09 -2.413949e+01 -5.820884e+01 4.857338e+00
-2.328228e+09 -2.128229e+09 -2.288229e+09 -4.229122e+02 -3.375178e+01 -4.545684e+01
-1.616457e+09 -1.416457e+09 -1.576457e+09 -1.534373e+02 -5.267635e+01 4.553613e+00
-4.132828e+09 -3.932828e+09 -4.092828e+09 -5.577657e+02 6.433535e+00 -3.528943e+01
-2.880411e+09 -2.680411e+09 -2.840411e+09 -4.491060e+02 -6.240171e+01 1.896562e+01
-4.320762e+09 -4.120764e+09 -4.280764e+09 -4.666538e+02 -2.171508e+01 -2.338919e+01
-3.428803e+09 -3.228803e+09 -3.388803e+09 -4.529582e+02 -2.103405e+01 1.533569e+01
-2.673496e+09 -2.473494e+09 -2.633495e+09 -3.172151e+01 -5.328108e+00 -2.178832e+01
-4.375469e+09 -4.175468e+09 -4.335468e+09 -3.290546e+01 -5.717382e+00 -3.173359e+00
-3.417831e+09 -3.217831e+09 -3.377831e+09 -3.412899e+02 -1.672221e+01 -6.132520e+00
-2.520272e+09 -2.320270e+09 -2.480271e+09 -9.961351e+01 -2.976886e+01 -1.190711e+01
-2.792467e+09 -2.592466e+09 -2.752466e+09 -3.059558e+01 -6.394130e+00 -1.690334e+01
-1.904561e+09 -1.704560e+09 -1.864560e+09 -6.073461e+01 -2.451178e+01 -2.026338e+01
-2.161756e+09 -1.961755e+09 -2.121756e+09 -4.545066e+01 -7.601731e+00 -1.269697e+01
-2.139042e+09 -1.939040e+09 -2.099041e+09 -1.043353e+02 -8.312903e+00 -3.113225e+01
-4.907933e+09 -4.707932e+09 -4.867932e+09 -4.325813e+01 3.074136e-09 -3.979636e+00
-4.130080e+09 -3.930079e+09 -4.090079e+09 -7.486652e+01 -5.985992e+00 -3.082726e+01
-3.424447e+09 -3.224455e+09 -3.384450e+09 8.680273e-01 -1.709306e+02 6.002131e+00
-4.829522e+09 -4.629527e+09 -4.789530e+09 8.437574e+01 -9.435298e+02 3.745564e+01
-4.709741e+09 -4.509741e+09 -4.669740e+09 -5.243292e+01 -3.861618e+01 -1.369366e+01
-4.055630e+09 -3.855630e+09 -4.015629e+09 -1.351766e+02 -3.312949e+01 -1.657720e+01
-4.737240e+09 -4.537238e+09 -4.697238e+09 -2.286218e+02 -1.301461e+02 -4.132512e+01
-3.988937e+09 -3.788936e+09 -3.948936e+09 -9.296550e+01 -2.480558e+01 -1.402659e+01
-4.786703e+09 -4.586702e+09 -4.746702e+09 -5.107390e+01 3.514812e+01 -1.853685e+00
-4.506635e+09 -4.306634e+09 -4.466634e+09 -7.870587e+01 -8.256509e-02 -3.351791e+01
-4.961880e+09 -4.761879e+09 -4.921879e+09 -6.298601e+02 -1.918502e+02 -1.885109e+01
-4.983598e+09 -4.783598e+09 -4.943597e+09 -1.023877e+02 2.609305e+00 1.115474e+01
-3.771410e+09 -3.571411e+09 -3.731409e+09 6.505272e+01 7.524165e+00 -2.175159e+01
-4.167570e+09 -3.967567e+09 -4.127570e+09 -4.177594e+02 -4.970334e+02 -2.631430e+02
-4.688748e+09 -4.488745e+09 -4.648747e+09 -3.469183e+02 -1.429008e+02 4.176104e+01
-2.191420e+09 -1.991417e+09 -2.151419e+09 4.701938e+01 -6.968822e+02 -1.553489e+02
-4.822023e+09 -4.622022e+09 -4.782026e+09 -1.744530e+03 -7.591253e+02 -2.087888e+02
-4.676361e+09 -4.476362e+09 -4.636359e+09 9.758067e+01 8.930805e+00 -2.405416e+01
-3.553266e+09 -3.353267e+09 -3.513264e+09 6.069796e+01 1.298318e+01 2.705685e+01
-4.045994e+09 -3.845996e+09 -4.005993e+09 2.022411e+02 1.355366e+01 -2.879894e+01
-2.496893e+09 -2.296894e+09 -2.456891e+09 3.203804e+02 1.266257e+01 -2.553218e+01
-3.945759e+09 -3.745765e+09 -3.905764e+09 2.161383e+02 2.233287e+01 6.913854e+01
-3.886820e+09 -3.686821e+09 -3.846819e+09 3.865194e+01 9.766751e+00 -1.829002e+01
-3.764479e+09 -3.564479e+09 -3.724478e+09 2.601141e+02 -1.661270e+02 2.507114e+01
-4.943255e+09 -4.743256e+09 -4.903253e+09 1.593295e+02 -6.471012e+00 7.925102e+00
-2.379083e+09 -2.179084e+09 -2.339081e+09 4.486485e+02 7.373075e+01 -7.363516e+01
-4.917801e+09 -4.717803e+09 -4.877800e+09 1.873720e+02 -1.289052e+01 1.956394e+00
-2.225944e+09 -2.025943e+09 -2.185945e+09 -3.166658e+02 3.320910e+02 2.127260e+02
-3.434915e+09 -3.234917e+09 -3.394914e+09 2.136254e+02 3.132166e+01 1.811795e+01
-4.938273e+09 -4.738274e+09 -4.898272e+09 6.920062e+01 -2.198499e+01 -1.627206e+01
-4.938273e+09 -4.738274e+09 -4.898272e+09 1.478112e+02 -4.055690e+01 -3.137254e+01
-4.550811e+09 -4.350812e+09 -4.510810e+09 2.622764e+02 6.494533e+01 8.256706e+00
-3.369379e+09 -3.169384e+09 -3.329383e+09 -5.208789e+01 3.745195e+01 1.605410e+02
-4.994770e+09 -4.794772e+09 -4.954770e+09 -1.606049e+03 -2.474236e+01 6.935714e+01
-4.322348e+09 -4.122353e+09 -4.282349e+09 -1.437575e+03 2.526146e+02 8.250864e+01
-4.707062e+09 -4.507061e+09 -4.667061e+09 1.438249e+01 6.807154e+00 -6.656858e+00
-1.912140e+09 -1.712139e+09 -1.872139e+09 8.239197e+00 -5.971270e+00 -4.474514e+01
-4.966458e+09 -4.766456e+09 -4.926456e+09 -5.502415e+00 2.387921e+00 -1.629785e+01
-3.717636e+09 -3.517635e+09 -3.677635e+09 5.688052e+01 1.694498e+01 -3.691969e+01
-3.070377e+09 -2.870376e+09 -3.030376e+09 7.737550e+01 1.364180e+01 -3.039179e+01
-4.813838e+09 -4.613841e+09 -4.773838e+09 -1.054177e+03 -1.092213e+02 -7.070655e+01
-4.310420e+09 -4.110423e+09 -4.270420e+09 -1.221893e+03 1.478876e+02 -8.653340e+00
-4.892338e+09 -4.692337e+09 -4.852337e+09 3.632405e+01 -1.544652e-09 -2.381356e+00
-4.311958e+09 -4.111961e+09 -4.271958e+09 -8.865623e+02 7.492670e+01 -2.475712e+01
-2.228661e+09 -2.028660e+09 -2.188661e+09 6.833125e+01 1.470816e+01 -2.149100e+01
-1.623447e+09 -1.423446e+09 -1.583446e+09 4.645857e+01 6.473114e+00 -4.239020e+00
-4.907948e+09 -4.707947e+09 -4.867947e+09 2.613000e+01 1.243456e-04 1.400124e+00
-3.975629e+09 -3.775632e+09 -3.935629e+09 -1.030174e+03 1.009362e+02 -7.014132e+01
-4.146736e+09 -3.946738e+09 -4.106736e+09 -1.099576e+03 1.793796e+02 7.018008e+01
-4.838238e+09 -4.638241e+09 -4.798238e+09 -1.144907e+03 2.380651e+02 8.106379e+01
-4.141215e+09 -3.941217e+09 -4.101215e+09 -1.536800e+03 3.433615e+02 1.451431e+02
-4.484657e+09 -4.284661e+09 -4.444658e+09 -1.251404e+03 1.392102e+02 -1.447295e+00
-4.980624e+09 -4.780623e+09 -4.940623e+09 -2.681733e+01 -5.506195e+00 -9.712536e+00
-4.647075e+09 -4.447075e+09 -4.607075e+09 -2.830584e+01 -1.552427e+01 9.212918e+00
-4.459057e+09 -4.259056e+09 -4.419056e+09 -5.173109e+01 -1.588865e+01 -6.475290e+00
-3.209081e+09 -3.009080e+09 -3.169081e+09 -1.910362e+02 -9.992972e+00 -1.285876e+01
-4.289744e+09 -4.089743e+09 -4.249743e+09 -3.676078e+01 6.479468e+00 1.081413e+00
-2.673337e+09 -2.473337e+09 -2.633337e+09 -1.485486e+02 -9.522910e+00 -1.155151e+01
-2.164111e+09 -1.964111e+09 -2.124111e+09 -2.245302e+01 9.385808e-01 -4.041585e+00
-2.769704e+09 -2.569704e+09 -2.729704e+09 -5.798950e+01 -3.255274e+01 4.494681e+01
-4.148863e+09 -3.948865e+09 -4.108860e+09 5.267755e+03 1.854034e+03 3.376242e+03
-3.356856e+09 -3.156853e+09 -3.316856e+09 -4.951580e+02 -7.980266e+02 -4.284673e+02
-4.837602e+09 -4.637598e+09 -4.797604e+09 6.343202e+02 -2.217753e+02 -5.696482e+01
-3.973874e+09 -3.773870e+09 -3.933877e+09 2.087923e+03 -7.912066e+01 -1.094790e+03
-4.311160e+09 -4.111157e+09 -4.271162e+09 2.329075e+03 -1.574134e+02 -4.128716e+02
-4.814795e+09 -4.614793e+09 -4.774797e+09 2.386250e+03 -3.426948e+01 -2.595627e+01
-4.672443e+09 -4.472441e+09 -4.632441e+09 -9.424792e+01 4.911152e+01 2.598611e+00
-4.967375e+09 -4.767373e+09 -4.927374e+09 -7.693403e+02 -8.560376e+01 -6.111958e+01
-4.785014e+09 -4.585015e+09 -4.745012e+09 5.235538e+02 9.312220e+01 1.325916e+00
-3.833990e+09 -3.633990e+09 -3.793988e+09 3.406599e+02 1.705137e+01 3.363019e+01
-4.149426e+09 -3.949429e+09 -4.109426e+09 4.456339e+03 1.398643e+03 2.506682e+02
-5.001420e+09 -4.801422e+09 -4.961421e+09 3.216361e+03 -6.450609e+01 2.441584e+02
-4.128329e+09 -3.928328e+09 -4.088331e+09 2.544905e+03 4.931038e+01 -5.379348e+02
-3.172155e+09 -2.972154e+09 -3.132154e+09 3.252000e+01 1.370182e+00 -2.751494e+01
-4.661759e+09 -4.461761e+09 -4.621758e+09 1.388314e+02 -4.499567e+01 3.233328e+01
-3.116174e+09 -2.916175e+09 -3.076173e+09 9.946041e+02 1.360433e+02 3.118596e+01
-2.950784e+09 -2.750785e+09 -2.910782e+09 1.578293e+02 3.735977e+01 4.551673e+00
-4.776514e+09 -4.576515e+09 -4.736513e+09 3.478413e+02 -3.124909e+01 4.766556e+01
-3.626612e+09 -3.426614e+09 -3.586611e+09 2.165762e+02 -2.933959e+01 8.482764e+00
-3.251908e+09 -3.051907e+09 -3.211907e+09 7.667434e+00 3.886402e-01 -5.530445e+00
-3.055126e+09 -2.855125e+09 -3.015125e+09 1.995206e+01 1.908509e+01 -2.027962e+01
-3.591250e+09 -3.391253e+09 -3.551249e+09 5.218886e+02 -2.442093e+01 5.469162e+01
-2.899606e+09 -2.699604e+09 -2.859605e+09 -3.109321e+00 7.591260e-02 -2.433483e+01
-4.145084e+09 -3.945084e+09 -4.105084e+09 -1.255286e+03 5.757058e+01 2.410242e+01
-1.899965e+09 -1.699963e+09 -1.859964e+09 1.556013e+01 5.222862e-01 -2.240092e+01
-2.697937e+09 -2.497936e+09 -2.657936e+09 1.366061e+01 5.749277e+00 -1.917581e+01
-2.870218e+09 -2.670217e+09 -2.830217e+09 5.903809e+01 9.569969e+00 -3.088757e+01
-4.820742e+09 -4.620742e+09 -4.780742e+09 3.445288e+02 -4.704095e+00 1.263842e-01
-2.834157e+09 -2.634156e+09 -2.794156e+09 3.774467e+00 -1.304406e+01 -2.124344e+01
-1.928992e+09 -1.728991e+09 -1.888991e+09 1.326965e+01 7.030589e-01 -3.229833e+01
-4.024201e+09 -3.824200e+09 -3.984200e+09 6.711629e+01 -3.855590e+00 -3.111768e+01
-2.710993e+09 -2.510992e+09 -2.670992e+09 -6.636784e+00 -1.992595e+01 -1.895813e+01
-2.149564e+09 -1.949563e+09 -2.109563e+09 5.353260e+01 1.179870e+01 -1.148590e+01
-4.890119e+09 -4.690118e+09 -4.850117e+09 4.013759e+01 -4.973512e-05 4.002267e+00
-3.911852e+09 -3.711854e+09 -3.871855e+09 1.232544e+03 -6.664341e+01 -1.404041e+02
-2.648424e+09 -2.448426e+09 -2.608426e+09 3.813623e+02 -1.739047e+02 2.828065e+02
-3.798059e+09 -3.598059e+09 -3.758061e+09 6.176826e+02 -2.050815e+02 -1.700945e+02
-1.819114e+09 -1.619116e+09 -1.779113e+09 3.273065e+02 5.355847e+01 7.412428e+01
-4.423639e+09 -4.223641e+09 -4.383638e+09 -2.671329e+01 1.810140e+00 -5.604743e+01
-2.548210e+09 -2.348214e+09 -2.508210e+09 3.782718e+02 7.342576e+01 1.191821e+01
-2.883161e+09 -2.683166e+09 -2.843161e+09 3.513007e+02 1.457027e+02 -1.009933e+01
-4.639916e+09 -4.439915e+09 -4.599915e+09 -4.963359e-01 -5.621960e+00 -1.371102e+00
-1.892039e+09 -1.692041e+09 -1.852038e+09 9.231655e+02 1.867949e+02 -3.625381e+01
-3.063991e+09 -2.863995e+09 -3.023991e+09 7.166647e+02 8.271051e+01 3.592446e+01
-1.902208e+09 -1.702211e+09 -1.862207e+09 8.627935e+02 -1.286167e+01 9.658300e+01
-2.514697e+09 -2.314703e+09 -2.474703e+09 1.020340e+03 6.919058e+01 3.933048e+02
-4.953010e+09 -4.753012e+09 -4.913013e+09 1.851926e+03 -3.147257e+02 -4.956411e+02
-4.910275e+09 -4.710284e+09 -4.870281e+09 7.111315e+01 2.203816e+00 6.647742e+01
-2.460697e+09 -2.260702e+09 -2.420702e+09 4.937248e+02 -9.516408e+01 -1.108828e+02
-2.152988e+09 -1.952994e+09 -2.112994e+09 2.621282e+03 4.419359e+02 1.118078e+03
-2.582535e+09 -2.382541e+09 -2.542541e+09 1.783868e+03 6.668251e+01 8.897155e+02
-2.557015e+09 -2.357023e+09 -2.517022e+09 3.019127e+03 1.074490e+03 2.467198e+03
-4.976020e+09 -4.776028e+09 -4.936025e+09 -6.740021e+02 -7.849610e+01 2.003729e+02
-3.881044e+09 -3.681046e+09 -3.841047e+09 -9.846658e+02 1.735428e+02 -1.288756e+02
-3.678765e+09 -3.478773e+09 -3.638771e+09 2.169756e+02 6.072834e+01 -1.660250e+01
-1.778106e+09 -1.578113e+09 -1.738113e+09 7.108957e+01 -9.160600e+01 4.759517e+02
-1.552185e+09 -1.352192e+09 -1.512193e+09 1.609443e+03 2.265668e-02 9.665553e+02
-4.488092e+09 -4.288095e+09 -4.448092e+09 -1.196003e+03 1.376124e+02 3.779690e+01
-4.341312e+09 -4.141318e+09 -4.301314e+09 -9.367161e+02 2.528861e+02 5.127103e+01
-4.465884e+09 -4.265889e+09 -4.425885e+09 -1.017203e+03 8.280303e+01 -1.143560e+01
-4.156712e+09 -3.956718e+09 -4.116714e+09 -1.075557e+03 2.365190e+02 -1.000446e+01
-5.008920e+09 -4.808926e+09 -4.968922e+09 -9.140624e+02 -3.406669e+01 2.358824e+01
-4.809117e+09 -4.609122e+09 -4.769118e+09 -8.594063e+02 1.951016e+02 3.278988e+01
-4.624991e+09 -4.424987e+09 -4.584993e+09 8.564355e+02 -4.090983e+02 -5.181625e+02
-3.403075e+09 -3.203072e+09 -3.363075e+09 -2.027824e+02 -5.422693e+02 -1.144315e+02
-2.868423e+09 -2.668424e+09 -2.828425e+09 -7.824796e+01 -1.939460e+02 -5.393545e+01
-2.951706e+09 -2.751709e+09 -2.911705e+09 1.423745e+02 -2.499547e+01 1.719482e+01
-4.792120e+09 -4.592121e+09 -4.752121e+09 9.999527e+01 2.040160e+01 -8.215299e+00
-2.659261e+09 -2.459264e+09 -2.619261e+09 1.459695e+02 8.530043e+01 6.120533e+00
-3.014509e+09 -2.814512e+09 -2.974508e+09 3.236350e+02 2.413258e+01 1.051501e+01
-4.394751e+09 -4.194752e+09 -4.354749e+09 7.948350e+01 4.147303e+00 4.196345e+01
-4.361026e+09 -4.161034e+09 -4.321032e+09 2.856283e+02 1.105802e+02 1.016219e+02
-3.417200e+09 -3.217208e+09 -3.377206e+09 5.705802e+02 7.875508e+01 6.602441e+02
-3.116526e+09 -2.916532e+09 -3.076531e+09 1.744471e+03 6.516889e+02 5.835646e+02
-1.746515e+09 -1.546517e+09 -1.706514e+09 4.035912e+02 -6.514755e+01 2.969724e+01
-4.544272e+09 -4.344274e+09 -4.504270e+09 4.996990e+02 3.305165e+00 -1.427832e+00
-4.951365e+09 -4.751362e+09 -4.911366e+09 2.248767e+02 -2.252428e+01 1.347049e+02
-3.414687e+09 -3.214689e+09 -3.374686e+09 1.632092e+02 -5.834264e-01 1.751591e+01
-4.785224e+09 -4.585222e+09 -4.745225e+09 1.280153e+03 -3.859886e+01 1.567123e+02
-3.647175e+09 -3.447177e+09 -3.607174e+09 4.377164e+02 6.655759e+01 -4.292846e+01
-4.974962e+09 -4.774964e+09 -4.934966e+09 2.077580e+03 -5.122413e+02 -4.778827e+02
-1.597382e+09 -1.397386e+09 -1.557382e+09 1.296666e+03 -1.017843e+03 1.605531e+02
-4.609693e+09 -4.409695e+09 -4.569694e+09 1.139245e+02 1.026859e+01 -2.519515e+01
-4.315044e+09 -4.115038e+09 -4.274980e+09 2.467944e+02 2.746631e+03 1.485435e+03
-3.396753e+09 -3.196755e+09 -3.356755e+09 -1.127234e+02 -1.032058e+01 1.490863e+01
-4.807113e+09 -4.607107e+09 -4.767060e+09 6.849350e+02 1.107369e+03 4.075634e+02
-4.120650e+09 -3.920639e+09 -4.080576e+09 -1.264955e+03 3.796329e+03 2.130404e+03
-3.817319e+09 -3.617318e+09 -3.777318e+09 3.504479e+01 -8.415146e+00 -1.716533e+01
-3.960423e+09 -3.760422e+09 -3.920422e+09 1.598691e+01 -6.136330e+01 -4.694722e+01
-4.867710e+09 -4.667701e+09 -4.827684e+09 -2.658480e+03 1.112052e+03 5.695579e+01
-3.803045e+09 -3.603044e+09 -3.763044e+09 9.107325e+01 -5.434748e+01 7.759835e+00
-4.709597e+09 -4.509596e+09 -4.669596e+09 7.926720e+00 4.463716e+01 -2.793208e+01
-4.706645e+09 -4.506651e+09 -4.666647e+09 1.841036e+02 3.113302e+01 -7.818897e+01
-2.631660e+09 -2.431666e+09 -2.591661e+09 4.634556e+02 -5.213436e+02 1.203998e+02
-2.767389e+09 -2.567396e+09 -2.727392e+09 6.169147e+02 -8.933588e+02 1.472280e+02
-3.630620e+09 -3.430619e+09 -3.590618e+09 8.663920e+01 -3.789433e+01 -5.499962e+01
-4.179459e+09 -3.979458e+09 -4.139458e+09 1.023187e+02 -9.129769e+00 -8.292277e+00
-1.584033e+09 -1.384032e+09 -1.544032e+09 -5.975385e+01 5.010554e+01 -1.482386e+02
-4.708849e+09 -4.508857e+09 -4.668852e+09 2.129145e+01 -4.898650e+01 -7.910678e+01
-4.691470e+09 -4.491472e+09 -4.651473e+09 5.033388e+02 -1.009073e+02 -2.822471e+02
-3.934178e+09 -3.734185e+09 -3.894182e+09 7.475069e+02 -1.047771e+03 2.098553e+02
-3.930658e+09 -3.730662e+09 -3.890660e+09 1.307028e+03 -7.223667e+02 2.868836e+02
-4.438662e+09 -4.238667e+09 -4.398663e+09 7.494789e+01 -5.832956e+01 2.868861e+01
-3.980876e+09 -3.780876e+09 -3.940878e+09 1.690323e+03 -1.392185e+02 -1.247621e+02
-4.981036e+09 -4.781036e+09 -4.941036e+09 5.966156e+02 -1.369551e+02 6.818041e+01
-4.059836e+09 -3.859835e+09 -4.019838e+09 7.432169e+02 -1.500468e+02 -2.610761e+01
-4.980502e+09 -4.780508e+09 -4.940505e+09 4.341027e+02 -1.315090e+02 2.748910e+01
-3.479968e+09 -3.279975e+09 -3.439972e+09 7.592159e+02 -2.023475e+03 3.825694e+02
-3.992421e+09 -3.792427e+09 -3.952423e+09 6.225561e+02 -6.039307e+02 9.835367e+01
-2.083980e+09 -1.883980e+09 -2.043980e+09 -1.212259e+02 -2.275568e+01 1.241577e+01
-1.616457e+09 -1.416457e+09 -1.576457e+09 -2.736042e+02 -4.701516e+01 2.624876e+01
-4.363370e+09 -4.163371e+09 -4.323372e+09 1.228957e+03 2.000133e+01 1.382622e+02
-4.132075e+09 -3.932074e+09 -4.092074e+09 3.293804e+01 2.608877e-01 -6.525406e+01
-3.884919e+09 -3.684918e+09 -3.844918e+09 -7.336105e+00 7.463409e+00 -2.492868e+00
-4.347772e+09 -4.147771e+09 -4.307772e+09 -7.962172e+01 -1.916967e+01 3.704481e+01
-4.477384e+09 -4.277383e+09 -4.437383e+09 1.886528e+02 1.000108e+01 -7.989140e+00
-4.818540e+09 -4.618539e+09 -4.778539e+09 1.253193e+01 2.842663e+01 2.235745e+01
-2.224180e+09 -2.024180e+09 -2.184180e+09 -8.433589e+01 -1.125946e+01 -2.744120e+00
-4.134284e+09 -3.934283e+09 -4.094283e+09 5.817892e+01 3.621262e+01 -2.003646e+00
-4.106579e+09 -3.906580e+09 -4.066580e+09 -4.687599e+02 -4.193813e+01 2.825660e+01
-2.098355e+09 -1.898358e+09 -2.058354e+09 1.964603e+02 -3.336872e+01 -3.405323e+01
-3.973657e+09 -3.773656e+09 -3.933656e+09 -3.684987e+02 -6.331820e+01 -4.089124e+01
-4.047086e+09 -3.847090e+09 -4.007086e+09 1.018121e+03 1.662251e+02 -2.593125e+01
-2.476612e+09 -2.276615e+09 -2.436612e+09 2.001679e+02 2.658090e+01 5.941700e+01
-5.015537e+09 -4.815536e+09 -4.975536e+09 1.012719e+02 5.417213e+00 -4.884450e+01
-4.580628e+09 -4.380627e+09 -4.540627e+09 6.490392e+01 2.386966e+01 -3.796013e+01
-4.960788e+09 -4.760787e+09 -4.920788e+09 1.237976e+02 -9.283298e+00 -2.191157e+00
-4.496506e+09 -4.296510e+09 -4.456506e+09 3.897025e+02 2.209899e+01 1.765087e+01
-4.789884e+09 -4.589884e+09 -4.749884e+09 1.631106e+02 4.496594e-01 -6.711794e+00
-3.985839e+09 -3.785838e+09 -3.945838e+09 2.192296e+02 3.936503e+01 4.049855e+01
-3.374176e+09 -3.174181e+09 -3.334176e+09 2.709289e+02 -9.636375e+01 2.204850e+01
-2.221366e+09 -2.021366e+09 -2.181365e+09 1.291168e+02 -3.108324e+01 -1.100446e+02
-3.858889e+09 -3.658888e+09 -3.818888e+09 1.922935e+02 2.548151e+01 1.046239e+01
-3.006902e+09 -2.806906e+09 -2.966901e+09 2.835974e+02 -1.452367e+01 4.514167e+01
-4.981064e+09 -4.781063e+09 -4.941063e+09 -5.200537e+01 -5.129255e+00 4.698549e+00
-3.968747e+09 -3.768746e+09 -3.928746e+09 1.599061e+01 -1.962781e+01 -4.284727e+01
-4.960869e+09 -4.760868e+09 -4.920868e+09 4.510738e+00 -7.625953e+00 4.741821e+00
-3.268306e+09 -3.068305e+09 -3.228305e+09 -1.409041e+02 4.148472e+01 -2.822365e+01
-5.000460e+09 -4.800460e+09 -4.960460e+09 3.144816e+02 -1.297734e+01 -3.161595e-01
-3.880598e+09 -3.680601e+09 -3.840598e+09 -9.520176e+02 2.445357e+02 -3.389135e+01
-3.055183e+09 -2.855183e+09 -3.015182e+09 -1.474398e+02 5.284065e+01 -6.774125e+01
-4.043417e+09 -3.843417e+09 -4.003416e+09 -2.676364e+02 1.399543e+01 -4.840804e+01
-3.679136e+09 -3.479136e+09 -3.639135e+09 -6.529103e+01 -4.436562e+01 -8.131590e+01
-4.646722e+09 -4.446714e+09 -4.606723e+09 4.997608e+02 4.245166e+02 7.588488e+02
-4.646722e+09 -4.446716e+09 -4.606722e+09 8.071750e+02 1.171608e+03 1.797727e+02
-4.489941e+09 -4.289933e+09 -4.449941e+09 -3.559517e+02 6.072960e+02 8.958150e+02
-4.058671e+09 -3.858673e+09 -4.018674e+09 2.318619e+03 3.903567e+02 5.002206e+01
-3.912530e+09 -3.712529e+09 -3.872533e+09 2.630876e+03 -4.095452e+01 -7.539388e+02
-4.181766e+09 -3.981774e+09 -4.141771e+09 -1.325671e+03 -8.046004e+01 2.657053e+02
-4.132283e+09 -3.932280e+09 -4.092286e+09 2.490623e+03 1.918933e+03 -8.642144e+02
-4.953664e+09 -4.753660e+09 -4.913663e+09 1.035752e+03 -5.844811e+00 -3.072982e+01
-4.782797e+09 -4.582796e+09 -4.742796e+09 1.482591e+03 -5.080353e+01 1.055572e+02
-4.994575e+09 -4.794572e+09 -4.954574e+09 -1.212694e+02 1.550697e+02 -1.046374e+02
-4.446861e+09 -4.246858e+09 -4.406860e+09 2.921072e+02 1.569112e+02 -5.182012e+01
-3.961007e+09 -3.761008e+09 -3.921011e+09 4.049398e+03 2.352667e+03 -1.325489e+03
-3.967139e+09 -3.767137e+09 -3.927139e+09 2.480315e+03 6.239808e+02 -3.460086e+02
-4.096346e+09 -3.896341e+09 -4.056345e+09 8.361895e+02 3.227642e+02 -2.232110e+02
-3.959708e+09 -3.759705e+09 -3.919710e+09 2.708307e+03 1.724720e+03 -1.251832e+03
-4.277768e+09 -4.077761e+09 -4.237782e+09 1.442681e+03 5.565310e+03 -3.760833e+03
-1.897337e+09 -1.697342e+09 -1.857342e+09 -1.124741e+03 1.364938e+02 2.223463e+02
-4.598996e+09 -4.398997e+09 -4.558998e+09 1.614858e+03 -1.481705e+02 -4.638540e+02
-4.014676e+09 -3.814674e+09 -3.974678e+09 1.229958e+03 -4.275781e+02 -6.726851e+02
-4.572614e+09 -4.372612e+09 -4.532615e+09 1.404703e+03 -8.353218e+01 -2.376569e+02
-4.478839e+09 -4.278838e+09 -4.438838e+09 2.670418e+02 1.501130e+00 -2.889805e+01
-3.605022e+09 -3.405022e+09 -3.565021e+09 2.378462e+01 2.034906e+00 -3.348135e+01
-4.843403e+09 -4.643400e+09 -4.803405e+09 2.352796e+03 -3.511012e+01 -2.582788e+02
-4.154786e+09 -3.954787e+09 -4.114787e+09 3.367463e+03 4.062946e+02 1.114272e+03
-4.762355e+09 -4.562352e+09 -4.722356e+09 1.405350e+03 -8.311747e+01 -1.768760e+02
-4.812061e+09 -4.612060e+09 -4.772059e+09 -1.098391e+02 3.654623e+01 5.093167e-01
-2.492366e+09 -2.292371e+09 -2.452367e+09 -2.676472e+02 -1.222922e+01 -6.462468e+01
-1.662268e+09 -1.462268e+09 -1.622267e+09 -3.564418e+01 -3.945403e+01 -1.503162e+02
-4.591097e+09 -4.391096e+09 -4.551096e+09 6.935678e+01 5.238629e+00 -6.330244e+00
-4.965683e+09 -4.765682e+09 -4.925682e+09 -7.479515e+01 -8.892954e+00 5.892858e+00
-4.031164e+09 -3.831169e+09 -3.991165e+09 -2.752399e+02 8.655466e+01 1.332225e+01
-1.862810e+09 -1.662816e+09 -1.822817e+09 1.478956e+03 -1.491005e+02 1.007161e+03
-4.981825e+09 -4.781835e+09 -4.941827e+09 -1.836246e+02 -8.384686e+01 4.076640e+02
-2.511671e+09 -2.311677e+09 -2.471677e+09 -4.080946e+01 2.818989e+02 2.120050e+02
-3.959025e+09 -3.759028e+09 -3.919024e+09 -4.538268e+03 -1.333715e+03 1.759329e+03
-4.138403e+09 -3.938398e+09 -4.098405e+09 2.196919e+03 -1.810717e+02 -1.093266e+03
-4.711744e+09 -4.511748e+09 -4.671744e+09 -1.549516e+02 8.779991e+01 8.596416e+00
-4.724783e+09 -4.524788e+09 -4.684784e+09 -1.294035e+02 -5.541623e+01 -1.570597e+01
-4.818197e+09 -4.618196e+09 -4.778195e+09 -1.889047e+02 4.839830e+01 1.436739e+01
-4.993710e+09 -4.793699e+09 -4.953715e+09 7.409121e+02 -1.409005e+03 -7.541045e+02
-4.985937e+09 -4.785936e+09 -4.945935e+09 -1.750783e+02 6.666960e+01 3.530067e+01
-4.135692e+09 -3.935688e+09 -4.095692e+09 3.590025e+03 2.361530e+02 3.248909e+01
-3.962575e+09 -3.762569e+09 -3.922580e+09 -7.325291e+02 -1.592858e+03 -1.758071e+03
-4.983338e+09 -4.783332e+09 -4.943350e+09 -2.073335e+03 -2.560941e+03 -4.232233e+01
-4.646523e+09 -4.446521e+09 -4.606522e+09 -8.801446e+01 1.625119e+01 -5.232641e+01
-4.138096e+09 -3.938095e+09 -4.098095e+09 -7.630775e+01 8.768519e+01 1.666054e+01
-4.986373e+09 -4.786376e+09 -4.946376e+09 -1.218304e+03 -4.879682e+02 5.005922e+01
-4.990733e+09 -4.790737e+09 -4.950735e+09 -1.032016e+03 -3.584999e+02 2.966171e+01
-1.642319e+09 -1.442324e+09 -1.602320e+09 -8.992180e+02 -6.739006e+02 3.865698e+01
-4.992273e+09 -4.792266e+09 -4.952278e+09 9.089425e+02 -9.706755e+02 -8.592904e+02
-3.667247e+09 -3.467252e+09 -3.627248e+09 -5.877710e+02 -1.703599e+02 -1.949077e+02
-4.326632e+09 -4.126631e+09 -4.286631e+09 8.326468e+01 -2.555314e+00 -3.344731e+00
-3.981767e+09 -3.781765e+09 -3.941773e+09 -2.004567e+03 -2.564305e+03 -1.236760e+03
-4.134151e+09 -3.934150e+09 -4.094151e+09 1.084286e+02 5.939552e+01 1.466065e+01
-4.824562e+09 -4.624561e+09 -4.784561e+09 -2.246375e+01 -4.002859e+01 -5.247302e+01
-3.941433e+09 -3.741430e+09 -3.901434e+09 -1.485460e+03 -9.263699e+02 -6.795044e+02
-4.159469e+09 -3.959466e+09 -4.119472e+09 -1.685700e+03 -1.782596e+03 -1.002091e+03
-5.011465e+09 -4.811462e+09 -4.971471e+09 -1.062426e+03 -1.283290e+03 -8.171579e+02
-4.967725e+09 -4.767726e+09 -4.927724e+09 3.313814e+02 -4.747143e+01 1.804782e+01
-4.995984e+09 -4.795982e+09 -4.955990e+09 7.224702e+02 -9.147614e+02 5.444230e+02
-4.994425e+09 -4.794427e+09 -4.954426e+09 -6.198124e+02 -1.527018e+01 -2.989415e+01
-4.822478e+09 -4.622479e+09 -4.782479e+09 -7.508301e+02 -4.614007e+01 5.937421e+01
-5.007578e+09 -4.807576e+09 -4.967577e+09 -3.555712e+02 -4.512810e+01 5.199500e+01
-3.957953e+09 -3.757954e+09 -3.917954e+09 -7.648163e+02 -1.205980e+01 6.764500e+01
-5.006625e+09 -4.806623e+09 -4.966625e+09 -9.748208e+01 -9.920432e+01 1.029186e+02
-4.280804e+09 -4.080802e+09 -4.240805e+09 -1.688637e+03 -2.633534e+02 5.431055e+02
-4.817152e+09 -4.617153e+09 -4.777153e+09 -9.352832e+02 -3.976520e+01 7.639032e+01
-4.640830e+09 -4.440831e+09 -4.600831e+09 -9.121962e+02 -1.899384e+01 5.911350e+01
-4.123873e+09 -3.923875e+09 -4.083875e+09 -9.395347e+02 -3.306281e+01 9.878950e+01
-4.283445e+09 -4.083442e+09 -4.243444e+09 -7.453470e+02 -3.335734e+02 4.460304e+02
-4.819514e+09 -4.619512e+09 -4.779514e+09 -8.775633e+02 -2.162011e+01 -1.259454e+02
-4.133847e+09 -3.933845e+09 -4.093846e+09 -7.094299e+02 -1.304868e+02 -2.067290e+01
-4.993455e+09 -4.793453e+09 -4.953454e+09 -6.222583e+02 -3.503373e+01 6.819486e+01
-4.134702e+09 -3.934704e+09 -4.094703e+09 -7.603424e+02 4.437227e+00 -1.278990e+02
-4.990833e+09 -4.790831e+09 -4.950832e+09 -7.701769e+02 8.381840e-01 3.141939e+01
-4.825237e+09 -4.625238e+09 -4.785238e+09 -8.455672e+02 1.014032e+01 -3.873689e+01
-3.960712e+09 -3.760713e+09 -3.920713e+09 -1.057988e+03 -4.077961e+01 9.097320e+01
-3.967032e+09 -3.767032e+09 -3.927032e+09 3.717670e+02 4.588429e+00 -5.397561e+01
-4.149721e+09 -3.949719e+09 -4.109721e+09 -1.569453e+01 -3.349833e+02 4.786541e+02
-4.142705e+09 -3.942705e+09 -4.102705e+09 4.377178e+02 2.732332e+01 -1.845727e+00
-4.300147e+09 -4.100147e+09 -4.260147e+09 4.781221e+02 -8.292741e+00 -3.598626e+01
-4.268225e+09 -4.068225e+09 -4.228225e+09 3.992476e+02 4.034074e+00 -1.527179e+01
-4.611457e+09 -4.411457e+09 -4.571457e+09 3.995826e+02 2.627711e+01 3.463331e+01
-4.995328e+09 -4.795327e+09 -4.955329e+09 8.794871e+02 -3.528400e+02 2.473047e+02
-3.956836e+09 -3.756832e+09 -3.916840e+09 2.477578e+02 -1.284905e+03 1.826715e+03
-4.995327e+09 -4.795326e+09 -4.955329e+09 6.491341e+02 -3.750992e+02 2.494613e+02
-4.139537e+09 -3.939531e+09 -4.099540e+09 -4.592472e+03 1.310223e+03 8.824762e+02
-3.950545e+09 -3.750541e+09 -3.910547e+09 -1.498874e+03 -5.589527e+02 1.483758e+03
-4.834898e+09 -4.634887e+09 -4.794904e+09 -2.436618e+03 -1.918266e+03 7.911486e+02
-4.605959e+09 -4.405956e+09 -4.565961e+09 2.092462e+02 -3.655886e+02 6.363364e+02
-4.649116e+09 -4.449113e+09 -4.609124e+09 1.445417e+02 -8.367928e+02 1.096681e+03
-4.128628e+09 -3.928628e+09 -4.088628e+09 4.023186e+02 2.950209e+00 -5.426092e+00
-4.132893e+09 -3.932895e+09 -4.092898e+09 -2.204564e+03 -1.698827e+03 -7.901680e+02
-4.647666e+09 -4.447666e+09 -4.607669e+09 -1.766042e+03 -6.617553e+02 -1.962449e+02
-4.659122e+09 -4.459123e+09 -4.619123e+09 7.155448e+02 2.175862e+01 3.460138e+01
-3.963253e+09 -3.763255e+09 -3.923254e+09 3.503476e+02 2.619058e+01 -1.475908e+01
-3.941404e+09 -3.741406e+09 -3.901407e+09 -2.214110e+03 -1.137311e+03 -6.783855e+02
-4.627870e+09 -4.427870e+09 -4.587871e+09 -1.434751e+03 -9.311007e+02 -6.240858e+01
-3.956314e+09 -3.756316e+09 -3.916316e+09 -1.322915e+02 1.552451e+01 -1.421653e+01
-4.989648e+09 -4.789650e+09 -4.949650e+09 3.324474e+02 -2.179469e+01 -7.127763e+01
-4.821234e+09 -4.621233e+09 -4.781235e+09 -1.539832e+03 -4.306862e+02 -3.347363e+02
-4.655093e+09 -4.455095e+09 -4.615094e+09 4.586285e+02 1.334819e+01 1.885362e+01
-3.941404e+09 -3.741405e+09 -3.901407e+09 -1.733621e+03 -1.083717e+03 -4.177533e+02
-4.311860e+09 -4.111862e+09 -4.271862e+09 4.591861e+02 2.866527e+00 -8.918110e+01
-4.501403e+09 -4.301404e+09 -4.461410e+09 -2.058365e+03 -1.839761e+03 -5.476012e+02
-4.128192e+09 -3.928195e+09 -4.088194e+09 1.540745e+01 1.893663e+01 3.493129e+01
-4.976036e+09 -4.776036e+09 -4.936036e+09 1.333207e+03 -5.742147e+01 -1.264389e+02
-4.478790e+09 -4.278790e+09 -4.438792e+09 -1.497854e+03 -1.028838e+03 -4.144896e+02
-3.484950e+09 -3.284949e+09 -3.444948e+09 -1.803191e+02 -1.493526e+02 1.273431e+01
-4.814658e+09 -4.614660e+09 -4.774659e+09 9.088373e+00 4.591258e+00 -7.220484e+01
-3.684419e+09 -3.484417e+09 -3.644417e+09 -2.576085e+01 -5.218784e+00 9.308489e+00
-4.607267e+09 -4.407265e+09 -4.567266e+09 4.981542e+00 4.049167e+01 -4.621840e+01
-4.163110e+09 -3.963109e+09 -4.123109e+09 2.127985e+02 8.846747e+00 -4.738145e+01
-4.336950e+09 -4.136948e+09 -4.296948e+09 -3.116373e+02 -1.032370e+02 -6.459735e+01
-4.385780e+09 -4.185778e+09 -4.345778e+09 -1.021034e+02 -4.273133e+01 2.349590e+01
-4.939336e+09 -4.739334e+09 -4.899334e+09 -2.149324e+02 -7.430923e+01 -5.520621e-03
-4.939337e+09 -4.739334e+09 -4.899335e+09 -4.912496e+01 -1.273452e+01 -2.526765e+01
-3.142660e+09 -2.942658e+09 -3.102658e+09 -8.935883e+01 -3.740499e+01 -7.157404e+01
-4.984282e+09 -4.784281e+09 -4.944281e+09 -6.267851e+02 8.291085e+01 5.744526e+01
-2.857297e+09 -2.657296e+09 -2.817296e+09 4.647541e+01 -1.052961e+02 -5.329821e+01
-3.086141e+09 -2.886140e+09 -3.046140e+09 7.524535e+01 -3.145065e+01 -6.768309e+01
-3.964349e+09 -3.764347e+09 -3.924347e+09 -5.650197e+02 8.652464e+01 -8.478536e+00
-4.653301e+09 -4.453300e+09 -4.613302e+09 -1.955431e+03 4.244317e+02 4.885122e+02
-5.001251e+09 -4.801249e+09 -4.961251e+09 -1.268331e+03 8.543866e+01 1.606939e+02
-3.493475e+09 -3.293474e+09 -3.453474e+09 7.812205e+01 6.554323e+01 -6.364555e+01
-4.822468e+09 -4.622467e+09 -4.782467e+09 3.937342e+02 3.364350e+01 8.157105e+00
-3.961177e+09 -3.761175e+09 -3.921175e+09 -5.508897e+02 2.624890e+01 -5.072417e+01
-3.947898e+09 -3.747895e+09 -3.907896e+09 -5.014031e+02 1.671743e+02 6.483044e+01
-4.471805e+09 -4.271799e+09 -4.431802e+09 5.024967e+02 -1.803137e+02 3.144180e+02
-4.288748e+09 -4.088747e+09 -4.248748e+09 -1.095484e+03 1.736602e+02 1.387889e+02
-3.965006e+09 -3.765004e+09 -3.925005e+09 4.039181e+02 -4.173770e+02 2.923932e+02
-3.575587e+09 -3.375586e+09 -3.535585e+09 5.304965e+01 9.497338e+01 -4.271382e+01
-4.816663e+09 -4.616661e+09 -4.776664e+09 4.062961e+02 -3.431571e+02 7.283408e+01
-3.897692e+09 -3.697689e+09 -3.857691e+09 2.705376e+02 2.086804e+02 -5.025576e+00
-4.465260e+09 -4.265258e+09 -4.425263e+09 7.598313e+02 -1.014063e+03 6.631122e+02
-4.598442e+09 -4.398440e+09 -4.558441e+09 1.077787e+03 1.927637e+02 -3.126940e+01
-3.956237e+09 -3.756235e+09 -3.916238e+09 8.435397e+02 -7.687980e+02 9.044863e+02
-4.836187e+09 -4.636185e+09 -4.796186e+09 -1.307104e+02 -6.935938e+01 -7.070293e+01
-4.303344e+09 -4.103343e+09 -4.263344e+09 -9.837996e+02 -1.477010e+02 1.792069e+02
-3.960025e+09 -3.760023e+09 -3.920023e+09 9.669072e+02 2.845613e+02 -1.179393e+02
-3.867922e+09 -3.667920e+09 -3.827920e+09 3.815963e+02 5.102041e+01 2.109018e+01
-4.802624e+09 -4.602630e+09 -4.762628e+09 -9.047293e+02 -5.700209e+02 -3.245125e+01
-4.700197e+09 -4.500194e+09 -4.660195e+09 3.967572e+02 1.508825e+02 -6.639087e+01
-4.457219e+09 -4.257210e+09 -4.417207e+09 5.240824e+03 3.128848e+03 -7.822903e+02
-4.471011e+09 -4.271005e+09 -4.431014e+09 -1.262717e+03 -1.180073e+03 -1.291718e+03
-4.123391e+09 -3.923390e+09 -4.083404e+09 -3.964843e+02 -4.488241e+03 1.127542e+03
-4.125036e+09 -3.925030e+09 -4.085040e+09 4.947475e+02 -6.727359e+02 -1.165562e+03
-4.785324e+09 -4.585322e+09 -4.745323e+09 1.232215e+03 1.198007e+02 6.212724e+00
-4.496529e+09 -4.296524e+09 -4.456534e+09 3.764896e+00 -1.323202e+03 -9.090043e+02
-4.481175e+09 -4.281172e+09 -4.441184e+09 -7.222750e+02 -2.674160e+03 -9.112388e+02
-2.748044e+09 -2.548047e+09 -2.708044e+09 -4.098269e+02 1.154836e+02 -6.501746e+01
-2.847345e+09 -2.647349e+09 -2.807345e+09 -5.917358e+02 2.939579e+01 -1.506865e+01
-3.773824e+09 -3.573826e+09 -3.733823e+09 -6.701072e+02 5.769665e+01 -4.894221e+01
-1.636098e+09 -1.436095e+09 -1.596097e+09 -3.206486e+02 -7.419220e+02 -1.750090e+02
-5.001419e+09 -4.801424e+09 -4.961421e+09 3.845700e+03 -2.069126e+02 4.788015e+02
-4.986117e+09 -4.786112e+09 -4.946079e+09 1.552087e+03 1.257637e+03 2.374205e+03
-4.294675e+09 -4.094676e+09 -4.254676e+09 -1.099296e+03 2.670759e+01 -7.103983e+01
-4.990715e+09 -4.790717e+09 -4.950716e+09 -9.181463e+02 1.143964e+01 -3.805814e+01
-3.381189e+09 -3.181191e+09 -3.341189e+09 -6.872251e+02 -4.311781e+01 -5.480651e+01
-3.140297e+09 -2.940299e+09 -3.100296e+09 -6.944518e+02 5.038282e+01 -5.815195e+01
-4.457949e+09 -4.257952e+09 -4.417950e+09 -1.382220e+03 1.019189e+02 -3.449415e+02
-3.955778e+09 -3.755781e+09 -3.915780e+09 2.395508e+02 3.614524e+01 -4.767017e+02
-4.789598e+09 -4.589598e+09 -4.749597e+09 5.190859e+02 7.898338e+01 -4.609655e+01
-4.987651e+09 -4.787652e+09 -4.947652e+09 -7.672135e+02 1.104830e+00 -2.968881e+01
-3.382320e+09 -3.182322e+09 -3.342320e+09 -6.325528e+02 1.876268e+02 -4.239307e+01
-3.941263e+09 -3.741267e+09 -3.901266e+09 -1.331588e+02 1.858875e+01 -1.641142e+02
-2.961057e+09 -2.761060e+09 -2.921057e+09 -6.969616e+02 1.961441e+02 -9.394733e+01
-2.159234e+09 -1.959237e+09 -2.119234e+09 -9.734226e+02 6.200788e+01 -4.105404e+01
-4.002375e+09 -3.802376e+09 -3.962376e+09 -1.579105e+03 -3.330328e+01 6.603129e+01
-1.872728e+09 -1.672731e+09 -1.832728e+09 -7.336633e+02 1.708730e+02 -7.507031e+01
-4.266712e+09 -4.066714e+09 -4.226713e+09 -1.144743e+03 3.790892e+01 -1.942998e+02
-3.933055e+09 -3.733056e+09 -3.893056e+09 -1.322726e+03 -4.507650e+01 5.321858e+01
-4.991542e+09 -4.791543e+09 -4.951543e+09 -1.327761e+03 -5.728373e+00 -6.867471e+01
-2.432760e+09 -2.232763e+09 -2.392760e+09 -5.240847e+02 1.002761e+02 -1.384993e+02
-4.126741e+09 -3.926740e+09 -4.086740e+09 -2.041848e+02 -6.303607e+01 5.047081e+01
-3.956070e+09 -3.756074e+09 -3.916071e+09 6.364384e+02 -5.354106e+01 -1.434328e+03
-3.921169e+09 -3.721168e+09 -3.881168e+09 2.813737e+01 -7.650220e+01 2.162023e+00
-4.428936e+09 -4.228935e+09 -4.388935e+09 -7.936124e+01 -3.492030e+00 -1.750322e+01
-2.887987e+09 -2.687986e+09 -2.847986e+09 -2.290601e+02 -7.504448e+01 -3.970343e+01
-4.820739e+09 -4.620742e+09 -4.780738e+09 -7.734082e+02 1.387741e+02 -3.801221e+02
-4.623336e+09 -4.423338e+09 -4.583332e+09 -2.512489e+03 1.647943e+02 -5.672623e+02
-4.797890e+09 -4.597886e+09 -4.757892e+09 -1.838835e+03 -6.453595e+02 8.576145e+02
-3.890180e+09 -3.690178e+09 -3.850178e+09 -5.421351e+01 -4.055980e+01 -7.750231e+01
-4.797065e+09 -4.597063e+09 -4.757063e+09 -5.759445e+01 -2.861912e+01 -6.039183e+01
-3.936871e+09 -3.736871e+09 -3.896869e+09 -2.946588e+03 1.019232e+03 6.051422e+01
-4.702793e+09 -4.502792e+09 -4.662792e+09 -5.203314e+00 3.565732e+01 -1.667183e+01
-4.433375e+09 -4.233375e+09 -4.393374e+09 -3.262610e+03 8.285155e+02 -3.580686e+02
-4.078393e+09 -3.878392e+09 -4.038392e+09 8.959243e+00 -1.540027e+01 -1.451462e+01
-4.201735e+09 -4.001735e+09 -4.161735e+09 1.565689e+02 6.323067e-01 3.761386e+00
-4.848167e+09 -4.648168e+09 -4.808167e+09 -2.198375e+03 3.290074e+00 -4.068535e+01
-3.641650e+09 -3.441650e+09 -3.601650e+09 7.841354e+01 2.822209e+01 1.693354e+01
-4.105194e+09 -3.905191e+09 -4.065195e+09 -2.531423e+03 -9.809326e+01 9.249861e+02
-3.961745e+09 -3.761745e+09 -3.921747e+09 -2.827017e+03 2.169797e+02 1.669405e+02
-4.000775e+09 -3.800775e+09 -3.960775e+09 8.188301e+01 1.928342e+00 1.394891e+01
-3.961747e+09 -3.761746e+09 -3.921746e+09 -2.132325e+03 1.756245e+02 3.292899e+02
-4.234266e+09 -4.034266e+09 -4.194265e+09 2.936911e+02 -2.118657e+02 8.293244e+01
-4.288467e+09 -4.088454e+09 -4.248463e+09 6.072162e+03 -6.814980e+03 -6.875259e+02
-4.154773e+09 -3.954765e+09 -4.114763e+09 -4.569849e+03 2.782531e+03 -2.160192e+03
-4.975964e+09 -4.775952e+09 -4.935969e+09 -6.436013e+02 2.485025e+03 -1.056418e+03
-4.985982e+09 -4.785973e+09 -4.945999e+09 1.058972e+03 3.609264e+03 1.426513e+02
-4.820742e+09 -4.620738e+09 -4.780751e+09 -2.339137e+03 1.653802e+03 7.693472e+02
-4.951092e+09 -4.751084e+09 -4.911108e+09 -9.473223e+01 3.396126e+03 7.684367e+02
-3.646084e+09 -3.446084e+09 -3.606084e+09 1.145005e+02 2.415736e+01 -2.078309e+01
-4.962753e+09 -4.762754e+09 -4.922754e+09 -1.544764e+03 1.518994e+01 -1.088547e+02
-4.695449e+09 -4.495449e+09 -4.655449e+09 6.691506e+01 9.010261e+00 3.571073e+01
-4.579127e+09 -4.379125e+09 -4.539129e+09 2.272680e+02 -3.090577e+02 -2.623813e+02
-4.811920e+09 -4.611923e+09 -4.771921e+09 -9.873974e+02 2.151292e+01 -4.380785e+02
-4.125454e+09 -3.925458e+09 -4.085456e+09 -9.269357e+02 1.022838e+02 4.112136e+01
-4.428563e+09 -4.228561e+09 -4.388564e+09 -1.158917e+02 -1.604862e+02 -6.792872e+01
-4.965123e+09 -4.765127e+09 -4.925125e+09 -4.548765e+01 7.587096e-01 -7.059878e+01
-3.826587e+09 -3.626585e+09 -3.786588e+09 2.554255e+02 -3.680573e+02 -2.615374e+02
-3.492338e+09 -3.292338e+09 -3.452340e+09 6.644672e+02 -3.250694e+02 -4.307895e+02
-4.702420e+09 -4.502419e+09 -4.662421e+09 4.497394e+02 -9.552324e+01 -3.486294e+02
-5.006161e+09 -4.806163e+09 -4.966160e+09 -1.803421e+03 2.987405e+01 -7.627289e+02
-3.981689e+09 -3.781688e+09 -3.941689e+09 -6.957515e+02 -4.226038e+01 -4.343567e+01
-3.964952e+09 -3.764955e+09 -3.924954e+09 3.531769e+03 1.320025e+03 -5.970362e+02
-4.500478e+09 -4.300477e+09 -4.460477e+09 -6.737407e+02 -4.196421e+01 2.592035e+01
-3.985556e+09 -3.785553e+09 -3.945570e+09 -2.950093e+03 4.027729e+03 3.120567e+03
-4.137962e+09 -3.937962e+09 -4.097962e+09 -9.562081e+02 -1.057367e+02 1.557512e+02
-3.962407e+09 -3.762406e+09 -3.922407e+09 -1.075068e+03 -1.134077e+02 7.359179e+01
-4.045187e+09 -3.845190e+09 -4.005187e+09 4.894221e+02 -1.223494e+02 4.266193e+01
-4.827061e+09 -4.627060e+09 -4.787060e+09 -6.677743e+02 -1.305592e+01 -6.216479e+01
-4.481195e+09 -4.281194e+09 -4.441195e+09 -9.712394e+02 -3.912065e+01 2.109350e+01
-3.966600e+09 -3.766599e+09 -3.926599e+09 -8.317695e+02 -1.407597e+02 5.461669e+01
-4.986130e+09 -4.786130e+09 -4.946122e+09 3.025551e+03 -8.223690e+02 -1.403855e+03
-4.951097e+09 -4.751085e+09 -4.911109e+09 1.885726e+03 3.416109e+03 1.075356e+03
-3.966600e+09 -3.766599e+09 -3.926600e+09 -6.832792e+02 -1.312912e+02 4.577198e+01
-4.477513e+09 -4.277505e+09 -4.437521e+09 -1.898863e+03 3.443012e+03 2.745270e+03
-4.970614e+09 -4.770613e+09 -4.930608e+09 1.761083e+03 -1.579564e+02 -8.344360e+02
-4.118035e+09 -3.918028e+09 -4.078037e+09 1.051335e+03 -8.838291e+02 -1.598958e+03
-4.907935e+09 -4.707932e+09 -4.867933e+09 -2.166184e+02 -5.591903e+01 2.163052e-07
-4.305038e+09 -4.105033e+09 -4.265040e+09 -1.668449e+02 -1.291975e+03 -8.859536e+02
-4.817233e+09 -4.617228e+09 -4.777235e+09 -2.029815e+01 -5.284417e+02 -7.261061e+02
-4.656831e+09 -4.456826e+09 -4.616833e+09 2.585688e+02 -5.419654e+02 -6.139408e+02
-4.468269e+09 -4.268262e+09 -4.428274e+09 6.036062e+01 -1.147268e+03 -1.197119e+03
-4.156037e+09 -3.956034e+09 -4.116041e+09 -1.260231e+03 -1.577166e+03 -7.776861e+02
-4.675218e+09 -4.475216e+09 -4.635216e+09 -3.428420e+02 -4.657232e+01 -2.942941e+01
-4.989515e+09 -4.789512e+09 -4.949513e+09 -1.064304e+02 -1.215599e+02 -4.915029e+01
-3.965315e+09 -3.765311e+09 -3.925318e+09 -1.096558e+03 -1.793447e+03 -1.163969e+03
-4.989515e+09 -4.789512e+09 -4.949513e+09 -4.932529e+02 -2.507292e+01 -5.446330e+01
-3.072102e+09 -2.872103e+09 -3.032103e+09 -1.186243e+00 1.571410e+00 5.296014e+00
-3.306826e+09 -3.106825e+09 -3.266825e+09 3.337569e+02 -3.696804e+02 7.377522e+01
-4.918039e+09 -4.718044e+09 -4.878044e+09 1.656935e+02 -1.504656e+01 -2.491352e-05
-4.950298e+09 -4.750299e+09 -4.910300e+09 7.110624e+02 -2.984061e+01 -5.257246e+01
-3.271663e+09 -3.071665e+09 -3.231664e+09 6.837053e+01 7.114927e-01 9.503772e-01
-2.213373e+09 -2.013375e+09 -2.173374e+09 -9.052314e-03 -5.211702e+00 3.571014e+00
-3.549466e+09 -3.349474e+09 -3.509472e+09 7.525952e+01 -1.988625e+01 1.671296e+02
-2.193689e+09 -1.993688e+09 -2.153690e+09 3.124065e+02 -5.619791e+02 -2.817567e+02
-4.983418e+09 -4.783426e+09 -4.943424e+09 6.811598e+02 -1.373301e+02 1.420630e+02
-2.786389e+09 -2.586390e+09 -2.746390e+09 6.686443e+01 8.585132e+00 3.538236e+00
-4.972530e+09 -4.772529e+09 -4.932529e+09 -3.400292e+02 7.217281e+00 1.458437e+01
-4.712672e+09 -4.512674e+09 -4.672673e+09 4.968078e+01 1.090577e+00 -2.376446e+01
-4.505174e+09 -4.305176e+09 -4.465175e+09 2.521522e+01 1.034015e+01 -8.387840e+00
-4.197673e+09 -3.997672e+09 -4.157672e+09 -7.978062e+00 8.830085e+00 -1.447402e+01
-3.781550e+09 -3.581557e+09 -3.741556e+09 9.412373e+01 -3.406095e+01 2.285460e+00
-3.892412e+09 -3.692411e+09 -3.852411e+09 -2.477787e+00 -1.812268e+01 -3.544192e+01
-3.301151e+09 -3.101158e+09 -3.261156e+09 2.108172e+03 4.102229e+02 1.091490e+03
-4.651474e+09 -4.451482e+09 -4.611480e+09 1.856513e+02 1.518307e+02 1.653155e+02
-4.379633e+09 -4.179641e+09 -4.339639e+09 5.115486e+01 3.244909e-01 1.619325e+02
-4.778146e+09 -4.578145e+09 -4.738145e+09 4.075404e+01 -7.729433e+00 -1.981398e+01
-4.595234e+09 -4.395233e+09 -4.555233e+09 -9.298357e+00 4.079385e-01 -3.024575e+01
-3.910614e+09 -3.710613e+09 -3.870613e+09 5.894533e+01 1.899360e+01 -5.334720e+01
-4.795967e+09 -4.595966e+09 -4.755966e+09 6.372685e+01 -5.367724e+00 -2.306919e+01
-4.998445e+09 -4.798444e+09 -4.958444e+09 1.062382e+02 1.699806e+01 1.196736e+01
-4.131430e+09 -3.931429e+09 -4.091430e+09 -8.921414e+02 -1.587516e+02 2.734720e+02
-2.713124e+09 -2.513122e+09 -2.673125e+09 1.493283e+02 -5.102157e+02 -3.221429e+02
-3.963757e+09 -3.763755e+09 -3.923756e+09 -5.292302e+02 -2.416421e+02 2.307162e+02
-1.640734e+09 -1.440732e+09 -1.600733e+09 -5.812763e+02 -1.055251e+03 -4.926867e+02
-1.795249e+09 -1.595256e+09 -1.755256e+09 4.216442e+02 -2.629718e+01 5.736638e+02
-4.136551e+09 -3.936549e+09 -4.096550e+09 -4.772069e+02 -2.358732e+02 9.132106e+01
-2.170914e+09 -1.970915e+09 -2.130916e+09 5.592445e+01 -3.725315e+02 -9.511093e+01
-4.320682e+09 -4.120680e+09 -4.280681e+09 -5.055272e+02 -1.241797e+02 1.208668e+02
-3.974105e+09 -3.774104e+09 -3.934108e+09 3.754154e+03 1.022363e+03 -2.899461e+02
-1.677931e+09 -1.477929e+09 -1.637931e+09 6.224140e+02 -7.423021e+02 -6.075223e+02
-2.127543e+09 -1.927545e+09 -2.087547e+09 5.481836e+02 -3.284887e+02 -3.119187e+02
-4.620162e+09 -4.420165e+09 -4.580166e+09 3.816603e+02 -4.169314e+01 2.568686e+02
-3.662419e+09 -3.462420e+09 -3.622422e+09 7.762641e+01 -2.290530e+02 2.295058e+01
-4.837057e+09 -4.637055e+09 -4.797056e+09 -4.368339e+02 -2.494524e+01 -9.305557e+01
-3.977880e+09 -3.777878e+09 -3.937879e+09 -1.770775e+02 -1.754680e+02 1.200218e+02
-4.163762e+09 -3.963760e+09 -4.123761e+09 -1.416235e+02 -1.913415e+02 1.862857e+01
-3.116298e+09 -2.916299e+09 -3.076296e+09 9.559343e+01 4.207685e+01 2.061456e+01
-3.683356e+09 -3.483357e+09 -3.643354e+09 2.805481e+01 -1.933515e+01 1.703540e+01
-4.665666e+09 -4.465664e+09 -4.625665e+09 -2.384154e+02 -1.118905e+02 8.267930e+01
-2.857626e+09 -2.657628e+09 -2.817625e+09 1.916156e+01 2.106106e+00 2.216245e+01
-4.970238e+09 -4.770239e+09 -4.930236e+09 8.783441e+02 6.230524e+01 -1.496059e+01
-2.196558e+09 -1.996559e+09 -2.156557e+09 2.943037e+01 1.050307e+01 6.723644e+00
-4.279345e+09 -4.079342e+09 -4.239345e+09 -3.960564e+02 -5.097296e+02 6.965652e+02
-4.680906e+09 -4.480910e+09 -4.640906e+09 1.765844e+02 -3.926379e+01 3.767379e+01
-1.595488e+09 -1.395489e+09 -1.555487e+09 6.022564e+02 7.079410e+01 5.578963e+01
-4.515760e+09 -4.315763e+09 -4.475761e+09 -6.878633e+02 -1.295580e+02 -4.834786e+01
-3.519065e+09 -3.319069e+09 -3.479066e+09 -4.709555e+02 1.241276e+02 -9.382153e+00
-3.947718e+09 -3.747719e+09 -3.907716e+09 1.363429e+02 4.193930e+01 1.267538e+01
-2.820772e+09 -2.620776e+09 -2.780773e+09 -3.857327e+02 -4.156503e+02 -1.173742e+02
-4.664973e+09 -4.464972e+09 -4.624972e+09 -4.591557e+02 -2.522000e+01 -1.609641e+01
-3.933916e+09 -3.733918e+09 -3.893916e+09 -1.238446e+03 -4.460427e+02 -1.747963e+02
-2.611945e+09 -2.411949e+09 -2.571945e+09 4.959290e+02 9.432995e+01 1.910120e+01
-2.705678e+09 -2.505680e+09 -2.665677e+09 6.221611e+01 2.335199e+00 6.011260e+01
-2.669780e+09 -2.469781e+09 -2.629778e+09 4.016422e+01 1.365042e+01 4.282877e+01
-2.710927e+09 -2.510928e+09 -2.670926e+09 8.915025e+01 1.266502e+01 2.688239e+00
-3.466074e+09 -3.266077e+09 -3.426073e+09 9.026036e+02 4.478041e+01 7.551824e+01
-3.738424e+09 -3.538427e+09 -3.698423e+09 6.923025e+02 -2.728410e+01 4.463773e+00
-3.885255e+09 -3.685256e+09 -3.845253e+09 2.378929e+02 2.503661e+00 7.500638e+00
-1.927822e+09 -1.727823e+09 -1.887821e+09 3.095364e+01 1.153024e+01 5.986788e+00
-4.425090e+09 -4.225092e+09 -4.385089e+09 8.044070e+01 7.381516e+00 4.230303e+01
-4.456913e+09 -4.256911e+09 -4.416912e+09 -5.768519e+02 -4.106409e+02 -4.040858e+01
-4.224954e+09 -4.024956e+09 -4.184955e+09 -8.847612e+02 -5.282843e+02 -1.290466e+02
-2.215009e+09 -2.015012e+09 -2.175009e+09 -9.993518e+02 -6.363814e+02 -1.411334e+02
-2.839101e+09 -2.639104e+09 -2.799101e+09 -7.378157e+02 -4.741888e+02 -2.281370e+01
-4.106798e+09 -3.906782e+09 -4.066808e+09 5.567839e+02 4.170222e+02 -2.154544e+03
-4.653515e+09 -4.453512e+09 -4.613514e+09 -5.200158e+02 -2.087383e+02 -1.694872e+02
-3.495242e+09 -3.295240e+09 -3.455242e+09 3.245122e+02 -4.609487e+02 -3.390589e+02
-4.108026e+09 -3.908002e+09 -4.068015e+09 -1.773342e+03 -6.609217e+03 -4.543871e+03
-4.981478e+09 -4.781475e+09 -4.941479e+09 5.671196e+02 1.189985e+02 2.880808e+02
-2.755907e+09 -2.555904e+09 -2.715906e+09 -1.594419e+02 -5.454974e+02 -5.310406e+01
-4.617707e+09 -4.417697e+09 -4.577719e+09 1.007476e+03 2.829762e+02 -8.127116e+02
-4.112560e+09 -3.912552e+09 -4.072579e+09 2.298395e+03 5.368512e+03 -3.852180e+03
-2.703363e+09 -2.503361e+09 -2.663362e+09 -3.835909e+02 -8.560580e+02 -2.556496e+02
-4.808965e+09 -4.608952e+09 -4.768967e+09 -1.188886e+03 3.785211e+02 -1.790045e+03
-1.662266e+09 -1.462271e+09 -1.622266e+09 1.868885e+01 4.657321e+01 -5.296849e+01
-4.799026e+09 -4.599016e+09 -4.759039e+09 4.366379e+02 8.166197e+02 -1.102663e+03
-4.980928e+09 -4.780931e+09 -4.940928e+09 -9.124132e+02 -6.117748e+00 2.457238e+01
-4.790505e+09 -4.590509e+09 -4.750505e+09 -5.990238e+02 1.488869e+02 2.739459e+01
-4.095152e+09 -3.895157e+09 -4.055152e+09 -5.717383e+02 1.803592e+02 -1.475916e+00
-1.677745e+09 -1.477750e+09 -1.637745e+09 -2.130436e+02 -1.963916e+01 -9.866132e+01
-1.648973e+09 -1.448978e+09 -1.608973e+09 -3.951112e+00 3.721792e+01 -9.591259e+01
-4.796803e+09 -4.596809e+09 -4.756804e+09 -5.760493e+02 -9.255412e+01 -4.885786e+01
-4.257995e+09 -4.058000e+09 -4.217996e+09 -5.651369e+02 -1.155640e+01 -5.601395e+00
-3.328936e+09 -3.128940e+09 -3.288936e+09 9.854862e+01 2.855737e+01 6.945058e+01
-4.356329e+09 -4.156334e+09 -4.316329e+09 2.145210e+01 1.558833e+01 -1.400202e+01
-4.435805e+09 -4.235806e+09 -4.395806e+09 -2.269169e+01 -2.365755e+01 2.397918e+00
-3.646179e+09 -3.446179e+09 -3.606179e+09 -1.502734e+02 -2.875467e+01 4.538130e+01
-3.840224e+09 -3.640229e+09 -3.800224e+09 4.793424e+02 1.141383e+02 -2.490160e+01
-3.876983e+09 -3.676984e+09 -3.836984e+09 -2.222858e+02 -2.138920e+01 2.005709e+01
-2.419597e+09 -2.219600e+09 -2.379596e+09 9.163364e+02 5.584851e+01 1.207427e+01
-2.528663e+09 -2.328666e+09 -2.488662e+09 1.027924e+02 2.632430e+01 7.688372e+01
-4.786384e+09 -4.586385e+09 -4.746385e+09 -2.870391e+02 1.713939e+01 1.264971e+01
-4.791062e+09 -4.591063e+09 -4.751063e+09 -1.938985e+02 -2.357267e+01 -2.084571e+01
-2.082488e+09 -1.882490e+09 -2.042487e+09 6.781537e+02 7.440009e+01 2.538449e+01
-1.606913e+09 -1.406918e+09 -1.566914e+09 -2.408703e+02 6.504180e+00 -1.044505e+02
-4.062846e+09 -3.862846e+09 -4.022846e+09 -1.772715e+02 -6.947409e+00 -9.579077e+00
-4.709662e+09 -4.509663e+09 -4.669663e+09 -1.086547e+02 -4.590642e+00 -4.634974e+01
-2.188173e+09 -1.988177e+09 -2.148173e+09 -1.461595e+02 -1.563315e+01 -5.450067e+01
-4.130781e+09 -3.930786e+09 -4.090782e+09 -2.426797e+02 -9.862626e+00 1.076256e+00
-3.898912e+09 -3.698911e+09 -3.858911e+09 6.322295e+00 -2.037268e+00 1.493309e+00
-4.145618e+09 -3.945618e+09 -4.105635e+09 -1.325707e+03 6.869368e+03 1.880084e+03
-4.848044e+09 -4.648043e+09 -4.808058e+09 -1.441044e+03 1.867232e+03 4.427767e+02
-4.328789e+09 -4.128785e+09 -4.288800e+09 -2.051140e+03 2.573562e+03 3.079887e+03
-4.459138e+09 -4.259131e+09 -4.419157e+09 -2.486522e+03 3.859672e+03 1.796827e+03
-1.588599e+09 -1.388598e+09 -1.548598e+09 2.686223e+01 7.441745e+00 -3.643915e+01
-4.328788e+09 -4.128784e+09 -4.288798e+09 -2.288853e+03 2.292007e+03 2.389950e+03
-4.348730e+09 -4.148728e+09 -4.308729e+09 5.149984e+00 1.869950e+00 -2.258354e-01
-3.083803e+09 -2.883802e+09 -3.043802e+09 1.302737e+01 4.386294e+00 -5.654911e+00
-4.161578e+09 -3.961580e+09 -4.121592e+09 -2.825904e+03 5.210690e+03 1.808295e+03
-2.481055e+09 -2.281064e+09 -2.441058e+09 7.558240e+02 -1.811736e+03 4.186580e+01
-3.497777e+09 -3.297776e+09 -3.457777e+09 2.097292e+01 5.108539e+00 -1.456119e+01
-4.625733e+09 -4.425732e+09 -4.585732e+09 1.516964e+01 -1.093838e+00 -8.222685e-01
-2.862578e+09 -2.662576e+09 -2.822577e+09 4.433446e+00 4.078514e-02 -2.908653e+00
-4.699929e+09 -4.499928e+09 -4.659928e+09 1.317206e+01 4.650751e-01 -1.224559e+01
-1.873496e+09 -1.673495e+09 -1.833495e+09 1.980064e+01 4.419842e+00 -1.013138e+00
-2.839580e+09 -2.639579e+09 -2.799579e+09 1.631615e+01 1.697558e+00 -1.334276e+01
-1.698361e+09 -1.498366e+09 -1.658362e+09 1.973027e+03 -1.471953e+03 5.184724e+02
-4.598640e+09 -4.398648e+09 -4.558644e+09 -2.855045e+02 -3.376105e+02 2.200870e+01
-4.790241e+09 -4.590248e+09 -4.750245e+09 -5.254326e+02 -3.892622e+02 -2.475546e+02
-2.223538e+09 -2.023537e+09 -2.183537e+09 5.144898e-01 9.487397e-01 -6.394242e+00
-3.506039e+09 -3.306038e+09 -3.466038e+09 -1.311193e+00 1.296995e+01 -4.437972e+00
-4.972372e+09 -4.772380e+09 -4.932376e+09 -2.917489e+01 -1.208335e+02 -4.227431e+00
-3.014412e+09 -2.814419e+09 -2.974414e+09 -3.128671e+01 -3.333812e+02 4.288249e+01
-1.954802e+09 -1.754801e+09 -1.914801e+09 -3.829925e+00 5.905143e+00 -6.093451e+00
-3.580555e+09 -3.380562e+09 -3.540558e+09 3.903780e+02 -1.702918e+03 1.791138e+02
-3.931273e+09 -3.731278e+09 -3.891273e+09 1.030438e+02 4.097525e+01 3.915591e+01
-4.240781e+09 -4.040787e+09 -4.200784e+09 6.222407e+02 -5.265375e+02 8.848825e+01
-4.060087e+09 -3.860095e+09 -4.020091e+09 -1.913454e+02 -2.642480e+02 5.701143e+00
-4.698515e+09 -4.498523e+09 -4.658519e+09 6.088154e+01 -9.385969e+01 8.561773e+01
-1.674097e+09 -1.474103e+09 -1.634098e+09 5.067256e+02 1.887760e+02 -4.657746e+01
-3.288713e+09 -3.088713e+09 -3.248713e+09 -3.087326e+02 -2.168904e+01 6.444527e+00
-4.701137e+09 -4.501143e+09 -4.661138e+09 6.497821e+01 -2.512823e+01 -1.688928e+00
-3.442039e+09 -3.242039e+09 -3.402039e+09 -1.410421e+02 -2.847838e+01 8.221193e+01
-3.396721e+09 -3.196720e+09 -3.356721e+09 -1.111074e+02 -2.838144e+01 6.114289e+01
-3.663568e+09 -3.463568e+09 -3.623568e+09 -1.711360e+02 -3.251211e+01 2.795012e+01
-2.314254e+09 -2.114253e+09 -2.274253e+09 1.518843e+02 1.367044e+01 3.617668e+00
-2.784472e+09 -2.584477e+09 -2.744473e+09 6.171042e+01 2.335975e+01 -9.703534e+00
-3.467448e+09 -3.267451e+09 -3.427449e+09 1.331206e+03 -1.189766e+03 4.695186e+02
-3.627098e+09 -3.427097e+09 -3.587097e+09 2.726453e+01 2.999698e+00 1.472948e+01
-3.978507e+09 -3.778506e+09 -3.938507e+09 -5.021340e+02 -5.988792e+01 4.767324e+00
-2.795967e+09 -2.595966e+09 -2.755967e+09 2.830505e+01 1.800033e+01 -1.531030e+01
-4.277903e+09 -4.077909e+09 -4.237905e+09 3.133422e+02 1.675046e+02 3.072245e+01
-4.729290e+09 -4.529296e+09 -4.689291e+09 -1.285278e+02 9.762732e+01 5.307466e+00
-2.579513e+09 -2.379519e+09 -2.539514e+09 1.607968e+02 5.576734e+01 1.368775e+01
-2.987060e+09 -2.787059e+09 -2.947060e+09 7.218718e+01 8.005715e+00 1.521542e+01
-4.022336e+09 -3.822335e+09 -3.982335e+09 7.927465e+01 9.797539e+00 2.615224e+00
-3.385390e+09 -3.185390e+09 -3.345390e+09 5.916819e+01 1.754135e+01 -3.337254e+01
-4.465481e+09 -4.265481e+09 -4.425480e+09 -2.723498e+02 3.607668e+01 -8.269041e+00
-4.645677e+09 -4.445676e+09 -4.605676e+09 -1.535908e+02 -1.918798e+00 -6.331785e-01
-3.514841e+09 -3.314843e+09 -3.474842e+09 -1.202691e+01 2.002447e+00 -4.817056e+00
-2.599551e+09 -2.399552e+09 -2.559552e+09 -2.826635e+01 -3.631702e+01 6.606648e+00
-1.679093e+09 -1.479095e+09 -1.639094e+09 -7.370797e+01 -2.578058e+01 7.014680e+00
-2.947781e+09 -2.747782e+09 -2.907782e+09 -2.591862e+01 1.467047e+00 -2.407692e+00
-1.631382e+09 -1.431382e+09 -1.591382e+09 -1.231071e+02 -5.272017e+01 1.312617e+00
-4.709210e+09 -4.509210e+09 -4.669209e+09 -9.525585e+01 -6.502203e+01 -1.840677e+01
-4.529519e+09 -4.329520e+09 -4.489520e+09 -1.730635e+02 -2.338544e+01 -5.007571e+00
-4.802690e+09 -4.602689e+09 -4.762689e+09 -9.178423e+01 4.533748e+01 -2.453515e+01
-3.745829e+09 -3.545829e+09 -3.705828e+09 -1.524809e+02 -1.677202e+01 -6.168979e+01
-4.983067e+09 -4.783067e+09 -4.943066e+09 -1.467367e+02 -7.044242e+00 1.621160e+00
-4.039863e+09 -3.839863e+09 -3.999862e+09 -2.266484e+02 9.318997e+00 -1.321205e+01
-4.623701e+09 -4.423701e+09 -4.583700e+09 -1.855844e+02 4.209267e+01 -2.457951e+01
-4.500548e+09 -4.300548e+09 -4.460548e+09 -8.075742e+02 -3.802615e+01 3.179966e+01
-4.817979e+09 -4.617980e+09 -4.777980e+09 -1.049470e+03 2.290322e+01 -6.533737e+01
-4.124700e+09 -3.924701e+09 -4.084701e+09 -1.128162e+03 5.041048e+01 -1.882198e+02
-4.960733e+09 -4.760734e+09 -4.920733e+09 -6.525845e+02 -1.219037e+02 2.150782e+00
-3.426299e+09 -3.226297e+09 -3.386297e+09 -5.335228e+01 -3.195920e+01 1.836320e+01
-4.822067e+09 -4.622067e+09 -4.782067e+09 -1.051384e+03 -6.241340e+01 9.100267e+01
-3.966670e+09 -3.766670e+09 -3.926670e+09 -1.026986e+03 -6.226122e+01 1.193593e+02
-3.964238e+09 -3.764238e+09 -3.924239e+09 -1.280363e+03 -9.059696e+01 1.014708e+02
-4.518804e+09 -4.318804e+09 -4.478804e+09 -1.280854e+03 -4.738269e+01 1.306836e+01
-3.964238e+09 -3.764238e+09 -3.924239e+09 -9.951580e+02 -1.109970e+02 6.674368e+01
-2.018196e+09 -1.818194e+09 -1.978194e+09 -5.100592e+02 -5.085121e+02 -1.922127e+00
-4.205827e+09 -4.005824e+09 -4.165828e+09 4.027725e+02 -4.902985e+02 -6.369246e+02
-4.207129e+09 -4.007127e+09 -4.167131e+09 2.518530e+02 -5.375799e+02 -5.944355e+02
-4.126805e+09 -3.926810e+09 -4.086809e+09 1.267482e+03 -8.427095e+02 4.247205e+02
-4.120496e+09 -3.920492e+09 -4.080497e+09 -9.789584e+01 -6.980242e+02 -4.352254e+02
-4.281758e+09 -4.081754e+09 -4.241760e+09 7.988499e+02 -6.906807e+02 -8.126461e+02
-4.168169e+09 -3.968166e+09 -4.128170e+09 1.388738e+03 -3.185562e+02 -6.000795e+02
-4.733473e+09 -4.533470e+09 -4.693471e+09 -1.985621e+02 -1.250787e+02 -4.300603e+01
-2.260319e+09 -2.060316e+09 -2.220316e+09 -1.610231e+02 -2.881392e+02 1.345084e+01
-4.258720e+09 -4.058717e+09 -4.218721e+09 1.150838e+03 -3.047186e+02 -2.983750e+02
-3.679292e+09 -3.479291e+09 -3.639291e+09 -8.109133e+01 -2.230684e+01 -4.452439e+01
-4.197814e+09 -3.997813e+09 -4.157812e+09 -1.118604e+02 9.918203e+00 -1.725431e+01
-4.190371e+09 -3.990371e+09 -4.150370e+09 -1.670503e+01 7.729955e+00 -2.782380e+01
-3.463890e+09 -3.263889e+09 -3.423889e+09 -5.583992e+01 -5.223377e+01 -4.743888e+01
-4.413155e+09 -4.213154e+09 -4.373154e+09 4.466109e+01 -7.205543e-01 -2.620357e+01
-4.971354e+09 -4.771356e+09 -4.931353e+09 -5.800439e+02 -1.398666e+02 -3.052366e+01
-4.131607e+09 -3.931608e+09 -4.091606e+09 -8.649260e+02 7.546365e+01 -4.782111e+01
-4.818072e+09 -4.618074e+09 -4.778072e+09 -8.237291e+02 -1.947366e+00 4.864884e+00
-4.608604e+09 -4.408603e+09 -4.568603e+09 -5.144417e-01 2.127204e+01 -2.103586e+01
-4.687012e+09 -4.487011e+09 -4.647011e+09 -9.461385e+00 2.405389e+01 -1.134412e+01
-4.981707e+09 -4.781711e+09 -4.941708e+09 -3.090076e+02 2.743234e+01 4.489306e+01
-3.709788e+09 -3.509792e+09 -3.669788e+09 -3.287526e+02 9.679838e+01 -5.769817e+01
-2.778670e+09 -2.578672e+09 -2.738670e+09 8.059295e-01 4.894666e+00 -6.158827e+01
-4.801318e+09 -4.601323e+09 -4.761318e+09 -3.491267e+02 -7.940349e+01 -6.105146e+01
-4.610116e+09 -4.410120e+09 -4.570116e+09 -3.960566e+02 -2.036462e+01 -1.048550e+01
-3.746570e+09 -3.546574e+09 -3.706570e+09 -6.257404e+02 1.194075e+02 -2.566030e+01
-4.789086e+09 -4.589089e+09 -4.749086e+09 -4.230204e+02 4.602362e+01 -5.037292e+01
-4.798660e+09 -4.598664e+09 -4.758661e+09 -6.309207e+02 1.680076e+00 1.548673e+01
-4.642753e+09 -4.442754e+09 -4.602752e+09 1.666287e+03 1.281668e+01 -1.681545e+02
-3.956288e+09 -3.756289e+09 -3.916287e+09 2.091130e+03 3.892606e+02 -8.948676e+01
-3.956287e+09 -3.756288e+09 -3.916287e+09 1.806206e+03 2.489744e+02 -1.761075e+01
-4.803654e+09 -4.603653e+09 -4.763653e+09 1.785812e+03 2.473069e+02 -1.741952e+02
-4.996103e+09 -4.796103e+09 -4.956103e+09 1.942530e+03 8.565643e+01 -1.428097e+02
-4.521341e+09 -4.321339e+09 -4.481339e+09 1.436879e+03 -1.309352e+02 -1.604286e+02
-4.149936e+09 -3.949938e+09 -4.109936e+09 2.121045e+03 3.821744e+02 -2.419176e+01
-4.836402e+09 -4.636404e+09 -4.796402e+09 2.107427e+03 2.203350e+02 -1.212402e+02
-3.966851e+09 -3.766845e+09 -3.926848e+09 -3.261669e+03 -9.908001e+02 -1.780253e+02
-1.878964e+09 -1.678969e+09 -1.838964e+09 3.034269e+02 1.086221e+01 6.515714e+01
-1.847171e+09 -1.647177e+09 -1.807172e+09 -4.939940e+01 1.424734e+00 -4.240793e+01
-4.143367e+09 -3.943362e+09 -4.103367e+09 -1.720417e+03 3.520035e+02 -5.085367e+02
-4.135690e+09 -3.935690e+09 -4.095690e+09 -3.759603e+03 -9.913491e+02 1.062257e+03
-4.822157e+09 -4.622155e+09 -4.782157e+09 -3.752961e+03 3.131428e+02 -5.244137e+02
-3.456238e+09 -3.256243e+09 -3.416238e+09 -3.454797e+01 5.869731e+00 -2.979848e+01
-3.395689e+09 -3.195692e+09 -3.355690e+09 9.344921e+02 -3.735523e+02 4.045159e+02
-4.826730e+09 -4.626724e+09 -4.786730e+09 -1.035212e+03 2.510146e+02 -7.199689e+02
-2.107865e+09 -1.907863e+09 -2.067863e+09 -6.771867e+02 -4.451310e+02 -1.983429e+02
-2.906562e+09 -2.706566e+09 -2.866562e+09 9.900924e+01 2.851168e+01 -6.237642e-01
-3.846653e+09 -3.646658e+09 -3.806654e+09 1.108703e+03 8.577163e+01 -8.395400e+01
-1.582001e+09 -1.382007e+09 -1.542002e+09 -1.550700e+02 1.589331e+02 -5.260775e+01
-2.777495e+09 -2.577500e+09 -2.737496e+09 3.166425e+02 -3.966702e+02 6.569595e+01
-4.798789e+09 -4.598792e+09 -4.758790e+09 8.430853e+02 -4.258805e+02 6.249735e+01
-1.959813e+09 -1.759818e+09 -1.919814e+09 1.013281e+03 2.007358e+02 -4.659356e+01
-1.582001e+09 -1.382007e+09 -1.542002e+09 3.831495e+01 5.541563e+01 -5.052709e+01
-3.201700e+09 -3.001706e+09 -3.161701e+09 2.831900e+02 2.057276e+02 -6.984702e+01
-4.805840e+09 -4.605846e+09 -4.765841e+09 -2.102123e+01 1.884048e+02 1.603336e+01
-3.461540e+09 -3.261537e+09 -3.421538e+09 -1.525536e+02 -4.027868e+02 -8.674196e+01
-4.053222e+09 -3.853219e+09 -4.013221e+09 -1.235687e+02 -2.371149e+02 -8.617033e+00
-3.786213e+09 -3.586210e+09 -3.746211e+09 -8.963383e+01 -2.856456e+02 -2.141817e+01
-3.510864e+09 -3.310861e+09 -3.470863e+09 -6.597804e+02 -5.133809e+02 -2.200079e+02
-4.988023e+09 -4.788022e+09 -4.948022e+09 -1.036683e+02 2.493047e+01 1.800461e+01
-1.636086e+09 -1.436087e+09 -1.596086e+09 -2.011514e+01 -4.760724e+01 -2.583733e+00
-1.699116e+09 -1.499115e+09 -1.659116e+09 -1.298598e+02 -4.347791e+01 -1.277548e+01
-1.616458e+09 -1.416457e+09 -1.576457e+09 -2.516360e+02 -3.775661e+01 -6.218659e+01
-4.820848e+09 -4.620847e+09 -4.780847e+09 -1.092352e+02 2.609971e+01 5.975945e+00
-1.904615e+09 -1.704622e+09 -1.864617e+09 1.125414e+03 -1.310976e+03 2.129977e+02
-3.863263e+09 -3.663262e+09 -3.823262e+09 -1.103130e+02 -3.567346e+00 -4.349886e+01
-4.970425e+09 -4.770424e+09 -4.930425e+09 -1.836061e+02 -3.252815e+00 -4.876571e+01
-1.927159e+09 -1.727158e+09 -1.887159e+09 -1.549916e+02 -5.181506e+01 1.300972e+00
-4.806031e+09 -4.606031e+09 -4.766030e+09 -2.661552e+02 6.210131e+01 -4.940351e+00
-3.486986e+09 -3.286985e+09 -3.446985e+09 -5.047027e+01 -4.080567e+00 -3.586472e+01
-2.698310e+09 -2.498309e+09 -2.658310e+09 -1.238919e+02 -2.987793e+01 -5.566303e+00
-1.586761e+09 -1.386760e+09 -1.546760e+09 -1.505861e+02 -2.818717e+01 -2.965801e+01
-2.074075e+09 -1.874083e+09 -2.034082e+09 -5.001726e+02 -2.090864e+01 9.243175e+02
-3.426340e+09 -3.226348e+09 -3.386346e+09 1.213535e+01 1.943562e+01 1.740748e+02
-2.617307e+09 -2.417307e+09 -2.577307e+09 -1.782520e+01 -4.647416e+01 -3.095693e-01
-2.647049e+09 -2.447050e+09 -2.607051e+09 -4.339206e+02 3.476146e+02 4.506959e+00
-2.527109e+09 -2.327115e+09 -2.487114e+09 -3.707161e+02 -1.398715e+01 5.070120e+02
-2.873071e+09 -2.673069e+09 -2.833072e+09 2.944133e+02 -7.032091e+02 -8.051126e+02
-2.872902e+09 -2.672908e+09 -2.832907e+09 -1.434006e+03 -1.032199e+02 6.861491e+02
-4.989619e+09 -4.789620e+09 -4.949623e+09 -1.633828e+03 -7.568022e+02 -6.362251e+01
-4.993715e+09 -4.793715e+09 -4.953722e+09 -1.816045e+03 -1.135614e+03 -3.053969e+02
-1.889233e+09 -1.689240e+09 -1.849239e+09 -8.072143e+02 2.888342e+01 5.432896e+02
-2.088841e+09 -1.888848e+09 -2.048847e+09 -8.076138e+00 9.238489e+01 2.182015e+02
-4.988225e+09 -4.788225e+09 -4.948225e+09 2.284202e+02 -1.574784e+01 1.088847e+01
-1.841169e+09 -1.641176e+09 -1.801175e+09 -6.321082e+01 1.305946e+02 2.422270e+02
-3.360837e+09 -3.160838e+09 -3.320836e+09 -4.017348e+02 -3.300221e+01 -3.339100e+01
-4.967263e+09 -4.767263e+09 -4.927263e+09 1.087462e+02 -9.615640e+00 3.888516e+00
-3.894815e+09 -3.694815e+09 -3.854814e+09 -1.859901e+02 -1.720631e+00 -2.526464e+01
-3.773571e+09 -3.573572e+09 -3.733571e+09 -1.960048e+02 -9.061516e+00 -6.271008e+01
-4.984806e+09 -4.784806e+09 -4.944805e+09 -2.128240e+02 -1.219297e+01 1.427222e+01
-4.804610e+09 -4.604610e+09 -4.764609e+09 -3.344138e+02 -8.135016e+01 -1.779720e+01
-2.655796e+09 -2.455800e+09 -2.615796e+09 -1.909687e+02 -5.051907e+01 -7.914698e+01
-3.169794e+09 -2.969794e+09 -3.129794e+09 5.643296e+02 -2.691218e+02 4.758866e+01
-4.981707e+09 -4.781711e+09 -4.941708e+09 -5.563241e+02 1.374076e+02 -1.375531e+01
-1.674099e+09 -1.474098e+09 -1.634098e+09 8.344424e+01 -1.886397e+02 -5.188964e+01
-2.762245e+09 -2.562244e+09 -2.722244e+09 4.735117e+02 -2.851516e+02 4.519459e+01
-1.844656e+09 -1.644656e+09 -1.804655e+09 -3.618956e+01 -2.353080e+01 -1.267333e+02
-3.232139e+09 -3.032138e+09 -3.192138e+09 3.619359e+02 -1.130584e+02 -4.761176e+01
-4.453211e+09 -4.253211e+09 -4.413210e+09 -2.170501e+01 4.972407e+00 -2.956844e+01
-4.587857e+09 -4.387858e+09 -4.547857e+09 7.043221e+02 -1.280021e+02 5.881560e+01
-1.636086e+09 -1.436094e+09 -1.596087e+09 -3.361453e+01 -3.133286e+02 4.394910e+01
-2.775399e+09 -2.575407e+09 -2.735402e+09 -1.620463e-01 -2.085036e+02 3.939573e+00
-4.807703e+09 -4.607708e+09 -4.767703e+09 -2.548487e+02 2.606701e+01 -3.643994e+01
-4.103815e+09 -3.903812e+09 -4.063816e+09 -1.931153e+03 -3.793674e+02 1.420271e+03
-4.228720e+09 -4.028724e+09 -4.188720e+09 -3.964465e+02 -4.336643e+01 -2.577957e+01
-4.631734e+09 -4.431740e+09 -4.591735e+09 -2.738486e+02 2.218526e+02 -2.660644e+01
-3.994221e+09 -3.794226e+09 -3.954221e+09 -9.714376e+01 4.032266e+01 -4.966503e+01
-4.833113e+09 -4.633116e+09 -4.793116e+09 1.332280e+03 -4.912807e+02 2.322259e+02
-1.583794e+09 -1.383803e+09 -1.543796e+09 1.125682e+03 -1.420107e+03 1.718918e+02
-2.845036e+09 -2.645035e+09 -2.805035e+09 5.531929e+01 1.164150e+01 1.055526e+01
-4.471571e+09 -4.271570e+09 -4.431570e+09 6.629671e+01 -1.262288e-01 -3.378621e+00
-4.583129e+09 -4.383128e+09 -4.543128e+09 1.987142e+01 7.363859e+00 -1.189720e+01
-4.486996e+09 -4.286999e+09 -4.447005e+09 -2.049257e+03 -2.367668e+03 -4.657287e+02
-4.482213e+09 -4.282212e+09 -4.442212e+09 4.237050e+01 1.963790e+01 1.749753e+01
-1.597615e+09 -1.397621e+09 -1.557616e+09 -1.354994e+03 -1.277750e+03 -2.386103e+02
-3.970788e+09 -3.770792e+09 -3.930798e+09 -1.713747e+03 -2.943427e+03 -6.158871e+02
-1.671023e+09 -1.471032e+09 -1.631025e+09 -1.408054e+01 -2.975052e+02 6.199710e+01
-4.375849e+09 -4.175848e+09 -4.335848e+09 5.527040e+01 1.563340e+01 9.549756e+00
-4.700653e+09 -4.500652e+09 -4.660653e+09 3.053348e+01 1.879897e+00 -2.026602e+01
-1.975865e+09 -1.775874e+09 -1.935868e+09 -2.779509e+00 -1.423570e+03 2.258816e+01
-4.532891e+09 -4.332890e+09 -4.492892e+09 -8.492455e+02 1.564623e+02 2.212471e+00
-4.779003e+09 -4.579002e+09 -4.739002e+09 5.941276e+01 8.667031e-01 -7.391712e+00
-4.732361e+09 -4.532360e+09 -4.692360e+09 2.082052e+01 4.595504e+00 -8.355883e+00
-4.489688e+09 -4.289685e+09 -4.449659e+09 4.707922e+03 -4.372386e+03 -9.999453e+03
-3.992266e+09 -3.792261e+09 -3.952231e+09 4.554742e+03 -7.312708e+03 -7.955478e+03
-4.873137e+09 -4.673132e+09 -4.833096e+09 -1.336553e+03 -2.787768e+02 -4.126971e+03
-4.678732e+09 -4.478732e+09 -4.638707e+09 1.098432e+03 3.302888e+00 -4.223056e+03
-1.674082e+09 -1.474089e+09 -1.634083e+09 -5.122430e+01 1.457826e+02 -4.172322e+01
-4.706645e+09 -4.506651e+09 -4.666647e+09 3.266700e+02 -2.274195e+02 1.182619e+02
-4.753497e+09 -4.553503e+09 -4.713498e+09 2.809354e+02 -5.306690e+01 3.436157e+01
-1.777001e+09 -1.577006e+09 -1.737001e+09 -9.738754e+01 6.716062e+01 -3.181368e+01
-2.319572e+09 -2.119579e+09 -2.279573e+09 1.775100e+02 2.149834e+02 -2.209553e+01
-4.953663e+09 -4.753658e+09 -4.913662e+09 3.733287e+02 3.559778e+01 -7.603496e+01
-4.880302e+09 -4.680300e+09 -4.840273e+09 -1.699882e+03 7.213739e+02 -1.312263e+03
-4.209529e+09 -4.009527e+09 -4.169528e+09 1.078236e+03 1.913822e+02 -1.363046e+02
-4.616073e+09 -4.416069e+09 -4.576073e+09 1.123231e+03 4.074111e+02 -2.667811e+02
-4.186675e+09 -3.986670e+09 -4.146636e+09 1.631974e+02 -1.425366e+03 -3.638084e+03
-2.917215e+09 -2.717214e+09 -2.877215e+09 -2.453124e+02 3.865696e+02 -4.878395e+01
-4.193833e+09 -3.993831e+09 -4.153800e+09 -7.014616e+02 2.470471e+02 -6.698653e+03
-1.872978e+09 -1.672975e+09 -1.832976e+09 1.335667e+03 1.143587e+03 -5.840378e+02
-2.636795e+09 -2.436791e+09 -2.596794e+09 3.129537e+02 4.303416e+02 -6.504557e+02
-4.449036e+09 -4.249036e+09 -4.409036e+09 6.933086e+02 -2.236494e+02 9.360174e+01
-2.590164e+09 -2.390162e+09 -2.550164e+09 -1.613648e+02 -6.160640e+02 -1.268301e+02
-4.257799e+09 -4.057800e+09 -4.217800e+09 9.717496e+02 -3.537370e+02 1.843702e+02
-4.641369e+09 -4.441371e+09 -4.601370e+09 1.043538e+03 -3.711903e+02 1.390789e+02
-3.943041e+09 -3.743042e+09 -3.903042e+09 1.265171e+03 -8.019362e+02 2.740819e+02
-3.981768e+09 -3.781764e+09 -3.941773e+09 -2.047581e+03 -2.299970e+03 -1.694466e+03
-1.640734e+09 -1.440732e+09 -1.600734e+09 -2.992763e+02 -9.585690e+02 -4.896442e+02
-4.770999e+09 -4.571000e+09 -4.730999e+09 9.478285e+02 -3.593177e+02 1.803212e+02
-1.636075e+09 -1.436073e+09 -1.596074e+09 -3.271662e+02 -6.945105e+02 -1.301383e+02
-1.818630e+09 -1.618627e+09 -1.778629e+09 -4.231596e+02 -8.798718e+02 -7.751597e+02
-2.938121e+09 -2.738119e+09 -2.898121e+09 1.137895e+02 -6.499405e+02 -3.468248e+02
-4.082656e+09 -3.882658e+09 -4.042657e+09 1.234097e+03 -6.704948e+02 2.778600e+02
-3.699915e+09 -3.499916e+09 -3.659915e+09 1.099644e+03 -4.900218e+02 1.377227e+02
-3.703868e+09 -3.503868e+09 -3.663867e+09 -1.105992e+02 -5.835256e+01 -5.785324e+01
-3.729380e+09 -3.529383e+09 -3.689381e+09 1.100236e+03 -8.139519e+02 4.367922e+02
-4.650811e+09 -4.450809e+09 -4.610810e+09 -7.132545e+02 -1.428679e+02 -2.251534e+02
-4.961880e+09 -4.761879e+09 -4.921879e+09 -3.120127e+02 -4.843396e+01 -5.364135e+01
-4.476349e+09 -4.276347e+09 -4.436348e+09 -6.434638e+02 -3.409001e+02 -3.809689e+01
-3.369054e+09 -3.169054e+09 -3.329054e+09 -1.036342e+03 -6.153519e+02 -1.505637e+02
-2.219217e+09 -2.019215e+09 -2.179215e+09 -7.219599e+01 -1.104774e+02 2.994177e+00
-4.084534e+09 -3.884531e+09 -4.044532e+09 -1.127443e+02 -1.579969e+02 4.493080e-01
-1.613006e+09 -1.413003e+09 -1.573004e+09 -1.019104e+03 -9.933945e+02 -3.118948e+02
-1.612504e+09 -1.412502e+09 -1.572503e+09 -2.402252e+02 -6.224255e+01 -4.251669e+01
-1.916485e+09 -1.716484e+09 -1.876484e+09 -9.870347e+01 -2.303716e+01 -6.455781e+01
-1.959815e+09 -1.759814e+09 -1.919814e+09 -1.635372e+02 -5.451756e+01 -6.308933e+01
-4.535567e+09 -4.335565e+09 -4.495566e+09 -2.071482e+02 -8.255486e+01 -1.279248e+02
-2.592675e+09 -2.392674e+09 -2.552674e+09 5.293393e+00 -9.732299e+01 -8.105288e+01
-2.919629e+09 -2.719628e+09 -2.879628e+09 -2.199899e+02 -6.260310e+01 -2.750767e+01
-4.010260e+09 -3.810258e+09 -3.970259e+09 -5.452213e+02 -4.243707e+02 -9.849047e+01
-3.645765e+09 -3.445763e+09 -3.605764e+09 -8.749012e+00 -5.111175e+00 3.371490e+00
-4.622425e+09 -4.422431e+09 -4.582428e+09 6.284509e+02 -2.457462e+02 1.140300e+02
-4.805897e+09 -4.605902e+09 -4.765900e+09 8.642421e+02 -5.054551e+02 4.887279e+01
-4.489371e+09 -4.289375e+09 -4.449374e+09 1.372243e+03 -5.980195e+02 2.227268e+02
-4.993242e+09 -4.793246e+09 -4.953244e+09 1.160396e+03 -2.619702e+02 7.404722e+01
-3.101312e+09 -2.901310e+09 -3.061311e+09 -1.997746e+01 -5.636856e+00 -1.434058e+01
-3.895074e+09 -3.695080e+09 -3.855078e+09 7.853036e+02 -1.151070e+03 2.750507e+02
-2.673206e+09 -2.473205e+09 -2.633205e+09 -1.518580e+01 -8.995489e+00 -2.643413e+00
-1.547466e+09 -1.347468e+09 -1.507467e+09 -3.478177e+01 -4.651373e+00 3.528947e+01
-4.470038e+09 -4.270043e+09 -4.430042e+09 9.861297e+02 -6.326082e+02 3.484308e+02
-4.994047e+09 -4.794045e+09 -4.954045e+09 -2.238647e+02 7.974318e+01 7.708483e+01
-4.808601e+09 -4.608599e+09 -4.768600e+09 -1.682776e+02 1.187548e+02 8.192071e+01
-3.948458e+09 -3.748456e+09 -3.908457e+09 -8.097242e+02 5.088306e+01 -2.830999e+01
-4.651254e+09 -4.451254e+09 -4.611254e+09 -1.471105e+03 -3.176759e+01 -2.171091e+01
-4.621846e+09 -4.421844e+09 -4.581845e+09 -5.108391e+02 1.152317e+01 -4.593210e+01
-4.983519e+09 -4.783520e+09 -4.943520e+09 -1.360838e+02 2.171347e+01 -9.857697e+00
-1.879054e+09 -1.679055e+09 -1.839054e+09 -7.175551e+01 -3.389542e+01 3.440255e+01
-4.978156e+09 -4.778154e+09 -4.938155e+09 -7.882348e+02 1.247688e+02 9.881627e+01
-4.807666e+09 -4.607664e+09 -4.767665e+09 -3.162564e+02 -8.428165e+01 -1.021253e+02
-4.998443e+09 -4.798446e+09 -4.958434e+09 5.136321e+03 1.396849e+03 1.043419e+03
-4.137215e+09 -3.937216e+09 -4.097206e+09 -6.558045e+03 -4.077806e+03 4.800860e+03
-4.112869e+09 -3.912873e+09 -4.072860e+09 5.285263e+03 4.099384e+03 4.273612e+03
-4.979474e+09 -4.779482e+09 -4.939465e+09 1.851376e+03 -2.979147e+02 9.282273e+02
-3.677093e+09 -3.477092e+09 -3.637092e+09 -1.189193e+02 -1.082386e+01 -2.403730e+01
-2.843028e+09 -2.643027e+09 -2.803027e+09 3.688868e+00 -1.038002e+01 -2.915044e+00
-4.822159e+09 -4.622154e+09 -4.782158e+09 3.844717e+03 7.802828e+02 -5.839944e+02
-4.657627e+09 -4.457626e+09 -4.617619e+09 5.176264e+03 1.760167e+03 1.801909e+03
-1.879054e+09 -1.679055e+09 -1.839055e+09 -6.370624e+01 -2.904341e+01 -2.876966e+01
-3.404956e+09 -3.204955e+09 -3.364955e+09 -2.100313e+02 -3.952656e+01 -2.987216e+01
-1.692397e+09 -1.492395e+09 -1.652396e+09 -3.716397e+00 -1.394109e+01 -8.762971e+01
-4.998441e+09 -4.798443e+09 -4.958432e+09 4.272767e+03 1.753342e+02 1.374997e+03
-4.672781e+09 -4.472782e+09 -4.632781e+09 4.629652e+03 1.316526e+03 1.533328e+02
-4.319444e+09 -4.119451e+09 -4.279443e+09 3.735643e+03 3.748058e+02 2.580269e+03
-1.589037e+09 -1.389036e+09 -1.549035e+09 -1.085616e+03 -4.290726e+02 -1.115558e+02
-4.141739e+09 -3.941747e+09 -4.101741e+09 3.226748e+03 6.842916e+02 3.083556e+03
-4.993242e+09 -4.793245e+09 -4.953244e+09 8.517386e+02 -3.073896e+02 5.557466e+01
-3.368723e+09 -3.168721e+09 -3.328721e+09 -1.726116e+02 -1.486943e+02 -2.170710e+01
-4.907949e+09 -4.707948e+09 -4.867948e+09 -9.286521e+01 4.001065e-08 -2.412740e+01
-2.072029e+09 -1.872032e+09 -2.032029e+09 -5.044065e+02 1.544459e+02 -9.443363e+01
-4.698935e+09 -4.498933e+09 -4.658933e+09 -5.798142e+01 -1.996975e+01 4.082146e+00
-4.960733e+09 -4.760735e+09 -4.920733e+09 -4.557038e+02 -7.940757e+01 -6.467600e+01
-2.147920e+09 -1.947924e+09 -2.107920e+09 -2.148386e+02 3.284020e+01 -5.633581e+01
-3.003141e+09 -2.803144e+09 -2.963141e+09 -5.425131e+02 1.673687e+02 -9.764565e+01
-1.788621e+09 -1.588623e+09 -1.748620e+09 -5.293672e+02 -5.962180e+01 -9.588294e+01
-4.725642e+09 -4.525642e+09 -4.685641e+09 -2.972439e+02 -1.671482e+02 -5.748391e+01
-2.445430e+09 -2.245433e+09 -2.405430e+09 -5.266174e+02 4.146452e+01 -1.271013e+02
-2.975550e+09 -2.775556e+09 -2.935552e+09 -1.297731e+02 -1.817028e+02 -1.001705e+02
-1.899406e+09 -1.699406e+09 -1.859405e+09 4.247420e+02 -1.752636e+02 -2.766227e+01
-1.636027e+09 -1.436030e+09 -1.596026e+09 -1.224813e+02 -1.916316e+02 3.785642e+01
-2.213229e+09 -2.013229e+09 -2.173228e+09 3.362312e+02 -2.156960e+01 -2.998056e+01
-1.836455e+09 -1.636455e+09 -1.796454e+09 1.784218e+02 -1.818339e+02 -8.680772e+01
-1.775387e+09 -1.575388e+09 -1.735387e+09 6.857557e+02 -4.148241e+02 2.937380e+01
-4.358667e+09 -4.158665e+09 -4.318665e+09 -4.055572e+01 -2.425513e+01 -1.000795e-01
-4.952989e+09 -4.752988e+09 -4.912988e+09 -3.119940e+01 1.423974e+00 -1.947222e+01
-3.922601e+09 -3.722600e+09 -3.882600e+09 -8.438438e+01 -1.120277e+01 -1.485198e+01
-4.765288e+09 -4.565287e+09 -4.725287e+09 -1.002003e+02 -1.839808e+00 9.612464e+00
-2.480078e+09 -2.280078e+09 -2.440077e+09 4.091358e+02 -2.850161e+02 -2.458239e+01
-2.356804e+09 -2.156805e+09 -2.316804e+09 3.850571e+02 -2.734893e+02 -3.811667e+01
-2.866273e+09 -2.666271e+09 -2.826271e+09 -3.736199e+01 -6.417295e+00 -4.268529e+01
-2.526286e+09 -2.326285e+09 -2.486285e+09 -1.046095e+02 -1.825795e+01 -2.590664e+01
-3.181689e+09 -2.981689e+09 -3.141688e+09 1.981469e+02 -1.253743e+02 -3.486686e+01
-2.527393e+09 -2.327393e+09 -2.487392e+09 -2.392964e+01 4.230768e+01 -7.100046e+01
-2.117324e+09 -1.917325e+09 -2.077323e+09 8.954679e+02 -2.845077e+02 -1.814231e+01
-4.255904e+09 -4.055911e+09 -4.215908e+09 4.154845e+02 -5.711153e+02 7.870279e+01
-2.439827e+09 -2.239833e+09 -2.399828e+09 -7.645818e+01 9.819573e+00 -4.059870e+01
-3.319138e+09 -3.119144e+09 -3.279139e+09 -3.378158e+02 3.968373e+01 -2.425038e+01
-2.049096e+09 -1.849102e+09 -2.009097e+09 -8.391051e+01 -5.874158e+01 -2.677602e+01
-3.079874e+09 -2.879880e+09 -3.039875e+09 -2.965413e+02 2.348197e+02 -8.709426e+01
-4.890117e+09 -4.690121e+09 -4.850118e+09 9.008820e+01 8.199834e-08 5.097124e+01
-3.750261e+09 -3.550268e+09 -3.710264e+09 3.376815e+02 -6.366047e+02 9.373845e+01
-2.760039e+09 -2.560045e+09 -2.720039e+09 2.313197e+01 1.015979e+02 -5.789811e+01
-4.813492e+09 -4.613493e+09 -4.773493e+09 4.972473e+02 -1.573521e+01 -1.077290e+01
-4.827569e+09 -4.627569e+09 -4.787569e+09 5.503945e+02 2.726065e+01 1.511217e+01
-4.311039e+09 -4.111039e+09 -4.271039e+09 5.244727e+02 -1.451572e+01 -9.266879e+01
-4.435037e+09 -4.235044e+09 -4.395040e+09 -5.954245e+01 -9.878216e+01 9.382335e-01
-4.953329e+09 -4.753328e+09 -4.913328e+09 -1.060673e+03 -1.825295e+02 -2.602729e+01
-3.965316e+09 -3.765313e+09 -3.925319e+09 -1.576652e+03 -1.340654e+03 -9.589184e+02
-4.136651e+09 -3.936651e+09 -4.096651e+09 5.832742e+02 2.627565e+01 -2.290758e+01
-4.327642e+09 -4.127640e+09 -4.287644e+09 -1.707183e+03 -8.547773e+02 -2.936344e+02
-4.125736e+09 -3.925736e+09 -4.085736e+09 4.452227e+02 1.661219e+01 -5.649375e+01
-3.406892e+09 -3.206893e+09 -3.366892e+09 -9.818282e+02 -7.350188e+02 -2.083685e+02
-4.971131e+09 -4.771129e+09 -4.931132e+09 -1.067453e+03 -2.738459e+02 -1.968596e+02
-3.692173e+09 -3.492176e+09 -3.652177e+09 1.014992e+03 -1.275701e+02 -1.001725e+02
-4.313995e+09 -4.113994e+09 -4.273994e+09 2.137503e+02 1.366922e+01 -2.734769e+00
-4.814670e+09 -4.614670e+09 -4.774670e+09 3.365828e+02 4.176549e+00 -1.703969e+01
-4.479884e+09 -4.279884e+09 -4.439884e+09 5.605259e+02 4.412655e+00 -2.933497e+00
-3.209396e+09 -3.009395e+09 -3.169395e+09 6.907131e+01 1.881855e+01 -2.748715e+01
-2.107795e+09 -1.907800e+09 -2.067795e+09 2.777747e+01 3.014679e+01 -1.340852e+01
-3.948486e+09 -3.748486e+09 -3.908486e+09 4.953116e+02 5.817234e+01 1.149457e+00
-2.227477e+09 -2.027482e+09 -2.187477e+09 5.381564e+01 6.089596e+01 -1.459586e+01
-1.854097e+09 -1.654103e+09 -1.814098e+09 -1.413464e+02 2.200025e+01 -3.969959e+01
-2.884990e+09 -2.684996e+09 -2.844991e+09 -1.936431e+00 9.588311e+01 -7.133169e+01
-2.584161e+09 -2.384161e+09 -2.544161e+09 1.286376e+01 2.360196e+01 -3.256019e+01
-3.901362e+09 -3.701364e+09 -3.861364e+09 3.039589e+02 2.691400e+01 5.567136e+01
-2.038972e+09 -1.838973e+09 -1.998973e+09 1.385241e+02 2.381753e+01 1.022553e+02
-2.715075e+09 -2.515076e+09 -2.675076e+09 4.214370e+01 2.893441e+01 3.482593e+01
-2.456253e+09 -2.256259e+09 -2.416254e+09 3.556013e+01 -3.391898e+01 -2.515822e+00
-3.789084e+09 -3.589085e+09 -3.749085e+09 2.297173e+02 1.159457e+01 -2.579387e+00
-3.952639e+09 -3.752640e+09 -3.912640e+09 3.679487e+02 4.818062e+01 3.146003e+01
-4.995129e+09 -4.795129e+09 -4.955129e+09 6.680863e+02 -2.194127e+01 -3.746072e+01
-3.052986e+09 -2.852991e+09 -3.012986e+09 2.953177e+01 3.889258e+00 -1.257168e+01
-3.008934e+09 -2.808936e+09 -2.968935e+09 3.131681e+02 3.577101e+01 1.286973e+01
-2.766781e+09 -2.566782e+09 -2.726782e+09 9.594212e+01 1.309167e-01 1.273295e+01
-4.137434e+09 -3.937434e+09 -4.097436e+09 1.646759e+03 -1.135514e+03 8.164433e+02
-1.868806e+09 -1.668807e+09 -1.828807e+09 5.766199e+01 2.716208e+01 2.553876e+01
-3.967102e+09 -3.767101e+09 -3.927101e+09 1.187827e+01 2.141826e+01 -6.060365e+01
-3.791187e+09 -3.591188e+09 -3.751188e+09 6.281668e+01 2.436164e+01 -4.699320e+00
-4.645985e+09 -4.445984e+09 -4.605984e+09 -3.973404e+02 9.616393e+00 -6.306087e+01
-1.751380e+09 -1.551381e+09 -1.711381e+09 2.603590e+02 4.985077e+01 2.705103e+01
-3.965072e+09 -3.765073e+09 -3.925072e+09 -1.222979e+03 -3.245773e+01 -7.860973e+01
-1.594954e+09 -1.394955e+09 -1.554955e+09 9.179957e+01 4.067307e+01 7.813621e+00
-4.833442e+09 -4.633442e+09 -4.793441e+09 -5.243604e+02 1.698552e+01 -9.088623e+00
-2.468412e+09 -2.268414e+09 -2.428413e+09 1.158489e+02 2.705537e+01 -2.274760e+01
-3.157643e+09 -2.957642e+09 -3.117642e+09 -4.078957e+01 9.166775e-01 -3.116603e+01
-3.412847e+09 -3.212847e+09 -3.372846e+09 -8.804497e+01 -6.993799e+01 -6.591134e+01
-4.653575e+09 -4.453574e+09 -4.613574e+09 8.624533e+01 8.381224e+00 -4.106157e+01
-4.969522e+09 -4.769525e+09 -4.929523e+09 7.849754e+02 -2.875684e+02 4.315177e+00
-4.782628e+09 -4.582629e+09 -4.742629e+09 -2.759346e+02 -2.368921e+01 -1.366703e+01
-4.829060e+09 -4.629059e+09 -4.789059e+09 -2.878621e+01 -1.108734e+01 -3.612325e+01
-3.958325e+09 -3.758324e+09 -3.918324e+09 -3.301231e+02 -3.479294e+01 -5.943590e+01
-3.956238e+09 -3.756237e+09 -3.916237e+09 -1.997436e+02 2.623505e+01 -8.328510e+01
-4.639997e+09 -4.439999e+09 -4.599998e+09 -6.998869e+00 2.091693e+00 4.698537e+00
-3.965306e+09 -3.765308e+09 -3.925308e+09 -1.600291e+02 5.385406e+00 -1.304010e+01
-1.762327e+09 -1.562329e+09 -1.722328e+09 2.657932e+01 -5.858750e+00 2.038012e+01
-4.445805e+09 -4.245807e+09 -4.405806e+09 -2.292837e+02 -6.944154e+00 -5.222917e+00
-4.995914e+09 -4.795916e+09 -4.955916e+09 1.166791e+02 -9.596695e+00 -6.484031e+01
-4.296764e+09 -4.096766e+09 -4.256765e+09 6.909785e+00 -2.544173e-02 1.142219e+01
-4.995005e+09 -4.795007e+09 -4.955006e+09 -9.765560e+01 -6.278576e+00 -1.258598e+01
-4.983230e+09 -4.783231e+09 -4.943231e+09 -2.981531e+00 -1.414449e+00 1.242455e+01
-3.061961e+09 -2.861962e+09 -3.021962e+09 -3.494805e+02 -4.566719e+01 3.093462e+01
-4.647768e+09 -4.447769e+09 -4.607769e+09 -7.267228e+02 -2.209806e+01 7.914255e+01
-2.584277e+09 -2.384279e+09 -2.544278e+09 -1.267742e+01 -1.304955e+01 1.383720e+01
-3.965306e+09 -3.765309e+09 -3.925308e+09 -7.394595e+01 6.128939e+00 -1.030148e+01
-2.502342e+09 -2.302343e+09 -2.462343e+09 -1.128587e+01 -2.823219e+01 7.721997e+00
-3.967187e+09 -3.767190e+09 -3.927187e+09 -1.372078e+03 8.969527e+01 -3.802145e+01
-4.655191e+09 -4.455194e+09 -4.615191e+09 -8.905021e+02 2.610470e+01 -4.356466e+01
-3.273814e+09 -3.073814e+09 -3.233813e+09 -5.997022e+02 4.564117e+01 -4.308086e+01
-4.655403e+09 -4.455402e+09 -4.615402e+09 -5.476440e+02 -2.795300e+01 -5.282642e+01
-3.823877e+09 -3.623876e+09 -3.783876e+09 1.095909e+01 6.512133e+00 -5.238025e+01
-4.302753e+09 -4.102752e+09 -4.262752e+09 -4.002952e+02 8.907204e+01 1.382823e+01
-4.897910e+09 -4.697912e+09 -4.857912e+09 -1.589194e+02 3.140805e+00 2.453943e+01
-4.136707e+09 -3.936709e+09 -4.096708e+09 -2.411943e+02 -2.261997e+01 3.263078e+01
-4.651856e+09 -4.451856e+09 -4.611855e+09 -1.220544e+03 -1.436303e+00 -1.448364e+01
-4.789038e+09 -4.589039e+09 -4.749039e+09 -3.083506e+02 7.794970e+00 -4.817363e+01
-1.636087e+09 -1.436087e+09 -1.596086e+09 3.372688e+01 7.410600e+00 -8.078851e+01
-4.779906e+09 -4.579907e+09 -4.739907e+09 -1.466713e+02 6.873512e+00 -2.373544e+01
-3.538993e+09 -3.338990e+09 -3.498993e+09 -2.674736e+02 3.806076e+02 -3.138156e+02
-1.674920e+09 -1.474924e+09 -1.634921e+09 -9.256053e+02 1.005765e+02 -1.162391e+02
-4.120391e+09 -3.920389e+09 -4.080390e+09 -3.139751e+01 1.260097e+02 4.058034e+01
-4.990875e+09 -4.790874e+09 -4.950874e+09 -5.088715e+02 2.481545e+01 3.584010e+01
-1.636094e+09 -1.436096e+09 -1.596094e+09 1.104218e+01 1.176259e+01 -1.405966e+02
-4.263100e+09 -4.063097e+09 -4.223098e+09 -1.675146e+02 4.321820e+01 6.167270e+01
-3.965282e+09 -3.765285e+09 -3.925282e+09 -1.842822e+03 2.198126e+02 7.282163e+01
-4.484658e+09 -4.284660e+09 -4.444658e+09 -1.787907e+03 1.417890e+02 2.800342e+01
-4.313854e+09 -4.113858e+09 -4.273855e+09 -1.158966e+03 1.908937e+02 8.067604e+01
-4.127759e+09 -3.927762e+09 -4.087760e+09 -1.879601e+03 1.711157e+02 5.041852e+01
-3.040793e+09 -2.840792e+09 -3.000794e+09 1.004009e+02 2.850192e+02 2.559788e+02
-4.822644e+09 -4.622645e+09 -4.782643e+09 -1.208059e+03 9.504391e+01 4.818363e+01
-4.631981e+09 -4.431980e+09 -4.591980e+09 -1.097358e+03 5.877548e+01 -1.205875e+01
-2.648793e+09 -2.448792e+09 -2.608793e+09 -3.043641e+02 4.445479e+02 -3.812776e+02
-1.679140e+09 -1.479138e+09 -1.639141e+09 1.388083e+03 -4.124998e+02 -9.718624e+02
-4.802066e+09 -4.602059e+09 -4.762067e+09 2.518793e+03 -5.417503e+02 -1.033229e+03
-3.950877e+09 -3.750861e+09 -3.910860e+09 3.028795e+03 8.673843e+03 -9.474058e+02
-3.955571e+09 -3.755565e+09 -3.915574e+09 3.211209e+03 9.025324e+02 -7.411455e+02
-2.381193e+09 -2.181190e+09 -2.341192e+09 -1.113796e+03 -1.474509e+03 -8.909676e+02
-2.753273e+09 -2.553279e+09 -2.713279e+09 9.704629e+02 -6.774069e+01 1.063789e+02
-3.775735e+09 -3.575732e+09 -3.735736e+09 1.734334e+02 -5.384468e+02 -4.623793e+02
-3.973875e+09 -3.773871e+09 -3.933877e+09 8.225239e+02 -7.153602e+02 -1.109514e+03
-4.824868e+09 -4.624864e+09 -4.784870e+09 1.746867e+03 -3.103482e+02 -2.442427e+02
-3.004967e+09 -2.804965e+09 -2.964967e+09 -1.921168e+02 -4.998030e+02 -2.042047e+02
-1.588624e+09 -1.388623e+09 -1.548623e+09 4.890063e+01 -2.111731e+01 -8.407439e+01
-2.423054e+09 -2.223053e+09 -2.383055e+09 -6.733714e+02 3.666501e+02 -3.380798e+01
-2.580039e+09 -2.380041e+09 -2.540042e+09 -4.088024e+02 2.597385e+02 4.450088e+02
-4.490095e+09 -4.290086e+09 -4.450078e+09 -4.891960e+03 -4.424775e+03 5.289408e+02
-3.409144e+09 -3.209148e+09 -3.369148e+09 -8.481043e+02 1.210623e+02 -4.087570e+02
-2.174348e+09 -1.974348e+09 -2.134349e+09 9.886172e+00 2.502908e+02 -6.960349e+01
-4.460995e+09 -4.260983e+09 -4.420976e+09 -5.385943e+03 -4.321652e+03 5.696804e+02
-1.648974e+09 -1.448975e+09 -1.608974e+09 4.511111e-01 -7.561081e+01 -1.387467e+02
-1.680550e+09 -1.480547e+09 -1.640551e+09 -1.933316e+03 3.031653e+02 -2.456008e+02
-2.877999e+09 -2.678001e+09 -2.837999e+09 9.026963e+02 -5.765140e+02 1.234890e+02
-2.903712e+09 -2.703716e+09 -2.863713e+09 9.962466e+02 -6.385305e+02 2.089304e+02
-2.446199e+09 -2.246203e+09 -2.406200e+09 1.041318e+03 -5.355747e+02 4.616277e+01
-2.113739e+09 -1.913744e+09 -2.073740e+09 1.251628e+03 -1.127911e+03 3.750522e+02
-2.721101e+09 -2.521105e+09 -2.681102e+09 7.770175e+02 -2.740534e+02 2.774382e+01
-1.611328e+09 -1.411332e+09 -1.571328e+09 4.835056e+02 -2.038673e+02 5.043662e+00
-2.806955e+09 -2.606955e+09 -2.766954e+09 -1.253885e+02 -9.535867e+00 -6.751932e+01
-2.217021e+09 -2.017021e+09 -2.177020e+09 -7.300672e+01 -1.412773e+01 -7.138188e+01
-4.464488e+09 -4.264479e+09 -4.424486e+09 -4.348665e+03 -1.304308e+03 -7.783217e+02
-3.966850e+09 -3.766847e+09 -3.926850e+09 -1.876124e+03 5.792962e+02 -8.171404e+02
-3.968892e+09 -3.768894e+09 -3.928897e+09 -3.009825e+03 1.819596e+03 7.959212e+02
-4.296647e+09 -4.096646e+09 -4.256650e+09 -2.779098e+03 1.279697e+03 5.900411e+02
-4.289357e+09 -4.089350e+09 -4.249361e+09 1.543426e+03 2.111491e+03 -1.683923e+03
-3.961601e+09 -3.761606e+09 -3.921605e+09 -2.121046e+03 1.601509e+03 2.859103e+02
-4.992105e+09 -4.792104e+09 -4.952105e+09 -1.074637e+03 1.558868e+01 -3.119725e+01
-4.830853e+09 -4.630854e+09 -4.790854e+09 -1.548284e+03 -7.040468e+01 9.652996e+01
-3.949736e+09 -3.749735e+09 -3.909736e+09 -1.570068e+03 -8.004475e+01 1.854869e+02
-5.006625e+09 -4.806624e+09 -4.966625e+09 7.294547e+01 -7.593131e+01 1.004295e+02
-4.649076e+09 -4.449073e+09 -4.609076e+09 -7.233515e+02 -1.142855e+02 9.337682e+01
-1.584033e+09 -1.384033e+09 -1.544032e+09 1.689570e+02 -5.351049e+01 -1.450940e+02
-2.697970e+09 -2.497970e+09 -2.657969e+09 -2.100649e+02 2.977655e+01 -7.460460e+01
-3.949735e+09 -3.749734e+09 -3.909736e+09 -1.954111e+03 -9.133553e+01 1.958336e+02
-4.463264e+09 -4.263263e+09 -4.423264e+09 -1.493392e+03 -3.460199e+01 6.125048e+01
-4.996298e+09 -4.796297e+09 -4.956298e+09 -6.899223e+02 3.534623e+01 -3.778909e+01
-3.961340e+09 -3.761339e+09 -3.921340e+09 -1.255264e+03 -1.749466e+02 1.586443e+02
-4.622577e+09 -4.422574e+09 -4.582578e+09 -3.602352e+02 -2.119026e+02 2.300395e+02
-4.800618e+09 -4.600616e+09 -4.760618e+09 -5.975601e+02 -1.797051e+02 -7.547817e+01
-4.981622e+09 -4.781619e+09 -4.941623e+09 -1.759648e+03 -4.926210e+02 4.257483e+02
-4.290522e+09 -4.090521e+09 -4.250521e+09 -6.972541e+01 9.037803e+01 3.476536e+01
-4.982657e+09 -4.782648e+09 -4.942665e+09 5.670768e+02 1.328160e+03 -1.068649e+03
-4.827000e+09 -4.627002e+09 -4.787006e+09 -2.641313e+03 8.965110e+02 4.821594e+02
-2.735720e+09 -2.535719e+09 -2.695719e+09 -7.749229e+01 7.199609e+01 -5.953635e+01
-2.437798e+09 -2.237798e+09 -2.397797e+09 -2.150752e+02 7.578026e+01 -1.242933e+02
-4.502310e+09 -4.302314e+09 -4.462312e+09 2.142583e+03 4.247651e+02 -1.412629e+02
-2.652105e+09 -2.452104e+09 -2.612104e+09 -1.417232e+02 -4.905163e+01 -7.512985e+01
-3.964550e+09 -3.764557e+09 -3.924557e+09 1.454932e+03 1.860879e+03 -2.729788e+02
-3.961104e+09 -3.761111e+09 -3.921108e+09 -1.402237e+02 1.263980e+03 -5.579044e+01
-1.772559e+09 -1.572559e+09 -1.732558e+09 -1.136525e+02 2.111013e+01 -8.100368e+01
-3.981431e+09 -3.781430e+09 -3.941430e+09 -1.795628e+02 -2.954430e+01 -4.650107e+01
-2.613544e+09 -2.413543e+09 -2.573543e+09 -6.691381e+01 -2.152285e+01 -6.813346e+01
-2.212283e+09 -2.012281e+09 -2.172282e+09 -1.200300e+02 -1.735748e+01 -4.152744e+01
-4.559145e+09 -4.359143e+09 -4.519144e+09 -1.840927e+02 -2.278346e+01 -5.994298e+01
-3.108389e+09 -2.908388e+09 -3.068388e+09 -1.297607e+01 -7.404072e+00 -4.972645e+01
-4.459138e+09 -4.259132e+09 -4.419152e+09 3.812657e+02 2.525906e+03 1.954522e+03
-3.180607e+09 -2.980605e+09 -3.140606e+09 -2.275444e+02 -3.521767e+01 -2.854361e+01
-4.491665e+09 -4.291651e+09 -4.451675e+09 -1.044162e+03 -2.082268e+03 2.422750e+02
-4.477506e+09 -4.277509e+09 -4.437499e+09 -4.421655e+02 -2.082986e+03 -3.004394e+03
-4.133995e+09 -3.933987e+09 -4.094004e+09 -8.836678e+02 -3.241542e+03 -2.182369e+03
-2.805869e+09 -2.605867e+09 -2.765868e+09 1.127277e+02 2.295508e+01 5.117312e+00
-2.850324e+09 -2.650323e+09 -2.810324e+09 5.295659e+01 1.839491e+01 -1.150368e+01
-1.874654e+09 -1.674653e+09 -1.834653e+09 4.157637e+01 1.846914e+01 -2.109537e+00
-3.956992e+09 -3.756996e+09 -3.916999e+09 1.364440e+03 -2.625518e+03 8.091697e+02
-4.826638e+09 -4.626637e+09 -4.786637e+09 8.401160e+01 6.881155e+01 4.289166e+01
-4.983272e+09 -4.783269e+09 -4.943286e+09 -1.067926e+03 -1.938316e+03 2.210033e+02
-3.956835e+09 -3.756834e+09 -3.916840e+09 1.497066e+03 -1.635142e+03 1.448162e+03
-4.717614e+09 -4.517614e+09 -4.677613e+09 6.713940e+02 -4.945359e+01 4.998273e+01
-4.763099e+09 -4.563099e+09 -4.723098e+09 7.260472e+02 1.932600e+01 -5.820265e+01
-4.645659e+09 -4.445660e+09 -4.605667e+09 9.422934e+02 -1.061500e+03 6.585639e+02
-4.946668e+09 -4.746667e+09 -4.906666e+09 2.947744e+02 2.066166e+01 -1.646676e+00
-3.971553e+09 -3.771550e+09 -3.931552e+09 -9.064862e+02 1.031826e+02 2.903331e+01
-3.178837e+09 -2.978837e+09 -3.138835e+09 5.179864e+02 1.517309e+02 2.417105e+01
-4.311776e+09 -4.111774e+09 -4.271776e+09 -1.311765e+03 3.520826e+02 1.444149e+02
-4.758031e+09 -4.558032e+09 -4.718029e+09 2.727845e+02 3.740409e+01 2.590797e+01
-4.729043e+09 -4.529043e+09 -4.689041e+09 2.292418e+02 2.847478e+01 -4.298504e+01
-4.606108e+09 -4.406109e+09 -4.566107e+09 5.674379e+02 1.254609e+01 8.371252e+01
-3.971553e+09 -3.771551e+09 -3.931552e+09 -1.409428e+03 3.572250e+02 3.504367e+02
-4.978156e+09 -4.778155e+09 -4.938155e+09 -1.228806e+03 9.817680e+01 9.056524e+01
-4.654324e+09 -4.454328e+09 -4.614330e+09 -2.648819e+03 8.284385e+02 4.552242e+02
-4.619129e+09 -4.419127e+09 -4.579130e+09 -2.771398e+03 2.138849e+02 2.281488e+02
-4.457405e+09 -4.257405e+09 -4.417403e+09 2.044906e+02 1.488653e+01 4.761045e+00
-4.990035e+09 -4.790033e+09 -4.950035e+09 -1.273540e+03 -2.776450e+01 9.583924e+01
-4.974012e+09 -4.774010e+09 -4.934011e+09 -2.600976e+03 5.773351e+01 -1.586140e+02
-4.984545e+09 -4.784539e+09 -4.944551e+09 -2.532589e+03 -1.127699e+03 6.105743e+02
-4.029789e+09 -3.829790e+09 -3.989788e+09 7.126233e+02 8.861756e+01 -3.751560e+01
-3.948419e+09 -3.748425e+09 -3.908424e+09 1.665592e+03 2.015536e+02 4.862462e+02
-3.969610e+09 -3.769608e+09 -3.929611e+09 -1.931712e+03 -2.883568e+01 3.973946e+02
-4.275896e+09 -4.075895e+09 -4.235897e+09 -2.771596e+03 1.887103e+02 1.115102e+02
-3.960337e+09 -3.760335e+09 -3.920337e+09 -1.024522e+03 -2.842534e+02 3.959834e+02
-4.814768e+09 -4.614767e+09 -4.774768e+09 -1.776981e+03 -1.020576e+02 2.702779e+02
-4.722328e+09 -4.522336e+09 -4.682333e+09 -2.926156e+02 1.050653e+02 4.622769e+00
-4.627591e+09 -4.427597e+09 -4.587596e+09 2.988366e+02 3.493105e+01 1.792506e+02
-3.849721e+09 -3.649726e+09 -3.809725e+09 5.672458e+02 -1.701395e+01 2.770045e+02
-4.985982e+09 -4.785974e+09 -4.945931e+09 -1.893617e+02 1.287055e+03 7.957694e+02
-4.116113e+09 -3.916100e+09 -4.076077e+09 1.062245e+03 6.807031e+03 3.186498e+03
-4.629050e+09 -4.429048e+09 -4.589049e+09 -9.611247e+02 3.379047e-01 3.186966e+01
-1.575896e+09 -1.375896e+09 -1.535895e+09 2.723115e+02 -6.144982e+01 -1.294168e+02
-3.953574e+09 -3.753573e+09 -3.913586e+09 -2.324501e+02 -3.711853e+03 1.271670e+03
-4.966802e+09 -4.766794e+09 -4.926783e+09 -3.705939e+03 8.754094e+02 5.097758e+02
-4.150684e+09 -3.950673e+09 -4.110632e+09 -1.349649e+03 7.284040e+03 -2.724596e+03
-4.275790e+09 -4.075780e+09 -4.235758e+09 -4.800686e+03 -4.612292e+03 2.312953e+03
-4.324133e+09 -4.124125e+09 -4.284067e+09 5.995116e+02 -1.582158e+03 -2.401739e+02
-4.985111e+09 -4.785106e+09 -4.945057e+09 -1.269624e+02 5.376741e+01 1.549677e+03
-2.062852e+09 -1.862858e+09 -2.022853e+09 8.294494e+02 -7.980005e+02 1.431829e+02
-3.992608e+09 -3.792601e+09 -3.952589e+09 -4.517187e+03 5.054184e+03 -5.760215e+03
-2.825753e+09 -2.625760e+09 -2.785755e+09 1.180450e+02 -5.407995e+01 8.256536e+01
-4.134280e+09 -3.934269e+09 -4.094281e+09 -1.694177e+03 3.333114e+02 4.761282e+03
-4.986132e+09 -4.786131e+09 -4.946123e+09 2.298380e+03 -8.264112e+02 -1.537895e+03
-3.977497e+09 -3.777490e+09 -3.937496e+09 -7.681844e+02 4.809311e+02 1.420683e+03
-3.991975e+09 -3.791972e+09 -3.951973e+09 1.407728e+03 -2.099331e+02 -2.161626e+02
-2.620261e+09 -2.420269e+09 -2.580264e+09 1.331542e+03 -1.184228e+03 4.954914e+02
-4.140404e+09 -3.940404e+09 -4.100414e+09 -1.611582e+03 -3.930639e+03 -8.190659e+02
-1.790206e+09 -1.590213e+09 -1.750207e+09 9.889536e+02 -1.080481e+03 3.077714e+02
-2.165691e+09 -1.965699e+09 -2.125693e+09 9.728958e+01 -3.204675e+02 -5.044698e+01
-4.820741e+09 -4.620738e+09 -4.780735e+09 3.744366e+03 -2.281080e+02 -8.375832e+02
-4.890117e+09 -4.690120e+09 -4.850117e+09 -4.716621e+01 -9.950440e-05 3.374505e+01
-4.971808e+09 -4.771804e+09 -4.931807e+09 -8.122898e+02 1.904745e+02 1.335643e+02
-2.714769e+09 -2.514777e+09 -2.674772e+09 7.347153e+02 -1.787240e+03 2.110278e+02
-2.024580e+09 -1.824588e+09 -1.984582e+09 1.211938e+02 -1.039157e+03 4.504795e+01
-3.828705e+09 -3.628701e+09 -3.788705e+09 -8.462724e+02 1.455261e+02 -5.239359e+02
-3.237175e+09 -3.037172e+09 -3.197175e+09 -4.742879e+02 3.452833e+02 -3.076385e+02
-2.185238e+09 -1.985240e+09 -2.145237e+09 -8.858872e+02 1.275044e+01 -4.619211e+01
-3.717944e+09 -3.517940e+09 -3.677944e+09 4.421303e+02 6.318551e+02 -5.731315e+02
-2.769946e+09 -2.569944e+09 -2.729946e+09 -2.277974e+02 4.160323e+02 -1.009405e+02
-2.333162e+09 -2.133168e+09 -2.293163e+09 6.263896e+02 2.839972e+02 4.608078e+01
-5.008158e+09 -4.808164e+09 -4.968160e+09 9.474254e+02 8.024267e+01 2.544934e+01
-1.582185e+09 -1.382181e+09 -1.542182e+09 1.299063e+03 9.569129e+02 -6.595342e+02
-4.486598e+09 -4.286595e+09 -4.446599e+09 -2.436010e+03 -3.541374e+02 2.952523e+02
-1.674065e+09 -1.474070e+09 -1.634065e+09 -7.822793e+02 1.146389e+02 -1.029650e+02
-3.461705e+09 -3.261711e+09 -3.421707e+09 -5.682673e+02 1.783723e+02 -4.945126e+00
-3.049926e+09 -2.849922e+09 -3.009925e+09 6.060131e+01 6.769176e+02 -6.200236e+02
-3.731503e+09 -3.531506e+09 -3.691503e+09 -6.973304e+02 -5.771241e+02 -1.157878e+02
-3.437874e+09 -3.237878e+09 -3.397874e+09 -8.764027e+02 1.347393e+02 -4.778926e+00
-4.515228e+09 -4.315232e+09 -4.475228e+09 -4.157122e+02 2.292906e+01 -4.510205e+01
-2.910572e+09 -2.710577e+09 -2.870573e+09 -7.475727e+02 1.851799e+02 -5.693681e+01
-3.970621e+09 -3.770625e+09 -3.930622e+09 -1.362766e+03 4.123518e+02 7.948686e+01
-2.914911e+09 -2.714910e+09 -2.874910e+09 1.537047e+02 2.446858e+01 -2.392763e+01
-2.204200e+09 -2.004199e+09 -2.164199e+09 7.253518e+01 1.087981e+01 -1.620762e+00
-2.938374e+09 -2.738373e+09 -2.898373e+09 7.033086e+01 1.952788e+00 -2.926730e+01
-2.988920e+09 -2.788922e+09 -2.948920e+09 -9.171729e+02 -5.543487e+02 -2.273020e+02
-1.879863e+09 -1.679863e+09 -1.839863e+09 2.006480e+02 3.358953e+01 1.857444e+01
-1.588599e+09 -1.388598e+09 -1.548598e+09 6.834407e+01 2.946654e+01 -5.545769e+01
-4.634770e+09 -4.434769e+09 -4.594769e+09 9.722026e+01 1.364554e+01 -5.275858e+00
-4.084729e+09 -3.884728e+09 -4.044728e+09 1.140588e+02 1.583660e+01 -1.314595e+01
-4.968060e+09 -4.768059e+09 -4.928059e+09 5.807264e+01 4.542894e+00 -1.064383e+01
-4.147813e+09 -3.947812e+09 -4.107812e+09 1.719538e+02 8.796761e+00 -1.555857e+01
-3.227596e+09 -3.027596e+09 -3.187596e+09 1.936665e+02 1.294585e+01 -3.514397e+01
-3.309508e+09 -3.109509e+09 -3.269507e+09 -4.323157e+02 -2.624531e+02 2.259460e+01
-4.307684e+09 -4.107686e+09 -4.267695e+09 -9.996325e+02 -3.761023e+03 1.146858e+00
-2.636775e+09 -2.436776e+09 -2.596775e+09 2.444791e+02 6.409703e+01 -8.095818e+00
-3.661930e+09 -3.461932e+09 -3.621930e+09 -4.948928e+02 -4.015294e+02 -1.811445e+02
-3.774611e+09 -3.574611e+09 -3.734611e+09 3.337992e+02 2.406841e+01 1.425120e+01
-2.744257e+09 -2.544257e+09 -2.704257e+09 1.421304e+02 1.123499e+01 -1.055855e+01
-1.847146e+09 -1.647146e+09 -1.807146e+09 7.901045e+01 3.061703e+01 3.504825e+01
-1.827418e+09 -1.627418e+09 -1.787418e+09 6.660208e+01 3.251522e+01 -3.535507e+01
-4.203887e+09 -4.003886e+09 -4.163886e+09 -1.716461e+02 -8.046836e+00 -1.236761e+01
-4.281553e+09 -4.081551e+09 -4.241552e+09 -2.727543e+02 -6.344638e+01 -9.045650e+00
-4.811910e+09 -4.611909e+09 -4.771909e+09 -3.422672e+02 -1.538662e+01 5.114635e+01
-1.581653e+09 -1.381653e+09 -1.541653e+09 1.878306e+02 4.432251e+01 -1.832516e+01
-3.284921e+09 -3.084920e+09 -3.244920e+09 1.030480e+02 7.102685e+00 -1.289388e+01
-3.942832e+09 -3.742831e+09 -3.902831e+09 -3.554140e+02 -4.812593e+01 -2.297535e+01
-1.891973e+09 -1.691973e+09 -1.851973e+09 2.997145e+02 3.958291e+01 2.567742e+01
-3.140542e+09 -2.940541e+09 -3.100541e+09 -2.273834e+02 -5.093698e+01 -3.278030e+01
-4.349984e+09 -4.149982e+09 -4.309983e+09 -2.597134e+02 -2.124506e+01 1.572118e+00
-4.622285e+09 -4.422284e+09 -4.582284e+09 -2.178524e+00 0.000000e+00 -9.826238e-01
-2.741506e+09 -2.541503e+09 -2.701505e+09 -3.706517e+02 -4.401383e+02 -1.209704e+02
-4.936062e+09 -4.736060e+09 -4.896061e+09 -1.619330e+01 4.508749e+00 3.593533e+00
-4.335504e+09 -4.135500e+09 -4.295486e+09 2.400751e+03 -5.258322e+03 -8.565075e+02
-4.786629e+09 -4.586627e+09 -4.746628e+09 -7.749001e+02 -1.756805e+02 8.247864e+01
-4.622285e+09 -4.422284e+09 -4.582284e+09 -1.073833e+01 9.859562e-01 -4.973799e-05
-4.018442e+09 -3.818438e+09 -3.978441e+09 8.933226e+01 -3.952108e+02 -1.445281e+02
-4.642477e+09 -4.442476e+09 -4.602476e+09 -3.216760e+01 -3.122203e+00 -3.154135e+00
-4.014068e+09 -3.814065e+09 -3.974067e+09 -5.349655e+02 -3.649686e+02 -1.855818e+02
-4.280909e+09 -4.080907e+09 -4.240909e+09 -8.911991e+02 -6.034235e+02 -2.378683e+01
-3.902687e+09 -3.702685e+09 -3.862686e+09 -3.252543e+01 -5.681969e+00 -1.768163e+01
-2.579121e+09 -2.379120e+09 -2.539120e+09 -4.672751e+01 -7.080203e+00 6.721319e+00
-4.107397e+09 -3.907395e+09 -4.067397e+09 -9.705657e+02 -6.196706e+02 -4.539594e+02
-3.841490e+09 -3.641487e+09 -3.801489e+09 -8.174757e+02 -5.550660e+02 -2.067073e+02
-3.525889e+09 -3.325886e+09 -3.485888e+09 -8.838363e+02 -7.730481e+02 -5.319271e+02
-4.678484e+09 -4.478485e+09 -4.638487e+09 3.922998e+02 -7.696061e+01 2.414914e+02
-1.913605e+09 -1.713602e+09 -1.873604e+09 -4.394884e+02 -9.687685e+02 -6.094165e+02
-4.419657e+09 -4.219658e+09 -4.379660e+09 4.246023e+01 -1.149590e+02 -1.083547e+01
-4.115853e+09 -3.915850e+09 -4.075867e+09 2.017657e+03 5.514989e+03 -2.150937e+03
-3.999654e+09 -3.799652e+09 -3.959655e+09 -1.377504e+02 -2.535047e+02 1.085796e+02
-1.581549e+09 -1.381552e+09 -1.541553e+09 1.221500e+03 -1.735185e+02 -2.733120e+02
-4.450630e+09 -4.250627e+09 -4.410629e+09 -4.749644e+02 -3.650828e+02 -4.389087e+01
-4.609691e+09 -4.409687e+09 -4.569691e+09 -1.710692e+02 -3.918151e+02 -2.154646e+02
-4.974234e+09 -4.774232e+09 -4.934235e+09 5.023940e+02 -1.117699e+02 -2.197916e+02
-4.873521e+09 -4.673527e+09 -4.833526e+09 5.094144e+02 -2.435005e+01 2.120679e+01
-4.825379e+09 -4.625380e+09 -4.785380e+09 2.493834e+03 2.939669e+02 -2.498888e+02
-4.969522e+09 -4.769525e+09 -4.929523e+09 4.168862e+02 -2.839457e+01 9.053721e+01
-4.312765e+09 -4.112765e+09 -4.272766e+09 2.640905e+03 7.634076e+02 -4.380863e+02
-4.511546e+09 -4.311549e+09 -4.471546e+09 1.960606e+03 8.802926e+01 -5.115756e+01
-4.981036e+09 -4.781035e+09 -4.941036e+09 2.916622e+02 -9.526706e+01 6.373004e+01
-4.168314e+09 -3.968317e+09 -4.128314e+09 2.133276e+03 5.178965e+02 -2.066983e+02
-1.851176e+09 -1.651175e+09 -1.811175e+09 9.085105e+01 4.116255e+01 1.514099e+00
-4.861815e+09 -4.661818e+09 -4.821816e+09 2.411066e+03 2.775514e+02 -5.287583e+01
-5.014392e+09 -4.814394e+09 -4.974393e+09 2.063316e+03 2.306918e+02 -1.269546e+02
-3.061382e+09 -2.861380e+09 -3.021381e+09 -8.047905e+00 6.790479e-01 -1.021307e+01
-3.233479e+09 -3.033477e+09 -3.193478e+09 -2.654497e+01 -1.036657e+01 -1.018239e+01
-2.777654e+09 -2.577653e+09 -2.737653e+09 -1.429689e+01 -8.634093e+00 4.947413e+00
-3.358225e+09 -3.158224e+09 -3.318224e+09 -5.633708e+01 -5.799105e+00 -7.379368e+00
-1.636074e+09 -1.436073e+09 -1.596073e+09 -4.784795e-02 3.333777e+01 -6.682249e+00
-3.144152e+09 -2.944150e+09 -3.104151e+09 -1.588808e+01 -2.146102e+01 4.159715e+01
-2.863744e+09 -2.663743e+09 -2.823744e+09 -5.740625e+01 -2.285533e+01 3.349605e+00
-3.366111e+09 -3.166109e+09 -3.326110e+09 3.144630e+01 1.456276e+00 -3.772226e+00
-1.777628e+09 -1.577627e+09 -1.737628e+09 -7.757990e+01 -3.239028e+01 -1.794363e+01
-1.667419e+09 -1.467418e+09 -1.627418e+09 5.604318e+01 2.407555e+01 -4.302977e+00
-2.059113e+09 -1.859113e+09 -2.019113e+09 -6.019147e+01 -1.200300e+01 6.340866e+00
-2.867635e+09 -2.667634e+09 -2.827635e+09 -2.163264e+01 -1.375089e+01 -2.395397e+01
-1.975832e+09 -1.775831e+09 -1.935831e+09 -1.585020e+01 -1.161728e+01 4.148434e+00
-3.303095e+09 -3.103094e+09 -3.263094e+09 -1.254243e+00 4.171401e-01 -6.691454e+00
-3.492003e+09 -3.292002e+09 -3.452002e+09 1.302197e+01 4.158345e+00 -5.508442e+00
-1.707035e+09 -1.507034e+09 -1.667035e+09 -5.301518e+01 -2.213977e+01 -9.837621e+00
-3.698755e+09 -3.498754e+09 -3.658754e+09 2.205522e+01 3.003777e+00 -1.099789e+01
-3.264934e+09 -3.064933e+09 -3.224933e+09 -2.695461e+01 -1.472536e+01 -4.289101e+01
-2.786468e+09 -2.586467e+09 -2.746467e+09 -1.021906e+02 -3.903154e+01 -8.204681e+01
-3.015178e+09 -2.815176e+09 -2.975176e+09 -8.458572e+01 -3.655989e+01 -8.037275e+01
-4.996104e+09 -4.796104e+09 -4.956103e+09 2.107886e+03 4.167213e+01 -8.363814e+01
-2.214639e+09 -2.014638e+09 -2.174638e+09 -1.349105e+02 -1.281746e+01 -7.242215e+01
-4.892339e+09 -4.692338e+09 -4.852337e+09 2.321351e+02 2.263312e+01 9.382061e-08
-1.636089e+09 -1.436086e+09 -1.596087e+09 3.609996e+02 4.591301e+02 -7.588770e+01
-3.718385e+09 -3.518384e+09 -3.678384e+09 -1.397551e+02 -1.310708e+01 -2.857014e+01
-4.890120e+09 -4.690117e+09 -4.850118e+09 3.765220e+02 1.006787e+02 -9.879906e-05
-4.845743e+09 -4.645743e+09 -4.805742e+09 1.042295e+03 -8.657544e+00 5.077851e+00
-2.914352e+09 -2.714351e+09 -2.874350e+09 2.406225e+02 1.250509e+02 -1.679341e+01
-3.043464e+09 -2.843463e+09 -3.003463e+09 -5.723807e+01 -5.539270e+00 -5.168736e+01
-4.598964e+09 -4.398963e+09 -4.558982e+09 1.365494e+03 2.667068e+03 -3.717118e+02
-3.420028e+09 -3.220027e+09 -3.380027e+09 1.706637e+03 5.120073e+02 -1.878876e+02
-2.922944e+09 -2.722942e+09 -2.882942e+09 2.826467e+02 2.318314e+02 -7.640425e+01
-4.029012e+09 -3.829008e+09 -3.989010e+09 3.810721e+02 1.764363e+02 -4.014779e+01
-1.532059e+09 -1.332058e+09 -1.492057e+09 1.115396e+03 4.316506e+02 -7.803059e+01
-2.642743e+09 -2.442742e+09 -2.602742e+09 -2.501815e-01 -4.561327e+01 -7.499472e+01
-1.940079e+09 -1.740078e+09 -1.900078e+09 -4.527381e+01 -1.748147e+01 -7.942968e+01
-4.994575e+09 -4.794572e+09 -4.954574e+09 3.183500e+02 -1.648610e+01 -7.273301e+01
-4.776215e+09 -4.576212e+09 -4.736215e+09 1.728785e+02 9.321593e+01 8.526903e+01
-3.391380e+09 -3.191380e+09 -3.351380e+09 2.014216e+02 2.351687e+00 -6.256567e+00
-1.940056e+09 -1.740054e+09 -1.900055e+09 -2.978694e+01 -1.745754e+00 -7.608025e+01
-3.889724e+09 -3.689730e+09 -3.849725e+09 -5.514104e+02 2.271030e+02 -7.371335e+01
-2.030370e+09 -1.830369e+09 -1.990369e+09 4.938848e+01 2.548997e+00 2.377128e+00
-4.453571e+09 -4.253576e+09 -4.413572e+09 -6.004768e+02 9.031831e+01 -2.997094e+01
-4.791263e+09 -4.591268e+09 -4.751264e+09 -3.505297e+02 -6.930392e+01 3.864183e+00
-4.985567e+09 -4.785567e+09 -4.945567e+09 1.887620e+02 -7.567337e+00 -3.862304e+00
-4.779530e+09 -4.579529e+09 -4.739529e+09 2.229640e+02 6.034911e+00 1.689888e+01
-4.253285e+09 -4.053284e+09 -4.213285e+09 2.975353e+02 5.067008e+00 -4.948316e+01
-4.578814e+09 -4.378813e+09 -4.538813e+09 5.948508e+01 1.326006e+01 7.965788e+00
-4.756194e+09 -4.556200e+09 -4.716195e+09 4.712074e+02 1.450938e+02 -5.555435e+00
-4.954764e+09 -4.754767e+09 -4.914763e+09 2.771449e+02 6.115485e+00 -1.196751e+01
-3.943121e+09 -3.743126e+09 -3.903122e+09 -5.673748e+02 2.046434e+02 -2.134996e+01
-4.812124e+09 -4.612129e+09 -4.772124e+09 -3.878855e+02 4.201107e+01 2.183199e+01
-4.976099e+09 -4.776102e+09 -4.936098e+09 6.578637e+02 1.200874e+02 4.569847e+01
-4.318319e+09 -4.118323e+09 -4.278320e+09 1.532706e+03 3.317014e+02 5.081074e+01
-4.615380e+09 -4.415386e+09 -4.575382e+09 -3.508392e+02 3.949500e+01 -3.255252e+00
-3.372204e+09 -3.172208e+09 -3.332204e+09 9.012713e+01 3.147614e+01 3.179302e+01
-3.943045e+09 -3.743051e+09 -3.903046e+09 6.797578e+01 1.115830e+01 5.450979e+00
-4.988005e+09 -4.788011e+09 -4.948007e+09 -4.934322e+02 3.243835e+01 -7.158690e+00
-4.943471e+09 -4.743477e+09 -4.903472e+09 3.904322e+02 3.610264e+01 6.239134e+01
-2.914639e+09 -2.714645e+09 -2.874640e+09 1.045242e+02 7.458082e+01 1.970237e+01
-3.966661e+09 -3.766668e+09 -3.926664e+09 -1.723957e+02 7.423402e+02 -8.749386e+01
-3.962604e+09 -3.762602e+09 -3.922603e+09 -1.510564e+02 3.070131e+01 -6.181532e+01
-4.705717e+09 -4.505722e+09 -4.665717e+09 2.655897e+02 1.025188e+02 -3.162894e+01
-4.990875e+09 -4.790873e+09 -4.950873e+09 -2.299309e+02 6.246433e+01 4.888439e+01
-4.297929e+09 -4.097928e+09 -4.257928e+09 -3.160050e+02 5.727457e+01 2.159296e+01
-4.131731e+09 -3.931730e+09 -4.091730e+09 -1.727364e+02 9.357233e+00 -5.210634e+01
-4.308132e+09 -4.108131e+09 -4.268131e+09 -4.796242e+01 1.335325e+01 -2.897052e+00
-3.847717e+09 -3.647722e+09 -3.807718e+09 6.060750e+02 4.608417e+01 5.628461e+01
-4.481329e+09 -4.281328e+09 -4.441328e+09 -1.840733e+00 6.993609e+00 -1.979726e+01
-4.979575e+09 -4.779579e+09 -4.939575e+09 6.444961e+02 -1.240064e+02 7.217300e+01
-4.311862e+09 -4.111867e+09 -4.271864e+09 1.716200e+03 2.376273e+02 -1.085141e+02
-4.992302e+09 -4.792300e+09 -4.952301e+09 6.467964e+01 3.487190e+01 2.780245e+01
-2.185945e+09 -1.985952e+09 -2.145946e+09 -2.625784e+02 -2.761978e+02 -1.057440e+02
-1.937835e+09 -1.737844e+09 -1.897838e+09 -5.259267e+02 -2.141730e+03 2.875629e+02
-4.060090e+09 -3.860087e+09 -4.020091e+09 -4.730899e+02 -7.587606e+02 -6.373036e+02
-3.991147e+09 -3.791154e+09 -3.951150e+09 -3.484780e+02 -1.944873e+02 -3.502044e+01
-3.962603e+09 -3.762602e+09 -3.922602e+09 4.774539e+01 3.540253e+01 -7.398869e+01
-4.991299e+09 -4.791302e+09 -4.951303e+09 -2.488853e+03 2.642221e+02 7.052555e+01
-4.971464e+09 -4.771471e+09 -4.931468e+09 -4.096642e+02 -2.859715e+02 -5.457048e+01
-3.969513e+09 -3.769518e+09 -3.929519e+09 1.354929e+03 -1.935265e+03 6.531965e+02
-4.819067e+09 -4.619067e+09 -4.779068e+09 -2.462177e+03 5.724763e+02 3.725732e+02
-3.961601e+09 -3.761605e+09 -3.921605e+09 -2.891845e+03 1.532806e+03 7.644387e+02
-4.993587e+09 -4.793591e+09 -4.953596e+09 6.749369e+00 -8.401117e+02 1.136840e+02
-4.781211e+09 -4.581212e+09 -4.741227e+09 1.299215e+03 2.610111e+03 -1.134169e+03
-4.812478e+09 -4.612481e+09 -4.772480e+09 -2.155853e+03 2.177667e+02 8.970470e+01
-4.126013e+09 -3.926015e+09 -4.086015e+09 -2.300181e+03 7.879463e+02 2.133355e+02
-4.892338e+09 -4.692339e+09 -4.852338e+09 -1.275757e+02 -4.967351e-05 -2.830519e+01
-3.277890e+09 -3.077897e+09 -3.237893e+09 6.850831e+02 -1.608116e+03 8.025104e+01
-4.990733e+09 -4.790737e+09 -4.950735e+09 -7.210667e+02 -1.355225e+02 -6.737220e+01
-2.212390e+09 -2.012399e+09 -2.172393e+09 -7.403234e+02 -2.159222e+03 -2.871012e+02
-2.642754e+09 -2.442762e+09 -2.602756e+09 -1.824829e+02 -7.318666e+02 3.483057e+01
-4.617960e+09 -4.417961e+09 -4.577961e+09 4.457384e+02 2.081280e+01 4.145869e+01
-4.768869e+09 -4.568865e+09 -4.728869e+09 3.330746e+02 -9.696235e+01 -5.005166e+01
-3.966923e+09 -3.766925e+09 -3.926924e+09 3.648468e+02 2.638036e+01 -6.931772e+00
-4.658201e+09 -4.458202e+09 -4.618202e+09 4.203347e+02 1.410422e+01 6.261988e+01
-3.949185e+09 -3.749186e+09 -3.909186e+09 1.678979e+02 3.996227e+00 -1.046089e+00
-3.954464e+09 -3.754466e+09 -3.914465e+09 3.282613e+02 5.233830e+00 1.406802e+01
-3.832788e+09 -3.632785e+09 -3.792787e+09 -1.218572e+02 -3.518837e+02 -8.674910e+01
-4.737180e+09 -4.537176e+09 -4.697179e+09 -1.245121e+02 -1.786038e+02 -7.007235e+01
-4.707621e+09 -4.507619e+09 -4.667622e+09 1.785919e+02 -1.311611e+02 -2.248307e+02
-4.956475e+09 -4.756477e+09 -4.916477e+09 4.352043e+00 1.890176e+00 5.121123e+00
-4.918044e+09 -4.718045e+09 -4.878044e+09 1.304923e+01 -1.130346e+01 -2.633954e-09
-3.138024e+09 -2.938025e+09 -3.098025e+09 2.529288e+02 2.527216e+01 3.732137e+01
-4.800734e+09 -4.600731e+09 -4.760734e+09 -2.690533e+02 -2.526400e+02 -1.736366e+02
-3.963253e+09 -3.763255e+09 -3.923254e+09 3.690872e+02 4.155029e+00 -1.024443e+01
-2.171256e+09 -1.971257e+09 -2.131257e+09 3.724900e+02 2.341135e+01 8.607657e-01
-4.971579e+09 -4.771581e+09 -4.931581e+09 9.645783e+01 1.335572e+00 -4.789023e+00
-3.185436e+09 -2.985438e+09 -3.145437e+09 1.089423e+02 1.163403e+01 1.514471e+01
-3.451185e+09 -3.251186e+09 -3.411186e+09 3.073607e+02 8.661380e+00 8.550707e+00
-4.984514e+09 -4.784515e+09 -4.944515e+09 1.459450e+02 3.651081e-01 4.454935e+01
-4.457687e+09 -4.257689e+09 -4.417686e+09 2.142344e+03 -1.881148e+02 -7.336152e+02
-3.911422e+09 -3.711429e+09 -3.871427e+09 4.863731e+02 -6.578474e+01 1.247749e+02
-3.745764e+09 -3.545772e+09 -3.705769e+09 -6.405614e+02 -1.407059e+02 6.757117e+02
-3.318485e+09 -3.118493e+09 -3.278491e+09 -1.430649e+01 3.484071e+01 2.162267e+02
-2.784252e+09 -2.584251e+09 -2.744253e+09 -1.194342e+03 3.352305e+02 -5.604796e+02
-4.635891e+09 -4.435890e+09 -4.595889e+09 2.226509e+03 -2.371393e+02 -6.071269e+02
-4.270258e+09 -4.070261e+09 -4.230261e+09 -2.522796e+03 4.218322e+02 -4.504279e+02
-4.292658e+09 -4.092658e+09 -4.252656e+09 2.189442e+03 -2.052143e+02 -5.304868e+02
-4.979123e+09 -4.779122e+09 -4.939120e+09 2.444066e+03 3.449549e+02 -1.695406e+02
-4.714398e+09 -4.514397e+09 -4.674397e+09 -4.462692e+01 -5.387594e+00 -2.013556e+01
-3.951574e+09 -3.751565e+09 -3.911589e+09 1.143324e+03 4.239557e+03 -3.217249e+03
-4.803732e+09 -4.603726e+09 -4.763751e+09 8.574166e+02 2.666536e+03 -8.427762e+02
-4.556127e+09 -4.356126e+09 -4.516126e+09 -2.262925e+02 -1.130455e+01 -2.082469e+01
-3.454006e+09 -3.254005e+09 -3.414005e+09 -3.820833e+01 -7.101665e+00 -2.711186e+01
-4.415786e+09 -4.215785e+09 -4.375785e+09 -1.969931e+02 -9.574787e+00 2.332152e-01
-3.291507e+09 -3.091506e+09 -3.251506e+09 -3.968097e+01 -7.648907e+00 -3.264983e+01
-1.917102e+09 -1.717101e+09 -1.877101e+09 -5.175196e+01 -1.474339e+01 -2.470166e+01
-4.698787e+09 -4.498786e+09 -4.658787e+09 -6.290045e+01 -4.693675e+00 2.889946e+01
-4.981728e+09 -4.781724e+09 -4.941745e+09 1.202132e+03 2.521893e+03 -9.867522e+02
-3.942832e+09 -3.742831e+09 -3.902831e+09 -3.523941e+02 -4.631592e+01 -5.068699e+01
-4.493450e+09 -4.293448e+09 -4.453449e+09 -7.775565e+01 -1.701678e+01 -9.123937e+00
-4.647303e+09 -4.447303e+09 -4.607304e+09 -5.409434e+02 -3.770592e+01 1.483953e+01
-4.423154e+09 -4.223153e+09 -4.383153e+09 -3.104227e+02 -2.481309e+01 -2.445779e+01
-4.978122e+09 -4.778121e+09 -4.938121e+09 -1.812335e+02 7.088609e+00 7.144465e+00
-4.308539e+09 -4.108541e+09 -4.268541e+09 -7.282186e+01 -5.586466e+00 -7.965766e+00
-4.782134e+09 -4.582132e+09 -4.742150e+09 1.511271e+03 2.661924e+03 2.518254e+02
-4.799955e+09 -4.599944e+09 -4.759963e+09 -3.853278e+02 1.005815e+03 -8.973474e+02
-3.952028e+09 -3.752023e+09 -3.912044e+09 2.229891e+03 5.706722e+03 -2.314914e+03
-4.967503e+09 -4.767505e+09 -4.927504e+09 -1.340563e+02 -8.492165e+00 -2.326808e+01
-3.257897e+09 -3.057898e+09 -3.217898e+09 -2.892188e+02 -1.780874e+01 2.850441e+00
-4.299238e+09 -4.099240e+09 -4.259239e+09 -4.425012e+02 -2.219264e+01 -5.831083e+00
-4.199132e+09 -3.999133e+09 -4.159133e+09 -2.182147e+02 -2.282085e+01 6.543893e+01
-2.184899e+09 -1.984901e+09 -2.144899e+09 -2.061208e+02 1.391800e+01 -8.321297e+01
-3.453007e+09 -3.253008e+09 -3.413007e+09 -6.390188e+00 -3.168322e+01 3.880160e+00
-3.378461e+09 -3.178463e+09 -3.338460e+09 -3.496375e+02 -1.023594e+02 -6.475507e+01
-3.307486e+09 -3.107489e+09 -3.267485e+09 -3.760939e+02 -7.490609e+01 -7.805132e+01
-2.086796e+09 -1.886799e+09 -2.046796e+09 -5.164507e+02 -6.579017e+01 -1.047041e+02
-2.619615e+09 -2.419618e+09 -2.579615e+09 -1.515646e+02 1.495927e+02 -8.835740e+01
-4.971517e+09 -4.771518e+09 -4.931517e+09 -2.606102e+02 -5.644068e+00 3.730071e+01
-3.036258e+09 -2.836261e+09 -2.996258e+09 -1.413468e+01 -2.079275e+02 -9.933935e+01
-4.990715e+09 -4.790717e+09 -4.950717e+09 -8.123711e+02 -1.294331e+00 -6.362685e+01
-4.097947e+09 -3.897944e+09 -4.057945e+09 -2.330313e+02 -1.893027e+02 -3.644552e-01
-3.445251e+09 -3.245248e+09 -3.405250e+09 -5.037137e+02 -5.178743e+02 -2.269435e+02
-4.614924e+09 -4.414923e+09 -4.574923e+09 1.784340e+03 2.454244e+02 -3.203802e+00
-1.636085e+09 -1.436084e+09 -1.596083e+09 3.184717e+02 3.245290e+02 -4.660695e+01
-4.975247e+09 -4.775245e+09 -4.935246e+09 1.512226e+03 -3.943129e+01 -5.270994e+01
-2.876990e+09 -2.676990e+09 -2.836989e+09 1.754103e+03 4.954693e+02 -1.879328e+02
-4.461847e+09 -4.261844e+09 -4.421845e+09 -2.220339e+02 -1.525523e+02 -2.540423e+01
-2.868542e+09 -2.668538e+09 -2.828540e+09 -3.111600e+02 -6.379757e+02 -2.625053e+02
-4.832927e+09 -4.632923e+09 -4.792914e+09 1.927745e+03 -2.807605e+03 -2.609323e+03
-4.824865e+09 -4.624859e+09 -4.784866e+09 9.819717e+02 5.605168e+02 -9.183839e+02
-4.307061e+09 -4.107056e+09 -4.267062e+09 1.402491e+03 9.181318e+02 -9.159067e+02
-4.996837e+09 -4.796836e+09 -4.956837e+09 2.138817e+03 6.945930e+01 -1.494324e+02
-4.733444e+09 -4.533443e+09 -4.693443e+09 4.480025e+01 3.608143e+00 -1.498114e+01
-4.966458e+09 -4.766456e+09 -4.926456e+09 5.668365e+01 5.710270e+00 1.297525e+01
-3.906096e+09 -3.706093e+09 -3.866095e+09 -6.219345e+02 -2.657567e+02 -1.703947e+02
-3.425916e+09 -3.225915e+09 -3.385915e+09 3.692300e+01 7.569376e-01 -5.923240e+01
-4.597674e+09 -4.397672e+09 -4.557672e+09 5.063307e+01 1.503381e+01 -3.265591e+01
-4.919677e+09 -4.719673e+09 -4.879676e+09 -2.132079e+01 -1.582102e+02 -2.627536e+01
-2.392435e+09 -2.192439e+09 -2.352435e+09 5.004195e+02 -4.270712e+01 1.264730e+02
-4.037352e+09 -3.837351e+09 -3.997351e+09 1.362097e+01 -1.046792e+00 -3.849934e+01
-1.875694e+09 -1.675697e+09 -1.835694e+09 1.304661e+02 6.391936e+01 1.547560e+01
-3.968747e+09 -3.768746e+09 -3.928746e+09 1.088745e+02 2.881885e+01 -4.263056e+01
-2.897596e+09 -2.697599e+09 -2.857595e+09 4.137885e+02 -1.817008e+01 -2.263520e+00
-4.493169e+09 -4.293171e+09 -4.453169e+09 2.013953e+03 1.350617e+02 -1.031669e+02
-4.990939e+09 -4.790942e+09 -4.950939e+09 1.569775e+03 1.100113e+02 -1.412310e+01
-2.626768e+09 -2.426770e+09 -2.586767e+09 1.063051e+02 7.554289e+01 1.962097e+01
-3.988091e+09 -3.788094e+09 -3.948090e+09 3.083332e+02 1.331292e+02 9.947084e+01
-3.943884e+09 -3.743885e+09 -3.903885e+09 -2.078304e+02 8.220074e-01 -2.247784e+00
-3.833714e+09 -3.633714e+09 -3.793714e+09 -3.195247e+02 -3.746356e+01 -2.559068e+01
-4.033461e+09 -3.833462e+09 -3.993462e+09 -3.744266e+02 -6.745765e+00 -1.795221e+01
-4.473099e+09 -4.273099e+09 -4.433097e+09 7.270577e+02 7.313569e+01 -6.589588e+00
-4.289796e+09 -4.089800e+09 -4.249797e+09 1.078512e+03 2.094439e+02 -6.003847e+00
-4.146362e+09 -3.946363e+09 -4.106361e+09 5.675963e+02 3.226640e+01 1.547139e+01
-3.842441e+09 -3.642445e+09 -3.802441e+09 4.775214e+02 2.684444e+01 1.764405e+00
-3.958434e+09 -3.758441e+09 -3.918440e+09 -9.897201e+02 2.057554e+03 1.386142e+02
-2.879171e+09 -2.679172e+09 -2.839172e+09 -3.245562e+02 -5.809552e+01 2.448272e+01
-4.597694e+09 -4.397695e+09 -4.557695e+09 -3.838161e+02 -1.885889e+01 2.442653e+01
-4.488093e+09 -4.288096e+09 -4.448093e+09 1.707481e+03 1.245055e+02 -3.276138e+01
-4.974559e+09 -4.774564e+09 -4.934559e+09 7.855787e+02 4.860613e+01 2.216822e+01
-3.875361e+09 -3.675362e+09 -3.835362e+09 -4.598467e+02 -1.735252e+01 5.684841e+01
-1.561107e+09 -1.361115e+09 -1.521109e+09 -2.068920e+03 -2.048144e+03 -4.373587e+02
-3.984409e+09 -3.784408e+09 -3.944409e+09 -1.546282e+03 -7.687028e+02 -3.993436e+02
-3.730220e+09 -3.530222e+09 -3.690221e+09 -2.668816e+02 -2.016897e+01 2.444114e+01
-4.134769e+09 -3.934769e+09 -4.094770e+09 -1.592126e+03 -1.170328e+03 -3.631147e+02
-4.793914e+09 -4.593915e+09 -4.753915e+09 -4.618492e+02 1.589935e+01 -3.936747e+01
-4.971131e+09 -4.771128e+09 -4.931132e+09 -7.447235e+02 -3.425051e+02 -2.787311e+02
-4.669865e+09 -4.469864e+09 -4.629864e+09 8.372560e+01 1.539913e+00 -2.184935e+01
-4.890118e+09 -4.690120e+09 -4.850118e+09 -4.371649e+01 7.459014e-05 2.157776e+01
-3.390785e+09 -3.190793e+09 -3.350788e+09 -4.476220e+01 -2.197137e+02 -1.534044e+01
-5.014896e+09 -4.814894e+09 -4.974900e+09 -1.497042e+03 -7.781108e+02 -3.728826e+02
-4.764641e+09 -4.564642e+09 -4.724642e+09 -1.287028e+03 -8.677161e+01 -7.548819e+01
-4.986372e+09 -4.786377e+09 -4.946376e+09 -1.399301e+03 -3.224349e+02 -8.784385e+01
-1.561108e+09 -1.361115e+09 -1.521109e+09 -1.683951e+03 -1.957657e+03 -1.774182e+02
-4.508711e+09 -4.308710e+09 -4.468710e+09 1.698651e+02 -2.045176e+00 -1.970271e+00
-4.477384e+09 -4.277383e+09 -4.437383e+09 9.143961e+01 2.192459e+01 -2.022413e+01
-4.153465e+09 -3.953463e+09 -4.113464e+09 -1.574484e+02 -1.547542e+02 1.336127e+02
-4.952989e+09 -4.752988e+09 -4.912988e+09 -9.897497e+01 -7.432373e+00 1.472742e+00
-5.003355e+09 -4.803354e+09 -4.963354e+09 -3.564362e+02 -4.128999e+00 1.108905e+01
-3.978507e+09 -3.778506e+09 -3.938507e+09 -4.878639e+02 -4.543451e+01 -4.070134e+00
-4.986280e+09 -4.786279e+09 -4.946279e+09 1.495343e+02 2.058805e+01 1.545737e+01
-3.966670e+09 -3.766670e+09 -3.926670e+09 -7.799063e+02 -7.617050e+01 7.042710e+01
-3.949904e+09 -3.749903e+09 -3.909904e+09 -4.904278e+02 -6.801021e+01 6.097505e+00
-4.483098e+09 -4.283098e+09 -4.443098e+09 -1.028052e+03 -2.553810e+01 2.921713e+01
-4.994015e+09 -4.794014e+09 -4.954015e+09 -4.986336e+02 -1.508961e+01 3.064738e+01
-4.353718e+09 -4.153718e+09 -4.313718e+09 2.438373e+02 -1.784898e+01 -3.717716e+00
-3.955935e+09 -3.755934e+09 -3.915934e+09 -3.258346e+02 -7.539113e+01 -5.179772e+01
-4.993455e+09 -4.793453e+09 -4.953454e+09 -6.143646e+02 -3.676732e+01 6.357865e+01
-4.506343e+09 -4.306342e+09 -4.466342e+09 1.942323e+02 -6.433361e-01 -1.038475e+01
-4.148929e+09 -3.948928e+09 -4.108929e+09 1.654459e+02 -9.492223e+00 -5.901515e+01
-4.174001e+09 -3.974000e+09 -4.134000e+09 2.026660e+02 2.903729e+01 2.260512e+01
-4.140595e+09 -3.940594e+09 -4.100595e+09 -6.317076e+02 -7.833259e+01 9.006282e+01
-4.639692e+09 -4.439693e+09 -4.599693e+09 2.450215e+02 1.756220e+01 -1.072038e+01
-3.949423e+09 -3.749426e+09 -3.909422e+09 1.477620e+03 -1.946794e+02 -1.114887e+03
-4.475394e+09 -4.275396e+09 -4.435395e+09 4.184265e+02 2.188180e+00 -4.820190e+01
-3.966923e+09 -3.766925e+09 -3.926924e+09 4.661335e+02 2.052257e+01 4.533632e+01
-4.997240e+09 -4.797236e+09 -4.957240e+09 2.008576e+03 6.589672e+01 -1.525846e+02
-4.818748e+09 -4.618744e+09 -4.778752e+09 2.646882e+03 8.154724e+02 -1.224811e+03
-4.284147e+09 -4.084149e+09 -4.244144e+09 1.853566e+03 -3.542768e+02 -7.540031e+02
-2.777673e+09 -2.577674e+09 -2.737675e+09 -3.014609e+03 -1.420867e+03 1.575344e+03
-4.782811e+09 -4.582807e+09 -4.742811e+09 8.997956e+02 4.037907e+02 -5.683346e+02
-4.301551e+09 -4.101552e+09 -4.261557e+09 3.236249e+03 2.459617e+03 -1.035678e+03
-4.991668e+09 -4.791653e+09 -4.951666e+09 -1.630163e+03 1.640287e+02 -2.018897e+02
-2.829274e+09 -2.629283e+09 -2.789281e+09 -6.192055e+02 -1.154692e+02 7.218097e+02
-3.119696e+09 -2.919705e+09 -3.079701e+09 -1.652704e+03 -6.116421e+02 2.114591e+03
-4.658239e+09 -4.458239e+09 -4.618240e+09 2.500159e+03 2.486707e+02 -6.400344e+01
-4.611779e+09 -4.411765e+09 -4.571764e+09 -1.941646e+02 -5.861521e+03 -1.911995e+03
-4.994305e+09 -4.794305e+09 -4.954314e+09 2.722711e+03 1.330231e+03 -5.314308e+02
-4.137410e+09 -3.937418e+09 -4.097415e+09 1.479987e+02 1.437661e+03 2.420837e+01
-1.864711e+09 -1.664715e+09 -1.824715e+09 -7.719151e+02 3.492761e+02 1.119253e+02
-4.803249e+09 -4.603241e+09 -4.763252e+09 1.044649e+03 9.169552e+02 -1.363866e+03
-4.821147e+09 -4.621142e+09 -4.781149e+09 1.682570e+03 3.112047e+02 7.762487e+01
-4.810358e+09 -4.610355e+09 -4.770357e+09 1.708143e+03 3.415252e+02 -4.170418e+02
-4.292657e+09 -4.092658e+09 -4.252654e+09 1.427125e+03 -3.151361e+02 -1.048911e+03
-2.576798e+09 -2.376805e+09 -2.536804e+09 -1.187608e+02 4.365515e+01 1.227384e+02
-3.934682e+09 -3.734686e+09 -3.894696e+09 2.321818e+03 5.384694e+03 -1.746006e+03
-4.818115e+09 -4.618107e+09 -4.778115e+09 -2.004866e+03 5.508662e+02 -4.419288e+02
-1.991959e+09 -1.791965e+09 -1.951964e+09 -2.354388e+03 -5.395728e+02 1.655048e+03
-1.991530e+09 -1.791538e+09 -1.951538e+09 -1.026623e+03 4.156230e+00 1.471801e+03
-4.788855e+09 -4.588855e+09 -4.748855e+09 1.417820e+02 1.145730e+01 3.006037e+01
-4.981273e+09 -4.781264e+09 -4.941282e+09 -9.123961e+02 1.537469e+03 -1.392619e+03
-4.200391e+09 -4.000391e+09 -4.160391e+09 1.932616e+02 2.524402e+00 2.490580e+00
-4.310265e+09 -4.110265e+09 -4.270265e+09 3.077693e+02 7.137203e+00 9.314533e+00
-4.974000e+09 -4.774006e+09 -4.934001e+09 1.031964e+02 3.975194e+01 -2.794355e+01
-3.961017e+09 -3.761019e+09 -3.921018e+09 -8.095971e+02 -4.537082e+01 3.180506e+01
-4.998801e+09 -4.798801e+09 -4.958801e+09 -8.331223e+02 1.751673e+00 -2.191060e+01
-4.138772e+09 -3.938773e+09 -4.098773e+09 -8.609741e+02 -5.961608e+01 4.949438e+01
-4.183481e+09 -3.983481e+09 -4.143481e+09 2.313538e+02 -7.308500e+00 -3.204283e+00
-3.959566e+09 -3.759567e+09 -3.919567e+09 -4.868797e+02 -3.296462e+01 3.498596e+01
-4.788157e+09 -4.588156e+09 -4.748157e+09 -4.662045e+02 -1.329035e+01 -3.104556e+01
-3.901067e+09 -3.701067e+09 -3.861067e+09 3.295636e+02 2.857040e+01 5.268575e+01
-4.976635e+09 -4.776637e+09 -4.936637e+09 -3.269030e+02 -7.320497e+00 -1.316008e+01
-3.888911e+09 -3.688910e+09 -3.848910e+09 2.631524e+02 2.880521e+01 9.334806e+01
-4.026371e+09 -3.826371e+09 -3.986371e+09 1.934265e+02 2.491491e+01 -2.532012e+00
-2.280142e+09 -2.080142e+09 -2.240142e+09 -2.891028e+02 -2.805272e+01 -2.006891e+00
-4.439802e+09 -4.239803e+09 -4.399804e+09 3.334980e+01 8.675974e+01 -2.775315e+01
-3.800330e+09 -3.600330e+09 -3.760330e+09 -5.132563e+00 1.709346e+00 -1.171827e+00
-5.011387e+09 -4.811386e+09 -4.971387e+09 -7.838319e+02 2.477051e+00 -2.685105e-01
-3.961844e+09 -3.761845e+09 -3.921845e+09 -1.060473e+03 -7.139262e+01 6.181685e+01
-4.862036e+09 -4.662036e+09 -4.822037e+09 -1.253495e+03 -1.264660e+00 1.709843e+01
-4.990411e+09 -4.790411e+09 -4.950411e+09 -8.403638e+02 1.364788e+01 -8.647159e+01
-4.989219e+09 -4.789218e+09 -4.949171e+09 -4.072236e+02 3.423154e+02 3.341429e+03
-4.825975e+09 -4.625961e+09 -4.785952e+09 -1.142696e+03 6.960051e+02 1.560212e+03
-4.105102e+09 -3.905101e+09 -4.065103e+09 -8.520121e+02 1.501038e+02 7.703582e+01
-4.139509e+09 -3.939494e+09 -4.099484e+09 -1.018762e+03 1.076963e+04 -3.076902e+03
-4.279161e+09 -4.079151e+09 -4.239131e+09 4.119214e+03 5.530023e+03 2.990490e+02
-4.806749e+09 -4.606747e+09 -4.766749e+09 -5.446630e+02 1.503292e+01 1.878594e+02
-3.953638e+09 -3.753636e+09 -3.913651e+09 -1.668722e+03 -4.011363e+03 -5.463794e+02
-4.183380e+09 -3.983382e+09 -4.143382e+09 -1.179042e+03 3.580597e+02 -2.239722e+02
-4.666833e+09 -4.466835e+09 -4.626834e+09 8.903232e+02 3.725674e+01 -1.769037e+00
-3.958507e+09 -3.758508e+09 -3.918509e+09 5.378635e+01 1.613666e+02 1.645934e+02
-3.953780e+09 -3.753782e+09 -3.913781e+09 1.291318e+03 -3.648952e+01 -2.693499e+02
-4.999719e+09 -4.799721e+09 -4.959720e+09 6.439679e+02 -2.668449e-01 -5.396649e+01
-4.793784e+09 -4.593790e+09 -4.753788e+09 -1.117157e+03 4.080472e+01 -2.997542e+02
-4.628033e+09 -4.428035e+09 -4.588035e+09 -5.330113e+01 2.735999e+00 -5.871396e+00
-4.890117e+09 -4.690117e+09 -4.850117e+09 4.714167e+00 -9.133188e+00 -7.688460e-10
-4.285259e+09 -4.085262e+09 -4.245261e+09 -1.316952e+03 1.277986e+02 -3.212159e+02
-4.505854e+09 -4.305856e+09 -4.465856e+09 -4.588116e+00 -2.503832e+00 6.022468e+00
-5.001632e+09 -4.801635e+09 -4.961634e+09 7.301100e+02 -2.674755e+01 -7.345976e+01
-4.897910e+09 -4.697912e+09 -4.857912e+09 -5.946452e+01 1.644622e+00 1.891237e+00
-3.973857e+09 -3.773856e+09 -3.933857e+09 -2.160389e+03 3.659860e+02 2.888109e+02
-3.960110e+09 -3.760111e+09 -3.920110e+09 -2.209348e+03 4.474719e+02 2.210044e+02
-3.973857e+09 -3.773855e+09 -3.933856e+09 -1.520304e+03 2.067960e+02 3.415024e+01
-3.522449e+09 -3.322450e+09 -3.482450e+09 -1.414466e+02 -9.365825e+00 1.880164e+01
-4.819201e+09 -4.619199e+09 -4.779200e+09 -2.128872e+02 6.846711e+01 3.436326e+01
-4.264022e+09 -4.064019e+09 -4.224020e+09 1.415344e+02 9.944420e+00 4.148639e+01
-4.800626e+09 -4.600621e+09 -4.760626e+09 -1.731173e+03 5.076566e+02 4.653918e+02
-3.974226e+09 -3.774228e+09 -3.934227e+09 -6.632627e+01 8.798974e+00 -1.992237e+01
-3.955420e+09 -3.755414e+09 -3.915361e+09 -3.085981e+03 -5.238146e+03 4.421740e+03
-3.556422e+09 -3.356423e+09 -3.516423e+09 -3.844328e+01 -4.512144e+00 7.678104e+00
-4.290783e+09 -4.090787e+09 -4.250781e+09 -5.277260e+02 5.290255e+02 -1.238855e+03
-3.256728e+09 -3.056729e+09 -3.216729e+09 -2.313452e+01 4.269136e-01 1.145500e+01
-4.134276e+09 -3.934269e+09 -4.094266e+09 5.973182e+03 3.753822e+03 1.915737e+03
-4.982906e+09 -4.782896e+09 -4.942901e+09 -3.975247e+03 -1.436196e+03 -1.136199e+02
-4.566778e+09 -4.366784e+09 -4.526779e+09 5.886004e+02 5.176835e+01 -2.125968e+01
-4.602399e+09 -4.402404e+09 -4.562400e+09 8.310447e+02 3.354785e+01 -7.054260e+01
-4.985108e+09 -4.785099e+09 -4.945055e+09 1.711195e+03 3.794299e+02 1.625601e+03
-4.790159e+09 -4.590163e+09 -4.750159e+09 6.859156e+02 1.571716e+02 -5.102918e+01
-4.119976e+09 -3.919981e+09 -4.079977e+09 1.222920e+03 4.499006e+01 9.280413e+00
-4.102979e+09 -3.902984e+09 -4.062979e+09 3.527570e+02 2.818055e+01 -1.359195e+01
-4.637933e+09 -4.437928e+09 -4.597935e+09 -2.654553e+03 7.103527e+02 6.619522e+02
-4.305737e+09 -4.105742e+09 -4.265738e+09 1.092901e+03 1.664770e+02 -1.020582e+01
-4.124684e+09 -3.924680e+09 -4.084688e+09 1.999383e+01 -1.411237e+03 1.695073e+03
-2.660070e+09 -2.460070e+09 -2.620068e+09 5.936762e+02 2.503601e+02 -2.523960e+01
-2.953389e+09 -2.753389e+09 -2.913388e+09 1.446160e+03 2.790089e+02 -6.560741e+00
-1.716580e+09 -1.516580e+09 -1.676578e+09 1.206196e+03 2.193814e+02 -9.403398e+00
-2.122102e+09 -1.922103e+09 -2.082100e+09 9.557636e+02 9.142641e+01 3.963443e+01
-4.280105e+09 -4.080104e+09 -4.240103e+09 -3.254769e+03 9.574560e+02 -6.696261e+02
-4.612688e+09 -4.412681e+09 -4.572691e+09 -2.623225e+03 1.529199e+03 4.704212e+02
-4.095668e+09 -3.895668e+09 -4.055686e+09 3.060274e+03 6.760543e+03 -2.875619e+03
-4.160067e+09 -3.960072e+09 -4.120067e+09 -1.669231e+02 -1.105670e+02 1.745282e+00
-3.617713e+09 -3.417719e+09 -3.577715e+09 -1.197447e+02 2.159529e+02 -2.014642e+01
-2.668868e+09 -2.468874e+09 -2.628869e+09 1.040203e+02 2.591650e+02 -5.467020e+01
-1.925650e+09 -1.725654e+09 -1.885650e+09 -1.238448e+02 -3.669750e+01 -8.327805e+01
-3.307094e+09 -3.107100e+09 -3.267095e+09 -2.904342e+02 1.214732e+02 -6.349038e+01
-4.975968e+09 -4.775954e+09 -4.935971e+09 2.037065e+03 2.327538e+03 1.528150e+02
-2.232684e+09 -2.032690e+09 -2.192685e+09 -2.835853e+02 2.307010e+02 -1.430846e+01
-4.477509e+09 -4.277497e+09 -4.437515e+09 1.800214e+03 -2.205257e+02 3.287887e+03
-2.239841e+09 -2.039846e+09 -2.199841e+09 -9.391453e+00 3.713521e+01 -3.297590e+01
-1.946178e+09 -1.746184e+09 -1.906179e+09 -1.329870e+02 1.710509e+02 -3.022157e+01
-4.595459e+09 -4.395462e+09 -4.555459e+09 4.299479e+02 5.385081e+01 -5.031129e+02
-4.654413e+09 -4.454412e+09 -4.614413e+09 4.215392e+02 -8.896540e+01 8.396833e+01
-3.964311e+09 -3.764311e+09 -3.924312e+09 7.839328e+02 -4.040125e+02 1.025028e+02
-4.801183e+09 -4.601185e+09 -4.761184e+09 -1.339507e+03 6.134910e+01 2.456115e+02
-4.443689e+09 -4.243692e+09 -4.403690e+09 5.759527e+02 -3.838856e+01 -6.244716e+02
-4.128230e+09 -3.928234e+09 -4.088231e+09 -9.873119e+02 1.917241e+02 -1.182627e+03
-4.286042e+09 -4.086046e+09 -4.246042e+09 1.283169e+02 1.985790e+02 -6.133304e+02
-4.762138e+09 -4.562137e+09 -4.722137e+09 1.042409e+02 -7.057393e+01 -3.392407e+01
-4.594490e+09 -4.394489e+09 -4.554489e+09 1.230789e+02 -5.791255e+00 -6.087500e+00
-3.942808e+09 -3.742813e+09 -3.902810e+09 -6.575722e+02 1.739903e+02 -8.776991e+02
-4.979123e+09 -4.779125e+09 -4.939120e+09 1.388111e+03 -3.860346e+01 -7.592457e+02
-3.951826e+09 -3.751825e+09 -3.911825e+09 3.209673e+02 -1.402504e+02 7.251133e+01
-4.820738e+09 -4.620741e+09 -4.780737e+09 -2.365136e+03 1.556037e+02 -5.118382e+02
-4.641234e+09 -4.441232e+09 -4.601233e+09 1.281888e+02 -5.553672e+01 2.044531e+00
-4.150592e+09 -3.950590e+09 -4.110591e+09 -3.723149e+02 -1.988506e+02 2.846197e+02
-4.336474e+09 -4.136472e+09 -4.296473e+09 -3.390910e+02 -2.149780e+02 1.843075e+02
-4.802775e+09 -4.602777e+09 -4.762778e+09 -1.880523e+03 4.067166e+00 -4.119281e+02
-3.749203e+09 -3.549200e+09 -3.709201e+09 -1.634679e+02 -3.244161e+02 -4.350433e+01
-4.448434e+09 -4.248431e+09 -4.408432e+09 -1.206388e+02 -1.206157e+02 -1.623990e+01
-4.345053e+09 -4.145050e+09 -4.305052e+09 -1.082175e+02 -1.808092e+02 -1.182621e+02
-2.879214e+09 -2.679211e+09 -2.839212e+09 -1.918986e+02 -4.432950e+02 -6.578924e+01
-3.966630e+09 -3.766629e+09 -3.926629e+09 -4.170838e+01 -1.195445e+02 2.857067e+01
-4.314246e+09 -4.114244e+09 -4.274245e+09 -1.616236e+02 -1.881898e+02 9.123673e+01
-2.177522e+09 -1.977528e+09 -2.137528e+09 3.464407e+02 1.516517e+02 -1.432252e+01
-2.511628e+09 -2.311633e+09 -2.471634e+09 1.269272e+03 1.835004e+02 4.147368e+02
-3.000572e+09 -2.800573e+09 -2.960573e+09 -2.818287e+02 -5.377497e+01 -5.424624e+00
-2.648262e+09 -2.448266e+09 -2.608266e+09 5.614773e+01 -3.464758e+02 3.464418e+01
-1.911335e+09 -1.711336e+09 -1.871336e+09 -2.277438e+02 -3.983463e+01 3.924857e+01
-4.974234e+09 -4.774232e+09 -4.934235e+09 3.921837e+02 -7.504090e+01 -1.476884e+02
-4.169152e+09 -3.969151e+09 -4.129152e+09 -6.822637e+02 -4.678647e+01 6.826689e+00
-3.978507e+09 -3.778506e+09 -3.938507e+09 -6.943618e+02 -5.528296e+01 8.911488e+01
-4.905144e+09 -4.705147e+09 -4.865148e+09 1.190928e+02 -3.691360e+01 -2.494750e-05
-4.817275e+09 -4.617275e+09 -4.777275e+09 -5.731428e+02 1.098818e+01 -2.092408e+01
-4.649129e+09 -4.449129e+09 -4.609129e+09 -7.231499e+02 -2.822394e+01 8.930178e+01
-4.485271e+09 -4.285271e+09 -4.445271e+09 -6.487280e+02 -3.310036e+01 -1.174550e+01
-4.827015e+09 -4.627014e+09 -4.787014e+09 -6.613406e+02 -1.755739e+01 -2.947285e+01
-2.732963e+09 -2.532964e+09 -2.692961e+09 6.545064e+01 -3.135991e+00 -7.038287e+00
-1.785937e+09 -1.585939e+09 -1.745936e+09 6.816662e+02 5.734308e+01 8.824794e+01
-4.361555e+09 -4.161559e+09 -4.321555e+09 4.710607e+02 8.990404e+00 -1.138853e+01
-4.321740e+09 -4.121739e+09 -4.281739e+09 -4.565894e+02 -2.830487e+01 2.160357e+01
-4.010616e+09 -3.810615e+09 -3.970615e+09 6.764367e+00 -5.303065e+00 7.758729e+00
-4.820451e+09 -4.620450e+09 -4.780451e+09 -4.535976e+02 6.890596e+00 5.515695e+00
-3.304375e+09 -3.104383e+09 -3.264379e+09 1.940892e+03 5.505680e+02 2.049351e+03
-3.877547e+09 -3.677554e+09 -3.837552e+09 -1.067296e+03 9.305296e+01 2.139098e+02
-4.729727e+09 -4.529735e+09 -4.689732e+09 4.569778e+02 -4.393693e+00 -9.785358e+01
-4.584054e+09 -4.384063e+09 -4.544059e+09 2.290768e+02 1.347974e+02 3.250691e+02
-3.374790e+09 -3.174789e+09 -3.334789e+09 2.571559e+01 7.741917e+00 -8.240536e+01
-4.502042e+09 -4.302050e+09 -4.462046e+09 2.310088e+03 2.793385e+02 9.627370e+02
-4.528833e+09 -4.328833e+09 -4.488832e+09 -1.211271e+02 3.403541e+01 -3.835451e+01
-3.286139e+09 -3.086138e+09 -3.246138e+09 5.288008e+01 3.182211e+01 -3.304455e+01
-3.896426e+09 -3.696427e+09 -3.856426e+09 1.473006e+02 -2.903082e+00 4.940655e+00
-1.588550e+09 -1.388549e+09 -1.548549e+09 3.699074e+01 3.044929e+01 -9.036585e+01
-2.602023e+09 -2.402022e+09 -2.562022e+09 -2.140773e+01 4.586458e+01 -5.058585e+01
-3.309176e+09 -3.109176e+09 -3.269176e+09 3.213575e+02 1.571900e+01 4.835652e+00
-4.784589e+09 -4.584589e+09 -4.744589e+09 2.712468e+02 -2.691422e+00 -4.213760e+01
-3.400961e+09 -3.200966e+09 -3.360962e+09 -1.736457e+01 2.711357e+01 -9.517254e+01
-3.153147e+09 -2.953146e+09 -3.113147e+09 2.447186e+02 3.394822e+01 4.330303e+01
-4.763104e+09 -4.563104e+09 -4.723104e+09 1.500745e+02 1.749188e+01 -1.917758e+01
-3.718679e+09 -3.518680e+09 -3.678678e+09 -2.323485e+02 -6.082298e+01 -9.534194e+01
-3.108155e+09 -2.908155e+09 -3.068155e+09 2.419771e+02 2.896494e+01 -5.712620e+00
-4.707850e+09 -4.507854e+09 -4.667850e+09 -2.463989e+02 1.353146e+02 5.612633e+00
-1.676472e+09 -1.476473e+09 -1.636473e+09 -3.173482e+02 -4.954191e+01 6.825126e+01
-1.537691e+09 -1.337692e+09 -1.497693e+09 -1.978677e+02 6.565774e+02 4.116183e+02
-4.963090e+09 -4.763089e+09 -4.923089e+09 5.320329e+01 -2.503587e+00 1.218511e+01
-2.274891e+09 -2.074893e+09 -2.234892e+09 -2.746575e+02 -1.146992e+01 1.966427e+01
-2.892477e+09 -2.692478e+09 -2.852478e+09 -3.364388e+02 -4.532581e+01 5.707236e+00
-4.968279e+09 -4.768278e+09 -4.928279e+09 3.871521e+01 -4.664827e+00 3.167862e+00
-2.229349e+09 -2.029348e+09 -2.189348e+09 -1.215349e+00 8.655561e+00 -2.726754e+01
-2.963501e+09 -2.763500e+09 -2.923500e+09 2.530291e+01 5.956423e+00 -1.706734e+01
-3.094959e+09 -2.894958e+09 -3.054959e+09 6.391900e+01 2.632874e+00 -2.503820e+01
-4.694727e+09 -4.494726e+09 -4.654726e+09 2.705956e+01 -8.019157e+00 -1.304399e+01
-2.496032e+09 -2.296033e+09 -2.456033e+09 -2.032733e+02 -5.665831e+01 2.060522e+01
-2.044385e+09 -1.844386e+09 -2.004385e+09 -2.430762e+02 -3.735276e+01 -1.519564e+01
-3.392514e+09 -3.192514e+09 -3.352514e+09 -3.296298e+02 -1.409690e+01 1.591514e+01
-4.691452e+09 -4.491451e+09 -4.651451e+09 1.546280e+01 -6.296109e+00 -5.892808e+00
-2.122264e+09 -1.922266e+09 -2.082265e+09 -1.950478e+02 -2.596013e+01 6.864862e+00
-2.404331e+09 -2.204335e+09 -2.364332e+09 -1.295611e+03 -8.423108e+02 -2.183928e+02
-2.620178e+09 -2.420177e+09 -2.580176e+09 4.713913e+01 -1.026956e+02 -7.944207e+01
-2.195683e+09 -1.995682e+09 -2.155682e+09 4.801077e+01 7.992584e+00 -9.895557e+01
-3.739551e+09 -3.539551e+09 -3.699550e+09 -1.995489e+02 -1.346733e+02 -5.901316e+01
-3.097725e+09 -2.897728e+09 -3.057727e+09 -1.690326e+03 -1.634613e+03 -5.399657e+02
-2.307917e+09 -2.107916e+09 -2.267916e+09 -1.494911e+02 -1.001351e+02 -4.951527e+01
-2.022203e+09 -1.822202e+09 -1.982202e+09 -9.582093e+01 -6.040341e+01 -7.620362e+01
-2.039158e+09 -1.839159e+09 -1.999157e+09 -1.510286e+03 -9.918837e+02 -2.504630e+02
-3.134281e+09 -2.934281e+09 -3.094281e+09 -1.102064e+03 -7.227905e+02 -2.033594e+02
-1.583774e+09 -1.383774e+09 -1.543774e+09 1.285541e+02 4.836913e+01 -1.474383e+01
-1.896435e+09 -1.696437e+09 -1.856435e+09 -7.551133e+02 -4.859810e+02 -1.415257e+01
-1.799586e+09 -1.599586e+09 -1.759585e+09 -6.978840e+02 -2.993006e+02 -3.961577e+01
-4.437064e+09 -4.237063e+09 -4.397064e+09 -1.906659e+02 -1.787847e+01 3.671882e+00
-3.482015e+09 -3.282015e+09 -3.442015e+09 1.566806e+01 3.388301e+01 2.324256e+00
-3.166679e+09 -2.966678e+09 -3.126679e+09 -1.176789e+02 -1.809025e+01 -2.874645e+00
-2.034146e+09 -1.834145e+09 -1.994147e+09 -1.205189e+03 2.500400e+02 -1.660956e+02
-3.058250e+09 -2.858249e+09 -3.018249e+09 -1.268832e+01 -1.620353e+01 -5.326264e+01
-4.529686e+09 -4.329685e+09 -4.489686e+09 -8.775567e+01 -7.405328e+00 2.736709e+01
-1.660117e+09 -1.460117e+09 -1.620117e+09 8.251366e+01 3.764453e+01 -6.517909e+00
-4.000869e+09 -3.800868e+09 -3.960868e+09 -9.207248e+01 -1.451969e+01 -3.939144e+01
-4.652607e+09 -4.452606e+09 -4.612606e+09 -2.520652e+01 -2.635268e+00 1.503619e+01
-4.385714e+09 -4.185712e+09 -4.345713e+09 -7.533217e+00 -1.428020e+01 2.406523e+00
-2.645134e+09 -2.445134e+09 -2.605135e+09 3.437368e+02 3.445163e+01 -5.367802e+01
-4.964164e+09 -4.764165e+09 -4.924165e+09 1.312478e+02 -9.509929e+00 2.360341e+00
-3.287388e+09 -3.087387e+09 -3.247388e+09 -2.673470e+01 -1.023930e+01 -5.416731e+00
-1.583774e+09 -1.383774e+09 -1.543774e+09 2.538591e+02 3.789063e+01 5.444199e+01
-3.886732e+09 -3.686731e+09 -3.846731e+09 -1.833452e+01 6.144134e-01 -1.477997e+01
-2.743540e+09 -2.543538e+09 -2.703538e+09 1.703139e+03 4.549735e+02 -1.382272e+02
-2.923054e+09 -2.723052e+09 -2.883052e+09 8.484426e+02 3.834581e+02 -1.128672e+02
-1.833322e+09 -1.633321e+09 -1.793320e+09 8.618183e+02 2.038972e+02 -8.543251e+01
-3.367370e+09 -3.167369e+09 -3.327369e+09 1.449438e+03 2.985988e+02 -5.251660e+01
-4.830597e+09 -4.630596e+09 -4.790596e+09 1.370589e+03 -2.058616e+01 -4.202349e+01
-4.799757e+09 -4.599757e+09 -4.759757e+09 1.315694e+03 -4.535662e+01 -1.835462e+02
-4.463967e+09 -4.263968e+09 -4.423967e+09 1.606240e+03 -2.548664e+01 -3.437092e+02
-4.807200e+09 -4.607202e+09 -4.767201e+09 1.471851e+03 1.182730e+02 7.015206e+01
-1.667958e+09 -1.467957e+09 -1.627956e+09 8.202290e+01 -2.262729e+01 -1.320990e+02
-3.014964e+09 -2.814963e+09 -2.974963e+09 -4.890314e+01 1.950046e+00 -5.374005e+01
-1.916141e+09 -1.716140e+09 -1.876140e+09 -3.044632e+01 -3.292993e+01 -9.702768e+01
-4.984806e+09 -4.784806e+09 -4.944805e+09 -3.301884e+02 -9.475005e+01 -2.222975e+01
-1.636088e+09 -1.436089e+09 -1.596087e+09 1.615137e+01 9.074299e+00 -1.235839e+02
-4.144131e+09 -3.944130e+09 -4.104131e+09 1.416709e+03 -7.803386e+01 -3.169115e+02
-2.183278e+09 -1.983277e+09 -2.143277e+09 -2.990263e+02 -1.537146e+01 -7.347606e+01
-4.120735e+09 -3.920736e+09 -4.080735e+09 1.443045e+03 -2.132078e+02 -6.030322e+02
-3.478791e+09 -3.278797e+09 -3.438792e+09 3.500152e+02 2.412234e+02 3.620399e+01
-2.623450e+09 -2.423448e+09 -2.583448e+09 -3.583912e+02 -3.277828e+02 -2.979275e+00
-3.272911e+09 -3.072910e+09 -3.232909e+09 -5.560572e+02 -2.828848e+02 -1.183347e+02
-3.307140e+09 -3.107139e+09 -3.267139e+09 -7.580204e+02 -3.697287e+02 -2.319639e+02
-4.352749e+09 -4.152746e+09 -4.312748e+09 -5.627152e+02 -2.663835e+02 -1.359691e+02
-1.669490e+09 -1.469489e+09 -1.629490e+09 -9.469285e+01 -3.351857e+01 4.175119e+00
-4.678505e+09 -4.478502e+09 -4.638503e+09 -4.383980e+02 -1.170000e+02 -6.400798e+01
-4.162126e+09 -3.962125e+09 -4.122125e+09 -5.402078e+02 -2.349141e+02 -7.618091e+01
-4.779574e+09 -4.579573e+09 -4.739573e+09 -4.832063e+02 2.888756e+01 1.943460e+01
-3.858084e+09 -3.658082e+09 -3.818082e+09 -1.039798e+02 -3.875790e+01 -2.501606e+01
-2.735196e+09 -2.535194e+09 -2.695194e+09 -7.903083e+01 -2.170799e+02 -2.695033e+01
-4.708287e+09 -4.508288e+09 -4.668287e+09 -6.715339e+02 -2.383611e+01 2.532223e+01
-3.179043e+09 -2.979046e+09 -3.139046e+09 1.049311e+03 -2.344941e+02 -5.116077e+01
-3.220397e+09 -3.020394e+09 -3.180395e+09 -5.233115e+02 -3.242715e+02 -1.166084e+02
-4.457048e+09 -4.257047e+09 -4.417048e+09 -1.892592e+03 -4.237549e+02 -3.507992e+02
-1.686773e+09 -1.486772e+09 -1.646771e+09 -1.454570e+03 -9.514352e+02 -2.988093e+02
-3.412091e+09 -3.212089e+09 -3.372089e+09 -2.134913e+02 -2.018245e+02 -3.684735e+01
-2.285261e+09 -2.085259e+09 -2.245259e+09 -1.267718e+03 -1.152382e+03 -4.229721e+02
-1.676403e+09 -1.476403e+09 -1.636403e+09 -2.657161e+02 -4.796221e+01 4.409126e+01
-1.950481e+09 -1.750479e+09 -1.910479e+09 -4.872035e+01 -7.453663e+01 -9.130552e+00
-1.686773e+09 -1.486773e+09 -1.646772e+09 -1.855019e+03 -8.822192e+02 -3.957084e+02
-3.236226e+09 -3.036226e+09 -3.196226e+09 -1.713194e+02 -2.124353e+01 -7.402640e+01
-2.981070e+09 -2.781069e+09 -2.941069e+09 -2.249220e+02 -3.445865e+01 1.859990e+01
-1.883282e+09 -1.683281e+09 -1.843281e+09 -1.844516e+02 -3.149725e+01 1.238589e+01
-2.960577e+09 -2.760575e+09 -2.920575e+09 -1.225141e+02 -2.342916e+02 -7.199032e+01
-2.224956e+09 -2.024957e+09 -2.184955e+09 -2.747753e+02 -1.500041e+02 -4.175828e+01
-3.438923e+09 -3.238924e+09 -3.398923e+09 -7.251133e+01 -7.336971e+01 -2.802898e+01
-2.337515e+09 -2.137515e+09 -2.297514e+09 -1.646529e+03 -9.840446e+02 -4.912714e+02
-2.890727e+09 -2.690726e+09 -2.850727e+09 -3.098406e+02 -5.854992e+01 1.324217e+01
-2.187261e+09 -1.987260e+09 -2.147261e+09 2.314238e+02 2.210155e+01 5.071559e+00
-3.228997e+09 -3.028996e+09 -3.188997e+09 4.455916e+01 1.228385e+01 -2.612593e-01
-4.981734e+09 -4.781738e+09 -4.941737e+09 -1.050717e+03 -7.756768e+01 1.440034e+01
-1.636280e+09 -1.436280e+09 -1.596280e+09 3.010914e+00 4.200248e+01 -3.843939e-01
-2.434692e+09 -2.234691e+09 -2.394691e+09 1.323545e+02 2.868273e+01 3.128977e+01
-1.878610e+09 -1.678609e+09 -1.838609e+09 1.549714e+02 2.718343e+01 -3.229695e+01
-1.848013e+09 -1.648010e+09 -1.808011e+09 -8.740391e+02 -1.003681e+03 -4.289586e+02
-4.563677e+09 -4.363678e+09 -4.523678e+09 2.660667e+02 2.142471e+01 1.538043e+01
-2.699576e+09 -2.499574e+09 -2.659575e+09 -6.026438e+02 -5.376539e+02 -5.717753e+01
-2.072613e+09 -1.872611e+09 -2.032612e+09 -1.406031e+03 -1.118266e+03 -5.728487e+02
-3.616261e+09 -3.416268e+09 -3.576267e+09 -1.105467e+01 -5.691067e+01 1.732851e+02
-4.421592e+09 -4.221591e+09 -4.381591e+09 7.631300e-01 2.296082e+01 -4.585843e-02
-2.601886e+09 -2.401884e+09 -2.561885e+09 2.657182e+02 4.984918e+02 -9.096402e+01
-4.974054e+09 -4.774051e+09 -4.934052e+09 8.879085e+02 -4.838143e+01 -2.296125e+01
-4.944872e+09 -4.744871e+09 -4.904871e+09 -2.303669e+02 7.622248e+00 -1.229444e+01
-4.601639e+09 -4.401638e+09 -4.561638e+09 -2.259128e+02 -1.756622e+00 4.112213e+00
-1.678186e+09 -1.478187e+09 -1.638185e+09 1.874870e+03 6.147966e+02 -8.991189e+01
-3.972169e+09 -3.772168e+09 -3.932167e+09 1.164212e+03 2.339881e+02 -1.372403e+02
-4.981476e+09 -4.781476e+09 -4.941476e+09 -1.963360e+02 1.241874e+00 -7.052519e+01
-3.284660e+09 -3.084659e+09 -3.244660e+09 -2.007101e+02 -2.937372e+01 -4.960737e+00
-3.753047e+09 -3.553053e+09 -3.713049e+09 5.723034e+02 -4.964183e+02 2.977151e+02
-3.091151e+09 -2.891155e+09 -3.051152e+09 1.431301e+03 -1.070001e+03 3.418398e+02
-4.946667e+09 -4.746667e+09 -4.906666e+09 7.622383e+02 -2.043943e+01 -7.290993e+00
-2.789876e+09 -2.589875e+09 -2.749877e+09 -4.462792e+02 3.865258e+02 -2.718485e+02
-4.023557e+09 -3.823557e+09 -3.983555e+09 1.021007e+03 7.316759e+01 -4.034830e+01
-2.726535e+09 -2.526541e+09 -2.686537e+09 1.105936e+03 -1.422282e+03 2.970033e+02
-3.082369e+09 -2.882375e+09 -3.042372e+09 1.119728e+03 -1.546831e+03 2.934342e+02
-1.653294e+09 -1.453294e+09 -1.613292e+09 3.102381e+02 1.807038e+02 1.074157e+01
-2.874065e+09 -2.674070e+09 -2.834066e+09 6.492844e+02 -6.573114e+02 1.680587e+02
-3.323022e+09 -3.123019e+09 -3.283021e+09 1.660018e+03 1.042627e+03 -6.153645e+02
-1.984493e+09 -1.784492e+09 -1.944491e+09 1.643719e+03 4.594962e+02 -1.325853e+02
-2.041063e+09 -1.841067e+09 -2.001063e+09 1.030439e+03 -7.457170e+02 7.482491e+01
-2.269020e+09 -2.069018e+09 -2.229018e+09 1.695686e+03 6.133295e+02 -1.588151e+02
-4.057881e+09 -3.857885e+09 -4.017883e+09 9.384129e+02 -4.963809e+02 1.312806e+02
-3.266243e+09 -3.066248e+09 -3.226246e+09 1.449680e+03 -1.728274e+03 5.653376e+02
-3.524225e+09 -3.324229e+09 -3.484226e+09 1.177470e+03 -9.587866e+02 4.645337e+02
-2.083917e+09 -1.883919e+09 -2.043916e+09 -5.040747e+02 -5.961915e+01 -1.010666e+02
-3.012314e+09 -2.812311e+09 -2.972312e+09 1.991579e+03 9.743803e+02 -4.163818e+02
-1.635744e+09 -1.435743e+09 -1.595742e+09 3.897497e+01 -1.904919e+02 -8.151104e+01
-3.066027e+09 -2.866028e+09 -3.026026e+09 -4.248481e+02 -5.826865e+01 -9.025519e+01
-4.432010e+09 -4.232017e+09 -4.392015e+09 -1.186932e+02 5.905337e+01 6.624121e+01
-3.536214e+09 -3.336215e+09 -3.496213e+09 -5.867748e+02 -1.131807e+02 -1.819279e+01
-2.867716e+09 -2.667718e+09 -2.827715e+09 -5.107483e+02 3.940393e+01 -5.738607e+01
-1.667958e+09 -1.467957e+09 -1.627956e+09 -5.651488e+01 -7.581135e+01 -1.076840e+02
-2.818563e+09 -2.618562e+09 -2.778562e+09 4.262598e+00 -9.998756e+01 -7.834434e+01
-2.997430e+09 -2.797436e+09 -2.957431e+09 1.556537e+02 1.844518e+02 -1.820340e+01
-1.913768e+09 -1.713770e+09 -1.873767e+09 1.474948e+02 -1.595120e+02 -2.774177e+01
-2.588539e+09 -2.388547e+09 -2.548541e+09 7.333135e+01 -1.953432e+02 7.944761e+00
-3.284006e+09 -3.084013e+09 -3.244009e+09 6.327791e+02 -1.033459e+03 2.084819e+02
-1.590007e+09 -1.390007e+09 -1.550006e+09 2.156205e+02 -1.716002e+02 -9.892316e+01
-1.869549e+09 -1.669548e+09 -1.829548e+09 1.976303e+01 -3.902808e+01 -1.094059e+02
-3.099734e+09 -2.899742e+09 -3.059737e+09 7.903963e+02 -1.813722e+03 6.120225e+01
-2.911275e+09 -2.711280e+09 -2.871275e+09 1.079098e+01 3.320255e+01 -2.485015e+01
-1.915824e+09 -1.715822e+09 -1.875822e+09 2.063179e+01 1.279571e+01 -1.211201e+02
-3.474706e+09 -3.274713e+09 -3.434709e+09 7.537294e+02 -9.931536e+02 2.593248e+02
-3.548446e+09 -3.348452e+09 -3.508449e+09 8.126245e+02 -1.348857e+03 3.185629e+02
-2.931796e+09 -2.731801e+09 -2.891797e+09 9.769135e+02 -6.849921e+02 2.609477e+02
-2.619698e+09 -2.419703e+09 -2.579699e+09 1.744739e+03 -7.032596e+02 5.034586e+02
-4.918044e+09 -4.718049e+09 -4.878044e+09 1.458768e+01 7.306344e-10 2.804800e+00
-2.912429e+09 -2.712434e+09 -2.872430e+09 -1.462540e+02 1.076985e+01 -7.500188e+01
-1.584761e+09 -1.384758e+09 -1.544760e+09 1.056563e+02 6.547891e+02 -1.467441e+02
-1.895502e+09 -1.695503e+09 -1.855501e+09 -4.131163e+02 1.071188e+02 -1.025940e+02
-2.960472e+09 -2.760472e+09 -2.920471e+09 -3.168743e+02 3.212103e+01 -1.136443e+02
-3.934683e+09 -3.734687e+09 -3.894696e+09 2.667602e+03 4.676547e+03 -1.282558e+03
-3.022695e+09 -2.822695e+09 -2.982694e+09 -3.197522e+02 -4.500939e+01 -8.861723e+01
-2.029896e+09 -1.829897e+09 -1.989895e+09 -3.271479e+02 1.109636e+01 -1.014484e+02
-2.840476e+09 -2.640476e+09 -2.800475e+09 -1.218404e+02 6.518221e+01 -9.070167e+01
-2.611727e+09 -2.411727e+09 -2.571726e+09 -3.067654e+02 -1.187867e+00 -8.751600e+01
-2.032964e+09 -1.832965e+09 -1.992964e+09 -2.229513e+02 1.426525e+01 -9.445717e+01
-1.989728e+09 -1.789727e+09 -1.949727e+09 8.806866e+01 1.127471e+01 -5.162899e+01
-1.788632e+09 -1.588631e+09 -1.748631e+09 1.789830e+01 -7.247789e+00 -4.805524e+01
-2.906749e+09 -2.706748e+09 -2.866748e+09 7.109690e+01 -5.081681e+00 -1.368616e+01
-3.852720e+09 -3.652719e+09 -3.812719e+09 -1.524118e+02 -2.345276e+01 -2.780043e+01
-2.096248e+09 -1.896247e+09 -2.056248e+09 -4.633261e+01 -1.257215e+01 4.555502e-01
-1.657212e+09 -1.457210e+09 -1.617211e+09 -1.509349e+00 -1.738783e+01 -8.239148e+00
-4.123892e+09 -3.923889e+09 -4.083891e+09 1.647710e+03 3.154357e+02 -1.374941e+02
-3.963553e+09 -3.763554e+09 -3.923554e+09 2.720351e+03 6.648128e+02 -2.318351e+02
-3.966405e+09 -3.766405e+09 -3.926405e+09 2.238333e+03 4.109878e+02 -1.548052e+02
-4.132826e+09 -3.932824e+09 -4.092828e+09 3.007832e+03 1.474680e+03 -1.302651e+03
-4.735303e+09 -4.535299e+09 -4.695302e+09 2.820122e+02 7.550224e+01 -9.165446e+01
-2.577540e+09 -2.377541e+09 -2.537539e+09 1.470401e+02 1.288407e+02 -5.204004e+01
-4.599434e+09 -4.399431e+09 -4.559432e+09 1.110844e+03 3.303582e+02 -1.746985e+02
-1.864611e+09 -1.664610e+09 -1.824610e+09 2.662310e+01 7.983942e+00 -4.337634e+01
-4.713660e+09 -4.513660e+09 -4.673661e+09 -4.404996e+02 7.155877e+01 2.687024e+02
-3.444691e+09 -3.244690e+09 -3.404690e+09 4.728141e+01 9.993656e+00 -2.228880e+01
-2.893642e+09 -2.693641e+09 -2.853641e+09 5.959317e+01 2.221291e+01 -4.649127e+01
-1.591517e+09 -1.391514e+09 -1.551515e+09 7.914591e+02 8.194552e+02 -1.893650e+02
-2.213128e+09 -2.013125e+09 -2.173126e+09 1.260498e+02 5.431953e+02 -4.912472e+01
-2.595409e+09 -2.395409e+09 -2.555411e+09 4.924056e+01 -4.364658e+02 -8.910454e+01
-1.982654e+09 -1.782658e+09 -1.942654e+09 1.188628e+03 1.371284e+02 -5.170779e+01
-2.962066e+09 -2.762065e+09 -2.922067e+09 7.440847e+02 -5.604989e+02 -3.263187e+02
-1.902606e+09 -1.702611e+09 -1.862606e+09 5.912665e+02 3.540484e+01 2.325121e+01
-1.900773e+09 -1.700777e+09 -1.860773e+09 3.780043e+02 2.768327e+01 8.378361e+01
-2.848134e+09 -2.648138e+09 -2.808134e+09 9.069473e+02 1.714653e+02 6.917654e+01
-3.120033e+09 -2.920039e+09 -3.080038e+09 1.768371e+02 -3.751590e+01 1.571822e+02
-1.674128e+09 -1.474133e+09 -1.634128e+09 8.890400e+02 1.929862e+01 7.771761e+00
-1.880910e+09 -1.680911e+09 -1.840908e+09 3.120884e+02 -1.172626e+00 1.346616e+01
-2.281199e+09 -2.081199e+09 -2.241198e+09 8.971569e+02 1.453357e+02 -2.886415e+01
-2.877888e+09 -2.677886e+09 -2.837887e+09 -5.945580e+00 -2.066688e+00 -1.127596e+01
-3.022432e+09 -2.822431e+09 -2.982432e+09 -8.818546e+00 -2.894999e-01 -6.252463e+00
-1.883647e+09 -1.683646e+09 -1.843646e+09 -1.567110e+01 -3.568402e+00 -1.873058e+01
-4.936062e+09 -4.736060e+09 -4.896061e+09 0.000000e+00 2.272330e+00 -1.116369e+01
-1.579282e+09 -1.379281e+09 -1.539282e+09 -7.802031e+01 -3.264460e+01 -8.688319e+00
-1.635425e+09 -1.435424e+09 -1.595424e+09 -8.866394e+00 -3.111583e+01 -1.893849e+00
-1.841601e+09 -1.641601e+09 -1.801599e+09 9.001851e+02 2.357804e+02 2.343504e+01
-2.486262e+09 -2.286262e+09 -2.446260e+09 1.829043e+02 6.020241e+01 2.578890e-02
-1.710272e+09 -1.510273e+09 -1.670270e+09 2.798641e+02 4.099787e+01 -3.865376e+00
-3.761859e+09 -3.561858e+09 -3.721858e+09 -6.276487e+01 -1.026477e+01 -7.988686e+00
-1.833722e+09 -1.633723e+09 -1.793721e+09 3.935106e+02 3.063290e+01 4.373212e+00
-3.104618e+09 -2.904617e+09 -3.064617e+09 -2.376820e+02 -3.160238e+01 9.972281e+00
-1.587171e+09 -1.387170e+09 -1.547170e+09 -1.115227e+02 -3.318686e+01 -4.369241e+01
-4.709662e+09 -4.509663e+09 -4.669663e+09 -9.912533e+01 -3.640995e+00 4.303595e+01
-2.067027e+09 -1.867028e+09 -2.027026e+09 2.922804e+02 6.117527e+01 -3.081941e+00
-1.995501e+09 -1.795502e+09 -1.955499e+09 1.089138e+02 2.858879e+01 3.053445e+01
-1.726704e+09 -1.526705e+09 -1.686703e+09 1.442984e+02 4.757877e+01 3.278200e+00
-2.841482e+09 -2.641481e+09 -2.801481e+09 1.095228e+02 -1.420108e+02 -1.194889e+01
-3.935866e+09 -3.735865e+09 -3.895865e+09 1.966297e+02 -1.698646e+02 6.782973e-01
-2.782428e+09 -2.582428e+09 -2.742427e+09 1.101217e+02 -6.323413e+01 -5.841146e+01
-2.654536e+09 -2.454535e+09 -2.614535e+09 1.121344e+02 -6.574216e+01 -6.973888e+01
-4.346382e+09 -4.146384e+09 -4.306384e+09 -7.003152e+00 -3.297393e+00 -3.521823e+01
-4.890116e+09 -4.690118e+09 -4.850118e+09 -1.700557e+01 6.410705e+00 -1.946744e-09
-2.729601e+09 -2.529600e+09 -2.689600e+09 2.462565e+01 -1.415599e+02 -4.914303e+01
-4.890116e+09 -4.690118e+09 -4.850118e+09 -3.441156e+01 -3.092870e+00 1.672694e+01
-2.115494e+09 -1.915493e+09 -2.075493e+09 1.633539e-01 -5.307699e+01 -8.150842e+01
-3.102383e+09 -2.902384e+09 -3.062384e+09 -7.531443e+01 -1.152919e+01 -9.772315e+00
-1.866970e+09 -1.666972e+09 -1.826971e+09 -1.007302e+02 -3.610653e+01 1.212207e+01
-4.890117e+09 -4.690118e+09 -4.850118e+09 -2.454876e+01 1.315317e+01 -4.974376e-05
-3.964503e+09 -3.764508e+09 -3.924504e+09 1.424118e+03 1.619371e+02 -1.480229e+02
-4.323790e+09 -4.123796e+09 -4.283792e+09 1.258842e+03 3.466087e+02 -1.718475e+01
-3.917630e+09 -3.717632e+09 -3.877631e+09 -1.616314e+02 1.891660e+00 -1.390738e+01
-4.894096e+09 -4.694098e+09 -4.854098e+09 -5.224354e+01 1.926514e+00 4.054940e+00
-4.952989e+09 -4.752988e+09 -4.912988e+09 -1.094242e+02 3.170797e+00 1.041824e+01
-4.949204e+09 -4.749203e+09 -4.909203e+09 -1.355676e+02 -1.968331e+00 1.461123e+01
-1.588624e+09 -1.388623e+09 -1.548623e+09 -1.235930e+02 -8.087385e+01 -1.239347e+02
-4.648969e+09 -4.448975e+09 -4.608970e+09 1.091539e+03 4.229975e+01 -5.410354e+01
-3.961240e+09 -3.761244e+09 -3.921240e+09 1.601627e+03 4.536834e+01 -9.180745e+01
-2.358475e+09 -2.158473e+09 -2.318474e+09 -2.250221e+02 -4.005372e+01 -6.188142e+01
-4.144860e+09 -3.944863e+09 -4.104860e+09 1.752200e+03 5.711011e+01 4.632595e+01
-2.187738e+09 -1.987737e+09 -2.147737e+09 -5.676597e+01 -8.017142e+00 -7.195822e+01
-4.806442e+09 -4.606447e+09 -4.766443e+09 1.173314e+03 1.715265e+02 -5.079074e+01
-4.625560e+09 -4.425558e+09 -4.585558e+09 -4.451789e+01 0.000000e+00 -4.154430e+01
-4.633406e+09 -4.433410e+09 -4.593406e+09 1.308091e+03 -1.786877e+01 -2.088817e+01
-3.964503e+09 -3.764508e+09 -3.924504e+09 1.309101e+03 2.355381e+02 -4.386647e+01
-2.185450e+09 -1.985450e+09 -2.145449e+09 -1.142313e+02 3.415739e+01 -6.169244e+01
-1.772432e+09 -1.572431e+09 -1.732431e+09 -6.123188e+01 -2.487343e+01 -7.583315e+01
-3.610109e+09 -3.410107e+09 -3.570107e+09 -6.828504e+01 4.404417e+01 5.036555e+00
-3.169147e+09 -2.969146e+09 -3.129146e+09 -7.190423e+01 -2.286936e+01 -6.768644e+01
-3.959211e+09 -3.759211e+09 -3.919210e+09 -2.420938e+02 -2.361110e+01 -6.650686e+01
-3.504933e+09 -3.304933e+09 -3.464932e+09 -2.433416e+02 -3.271889e+01 -4.702611e+01
-1.821781e+09 -1.621779e+09 -1.781779e+09 -8.886509e+02 -8.087576e+02 -1.771258e+02
-3.216615e+09 -3.016614e+09 -3.176614e+09 -2.278189e+02 9.759390e+00 -9.022678e+01
-2.911133e+09 -2.711132e+09 -2.871132e+09 -3.357464e+01 2.730419e+01 -7.157476e+01
-3.120991e+09 -2.920991e+09 -3.080990e+09 -3.922798e+02 -2.754679e+02 -7.857138e+01
-1.784965e+09 -1.584965e+09 -1.744964e+09 -9.746249e+02 -6.445904e+02 -2.075553e+02
-3.886490e+09 -3.686489e+09 -3.846489e+09 -3.727838e+01 -2.720212e+01 -7.908816e+01
-4.681364e+09 -4.481362e+09 -4.641363e+09 -4.393262e+01 5.392469e-01 -1.140002e+01
-4.128592e+09 -3.928589e+09 -4.088592e+09 -1.144344e+03 1.131621e+02 -4.644426e+02
-3.192513e+09 -2.992510e+09 -3.152512e+09 -1.621327e+01 4.470807e+02 -8.488422e+01
-2.086062e+09 -1.886061e+09 -2.046063e+09 -3.536920e+02 3.351546e+02 -1.535268e+02
-1.682073e+09 -1.482081e+09 -1.642075e+09 -2.714138e+02 -2.966403e+02 -6.320504e+00
-4.981670e+09 -4.781669e+09 -4.941669e+09 -4.851148e+02 -4.760764e+01 -4.137027e+01
-3.804576e+09 -3.604576e+09 -3.764577e+09 -5.229419e+02 2.844086e+02 -2.376098e+02
-3.812698e+09 -3.612695e+09 -3.772698e+09 -5.508543e+02 2.943691e+02 -2.039748e+02
-3.074957e+09 -2.874954e+09 -3.034956e+09 1.848244e+02 3.449445e+02 1.439622e+02
-4.044566e+09 -3.844563e+09 -4.004565e+09 2.958300e+02 1.687839e+02 6.863400e+01
-4.007703e+09 -3.807701e+09 -3.967703e+09 2.098039e+02 1.820540e+02 5.258897e+01
-4.125551e+09 -3.925554e+09 -4.085554e+09 -1.936762e+03 -1.515614e+03 -3.079521e+02
-3.637990e+09 -3.437997e+09 -3.597993e+09 -4.077297e+01 -2.184733e+02 -7.122923e+01
-2.252190e+09 -2.052189e+09 -2.212189e+09 -2.413789e+01 6.557964e-02 -4.126077e+01
-1.873356e+09 -1.673361e+09 -1.833357e+09 2.687112e+02 -2.240671e+01 -2.878733e+01
-1.577874e+09 -1.377877e+09 -1.537874e+09 1.081761e+03 -4.740671e+02 8.531344e+01
-2.082278e+09 -1.882277e+09 -2.042276e+09 -1.119913e+02 1.247581e+01 -8.333452e+01
-2.593641e+09 -2.393640e+09 -2.553640e+09 1.732867e+01 5.899324e+00 -8.457505e+01
-3.357016e+09 -3.157015e+09 -3.317015e+09 -1.532330e+02 -2.906662e+01 -5.582841e+01
-2.577584e+09 -2.377588e+09 -2.537584e+09 4.044177e+02 -2.209797e+02 2.413594e+01
-3.523241e+09 -3.323246e+09 -3.483242e+09 4.561373e+02 -4.002747e+02 3.782670e+01
-1.907328e+09 -1.707332e+09 -1.867328e+09 1.306015e+03 -1.023381e+03 2.667113e+02
-3.405676e+09 -3.205676e+09 -3.365675e+09 -1.776720e+02 -1.146668e+02 -7.301942e+01
-4.482128e+09 -4.282128e+09 -4.442130e+09 1.116436e+03 -5.106370e+02 2.840359e+02
-2.862864e+09 -2.662864e+09 -2.822863e+09 -8.044138e+01 6.004723e+01 -7.249218e+01
-4.782873e+09 -4.582873e+09 -4.742873e+09 -3.021149e+02 5.125599e+00 3.594597e+01
-4.077706e+09 -3.877705e+09 -4.037705e+09 -2.433609e+02 -1.692543e+01 4.710561e+00
-4.981476e+09 -4.781476e+09 -4.941476e+09 -2.564811e+02 -2.351214e+00 3.280748e+01
-4.705362e+09 -4.505364e+09 -4.665363e+09 7.176342e+01 3.241574e+00 3.896531e+01
-2.168558e+09 -1.968557e+09 -2.128557e+09 -1.593914e+01 -1.638991e+00 -6.352944e+01
-3.274270e+09 -3.074269e+09 -3.234269e+09 -2.200703e+02 -2.866836e+01 -2.005339e+01
-3.689338e+09 -3.489339e+09 -3.649339e+09 5.194661e+01 1.306525e+01 3.432155e+01
-5.028787e+09 -4.828786e+09 -4.988786e+09 -2.414851e+02 5.917031e+00 -4.735674e+01
-4.899360e+09 -4.699359e+09 -4.859359e+09 -2.088226e+02 4.044594e+00 6.015727e+00
-4.431491e+09 -4.231490e+09 -4.391490e+09 -3.446206e+01 -6.562257e+00 -1.306756e+01
-4.401226e+09 -4.201228e+09 -4.361227e+09 9.003533e+01 1.818483e+01 2.591929e+01
-3.445021e+09 -3.245019e+09 -3.405020e+09 -2.323722e+02 -2.226272e+01 -2.334274e+01
-4.092785e+09 -3.892784e+09 -4.052784e+09 -9.330770e+01 -1.672772e+01 -3.246195e+01
-3.999089e+09 -3.799088e+09 -3.959088e+09 -2.683573e+02 -3.834284e+01 -9.964758e+00
-4.578318e+09 -4.378317e+09 -4.538317e+09 -2.531661e+02 -1.578256e+01 -2.565197e+01
-4.478445e+09 -4.278443e+09 -4.438444e+09 -1.425043e+02 -1.910389e+01 -1.775793e+01
-4.718234e+09 -4.518235e+09 -4.678235e+09 6.939044e+01 3.589056e+00 -3.656013e+01
-1.585941e+09 -1.385939e+09 -1.545940e+09 -5.945817e+01 -2.718413e+01 -1.974793e+01
-3.913098e+09 -3.713097e+09 -3.873097e+09 -8.195329e+00 7.756615e+00 2.594831e+00
-4.591685e+09 -4.391686e+09 -4.551686e+09 1.671495e+02 1.105788e+01 4.334049e+01
-3.687482e+09 -3.487483e+09 -3.647483e+09 1.952876e+02 2.353256e+01 1.295870e+01
-4.291588e+09 -4.091587e+09 -4.251587e+09 3.661333e+01 1.112815e+01 7.755844e+00
-1.692443e+09 -1.492442e+09 -1.652442e+09 7.811406e+01 2.125159e+01 -3.436449e+01
-3.179425e+09 -2.979424e+09 -3.139424e+09 2.193531e+01 -1.323080e+00 -4.839907e+01
-4.814703e+09 -4.614704e+09 -4.774703e+09 2.178662e+02 -1.083435e+01 -3.921428e+01
-4.980624e+09 -4.780623e+09 -4.940623e+09 4.107363e+01 1.307686e+00 2.008460e+01
-3.968871e+09 -3.768873e+09 -3.928872e+09 -5.429265e+02 -2.265150e+01 2.593835e+01
-4.127927e+09 -3.927929e+09 -4.087929e+09 -8.035062e+02 -4.979049e+01 8.905259e+01
-4.622309e+09 -4.422310e+09 -4.582309e+09 1.525254e+02 7.361820e+00 5.437317e+01
-2.161429e+09 -1.961431e+09 -2.121431e+09 -1.999718e+01 -7.663095e+00 3.174857e+00
-3.957953e+09 -3.757954e+09 -3.917954e+09 -6.433845e+02 -4.417947e+01 3.509012e+01
-2.156450e+09 -1.956450e+09 -2.116450e+09 -8.988889e+01 -1.612633e+01 1.973208e+01
-4.996368e+09 -4.796368e+09 -4.956368e+09 -1.000345e+03 1.624271e+01 -5.464721e+01
-3.969103e+09 -3.769103e+09 -3.929103e+09 -6.762336e+02 -4.487837e+01 2.865388e+01
-1.634143e+09 -1.434141e+09 -1.594141e+09 -2.202012e+02 -1.039386e+02 3.133653e+01
-1.634143e+09 -1.434141e+09 -1.594141e+09 -6.455927e+01 -1.179131e+02 -1.443071e+01
-2.747549e+09 -2.547548e+09 -2.707548e+09 -5.103614e+02 -1.237952e+02 -1.415528e+02
-4.123615e+09 -3.923616e+09 -4.083616e+09 -4.386496e+02 -3.320792e+01 6.694341e+01
-3.906416e+09 -3.706417e+09 -3.866417e+09 -1.971231e+02 1.779725e+00 7.346886e+00
-4.644181e+09 -4.444182e+09 -4.604182e+09 -5.406752e+02 -1.807499e+01 3.519948e+01
-3.374418e+09 -3.174420e+09 -3.334419e+09 -4.067710e+02 -1.861852e+01 6.561088e+00
-3.966216e+09 -3.766218e+09 -3.926217e+09 1.294279e+02 1.968766e+01 5.640311e+01
-2.692695e+09 -2.492693e+09 -2.652693e+09 -3.018638e+01 -5.042450e+01 2.832105e+01
-4.819347e+09 -4.619349e+09 -4.779348e+09 4.397389e+02 1.151750e+01 8.758438e+00
-2.261975e+09 -2.061972e+09 -2.221973e+09 -7.219584e+01 -2.273536e+02 -3.440241e+00
-4.992951e+09 -4.792953e+09 -4.952953e+09 3.574235e+02 -1.867612e+01 -2.593142e+01
-4.810625e+09 -4.610624e+09 -4.770624e+09 4.637336e+02 1.842387e+01 7.916149e+00
-4.995129e+09 -4.795129e+09 -4.955129e+09 4.905423e+02 -2.163657e+01 -5.489271e+01
-3.267115e+09 -3.067114e+09 -3.227114e+09 2.101365e+02 3.492249e+01 2.066902e+01
-3.037852e+09 -2.837851e+09 -2.997851e+09 1.848388e+02 3.948449e+01 -2.341739e+01
-4.642658e+09 -4.442658e+09 -4.602658e+09 1.471876e+03 2.865361e+01 1.932394e+01
-2.198838e+09 -1.998838e+09 -2.158838e+09 2.801613e+02 1.563536e+01 -7.273982e+00
-2.085319e+09 -1.885319e+09 -2.045319e+09 2.273944e+02 1.668444e+01 -1.071503e+01
-3.904998e+09 -3.705001e+09 -3.864998e+09 -9.464718e+02 2.559781e+00 -3.523310e+01
-2.383076e+09 -2.183076e+09 -2.343076e+09 2.298202e+02 5.157245e+01 -4.892788e+00
-4.273315e+09 -4.073321e+09 -4.233316e+09 -2.710696e+02 3.667612e+01 1.700862e+01
-4.997126e+09 -4.797126e+09 -4.957125e+09 -8.059968e+02 2.712384e+01 3.517212e+01
-4.225065e+09 -4.025068e+09 -4.185065e+09 -7.345644e+02 -1.161917e+01 -3.582845e+01
-4.643099e+09 -4.443098e+09 -4.603098e+09 -1.639139e+02 -2.948351e+01 -3.871873e+01
-4.398249e+09 -4.198254e+09 -4.358249e+09 3.602283e+01 2.962833e+01 -1.262110e+01
-4.412285e+09 -4.212291e+09 -4.372286e+09 4.641394e+01 1.843014e+01 -6.877260e+00
-3.965072e+09 -3.765074e+09 -3.925072e+09 -1.701233e+03 2.324806e+02 5.135129e+00
-3.965573e+09 -3.765574e+09 -3.925572e+09 -9.258177e+02 -5.616461e+01 -4.478796e+01
-3.967187e+09 -3.767189e+09 -3.927187e+09 -1.405724e+03 2.134345e+02 -5.383011e+01
-4.638311e+09 -4.438313e+09 -4.598312e+09 -2.100016e+03 3.326096e+02 7.120431e+01
-2.958705e+09 -2.758709e+09 -2.918705e+09 -9.783903e+02 1.299211e+02 -4.937725e+01
-4.655009e+09 -4.455007e+09 -4.615009e+09 -1.289624e+03 9.619740e+01 8.488283e+01
-4.285988e+09 -4.085986e+09 -4.246001e+09 -9.118987e+02 -4.897017e+03 1.868316e+02
-3.553143e+09 -3.353149e+09 -3.513144e+09 4.563829e+01 3.729427e+01 -2.928625e+01
-4.016244e+09 -3.816249e+09 -3.976244e+09 -5.797664e+01 7.972990e+01 -4.068508e+01
-4.983336e+09 -4.783331e+09 -4.943349e+09 -1.507113e+03 -2.573275e+03 -1.146143e+02
-4.689204e+09 -4.489194e+09 -4.649211e+09 -1.775306e+02 -5.177838e+02 -5.694033e+02
-1.593264e+09 -1.393270e+09 -1.553270e+09 -5.083782e+02 1.330223e+02 5.496517e+02
-4.503744e+09 -4.303751e+09 -4.463750e+09 -1.339827e+01 -1.083606e+03 -1.109073e+02
-4.639131e+09 -4.439130e+09 -4.599144e+09 -9.771827e+02 -1.296296e+03 1.470241e+02
-4.966151e+09 -4.766142e+09 -4.926159e+09 -1.949362e+03 -2.602390e+03 -2.340823e+02
-4.660670e+09 -4.460675e+09 -4.620678e+09 -9.707081e+01 -9.193785e+02 1.474081e+02
-3.459990e+09 -3.259990e+09 -3.419992e+09 -5.713695e+02 2.602619e+02 -4.343315e+02
-4.826474e+09 -4.626479e+09 -4.786481e+09 -1.386978e+03 -2.931495e+02 -1.077351e+02
-2.812173e+09 -2.612174e+09 -2.772172e+09 4.776714e+02 -3.300579e+02 4.300661e+01
-4.656089e+09 -4.456088e+09 -4.616089e+09 8.579377e+02 -1.752253e+02 1.305299e+02
-3.870186e+09 -3.670187e+09 -3.830186e+09 8.518019e+02 -3.213277e+02 1.247723e+02
-3.958894e+09 -3.758890e+09 -3.918898e+09 1.012227e+02 -1.628150e+03 2.208652e+03
-4.386917e+09 -4.186918e+09 -4.346917e+09 1.258065e+02 -1.114880e+02 -6.863768e+00
-3.956837e+09 -3.756835e+09 -3.916840e+09 1.126700e+03 -1.591916e+03 1.474848e+03
-3.962792e+09 -3.762791e+09 -3.922802e+09 7.720055e+02 -3.234568e+03 1.992569e+03
-2.806951e+09 -2.606950e+09 -2.766950e+09 1.604228e+02 -1.387533e+02 -4.880891e+01
-4.259596e+09 -4.059595e+09 -4.219596e+09 3.425461e+02 -1.760513e+02 9.224203e+01
-4.440875e+09 -4.240875e+09 -4.400875e+09 5.481498e+02 -2.005500e+02 5.440346e+01
-3.795588e+09 -3.595589e+09 -3.755588e+09 3.238325e+02 -8.790246e+00 -6.061089e+01
-4.802909e+09 -4.602908e+09 -4.762908e+09 3.927105e+02 -6.325379e+01 -1.244066e+01
-5.022306e+09 -4.822302e+09 -4.982282e+09 -2.190498e+03 1.783746e+02 -3.314087e+03
-3.976927e+09 -3.776925e+09 -3.936926e+09 3.780798e+00 -2.594354e+02 1.236417e+02
-3.966284e+09 -3.766285e+09 -3.926292e+09 1.362676e+03 -2.622999e+03 1.597855e+03
-4.841238e+09 -4.641231e+09 -4.801227e+09 -4.366055e+03 1.867213e+03 -9.973512e+02
-3.992607e+09 -3.792604e+09 -3.952583e+09 -3.594951e+03 1.261545e+03 -6.578042e+03
-4.651315e+09 -4.451322e+09 -4.611320e+09 2.249950e+02 6.546331e+02 -3.712471e+01
-2.388424e+09 -2.188430e+09 -2.348425e+09 2.095214e+02 6.362421e+01 -1.116553e+01
-3.968421e+09 -3.768427e+09 -3.928424e+09 1.850352e+03 8.303578e+02 -1.529799e+02
-4.965674e+09 -4.765681e+09 -4.925676e+09 1.966225e+02 -4.204641e+01 4.739036e+01
-4.148940e+09 -3.948947e+09 -4.108943e+09 8.811926e+02 4.252836e+02 -3.195374e+01
-3.865201e+09 -3.665204e+09 -3.825200e+09 2.772862e+02 3.285876e+01 2.566694e+01
-3.968420e+09 -3.768427e+09 -3.928424e+09 1.915984e+03 8.874406e+02 -3.471918e+02
-4.134699e+09 -3.934704e+09 -4.094700e+09 1.378256e+03 3.390014e+02 -8.903886e+01
-4.335841e+09 -4.135840e+09 -4.295821e+09 -4.043891e+03 3.365135e+03 -6.134170e+03
-4.679073e+09 -4.479071e+09 -4.639056e+09 -5.139788e+03 1.909507e+02 -4.209395e+03
-3.963757e+09 -3.763755e+09 -3.923756e+09 -5.735123e+02 -2.160845e+02 1.485010e+02
-4.537064e+09 -4.337064e+09 -4.497030e+09 -1.751505e+03 6.674061e+01 -4.941102e+03
-3.946995e+09 -3.746995e+09 -3.906994e+09 1.782367e+02 -7.439908e+00 -4.410939e+00
-3.977880e+09 -3.777878e+09 -3.937879e+09 -3.126684e+02 -1.570703e+02 3.461956e+01
-3.992606e+09 -3.792600e+09 -3.952585e+09 -4.255449e+03 8.458860e+03 -2.155367e+03
-4.646577e+09 -4.446575e+09 -4.606577e+09 -9.828769e+02 -1.163397e+02 9.719337e+01
-2.879175e+09 -2.679174e+09 -2.839175e+09 -1.330582e+02 -1.081504e+01 1.680704e+01
-4.324543e+09 -4.124541e+09 -4.284542e+09 3.513410e+01 -1.664040e+02 1.247359e+02
-1.636082e+09 -1.436086e+09 -1.596086e+09 6.579430e+01 2.980695e+02 1.322996e+02
-2.211311e+09 -2.011311e+09 -2.171311e+09 -1.751342e+02 -2.717512e+01 -1.343151e+01
-2.253126e+09 -2.053126e+09 -2.213126e+09 -1.989669e+02 -2.481800e+01 -5.101464e+00
-4.481545e+09 -4.281544e+09 -4.441544e+09 -6.328637e+02 -6.316353e+01 1.203128e+01
-2.851720e+09 -2.651719e+09 -2.811720e+09 -1.290220e+02 -2.351183e+01 -2.202826e+01
-2.901113e+09 -2.701112e+09 -2.861112e+09 -2.724502e+02 -5.275910e+01 -1.648352e+01
-5.021963e+09 -4.821958e+09 -4.981929e+09 5.605915e+02 1.163947e+02 -2.180969e+03
-4.981273e+09 -4.781260e+09 -4.941281e+09 -6.555811e+02 2.169198e+03 -9.429079e+02
-3.941810e+09 -3.741800e+09 -3.901815e+09 1.066686e+03 1.872222e+03 -2.565963e+03
-2.024381e+09 -1.824384e+09 -1.984380e+09 5.012129e+02 -6.745390e+01 6.552717e+01
-1.578865e+09 -1.378866e+09 -1.538863e+09 6.024631e+02 1.911797e+02 5.488609e+01
-4.482785e+09 -4.282779e+09 -4.442784e+09 -2.675460e+03 1.674165e+02 -3.683442e+02
-2.729709e+09 -2.529710e+09 -2.689707e+09 2.650866e+02 -2.539235e+00 3.576883e+01
-1.781606e+09 -1.581607e+09 -1.741605e+09 5.592428e+02 1.179609e+02 -5.756262e+01
-2.483032e+09 -2.283034e+09 -2.443031e+09 1.507577e+02 2.582951e+01 2.616606e+01
-4.614858e+09 -4.414848e+09 -4.574861e+09 -4.653950e+02 -5.956657e+01 -1.465625e+03
-5.015253e+09 -4.815250e+09 -4.975269e+09 -1.077410e+03 3.113297e+03 7.513648e+02
-3.962686e+09 -3.762691e+09 -3.922694e+09 -2.275880e+03 2.715498e+03 6.714229e+02
-2.507868e+09 -2.307871e+09 -2.467867e+09 5.071010e+02 7.512107e+01 2.692470e+01
-4.679522e+09 -4.479528e+09 -4.639524e+09 -8.921184e+02 2.945961e+02 2.523558e+01
-3.979222e+09 -3.779228e+09 -3.939224e+09 -1.015150e+03 4.171962e+02 4.564828e+01
-4.843177e+09 -4.643183e+09 -4.803179e+09 -9.647173e+02 1.552005e+02 6.886239e+01
-3.946263e+09 -3.746250e+09 -3.906275e+09 -7.340504e+02 -1.036612e+03 -6.982133e+02
-4.665581e+09 -4.465586e+09 -4.625582e+09 -1.437501e+03 1.290529e+02 1.020708e+01
-3.954868e+09 -3.754864e+09 -3.914878e+09 3.367723e+03 4.355886e+03 -2.753047e+03
-4.488852e+09 -4.288853e+09 -4.448871e+09 -1.722135e+03 5.328865e+03 1.012653e+03
-4.994980e+09 -4.794983e+09 -4.954981e+09 -1.379238e+03 -1.460229e+02 -1.698210e+01
-4.298352e+09 -4.098357e+09 -4.258354e+09 -1.778073e+03 5.225471e+02 1.536077e+02
-4.131010e+09 -3.931015e+09 -4.091012e+09 -1.758656e+03 6.970903e+02 9.444373e+01
-4.504810e+09 -4.304809e+09 -4.464822e+09 -1.052298e+03 2.609324e+03 1.362216e+03
-3.952028e+09 -3.752027e+09 -3.912045e+09 2.869324e+03 6.185526e+03 -2.726000e+03
-4.097630e+09 -3.897617e+09 -4.057639e+09 -1.204681e+03 -9.541511e+02 -2.689300e+03
-3.956280e+09 -3.756276e+09 -3.916300e+09 -8.522587e+02 6.107515e+03 -4.251360e+01
-4.791737e+09 -4.591735e+09 -4.751739e+09 3.402370e+02 -1.676844e+02 -1.289176e+02
-3.937095e+09 -3.737077e+09 -3.897087e+09 -3.188736e+03 -7.965430e+03 -8.966080e+02
-2.667227e+09 -2.467225e+09 -2.627227e+09 -1.718426e+02 -9.649304e+02 -3.654865e+02
-3.951105e+09 -3.751110e+09 -3.911123e+09 -2.354183e+02 6.131064e+03 4.985141e+02
-4.475969e+09 -4.275969e+09 -4.435969e+09 2.156655e+02 -1.719393e+00 3.011188e+00
-2.168218e+09 -1.968215e+09 -2.128217e+09 -1.912871e+02 -6.735129e+02 -4.061296e+02
-3.155448e+09 -2.955445e+09 -3.115448e+09 1.990594e+02 -8.120767e+02 -1.113813e+03
-4.284169e+09 -4.084166e+09 -4.244173e+09 -3.085034e+03 -1.189640e+03 1.395892e+03
-3.944312e+09 -3.744311e+09 -3.904312e+09 -3.076085e+03 5.207111e+02 -7.677809e+01
-4.458249e+09 -4.258248e+09 -4.418248e+09 -2.921132e+03 2.271675e+02 5.983131e+01
-3.953206e+09 -3.753195e+09 -3.913200e+09 -5.333087e+03 2.896582e+03 -1.611837e+03
-4.167103e+09 -3.967103e+09 -4.127106e+09 9.191212e+02 -4.696285e+02 -6.679761e+02
-2.922099e+09 -2.722098e+09 -2.882100e+09 4.100315e+02 -4.431931e+02 -4.854102e+02
-4.293584e+09 -4.093584e+09 -4.253597e+09 -3.223206e+02 -4.408750e+03 9.911949e+02
-4.977250e+09 -4.777252e+09 -4.937243e+09 -2.722803e+02 3.743345e+01 -1.441624e+03
-4.517880e+09 -4.317878e+09 -4.477881e+09 4.032168e+02 -2.186860e+02 -1.226945e+02
-3.968140e+09 -3.768141e+09 -3.928143e+09 4.043350e+01 -1.641109e+02 1.447997e+02
-2.684539e+09 -2.484535e+09 -2.644538e+09 -7.609069e+01 -7.094575e+02 -4.353013e+02
-4.988882e+09 -4.788876e+09 -4.948883e+09 -4.698822e+03 -1.266970e+03 2.304909e+02
-4.305248e+09 -4.105252e+09 -4.265250e+09 -1.616870e+03 4.189391e+02 5.657691e+01
-4.111420e+09 -3.911399e+09 -4.071391e+09 1.316367e+03 -1.267421e+04 -4.796827e+03
-4.814224e+09 -4.614228e+09 -4.774226e+09 -1.790869e+03 4.324431e+02 9.554239e+01
-4.517312e+09 -4.317303e+09 -4.477273e+09 -1.611043e+03 3.668385e+03 -2.935241e+03
-3.953522e+09 -3.753524e+09 -3.913523e+09 -1.904135e+03 3.668860e+02 6.933009e+01
-4.816204e+09 -4.616194e+09 -4.776157e+09 -8.744205e+02 -1.818502e+03 -3.720640e+03
-4.807328e+09 -4.607333e+09 -4.767331e+09 -1.885107e+03 2.263559e+02 1.121936e+01
-4.150974e+09 -3.950982e+09 -4.110979e+09 3.202850e+02 -1.216576e+03 1.332668e+02
-4.993233e+09 -4.793236e+09 -4.953236e+09 -2.258641e+03 9.445359e+01 -2.629156e+01
-4.974936e+09 -4.774926e+09 -4.934928e+09 3.336857e+03 1.268073e-01 -4.345156e+01
-4.134271e+09 -3.934272e+09 -4.094260e+09 -1.741915e+03 2.515622e+03 -7.729635e+03
-4.995068e+09 -4.795059e+09 -4.955031e+09 1.854167e+03 -2.090381e+03 -4.334026e+02
-3.947550e+09 -3.747554e+09 -3.907546e+09 -4.679991e+02 9.673316e+02 -1.601988e+03
-4.296569e+09 -4.096573e+09 -4.256572e+09 -2.430648e+03 6.043747e+02 2.755304e+02
-4.511158e+09 -4.311157e+09 -4.471157e+09 8.957245e+01 4.127445e+00 -3.557609e+00
-3.953521e+09 -3.753525e+09 -3.913523e+09 -2.329608e+03 6.715843e+02 1.857138e+02
-3.947550e+09 -3.747553e+09 -3.907545e+09 -9.992428e+00 4.841269e+02 -1.813278e+03
-4.120863e+09 -3.920868e+09 -4.080865e+09 -1.874003e+03 7.952754e+02 2.268105e+02
-2.808820e+09 -2.608821e+09 -2.768821e+09 -8.271607e+01 -3.888449e+01 -3.791669e+01
-3.944313e+09 -3.744309e+09 -3.904310e+09 -2.644327e+03 1.664815e+03 5.813379e+02
-3.936869e+09 -3.736870e+09 -3.896866e+09 -2.977286e+03 1.638251e+03 -1.711915e+03
-4.215207e+09 -4.015208e+09 -4.175208e+09 -2.221623e+02 -1.350979e+01 2.780588e+01
-3.164105e+09 -2.964105e+09 -3.124105e+09 -3.614810e+02 -4.672238e+01 4.056965e+01
-4.314630e+09 -4.114629e+09 -4.274628e+09 -3.297104e+03 1.532451e+03 -6.681504e+02
-4.280103e+09 -4.080103e+09 -4.240095e+09 -2.967929e+03 2.320554e+03 -5.285574e+02
-1.676417e+09 -1.476417e+09 -1.636417e+09 -3.017371e+02 -4.733445e+01 6.410684e+01
-4.654761e+09 -4.454768e+09 -4.614767e+09 1.054812e+03 6.354520e+02 -2.041611e+02
-4.336031e+09 -4.136038e+09 -4.296033e+09 1.851043e+02 2.546881e+02 3.975667e+01
-4.656278e+09 -4.456285e+09 -4.616282e+09 -9.301601e+02 4.028984e+02 1.922623e+01
-4.518486e+09 -4.318492e+09 -4.478487e+09 -9.267290e+01 5.893343e+01 -1.638190e+01
-4.188555e+09 -3.988552e+09 -4.148554e+09 1.282091e+02 2.702458e+02 -2.561214e+02
-3.957414e+09 -3.757410e+09 -3.917413e+09 3.976522e+02 1.913861e+02 -9.554810e+01
-1.959766e+09 -1.759772e+09 -1.919767e+09 1.266612e+02 2.357680e+02 -1.687022e+01
-1.674099e+09 -1.474105e+09 -1.634100e+09 7.934197e+02 1.640179e+02 2.299467e+01
-4.985014e+09 -4.785012e+09 -4.945015e+09 -2.072404e+03 5.237159e+02 -4.098630e+02
-4.945617e+09 -4.745613e+09 -4.905616e+09 1.531971e+02 5.296849e+01 -1.182297e+02
-4.819897e+09 -4.619892e+09 -4.779897e+09 -6.842595e+02 2.110064e+02 -3.978361e+02
-4.251655e+09 -4.051652e+09 -4.211655e+09 -5.376202e+02 8.221109e+01 -1.511524e+02
-4.133431e+09 -3.933427e+09 -4.093431e+09 -8.020305e+02 1.089930e+02 -3.020476e+02
-4.849086e+09 -4.649092e+09 -4.809087e+09 -4.197344e+02 6.791225e+00 -3.179198e+01
-4.465884e+09 -4.265889e+09 -4.425885e+09 -7.746004e+02 1.007387e+02 -9.778421e+00
-3.480549e+09 -3.280553e+09 -3.440549e+09 -2.526446e+02 1.810741e+02 -5.581565e+01
-3.904911e+09 -3.704915e+09 -3.864911e+09 -8.709222e+02 1.714231e+02 -4.560126e+01
-2.298153e+09 -2.098151e+09 -2.258151e+09 -4.618744e+02 -4.940330e+02 -1.411881e+02
-1.918242e+09 -1.718241e+09 -1.878241e+09 1.098541e+02 3.319848e+01 -1.210160e+01
-3.423317e+09 -3.223316e+09 -3.383316e+09 -4.616218e+02 -1.411157e+02 -4.205412e+01
-3.597721e+09 -3.397718e+09 -3.557719e+09 -1.946505e+02 -1.881560e+02 -8.716235e+00
-2.367875e+09 -2.167874e+09 -2.327873e+09 -3.054584e+02 -1.954331e+02 -4.744405e+01
-3.565923e+09 -3.365923e+09 -3.525923e+09 9.260383e+01 2.531450e+01 2.851688e+01
-4.998445e+09 -4.798444e+09 -4.958444e+09 2.468384e+01 1.519720e+00 1.533860e+01
-2.019970e+09 -1.819968e+09 -1.979968e+09 -5.041904e+02 -3.138574e+02 -1.184227e+01
-3.945317e+09 -3.745318e+09 -3.905318e+09 4.060365e+02 3.631619e+01 2.340420e+01
-1.762154e+09 -1.562154e+09 -1.722154e+09 1.121767e+02 5.671237e+01 -1.527165e+01
-4.791495e+09 -4.591496e+09 -4.751496e+09 2.391203e+02 -7.569550e+00 -2.643191e+01
-4.960339e+09 -4.760339e+09 -4.920339e+09 3.453255e+02 -1.000400e+01 -1.020952e+01
-1.874022e+09 -1.674022e+09 -1.834021e+09 -2.400756e+02 -3.366073e+01 -1.196333e+02
-3.131850e+09 -2.931850e+09 -3.091849e+09 -1.617242e+02 1.420271e+01 -3.984235e+01
-1.882555e+09 -1.682555e+09 -1.842554e+09 -9.367008e+01 2.899356e+01 -1.025359e+02
-4.329778e+09 -4.129777e+09 -4.289777e+09 -3.201699e+01 -8.899146e+00 -2.109488e+00
-4.645127e+09 -4.445129e+09 -4.605133e+09 3.364321e+03 7.017853e+02 -2.982018e+02
-4.987723e+09 -4.787727e+09 -4.947730e+09 2.723645e+03 9.468813e+02 -2.767484e+02
-4.994649e+09 -4.794651e+09 -4.954653e+09 2.692682e+03 5.972136e+02 -2.589610e+02
-2.641524e+09 -2.441523e+09 -2.601523e+09 -4.467759e+01 -2.412692e+01 -6.864701e+00
-4.258406e+09 -4.058405e+09 -4.218406e+09 -2.738087e+02 -2.745379e+01 -3.455648e+01
-3.820651e+09 -3.620650e+09 -3.780650e+09 -1.802869e+02 -1.486134e+01 -2.629587e+01
-4.669053e+09 -4.469052e+09 -4.629052e+09 -1.231945e+01 -1.113534e+00 2.948468e-01
-1.869801e+09 -1.669800e+09 -1.829800e+09 -2.553310e+01 -5.897583e+00 -3.974262e+01
-1.597410e+09 -1.397408e+09 -1.557409e+09 -9.676412e+01 -2.003420e+01 -3.856977e+01
-4.892161e+09 -4.692166e+09 -4.852161e+09 9.147844e+01 -2.489808e-05 -1.780381e+01
-4.943471e+09 -4.743476e+09 -4.903472e+09 2.115622e+02 9.027520e+00 -4.728541e+01
-4.595757e+09 -4.395761e+09 -4.555757e+09 1.421483e+02 3.937612e+01 1.375022e+01
-4.976099e+09 -4.776102e+09 -4.936098e+09 2.682693e+02 -3.384849e+01 -5.856489e+01
-4.498840e+09 -4.298843e+09 -4.458842e+09 2.565702e+03 5.412579e+02 -1.754097e+02
-4.821379e+09 -4.621380e+09 -4.781383e+09 3.141021e+03 5.050079e+02 1.422439e+02
-3.964951e+09 -3.764953e+09 -3.924954e+09 2.936326e+03 9.893870e+02 -2.618369e+02
-3.287562e+09 -3.087567e+09 -3.247562e+09 7.576236e+02 1.816403e+02 -3.144824e+01
-1.991148e+09 -1.791154e+09 -1.951149e+09 7.048414e+02 1.562185e+02 1.132857e+01
-2.124226e+09 -1.924231e+09 -2.084226e+09 3.647032e+02 5.857847e+01 4.194048e+01
-2.601588e+09 -2.401593e+09 -2.561589e+09 3.339345e+02 7.034831e+01 -2.221659e+01
-3.092628e+09 -2.892633e+09 -3.052628e+09 8.875502e+02 9.006103e+01 4.914233e+01
-1.674100e+09 -1.474105e+09 -1.634100e+09 7.474581e+02 9.764711e+01 -2.972677e+01
-3.186938e+09 -2.986938e+09 -3.146937e+09 -3.126243e+02 2.965411e+01 -5.337588e+01
-2.701797e+09 -2.501796e+09 -2.661796e+09 -4.328113e+01 1.972019e+01 -3.744541e+01
-3.145153e+09 -2.945152e+09 -3.105152e+09 -3.161265e+01 2.176352e+01 -4.785548e+01
-4.642517e+09 -4.442517e+09 -4.602516e+09 -2.474123e+02 7.325959e+00 2.065526e+00
-4.777957e+09 -4.577956e+09 -4.737956e+09 -2.366404e+01 -1.943507e+01 -1.140015e+01
-4.425021e+09 -4.225016e+09 -4.385021e+09 -2.169043e+02 2.802961e+02 -4.843113e+02
-4.666914e+09 -4.466912e+09 -4.626914e+09 2.093319e+01 -1.226302e+02 8.379869e+01
-4.565902e+09 -4.365898e+09 -4.525901e+09 1.363482e+02 2.030693e+02 -1.519030e+02
-1.594826e+09 -1.394831e+09 -1.554826e+09 6.840071e+02 -4.539460e+02 8.858540e+01
-2.352007e+09 -2.152005e+09 -2.312007e+09 -3.592681e+02 4.746836e+02 -2.370453e+02
-3.961246e+09 -3.761250e+09 -3.921247e+09 5.422635e+01 -2.395880e+02 3.180902e+01
-1.860819e+09 -1.660819e+09 -1.820818e+09 7.199413e+02 -5.084268e+02 1.273398e+02
-4.985848e+09 -4.785849e+09 -4.945848e+09 4.590678e+02 -3.762271e+01 6.124487e+00
-4.784262e+09 -4.584258e+09 -4.744261e+09 5.571760e+02 2.856820e+02 -2.548641e+02
-1.674909e+09 -1.474910e+09 -1.634908e+09 1.251468e+03 -6.943570e+02 2.286781e+02
-3.987367e+09 -3.787364e+09 -3.947366e+09 5.432854e+02 4.146035e+02 -2.743399e+02
-4.322433e+09 -4.122431e+09 -4.282432e+09 -2.460435e+02 -2.324842e+02 2.479551e+02
-4.890119e+09 -4.690117e+09 -4.850117e+09 -7.193168e+01 -9.946221e-05 -1.072620e+01
-3.363303e+09 -3.163301e+09 -3.323302e+09 -3.794026e+01 -1.472809e+01 -3.106058e+01
-1.868484e+09 -1.668482e+09 -1.828482e+09 -5.648791e+01 -4.447544e+01 -7.954860e+01
-4.437784e+09 -4.237783e+09 -4.397783e+09 -8.758413e+01 -5.541160e+00 -1.956200e+01
-2.911036e+09 -2.711035e+09 -2.871035e+09 -8.721601e+01 -6.201676e+01 -4.616466e+01
-4.029789e+09 -3.829789e+09 -3.989791e+09 -1.379940e+03 1.593610e+02 -1.667236e+02
-3.370930e+09 -3.170927e+09 -3.330929e+09 5.526881e+02 4.678103e+02 -2.319713e+02
-2.850994e+09 -2.650997e+09 -2.810998e+09 -7.267026e+02 1.674052e+02 9.154782e+01
-1.900086e+09 -1.700082e+09 -1.860086e+09 -1.176053e+03 8.175288e+02 -8.583711e+02
-4.631194e+09 -4.431193e+09 -4.591195e+09 -1.514674e+03 1.356713e+02 -6.316481e+01
-4.293558e+09 -4.093556e+09 -4.253558e+09 -3.932425e+02 -1.089824e+01 -3.522268e+01
-1.607950e+09 -1.407947e+09 -1.567949e+09 4.367515e+01 9.140540e+02 -5.953641e+02
-3.744245e+09 -3.544244e+09 -3.704244e+09 8.317436e+00 1.983651e+00 -1.136884e+01
-1.762271e+09 -1.562270e+09 -1.722270e+09 1.354759e+02 3.004155e+01 -3.863359e+01
-3.191569e+09 -2.991568e+09 -3.151568e+09 3.484997e+01 8.473893e+00 -1.225457e+00
-4.981670e+09 -4.781670e+09 -4.941669e+09 -4.016961e+02 2.900202e+01 -7.501026e+01
-4.492162e+09 -4.292161e+09 -4.452161e+09 2.087700e+02 2.228001e+01 -2.047108e+01
-4.625560e+09 -4.425558e+09 -4.585558e+09 -2.482841e+01 -3.926979e+01 0.000000e+00
-1.700506e+09 -1.500509e+09 -1.660506e+09 -5.487716e+02 -1.827832e+02 -8.430350e+01
-2.917956e+09 -2.717961e+09 -2.877958e+09 -2.053375e+02 -1.472121e+02 -1.402788e+02
-4.103419e+09 -3.903418e+09 -4.063418e+09 1.939044e+02 1.315309e+01 -9.517365e+00
-2.877124e+09 -2.677124e+09 -2.837123e+09 -2.826351e+01 -7.996516e+01 -3.578109e+01
-4.086111e+09 -3.886110e+09 -4.046109e+09 -5.118275e+02 -2.304448e+02 -7.842433e+01
-3.215867e+09 -3.015866e+09 -3.175866e+09 1.932129e+01 1.616655e-01 -1.849020e+01
-4.976833e+09 -4.776839e+09 -4.936837e+09 -9.211556e+02 -3.629571e+02 -1.993394e+01
-4.028905e+09 -3.828909e+09 -3.988906e+09 -1.181999e+02 -2.450584e+02 -3.486969e+01
-3.317413e+09 -3.117411e+09 -3.277412e+09 2.537130e+01 1.748632e+00 2.296652e-01
-2.151184e+09 -1.951183e+09 -2.111184e+09 3.005990e+01 1.194699e+01 3.466315e+00
-3.537684e+09 -3.337685e+09 -3.497685e+09 -2.055566e+02 -1.248813e+01 -1.784184e+01
-3.414333e+09 -3.214336e+09 -3.374334e+09 -8.808643e+01 -1.523813e+02 -5.305153e+00
-4.586157e+09 -4.386159e+09 -4.546158e+09 -2.426683e+02 -1.010251e+01 -8.374268e+00
-3.966432e+09 -3.766434e+09 -3.926433e+09 -5.749253e+01 1.565621e+00 3.623388e+00
-4.044885e+09 -3.844885e+09 -4.004884e+09 -1.050889e+02 -1.557311e+02 -5.439140e+01
-4.621103e+09 -4.421105e+09 -4.581104e+09 7.169340e+01 1.641568e+00 -1.223189e+01
-3.377528e+09 -3.177530e+09 -3.337530e+09 -1.323747e+02 -5.698864e+00 1.559400e+01
-3.496200e+09 -3.296201e+09 -3.456200e+09 -7.499059e+01 -1.518367e+01 3.801994e+01
-4.890120e+09 -4.690118e+09 -4.850118e+09 3.533453e+02 7.542015e+01 4.758814e-07
-4.984187e+09 -4.784194e+09 -4.944192e+09 4.708454e+02 -3.945389e+02 4.568648e+01
-4.976376e+09 -4.776377e+09 -4.936377e+09 -1.658629e+02 -3.956171e+00 1.096892e+01
-4.457118e+09 -4.257117e+09 -4.417117e+09 1.267026e+02 7.883372e+00 -2.422016e+01
-3.630593e+09 -3.430592e+09 -3.590592e+09 1.219018e+01 -9.519578e+00 -1.048795e+01
-2.960641e+09 -2.760643e+09 -2.920642e+09 -1.039228e+02 -5.549653e+00 -1.474856e+00
-4.983495e+09 -4.783500e+09 -4.943499e+09 9.447797e+02 -3.229282e+02 7.913259e+01
-1.984246e+09 -1.784247e+09 -1.944247e+09 -1.413942e+02 -2.498420e+01 2.694878e+01
-2.835199e+09 -2.635200e+09 -2.795200e+09 -1.209769e+02 1.153384e+01 -1.079311e+01
-2.600942e+09 -2.400941e+09 -2.560941e+09 -3.689353e+01 -1.477935e+01 -9.578957e+01
-1.577893e+09 -1.377891e+09 -1.537891e+09 1.092203e+03 7.565116e+02 -1.751078e+02
-2.735745e+09 -2.535743e+09 -2.695744e+09 -1.276815e+02 -1.327417e+02 -7.507891e+01
-3.969512e+09 -3.769519e+09 -3.929518e+09 7.662973e+02 -1.748071e+03 2.663028e+02
-4.977095e+09 -4.777092e+09 -4.937094e+09 1.232368e+03 1.129057e+01 -7.013338e+01
-2.219939e+09 -2.019937e+09 -2.179937e+09 -7.604684e-01 -2.997075e+00 -8.864519e+01
-3.089074e+09 -2.889073e+09 -3.049073e+09 -1.636524e+02 -9.062493e+01 -3.783688e+01
-3.910126e+09 -3.710125e+09 -3.870125e+09 -8.405178e+01 -5.330766e+01 -1.636333e+01
-3.937873e+09 -3.737871e+09 -3.897872e+09 -1.235357e+02 -2.660019e+01 -6.797547e+01
-3.301862e+09 -3.101864e+09 -3.261861e+09 -6.449462e+02 -1.500810e+02 -2.243745e+02
-2.971192e+09 -2.771196e+09 -2.931193e+09 -1.275697e+03 -8.093013e+02 -2.067976e+02
-4.619421e+09 -4.419422e+09 -4.579422e+09 1.836538e+02 2.304299e-01 -1.323426e+01
-1.897387e+09 -1.697385e+09 -1.857386e+09 -8.631829e+01 -3.356205e+01 -8.170466e+01
-4.801736e+09 -4.601738e+09 -4.761738e+09 2.908889e+02 -8.485648e+00 -3.890555e+01
-4.312939e+09 -4.112947e+09 -4.272944e+09 3.290027e+02 -6.059830e+02 8.069125e+01
-4.810558e+09 -4.610560e+09 -4.770560e+09 3.613969e+02 -2.315155e+01 -8.847294e+00
-4.890116e+09 -4.690124e+09 -4.850119e+09 -1.075186e+00 4.973770e-05 1.493867e+01
-4.698515e+09 -4.498523e+09 -4.658519e+09 -1.222326e+02 -9.693917e+01 -7.906692e+01
-2.516779e+09 -2.316786e+09 -2.476781e+09 9.838739e+02 -1.305653e+03 2.077802e+02
-3.031124e+09 -2.831133e+09 -2.991128e+09 1.791619e+02 -2.035468e+03 2.081194e+02
-4.517293e+09 -4.317300e+09 -4.477296e+09 -1.845443e+02 -1.134425e+02 3.166234e+01
-4.999908e+09 -4.799914e+09 -4.959915e+09 1.040794e+02 -6.671929e+02 5.523856e+01
-4.031052e+09 -3.831059e+09 -3.991056e+09 -7.997654e+02 -1.308808e+03 -1.779223e+02
-4.633149e+09 -4.433154e+09 -4.593154e+09 -1.192499e+03 -5.906073e+02 -6.598706e+01
-4.818532e+09 -4.618539e+09 -4.778537e+09 -2.705253e+02 -2.964261e+02 -6.318073e+01
-4.142026e+09 -3.942032e+09 -4.102033e+09 -5.065837e+02 -2.224379e+03 -6.192650e+01
-4.992556e+09 -4.792562e+09 -4.952563e+09 -1.024758e+03 -7.563183e+02 3.948959e+01
-4.942340e+09 -4.742339e+09 -4.902339e+09 -6.050622e+01 5.936637e+00 -9.992760e+00
-4.961497e+09 -4.761496e+09 -4.921496e+09 1.013061e+01 -9.817782e-01 1.231503e+01
-4.109501e+09 -3.909500e+09 -4.069500e+09 3.026557e+01 2.409502e+01 3.273580e+00
-3.569661e+09 -3.369662e+09 -3.529661e+09 -2.780992e+02 -1.572952e+01 -6.129461e+00
-3.198021e+09 -2.998022e+09 -3.158022e+09 -1.530746e+02 -2.443143e+01 -6.173235e+01
-3.910149e+09 -3.710148e+09 -3.870148e+09 1.508807e+01 -1.716508e+00 -3.433739e+01
-2.012822e+09 -1.812822e+09 -1.972822e+09 -2.841131e+02 -6.392197e+01 7.596484e-01
-2.546271e+09 -2.346272e+09 -2.506272e+09 -1.917420e+02 -3.132565e+01 -4.875965e+00
-1.570754e+09 -1.370755e+09 -1.530755e+09 -2.621131e+02 -2.982939e+01 -3.848585e+01
-3.143423e+09 -2.943424e+09 -3.103424e+09 -3.751827e+02 -4.341428e+01 4.780469e+01
-4.485214e+09 -4.285219e+09 -4.445214e+09 3.244572e+02 4.408901e+00 9.435322e+00
-1.632487e+09 -1.432485e+09 -1.592485e+09 -2.021626e+02 -3.747455e+02 -3.872290e+01
-4.651459e+09 -4.451458e+09 -4.611468e+09 5.608083e+02 -1.071862e+03 6.142306e+02
-3.961240e+09 -3.761244e+09 -3.921240e+09 1.318282e+03 1.958340e+02 -4.033752e+00
-4.994201e+09 -4.794206e+09 -4.954202e+09 1.409525e+03 8.060116e+01 1.519048e+01
-4.412340e+09 -4.212346e+09 -4.372341e+09 -1.103938e+02 1.727425e+01 -1.910524e+01
-3.767735e+09 -3.567741e+09 -3.727736e+09 -2.378942e+02 1.734622e+02 -4.465084e+01
-4.146486e+09 -3.946492e+09 -4.106488e+09 -5.713500e+02 3.044736e+01 -2.539318e+01
-3.977014e+09 -3.777021e+09 -3.937016e+09 5.095740e+02 3.503260e+02 -4.539099e+01
-4.974558e+09 -4.774564e+09 -4.934559e+09 8.286212e+02 4.940751e+01 2.318024e+01
-4.997047e+09 -4.797054e+09 -4.957052e+09 6.554666e+02 3.616294e+02 2.075288e+01
-4.548901e+09 -4.348906e+09 -4.508902e+09 -2.376426e+02 3.057971e+01 -2.634235e+01
-4.993587e+09 -4.793591e+09 -4.953596e+09 4.119480e+02 -9.734179e+02 1.515394e+02
-3.819342e+09 -3.619346e+09 -3.779342e+09 -2.865862e+02 9.978013e+00 -7.803999e+01
-4.998119e+09 -4.798124e+09 -4.958123e+09 1.862673e+03 5.524291e+02 1.237239e+01
-4.988092e+09 -4.788098e+09 -4.948093e+09 -1.606112e+02 2.629767e+01 1.135241e+01
-3.955574e+09 -3.755568e+09 -3.915575e+09 1.561919e+03 -7.240721e+02 -1.605132e+03
-3.284522e+09 -3.084517e+09 -3.244522e+09 5.486820e+02 -1.027142e+03 -1.486073e+03
-4.115600e+09 -3.915592e+09 -4.075599e+09 3.386428e+03 6.961642e+02 -9.840128e+02
-4.122603e+09 -3.922594e+09 -4.082605e+09 4.452724e+02 -1.913590e+03 -1.726360e+03
-4.768931e+09 -4.568937e+09 -4.728933e+09 -9.619165e+01 1.261214e+01 6.628109e+00
-4.459578e+09 -4.259573e+09 -4.419597e+09 1.850874e+03 4.502946e+03 -1.829122e+01
-3.951074e+09 -3.751065e+09 -3.911072e+09 2.036364e+03 -1.932292e+02 -1.991373e+03
-4.980804e+09 -4.780801e+09 -4.940821e+09 2.846511e+01 2.990202e+03 -1.693199e+02
-4.496532e+09 -4.296526e+09 -4.456539e+09 -2.106339e+03 -2.091964e+03 -1.553006e+03
-4.811502e+09 -4.611496e+09 -4.771506e+09 3.791538e+02 -1.020401e+03 -1.280050e+03
-4.813595e+09 -4.613599e+09 -4.773611e+09 -2.346871e+02 2.597898e+03 8.603653e+02
-4.664873e+09 -4.464874e+09 -4.624889e+09 -1.469935e+03 2.357562e+03 6.489868e+02
-4.815673e+09 -4.615672e+09 -4.775672e+09 -3.952203e+02 -1.177502e+01 -6.321822e+01
-4.980804e+09 -4.780806e+09 -4.940822e+09 7.084062e+02 2.951538e+03 -1.778329e+02
-4.627645e+09 -4.427631e+09 -4.587648e+09 -1.513319e+03 -1.690086e+03 -1.154314e+03
-4.824174e+09 -4.624172e+09 -4.784173e+09 7.088895e+01 -6.349875e+01 -5.291166e+01
-4.793002e+09 -4.593004e+09 -4.753004e+09 -1.377936e+02 -3.700667e+00 -1.866732e+02
-4.602725e+09 -4.402723e+09 -4.562738e+09 2.381440e+03 2.004444e+03 -8.952047e+02
-4.125222e+09 -3.925225e+09 -4.085224e+09 1.020672e+02 1.428367e+01 -1.348445e+02
-4.138427e+09 -3.938429e+09 -4.098428e+09 2.623897e+02 1.008592e+01 -7.862612e+01
-4.818743e+09 -4.618749e+09 -4.778744e+09 9.166722e+02 2.238134e+02 -4.007892e+01
-5.006713e+09 -4.806719e+09 -4.966714e+09 5.670743e+02 3.748302e+01 5.298031e+01
-4.819136e+09 -4.619134e+09 -4.779142e+09 -2.746544e+03 1.239561e+03 6.745530e+02
-4.818726e+09 -4.618729e+09 -4.778735e+09 -2.483572e+03 1.312828e+03 2.558046e+02
-4.315660e+09 -4.115665e+09 -4.275661e+09 1.318062e+03 3.526083e+02 3.338751e+01
-4.990801e+09 -4.790808e+09 -4.950806e+09 -6.881162e+02 2.231017e+02 4.308767e+01
-4.475393e+09 -4.275399e+09 -4.435396e+09 1.701690e+03 5.199999e+02 -3.943209e+01
-3.961103e+09 -3.761110e+09 -3.921108e+09 -8.789361e+02 1.275523e+03 1.173393e+02
-4.306331e+09 -4.106326e+09 -4.266331e+09 -2.861325e+03 1.419812e+03 1.650988e+03
-3.975644e+09 -3.775650e+09 -3.935646e+09 -5.134515e+02 6.325616e+02 -7.453986e+00
-4.336289e+09 -4.136295e+09 -4.296291e+09 -8.834975e+02 2.473128e+00 -1.615760e+01
-4.805266e+09 -4.605264e+09 -4.765268e+09 -2.377862e+03 9.305788e+02 2.192823e+02
-4.492173e+09 -4.292179e+09 -4.452176e+09 1.095423e+03 5.541689e+02 -1.455258e+02
-4.817735e+09 -4.617733e+09 -4.777734e+09 -1.358305e+03 9.375455e+01 1.540622e+02
-3.960621e+09 -3.760620e+09 -3.920629e+09 -3.536001e+03 2.857393e+03 2.598898e+03
-4.827409e+09 -4.627408e+09 -4.787413e+09 -2.884539e+03 -2.054696e+01 8.167696e+01
-4.997495e+09 -4.797496e+09 -4.957495e+09 -1.519795e+03 -6.231504e+01 -5.914954e+01
-4.662906e+09 -4.462906e+09 -4.622906e+09 -1.757592e+03 1.907321e+02 4.359998e+01
-4.128965e+09 -3.928963e+09 -4.088964e+09 -1.159375e+03 2.348709e+02 2.232716e+02
-4.820744e+09 -4.620737e+09 -4.780748e+09 -2.009696e+03 1.033306e+03 3.938137e+02
-4.467392e+09 -4.267392e+09 -4.427392e+09 4.750018e+02 1.822655e+01 -1.926534e+01
-4.976020e+09 -4.776027e+09 -4.936024e+09 -7.741730e+02 5.963595e+00 2.221842e+02
-4.481461e+09 -4.281460e+09 -4.441460e+09 5.295343e+02 1.340716e+01 -1.754487e+01
-3.968294e+09 -3.768293e+09 -3.928293e+09 4.019452e+02 5.200970e+01 -2.264827e+01
-4.997992e+09 -4.797991e+09 -4.957991e+09 5.401137e+02 -1.756104e+01 -2.504370e+01
-4.822761e+09 -4.622762e+09 -4.782761e+09 6.616299e+02 -1.699894e+01 -3.818037e+01
-3.849106e+09 -3.649112e+09 -3.809109e+09 -2.149399e+03 -3.977605e+02 7.020432e+02
-4.996414e+09 -4.796414e+09 -4.956414e+09 5.780937e+02 -1.823420e+01 -1.993926e+01
-4.608937e+09 -4.408945e+09 -4.568942e+09 -1.740742e+03 6.112976e+01 5.342500e+02
-4.138228e+09 -3.938227e+09 -4.098228e+09 5.347449e+02 1.019905e+01 -3.227595e+01
-4.987735e+09 -4.787734e+09 -4.947734e+09 2.825956e+02 -1.308942e+01 1.028880e+00
-4.806069e+09 -4.606076e+09 -4.766071e+09 -1.606195e+03 4.151986e+02 1.371717e+02
-3.400595e+09 -3.200603e+09 -3.360602e+09 -3.895587e+02 -2.151750e+01 6.769984e+02
-3.961908e+09 -3.761908e+09 -3.921908e+09 6.567302e+02 6.175352e+01 8.365930e-01
-4.212080e+09 -4.012088e+09 -4.172085e+09 1.891700e+02 4.618583e+01 5.717256e+02
-3.370711e+09 -3.170719e+09 -3.330717e+09 -7.911489e+01 -7.515380e+01 1.638978e+02
-4.990676e+09 -4.790676e+09 -4.950676e+09 7.398144e+02 -3.555550e+01 -3.862264e+01
-4.816545e+09 -4.616544e+09 -4.776549e+09 1.095699e+03 -1.033428e+03 3.460295e+02
-4.820744e+09 -4.620736e+09 -4.780751e+09 -1.147678e+03 1.657354e+03 8.920850e+02
-4.830100e+09 -4.630097e+09 -4.790099e+09 2.093404e+03 4.751167e+01 1.441845e+02
-4.294443e+09 -4.094438e+09 -4.254450e+09 -7.978245e+02 -2.027395e+03 2.181138e+03
-3.961237e+09 -3.761238e+09 -3.921247e+09 1.250774e+03 -3.697725e+03 1.814660e+03
-4.638750e+09 -4.438749e+09 -4.598762e+09 -1.620002e+02 -1.166802e+03 6.250713e+02
-4.659985e+09 -4.459982e+09 -4.619985e+09 2.509462e+03 3.605879e+02 -1.618092e+02
-3.967139e+09 -3.767137e+09 -3.927139e+09 2.612143e+03 8.087185e+02 -4.245873e+02
-4.819451e+09 -4.619450e+09 -4.779462e+09 9.429756e+01 -1.132409e+03 1.293402e+02
-4.650489e+09 -4.450484e+09 -4.610493e+09 2.251097e+03 8.137838e+02 -7.727697e+02
-4.993125e+09 -4.793121e+09 -4.953125e+09 1.258838e+03 8.244821e+01 -1.914944e+02
-3.961882e+09 -3.761877e+09 -3.921891e+09 -1.809425e+03 -1.310922e+03 1.750546e+03
-4.970962e+09 -4.770965e+09 -4.930964e+09 1.321391e+02 -3.021869e+00 -3.246598e+01
-3.953898e+09 -3.753900e+09 -3.913900e+09 -9.689308e+02 3.539815e+01 -3.460376e+01
-4.996588e+09 -4.796591e+09 -4.956590e+09 -4.489833e+02 -3.404016e+01 1.793328e+01
-4.652554e+09 -4.452551e+09 -4.612555e+09 2.379207e+03 4.825081e+02 -2.154450e+02
-4.996588e+09 -4.796592e+09 -4.956590e+09 -7.520568e+01 2.755420e+01 -1.466943e+02
-4.479905e+09 -4.279905e+09 -4.439907e+09 3.359588e+03 7.170389e+02 -4.352048e+02
-4.136204e+09 -3.936200e+09 -4.096204e+09 2.191074e+03 8.325645e+02 -4.773764e+02
-3.967541e+09 -3.767537e+09 -3.927541e+09 2.102256e+03 9.121564e+02 -7.113573e+02
-4.633363e+09 -4.433358e+09 -4.593315e+09 2.197533e+03 3.765579e+03 3.236454e+03
-4.809082e+09 -4.609079e+09 -4.769082e+09 -9.392159e+02 -1.576421e+01 -8.841381e+01
-3.950884e+09 -3.750867e+09 -3.910864e+09 -8.856490e+02 1.056509e+04 1.124720e+03
-3.946749e+09 -3.746748e+09 -3.906751e+09 -2.719225e+03 1.119868e+03 7.411015e+02
-3.946749e+09 -3.746747e+09 -3.906749e+09 -1.868544e+03 1.918281e+02 1.548445e+02
-4.146707e+09 -3.946700e+09 -4.106706e+09 -2.552414e+02 6.866789e+02 1.714984e+03
-4.808122e+09 -4.608112e+09 -4.768077e+09 2.230506e+03 1.760236e+03 4.528409e+03
-4.289116e+09 -4.089110e+09 -4.249044e+09 2.212610e+02 5.008396e+03 6.387374e+03
-3.985454e+09 -3.785441e+09 -3.945400e+09 -1.238370e+03 7.364091e+03 -3.450542e+03
-4.998868e+09 -4.798870e+09 -4.958844e+09 -3.443504e+03 -8.876986e+02 2.747425e+03
-4.642885e+09 -4.442878e+09 -4.602873e+09 4.852328e+03 -6.673248e+02 9.017164e+03
-4.148432e+09 -3.948422e+09 -4.108438e+09 -1.697797e+03 -9.359638e+02 -7.968960e+02
-3.953961e+09 -3.753948e+09 -3.913954e+09 2.646368e+03 9.276310e+03 8.795042e+02
-4.980573e+09 -4.780562e+09 -4.940557e+09 1.271113e+03 -4.919160e+01 -5.101277e+02
-4.482743e+09 -4.282726e+09 -4.442729e+09 -2.842172e+03 5.458676e+02 6.804290e+02
-5.009374e+09 -4.809362e+09 -4.969350e+09 -9.528086e+02 4.285795e+02 -8.654808e+02
-4.800257e+09 -4.600245e+09 -4.760243e+09 1.654796e+03 -3.466711e+02 1.826317e+03
-4.820743e+09 -4.620735e+09 -4.780744e+09 1.873248e+03 6.408073e+02 1.767336e+02
-4.804227e+09 -4.604216e+09 -4.764196e+09 -2.968910e+03 2.533327e+02 -4.015295e+03
-4.304739e+09 -4.104727e+09 -4.264699e+09 1.100472e+03 6.903469e+03 -4.152561e+02
-4.849320e+09 -4.649306e+09 -4.809313e+09 -2.751594e+02 2.680017e+03 2.602205e+02
-4.624723e+09 -4.424709e+09 -4.584695e+09 9.666356e+02 5.918585e+03 3.299333e+03
-4.985977e+09 -4.785969e+09 -4.945929e+09 2.806954e+03 1.134371e+03 5.240896e+02
-3.778483e+09 -3.578491e+09 -3.738489e+09 2.828216e+02 -2.253103e+01 2.616491e+02
-4.477504e+09 -4.277507e+09 -4.437503e+09 -4.584201e+03 1.374388e+03 -4.761345e+03
-5.022309e+09 -4.822304e+09 -4.982284e+09 -3.720811e+03 6.287392e+02 -2.553947e+03
-4.686639e+09 -4.486627e+09 -4.646623e+09 -5.303692e+03 3.872366e+03 -9.836196e+02
-4.983419e+09 -4.783425e+09 -4.943424e+09 1.491025e+03 -2.325127e+01 -1.998253e+02
-2.889811e+09 -2.689817e+09 -2.849816e+09 -4.301577e+02 1.621161e+02 1.136470e+02
-2.516760e+09 -2.316766e+09 -2.476765e+09 9.463318e+01 -1.686253e+02 -1.985207e+01
-4.339314e+09 -4.139302e+09 -4.299268e+09 -2.676288e+03 4.694632e+03 -1.759302e+03
-4.343407e+09 -4.143395e+09 -4.303393e+09 -5.452481e+03 1.768345e+03 -2.488913e+03
-3.970210e+09 -3.770218e+09 -3.930217e+09 -6.551799e+01 -2.063495e+03 7.571293e+01
-3.837671e+09 -3.637671e+09 -3.797670e+09 -2.048633e+01 2.679737e+01 -5.366249e+01
-4.971353e+09 -4.771356e+09 -4.931353e+09 -2.952533e+02 -1.904975e+01 4.055894e+01
-2.065167e+09 -1.865166e+09 -2.025165e+09 -4.117211e+00 -5.469627e+01 -7.692411e+01
-4.653342e+09 -4.453344e+09 -4.613349e+09 -2.704647e+03 1.355234e+03 4.930106e+02
-3.715126e+09 -3.515127e+09 -3.675125e+09 7.314003e+02 -9.178703e+01 5.958998e+01
-4.973852e+09 -4.773849e+09 -4.933851e+09 9.259566e+01 -1.176669e+01 3.829661e+01
-3.927560e+09 -3.727561e+09 -3.887559e+09 2.970933e+02 -2.214721e+01 -3.378041e+01
-3.946750e+09 -3.746748e+09 -3.906751e+09 -2.682887e+03 8.104009e+02 7.591837e+02
-4.477512e+09 -4.277501e+09 -4.437512e+09 -8.725417e+02 -8.590501e+02 2.769418e+03
-4.967725e+09 -4.767726e+09 -4.927724e+09 5.267034e+02 4.482027e+01 -3.903622e+01
-4.114717e+09 -3.914720e+09 -4.074718e+09 -1.343583e+03 1.501443e+02 -7.437769e+02
-3.656576e+09 -3.456575e+09 -3.616575e+09 8.369640e+01 -4.094777e+01 -6.673589e+01
-2.973824e+09 -2.773824e+09 -2.933823e+09 1.811219e+02 -2.972642e+01 -4.384048e+01
-4.631710e+09 -4.431717e+09 -4.591718e+09 -5.924733e+02 1.232042e+03 2.102537e+01
-4.645819e+09 -4.445816e+09 -4.605819e+09 -1.371565e+02 -9.880805e+01 -7.246713e+01
-4.892351e+09 -4.692348e+09 -4.852350e+09 -2.455559e+02 -1.064755e+02 4.668874e-07
-4.639069e+09 -4.439076e+09 -4.599074e+09 -1.047758e+03 6.280660e+02 1.631275e+01
-4.130076e+09 -3.930082e+09 -4.090083e+09 -1.986381e+03 1.899307e+03 4.620326e+02
-2.860728e+09 -2.660726e+09 -2.820730e+09 1.509530e+03 -6.387727e+02 -1.021412e+03
-2.670075e+09 -2.470078e+09 -2.630079e+09 5.538051e+02 -3.261872e+02 9.007645e+01
-4.289447e+09 -4.089453e+09 -4.249455e+09 -1.415000e+03 2.153000e+03 5.093108e+02
-3.782962e+09 -3.582962e+09 -3.742962e+09 -1.466707e+02 -3.888089e+01 1.365589e+01
-2.882886e+09 -2.682886e+09 -2.842886e+09 -8.238516e+01 -3.785951e+01 -4.986465e+01
-2.647004e+09 -2.447004e+09 -2.607004e+09 -7.238275e+01 -2.661729e+01 -6.007919e+01
-4.802516e+09 -4.602516e+09 -4.762516e+09 -1.765453e+02 -2.682370e+01 -2.774562e+01
-1.567472e+09 -1.367478e+09 -1.527478e+09 1.883046e+02 1.856577e+02 5.811717e+02
-4.571548e+09 -4.371548e+09 -4.531550e+09 9.128546e+02 -1.209775e+02 -3.000512e+02
-4.587523e+09 -4.387523e+09 -4.547523e+09 -3.616570e+02 -1.906470e+01 2.329098e+01
-2.670036e+09 -2.470037e+09 -2.630035e+09 5.406353e+01 -1.777695e+01 1.863770e+01
-3.427187e+09 -3.227187e+09 -3.387187e+09 -3.230665e+02 -1.543705e+01 1.266656e+01
-3.524498e+09 -3.324499e+09 -3.484496e+09 8.416049e+01 -1.240238e+01 1.699433e+01
-3.154979e+09 -2.954979e+09 -3.114979e+09 -3.569931e+02 -3.371741e+01 -2.119561e+01
-1.578865e+09 -1.378867e+09 -1.538864e+09 5.123560e+02 6.023086e+01 1.811667e+01
-4.938273e+09 -4.738274e+09 -4.898272e+09 0.000000e+00 3.230124e+01 -1.738860e+01
-2.917245e+09 -2.717242e+09 -2.877243e+09 -1.054909e+02 -5.307359e+02 -1.464778e+02
-2.122132e+09 -1.922129e+09 -2.082130e+09 -3.570259e+02 -6.130431e+02 -2.738890e+02
-2.202339e+09 -2.002336e+09 -2.162337e+09 -6.184151e+02 -5.638729e+02 -1.939914e+02
-3.470499e+09 -3.270497e+09 -3.430497e+09 -8.152261e+01 -8.649671e+01 1.286043e+01
-2.398474e+09 -2.198474e+09 -2.358473e+09 -7.516654e+02 -6.453240e+02 -1.510115e+02
-1.698715e+09 -1.498713e+09 -1.658714e+09 -1.565594e+03 -1.328773e+03 -6.252528e+02
-1.613006e+09 -1.413003e+09 -1.573004e+09 -1.559467e+03 -6.341365e+02 -4.440282e+02
-1.923234e+09 -1.723240e+09 -1.883240e+09 1.268971e+03 1.646800e+02 6.756709e+01
-1.911362e+09 -1.711361e+09 -1.871360e+09 -1.439563e+03 -1.048926e+03 -4.750217e+02
-3.290503e+09 -3.090500e+09 -3.250502e+09 -8.770399e+02 -9.013100e+02 -6.206421e+02
-2.182120e+09 -1.982117e+09 -2.142119e+09 -7.604616e+01 -7.308548e+02 -1.148603e+02
-2.971627e+09 -2.771626e+09 -2.931627e+09 -1.427663e+03 -1.197484e+03 -6.074402e+02
-4.939337e+09 -4.739334e+09 -4.899335e+09 0.000000e+00 -4.004654e+01 -2.362833e+01
-3.495978e+09 -3.295976e+09 -3.455977e+09 -9.698998e+02 -8.165419e+02 -3.628958e+02
-3.548046e+09 -3.348043e+09 -3.508044e+09 -9.976536e+01 -3.205769e+02 -8.176627e+00
-2.120137e+09 -1.920135e+09 -2.080135e+09 -1.134196e+03 -7.116424e+02 -2.766839e+02
-2.878966e+09 -2.678968e+09 -2.838965e+09 -2.626277e+02 9.283596e+01 -5.936784e+01
-3.979659e+09 -3.779661e+09 -3.939659e+09 -5.366713e+02 -3.061048e+02 -5.285164e+01
-4.407881e+09 -4.207884e+09 -4.367880e+09 3.923700e+02 4.120672e-01 3.462222e+01
-2.234570e+09 -2.034572e+09 -2.194569e+09 8.779591e+01 5.846850e+00 2.484612e+00
-3.756730e+09 -3.556731e+09 -3.716729e+09 5.589725e+01 3.434640e+01 -3.156174e+00
-3.492155e+09 -3.292157e+09 -3.452154e+09 6.224421e+01 3.488324e+00 1.819523e+01
-4.485753e+09 -4.285758e+09 -4.445758e+09 8.876796e+02 -9.637416e+02 2.909359e+02
-2.119765e+09 -1.919768e+09 -2.079764e+09 8.548051e+01 3.398622e+00 5.187399e+00
-4.770363e+09 -4.570367e+09 -4.730363e+09 5.107827e+02 2.688246e+01 5.247627e+01
-3.801720e+09 -3.601727e+09 -3.761723e+09 -9.529987e+01 -6.427437e+02 7.980727e+01
-4.601983e+09 -4.401986e+09 -4.561984e+09 -8.873045e+02 -5.485160e+02 -1.778710e+02
-2.150601e+09 -1.950601e+09 -2.110600e+09 -2.194791e+02 -3.091051e+01 -7.656669e+01
-3.842435e+09 -3.642439e+09 -3.802435e+09 -7.259958e+02 2.720477e+02 -4.741029e+01
-2.651934e+09 -2.451937e+09 -2.611934e+09 -2.322471e+02 -1.084050e+00 -1.093143e+02
-4.998030e+09 -4.798031e+09 -4.958030e+09 -1.256556e+03 9.786678e+01 5.186086e+01
-4.436092e+09 -4.236093e+09 -4.396093e+09 -1.709208e+03 1.128280e+00 -2.420220e+01
-1.636026e+09 -1.436026e+09 -1.596026e+09 -1.437236e+01 -3.724317e+01 -3.505770e+00
-3.428357e+09 -3.228357e+09 -3.388357e+09 -4.267540e+02 -2.374927e+01 9.252112e+00
-3.231928e+09 -3.031930e+09 -3.191930e+09 -4.273455e+01 -2.550875e+00 1.266676e+01
-2.122501e+09 -1.922502e+09 -2.082502e+09 -2.971691e+01 -2.872494e-01 4.294266e+00
-4.697626e+09 -4.497628e+09 -4.657627e+09 -7.351040e+01 -1.596368e+01 2.661393e+01
-3.071344e+09 -2.871343e+09 -3.031343e+09 -7.291323e+01 -1.200978e+02 -4.720004e+01
-4.986433e+09 -4.786432e+09 -4.946432e+09 -1.573063e+02 -3.564284e+01 2.286444e+01
-4.976041e+09 -4.776040e+09 -4.936040e+09 4.907051e+01 -5.966246e+00 -1.211797e+01
-4.464931e+09 -4.264930e+09 -4.424931e+09 3.500893e+01 4.791404e+00 -9.933435e+00
-2.148026e+09 -1.948024e+09 -2.108024e+09 -3.387423e+01 -3.680646e+01 -7.469282e+01
-1.602277e+09 -1.402275e+09 -1.562276e+09 2.143628e+01 1.694170e+01 -9.135265e+00
-3.674482e+09 -3.474481e+09 -3.634481e+09 9.985896e-01 5.973657e-01 8.830483e-01
-2.243889e+09 -2.043888e+09 -2.203888e+09 2.616850e+01 5.787500e+00 7.783871e+00
-1.934676e+09 -1.734675e+09 -1.894676e+09 2.609835e+01 1.434755e+01 -7.053917e+00
-4.790691e+09 -4.590690e+09 -4.750690e+09 -1.123164e+02 1.528821e+00 2.177751e+01
-4.779056e+09 -4.579054e+09 -4.739054e+09 -5.568228e+01 -4.360281e+00 1.486156e+01
-3.332901e+09 -3.132899e+09 -3.292900e+09 -1.997671e+02 -1.035739e+01 -5.661422e+01
-4.640443e+09 -4.440442e+09 -4.600442e+09 -9.928574e+01 2.675482e+00 -2.376117e+01
-3.756262e+09 -3.556261e+09 -3.716261e+09 -2.056023e+02 -6.626238e+01 -4.457392e+01
-3.074065e+09 -2.874064e+09 -3.034064e+09 6.866563e+01 1.030797e+01 3.744525e+00
-4.854754e+09 -4.654753e+09 -4.814754e+09 6.168938e+01 -4.918093e-01 1.727898e+00
-3.113315e+09 -2.913314e+09 -3.073315e+09 1.348300e+02 1.615192e+01 -3.161118e+01
-4.682618e+09 -4.482620e+09 -4.642620e+09 -2.625637e-01 -4.176929e+00 1.181974e+00
-1.747706e+09 -1.547711e+09 -1.707706e+09 1.377920e+02 -3.906716e+00 2.002126e+01
-4.408536e+09 -4.208537e+09 -4.368537e+09 6.844375e+01 1.054142e+01 -1.348668e+01
-2.758782e+09 -2.558788e+09 -2.718783e+09 1.690183e+01 3.371062e+01 -3.616148e+01
-3.526885e+09 -3.326887e+09 -3.486886e+09 1.180316e+02 1.491603e+01 -1.742809e+01
-4.962235e+09 -4.762236e+09 -4.922235e+09 7.748215e+02 -7.675336e+01 5.568832e+01
-3.482117e+09 -3.282125e+09 -3.442122e+09 -5.641572e+01 -2.196972e+03 1.841262e+02
-2.121029e+09 -1.921034e+09 -2.081030e+09 9.442366e+01 -1.603910e+02 5.531536e+01
-4.467634e+09 -4.267635e+09 -4.427635e+09 1.173971e+02 1.500861e+01 1.806129e+01
-3.591923e+09 -3.391924e+09 -3.551924e+09 4.401651e+01 5.936590e+00 1.751610e+01
-3.897613e+09 -3.697614e+09 -3.857614e+09 1.186836e+02 6.964562e-01 -1.443352e+01
-4.329194e+09 -4.129196e+09 -4.289195e+09 1.734050e+01 1.342984e+01 2.196927e-01
-2.156412e+09 -1.956419e+09 -2.116414e+09 1.095644e+02 -1.454309e+02 1.032190e+02
-4.036402e+09 -3.836403e+09 -3.996403e+09 1.631193e+01 -9.281414e+00 -4.327211e-03
-2.909854e+09 -2.709855e+09 -2.869854e+09 1.313406e+02 1.824756e+01 -1.431718e+01
-2.529735e+09 -2.329738e+09 -2.489735e+09 8.556312e+01 -3.233691e+01 -6.559410e+01
-2.120048e+09 -1.920049e+09 -2.080047e+09 7.162046e+02 -3.114562e+02 8.928162e+01
-1.859000e+09 -1.659004e+09 -1.819000e+09 2.866544e+02 -2.879480e+02 1.000164e+02
-2.735130e+09 -2.535131e+09 -2.695130e+09 2.036959e+02 4.607776e+01 3.236346e+01
-3.127271e+09 -2.927272e+09 -3.087272e+09 2.510280e+02 2.255185e+01 -5.810166e+01
-3.438619e+09 -3.238624e+09 -3.398620e+09 9.598045e+02 -8.674240e+02 3.793584e+02
-1.800787e+09 -1.600791e+09 -1.760787e+09 5.592189e+02 -4.249638e+02 -2.418874e+01
-3.366868e+09 -3.166869e+09 -3.326869e+09 1.147932e+02 1.811921e+01 1.979051e+01
-3.436893e+09 -3.236894e+09 -3.396893e+09 2.537740e+02 2.626153e+01 -3.403369e+01
-4.503927e+09 -4.303929e+09 -4.463928e+09 3.400521e+02 1.809717e+01 -3.861086e+00
-4.070895e+09 -3.870896e+09 -4.030896e+09 1.846287e+02 1.944739e+01 1.237384e+01
-5.014512e+09 -4.814513e+09 -4.974513e+09 2.285398e+02 -2.220218e+00 -3.081169e+00
-4.594888e+09 -4.394887e+09 -4.554887e+09 1.789857e+02 2.176428e+01 6.808472e+00
-4.428768e+09 -4.228767e+09 -4.388767e+09 7.589620e+00 2.447127e+01 -2.212794e+00
-1.962892e+09 -1.762891e+09 -1.922890e+09 2.186005e+03 9.350714e+02 -4.353251e+02
-4.613105e+09 -4.413105e+09 -4.573105e+09 1.858447e+02 2.125081e+01 -1.613398e+01
-4.601363e+09 -4.401362e+09 -4.561362e+09 8.192792e+01 2.317291e+01 -8.063747e+00
-4.645647e+09 -4.445643e+09 -4.605641e+09 -4.990921e+03 4.410055e+02 -1.518912e+02
-4.702625e+09 -4.502625e+09 -4.662625e+09 5.338961e+01 7.770268e+00 2.543511e+01
-4.985935e+09 -4.785933e+09 -4.945937e+09 9.443760e+01 -2.462816e+02 3.324364e+02
-4.138896e+09 -3.938895e+09 -4.098896e+09 1.002590e+03 -4.930524e+02 5.100213e+02
-2.184329e+09 -1.984329e+09 -2.144328e+09 4.565848e+02 -1.501941e+02 1.394630e+01
-3.375078e+09 -3.175084e+09 -3.335083e+09 1.764711e+03 1.988525e+02 7.359197e+02
-4.985849e+09 -4.785849e+09 -4.945848e+09 4.955950e+02 -7.502817e+01 5.699337e+01
-3.960046e+09 -3.760054e+09 -3.920050e+09 1.990844e+03 5.432054e+02 1.116505e+03
-4.170962e+09 -3.970964e+09 -4.130963e+09 8.956692e+02 -4.411610e+02 1.740582e+02
-4.966878e+09 -4.766884e+09 -4.926882e+09 1.855735e+03 -1.549445e+02 -9.418138e+01
-2.004473e+09 -1.804472e+09 -1.964472e+09 2.077195e+02 -1.641652e+02 -5.010692e+01
-2.559511e+09 -2.359514e+09 -2.519511e+09 1.985768e+02 -2.576091e+02 -4.911323e-01
-3.645120e+09 -3.445122e+09 -3.605120e+09 4.311872e+02 -1.790966e+02 3.403023e+01
-3.452255e+09 -3.252258e+09 -3.412255e+09 4.377593e+02 1.541965e+02 2.212122e+01
-1.577874e+09 -1.377877e+09 -1.537874e+09 6.152955e+02 -6.252624e+02 2.305338e+01
-3.908610e+09 -3.708610e+09 -3.868609e+09 5.917602e+02 -1.749603e+02 5.040886e+01
-4.132320e+09 -3.932319e+09 -4.092319e+09 -7.749109e+01 -8.757652e+01 6.350054e+01
-2.750399e+09 -2.550400e+09 -2.710399e+09 1.959170e+02 -1.210715e+02 -2.933708e+01
-3.914974e+09 -3.714976e+09 -3.874975e+09 -1.714368e+03 -9.255954e+02 -4.225363e+02
-4.383803e+09 -4.183804e+09 -4.343802e+09 3.354129e+02 -8.914227e+01 1.830809e+01
-5.011465e+09 -4.811461e+09 -4.971471e+09 -9.918173e+02 -1.446847e+03 -7.045901e+02
-4.989765e+09 -4.789771e+09 -4.949768e+09 -6.339850e+02 -1.718971e+02 -2.632940e+01
-2.195128e+09 -1.995129e+09 -2.155127e+09 -1.562784e+02 -3.380045e+01 -1.290270e+02
-2.339692e+09 -2.139694e+09 -2.299692e+09 8.986778e+02 -3.403924e+02 1.188814e+02
-3.357687e+09 -3.157691e+09 -3.317688e+09 6.425231e+02 -1.023352e+03 2.112859e+02
-4.266452e+09 -4.066454e+09 -4.226454e+09 -1.270555e+03 8.895424e+01 -1.969014e+02
-2.163299e+09 -1.963295e+09 -2.123297e+09 1.626039e+03 1.260303e+03 -8.382496e+02
-4.253520e+09 -4.053525e+09 -4.213523e+09 1.030733e+03 -3.480415e+02 9.401952e+01
-2.981708e+09 -2.781710e+09 -2.941708e+09 1.295312e+03 -8.710403e+02 3.743467e+02
-1.886338e+09 -1.686335e+09 -1.846336e+09 2.169226e+03 1.158740e+03 -4.983184e+02
-4.009823e+09 -3.809828e+09 -3.969825e+09 8.059691e+01 -2.922544e+02 4.931031e+01
-4.480693e+09 -4.280694e+09 -4.440696e+09 3.030535e+03 8.129703e+02 -2.706512e+02
-4.974054e+09 -4.774052e+09 -4.934052e+09 9.056109e+02 -1.969874e+02 6.772349e+01
-4.668529e+09 -4.468530e+09 -4.628529e+09 2.184760e+03 1.583750e+02 -3.530012e+01
-4.571531e+09 -4.371532e+09 -4.531531e+09 4.470796e+02 -1.423275e+02 3.801318e+01
-4.635664e+09 -4.435663e+09 -4.595663e+09 -2.472792e+02 -2.985641e+01 -4.935822e+01
-4.986434e+09 -4.786432e+09 -4.946432e+09 -9.635264e+00 -1.122330e+01 2.280746e+01
-3.966630e+09 -3.766629e+09 -3.926629e+09 -2.187915e+02 -1.138560e+02 -3.012068e+01
-1.575150e+09 -1.375151e+09 -1.535150e+09 6.269737e+02 -4.726523e+02 -4.002354e+01
-4.609685e+09 -4.409687e+09 -4.569687e+09 -1.249842e+03 1.056348e+01 5.303912e+01
-3.955935e+09 -3.755934e+09 -3.915934e+09 -2.377111e+02 -1.010995e+02 4.141509e+00
-3.993098e+09 -3.793096e+09 -3.953097e+09 -1.881947e+02 -5.443752e+01 -4.511075e+01
-3.155809e+09 -2.955810e+09 -3.115809e+09 8.928154e+02 -6.137189e+02 3.476796e+02
-4.962235e+09 -4.762236e+09 -4.922235e+09 6.636926e+02 -3.055733e+01 1.111209e+01
-1.636093e+09 -1.436094e+09 -1.596094e+09 -1.040348e+01 -2.151830e+01 6.637081e+00
-4.601032e+09 -4.401033e+09 -4.561033e+09 9.619150e+02 -2.667727e+02 9.535252e+01
-3.401520e+09 -3.201519e+09 -3.361519e+09 -2.391879e+02 -1.821217e+01 -3.825414e+01
-1.674101e+09 -1.474100e+09 -1.634100e+09 -2.044118e+02 -5.131732e+01 -9.991957e+01
-4.042491e+09 -3.842491e+09 -4.002491e+09 -3.146308e+02 -3.878345e+00 -1.734407e+00
-4.897082e+09 -4.697081e+09 -4.857081e+09 -2.397471e+00 2.415973e+00 -1.030581e-10
-3.519392e+09 -3.319391e+09 -3.479391e+09 1.192488e+01 2.644922e+01 -7.269270e+01
-4.706203e+09 -4.506201e+09 -4.666202e+09 -4.742711e+01 -1.562037e+01 -1.614729e+01
-4.618265e+09 -4.418263e+09 -4.578263e+09 -1.729315e+02 1.324851e+01 -4.576390e+01
-4.980060e+09 -4.780059e+09 -4.940059e+09 -1.461620e+01 1.118568e+01 -3.298415e+01
-4.845934e+09 -4.645932e+09 -4.805937e+09 -1.522488e+03 -4.502929e+02 -1.497501e+02
-4.995014e+09 -4.795012e+09 -4.955017e+09 -1.339072e+03 -4.336569e+02 -2.339531e+02
-4.978122e+09 -4.778121e+09 -4.938121e+09 -1.750460e+02 7.484175e+00 8.551478e+00
-3.430632e+09 -3.230631e+09 -3.390632e+09 -1.217106e+01 -1.146934e+01 -7.193158e+00
-4.636198e+09 -4.436194e+09 -4.596200e+09 -8.855783e+02 -5.956079e+02 -3.953031e+02
-4.355392e+09 -4.155390e+09 -4.315391e+09 -4.107475e+00 -5.305937e+00 -2.612886e+00
-4.118695e+09 -3.918691e+09 -4.078696e+09 -9.473100e+02 -1.051902e+03 -1.112731e+03
-4.103920e+09 -3.903917e+09 -4.063921e+09 -9.105417e+02 -4.549537e+02 -2.592692e+02
-4.270883e+09 -4.070879e+09 -4.230884e+09 -2.846465e+02 -5.242970e+02 -5.619314e+02
-3.856017e+09 -3.656022e+09 -3.816017e+09 -1.941888e+02 3.420790e+01 -4.082802e+01
-1.900429e+09 -1.700434e+09 -1.860430e+09 -1.198738e+02 2.779170e+01 -6.934589e+01
-2.569344e+09 -2.369348e+09 -2.529344e+09 -3.530715e+01 1.747072e+01 -1.781663e+02
-2.074126e+09 -1.874129e+09 -2.034126e+09 -5.366762e+02 1.930151e+01 -9.697350e+01
-3.015779e+09 -2.815784e+09 -2.975780e+09 -4.963853e+02 1.173840e+02 -5.230330e+01
-4.829326e+09 -4.629326e+09 -4.789325e+09 -8.661111e+02 3.919896e+01 1.238030e+01
-4.146976e+09 -3.946976e+09 -4.106975e+09 -5.856361e+02 2.961146e+01 -3.317616e+01
-4.321505e+09 -4.121505e+09 -4.281504e+09 -4.967255e+02 1.472532e+02 1.246755e+01
-3.336088e+09 -3.136088e+09 -3.296088e+09 -1.053088e+01 -4.141280e+01 3.854696e-03
-4.133975e+09 -3.933977e+09 -4.093976e+09 -1.714580e+02 -4.368059e+00 3.864806e+01
-2.774727e+09 -2.574728e+09 -2.734728e+09 -1.002788e+01 -4.083091e+00 2.914497e+00
-4.995271e+09 -4.795272e+09 -4.955271e+09 -5.249792e+02 3.667630e+01 1.906008e+01
-3.840460e+09 -3.640462e+09 -3.800462e+09 -3.047587e+02 -6.121429e+00 3.381557e+01
-4.517205e+09 -4.317206e+09 -4.477206e+09 -1.818577e+02 -1.803546e+01 -3.102743e+00
-3.024986e+09 -2.824987e+09 -2.984987e+09 -2.086365e+02 -3.183461e+00 -7.498276e+00
-4.419789e+09 -4.219791e+09 -4.379790e+09 -1.837274e+01 -1.922138e+01 1.191822e+00
-4.808489e+09 -4.608490e+09 -4.768488e+09 -5.687864e+02 -3.098667e+01 -1.658443e+01
-4.303067e+09 -4.103067e+09 -4.263066e+09 -2.352137e+02 1.116866e+02 4.943358e+00
-3.965515e+09 -3.765516e+09 -3.925516e+09 -4.400224e+02 -3.226014e+01 2.490350e+01
-1.929050e+09 -1.729052e+09 -1.889051e+09 -3.756820e+01 -2.494214e+01 -8.143701e+00
-4.309875e+09 -4.109874e+09 -4.269874e+09 -3.595351e+01 8.173877e+01 1.401179e+01
-3.932718e+09 -3.732719e+09 -3.892719e+09 -1.488823e+02 4.443716e+00 -1.204364e+01
-5.000292e+09 -4.800291e+09 -4.960291e+09 -2.810214e+02 1.277590e+01 2.423568e+01
-4.820096e+09 -4.620095e+09 -4.780095e+09 -3.365739e+02 -4.518940e+01 -1.892591e+01
-3.498834e+09 -3.298834e+09 -3.458832e+09 7.808986e+02 1.039332e+02 -1.393629e+01
-4.991849e+09 -4.791851e+09 -4.951849e+09 -1.187577e+03 1.440835e+01 3.698952e+01
-2.776701e+09 -2.576699e+09 -2.736700e+09 -8.301507e+01 -9.553823e+00 -5.808671e+01
-3.975363e+09 -3.775363e+09 -3.935361e+09 3.015034e+02 -1.031645e+01 -6.347735e+01
-3.414540e+09 -3.214540e+09 -3.374538e+09 5.578439e+02 1.782472e+02 -7.165525e+01
-4.570649e+09 -4.370648e+09 -4.530648e+09 1.030071e+03 3.795969e+02 -1.052651e+02
-2.315628e+09 -2.115628e+09 -2.275626e+09 1.094945e+03 2.706977e+02 -4.579423e+01
-1.851743e+09 -1.651743e+09 -1.811741e+09 5.951975e+02 6.366006e+01 -2.418144e+01
-2.982212e+09 -2.782211e+09 -2.942211e+09 -2.010854e+02 -3.790881e+01 -1.549225e+01
-2.014936e+09 -1.814938e+09 -1.974935e+09 1.153048e+03 1.837431e+02 -2.958423e+01
-3.543552e+09 -3.343553e+09 -3.503550e+09 1.243123e+03 1.752002e+02 -8.798146e+01
-4.653293e+09 -4.453293e+09 -4.613292e+09 1.312247e+03 7.276524e+01 8.496224e+01
-3.391890e+09 -3.191888e+09 -3.351889e+09 -7.107131e+01 -6.872423e+00 -5.041500e+01
-2.716440e+09 -2.516438e+09 -2.676439e+09 -7.137441e+01 -1.182446e+01 -5.181575e+01
-3.474441e+09 -3.274439e+09 -3.434439e+09 -1.871874e+01 1.432041e+01 -5.733806e+01
-2.700012e+09 -2.500011e+09 -2.660011e+09 -1.087554e+02 -2.804298e+01 -8.446901e+01
-1.588624e+09 -1.388623e+09 -1.548623e+09 -3.695833e+01 -9.686064e+01 -1.111533e+02
-4.310060e+09 -4.110060e+09 -4.270059e+09 1.248531e+03 2.705871e+01 3.415197e+01
-3.974418e+09 -3.774420e+09 -3.934418e+09 -3.680407e+02 3.878962e+01 -3.314569e+01
-4.995272e+09 -4.795272e+09 -4.955271e+09 -8.768984e+02 7.674303e+01 2.127314e+01
-3.234693e+09 -3.034697e+09 -3.194694e+09 -7.689737e+02 1.857043e+02 1.588031e+00
-4.890117e+09 -4.690123e+09 -4.850119e+09 1.077896e+02 4.977776e-08 2.586106e+01
-2.053951e+09 -1.853954e+09 -2.013951e+09 -6.998743e+02 3.604024e+01 -4.575401e+01
-3.244034e+09 -3.044036e+09 -3.204033e+09 -5.368964e+02 7.188968e+01 -9.044294e+01
-2.659070e+09 -2.459068e+09 -2.619069e+09 -5.681814e+01 -1.232975e+01 -1.421533e+01
-1.934262e+09 -1.734265e+09 -1.894262e+09 -6.985698e+01 4.151386e+01 -7.654982e+01
-3.382424e+09 -3.182427e+09 -3.342424e+09 -6.245032e+02 8.898949e+01 -6.177900e+00
-2.825444e+09 -2.625443e+09 -2.785443e+09 -2.270440e+01 -3.988117e+00 -3.236851e+01
-2.196785e+09 -1.996788e+09 -2.156785e+09 -1.827176e+02 -2.788674e+01 -5.113297e+01
-3.856989e+09 -3.656988e+09 -3.816988e+09 -2.051970e+02 -1.989603e+01 -1.278401e+01
-3.967383e+09 -3.767381e+09 -3.927382e+09 -5.476251e+01 -2.392099e+00 -7.114827e+00
-4.028641e+09 -3.828644e+09 -3.988640e+09 1.138526e+02 -5.371827e+01 5.080481e+01
-4.432345e+09 -4.232344e+09 -4.392344e+09 -8.260326e+01 -3.996199e+00 -1.993991e+01
-2.235854e+09 -2.035852e+09 -2.195853e+09 -1.582195e+01 3.036517e+00 -7.061673e+01
-3.843218e+09 -3.643220e+09 -3.803217e+09 2.374094e+02 5.865170e+01 -3.478029e+00
-2.137599e+09 -1.937604e+09 -2.097600e+09 -1.605327e+02 -1.571323e+02 -9.195296e+01
-3.769186e+09 -3.569188e+09 -3.729185e+09 1.280550e+02 4.778237e+01 8.258497e-01
-2.906798e+09 -2.706800e+09 -2.866797e+09 1.673005e+02 -2.142532e+01 4.886589e+01
-4.732148e+09 -4.532150e+09 -4.692147e+09 5.712810e+02 7.657582e+01 -3.016452e+01
-4.773861e+09 -4.573863e+09 -4.733860e+09 4.253535e+02 -3.941379e+01 7.542796e+01
-2.676563e+09 -2.476565e+09 -2.636562e+09 2.534935e+02 2.717571e+01 4.650754e+01
-4.140009e+09 -3.940015e+09 -4.100015e+09 -1.318558e+03 -2.597802e+03 -2.153201e+02
-4.892134e+09 -4.692136e+09 -4.852134e+09 4.874009e+01 4.977342e-05 4.070789e+01
-3.543021e+09 -3.343019e+09 -3.503020e+09 -4.367010e+02 -1.991769e+02 -1.127647e+02
-2.565883e+09 -2.365886e+09 -2.525883e+09 3.050857e+02 -3.932327e+02 -4.106411e+01
-2.073564e+09 -1.873562e+09 -2.033562e+09 -4.489229e+02 -4.664382e+02 -1.272995e+02
-3.247740e+09 -3.047740e+09 -3.207739e+09 1.523123e+03 2.770328e+02 -7.460617e+01
-3.921968e+09 -3.721970e+09 -3.881967e+09 8.535159e+01 4.518746e+00 -2.630827e+01
-3.458991e+09 -3.258993e+09 -3.418990e+09 2.823968e+02 3.231624e+01 2.233206e+01
-4.442870e+09 -4.242872e+09 -4.402869e+09 1.057954e+03 1.673493e+01 1.975988e+01
-4.156190e+09 -3.956193e+09 -4.116190e+09 1.451214e+03 3.021476e+02 -1.385386e+02
-3.286249e+09 -3.086246e+09 -3.246248e+09 -9.814000e+01 -4.689756e+02 -9.046660e+01
-2.858337e+09 -2.658334e+09 -2.818335e+09 -7.237955e+02 -6.552876e+02 -2.963190e+02
-4.329226e+09 -4.129229e+09 -4.289226e+09 1.743534e+03 1.745091e+02 -3.938453e+00
-3.888277e+09 -3.688278e+09 -3.848275e+09 6.250566e+02 7.480069e+01 -5.096973e+01
-4.831326e+09 -4.631329e+09 -4.791326e+09 1.672419e+03 2.504087e+02 -1.186364e+02
-4.329227e+09 -4.129228e+09 -4.289226e+09 1.329920e+03 1.284478e+02 -3.399788e+01
-4.993826e+09 -4.793828e+09 -4.953825e+09 8.665392e+02 1.562682e+02 4.699342e+01
-2.848611e+09 -2.648613e+09 -2.808610e+09 5.157652e+02 -1.385280e+01 7.687372e+01
-2.158150e+09 -1.958152e+09 -2.118149e+09 1.108399e+02 -1.919707e+01 3.551133e+01
-4.480666e+09 -4.280667e+09 -4.440668e+09 1.317609e+03 -6.848287e+02 4.261788e+02
-4.647132e+09 -4.447134e+09 -4.607142e+09 4.147557e+01 -1.290920e+03 3.963239e+02
-3.941359e+09 -3.741356e+09 -3.901359e+09 -7.568981e+02 -4.938143e+02 6.531468e+02
-2.055312e+09 -1.855321e+09 -2.015315e+09 7.468066e+01 -1.987904e+03 1.975761e+02
-4.320913e+09 -4.120916e+09 -4.280920e+09 -1.833881e+03 -2.310202e+03 -5.885633e+02
-4.308469e+09 -4.108473e+09 -4.268475e+09 9.756652e+02 -1.660169e+03 4.705302e+02
-4.984537e+09 -4.784537e+09 -4.944541e+09 1.355840e+03 -6.195697e+02 4.776766e+02
-4.124604e+09 -3.924604e+09 -4.084604e+09 7.322081e+02 -4.650974e+02 1.437891e+02
-4.986376e+09 -4.786381e+09 -4.946378e+09 5.024899e+02 -8.805534e+01 3.868849e+01
-4.371529e+09 -4.171526e+09 -4.331527e+09 -9.927186e+01 -1.252998e+02 -4.240751e+01
-4.129423e+09 -3.929423e+09 -4.089425e+09 1.264077e+03 -1.038922e+03 5.726970e+02
-2.436726e+09 -2.236728e+09 -2.396726e+09 9.217761e+02 -4.585669e+02 6.554525e+01
-3.966216e+09 -3.766218e+09 -3.926217e+09 1.401395e+02 1.566878e+01 -1.846651e+01
-4.989648e+09 -4.789651e+09 -4.949650e+09 2.988805e+02 -2.869354e+01 -1.176468e+02
-3.878195e+09 -3.678192e+09 -3.838194e+09 -4.162269e+02 -4.221052e+02 -4.481778e+01
-3.954151e+09 -3.754158e+09 -3.914157e+09 1.089448e+03 6.372543e+01 1.402852e+02
-3.959950e+09 -3.759952e+09 -3.919952e+09 2.926047e+02 4.045764e+01 1.643572e+01
-3.116544e+09 -2.916551e+09 -3.076550e+09 3.104535e+02 5.315288e+01 2.834266e+01
-4.985477e+09 -4.785480e+09 -4.945478e+09 7.775529e+02 1.718993e+01 -1.245735e+02
-3.956314e+09 -3.756316e+09 -3.916316e+09 4.799156e+01 -4.389118e+00 -8.721497e+01
-4.635441e+09 -4.435442e+09 -4.595442e+09 9.563350e+02 5.221347e+01 2.985501e+01
-4.479904e+09 -4.279907e+09 -4.439906e+09 6.285945e+02 4.356132e+01 -1.646566e+02
-2.822158e+09 -2.622166e+09 -2.782164e+09 -5.266852e+01 4.815551e+01 2.566531e+02
-4.784630e+09 -4.584633e+09 -4.744631e+09 7.695227e+02 3.173881e+01 -1.335759e+02
-2.020234e+09 -1.820240e+09 -1.980240e+09 -2.549202e+02 2.124889e+01 1.223732e+02
-3.949774e+09 -3.749786e+09 -3.909768e+09 -6.689617e+02 -7.124995e+02 6.513471e+03
-2.671944e+09 -2.471951e+09 -2.631950e+09 3.782940e+01 7.287346e+01 2.860205e+02
-3.227756e+09 -3.027765e+09 -3.187761e+09 4.725804e+02 5.706189e+02 2.078483e+03
-1.603957e+09 -1.403957e+09 -1.563960e+09 8.041422e+02 -7.990548e+02 -7.220561e+02
-1.748394e+09 -1.548401e+09 -1.708400e+09 1.225877e+03 2.600834e+02 6.489739e+02
-3.949770e+09 -3.749782e+09 -3.909766e+09 1.941520e+03 1.134628e+03 7.545685e+03
-2.073444e+09 -1.873452e+09 -2.033452e+09 1.408283e+03 2.675551e+02 1.456165e+03
-2.837733e+09 -2.637743e+09 -2.797740e+09 1.752467e+02 2.007230e+02 2.188417e+03
-1.926303e+09 -1.726309e+09 -1.886309e+09 8.544479e+02 -1.260927e+02 8.399304e+01
-4.462472e+09 -4.262471e+09 -4.422473e+09 -2.040687e+03 5.414440e+02 3.011646e+02
-4.661989e+09 -4.461985e+09 -4.621992e+09 3.739881e+03 5.761828e+02 -4.817449e+02
-4.974964e+09 -4.774963e+09 -4.934966e+09 1.228734e+03 1.857521e+00 2.336857e+02
-4.985270e+09 -4.785264e+09 -4.945272e+09 2.616351e+03 -4.839840e+02 -3.771514e+02
-3.971161e+09 -3.771159e+09 -3.931162e+09 5.531830e+03 2.974992e+03 9.280823e+02
-4.118204e+09 -3.918211e+09 -4.078204e+09 -1.947090e+03 -1.313389e+02 2.075329e+03
-5.003555e+09 -4.803555e+09 -4.963555e+09 -1.918418e+03 1.465762e+02 1.638548e+02
-4.640321e+09 -4.440321e+09 -4.600324e+09 -2.720875e+03 5.709571e+02 4.277840e+02
-4.784093e+09 -4.584078e+09 -4.744084e+09 -2.648074e+03 -4.071541e+03 2.187632e+03
-4.988645e+09 -4.788634e+09 -4.948644e+09 -2.593375e+03 6.315185e+02 -3.949243e+02
-4.117268e+09 -3.917263e+09 -4.077287e+09 5.149626e+02 7.354405e+03 -8.137603e+02
-3.966197e+09 -3.766196e+09 -3.926182e+09 -6.855501e+03 -4.396649e+03 5.166567e+03
-4.480357e+09 -4.280343e+09 -4.440340e+09 -3.528745e+03 -3.794155e+03 5.298472e+02
-3.961970e+09 -3.761954e+09 -3.921969e+09 -1.176790e+03 -9.961050e+02 -4.746693e+03
-3.960109e+09 -3.760110e+09 -3.920110e+09 -1.634061e+03 7.666889e+00 -5.278189e+00
-4.310889e+09 -4.110890e+09 -4.270889e+09 -1.818582e+03 4.296937e+02 1.121712e+02
-4.993235e+09 -4.793235e+09 -4.953236e+09 -2.633765e+03 2.432805e+02 9.288279e+01
-4.475936e+09 -4.275934e+09 -4.435935e+09 -1.350441e+03 -3.492777e+01 4.779491e+01
-4.809052e+09 -4.609054e+09 -4.769053e+09 -2.039077e+03 -2.801088e+01 -2.217144e+01
-4.820986e+09 -4.620988e+09 -4.780988e+09 -2.781182e+02 -6.385236e+00 -9.217887e+01
-4.002376e+09 -3.802376e+09 -3.962376e+09 -1.634397e+03 -7.914553e+01 9.089402e+01
-4.122587e+09 -3.922589e+09 -4.082588e+09 -2.081887e+03 6.864794e+02 2.385593e+02
-4.981622e+09 -4.781619e+09 -4.941623e+09 -2.161261e+03 -2.023365e+02 2.879564e+02
-2.972743e+09 -2.772746e+09 -2.932748e+09 3.653882e+03 1.316567e+03 1.056179e+03
-4.128510e+09 -3.928502e+09 -4.088503e+09 -5.718925e+03 -2.709389e+03 -6.307766e+02
-3.952959e+09 -3.752946e+09 -3.912966e+09 1.784423e+03 1.559659e+03 -3.215778e+03
-1.759456e+09 -1.559461e+09 -1.719460e+09 8.546749e+02 2.677233e+01 4.669136e+02
-3.601190e+09 -3.401192e+09 -3.561192e+09 1.157465e+03 -1.331828e+02 -1.962684e+02
-2.444018e+09 -2.244021e+09 -2.404022e+09 1.515703e+03 2.721080e+02 -1.190313e+02
-3.961968e+09 -3.761949e+09 -3.921967e+09 -2.107052e+03 -6.393995e+03 -2.005707e+03
-3.967065e+09 -3.767071e+09 -3.927079e+09 -3.497787e+02 4.743039e+03 5.835325e+02
-3.968894e+09 -3.768894e+09 -3.928897e+09 -3.331292e+03 1.787260e+03 1.396491e+03
-4.259493e+09 -4.059491e+09 -4.219507e+09 2.331926e+03 5.932636e+03 -2.436940e+03
-4.988131e+09 -4.788137e+09 -4.948138e+09 -1.545879e+03 4.907505e+02 8.972703e+01
-4.454352e+09 -4.254355e+09 -4.414356e+09 1.083515e+03 -1.027035e+02 1.387638e+01
-3.985180e+09 -3.785178e+09 -3.945182e+09 7.719551e+02 -3.341572e+02 -1.692727e+02
-3.851320e+09 -3.651318e+09 -3.811321e+09 1.166921e+03 -4.820780e+02 -7.543045e+02
-4.134276e+09 -3.934273e+09 -4.094282e+09 -3.566365e+03 1.738492e+03 2.404268e+03
-4.777870e+09 -4.577872e+09 -4.737873e+09 2.568605e+03 -7.016650e+01 3.234762e+02
-4.471562e+09 -4.271562e+09 -4.431563e+09 2.668028e+03 1.730262e+02 -1.644117e+02
-4.992793e+09 -4.792791e+09 -4.952797e+09 -2.549436e+03 4.731148e+02 2.557790e+02
-4.990317e+09 -4.790316e+09 -4.950326e+09 -2.528610e+03 1.026963e+03 2.174639e+02
-4.992795e+09 -4.792790e+09 -4.952797e+09 -1.977359e+03 6.619308e+02 4.273625e+02
-1.904772e+09 -1.704778e+09 -1.864773e+09 1.843588e+03 -1.550769e+03 6.181376e+02
-4.482769e+09 -4.282767e+09 -4.442766e+09 -3.854997e+03 5.348869e+02 5.484984e+02
-3.996131e+09 -3.796135e+09 -3.956131e+09 -2.134546e+01 -1.413510e+02 -4.084572e+01
-2.732346e+09 -2.532350e+09 -2.692346e+09 1.381689e+03 -1.214422e+03 4.559970e+02
-4.966154e+09 -4.766143e+09 -4.926160e+09 -2.920161e+03 -2.590647e+03 5.615762e+01
-5.021966e+09 -4.821964e+09 -4.981931e+09 -9.809690e+02 -4.990644e+02 -2.358687e+03
-4.642899e+09 -4.442897e+09 -4.602893e+09 3.014165e+03 -1.465792e+03 -8.444926e+02
-4.134272e+09 -3.934274e+09 -4.094262e+09 -5.002881e+02 -5.301342e+01 -3.067584e+03
-3.287630e+09 -3.087635e+09 -3.247632e+09 9.894327e+02 -7.788779e+02 2.701527e+02
-3.956291e+09 -3.756275e+09 -3.916232e+09 -2.381474e+03 8.142017e+03 -1.532032e+03
-4.820739e+09 -4.620743e+09 -4.780727e+09 -1.684107e+03 -1.053041e+03 -1.007895e+03
-4.642901e+09 -4.442899e+09 -4.602894e+09 2.060120e+03 9.922353e+01 1.002597e+03
-2.076758e+09 -1.876766e+09 -2.036760e+09 8.210203e+02 -1.556822e+03 2.505527e+02
-4.989955e+09 -4.789947e+09 -4.949953e+09 1.113640e+03 5.137609e+01 8.959284e+00
-5.032014e+09 -4.832013e+09 -4.992013e+09 6.853968e+02 -5.725619e+01 4.817647e+00
-4.615271e+09 -4.415259e+09 -4.575285e+09 1.191815e+03 -2.731007e+02 3.292542e+02
-4.134275e+09 -3.934262e+09 -4.094267e+09 2.317087e+03 -1.008114e+04 8.816682e+02
-4.477504e+09 -4.277505e+09 -4.437486e+09 -2.879874e+03 4.069310e+03 -5.596964e+03
-1.594826e+09 -1.394832e+09 -1.554827e+09 1.396935e+03 -1.206935e+03 2.048001e+02
-1.832096e+09 -1.632101e+09 -1.792097e+09 5.648338e+02 -4.626787e+02 -3.503490e+01
-4.120592e+09 -3.920581e+09 -4.080592e+09 -1.346563e+03 -4.802133e+03 3.431629e+02
-4.820742e+09 -4.620741e+09 -4.780715e+09 5.128579e+02 1.554357e+02 -2.219761e+03
-4.134275e+09 -3.934274e+09 -4.094260e+09 1.945068e+03 -5.847480e+03 -4.862298e+03
-4.335844e+09 -4.135838e+09 -4.295836e+09 -5.017212e+03 2.649213e+03 -1.021554e+03
-2.603089e+09 -2.403091e+09 -2.563090e+09 -5.537201e+01 -1.138483e+01 1.211065e+01
-1.889620e+09 -1.689621e+09 -1.849621e+09 4.457144e+00 1.521420e+00 7.549692e+00
-3.992271e+09 -3.792269e+09 -3.952236e+09 1.739094e+03 -1.157418e+03 -4.790318e+03
-5.021963e+09 -4.821962e+09 -4.981930e+09 6.199694e+02 -5.614136e+02 -2.495434e+03
-3.766006e+09 -3.566008e+09 -3.726007e+09 -2.102975e+01 -9.296345e+00 2.156042e+01
-4.408761e+09 -4.208763e+09 -4.368762e+09 2.421174e+00 -2.512807e+00 -1.374609e+00
-1.674097e+09 -1.474103e+09 -1.634098e+09 3.921254e+02 1.718932e+02 -5.844935e+00
-3.372368e+09 -3.172369e+09 -3.332369e+09 -3.024633e+02 -1.252726e+01 2.065395e+01
-2.111270e+09 -1.911272e+09 -2.071272e+09 -2.229675e+01 -7.828900e+00 8.117613e+00
-2.828496e+09 -2.628498e+09 -2.788498e+09 2.940358e+00 1.256391e+00 2.056432e+01
-4.431563e+09 -4.231565e+09 -4.391564e+09 -6.969772e+01 -1.150373e+01 -3.228860e+00
-4.529476e+09 -4.329481e+09 -4.489477e+09 -3.225083e+02 -1.055613e+01 -4.889816e+01
-2.538271e+09 -2.338275e+09 -2.498271e+09 -9.493127e+02 1.481883e+01 1.969475e+01
-1.854288e+09 -1.654293e+09 -1.814288e+09 -7.004254e+02 3.778298e+01 -9.342910e+01
-2.597294e+09 -2.397295e+09 -2.557295e+09 -1.560912e+01 -3.846328e+01 1.012024e+01
-3.934807e+09 -3.734809e+09 -3.894808e+09 3.658491e+01 6.287311e+00 -5.397119e+00
-2.690540e+09 -2.490542e+09 -2.650541e+09 6.547039e+01 7.851673e+00 3.244633e+00
-2.400253e+09 -2.200255e+09 -2.360254e+09 -1.160460e+01 2.549022e+00 8.519042e+00
-1.589813e+09 -1.389815e+09 -1.549813e+09 -5.524851e+02 -5.099877e+00 -1.618033e+02
-2.900611e+09 -2.700611e+09 -2.860610e+09 -1.007300e+02 -4.563632e+01 -4.658965e+01
-4.659425e+09 -4.459427e+09 -4.619425e+09 -9.171751e+02 1.482959e+01 -2.140470e+01
-4.462140e+09 -4.262139e+09 -4.422139e+09 -1.062952e+02 3.290305e+01 -1.256237e+01
-1.899732e+09 -1.699734e+09 -1.859731e+09 -6.124659e+02 1.255787e+02 -6.503466e+01
-3.138349e+09 -2.938351e+09 -3.098350e+09 -3.208894e+01 -7.376637e+00 2.232469e+01
-2.309361e+09 -2.109362e+09 -2.269362e+09 -1.355783e+00 -8.283216e+00 -1.941662e+01
-3.774139e+09 -3.574144e+09 -3.734140e+09 9.269035e+02 1.007804e+02 -2.763880e+01
-4.679507e+09 -4.479510e+09 -4.639506e+09 5.082554e+02 -1.174093e+01 4.516809e+01
-1.696840e+09 -1.496840e+09 -1.656840e+09 3.484982e+02 5.460162e+01 7.102734e+00
-4.498224e+09 -4.298221e+09 -4.458222e+09 8.323330e+02 -4.410053e+01 -7.072487e+01
-3.137656e+09 -2.937658e+09 -3.097655e+09 7.117678e+01 -1.177001e+02 5.589401e+01
-3.969237e+09 -3.769240e+09 -3.929237e+09 7.256535e+02 2.596020e+01 7.033263e+00
-3.767265e+09 -3.567267e+09 -3.727264e+09 1.100102e+03 1.160728e+01 -2.766360e+01
-4.980242e+09 -4.780237e+09 -4.940245e+09 -1.666675e+03 -1.023990e+03 5.738425e+02
-4.467620e+09 -4.267623e+09 -4.427619e+09 8.203234e+02 -1.041312e+00 1.240699e+01
-3.891613e+09 -3.691617e+09 -3.851613e+09 1.124116e+03 3.217025e+01 -1.051708e+01
-4.764236e+09 -4.564238e+09 -4.724235e+09 9.636698e+02 -2.108781e+01 5.563881e+01
-4.421003e+09 -4.221006e+09 -4.381003e+09 1.035355e+03 1.378805e+02 -3.389208e+00
-2.708226e+09 -2.508231e+09 -2.668233e+09 2.602525e+03 4.030695e+02 7.076024e+02
-3.586770e+09 -3.386774e+09 -3.546774e+09 1.989492e+03 1.802776e+02 1.517902e+02
-4.377579e+09 -4.177584e+09 -4.337583e+09 6.017041e+02 6.180761e+01 -7.293558e+01
-3.019413e+09 -2.819419e+09 -2.979417e+09 1.807729e+03 1.016363e+02 9.315787e+02
-2.648025e+09 -2.448029e+09 -2.608029e+09 1.462925e+03 2.843009e+02 1.261288e+02
-3.499623e+09 -3.299629e+09 -3.459628e+09 1.473909e+02 3.269956e+01 7.627065e+01
-3.480124e+09 -3.280128e+09 -3.440128e+09 7.976764e+02 9.190925e-01 -6.142186e+01
-4.878988e+09 -4.678992e+09 -4.838992e+09 7.689160e+02 -7.233359e+01 5.292590e+01
-4.374231e+09 -4.174235e+09 -4.334235e+09 2.299253e+02 -9.834914e+01 -1.139637e+01
-1.777488e+09 -1.577487e+09 -1.737486e+09 2.107831e+02 -8.064056e+01 -7.897653e+01
-4.999418e+09 -4.799418e+09 -4.959417e+09 1.543616e+02 -6.777100e+00 -2.096302e+01
-3.632083e+09 -3.432083e+09 -3.592082e+09 1.159189e+01 5.985918e+00 -6.604690e+01
-2.147313e+09 -1.947313e+09 -2.107312e+09 9.183846e+02 -4.359729e+02 2.233382e+02
-2.617375e+09 -2.417373e+09 -2.577373e+09 -1.110427e+03 -6.405224e+02 -3.265269e+02
-2.901468e+09 -2.701468e+09 -2.861468e+09 -4.334382e+02 -6.431008e+01 1.186816e+01
-4.709866e+09 -4.509870e+09 -4.669866e+09 -2.023200e+02 -8.844225e+01 -2.975362e+01
-2.741383e+09 -2.541385e+09 -2.701384e+09 -1.750016e+02 -3.171126e+01 4.434757e+00
-3.581451e+09 -3.381453e+09 -3.541452e+09 -2.031547e+02 -2.390137e+01 9.456964e+00
-1.741132e+09 -1.541131e+09 -1.701130e+09 -3.062806e+02 -1.389320e+02 -1.097062e+01
-4.890117e+09 -4.690118e+09 -4.850118e+09 -3.322692e+01 1.239968e+01 4.973063e-05
-4.788169e+09 -4.588170e+09 -4.748170e+09 -3.131029e+02 1.372948e+01 3.417336e+01
-4.982659e+09 -4.782659e+09 -4.942659e+09 -1.472027e+02 1.166953e+01 -1.515616e+00
-2.216536e+09 -2.016534e+09 -2.176535e+09 1.645154e+01 4.902425e+00 -1.009119e+01
-4.709974e+09 -4.509974e+09 -4.669974e+09 -9.337253e+01 -2.494286e+00 4.056272e+01
-4.892244e+09 -4.692244e+09 -4.852244e+09 -1.791085e+01 9.892663e+00 -3.164036e-09
-2.096366e+09 -1.896365e+09 -2.056365e+09 3.187961e+01 1.096892e+01 -1.041218e+01
-3.628521e+09 -3.428521e+09 -3.588521e+09 -9.156718e+00 -4.949865e-01 5.794973e-01
-3.432612e+09 -3.232610e+09 -3.392611e+09 2.794877e+01 1.101681e+01 -3.378172e+01
-2.799324e+09 -2.599323e+09 -2.759323e+09 -7.040462e+01 -2.645549e+01 -5.642558e+01
-4.968624e+09 -4.768624e+09 -4.928624e+09 -3.193934e+02 9.696521e+00 2.464020e+00
-4.973283e+09 -4.773283e+09 -4.933283e+09 -3.898637e+02 -1.575351e+00 2.381455e-01
-4.983831e+09 -4.783831e+09 -4.943831e+09 -2.716681e+02 -2.524929e+01 6.786227e+01
-4.983831e+09 -4.783831e+09 -4.943831e+09 -1.684254e+02 4.456325e+00 -6.156196e+00
-1.947739e+09 -1.747738e+09 -1.907738e+09 1.707013e+01 2.648498e+00 -1.740509e+01
-3.120707e+09 -2.920706e+09 -3.080706e+09 1.693041e+01 6.450271e-01 -1.009410e+01
-3.923906e+09 -3.723913e+09 -3.883909e+09 -2.624102e+02 -7.956890e+02 -5.941101e+01
-3.366196e+09 -3.166195e+09 -3.326195e+09 -1.652147e+00 3.545573e-01 -8.843589e+00
-4.799408e+09 -4.599410e+09 -4.759401e+09 1.337157e+03 9.450638e+00 5.060985e+01
-4.290784e+09 -4.090785e+09 -4.250774e+09 -3.050452e+01 8.274626e+02 -8.980624e+02
-4.634018e+09 -4.434019e+09 -4.594010e+09 -4.122296e+01 -6.579485e+02 -9.283529e+02
-4.449893e+09 -4.249896e+09 -4.409892e+09 7.298357e+02 1.410318e+01 1.302867e+01
-4.601513e+09 -4.401512e+09 -4.561512e+09 -1.226092e+02 1.499180e+01 -5.943878e+01
-2.666275e+09 -2.466275e+09 -2.626274e+09 1.955481e+02 -9.303999e+01 -3.424097e+01
-3.397911e+09 -3.197917e+09 -3.357913e+09 -1.023562e+02 -2.126745e+02 5.243281e+00
-4.051275e+09 -3.851274e+09 -4.011274e+09 3.791859e+02 -4.267388e+01 -6.389258e+01
-4.504787e+09 -4.304792e+09 -4.464790e+09 -7.402998e+02 -3.880466e+02 -4.939278e+02
-1.642319e+09 -1.442323e+09 -1.602320e+09 -1.491016e+03 -9.758294e+02 -1.964925e+02
-3.948832e+09 -3.748830e+09 -3.908831e+09 1.124861e+02 8.216669e+01 -7.851267e+01
-3.907932e+09 -3.707931e+09 -3.867931e+09 3.247263e+01 -2.512784e+01 -4.427751e+01
-3.248177e+09 -3.048176e+09 -3.208176e+09 2.603319e+02 -2.628474e+01 1.179839e+01
-4.671265e+09 -4.471266e+09 -4.631263e+09 7.853440e+01 -2.541397e+01 1.915517e+01
-4.687227e+09 -4.487228e+09 -4.647225e+09 1.641378e+02 -1.213900e+01 4.411946e+01
-2.289628e+09 -2.089627e+09 -2.249627e+09 1.172001e+02 -1.735652e+02 -4.538513e+01
-3.354381e+09 -3.154380e+09 -3.314380e+09 2.894522e+02 -2.143551e+02 4.580930e+01
-2.695843e+09 -2.495848e+09 -2.655843e+09 8.256498e+01 -1.409343e+01 -3.587427e+00
-4.420333e+09 -4.220334e+09 -4.380332e+09 1.247607e+02 -1.033662e+01 1.347382e+01
-3.543916e+09 -3.343922e+09 -3.503917e+09 2.634742e+02 9.073430e+01 -1.705216e+01
-1.595650e+09 -1.395649e+09 -1.555649e+09 4.337030e+01 1.758199e+01 1.108655e+01
-3.823728e+09 -3.623733e+09 -3.783729e+09 3.258667e+02 1.444189e+02 -3.969747e+01
-4.588222e+09 -4.388228e+09 -4.548223e+09 -2.128761e-01 5.518734e+01 6.646239e-01
-3.772345e+09 -3.572344e+09 -3.732344e+09 5.293502e+01 1.297653e+01 -2.699820e+01
-2.704332e+09 -2.504331e+09 -2.664331e+09 1.481489e+00 -7.308936e-01 -7.365264e+00
-1.632486e+09 -1.432485e+09 -1.592485e+09 -2.893707e+00 1.863052e+01 -6.575729e+00
-4.481683e+09 -4.281689e+09 -4.441684e+09 2.001200e+02 7.834605e+00 2.340384e+00
-3.678062e+09 -3.478061e+09 -3.638061e+09 5.105294e-01 -1.272446e+00 -2.021402e+00
-3.405923e+09 -3.205929e+09 -3.365924e+09 1.080919e+02 -1.564272e+01 -2.553849e+01
-3.927854e+09 -3.727860e+09 -3.887855e+09 -1.315494e+02 1.715770e+02 -5.136194e+01
-1.582001e+09 -1.382007e+09 -1.542002e+09 9.883016e+01 6.529457e+01 -3.449746e+01
-4.397415e+09 -4.197417e+09 -4.357414e+09 8.428930e+02 9.787043e+01 1.143690e+01
-4.962642e+09 -4.762640e+09 -4.922640e+09 3.196448e+02 -4.959410e+01 6.834399e+00
-3.441396e+09 -3.241397e+09 -3.401395e+09 1.581552e+02 4.879954e+01 1.457487e+01
-3.017170e+09 -2.817170e+09 -2.977170e+09 2.888204e+02 4.478319e+01 -9.812709e+00
-4.113489e+09 -3.913477e+09 -4.073499e+09 -6.978331e+00 3.108740e+03 -2.758848e+03
-3.284888e+09 -3.084889e+09 -3.244889e+09 3.056272e+02 2.721994e+01 5.242963e+01
-3.940809e+09 -3.740808e+09 -3.900809e+09 4.759588e+01 5.768015e+00 -1.495080e+01
-4.790109e+09 -4.590112e+09 -4.750076e+09 1.903123e+03 9.783015e+00 6.375285e+03
-3.934329e+09 -3.734328e+09 -3.894328e+09 1.420115e+02 1.905888e+01 2.922812e+01
-3.272470e+09 -3.072469e+09 -3.232470e+09 3.016405e+01 8.529114e+00 1.216404e+00
-4.978926e+09 -4.778925e+09 -4.938926e+09 5.155950e+01 -9.420276e+00 -2.446711e+00
-3.557440e+09 -3.357442e+09 -3.517441e+09 2.015194e+02 2.032061e+01 1.492458e+01
-2.690646e+09 -2.490646e+09 -2.650646e+09 9.725948e+01 2.369941e+01 -7.617193e+00
-2.939467e+09 -2.739466e+09 -2.899466e+09 3.130604e+01 4.016343e+00 -1.010591e+01
-4.956696e+09 -4.756695e+09 -4.916695e+09 3.764534e+01 -8.510071e+00 3.107630e-01
-4.978926e+09 -4.778925e+09 -4.938926e+09 1.390648e+02 -3.399542e+00 -3.629458e+01
-3.298305e+09 -3.098307e+09 -3.258306e+09 3.624609e+02 3.871879e+00 -1.178681e+01
-4.472465e+09 -4.272466e+09 -4.432466e+09 1.276714e+02 1.734241e+01 -3.190195e+00
-1.705430e+09 -1.505435e+09 -1.665430e+09 -1.157241e+02 -1.243698e+01 -6.818350e+01
-2.320672e+09 -2.120675e+09 -2.280671e+09 7.568937e+02 4.126667e+00 -9.759316e+00
-3.800909e+09 -3.600912e+09 -3.760908e+09 8.786703e+01 9.912036e+00 -2.420238e+00
-3.727673e+09 -3.527673e+09 -3.687673e+09 2.871517e+02 1.749792e+01 4.170182e+00
-4.961738e+09 -4.761740e+09 -4.921736e+09 5.251842e+02 9.549075e+01 1.619583e+01
-4.704474e+09 -4.504476e+09 -4.664473e+09 2.540830e+02 -7.820031e+01 1.850258e+01
-1.763680e+09 -1.563687e+09 -1.723686e+09 2.207526e+02 -8.051135e+01 4.567696e+02
-1.677929e+09 -1.477929e+09 -1.637930e+09 1.140201e+02 -8.000293e+02 -1.251158e+02
-2.259375e+09 -2.059380e+09 -2.219380e+09 1.224000e+03 9.378725e+01 5.173552e+02
-2.364528e+09 -2.164534e+09 -2.324529e+09 6.471630e+02 1.975094e+02 -2.625436e+01
-1.598015e+09 -1.398019e+09 -1.558015e+09 4.410023e+02 1.074973e+02 4.002223e+01
-3.619432e+09 -3.419437e+09 -3.579432e+09 7.727810e+01 3.250626e+01 -8.753475e+00
-4.431860e+09 -4.231864e+09 -4.391860e+09 1.202525e+02 1.686556e+01 2.275789e+01
-4.760557e+09 -4.560557e+09 -4.720560e+09 8.828384e+02 -1.613801e+02 -2.131134e+02
-3.665428e+09 -3.465428e+09 -3.625430e+09 5.381524e+02 -1.929842e+02 -3.539619e+02
-4.950298e+09 -4.750299e+09 -4.910300e+09 8.696283e+02 -4.248341e+01 -4.100062e+01
-2.906896e+09 -2.706899e+09 -2.866896e+09 6.696322e+02 2.958190e+01 -2.890154e+00
-4.273794e+09 -4.073798e+09 -4.233794e+09 1.027957e+03 2.468122e+02 7.631370e+01
-4.976099e+09 -4.776102e+09 -4.936098e+09 4.150044e+02 4.213554e-01 8.915435e+00
-3.951221e+09 -3.751225e+09 -3.911225e+09 1.658500e+02 2.290006e+02 -1.191719e-01
-3.964311e+09 -3.764312e+09 -3.924312e+09 1.231207e+03 -4.585755e+02 3.036593e+02
-4.951364e+09 -4.751361e+09 -4.911366e+09 1.171126e+03 -1.349988e+02 -1.151645e+02
-4.029573e+09 -3.829570e+09 -3.989573e+09 1.745115e+01 -4.078449e+02 -2.547272e+02
-3.724386e+09 -3.524382e+09 -3.684387e+09 1.092000e+03 -4.526203e+02 -8.494861e+02
-3.668308e+09 -3.468307e+09 -3.628310e+09 -5.085903e+01 -3.626413e+02 -5.580667e+01
-4.997126e+09 -4.797125e+09 -4.957125e+09 -4.625995e+02 1.091331e+02 5.273112e+01
-4.105803e+09 -3.905804e+09 -4.065803e+09 8.386683e+02 -3.914953e+02 1.401881e+02
-3.951338e+09 -3.751337e+09 -3.911337e+09 7.769848e+02 -2.342261e+02 2.021104e+02
-4.811764e+09 -4.611763e+09 -4.771764e+09 4.767736e+02 -1.906989e+02 -2.251381e+01
-3.976927e+09 -3.776926e+09 -3.936926e+09 2.195274e+02 -3.071068e+02 2.688133e+02
-4.304782e+09 -4.104779e+09 -4.264783e+09 5.628133e+02 -7.623640e+02 4.946227e+02
-3.985500e+09 -3.785501e+09 -3.945499e+09 -1.920895e+01 4.304584e+01 -3.416428e+01
-3.968332e+09 -3.768332e+09 -3.928331e+09 -1.299641e+03 -1.212761e+01 -1.481204e+01
-4.825361e+09 -4.625361e+09 -4.785362e+09 8.641579e+02 -3.569026e+02 4.356684e+01
-3.162213e+09 -2.962215e+09 -3.122213e+09 -8.987039e+02 5.523369e+01 -7.371207e+01
-4.618091e+09 -4.418092e+09 -4.578090e+09 -2.892789e+02 1.091948e+00 -3.958142e+01
-3.965006e+09 -3.765004e+09 -3.925006e+09 7.154566e+02 -4.421788e+02 4.601822e+02
-3.648020e+09 -3.448021e+09 -3.608019e+09 5.547886e+00 6.655366e+00 -3.524183e+01
-4.646224e+09 -4.446222e+09 -4.606224e+09 2.344134e+02 -1.809386e+02 2.082163e+02
-4.985935e+09 -4.785933e+09 -4.945937e+09 6.795177e+01 -2.542989e+02 3.359371e+02
-4.890118e+09 -4.690119e+09 -4.850118e+09 7.651531e+00 -4.973547e-05 1.848861e+01
-4.659639e+09 -4.459644e+09 -4.619647e+09 -4.525876e+02 -9.939706e+02 1.165078e+01
-4.143056e+09 -3.943062e+09 -4.103064e+09 3.232293e+02 -2.427895e+03 4.703644e+02
-5.000292e+09 -4.800292e+09 -4.960291e+09 -5.673592e+02 7.302823e+01 3.009805e+01
-4.977193e+09 -4.777194e+09 -4.937192e+09 -4.892930e+02 -8.932058e+01 -4.251349e+01
-1.698333e+09 -1.498335e+09 -1.658333e+09 -7.488410e+02 5.031144e+01 -1.219362e+02
-4.990198e+09 -4.790200e+09 -4.950198e+09 -5.971748e+02 -4.096520e+01 7.223165e+00
-4.476863e+09 -4.276863e+09 -4.436862e+09 -4.984108e+02 3.469250e+01 -2.689777e+01
-3.974107e+09 -3.774105e+09 -3.934108e+09 2.275432e+03 -1.266610e+02 -6.174853e+02
-4.964864e+09 -4.764870e+09 -4.924840e+09 1.752828e+03 -6.966881e+01 2.171086e+03
-4.148680e+09 -3.948686e+09 -4.108686e+09 3.545699e+02 -1.877916e+03 2.052072e+02
-4.995121e+09 -4.795125e+09 -4.955131e+09 -9.605784e+02 -1.066318e+03 3.623668e+01
-4.137238e+09 -3.937243e+09 -4.097246e+09 -7.308277e+02 -2.330525e+03 4.051210e+01
-4.999210e+09 -4.799216e+09 -4.959217e+09 4.686045e+02 -6.470320e+02 1.183981e+02
-4.308307e+09 -4.108312e+09 -4.268314e+09 8.991660e+02 -2.236155e+03 5.626327e+02
-4.999909e+09 -4.799915e+09 -4.959916e+09 -2.117941e+02 -7.279565e+02 4.745077e+01
-4.342321e+09 -4.142320e+09 -4.302321e+09 -3.721745e+02 -4.002981e+01 -1.768680e+01
-4.310219e+09 -4.110219e+09 -4.270219e+09 -4.576456e+02 -1.397023e+01 -8.464210e+01
-4.793722e+09 -4.593722e+09 -4.753722e+09 -3.039898e+02 6.754967e+00 4.342127e+00
-4.978841e+09 -4.778842e+09 -4.938842e+09 -3.949467e+02 -1.514979e+01 -3.640465e+01
-4.828491e+09 -4.628497e+09 -4.788498e+09 -5.120201e+02 -6.114217e+02 1.578540e+02
-3.424530e+09 -3.224531e+09 -3.384531e+09 -1.280840e+02 -1.446475e+01 7.513294e+01
-3.607774e+09 -3.407775e+09 -3.567775e+09 1.181934e+02 2.577025e+00 -8.651476e+00
-4.767666e+09 -4.567666e+09 -4.727666e+09 -3.724279e+02 -2.476932e+01 4.257244e+01
-4.810080e+09 -4.610082e+09 -4.770081e+09 -4.237033e+02 1.229122e+01 -5.158598e+01
-2.744929e+09 -2.544930e+09 -2.704930e+09 1.931428e+02 2.903221e+01 3.924416e+01
-2.991786e+09 -2.791788e+09 -2.951788e+09 1.117621e+02 7.186897e+00 7.795833e+00
-4.310887e+09 -4.110888e+09 -4.270888e+09 -5.773599e+02 -1.088061e+01 -6.095612e+01
-3.342249e+09 -3.142250e+09 -3.302250e+09 2.258913e+02 1.373901e+01 -2.434729e+01
-4.608781e+09 -4.408782e+09 -4.568782e+09 -3.890373e+02 -7.643753e+00 2.442620e+01
-3.249376e+09 -3.049377e+09 -3.209377e+09 2.304118e+02 1.756027e+01 -2.412866e+01
-3.215643e+09 -3.015644e+09 -3.175644e+09 8.206307e+01 2.253707e+00 1.189472e+00
-4.968624e+09 -4.768624e+09 -4.928624e+09 -4.441378e+02 2.303715e+00 -2.629658e+01
-4.981547e+09 -4.781549e+09 -4.941548e+09 1.642594e+02 8.099144e-04 3.098816e+01
-4.986612e+09 -4.786609e+09 -4.946612e+09 -9.526761e+02 2.726968e+02 -2.338593e+02
-4.798880e+09 -4.598882e+09 -4.758882e+09 1.872301e+02 1.351126e+01 3.801338e+00
-4.129158e+09 -3.929151e+09 -4.089157e+09 -4.400721e+03 -7.452109e+02 -9.203516e+02
-4.991606e+09 -4.791607e+09 -4.951607e+09 6.420413e+02 -3.464355e+01 -7.846188e+01
-1.584760e+09 -1.384758e+09 -1.544759e+09 4.613118e+02 8.232742e+02 -2.881513e+02
-3.420245e+09 -3.220243e+09 -3.380245e+09 1.390308e+02 3.871497e+02 -6.670093e+01
-4.983206e+09 -4.783204e+09 -4.943206e+09 -1.313393e+02 1.560742e+01 -8.215861e+01
-4.476664e+09 -4.276659e+09 -4.436664e+09 -6.026653e+02 2.526229e+02 -4.502893e+02
-4.464420e+09 -4.264418e+09 -4.424420e+09 -1.185423e+03 1.903462e+02 -2.462525e+02
-4.986612e+09 -4.786608e+09 -4.946612e+09 -9.272696e+02 7.189970e+01 -1.343636e+02
-4.301903e+09 -4.101903e+09 -4.261903e+09 6.636558e+02 -3.553379e+01 -1.341626e+02
-3.960978e+09 -3.760978e+09 -3.920978e+09 7.760104e+02 6.706161e+01 4.380105e+01
-4.990677e+09 -4.790676e+09 -4.950677e+09 5.043120e+02 -4.335268e+01 -8.180059e+01
-4.468969e+09 -4.268968e+09 -4.428968e+09 3.636135e+02 3.188578e+00 -2.813467e+00
-4.223567e+09 -4.023566e+09 -4.183567e+09 5.933892e+01 1.973044e-01 8.528723e+00
-3.974441e+09 -3.774448e+09 -3.934443e+09 -4.771342e+01 3.552987e+02 -5.467170e+01
-4.823116e+09 -4.623116e+09 -4.783116e+09 5.542632e+02 -1.094483e+00 -7.261150e+00
-4.996415e+09 -4.796414e+09 -4.956415e+09 4.016433e+02 -2.068921e+01 -6.195772e+01
-4.141104e+09 -3.941104e+09 -4.101104e+09 5.430952e+02 -7.766612e-02 -3.034331e+01
-3.967349e+09 -3.767357e+09 -3.927354e+09 3.912425e+02 1.278523e+03 -1.491623e+02
-3.960978e+09 -3.760978e+09 -3.920978e+09 5.204847e+02 6.846688e+01 3.673698e+00
-4.052990e+09 -3.852989e+09 -4.012989e+09 -2.343241e+01 8.590945e+00 -7.094553e+00
-4.830792e+09 -4.630791e+09 -4.790776e+09 -5.693457e+03 -1.885030e+03 -6.302694e+02
-4.981728e+09 -4.781720e+09 -4.941744e+09 8.986278e+02 2.687581e+03 -9.243142e+02
-4.809614e+09 -4.609622e+09 -4.769611e+09 -2.240231e+03 -3.326969e+02 2.099622e+03
-4.472656e+09 -4.272655e+09 -4.432659e+09 1.294795e+03 -6.914063e+02 5.841601e+02
-3.980839e+09 -3.780840e+09 -3.940838e+09 -1.204204e+01 -2.540690e+02 1.142519e+01
-4.137653e+09 -3.937651e+09 -4.097653e+09 -2.875170e+02 1.239631e+02 6.624579e+00
-3.176076e+09 -2.976073e+09 -3.136074e+09 1.872114e+02 3.723862e+02 -4.347687e+01
-2.588329e+09 -2.388327e+09 -2.548327e+09 3.026000e+02 3.615432e+02 -7.665823e+01
-3.772811e+09 -3.572808e+09 -3.732810e+09 5.504154e+02 4.863254e+02 -2.688730e+02
-4.512458e+09 -4.312455e+09 -4.472457e+09 3.148246e+02 1.582742e+02 -1.877191e+01
-3.564366e+09 -3.364363e+09 -3.524365e+09 1.708051e+02 3.476799e+02 -5.099559e+01
-5.011387e+09 -4.811387e+09 -4.971387e+09 -6.074627e+02 2.563312e+01 -1.105149e+02
-4.996976e+09 -4.796975e+09 -4.956976e+09 -4.002553e+02 3.751963e+00 -6.420359e+01
-4.596524e+09 -4.396520e+09 -4.556523e+09 7.293299e+02 2.223004e+02 -7.674863e+01
-4.766782e+09 -4.566778e+09 -4.726781e+09 1.104974e+03 3.583602e+01 1.103303e+02
-1.678186e+09 -1.478185e+09 -1.638185e+09 1.953232e+03 7.558169e+02 -2.728135e+02
-5.003355e+09 -4.803354e+09 -4.963354e+09 -3.308829e+02 -2.915940e+00 1.211389e+01
-5.008205e+09 -4.808205e+09 -4.968205e+09 -4.267253e+02 2.674437e+01 -7.366634e+01
-4.494109e+09 -4.294108e+09 -4.454108e+09 -4.111019e+02 -2.465154e+01 -3.218645e+01
-4.996369e+09 -4.796368e+09 -4.956369e+09 -7.357212e+02 1.791812e+01 -9.503010e+01
-4.328012e+09 -4.128011e+09 -4.288012e+09 -6.718107e+02 -3.898100e+00 2.444448e+00
-2.183037e+09 -1.983035e+09 -2.143037e+09 1.303775e+02 3.770412e+02 -5.517062e+01
-4.159086e+09 -3.959083e+09 -4.119085e+09 7.434531e+02 3.128480e+02 -2.380222e+02
-4.639565e+09 -4.439571e+09 -4.599570e+09 -1.844037e+03 7.438377e+02 1.648236e+02
-4.816541e+09 -4.616547e+09 -4.776549e+09 -1.629740e+03 1.019620e+03 1.176076e+02
-2.635956e+09 -2.435953e+09 -2.595954e+09 1.119982e+02 5.183768e+02 4.718218e+01
-4.988083e+09 -4.788088e+09 -4.948087e+09 -1.701735e+03 1.936152e+02 2.802357e+01
-4.814911e+09 -4.614918e+09 -4.774915e+09 -9.898137e+02 1.203054e+02 -3.974092e+01
-3.995404e+09 -3.795412e+09 -3.955416e+09 5.692938e+02 4.135909e+03 -2.833915e+02
-4.806837e+09 -4.606834e+09 -4.766836e+09 5.223458e+02 -3.362987e+00 2.120652e+00
-4.814959e+09 -4.614966e+09 -4.774965e+09 -7.398087e+02 7.160435e+02 8.016700e+01
-4.989966e+09 -4.789967e+09 -4.949967e+09 6.812545e+02 -2.622881e+01 -5.446101e+01
-4.539948e+09 -4.339945e+09 -4.499948e+09 -2.679103e+02 1.923345e+02 -1.648439e+01
-4.818626e+09 -4.618629e+09 -4.778628e+09 3.694206e+02 -2.208490e+01 -7.488237e+01
-3.782636e+09 -3.582633e+09 -3.742635e+09 7.023697e+02 4.283853e+02 -1.675123e+02
-4.997383e+09 -4.797385e+09 -4.957384e+09 1.013128e+03 -2.055089e+01 -1.040305e+02
-4.494146e+09 -4.294148e+09 -4.454147e+09 6.085807e+02 1.885742e+01 -7.092041e+01
-3.960267e+09 -3.760269e+09 -3.920268e+09 6.861052e+02 6.012348e+01 -8.044946e+00
-4.981547e+09 -4.781549e+09 -4.941548e+09 2.874347e+02 -6.120334e+00 -7.488552e-01
-2.153284e+09 -1.953281e+09 -2.113282e+09 8.837164e+02 3.182589e+02 -2.442721e+02
-4.164314e+09 -3.964315e+09 -4.124315e+09 2.518838e+02 4.161236e+00 -2.335490e+00
-4.810339e+09 -4.610340e+09 -4.770340e+09 -9.353484e+02 2.366959e+01 -1.358297e+02
-4.981650e+09 -4.781652e+09 -4.941651e+09 -4.490884e+02 -3.421874e+00 -1.719330e+01
-1.978266e+09 -1.778264e+09 -1.938266e+09 -5.271486e+01 4.872481e+02 -8.248752e+01
-2.947406e+09 -2.747403e+09 -2.907405e+09 -9.525911e+01 4.352785e+02 -7.741203e+01
-4.531016e+09 -4.331017e+09 -4.491016e+09 -3.324147e+02 2.387996e+01 -5.436556e+01
-4.517564e+09 -4.317566e+09 -4.477564e+09 -3.607878e+02 2.047984e+01 -5.051182e+01
-4.820945e+09 -4.620944e+09 -4.780944e+09 -3.686741e+02 -3.690479e+01 -6.490468e+01
-4.798462e+09 -4.598461e+09 -4.758461e+09 -9.408916e+02 1.883055e+01 -2.316492e+01
-3.964348e+09 -3.764347e+09 -3.924347e+09 -2.578621e+02 5.420033e+01 -7.579076e+01
-4.292267e+09 -4.092266e+09 -4.252266e+09 -3.078810e+02 6.408646e+01 3.903317e+01
-4.976251e+09 -4.776250e+09 -4.936250e+09 7.536730e+02 -8.993112e+01 -1.615777e+02
-4.810356e+09 -4.610350e+09 -4.770302e+09 -4.642131e+02 3.106272e+02 2.909160e+03
-3.500732e+09 -3.300734e+09 -3.460732e+09 -2.633496e+02 -1.427715e+02 -6.766488e+01
-3.971704e+09 -3.771699e+09 -3.931667e+09 -5.597982e+03 -5.678901e+03 8.193629e+03
-4.612252e+09 -4.412253e+09 -4.572224e+09 2.419309e+03 3.421608e+03 3.492911e+03
-4.480453e+09 -4.280451e+09 -4.440444e+09 -4.393523e+03 -1.754998e+03 1.910479e+03
-4.144326e+09 -3.944324e+09 -4.104306e+09 -5.713922e+03 -3.111668e+03 5.389196e+03
-4.625002e+09 -4.425005e+09 -4.584972e+09 -1.004022e+02 1.258349e+02 5.204288e+03
-2.231173e+09 -2.031175e+09 -2.191173e+09 -1.758094e+02 -2.629057e+01 -7.149985e+01
-4.463825e+09 -4.263815e+09 -4.423828e+09 -8.047491e+02 -3.631737e+03 -2.689304e+02
-4.123888e+09 -3.923886e+09 -4.083831e+09 -1.935268e+03 -4.469761e+03 7.385353e+03
-4.529905e+09 -4.329899e+09 -4.489866e+09 -1.257107e+03 1.009525e+02 -4.839518e+03
-1.882518e+09 -1.682520e+09 -1.842518e+09 -2.333575e+02 5.123846e+01 -1.425389e+02
-4.124667e+09 -3.924664e+09 -4.084669e+09 -3.989661e+03 9.152207e+02 3.686183e+02
-4.974011e+09 -4.774009e+09 -4.934011e+09 -2.988884e+03 -2.530257e+02 3.092385e+02
-3.950545e+09 -3.750540e+09 -3.910546e+09 -1.777734e+03 -3.672292e+02 1.307512e+03
-4.461624e+09 -4.261620e+09 -4.421628e+09 -1.815063e+03 -6.355123e+02 1.262160e+03
-4.820744e+09 -4.620738e+09 -4.780752e+09 -2.020806e+03 1.735474e+03 9.756232e+02
-4.134278e+09 -3.934264e+09 -4.094280e+09 -3.877739e+02 -1.759373e+03 4.022977e+03
-2.672938e+09 -2.472940e+09 -2.632938e+09 -5.460909e+02 2.090293e+01 -1.322630e+02
-3.471048e+09 -3.271049e+09 -3.431047e+09 -2.758569e+02 -1.636265e+02 -7.947977e+01
-3.960257e+09 -3.760248e+09 -3.920253e+09 1.029258e+03 5.938640e+01 1.581255e+03
-4.134276e+09 -3.934273e+09 -4.094273e+09 2.207033e+03 -5.189156e+02 -4.239404e+02
-4.281513e+09 -4.081510e+09 -4.241512e+09 -4.444901e+02 9.414072e+01 2.479640e+02
-3.977496e+09 -3.777490e+09 -3.937495e+09 -5.080853e+02 1.023553e+02 6.768704e+02
-4.134274e+09 -3.934275e+09 -4.094273e+09 2.134047e+03 -3.820315e+02 -6.808568e+02
-3.511683e+09 -3.311686e+09 -3.471683e+09 -3.001998e+02 2.005799e+02 -5.412157e+01
-4.684356e+09 -4.484355e+09 -4.644356e+09 1.145952e+03 -4.787978e+00 -1.924173e+01
-4.973852e+09 -4.773849e+09 -4.933851e+09 1.820323e+02 -1.045895e+01 5.786141e+01
-4.607254e+09 -4.407252e+09 -4.567253e+09 1.436864e+02 7.863293e+01 -3.509712e+00
-2.653998e+09 -2.454000e+09 -2.613998e+09 -1.662346e+02 1.675349e+02 -1.024272e+02
-4.978530e+09 -4.778529e+09 -4.938529e+09 2.022485e+00 -1.120895e+01 1.600086e+01
-2.954426e+09 -2.754427e+09 -2.914425e+09 -8.395601e+02 1.512882e+02 -2.809344e+01
-4.477509e+09 -4.277508e+09 -4.437506e+09 2.135971e+03 -3.814774e+02 -7.158018e+02
-4.477512e+09 -4.277506e+09 -4.437509e+09 1.174706e+03 5.090934e+02 3.701128e+02
-4.303489e+09 -4.103483e+09 -4.263484e+09 1.876282e+03 -9.639924e+02 -3.792945e+02
-4.477510e+09 -4.277506e+09 -4.437508e+09 1.930985e+03 -6.024027e+01 2.429989e+02
-3.840127e+09 -3.640130e+09 -3.800127e+09 -3.333077e+02 4.665018e+01 -6.393561e+01
-4.985771e+09 -4.785773e+09 -4.945769e+09 1.435233e+03 -6.638184e+01 -7.195663e+02
-4.825510e+09 -4.625514e+09 -4.785523e+09 1.658478e+03 2.607955e+03 -2.618212e+02
-1.677932e+09 -1.477929e+09 -1.637931e+09 -2.024120e+02 -6.826890e+02 -9.675595e+02
-2.578108e+09 -2.378110e+09 -2.538108e+09 -8.904500e+02 -2.103329e+02 -9.343050e+01
-2.127382e+09 -1.927386e+09 -2.087386e+09 9.673841e+00 -1.976148e+02 5.065700e+01
-2.626823e+09 -2.426826e+09 -2.586823e+09 -5.388682e+02 1.229801e+02 -5.998355e+01
-4.479912e+09 -4.279913e+09 -4.439912e+09 -8.198258e+02 1.208204e+01 -1.186841e+01
-4.657200e+09 -4.457200e+09 -4.617199e+09 -8.895364e+02 7.019299e+00 -6.697784e+01
-2.766976e+09 -2.566975e+09 -2.726977e+09 -1.998635e+02 -3.749288e+02 -7.021746e+01
-4.329071e+09 -4.129070e+09 -4.289071e+09 1.805912e+02 2.415707e+01 -2.507702e+01
-4.167925e+09 -3.967924e+09 -4.127924e+09 1.356786e+02 8.988550e+00 -4.132633e+01
-4.298213e+09 -4.098212e+09 -4.258213e+09 1.965790e+02 -8.541555e+00 -1.082045e+01
-1.648967e+09 -1.448973e+09 -1.608973e+09 2.535170e+01 -4.303724e+01 2.425012e+02
-4.982717e+09 -4.782716e+09 -4.942716e+09 1.540532e+02 -6.108970e+00 -4.076735e+01
-3.615832e+09 -3.415836e+09 -3.575836e+09 7.945883e+02 -8.500813e+01 -7.346503e+01
-2.937335e+09 -2.737344e+09 -2.897341e+09 2.312092e+02 2.578119e+02 9.668470e+02
-3.961258e+09 -3.761256e+09 -3.921256e+09 -6.203283e+01 -8.878570e+01 -2.257657e+00
-1.634143e+09 -1.434141e+09 -1.594141e+09 1.291832e-08 -2.436915e+01 4.572957e+01
-4.624827e+09 -4.424826e+09 -4.584826e+09 6.031562e+01 6.162239e+00 -1.520899e+01
-4.329071e+09 -4.129070e+09 -4.289071e+09 1.202115e+02 1.095523e+01 -1.858379e+01
-5.013090e+09 -4.813089e+09 -4.973089e+09 2.133975e+02 3.211483e+00 1.586623e+00
-2.883375e+09 -2.683372e+09 -2.843373e+09 -9.549406e+01 -3.205580e+02 -3.944795e+01
-4.754667e+09 -4.554664e+09 -4.714665e+09 -1.992691e+02 -8.687260e+01 -6.275846e+01
-2.096169e+09 -1.896168e+09 -2.056167e+09 -1.112464e+03 -7.111424e+02 -1.479079e+02
-2.731426e+09 -2.531424e+09 -2.691424e+09 -1.470721e+02 -2.561801e+02 -3.413235e+01
-4.659597e+09 -4.459596e+09 -4.619596e+09 1.364853e+02 -4.970715e+00 2.387369e-01
-4.827603e+09 -4.627602e+09 -4.787602e+09 9.861812e+01 4.307696e+00 -3.886054e+00
-3.053578e+09 -2.853584e+09 -3.013579e+09 6.897380e+02 -5.737212e+02 2.611049e+02
-1.902879e+09 -1.702877e+09 -1.862877e+09 -5.063785e+01 -1.912772e+02 -2.293767e+01
-2.912349e+09 -2.712349e+09 -2.872348e+09 -7.126776e+02 -3.468972e+02 -1.215270e+02
-3.090478e+09 -2.890483e+09 -3.050479e+09 4.188063e+02 -2.816448e+02 -6.440964e+01
-3.903434e+09 -3.703431e+09 -3.863434e+09 -3.513563e+02 -5.186534e+02 -3.771706e+02
-3.883105e+09 -3.683103e+09 -3.843104e+09 -1.447147e+02 -2.366400e+02 -7.553311e+00
-4.311091e+09 -4.111095e+09 -4.271096e+09 -2.634557e+03 1.612982e+03 6.586337e+02
-2.016248e+09 -1.816246e+09 -1.976246e+09 -1.360727e+02 -2.375220e+02 1.458189e+01
-2.565910e+09 -2.365907e+09 -2.525909e+09 -5.139987e+02 -7.043041e+02 -1.632260e+02
-4.986376e+09 -4.786381e+09 -4.946378e+09 4.024223e+02 -2.399179e+01 8.273123e+01
-4.635165e+09 -4.435169e+09 -4.595167e+09 1.036002e+03 -1.770675e+02 1.007364e+02
-4.802904e+09 -4.602910e+09 -4.762906e+09 5.384730e+02 4.344939e+01 2.442822e+01
-3.953229e+09 -3.753233e+09 -3.913230e+09 5.913811e+02 -4.729669e+02 8.429556e+01
-4.231435e+09 -4.031437e+09 -4.191436e+09 1.053111e+03 -2.811301e+02 8.471122e+01
-4.607553e+09 -4.407556e+09 -4.567554e+09 1.038536e+03 -1.146197e+02 9.564850e+01
-4.291420e+09 -4.091425e+09 -4.251423e+09 -1.956930e+03 7.576873e+02 1.589570e+02
-4.313046e+09 -4.113052e+09 -4.273049e+09 -9.267244e+02 6.529796e+02 1.189818e+02
-4.988083e+09 -4.788089e+09 -4.948087e+09 -1.008984e+03 1.630016e+01 1.282817e+01
-3.975643e+09 -3.775650e+09 -3.935646e+09 -1.093619e+03 7.335146e+02 9.208991e+01
-4.142985e+09 -3.942992e+09 -4.102988e+09 -1.134889e+03 6.168763e+02 5.266437e+01
-4.815407e+09 -4.615413e+09 -4.775412e+09 -1.783496e+03 4.906164e+02 8.190910e+01
-1.912197e+09 -1.712196e+09 -1.872196e+09 1.226912e+01 1.154206e+01 -4.885875e+01
-4.991298e+09 -4.791303e+09 -4.951303e+09 -1.818398e+03 2.150604e+02 5.169051e+01
-4.687012e+09 -4.487012e+09 -4.647011e+09 -2.793810e+01 -3.416570e+01 -1.152357e+01
-3.388049e+09 -3.188048e+09 -3.348048e+09 3.045169e+01 4.430536e+00 -3.950567e+01
-4.128942e+09 -3.928947e+09 -4.088946e+09 -2.048503e+03 1.021822e+03 2.356064e+02
-4.823876e+09 -4.623883e+09 -4.783880e+09 2.008205e+02 2.712476e+01 -3.051075e+01
-4.128494e+09 -3.928501e+09 -4.088499e+09 -9.176017e+02 1.159805e+03 8.199527e+01
-4.825914e+09 -4.625917e+09 -4.785919e+09 -2.525645e+03 3.832402e+02 9.913617e+01
-1.907200e+09 -1.707199e+09 -1.867199e+09 8.340514e+00 6.519656e+00 -8.115997e+00
-3.841313e+09 -3.641312e+09 -3.801312e+09 3.374887e+01 5.266439e+00 1.420895e+01
-4.686065e+09 -4.486064e+09 -4.646064e+09 2.764769e+01 -1.280057e+00 -3.921388e+00
-4.436008e+09 -4.236012e+09 -4.396008e+09 -1.942980e+01 1.793453e+01 -5.330881e+01
-4.881761e+09 -4.681760e+09 -4.841760e+09 3.290115e+00 -2.268301e+00 3.239934e+00
-2.215137e+09 -2.015136e+09 -2.175136e+09 4.089557e+00 -3.662930e+00 -2.285048e+01
-3.318437e+09 -3.118435e+09 -3.278436e+09 6.049483e+00 1.180239e+00 -3.487933e+00
-1.588599e+09 -1.388598e+09 -1.548598e+09 7.075535e+01 1.595857e+01 -2.881860e+01
-4.968279e+09 -4.768278e+09 -4.928279e+09 2.664638e+01 1.620464e-01 -6.472125e-01
-3.433811e+09 -3.233809e+09 -3.393810e+09 2.073428e+01 1.638867e-01 -2.144023e+01
-1.681983e+09 -1.481982e+09 -1.641982e+09 -1.337664e+01 2.520305e+00 -4.606373e+01
-1.657212e+09 -1.457211e+09 -1.617211e+09 1.584195e+01 7.252446e+00 -1.071785e+01
-2.146974e+09 -1.946973e+09 -2.106973e+09 2.136804e+01 6.999727e+00 -1.930349e+01
-2.687810e+09 -2.487809e+09 -2.647809e+09 1.649135e+01 3.120959e+00 -9.799348e+00
-4.007159e+09 -3.807158e+09 -3.967158e+09 2.760310e+01 2.056131e+00 -1.936706e+00
-3.666519e+09 -3.466518e+09 -3.626519e+09 2.071022e+01 1.293691e+01 1.258642e+01
-4.815570e+09 -4.615577e+09 -4.775577e+09 -5.713380e+02 2.989790e+02 4.999577e+00
-2.023370e+09 -1.823372e+09 -1.983371e+09 -5.783373e+01 -1.787726e+01 9.503861e+00
-3.730042e+09 -3.530041e+09 -3.690041e+09 4.810111e+00 2.358849e+00 -5.761624e+00
-4.990802e+09 -4.790809e+09 -4.950806e+09 2.015825e+00 1.276498e+02 7.143191e+01
-2.251823e+09 -2.051825e+09 -2.211824e+09 1.202896e+02 7.220474e+00 9.477674e+00
-3.356333e+09 -3.156335e+09 -3.316335e+09 2.478112e+01 -2.984569e+00 -5.199311e+00
-4.295836e+09 -4.095843e+09 -4.255841e+09 -1.051232e+03 1.098554e+03 1.467376e+02
-1.931249e+09 -1.731248e+09 -1.891248e+09 -8.158224e+00 -7.135636e+00 -8.038530e+00
-4.634653e+09 -4.434657e+09 -4.594656e+09 -1.951464e+03 5.082300e+02 5.287472e+01
-2.200045e+09 -2.000044e+09 -2.160045e+09 -3.809483e+00 -1.322272e+00 -9.056095e+00
-3.972633e+09 -3.772640e+09 -3.932636e+09 7.991894e+02 6.199584e+02 -1.123810e+02
-4.677892e+09 -4.477899e+09 -4.637895e+09 -2.529723e+02 2.259842e+02 -5.050640e+01
-4.664556e+09 -4.464563e+09 -4.624559e+09 -2.421063e+02 3.882490e+02 -6.173014e+01
-4.152632e+09 -3.952639e+09 -4.112635e+09 2.885708e+02 2.008593e+02 -6.223098e+01
-1.614911e+09 -1.414910e+09 -1.574910e+09 1.109347e-09 -6.849145e+00 -1.896759e-01
-3.977014e+09 -3.777020e+09 -3.937016e+09 2.277562e+02 4.055068e+02 -1.119437e+02
-4.839098e+09 -4.639105e+09 -4.799100e+09 3.472331e+02 3.343450e+02 1.678284e+00
-4.834717e+09 -4.634724e+09 -4.794720e+09 6.032071e+02 -7.522955e+01 -1.635512e+01
-3.964305e+09 -3.764305e+09 -3.924305e+09 -6.403914e+02 -3.766158e+01 4.952086e+01
-4.654120e+09 -4.454120e+09 -4.614120e+09 -5.783665e+02 -2.995702e+01 3.114545e+01
-3.913273e+09 -3.713272e+09 -3.873272e+09 -8.932108e+01 -6.431719e+00 -1.000224e+01
-1.614911e+09 -1.414910e+09 -1.574910e+09 -8.784077e+00 -3.678062e+00 -8.993910e+00
-2.830430e+09 -2.630429e+09 -2.790429e+09 -1.032981e+02 -1.390325e+01 -2.730047e+01
-4.989264e+09 -4.789265e+09 -4.949265e+09 -4.813802e+02 -2.399062e+00 -5.717720e+01
-4.292138e+09 -4.092139e+09 -4.252139e+09 -5.072509e+02 -4.781313e+00 1.442814e+01
-1.594826e+09 -1.394832e+09 -1.554827e+09 1.238710e+03 -8.554865e+02 2.756780e+02
-4.827004e+09 -4.627004e+09 -4.787004e+09 -5.339894e+02 -4.364566e+01 1.327487e+01
-3.985268e+09 -3.785275e+09 -3.945271e+09 3.210794e+01 -1.978069e+02 6.149559e+01
-4.969522e+09 -4.769525e+09 -4.929522e+09 4.668689e+02 -7.851072e+01 7.010112e+01
-1.674675e+09 -1.474677e+09 -1.634675e+09 1.092995e+03 -5.739104e+02 1.495229e+02
-4.793045e+09 -4.593045e+09 -4.753045e+09 -4.450709e+02 1.309610e+01 -2.472804e+01
-4.828830e+09 -4.628830e+09 -4.788830e+09 -6.305536e+02 1.692246e+01 -2.038556e+01
-3.969628e+09 -3.769628e+09 -3.929627e+09 6.744981e+02 -2.548952e+02 1.612289e+02
-4.489880e+09 -4.289883e+09 -4.449883e+09 1.264927e+03 -7.457150e+02 3.292689e+02
-3.973639e+09 -3.773642e+09 -3.933642e+09 1.402024e+03 -1.177141e+03 4.336290e+02
-4.999211e+09 -4.799216e+09 -4.959217e+09 8.970675e+02 -5.125959e+02 7.848162e+01
-4.993750e+09 -4.793754e+09 -4.953755e+09 9.926997e+02 -4.163844e+02 1.401890e+02
-3.964052e+09 -3.764057e+09 -3.924056e+09 1.335305e+03 -1.383639e+03 4.654635e+02
-4.150888e+09 -3.950886e+09 -4.110887e+09 2.464411e+02 -3.985586e+02 1.407381e+02
-1.669285e+09 -1.469285e+09 -1.629285e+09 9.310870e+01 4.414227e+01 8.307675e-01
-3.982121e+09 -3.782121e+09 -3.942121e+09 8.892904e+00 1.232167e+01 1.324737e+01
-1.583793e+09 -1.383792e+09 -1.543793e+09 1.033579e+02 4.727160e+01 5.248676e+00
-3.964053e+09 -3.764056e+09 -3.924057e+09 1.677156e+03 -1.450001e+03 7.497676e+02
-4.984536e+09 -4.784537e+09 -4.944541e+09 1.161560e+03 -4.089159e+02 2.878126e+02
-4.132233e+09 -3.932234e+09 -4.092240e+09 1.344197e+03 -2.768126e+03 1.582049e+03
-4.986689e+09 -4.786693e+09 -4.946697e+09 8.165413e+02 -6.454721e+02 1.586357e+02
-2.165503e+09 -1.965501e+09 -2.125501e+09 3.267695e+02 4.930896e+02 -7.093177e+01
-4.135461e+09 -3.935466e+09 -4.095467e+09 1.271774e+03 -2.179597e+03 7.382779e+02
-4.512145e+09 -4.312152e+09 -4.472154e+09 1.744625e+03 1.647672e+03 -4.420427e+01
-2.696183e+09 -2.496181e+09 -2.656181e+09 2.007565e+03 9.538390e+02 -5.822877e+02
-4.135222e+09 -3.935229e+09 -4.095229e+09 1.023764e+03 2.343984e+03 -1.006526e+02
-4.129105e+09 -3.929112e+09 -4.089112e+09 -6.524294e+02 2.190224e+03 1.906553e+02
-2.973278e+09 -2.773278e+09 -2.933277e+09 9.775701e+02 1.309932e+02 2.623102e+01
-1.682065e+09 -1.482063e+09 -1.642063e+09 3.213159e+02 5.031200e+02 -3.653062e+01
-1.577893e+09 -1.377891e+09 -1.537891e+09 1.165705e+03 5.963825e+02 -2.224875e+02
-1.862420e+09 -1.662418e+09 -1.822418e+09 1.197059e+03 6.456676e+02 -2.290633e+02
-4.121085e+09 -3.921093e+09 -4.081093e+09 -2.567810e+02 1.905033e+03 4.838832e+01
-4.821687e+09 -4.621694e+09 -4.781694e+09 1.115566e+03 3.086525e+02 -1.637334e+02
-2.253213e+09 -2.053211e+09 -2.213211e+09 2.010008e+03 1.058057e+03 -4.855863e+02
-4.428524e+09 -4.228521e+09 -4.388523e+09 3.763120e+02 1.566512e+02 -3.444062e+01
-4.991412e+09 -4.791419e+09 -4.951419e+09 7.350623e+02 6.637772e+02 5.305219e+01
-2.167359e+09 -1.967358e+09 -2.127360e+09 -1.583658e+02 -6.025913e+02 -1.269308e+02
-4.988132e+09 -4.788138e+09 -4.948138e+09 -7.257156e+02 2.986493e+02 9.320288e+01
-2.932842e+09 -2.732846e+09 -2.892846e+09 1.632869e+03 1.112128e+01 -1.862659e+01
-3.422770e+09 -3.222770e+09 -3.382772e+09 -7.027879e+00 -4.335542e+02 -6.365876e+01
-1.649036e+09 -1.449037e+09 -1.609038e+09 -1.353613e+02 -4.651877e+02 -2.792937e+01
-4.134092e+09 -3.934095e+09 -4.094095e+09 -2.520224e+03 9.130488e+02 3.831887e+02
-3.893566e+09 -3.693566e+09 -3.853566e+09 -4.258713e+02 -2.811383e+01 3.646102e+01
-1.826875e+09 -1.626881e+09 -1.786881e+09 1.461873e+02 2.078387e+01 2.388511e+02
-4.436117e+09 -4.236117e+09 -4.396117e+09 -1.893585e+01 -2.329098e+01 1.014904e+00
-4.608026e+09 -4.408027e+09 -4.568027e+09 -2.211450e+02 3.675907e+00 -7.478018e+01
-4.978841e+09 -4.778842e+09 -4.938842e+09 -3.119174e+02 3.897817e+00 9.911688e+00
-4.603036e+09 -4.403037e+09 -4.563037e+09 -3.443921e+02 -1.400846e+01 1.955827e+01
-3.833566e+09 -3.633566e+09 -3.793566e+09 -9.656278e+01 -2.738972e+00 -1.431793e+01
-4.212270e+09 -4.012278e+09 -4.172275e+09 5.629027e+02 -5.005054e+00 5.383419e+02
-1.853531e+09 -1.653533e+09 -1.813534e+09 5.007391e+02 -3.202838e+02 -3.206988e+02
-3.969444e+09 -3.769444e+09 -3.929444e+09 -2.038035e+01 -1.762287e+01 -3.192754e+01
-1.948118e+09 -1.748121e+09 -1.908118e+09 -3.082376e+02 -2.960879e+02 -1.497317e+02
-1.584344e+09 -1.384346e+09 -1.544344e+09 -1.325478e+03 -5.845584e+02 -1.258694e+02
-4.709974e+09 -4.509974e+09 -4.669974e+09 -1.076964e+02 -2.407841e+00 -4.779726e+01
-4.978468e+09 -4.778469e+09 -4.938469e+09 -1.170414e+03 -3.594871e+02 -2.488575e+01
-4.990734e+09 -4.790736e+09 -4.950735e+09 -1.015523e+03 1.334110e+02 7.600562e+01
-1.568971e+09 -1.368976e+09 -1.528971e+09 2.017335e+02 6.897571e+01 -1.308297e+01
-2.655066e+09 -2.455070e+09 -2.615066e+09 1.310295e+02 1.034619e+02 1.253930e+01
-2.191456e+09 -1.991452e+09 -2.151456e+09 -1.361075e+03 5.692247e+02 -8.708874e+02
-1.537693e+09 -1.337691e+09 -1.497693e+09 -8.964381e+02 2.668220e+02 1.763956e+02
-2.387205e+09 -2.187209e+09 -2.347206e+09 -5.596454e+02 9.606463e+01 -7.610027e+01
-2.140794e+09 -1.940798e+09 -2.100794e+09 -9.294728e+02 1.372273e+02 -2.203059e+01
-2.451427e+09 -2.251431e+09 -2.411428e+09 -6.637386e+02 1.510175e+02 -9.737151e+01
-2.255320e+09 -2.055325e+09 -2.215320e+09 -1.196772e+02 -1.484052e+01 -3.935267e+01
-2.600173e+09 -2.400178e+09 -2.560173e+09 7.966235e+01 2.016677e+01 5.393655e+01
-3.426753e+09 -3.226758e+09 -3.386753e+09 1.916614e+02 -6.297240e+01 -5.048133e+00
-4.419140e+09 -4.219139e+09 -4.379140e+09 -2.443716e+02 -1.008233e+01 -2.439428e+01
-1.986326e+09 -1.786325e+09 -1.946325e+09 -2.555010e+02 -3.815292e+01 6.345921e+00
-4.709349e+09 -4.509347e+09 -4.669349e+09 -8.549934e+01 1.590669e+02 1.388269e+02
-4.945616e+09 -4.745613e+09 -4.905616e+09 -2.992810e+02 1.570048e+02 -2.019614e+02
-4.987517e+09 -4.787516e+09 -4.947518e+09 -1.130431e+03 1.764330e+02 -2.963925e+02
-2.072955e+09 -1.872954e+09 -2.032954e+09 -2.078463e+02 -2.664094e+01 -3.941306e+01
-2.919610e+09 -2.719609e+09 -2.879609e+09 -2.940225e+01 -1.247113e+00 -2.767244e+01
-3.599661e+09 -3.399659e+09 -3.559660e+09 -2.416759e+02 -2.386906e+01 -3.674214e+01
-2.600230e+09 -2.400228e+09 -2.560228e+09 2.440929e+02 2.379655e+02 -2.534648e+01
-4.972772e+09 -4.772776e+09 -4.932773e+09 -6.520513e+02 8.207465e+01 -6.774589e+00
-2.576042e+09 -2.376045e+09 -2.536042e+09 -5.086679e+02 -4.005091e+01 -1.206839e+02
-4.803167e+09 -4.603167e+09 -4.763166e+09 3.323775e+02 -1.365285e+02 -3.044967e+01
-2.290157e+09 -2.090156e+09 -2.250155e+09 2.074441e+02 -1.552579e+02 -1.339121e+01
-4.988092e+09 -4.788097e+09 -4.948093e+09 -3.702684e+02 -1.187137e+02 8.190364e-01
-2.890814e+09 -2.690813e+09 -2.850813e+09 1.966501e+02 -2.481704e+02 3.115802e+01
-2.660719e+09 -2.460721e+09 -2.620720e+09 1.349508e+02 3.151466e+01 7.191989e+00
-2.540523e+09 -2.340524e+09 -2.500524e+09 1.293395e+01 2.971246e+01 -1.469086e+00
-2.137292e+09 -1.937293e+09 -2.097293e+09 1.037880e+01 -3.240254e+00 4.375227e+00
-1.560004e+09 -1.360006e+09 -1.520006e+09 4.060569e+00 -5.841999e+00 3.508555e+00
-1.570754e+09 -1.370755e+09 -1.530755e+09 -1.430971e+02 -3.463747e+01 1.451328e+01
-3.281506e+09 -3.081504e+09 -3.241505e+09 -9.947617e-05 2.867992e+00 -3.611252e+00
-4.990369e+09 -4.790371e+09 -4.950370e+09 5.605599e+02 -2.236561e+01 -2.357790e+01
-2.132846e+09 -1.932848e+09 -2.092847e+09 8.187207e+01 1.081085e+01 2.094311e+01
-2.137205e+09 -1.937207e+09 -2.097206e+09 1.007245e+02 1.516127e+01 1.621846e+01
-4.134277e+09 -3.934265e+09 -4.094268e+09 1.132287e+03 -4.100708e+03 4.042635e+03
-2.696760e+09 -2.496758e+09 -2.656759e+09 1.561574e+00 6.924573e+00 -7.139963e+00
-1.838975e+09 -1.638976e+09 -1.798976e+09 2.120592e+02 4.150686e+01 1.776968e+01
-3.658861e+09 -3.458862e+09 -3.618862e+09 4.003002e+01 1.503708e+01 -2.176241e+01
-3.441936e+09 -3.241938e+09 -3.401938e+09 5.098511e+00 1.949653e+01 3.476686e-01
-4.826115e+09 -4.626117e+09 -4.786116e+09 5.742862e+02 -3.010743e+01 -7.399635e+01
-4.991606e+09 -4.791607e+09 -4.951607e+09 8.589334e+02 -3.193811e+01 -4.671203e+01
-4.131136e+09 -3.931136e+09 -4.091136e+09 8.626798e+02 5.187165e+01 -4.449909e+00
-2.116097e+09 -1.916099e+09 -2.076098e+09 1.008536e+01 3.091204e+00 -1.104171e+00
-4.644428e+09 -4.444428e+09 -4.604428e+09 9.351069e+02 5.803304e+01 6.673545e+01
-4.306138e+09 -4.106139e+09 -4.266139e+09 9.737097e+02 -1.275790e+01 -8.553521e+01
-1.696668e+09 -1.496669e+09 -1.656669e+09 3.881642e+02 6.414807e+01 1.522984e+01
-3.844457e+09 -3.644458e+09 -3.804458e+09 2.451045e+01 9.961127e+00 -1.608070e+01
-2.865995e+09 -2.665996e+09 -2.825996e+09 3.474599e+00 -3.169743e+00 1.755080e+00
-3.040982e+09 -2.840982e+09 -3.000982e+09 2.529049e+02 4.097896e+01 -4.803736e+00
-3.721330e+09 -3.521331e+09 -3.681331e+09 1.952628e+02 1.782259e+01 -1.733048e+01
-4.136910e+09 -3.936911e+09 -4.096911e+09 8.524762e+02 5.105793e+01 2.762045e+01
-4.302070e+09 -4.102071e+09 -4.262071e+09 7.804787e+02 -7.608234e+00 -4.480519e+01
-2.074733e+09 -1.874734e+09 -2.034734e+09 7.207597e+01 3.088162e+01 4.033286e+01
-4.794712e+09 -4.594713e+09 -4.754724e+09 2.873768e+03 1.448164e+03 -1.257827e+03
-4.964164e+09 -4.764165e+09 -4.924165e+09 2.005705e+02 7.801354e+00 -4.535426e+01
-4.371833e+09 -4.171833e+09 -4.331833e+09 8.444371e+01 2.557016e+01 1.468412e+01
-1.588410e+09 -1.388411e+09 -1.548411e+09 1.138603e+02 3.440446e+01 1.773459e+01
-4.817670e+09 -4.617672e+09 -4.777671e+09 6.845908e+02 -2.354037e+01 -6.146273e+01
-4.300834e+09 -4.100835e+09 -4.260834e+09 6.016030e+02 -7.842072e-01 -9.125321e+01
-1.916500e+09 -1.716499e+09 -1.876499e+09 -2.991457e+01 -1.952281e+01 9.050835e+00
-3.962681e+09 -3.762681e+09 -3.922680e+09 2.983869e+01 4.133498e+01 -4.303020e+01
-1.684213e+09 -1.484212e+09 -1.644212e+09 -1.930212e+01 -7.399509e+00 -7.340181e+01
-2.888486e+09 -2.688487e+09 -2.848485e+09 -1.967066e+02 -2.861379e+01 -7.949474e+01
-2.634436e+09 -2.434437e+09 -2.594436e+09 -9.921881e+01 1.199620e+02 -6.787077e+01
-2.813536e+09 -2.613536e+09 -2.773535e+09 -2.067785e+02 -1.211223e+01 -3.477223e+01
-2.601801e+09 -2.401799e+09 -2.561800e+09 -4.583214e+01 -4.399674e+00 -5.056789e+01
-4.803897e+09 -4.603898e+09 -4.763896e+09 -1.820845e+02 5.116851e+01 -2.694906e+01
-3.431699e+09 -3.231700e+09 -3.391698e+09 -1.867997e+02 -1.162171e+02 -8.078197e+01
-1.635445e+09 -1.435444e+09 -1.595444e+09 -5.090803e+01 -1.081454e+01 -5.455758e+01
-2.178902e+09 -1.978901e+09 -2.138901e+09 -4.789948e+01 -6.122747e+00 -5.812339e+01
-4.890118e+09 -4.690117e+09 -4.850117e+09 -7.556066e+01 -9.946235e-05 -1.010432e+01
-3.628524e+09 -3.428524e+09 -3.588523e+09 -1.507367e+02 -2.992502e+01 -7.555879e+01
-3.269577e+09 -3.069579e+09 -3.229577e+09 -7.061674e+02 8.869759e+01 -2.564578e+00
-3.881092e+09 -3.681092e+09 -3.841091e+09 -2.380527e+02 -2.476210e+01 -8.459144e+01
-1.873459e+09 -1.673467e+09 -1.833460e+09 -3.905071e+02 -6.997456e+02 3.996877e+01
-4.011784e+09 -3.811785e+09 -3.971783e+09 -4.099244e+02 2.311265e+01 -8.083031e+01
-3.403783e+09 -3.203788e+09 -3.363787e+09 5.689834e+02 5.999124e+01 -3.058041e+01
-4.890117e+09 -4.690123e+09 -4.850119e+09 -9.357238e+01 -4.967894e-05 -3.533889e+01
-3.975887e+09 -3.775894e+09 -3.935892e+09 -5.749257e+02 1.683897e+01 1.373220e+02
-4.992384e+09 -4.792387e+09 -4.952392e+09 -2.388113e+03 7.401136e+02 1.862073e+02
-3.950829e+09 -3.750832e+09 -3.910831e+09 -1.134688e+03 -9.089932e+02 -3.196950e+02
-3.586888e+09 -3.386893e+09 -3.546892e+09 -6.500739e+02 -1.860062e+01 3.591992e+02
-3.681168e+09 -3.481172e+09 -3.641169e+09 -9.883019e+01 -1.397281e+02 -7.612405e+01
-3.321621e+09 -3.121625e+09 -3.281623e+09 -1.857705e+03 -1.506061e+03 -4.524752e+02
-3.994556e+09 -3.794554e+09 -3.954554e+09 -2.294464e+02 -4.890016e+00 -2.239528e+01
-4.197084e+09 -3.997085e+09 -4.157083e+09 6.899906e+02 -3.118992e+02 1.460177e+02
-4.967725e+09 -4.767726e+09 -4.927724e+09 3.340659e+02 -1.158574e+01 1.678530e+01
-1.859233e+09 -1.659236e+09 -1.819233e+09 1.823116e+02 1.177443e+01 -7.122955e+01
-3.634639e+09 -3.434643e+09 -3.594640e+09 5.486087e+01 -1.292489e+02 3.355669e+01
-4.792449e+09 -4.592452e+09 -4.752451e+09 -2.799864e+03 2.405487e+02 -2.997176e+02
-4.165386e+09 -3.965392e+09 -4.125391e+09 -1.446766e+03 1.221436e+02 2.257543e+02
-3.348903e+09 -3.148906e+09 -3.308903e+09 6.871295e+02 3.716164e+00 6.403613e+01
-4.284792e+09 -4.084792e+09 -4.244791e+09 1.969448e+02 -5.643276e+01 3.805171e+01
-2.206722e+09 -2.006725e+09 -2.166723e+09 1.142333e+03 -4.130342e+02 2.599803e+02
-4.994704e+09 -4.794702e+09 -4.954704e+09 2.743685e+02 -1.892985e+02 1.544747e+02
-4.989966e+09 -4.789967e+09 -4.949966e+09 8.285819e+02 -2.505686e+01 -6.413015e+01
-3.368632e+09 -3.168632e+09 -3.328631e+09 1.855166e+02 -1.010643e+02 -1.022054e+01
-2.251801e+09 -2.051800e+09 -2.211800e+09 1.123172e+02 -1.760743e+02 -4.493042e+01
-2.688036e+09 -2.488039e+09 -2.648037e+09 1.036027e+03 -6.742882e+02 1.972509e+02
-4.981524e+09 -4.781523e+09 -4.941523e+09 -2.403795e+01 -8.508559e+01 5.858036e+01
-4.978753e+09 -4.778753e+09 -4.938751e+09 4.689765e+02 2.555682e+01 -5.973530e+01
-1.575150e+09 -1.375151e+09 -1.535150e+09 6.973059e+02 -3.725884e+02 -2.167108e+01
-4.137708e+09 -3.937706e+09 -4.097707e+09 1.807130e+02 -2.444862e+02 2.291498e+02
-3.512363e+09 -3.312363e+09 -3.472361e+09 1.150182e+03 1.144225e+02 -6.236039e+01
-3.981653e+09 -3.781652e+09 -3.941652e+09 2.823333e+02 2.097884e+01 -8.724200e+01
-3.983392e+09 -3.783391e+09 -3.943391e+09 1.526117e+02 2.603112e+00 -2.486186e+01
-4.934386e+09 -4.734388e+09 -4.894385e+09 9.678453e+02 2.498416e+01 1.181496e+01
-4.672459e+09 -4.472461e+09 -4.632458e+09 1.293548e+03 -8.490435e+01 -5.146694e+01
-4.582776e+09 -4.382777e+09 -4.542774e+09 4.152545e+02 1.096867e+01 -3.997293e+00
-4.644066e+09 -4.444068e+09 -4.604067e+09 6.021326e+02 3.450971e+01 3.661123e+01
-4.298019e+09 -4.098017e+09 -4.258017e+09 -4.575576e+02 1.521323e+02 6.189132e+01
-4.473578e+09 -4.273579e+09 -4.433579e+09 3.499972e+02 8.056304e+00 -4.858593e-01
-4.991679e+09 -4.791679e+09 -4.951679e+09 5.235544e+02 -9.528208e+00 -4.270957e+01
-4.998312e+09 -4.798311e+09 -4.958311e+09 1.496902e+02 -3.165256e+01 -3.047571e+00
-4.035593e+09 -3.835598e+09 -3.995594e+09 -5.923777e+02 -2.802433e+02 -3.923163e+01
-4.487620e+09 -4.287621e+09 -4.447621e+09 -1.559170e+03 -4.633786e+01 -5.830573e+01
-4.502455e+09 -4.302454e+09 -4.462455e+09 3.179728e+02 1.177298e+01 -3.435296e+01
-3.961103e+09 -3.761103e+09 -3.921103e+09 6.918408e+02 6.235774e+01 -1.717777e+01
-4.136003e+09 -3.936001e+09 -4.096002e+09 4.064523e+02 -5.346512e+00 -7.734800e+01
-3.968293e+09 -3.768293e+09 -3.928293e+09 5.582945e+02 5.237423e+01 4.324445e+00
-3.987527e+09 -3.787535e+09 -3.947532e+09 -5.418746e+01 -1.137296e+03 8.032559e+01
-4.316192e+09 -4.116194e+09 -4.276192e+09 -9.209799e+02 6.285726e+01 -9.434192e+00
-4.198923e+09 -3.998924e+09 -4.158922e+09 -4.482276e+02 6.013728e+01 -2.627736e+01
-3.954583e+09 -3.754582e+09 -3.914582e+09 -6.668504e+02 6.437072e+01 -9.084251e+01
-4.984282e+09 -4.784281e+09 -4.944281e+09 -1.042428e+03 5.966589e+01 5.156133e+01
-4.972372e+09 -4.772380e+09 -4.932376e+09 -3.643211e+01 -1.236451e+02 -3.823260e+00
-4.708894e+09 -4.508901e+09 -4.668897e+09 -1.290415e+02 -4.791984e+00 9.496733e+01
-4.819087e+09 -4.619086e+09 -4.779086e+09 -4.956927e+02 5.100551e+01 1.622875e+00
-4.226062e+09 -4.026066e+09 -4.186062e+09 -7.742624e+02 -5.061135e+01 -4.121472e+00
-4.982751e+09 -4.782758e+09 -4.942754e+09 -2.668527e+02 -1.061136e+02 -5.547104e+01
-4.989765e+09 -4.789771e+09 -4.949768e+09 -8.019374e+02 -2.768060e+02 5.244717e+01
-4.983048e+09 -4.783044e+09 -4.943044e+09 -4.587779e+03 3.379287e+01 1.694607e+02
-4.650294e+09 -4.450289e+09 -4.610295e+09 1.392609e+03 5.919800e+02 -4.742723e+02
-3.966020e+09 -3.766014e+09 -3.926021e+09 2.109558e+03 1.310117e+03 -1.815644e+03
-3.935425e+09 -3.735429e+09 -3.895426e+09 -6.569480e+01 8.022958e+01 -7.097444e+02
-4.603100e+09 -4.403107e+09 -4.563105e+09 -8.126260e+02 -3.585258e+02 -4.605960e+00
-3.959949e+09 -3.759952e+09 -3.919951e+09 3.223877e+02 3.964766e+01 -6.870975e+01
-4.985477e+09 -4.785480e+09 -4.945478e+09 6.591570e+02 -1.483504e+01 -1.715221e+02
-3.059804e+09 -2.859804e+09 -3.019803e+09 1.402635e+02 -2.336484e+01 -3.193152e+01
-4.625083e+09 -4.425086e+09 -4.585085e+09 1.992655e+02 -3.647928e+01 -1.234579e+02
-2.203580e+09 -2.003581e+09 -2.163579e+09 7.529369e+02 -4.853348e+02 2.664583e+01
-3.645848e+09 -3.445847e+09 -3.605847e+09 -4.910239e+01 -1.427075e+01 -5.395573e+01
-4.110172e+09 -3.910175e+09 -4.070174e+09 1.659722e+02 2.369425e+01 -1.465998e+02
-4.267446e+09 -4.067449e+09 -4.227448e+09 -2.992158e+02 -1.116996e+01 -7.383980e+01
-4.278022e+09 -4.078025e+09 -4.238024e+09 -2.625342e+02 3.300303e+00 -1.452304e+02
-4.083177e+09 -3.883176e+09 -4.043175e+09 -9.813442e+00 -6.241546e+00 -2.418980e+01
-4.620237e+09 -4.420243e+09 -4.580240e+09 8.043778e+02 -2.729958e+02 1.335628e+02
-5.003555e+09 -4.803554e+09 -4.963555e+09 -1.357358e+03 2.532449e+02 1.942147e+02
-4.285818e+09 -4.085815e+09 -4.245816e+09 -9.789763e+02 1.866301e+02 2.158259e+02
-4.475903e+09 -4.275901e+09 -4.435908e+09 -3.074401e+03 1.178627e+03 1.092014e+03
-4.132670e+09 -3.932668e+09 -4.092675e+09 -2.888283e+03 1.410066e+03 1.287112e+03
-3.718843e+09 -3.518847e+09 -3.678845e+09 5.777692e+02 -4.314276e+02 7.277692e+01
-4.140944e+09 -3.940944e+09 -4.100947e+09 -3.377270e+03 2.259929e+03 1.352246e+03
-3.477637e+09 -3.277642e+09 -3.437638e+09 4.027046e+02 1.086230e+02 9.063668e+01
-3.148619e+09 -2.948627e+09 -3.108623e+09 -1.370864e+03 -2.361424e+03 -5.368862e+02
-4.275147e+09 -4.075150e+09 -4.235148e+09 -2.570479e+02 7.090205e+01 -3.623740e+02
-4.965124e+09 -4.765127e+09 -4.925125e+09 5.306001e+02 1.417699e+01 -2.274011e+02
-4.972509e+09 -4.772512e+09 -4.932508e+09 -1.183866e+02 9.900736e+01 -4.426569e+02
-4.985769e+09 -4.785773e+09 -4.945769e+09 5.840250e+02 7.923883e+01 -1.051296e+02
-1.635408e+09 -1.435416e+09 -1.595410e+09 3.771732e+02 -9.512524e+02 7.011314e+01
-3.966889e+09 -3.766893e+09 -3.926891e+09 -4.705465e+02 6.136281e+01 -3.626937e+02
-4.474859e+09 -4.274863e+09 -4.434861e+09 3.286046e+02 3.832472e+01 -2.493329e+02
-2.874196e+09 -2.674204e+09 -2.834198e+09 -1.037421e+02 -3.800530e+02 7.414783e+01
-4.991678e+09 -4.791679e+09 -4.951679e+09 6.654893e+02 -8.124105e+00 -5.257888e+01
-4.106681e+09 -3.906685e+09 -4.066683e+09 -6.080302e+02 1.175830e+02 -2.202813e+02
-3.966890e+09 -3.766893e+09 -3.926892e+09 -1.054783e+02 3.630709e+01 -2.666528e+02
-3.951951e+09 -3.751954e+09 -3.911953e+09 -5.743708e+02 -1.879773e+00 -1.238470e+02
-4.441397e+09 -4.241400e+09 -4.401398e+09 7.798547e+02 4.430357e+01 -4.599622e+02
-4.297013e+09 -4.097015e+09 -4.257013e+09 1.472677e+03 -1.279644e+02 -3.680938e+02
-4.793147e+09 -4.593150e+09 -4.753148e+09 -6.869427e+02 3.426130e+01 -6.722423e+02
-1.856440e+09 -1.656448e+09 -1.816442e+09 4.866387e+02 -6.408820e+02 2.602744e+01
-4.454507e+09 -4.254511e+09 -4.414509e+09 1.626129e+02 -3.489932e+01 -3.377944e+02
-2.146003e+09 -1.946009e+09 -2.106004e+09 2.984399e+02 -2.347580e+02 8.316129e+01
-2.568828e+09 -2.368834e+09 -2.528830e+09 2.607216e+02 5.920461e+01 6.120439e+01
-2.479635e+09 -2.279642e+09 -2.439637e+09 8.225712e+02 -7.148481e+02 1.655581e+02
-4.134272e+09 -3.934272e+09 -4.094264e+09 -4.140283e+03 3.648557e+03 -3.076738e+03
-4.537071e+09 -4.337067e+09 -4.497043e+09 -9.287147e+02 1.520350e+03 -2.499468e+03
-4.983495e+09 -4.783500e+09 -4.943499e+09 8.716391e+02 -3.575028e+02 4.341727e+01
-4.820739e+09 -4.620739e+09 -4.780726e+09 -3.515025e+03 -8.875470e+02 -1.153309e+03
-3.742015e+09 -3.542021e+09 -3.702016e+09 4.455736e+02 1.766414e+02 -2.784016e+01
-4.470038e+09 -4.270043e+09 -4.430043e+09 1.228298e+03 -8.731608e+02 2.315554e+02
-3.967187e+09 -3.767190e+09 -3.927187e+09 -1.074055e+03 3.208296e+02 1.436699e+01
-4.074454e+09 -3.874456e+09 -4.034454e+09 -8.171075e+02 -7.836290e+01 -5.433482e+01
-3.091110e+09 -2.891112e+09 -3.051110e+09 -9.631753e+02 7.630238e+01 -3.166056e+01
-4.623337e+09 -4.423337e+09 -4.583333e+09 -2.532637e+03 1.600756e+02 5.055271e+02
-4.980501e+09 -4.780508e+09 -4.940504e+09 5.215401e+02 -2.285143e+02 -6.162237e+01
-3.736443e+09 -3.536442e+09 -3.696441e+09 3.353631e+02 1.619516e+02 -4.248644e+01
-2.792697e+09 -2.592695e+09 -2.752695e+09 2.833656e+02 1.388257e+02 -1.030718e+02
-2.607871e+09 -2.407870e+09 -2.567869e+09 2.687403e+02 1.169668e+02 -2.459668e+01
-3.622637e+09 -3.422635e+09 -3.582635e+09 9.829323e+02 3.438725e+02 -1.254213e+02
-4.890117e+09 -4.690118e+09 -4.850118e+09 -2.979629e+01 1.632473e+01 4.972931e-05
-4.210521e+09 -4.010518e+09 -4.170519e+09 1.110358e+03 1.757390e+02 -1.873494e+02
-3.432774e+09 -3.232773e+09 -3.392772e+09 3.223009e+02 1.485616e+02 5.055369e+01
-2.672599e+09 -2.472597e+09 -2.632599e+09 -7.718102e+02 5.384266e+02 -2.005875e+02
-2.766886e+09 -2.566887e+09 -2.726887e+09 -1.729473e+02 -7.301571e+00 1.848167e+01
-4.448431e+09 -4.248434e+09 -4.408430e+09 1.139459e+02 8.049597e+00 3.545650e+01
-4.620239e+09 -4.420241e+09 -4.580241e+09 -3.799322e+01 4.807755e-01 8.290577e-01
-3.887131e+09 -3.687132e+09 -3.847129e+09 4.622718e+01 8.446705e+00 1.141636e+00
-4.671380e+09 -4.471381e+09 -4.631378e+09 7.964142e+01 -1.130462e+01 2.129167e+01
-4.777015e+09 -4.577017e+09 -4.737017e+09 3.253595e+01 2.350611e+00 1.175326e+01
-4.163734e+09 -3.963736e+09 -4.123735e+09 4.540001e+01 -2.235773e+00 1.839530e+01
-4.014752e+09 -3.814754e+09 -3.974753e+09 -3.031536e+01 -6.821628e-01 2.256271e+01
-2.113903e+09 -1.913904e+09 -2.073902e+09 2.637618e+02 -1.213985e+02 -5.190026e+01
-3.449098e+09 -3.249099e+09 -3.409098e+09 1.161890e+02 -3.573031e+01 -5.451043e+01
-4.620723e+09 -4.420722e+09 -4.580722e+09 4.643274e+02 -1.007291e+02 6.569133e+00
-4.907933e+09 -4.707936e+09 -4.867932e+09 9.202498e+01 -7.619136e-09 -4.636476e+00
-3.733435e+09 -3.533435e+09 -3.693434e+09 -2.776746e+02 -2.809662e+01 -5.713322e+01
-3.781850e+09 -3.581849e+09 -3.741849e+09 -4.241428e+01 7.218002e+00 -4.143929e+01
-3.420923e+09 -3.220922e+09 -3.380922e+09 5.332955e+00 -1.407668e+01 -3.665699e+01
-4.897083e+09 -4.697083e+09 -4.857081e+09 7.712870e+01 5.367127e+00 7.392135e-09
-3.673087e+09 -3.473086e+09 -3.633086e+09 2.253950e+01 2.548202e+00 -5.021640e+01
-4.139650e+09 -3.939651e+09 -4.099651e+09 5.909959e+02 4.844119e+01 1.838505e+01
-3.357988e+09 -3.157988e+09 -3.317987e+09 -2.944983e+02 -6.108090e+01 -5.585446e+01
-1.588677e+09 -1.388676e+09 -1.548676e+09 -2.287683e+01 -7.060932e+01 -1.260819e+02
-3.410986e+09 -3.210984e+09 -3.370985e+09 6.939116e+01 5.082788e+00 -1.143335e+01
-4.963090e+09 -4.763089e+09 -4.923089e+09 1.868855e+00 -3.152692e+00 -6.133192e+00
-2.817020e+09 -2.617019e+09 -2.777019e+09 1.929307e+01 7.892723e+00 -2.867566e+01
-4.571478e+09 -4.371477e+09 -4.531477e+09 6.393392e+01 -1.425441e+00 -8.289719e+00
-4.980624e+09 -4.780623e+09 -4.940623e+09 -1.488649e+00 -1.730166e+01 2.481955e+01
-1.874550e+09 -1.674550e+09 -1.834549e+09 -4.304902e+02 -4.893455e+01 -1.312522e+02
-4.594606e+09 -4.394605e+09 -4.554605e+09 2.128522e+01 9.230650e+00 -1.092975e+01
-2.876086e+09 -2.676085e+09 -2.836085e+09 -2.047813e+01 1.051891e+01 -4.829069e+01
-4.970238e+09 -4.770239e+09 -4.930236e+09 7.269833e+02 1.467617e+01 3.072087e+01
-4.151236e+09 -3.951238e+09 -4.111236e+09 1.713559e+03 3.384564e+02 -1.090607e+02
-4.993826e+09 -4.793829e+09 -4.953825e+09 1.105318e+03 -1.436729e+01 2.016875e+00
-3.810323e+09 -3.610322e+09 -3.770322e+09 -9.737418e+00 6.183626e+00 -1.042562e+01
-3.188570e+09 -2.988570e+09 -3.148568e+09 8.373502e+02 1.564933e+02 -7.078177e+01
-4.845743e+09 -4.645744e+09 -4.805742e+09 1.249363e+03 -6.257057e-02 -2.131862e+01
-4.697210e+09 -4.497213e+09 -4.657209e+09 7.839528e+02 9.129170e+01 -1.499606e+01
-3.872634e+09 -3.672634e+09 -3.832633e+09 1.461790e+03 3.854878e+02 -9.992984e+01
-3.060859e+09 -2.860858e+09 -3.020857e+09 -5.062069e+01 -4.475511e+00 -2.829034e+01
-4.989618e+09 -4.789621e+09 -4.949623e+09 -1.912017e+03 -5.061605e+02 -1.885901e+02
-2.816696e+09 -2.616695e+09 -2.776695e+09 2.375387e+00 2.014647e+01 -2.605903e+01
-3.085398e+09 -2.885406e+09 -3.045400e+09 -3.160192e+02 -3.781789e+02 -3.523409e+01
-4.797712e+09 -4.597711e+09 -4.757711e+09 1.358916e+00 2.863948e+01 2.058954e+00
-3.455976e+09 -3.255982e+09 -3.415980e+09 -1.495107e+03 -1.946539e+03 -3.944930e+02
-4.978467e+09 -4.778470e+09 -4.938469e+09 -1.606567e+03 -3.486297e+02 -2.797592e+01
-3.486862e+09 -3.286861e+09 -3.446861e+09 -1.976339e+01 -2.391823e+01 -3.271198e+01
-3.281151e+09 -3.081151e+09 -3.241150e+09 -8.351954e+01 -3.336734e+01 -4.672154e+01
-3.811429e+09 -3.611428e+09 -3.771428e+09 -3.526823e+01 -1.469528e+01 -4.708080e+01
-4.981064e+09 -4.781063e+09 -4.941063e+09 3.792692e+01 -1.016814e+01 -6.815810e+00
-4.443694e+09 -4.243681e+09 -4.403684e+09 -7.205355e+02 -3.467982e+03 -2.681483e+02
-5.011041e+09 -4.811048e+09 -4.971046e+09 -1.625239e+02 -3.334053e+02 -3.308318e+01
-4.800865e+09 -4.600868e+09 -4.760868e+09 -1.474632e+03 -5.273191e+01 -6.154449e+01
-3.998679e+09 -3.798685e+09 -3.958682e+09 -7.409747e+02 -8.059517e+02 6.047069e+00
-3.033678e+09 -2.833684e+09 -2.993680e+09 -1.009658e+03 -8.710120e+02 -1.379931e+02
-3.945230e+09 -3.745213e+09 -3.905225e+09 5.269569e+02 -8.056021e+03 1.135072e+03
-4.465760e+09 -4.265759e+09 -4.425760e+09 -1.633599e+02 -2.467974e+01 -4.286022e+00
-3.982446e+09 -3.782445e+09 -3.942445e+09 -1.272224e+02 -2.149800e+01 -1.717540e+01
-4.204408e+09 -4.004408e+09 -4.164408e+09 -3.165692e+02 -6.836468e-02 -2.480090e+01
-4.607862e+09 -4.407851e+09 -4.567873e+09 1.391661e+03 2.891852e+03 2.680512e+03
-4.710928e+09 -4.510928e+09 -4.670928e+09 -9.004703e+01 1.106521e+00 -4.004617e+01
-3.958249e+09 -3.758248e+09 -3.918248e+09 -1.052960e+02 -8.652794e+00 -4.572178e+01
-4.907948e+09 -4.707947e+09 -4.867947e+09 -5.258300e+00 6.838725e+00 -6.421441e-10
-4.820742e+09 -4.620732e+09 -4.780754e+09 1.153750e+03 2.982765e+03 1.590147e+03
-3.688864e+09 -3.488865e+09 -3.648864e+09 -2.455566e+02 5.426375e+01 -2.438975e+01
-4.823536e+09 -4.623539e+09 -4.783541e+09 -1.807368e+03 -2.699719e+02 -1.876715e+02
-4.786927e+09 -4.586912e+09 -4.746925e+09 7.094735e+02 1.436678e+03 2.669693e+03
-4.264627e+09 -4.064616e+09 -4.224633e+09 2.112573e+03 -2.952032e+02 1.572928e+03
-3.420139e+09 -3.220146e+09 -3.380143e+09 -8.119568e+02 -1.688499e+03 -8.414820e+01
-4.648989e+09 -4.448990e+09 -4.608990e+09 -6.808413e+02 -1.849399e+01 3.032346e+01
-3.921392e+09 -3.721384e+09 -3.881408e+09 -1.936733e+03 2.907445e+03 2.592808e+03
-3.967277e+09 -3.767277e+09 -3.927277e+09 -5.892178e+02 -3.766556e+01 5.738148e+01
-4.989264e+09 -4.789265e+09 -4.949265e+09 -6.018852e+02 9.209238e+00 -1.428425e+01
-4.576546e+09 -4.376548e+09 -4.536546e+09 8.830276e+02 -1.162591e+02 9.894474e+01
-2.567541e+09 -2.367540e+09 -2.527540e+09 2.145564e+01 6.168904e+00 -2.006166e+01
-3.950679e+09 -3.750678e+09 -3.910678e+09 -2.961823e+00 1.182715e+01 -5.324452e+00
-4.994010e+09 -4.794010e+09 -4.954010e+09 1.027675e+03 -2.400480e+02 1.605660e+02
-4.485179e+09 -4.285178e+09 -4.445178e+09 1.364422e+01 3.655842e+00 -8.923773e+00
-3.294417e+09 -3.094416e+09 -3.254416e+09 4.482089e+00 1.497972e+00 -1.273666e+00
-4.972739e+09 -4.772740e+09 -4.932740e+09 1.039805e+03 -7.054178e+01 6.150117e+01
-4.529047e+09 -4.329053e+09 -4.489049e+09 5.277828e+02 -1.078699e+02 3.061885e+01
-3.395366e+09 -3.195369e+09 -3.355366e+09 4.942306e+01 -7.102511e+01 -5.936633e+01
-4.130198e+09 -3.930195e+09 -4.090198e+09 4.808743e+02 -5.002486e+02 6.805769e+02
-2.283278e+09 -2.083277e+09 -2.243276e+09 4.706741e+02 -2.376558e+02 7.025616e+01
-3.070212e+09 -2.870211e+09 -3.030211e+09 -4.535866e+01 -1.418060e+01 -7.480962e+01
-2.860773e+09 -2.660773e+09 -2.820772e+09 -1.829396e+01 -4.407472e+01 -5.934507e+01
-1.959767e+09 -1.759767e+09 -1.919766e+09 4.437945e+02 -2.544513e+02 4.433102e+01
-2.639389e+09 -2.439388e+09 -2.599387e+09 -2.216081e+01 8.235617e-01 -1.131889e+02
-3.968533e+09 -3.768539e+09 -3.928535e+09 -1.108706e+03 5.058203e+02 9.412589e+00
-5.005341e+09 -4.805348e+09 -4.965344e+09 -9.292183e+02 2.141385e+01 5.195118e+01
-4.817476e+09 -4.617480e+09 -4.777478e+09 -1.647114e+03 1.818416e+01 6.654488e+01
-4.829451e+09 -4.629457e+09 -4.789454e+09 -9.484937e+02 2.968063e+02 6.929639e+01
-4.966937e+09 -4.766936e+09 -4.926936e+09 3.030740e+01 -3.962079e+00 9.071638e+00
-1.581477e+09 -1.381476e+09 -1.541476e+09 7.135775e+01 2.033190e+01 -2.914577e+01
-4.998231e+09 -4.798237e+09 -4.958233e+09 -1.020299e+03 5.833669e+00 2.233383e+01
-4.997495e+09 -4.797495e+09 -4.957495e+09 -1.147287e+03 2.621228e+02 1.310699e+02
-4.997496e+09 -4.797495e+09 -4.957495e+09 -1.558112e+03 4.220027e+01 9.321190e+01
-4.472693e+09 -4.272692e+09 -4.432693e+09 7.202568e+01 3.261345e+00 -4.076265e+00
-4.484447e+09 -4.284449e+09 -4.444447e+09 -1.248910e+03 9.791813e+01 1.387262e+00
-4.831550e+09 -4.631550e+09 -4.791549e+09 -1.233265e+03 1.250219e+02 3.474671e+01
-4.641162e+09 -4.441161e+09 -4.601160e+09 -3.147892e+02 -3.143333e+01 -5.727097e+01
-4.998708e+09 -4.798707e+09 -4.958708e+09 3.996793e+02 -6.072862e+01 -5.719282e+01
-2.856677e+09 -2.656676e+09 -2.816676e+09 -8.696588e+00 3.087237e-01 -5.862269e+00
-3.120568e+09 -2.920567e+09 -3.080567e+09 9.783801e+01 1.702250e+01 -3.985219e+00
-3.413870e+09 -3.213869e+09 -3.373869e+09 2.506979e+01 1.255207e+00 -9.374244e+00
-2.108422e+09 -1.908427e+09 -2.068422e+09 9.281900e+01 -3.230834e+01 -1.917989e+01
-3.037988e+09 -2.837993e+09 -2.997988e+09 4.097883e+01 3.697935e+01 -9.729174e+00
-4.978530e+09 -4.778528e+09 -4.938529e+09 1.377303e+02 7.082765e+00 2.366146e+01
-4.630616e+09 -4.430615e+09 -4.590615e+09 9.388794e+01 2.651208e+01 -2.900680e+01
-2.079864e+09 -1.879866e+09 -2.039863e+09 3.210385e+02 -3.323439e+01 4.921233e+01
-4.816490e+09 -4.616482e+09 -4.776493e+09 -3.442864e+03 8.315169e+02 8.781813e+01
-4.954764e+09 -4.754767e+09 -4.914763e+09 4.633761e+02 6.455892e+00 4.248142e+01
-4.477510e+09 -4.277505e+09 -4.437498e+09 4.286870e+03 -6.158674e+02 -2.322177e+02
-4.159278e+09 -3.959279e+09 -4.119276e+09 1.246625e+03 1.366942e+02 -5.239732e+01
-3.979678e+09 -3.779663e+09 -3.939654e+09 -1.341152e+03 1.059660e+04 -3.156393e+03
-4.720057e+09 -4.520059e+09 -4.680056e+09 2.086320e+02 7.364845e+01 -1.110020e+01
-4.458833e+09 -4.258824e+09 -4.418835e+09 2.268054e+03 -8.151006e+02 -1.159636e+03
-4.461096e+09 -4.261098e+09 -4.421099e+09 3.245387e+03 8.601835e+01 6.805017e+01
-1.593682e+09 -1.393685e+09 -1.553682e+09 4.594672e+02 1.530280e+02 -5.687887e+00
-4.980769e+09 -4.780762e+09 -4.940771e+09 3.585644e+03 -3.485027e+02 -4.232702e+02
-4.983660e+09 -4.783648e+09 -4.943649e+09 1.976303e+03 -1.086371e+02 -1.351405e+02
-3.374172e+09 -3.174176e+09 -3.334172e+09 9.214644e+02 1.180812e+02 -2.883965e+01
-3.961908e+09 -3.761908e+09 -3.921908e+09 8.688688e+02 5.737360e+01 3.328131e+01
-3.181904e+09 -2.981908e+09 -3.141904e+09 1.035327e+03 3.535200e+01 6.288041e+01
-4.477508e+09 -4.277508e+09 -4.437493e+09 2.920290e+03 -5.111545e+03 -5.340028e+03
-3.261645e+09 -3.061649e+09 -3.221645e+09 2.333566e+02 3.947959e+01 2.919347e+01
-4.489695e+09 -4.289688e+09 -4.449677e+09 1.619743e+03 -4.277219e+03 -1.768860e+03
-1.843276e+09 -1.643281e+09 -1.803276e+09 5.349415e+02 3.664651e+01 7.501782e+00
-4.966568e+09 -4.766570e+09 -4.926564e+09 -2.872669e+03 2.464424e+02 -6.176763e+02
-4.100459e+09 -3.900440e+09 -4.060457e+09 2.450291e+03 -5.670631e+03 -2.047438e+03
-3.945242e+09 -3.745227e+09 -3.905238e+09 2.437064e+03 -1.077184e+04 -4.167628e+03
-2.609327e+09 -2.409332e+09 -2.569327e+09 8.954458e+01 2.340391e+01 7.257094e+01
-3.514851e+09 -3.314850e+09 -3.474851e+09 -2.484522e+02 -2.019219e+01 1.405141e+01
-4.971820e+09 -4.771815e+09 -4.931818e+09 8.425339e+02 -8.307822e+01 -3.908727e+01
-4.793635e+09 -4.593632e+09 -4.753633e+09 4.012053e+02 1.719875e+02 2.091772e+02
-4.471793e+09 -4.271787e+09 -4.431793e+09 -1.254254e+03 4.300997e+02 6.969399e+02
-3.174491e+09 -2.974490e+09 -3.134490e+09 -2.815890e+02 -2.368730e+01 -2.825108e+01
-4.122617e+09 -3.922613e+09 -4.082616e+09 -1.100337e+03 5.247950e+02 5.939319e+02
-2.286244e+09 -2.086243e+09 -2.246244e+09 -2.715135e+02 -1.857106e+01 -2.561855e+00
-4.477512e+09 -4.277503e+09 -4.437512e+09 8.172114e+02 1.093939e+03 2.258768e+03
-4.970612e+09 -4.770614e+09 -4.930608e+09 1.481828e+03 2.202579e+01 -5.612139e+02
-1.784286e+09 -1.584285e+09 -1.744286e+09 -9.555633e+01 -7.614265e+00 -4.003078e+00
-2.868021e+09 -2.668020e+09 -2.828020e+09 -7.758826e+01 -1.648896e+01 -3.108449e+01
-4.662361e+09 -4.462358e+09 -4.622355e+09 2.790197e+03 -2.463094e+02 -1.308275e+03
-4.646722e+09 -4.446716e+09 -4.606720e+09 1.392241e+03 3.584152e+02 1.127566e+02
-3.014431e+09 -2.814430e+09 -2.974430e+09 -1.508059e+02 -2.636252e+01 -2.077749e+01
-3.960256e+09 -3.760250e+09 -3.920253e+09 2.097467e+03 -9.406461e+02 -1.177703e+02
-5.005593e+09 -4.805591e+09 -4.965589e+09 3.171877e+03 -6.115092e+02 -1.181865e+03
-4.700377e+09 -4.500375e+09 -4.660378e+09 1.310280e+02 -1.846502e+02 1.093914e+02
-4.892160e+09 -4.692159e+09 -4.852162e+09 1.718893e+01 -5.272158e+01 -2.488518e-05
-3.056389e+09 -2.856388e+09 -3.016388e+09 -9.536574e+01 -1.613201e+01 -1.332140e+01
-4.342609e+09 -4.142615e+09 -4.302614e+09 3.507895e+02 -3.109306e+01 -7.065904e+00
-4.488745e+09 -4.288744e+09 -4.448747e+09 7.491003e+02 -1.423569e+02 -1.424771e+02
-3.550862e+09 -3.350860e+09 -3.510861e+09 -7.219270e+00 -1.642199e+00 -2.009365e+00
-4.422050e+09 -4.222049e+09 -4.382050e+09 -1.532425e+02 -1.110871e+01 -2.069051e+00
-4.944872e+09 -4.744871e+09 -4.904871e+09 -1.306386e+02 1.136183e+01 6.668422e+00
-4.406488e+09 -4.206490e+09 -4.366491e+09 6.399146e+02 -1.397203e+02 -9.460171e+01
-4.991281e+09 -4.791284e+09 -4.951283e+09 -1.069376e+03 -1.367072e+01 -1.370191e+02
-4.790061e+09 -4.590063e+09 -4.750063e+09 -1.289360e+03 -1.747505e+01 1.689027e+02
-2.221911e+09 -2.021908e+09 -2.181910e+09 -1.011056e+03 -9.261983e+02 -3.759872e+02
-2.604933e+09 -2.404931e+09 -2.564932e+09 -6.427790e+01 -6.318279e+02 2.349503e+01
-2.753641e+09 -2.553638e+09 -2.713640e+09 -1.788082e+02 -5.164352e+02 -6.993256e+01
-1.689679e+09 -1.489678e+09 -1.649677e+09 3.542143e+02 3.320264e+02 -2.761632e+01
-4.802720e+09 -4.602721e+09 -4.762720e+09 5.072767e+02 -2.264126e+01 -4.006497e+01
-4.814265e+09 -4.614268e+09 -4.774267e+09 -4.308784e+02 -1.574685e+01 -2.132741e+02
-2.299711e+09 -2.099709e+09 -2.259709e+09 9.982729e+02 -5.574310e+01 -6.208744e+01
-1.929734e+09 -1.729732e+09 -1.889732e+09 2.887006e+02 3.630255e+02 2.044090e+01
-3.961583e+09 -3.761586e+09 -3.921585e+09 -9.386827e+02 9.220028e+01 -1.468708e+02
-4.263400e+09 -4.063402e+09 -4.223401e+09 -1.377618e+03 2.741749e+01 -3.139909e+02
-4.103596e+09 -3.903598e+09 -4.063597e+09 -1.284264e+03 1.040244e+02 -3.858966e+02
-1.683713e+09 -1.483710e+09 -1.643711e+09 4.396220e+01 6.211456e+02 -5.124330e+01
-3.420978e+09 -3.220976e+09 -3.380976e+09 2.901408e+02 2.067006e+02 -4.625168e+01
-4.991281e+09 -4.791284e+09 -4.951283e+09 -9.886917e+02 2.213423e+01 -1.349622e+02
-1.532060e+09 -1.332057e+09 -1.492057e+09 1.175928e+03 5.059631e+02 -2.179297e+02
-4.066735e+09 -3.866737e+09 -4.026735e+09 -3.652763e+02 4.060724e+01 -2.684820e+01
-1.985283e+09 -1.785283e+09 -1.945282e+09 -1.232330e+02 -1.262206e+02 -6.135204e+01
-4.982337e+09 -4.782338e+09 -4.942338e+09 4.949500e+02 -1.446053e+01 -5.667221e+00
-2.692438e+09 -2.492436e+09 -2.652436e+09 -7.265875e+01 -9.573902e+01 1.915044e+01
-2.637474e+09 -2.437476e+09 -2.597474e+09 -1.330996e+02 1.422330e+02 -9.500476e+01
-3.989892e+09 -3.789893e+09 -3.949891e+09 1.039260e+01 7.697800e+01 -2.695250e+01
-3.459604e+09 -3.259605e+09 -3.419605e+09 1.164353e+02 1.507736e+01 1.511826e+01
-4.290783e+09 -4.090786e+09 -4.250777e+09 2.197200e+02 3.658630e+02 -2.369734e+03
-4.530040e+09 -4.330041e+09 -4.490039e+09 -2.181546e+02 2.092204e+01 -4.507086e+01
-3.617347e+09 -3.417347e+09 -3.577347e+09 -7.515311e+00 1.083515e+01 3.671161e-01
-2.763693e+09 -2.563692e+09 -2.723693e+09 -2.908120e+02 -2.539582e+01 -1.016259e+00
-2.988677e+09 -2.788677e+09 -2.948677e+09 -1.654347e+01 -2.387684e+01 8.354422e+00
-3.993656e+09 -3.793656e+09 -3.953656e+09 -3.020505e+02 -2.137836e+01 -1.803084e+01
-4.634017e+09 -4.434020e+09 -4.594013e+09 4.063504e+02 -7.464767e+02 -8.492846e+02
-4.435353e+09 -4.235353e+09 -4.395352e+09 3.140459e+01 3.026556e-02 -4.062323e+01
-4.436329e+09 -4.236331e+09 -4.396328e+09 -1.545201e+01 1.418030e+00 -4.861565e+01
-4.031614e+09 -3.831615e+09 -3.991615e+09 -3.692759e+02 -5.380954e+00 -4.439100e+01
-1.556066e+09 -1.356068e+09 -1.516065e+09 1.713540e+02 1.343939e+01 8.784779e+01
-1.867503e+09 -1.667505e+09 -1.827502e+09 2.419484e+02 -4.002527e-01 2.546762e+01
-4.984043e+09 -4.784045e+09 -4.944042e+09 -2.774937e+02 3.359005e+01 3.191088e+01
-4.474206e+09 -4.274206e+09 -4.434206e+09 9.885389e+01 2.703185e+01 -1.491145e-01
-3.924135e+09 -3.724136e+09 -3.884136e+09 2.172511e+01 -2.684981e+00 -4.529092e+00
-4.896968e+09 -4.696969e+09 -4.856966e+09 3.922139e+01 -5.139992e-09 -7.338841e+00
-2.886073e+09 -2.686074e+09 -2.846073e+09 2.759129e+02 3.907014e+01 -8.356530e+00
-4.451032e+09 -4.251032e+09 -4.411032e+09 1.210057e+02 2.312221e+01 -1.729639e+00
-3.737979e+09 -3.537979e+09 -3.697979e+09 2.757045e+02 1.847070e+01 1.384913e+01
-3.299893e+09 -3.099894e+09 -3.259894e+09 3.179646e+02 2.485989e+01 -4.038151e+01
-4.473883e+09 -4.273885e+09 -4.433881e+09 2.192368e+02 4.667473e+01 3.156388e+01
-4.961738e+09 -4.761739e+09 -4.921736e+09 3.217228e+02 1.109953e+00 7.044905e-01
-4.357603e+09 -4.157604e+09 -4.317602e+09 4.311528e+01 -3.444952e+00 8.903100e-01
-3.871227e+09 -3.671226e+09 -3.831226e+09 5.068771e+01 2.060504e+01 -5.676941e+01
-3.932507e+09 -3.732508e+09 -3.892508e+09 2.003942e+02 1.730474e+01 -6.252886e+00
-3.973280e+09 -3.773281e+09 -3.933280e+09 2.362239e+02 1.995310e+01 -7.121709e+00
-1.636027e+09 -1.436026e+09 -1.596026e+09 3.788418e+01 8.871380e+00 -4.810881e+01
-4.424847e+09 -4.224846e+09 -4.384846e+09 4.565301e+00 6.022773e+00 -8.229847e+00
-3.773093e+09 -3.573092e+09 -3.733092e+09 3.632893e+01 2.325773e+00 -1.245337e+01
-2.897400e+09 -2.697399e+09 -2.857399e+09 6.780432e+01 2.054532e+01 -2.122885e+01
-1.662262e+09 -1.462266e+09 -1.622266e+09 -8.730633e+00 -2.453058e+02 1.197380e+02
-4.803770e+09 -4.603771e+09 -4.763771e+09 5.502752e+01 1.365395e+00 -1.880196e+01
-2.999411e+09 -2.799411e+09 -2.959411e+09 3.194900e+02 2.728238e+01 -4.376314e+01
-4.778702e+09 -4.578702e+09 -4.738702e+09 3.458037e+02 -1.023173e+01 -2.206934e+01
-1.951187e+09 -1.751186e+09 -1.911186e+09 -2.465259e+01 -1.214666e+01 -1.115724e+01
-1.883708e+09 -1.683706e+09 -1.843707e+09 -1.525792e+01 -9.033961e+00 -1.214998e+01
-1.931249e+09 -1.731248e+09 -1.891248e+09 9.570584e-01 -7.728127e+00 -8.659459e+00
-2.109312e+09 -1.909310e+09 -2.069311e+09 -1.606773e+02 -2.039697e+01 -1.973730e+01
-2.233027e+09 -2.033026e+09 -2.193027e+09 -3.153508e+01 -1.067285e+01 -6.258084e+00
-1.585941e+09 -1.385939e+09 -1.545940e+09 -5.018230e+01 -9.714321e+00 -1.559404e+01
-4.113131e+09 -3.913132e+09 -4.073132e+09 4.084250e+02 3.502226e+01 3.642830e+01
-4.802087e+09 -4.602089e+09 -4.762088e+09 1.544194e+02 -8.105507e+00 1.172979e+01
-2.732650e+09 -2.532647e+09 -2.692648e+09 -1.792604e+02 -5.183520e+02 -8.058639e+01
-4.385321e+09 -4.185322e+09 -4.345324e+09 1.766634e+03 1.566914e+02 -2.044104e+02
-1.995928e+09 -1.795926e+09 -1.955927e+09 -7.075351e+02 -1.086627e+03 -4.408962e+02
-3.275016e+09 -3.075018e+09 -3.235016e+09 -1.782430e+03 -1.229674e+03 -4.870660e+02
-2.071220e+09 -1.871217e+09 -2.031218e+09 -1.610038e+03 -1.371910e+03 -8.424926e+02
-4.415619e+09 -4.215621e+09 -4.375619e+09 -3.874844e+02 1.133863e+02 -6.465989e+00
-1.589813e+09 -1.389815e+09 -1.549813e+09 -5.459667e+02 5.736330e+01 -1.587320e+02
-2.181935e+09 -1.981938e+09 -2.141935e+09 -5.633331e+01 -4.787406e+00 -4.822563e+01
-3.990339e+09 -3.790340e+09 -3.950338e+09 -3.154489e+02 9.879184e+00 -1.302996e+01
-4.467391e+09 -4.267391e+09 -4.427392e+09 -3.115454e+03 -1.140283e+02 1.743224e+02
-4.646720e+09 -4.446714e+09 -4.606717e+09 2.384245e+03 -6.053882e+02 -2.094463e+02
-4.996546e+09 -4.796543e+09 -4.956546e+09 -3.510644e+03 6.959217e+01 -1.960436e+02
-4.811566e+09 -4.611570e+09 -4.771565e+09 -3.847604e+03 6.277188e+02 -1.951144e+02
-3.959884e+09 -3.759886e+09 -3.919885e+09 -3.453869e+03 -3.173734e+02 6.832254e+02
-4.607458e+09 -4.407462e+09 -4.567458e+09 -7.723087e+02 4.593578e+00 1.455058e+01
-4.985014e+09 -4.785014e+09 -4.945015e+09 -1.954129e+03 3.877725e+01 -8.262028e+01
-4.280104e+09 -4.080104e+09 -4.240103e+09 -3.163682e+03 1.634938e+03 1.566606e+02
-3.107991e+09 -2.907989e+09 -3.067992e+09 -1.296890e+03 3.178083e+02 -3.345791e+02
-1.564657e+09 -1.364657e+09 -1.524656e+09 -2.889880e+02 3.717078e+01 -1.351149e+02
-3.357837e+09 -3.157837e+09 -3.317836e+09 1.520592e+01 6.476434e+00 -9.599626e+01
-4.105983e+09 -3.905986e+09 -4.065985e+09 -3.494092e+03 -3.276621e+02 8.152052e+02
-1.585609e+09 -1.385610e+09 -1.545608e+09 -4.423040e+02 5.043943e+01 -1.598411e+02
-4.615290e+09 -4.415294e+09 -4.575292e+09 -2.976395e+03 -3.081386e+02 2.916019e+02
-3.403167e+09 -3.203166e+09 -3.363166e+09 -1.116032e+02 -9.039731e+00 -3.844911e+01
-2.971208e+09 -2.771208e+09 -2.931207e+09 -2.971795e+02 3.673864e+01 -8.371207e+01
-3.767575e+09 -3.567576e+09 -3.727576e+09 -1.867174e+03 -2.238350e+01 2.330068e+02
-2.564754e+09 -2.364754e+09 -2.524754e+09 -1.616141e+02 -3.214795e+01 -2.089425e+01
-2.193982e+09 -1.993982e+09 -2.153982e+09 -1.820259e+02 -2.505713e+01 -2.236382e+01
-1.586761e+09 -1.386760e+09 -1.546760e+09 -8.844775e+01 -2.562701e+01 -3.553176e+01
-2.749579e+09 -2.549578e+09 -2.709578e+09 -1.623015e+02 -1.069471e+01 -8.567580e+00
-1.596017e+09 -1.396013e+09 -1.556015e+09 1.960320e+03 1.009417e+03 -6.727777e+02
-4.016990e+09 -3.816989e+09 -3.976989e+09 -1.967659e+02 -1.782535e+01 -7.482937e+01
-3.675024e+09 -3.475023e+09 -3.635023e+09 -1.210164e+02 -1.149230e+01 -7.723589e+00
-3.282269e+09 -3.082269e+09 -3.242269e+09 -7.358973e+01 -8.690896e+00 -6.034213e-01
-2.587029e+09 -2.387029e+09 -2.547029e+09 -1.518657e+01 -4.069321e+01 -3.193975e+00
-4.823376e+09 -4.623377e+09 -4.783377e+09 8.340630e+02 -2.946354e+01 -1.028742e+02
-4.649371e+09 -4.449372e+09 -4.609372e+09 9.694470e+02 3.546143e+01 4.290629e+01
-4.614307e+09 -4.414307e+09 -4.574308e+09 1.175152e+03 7.142446e+01 8.078605e+01
-4.817601e+09 -4.617602e+09 -4.777602e+09 8.417977e+02 -1.952569e+01 -5.678139e+01
-4.816796e+09 -4.616796e+09 -4.776796e+09 9.134572e+02 3.799371e+01 2.010431e+01
-4.116612e+09 -3.916611e+09 -4.076612e+09 9.125790e+02 -4.044894e+00 -7.718401e+01
-3.785736e+09 -3.585742e+09 -3.745740e+09 1.884835e+03 3.639494e+02 1.117616e+03
-3.961103e+09 -3.761103e+09 -3.921103e+09 9.784395e+02 4.881747e+01 1.719186e+01
-4.974233e+09 -4.774232e+09 -4.934235e+09 1.288826e+03 -2.895566e+01 3.340157e+02
-2.933284e+09 -2.733284e+09 -2.893283e+09 -2.994993e+02 -8.160004e+01 -2.631416e+01
-4.557195e+09 -4.357195e+09 -4.517195e+09 -1.044638e+03 -1.758862e+02 -1.242612e+02
-4.055204e+09 -3.855204e+09 -4.015203e+09 -7.521041e+02 -1.182016e+02 -7.523379e-01
-4.184369e+09 -3.984371e+09 -4.144369e+09 -1.179552e+03 -4.433041e+02 -1.218912e+02
-2.882319e+09 -2.682323e+09 -2.842320e+09 -1.494512e+03 -1.574965e+03 -3.387124e+02
-3.565988e+09 -3.365987e+09 -3.525988e+09 -1.217492e+03 -5.770945e+02 -1.725581e+02
-4.272033e+09 -4.072040e+09 -4.232017e+09 1.567961e+02 -5.590479e+02 7.060437e+03
-4.421408e+09 -4.221409e+09 -4.381410e+09 -1.388521e+03 -3.400037e+02 -1.122325e+02
-1.937077e+09 -1.737074e+09 -1.897075e+09 -1.807260e+02 -4.082812e+02 -8.378477e+00
-4.979476e+09 -4.779484e+09 -4.939467e+09 -4.399005e+01 -1.203639e+02 1.338359e+03
-2.559587e+09 -2.359586e+09 -2.519586e+09 -1.112245e+03 -6.509944e+02 -1.908525e+02
-3.859912e+09 -3.659912e+09 -3.819911e+09 -5.861258e+02 -2.199718e+02 -7.852467e+01
-3.942810e+09 -3.742814e+09 -3.902810e+09 1.400569e+02 1.973138e+02 -9.696336e+02
-4.020387e+09 -3.820385e+09 -3.980385e+09 -4.086629e+02 -2.857455e+02 -1.249957e+02
-4.786922e+09 -4.586925e+09 -4.746922e+09 5.308622e+02 2.952863e+01 -5.595550e+02
-1.950481e+09 -1.750479e+09 -1.910479e+09 -5.255684e+01 -7.923145e+01 -4.066230e+00
-4.299305e+09 -4.099307e+09 -4.259304e+09 1.829016e+03 -2.393581e+02 -7.982958e+02
-4.800920e+09 -4.600922e+09 -4.760919e+09 1.695828e+03 -2.121678e+02 -1.180987e+03
-3.941260e+09 -3.741258e+09 -3.901259e+09 -4.121535e+02 -4.321132e+02 -7.814796e+01
-2.604791e+09 -2.404788e+09 -2.564789e+09 -1.836405e+02 -3.688370e+02 -3.680402e+01
-1.991583e+09 -1.791580e+09 -1.951581e+09 -1.498150e+02 -3.687024e+02 -3.917162e+01
-3.697017e+09 -3.497016e+09 -3.657017e+09 -9.117214e+02 -5.177293e+02 -2.011037e+02
-1.518532e+09 -1.318530e+09 -1.478530e+09 -5.250015e+02 -3.096401e+02 1.133556e+01
-4.670875e+09 -4.470873e+09 -4.630874e+09 -1.189435e+03 -5.693446e+01 -2.711571e+02
-4.417123e+09 -4.217120e+09 -4.377122e+09 -8.904939e+01 -1.915500e+02 -6.982610e+01
-4.029697e+09 -3.829694e+09 -3.989695e+09 -6.654109e+02 -2.082067e+02 -7.486731e+01
-1.568637e+09 -1.368642e+09 -1.528638e+09 -5.875239e+02 1.081671e+02 -1.336408e+02
-4.434670e+09 -4.234668e+09 -4.394668e+09 -6.275500e+02 -1.762540e+02 -7.214089e+01
-4.413494e+09 -4.213493e+09 -4.373493e+09 -1.093312e+03 -3.184660e+02 -2.266318e+02
-1.772983e+09 -1.572983e+09 -1.732981e+09 6.946971e+02 6.153314e+01 6.676981e+01
-1.686590e+09 -1.486593e+09 -1.646590e+09 -2.567925e+02 1.229495e+01 -1.326829e+02
-3.174976e+09 -2.974975e+09 -3.134975e+09 9.998221e+02 2.089700e+02 -2.259267e+01
-2.808361e+09 -2.608359e+09 -2.768359e+09 1.021404e+03 8.722589e+02 -2.573774e+02
-2.880381e+09 -2.680379e+09 -2.840380e+09 1.953003e+03 8.181171e+02 -4.976604e+02
-2.779917e+09 -2.579919e+09 -2.739916e+09 8.705591e+00 8.041514e+00 -6.494199e+01
-2.893701e+09 -2.693700e+09 -2.853699e+09 7.088183e+02 2.271508e+02 5.934822e+01
-1.821846e+09 -1.621845e+09 -1.781845e+09 7.952050e+01 1.504454e+01 -1.786259e+01
-3.283506e+09 -3.083505e+09 -3.243504e+09 1.037845e+03 2.873515e+02 -5.381306e+01
-3.443475e+09 -3.243476e+09 -3.403473e+09 9.124599e+02 1.208528e+02 -4.463977e+01
-3.437439e+09 -3.237438e+09 -3.397438e+09 -3.617048e+00 2.441190e+00 -2.643363e+01
-4.989809e+09 -4.789808e+09 -4.949808e+09 -1.333413e+02 -2.278316e+01 2.355592e-01
-2.088057e+09 -1.888056e+09 -2.048055e+09 7.976510e+02 2.752010e+02 -1.191703e+02
-4.599399e+09 -4.399398e+09 -4.559398e+09 -1.064166e+02 -2.536757e+01 -4.377723e+01
-3.185140e+09 -2.985140e+09 -3.145138e+09 3.388990e+02 1.500093e+02 -1.872531e+01
-4.621345e+09 -4.421344e+09 -4.581344e+09 1.991327e+02 5.435890e+01 -3.264202e+01
-3.125677e+09 -2.925677e+09 -3.085676e+09 1.773393e+03 5.891555e+02 -2.382760e+02
-3.532005e+09 -3.332004e+09 -3.492004e+09 2.000348e+02 -2.414351e+02 7.843177e-01
-4.602829e+09 -4.402828e+09 -4.562828e+09 3.251634e+02 -6.504354e+01 -4.149366e+00
-3.441054e+09 -3.241055e+09 -3.401055e+09 5.255931e+01 2.199630e+01 8.590124e+00
-4.971526e+09 -4.771526e+09 -4.931525e+09 1.308853e+03 8.976700e-01 -4.120066e+01
-2.636198e+09 -2.436200e+09 -2.596199e+09 3.367760e-01 -6.287683e+00 3.474025e+00
-1.965701e+09 -1.765703e+09 -1.925702e+09 -7.722949e+00 -1.613171e+00 7.255704e+00
-4.502510e+09 -4.302511e+09 -4.462509e+09 1.314471e+03 4.789611e+01 -4.164910e+01
-4.985071e+09 -4.785071e+09 -4.945069e+09 7.124872e+02 -1.670814e+01 -7.795592e+01
-3.128936e+09 -2.928935e+09 -3.088935e+09 -4.609314e+01 5.538785e+00 -6.133968e+01
-2.697016e+09 -2.497015e+09 -2.657015e+09 8.313432e+00 7.089131e+00 -8.025598e-01
-1.954802e+09 -1.754801e+09 -1.914801e+09 1.042837e+01 6.586230e+00 -6.792954e+00
-4.408542e+09 -4.208540e+09 -4.368541e+09 6.901445e+00 1.164167e+00 -3.634106e+00
-4.348615e+09 -4.148614e+09 -4.308614e+09 -1.606537e-01 3.048839e+00 -2.191207e+00
-4.966937e+09 -4.766936e+09 -4.926936e+09 6.504376e+01 -4.156703e+00 -1.335749e+01
-3.090383e+09 -2.890382e+09 -3.050382e+09 -1.408545e+01 1.772391e+01 -4.078597e+01
-4.593076e+09 -4.393076e+09 -4.553076e+09 4.710199e+01 5.903129e+00 -2.576912e+01
-3.365765e+09 -3.165764e+09 -3.325764e+09 -3.675017e+01 -3.127544e+00 -3.380670e+01
-2.753417e+09 -2.553417e+09 -2.713417e+09 -7.402804e+00 2.569489e+00 -3.848477e+00
-3.731088e+09 -3.531088e+09 -3.691088e+09 -3.218475e+02 -2.814353e+01 2.960332e+01
-2.767921e+09 -2.567922e+09 -2.727922e+09 -5.544886e+01 -2.511199e+01 3.605665e+01
-1.841012e+09 -1.641012e+09 -1.801012e+09 -1.271455e+02 -5.271916e+01 1.578751e+01
-4.983831e+09 -4.783831e+09 -4.943831e+09 -1.330469e+02 2.301163e+01 -1.254932e+01
-4.890117e+09 -4.690117e+09 -4.850118e+09 -2.703394e+01 1.806320e+01 -4.974671e-05
-3.582486e+09 -3.382485e+09 -3.542485e+09 8.438544e-01 1.988853e+01 -1.522129e+01
-4.247864e+09 -4.047863e+09 -4.207863e+09 1.001456e+02 8.765264e+00 -2.058787e+01
-2.582720e+09 -2.382719e+09 -2.542719e+09 2.675367e+01 5.032689e+00 -3.382653e+01
-1.632486e+09 -1.432484e+09 -1.592485e+09 -3.537470e+01 -7.820640e+00 -3.340690e+01
-2.913810e+09 -2.713810e+09 -2.873809e+09 4.074986e+01 1.810734e+01 -1.569035e+01
-2.082249e+09 -1.882248e+09 -2.042248e+09 1.683541e+01 -9.470835e+00 -1.534451e+01
-1.958317e+09 -1.758316e+09 -1.918317e+09 -1.960433e+01 -5.053106e+00 -2.081582e+01
-3.712985e+09 -3.512982e+09 -3.672984e+09 1.210479e+03 6.308445e+02 -4.483517e+02
-1.933652e+09 -1.733651e+09 -1.893651e+09 -3.190503e+01 -2.064214e+00 -2.970699e+01
-1.872760e+09 -1.672759e+09 -1.832759e+09 -3.617951e+01 -8.996397e+00 -5.135361e+01
-2.793170e+09 -2.593169e+09 -2.753169e+09 -1.887796e+02 -2.632998e+01 -5.242328e+01
-1.597410e+09 -1.397408e+09 -1.557409e+09 -1.335308e+02 -2.750214e+01 -8.847050e+01
-1.636086e+09 -1.436091e+09 -1.596087e+09 7.372813e+01 -1.773968e+02 -6.417589e+01
-4.783106e+09 -4.583105e+09 -4.743105e+09 1.923836e+01 3.166619e+00 2.198767e+00
-4.961497e+09 -4.761496e+09 -4.921496e+09 8.416892e+01 6.522566e+00 1.110759e+01
-4.667792e+09 -4.467799e+09 -4.627795e+09 6.552259e+02 3.680474e+02 -6.873119e+01
-4.846516e+09 -4.646522e+09 -4.806518e+09 1.039915e+03 3.709985e+02 -4.919025e+01
-4.984481e+09 -4.784487e+09 -4.944483e+09 1.633817e+03 2.062388e+02 -1.250676e+01
-4.165319e+09 -3.965324e+09 -4.125321e+09 2.268399e+03 2.497888e+02 -1.100601e+02
-4.138403e+09 -3.938408e+09 -4.098405e+09 1.815532e+03 6.819098e+02 -1.259210e+02
-4.824869e+09 -4.624873e+09 -4.784870e+09 1.882697e+03 -8.039873e+01 -1.107948e+01
-2.579260e+09 -2.379267e+09 -2.539262e+09 1.018970e+02 -1.621811e+02 4.332029e+01
-4.984482e+09 -4.784487e+09 -4.944484e+09 1.647568e+03 2.498439e+02 7.795650e+01
-3.954784e+09 -3.754789e+09 -3.914785e+09 1.648417e+03 4.923372e+02 -1.136950e+02
-3.025411e+09 -2.825411e+09 -2.985411e+09 4.100360e+00 1.969023e+01 -4.515464e-01
-2.610552e+09 -2.410550e+09 -2.570550e+09 -5.452007e+01 -7.837215e+00 -6.388709e+01
-2.075284e+09 -1.875284e+09 -2.035284e+09 1.819933e+01 8.249046e+00 5.702212e-01
-4.624638e+09 -4.424637e+09 -4.584637e+09 -3.387321e+01 -2.261999e+01 -3.969141e+01
-3.952785e+09 -3.752784e+09 -3.912784e+09 -2.365139e+02 -2.081332e+01 -5.282418e+01
-4.974607e+09 -4.774606e+09 -4.934606e+09 9.214811e+00 -5.860381e+01 1.906925e+01
-4.532093e+09 -4.332092e+09 -4.492091e+09 1.296396e+02 -3.717781e+01 -3.085367e+01
-4.980060e+09 -4.780059e+09 -4.940059e+09 -6.821904e+01 -3.072032e+01 1.643950e+01
-4.892244e+09 -4.692247e+09 -4.852245e+09 -1.326629e+02 -4.958486e-05 -6.464181e+01
-4.364533e+09 -4.164538e+09 -4.324535e+09 -4.360864e+02 -1.207874e+02 -7.509531e+00
-3.167953e+09 -2.967952e+09 -3.127952e+09 1.908344e+02 4.045395e+01 -1.208462e+01
-4.570270e+09 -4.370270e+09 -4.530270e+09 1.194036e+02 2.731036e+01 -5.408058e-01
-2.830615e+09 -2.630616e+09 -2.790616e+09 5.189196e+01 2.024606e+01 1.835224e+01
-2.188670e+09 -1.988670e+09 -2.148670e+09 5.183069e+01 1.096596e+01 1.118665e+01
-3.255182e+09 -3.055182e+09 -3.215182e+09 2.608467e+02 3.041728e-01 4.865706e+00
-3.958325e+09 -3.758324e+09 -3.918324e+09 -1.163468e+02 3.436356e+01 -5.758883e+01
-1.572298e+09 -1.372297e+09 -1.532297e+09 -2.486751e+01 3.338645e+01 -9.696824e+01
-4.986227e+09 -4.786227e+09 -4.946226e+09 -2.133240e+02 -1.568915e+01 1.393435e+01
-4.635371e+09 -4.435372e+09 -4.595372e+09 -5.069876e+02 -1.089628e+01 1.670127e+01
-3.527769e+09 -3.327771e+09 -3.487771e+09 -5.195273e+01 2.417639e-01 1.204575e+01
-3.968871e+09 -3.768873e+09 -3.928872e+09 -5.673910e+02 -8.344245e+00 2.564670e+01
-1.814660e+09 -1.614660e+09 -1.774660e+09 5.429180e+01 3.284381e+01 3.041599e+01
-4.998947e+09 -4.798949e+09 -4.958948e+09 -3.526502e+02 -4.561047e+00 -4.660350e+00
-5.014895e+09 -4.814894e+09 -4.974900e+09 -1.646848e+03 -7.430419e+02 -3.976311e+02
-4.991757e+09 -4.791761e+09 -4.951747e+09 -4.334632e+03 -6.310923e+02 1.303626e+03
-2.305269e+09 -2.105270e+09 -2.265270e+09 3.732167e+02 5.247245e+01 1.004800e+02
-4.971103e+09 -4.771103e+09 -4.931105e+09 -1.736532e+03 -4.708253e+02 -1.548367e+02
-4.842503e+09 -4.642499e+09 -4.802507e+09 -1.162145e+03 -9.366730e+02 -1.016391e+03
-3.340321e+09 -3.140326e+09 -3.300322e+09 -1.894068e+02 -1.591178e+02 3.619576e+01
-1.997015e+09 -1.797015e+09 -1.957015e+09 2.350299e+02 4.714979e+01 -1.229429e+01
-4.442362e+09 -4.242363e+09 -4.402364e+09 -1.253099e+03 -5.246496e+02 -2.753970e+02
-4.478001e+09 -4.278001e+09 -4.438003e+09 -1.664403e+03 -1.015966e+03 -3.583532e+02
-3.492517e+09 -3.292527e+09 -3.452524e+09 3.434801e+02 2.091596e+02 1.387042e+03
-4.804111e+09 -4.604113e+09 -4.764114e+09 -1.646702e+03 -7.558598e+02 -6.882795e+01
-3.524864e+09 -3.324869e+09 -3.484866e+09 -4.701944e+02 -3.942695e+02 -6.906691e+01
-4.950149e+09 -4.750149e+09 -4.910149e+09 -1.017032e+03 -1.908161e+02 -6.824122e+01
-3.849106e+09 -3.649109e+09 -3.809109e+09 -3.202458e+03 -7.510484e+02 8.774676e+02
-2.938172e+09 -2.738173e+09 -2.898172e+09 -1.659920e+03 -1.105464e+03 -4.491532e+02
-4.135557e+09 -3.935556e+09 -4.095560e+09 -2.170284e+03 -1.164583e+03 -7.571308e+02
-4.820290e+09 -4.620294e+09 -4.780295e+09 -1.457302e+03 -8.180371e+02 -1.219615e+02
-4.137071e+09 -3.937075e+09 -4.097076e+09 -2.006593e+03 -2.310566e+03 -4.826122e+02
-3.409494e+09 -3.209501e+09 -3.369500e+09 -5.120964e+02 2.023381e+00 -1.354297e+02
-4.787490e+09 -4.587493e+09 -4.747491e+09 -7.502737e+02 -2.082390e+02 -4.107308e+01
-4.820504e+09 -4.620505e+09 -4.780505e+09 -5.252684e+02 -2.761294e+01 5.154734e+01
-4.466848e+09 -4.266849e+09 -4.426849e+09 -3.773629e+02 -1.684466e+01 -5.170575e-01
-4.642640e+09 -4.442643e+09 -4.602642e+09 -2.662837e+02 -4.450058e+00 1.576717e+01
-3.700654e+09 -3.500662e+09 -3.660660e+09 3.668718e+01 -3.289466e+01 1.449030e+02
-3.042216e+09 -2.842222e+09 -3.002221e+09 -6.053573e+02 3.452698e+02 -4.404374e+01
-2.225961e+09 -2.025962e+09 -2.185962e+09 -1.379153e+02 -3.071812e+01 2.585324e+01
-4.423769e+09 -4.223771e+09 -4.383770e+09 -5.751565e+01 -1.239744e+01 1.704939e+01
-2.075936e+09 -1.875943e+09 -2.035942e+09 3.124747e+01 9.527345e+01 3.105665e+02
-1.736245e+09 -1.536246e+09 -1.696246e+09 -1.990955e+02 -1.321103e+01 2.980020e+01
-4.302972e+09 -4.102974e+09 -4.262974e+09 -4.380522e+02 -8.610656e+00 -3.094101e+00
-2.696025e+09 -2.496027e+09 -2.656026e+09 -3.222908e+02 -1.479624e+01 1.063095e+02
-3.880380e+09 -3.680389e+09 -3.840385e+09 -4.649446e+02 9.899865e+01 1.289371e+03
-4.598147e+09 -4.398155e+09 -4.558152e+09 -1.328182e+03 -1.651312e+02 2.889027e+02
-4.667776e+09 -4.467774e+09 -4.627775e+09 2.544680e+01 -4.543230e+01 1.211836e+01
-2.745079e+09 -2.545083e+09 -2.705083e+09 1.530459e+02 7.646442e+01 6.301898e+01
-4.641797e+09 -4.441796e+09 -4.601798e+09 5.512099e+02 -1.454409e+02 5.693943e+01
-4.994704e+09 -4.794702e+09 -4.954704e+09 5.126349e+02 -1.901976e+02 1.543988e+02
-4.994009e+09 -4.794009e+09 -4.954010e+09 6.522504e+02 -2.684660e+02 1.629844e+02
-4.472655e+09 -4.272655e+09 -4.432657e+09 1.168754e+03 -6.164305e+02 5.276239e+02
-4.469530e+09 -4.269535e+09 -4.429534e+09 1.209709e+03 -5.182327e+02 1.944600e+02
-5.009378e+09 -4.809368e+09 -4.969352e+09 -3.728450e+03 6.480962e+01 -1.128290e+03
-4.116308e+09 -3.916309e+09 -4.076308e+09 1.107304e+03 -6.819477e+02 4.271940e+02
-5.015144e+09 -4.815140e+09 -4.975098e+09 -5.139800e+02 7.194380e+02 -1.744091e+03
-4.811070e+09 -4.611069e+09 -4.771070e+09 6.671493e+02 -8.589102e+01 1.494285e+02
-4.459541e+09 -4.259542e+09 -4.419542e+09 1.095946e+03 -5.239329e+02 2.108968e+02
-4.641236e+09 -4.441237e+09 -4.601237e+09 1.206888e+03 3.377933e+01 1.451156e+01
-3.946552e+09 -3.746552e+09 -3.906552e+09 1.202676e+03 3.477636e+01 -2.548491e+01
-4.174084e+09 -3.974070e+09 -4.134036e+09 -2.428965e+03 4.823585e+03 -2.653608e+03
-4.288469e+09 -4.088456e+09 -4.248460e+09 1.378048e+03 -1.208527e+04 -2.429127e+02
-4.667371e+09 -4.467363e+09 -4.627318e+09 5.131990e+02 -3.097959e+03 -1.824492e+03
-4.181242e+09 -3.981233e+09 -4.141221e+09 -5.261196e+03 7.607127e+03 -5.254897e+03
-3.965379e+09 -3.765368e+09 -3.925342e+09 -4.025607e+03 -1.122679e+04 -2.165488e+03
-3.935165e+09 -3.735172e+09 -3.895147e+09 1.831901e+03 3.739898e+03 8.784363e+03
-4.640737e+09 -4.440746e+09 -4.600735e+09 2.576627e+03 1.405666e+03 1.559556e+03
-3.616582e+09 -3.416586e+09 -3.576586e+09 -5.079026e+01 1.258138e+01 1.611532e+02
-3.985453e+09 -3.785443e+09 -3.945398e+09 -1.393396e+03 -8.136483e+02 -7.846427e+03
-3.726319e+09 -3.526318e+09 -3.686319e+09 6.083347e+01 2.375418e+01 -2.149126e+01
-4.492096e+09 -4.292097e+09 -4.452090e+09 5.611579e+03 1.562488e+03 2.102845e+03
-3.448376e+09 -3.248375e+09 -3.408379e+09 2.589901e+03 -4.342929e+02 -7.690401e+02
-4.806263e+09 -4.606272e+09 -4.766260e+09 1.591937e+03 -7.210753e+01 2.900499e+03
-4.440863e+09 -4.240849e+09 -4.400864e+09 4.654288e+02 -1.980184e+03 -5.436691e+03
-3.718974e+09 -3.518974e+09 -3.678974e+09 4.982648e+01 2.273245e+01 -2.111875e+00
-3.946266e+09 -3.746249e+09 -3.906271e+09 2.068450e+03 -5.402439e+03 1.915656e+02
-4.574047e+09 -4.374031e+09 -4.534056e+09 2.623994e+03 -1.688667e+03 1.993517e+03
-4.621030e+09 -4.421022e+09 -4.581046e+09 4.767241e+02 7.583945e+02 -1.156598e+03
-4.982656e+09 -4.782646e+09 -4.942665e+09 4.989245e+02 1.559483e+03 -9.676046e+02
-2.551870e+09 -2.351870e+09 -2.511870e+09 5.789268e+01 3.328969e+01 -2.482645e+00
-4.227694e+09 -4.027694e+09 -4.187694e+09 1.871252e+02 1.047945e+01 2.280169e+01
-4.208147e+09 -4.008147e+09 -4.168147e+09 2.799781e+02 1.162405e+01 2.610857e+01
-5.002331e+09 -4.802338e+09 -4.962334e+09 9.807810e+02 2.211978e+02 -3.191237e+00
-3.413198e+09 -3.213198e+09 -3.373198e+09 1.702916e+02 2.575309e+00 -2.080388e+01
-1.974285e+09 -1.774285e+09 -1.934285e+09 1.462850e+02 6.201270e+00 8.297540e-01
-4.996360e+09 -4.796367e+09 -4.956363e+09 4.113380e+02 5.634429e+01 5.584371e+01
-4.996359e+09 -4.796366e+09 -4.956362e+09 -3.671232e+01 8.252363e+01 3.972001e+01
-4.996837e+09 -4.796835e+09 -4.956837e+09 2.158967e+03 9.173635e+01 -1.311653e+02
-2.520026e+09 -2.320026e+09 -2.480026e+09 3.850489e+01 2.420414e+01 -3.476840e+01
-3.522488e+09 -3.322488e+09 -3.482488e+09 1.974952e+02 -1.037321e+01 -1.189014e+01
-4.811790e+09 -4.611787e+09 -4.771802e+09 -6.090438e+02 -1.640542e+03 1.138775e+03
-4.808493e+09 -4.608491e+09 -4.768496e+09 6.510081e+02 -8.460129e+02 8.232723e+02
-2.584998e+09 -2.384998e+09 -2.544998e+09 1.070735e+02 3.617930e+01 -8.968301e+00
-4.802372e+09 -4.602366e+09 -4.762387e+09 -1.165957e+01 2.192545e+03 1.038194e+03
-2.578272e+09 -2.378271e+09 -2.538271e+09 6.992434e+00 2.483282e+01 -2.250246e+00
-3.951573e+09 -3.751558e+09 -3.911584e+09 1.349050e+03 -1.901720e+02 -1.857580e+03
-3.956280e+09 -3.756273e+09 -3.916299e+09 -4.738217e+02 4.576538e+03 6.441608e+02
-4.134281e+09 -3.934273e+09 -4.094281e+09 -2.699210e+03 1.351737e+03 2.797452e+03
-3.305385e+09 -3.105385e+09 -3.265385e+09 1.385554e+02 8.673224e+00 -1.208243e+02
-4.585803e+09 -4.385803e+09 -4.545803e+09 1.977729e+02 2.732164e+01 -3.551437e+01
-4.985567e+09 -4.785567e+09 -4.945567e+09 1.811960e+02 -4.967419e+00 3.096289e+00
-3.960619e+09 -3.760620e+09 -3.920627e+09 -3.034919e+03 2.754168e+03 1.415513e+03
-4.467900e+09 -4.267900e+09 -4.427899e+09 -3.096035e+03 6.032219e+02 9.874365e+01
-4.635420e+09 -4.435411e+09 -4.595421e+09 -3.359822e+03 1.131210e+03 -2.036375e+00
-3.976461e+09 -3.776464e+09 -3.936462e+09 -2.442513e+03 6.169618e+02 -8.091082e+02
-4.637058e+09 -4.437052e+09 -4.597061e+09 -2.612312e+03 1.410041e+03 9.861790e+02
-3.971397e+09 -3.771393e+09 -3.931397e+09 -3.887267e+03 1.134965e+03 -6.496512e+01
-1.875319e+09 -1.675321e+09 -1.835319e+09 -6.955762e+02 -7.289723e+01 -1.568686e+02
-1.587222e+09 -1.387225e+09 -1.547222e+09 -6.260658e+02 8.584173e+01 -1.490805e+02
-4.821666e+09 -4.621660e+09 -4.781669e+09 -3.146964e+03 6.204493e+02 1.070220e+02
-4.638930e+09 -4.438932e+09 -4.598929e+09 -7.364277e+02 1.046162e+01 -2.015907e+01
-4.657861e+09 -4.457860e+09 -4.617858e+09 -4.146017e+03 5.384071e+02 4.240996e+02
-3.959182e+09 -3.759176e+09 -3.919182e+09 -4.256784e+03 1.311634e+03 -9.981955e+01
-4.135202e+09 -3.935197e+09 -4.095205e+09 -2.159719e+03 -1.105238e+03 2.257998e+03
-1.889987e+09 -1.689992e+09 -1.849988e+09 -3.764718e+02 -3.851308e+02 -8.999067e+01
-1.673921e+09 -1.473923e+09 -1.633920e+09 -8.871969e+02 6.578110e+01 -1.348011e+02
-4.997239e+09 -4.797235e+09 -4.957239e+09 1.696921e+03 1.182352e+02 -1.779183e+02
-4.611238e+09 -4.411240e+09 -4.571240e+09 -1.823845e+03 -3.525760e+02 -2.000660e+02
-3.195538e+09 -2.995545e+09 -3.155542e+09 -9.050876e+02 -1.723126e+03 1.489685e+02
-4.316071e+09 -4.116065e+09 -4.276069e+09 -1.704838e+03 1.961720e+02 -6.906148e+02
-2.603525e+09 -2.403527e+09 -2.563525e+09 -1.926048e+01 -1.660254e+00 -1.480537e+02
-4.993124e+09 -4.793119e+09 -4.953125e+09 4.244948e+02 1.577620e+02 -2.652367e+02
-4.654027e+09 -4.454024e+09 -4.614027e+09 -1.410965e+03 2.893749e+02 -3.861539e+02
-2.600879e+09 -2.400880e+09 -2.560880e+09 3.771307e+02 1.672247e+01 -4.253095e-01
-3.967561e+09 -3.767555e+09 -3.927562e+09 -1.442916e+03 7.859876e+01 -7.781112e+02
-2.650226e+09 -2.450227e+09 -2.610226e+09 2.521179e+01 3.613775e+01 -3.004324e+00
-4.826018e+09 -4.626011e+09 -4.786018e+09 -2.814543e+03 8.843171e+01 -5.805488e+02
-4.658470e+09 -4.458463e+09 -4.618471e+09 -5.919021e+02 3.498813e+02 -6.220650e+02
-4.314917e+09 -4.114911e+09 -4.274917e+09 5.132994e+02 4.757754e+02 -1.121525e+03
-4.967503e+09 -4.767505e+09 -4.927504e+09 -9.335107e+01 1.565292e+01 -8.627080e+00
-3.642589e+09 -3.442590e+09 -3.602590e+09 -5.664591e+00 -1.578857e+00 1.740730e+00
-4.997261e+09 -4.797256e+09 -4.957261e+09 -2.255856e+02 -2.967826e+02 2.045059e+02
-4.138399e+09 -3.938394e+09 -4.098400e+09 9.651075e+02 5.861755e+02 -6.588457e+02
-3.395404e+09 -3.195405e+09 -3.355405e+09 -2.955606e+00 -1.462982e+01 1.575650e+00
-3.637880e+09 -3.437882e+09 -3.597882e+09 -1.039121e+00 9.355285e+00 2.667250e+00
-4.998005e+09 -4.798001e+09 -4.958007e+09 -4.629889e+02 -1.490351e+02 -1.102139e+02
-4.986471e+09 -4.786470e+09 -4.946470e+09 1.437222e+02 5.668243e+01 7.113180e+00
-4.805160e+09 -4.605156e+09 -4.765161e+09 -5.294886e+02 -2.883452e+02 3.617255e+01
-4.313598e+09 -4.113593e+09 -4.273600e+09 2.674250e+02 -7.636628e+02 -8.601526e+02
-2.094557e+09 -1.894559e+09 -2.054557e+09 1.091379e+03 -8.862956e+02 1.479664e+02
-4.131737e+09 -3.931737e+09 -4.091736e+09 1.683066e+02 1.052267e+01 -1.795820e+01
-5.003573e+09 -4.803570e+09 -4.963575e+09 7.814079e+02 -3.767265e+01 -1.713541e+01
-4.967503e+09 -4.767505e+09 -4.927504e+09 -1.211193e+02 1.072170e+01 -5.016076e+00
-4.501189e+09 -4.301190e+09 -4.461190e+09 -1.250977e+02 -1.698209e+01 1.108016e+01
-3.968306e+09 -3.768301e+09 -3.928308e+09 2.490792e+02 -1.114513e+03 -1.107349e+03
-3.700192e+09 -3.500193e+09 -3.660192e+09 -1.614071e+01 -3.651983e-01 1.746450e+00
-3.845053e+09 -3.645054e+09 -3.805054e+09 -4.145627e+02 -8.936181e-01 6.523075e+01
-4.130767e+09 -3.930762e+09 -4.090769e+09 8.291308e+01 -9.533260e+02 -8.178812e+02
-4.594351e+09 -4.394347e+09 -4.554352e+09 -2.561348e+01 -3.772192e+02 -4.398268e+02
-4.814242e+09 -4.614237e+09 -4.774245e+09 -3.081566e+02 -6.148471e+02 -3.235184e+01
-4.432788e+09 -4.232794e+09 -4.392790e+09 6.762304e+01 -9.682766e+01 3.625940e+01
-3.678245e+09 -3.478252e+09 -3.638247e+09 9.121914e+01 -1.357903e+02 7.350210e+01
-4.983204e+09 -4.783200e+09 -4.943208e+09 -1.180887e+02 -4.464513e+02 -3.526259e+02
-3.269219e+09 -3.069217e+09 -3.229219e+09 -1.033258e+03 -7.316425e+02 -3.621376e+02
-2.169468e+09 -1.969465e+09 -2.129467e+09 -5.702368e+02 -5.354920e+02 -3.404581e+02
-4.282911e+09 -4.082908e+09 -4.242910e+09 -5.022568e+02 -2.891070e+02 -1.290962e+02
-4.976239e+09 -4.776235e+09 -4.936237e+09 1.790559e+02 2.193460e+02 -7.043660e+01
-3.682548e+09 -3.482545e+09 -3.642547e+09 -4.051007e+02 -6.090947e+02 -3.068876e+02
-2.672348e+09 -2.472346e+09 -2.632347e+09 -4.636431e+02 -7.632437e+02 -1.840783e+02
-4.720718e+09 -4.520715e+09 -4.680717e+09 1.534982e+02 1.707033e+02 2.776755e+01
-4.392071e+09 -4.192067e+09 -4.352071e+09 5.376557e+02 3.899377e+02 -4.005398e+02
-4.531421e+09 -4.331423e+09 -4.491424e+09 -1.149345e+03 3.937279e+01 5.519211e+01
-3.047376e+09 -2.847373e+09 -3.007374e+09 -3.697152e+02 -4.889668e+02 -1.572763e+02
-4.994575e+09 -4.794572e+09 -4.954574e+09 3.636477e+02 -1.630958e+01 -5.376816e+01
-4.317728e+09 -4.117724e+09 -4.277727e+09 -2.322611e+02 -2.184802e+02 -5.799753e+01
-4.433765e+09 -4.233762e+09 -4.393764e+09 -2.305142e+02 -2.322539e+02 -6.671966e+01
-3.988884e+09 -3.788881e+09 -3.948883e+09 -2.643831e+02 -3.727724e+02 2.254268e+01
-3.013788e+09 -2.813786e+09 -2.973788e+09 9.067243e+01 -5.648258e+02 -1.777149e+02
-4.979575e+09 -4.779579e+09 -4.939575e+09 4.682598e+02 1.703491e+01 7.719933e+00
-4.976216e+09 -4.776220e+09 -4.936216e+09 1.058708e+03 1.089200e+01 8.357624e+00
-3.691281e+09 -3.491283e+09 -3.651283e+09 8.222035e+01 7.770473e-01 4.098609e+00
-3.991639e+09 -3.791641e+09 -3.951641e+09 1.073729e+02 2.075262e+00 -1.307589e+01
-4.983520e+09 -4.783520e+09 -4.943520e+09 -2.792583e+02 -2.075726e+01 7.293519e+01
-4.483360e+09 -4.283365e+09 -4.443361e+09 7.343342e+00 1.997587e+01 -2.727814e+01
-4.457330e+09 -4.257332e+09 -4.417331e+09 1.295964e+02 -1.042610e+00 1.631396e+01
-4.983229e+09 -4.783231e+09 -4.943231e+09 5.007739e+01 -1.851472e+00 1.139667e+01
-4.892133e+09 -4.692137e+09 -4.852133e+09 -3.766897e+01 -9.949689e-05 3.108610e+01
-2.756579e+09 -2.556585e+09 -2.716580e+09 1.521168e+02 2.013842e+02 -5.908864e+01
-4.470605e+09 -4.270609e+09 -4.430606e+09 -1.110716e+03 -1.710440e+01 -9.327865e+01
-4.003400e+09 -3.803404e+09 -3.963400e+09 -6.720594e+02 4.019163e+01 -7.242674e+01
-4.956475e+09 -4.756477e+09 -4.916477e+09 -1.301935e+00 2.549787e-01 4.971884e+00
-3.970621e+09 -3.770626e+09 -3.930622e+09 -9.102228e+02 1.865539e+02 -4.720919e+01
-3.267028e+09 -3.067030e+09 -3.227030e+09 4.062174e+01 -1.219332e+01 -2.115995e+01
-4.122651e+09 -3.922656e+09 -4.082652e+09 -8.833592e+02 -2.056991e+01 -6.093439e+01
-4.471425e+09 -4.271427e+09 -4.431427e+09 5.182768e+01 2.209901e+00 -1.589442e+01
-4.464642e+09 -4.264644e+09 -4.424643e+09 -4.091253e+02 -2.135560e+00 8.060315e+00
-4.710313e+09 -4.510315e+09 -4.670314e+09 -1.574076e+02 -1.701621e+01 1.714105e+01
-4.995914e+09 -4.795916e+09 -4.955916e+09 1.219347e+02 -6.453490e+00 1.453628e+01
-4.121256e+09 -3.921246e+09 -4.081251e+09 -3.905680e+03 -2.217365e+03 -1.848534e+02
-2.230996e+09 -2.030994e+09 -2.190994e+09 2.804854e+02 3.500148e+02 1.726822e+00
-2.783083e+09 -2.583081e+09 -2.743081e+09 2.372478e+02 2.620279e+02 -1.778188e+01
-3.966204e+09 -3.766192e+09 -3.926186e+09 -7.108958e+03 -7.061487e+03 1.263654e+03
-1.937291e+09 -1.737290e+09 -1.897289e+09 3.310352e+02 2.712529e+02 3.450206e+01
-4.436893e+09 -4.236892e+09 -4.396892e+09 7.055493e+01 7.309806e+00 -1.463517e+01
-4.934330e+09 -4.734329e+09 -4.894329e+09 8.999338e+01 5.745633e+00 2.909125e+00
-4.242937e+09 -4.042933e+09 -4.202938e+09 -1.232781e+03 -4.706954e+02 1.033699e+03
-4.264695e+09 -4.064691e+09 -4.224695e+09 -2.403807e+03 4.372270e+01 8.892285e+02
-4.133598e+09 -3.933597e+09 -4.093597e+09 6.400443e+01 6.415505e+00 -2.835787e+00
-4.434477e+09 -4.234471e+09 -4.394479e+09 -9.963446e+02 -6.358965e+02 1.357108e+03
-3.951925e+09 -3.751922e+09 -3.911925e+09 -1.731341e+03 -3.868514e+02 9.425987e+02
-4.335208e+09 -4.135204e+09 -4.295205e+09 1.672354e+03 -2.026969e+02 1.289954e+02
-4.140194e+09 -3.940192e+09 -4.100193e+09 8.655824e+02 -1.292719e+02 -2.428407e+02
-3.947897e+09 -3.747895e+09 -3.907896e+09 -1.719647e+02 8.734973e+01 -7.792590e+01
-4.310068e+09 -4.110066e+09 -4.270068e+09 -1.954675e+03 5.252849e+02 3.459355e+02
-4.772364e+09 -4.572363e+09 -4.732363e+09 4.604252e+01 -9.993855e-01 -1.592885e+01
-4.672304e+09 -4.472303e+09 -4.632303e+09 1.429153e+02 -5.544020e+00 5.375421e+00
-3.957997e+09 -3.757997e+09 -3.917997e+09 1.313871e+03 -2.872693e+00 -2.103626e+02
-4.095959e+09 -3.895957e+09 -4.055958e+09 3.698938e+02 1.777682e+02 1.478724e+02
-4.450402e+09 -4.250398e+09 -4.410400e+09 6.913499e+02 -1.141980e+02 -1.500338e+01
-4.731851e+09 -4.531850e+09 -4.691850e+09 7.411816e+01 9.672871e+00 -4.511735e-01
-4.618958e+09 -4.418954e+09 -4.578956e+09 -7.334559e+02 1.188190e+02 9.585058e+01
-4.040735e+09 -3.840734e+09 -4.000734e+09 6.442485e+01 -7.960441e-01 -5.968410e+00
-4.246400e+09 -4.046399e+09 -4.206400e+09 -1.052460e+03 -3.044493e+02 -1.420763e+02
-4.477508e+09 -4.277508e+09 -4.437507e+09 1.931233e+03 1.161390e+02 -1.532964e+02
-4.438462e+09 -4.238459e+09 -4.398460e+09 5.539253e+02 -9.526753e+01 1.943754e+01
-4.971820e+09 -4.771816e+09 -4.931818e+09 7.085291e+02 -1.242300e+02 -2.485063e+01
-1.613006e+09 -1.413003e+09 -1.573004e+09 -8.702243e+02 -1.010410e+03 -2.050647e+02
-3.991975e+09 -3.791973e+09 -3.951973e+09 1.008759e+03 1.375984e+02 5.552373e+01
-3.356957e+09 -3.156954e+09 -3.316955e+09 -6.604185e+02 -4.334108e+02 -1.417148e+02
-4.820742e+09 -4.620740e+09 -4.780740e+09 2.185703e+03 -3.803976e+01 -2.538857e+02
-2.771996e+09 -2.571994e+09 -2.731994e+09 -3.827890e+02 -3.247850e+02 -5.903684e+01
-4.635889e+09 -4.435891e+09 -4.595885e+09 1.330390e+03 -6.753084e+01 -1.650850e+03
-4.662361e+09 -4.462360e+09 -4.622359e+09 2.691815e+03 3.661223e+02 -1.258508e+03
-2.743788e+09 -2.543788e+09 -2.703786e+09 1.456077e+02 1.346166e+02 -2.363390e+01
-4.299304e+09 -4.099307e+09 -4.259305e+09 1.582763e+03 -1.241271e+02 -6.238735e+02
-4.820741e+09 -4.620740e+09 -4.780740e+09 2.054662e+03 -2.427122e+01 -2.822677e+02
-1.931385e+09 -1.731382e+09 -1.891384e+09 2.167753e+02 5.393119e+02 -9.467298e+01
-4.983231e+09 -4.783229e+09 -4.943231e+09 -8.229053e+02 -6.130732e+01 -5.295673e+01
-1.687684e+09 -1.487683e+09 -1.647684e+09 -2.701094e+02 5.667449e+02 -1.300510e+02
-1.597192e+09 -1.397190e+09 -1.557190e+09 -8.761454e+02 -8.275653e+02 -1.793716e+02
-1.597192e+09 -1.397190e+09 -1.557190e+09 -7.116691e+02 -6.080634e+02 -9.054129e+01
-1.672944e+09 -1.472941e+09 -1.632942e+09 2.111802e+03 8.221821e+02 -4.769731e+02
-2.921356e+09 -2.721354e+09 -2.881354e+09 6.397653e+02 3.578626e+02 -9.586061e+01
-3.723687e+09 -3.523685e+09 -3.683686e+09 -7.536287e+02 -2.563736e+02 -3.126028e+01
-2.370970e+09 -2.170968e+09 -2.330968e+09 -1.427992e+03 -1.176811e+03 -6.291493e+02
-3.461764e+09 -3.261770e+09 -3.421768e+09 1.321275e+03 -1.716523e+03 5.432581e+02
-4.712519e+09 -4.512524e+09 -4.672521e+09 2.976604e+02 9.904221e+01 -7.634439e+01
-4.284304e+09 -4.084303e+09 -4.244304e+09 -4.661423e+02 -3.924607e+01 1.759387e+01
-1.583794e+09 -1.383801e+09 -1.543796e+09 6.515362e+02 -8.152700e+02 2.065358e+02
-1.873357e+09 -1.673363e+09 -1.833358e+09 2.714844e+02 -3.187254e+02 5.490857e+01
-2.580124e+09 -2.380121e+09 -2.540122e+09 -2.368531e+02 -5.071351e+02 -9.566431e+01
-2.057565e+09 -1.857569e+09 -2.017565e+09 5.631769e+02 -4.323448e+02 6.012061e+01
-4.982706e+09 -4.782714e+09 -4.942710e+09 2.150186e+02 -1.492963e+02 2.178743e+01
-3.044875e+09 -2.844879e+09 -3.004876e+09 4.192942e+02 -2.828157e+02 7.604765e+01
-4.702381e+09 -4.502378e+09 -4.662380e+09 2.219366e+02 1.194585e+02 -6.107992e+01
-1.694723e+09 -1.494723e+09 -1.654721e+09 1.600727e+03 3.206980e+02 -7.229584e+01
-4.976239e+09 -4.776235e+09 -4.936237e+09 7.379559e+02 -3.282747e+01 -3.370027e+01
-2.963055e+09 -2.763058e+09 -2.923055e+09 8.419877e+01 -1.047296e+02 9.499001e+01
-2.634306e+09 -2.434303e+09 -2.594304e+09 1.871256e+02 4.589189e+02 -5.788919e+01
-1.915029e+09 -1.715030e+09 -1.875028e+09 8.802891e+02 1.486156e+02 -3.679062e+01
-3.442813e+09 -3.242811e+09 -3.402811e+09 2.722917e+02 3.427877e+02 -5.851322e+01
-1.913479e+09 -1.713479e+09 -1.873479e+09 -5.917030e+01 -3.306472e+01 2.373078e+01
-3.086289e+09 -2.886288e+09 -3.046289e+09 -3.069981e+02 -5.854296e+01 7.514490e+00
-1.567472e+09 -1.367479e+09 -1.527478e+09 1.250905e+02 1.347404e+02 4.958539e+02
-2.620851e+09 -2.420859e+09 -2.580857e+09 9.816854e+02 5.948014e+02 1.459172e+03
-3.919599e+09 -3.719605e+09 -3.879604e+09 3.287378e+02 3.142576e+01 3.468146e+02
-1.563616e+09 -1.363616e+09 -1.523616e+09 -2.919248e+02 -4.626926e+01 3.022008e+01
-1.665810e+09 -1.465810e+09 -1.625810e+09 -1.088063e+02 -4.616857e+01 -4.705301e+00
-4.767394e+09 -4.567392e+09 -4.727393e+09 4.409004e+01 -1.166306e+00 9.579686e+00
-3.738886e+09 -3.538885e+09 -3.698885e+09 5.638796e+00 5.201549e+00 -9.981072e+00
-2.599522e+09 -2.399521e+09 -2.559521e+09 2.307878e+01 5.110678e+00 -2.819828e+01
-4.118518e+09 -3.918521e+09 -4.078519e+09 7.544910e+02 -1.300310e+01 -1.808630e+02
-2.179199e+09 -1.979198e+09 -2.139198e+09 -2.369727e+01 -1.447975e+01 -4.662089e+01
-1.929594e+09 -1.729593e+09 -1.889593e+09 1.548378e+01 1.141721e+01 -3.735686e+01
-4.989954e+09 -4.789947e+09 -4.949953e+09 1.080914e+03 1.816890e+02 -1.892448e+02
-3.953779e+09 -3.753783e+09 -3.913781e+09 7.814312e+02 -2.880716e+01 -6.272226e+02
-4.301230e+09 -4.101229e+09 -4.261229e+09 1.637325e+03 -1.394646e+02 -1.031735e+02
-4.620759e+09 -4.420758e+09 -4.580758e+09 -3.660443e+01 8.403582e+00 -4.154810e+01
-4.983479e+09 -4.783481e+09 -4.943479e+09 1.316546e+03 -1.808093e+01 -2.908320e+02
-3.281506e+09 -3.081507e+09 -3.241505e+09 -4.973690e-05 1.048875e+01 5.834117e+00
-4.804983e+09 -4.604986e+09 -4.764984e+09 7.023047e+02 -4.016917e+01 -3.030329e+02
-3.953780e+09 -3.753782e+09 -3.913781e+09 1.490102e+03 -1.077969e+02 -4.183788e+02
-4.983479e+09 -4.783481e+09 -4.943479e+09 1.474601e+03 -3.355534e+01 -2.078672e+02
-2.047477e+09 -1.847483e+09 -2.007478e+09 2.380942e+02 1.862428e+02 -2.432522e+01
-3.056470e+09 -2.856476e+09 -3.016471e+09 8.786849e+01 5.786878e+01 5.274298e+00
-3.312404e+09 -3.112410e+09 -3.272405e+09 -4.655107e+01 2.739466e+02 -2.498819e+01
-4.089611e+09 -3.889617e+09 -4.049612e+09 -3.558907e+02 2.588769e+02 -2.214888e+01
-4.891111e+09 -4.691117e+09 -4.851111e+09 2.677842e+01 -1.493632e+00 1.184998e+01
-3.613624e+09 -3.413629e+09 -3.573624e+09 3.527177e+01 3.770023e+01 -3.126422e+01
-4.967231e+09 -4.767237e+09 -4.927232e+09 -1.581534e+02 9.352433e+00 -1.710738e+00
-1.611484e+09 -1.411486e+09 -1.571483e+09 2.466205e-09 -2.834414e+01 3.905629e+01
-1.657151e+09 -1.457153e+09 -1.617150e+09 4.317571e+01 2.560060e+01 4.411930e+01
-4.679264e+09 -4.479270e+09 -4.639266e+09 1.819071e+02 2.215694e+02 -7.228373e+01
-4.648578e+09 -4.448584e+09 -4.608579e+09 9.207612e+01 1.359153e+02 -6.993536e+01
-4.778397e+09 -4.578404e+09 -4.738399e+09 2.527523e+02 -9.249167e+01 -3.139958e-01
-4.963090e+09 -4.763089e+09 -4.923089e+09 2.229760e+01 1.209762e+01 6.476670e+00
-4.843710e+09 -4.643709e+09 -4.803710e+09 -7.420585e+02 -4.990236e+01 1.091770e+02
-4.892245e+09 -4.692244e+09 -4.852244e+09 4.178484e+01 -1.243443e-04 9.416894e-01
-4.706767e+09 -4.506766e+09 -4.666766e+09 -3.861559e+00 -2.226852e+01 -1.279726e+01
-4.410270e+09 -4.210269e+09 -4.370269e+09 6.690363e+01 6.427380e+00 -1.738119e+01
-4.302244e+09 -4.102241e+09 -4.262247e+09 2.871704e+03 1.745873e+03 -1.235962e+03
-4.803247e+09 -4.603239e+09 -4.763256e+09 1.328307e+03 9.991290e+02 -5.439954e+02
-4.511375e+09 -4.311374e+09 -4.471374e+09 -2.949851e+01 5.419203e+00 -1.978125e+01
-4.274475e+09 -4.074464e+09 -4.234489e+09 9.880965e+02 4.524393e+03 -2.980956e+03
-4.103722e+09 -3.903713e+09 -4.063728e+09 7.293329e+02 2.149659e+03 -2.515683e+03
-4.988646e+09 -4.788637e+09 -4.948645e+09 -1.615094e+03 1.220185e+02 -1.472878e+02
-4.993318e+09 -4.793313e+09 -4.953324e+09 2.134770e+03 8.162749e+02 -5.441909e+02
-4.278208e+09 -4.078202e+09 -4.238216e+09 2.255104e+03 3.362365e+03 -2.837347e+03
-1.936783e+09 -1.736783e+09 -1.896784e+09 -5.544426e+02 4.016165e+02 -1.857499e+02
-4.971509e+09 -4.771502e+09 -4.931514e+09 1.113732e+03 8.497034e+02 -6.735390e+02
-4.116783e+09 -3.916775e+09 -4.076785e+09 1.106677e+03 1.527004e+03 -1.581732e+03
-2.886485e+09 -2.686487e+09 -2.846485e+09 -1.469185e+02 9.127971e+01 -1.182804e+02
-2.849086e+09 -2.649089e+09 -2.809086e+09 -9.846608e+02 1.543216e+02 -5.284455e+01
-2.517868e+09 -2.317870e+09 -2.477867e+09 -9.770492e+02 -1.317325e+02 -2.459383e+01
-2.205421e+09 -2.005422e+09 -2.165420e+09 -6.892626e+02 -4.877381e+00 -7.647247e+01
-1.797812e+09 -1.597812e+09 -1.757811e+09 -1.148928e+03 -6.356768e+02 -2.076019e+02
-3.966019e+09 -3.766011e+09 -3.926021e+09 1.401161e+03 1.247642e+03 -1.744894e+03
-3.255483e+09 -3.055482e+09 -3.215482e+09 -9.065505e+02 -7.245049e+02 -2.435726e+02
-2.176604e+09 -1.976603e+09 -2.136603e+09 2.225795e+01 7.407479e+00 -2.506190e+01
-1.635425e+09 -1.435424e+09 -1.595424e+09 3.261032e+01 7.688884e+00 -3.173194e+01
-2.326570e+09 -2.126570e+09 -2.286569e+09 -3.729971e+02 -2.085654e+02 -4.111489e+01
-2.748739e+09 -2.548738e+09 -2.708738e+09 3.603846e+01 9.583466e+00 -3.909981e+01
-2.150758e+09 -1.950757e+09 -2.110757e+09 2.561049e+01 2.872817e+00 -4.219719e+01
-3.385152e+09 -3.185157e+09 -3.345153e+09 6.194061e+01 2.868472e+01 5.938592e+00
-1.636084e+09 -1.436083e+09 -1.596083e+09 3.709519e+01 7.702494e+00 -6.320883e+01
-3.029869e+09 -2.829869e+09 -2.989868e+09 -9.172508e+01 -1.547713e+01 -4.320385e+01
-1.855551e+09 -1.655551e+09 -1.815550e+09 -1.533948e+01 1.363164e+01 -6.130538e+01
-2.518875e+09 -2.318880e+09 -2.478876e+09 1.167966e+03 -9.753182e+02 2.402307e+02
-4.021193e+09 -3.821191e+09 -3.981192e+09 3.156732e+01 3.240356e+00 1.724895e+00
-4.146139e+09 -3.946142e+09 -4.106141e+09 1.258882e+03 -7.422516e+02 3.354631e+02
-2.959889e+09 -2.759892e+09 -2.919890e+09 -2.041389e+03 -1.411231e+03 -5.408318e+02
-1.770308e+09 -1.570316e+09 -1.730310e+09 -2.147823e+03 -1.878818e+03 -4.553625e+02
-3.725239e+09 -3.525244e+09 -3.685241e+09 -7.275366e+02 -4.343050e+02 -5.744912e+01
-1.903089e+09 -1.703088e+09 -1.863088e+09 1.126983e+01 1.157582e+01 -5.960464e+01
-2.050707e+09 -1.850711e+09 -2.010707e+09 -1.603691e+03 -1.283316e+03 -2.376642e+02
-3.399287e+09 -3.199286e+09 -3.359286e+09 3.067819e+01 2.720025e+00 -2.094948e+01
-1.982471e+09 -1.782474e+09 -1.942472e+09 -2.278276e+03 -1.604101e+03 -6.583800e+02
-5.032725e+09 -4.832711e+09 -4.992728e+09 -1.508957e+03 -1.351387e+03 -4.113824e+02
-2.232261e+09 -2.032266e+09 -2.192261e+09 1.431423e+02 -3.603515e+01 -6.554920e+00
-3.945236e+09 -3.745222e+09 -3.905229e+09 4.694645e+03 -5.864295e+03 -8.411886e+02
-2.196390e+09 -1.996389e+09 -2.156389e+09 1.098215e+00 -3.601528e-01 -3.019899e+01
-1.585557e+09 -1.385562e+09 -1.545558e+09 5.642216e+02 2.140158e+02 -3.700804e+00
-1.899426e+09 -1.699429e+09 -1.859429e+09 -2.055330e+02 3.090867e+02 -1.918799e+02
-2.569922e+09 -2.369925e+09 -2.529925e+09 -8.978306e+01 4.319502e+02 2.906713e+01
-3.085601e+09 -2.885608e+09 -3.045607e+09 -4.460194e+02 7.506189e+01 3.149986e+02
-2.185530e+09 -1.985526e+09 -2.145529e+09 -6.257061e+01 -5.937717e+02 -5.373345e+02
-3.745635e+09 -3.545638e+09 -3.705639e+09 4.497247e+02 -3.016038e+01 -5.087288e+02
-5.028787e+09 -4.828786e+09 -4.988786e+09 -3.239797e+02 5.990245e+00 2.073178e+01
-1.607633e+09 -1.407635e+09 -1.567634e+09 1.960073e+02 2.275323e+01 -3.549253e+01
-1.635446e+09 -1.435444e+09 -1.595444e+09 -2.798799e+02 -5.524912e+02 -7.271504e+01
-2.697980e+09 -2.497985e+09 -2.657980e+09 2.582893e+02 7.371414e+01 -1.093048e+01
-1.657152e+09 -1.457150e+09 -1.617150e+09 -1.142962e+02 -2.153796e+02 -8.261953e+00
-2.177369e+09 -1.977374e+09 -2.137369e+09 9.941879e+01 1.845961e+01 -1.961174e+01
-2.161151e+09 -1.961151e+09 -2.121151e+09 -3.364865e+01 -1.444476e+01 4.202015e+00
-4.272070e+09 -4.072069e+09 -4.232084e+09 2.546505e+03 5.454020e+03 -2.177725e+03
-1.691173e+09 -1.491177e+09 -1.651173e+09 2.348001e+02 4.083982e+00 3.077512e+01
-1.997594e+09 -1.797594e+09 -1.957593e+09 3.614421e+02 -2.477462e+02 -1.628708e+01
-1.844693e+09 -1.644691e+09 -1.804691e+09 -3.283223e+02 -1.592924e+02 -2.487840e+01
-3.999089e+09 -3.799088e+09 -3.959088e+09 -3.504745e+02 -3.945792e+01 -5.091332e+01
-3.881777e+09 -3.681776e+09 -3.841776e+09 -7.436705e+01 -2.562153e+00 -8.079188e+01
-1.951681e+09 -1.751680e+09 -1.911679e+09 -4.167289e+02 -2.651155e+02 2.730917e+01
-3.414530e+09 -3.214531e+09 -3.374530e+09 8.739049e+02 -5.084453e+02 2.117659e+02
-2.254080e+09 -2.054079e+09 -2.214078e+09 -8.810051e+01 -4.450496e+01 -4.693675e+01
-1.657213e+09 -1.457212e+09 -1.617211e+09 -2.522751e+01 -8.489931e+01 3.200309e+01
-2.630315e+09 -2.430315e+09 -2.590314e+09 1.619487e+02 -1.768400e+02 -3.078981e+01
-3.039392e+09 -2.839392e+09 -2.999391e+09 4.411386e+02 -2.836837e+02 8.853171e+01
-2.597196e+09 -2.397196e+09 -2.557197e+09 6.086560e+01 4.533186e+02 -4.094541e+01
-1.926675e+09 -1.726674e+09 -1.886676e+09 6.457026e+01 4.747497e+02 -2.107026e+01
-4.984513e+09 -4.784515e+09 -4.944515e+09 5.111102e+01 -9.911961e+00 -1.880996e+01
-3.809730e+09 -3.609731e+09 -3.769731e+09 1.436900e+01 -2.113212e+00 2.842526e-01
-3.607927e+09 -3.407928e+09 -3.567928e+09 3.571911e+02 1.027741e+01 -1.236770e+01
-4.988092e+09 -4.788097e+09 -4.948093e+09 -1.514731e+02 4.593540e+01 1.469922e+01
-4.929399e+09 -4.729398e+09 -4.889399e+09 1.779128e+00 -3.176392e+00 1.908944e+00
-4.256961e+09 -4.056967e+09 -4.216962e+09 -3.485385e+02 6.862885e+01 -3.283028e+01
-3.616799e+09 -3.416805e+09 -3.576800e+09 1.199512e+02 1.313232e+02 -1.789762e+01
-3.662011e+09 -3.462011e+09 -3.622011e+09 -1.488896e+03 -7.208216e+02 -3.241003e+02
-1.730633e+09 -1.530635e+09 -1.690633e+09 -1.503985e+03 -1.020112e+03 -2.381752e+02
-4.615623e+09 -4.415622e+09 -4.575622e+09 2.898133e+00 -4.301839e-01 0.000000e+00
-2.200564e+09 -2.000567e+09 -2.160564e+09 1.049299e+03 5.811643e+01 -3.356678e+01
-4.138250e+09 -3.938258e+09 -4.098255e+09 -2.162447e+02 -1.147807e+03 6.770760e+01
-2.600244e+09 -2.400251e+09 -2.560246e+09 -6.345434e+01 -2.118513e+02 8.119387e+01
-2.177417e+09 -1.977425e+09 -2.137419e+09 -9.031425e+01 -1.560850e+02 -1.320317e+01
-1.636086e+09 -1.436093e+09 -1.596087e+09 -9.346545e+01 -2.733505e+02 5.372408e+01
-2.992564e+09 -2.792562e+09 -2.952563e+09 3.650182e+01 8.846088e+00 -2.128555e+01
-4.966937e+09 -4.766936e+09 -4.926936e+09 2.175589e+01 -7.422898e+00 2.064226e+00
-1.872180e+09 -1.672180e+09 -1.832180e+09 1.651779e+01 2.398538e+01 7.528268e+00
-2.562778e+09 -2.362784e+09 -2.522779e+09 -1.394922e+02 -1.763479e+02 -2.040755e+01
-2.983660e+09 -2.783659e+09 -2.943659e+09 -7.726623e+01 -3.565045e+00 -4.046118e+01
-4.890119e+09 -4.690118e+09 -4.850117e+09 1.879447e+01 2.298821e-09 6.849568e+00
-2.962688e+09 -2.762693e+09 -2.922693e+09 -1.553819e+01 2.315364e+02 -2.644249e+01
-2.199985e+09 -1.999983e+09 -2.159984e+09 -1.212005e+01 -6.536716e+00 -1.359001e+01
-3.168825e+09 -2.968824e+09 -3.128824e+09 -2.087753e+01 -2.844759e+01 -7.823349e+01
-1.646201e+09 -1.446201e+09 -1.606202e+09 -5.840727e+02 4.435520e+02 -1.477649e+02
-4.123837e+09 -3.923835e+09 -4.083835e+09 -1.208506e+02 -8.478462e+00 -1.017765e+01
-3.244760e+09 -3.044763e+09 -3.204760e+09 -6.828561e+02 -3.950151e+02 -8.789906e+01
-1.935358e+09 -1.735355e+09 -1.895357e+09 5.015376e+01 5.316068e+02 -1.282766e+02
-2.605885e+09 -2.405883e+09 -2.565885e+09 1.466033e+02 4.322371e+02 -5.605233e+01
-4.123809e+09 -3.923808e+09 -4.083808e+09 -1.860726e+02 6.143781e+01 -1.237765e+01
-3.438114e+09 -3.238115e+09 -3.398114e+09 -1.116371e+03 -7.381014e+02 -2.214015e+02
-4.481106e+09 -4.281106e+09 -4.441105e+09 -2.993892e+02 -5.452179e+00 -2.455244e+01
-2.146187e+09 -1.946192e+09 -2.106188e+09 -4.701261e+02 -2.510271e+02 -5.845731e+01
-2.577583e+09 -2.377584e+09 -2.537582e+09 -1.374591e+02 -8.803177e+01 6.197851e+01
-4.981670e+09 -4.781670e+09 -4.941669e+09 -9.307565e+02 -3.120536e+02 2.071717e+01
-3.230305e+09 -3.030305e+09 -3.190305e+09 -1.559304e+03 -8.885513e+02 -3.852743e+02
-4.890117e+09 -4.690122e+09 -4.850119e+09 -1.302003e+02 -4.957950e-05 -6.816793e+01
-4.719003e+09 -4.519006e+09 -4.679004e+09 -4.690798e+02 -2.743970e+02 -1.238959e+02
-5.011042e+09 -4.811049e+09 -4.971047e+09 1.477179e+02 -3.549018e+02 -1.994595e+01
-4.165478e+09 -3.965477e+09 -4.125478e+09 1.364530e+02 3.112872e+01 -4.231166e-01
-4.814708e+09 -4.614713e+09 -4.774710e+09 1.503607e+03 3.594436e+02 -5.077603e+01
-4.316984e+09 -4.116989e+09 -4.276993e+09 -1.210894e+03 -2.670617e+03 -2.841344e+02
-5.004362e+09 -4.804366e+09 -4.964363e+09 1.977144e+03 1.273899e+02 -3.052778e+01
-4.976832e+09 -4.776839e+09 -4.936837e+09 -8.959241e+02 -3.654112e+02 -1.438402e+01
-3.959920e+09 -3.759923e+09 -3.919924e+09 -1.945349e+03 -1.569324e+03 -3.156540e+02
-4.625022e+09 -4.425028e+09 -4.585026e+09 -1.184098e+03 -3.475979e+02 -6.019430e+01
-1.673946e+09 -1.473952e+09 -1.633947e+09 -2.542469e+03 -2.033200e+03 -6.060097e+02
-1.597615e+09 -1.397622e+09 -1.557617e+09 -7.135008e+02 -9.498800e+02 -4.183097e+01
-5.011398e+09 -4.811401e+09 -4.971401e+09 2.198958e+03 6.036616e+02 -1.019574e+02
-4.497849e+09 -4.297852e+09 -4.457851e+09 -1.297796e+03 -2.208772e+02 2.154138e+01
-3.968194e+09 -3.768199e+09 -3.928199e+09 -1.668628e+03 -2.076536e+03 -3.218348e+02
-3.093871e+09 -2.893873e+09 -3.053871e+09 -7.076396e+02 -4.597725e+02 8.245138e+01
-3.974663e+09 -3.774668e+09 -3.934665e+09 2.152400e+03 2.413861e+02 -2.452091e+02
-4.658893e+09 -4.458898e+09 -4.618894e+09 1.304670e+03 1.633932e+02 -4.453381e+01
-3.981700e+09 -3.781705e+09 -3.941703e+09 2.313300e+03 1.034963e+03 -1.505427e+02
-4.993185e+09 -4.793184e+09 -4.953197e+09 -1.495023e+03 -1.726476e+03 -2.073038e+02
-4.474883e+09 -4.274875e+09 -4.434881e+09 -2.989507e+03 -1.628143e+02 -8.261807e+02
-3.951338e+09 -3.751337e+09 -3.911337e+09 4.117842e+02 -2.915122e+02 7.898244e+01
-4.620457e+09 -4.420456e+09 -4.580456e+09 3.939050e+02 -5.816097e+01 1.860589e+01
-4.802773e+09 -4.602774e+09 -4.762774e+09 9.694941e+02 -9.911870e+01 -4.123030e+01
-3.963426e+09 -3.763420e+09 -3.923426e+09 7.416003e+02 7.913218e+02 -8.537757e+02
-4.659304e+09 -4.459298e+09 -4.619303e+09 -1.701452e+03 -3.637597e+01 -4.978266e+02
-4.995005e+09 -4.795007e+09 -4.955006e+09 -1.789538e+02 -1.690500e+01 4.433396e+00
-1.929745e+09 -1.729753e+09 -1.889747e+09 -1.483937e+02 -3.156162e+02 -6.889988e+01
-3.946937e+09 -3.746939e+09 -3.906938e+09 -3.258463e+02 -9.457679e+00 1.719497e+01
-4.807875e+09 -4.607877e+09 -4.767876e+09 -4.292005e+02 -1.642276e+01 5.441931e+01
-1.630128e+09 -1.430130e+09 -1.590129e+09 -1.257857e+02 -2.407091e+01 1.622201e+01
-1.644613e+09 -1.444620e+09 -1.604614e+09 -4.848275e+02 -2.592526e+02 2.780996e+01
-4.894096e+09 -4.694098e+09 -4.854098e+09 -5.395672e+01 -3.519132e+00 1.480004e+00
-4.459676e+09 -4.259675e+09 -4.419676e+09 6.242671e+02 -1.952598e+02 6.869381e+01
-3.951826e+09 -3.751825e+09 -3.911825e+09 4.277515e+01 -1.660933e+02 7.173338e+00
-3.428516e+09 -3.228516e+09 -3.388515e+09 6.049663e+02 -2.932544e+02 1.309105e+02
-1.673961e+09 -1.473972e+09 -1.633965e+09 1.769888e+02 -2.690983e+03 2.667594e+02
-1.673890e+09 -1.473900e+09 -1.633893e+09 -1.074875e+03 -2.671424e+03 -1.553346e+02
-3.953960e+09 -3.753945e+09 -3.913953e+09 3.620089e+03 3.681230e+03 -2.123061e+03
-4.295898e+09 -4.095897e+09 -4.255913e+09 -9.319203e+02 -4.896379e+03 -8.149524e+01
-4.131053e+09 -3.931055e+09 -4.091064e+09 -7.098058e+01 -3.927563e+03 6.077778e+02
-3.965423e+09 -3.765428e+09 -3.925432e+09 -6.577077e+02 -3.315906e+03 8.720333e+01
-1.892282e+09 -1.692288e+09 -1.852283e+09 -1.523933e+02 -1.624610e+02 8.927716e+01
-3.276711e+09 -3.076713e+09 -3.236712e+09 2.364117e+01 1.927176e+00 -1.631174e+01
-2.272446e+09 -2.072447e+09 -2.232447e+09 -1.855473e+02 -2.429143e+01 -3.887686e+00
-4.660217e+09 -4.460221e+09 -4.620225e+09 -1.240770e+03 -8.790148e+02 -1.108941e+02
-4.972932e+09 -4.772929e+09 -4.932933e+09 1.632535e+02 -1.733915e+02 -1.439024e+02
-4.626509e+09 -4.426512e+09 -4.586512e+09 -1.558448e+03 -4.927570e+02 -7.875856e+01
-2.124173e+09 -1.924175e+09 -2.084175e+09 -5.260116e+01 8.023795e+00 6.455071e+00
-4.476191e+09 -4.276198e+09 -4.436197e+09 6.652634e+02 -1.072120e+03 7.824056e+01
-1.628665e+09 -1.428667e+09 -1.588664e+09 2.434732e+02 1.751189e+01 4.318603e+01
-3.913014e+09 -3.713019e+09 -3.873017e+09 -1.470113e+03 -1.068912e+03 -2.261517e+02
-4.118949e+09 -3.918956e+09 -4.078955e+09 -9.456580e+02 -1.296314e+03 -1.531774e+02
-2.105764e+09 -1.905767e+09 -2.065763e+09 9.473824e+01 2.481212e+01 7.789467e-01
-4.316406e+09 -4.116411e+09 -4.276414e+09 -5.008417e+02 -2.485628e+03 1.261672e+02
-4.990558e+09 -4.790558e+09 -4.950570e+09 -6.231668e+02 -1.575606e+03 1.332941e+02
-1.816342e+09 -1.616345e+09 -1.776342e+09 3.768696e+02 4.395702e+01 7.834152e+01
-3.376236e+09 -3.176241e+09 -3.336237e+09 1.098622e+03 1.764184e+02 -5.750493e+01
-3.965629e+09 -3.765628e+09 -3.925630e+09 8.717980e+02 -6.154565e+02 4.151006e+02
-2.847094e+09 -2.647098e+09 -2.807093e+09 4.939486e+02 7.214184e+01 3.555447e+01
-3.956237e+09 -3.756235e+09 -3.916238e+09 2.527071e+02 -6.255721e+02 5.357618e+02
-4.622396e+09 -4.422386e+09 -4.582372e+09 4.139421e+03 4.487556e+03 9.364317e+02
-3.935159e+09 -3.735164e+09 -3.895144e+09 5.861162e+03 4.663832e+03 9.095885e+03
-1.684375e+09 -1.484382e+09 -1.644382e+09 -1.225857e+03 5.815558e+01 1.463901e+03
-1.944849e+09 -1.744855e+09 -1.904849e+09 2.090783e+02 5.605281e+01 4.436671e+01
-4.298547e+09 -4.098546e+09 -4.258548e+09 -2.576664e+03 -2.608286e+02 1.798914e+02
-1.929687e+09 -1.729692e+09 -1.889687e+09 5.037362e+01 2.696658e+01 -3.538162e+00
-4.119330e+09 -3.919322e+09 -4.079310e+09 4.030271e+03 4.943337e+03 4.560513e+03
-4.672021e+09 -4.472018e+09 -4.632032e+09 -1.967518e+03 1.773285e+03 2.771051e+03
-4.832082e+09 -4.632080e+09 -4.792099e+09 -5.629642e+02 2.566298e+03 5.127606e+01
-1.636096e+09 -1.436101e+09 -1.596097e+09 8.352615e+01 3.880978e+01 3.698728e+01
-4.647086e+09 -4.447086e+09 -4.607096e+09 -2.830926e+03 2.374170e+03 5.432880e+02
-4.461095e+09 -4.261100e+09 -4.421097e+09 3.084669e+03 5.304337e+02 5.226810e+02
-4.841252e+09 -4.641253e+09 -4.801254e+09 3.581236e+03 5.699335e+01 -6.449390e+02
-4.453764e+09 -4.253765e+09 -4.413764e+09 -4.064255e+02 4.685477e+01 -2.930390e+01
-4.986227e+09 -4.786227e+09 -4.946226e+09 -1.572363e+02 -4.579904e+01 -3.724878e+00
-4.076757e+09 -3.876759e+09 -4.036757e+09 -5.575667e+02 5.350067e+00 -4.925893e+01
-4.983067e+09 -4.783067e+09 -4.943066e+09 -2.303819e+02 -7.831587e+01 -1.662438e+01
-3.965359e+09 -3.765342e+09 -3.925330e+09 -2.958003e+03 -1.478242e+04 4.431011e+02
-4.984806e+09 -4.784806e+09 -4.944805e+09 -1.990327e+02 3.476288e+00 2.091105e+01
-3.921397e+09 -3.721386e+09 -3.881410e+09 1.045042e+03 1.301847e+03 4.004562e+03
-4.704231e+09 -4.504227e+09 -4.664192e+09 1.606525e+02 -3.212425e+03 -2.011082e+03
-4.995071e+09 -4.795064e+09 -4.955033e+09 -4.667943e+02 -2.071945e+03 -4.137005e+02
-4.463827e+09 -4.263812e+09 -4.423816e+09 -3.492406e+02 -4.681828e+03 -2.109172e+03
-4.006147e+09 -3.806150e+09 -3.966147e+09 -2.722418e+01 4.135244e+01 -5.362698e+01
-3.937099e+09 -3.737079e+09 -3.897081e+09 5.835172e+02 -1.196723e+04 -2.958164e+02
-4.807058e+09 -4.607046e+09 -4.767051e+09 2.344744e+02 -3.703718e+03 -2.758267e+03
-3.965368e+09 -3.765350e+09 -3.925335e+09 2.956322e+03 -1.277709e+04 -3.065820e+03
-4.606039e+09 -4.406042e+09 -4.566039e+09 -4.862615e+02 2.373537e+02 -2.223343e+00
-4.302414e+09 -4.102412e+09 -4.262411e+09 -3.980615e+03 1.957920e+03 -6.306363e+02
-3.959182e+09 -3.759176e+09 -3.919184e+09 -3.717375e+03 1.826675e+03 1.337201e+03
-3.971398e+09 -3.771392e+09 -3.931398e+09 -3.337274e+03 1.840705e+03 1.608413e+03
-4.607928e+09 -4.407924e+09 -4.567928e+09 -2.394923e+03 3.579874e+02 5.673099e+02
-4.820740e+09 -4.620742e+09 -4.780738e+09 -3.462312e+03 -1.248541e+03 3.419370e+02
-4.710186e+09 -4.510187e+09 -4.670185e+09 -2.052433e+02 1.077973e+02 -4.816880e-01
-3.677704e+09 -3.477706e+09 -3.637703e+09 -9.173880e+00 1.595451e+01 -9.738917e+00
-1.586866e+09 -1.386865e+09 -1.546864e+09 8.194394e+02 2.688625e+02 -5.213934e+01
-4.134797e+09 -3.934794e+09 -4.094798e+09 -1.574823e+03 -1.022602e+03 -8.480088e+02
-4.827680e+09 -4.627682e+09 -4.787680e+09 -1.493562e+03 -1.250517e+02 -9.756352e+01
-1.588677e+09 -1.388677e+09 -1.548676e+09 -7.429982e+01 1.108865e+02 -1.229444e+02
-3.400061e+09 -3.200061e+09 -3.360060e+09 -4.536166e+02 -1.703111e+01 -6.583037e+01
-3.644390e+09 -3.444392e+09 -3.604389e+09 -5.458180e+00 2.440693e+00 -1.475274e+01
-4.710186e+09 -4.510188e+09 -4.670185e+09 -1.798292e+02 -8.707568e+01 -2.229827e+01
-3.144453e+09 -2.944453e+09 -3.104453e+09 -3.142356e+02 -4.461791e+01 7.972375e+00
-1.964595e+09 -1.764596e+09 -1.924596e+09 -4.340896e+02 -2.307927e+01 7.752027e+00
-2.605281e+09 -2.405281e+09 -2.565281e+09 -2.203317e+02 -4.502258e+01 -1.810214e+01
-3.580298e+09 -3.380297e+09 -3.540297e+09 -9.263102e+01 -1.482304e+01 -6.549766e+00
-2.893612e+09 -2.693612e+09 -2.853612e+09 -3.744294e+02 -5.764942e+01 -1.230115e+01
-1.965676e+09 -1.765675e+09 -1.925675e+09 -3.761780e+02 -2.993809e+01 -1.183762e+01
-4.477509e+09 -4.277508e+09 -4.437504e+09 2.641299e+03 9.273243e+02 -4.741862e+03
-4.820741e+09 -4.620739e+09 -4.780727e+09 3.495468e+03 9.100855e+02 -9.864734e+02
-4.477511e+09 -4.277503e+09 -4.437507e+09 2.899094e+03 -8.430095e+02 1.887878e+03
-1.603274e+09 -1.403276e+09 -1.563275e+09 6.353580e+01 1.212538e+01 2.559957e+01
-4.134274e+09 -3.934271e+09 -4.094261e+09 3.150430e+03 -3.152839e+03 -3.461787e+03
-1.972379e+09 -1.772381e+09 -1.932381e+09 -4.365496e-01 -5.090979e+00 1.818844e+01
-4.131843e+09 -3.931843e+09 -4.091843e+09 7.040916e+02 1.646949e+00 -5.774006e+01
-3.969010e+09 -3.769009e+09 -3.929009e+09 4.223577e+02 8.085705e+01 -2.766024e+01
-1.676613e+09 -1.476615e+09 -1.636614e+09 -2.552001e+02 -3.759934e+01 3.067429e+01
-4.523514e+09 -4.323513e+09 -4.483514e+09 6.443109e+02 -2.917570e+00 -6.003779e+01
-4.285840e+09 -4.085839e+09 -4.245839e+09 8.409563e+02 -6.345864e+01 -1.918205e+02
-4.629072e+09 -4.429072e+09 -4.589072e+09 8.489071e+02 8.837647e+01 4.488309e+01
-4.227384e+09 -4.027385e+09 -4.187385e+09 7.160617e+01 1.368586e+01 3.982548e+01
-4.104497e+09 -3.904493e+09 -4.064498e+09 1.151235e+03 -5.271577e+02 -6.271126e+02
-2.326025e+09 -2.126027e+09 -2.286026e+09 -1.939077e+02 -8.885972e+00 2.441041e+00
-5.003572e+09 -4.803568e+09 -4.963574e+09 2.020707e+03 -7.777824e+01 -8.789280e+01
-4.601953e+09 -4.401950e+09 -4.561954e+09 1.147840e+03 -2.525046e+02 -4.762340e+02
-4.375036e+09 -4.175035e+09 -4.335036e+09 -5.882915e+01 -3.980780e+00 -9.493615e-01
-2.483200e+09 -2.283200e+09 -2.443200e+09 -1.874186e+02 -4.305062e+01 1.114556e+01
-4.942340e+09 -4.742339e+09 -4.902339e+09 -1.263120e+02 5.149076e+00 -1.352279e+01
-4.427690e+09 -4.227689e+09 -4.387689e+09 -2.861839e+01 -3.213970e+00 -7.527472e+00
-4.970425e+09 -4.770424e+09 -4.930425e+09 -8.763804e+01 1.054734e+01 1.165799e+01
-4.475394e+09 -4.275399e+09 -4.435396e+09 1.818061e+03 4.871786e+02 -1.212678e+02
-3.974664e+09 -3.774668e+09 -3.934665e+09 1.866755e+03 3.531969e+02 -7.939849e+00
-4.357489e+09 -4.157490e+09 -4.317487e+09 2.923868e+01 8.145989e+00 1.907897e+01
-1.598966e+09 -1.398964e+09 -1.558964e+09 -3.882812e+02 -2.620702e+02 5.757739e+01
-4.624497e+09 -4.424498e+09 -4.584495e+09 3.073151e+01 0.000000e+00 -8.592387e+00
-4.971103e+09 -4.771102e+09 -4.931105e+09 -1.395828e+03 -7.219514e+02 -1.172254e+02
-2.359231e+09 -2.159234e+09 -2.319232e+09 -2.089591e+03 -1.229659e+03 -4.762266e+02
-4.739501e+09 -4.539501e+09 -4.699501e+09 -1.026158e+03 -6.373011e+01 -1.096067e+02
-4.450658e+09 -4.250659e+09 -4.410656e+09 6.793866e+01 -3.080938e+01 5.153850e-01
-4.606916e+09 -4.406916e+09 -4.566917e+09 -1.498257e+03 -5.991172e+02 -6.106946e+01
-3.662757e+09 -3.462758e+09 -3.622757e+09 -1.156594e+03 -7.006801e+02 -2.760707e+02
-4.013606e+09 -3.813604e+09 -3.973605e+09 -2.939977e+02 -7.554224e+01 9.729795e+00
-4.027530e+09 -3.827531e+09 -3.987529e+09 -5.618919e+02 -3.152714e+02 -8.358191e+01
-3.272534e+09 -3.072531e+09 -3.232533e+09 -9.595849e+02 -1.177310e+03 -6.616906e+02
-4.963408e+09 -4.763407e+09 -4.923407e+09 1.699651e+02 -3.489697e+01 3.087428e+01
-3.018099e+09 -2.818097e+09 -2.978097e+09 -2.942400e+01 -5.037384e+01 -7.032288e+01
-5.014107e+09 -4.814106e+09 -4.974108e+09 -1.150442e+03 -2.666609e+02 -1.914954e+02
-3.984409e+09 -3.784408e+09 -3.944409e+09 -2.061345e+03 -2.981668e+02 -3.747456e+02
-4.566517e+09 -4.366516e+09 -4.526516e+09 2.978723e+02 -2.144598e+01 7.509542e+00
-3.350269e+09 -3.150268e+09 -3.310268e+09 1.199587e+02 -1.197744e+02 2.770949e+01
-3.165800e+09 -2.965797e+09 -3.125799e+09 -9.901894e+02 -6.848131e+02 -2.538044e+02
-4.892350e+09 -4.692353e+09 -4.852349e+09 1.198910e+02 -2.488837e-05 -9.051121e+00
-4.327642e+09 -4.127640e+09 -4.287642e+09 -1.193417e+03 -5.732591e+02 -2.986373e+02
-4.979575e+09 -4.779579e+09 -4.939575e+09 2.929129e+02 2.075683e+01 -8.079599e+01
-2.785515e+09 -2.585516e+09 -2.745519e+09 3.543909e+03 9.689750e+02 3.791869e+02
-4.321900e+09 -4.121903e+09 -4.281900e+09 9.246303e+01 1.023349e+01 4.801502e+01
-4.929399e+09 -4.729398e+09 -4.889399e+09 1.923109e+01 -2.935536e+00 -2.705455e+00
-5.000862e+09 -4.800859e+09 -4.960859e+09 3.686445e+03 4.793860e+00 8.147264e+02
-4.966937e+09 -4.766936e+09 -4.926936e+09 2.133512e+01 -8.504590e+00 1.418826e+00
-5.003805e+09 -4.803803e+09 -4.963806e+09 2.376302e+03 -2.464343e+01 2.055540e+02
-4.804328e+09 -4.604331e+09 -4.764331e+09 3.062464e+03 5.128710e+01 2.915240e+02
-1.636086e+09 -1.436087e+09 -1.596087e+09 -1.632078e+01 -4.504945e+01 2.931309e+00
-4.763863e+09 -4.563862e+09 -4.723862e+09 1.054588e+02 -1.148972e+00 -1.369784e+01
-4.027051e+09 -3.827050e+09 -3.987051e+09 4.324475e+01 6.079475e+00 7.885685e+00
-4.956696e+09 -4.756695e+09 -4.916695e+09 5.199475e+01 -4.572065e+00 5.822553e+00
-3.686041e+09 -3.486045e+09 -3.646041e+09 2.793095e+02 2.801445e+01 1.477831e+01
-4.006057e+09 -3.806056e+09 -3.966057e+09 7.294081e+01 7.585740e+00 -2.150551e+01
-1.918696e+09 -1.718705e+09 -1.878698e+09 -2.265991e+01 -2.455301e+02 -3.234994e+01
-1.632567e+09 -1.432566e+09 -1.592566e+09 2.702295e+01 7.113266e+00 -2.116181e+01
-4.956695e+09 -4.756695e+09 -4.916695e+09 1.087607e+02 -4.556597e+00 -1.696690e+01
-4.709741e+09 -4.509741e+09 -4.669740e+09 -4.926148e+01 3.733025e+01 -9.800672e+00
-2.772371e+09 -2.572370e+09 -2.732372e+09 6.045208e+01 3.366252e+02 -4.108328e+01
-4.967374e+09 -4.767373e+09 -4.927374e+09 -6.908243e+02 -8.110043e+01 -7.724499e+01
-4.709210e+09 -4.509210e+09 -4.669209e+09 -8.088765e+01 5.783591e+01 -1.640906e+01
-1.601370e+09 -1.401372e+09 -1.561373e+09 -1.315060e+03 -5.224871e+01 5.317097e+02
-4.810154e+09 -4.610153e+09 -4.770155e+09 -9.996217e+02 3.186651e+02 -5.806189e+02
-2.781034e+09 -2.581032e+09 -2.741034e+09 1.637305e+02 3.749273e+02 -5.169831e+01
-1.585557e+09 -1.385563e+09 -1.545558e+09 3.554205e+02 6.760490e+01 3.587850e+01
-3.698297e+09 -3.498299e+09 -3.658298e+09 1.330877e+00 -9.171977e-01 7.253291e-01
-3.239140e+09 -3.039142e+09 -3.199141e+09 -1.498201e+02 -1.182482e+01 1.604577e+01
-3.050127e+09 -2.850132e+09 -3.010127e+09 1.921452e+02 1.694357e+00 1.028138e+01
-3.013944e+09 -2.813948e+09 -2.973946e+09 1.717731e+03 -1.522254e+03 5.887229e+02
-1.611075e+09 -1.411078e+09 -1.571075e+09 2.507000e+02 -8.134672e+00 5.372549e+01
-1.567149e+09 -1.367154e+09 -1.527150e+09 8.185627e+01 -1.501024e+01 -9.196132e+00
-2.500133e+09 -2.300139e+09 -2.460134e+09 6.786042e+01 1.893545e+01 3.172321e+01
-4.144388e+09 -3.944388e+09 -4.104388e+09 -1.475282e+03 2.428072e+01 -1.339938e+02
-4.367080e+09 -4.167082e+09 -4.327081e+09 -1.694924e+02 -5.707133e+00 -4.733241e+00
-4.651772e+09 -4.451774e+09 -4.611773e+09 -1.639176e+02 3.846172e+00 3.586483e-01
-4.890116e+09 -4.690124e+09 -4.850119e+09 -4.415833e+01 -4.972480e-05 -1.672798e+01
-2.607353e+09 -2.407362e+09 -2.567356e+09 1.956596e+02 -2.049416e+03 2.865479e+02
-5.011351e+09 -4.811350e+09 -4.971351e+09 3.147235e+02 -1.841671e+01 6.444079e+00
-4.972739e+09 -4.772741e+09 -4.932740e+09 1.087341e+03 -1.556863e+02 7.001006e+01
-4.984043e+09 -4.784044e+09 -4.944042e+09 -4.787220e+02 -1.160605e+02 -3.489028e+01
-2.071744e+09 -1.871744e+09 -2.031743e+09 -3.905469e+02 6.759402e+01 -6.186568e+01
-4.970225e+09 -4.770227e+09 -4.930226e+09 -2.642659e+02 -7.270202e-01 -4.910135e+00
-3.119131e+09 -2.919132e+09 -3.079131e+09 -9.740161e+01 -1.283798e+01 -2.425635e+00
-4.983598e+09 -4.783598e+09 -4.943597e+09 -4.134916e+01 3.674643e-01 6.089770e+00
-4.971516e+09 -4.771518e+09 -4.931517e+09 -1.508267e+02 5.567074e+00 4.259761e+00
-3.621995e+09 -3.421994e+09 -3.581994e+09 3.389960e+01 5.394085e-01 -3.664593e+01
-4.976697e+09 -4.776703e+09 -4.936698e+09 4.150742e+02 1.904925e+01 3.624358e+01
-4.204797e+09 -4.004797e+09 -4.164796e+09 -1.854989e+02 2.654487e+01 -2.336423e+01
-3.462427e+09 -3.262433e+09 -3.422428e+09 4.066479e+01 3.708238e+01 -2.255056e+01
-4.710949e+09 -4.510949e+09 -4.670948e+09 -1.307137e+02 8.063884e+01 -7.120877e+00
-4.055556e+09 -3.855556e+09 -4.015555e+09 -1.078346e+02 2.467964e+01 -3.643632e+01
-4.308772e+09 -4.108773e+09 -4.268770e+09 9.860046e+02 -1.564643e+01 7.220765e+01
-4.890119e+09 -4.690118e+09 -4.850117e+09 3.140141e+01 2.487545e-05 1.150728e+01
-2.211588e+09 -2.011589e+09 -2.171588e+09 -1.065294e+02 -2.474956e+01 -5.317811e+01
-4.615156e+09 -4.415161e+09 -4.575156e+09 -1.129736e+01 1.874901e+01 2.521791e+00
-4.983585e+09 -4.783590e+09 -4.943586e+09 -2.479621e+02 -2.400156e+00 6.080636e+00
-2.709022e+09 -2.509023e+09 -2.669020e+09 4.657971e+02 1.389464e+02 2.827913e+01
-5.015693e+09 -4.815695e+09 -4.975692e+09 1.374197e+03 -1.602655e+01 2.914427e+01
-4.997259e+09 -4.797254e+09 -4.957260e+09 -1.451885e+03 2.163099e+01 -1.856986e+02
-3.967564e+09 -3.767558e+09 -3.927563e+09 1.319666e+01 7.977269e+02 -1.265808e+03
-3.411428e+09 -3.211433e+09 -3.371429e+09 -2.632349e+00 7.765683e+01 -3.320916e+01
-4.983585e+09 -4.783590e+09 -4.943586e+09 -1.961363e+02 1.745903e+01 3.118853e+01
-4.632590e+09 -4.432583e+09 -4.592593e+09 1.660387e+03 7.640843e+02 -7.408253e+02
-3.969102e+09 -3.769103e+09 -3.929103e+09 -8.311293e+02 -3.316626e+01 5.674339e+01
-3.954847e+09 -3.754841e+09 -3.914851e+09 -1.997164e+03 -8.015936e+02 2.093158e+03
-4.140539e+09 -3.940539e+09 -4.100539e+09 -5.182815e+02 3.151225e+00 -1.974235e+01
-3.385415e+09 -3.185419e+09 -3.345416e+09 6.699652e+01 -1.233509e+02 1.567204e+01
-4.832604e+09 -4.632607e+09 -4.792607e+09 1.148036e+03 -2.964790e+02 6.401265e+01
-4.512541e+09 -4.312540e+09 -4.472541e+09 3.428280e+02 3.306470e+01 -3.631825e+01
-4.639102e+09 -4.439101e+09 -4.599106e+09 1.088039e+03 -5.699496e+02 6.322509e+02
-3.963889e+09 -3.763894e+09 -3.923898e+09 9.159408e+02 -3.000962e+03 9.205909e+02
-3.966286e+09 -3.766285e+09 -3.926292e+09 1.299328e+03 -2.296802e+03 1.797842e+03
-4.002316e+09 -3.802314e+09 -3.962315e+09 8.896204e+02 1.441705e+02 1.721938e+02
-4.468869e+09 -4.268870e+09 -4.428871e+09 1.376082e+03 -5.191662e+02 3.255849e+02
-4.139069e+09 -3.939069e+09 -4.099069e+09 6.885472e+02 1.470655e+01 -3.415592e+01
-3.959920e+09 -3.759923e+09 -3.919924e+09 -2.355176e+03 -1.776901e+03 -6.793814e+02
-4.639333e+09 -4.439338e+09 -4.599338e+09 -1.282941e+03 -6.068154e+02 -1.646861e+02
-4.123621e+09 -3.923618e+09 -4.083633e+09 -1.799181e+03 -4.393561e+03 -1.007970e+03
-4.998708e+09 -4.798707e+09 -4.958707e+09 6.603639e+02 -5.420247e+01 -4.052542e+01
-4.823704e+09 -4.623709e+09 -4.783712e+09 -8.727703e+02 -1.318936e+03 -3.975892e+01
-4.671245e+09 -4.471244e+09 -4.631244e+09 -6.662915e+02 -3.193969e+01 6.622733e+01
-4.823156e+09 -4.623154e+09 -4.783155e+09 -7.448908e+02 -6.436902e+01 1.527602e+02
-4.151152e+09 -3.951151e+09 -4.111151e+09 -4.055982e+02 -1.034425e+02 -4.443619e+01
-5.000487e+09 -4.800489e+09 -4.960496e+09 -1.759642e+03 -1.242542e+03 -1.080526e+02
-4.834405e+09 -4.634409e+09 -4.794413e+09 -1.589911e+03 -1.150152e+03 -1.051302e+02
-4.820047e+09 -4.620045e+09 -4.780052e+09 2.916798e+03 8.204012e+02 1.717686e+02
-4.479923e+09 -4.279922e+09 -4.439922e+09 -6.297824e+02 -5.280562e+01 4.483576e+01
-3.953355e+09 -3.753346e+09 -3.913347e+09 -5.086906e+03 -2.812677e+03 -1.033108e+02
-3.958950e+09 -3.758938e+09 -3.918950e+09 -1.114512e+03 7.332238e+02 -3.034644e+03
-4.642398e+09 -4.442405e+09 -4.602404e+09 -5.656534e+02 7.253132e+02 -4.588551e-01
-3.950415e+09 -3.750422e+09 -3.910424e+09 -3.269162e+02 3.250116e+03 -2.150139e+00
-4.148252e+09 -3.948259e+09 -4.108255e+09 5.687489e+02 8.099015e+02 -3.361191e+01
-4.300633e+09 -4.100638e+09 -4.260639e+09 -1.925340e+03 1.596477e+03 3.032133e+02
-4.656261e+09 -4.456268e+09 -4.616265e+09 1.621632e+02 3.923167e+02 -7.074811e+01
-4.964380e+09 -4.764381e+09 -4.924395e+09 1.362700e+03 2.525197e+03 -5.839482e+02
-4.151920e+09 -3.951925e+09 -4.111921e+09 1.189357e+03 4.450507e+02 -6.975845e+01
-3.965431e+09 -3.765431e+09 -3.925431e+09 5.107515e+02 5.180428e+01 6.534702e+00
-4.818308e+09 -4.618308e+09 -4.778309e+09 7.107450e+02 2.347054e+01 1.092716e+01
-3.954783e+09 -3.754789e+09 -3.914785e+09 1.603106e+03 5.164686e+02 -2.081262e+02
-4.710032e+09 -4.510032e+09 -4.670031e+09 -3.377266e+02 1.246647e+02 5.454994e+01
-2.212355e+09 -2.012364e+09 -2.172358e+09 -8.328920e+01 -2.598458e+02 9.921983e-01
-2.323360e+09 -2.123367e+09 -2.283363e+09 -1.411060e+03 -2.618856e+03 -5.002795e+02
-1.926773e+09 -1.726774e+09 -1.886774e+09 -2.501570e+01 -1.341409e+01 -2.843732e+00
-4.975015e+09 -4.775016e+09 -4.935016e+09 5.039483e+02 -1.987003e+01 -2.338832e+01
-1.623135e+09 -1.423136e+09 -1.583136e+09 -1.477244e+02 -2.920888e+01 3.145436e+01
-4.826653e+09 -4.626656e+09 -4.786639e+09 -4.783920e+03 -9.188212e+02 3.601240e+03
-4.801086e+09 -4.601095e+09 -4.761088e+09 -4.030668e+02 7.262727e+01 1.331240e+03
-1.911335e+09 -1.711336e+09 -1.871336e+09 -2.615968e+02 -2.925144e+01 3.637486e+01
-1.983304e+09 -1.783303e+09 -1.943303e+09 3.111852e+01 4.063830e+00 -4.020797e+01
-4.983779e+09 -4.783780e+09 -4.943779e+09 -2.929718e+02 -2.773012e+01 1.446600e+01
-1.674853e+09 -1.474852e+09 -1.634852e+09 8.763609e+01 -6.621731e+00 -5.125029e+01
-4.996236e+09 -4.796235e+09 -4.956235e+09 3.134779e+01 4.023075e+01 2.362172e+01
-3.966537e+09 -3.766536e+09 -3.926536e+09 4.123822e+00 3.285414e+01 -6.437603e+01
-3.968614e+09 -3.768613e+09 -3.928613e+09 1.637405e+02 4.526446e+01 -3.680790e+01
-4.012878e+09 -3.812877e+09 -3.972877e+09 4.639673e+01 2.168054e+01 -9.895181e+00
-4.802031e+09 -4.602032e+09 -4.762031e+09 1.056268e+03 -2.458272e+01 -1.035200e+02
-4.479235e+09 -4.279234e+09 -4.439235e+09 3.669368e+02 3.536924e+00 -2.106758e+01
-2.158179e+09 -1.958178e+09 -2.118178e+09 5.615469e+01 -3.754796e+00 -1.569076e+01
-1.882166e+09 -1.682165e+09 -1.842165e+09 3.027733e+01 3.722814e+00 -3.100321e+01
-1.696866e+09 -1.496865e+09 -1.656865e+09 5.580120e+01 2.679791e+01 -3.948284e+01
-4.154991e+09 -3.954988e+09 -4.114989e+09 9.182555e+02 1.264203e+02 1.123923e+02
-3.513355e+09 -3.313354e+09 -3.473354e+09 7.078584e+01 2.880489e+00 -1.368469e+01
-4.855774e+09 -4.655773e+09 -4.815773e+09 4.155198e+02 -5.814349e+01 -1.043341e+02
-3.946337e+09 -3.746338e+09 -3.906338e+09 1.362627e+03 5.595228e+00 -4.094785e+01
-4.090730e+09 -3.890729e+09 -4.050729e+09 1.156067e+02 1.734520e+02 8.660344e+01
-5.005978e+09 -4.805979e+09 -4.965979e+09 -2.310537e+03 1.072155e+02 -2.334904e+02
-4.134973e+09 -3.934973e+09 -4.094974e+09 -1.890797e+03 -5.739414e+01 1.305417e+02
-3.976281e+09 -3.776281e+09 -3.936281e+09 -1.947636e+03 6.138389e+01 1.082007e+02
-3.976280e+09 -3.776281e+09 -3.936281e+09 -1.909018e+03 5.206720e+01 -2.198097e+02
-3.944314e+09 -3.744312e+09 -3.904314e+09 -2.576851e+03 4.142011e+01 8.715472e+02
-4.978752e+09 -4.778754e+09 -4.938751e+09 2.899152e+02 -7.480333e+01 -1.232930e+00
-4.822732e+09 -4.622735e+09 -4.782733e+09 -1.732742e+03 3.820940e+01 -6.501027e+02
-4.662927e+09 -4.462930e+09 -4.622926e+09 -1.879055e+03 1.055271e+02 -1.007574e+03
-4.477507e+09 -4.277509e+09 -4.437507e+09 -2.710258e+03 9.963414e+02 -7.880769e+01
-3.976463e+09 -3.776465e+09 -3.936463e+09 -1.777421e+03 8.156935e+01 4.250104e+01
-4.471464e+09 -4.271467e+09 -4.431465e+09 -9.677134e+02 1.644755e+02 -4.814324e+02
-1.965835e+09 -1.765837e+09 -1.925834e+09 6.992634e+01 2.104137e+01 2.305431e+01
-4.910276e+09 -4.710284e+09 -4.870282e+09 5.510662e+01 5.854559e+00 1.234768e+02
-4.368788e+09 -4.168795e+09 -4.328794e+09 2.275999e+02 -2.939637e+01 5.733194e+01
-1.635445e+09 -1.435448e+09 -1.595444e+09 8.772812e+01 2.777290e+01 7.209679e+01
-1.573319e+09 -1.373325e+09 -1.533320e+09 4.319665e+01 2.215307e+00 -3.137402e+01
-2.532916e+09 -2.332922e+09 -2.492917e+09 6.143316e+01 4.864482e+01 2.800498e+00
-4.633057e+09 -4.433062e+09 -4.593062e+09 2.803886e+02 -3.641167e+01 -1.857611e+02
-4.905166e+09 -4.705174e+09 -4.865172e+09 1.043993e+02 2.309136e+00 4.304861e-09
-3.448481e+09 -3.248478e+09 -3.408479e+09 2.970918e+02 3.927804e+02 -8.129152e+01
-4.991411e+09 -4.791418e+09 -4.951419e+09 1.522322e+02 7.416668e+02 -5.645762e+00
-4.311528e+09 -4.111535e+09 -4.271534e+09 1.048685e+03 1.428766e+03 -1.421210e+02
-4.335895e+09 -4.135901e+09 -4.295902e+09 2.121307e+03 1.870989e+03 -2.455273e+02
-2.763412e+09 -2.563413e+09 -2.723412e+09 1.593824e+01 1.287319e+01 -4.889906e+01
-3.968193e+09 -3.768199e+09 -3.928199e+09 -1.759688e+03 -2.026548e+03 -4.799402e+02
-4.992556e+09 -4.792561e+09 -4.952563e+09 -8.569253e+02 -7.793513e+02 -2.973023e+01
-2.685674e+09 -2.485674e+09 -2.645673e+09 -1.140123e+02 4.489319e+01 -9.266806e+01
-5.005328e+09 -4.805330e+09 -4.965328e+09 -9.047304e+02 3.843971e+01 4.899422e+00
-3.766758e+09 -3.566764e+09 -3.726759e+09 -2.417432e+01 1.306575e+01 -1.711851e+00
-3.072454e+09 -2.872459e+09 -3.032454e+09 7.535590e+02 2.984757e+02 -6.337689e+01
-4.905147e+09 -4.705153e+09 -4.865148e+09 4.864169e+01 1.243469e-04 2.166587e+00
-4.983418e+09 -4.783425e+09 -4.943423e+09 7.628153e+02 6.220263e+01 7.968785e+01
-3.400835e+09 -3.200836e+09 -3.360834e+09 -1.582887e+00 9.021054e+00 -1.039787e+02
-3.812157e+09 -3.612159e+09 -3.772157e+09 -2.674605e+02 -5.310438e+01 -8.614027e+01
-4.002835e+09 -3.802839e+09 -3.962840e+09 1.113980e+03 -4.158968e+01 -1.088599e+02
-4.627379e+09 -4.427382e+09 -4.587375e+09 1.813901e+03 1.849898e+01 -9.233244e+02
-1.578864e+09 -1.378867e+09 -1.538864e+09 4.189160e+02 1.181010e+02 -4.323778e+00
-2.630715e+09 -2.430716e+09 -2.590714e+09 6.175209e+02 6.524478e+01 1.599158e+01
-4.112513e+09 -3.912514e+09 -4.072512e+09 2.633546e+02 1.084911e+01 -1.350740e+01
-4.469001e+09 -4.269001e+09 -4.428997e+09 2.581922e+03 -1.627031e+02 -8.173921e+02
-2.898836e+09 -2.698835e+09 -2.858835e+09 3.821365e+01 2.371236e+01 -4.317643e+01
-1.960354e+09 -1.760353e+09 -1.920353e+09 -2.266682e+01 7.797873e+00 -5.631395e+01
-4.031548e+09 -3.831547e+09 -3.991547e+09 2.051713e+01 -2.135799e+00 -2.657895e+01
-4.319131e+09 -4.119126e+09 -4.279128e+09 2.262445e+03 -1.459862e+02 7.385240e+01
-1.917710e+09 -1.717711e+09 -1.877709e+09 -8.369498e+01 -4.789979e+01 -9.221680e+01
-3.956434e+09 -3.756431e+09 -3.916424e+09 3.120195e+03 -2.327035e+03 -9.803963e+02
-1.632568e+09 -1.432568e+09 -1.592566e+09 1.336783e+02 4.594403e+01 1.245904e+01
-4.623484e+09 -4.423486e+09 -4.583484e+09 -6.284691e+02 -4.399076e+00 -6.662244e+01
-4.003026e+09 -3.803010e+09 -3.963036e+09 -1.981663e+03 5.574487e+03 -4.821347e+02
-4.269457e+09 -4.069450e+09 -4.229464e+09 -2.870279e+03 -1.931369e+03 7.906012e+02
-1.585608e+09 -1.385610e+09 -1.545608e+09 -2.304369e+02 1.196976e+02 -1.457572e+02
-3.923393e+09 -3.723393e+09 -3.883392e+09 -6.393817e+02 -5.924952e+01 -9.981345e+01
-4.498005e+09 -4.297999e+09 -4.457997e+09 -4.449868e+03 2.229949e+03 -1.739488e+03
-1.585609e+09 -1.385609e+09 -1.545608e+09 -1.770391e+02 -1.788586e+02 -1.520046e+02
-3.540476e+09 -3.340476e+09 -3.500475e+09 -6.471919e+02 2.216562e+02 4.539634e+00
-3.397181e+09 -3.197183e+09 -3.357181e+09 -7.534510e+00 3.387033e+00 -9.145249e+01
-3.228722e+09 -3.028722e+09 -3.188721e+09 -4.358722e+02 3.660553e+00 -1.136341e+02
-2.116831e+09 -1.916829e+09 -2.076830e+09 -3.695364e+01 -6.547509e+00 -4.290337e+01
-4.802577e+09 -4.602565e+09 -4.762543e+09 7.986540e+02 6.270476e+03 -2.653956e+03
-2.537515e+09 -2.337513e+09 -2.497514e+09 -3.748735e+01 -6.851110e+00 -3.175394e+01
-4.506088e+09 -4.306073e+09 -4.466077e+09 -1.182180e+03 1.728473e+03 6.700725e+02
-2.120998e+09 -1.920998e+09 -2.080998e+09 9.476256e+00 1.369110e+01 -2.272579e+00
-1.855513e+09 -1.655514e+09 -1.815514e+09 -6.681802e-01 3.668822e+01 2.361659e+00
-2.129365e+09 -1.929366e+09 -2.089366e+09 1.799008e+01 1.526159e+01 -1.008388e+00
-1.781882e+09 -1.581883e+09 -1.741882e+09 1.638652e+02 1.661886e+01 -2.870935e+01
-4.113792e+09 -3.913776e+09 -4.073776e+09 2.969540e+03 8.538072e+03 -1.692554e+03
-4.485071e+09 -4.285058e+09 -4.445070e+09 -1.686356e+03 1.182842e+03 -2.700400e+02
-4.977596e+09 -4.777593e+09 -4.937594e+09 -1.152579e+02 4.615910e+01 7.436103e+01
-4.994047e+09 -4.794045e+09 -4.954046e+09 -5.222617e+02 1.145914e+01 4.143771e+01
-2.192817e+09 -1.992818e+09 -2.152818e+09 2.880935e+02 3.169703e+01 9.358009e+00
-3.948832e+09 -3.748830e+09 -3.908831e+09 -4.049765e+01 7.830513e+01 -5.911912e+01
-1.636320e+09 -1.436322e+09 -1.596319e+09 3.909920e+01 -1.015011e+02 -9.020313e+01
-3.017377e+09 -2.817379e+09 -2.977377e+09 8.981162e+02 -6.012887e+02 2.752408e+02
-4.466855e+09 -4.266852e+09 -4.426867e+09 -2.156728e+03 -3.666537e+03 -6.585780e+02
-4.519221e+09 -4.319212e+09 -4.479221e+09 7.799566e+02 -1.642994e+02 -1.283024e+03
-3.106215e+09 -2.906220e+09 -3.066217e+09 -1.490070e+03 -1.460754e+03 -2.190228e+02
-1.673946e+09 -1.473951e+09 -1.633947e+09 -1.781574e+03 -1.456647e+03 -4.096291e+02
-4.126928e+09 -3.926916e+09 -4.086930e+09 2.068816e+03 -4.032312e+02 -1.879776e+03
-3.956282e+09 -3.756264e+09 -3.916230e+09 4.301126e+03 1.534522e+04 1.586431e+03
-4.475867e+09 -4.275868e+09 -4.435868e+09 -7.834524e+02 -3.324637e+01 -1.243387e+01
-4.621136e+09 -4.421142e+09 -4.581137e+09 3.241455e+02 9.619452e+01 -2.894622e+01
-3.978461e+09 -3.778467e+09 -3.938462e+09 9.773395e+02 2.969099e+02 -4.304293e+01
-4.509827e+09 -4.309818e+09 -4.469787e+09 2.588155e+03 -1.148332e+03 -3.029390e+02
-4.103536e+09 -3.903542e+09 -4.063537e+09 5.870653e+02 4.588317e+01 -6.494308e+00
-2.933820e+09 -2.733826e+09 -2.893821e+09 5.977682e+02 2.048057e+02 -3.539535e+01
-4.160412e+09 -3.960419e+09 -4.120414e+09 1.214878e+02 4.587209e+02 -3.850293e+01
-4.230817e+09 -4.030801e+09 -4.190832e+09 2.558341e+03 2.633661e+03 5.851349e+02
-1.665330e+09 -1.465332e+09 -1.625333e+09 -1.071755e+03 2.768468e+02 5.603757e+02
-4.450033e+09 -4.250026e+09 -4.410037e+09 -2.390850e+03 1.513919e+03 -7.757348e+02
-4.617026e+09 -4.417031e+09 -4.577027e+09 1.036446e+03 5.816120e+01 -5.699900e+01
-1.586693e+09 -1.386702e+09 -1.546695e+09 -2.754579e+02 -1.284255e+03 5.060435e+01
-3.928569e+09 -3.728571e+09 -3.888572e+09 -2.067532e+03 -2.955037e+01 2.552754e+02
-3.992531e+09 -3.792535e+09 -3.952534e+09 -1.773393e+03 -1.310386e+03 -4.459499e+02
-1.597192e+09 -1.397190e+09 -1.557190e+09 -8.062857e+02 -6.114255e+02 -7.587625e+01
-2.981850e+09 -2.781848e+09 -2.941850e+09 -1.098781e+03 -1.524072e+03 -8.243738e+02
-2.924018e+09 -2.724025e+09 -2.884022e+09 -1.441982e+03 -2.413032e+03 -3.225121e+02
-1.872242e+09 -1.672252e+09 -1.832245e+09 5.181654e+02 -2.405052e+03 3.370269e+02
-3.409056e+09 -3.209063e+09 -3.369061e+09 -9.265694e+02 -2.308475e+03 -1.072892e+02
-2.068511e+09 -1.868519e+09 -2.028513e+09 -1.896910e+02 -7.727532e+02 6.512613e+01
-1.579473e+09 -1.379473e+09 -1.539473e+09 8.123654e+01 4.623318e+01 -3.887024e+00
-4.966837e+09 -4.766843e+09 -4.926840e+09 -1.949126e+03 -8.664575e+01 3.096317e+02
-3.608002e+09 -3.408001e+09 -3.568001e+09 9.979888e+01 3.529290e+00 -2.126026e+01
-3.409931e+09 -3.209936e+09 -3.369934e+09 -2.117712e+03 -2.894357e+02 8.918140e+02
-3.409930e+09 -3.209933e+09 -3.369933e+09 -3.115503e+03 -4.537849e+02 8.419588e+02
-2.184859e+09 -1.984859e+09 -2.144863e+09 3.297752e+03 3.688874e+02 -5.034597e+02
-2.079081e+09 -1.879081e+09 -2.039081e+09 2.668522e+02 3.602564e+01 -1.584858e+00
-4.905147e+09 -4.705148e+09 -4.865148e+09 9.940983e+00 -1.363550e+01 -4.974041e-05
-2.499778e+09 -2.299779e+09 -2.459779e+09 4.140064e+01 6.398762e+01 4.601510e-01
-2.880172e+09 -2.680175e+09 -2.840176e+09 6.293701e+02 -3.003679e+02 1.294845e+02
-2.979101e+09 -2.779100e+09 -2.939101e+09 7.795071e+01 1.553663e+01 2.282821e+00
-2.196055e+09 -1.996054e+09 -2.156055e+09 -1.010338e+02 -6.478153e+02 -4.296159e+02
-4.995068e+09 -4.795066e+09 -4.955066e+09 -3.969730e+02 -4.732371e+01 -5.789102e+01
-1.910195e+09 -1.710192e+09 -1.870194e+09 -2.628261e+02 -6.982393e+02 -1.044638e+02
-1.693006e+09 -1.493004e+09 -1.653004e+09 -1.974896e+02 -5.456123e+02 -4.617133e+01
-1.887125e+09 -1.687122e+09 -1.847123e+09 -5.360334e+02 -6.002658e+02 -2.030173e+02
-3.093865e+09 -2.893862e+09 -3.053863e+09 -1.160511e+02 -4.548889e+02 -2.997834e+01
-1.636086e+09 -1.436089e+09 -1.596086e+09 -2.169921e+01 2.369629e+01 -1.307795e+02
-1.898842e+09 -1.698846e+09 -1.858842e+09 -5.952822e+01 5.805254e+01 -8.936384e+01
-3.660821e+09 -3.460819e+09 -3.620820e+09 9.733965e+02 3.914022e+02 -1.668754e+02
-3.830626e+09 -3.630625e+09 -3.790625e+09 -5.986149e+01 -4.029125e+00 -3.398240e+01
-4.017736e+09 -3.817735e+09 -3.977735e+09 -7.777089e+01 -4.288435e+00 -1.141508e+01
-3.043312e+09 -2.843312e+09 -3.003311e+09 1.972702e+03 7.579556e+02 -2.691106e+02
-2.944353e+09 -2.744354e+09 -2.904355e+09 1.037077e+01 2.225584e+02 3.723839e+01
-3.422432e+09 -3.222432e+09 -3.382432e+09 5.874975e+02 -2.618008e+02 1.479794e+02
-2.104280e+09 -1.904285e+09 -2.064284e+09 -5.136048e+02 8.944635e+01 -1.854755e+02
-4.716876e+09 -4.516880e+09 -4.676877e+09 -3.951822e+02 1.309119e+02 5.161824e+01
-3.445320e+09 -3.245316e+09 -3.405318e+09 6.999064e+02 3.768115e+02 -1.783466e+02
-4.890118e+09 -4.690116e+09 -4.850118e+09 1.852515e+02 8.746595e+01 2.893428e-07
-4.709348e+09 -4.509346e+09 -4.669349e+09 -3.280847e+02 1.344164e+02 -2.985579e+02
-1.785625e+09 -1.585624e+09 -1.745623e+09 1.019876e+02 -1.127973e+02 -1.116257e+02
-3.657625e+09 -3.457627e+09 -3.617625e+09 2.342581e+01 -7.928529e+01 -1.824292e+01
-4.695883e+09 -4.495885e+09 -4.655883e+09 2.306165e+02 1.349235e+02 -4.317296e+01
-3.747974e+09 -3.547976e+09 -3.707977e+09 -8.607127e+02 1.042556e+02 -1.493139e+02
-4.656699e+09 -4.456700e+09 -4.616698e+09 -1.279955e+03 -8.002604e+01 -3.857962e+01
-3.667430e+09 -3.467428e+09 -3.627430e+09 1.296618e+02 3.104141e+02 -6.729237e+01
-1.587222e+09 -1.387225e+09 -1.547222e+09 -6.078437e+02 7.013296e+00 -1.432627e+02
-4.311940e+09 -4.111943e+09 -4.271943e+09 -2.505203e+03 9.493361e+02 3.362674e+02
-4.138021e+09 -3.938028e+09 -4.098026e+09 4.573733e+02 1.043059e+03 -8.330345e+01
-4.992384e+09 -4.792388e+09 -4.952392e+09 -1.620047e+03 6.933281e+02 1.700663e+02
-4.812904e+09 -4.612908e+09 -4.772916e+09 -5.420076e+02 2.158848e+03 8.085809e+01
-3.961017e+09 -3.761019e+09 -3.921018e+09 -9.109380e+02 -7.084233e+00 3.866456e+01
-4.829021e+09 -4.629023e+09 -4.789023e+09 -5.897332e+02 1.120533e+01 -1.013302e+02
-4.845688e+09 -4.645687e+09 -4.805687e+09 2.385434e+02 3.709461e+01 4.394779e+01
-4.986280e+09 -4.786279e+09 -4.946279e+09 6.120667e+01 -1.294580e+01 1.677523e+01
-4.464318e+09 -4.264325e+09 -4.424327e+09 -1.058644e+02 1.836370e+03 -3.139259e+02
-3.956582e+09 -3.756581e+09 -3.916581e+09 3.640557e+01 1.908809e+01 -5.107174e+01
-4.483406e+09 -4.283405e+09 -4.443405e+09 1.904126e+01 2.027955e+00 -1.689641e+01
-3.984694e+09 -3.784696e+09 -3.944694e+09 2.245643e+03 4.360826e+02 -7.966500e+01
-3.970789e+09 -3.770792e+09 -3.930798e+09 -1.774239e+03 -2.917884e+03 -4.866289e+02
-4.143763e+09 -3.943765e+09 -4.103771e+09 -1.859081e+03 -3.090993e+03 -6.229139e+02
-3.984694e+09 -3.784697e+09 -3.944694e+09 2.508942e+03 4.798255e+02 -1.095504e+02
-3.984694e+09 -3.784697e+09 -3.944694e+09 2.039921e+03 5.237628e+02 -9.877452e+01
-4.322910e+09 -4.122894e+09 -4.282902e+09 -4.951764e+03 2.774914e+03 -5.332371e+03
-3.963486e+09 -3.763488e+09 -3.923498e+09 -1.711762e+03 -3.714802e+03 -2.963872e+02
-4.997659e+09 -4.797656e+09 -4.957667e+09 -1.646448e+03 -1.776532e+03 -4.950161e+02
-1.835767e+09 -1.635769e+09 -1.795768e+09 -5.908099e+01 -1.069182e+01 1.446220e+01
-4.158682e+09 -3.958681e+09 -4.118690e+09 -1.746302e+03 -2.792952e+03 -9.236834e+02
-4.815888e+09 -4.615888e+09 -4.775891e+09 1.182813e+03 -3.148606e+02 5.463296e+02
-4.655095e+09 -4.455100e+09 -4.615096e+09 1.728021e+03 4.563715e+01 -1.221409e+02
-4.634952e+09 -4.434952e+09 -4.594952e+09 3.180888e+02 -7.384435e+00 3.515009e+00
-3.005160e+09 -2.805162e+09 -2.965161e+09 1.537623e+03 -8.206671e+02 6.244248e+02
-4.696951e+09 -4.496950e+09 -4.656951e+09 2.424259e+02 1.553141e+01 -4.906454e+00
-4.474054e+09 -4.274053e+09 -4.434057e+09 1.021287e+03 -7.901583e+02 5.805161e+02
-5.003338e+09 -4.803339e+09 -4.963340e+09 1.371027e+03 -2.322554e+02 1.160782e+02
-5.003337e+09 -4.803340e+09 -4.963340e+09 1.129349e+03 -1.890255e+02 8.270266e+01
-4.984537e+09 -4.784537e+09 -4.944541e+09 1.171116e+03 -7.468562e+02 4.333953e+02
-3.954839e+09 -3.754840e+09 -3.914842e+09 1.866203e+03 -1.512563e+03 1.045315e+03
-4.860466e+09 -4.660465e+09 -4.820465e+09 2.329018e+02 -2.266799e+01 -4.883717e+01
-3.358454e+09 -3.158454e+09 -3.318456e+09 -1.332099e+03 1.289668e+02 -1.119175e+01
-3.953349e+09 -3.753344e+09 -3.913345e+09 -5.044782e+03 -2.814431e+03 8.638836e+02
-4.472391e+09 -4.272383e+09 -4.432389e+09 -4.360485e+03 -1.287566e+03 -6.045385e+02
-4.314968e+09 -4.114970e+09 -4.274969e+09 4.304695e+02 -1.501220e+01 -5.108006e+01
-5.014512e+09 -4.814513e+09 -4.974513e+09 3.477592e+02 4.389776e+00 1.892309e+01
-3.966199e+09 -3.766191e+09 -3.926187e+09 -6.750819e+03 -7.245508e+03 2.256304e+03
-3.129609e+09 -2.929608e+09 -3.089608e+09 9.170492e+01 -5.453708e+01 -5.864052e+01
-4.647375e+09 -4.447373e+09 -4.607375e+09 -8.740032e+02 -9.755127e+01 5.919261e+01
-4.981707e+09 -4.781711e+09 -4.941708e+09 -3.527252e+02 2.879591e+01 2.125580e+01
-4.616414e+09 -4.416419e+09 -4.576415e+09 -5.676444e+02 1.969630e+01 -4.332833e+01
-4.504301e+09 -4.304300e+09 -4.464301e+09 -1.407334e+03 -5.864752e+01 3.303063e+01
-4.134275e+09 -3.934266e+09 -4.094268e+09 4.065589e+03 -3.506572e+03 -1.931706e+02
-3.961135e+09 -3.761133e+09 -3.921134e+09 -7.140254e+02 -1.448063e+02 5.900873e+01
-4.135602e+09 -3.935601e+09 -4.095602e+09 -1.051291e+03 -3.017047e+01 -8.357592e+01
-3.428617e+09 -3.228619e+09 -3.388617e+09 -5.706758e+02 -9.833747e+00 5.351569e+00
-4.646026e+09 -4.446025e+09 -4.606025e+09 -1.016227e+03 -9.301614e+01 6.493471e+01
-4.690166e+09 -4.490166e+09 -4.650167e+09 -1.282609e+03 -6.915956e+01 7.776929e+01
-4.478834e+09 -4.278834e+09 -4.438834e+09 -1.001039e+03 -1.852119e+01 2.668771e+01
-4.843781e+09 -4.643780e+09 -4.803781e+09 -8.124286e+02 -4.424938e+01 -1.083512e+01
-1.674853e+09 -1.474853e+09 -1.634853e+09 9.522909e+00 3.548374e+01 -6.491563e+01
-1.692443e+09 -1.492442e+09 -1.652442e+09 1.065139e+02 2.770208e+01 -4.388451e+01
-2.179188e+09 -1.979190e+09 -2.139189e+09 7.871717e+01 -3.796067e+00 3.254006e+01
-4.453405e+09 -4.253408e+09 -4.413406e+09 1.809198e+02 2.036132e+01 -9.134738e+01
-4.106001e+09 -3.906004e+09 -4.066003e+09 2.182234e+02 5.647090e+01 -1.182380e+02
-2.016560e+09 -1.816559e+09 -1.976559e+09 3.724455e+01 2.773517e+01 -6.735848e+01
-2.756634e+09 -2.556639e+09 -2.716634e+09 4.012584e+02 1.010513e+02 2.565289e+01
-3.955412e+09 -3.755399e+09 -3.915351e+09 5.256068e+02 -1.302156e+04 6.990803e+02
-4.658281e+09 -4.458275e+09 -4.618228e+09 1.929051e+01 5.847055e+02 -1.442048e+02
-4.129737e+09 -3.929727e+09 -4.089693e+09 -2.107469e+03 -1.028072e+04 5.991799e+03
-4.976697e+09 -4.776703e+09 -4.936698e+09 5.440894e+02 1.769906e+01 4.124707e+01
-4.457393e+09 -4.257388e+09 -4.417394e+09 -1.726474e+03 6.385977e+02 5.317512e+02
-4.786800e+09 -4.586804e+09 -4.746800e+09 9.343209e+02 -8.664639e+01 2.993118e+01
-4.128242e+09 -3.928248e+09 -4.088244e+09 1.546953e+03 8.153554e+01 -2.854192e+01
-4.663962e+09 -4.463955e+09 -4.623963e+09 -1.351515e+03 6.622913e+02 1.061009e+03
-4.649563e+09 -4.449560e+09 -4.609567e+09 -2.416172e+03 1.725380e+03 3.632710e+02
-3.977496e+09 -3.777489e+09 -3.937495e+09 -1.942185e+03 -1.483144e+02 1.641736e+03
-4.622868e+09 -4.422863e+09 -4.582867e+09 -1.333473e+02 -8.914690e+00 1.981399e+02
-3.960256e+09 -3.760249e+09 -3.920254e+09 5.134723e+02 -5.634027e+02 1.241096e+03
-3.956431e+09 -3.756432e+09 -3.916424e+09 2.562422e+03 -8.322489e+02 -2.352999e+03
-4.118801e+09 -3.918798e+09 -4.078802e+09 -2.508760e+03 8.205482e+02 8.965711e+02
-3.963097e+09 -3.763093e+09 -3.923098e+09 -2.105774e+03 7.013955e+02 7.328545e+02
-4.320729e+09 -4.120721e+09 -4.280730e+09 -1.259035e+03 3.855200e+02 1.005049e+03
-4.974933e+09 -4.774925e+09 -4.934927e+09 1.753562e+03 -7.993596e+02 4.905956e+02
-4.631701e+09 -4.431688e+09 -4.591706e+09 3.919686e+03 -1.511134e+03 -1.352055e+03
-4.983067e+09 -4.783067e+09 -4.943066e+09 -1.131805e+02 1.044498e-01 1.565533e+01
-3.945175e+09 -3.745175e+09 -3.905174e+09 2.808242e+01 3.909836e+01 -2.815282e+01
-4.820743e+09 -4.620735e+09 -4.780749e+09 3.342557e+03 2.732704e+03 1.071547e+03
-3.946553e+09 -3.746552e+09 -3.906552e+09 8.109785e+02 8.025428e+01 -3.420153e+01
-3.477365e+09 -3.277366e+09 -3.437364e+09 -8.526902e+02 3.381109e+01 -3.239045e+01
-4.495006e+09 -4.295008e+09 -4.455005e+09 -1.319390e+03 5.643223e+01 -7.258175e+00
-4.002316e+09 -3.802315e+09 -3.962315e+09 5.391603e+02 7.360459e+01 -5.982794e+01
-3.303690e+09 -3.103690e+09 -3.263689e+09 -8.404337e+01 1.229522e+02 -5.762516e+01
-4.483427e+09 -4.283425e+09 -4.443426e+09 7.282473e+02 -2.010158e+01 -6.626555e+01
-3.002143e+09 -2.802145e+09 -2.962142e+09 -4.072922e+02 9.361282e+01 -6.890144e+01
-4.817503e+09 -4.617503e+09 -4.777503e+09 6.942887e+02 -2.938131e+00 -1.881210e+01
-4.830680e+09 -4.630679e+09 -4.790679e+09 4.844530e+02 1.381344e+02 1.362129e+02
-1.698309e+09 -1.498309e+09 -1.658308e+09 -5.614993e+02 1.600434e+01 -1.493738e+02
-5.032014e+09 -4.832013e+09 -4.992014e+09 4.420504e+02 -1.114820e+02 -7.304057e+01
-4.157824e+09 -3.957823e+09 -4.117824e+09 7.897195e+02 -1.985411e+01 -8.303124e+01
-2.489796e+09 -2.289797e+09 -2.449795e+09 -4.293127e+02 4.650473e+01 -1.467666e+02
-2.958502e+09 -2.758502e+09 -2.918501e+09 -5.693723e+02 5.551434e+01 -8.755366e+01
-5.006876e+09 -4.806875e+09 -4.966875e+09 8.938807e+02 -1.385150e+02 -1.207972e+02
-1.895527e+09 -1.695528e+09 -1.855526e+09 -6.178341e+02 -3.441334e+01 -1.346385e+02
-4.130809e+09 -3.930809e+09 -4.090809e+09 -6.071626e+02 -5.470013e+01 2.021757e+01
-4.653452e+09 -4.453452e+09 -4.613452e+09 -4.488311e+02 -3.306778e+01 1.367493e+01
-4.994003e+09 -4.794003e+09 -4.954003e+09 -4.598688e+02 -1.461181e+00 -7.429593e+01
-4.772325e+09 -4.572324e+09 -4.732325e+09 -3.454685e+02 -2.814897e+01 2.825426e+01
-4.963016e+09 -4.763016e+09 -4.923016e+09 -4.373138e+02 7.965340e+00 -1.187651e+01
-4.989406e+09 -4.789402e+09 -4.949408e+09 2.035749e+03 4.063216e+02 -3.206421e+02
-4.995716e+09 -4.795709e+09 -4.955718e+09 2.687447e+02 3.064823e+02 -3.476259e+02
-3.959709e+09 -3.759705e+09 -3.919710e+09 2.807157e+03 1.293517e+03 -1.019802e+03
-4.995718e+09 -4.795712e+09 -4.955719e+09 1.278437e+03 3.042092e+02 -3.463848e+02
-4.139922e+09 -3.939918e+09 -4.099922e+09 1.929931e+03 9.033478e+02 -1.084280e+03
-4.993862e+09 -4.793860e+09 -4.953863e+09 2.754760e+03 3.047075e+02 -2.438424e+02
-4.989407e+09 -4.789403e+09 -4.949409e+09 2.490542e+03 2.834330e+02 -2.734711e+02
-1.964736e+09 -1.764737e+09 -1.924737e+09 -3.391555e+02 -2.041662e+01 9.240846e+00
-4.140257e+09 -3.940255e+09 -4.100257e+09 2.614570e+03 8.066197e+02 -2.397975e+02
-3.964163e+09 -3.764163e+09 -3.924165e+09 3.003929e+03 1.075198e+03 -5.673719e+02
-4.131588e+09 -3.931590e+09 -4.091596e+09 3.524621e+03 2.628647e+03 -1.677922e+03
-1.676536e+09 -1.476537e+09 -1.636537e+09 -3.682435e+02 -5.892990e+01 2.518713e+01
-4.818113e+09 -4.618113e+09 -4.778112e+09 1.937093e+03 -7.501656e+00 6.997609e+01
-4.715229e+09 -4.515234e+09 -4.675229e+09 -7.430434e+01 -7.212083e+00 -3.114817e+00
-5.002332e+09 -4.802338e+09 -4.962334e+09 1.151650e+03 2.183397e+02 5.919529e+01
-4.305345e+09 -4.105351e+09 -4.265347e+09 7.937050e+01 1.857659e+02 1.069161e+01
-4.297597e+09 -4.097598e+09 -4.257598e+09 -9.124384e+02 -2.681344e+00 -1.871618e+01
-5.004139e+09 -4.804146e+09 -4.964141e+09 3.237113e+01 3.455796e+00 5.308758e+01
-4.119374e+09 -3.919380e+09 -4.079376e+09 -6.870019e+01 6.932616e+01 -4.603368e+01
-3.966662e+09 -3.766669e+09 -3.926664e+09 3.212632e+02 6.594438e+02 -8.211989e+01
-3.960712e+09 -3.760713e+09 -3.920713e+09 -8.401819e+02 -7.427477e+01 6.240273e+01
-5.006712e+09 -4.806718e+09 -4.966714e+09 3.108336e+02 5.643332e+01 2.881342e+01
-2.798398e+09 -2.598404e+09 -2.758399e+09 -7.454330e+00 1.567735e+01 -7.861102e+00
-4.777015e+09 -4.577017e+09 -4.737017e+09 3.062854e+01 3.118734e+00 1.005260e+01
-1.868246e+09 -1.668245e+09 -1.828246e+09 -1.069557e+02 -3.718105e+01 -8.146984e+00
-4.603030e+09 -4.403030e+09 -4.563030e+09 -3.195349e+02 -3.290285e+01 -1.154270e+00
-2.911541e+09 -2.711540e+09 -2.871540e+09 -1.123462e+01 -8.527678e+00 -1.145715e-01
-4.575929e+09 -4.375928e+09 -4.535928e+09 1.289236e+02 9.462163e+00 6.765823e+00
-2.691472e+09 -2.491473e+09 -2.651473e+09 2.537193e+02 1.663714e+01 3.132305e+01
-4.693405e+09 -4.493405e+09 -4.653405e+09 5.307835e+01 4.940226e+00 -2.854734e+01
-3.428830e+09 -3.228830e+09 -3.388830e+09 9.046918e+01 1.651776e+01 5.577991e+01
-4.892161e+09 -4.692161e+09 -4.852161e+09 8.720910e+00 -1.145454e+01 -4.973978e-05
-4.892132e+09 -4.692134e+09 -4.852133e+09 1.070138e+01 -8.245900e+00 -4.973957e-05
-2.707858e+09 -2.507867e+09 -2.667861e+09 6.077390e+01 -1.008222e+03 7.729163e+01
-4.829775e+09 -4.629782e+09 -4.789779e+09 1.588045e+02 -4.828766e+02 -2.803918e+01
-1.586694e+09 -1.386704e+09 -1.546696e+09 -2.914656e+02 -2.014417e+03 5.288376e+01
-1.818478e+09 -1.618486e+09 -1.778480e+09 1.456417e+02 -1.016154e+03 1.669824e+02
-3.781746e+09 -3.581749e+09 -3.741749e+09 2.086242e+03 5.492896e+01 -2.582885e+02
-4.679211e+09 -4.479211e+09 -4.639209e+09 3.056749e+02 5.143426e+01 -3.251226e+01
-1.584616e+09 -1.384622e+09 -1.544622e+09 5.937370e+02 1.573577e+01 -7.399469e+01
-1.581551e+09 -1.381551e+09 -1.541553e+09 1.375329e+03 1.705109e+02 7.008141e+01
-2.775387e+09 -2.575385e+09 -2.735385e+09 1.615752e+02 3.625310e+02 -1.069804e+01
-2.511523e+09 -2.311520e+09 -2.471523e+09 2.340864e+02 -8.440299e+02 -1.042489e+03
-1.636028e+09 -1.436027e+09 -1.596026e+09 2.839408e+02 2.326474e+02 -1.962764e+01
-3.511223e+09 -3.311224e+09 -3.471226e+09 9.830386e+01 -1.917289e+02 5.566228e+00
-2.057908e+09 -1.857913e+09 -2.017914e+09 2.503849e+03 -6.066762e+01 1.293032e+03
-4.674937e+09 -4.474936e+09 -4.634935e+09 2.623792e+02 2.739718e+00 2.786904e+01
-4.980409e+09 -4.780408e+09 -4.940407e+09 3.485949e+02 1.496251e+02 -1.695705e+01
-2.070895e+09 -1.870891e+09 -2.030893e+09 -1.109401e+03 -1.259329e+03 -9.117626e+02
-3.487364e+09 -3.287364e+09 -3.447362e+09 1.416119e+03 1.665868e+02 -1.121608e+02
-4.007723e+09 -3.807722e+09 -3.967721e+09 3.291450e+02 1.074715e+02 -5.175748e+01
-2.218570e+09 -2.018570e+09 -2.178568e+09 6.205202e+01 5.561240e+01 1.066203e+01
-4.463322e+09 -4.263319e+09 -4.423322e+09 1.337642e+02 -2.764102e+02 -5.498744e+01
-3.907901e+09 -3.707898e+09 -3.867901e+09 -6.027790e+02 -7.204601e+02 -3.938139e+02
-2.997714e+09 -2.797713e+09 -2.957712e+09 1.003557e+03 3.092087e+02 -1.407802e+02
-3.704611e+09 -3.504611e+09 -3.664610e+09 9.454679e+02 2.032788e+02 -7.931173e+01
-3.812503e+09 -3.612502e+09 -3.772502e+09 1.459961e+03 3.462137e+02 -8.048333e+01
-4.980409e+09 -4.780408e+09 -4.940407e+09 8.958071e+02 -3.733146e+01 -2.463702e+01
-3.933319e+09 -3.733324e+09 -3.893319e+09 1.717453e+01 2.133884e+01 -2.924838e+01
-1.610698e+09 -1.410702e+09 -1.570698e+09 -2.824709e+02 -5.561773e+00 -1.411930e+02
-1.623424e+09 -1.423421e+09 -1.583422e+09 -7.503064e+02 -1.061896e+03 -3.849592e+02
-2.237902e+09 -2.037908e+09 -2.197903e+09 -5.339622e+01 -2.088843e+01 -5.543606e+01
-4.965674e+09 -4.765680e+09 -4.925675e+09 -1.315278e+01 1.735898e+01 1.191737e+01
-2.757933e+09 -2.557932e+09 -2.717932e+09 2.691233e+01 7.491188e+00 -2.950582e+01
-4.347221e+09 -4.147227e+09 -4.307223e+09 -4.229568e+02 1.077268e+02 2.582290e+01
-4.329884e+09 -4.129890e+09 -4.289886e+09 -4.798040e+02 1.277102e+02 4.631844e+01
-5.000319e+09 -4.800324e+09 -4.960320e+09 -8.666494e+02 6.714410e+01 2.716065e+01
-2.628675e+09 -2.428680e+09 -2.588675e+09 2.155157e+01 2.772527e+01 -2.755120e+01
-4.440163e+09 -4.240161e+09 -4.400162e+09 -7.191867e+02 -2.095391e+02 -5.376504e+01
-3.248086e+09 -3.048084e+09 -3.208085e+09 -1.020956e+03 -6.946404e+02 -2.776649e+02
-3.533352e+09 -3.333354e+09 -3.493352e+09 -1.710750e+03 -9.276019e+02 -3.893712e+02
-2.376187e+09 -2.176192e+09 -2.336187e+09 9.537999e+01 3.214446e+01 -2.256491e+01
-1.573319e+09 -1.373324e+09 -1.533320e+09 -1.677655e+01 -1.290027e+01 -4.419060e+01
-4.897083e+09 -4.697082e+09 -4.857081e+09 -2.466338e+01 9.178418e-09 -2.084027e+01
-4.298645e+09 -4.098643e+09 -4.258643e+09 -2.700890e+02 -1.169307e+02 -3.187404e+01
-4.122149e+09 -3.922159e+09 -4.082150e+09 6.818042e+02 2.700223e+02 3.492414e+03
-2.258185e+09 -2.058183e+09 -2.218183e+09 -3.829858e+02 -3.049996e+02 -3.208322e+01
-4.621286e+09 -4.421285e+09 -4.581285e+09 -1.413485e+02 7.536062e+01 -8.436907e+00
-2.012678e+09 -1.812683e+09 -1.972678e+09 3.526628e+01 3.448725e+01 -6.849294e+00
-3.954971e+09 -3.754974e+09 -3.914975e+09 6.366421e+02 -1.976466e+01 -5.421820e+01
-1.636280e+09 -1.436285e+09 -1.596280e+09 6.362156e+01 3.502026e+01 1.398806e+01
-4.790962e+09 -4.590959e+09 -4.750964e+09 1.006857e+03 -2.346125e+02 -4.796618e+02
-3.093339e+09 -2.893345e+09 -3.053343e+09 1.697637e+03 -2.124396e+02 7.719696e+02
-2.604760e+09 -2.404763e+09 -2.564760e+09 -2.502408e+01 -4.233200e-01 -1.645825e+02
-1.934263e+09 -1.734265e+09 -1.894263e+09 -1.266334e+02 -5.739518e+01 -1.098842e+02
-3.170449e+09 -2.970453e+09 -3.130449e+09 -3.318002e+02 7.412114e+00 -4.598007e+01
-4.990199e+09 -4.790200e+09 -4.950198e+09 -7.906411e+02 -1.103720e+02 -2.594662e+01
-3.001755e+09 -2.801756e+09 -2.961754e+09 -7.183677e+02 8.321830e+01 -1.007038e+02
-3.962151e+09 -3.762152e+09 -3.922150e+09 -8.308639e+02 -5.273657e+01 -7.705163e+01
-4.831551e+09 -4.631553e+09 -4.791551e+09 -8.067156e+02 1.427954e+02 7.876656e+00
-1.678996e+09 -1.478995e+09 -1.638997e+09 2.350474e+02 5.749900e+02 -1.727586e+02
-4.627005e+09 -4.427006e+09 -4.587004e+09 8.671339e+02 2.189323e+01 -1.162551e+01
-4.128804e+09 -3.928805e+09 -4.088805e+09 1.241295e+03 -7.143945e+00 -4.196389e+01
-3.957996e+09 -3.757997e+09 -3.917997e+09 1.716760e+03 -7.374408e+01 -4.677649e+01
-4.820742e+09 -4.620741e+09 -4.780740e+09 1.491557e+03 -6.846482e+01 -3.983813e+02
-4.477509e+09 -4.277508e+09 -4.437508e+09 1.564948e+03 -3.071282e+00 -4.474690e+02
-4.475165e+09 -4.275168e+09 -4.435168e+09 2.971548e+03 9.923707e+02 -3.832814e+02
-4.934386e+09 -4.734388e+09 -4.894385e+09 6.771629e+02 5.691349e+01 1.682240e+01
-3.967542e+09 -3.767538e+09 -3.927541e+09 2.408253e+03 8.218951e+02 -6.659615e+02
-4.679128e+09 -4.479133e+09 -4.639135e+09 2.050280e+03 1.036355e+03 -2.753539e+02
-4.994248e+09 -4.794254e+09 -4.954255e+09 1.492188e+03 6.650243e+02 -1.213805e+02
-4.483175e+09 -4.283170e+09 -4.443175e+09 -3.003272e+02 2.298128e+02 -4.673268e+02
-4.309354e+09 -4.109352e+09 -4.269353e+09 -2.169146e+02 -2.353647e+01 1.596136e+01
-4.110746e+09 -3.910745e+09 -4.070745e+09 -2.339581e+02 -4.431416e+01 2.608350e+01
-4.980113e+09 -4.780118e+09 -4.940123e+09 2.403616e+02 1.261232e+03 8.955929e+01
-4.125444e+09 -3.925443e+09 -4.085444e+09 -3.715769e+02 -4.257072e+01 -7.554380e+01
-4.629297e+09 -4.429296e+09 -4.589297e+09 -3.284390e+02 -8.412286e+00 -1.093166e+01
-4.817999e+09 -4.618004e+09 -4.778005e+09 2.319662e+03 5.369072e+02 1.099287e+02
-4.478146e+09 -4.278147e+09 -4.438149e+09 2.664097e+03 9.955906e+02 -3.875975e+02
-4.991549e+09 -4.791548e+09 -4.951548e+09 -1.350395e+02 -1.808414e+01 1.894142e+01
-4.605766e+09 -4.405765e+09 -4.565765e+09 -2.631152e+02 -1.974126e+01 -1.940826e+01
-4.624785e+09 -4.424784e+09 -4.584784e+09 -2.792319e+02 -1.937109e+01 -2.310608e+01
-2.299115e+09 -2.099121e+09 -2.259120e+09 -2.059425e+03 -5.102902e+02 1.668669e+03
-4.831193e+09 -4.631199e+09 -4.791197e+09 1.459051e+03 -7.295680e+00 -2.597880e+01
-4.979602e+09 -4.779601e+09 -4.939602e+09 -5.116815e+02 -1.072177e+00 3.420840e+01
-4.127846e+09 -3.927849e+09 -4.087850e+09 1.554986e+03 -1.848330e+03 8.710566e+02
-4.814312e+09 -4.614314e+09 -4.774316e+09 1.342905e+03 -2.682253e+02 9.877935e+01
-3.956993e+09 -3.756995e+09 -3.916999e+09 1.712600e+03 -2.402329e+03 1.249685e+03
-4.818626e+09 -4.618632e+09 -4.778629e+09 1.756628e+03 6.017050e+02 -8.383897e+01
-4.132959e+09 -3.932965e+09 -4.092964e+09 7.184618e+02 -9.849275e+02 2.413518e+02
-4.155607e+09 -3.955610e+09 -4.115610e+09 2.936962e+03 8.884896e+02 -2.961105e+02
-4.643206e+09 -4.443208e+09 -4.603207e+09 3.979579e+02 1.180417e+01 9.890401e-01
-4.988023e+09 -4.788022e+09 -4.948022e+09 -3.011523e+02 1.299621e+01 1.690490e+01
-3.954464e+09 -3.754466e+09 -3.914465e+09 3.418757e+02 1.910506e+01 -2.807560e+00
-4.308874e+09 -4.108876e+09 -4.268876e+09 7.156549e+02 -7.163228e+00 -9.532121e+01
-4.990369e+09 -4.790371e+09 -4.950370e+09 3.843802e+02 6.702712e-01 8.120603e+01
-2.200442e+09 -2.000441e+09 -2.160441e+09 -2.996391e+01 6.349191e+00 -6.228360e+01
-4.989583e+09 -4.789584e+09 -4.949583e+09 -3.387173e+03 1.683370e+02 2.363384e+02
-4.502033e+09 -4.302038e+09 -4.462034e+09 -7.820470e+02 1.188406e+02 1.531307e+01
-4.998231e+09 -4.798236e+09 -4.958233e+09 -1.570432e+03 -8.941752e+01 2.186907e+00
-4.255733e+09 -4.055733e+09 -4.215754e+09 1.608685e+03 8.175935e+03 -1.375396e+03
-4.154776e+09 -3.954784e+09 -4.114787e+09 4.397944e+02 3.513636e+03 -2.063856e+02
-4.310081e+09 -4.110079e+09 -4.270081e+09 -2.572100e+03 -2.612999e+02 7.422781e+01
-3.940915e+09 -3.740916e+09 -3.900911e+09 1.733431e+03 -1.516008e+02 -5.556660e+02
-3.947552e+09 -3.747553e+09 -3.907545e+09 -1.251593e+02 1.217804e+02 -1.706534e+03
-4.112942e+09 -3.912944e+09 -4.072933e+09 1.253855e+03 -3.355552e+02 -3.342725e+03
-1.972911e+09 -1.772913e+09 -1.932916e+09 -2.078521e+03 1.531977e+02 1.306100e+02
-4.649463e+09 -4.449463e+09 -4.609463e+09 7.300235e+02 4.084358e+01 5.070563e+01
-4.436611e+09 -4.236615e+09 -4.396605e+09 -1.588277e+03 4.554525e+02 -1.871837e+03
-4.131205e+09 -3.931206e+09 -4.091206e+09 7.033545e+02 4.925603e+01 3.160347e+01
-4.989969e+09 -4.789969e+09 -4.949969e+09 1.078201e+03 -3.748250e+01 -7.255858e+01
-3.960267e+09 -3.760268e+09 -3.920268e+09 8.398401e+02 3.827925e+01 3.623302e+01
-4.449538e+09 -4.249537e+09 -4.409533e+09 2.592225e+03 -9.927364e+02 -1.381781e+03
-4.308611e+09 -4.108591e+09 -4.268595e+09 2.377451e+03 -1.212011e+04 5.861939e+03
-3.969161e+09 -3.769170e+09 -3.929138e+09 -1.106456e+03 -7.370114e+02 1.227702e+04
-5.001401e+09 -4.801399e+09 -4.961367e+09 -4.198440e+03 -1.913208e+01 2.198131e+03
-3.935158e+09 -3.735156e+09 -3.895133e+09 7.316332e+03 1.083676e+04 9.230928e+03
-4.100534e+09 -3.900529e+09 -4.060505e+09 8.842764e+03 9.391172e+03 1.009492e+04
-4.418819e+09 -4.218804e+09 -4.378824e+09 2.670647e+03 -2.037479e+03 -4.012585e+02
-4.655210e+09 -4.455210e+09 -4.615201e+09 4.548629e+03 3.097130e+02 6.118794e+02
-3.960270e+09 -3.760271e+09 -3.920271e+09 1.097773e+03 4.144595e+01 2.011094e+00
-4.292208e+09 -4.092209e+09 -4.252209e+09 9.563803e+02 -3.642929e+01 -2.194082e+02
-4.803077e+09 -4.603077e+09 -4.763077e+09 8.888789e+02 2.624985e+01 -1.996386e+01
-4.341124e+09 -4.141122e+09 -4.301123e+09 1.156421e+03 -6.545687e+01 -1.215574e+02
-4.826660e+09 -4.626658e+09 -4.786658e+09 8.237551e+02 7.407663e+01 7.346935e+01
-4.631547e+09 -4.431548e+09 -4.591548e+09 1.143160e+03 5.631752e+01 3.144748e+01
-4.987695e+09 -4.787695e+09 -4.947695e+09 1.256381e+03 -8.248138e+01 -2.157126e+02
-5.006876e+09 -4.806874e+09 -4.966875e+09 1.368597e+03 -1.618473e+02 -1.723668e+02
-4.335206e+09 -4.135205e+09 -4.295205e+09 1.839980e+03 -3.437265e+02 -2.310051e+02
-4.976250e+09 -4.776250e+09 -4.936250e+09 1.118983e+03 -3.837893e+01 -5.106433e+01
-4.486284e+09 -4.286281e+09 -4.446282e+09 6.504198e+02 -2.346079e+01 -1.665358e+01
-5.021673e+09 -4.821671e+09 -4.981671e+09 9.615873e+02 -5.025782e+02 -3.903360e+02
-2.157225e+09 -1.957222e+09 -2.117223e+09 -2.488705e+02 -5.836903e+02 -8.054983e+01
-4.115566e+09 -3.915566e+09 -4.075566e+09 1.082665e+03 2.830672e+01 -4.038362e+01
-4.822805e+09 -4.622805e+09 -4.782805e+09 -9.402265e+02 -6.562575e+01 5.089485e+01
-4.500548e+09 -4.300548e+09 -4.460548e+09 -8.205545e+02 -3.411546e+01 1.408400e+00
-4.516972e+09 -4.316971e+09 -4.476972e+09 -1.265675e+03 -6.209607e+01 1.700147e+01
-1.607633e+09 -1.407635e+09 -1.567634e+09 1.001200e+02 3.283557e+01 1.542389e+01
-4.437092e+09 -4.237092e+09 -4.397091e+09 1.682945e+01 3.015291e+00 -5.139045e+01
-4.661505e+09 -4.461505e+09 -4.621505e+09 -6.398036e+02 -2.893950e+01 5.954244e+01
-3.954576e+09 -3.754575e+09 -3.914576e+09 -5.920907e+02 -6.765001e+01 4.116581e+01
-3.139826e+09 -2.939829e+09 -3.099826e+09 -3.018976e+02 -3.047821e+01 -6.792357e+01
-2.775643e+09 -2.575643e+09 -2.735642e+09 2.871489e+01 9.146095e+00 -3.618469e+01
-4.998801e+09 -4.798801e+09 -4.958801e+09 -6.546129e+02 -6.699707e+00 -7.637179e+01
-3.753891e+09 -3.553891e+09 -3.713890e+09 -1.584881e+02 -4.445992e+01 -4.763414e+01
-3.878410e+09 -3.678410e+09 -3.838409e+09 -4.503947e+02 1.877288e+01 -7.636537e+01
-1.883642e+09 -1.683645e+09 -1.843642e+09 1.604288e+03 -1.184513e+03 4.382135e+02
-4.989809e+09 -4.789808e+09 -4.949808e+09 -4.207770e+01 -2.056288e+01 3.292158e+00
-2.570813e+09 -2.370812e+09 -2.530812e+09 -2.875764e+02 1.087057e+02 -7.374303e+01
-4.980579e+09 -4.780565e+09 -4.940559e+09 -1.634382e+03 4.113561e+01 -2.203258e+02
-3.203894e+09 -3.003893e+09 -3.163893e+09 -2.074109e+01 -1.392328e+00 -6.171416e+00
-3.735574e+09 -3.535573e+09 -3.695573e+09 1.008265e+02 2.397376e+01 -1.329950e+01
-3.961027e+09 -3.761021e+09 -3.921036e+09 -2.354401e+03 -3.254985e+03 -1.122764e+03
-4.360903e+09 -4.160902e+09 -4.320902e+09 7.095721e+00 1.195005e+00 -5.650385e+00
-3.886224e+09 -3.686223e+09 -3.846223e+09 2.013643e+01 3.028148e+00 -3.562136e+00
-4.346254e+09 -4.146240e+09 -4.306249e+09 -3.497525e+03 4.169035e+03 -3.989118e+03
-3.878257e+09 -3.678256e+09 -3.838256e+09 5.694304e+00 2.495007e+00 -2.164423e+00
-3.981700e+09 -3.781704e+09 -3.941702e+09 2.871647e+03 9.752042e+02 -3.411985e+02
-4.137460e+09 -3.937462e+09 -4.097462e+09 2.914445e+03 9.942429e+02 -2.134719e+02
-4.136672e+09 -3.936672e+09 -4.096673e+09 3.033554e+03 1.031228e+03 -7.657268e+02
-4.984346e+09 -4.784347e+09 -4.944347e+09 2.261993e+02 1.415429e+01 6.622454e+01
-4.990705e+09 -4.790705e+09 -4.950710e+09 3.184001e+03 6.234444e+02 -3.994705e+02
-1.881553e+09 -1.681553e+09 -1.841552e+09 -1.055492e+02 -1.907789e+01 -9.841221e+01
-4.994650e+09 -4.794652e+09 -4.954653e+09 2.978927e+03 5.420080e+02 -2.347640e+02
-1.863816e+09 -1.663815e+09 -1.823815e+09 4.722286e+01 8.594391e+00 -2.163483e+01
-2.935350e+09 -2.735350e+09 -2.895349e+09 -9.465558e+01 7.296078e+00 -7.668699e+01
-1.697671e+09 -1.497671e+09 -1.657670e+09 -1.925474e+02 2.270288e+01 -1.071545e+02
-4.637695e+09 -4.437698e+09 -4.597695e+09 -9.735015e+02 6.070637e+01 1.211474e+01
-2.768797e+09 -2.568796e+09 -2.728796e+09 2.681639e+01 9.903530e+00 -4.499080e+01
-5.005342e+09 -4.805348e+09 -4.965344e+09 -3.657763e+02 1.921229e+01 5.221947e+01
-3.289203e+09 -3.089203e+09 -3.249202e+09 -2.100919e+02 -9.952615e+00 -8.042224e+01
-2.302998e+09 -2.102997e+09 -2.262997e+09 -3.054866e+01 5.426619e+01 -4.850849e+01
-2.713076e+09 -2.513075e+09 -2.673075e+09 -2.022382e+01 3.161770e+01 -7.494383e+01
-1.585608e+09 -1.385609e+09 -1.545608e+09 -4.111201e+02 1.051026e+02 -1.457333e+02
-4.151262e+09 -3.951269e+09 -4.111265e+09 -2.654568e+02 7.421665e+02 2.506252e+01
-2.725354e+09 -2.525354e+09 -2.685353e+09 -4.570604e+01 -7.939700e+01 3.315407e+01
-3.924966e+09 -3.724965e+09 -3.884965e+09 -6.733672e+02 -3.836743e+02 -1.407848e+02
-4.256149e+09 -4.056150e+09 -4.216148e+09 -6.325837e+02 9.429868e+01 1.953656e+01
-4.587996e+09 -4.387997e+09 -4.547997e+09 2.947750e+01 1.173133e+00 1.071128e+01
-2.975955e+09 -2.775962e+09 -2.935957e+09 9.424494e+01 -1.111746e+02 1.377749e+02
-4.905172e+09 -4.705173e+09 -4.865173e+09 1.459822e+01 -1.112639e+01 -2.900456e-09
-2.203478e+09 -2.003486e+09 -2.163480e+09 1.358424e+03 -2.048500e+03 5.809031e+02
-1.636093e+09 -1.436100e+09 -1.596095e+09 5.998218e+01 -2.487655e+02 1.304688e+01
-1.778925e+09 -1.578925e+09 -1.738925e+09 1.783647e+02 3.493892e+01 3.706214e+01
-2.800066e+09 -2.600067e+09 -2.760064e+09 8.308220e+02 9.475732e+01 -1.050394e+01
-3.507732e+09 -3.307732e+09 -3.467732e+09 8.319420e+01 2.267107e+01 5.511668e+01
-4.616077e+09 -4.416078e+09 -4.576077e+09 3.008344e+02 1.053083e+01 1.479991e+01
-1.586522e+09 -1.386523e+09 -1.546522e+09 2.469929e+02 3.563171e+01 6.149411e+01
-2.570833e+09 -2.370833e+09 -2.530831e+09 2.207167e+02 4.248929e+01 5.824567e+00
-2.282667e+09 -2.082668e+09 -2.242668e+09 1.752486e+02 -1.215962e+00 -5.365247e+01
-3.048500e+09 -2.848501e+09 -3.008501e+09 1.385230e+01 4.022479e+00 9.638477e-01
-2.437819e+09 -2.237821e+09 -2.397820e+09 1.488344e+02 2.360997e+01 -3.002633e+01
-1.980055e+09 -1.780056e+09 -1.940054e+09 6.128632e+02 2.058254e+02 2.203001e+01
-1.635426e+09 -1.435426e+09 -1.595424e+09 1.944898e+02 9.319809e+01 5.468505e+00
-2.219277e+09 -2.019276e+09 -2.179275e+09 -2.627280e+01 -5.764939e+01 -2.876672e+00
-1.635425e+09 -1.435427e+09 -1.595424e+09 -9.682425e+01 -1.210240e+02 2.647179e+00
-1.900906e+09 -1.700905e+09 -1.860904e+09 2.969474e+02 2.369037e+02 -6.489261e+01
-3.759932e+09 -3.559933e+09 -3.719933e+09 1.185490e+01 3.278858e+01 -3.015764e+00
-1.988711e+09 -1.788712e+09 -1.948714e+09 9.692618e+02 -3.987458e+02 -4.687204e+02
-2.968372e+09 -2.768372e+09 -2.928372e+09 9.390227e+01 1.510003e+01 4.203165e+00
-4.974963e+09 -4.774962e+09 -4.934965e+09 2.370305e+03 -4.493992e+01 -5.530596e+01
-4.125205e+09 -3.925214e+09 -4.085210e+09 -3.231834e+02 1.180407e+02 7.175617e+02
-2.108146e+09 -1.908143e+09 -2.068146e+09 2.168783e+02 -5.531450e+02 -9.984378e+02
-3.927205e+09 -3.727204e+09 -3.887206e+09 6.033389e+02 -2.301786e+02 -2.886343e+02
-1.961169e+09 -1.761170e+09 -1.921168e+09 1.347458e+03 -6.694209e+02 3.365312e+02
-1.861644e+09 -1.661645e+09 -1.821643e+09 7.799345e+02 -3.918454e+02 3.974336e+01
-3.915385e+09 -3.715391e+09 -3.875389e+09 1.299554e+03 -9.130574e+02 3.897375e+02
-2.192147e+09 -1.992147e+09 -2.152147e+09 2.489825e+02 2.915881e+01 -1.389303e+01
-2.903171e+09 -2.703172e+09 -2.863171e+09 9.491748e+02 -5.832429e+02 2.809007e+02
-2.761023e+09 -2.561025e+09 -2.721023e+09 2.503539e+01 -6.613790e+01 4.462516e+01
-2.082057e+09 -1.882057e+09 -2.042057e+09 1.775687e+02 3.147373e+01 -6.085739e+01
-4.670918e+09 -4.470918e+09 -4.630918e+09 6.499858e+01 4.400245e+00 -3.208842e+01
-1.636097e+09 -1.436096e+09 -1.596097e+09 1.029427e+00 4.031747e+01 -3.015030e+00
-4.039143e+09 -3.839143e+09 -3.999143e+09 1.055349e+02 -4.283722e+00 -8.351345e+00
-4.976482e+09 -4.776482e+09 -4.936482e+09 8.695350e+01 -1.247817e+01 6.359748e+00
-2.005094e+09 -1.805095e+09 -1.965095e+09 4.067040e+02 2.223789e+01 1.128939e+01
-2.835904e+09 -2.635903e+09 -2.795903e+09 2.547848e+01 2.254449e+01 -5.691717e+00
-4.093683e+09 -3.893691e+09 -4.053686e+09 8.488066e+01 -2.553419e+02 4.042356e+00
-2.988810e+09 -2.788818e+09 -2.948815e+09 5.286240e+02 -2.294615e+03 3.668853e+02
-4.970425e+09 -4.770424e+09 -4.930425e+09 -7.880567e+01 1.141940e+01 1.413899e+01
-4.044145e+09 -3.844144e+09 -4.004144e+09 -1.354892e+01 -3.329073e+00 -4.417032e+00
-3.513394e+09 -3.313393e+09 -3.473393e+09 -8.270234e+00 -1.753341e+01 -3.004821e+00
-2.781039e+09 -2.581039e+09 -2.741039e+09 -7.035116e+01 -2.603065e+01 -6.543661e+00
-4.964164e+09 -4.764165e+09 -4.924165e+09 1.054082e+02 -1.712820e+01 2.922604e+00
-3.743841e+09 -3.543840e+09 -3.703841e+09 -3.781909e+00 4.062301e+00 -3.213199e+00
-1.698308e+09 -1.498317e+09 -1.658311e+09 1.295189e+03 -2.358475e+03 5.361383e+02
-2.906119e+09 -2.706128e+09 -2.866125e+09 -4.055795e+02 -2.484254e+03 1.120232e+02
-1.571483e+09 -1.371492e+09 -1.531486e+09 3.571571e+02 -1.253452e+03 1.462174e+02
-2.418156e+09 -2.218164e+09 -2.378159e+09 6.135275e+02 -1.287676e+03 3.573697e+02
-2.589197e+09 -2.389205e+09 -2.549199e+09 -7.256787e-02 -2.070935e+02 7.398186e+01
-4.092859e+09 -3.892860e+09 -4.052860e+09 -1.609834e+03 -1.522124e+01 1.190280e+02
-4.710895e+09 -4.510894e+09 -4.670894e+09 2.130756e+01 1.702730e+00 1.492518e+01
-3.487644e+09 -3.287643e+09 -3.447643e+09 -3.445052e+00 1.444180e+01 -3.548532e+00
-1.989551e+09 -1.789550e+09 -1.949550e+09 7.062645e+00 6.644946e+00 1.416053e+00
-3.620601e+09 -3.420601e+09 -3.580601e+09 1.765728e+02 3.611636e+01 -6.537363e+00
-1.556066e+09 -1.356068e+09 -1.516065e+09 2.891199e+02 3.880423e+01 5.120466e+01
-4.309271e+09 -4.109271e+09 -4.269271e+09 4.101494e+00 1.857309e+01 -3.022230e+00
-4.685070e+09 -4.485069e+09 -4.645069e+09 3.204778e+01 7.496659e+00 1.626554e+01
-4.580897e+09 -4.380896e+09 -4.540896e+09 2.238578e+01 1.068593e+01 1.154506e+01
-4.423802e+09 -4.223803e+09 -4.383803e+09 -2.508598e+01 -1.930242e+01 2.608608e+00
-4.971517e+09 -4.771518e+09 -4.931517e+09 -1.195441e+02 2.316860e+01 -8.448620e+00
-3.383721e+09 -3.183724e+09 -3.343720e+09 1.022279e+02 4.461152e+01 8.439940e+00
-1.611484e+09 -1.411486e+09 -1.571483e+09 1.420418e+02 -3.156882e+01 1.087802e+01
-1.887989e+09 -1.687991e+09 -1.847988e+09 -2.785327e+02 5.179483e+01 -1.391256e+02
-1.933004e+09 -1.733006e+09 -1.893004e+09 -9.465948e+01 -5.181966e+01 -1.137111e+02
-2.184054e+09 -1.984053e+09 -2.144053e+09 6.534813e+00 -4.715967e+01 -7.352792e+01
-2.872270e+09 -2.672271e+09 -2.832269e+09 -2.810859e+02 -1.418940e+01 -8.056462e+01
-4.892162e+09 -4.692161e+09 -4.852161e+09 -7.302353e+01 4.591195e-09 -3.520878e+00
-4.980409e+09 -4.780408e+09 -4.940407e+09 9.145140e+02 -2.161608e+02 8.482735e+01
-4.507242e+09 -4.307241e+09 -4.467241e+09 6.274172e+01 -1.247185e+01 -2.552932e+01
-4.700750e+09 -4.500748e+09 -4.660748e+09 -2.806886e+01 -2.605358e+01 -1.153785e+01
-2.214156e+09 -2.014153e+09 -2.174154e+09 -1.389876e+02 -6.131278e+02 -3.334074e+01
-4.950149e+09 -4.750149e+09 -4.910149e+09 -1.436682e+03 -3.743239e+02 -1.108549e+01
-3.193013e+09 -2.993013e+09 -3.153011e+09 1.319375e+03 1.684130e+02 -3.829183e+01
-3.695686e+09 -3.495682e+09 -3.655684e+09 2.976022e+02 3.425100e+02 -8.045182e+01
-2.202022e+09 -2.002026e+09 -2.162022e+09 -4.448368e+02 -8.840977e+01 -1.881513e+02
-3.338900e+09 -3.138899e+09 -3.298898e+09 2.413586e+02 1.447334e+02 -1.831214e+01
-2.155641e+09 -1.955641e+09 -2.115639e+09 4.834060e+02 8.513889e+01 7.105020e+00
-4.961441e+09 -4.761438e+09 -4.921443e+09 -9.811216e+02 -4.828846e+02 4.293738e+02
-4.482278e+09 -4.282281e+09 -4.442292e+09 2.772801e+03 3.576778e+03 -9.043192e+02
-4.981623e+09 -4.781620e+09 -4.941624e+09 -1.720069e+03 -4.129861e+01 1.501304e+02
-3.952126e+09 -3.752136e+09 -3.912128e+09 -3.655502e+02 2.590447e+02 2.903909e+03
-4.629576e+09 -4.429581e+09 -4.589578e+09 -3.129116e+02 -1.889461e+02 -8.746936e+01
-2.155734e+09 -1.955741e+09 -2.115735e+09 2.568618e+02 -2.782064e+02 1.823046e+02
-4.503744e+09 -4.303751e+09 -4.463750e+09 -2.466729e+02 -9.604322e+02 2.323562e+02
-2.579203e+09 -2.379202e+09 -2.539203e+09 5.370231e+00 2.599864e+01 -1.479954e+00
-4.315344e+09 -4.115345e+09 -4.275330e+09 -5.468791e+03 -2.630578e+03 4.599291e+03
-4.638174e+09 -4.438181e+09 -4.598178e+09 5.059389e+01 -3.887404e+02 5.311878e+01
-4.982706e+09 -4.782713e+09 -4.942710e+09 1.476816e+02 -1.464557e+02 -4.015129e+01
-1.594515e+09 -1.394524e+09 -1.554517e+09 -2.232736e+01 -1.157862e+03 7.585345e+01
-4.807803e+09 -4.607800e+09 -4.767798e+09 -4.775263e+03 2.612849e+02 -1.607047e+02
-4.986809e+09 -4.786816e+09 -4.946810e+09 -2.517728e+03 -2.304848e+00 4.751609e+02
-4.664738e+09 -4.464738e+09 -4.624737e+09 -4.996290e+02 -3.503387e+01 -6.754829e+01
-4.299011e+09 -4.099010e+09 -4.259010e+09 -2.580416e+02 3.549069e+01 1.279539e+01
-3.966537e+09 -3.766537e+09 -3.926536e+09 -1.620203e+02 2.004629e+01 -5.424624e+01
-3.963751e+09 -3.763742e+09 -3.923750e+09 -1.504505e+02 9.337748e+02 -2.222561e+03
-4.658150e+09 -4.458144e+09 -4.618150e+09 5.061116e+02 2.873366e+02 -5.828523e+02
-4.985937e+09 -4.785936e+09 -4.945936e+09 -4.251826e+02 1.028733e+01 2.364285e+01
-3.965573e+09 -3.765573e+09 -3.925572e+09 -5.254127e+02 6.364876e+01 -7.625841e+01
-4.319244e+09 -4.119244e+09 -4.279243e+09 -9.117793e+02 8.031979e+01 2.708000e+01
-4.809984e+09 -4.609983e+09 -4.769983e+09 -2.434696e+02 -9.903580e+00 -2.651299e+01
-4.139553e+09 -3.939547e+09 -4.099551e+09 -2.381939e+03 -2.883451e+02 -2.141357e+02
-3.430539e+09 -3.230536e+09 -3.390537e+09 6.040835e+02 4.250778e+02 -2.372752e+02
-3.970594e+09 -3.770593e+09 -3.930593e+09 -6.098398e+02 -5.790631e+01 -5.797428e+01
-3.964305e+09 -3.764305e+09 -3.924305e+09 -4.713963e+02 -3.993314e+01 3.061898e+01
-4.984274e+09 -4.784274e+09 -4.944274e+09 -7.768729e+02 -1.346905e-01 2.467402e+00
-3.387734e+09 -3.187734e+09 -3.347734e+09 -1.410286e+01 -4.450827e+01 -1.405049e+00
-4.984274e+09 -4.784274e+09 -4.944274e+09 -5.825909e+02 1.866991e+00 -8.183372e+01
-4.305682e+09 -4.105683e+09 -4.265683e+09 -7.584296e+02 -2.770769e+01 -5.847999e+01
-4.312170e+09 -4.112170e+09 -4.272169e+09 -5.477954e+02 2.619934e+01 1.642737e+00
-4.655776e+09 -4.455774e+09 -4.615775e+09 -4.169727e+02 -4.641465e+01 -1.953504e+01
-3.962858e+09 -3.762865e+09 -3.922865e+09 -1.001604e+03 -2.291450e+03 -1.962928e+02
-4.818698e+09 -4.618699e+09 -4.778705e+09 9.185453e+02 -5.375796e+02 1.382710e+02
-4.127027e+09 -3.927027e+09 -4.087027e+09 5.242087e+02 4.302103e+01 2.157336e+00
-4.135781e+09 -3.935783e+09 -4.095783e+09 -6.436941e+02 1.023237e+01 -6.812993e+01
-4.644238e+09 -4.444235e+09 -4.604245e+09 2.877374e+03 1.239418e+03 -6.386467e+02
-4.984567e+09 -4.784563e+09 -4.944578e+09 2.403212e+03 1.439913e+03 -8.893450e+02
-4.988556e+09 -4.788556e+09 -4.948556e+09 3.744562e+02 -1.165008e+01 -2.296423e+01
-4.299973e+09 -4.099975e+09 -4.259975e+09 3.977806e+02 1.885511e+00 -6.407546e+00
-4.807633e+09 -4.607632e+09 -4.767632e+09 -1.289535e+02 -1.604567e+01 -4.510018e+01
-4.995763e+09 -4.795765e+09 -4.955764e+09 1.225190e+03 -3.993041e+01 -1.785377e+02
-3.955779e+09 -3.755782e+09 -3.915780e+09 7.231785e+02 -3.654259e+01 -1.997351e+02
-4.980060e+09 -4.780058e+09 -4.940059e+09 -1.324154e+02 5.445912e+00 2.328146e+01
-2.777585e+09 -2.577583e+09 -2.737583e+09 -3.772438e+01 -7.206637e+00 -5.914083e+01
-4.148577e+09 -3.948579e+09 -4.108578e+09 8.453500e+02 -1.045438e+01 -2.313300e+02
-4.957832e+09 -4.757831e+09 -4.917831e+09 -2.348983e+02 4.507256e-01 7.905259e+00
-3.966065e+09 -3.766067e+09 -3.926066e+09 1.252894e+03 3.705805e+00 -9.409585e+01
-4.295758e+09 -4.095759e+09 -4.255759e+09 1.326371e+03 -1.452791e+02 -3.081049e+02
-4.103213e+09 -3.903218e+09 -4.063215e+09 -2.318566e+03 -1.521680e+02 7.451258e+01
-1.588677e+09 -1.388677e+09 -1.548676e+09 -1.327544e+02 6.519356e+01 -1.027798e+02
-4.988724e+09 -4.788727e+09 -4.948722e+09 -4.061841e+03 -3.089136e+02 1.227234e+02
-4.468330e+09 -4.268336e+09 -4.428328e+09 -4.990877e+03 -1.083871e+03 1.504233e+03
-2.968230e+09 -2.768232e+09 -2.928230e+09 -3.141427e+02 -1.190146e+02 -8.890313e+01
-2.488689e+09 -2.288689e+09 -2.448689e+09 1.092486e+02 3.687959e+01 -1.331194e+01
-1.850002e+09 -1.650002e+09 -1.810001e+09 -3.306982e+02 6.940239e+01 -8.878120e+01
-4.646909e+09 -4.446909e+09 -4.606909e+09 -4.167374e+03 -4.652703e+02 6.816099e+02
-2.159895e+09 -1.959895e+09 -2.119894e+09 -5.247000e+02 -8.934783e+00 -7.374106e+01
-2.947163e+09 -2.747163e+09 -2.907163e+09 1.797760e+01 1.407834e+00 -9.343282e-01
-4.040664e+09 -3.840664e+09 -4.000664e+09 2.917306e+02 -4.880540e-01 4.363564e+00
-2.764450e+09 -2.564450e+09 -2.724450e+09 -2.581700e+00 1.213741e+01 -1.776293e+00
-4.890117e+09 -4.690122e+09 -4.850117e+09 1.213846e+02 -5.206384e-08 -2.401932e+01
-4.443887e+09 -4.243886e+09 -4.403886e+09 -6.299466e+00 5.903949e+00 -1.716558e+00
-4.896967e+09 -4.696966e+09 -4.856966e+09 -3.409141e+00 -4.363514e+00 2.656399e-10
-4.465353e+09 -4.265352e+09 -4.425352e+09 1.713509e+01 6.114565e+00 -1.001743e+01
-2.704729e+09 -2.504728e+09 -2.664728e+09 -6.097753e-01 6.251916e+00 -5.458944e+00
-3.946551e+09 -3.746550e+09 -3.906550e+09 6.134485e+00 -2.070095e+00 4.801656e+00
-3.895274e+09 -3.695280e+09 -3.855275e+09 3.115856e+02 2.597084e+01 1.370191e+01
-4.503615e+09 -4.303614e+09 -4.463614e+09 5.450841e+01 9.793510e+00 1.446182e+00
-4.993825e+09 -4.793829e+09 -4.953825e+09 8.784273e+02 -7.000861e+01 3.212736e+01
-4.994201e+09 -4.794206e+09 -4.954202e+09 1.289286e+03 1.216737e+02 4.946196e+01
-3.645118e+09 -3.445124e+09 -3.605120e+09 -1.081929e+02 -2.117294e+02 -3.957568e+01
-3.411224e+09 -3.211229e+09 -3.371225e+09 -3.245144e+02 -4.591407e+01 -5.737979e+01
-4.355719e+09 -4.155725e+09 -4.315721e+09 -1.145499e+02 -7.333971e+01 -2.848320e+00
-4.708894e+09 -4.508901e+09 -4.668897e+09 -2.820068e+02 -1.981055e+02 -1.155735e+02
-4.982751e+09 -4.782758e+09 -4.942754e+09 -4.422957e+02 -1.348805e+02 -1.416916e+01
-4.126082e+09 -3.926080e+09 -4.086094e+09 -1.502524e+03 -4.099516e+03 -4.183869e+02
-3.961025e+09 -3.761020e+09 -3.921035e+09 -1.606426e+03 -3.139522e+03 -9.040958e+02
-4.494469e+09 -4.294470e+09 -4.454468e+09 1.458163e+03 1.093432e+02 2.201244e+01
-4.505913e+09 -4.305912e+09 -4.465913e+09 7.006168e+01 2.466746e+01 -1.366730e+01
-4.651365e+09 -4.451364e+09 -4.611364e+09 -4.756622e+01 -1.937765e+01 -3.651140e+01
-4.996800e+09 -4.796799e+09 -4.956799e+09 3.485464e+01 2.866679e+01 2.203035e+01
-4.686414e+09 -4.486413e+09 -4.646413e+09 1.531605e+02 1.774849e+01 -2.189560e+01
-3.963487e+09 -3.763488e+09 -3.923498e+09 -1.568998e+03 -3.786148e+03 -3.831728e+02
-4.990726e+09 -4.790718e+09 -4.950735e+09 -8.147007e+02 -1.944021e+03 -6.437735e+02
-4.996236e+09 -4.796235e+09 -4.956235e+09 -1.238549e+02 -5.897011e+00 1.625637e+01
-3.970762e+09 -3.770761e+09 -3.930762e+09 3.521102e+02 2.952228e+01 1.909034e+01
-3.970762e+09 -3.770761e+09 -3.930762e+09 2.310121e+02 3.779503e+01 -3.316642e+01
-3.936450e+09 -3.736445e+09 -3.896459e+09 -1.783203e+03 -4.828326e+02 7.484741e+02
-3.683968e+09 -3.483968e+09 -3.643968e+09 -3.352832e+00 -6.852098e+00 3.876330e-01
-4.819202e+09 -4.619201e+09 -4.779202e+09 2.084729e+02 1.162389e+01 1.382517e+00
-3.667029e+09 -3.467032e+09 -3.627030e+09 1.122142e+03 -4.395639e+02 2.886079e+02
-3.953638e+09 -3.753635e+09 -3.913651e+09 -1.273146e+03 -3.782817e+03 1.798596e+02
-4.087273e+09 -3.887273e+09 -4.047272e+09 3.881933e+02 -1.468321e+02 5.316223e+01
-1.803793e+09 -1.603797e+09 -1.763793e+09 1.145018e+03 -8.420071e+02 2.632533e+02
-4.820459e+09 -4.620452e+09 -4.780467e+09 -7.669377e+02 -7.657198e+02 -7.199136e+02
-4.107070e+09 -3.907071e+09 -4.067069e+09 1.671063e+03 1.328393e+02 -1.707901e+02
-4.985986e+09 -4.785987e+09 -4.945985e+09 1.807229e+03 1.331110e+01 -4.192244e+01
-4.813271e+09 -4.613276e+09 -4.773275e+09 1.007225e+03 -6.051789e+02 1.282961e+02
-4.993751e+09 -4.793754e+09 -4.953755e+09 1.341274e+03 -3.510109e+02 9.746688e+01
-3.962857e+09 -3.762864e+09 -3.922865e+09 -6.237622e+02 -2.220117e+03 -4.877260e+01
-5.003803e+09 -4.803802e+09 -4.963806e+09 3.602595e+03 -5.617424e+01 -1.515606e+01
-3.968741e+09 -3.768744e+09 -3.928737e+09 5.025465e+03 1.908850e+03 2.746069e+03
-3.971164e+09 -3.771161e+09 -3.931163e+09 3.920529e+03 5.466482e+02 -3.721972e+02
-4.518582e+09 -4.318585e+09 -4.478584e+09 2.578600e+03 4.659349e+02 -9.952399e+01
-4.809068e+09 -4.609060e+09 -4.769071e+09 1.485030e+03 -1.754746e+02 -7.065300e+02
-4.500435e+09 -4.300437e+09 -4.460437e+09 2.814713e+03 4.357714e+02 -2.205319e+02
-4.993862e+09 -4.793861e+09 -4.953863e+09 2.731797e+03 2.888664e+02 -2.563453e+02
-4.271605e+09 -4.071612e+09 -4.231591e+09 2.241672e+03 1.039149e+03 8.004495e+03
-5.000861e+09 -4.800859e+09 -4.960859e+09 4.338540e+03 1.146041e+02 4.655962e+02
-4.327927e+09 -4.127929e+09 -4.287927e+09 1.860760e+03 1.189803e+02 2.017627e+01
-4.131647e+09 -3.931648e+09 -4.091647e+09 2.196741e+03 5.310815e+02 -2.738278e+02
-4.609945e+09 -4.409947e+09 -4.569946e+09 -1.156801e+03 -4.578778e+01 5.090550e+01
-4.983220e+09 -4.783223e+09 -4.943221e+09 -2.211641e+03 1.858002e+02 1.271346e+02
-2.279753e+09 -2.079754e+09 -2.239754e+09 -4.465653e+02 -3.596679e+01 -4.030635e+01
-4.991581e+09 -4.791575e+09 -4.951590e+09 -2.002129e+03 -1.671237e+03 2.493896e+02
-1.676472e+09 -1.476473e+09 -1.636473e+09 -4.251920e+02 -6.970906e+01 4.044687e+00
-3.979676e+09 -3.779657e+09 -3.939658e+09 -4.710293e+03 6.889858e+03 -2.708164e+03
-3.953202e+09 -3.753193e+09 -3.913200e+09 -3.818029e+03 3.614492e+03 -4.209303e+02
-2.328100e+09 -2.128100e+09 -2.288100e+09 -3.186410e+02 -2.061217e+01 1.620762e+01
-3.049401e+09 -2.849402e+09 -3.009402e+09 -1.409357e+02 -1.971765e+01 5.474810e+00
-2.545349e+09 -2.345350e+09 -2.505350e+09 -2.324469e+01 -1.851500e+01 -1.506163e+01
-4.101847e+09 -3.901847e+09 -4.061847e+09 1.128800e+03 -5.301879e+01 -1.951214e+02
-1.906194e+09 -1.706204e+09 -1.866203e+09 -3.678352e+02 3.547526e+01 1.842372e+03
-4.652236e+09 -4.452236e+09 -4.612236e+09 7.301144e+02 4.918210e+01 3.873298e+01
-2.216821e+09 -2.016830e+09 -2.176828e+09 1.006961e+03 6.562287e+02 1.778219e+03
-2.100728e+09 -1.900734e+09 -2.060733e+09 3.794927e+01 -3.849793e+01 1.742226e+02
-4.892126e+09 -4.692134e+09 -4.852132e+09 -3.518680e+01 -1.870040e+01 1.175013e-08
-4.466381e+09 -4.266389e+09 -4.426380e+09 -2.609608e+03 -8.308653e+02 2.729195e+03
-2.797646e+09 -2.597650e+09 -2.757650e+09 -8.606502e+02 2.318501e+02 -1.270035e+02
-3.668108e+09 -3.468110e+09 -3.628107e+09 7.897673e+02 7.370394e+01 3.025701e+01
-3.123901e+09 -2.923900e+09 -3.083899e+09 8.050000e+02 1.641236e+02 -4.529018e+01
-1.974314e+09 -1.774322e+09 -1.934321e+09 5.003672e+02 2.858829e+02 5.745632e+02
-1.686772e+09 -1.486774e+09 -1.646771e+09 1.109180e+03 1.410702e+02 1.234741e+01
-2.657032e+09 -2.457032e+09 -2.617030e+09 9.083676e+02 1.480421e+02 3.773315e+01
-2.306776e+09 -2.106777e+09 -2.266775e+09 1.182838e+03 2.035679e+02 -1.814037e+01
-3.566920e+09 -3.366921e+09 -3.526919e+09 8.698495e+02 1.472835e+02 -5.529243e+01
-4.890118e+09 -4.690119e+09 -4.850118e+09 -1.969892e+01 -4.974681e-05 2.507556e+01
-1.883087e+09 -1.683095e+09 -1.843089e+09 1.076676e+02 -1.945000e+02 7.477151e+01
-4.525377e+09 -4.325384e+09 -4.485380e+09 3.062726e+02 -1.340387e+02 1.236164e+01
-4.779863e+09 -4.579870e+09 -4.739867e+09 -1.622097e+02 -2.515032e+02 2.805750e+02
-4.023631e+09 -3.823630e+09 -3.983629e+09 -8.194481e+01 -1.705454e+00 -1.951369e+01
-4.102327e+09 -3.902334e+09 -4.062331e+09 3.644668e+02 -5.925175e+02 9.847974e+01
-1.542621e+09 -1.342623e+09 -1.502620e+09 2.453092e+02 5.122352e+01 5.569124e+01
-2.190144e+09 -1.990143e+09 -2.150143e+09 -4.315522e+01 -2.232614e+01 -4.789833e+01
-3.173594e+09 -2.973594e+09 -3.133593e+09 -4.025128e+02 -3.930342e+01 -1.348676e+02
-4.617828e+09 -4.417828e+09 -4.577827e+09 -4.503784e+02 -8.833989e+00 -4.531570e+01
-1.970856e+09 -1.770857e+09 -1.930854e+09 8.503674e+01 5.743547e+01 1.928740e+00
-1.655813e+09 -1.455812e+09 -1.615812e+09 2.854911e+00 2.550260e+00 -3.169185e+01
-1.972384e+09 -1.772383e+09 -1.932383e+09 1.030999e+01 2.083338e+00 -1.133158e+01
-2.239653e+09 -2.039653e+09 -2.199651e+09 1.066177e+02 4.883468e+01 8.694748e+00
-1.880281e+09 -1.680282e+09 -1.840280e+09 4.287823e+01 2.796715e+01 -6.389417e+00
-2.298179e+09 -2.098178e+09 -2.258178e+09 3.887376e+01 3.373126e+01 -4.388864e+01
-2.082150e+09 -1.882150e+09 -2.042149e+09 -2.006065e+01 6.917734e+00 -6.967507e+01
-1.923142e+09 -1.723142e+09 -1.883141e+09 9.842650e-01 1.666313e+01 -7.929338e+01
-2.594429e+09 -2.394429e+09 -2.554428e+09 -3.657476e+02 -1.411733e+01 -7.884463e+01
-1.542621e+09 -1.342622e+09 -1.502620e+09 2.995712e+02 -1.692778e+01 5.550882e+01
-2.853466e+09 -2.653467e+09 -2.813464e+09 7.530053e+01 -2.419146e+01 3.147791e+01
-2.196619e+09 -1.996620e+09 -2.156617e+09 4.493927e+01 1.270029e+01 1.801329e+01
-1.657212e+09 -1.457213e+09 -1.617211e+09 6.193812e+01 1.953717e+01 1.044352e+01
-2.679759e+09 -2.479766e+09 -2.639761e+09 -2.368667e+02 -3.310419e+02 7.160859e+01
-1.880220e+09 -1.680222e+09 -1.840219e+09 4.855562e+01 3.384643e+01 8.100031e+00
-1.927822e+09 -1.727823e+09 -1.887821e+09 5.196516e+01 2.306833e+01 1.844620e+01
-2.600467e+09 -2.400467e+09 -2.560466e+09 5.512611e+00 -1.902851e+00 -9.484814e+01
-1.682294e+09 -1.482294e+09 -1.642293e+09 -1.332406e+02 5.844394e+00 -1.149918e+02
-2.588238e+09 -2.388238e+09 -2.548237e+09 -9.338905e+00 4.680942e+00 -1.241314e+02
-1.685325e+09 -1.485327e+09 -1.645324e+09 -2.186103e+02 2.182157e+01 -1.376530e+02
-2.576978e+09 -2.376980e+09 -2.536977e+09 -5.035953e+02 5.638474e+00 -9.729142e+01
-2.231961e+09 -2.031962e+09 -2.191961e+09 -1.119150e+02 1.078954e+01 -5.361549e+01
-1.670037e+09 -1.470038e+09 -1.630036e+09 -2.005663e+02 1.441069e+01 -1.330862e+02
-4.516629e+09 -4.316627e+09 -4.476627e+09 4.067262e+02 1.138836e+02 -1.558851e+01
-1.821544e+09 -1.621544e+09 -1.781542e+09 2.081457e+02 9.311335e+01 -5.065727e+01
-2.260071e+09 -2.060068e+09 -2.220072e+09 1.508357e+03 -1.027684e+03 -1.375150e+03
-4.706552e+09 -4.506550e+09 -4.666550e+09 3.657746e+02 4.190625e+01 5.313731e+01
-4.360977e+09 -4.160977e+09 -4.320976e+09 6.973407e+02 9.663819e+00 4.949868e+01
-4.892246e+09 -4.692245e+09 -4.852244e+09 2.752621e+02 4.656605e+01 2.288905e-07
-3.690020e+09 -3.490018e+09 -3.650018e+09 2.637928e+02 2.700028e+02 -7.178401e+01
-2.193588e+09 -1.993592e+09 -2.153588e+09 1.700432e+03 -1.167940e+03 5.589305e+02
-3.818341e+09 -3.618347e+09 -3.778344e+09 7.016690e+02 -5.250034e+02 1.748132e+02
-4.021163e+09 -3.821161e+09 -3.981161e+09 3.845440e+02 1.021732e+02 -6.727909e+01
-2.130760e+09 -1.930768e+09 -2.090762e+09 4.706955e+01 -2.823544e+02 6.406191e+01
-1.881378e+09 -1.681388e+09 -1.841381e+09 1.188861e+03 -2.454240e+03 4.459798e+02
-1.607633e+09 -1.407635e+09 -1.567634e+09 1.569828e+02 1.467639e+01 5.468338e+01
-3.160505e+09 -2.960503e+09 -3.120503e+09 8.528154e+02 3.229956e+02 -1.268504e+02
-2.328133e+09 -2.128134e+09 -2.288134e+09 2.711559e+02 7.668952e+00 1.187380e+01
-4.700197e+09 -4.500194e+09 -4.660195e+09 3.603418e+02 9.518830e+01 1.301705e+01
-1.636318e+09 -1.436320e+09 -1.596319e+09 8.725983e+00 2.303486e+01 4.195829e+00
-1.603274e+09 -1.403276e+09 -1.563275e+09 6.973073e+01 1.357080e+01 4.730648e+01
-4.967263e+09 -4.767263e+09 -4.927263e+09 1.005208e+02 -9.474093e+00 3.672803e+00
-2.578496e+09 -2.378493e+09 -2.538495e+09 -2.200860e+02 -5.703837e+02 -1.307606e+02
-4.629386e+09 -4.429384e+09 -4.589386e+09 -3.898696e+02 1.767605e+02 -1.580062e+02
-2.812110e+09 -2.612111e+09 -2.772112e+09 -2.089943e+02 3.689730e+02 -2.569075e+02
-2.614224e+09 -2.414222e+09 -2.574224e+09 7.922043e+01 -6.011027e+02 1.802151e+02
-1.923048e+09 -1.723049e+09 -1.883050e+09 2.094706e+01 -4.509654e+02 3.142253e+01
-3.277669e+09 -3.077669e+09 -3.237672e+09 1.504267e+03 -4.203212e+02 -5.583681e+02
-2.126726e+09 -1.926727e+09 -2.086727e+09 -2.316915e+01 -9.266561e+00 4.706830e+00
-3.075938e+09 -2.875939e+09 -3.035938e+09 -1.791967e+01 -1.404115e+01 1.210225e+00
-4.713659e+09 -4.513660e+09 -4.673661e+09 -6.113911e+02 8.681338e+01 -3.885162e+02
-4.532980e+09 -4.332977e+09 -4.492979e+09 4.508548e+01 1.837877e+02 -2.778501e+01
-4.983205e+09 -4.783204e+09 -4.943206e+09 -4.188392e+02 1.466512e+02 -1.684594e+02
-4.890117e+09 -4.690116e+09 -4.850118e+09 5.494648e+01 3.692175e+01 3.622715e-08
-4.987516e+09 -4.787517e+09 -4.947518e+09 -7.342882e+02 -3.986140e+01 -6.126328e+00
-3.955411e+09 -3.755415e+09 -3.915415e+09 -1.228384e+02 9.191945e+01 2.648270e+02
-1.676416e+09 -1.476417e+09 -1.636417e+09 -4.313796e+02 -7.086668e+01 -9.434514e+00
-2.593171e+09 -2.393172e+09 -2.553169e+09 4.580147e+02 2.537682e+01 6.831694e-01
-2.862697e+09 -2.662698e+09 -2.822695e+09 7.045327e+01 6.892213e+01 2.510276e-01
-4.890114e+09 -4.690117e+09 -4.850117e+09 -1.352663e+02 -3.057450e+01 -9.940213e-05
-3.366713e+09 -3.166714e+09 -3.326715e+09 1.647700e+01 2.554777e+02 2.258503e+01
-4.434019e+09 -4.234023e+09 -4.394023e+09 -1.303419e+02 6.149561e+01 4.967853e+01
-1.611485e+09 -1.411486e+09 -1.571483e+09 5.002632e+01 -3.966989e+00 3.091266e+00
-2.073102e+09 -1.873101e+09 -2.033101e+09 1.890360e+02 9.872295e+00 -5.661875e+00
-1.593682e+09 -1.393685e+09 -1.553681e+09 8.369106e+02 5.668580e+01 1.261040e+02
-1.696940e+09 -1.496944e+09 -1.656940e+09 1.113254e+03 1.384793e+02 2.638199e+01
-4.836298e+09 -4.636296e+09 -4.796268e+09 -3.440405e+03 -8.861064e+02 3.740044e+03
-4.471740e+09 -4.271736e+09 -4.431731e+09 -5.665614e+03 -1.778925e+03 1.910180e+03
-4.305026e+09 -4.105016e+09 -4.265019e+09 -4.409522e+03 -2.510080e+03 -2.351388e+03
-3.941359e+09 -3.741356e+09 -3.901359e+09 -9.194279e+02 -5.275279e+02 7.259195e+02
-4.825369e+09 -4.625367e+09 -4.785369e+09 -1.580175e+03 3.142894e+01 -1.358123e+02
-4.999308e+09 -4.799307e+09 -4.959309e+09 -2.127875e+03 1.529264e+01 3.930348e+01
-3.553421e+09 -3.353424e+09 -3.513420e+09 1.938231e+02 1.011618e+02 1.551900e+00
-4.407480e+09 -4.207480e+09 -4.367478e+09 3.301540e+02 1.081881e+01 5.788602e+01
-4.890118e+09 -4.690117e+09 -4.850117e+09 -1.563762e-01 -3.881603e+00 9.947599e-05
-4.759657e+09 -4.559656e+09 -4.719657e+09 4.100305e+01 3.817888e+00 2.813280e+00
-4.976482e+09 -4.776482e+09 -4.936482e+09 8.476746e+01 -1.154220e+01 1.290621e+01
-2.164833e+09 -1.964833e+09 -2.124833e+09 2.108811e+01 9.454595e+00 3.964068e+00
-4.702625e+09 -4.502625e+09 -4.662625e+09 4.319551e+01 4.379132e+00 -2.206937e+01
-4.301194e+09 -4.101192e+09 -4.261194e+09 -2.028713e+03 -1.296405e+02 3.064550e+02
-4.986691e+09 -4.786692e+09 -4.946697e+09 1.098811e+03 -7.599603e+02 2.563359e+02
-3.662155e+09 -3.462155e+09 -3.622155e+09 -5.971481e-01 -4.318311e+00 -6.072014e-01
-4.821926e+09 -4.621931e+09 -4.781933e+09 9.007638e+02 -6.414066e+02 8.179774e+01
-2.672612e+09 -2.472611e+09 -2.632611e+09 1.752617e+02 9.819330e+00 -1.523425e+00
-3.788280e+09 -3.588279e+09 -3.748280e+09 -1.934926e+00 -1.146599e+01 -2.770804e+00
-4.998442e+09 -4.798446e+09 -4.958433e+09 3.782727e+03 7.119105e+02 1.380465e+03
-4.140888e+09 -3.940887e+09 -4.100887e+09 3.572040e+01 -1.595999e-01 -7.321557e+00
-4.892350e+09 -4.692349e+09 -4.852349e+09 -7.162271e-02 -2.246864e+00 2.873687e-12
-2.712822e+09 -2.512820e+09 -2.672821e+09 1.153310e+01 3.439158e+00 9.893682e+00
-2.792843e+09 -2.592842e+09 -2.752842e+09 6.480708e+01 1.717590e+01 -1.157723e+01
-2.758031e+09 -2.558030e+09 -2.718031e+09 -3.633261e+00 1.285205e+01 -2.006630e+00
-4.638803e+09 -4.438795e+09 -4.598806e+09 9.980721e+02 -5.250679e+02 -1.185999e+03
-4.835890e+09 -4.635894e+09 -4.795888e+09 4.262170e+03 1.877592e+02 2.263905e+03
-3.968740e+09 -3.768747e+09 -3.928736e+09 5.187806e+03 4.163748e+03 4.307886e+03
-1.665855e+09 -1.465856e+09 -1.625854e+09 -4.740824e+02 -1.234070e+02 5.470270e+00
-3.961056e+09 -3.761065e+09 -3.921058e+09 2.646729e+03 6.967586e+02 2.427184e+03
-4.281890e+09 -4.081900e+09 -4.241888e+09 -1.549621e+03 -4.717401e+02 3.345043e+03
-1.632568e+09 -1.432567e+09 -1.592566e+09 -7.913523e+01 -1.065668e+02 2.943574e+01
-4.987723e+09 -4.787726e+09 -4.947730e+09 2.576907e+03 9.540673e+02 -2.780119e+02
-4.994305e+09 -4.794306e+09 -4.954315e+09 2.858302e+03 1.302072e+03 -5.330228e+02
-4.849575e+09 -4.649574e+09 -4.809575e+09 2.069017e+02 1.569239e+01 2.758245e+00
-4.820750e+09 -4.620749e+09 -4.780749e+09 9.305580e+01 -1.315202e+01 -3.934557e+01
-5.013090e+09 -4.813089e+09 -4.973089e+09 1.574521e+02 -8.028906e+00 6.568399e+00
-4.854391e+09 -4.654390e+09 -4.814390e+09 1.153670e+02 9.457437e+00 2.783704e+01
-1.584345e+09 -1.384346e+09 -1.544343e+09 -6.793292e+02 -3.001796e+02 -9.658235e+00
-1.902940e+09 -1.702938e+09 -1.862938e+09 -1.116636e+02 -1.385227e+02 -7.817396e+00
-3.207975e+09 -3.007975e+09 -3.167974e+09 5.638796e+00 1.450758e+00 -1.566017e+01
-4.986471e+09 -4.786470e+09 -4.946470e+09 7.422612e+01 6.652755e+00 3.652743e+01
-4.837299e+09 -4.637298e+09 -4.797298e+09 8.579938e+01 1.432218e+01 2.295682e+01
-4.905174e+09 -4.705175e+09 -4.865173e+09 1.551820e+01 -1.220686e-10 -4.405045e-01
-4.986471e+09 -4.786471e+09 -4.946470e+09 1.597228e+02 5.408708e+01 -1.069770e+01
-4.030201e+09 -3.830201e+09 -3.990200e+09 -1.634306e+01 1.286195e+01 -1.085703e+01
-3.210612e+09 -3.010607e+09 -3.170610e+09 6.243102e+02 1.000069e+03 -8.702305e+02
-4.987516e+09 -4.787517e+09 -4.947518e+09 -7.641662e+02 -2.592033e+01 -6.999548e+01
-2.811374e+09 -2.611376e+09 -2.771375e+09 3.015739e-01 -9.043498e+00 3.580265e+00
-3.043364e+09 -2.843366e+09 -3.003365e+09 5.981079e+01 8.350518e+00 -6.147078e+00
-3.826252e+09 -3.626254e+09 -3.786252e+09 -9.223577e+01 -6.472770e+01 -9.767248e+01
-4.454004e+09 -4.254004e+09 -4.414003e+09 -9.690209e+01 -3.917036e+01 1.091722e+01
-4.689002e+09 -4.489004e+09 -4.649002e+09 -2.192910e+02 4.306902e+01 6.956052e+01
-2.791001e+09 -2.591003e+09 -2.751000e+09 -5.877996e+01 -8.676882e+01 -8.625980e+01
-3.404404e+09 -3.204403e+09 -3.364403e+09 -2.402892e+02 -6.381994e+01 -7.411122e+01
-3.836801e+09 -3.636804e+09 -3.796801e+09 -4.843097e+02 -3.091090e+02 -5.463222e+01
-4.388618e+09 -4.188617e+09 -4.348617e+09 7.672650e+01 8.246105e+00 -3.321951e+00
-1.673916e+09 -1.473916e+09 -1.633915e+09 -7.163452e+01 4.437985e+01 -8.751398e+01
-3.967427e+09 -3.767427e+09 -3.927426e+09 -5.035484e+02 5.338366e+00 -9.471210e+01
-4.479411e+09 -4.279412e+09 -4.439411e+09 -1.280354e+03 9.710440e+01 -1.804024e+01
-1.588550e+09 -1.388549e+09 -1.548549e+09 -5.359709e+01 5.903513e+01 -7.783437e+01
-1.588677e+09 -1.388677e+09 -1.548676e+09 -2.118212e+02 2.402130e+01 -1.401690e+02
-2.838169e+09 -2.638168e+09 -2.798168e+09 -1.818585e+01 4.624912e+00 -4.290583e+01
-4.465257e+09 -4.265257e+09 -4.425256e+09 -6.629766e+02 2.852417e+01 -3.796387e+01
-4.468882e+09 -4.268881e+09 -4.428880e+09 -1.661443e+02 7.135089e+00 -3.561534e+01
-3.611437e+09 -3.411436e+09 -3.571436e+09 -3.531024e+01 1.411952e+01 -5.621377e+01
-3.274947e+09 -3.074946e+09 -3.234946e+09 2.910054e+01 3.941318e+01 -5.678799e+01
-1.588498e+09 -1.388497e+09 -1.548497e+09 5.947174e+01 2.696209e+01 -6.241931e+01
-2.337717e+09 -2.137716e+09 -2.297716e+09 7.066490e+01 6.852229e+00 -2.817757e+01
-4.594298e+09 -4.394302e+09 -4.554300e+09 -2.268166e+02 4.447431e+01 -3.984717e+02
-4.972508e+09 -4.772511e+09 -4.932508e+09 -6.053378e+02 8.851985e+01 -3.458766e+02
-4.477505e+09 -4.277509e+09 -4.437505e+09 3.476016e+02 2.038054e+02 -5.433535e+02
-4.483828e+09 -4.283827e+09 -4.443827e+09 -6.266676e+02 -5.352800e+01 1.940623e+01
-4.994738e+09 -4.794737e+09 -4.954737e+09 -5.434427e+02 1.208359e+00 3.176169e+01
-4.134271e+09 -3.934276e+09 -4.094270e+09 2.613678e+02 2.454631e+02 -1.869791e+03
-4.983758e+09 -4.783756e+09 -4.943757e+09 7.365092e+02 -5.808229e+01 -2.010366e+01
-3.954060e+09 -3.754058e+09 -3.914059e+09 6.177941e+02 7.468843e+01 -4.989079e+01
-4.962642e+09 -4.762640e+09 -4.922640e+09 2.757047e+02 -5.322980e+01 -2.845186e+00
-4.135039e+09 -3.935040e+09 -4.095040e+09 -1.165256e+03 -9.874855e+00 -5.196944e+01
-3.977178e+09 -3.777177e+09 -3.937177e+09 1.006243e+03 8.152606e+01 -6.870339e+01
-4.990801e+09 -4.790801e+09 -4.950801e+09 9.612438e+02 -3.022240e+01 -5.034848e+01
-4.107295e+09 -3.907287e+09 -4.067303e+09 -2.378254e+03 -1.754534e+03 3.357129e+02
-3.967685e+09 -3.767687e+09 -3.927686e+09 8.581068e+02 4.757143e+01 -5.535893e+01
-4.984543e+09 -4.784538e+09 -4.944550e+09 -1.832760e+03 -1.083335e+03 6.510693e+02
-4.125324e+09 -3.925322e+09 -4.085335e+09 -4.152301e+02 -3.709507e+03 1.102415e+03
-3.962794e+09 -3.762791e+09 -3.922803e+09 8.691809e+02 -3.154278e+03 2.679549e+03
-3.936454e+09 -3.736445e+09 -3.896460e+09 -2.428853e+03 -1.156993e+03 6.170906e+00
-3.970021e+09 -3.770023e+09 -3.930022e+09 6.053257e+02 3.998452e+01 -3.973046e+01
-4.989969e+09 -4.789970e+09 -4.949969e+09 8.176922e+02 -4.211889e+01 -1.068996e+02
-4.136913e+09 -3.936914e+09 -4.096914e+09 9.803666e+02 -2.034788e+01 -1.652839e+02
-4.997384e+09 -4.797385e+09 -4.957384e+09 8.416216e+02 -2.308373e+01 -8.235244e+01
-4.131627e+09 -3.931630e+09 -4.091629e+09 2.472190e+02 -2.556384e+01 -4.333693e+02
-3.971934e+09 -3.771936e+09 -3.931935e+09 7.184792e+02 3.608331e+01 -1.088671e+02
-3.967685e+09 -3.767687e+09 -3.927686e+09 1.022447e+03 2.740291e+00 -1.440037e+01
-3.961884e+09 -3.761877e+09 -3.921891e+09 -1.725862e+03 -1.368991e+03 1.594387e+03
-4.631214e+09 -4.431214e+09 -4.591214e+09 1.032916e+03 7.221768e+01 6.163978e+01
-3.977177e+09 -3.777176e+09 -3.937177e+09 1.552837e+03 4.557848e+00 1.848855e+01
-4.810881e+09 -4.610875e+09 -4.770892e+09 -1.784546e+03 -5.789790e+02 8.034552e+01
-4.983274e+09 -4.783269e+09 -4.943286e+09 -1.253476e+03 -1.983205e+03 4.014587e+02
-4.269829e+09 -4.069822e+09 -4.229841e+09 -1.960292e+03 -4.259854e+03 5.921550e+02
-3.613921e+09 -3.413922e+09 -3.573923e+09 6.784410e+01 1.468404e+02 2.649354e+01
-3.960271e+09 -3.760271e+09 -3.920271e+09 8.343407e+02 7.379067e+01 -1.798842e+01
-4.820737e+09 -4.620742e+09 -4.780738e+09 -8.584312e+01 8.607779e+01 -6.664399e+02
-4.107840e+09 -3.907844e+09 -4.067840e+09 6.051996e+02 -1.988944e+02 -1.459820e+03
-4.640246e+09 -4.440248e+09 -4.600246e+09 1.408030e+03 2.798826e+01 -2.869607e+02
-4.794306e+09 -4.594309e+09 -4.754306e+09 5.408514e+02 1.844887e+02 -2.692085e+01
-4.981733e+09 -4.781738e+09 -4.941737e+09 -1.586139e+03 1.059964e+02 4.662071e+02
-4.114454e+09 -3.914456e+09 -4.074454e+09 1.844558e+03 -8.429114e+01 -4.329484e+02
-2.573582e+09 -2.373581e+09 -2.533581e+09 2.798299e+01 2.731536e+00 -6.396171e+01
-3.578893e+09 -3.378894e+09 -3.538895e+09 -6.530181e+02 2.207220e+02 -3.459528e+02
-3.496519e+09 -3.296517e+09 -3.456519e+09 -1.382050e+03 1.267074e+02 -4.775114e+02
-4.687350e+09 -4.487352e+09 -4.647350e+09 -4.988452e+02 -1.107280e+02 -7.422664e+01
-4.456172e+09 -4.256176e+09 -4.416164e+09 1.540567e+03 -2.804345e+02 -2.016520e+03
-3.502891e+09 -3.302891e+09 -3.462890e+09 -5.718128e+01 -4.574552e+01 -2.327691e+01
-2.262723e+09 -2.062722e+09 -2.222721e+09 -3.081959e+02 -6.974866e+01 -4.949776e+01
-4.284145e+09 -4.084148e+09 -4.244139e+09 1.819001e+03 -3.416253e+02 -2.249767e+03
-1.636083e+09 -1.436088e+09 -1.596084e+09 -1.231107e+02 -2.507558e+02 3.672436e+01
-4.134272e+09 -3.934276e+09 -4.094270e+09 -7.742475e+02 5.985257e+02 -1.634436e+03
-3.949424e+09 -3.749424e+09 -3.909420e+09 2.634731e+03 -1.055073e+03 -1.423658e+03
-3.728614e+09 -3.528621e+09 -3.688617e+09 -6.668554e+02 -6.944222e+02 -1.175552e+02
-2.167054e+09 -1.967054e+09 -2.127053e+09 -1.619033e+02 -1.473463e+00 -6.764981e+01
-2.166369e+09 -1.966377e+09 -2.126371e+09 -9.621317e+00 -1.735336e+02 2.959557e+01
-3.882746e+09 -3.682745e+09 -3.842746e+09 2.069312e+02 9.493307e+00 2.199770e+01
-1.897933e+09 -1.697932e+09 -1.857932e+09 -1.366145e+02 5.382075e+01 -7.532570e+01
-2.611474e+09 -2.411474e+09 -2.571474e+09 5.232606e+01 2.019472e+01 -5.584843e+01
-3.151656e+09 -2.951655e+09 -3.111655e+09 4.298874e+01 2.081167e+01 -2.902388e+01
-1.572298e+09 -1.372297e+09 -1.532297e+09 -1.197545e+02 2.198452e+01 -8.293692e+01
-1.810248e+09 -1.610244e+09 -1.770246e+09 -1.045324e+03 -1.292940e+03 -1.249724e+03
-2.031274e+09 -1.831270e+09 -1.991273e+09 -1.241283e+03 -1.525575e+03 -1.537802e+03
-1.876287e+09 -1.676283e+09 -1.836285e+09 -1.128635e+03 -1.297756e+03 -1.118557e+03
-1.800968e+09 -1.600964e+09 -1.760966e+09 -6.051113e+02 -1.164203e+03 -1.195985e+03
-1.712019e+09 -1.512015e+09 -1.672018e+09 3.239363e+00 -1.157829e+03 -1.498088e+03
-2.003433e+09 -1.803429e+09 -1.963433e+09 2.373678e+01 -1.210349e+03 -1.474919e+03
-1.655261e+09 -1.455257e+09 -1.615259e+09 -1.117697e+03 -1.423558e+03 -1.372241e+03
-1.566313e+09 -1.366309e+09 -1.526311e+09 -1.188684e+03 -1.331069e+03 -1.245688e+03
-1.566312e+09 -1.366309e+09 -1.526311e+09 -1.164598e+03 -1.414387e+03 -1.303255e+03
-1.853377e+09 -1.653374e+09 -1.813376e+09 -1.334594e+03 -1.714844e+03 -1.259700e+03
-1.698391e+09 -1.498388e+09 -1.658389e+09 -1.478957e+03 -1.507020e+03 -9.823189e+02
-1.698390e+09 -1.498387e+09 -1.658389e+09 -1.185123e+03 -1.254000e+03 -1.038078e+03
-1.655260e+09 -1.455257e+09 -1.615259e+09 -7.820536e+02 -9.944479e+02 -1.198066e+03
-1.566312e+09 -1.366309e+09 -1.526311e+09 -8.626317e+02 -1.063356e+03 -1.158620e+03
-1.566312e+09 -1.366308e+09 -1.526311e+09 -2.690110e+02 -8.966374e+02 -1.450228e+03
-1.955954e+09 -1.755951e+09 -1.915953e+09 -6.545975e+02 -1.260615e+03 -1.177000e+03
-2.158421e+09 -1.958417e+09 -2.118421e+09 -5.013696e+02 -1.880536e+03 -1.664657e+03
-2.322687e+09 -2.122683e+09 -2.282687e+09 -1.794589e+02 -1.393080e+03 -1.374181e+03
-1.790566e+09 -1.590567e+09 -1.750567e+09 3.169986e+02 4.474310e+01 2.887592e+01
-2.017866e+09 -1.817867e+09 -1.977867e+09 3.517921e+02 5.221033e+01 9.593936e+00
-1.863002e+09 -1.663003e+09 -1.823002e+09 3.574412e+02 4.132926e+01 1.092425e+01
-1.635701e+09 -1.435702e+09 -1.595702e+09 3.094085e+02 3.504730e+01 1.563123e+01
-1.553272e+09 -1.353273e+09 -1.513273e+09 3.587293e+02 4.297432e+01 6.350360e+01
-1.553272e+09 -1.353273e+09 -1.513273e+09 3.302639e+02 3.715476e+01 4.218518e+01
-1.751372e+09 -1.551373e+09 -1.711373e+09 2.813577e+02 9.563404e+00 -8.468042e+00
-1.668943e+09 -1.468944e+09 -1.628944e+09 2.747138e+02 6.884235e+00 -1.850701e+00
-1.900284e+09 -1.700286e+09 -1.860285e+09 2.552234e+02 6.920395e+00 -1.603759e+01
-1.504084e+09 -1.304086e+09 -1.464085e+09 2.763283e+02 3.595591e+01 2.766091e+00
-1.735426e+09 -1.535427e+09 -1.695427e+09 2.772658e+02 4.230508e+01 1.740215e+01
-1.619755e+09 -1.419756e+09 -1.579756e+09 2.690471e+02 4.536082e+01 2.314995e+01
-1.677590e+09 -1.477592e+09 -1.637591e+09 2.198441e+02 3.871417e+01 2.950463e+01
-1.561920e+09 -1.361921e+09 -1.521921e+09 2.463536e+02 3.995420e+01 1.922080e+01
-1.793261e+09 -1.593262e+09 -1.753262e+09 2.384408e+02 3.684320e+01 1.846050e+01
-1.677590e+09 -1.477592e+09 -1.637591e+09 2.295563e+02 3.995033e+01 2.426610e+01
-1.446249e+09 -1.246250e+09 -1.406250e+09 2.529091e+02 4.565338e+01 5.146385e+01
-1.446249e+09 -1.246250e+09 -1.406250e+09 2.172285e+02 4.331392e+01 6.281819e+01
-1.561920e+09 -1.361921e+09 -1.521921e+09 2.161322e+02 2.931856e+01 5.983160e+01
-1.793261e+09 -1.593262e+09 -1.753262e+09 2.127034e+02 3.425635e+01 3.085220e+01
-2.045933e+09 -1.845935e+09 -2.005935e+09 3.200287e+02 2.410639e+01 -3.507212e+00
-2.241549e+09 -2.041551e+09 -2.201550e+09 3.180406e+02 1.903687e+01 -1.648148e+01
-2.395635e+09 -2.195637e+09 -2.355636e+09 2.999874e+02 1.674305e+01 8.647646e+00
-1.906237e+09 -1.706238e+09 -1.866238e+09 2.929909e+02 2.764059e+01 2.362211e+01
-2.055149e+09 -1.855150e+09 -2.015150e+09 2.803405e+02 3.299069e+01 -2.136919e+01
-2.249208e+09 -2.049209e+09 -2.209209e+09 2.763911e+02 3.053434e+01 -1.377320e+00
-1.659727e+09 -1.459729e+09 -1.619728e+09 2.738172e+02 3.392964e+01 -7.246576e-01
-2.086684e+09 -1.886686e+09 -2.046686e+09 2.728704e+02 4.118932e+01 1.293353e+01
-1.891069e+09 -1.691070e+09 -1.851070e+09 2.810823e+02 4.538448e+01 2.163533e+01
-1.510385e+09 -1.310381e+09 -1.470383e+09 -1.370950e+03 -1.528708e+03 -1.442016e+03
-1.599332e+09 -1.399329e+09 -1.559331e+09 -1.234850e+03 -1.416588e+03 -1.370412e+03
-1.709846e+09 -1.509842e+09 -1.669844e+09 -1.318507e+03 -1.537591e+03 -1.517686e+03
-1.632352e+09 -1.432348e+09 -1.592350e+09 -1.208265e+03 -1.399088e+03 -1.283851e+03
-1.505744e+09 -1.305741e+09 -1.465743e+09 -1.059212e+03 -1.336328e+03 -1.338982e+03
-1.594692e+09 -1.394689e+09 -1.554691e+09 -1.016530e+03 -1.285491e+03 -1.286963e+03
-1.550218e+09 -1.350214e+09 -1.510217e+09 -6.448010e+02 -1.238110e+03 -1.461370e+03
-1.695925e+09 -1.495921e+09 -1.655924e+09 -6.658973e+02 -1.276259e+03 -1.422619e+03
-1.432891e+09 -1.232888e+09 -1.392890e+09 -1.440530e+03 -1.659778e+03 -1.503958e+03
-1.521839e+09 -1.321836e+09 -1.481837e+09 -1.300365e+03 -1.577238e+03 -1.441021e+03
-1.477365e+09 -1.277361e+09 -1.437363e+09 -1.274892e+03 -1.515335e+03 -1.375331e+03
-1.477365e+09 -1.277362e+09 -1.437363e+09 -1.294698e+03 -1.578008e+03 -1.417066e+03
-1.465910e+09 -1.265907e+09 -1.425909e+09 -1.390246e+03 -1.536808e+03 -1.224887e+03
-1.620897e+09 -1.420894e+09 -1.580895e+09 -1.374199e+03 -1.622037e+03 -1.303710e+03
-1.543404e+09 -1.343401e+09 -1.503402e+09 -1.432721e+03 -1.572478e+03 -1.144534e+03
-1.543404e+09 -1.343400e+09 -1.503402e+09 -1.260167e+03 -1.372573e+03 -1.180925e+03
-1.432891e+09 -1.232887e+09 -1.392889e+09 -1.074110e+03 -1.322035e+03 -1.358885e+03
-1.521839e+09 -1.321835e+09 -1.481837e+09 -1.055466e+03 -1.248137e+03 -1.300441e+03
-1.477364e+09 -1.277361e+09 -1.437363e+09 -1.105528e+03 -1.280154e+03 -1.286034e+03
-1.477364e+09 -1.277360e+09 -1.437363e+09 -7.345484e+02 -1.152009e+03 -1.474628e+03
-1.583238e+09 -1.383234e+09 -1.543236e+09 -1.148682e+03 -1.499072e+03 -1.361061e+03
-1.672186e+09 -1.472182e+09 -1.632184e+09 -1.063496e+03 -1.371766e+03 -1.285787e+03
-1.773419e+09 -1.573415e+09 -1.733418e+09 -9.724528e+02 -1.755572e+03 -1.533464e+03
-1.855552e+09 -1.655548e+09 -1.815551e+09 -7.789514e+02 -1.449777e+03 -1.374662e+03
-1.507061e+09 -1.307062e+09 -1.467061e+09 3.502269e+02 5.736551e+01 1.888974e+00
-1.589490e+09 -1.389491e+09 -1.549491e+09 3.230174e+02 4.796130e+01 1.822789e+01
-1.703140e+09 -1.503141e+09 -1.663141e+09 3.488613e+02 5.888061e+01 1.712280e+00
-1.625708e+09 -1.425709e+09 -1.585708e+09 3.590983e+02 4.936006e+01 2.658695e+00
-1.429628e+09 -1.229629e+09 -1.389629e+09 3.361380e+02 3.936866e+01 1.703250e+01
-1.512057e+09 -1.312059e+09 -1.472058e+09 3.156615e+02 3.856676e+01 7.021413e+00
-1.470843e+09 -1.270844e+09 -1.430844e+09 3.537925e+02 4.258293e+01 4.762731e+01
-1.470843e+09 -1.270844e+09 -1.430844e+09 3.324311e+02 3.760627e+01 2.662569e+01
-1.487463e+09 -1.287465e+09 -1.447464e+09 2.862106e+02 1.991774e+01 -1.642155e+01
-1.569893e+09 -1.369894e+09 -1.529894e+09 2.950932e+02 1.620951e+01 -1.004832e+01
-1.528678e+09 -1.328679e+09 -1.488679e+09 2.874391e+02 1.488840e+01 -7.036670e+00
-1.644349e+09 -1.444350e+09 -1.604350e+09 2.734454e+02 1.298918e+01 -1.663542e+01
-1.446249e+09 -1.246250e+09 -1.406250e+09 3.198413e+02 4.543474e+01 8.970147e+00
-1.446249e+09 -1.246250e+09 -1.406250e+09 3.060724e+02 3.913562e+01 2.889927e+00
-1.561920e+09 -1.361921e+09 -1.521921e+09 3.014048e+02 4.056279e+01 9.544310e+00
-1.504084e+09 -1.304086e+09 -1.464085e+09 2.984802e+02 4.404714e+01 1.190358e+01
-1.446249e+09 -1.246250e+09 -1.406250e+09 2.656579e+02 4.057672e+01 1.021971e+01
-1.533002e+09 -1.333003e+09 -1.493003e+09 2.498861e+02 3.862085e+01 1.622732e+01
-1.475167e+09 -1.275168e+09 -1.435167e+09 2.692956e+02 3.912424e+01 1.102482e+01
-1.590837e+09 -1.390839e+09 -1.550838e+09 2.610337e+02 3.542755e+01 1.039817e+01
-1.533002e+09 -1.333003e+09 -1.493003e+09 2.576555e+02 3.898047e+01 1.281191e+01
-1.417331e+09 -1.217332e+09 -1.377332e+09 2.760984e+02 4.491926e+01 3.418437e+01
-1.417331e+09 -1.217332e+09 -1.377332e+09 2.470990e+02 4.338948e+01 4.126418e+01
-1.475167e+09 -1.275168e+09 -1.435167e+09 2.459386e+02 3.251174e+01 4.018427e+01
-1.590837e+09 -1.390839e+09 -1.550838e+09 2.443165e+02 3.468429e+01 1.841728e+01
-1.601503e+09 -1.401504e+09 -1.561504e+09 3.256762e+02 3.054281e+01 3.942979e+00
-1.717173e+09 -1.517175e+09 -1.677174e+09 3.267241e+02 2.827945e+01 -5.678064e+00
-1.814981e+09 -1.614983e+09 -1.774982e+09 3.257312e+02 2.596413e+01 1.240018e+00
-1.892024e+09 -1.692026e+09 -1.852025e+09 3.197670e+02 2.450203e+01 8.425069e+00
-1.564896e+09 -1.364897e+09 -1.524897e+09 3.047955e+02 4.047463e+01 -3.489319e+00
-1.647325e+09 -1.447326e+09 -1.607326e+09 3.060837e+02 3.211535e+01 1.619412e+01
-1.721781e+09 -1.521782e+09 -1.681782e+09 2.960616e+02 3.589623e+01 -1.954203e+01
-1.818811e+09 -1.618812e+09 -1.778811e+09 2.927160e+02 3.640569e+01 -1.256730e+00
-1.524070e+09 -1.324072e+09 -1.484071e+09 3.183370e+02 4.422090e+01 7.564800e+00
-1.524070e+09 -1.324072e+09 -1.484071e+09 3.050894e+02 3.834255e+01 2.219508e+00
-1.737549e+09 -1.537550e+09 -1.697550e+09 3.074432e+02 3.880819e+01 1.349950e+01
-1.639741e+09 -1.439742e+09 -1.599742e+09 3.036985e+02 4.241375e+01 9.127444e+00
-3.407446e+09 -3.207445e+09 -3.367445e+09 -5.632705e+02 -7.492300e+01 -2.181569e+01
-3.196886e+09 -2.996886e+09 -3.156886e+09 -6.235491e+02 -4.708801e+01 -4.615412e+01
-2.404218e+09 -2.204218e+09 -2.364218e+09 -5.587867e+02 -9.481083e+01 -1.660637e+01
-2.541323e+09 -2.341322e+09 -2.501323e+09 -5.952940e+02 -8.087779e+01 -5.589130e+01
-2.733134e+09 -2.533133e+09 -2.693133e+09 -7.348427e+02 -8.119071e+01 3.341598e+01
-2.801236e+09 -2.601236e+09 -2.761236e+09 -6.229825e+02 -4.630624e+01 -8.902603e-01
-2.992092e+09 -2.792097e+09 -2.952095e+09 -1.424179e+03 3.272722e+02 -1.172101e+03
-2.190857e+09 -1.990862e+09 -2.150861e+09 -1.898131e+03 8.397777e+02 -2.237098e+03
-2.978636e+09 -2.778640e+09 -2.938638e+09 -1.655807e+03 8.649905e+02 -3.098317e+03
-2.611826e+09 -2.411828e+09 -2.571825e+09 -3.073752e+03 2.298977e+03 -3.953174e+03
-2.588599e+09 -2.388605e+09 -2.548603e+09 -1.955664e+03 9.744832e+02 -2.250068e+03
-1.872214e+09 -1.672213e+09 -1.832215e+09 -2.799667e+03 3.752284e+02 -2.536017e+02
-2.464874e+09 -2.264872e+09 -2.424875e+09 -3.083731e+03 1.476578e+03 1.276255e+02
-1.879143e+09 -1.679141e+09 -1.839144e+09 -3.225913e+03 1.249301e+03 -5.049000e+02
-2.597880e+09 -2.397882e+09 -2.557882e+09 -2.906452e+03 9.441984e+02 -1.384447e+03
-2.418979e+09 -2.218970e+09 -2.378980e+09 1.532852e+03 -5.476528e+03 5.931644e+03
-2.148012e+09 -1.947987e+09 -2.108014e+09 5.048160e+03 -3.069345e+03 1.080981e+04
-3.095059e+09 -2.895067e+09 -3.055062e+09 3.258825e+02 1.049081e+03 -5.660776e+01
-3.436672e+09 -3.236679e+09 -3.396674e+09 -4.779139e+02 8.599892e+02 1.106618e+02
-1.768648e+09 -1.568655e+09 -1.728649e+09 3.322152e+03 2.282526e+03 -7.231791e+02
-3.218363e+09 -3.018370e+09 -3.178366e+09 -4.953966e+02 1.401605e+03 1.941307e+02
-2.733247e+09 -2.533254e+09 -2.693249e+09 -1.228927e+02 6.940435e+02 4.259502e+01
-2.839890e+09 -2.639897e+09 -2.799892e+09 -4.721462e+02 8.056145e+02 -1.276465e+01
-2.618248e+09 -2.418251e+09 -2.578248e+09 -3.024083e+03 2.196100e+03 -4.663733e+03
-2.539468e+09 -2.339474e+09 -2.499467e+09 -3.498415e+03 3.877485e+03 -6.700214e+03
-3.076487e+09 -2.876489e+09 -3.036489e+09 -6.710123e+02 -1.287967e+01 -1.472451e+01
-3.008185e+09 -2.808188e+09 -2.968185e+09 -2.474262e+03 1.592082e+03 -2.140496e+03
-2.582276e+09 -2.382281e+09 -2.542278e+09 -1.441142e+03 7.337623e+02 -4.061263e+03
-2.213517e+09 -2.013520e+09 -2.173520e+09 -4.008319e+03 2.210076e+03 -2.606304e+03
-2.537030e+09 -2.337031e+09 -2.497029e+09 -1.449592e+03 3.619025e+02 1.414606e+02
-2.462747e+09 -2.262748e+09 -2.422746e+09 -1.092691e+03 1.500465e+02 -8.312163e+00
-2.312524e+09 -2.112524e+09 -2.272523e+09 -9.733159e+02 1.209422e+02 -1.211736e+02
-1.931191e+09 -1.731191e+09 -1.891190e+09 -9.717613e+02 1.509271e+02 -3.646064e+01
-1.764523e+09 -1.564524e+09 -1.724522e+09 -1.282976e+03 8.913913e+01 -1.316508e+02
-3.347105e+09 -3.147108e+09 -3.307110e+09 -2.331979e+03 -3.118696e+03 -1.012219e+03
-1.761655e+09 -1.561655e+09 -1.721654e+09 -1.014222e+03 3.635830e+01 -9.511473e+01
-2.092232e+09 -1.892228e+09 -2.052241e+09 -5.280748e+03 -1.123252e+04 -6.286983e+03
-2.185703e+09 -1.985705e+09 -2.145714e+09 -5.732782e+03 -1.330008e+04 -2.495708e+03
-1.876948e+09 -1.676960e+09 -1.836959e+09 -8.157444e+03 -1.161708e+04 -4.178305e+03
-2.410574e+09 -2.210579e+09 -2.370582e+09 -4.721158e+03 -1.036489e+04 -4.258497e+03
-2.091606e+09 -1.891610e+09 -2.051612e+09 -5.906939e+03 -9.317648e+03 -5.098571e+03
-2.672100e+09 -2.472096e+09 -2.632100e+09 3.773058e+03 3.109924e+03 -2.883356e+03
-3.217125e+09 -3.017121e+09 -3.177124e+09 4.008259e+03 1.435863e+03 -2.000318e+03
-2.792684e+09 -2.592678e+09 -2.752683e+09 1.081941e+03 1.671003e+03 -2.348128e+03
-3.390077e+09 -3.190071e+09 -3.350077e+09 2.573069e+03 1.821566e+03 -2.059395e+03
-2.913149e+09 -2.713150e+09 -2.873151e+09 -3.046261e+03 -6.086302e+02 9.720404e+02
-3.221670e+09 -3.021670e+09 -3.181670e+09 -2.573272e+03 -4.537849e+02 8.151525e+02
-2.495739e+09 -2.295745e+09 -2.455740e+09 3.248583e+03 2.086315e+03 -7.216081e+02
-2.776500e+09 -2.576493e+09 -2.736498e+09 -2.887862e+03 -2.468495e+02 -1.192719e+03
-3.147007e+09 -2.947001e+09 -3.107004e+09 -2.881061e+03 -8.514070e+02 -1.192489e+03
-3.612272e+09 -3.412274e+09 -3.572273e+09 -9.689308e+02 2.380053e+01 -1.237739e+02
-2.169886e+09 -1.969866e+09 -2.129874e+09 1.570762e+03 -5.296366e+03 2.521004e+03
-1.890540e+09 -1.690515e+09 -1.850526e+09 4.958003e+03 -5.955310e+03 1.696806e+02
-1.592487e+09 -1.392489e+09 -1.552486e+09 -4.441122e+03 -3.194774e+03 -1.845300e+03
-3.230453e+09 -3.030450e+09 -3.190439e+09 4.906039e+03 -4.179265e+03 -7.450438e+03
-3.611808e+09 -3.411807e+09 -3.571810e+09 -1.627520e+03 -2.202274e+03 -1.065228e+03
-2.929684e+09 -2.729670e+09 -2.889681e+09 6.026696e+03 -6.528691e+03 -2.577585e+03
-2.203966e+09 -2.003957e+09 -2.163956e+09 2.888450e+03 -5.885827e+03 -4.075664e+03
-2.188968e+09 -1.988932e+09 -2.148941e+09 4.254061e+02 -1.297811e+04 2.995725e+02
-2.856764e+09 -2.656769e+09 -2.816767e+09 6.440780e+02 -1.027129e+01 -1.510462e+03
-3.057027e+09 -2.857031e+09 -3.017028e+09 3.293378e+02 1.669706e+02 -1.997859e+03
-3.259942e+09 -3.059945e+09 -3.219943e+09 1.632119e+03 -4.027973e+02 -2.293270e+03
-2.958501e+09 -2.758505e+09 -2.918503e+09 2.383980e+03 -6.431121e+02 -2.045750e+03
-2.851848e+09 -2.651851e+09 -2.811850e+09 -2.355534e+02 1.241559e+01 -6.377169e+01
-3.443503e+09 -3.243506e+09 -3.403505e+09 -5.190196e+02 1.236176e+00 -1.203679e+02
-3.093520e+09 -2.893520e+09 -3.053523e+09 -3.580723e+03 -4.049398e+03 -2.024549e+03
-3.236383e+09 -3.036386e+09 -3.196385e+09 -2.882265e+01 2.163750e+01 -1.768109e+02
-2.733512e+09 -2.533515e+09 -2.693514e+09 -3.406962e+02 -2.255089e+01 -2.735385e+01
-3.088862e+09 -2.888864e+09 -3.048863e+09 -4.307124e+02 7.137107e-01 -2.295742e+01
-2.631778e+09 -2.431780e+09 -2.591779e+09 -3.161039e+02 -1.061592e+01 -3.963515e+01
-2.865482e+09 -2.665485e+09 -2.825484e+09 -6.248726e+01 -2.341360e+01 -9.023088e+01
-2.264531e+09 -2.064530e+09 -2.224530e+09 3.011897e+02 5.557135e+01 -6.242915e+01
-2.101118e+09 -1.901117e+09 -2.061117e+09 7.965892e+01 4.716284e+01 -4.561712e+01
-2.582831e+09 -2.382831e+09 -2.542831e+09 3.664387e+02 1.718510e+00 -1.966944e+02
-2.655281e+09 -2.455294e+09 -2.615322e+09 2.233945e+03 4.181407e+04 -2.936878e+03
-2.436566e+09 -2.236569e+09 -2.396566e+09 2.587912e+03 1.273070e+03 -2.643924e+02
-1.750845e+09 -1.550844e+09 -1.710844e+09 1.857492e+02 5.393871e+01 -3.820055e+01
-1.934426e+09 -1.734425e+09 -1.894425e+09 1.549087e+02 4.925357e+01 -4.456721e+01
-3.320216e+09 -3.120213e+09 -3.280216e+09 -1.752820e+03 1.001040e+02 -2.979239e+02
-2.622344e+09 -2.422339e+09 -2.582343e+09 -4.201764e+02 7.545802e+02 -1.199419e+03
-3.301371e+09 -3.101366e+09 -3.261371e+09 1.268177e+02 7.885341e+02 -1.255881e+03
-3.419962e+09 -3.219955e+09 -3.379962e+09 2.068662e+02 1.071953e+03 -1.441524e+03
-2.836066e+09 -2.636058e+09 -2.796064e+09 -4.972772e+02 6.681996e+02 -2.390835e+03
-2.811016e+09 -2.611007e+09 -2.771015e+09 -2.125997e+03 -7.363419e+02 -1.372877e+03
-2.343776e+09 -2.143768e+09 -2.303773e+09 1.407486e+03 2.594010e+03 -3.143861e+03
-2.612874e+09 -2.412867e+09 -2.572872e+09 2.262542e+02 8.448957e+02 -1.882136e+03
-2.054460e+09 -1.854449e+09 -2.014455e+09 6.394085e+03 7.526338e+03 -6.914538e+03
-1.826243e+09 -1.626221e+09 -1.786238e+09 3.501921e+03 2.326384e+03 -7.504107e+03
-2.041582e+09 -1.841571e+09 -2.001578e+09 6.622402e+03 7.859102e+03 -7.834442e+03
-2.689513e+09 -2.489503e+09 -2.649512e+09 2.860221e+03 2.403435e+03 -5.156837e+03
-2.002597e+09 -1.802581e+09 -1.962596e+09 -2.394953e+03 -1.066866e+03 -3.272672e+03
-2.279151e+09 -2.079141e+09 -2.239149e+09 3.417986e+03 1.818379e+03 -4.155674e+03
-2.273375e+09 -2.073361e+09 -2.233370e+09 1.885929e+03 1.122006e+03 -4.904982e+03
-3.224271e+09 -3.024271e+09 -3.184270e+09 -5.625915e+02 1.278037e+02 -6.246048e+01
-1.707663e+09 -1.507667e+09 -1.667667e+09 -2.358269e+03 6.599281e+02 -2.236505e+03
-2.767421e+09 -2.567420e+09 -2.727420e+09 -1.152029e+02 6.373790e+01 -3.129664e+00
-3.444436e+09 -3.244435e+09 -3.404435e+09 -3.595616e+02 1.369062e+02 1.772833e+01
-3.388737e+09 -3.188736e+09 -3.348736e+09 -1.543810e+02 8.084026e+01 -3.651826e+00
-3.110054e+09 -2.910051e+09 -3.070055e+09 2.373134e+03 1.745636e+03 -1.676304e+03
-2.725176e+09 -2.525169e+09 -2.685175e+09 8.653812e+02 1.421395e+03 -1.811732e+03
-2.439513e+09 -2.239514e+09 -2.399515e+09 5.598715e+03 5.072464e+03 -3.006702e+03
-2.372596e+09 -2.172593e+09 -2.332596e+09 5.646301e+03 3.938684e+03 -3.208895e+03
-3.407822e+09 -3.207820e+09 -3.367824e+09 3.419205e+03 3.052788e+03 -2.055567e+03
-3.391904e+09 -3.191901e+09 -3.351907e+09 3.587842e+03 3.300018e+03 -2.865257e+03
-2.769063e+09 -2.569055e+09 -2.729061e+09 2.275710e+03 1.406510e+03 -3.352203e+03
-2.595700e+09 -2.395694e+09 -2.555698e+09 1.646184e+03 1.830129e+03 -1.986640e+03
-2.973146e+09 -2.773141e+09 -2.933145e+09 2.118230e+03 1.777091e+03 -1.536662e+03
-1.584923e+09 -1.384923e+09 -1.544923e+09 6.919217e+02 8.789754e+01 -1.410182e+02
-1.584013e+09 -1.384018e+09 -1.544018e+09 -1.450640e+03 2.723729e+02 -1.066758e+03
-3.588125e+09 -3.388129e+09 -3.548126e+09 -6.575722e+02 1.606623e+02 -1.581243e+03
-2.857586e+09 -2.657587e+09 -2.817587e+09 9.512414e+02 6.003027e+00 -1.270867e+02
-2.623714e+09 -2.423714e+09 -2.583714e+09 8.294111e+02 -2.523228e+01 -1.590757e+02
-3.548577e+09 -3.348580e+09 -3.508579e+09 -9.367419e+02 6.383665e+01 -4.346084e+02
-3.027863e+09 -2.827862e+09 -2.987863e+09 8.676901e+02 5.925425e+01 -1.447716e+02
-2.832608e+09 -2.632608e+09 -2.792608e+09 8.475544e+02 4.309389e+01 -4.506476e+01
-3.431901e+09 -3.231900e+09 -3.391901e+09 8.107688e+02 -2.667086e+01 -1.790342e+02
-2.776481e+09 -2.576481e+09 -2.736481e+09 1.009257e+03 9.712130e+01 -2.557664e+01
-3.589136e+09 -3.389135e+09 -3.549135e+09 -7.812845e+02 -1.050757e+02 1.045188e+02
-2.326794e+09 -2.126793e+09 -2.286794e+09 -5.816009e+02 -1.183943e+02 2.048197e+01
-2.613715e+09 -2.413715e+09 -2.573715e+09 -5.353215e+02 -6.115274e+01 3.806075e+00
-2.779318e+09 -2.579317e+09 -2.739317e+09 -5.125484e+02 -5.673687e+01 2.091295e+01
-3.166136e+09 -2.966135e+09 -3.126135e+09 -5.400445e+02 -1.050476e+02 1.604150e+00
-2.792317e+09 -2.592316e+09 -2.752317e+09 -5.727323e+02 -6.778960e+01 2.865158e+01
-2.636074e+09 -2.436044e+09 -2.596113e+09 -7.372164e+03 -1.985885e+03 3.434128e+03
-2.774822e+09 -2.574797e+09 -2.734854e+09 3.290599e+03 3.764541e+02 -1.888379e+03
-1.994352e+09 -1.794343e+09 -1.954404e+09 -1.825800e+04 4.520048e+04 1.001078e+04
-2.384017e+09 -2.184012e+09 -2.344051e+09 -1.238814e+04 2.138206e+04 5.822928e+03
-2.356314e+09 -2.156316e+09 -2.316316e+09 -1.512148e+03 -3.329133e+01 -2.220542e+02
-1.998121e+09 -1.798123e+09 -1.958123e+09 -1.296320e+03 4.076948e+00 -1.278188e+02
-2.251673e+09 -2.051675e+09 -2.211675e+09 -1.387533e+03 4.609917e+01 -1.311731e+02
-3.067712e+09 -2.867715e+09 -3.027715e+09 -1.220248e+03 1.665194e+02 -4.663665e+02
-3.199436e+09 -2.999438e+09 -3.159437e+09 -1.412312e+03 1.878708e+01 -5.636049e+01
-3.496234e+09 -3.296236e+09 -3.456235e+09 -1.521146e+03 5.192676e+01 -1.421479e+02
-1.553717e+09 -1.353720e+09 -1.513720e+09 -1.339486e+03 5.661417e+01 -8.531113e+02
-2.852330e+09 -2.652332e+09 -2.812332e+09 -1.387098e+03 5.838051e+01 -2.432631e+01
-3.202689e+09 -3.002683e+09 -3.162694e+09 -1.729453e+03 -3.095412e+03 -3.877244e+03
-1.580052e+09 -1.380044e+09 -1.540049e+09 8.892436e+03 -7.232622e+03 8.910315e+03
-2.267572e+09 -2.067565e+09 -2.227576e+09 -3.383690e+03 -6.680605e+03 -4.335679e+03
-2.603793e+09 -2.403793e+09 -2.563799e+09 -4.046163e+03 -7.238950e+03 -2.757991e+03
-2.455436e+09 -2.255431e+09 -2.415433e+09 2.786490e+03 -1.390432e+03 -7.772306e+02
-3.101391e+09 -2.901388e+09 -3.061388e+09 2.009086e+03 -7.272152e+02 -8.810934e+02
-3.406627e+09 -3.206624e+09 -3.366624e+09 2.605460e+03 -9.502477e+02 -8.098687e+02
-2.702463e+09 -2.502459e+09 -2.662461e+09 1.835882e+03 -8.064373e+02 -7.044402e+02
-3.319809e+09 -3.119803e+09 -3.279806e+09 1.571358e+03 -8.354987e+02 -3.260023e+02
-2.199412e+09 -1.999403e+09 -2.159411e+09 6.034267e+02 -7.423145e+02 -3.590387e+03
-3.368210e+09 -3.168213e+09 -3.328212e+09 -9.051141e+02 1.731616e+02 -5.040405e+02
-2.462977e+09 -2.262970e+09 -2.422978e+09 -2.533296e+02 -1.587190e+03 -3.534048e+03
-2.403335e+09 -2.203340e+09 -2.363339e+09 -7.544645e+02 2.394601e+02 -1.404547e+03
-2.066598e+09 -1.866601e+09 -2.026600e+09 -3.173046e+02 -1.256418e+01 -4.003227e+01
-3.376570e+09 -3.176569e+09 -3.336570e+09 -6.953058e+02 -1.823990e+02 1.845757e+02
-3.548577e+09 -3.348580e+09 -3.508579e+09 -1.766342e+03 2.858748e+02 -4.668633e+02
-2.554939e+09 -2.354937e+09 -2.514938e+09 -5.438627e+02 -1.879113e+02 7.876190e+01
-3.105548e+09 -2.905546e+09 -3.065547e+09 -4.152076e+02 -1.800104e+02 -6.089233e+00
-2.797414e+09 -2.597413e+09 -2.757414e+09 -4.350879e+02 -1.086762e+02 7.240352e+01
-1.864293e+09 -1.664294e+09 -1.824295e+09 -1.814864e+03 5.887679e+01 -2.503165e+01
-2.393543e+09 -2.193545e+09 -2.353545e+09 -1.662237e+03 1.626089e+02 -5.153530e+02
-1.911912e+09 -1.711914e+09 -1.871914e+09 -1.290761e+03 2.052984e+01 -1.944014e+02
-2.134370e+09 -1.934372e+09 -2.094372e+09 -2.138419e+03 2.967343e+02 -6.321380e+02
-1.848342e+09 -1.648344e+09 -1.808344e+09 -2.194103e+03 2.179796e+02 -5.877894e+02
-2.517111e+09 -2.317112e+09 -2.477112e+09 -1.746318e+03 2.463429e+02 -5.776106e+02
-1.598801e+09 -1.398806e+09 -1.558805e+09 -7.129249e+02 1.992345e+02 -1.070949e+03
-1.794406e+09 -1.594411e+09 -1.754410e+09 -8.592654e+02 1.008411e+02 -1.099916e+03
-2.612439e+09 -2.412444e+09 -2.572443e+09 -6.987879e+02 2.147760e+02 -9.299458e+02
-2.081229e+09 -1.881233e+09 -2.041231e+09 -1.485692e+03 3.435815e+02 -1.620768e+03
-1.588692e+09 -1.388702e+09 -1.548695e+09 -2.700573e+03 2.631424e+03 7.063934e+02
-2.035348e+09 -1.835352e+09 -1.995352e+09 -1.739745e+03 2.281482e+02 -7.845830e+02
-2.107515e+09 -1.907518e+09 -2.067518e+09 -1.540713e+03 2.332818e+02 -4.815655e+02
-3.616022e+09 -3.416021e+09 -3.576023e+09 1.285479e+03 -1.464620e+03 1.119201e+03
-1.795201e+09 -1.595205e+09 -1.755205e+09 -7.635304e+02 -5.895038e+01 -1.345253e+03
-2.644267e+09 -2.444266e+09 -2.604266e+09 -4.066312e+02 5.757831e+00 -1.440079e+02
-3.601153e+09 -3.401160e+09 -3.561155e+09 8.644603e+02 4.893436e+02 -9.386109e+01
-2.391410e+09 -2.191409e+09 -2.351408e+09 -6.493025e+02 1.717515e+02 -6.467780e+01
-3.579590e+09 -3.379593e+09 -3.539592e+09 -1.331588e+02 5.675743e+00 -1.775875e+02
-2.745020e+09 -2.545020e+09 -2.705019e+09 -4.305493e+02 9.565175e+01 -6.390932e+01
-1.553718e+09 -1.353719e+09 -1.513720e+09 -1.927233e+03 1.412487e+02 -3.681006e+02
-2.824182e+09 -2.624182e+09 -2.784181e+09 -6.134943e+02 3.186519e+01 -6.415106e+01
-2.739985e+09 -2.539985e+09 -2.699984e+09 -7.737591e+02 9.620390e+01 -2.700208e+01
-3.425654e+09 -3.225653e+09 -3.385653e+09 -4.011066e+02 1.012037e+02 -2.216119e+01
-3.413278e+09 -3.213278e+09 -3.373277e+09 -5.843577e+02 1.526738e+02 2.241562e+01
-3.424849e+09 -3.224848e+09 -3.384849e+09 2.526627e+02 2.488440e+01 -5.724171e+00
-3.603588e+09 -3.403587e+09 -3.563588e+09 2.170148e+02 -2.802761e+00 -1.793035e+01
-3.410576e+09 -3.210575e+09 -3.370576e+09 3.301215e+02 2.289115e+01 -2.744692e+01
-3.217021e+09 -3.017020e+09 -3.177021e+09 2.940337e+02 4.781579e+01 -4.140564e+00
-2.826086e+09 -2.626085e+09 -2.786086e+09 2.927982e+02 1.425275e+01 -5.404461e+01
-3.050181e+09 -2.850180e+09 -3.010180e+09 2.524071e+02 2.296749e+01 -8.504562e+00
-2.724548e+09 -2.524543e+09 -2.684548e+09 -4.772397e+03 -2.967243e+03 1.175318e+03
-3.423304e+09 -3.223299e+09 -3.383303e+09 -2.506238e+03 -2.461473e+02 -1.381324e+03
-3.352437e+09 -3.152434e+09 -3.312436e+09 -3.992788e+03 -1.000722e+03 8.750864e+01
-2.878431e+09 -2.678425e+09 -2.838441e+09 -1.189740e+03 -6.488437e+03 -3.242786e+03
-2.226455e+09 -2.026457e+09 -2.186459e+09 -3.969985e+03 -1.187309e+03 2.633685e+03
-3.448350e+09 -3.248344e+09 -3.408349e+09 -1.988277e+03 -4.562319e+00 -1.253647e+03
-3.392618e+09 -3.192621e+09 -3.352624e+09 1.890715e+03 -4.199198e+03 1.716393e+03
-3.174243e+09 -2.974245e+09 -3.134247e+09 2.785514e+03 -3.690521e+03 2.277034e+03
-1.828979e+09 -1.628976e+09 -1.788978e+09 -3.172232e+03 -2.780353e+03 -1.851335e+03
-2.604163e+09 -2.404166e+09 -2.564165e+09 3.431317e+03 -3.369509e+03 2.173567e+03
-2.827589e+09 -2.627593e+09 -2.787594e+09 2.283359e+03 -4.902368e+03 1.957046e+03
-2.761480e+09 -2.561483e+09 -2.721482e+09 2.339247e+03 -2.715610e+03 1.244241e+03
-2.569573e+09 -2.369575e+09 -2.529573e+09 2.725307e+03 -2.008071e+03 1.438936e+03
-2.274605e+09 -2.074606e+09 -2.234604e+09 1.912488e+03 -1.401407e+03 6.493471e+02
-3.344635e+09 -3.144637e+09 -3.304637e+09 1.771115e+03 -2.048870e+03 8.701066e+02
-3.198535e+09 -2.998538e+09 -3.158536e+09 1.543582e+03 -1.454970e+03 3.989205e+02
-2.875262e+09 -2.675263e+09 -2.835262e+09 1.844363e+03 -9.936959e+02 6.105221e+02
-3.169613e+09 -2.969613e+09 -3.129613e+09 1.953458e+03 -1.508142e+03 1.068932e+03
-1.674675e+09 -1.474678e+09 -1.634675e+09 1.801229e+03 -1.210932e+03 4.175295e+02
-3.407757e+09 -3.207762e+09 -3.367760e+09 -6.010345e+02 2.071319e+02 -1.580419e+03
-2.041757e+09 -1.841760e+09 -2.001757e+09 4.160144e+03 2.432807e+03 -9.411822e+02
-1.774820e+09 -1.574824e+09 -1.734820e+09 4.010158e+03 2.037558e+03 -1.040109e+03
-2.064509e+09 -1.864514e+09 -2.024511e+09 4.334071e+03 2.920504e+03 -1.232878e+03
-3.084012e+09 -2.884026e+09 -3.044014e+09 1.010498e+03 2.985017e+03 1.859768e+04
-3.391467e+09 -3.191472e+09 -3.351469e+09 3.048133e+03 2.276334e+03 -5.721059e+02
-3.410373e+09 -3.210375e+09 -3.370375e+09 3.526584e+03 1.921568e+03 -8.557712e+02
-3.280915e+09 -3.080918e+09 -3.240918e+09 3.632335e+03 2.768430e+03 -1.075943e+03
-2.607968e+09 -2.407974e+09 -2.567970e+09 4.700740e+03 3.042940e+03 -1.325217e+03
-2.736779e+09 -2.536785e+09 -2.696781e+09 2.983847e+03 2.596442e+03 -6.067498e+02
-2.355848e+09 -2.155855e+09 -2.315850e+09 3.386568e+03 2.281477e+03 -6.787841e+02
-3.140411e+09 -2.940416e+09 -3.100414e+09 3.009268e+03 2.071390e+03 -7.404034e+02
-2.631168e+09 -2.431174e+09 -2.591171e+09 2.880401e+03 2.923329e+03 -8.225521e+02
-2.488758e+09 -2.288762e+09 -2.448760e+09 4.241729e+03 2.911434e+03 -9.258863e+02
-3.106352e+09 -2.906360e+09 -3.066356e+09 1.506298e+03 2.391305e+03 -6.383082e+02
-2.877165e+09 -2.677173e+09 -2.837167e+09 1.714421e+03 1.668877e+03 -2.466348e+02
-2.958247e+09 -2.758254e+09 -2.918249e+09 1.529940e+03 1.325113e+03 6.352826e+00
-2.507226e+09 -2.307235e+09 -2.467230e+09 1.608207e+03 2.312904e+03 -3.970021e+02
-3.305523e+09 -3.105530e+09 -3.265526e+09 1.005693e+03 1.574710e+03 -1.783087e+01
-3.065762e+09 -2.865769e+09 -3.025765e+09 1.979731e+03 2.219312e+03 -3.129159e+02
-3.072736e+09 -2.872740e+09 -3.032737e+09 2.274973e+03 8.515666e+02 -1.208943e+02
-3.048682e+09 -2.848686e+09 -3.008683e+09 2.114221e+03 7.157737e+02 -1.339827e+02
-3.084634e+09 -2.884637e+09 -3.044634e+09 2.592408e+03 8.616767e+02 -4.231973e+02
-3.066942e+09 -2.866945e+09 -3.026943e+09 2.942845e+03 1.248508e+03 -5.370841e+02
-3.360574e+09 -3.160577e+09 -3.320575e+09 2.999985e+03 1.208105e+03 -6.765256e+02
-2.115023e+09 -1.915022e+09 -2.075022e+09 -3.466514e+02 -1.184201e+02 2.607382e+01
-3.275405e+09 -3.075405e+09 -3.235405e+09 -4.317332e+02 -2.374927e+01 5.095309e+00
-2.610688e+09 -2.410686e+09 -2.570687e+09 -3.588010e+02 -1.619073e+02 -3.027992e+01
-3.325509e+09 -3.125508e+09 -3.285509e+09 -4.027329e+02 -8.740833e+01 -4.051830e+01
-3.509956e+09 -3.309955e+09 -3.469955e+09 -3.258347e+02 -8.731960e+01 -7.862955e+00
-3.194984e+09 -2.994983e+09 -3.154983e+09 -2.897075e+02 -8.019605e+01 -3.440265e+01
-3.143365e+09 -2.943364e+09 -3.103365e+09 -3.715000e+02 -1.371575e+02 -2.267246e+01
-1.950295e+09 -1.750294e+09 -1.910294e+09 4.204539e+01 4.115106e+01 -6.142075e+01
-3.152547e+09 -2.952546e+09 -3.112546e+09 7.440159e+01 2.368570e+01 -3.233119e+01
-2.614359e+09 -2.414358e+09 -2.574358e+09 1.581641e+02 1.969734e+01 -3.655875e+01
-2.320652e+09 -2.120651e+09 -2.280651e+09 1.532262e+02 4.113960e+01 -6.144196e+01
-1.664794e+09 -1.464793e+09 -1.624793e+09 2.498729e+01 4.502745e+01 -6.658700e+01
-2.530697e+09 -2.330696e+09 -2.490696e+09 6.249996e+01 4.777023e+01 -3.432847e+01
-3.568503e+09 -3.368504e+09 -3.528504e+09 4.060366e+02 1.881767e+01 -4.526528e+01
-3.568503e+09 -3.368504e+09 -3.528504e+09 5.134280e+02 1.417441e+01 -3.216356e+01
-2.616160e+09 -2.416161e+09 -2.576161e+09 4.913487e+02 2.721751e+01 -3.032136e+01
-2.764408e+09 -2.564409e+09 -2.724409e+09 6.438633e+02 3.011659e+01 -7.338749e+01
-2.147520e+09 -1.947521e+09 -2.107521e+09 5.571616e+02 3.210778e+01 -3.174858e+01
-3.263784e+09 -3.063783e+09 -3.223783e+09 -3.715964e+02 -4.535994e+01 -2.569323e+01
-2.063437e+09 -1.863436e+09 -2.023436e+09 -4.061886e+02 -8.054419e+01 2.047102e+01
-2.971726e+09 -2.771724e+09 -2.931725e+09 -3.673135e+02 -5.075738e+01 -2.394081e+01
-2.561651e+09 -2.361650e+09 -2.521651e+09 -4.648822e+02 -9.439848e+01 -4.557002e+01
-2.248808e+09 -2.048807e+09 -2.208807e+09 -3.168334e+02 -3.159551e+01 -3.736596e+01
-1.933679e+09 -1.733677e+09 -1.893678e+09 -3.307862e+02 -7.248903e+01 -3.479446e+01
-2.242278e+09 -2.042276e+09 -2.202277e+09 -3.595562e+02 -3.927662e+01 -4.857178e+01
-2.496875e+09 -2.296869e+09 -2.456872e+09 3.724923e+03 2.407781e+03 -2.941192e+03
-3.600349e+09 -3.400343e+09 -3.560350e+09 7.416005e+02 1.890205e+03 -1.567244e+03
-1.984898e+09 -1.784889e+09 -1.944894e+09 2.057906e+03 8.756527e+02 -3.053671e+03
-1.676536e+09 -1.476537e+09 -1.636537e+09 -3.978872e+02 -5.892991e+01 3.068396e+01
-2.981198e+09 -2.781193e+09 -2.941197e+09 1.225614e+03 7.996396e+02 -1.461847e+03
-2.313643e+09 -2.113637e+09 -2.273642e+09 2.199209e+03 2.798398e+03 -2.864327e+03
-2.371954e+09 -2.171959e+09 -2.331956e+09 2.374123e+03 -6.923914e+02 -5.643020e+03
-1.892215e+09 -1.692226e+09 -1.852220e+09 3.621443e+03 -3.004800e+03 -1.197223e+04
-3.175231e+09 -2.975230e+09 -3.135230e+09 2.887625e+03 1.340163e+03 -7.329529e+02
-2.864895e+09 -2.664892e+09 -2.824893e+09 2.850772e+03 9.743804e+02 -7.828897e+02
-2.166543e+09 -1.966540e+09 -2.126541e+09 4.132429e+03 1.698059e+03 -1.825596e+03
-1.808166e+09 -1.608168e+09 -1.768167e+09 -5.249254e+02 -2.400208e+01 1.270402e+01
-1.870926e+09 -1.670926e+09 -1.830925e+09 3.800105e+03 1.585048e+03 -1.034005e+03
-2.880730e+09 -2.680728e+09 -2.840730e+09 -1.465211e+03 -3.724121e+02 9.513312e+02
-2.653361e+09 -2.453342e+09 -2.613372e+09 -6.684500e+03 4.877890e+02 -3.957803e+03
-2.561436e+09 -2.361425e+09 -2.521450e+09 -9.160827e+02 -5.783935e+03 4.586965e+03
-2.601921e+09 -2.401898e+09 -2.561932e+09 -2.487907e+03 -4.050310e+03 9.043107e+03
-3.235264e+09 -3.035253e+09 -3.195257e+09 -7.799190e+03 6.304576e+03 -2.690132e+03
-2.878719e+09 -2.678703e+09 -2.838705e+09 -2.570270e+03 2.672765e+03 -2.708127e+03
-3.557970e+09 -3.357964e+09 -3.517978e+09 -3.717375e+03 -1.691575e+03 3.260501e+03
-3.358801e+09 -3.158796e+09 -3.318806e+09 -4.711411e+03 8.264472e+02 -2.314511e+03
-2.624416e+09 -2.424414e+09 -2.584415e+09 2.828111e+02 -3.305028e+02 1.459832e+02
-2.918027e+09 -2.718026e+09 -2.878025e+09 6.446691e+02 -3.493967e+02 2.221358e+02
-3.151437e+09 -2.951436e+09 -3.111436e+09 1.990368e+02 -3.863023e+02 2.116169e+02
-3.333463e+09 -3.133462e+09 -3.293462e+09 1.938816e+02 -4.619126e+02 1.249868e+02
-3.198883e+09 -2.998882e+09 -3.158882e+09 1.002431e+02 -3.531851e+02 4.580930e+01
-3.513857e+09 -3.313856e+09 -3.473856e+09 4.277514e+01 -3.818666e+02 9.153519e+01
-1.840527e+09 -1.640541e+09 -1.800532e+09 -6.001168e+03 -1.098131e+04 -3.073441e+03
-2.452233e+09 -2.252246e+09 -2.412244e+09 -1.483298e+03 -1.042670e+04 4.941121e+02
-3.058882e+09 -2.858891e+09 -3.018894e+09 -1.146934e+03 -6.994488e+03 -3.760187e+02
-3.271314e+09 -3.071322e+09 -3.231325e+09 -2.296305e+03 -7.634816e+03 -8.261333e+02
-2.536084e+09 -2.336088e+09 -2.496092e+09 -3.242957e+03 -7.479195e+03 -2.640527e+03
-2.640336e+09 -2.440342e+09 -2.600341e+09 -4.265945e+03 -5.669612e+03 -2.445296e+03
-3.084951e+09 -2.884959e+09 -3.044961e+09 -2.496524e+03 -7.684939e+03 -1.148348e+03
-3.300354e+09 -3.100353e+09 -3.260354e+09 -1.932367e+03 2.000249e+01 3.845269e+01
-2.967779e+09 -2.767778e+09 -2.927779e+09 -1.618180e+03 -2.925055e+02 3.988939e+02
-1.676613e+09 -1.476615e+09 -1.636614e+09 -2.787686e+02 -3.759934e+01 2.784722e+01
-2.964637e+09 -2.764635e+09 -2.924637e+09 -1.722838e+03 -1.214104e+02 4.506349e+02
-1.846329e+09 -1.646327e+09 -1.806328e+09 -1.522758e+03 -2.069272e+02 3.544046e+02
-1.963929e+09 -1.763927e+09 -1.923928e+09 -9.553038e+02 -3.852041e+02 7.076240e+02
-2.156902e+09 -1.956902e+09 -2.116902e+09 -1.542949e+03 -6.863633e+01 1.235092e+02
-2.181746e+09 -1.981743e+09 -2.141745e+09 -1.169650e+03 -4.646914e+02 7.491220e+02
-2.140296e+09 -1.940295e+09 -2.100297e+09 -2.491965e+03 -8.094352e+01 8.498009e+00
-2.261694e+09 -2.061693e+09 -2.221695e+09 -2.305269e+03 3.527259e+02 1.073336e+02
-3.186459e+09 -2.986443e+09 -3.146453e+09 3.388029e+03 7.556979e+03 -6.170231e+02
-2.676190e+09 -2.476178e+09 -2.636189e+09 5.185796e+02 -1.916037e+03 -3.763598e+03
-3.387757e+09 -3.187740e+09 -3.347751e+09 6.156572e+03 6.395305e+03 2.993832e+02
-2.926567e+09 -2.726562e+09 -2.886576e+09 -3.986631e+03 -7.562959e+03 -4.443342e+03
-3.092410e+09 -2.892401e+09 -3.052414e+09 -1.956320e+03 -3.004094e+03 -4.131411e+03
-2.495475e+09 -2.295471e+09 -2.455483e+09 -3.704719e+03 -8.275704e+03 -5.758772e+03
-3.061172e+09 -2.861144e+09 -3.021151e+09 5.354688e+03 -2.194845e+04 -1.073432e+03
-2.517020e+09 -2.317003e+09 -2.477011e+09 -4.469200e+01 -2.393959e+03 3.418037e+03
-3.617058e+09 -3.417051e+09 -3.577052e+09 1.804743e+03 -1.823829e+03 9.615802e+02
-3.420761e+09 -3.220753e+09 -3.380753e+09 2.574072e+03 -3.495836e+03 -5.612569e+02
-2.608332e+09 -2.408321e+09 -2.568322e+09 1.733736e+03 -4.666526e+03 8.571075e+01
-3.190085e+09 -2.990079e+09 -3.150078e+09 3.325840e+03 -2.134783e+03 -1.017962e+03
-2.892663e+09 -2.692662e+09 -2.852662e+09 1.608925e+02 3.319496e+01 -2.122882e+01
-3.014648e+09 -2.814644e+09 -2.974645e+09 6.031259e+03 -4.545188e+03 -2.773150e+03
-3.307524e+09 -3.107517e+09 -3.267515e+09 5.585501e+03 -4.574965e+03 -1.898637e+03
-3.593598e+09 -3.393597e+09 -3.553598e+09 -6.943619e+02 -4.020140e+01 -1.835548e+01
-2.968275e+09 -2.768275e+09 -2.928275e+09 -4.343358e+02 -6.114622e+01 -4.460471e+01
-2.123301e+09 -1.923306e+09 -2.083304e+09 1.823701e+03 -1.346348e+02 -4.246489e+03
-2.072233e+09 -1.872238e+09 -2.032237e+09 1.404871e+03 -1.415546e+02 -2.257178e+03
-2.337402e+09 -2.137405e+09 -2.297404e+09 2.177994e+03 -8.171885e+02 -2.686363e+03
-2.792600e+09 -2.592590e+09 -2.752596e+09 5.851066e+03 3.897688e+03 2.501959e+03
-3.420272e+09 -3.220275e+09 -3.380273e+09 1.758001e+03 -3.614839e+02 -1.511977e+03
-2.533673e+09 -2.333678e+09 -2.493675e+09 4.943078e+02 -3.865735e+01 -2.561802e+03
-2.676720e+09 -2.476725e+09 -2.636723e+09 2.926958e+02 8.525537e+01 -2.156912e+03
-2.528600e+09 -2.328605e+09 -2.488601e+09 2.050783e+03 -8.767947e+02 -4.665675e+03
-3.087332e+09 -2.887326e+09 -3.047325e+09 -3.754017e+03 1.294517e+03 -1.821072e+03
-3.417017e+09 -3.217018e+09 -3.377010e+09 -5.876999e+03 3.432034e+03 -4.838434e+03
-2.696499e+09 -2.496494e+09 -2.656499e+09 -3.748126e+03 5.746582e+02 9.941436e+02
-3.188791e+09 -2.988787e+09 -3.148789e+09 -3.712918e+03 3.765984e+03 -1.882405e+02
-3.342711e+09 -3.142710e+09 -3.302708e+09 -4.976766e+03 3.438314e+03 -3.880364e+03
-3.364925e+09 -3.164926e+09 -3.324925e+09 -2.795838e+03 1.332271e+03 -1.834657e+03
-1.782691e+09 -1.582724e+09 -1.742709e+09 -5.870248e+03 2.239334e+04 3.695857e+03
-2.468091e+09 -2.268112e+09 -2.428119e+09 -4.258377e+03 3.094115e+04 2.015309e+02
-2.543058e+09 -2.343073e+09 -2.503075e+09 -7.911975e+03 1.555196e+04 3.929037e+03
-2.883119e+09 -2.683120e+09 -2.843120e+09 -4.952479e+02 -6.333019e+01 3.925869e+01
-1.930003e+09 -1.730034e+09 -1.890018e+09 -9.952585e+03 2.173825e+04 6.298511e+03
-3.604891e+09 -3.404891e+09 -3.564891e+09 -4.878640e+02 -4.182035e+01 3.245613e+01
-2.003621e+09 -1.803639e+09 -1.963630e+09 -4.496826e+03 1.403300e+04 3.428746e+03
-3.278147e+09 -3.078135e+09 -3.238147e+09 -8.626979e+02 1.654831e+03 6.628365e+03
-2.141012e+09 -1.940991e+09 -2.101001e+09 1.426980e+03 -4.946850e+03 3.366058e+03
-2.329020e+09 -2.129005e+09 -2.289005e+09 6.930627e+03 -1.167846e+04 -1.136962e+04
-2.523102e+09 -2.323048e+09 -2.483112e+09 -9.901649e+03 -1.148108e+04 1.987587e+04
-2.252214e+09 -2.052194e+09 -2.212214e+09 1.260974e+04 -1.416776e+04 -1.761950e+04
-2.114019e+09 -1.913953e+09 -2.074023e+09 1.448015e+03 -2.642222e+04 8.940591e+03
-1.889068e+09 -1.689037e+09 -1.849044e+09 6.048441e+03 -1.752596e+04 -6.190420e+03
-2.250381e+09 -2.050381e+09 -2.210381e+09 -4.785457e+02 -2.876701e+01 -2.182130e+00
-2.804464e+09 -2.604463e+09 -2.764464e+09 -5.473816e+02 -4.881460e+01 -4.750246e+01
-2.512780e+09 -2.312779e+09 -2.472779e+09 1.849679e+03 -1.222899e+03 9.048517e+02
-2.198991e+09 -1.998992e+09 -2.158991e+09 1.808668e+03 -1.457754e+03 6.632782e+02
-2.238552e+09 -2.038553e+09 -2.198552e+09 1.294678e+03 -8.076717e+02 3.365312e+02
-1.952293e+09 -1.752293e+09 -1.912292e+09 1.211107e+03 -7.726937e+02 2.807905e+02
-3.167229e+09 -2.967227e+09 -3.127228e+09 6.332866e+01 6.899094e+01 -3.844545e+01
-2.787413e+09 -2.587412e+09 -2.747412e+09 1.952907e+02 3.301263e+01 -4.522487e+01
-3.388754e+09 -3.188753e+09 -3.348754e+09 3.720345e+02 3.845048e+01 -4.644307e+01
-3.181378e+09 -2.981377e+09 -3.141377e+09 2.361094e+02 1.266938e+02 2.691733e+01
-3.380529e+09 -3.180528e+09 -3.340528e+09 1.938035e+02 1.787952e+01 -4.825755e+01
-2.575690e+09 -2.375689e+09 -2.535689e+09 2.451243e+02 3.293824e+01 -4.418944e+01
-2.774783e+09 -2.574782e+09 -2.734782e+09 7.189778e+01 1.365273e+01 -9.971219e+01
-2.589882e+09 -2.389881e+09 -2.549881e+09 3.123637e+02 6.424828e+01 -4.190294e+01
-3.183265e+09 -2.983264e+09 -3.143264e+09 2.604073e+02 7.179583e+01 -3.942636e+01
-3.104410e+09 -2.904416e+09 -3.064411e+09 1.341858e+03 6.966433e+02 -9.679721e+01
-3.294300e+09 -3.094305e+09 -3.254301e+09 1.555920e+03 8.342907e+02 -1.302434e+02
-3.183611e+09 -2.983616e+09 -3.143612e+09 1.254367e+03 4.358312e+02 -5.750490e+01
-2.666468e+09 -2.466463e+09 -2.626463e+09 -2.444273e+03 3.371326e+03 -1.770392e+03
-2.116659e+09 -1.916658e+09 -2.076658e+09 -3.811304e+03 3.198890e+03 -3.547960e+03
-1.961563e+09 -1.761564e+09 -1.921564e+09 -5.050635e+02 -5.084944e+01 -2.995804e+01
-2.101087e+09 -1.901083e+09 -2.061085e+09 -5.024171e+03 5.520984e+03 -3.956013e+03
-1.775417e+09 -1.575407e+09 -1.735416e+09 -2.459729e+03 7.935099e+02 1.293605e+03
-2.473689e+09 -2.273683e+09 -2.433686e+09 -4.131396e+03 4.346969e+03 -1.736344e+03
-3.178066e+09 -2.978066e+09 -3.138065e+09 -1.577991e+03 4.528210e+02 4.076120e+01
-1.901009e+09 -1.701011e+09 -1.861008e+09 -2.596619e+03 -1.870956e+03 -8.339075e+02
-3.110173e+09 -2.910176e+09 -3.070177e+09 -2.680055e+03 -3.071326e+03 -1.061568e+03
-2.982875e+09 -2.782879e+09 -2.942878e+09 -2.808264e+03 -2.890920e+03 -9.957899e+02
-3.374875e+09 -3.174875e+09 -3.334877e+09 -2.126286e+03 -2.102470e+03 -9.023167e+02
-3.238985e+09 -3.038988e+09 -3.198987e+09 -2.060296e+03 -2.214482e+03 -4.524752e+02
-3.082743e+09 -2.882743e+09 -3.042744e+09 -2.874541e+03 -2.055136e+03 -1.093127e+03
-1.569141e+09 -1.369141e+09 -1.529140e+09 -1.074635e+03 2.507176e+02 -3.169817e+01
-2.696613e+09 -2.496612e+09 -2.656609e+09 3.657167e+03 -2.970787e+03 -4.886969e+03
-2.704405e+09 -2.504409e+09 -2.664405e+09 2.087027e+03 -8.062895e+02 -4.598094e+03
-3.592378e+09 -3.392378e+09 -3.552378e+09 -1.712465e+03 3.073461e+02 2.002559e+02
-3.195319e+09 -2.995318e+09 -3.155315e+09 2.921090e+03 -2.801854e+03 -2.616666e+03
-3.328477e+09 -3.128479e+09 -3.288471e+09 2.369565e+03 -1.855272e+03 -5.182554e+03
-3.616022e+09 -3.416023e+09 -3.576023e+09 1.231207e+03 -9.826164e+02 5.386557e+02
-2.881050e+09 -2.681050e+09 -2.841050e+09 8.053549e+02 -5.800900e+02 2.809007e+02
-3.328478e+09 -3.128480e+09 -3.288471e+09 2.632885e+03 -2.093225e+03 -5.026308e+03
-3.071199e+09 -2.871195e+09 -3.031192e+09 3.874769e+03 -2.722611e+03 -1.221026e+03
-3.027490e+09 -2.827493e+09 -2.987492e+09 1.770202e+02 5.959971e+01 -5.203941e+02
-1.889363e+09 -1.689357e+09 -1.849361e+09 7.999720e+02 -5.301195e+02 7.812127e+01
-3.404516e+09 -3.204519e+09 -3.364518e+09 7.719232e+02 -6.266849e+01 -8.764880e+02
-2.709722e+09 -2.509725e+09 -2.669724e+09 6.086939e+02 -9.968325e+00 -5.197599e+02
-2.453799e+09 -2.253803e+09 -2.413802e+09 3.415089e+02 -4.258216e+01 -8.904779e+02
-2.687494e+09 -2.487499e+09 -2.647497e+09 2.989984e+02 -8.698525e+01 -8.691957e+02
-2.540147e+09 -2.340100e+09 -2.500144e+09 -1.004500e+03 -2.213871e+04 3.326042e+03
-2.487429e+09 -2.287360e+09 -2.447376e+09 1.827490e+03 -4.435862e+04 -6.185662e+03
-3.166655e+09 -2.966622e+09 -3.126656e+09 2.859787e+03 -1.257185e+04 3.314492e+03
-2.131331e+09 -1.931262e+09 -2.091309e+09 -9.240876e+02 -3.938719e+04 -3.090167e+04
-2.550073e+09 -2.350053e+09 -2.510063e+09 2.365037e+03 -3.871091e+03 3.360715e+03
-2.552121e+09 -2.352103e+09 -2.512135e+09 4.186310e+03 -1.929905e+02 -5.129149e+03
-3.298679e+09 -3.098655e+09 -3.258671e+09 4.914666e+03 -1.293275e+04 2.378621e+03
-2.407904e+09 -2.207904e+09 -2.367904e+09 3.002129e+02 6.505430e+01 -1.536801e+01
-2.000802e+09 -1.800802e+09 -1.960802e+09 3.032209e+02 3.104112e+01 -1.010577e+01
-3.084325e+09 -2.884325e+09 -3.044325e+09 4.600417e+02 4.504907e+01 -1.421502e+01
-1.565090e+09 -1.365090e+09 -1.525090e+09 4.210297e+02 6.120107e+01 1.299366e+01
-2.318350e+09 -2.118350e+09 -2.278350e+09 4.457997e+02 4.494929e+01 -3.289245e+01
-1.964638e+09 -1.764637e+09 -1.924637e+09 1.905630e+02 2.648715e+01 -9.229988e+01
-1.782287e+09 -1.582286e+09 -1.742286e+09 7.938588e+01 7.978775e+01 -6.796945e+01
-2.636596e+09 -2.436595e+09 -2.596595e+09 -1.732223e+03 7.638976e+02 4.613745e+02
-2.377815e+09 -2.177813e+09 -2.337813e+09 -6.339963e+02 9.968657e+01 -1.308521e+02
-2.788817e+09 -2.588816e+09 -2.748816e+09 -9.883648e+02 3.188479e+02 1.173882e+02
-2.772419e+09 -2.572417e+09 -2.732417e+09 -1.361028e+03 2.868929e+02 1.958102e+02
-3.486715e+09 -3.286716e+09 -3.446715e+09 -6.045253e+02 -2.468007e+01 1.580492e+01
-2.145450e+09 -1.945451e+09 -2.105451e+09 -6.722314e+02 -5.036353e+01 6.804144e+01
-2.555999e+09 -2.356000e+09 -2.516000e+09 -6.908529e+02 -7.589524e+01 9.752675e+00
-3.174180e+09 -2.974181e+09 -3.134181e+09 -5.007218e+02 -3.556483e+01 4.537090e+01
-3.163637e+09 -2.963637e+09 -3.123637e+09 -5.473926e+02 -4.294975e+01 -1.525600e+01
-2.548119e+09 -2.348119e+09 -2.508119e+09 -5.853197e+02 -7.997405e+01 -4.509021e+01
-2.069418e+09 -1.869419e+09 -2.029419e+09 -6.995917e+02 -7.345358e+01 6.274042e+01
-2.895255e+09 -2.695256e+09 -2.855256e+09 -7.011070e+02 -5.162454e+01 -6.683319e+00
-3.282550e+09 -3.082551e+09 -3.242551e+09 -6.374294e+02 -2.654638e+01 2.418860e+01
-2.851038e+09 -2.651039e+09 -2.811039e+09 -4.788594e+02 -6.240168e+01 1.880362e+01
-2.787218e+09 -2.587216e+09 -2.747217e+09 1.286148e+02 2.710364e+01 -1.008603e+02
-3.284321e+09 -3.084320e+09 -3.244320e+09 5.471016e+02 5.547360e+01 -4.473067e+01
-3.076944e+09 -2.876943e+09 -3.036944e+09 5.267368e+02 8.344414e+01 -5.870454e+01
-2.567604e+09 -2.367603e+09 -2.527603e+09 5.960562e+02 9.350864e+01 -9.780026e+01
-2.593601e+09 -2.393600e+09 -2.553601e+09 7.287221e+02 -2.141121e+01 -1.848512e+02
-2.059093e+09 -1.859092e+09 -2.019092e+09 4.857796e+02 1.019954e+02 -1.307037e+01
-2.311179e+09 -2.111188e+09 -2.271182e+09 -1.697391e+03 -3.238689e+03 -5.002795e+02
-3.332062e+09 -3.132068e+09 -3.292068e+09 -2.075366e+03 -4.276113e+03 -5.429647e+02
-3.054349e+09 -2.854358e+09 -3.014356e+09 -1.179547e+03 -5.077070e+03 -1.408872e+02
-3.040654e+09 -2.840661e+09 -3.000661e+09 -2.640132e+03 -3.977744e+03 -6.286738e+02
-2.527488e+09 -2.327498e+09 -2.487496e+09 -2.267943e+03 -5.861815e+03 -9.391189e+02
-2.549220e+09 -2.349219e+09 -2.509219e+09 8.593333e+02 -7.218579e+02 5.465703e+02
-2.128956e+09 -1.928955e+09 -2.088955e+09 8.787813e+02 -7.468844e+02 5.057635e+02
-1.994725e+09 -1.794725e+09 -1.954724e+09 1.237783e+03 -7.632202e+02 4.195571e+02
-3.151248e+09 -2.951246e+09 -3.111247e+09 6.680792e+02 -5.438153e+02 4.344717e+02
-3.008368e+09 -2.808367e+09 -2.968367e+09 1.010491e+03 -8.879117e+02 4.996622e+02
-2.280393e+09 -2.080392e+09 -2.240392e+09 7.963626e+02 -4.233811e+02 2.233382e+02
-2.199851e+09 -1.999850e+09 -2.159850e+09 1.083344e+03 -8.225552e+02 4.908313e+02
-2.483839e+09 -2.283841e+09 -2.443841e+09 3.933194e+02 1.306164e+01 -4.246207e+01
-2.606463e+09 -2.406464e+09 -2.566464e+09 4.109571e+02 3.985739e+01 -2.202305e+00
-2.651814e+09 -2.451816e+09 -2.611816e+09 1.279002e+02 2.162684e+01 -3.493518e+01
-2.211530e+09 -2.011531e+09 -2.171531e+09 2.584545e+02 9.291234e+00 -5.626237e+00
-2.593290e+09 -2.393292e+09 -2.553292e+09 3.793021e+02 7.982687e+00 -4.274258e+01
-2.628257e+09 -2.428257e+09 -2.588257e+09 9.187769e+02 6.605623e+01 -9.633943e+01
-2.549464e+09 -2.349462e+09 -2.509460e+09 3.911303e+03 -2.768631e+03 -2.889533e+03
-2.606889e+09 -2.406893e+09 -2.566888e+09 2.193862e+03 -1.918679e+03 -5.363893e+03
-3.582885e+09 -3.382890e+09 -3.542887e+09 -1.810524e+03 9.932863e+02 2.516019e+02
-3.051004e+09 -2.851002e+09 -3.011003e+09 3.326741e+03 -1.828153e+03 -1.423545e+03
-2.672775e+09 -2.472771e+09 -2.632767e+09 3.315582e+03 -3.023027e+03 -3.779065e+03
-1.882091e+09 -1.682094e+09 -1.842093e+09 -5.583849e+02 -3.705804e+01 -7.800185e+00
-2.135643e+09 -1.935646e+09 -2.095645e+09 -5.992999e+02 -6.921028e+01 -3.485905e+01
-2.525245e+09 -2.325247e+09 -2.485247e+09 -6.488722e+02 -1.099142e+01 -1.221784e+02
-3.093805e+09 -2.893808e+09 -3.053807e+09 -6.380220e+02 -2.601253e+01 -6.176147e+01
-3.302396e+09 -3.102398e+09 -3.262398e+09 -4.476685e+02 -7.493339e+00 -6.911559e+01
-3.018430e+09 -2.818434e+09 -2.978429e+09 5.991572e+03 3.000505e+03 8.249951e+03
-2.630714e+09 -2.430713e+09 -2.590724e+09 7.006533e+03 1.686226e+03 9.204940e+02
-1.897687e+09 -1.697689e+09 -1.857692e+09 5.971132e+03 5.266123e+03 3.386407e+03
-2.232295e+09 -2.032294e+09 -2.192299e+09 7.908844e+03 3.149045e+03 3.086669e+03
-2.545992e+09 -2.345985e+09 -2.505990e+09 7.576530e+03 4.030012e+03 2.975989e+03
-2.633939e+09 -2.433948e+09 -2.593942e+09 5.568095e+03 2.224140e+03 7.678879e+03
-2.541606e+09 -2.341605e+09 -2.501616e+09 1.379324e+04 1.387137e+04 1.108803e+04
-2.764423e+09 -2.564428e+09 -2.724411e+09 8.456176e+03 1.165275e+04 1.545355e+04
-2.855564e+09 -2.655565e+09 -2.815576e+09 5.780039e+03 1.370254e+04 -7.726822e+03
-2.850829e+09 -2.650831e+09 -2.810841e+09 5.874076e+03 1.251098e+04 -6.774234e+03
-1.986297e+09 -1.786304e+09 -1.946303e+09 1.065837e+04 1.199439e+04 -7.926422e+03
-2.721746e+09 -2.521739e+09 -2.681751e+09 1.062742e+04 1.087332e+04 -8.675425e+03
-2.424216e+09 -2.224207e+09 -2.384216e+09 5.307739e+02 -1.277881e+03 4.627369e+03
-2.082258e+09 -1.882251e+09 -2.042256e+09 2.036851e+03 -2.987978e+03 5.298865e+03
-1.880327e+09 -1.680313e+09 -1.840323e+09 1.060682e+03 -1.282925e+03 4.727468e+03
-2.473008e+09 -2.273003e+09 -2.433008e+09 -2.358811e+03 2.055370e+02 1.661027e+03
-2.367211e+09 -2.167205e+09 -2.327209e+09 -1.412060e+03 -5.047632e+01 2.090861e+03
-2.116484e+09 -1.916479e+09 -2.076482e+09 -1.527721e+02 -9.234461e+02 1.777481e+03
-1.898671e+09 -1.698662e+09 -1.858667e+09 2.001241e+03 -1.905377e+03 3.420471e+03
-3.597302e+09 -3.397302e+09 -3.557302e+09 -8.191493e+02 -1.342376e+01 1.674306e+01
-1.811783e+09 -1.611786e+09 -1.771785e+09 2.922348e+02 9.270658e+00 -1.514771e+02
-2.532138e+09 -2.332140e+09 -2.492140e+09 3.274153e+02 1.141344e+01 -7.497027e+01
-3.208165e+09 -3.008174e+09 -3.168170e+09 4.494981e+02 2.961582e+03 4.109489e+01
-3.408347e+09 -3.208357e+09 -3.368353e+09 4.568560e+02 2.941707e+03 -6.259759e+01
-3.402871e+09 -3.202879e+09 -3.362875e+09 -8.002090e+01 1.983024e+03 -1.884649e+02
-2.808023e+09 -2.608032e+09 -2.768027e+09 -1.331881e+02 2.306216e+03 2.016796e+02
-2.314544e+09 -2.114547e+09 -2.274546e+09 5.235083e+02 -1.979941e+01 -4.667863e+02
-2.796134e+09 -2.596137e+09 -2.756136e+09 5.736116e+02 3.140047e+01 -6.823319e+02
-3.096089e+09 -2.896092e+09 -3.056091e+09 -2.468530e+02 1.245400e+01 -3.197207e+02
-3.054131e+09 -2.854135e+09 -3.014133e+09 1.457136e+02 -1.193426e+01 -3.593319e+02
-3.496220e+09 -3.296223e+09 -3.456222e+09 -1.054783e+02 3.294843e+01 -3.840890e+02
-3.315852e+09 -3.115856e+09 -3.275854e+09 -1.005526e+02 3.023928e+01 -1.013847e+03
-3.592514e+09 -3.392517e+09 -3.552516e+09 7.231785e+02 -3.504951e+01 -4.783863e+02
-3.361877e+09 -3.161880e+09 -3.321879e+09 5.079215e+02 2.894908e+01 -3.231799e+02
-2.782444e+09 -2.582443e+09 -2.742443e+09 5.748441e+02 1.198416e+02 1.095741e+02
-2.559919e+09 -2.359918e+09 -2.519919e+09 4.960074e+02 6.980150e+01 -4.334688e+01
-1.864862e+09 -1.664862e+09 -1.824862e+09 5.921396e+02 9.180448e+01 -9.262522e+01
-2.670493e+09 -2.470493e+09 -2.630493e+09 5.248690e+02 7.208084e+01 -5.265412e+01
-2.687290e+09 -2.487286e+09 -2.647288e+09 -2.807927e+03 1.270433e+03 1.372090e+03
-2.474524e+09 -2.274522e+09 -2.434524e+09 -3.484605e+03 3.169225e+03 2.128810e+03
-2.083885e+09 -1.883882e+09 -2.043882e+09 -3.797725e+03 1.071400e+03 1.555990e+03
-1.557304e+09 -1.357301e+09 -1.517301e+09 -2.534657e+03 5.110255e+02 6.978298e+02
-2.646857e+09 -2.446853e+09 -2.606855e+09 -1.569216e+03 2.459861e+02 5.934078e+02
-2.468747e+09 -2.268740e+09 -2.428745e+09 -2.688319e+03 1.229346e+03 1.965573e+03
-2.309613e+09 -2.109613e+09 -2.269613e+09 -9.475838e+02 -7.965185e+01 4.982901e+00
-2.951430e+09 -2.751430e+09 -2.911431e+09 -7.993409e+02 -8.321828e+01 2.421000e+01
-2.606962e+09 -2.406963e+09 -2.566963e+09 -8.682093e+02 -8.391100e+01 -1.527198e+01
-3.006996e+09 -2.806997e+09 -2.966997e+09 -8.306613e+02 -5.055902e+01 2.001816e+01
-2.025134e+09 -1.825134e+09 -1.985134e+09 -7.445853e+02 -7.945678e+01 2.751861e+01
-2.532509e+09 -2.332509e+09 -2.492509e+09 -7.744249e+02 -6.082557e+01 -1.034463e+01
-2.530658e+09 -2.330659e+09 -2.490659e+09 4.615087e+02 4.618477e+01 -7.231512e+00
-2.473524e+09 -2.273525e+09 -2.433524e+09 5.873775e+02 3.432138e+01 -4.912717e+01
-2.831958e+09 -2.631960e+09 -2.791960e+09 5.551247e+02 4.649024e+01 -6.589640e+01
-2.331962e+09 -2.131963e+09 -2.291961e+09 -1.012079e+03 1.397267e+02 -1.450472e+02
-2.730241e+09 -2.530241e+09 -2.690240e+09 -9.081959e+02 2.045614e+02 -1.287889e+01
-1.758116e+09 -1.558115e+09 -1.718114e+09 -8.989670e+02 8.135918e+01 -9.567583e+01
-1.758911e+09 -1.558911e+09 -1.718910e+09 -1.328413e+03 1.916563e+02 -7.774908e+01
-2.343056e+09 -2.143055e+09 -2.303054e+09 -1.387072e+03 1.618288e+02 6.215960e+01
-1.824739e+09 -1.624738e+09 -1.784738e+09 1.557195e+02 5.941086e+01 -6.100713e+01
-2.413449e+09 -2.213448e+09 -2.373449e+09 1.449476e+02 3.615877e+01 -7.337433e+01
-2.006978e+09 -1.806977e+09 -1.966978e+09 -1.082080e+03 -1.937472e+02 1.743673e+02
-2.484344e+09 -2.284343e+09 -2.444343e+09 2.532080e+02 2.447822e+01 -6.446052e+01
-2.670714e+09 -2.470714e+09 -2.630714e+09 2.176207e+02 2.002061e+01 -2.870917e+01
-2.526882e+09 -2.326881e+09 -2.486882e+09 2.834802e+02 4.039623e+01 -5.185029e+01
-2.459376e+09 -2.259375e+09 -2.419375e+09 2.250778e+02 4.136398e+01 -1.325853e+01
-2.529126e+09 -2.329125e+09 -2.489126e+09 3.222498e+02 5.432065e+01 -2.646755e+01
-2.748815e+09 -2.548814e+09 -2.708814e+09 2.107380e+02 2.685869e+01 -2.966871e+01
-3.058775e+09 -2.858770e+09 -3.018776e+09 -2.241910e+03 2.580121e+03 2.432965e+03
-3.110654e+09 -2.910653e+09 -3.070653e+09 1.601303e+02 2.928747e+01 -4.364223e+01
-2.655762e+09 -2.455760e+09 -2.615761e+09 4.309978e+02 -1.384482e+02 -1.226259e+02
-2.072816e+09 -1.872811e+09 -2.032814e+09 7.861868e+01 1.010705e+02 1.738808e+02
-3.406962e+09 -3.206967e+09 -3.366958e+09 1.044319e+02 -3.344132e+02 -5.320579e+03
-3.114089e+09 -2.914093e+09 -3.074085e+09 3.946378e+02 -3.597661e+02 -5.145140e+03
-1.783902e+09 -1.583912e+09 -1.743908e+09 1.912147e+03 -1.213830e+03 -8.328547e+03
-2.459054e+09 -2.259060e+09 -2.419056e+09 -1.867723e+03 1.463015e+03 -4.647112e+03
-2.219941e+09 -2.019942e+09 -2.179943e+09 -3.663957e+03 1.088391e+03 -2.145790e+03
-3.014606e+09 -2.814610e+09 -2.974605e+09 -2.588287e+03 1.277870e+03 -3.318995e+03
-3.307287e+09 -3.107292e+09 -3.267288e+09 -1.620544e+03 9.271494e+02 -2.826824e+03
-3.260039e+09 -3.060043e+09 -3.220040e+09 5.190886e+02 -1.055007e+03 -3.110551e+03
-2.974007e+09 -2.774008e+09 -2.934010e+09 5.228447e+03 2.970377e+03 1.188841e+03
-2.182870e+09 -1.982872e+09 -2.142872e+09 -3.026961e+03 1.021256e+03 -1.210302e+03
-2.387865e+09 -2.187873e+09 -2.347878e+09 1.034481e+04 1.599567e+04 -8.092148e+03
-2.367207e+09 -2.167209e+09 -2.327210e+09 9.603129e+03 8.956439e+03 -5.539010e+03
-2.727106e+09 -2.527097e+09 -2.687111e+09 8.096296e+03 7.381867e+03 -7.579056e+03
-3.439071e+09 -3.239068e+09 -3.399085e+09 4.187577e+03 9.233539e+03 -4.811806e+03
-3.423378e+09 -3.223376e+09 -3.383387e+09 4.171103e+03 6.924139e+03 -4.253295e+03
-3.024125e+09 -2.824126e+09 -2.984125e+09 -2.192679e+03 7.001757e+02 3.163369e+02
-3.612908e+09 -3.412904e+09 -3.572906e+09 -1.310404e+03 5.254405e+02 7.507876e+02
-2.938750e+09 -2.738741e+09 -2.898752e+09 3.682916e+03 2.974697e+03 -5.607656e+03
-3.428742e+09 -3.228731e+09 -3.388748e+09 5.815257e+02 5.042000e+03 -4.976081e+03
-3.218693e+09 -3.018681e+09 -3.178707e+09 4.865714e+03 9.572316e+03 -9.448947e+03
-2.431995e+09 -2.231998e+09 -2.391997e+09 3.975432e+02 5.094282e+01 -2.492496e+02
-2.407571e+09 -2.207574e+09 -2.367573e+09 1.208851e+02 2.438320e+01 -4.683010e+02
-2.037551e+09 -1.837554e+09 -1.997554e+09 5.648045e+01 7.233786e+01 -3.525056e+02
-2.378330e+09 -2.178334e+09 -2.338333e+09 6.056898e+02 -3.845430e+01 -8.293065e+02
-1.880842e+09 -1.680846e+09 -1.840845e+09 1.123238e+02 1.629777e+01 -4.774383e+02
-1.943688e+09 -1.743714e+09 -1.903718e+09 1.121215e+04 4.146719e+04 -1.031376e+04
-1.743469e+09 -1.543509e+09 -1.703490e+09 1.843479e+04 3.993263e+04 -1.328022e+04
-3.245617e+09 -3.045609e+09 -3.205616e+09 -3.147592e+03 2.073607e+03 3.491188e+03
-2.032763e+09 -1.832795e+09 -1.992771e+09 9.159064e+03 1.737352e+04 -3.584575e+03
-2.504885e+09 -2.304887e+09 -2.464887e+09 -5.368225e+02 -3.074872e+01 3.563677e+01
-2.549329e+09 -2.349340e+09 -2.509349e+09 7.561789e+03 2.420670e+04 -9.211760e+03
-2.260283e+09 -2.060295e+09 -2.220289e+09 2.904279e+03 6.941302e+03 -9.776991e+02
-1.990174e+09 -1.790196e+09 -1.950182e+09 5.879202e+03 1.151940e+04 -2.211326e+03
-2.587020e+09 -2.387030e+09 -2.547031e+09 4.526237e+03 1.157538e+04 -3.277760e+03
-2.185455e+09 -1.985465e+09 -2.145465e+09 4.652019e+03 1.256562e+04 -3.223645e+03
-2.943642e+09 -2.743655e+09 -2.903650e+09 9.343543e+02 6.029726e+03 -5.517619e+02
-2.536365e+09 -2.336378e+09 -2.496372e+09 9.014489e+02 6.101254e+03 -5.341233e+02
-3.402982e+09 -3.202989e+09 -3.362987e+09 1.644385e+03 2.661813e+03 -4.761603e+02
-3.390024e+09 -3.190033e+09 -3.350031e+09 7.313865e+02 3.668129e+03 -3.594378e+02
-2.584271e+09 -2.384282e+09 -2.544276e+09 5.424604e+01 3.587261e+03 7.632617e+01
-2.992851e+09 -2.792846e+09 -2.952850e+09 -9.513368e+02 6.551279e+00 -1.119710e+03
-2.235061e+09 -2.035056e+09 -2.195062e+09 -2.609855e+03 -1.145299e+02 -9.055340e+02
-3.181524e+09 -2.981515e+09 -3.141523e+09 -2.159462e+03 -3.414738e+02 -1.566219e+03
-2.514515e+09 -2.314508e+09 -2.474513e+09 -2.079974e+03 1.037084e+03 -1.677900e+03
-3.103671e+09 -2.903640e+09 -3.063655e+09 -5.577225e+03 -1.772896e+04 -4.823703e+03
-3.332131e+09 -3.132099e+09 -3.292104e+09 3.603770e+02 -2.604389e+04 -9.779423e+03
-3.136830e+09 -2.936799e+09 -3.096803e+09 -3.256143e+03 -2.788211e+04 -4.895196e+03
-2.498760e+09 -2.298732e+09 -2.458751e+09 -1.127490e+04 -5.644125e+03 -1.224234e+02
-1.899009e+09 -1.699009e+09 -1.859009e+09 1.032730e+03 7.628603e+01 -1.355208e+02
-2.560635e+09 -2.360635e+09 -2.520635e+09 1.109799e+03 5.625636e+01 -2.222359e+02
-2.544878e+09 -2.344878e+09 -2.504878e+09 7.639052e+02 8.665311e+01 -1.032326e+02
-2.095518e+09 -1.895518e+09 -2.055518e+09 8.520433e+02 7.945271e+01 -6.043402e+01
-2.943294e+09 -2.743295e+09 -2.903295e+09 -6.791782e+02 -4.062771e+01 -1.920421e+01
-3.247622e+09 -3.047623e+09 -3.207623e+09 -7.232375e+02 -2.975291e+01 1.508998e+01
-2.460293e+09 -2.260294e+09 -2.420294e+09 -6.972812e+02 -7.183952e+01 -1.437503e+00
-2.049744e+09 -1.849746e+09 -2.009745e+09 -6.884096e+02 -6.118407e+01 5.010782e+01
-2.418097e+09 -2.218099e+09 -2.378099e+09 -5.742035e+02 -2.480296e+01 9.602392e+00
-1.836382e+09 -1.636383e+09 -1.796383e+09 -7.005494e+02 -7.936195e+01 3.484154e+01
-2.117762e+09 -1.917764e+09 -2.077764e+09 -5.362794e+02 -2.469735e+01 5.142193e+01
-3.581028e+09 -3.381024e+09 -3.541028e+09 -2.918154e+03 2.119119e+03 2.008250e+03
-3.046920e+09 -2.846917e+09 -3.006918e+09 -2.121488e+03 5.558824e+02 7.043175e+02
-1.593422e+09 -1.393422e+09 -1.553422e+09 -6.331694e+02 -1.059407e+02 -1.265686e+01
-2.583958e+09 -2.383955e+09 -2.543956e+09 -6.356723e+02 6.613432e+01 1.158320e+02
-2.482131e+09 -2.282128e+09 -2.442129e+09 -4.359713e+02 1.661195e+02 1.682063e+02
-1.971998e+09 -1.771994e+09 -1.931996e+09 -5.783327e+02 3.250229e+02 3.382568e+02
-3.581027e+09 -3.381019e+09 -3.541026e+09 -1.942185e+03 7.186752e+02 1.674186e+03
-2.355350e+09 -2.155346e+09 -2.315348e+09 -1.028453e+03 3.543694e+02 3.689056e+02
-1.745233e+09 -1.545230e+09 -1.705231e+09 -1.001862e+03 2.217207e+02 1.974641e+02
-1.962895e+09 -1.762891e+09 -1.922893e+09 -1.010683e+03 5.140827e+02 4.047541e+02
-2.091689e+09 -1.891697e+09 -2.051693e+09 2.470405e+03 -1.230433e+03 -8.236139e+03
-2.097893e+09 -1.897892e+09 -2.057887e+09 5.594861e+03 -4.766456e+03 -9.352774e+03
-1.790107e+09 -1.590108e+09 -1.750104e+09 7.714499e+03 -5.880327e+03 -8.791013e+03
-2.029342e+09 -1.829346e+09 -1.989346e+09 3.132532e+03 -1.296200e+03 -4.376513e+03
-1.589004e+09 -1.389020e+09 -1.549008e+09 -6.718254e+03 8.570068e+03 2.499447e+03
-3.613160e+09 -3.413148e+09 -3.573150e+09 -7.108958e+03 -6.938998e+03 1.177525e+03
-2.336895e+09 -2.136903e+09 -2.296900e+09 -4.212588e+03 5.205310e+03 1.150392e+03
-2.768276e+09 -2.568276e+09 -2.728278e+09 -4.438920e+03 3.172921e+03 1.963557e+03
-2.314986e+09 -2.114993e+09 -2.274989e+09 -5.167744e+03 5.384549e+03 1.911348e+03
-2.340796e+09 -2.140801e+09 -2.300803e+09 -7.390912e+03 7.121058e+03 4.319032e+03
-1.810046e+09 -1.610013e+09 -1.770078e+09 1.277317e+04 -2.663426e+04 -4.763556e+04
-3.517678e+09 -3.317678e+09 -3.477671e+09 -1.741915e+03 -2.773287e+02 -1.048942e+04
-2.870647e+09 -2.670631e+09 -2.830613e+09 -5.425573e+03 1.288078e+04 -1.399272e+04
-2.735063e+09 -2.535059e+09 -2.695049e+09 -7.550819e+03 5.975014e+03 -8.618390e+03
-3.317002e+09 -3.117003e+09 -3.276990e+09 -4.107030e+02 -1.497954e+03 -6.597665e+03
-2.816435e+09 -2.616433e+09 -2.776434e+09 -8.703398e+02 -3.511436e+02 5.119299e+02
-2.453682e+09 -2.253680e+09 -2.413681e+09 -6.369341e+02 -2.816443e+02 2.592852e+02
-1.570150e+09 -1.370151e+09 -1.530151e+09 -5.857308e+02 -6.408967e+01 -8.665442e+01
-3.200902e+09 -3.000900e+09 -3.160902e+09 -5.432123e+02 -4.309078e+02 3.699361e+02
-3.585263e+09 -3.385262e+09 -3.545263e+09 -1.255264e+03 -2.957579e+02 2.955780e+02
-3.276689e+09 -3.076688e+09 -3.236688e+09 -4.428154e+02 -3.330859e+01 -4.845684e+01
-2.389082e+09 -2.189079e+09 -2.349080e+09 -5.338484e+02 -3.417466e+02 4.297141e+02
-2.454070e+09 -2.254069e+09 -2.414070e+09 -9.470404e+02 -2.683315e+02 9.747120e+01
-2.783369e+09 -2.583367e+09 -2.743368e+09 -7.121400e+02 -2.575284e+02 2.600452e+02
-3.556308e+09 -3.356304e+09 -3.516306e+09 -1.283435e+02 7.488658e+01 2.191826e+02
-2.161945e+09 -1.961947e+09 -2.121944e+09 2.351599e+03 4.296573e+02 -1.266167e+02
-1.964720e+09 -1.764721e+09 -1.924719e+09 1.986592e+03 3.508306e+02 -2.367601e+01
-2.671099e+09 -2.471101e+09 -2.631098e+09 2.524636e+03 7.461808e+02 -2.144720e+02
-2.556469e+09 -2.356471e+09 -2.516469e+09 2.864478e+03 1.234585e+03 -3.463232e+02
-2.973918e+09 -2.773920e+09 -2.933918e+09 2.694411e+03 8.796875e+02 -4.274598e+02
-1.672881e+09 -1.472883e+09 -1.632880e+09 2.241946e+03 7.387291e+02 -1.579909e+02
-1.979905e+09 -1.779907e+09 -1.939905e+09 3.242897e+03 8.143703e+02 -6.093190e+02
-3.341212e+09 -3.141217e+09 -3.301217e+09 1.954924e+03 -2.372918e+03 8.601698e+02
-3.353723e+09 -3.153729e+09 -3.313729e+09 1.599516e+03 -4.308136e+03 9.815394e+02
-3.527332e+09 -3.327337e+09 -3.487336e+09 1.335305e+03 -2.867155e+03 6.982459e+02
-2.365781e+09 -2.165780e+09 -2.325782e+09 3.474679e+03 -3.731020e+03 2.687371e+03
-3.385289e+09 -3.185286e+09 -3.345292e+09 1.871962e+03 -2.700231e+03 2.400507e+03
-2.813738e+09 -2.613740e+09 -2.773741e+09 2.641415e+03 -2.939583e+03 1.967142e+03
-3.192066e+09 -2.992068e+09 -3.152071e+09 2.586160e+03 -3.243815e+03 1.894403e+03
-3.219010e+09 -3.019015e+09 -3.179016e+09 2.212528e+03 -3.205987e+03 1.307422e+03
-3.216993e+09 -3.016993e+09 -3.176994e+09 2.629242e+03 -2.542926e+03 1.927378e+03
-2.246169e+09 -2.046164e+09 -2.206168e+09 -1.467649e+03 -2.641767e+02 1.756949e+03
-3.142885e+09 -2.942883e+09 -3.102884e+09 -2.889439e+03 1.322130e+03 -2.913160e+02
-2.363532e+09 -2.163532e+09 -2.323533e+09 -4.646555e+03 2.443615e+03 -1.980588e+03
-2.623588e+09 -2.423586e+09 -2.583588e+09 -3.626213e+03 1.042155e+03 2.715938e+01
-2.616222e+09 -2.416219e+09 -2.576213e+09 4.960300e+03 -4.937159e+03 -6.787930e+03
-3.630075e+09 -3.430078e+09 -3.590077e+09 3.503475e+02 7.795392e+00 -1.807969e+01
-3.121413e+09 -2.921413e+09 -3.081404e+09 8.688913e+02 -1.246045e+03 -5.748981e+03
-2.703982e+09 -2.503958e+09 -2.664010e+09 -2.657562e+03 4.635198e+03 -8.152834e+03
-1.756380e+09 -1.556347e+09 -1.716401e+09 -2.692344e+04 3.746333e+04 9.811224e+03
-2.092016e+09 -1.891981e+09 -2.052052e+09 6.980820e+03 -6.574148e+02 -2.233567e+04
-2.262625e+09 -2.062621e+09 -2.222623e+09 4.415605e+02 2.410503e+01 -2.111564e+02
-2.565994e+09 -2.365991e+09 -2.525993e+09 1.358204e+03 -1.056860e+02 -5.733046e+02
-2.978193e+09 -2.778191e+09 -2.938193e+09 1.356351e+03 -2.677214e+02 -4.383558e+02
-3.269859e+09 -3.069857e+09 -3.229858e+09 5.904927e+02 3.955797e+01 -5.349994e+01
-2.555258e+09 -2.355256e+09 -2.515256e+09 7.086362e+02 -2.163471e+02 -1.855055e+02
-2.966192e+09 -2.766189e+09 -2.926190e+09 7.615536e+02 -8.218199e+01 -1.014799e+02
-3.066696e+09 -2.866694e+09 -3.026695e+09 4.906589e+02 6.655555e+01 -9.557455e+01
-2.195268e+09 -1.995271e+09 -2.155270e+09 4.594833e+03 -7.636247e+03 5.584456e+03
-2.312617e+09 -2.112618e+09 -2.272624e+09 2.852450e+03 -1.114243e+04 7.002019e+03
-2.529527e+09 -2.329530e+09 -2.489541e+09 4.261412e+03 -1.187740e+04 2.976673e+03
-2.956686e+09 -2.756689e+09 -2.916698e+09 2.837618e+03 -8.786489e+03 4.461743e+03
-2.807300e+09 -2.607298e+09 -2.767299e+09 -7.463123e+02 3.190456e+02 2.443584e+02
-3.405614e+09 -3.205612e+09 -3.365612e+09 -3.204590e+02 1.861021e+01 -8.614110e+01
-2.881908e+09 -2.681906e+09 -2.841906e+09 -4.542039e+02 1.052522e+02 2.219257e+01
-2.863289e+09 -2.663288e+09 -2.823288e+09 -6.030205e+02 1.670640e+02 -6.386998e+00
-3.369498e+09 -3.169497e+09 -3.329497e+09 -8.588026e+02 2.033005e+02 6.498404e+01
-2.747185e+09 -2.547185e+09 -2.707184e+09 -1.531977e+03 2.445819e+02 9.163093e+01
-3.356740e+09 -3.156739e+09 -3.316739e+09 -1.133353e+03 1.031783e+02 -2.129400e+01
-2.564321e+09 -2.364320e+09 -2.524319e+09 -1.469856e+03 1.957808e+02 5.797269e+01
-3.191006e+09 -2.991005e+09 -3.151005e+09 -1.003728e+03 2.041909e+02 1.190099e+02
-3.326967e+09 -3.126975e+09 -3.286974e+09 -7.516328e+02 -5.252324e+03 1.507098e+02
-3.513918e+09 -3.313926e+09 -3.473925e+09 -6.551809e+01 -3.540751e+03 1.960738e+02
-1.997495e+09 -1.797506e+09 -1.957499e+09 -1.409857e+03 -4.285321e+03 -3.925656e+02
-2.926120e+09 -2.726129e+09 -2.886127e+09 -1.221407e+03 -4.444487e+03 -1.512952e+02
-2.657868e+09 -2.457878e+09 -2.617875e+09 -1.215833e+03 -6.591499e+03 -2.784574e+02
-2.028466e+09 -1.828477e+09 -1.988470e+09 1.518447e+02 -3.804836e+03 8.254705e+01
-3.083224e+09 -2.883231e+09 -3.043230e+09 1.555492e+03 -4.237281e+03 9.255179e+02
-3.520545e+09 -3.320551e+09 -3.480551e+09 7.662973e+02 -3.343425e+03 5.033584e+02
-2.966070e+09 -2.766078e+09 -2.926074e+09 1.499986e+03 -2.947125e+03 8.043535e+02
-3.345360e+09 -3.145368e+09 -3.305367e+09 3.773060e+02 -5.060693e+03 6.594078e+02
-2.327653e+09 -2.127664e+09 -2.287659e+09 2.718723e+02 -4.613222e+03 3.701268e+02
-3.068235e+09 -2.868244e+09 -3.028243e+09 1.613319e+02 -4.942934e+03 4.321645e+02
-3.160353e+09 -2.960360e+09 -3.120365e+09 1.838376e+03 -9.085305e+03 2.720851e+03
-2.618932e+09 -2.418940e+09 -2.578938e+09 2.042311e+03 -5.970330e+03 1.644877e+03
-2.796346e+09 -2.596355e+09 -2.756355e+09 -1.754216e+00 -6.901805e+03 9.494938e+02
-2.378354e+09 -2.178366e+09 -2.338363e+09 2.649285e+03 -8.361167e+03 2.283530e+03
-2.543351e+09 -2.343359e+09 -2.503362e+09 2.162005e+03 -8.587101e+03 2.436745e+03
-2.557726e+09 -2.357726e+09 -2.517726e+09 -2.071368e+03 1.846302e+02 -1.485964e+02
-2.993835e+09 -2.793837e+09 -2.953837e+09 -2.876866e+03 9.964179e+02 -6.900026e+02
-3.395654e+09 -3.195651e+09 -3.355654e+09 -2.471714e+03 4.924124e+02 8.612191e+02
-3.195007e+09 -2.995011e+09 -3.155009e+09 -2.415576e+03 9.459550e+02 -1.527112e+03
-1.981655e+09 -1.781652e+09 -1.941654e+09 -1.866012e+03 2.671917e+02 5.337260e+02
-2.598403e+09 -2.398400e+09 -2.558402e+09 -2.197348e+03 4.486442e+01 8.481948e+02
-2.951261e+09 -2.751260e+09 -2.911262e+09 -2.386964e+03 2.352606e+02 6.336535e+01
-3.283836e+09 -3.083836e+09 -3.243837e+09 -2.190824e+03 1.373264e+02 -2.333795e+02
-2.532398e+09 -2.332401e+09 -2.492400e+09 -2.536211e+02 -1.292257e+01 2.551042e+01
-2.631220e+09 -2.431222e+09 -2.591222e+09 -2.990051e+02 -1.495995e+01 2.459996e+01
-2.835883e+09 -2.635885e+09 -2.795885e+09 -2.339813e+02 -2.775175e+01 3.969515e+01
-2.017995e+09 -1.817998e+09 -1.977997e+09 -2.940596e+02 -2.088878e+00 4.792397e+01
-2.544944e+09 -2.344946e+09 -2.504945e+09 -3.395763e+01 -1.622777e+01 4.955796e+01
-2.354127e+09 -2.154128e+09 -2.314128e+09 -1.085459e+03 -4.102523e+01 -2.867793e+00
-2.454569e+09 -2.254570e+09 -2.414570e+09 -8.438638e+02 -6.244326e+01 -3.331176e+01
-3.366032e+09 -3.166033e+09 -3.326033e+09 -8.347585e+02 -4.998241e+01 2.348546e+01
-3.185666e+09 -2.985667e+09 -3.145667e+09 -9.291577e+02 -5.118442e+01 -3.921094e-01
-3.269306e+09 -3.069307e+09 -3.229307e+09 -9.652912e+02 -8.726727e+01 5.416731e+01
-2.954784e+09 -2.754785e+09 -2.914785e+09 -1.091050e+03 -6.672603e+01 5.008397e+01
-3.229703e+09 -3.029702e+09 -3.189702e+09 5.656390e+00 1.794097e+02 2.258311e+01
-3.181361e+09 -2.981359e+09 -3.141359e+09 -1.027621e+02 -5.037548e+01 -1.249813e+02
-3.098630e+09 -2.898633e+09 -3.058632e+09 2.767462e+02 6.936695e+00 -1.822134e+02
-2.779911e+09 -2.579899e+09 -2.739908e+09 5.937927e+02 3.141485e+03 -5.109554e+03
-2.870408e+09 -2.670398e+09 -2.830411e+09 2.986154e+03 5.674512e+03 -5.570538e+03
-2.880545e+09 -2.680523e+09 -2.840548e+09 -6.659036e+02 -6.312582e+02 -8.067891e+03
-3.089962e+09 -2.889949e+09 -3.049961e+09 -5.678345e+03 -2.858101e+03 -7.151047e+02
-3.476361e+09 -3.276349e+09 -3.436367e+09 3.713558e+03 5.737091e+03 -6.638406e+03
-2.660302e+09 -2.460288e+09 -2.620302e+09 -4.199336e+03 -1.916170e+03 -2.738406e+03
-3.419815e+09 -3.219800e+09 -3.379819e+09 2.032175e+03 2.319187e+03 -6.707686e+03
-3.163842e+09 -2.963837e+09 -3.123841e+09 1.859169e+03 1.099629e+03 -1.169417e+03
-2.689082e+09 -2.489079e+09 -2.649081e+09 3.631399e+03 2.502839e+03 -1.933323e+03
-2.257606e+09 -2.057603e+09 -2.217604e+09 2.759463e+03 1.824183e+03 -1.045067e+03
-1.870993e+09 -1.670990e+09 -1.830991e+09 4.037003e+03 1.796261e+03 -1.721875e+03
-2.071013e+09 -1.871010e+09 -2.031010e+09 4.046747e+03 2.110053e+03 -1.842565e+03
-3.315009e+09 -3.115019e+09 -3.275013e+09 3.738005e+03 2.840808e+03 4.531520e+03
-2.964020e+09 -2.764019e+09 -2.924020e+09 -3.916186e+02 -5.764947e+01 -1.352749e+01
-2.752995e+09 -2.553008e+09 -2.713001e+09 5.146472e+03 5.554611e+03 1.260099e+04
-1.610746e+09 -1.410749e+09 -1.570746e+09 2.923933e+03 -2.428750e+03 1.021514e+03
-2.599432e+09 -2.399443e+09 -2.559436e+09 -1.082375e+03 -1.089675e+03 6.012717e+03
-2.972074e+09 -2.772090e+09 -2.932075e+09 -2.514005e+03 -8.377373e+02 1.301840e+04
-2.697452e+09 -2.497464e+09 -2.657457e+09 2.126201e+03 6.663922e+02 1.121968e+04
-3.283442e+09 -3.083458e+09 -3.243440e+09 -2.890129e+00 -2.617332e+02 1.251802e+04
-2.593562e+09 -2.393562e+09 -2.553562e+09 -1.106533e+03 -5.214483e+01 -1.062195e+02
-1.875078e+09 -1.675078e+09 -1.835078e+09 -1.010864e+03 -1.827449e+02 1.477335e+02
-1.904419e+09 -1.704419e+09 -1.864419e+09 -8.576916e+02 -1.192784e+02 5.603782e+01
-2.558870e+09 -2.358869e+09 -2.518869e+09 -7.522343e+02 -1.385267e+02 6.309732e+01
-1.961745e+09 -1.761744e+09 -1.921744e+09 -6.682919e+02 -1.458926e+02 8.965583e+01
-2.664015e+09 -2.464014e+09 -2.624015e+09 -8.377020e+02 -1.616000e+02 5.057825e+01
-3.078821e+09 -2.878821e+09 -3.038821e+09 -5.693210e+02 -5.169195e+01 -2.962492e+01
-2.967040e+09 -2.767040e+09 -2.927040e+09 -5.945507e+02 -6.473428e+01 1.066697e+01
-1.678186e+09 -1.478186e+09 -1.638185e+09 2.372212e+03 6.147965e+02 -1.646561e+02
-2.476902e+09 -2.276902e+09 -2.436902e+09 -5.433989e+02 -8.576598e+01 -3.314067e+00
-2.060305e+09 -1.860305e+09 -2.020305e+09 -7.134955e+02 -8.464607e+01 6.851110e+01
-2.467221e+09 -2.267221e+09 -2.427221e+09 -7.156207e+02 -9.582394e+01 -5.305300e+01
-2.079215e+09 -1.879215e+09 -2.039215e+09 -5.286978e+02 -4.120980e+01 4.828888e+00
-1.878569e+09 -1.678569e+09 -1.838569e+09 -5.572520e+02 -7.902837e+01 -8.345339e+00
-2.813188e+09 -2.613188e+09 -2.773190e+09 -2.825866e+03 -2.855715e+03 -1.441818e+03
-3.083657e+09 -2.883658e+09 -3.043663e+09 -3.658256e+03 -5.091211e+03 -2.470182e+03
-3.187048e+09 -2.987050e+09 -3.147051e+09 -2.885335e+03 -3.107677e+03 -1.373178e+03
-2.798127e+09 -2.598131e+09 -2.758131e+09 -3.116368e+03 -5.079897e+03 -1.793170e+03
-2.766080e+09 -2.566084e+09 -2.726084e+09 -3.031473e+03 -4.512753e+03 -1.706334e+03
-2.121167e+09 -1.921160e+09 -2.081172e+09 -3.078565e+03 -3.674204e+03 3.919279e+03
-2.661634e+09 -2.461625e+09 -2.621642e+09 -3.289569e+02 -4.428013e+03 6.810654e+03
-2.261256e+09 -2.061246e+09 -2.221264e+09 9.415811e+03 -1.421610e+04 1.044255e+04
-1.780426e+09 -1.580404e+09 -1.740437e+09 7.236997e+03 -4.756920e+03 1.140788e+04
-1.893677e+09 -1.693677e+09 -1.853679e+09 1.343222e+04 -1.197565e+04 1.073169e+04
-2.218858e+09 -2.018868e+09 -2.178862e+09 -1.276304e+03 -4.180870e+03 1.269170e+02
-1.879941e+09 -1.679946e+09 -1.839942e+09 -2.583385e+03 -2.910387e+03 -1.017555e+03
-3.499635e+09 -3.299640e+09 -3.459639e+09 -1.668628e+03 -2.446784e+03 -3.944930e+02
-3.243525e+09 -3.043530e+09 -3.203529e+09 -1.492966e+03 -2.779829e+03 -5.302774e+01
-2.588213e+09 -2.388218e+09 -2.548216e+09 -2.773242e+03 -3.912033e+03 -1.176653e+03
-2.715510e+09 -2.515514e+09 -2.675514e+09 -2.613736e+03 -4.440610e+03 -1.339206e+03
-3.057163e+09 -2.857169e+09 -3.017168e+09 -2.256127e+03 -3.979065e+03 -9.257672e+02
-2.928400e+09 -2.728405e+09 -2.888403e+09 -2.432559e+03 -2.790256e+03 -5.855772e+02
-3.309027e+09 -3.109026e+09 -3.269028e+09 -2.290718e+03 -2.249101e+03 -1.213188e+03
-3.016894e+09 -2.816894e+09 -2.976895e+09 -2.169354e+03 -2.068794e+03 -1.082861e+03
-1.686292e+09 -1.486292e+09 -1.646290e+09 -2.958368e+03 -1.970059e+03 -6.901166e+02
-2.547902e+09 -2.347901e+09 -2.507903e+09 -2.793060e+03 -2.576084e+03 -1.297249e+03
-2.686154e+09 -2.486155e+09 -2.646155e+09 -2.898271e+03 -2.965122e+03 -1.284191e+03
-1.890359e+09 -1.690360e+09 -1.850359e+09 -3.086444e+03 -1.896560e+03 -1.034490e+03
-2.944491e+09 -2.744490e+09 -2.904492e+09 -2.305461e+03 -1.811763e+03 -1.295873e+03
-1.994816e+09 -1.794817e+09 -1.954815e+09 -2.779739e+03 -1.808474e+03 -7.788811e+02
-1.989258e+09 -1.789257e+09 -1.949258e+09 -3.223274e+02 -4.866128e+01 -3.711919e+01
-2.502748e+09 -2.302747e+09 -2.462748e+09 -4.011069e+02 -7.994676e+01 -5.727795e+01
-2.147147e+09 -1.947146e+09 -2.107146e+09 -4.647818e+02 -5.194024e+01 -2.410578e+01
-2.693497e+09 -2.493496e+09 -2.653497e+09 -4.196118e+02 -5.515230e+01 -3.646755e+01
-2.568265e+09 -2.368264e+09 -2.528264e+09 -4.324274e+02 -5.922673e+01 -3.244627e+01
-3.004420e+09 -2.804419e+09 -2.964420e+09 -3.707896e+02 -6.423102e+01 -4.837226e+01
-2.170578e+09 -1.970577e+09 -2.130577e+09 -4.390529e+02 -4.866203e+01 3.483798e+00
-2.980671e+09 -2.780674e+09 -2.940673e+09 -8.824785e+02 -5.657210e+00 -3.746098e+02
-2.956971e+09 -2.756974e+09 -2.916973e+09 -1.543045e+03 8.941443e+01 -4.779093e+02
-3.123474e+09 -2.923477e+09 -3.083476e+09 -4.860000e+02 4.886338e+01 -3.644808e+02
-3.312153e+09 -3.112156e+09 -3.272155e+09 -5.624586e+02 3.442184e+01 -3.274679e+02
-2.579232e+09 -2.379234e+09 -2.539233e+09 -1.029677e+03 1.681247e+02 -3.279188e+02
-2.670965e+09 -2.470968e+09 -2.630967e+09 -6.834070e+02 -5.605671e+00 -1.593159e+02
-2.225004e+09 -2.024966e+09 -2.184942e+09 -3.778283e+03 -3.819812e+03 -2.066315e+04
-2.549649e+09 -2.349630e+09 -2.509650e+09 -4.561594e+03 5.306673e+03 -5.538272e+03
-2.942754e+09 -2.742730e+09 -2.902746e+09 -1.248904e+04 1.526213e+04 -7.057577e+03
-3.299299e+09 -3.099287e+09 -3.259256e+09 -6.401337e+03 4.923042e+03 2.586842e+03
-3.128634e+09 -2.928622e+09 -3.088596e+09 -5.333121e+03 5.746345e+03 -1.962538e+04
-2.134921e+09 -1.934900e+09 -2.094877e+09 -6.249165e+03 1.241837e+04 -1.104575e+04
-2.327870e+09 -2.127852e+09 -2.287814e+09 -1.521462e+04 -8.879031e+03 -2.783446e+04
-2.631546e+09 -2.431516e+09 -2.591481e+09 -1.109652e+04 8.697270e+03 -2.846270e+04
-2.608572e+09 -2.408570e+09 -2.568571e+09 -5.223645e+02 -1.304341e+02 5.258778e+01
-2.346646e+09 -2.146645e+09 -2.306646e+09 -5.793478e+02 -1.161448e+02 -2.079898e+01
-2.586347e+09 -2.386346e+09 -2.546346e+09 -5.471571e+02 -9.641496e+01 6.668265e+00
-1.960545e+09 -1.760545e+09 -1.920545e+09 -5.824782e+02 -1.132324e+02 2.799936e+01
-2.520974e+09 -2.320915e+09 -2.480882e+09 -1.010740e+03 -4.250071e+04 1.628742e+03
-1.803887e+09 -1.603887e+09 -1.763887e+09 -4.567887e+02 -1.034517e+02 -2.202607e+01
-1.980397e+09 -1.780396e+09 -1.940397e+09 -5.857917e+02 -8.166711e+01 3.774019e+01
-3.076028e+09 -2.876036e+09 -3.036047e+09 3.607809e+03 1.422390e+04 -2.565269e+03
-2.959859e+09 -2.759874e+09 -2.919871e+09 -6.446622e+02 8.703435e+03 3.415016e+02
-3.299557e+09 -3.099564e+09 -3.259573e+09 -9.052889e+02 1.078378e+04 -3.789618e+02
-3.116953e+09 -2.916955e+09 -3.076954e+09 3.237339e+02 1.366334e+01 4.829470e+01
-1.854274e+09 -1.654295e+09 -1.814282e+09 -1.281162e+02 1.012360e+04 -5.445381e+02
-3.307406e+09 -3.107413e+09 -3.267419e+09 3.782566e+03 1.008286e+04 -3.074210e+03
-3.004107e+09 -2.804116e+09 -2.964121e+09 4.753455e+03 1.091592e+04 -2.417316e+03
-3.288650e+09 -3.088655e+09 -3.248666e+09 2.811219e+03 1.090227e+04 -1.474135e+03
-2.539419e+09 -2.339435e+09 -2.499431e+09 5.570274e+02 1.214912e+04 1.016090e+03
-2.679024e+09 -2.479023e+09 -2.639042e+09 -3.108741e+03 -1.506428e+04 2.232599e+03
-2.622707e+09 -2.422709e+09 -2.582726e+09 1.263400e+03 -1.821074e+04 4.677074e+03
-3.019791e+09 -2.819785e+09 -2.979802e+09 -3.904207e+02 -3.328968e+03 3.188501e+03
-3.204665e+09 -3.004659e+09 -3.164679e+09 -8.546204e+01 -5.641908e+03 4.163202e+03
-2.561470e+09 -2.361474e+09 -2.521487e+09 1.390198e+03 -1.235662e+04 3.486880e+03
-2.888212e+09 -2.688212e+09 -2.848222e+09 2.968397e+03 -7.174269e+03 4.974454e+03
-2.414681e+09 -2.214693e+09 -2.374695e+09 4.233993e+03 -1.385677e+04 3.546479e+03
-2.033678e+09 -1.833686e+09 -1.993683e+09 -3.997124e+03 -8.298004e+03 -2.150920e+03
-2.460397e+09 -2.260401e+09 -2.420401e+09 -4.798863e+03 -7.558386e+03 -2.758732e+03
-1.877808e+09 -1.677815e+09 -1.837810e+09 -5.689239e+03 -7.229253e+03 -3.562560e+03
-2.663486e+09 -2.463500e+09 -2.623482e+09 -8.222223e+03 -9.876728e+03 2.270280e+04
-3.293680e+09 -3.093690e+09 -3.253681e+09 -1.936479e+03 -5.225546e+01 6.560028e+03
-3.098191e+09 -2.898203e+09 -3.058186e+09 1.516746e+03 -2.134760e+03 1.148260e+04
-2.156666e+09 -1.956682e+09 -2.116676e+09 -9.484116e+02 6.867403e+02 1.166229e+04
-2.159018e+09 -1.959029e+09 -2.119025e+09 -6.731281e+03 -1.550199e+03 9.032000e+03
-2.569464e+09 -2.369473e+09 -2.529465e+09 -6.390953e+03 -5.446313e+03 9.412946e+03
-2.491337e+09 -2.291352e+09 -2.451333e+09 2.230694e+03 2.291157e+02 1.686214e+04
-3.079351e+09 -2.879350e+09 -3.039350e+09 1.151340e+03 -8.346109e+01 -3.850452e+02
-2.669756e+09 -2.469757e+09 -2.629757e+09 1.379720e+03 -4.891599e+01 -6.043465e+02
-3.388241e+09 -3.188242e+09 -3.348242e+09 1.328221e+03 -9.437363e+01 -5.135053e+02
-3.283185e+09 -3.083184e+09 -3.243185e+09 1.576695e+03 -1.266095e+02 -3.763237e+02
-2.564700e+09 -2.364700e+09 -2.524701e+09 1.805722e+03 -2.315974e+02 -3.477938e+02
-2.615018e+09 -2.415007e+09 -2.575014e+09 -1.148994e+03 7.543757e+02 1.963742e+03
-2.599411e+09 -2.399405e+09 -2.559407e+09 7.837701e+02 -7.676704e+02 1.468967e+02
-2.645130e+09 -2.445120e+09 -2.605125e+09 -3.900593e+02 5.425233e+02 2.166216e+03
-3.017601e+09 -2.817596e+09 -2.977599e+09 8.434883e+02 -1.279659e+02 3.526940e+02
-3.097092e+09 -2.897081e+09 -3.057090e+09 -2.279058e+03 7.565207e+02 2.889039e+03
-3.441205e+09 -3.241198e+09 -3.401203e+09 -4.941153e+02 3.022405e+01 1.458663e+03
-2.571289e+09 -2.371280e+09 -2.531285e+09 -2.128841e+03 1.456609e+01 2.758883e+03
-3.412722e+09 -3.212720e+09 -3.372722e+09 7.355002e+02 -1.125909e+03 7.000761e+02
-2.794700e+09 -2.594697e+09 -2.754701e+09 1.270304e+03 -1.960186e+03 1.902508e+03
-2.995654e+09 -2.795651e+09 -2.955653e+09 9.394864e+01 -9.848537e+02 1.025841e+03
-2.980640e+09 -2.780637e+09 -2.940640e+09 4.286211e+02 -8.899260e+02 1.121055e+03
-3.351611e+09 -3.151608e+09 -3.311610e+09 2.959987e+02 -7.860781e+02 1.026025e+03
-3.202577e+09 -3.002574e+09 -3.162577e+09 1.265930e+03 -1.702466e+03 1.651183e+03
-3.389957e+09 -3.189954e+09 -3.349957e+09 5.660425e+02 -1.537817e+03 1.235205e+03
-2.081596e+09 -1.881609e+09 -2.041611e+09 -1.068480e+03 -1.665423e+04 -5.162026e+02
-2.463693e+09 -2.263704e+09 -2.423709e+09 -2.291422e+03 -1.425167e+04 9.816833e+02
-2.625229e+09 -2.425236e+09 -2.585252e+09 8.058508e+02 -1.774379e+04 4.616032e+03
-3.076113e+09 -2.876107e+09 -3.036127e+09 -3.350912e+03 -5.056963e+03 -1.206389e+03
-3.287971e+09 -3.087973e+09 -3.247987e+09 1.380166e+03 -1.009539e+04 3.297602e+03
-3.260984e+09 -3.060979e+09 -3.221000e+09 -2.734212e+03 -5.248286e+03 -1.356104e+03
-3.074311e+09 -2.874321e+09 -3.034324e+09 -1.061697e+03 -9.587355e+03 7.503112e+02
-2.969080e+09 -2.769078e+09 -2.929098e+09 -3.292752e+03 -4.664226e+03 -1.504363e+03
-3.578419e+09 -3.378411e+09 -3.538441e+09 -4.738218e+02 1.140539e+04 -1.109483e+03
-2.437481e+09 -2.237501e+09 -2.397515e+09 -7.046758e+03 2.397735e+04 5.490081e+03
-2.058933e+09 -1.858939e+09 -2.018966e+09 -1.123964e+04 3.548576e+04 6.851277e+02
-2.909109e+09 -2.709123e+09 -2.869133e+09 -1.533792e+02 2.057539e+04 1.654550e+03
-2.673246e+09 -2.473220e+09 -2.633247e+09 3.228263e+02 1.452537e+04 -9.938330e+02
-1.776244e+09 -1.576239e+09 -1.736241e+09 -7.081055e+02 -8.321509e+01 9.233625e+02
-2.397819e+09 -2.197803e+09 -2.357817e+09 -2.916206e+03 -3.678576e+03 -2.341569e+03
-2.216346e+09 -2.016329e+09 -2.176371e+09 -3.067497e+03 -1.684822e+04 7.316440e+02
-3.029230e+09 -2.829223e+09 -2.989241e+09 -9.689545e+02 -6.289956e+03 -3.365885e+03
-3.214104e+09 -3.014094e+09 -3.174111e+09 -3.664261e+01 -5.098579e+03 -2.914300e+02
-2.012772e+09 -1.812770e+09 -1.972800e+09 -5.063409e+03 -1.593966e+04 -4.849338e+03
-3.153731e+09 -2.953745e+09 -3.113725e+09 5.877583e+03 8.463192e+03 1.512318e+04
-2.632132e+09 -2.432125e+09 -2.592149e+09 -4.752469e+03 -1.097621e+04 2.825266e+02
-3.281866e+09 -3.081836e+09 -3.241859e+09 1.201988e+03 8.729239e+03 -6.866684e+03
-2.571037e+09 -2.371037e+09 -2.531037e+09 -8.367449e+02 -1.387604e+02 3.277349e+01
-3.607836e+09 -3.407834e+09 -3.567829e+09 7.316333e+03 6.824595e+03 4.918181e+03
-2.080929e+09 -1.880929e+09 -2.040929e+09 -7.745486e+02 -1.072339e+02 5.946305e+01
-2.571893e+09 -2.371892e+09 -2.531892e+09 -6.899458e+02 -8.300741e+01 5.616825e+01
-2.751242e+09 -2.551241e+09 -2.711242e+09 -3.692243e+02 -1.071648e+02 -1.546094e+01
-3.079337e+09 -2.879336e+09 -3.039336e+09 -4.430120e+02 -8.030079e+01 -4.359794e+01
-1.773459e+09 -1.573458e+09 -1.733459e+09 -5.761465e+02 -1.057616e+02 -1.092868e-01
-2.544889e+09 -2.344888e+09 -2.504888e+09 -6.191485e+02 -1.451874e+02 -3.990998e+01
-2.170142e+09 -1.970144e+09 -2.130144e+09 -2.010034e+03 2.807821e+02 -1.454881e+02
-2.004837e+09 -1.804837e+09 -1.964838e+09 -1.645038e+03 -3.440175e+01 -1.393570e+02
-2.963687e+09 -2.763689e+09 -2.923688e+09 -1.683485e+03 2.992982e+01 -1.199256e+02
-2.970346e+09 -2.770343e+09 -2.930345e+09 -1.352121e+03 -1.053240e+02 7.391920e+02
-2.862351e+09 -2.662351e+09 -2.822352e+09 -2.317455e+03 2.043687e+02 1.680262e+02
-2.158918e+09 -1.958919e+09 -2.118919e+09 -1.932838e+03 1.236369e+01 -5.056702e+01
-1.984850e+09 -1.784861e+09 -1.944859e+09 -3.147244e+03 -8.506896e+02 5.493190e+03
-3.479672e+09 -3.279681e+09 -3.439672e+09 -2.387374e+03 -3.727261e+02 4.394409e+03
-2.184767e+09 -1.984778e+09 -2.144774e+09 -1.448366e+03 -6.359620e+02 5.540772e+03
-2.879516e+09 -2.679517e+09 -2.839517e+09 -7.903389e+02 -2.163879e+01 -2.183490e+01
-2.547613e+09 -2.347615e+09 -2.507614e+09 -8.318530e+02 -6.125642e+01 2.262996e+01
-2.180250e+09 -1.980252e+09 -2.140252e+09 -1.062153e+03 -6.338808e+00 -8.772418e+01
-2.557530e+09 -2.357533e+09 -2.517532e+09 -6.173404e+02 -4.065939e+01 -1.345463e+02
-1.859715e+09 -1.659718e+09 -1.819717e+09 -4.591819e+02 -2.470488e+01 7.363415e+00
-2.720044e+09 -2.520046e+09 -2.680046e+09 -3.420483e+02 -1.986100e+01 1.542398e+01
-3.194926e+09 -2.994927e+09 -3.154927e+09 -2.083932e+03 2.402625e+02 -3.798851e+02
-2.590359e+09 -2.390357e+09 -2.550359e+09 -8.661953e+02 -3.550545e+02 5.603276e+02
-1.795432e+09 -1.595430e+09 -1.755431e+09 -5.981642e+02 -3.394708e+02 2.863167e+02
-2.625261e+09 -2.425260e+09 -2.585261e+09 -1.733865e+03 -1.797924e+01 8.070235e+01
-2.655349e+09 -2.455347e+09 -2.615348e+09 -1.156068e+03 -2.994125e+02 3.954534e+02
-2.596862e+09 -2.396861e+09 -2.556861e+09 -1.074340e+03 -3.356255e+02 3.639474e+02
-3.326170e+09 -3.126169e+09 -3.286170e+09 -1.509775e+03 -1.125510e+02 3.595733e+02
-2.735685e+09 -2.535652e+09 -2.695630e+09 1.184751e+04 1.665415e+04 3.724742e+03
-3.095928e+09 -2.895887e+09 -3.055909e+09 1.483263e+03 1.196686e+04 -4.758141e+03
-3.120195e+09 -2.920159e+09 -3.080134e+09 -1.992442e+03 3.114368e+04 -2.528884e+03
-3.427327e+09 -3.227302e+09 -3.387291e+09 -2.150000e+03 9.213207e+03 -3.703255e+03
-2.670574e+09 -2.470547e+09 -2.630577e+09 -3.816469e+03 -1.126005e+03 -2.139927e+03
-3.434429e+09 -3.234423e+09 -3.394417e+09 -4.255449e+03 4.533931e+03 -4.817848e+03
-1.799979e+09 -1.599957e+09 -1.759980e+09 -3.276050e+03 -7.331907e+02 -7.152508e+03
-1.997896e+09 -1.797875e+09 -1.957901e+09 3.527154e+03 -6.138982e+03 -5.104987e+03
-2.630916e+09 -2.430899e+09 -2.590925e+09 -3.124335e+02 -1.335214e+03 -4.994347e+03
-3.057875e+09 -2.857863e+09 -3.017877e+09 5.259752e+02 -2.361011e+03 -4.045719e+03
-3.423981e+09 -3.223981e+09 -3.383984e+09 -2.857094e+03 -3.429436e+03 -1.635094e+03
-1.874314e+09 -1.674311e+09 -1.834312e+09 -1.386186e+03 -1.545338e+02 5.463452e+02
-2.698118e+09 -2.498115e+09 -2.658117e+09 -7.105833e+02 -7.738763e+02 1.096265e+03
-2.874454e+09 -2.674451e+09 -2.834454e+09 -2.250226e+03 2.781026e+02 5.839751e+02
-3.196418e+09 -2.996418e+09 -3.156418e+09 1.838530e+02 2.344980e+01 -5.394060e+00
-2.575621e+09 -2.375620e+09 -2.535620e+09 1.164589e+02 1.735801e+01 -2.030206e+00
-2.643011e+09 -2.443011e+09 -2.603011e+09 2.330282e+02 3.623053e+01 -2.980195e+01
-3.123483e+09 -2.923482e+09 -3.083482e+09 2.141508e+02 3.200636e+01 -3.398060e+01
-1.977185e+09 -1.777197e+09 -1.937189e+09 4.534752e+03 6.076705e+03 -1.410875e+03
-1.944172e+09 -1.744186e+09 -1.904177e+09 9.804732e+02 6.728088e+03 -4.858583e+02
-2.462022e+09 -2.262032e+09 -2.422026e+09 2.127378e+03 3.787433e+03 -8.047178e+02
-2.652203e+09 -2.452213e+09 -2.612209e+09 4.702078e+02 3.791900e+03 -1.237512e+02
-3.272157e+09 -3.072159e+09 -3.232158e+09 4.038147e+02 3.650284e+01 6.464671e+00
-3.145488e+09 -2.945498e+09 -3.105496e+09 3.028726e+03 6.371270e+03 -1.483157e+03
-2.598664e+09 -2.398672e+09 -2.558668e+09 3.790108e+03 3.970748e+03 -6.399188e+02
-2.860942e+09 -2.660955e+09 -2.820953e+09 2.965991e+03 7.554384e+03 -1.581665e+03
-3.301043e+09 -3.101050e+09 -3.261045e+09 -7.797861e+01 4.865653e+02 -2.498821e+01
-3.227976e+09 -3.027984e+09 -3.187980e+09 2.694074e+02 1.463893e+03 -1.707513e+02
-2.918810e+09 -2.718809e+09 -2.878809e+09 1.175592e+02 4.388313e+01 -4.213027e+01
-2.984602e+09 -2.784609e+09 -2.944604e+09 -8.914795e+01 5.725146e+02 1.559579e+01
-3.428159e+09 -3.228167e+09 -3.388163e+09 -1.632223e+02 1.724856e+03 5.155974e+01
-2.701022e+09 -2.501030e+09 -2.661025e+09 3.474436e+02 1.234830e+03 4.826500e+00
-2.827856e+09 -2.627863e+09 -2.787857e+09 -7.470096e+02 8.477196e+02 7.296456e+01
-3.406235e+09 -3.206242e+09 -3.366238e+09 -5.047623e+02 8.984666e+02 -1.063956e+02
-2.346129e+09 -2.146130e+09 -2.306130e+09 -1.477677e+03 1.122376e+01 -8.574501e+01
-2.946786e+09 -2.746787e+09 -2.906787e+09 -1.465538e+03 8.842694e+01 -2.105438e+02
-3.231966e+09 -3.031968e+09 -3.191968e+09 -1.619320e+03 -1.253897e+01 -1.132156e+02
-2.196811e+09 -1.996810e+09 -2.156810e+09 -1.026848e+03 -1.866649e+02 2.551319e+02
-3.236692e+09 -3.036693e+09 -3.196693e+09 -1.582253e+03 -1.257410e+00 -1.319036e+02
-3.014604e+09 -2.814604e+09 -2.974604e+09 -1.193012e+03 -8.192571e+01 -1.135915e+01
-3.210599e+09 -3.010599e+09 -3.170599e+09 -1.244129e+03 -6.185281e+01 -6.519134e+00
-3.036086e+09 -2.836086e+09 -2.996086e+09 -1.737777e+03 2.751933e+01 7.818047e+01
-2.696120e+09 -2.496120e+09 -2.656121e+09 -1.293381e+03 -2.942615e+02 4.633222e+02
-1.576345e+09 -1.376344e+09 -1.536344e+09 -1.054351e+03 2.785102e+02 6.208122e+01
-2.422535e+09 -2.222534e+09 -2.382534e+09 -1.487542e+03 3.530339e+02 2.748517e+02
-3.202825e+09 -3.002822e+09 -3.162823e+09 -7.599960e+02 2.010705e+02 1.450522e+02
-3.405987e+09 -3.205985e+09 -3.365986e+09 -9.969801e+02 3.877599e+02 2.391016e+02
-3.389589e+09 -3.189587e+09 -3.349588e+09 -1.389773e+03 3.158722e+02 8.757394e+01
-3.118168e+09 -2.918166e+09 -3.078170e+09 3.554339e+03 -3.687925e+03 3.810516e+03
-2.737544e+09 -2.537540e+09 -2.697548e+09 1.429682e+03 -4.192033e+03 5.276249e+03
-2.122759e+09 -1.922755e+09 -2.082760e+09 4.081038e+03 -5.747305e+03 5.855981e+03
-2.707885e+09 -2.507886e+09 -2.667889e+09 2.685974e+03 -5.477507e+03 2.869010e+03
-2.630736e+09 -2.430732e+09 -2.590740e+09 3.229571e+03 -5.301735e+03 6.487671e+03
-2.723540e+09 -2.523538e+09 -2.683542e+09 3.315448e+03 -4.344530e+03 4.421307e+03
-3.086746e+09 -2.886749e+09 -3.046748e+09 -2.021534e+01 1.729376e+01 -1.370564e+02
-2.924388e+09 -2.724391e+09 -2.884390e+09 3.905243e+02 5.844180e+00 -1.543623e+02
-2.706380e+09 -2.506382e+09 -2.666382e+09 2.347561e+02 1.686804e+01 -7.329253e+01
-2.066540e+09 -1.866542e+09 -2.026542e+09 -5.388962e+01 1.374959e+01 -5.226311e+01
-2.898447e+09 -2.698449e+09 -2.858449e+09 5.734434e+02 4.136362e+01 -1.535261e+02
-2.873699e+09 -2.673702e+09 -2.833701e+09 3.295657e+02 7.338763e+00 -8.562697e+01
-2.172920e+09 -1.972918e+09 -2.132919e+09 1.400812e+03 -2.515639e+02 -4.615989e+02
-2.574423e+09 -2.374422e+09 -2.534423e+09 1.470659e+03 -1.044926e+02 -5.509467e+02
-3.304279e+09 -3.104279e+09 -3.264278e+09 1.771211e+03 -4.130757e+02 -9.655809e+02
-2.657437e+09 -2.457438e+09 -2.617438e+09 1.637424e+03 -1.316930e+02 -5.653915e+02
-3.105667e+09 -2.905668e+09 -3.065668e+09 1.840609e+03 -3.396031e+02 -9.314380e+02
-2.567085e+09 -2.367086e+09 -2.527086e+09 7.672774e+02 3.597735e+01 -1.029411e+02
-2.417006e+09 -2.217007e+09 -2.377007e+09 8.609497e+02 1.033665e+02 -9.891016e+01
-2.058567e+09 -1.858569e+09 -2.018569e+09 1.124796e+03 3.605880e+01 -1.297579e+02
-2.477907e+09 -2.277909e+09 -2.437909e+09 9.015588e+02 -1.033654e+01 -3.432922e+02
-2.622796e+09 -2.422794e+09 -2.582795e+09 -6.807304e+01 -3.238116e+02 4.018082e+02
-3.229013e+09 -3.029011e+09 -3.189012e+09 -1.030132e+02 -3.939690e+02 2.702955e+02
-3.405738e+09 -3.205736e+09 -3.365737e+09 -3.179214e+02 -2.209126e+02 1.753193e+02
-2.713225e+09 -2.513223e+09 -2.673224e+09 -1.214705e+02 -2.640252e+02 9.997045e+01
-2.816567e+09 -2.616566e+09 -2.776566e+09 -2.752769e+02 -3.030276e+02 2.534441e+02
-3.409406e+09 -3.209405e+09 -3.369405e+09 -2.987511e+02 -3.216853e+02 1.247060e+02
-2.597445e+09 -2.397417e+09 -2.557433e+09 -8.688333e+03 -1.095062e+04 -4.594157e+03
-2.592479e+09 -2.392469e+09 -2.552481e+09 6.088628e+03 7.829550e+03 -1.094528e+04
-2.760561e+09 -2.560545e+09 -2.720569e+09 3.699258e+03 5.091038e+03 -9.513459e+03
-2.357295e+09 -2.157286e+09 -2.317306e+09 1.363116e+04 1.252549e+04 -1.401695e+04
-3.034027e+09 -2.834028e+09 -2.994035e+09 -3.973475e+03 -6.308548e+03 -3.234016e+03
-3.524988e+09 -3.324995e+09 -3.484985e+09 5.187806e+03 4.697454e+03 6.211135e+03
-2.227199e+09 -2.027201e+09 -2.187205e+09 -3.731598e+03 -8.779575e+03 -3.767332e+03
-2.918198e+09 -2.718185e+09 -2.878198e+09 -1.742459e+03 -6.196427e+02 -4.910381e+03
-2.661322e+09 -2.461314e+09 -2.621332e+09 -4.604322e+03 -8.277005e+03 -5.899042e+03
-2.513591e+09 -2.313583e+09 -2.473597e+09 -1.994491e+03 -5.042137e+03 -6.531612e+03
-2.863948e+09 -2.663950e+09 -2.823950e+09 -1.067541e+03 -7.068048e+01 1.500484e+00
-3.090594e+09 -2.890595e+09 -3.050595e+09 -9.804649e+02 -3.717216e+01 -8.044546e+01
-3.173290e+09 -2.973289e+09 -3.133289e+09 -5.443286e+02 -1.699049e+02 8.896939e+01
-2.756693e+09 -2.556692e+09 -2.716692e+09 -5.433879e+02 -1.927028e+02 9.850920e+01
-2.641490e+09 -2.441489e+09 -2.601489e+09 -8.618304e+02 -1.342321e+02 5.498480e+01
-3.174920e+09 -2.974919e+09 -3.134919e+09 -7.812709e+02 -3.761233e+01 -8.895888e+01
-3.592431e+09 -3.392433e+09 -3.552432e+09 1.252894e+03 -7.868051e+01 -4.745730e+02
-2.617623e+09 -2.417632e+09 -2.577626e+09 1.340295e+02 2.244509e+03 -3.785137e+01
-1.994871e+09 -1.794880e+09 -1.954874e+09 -3.527980e+02 2.124473e+03 1.457710e+02
-2.023187e+09 -1.823196e+09 -1.983189e+09 6.130984e+02 1.817015e+03 -7.855312e+01
-1.808706e+09 -1.608714e+09 -1.768708e+09 -3.424558e+02 8.138321e+02 7.373623e+01
-1.789890e+09 -1.589899e+09 -1.749893e+09 -9.274726e+02 1.835128e+03 7.211142e+01
-2.690560e+09 -2.490561e+09 -2.650561e+09 -9.726483e+02 -5.244070e+01 -1.058146e+01
-3.325496e+09 -3.125497e+09 -3.285497e+09 -1.076651e+03 -4.354057e+01 2.180663e+00
-2.925418e+09 -2.725419e+09 -2.885419e+09 -1.040443e+03 -1.189094e+02 1.097179e+02
-2.270269e+09 -2.070270e+09 -2.230270e+09 -9.809992e+02 -8.244594e+01 3.118512e+01
-2.604734e+09 -2.404735e+09 -2.564735e+09 9.192555e+02 8.200607e+01 -5.770128e+01
-3.330781e+09 -3.130780e+09 -3.290781e+09 -1.291527e+03 -4.050542e+01 -1.617503e+01
-2.188900e+09 -1.988900e+09 -2.148900e+09 -1.060239e+03 -1.496453e+02 1.168567e+02
-3.188031e+09 -2.988031e+09 -3.148032e+09 -1.078019e+03 -6.804754e+01 -3.940618e+01
-3.284372e+09 -3.084371e+09 -3.244374e+09 3.716184e+03 2.620849e+03 -1.385086e+03
-1.890819e+09 -1.690828e+09 -1.850821e+09 -1.806850e+03 -3.843214e+03 -8.768215e+02
-3.175324e+09 -2.975327e+09 -3.135328e+09 4.541176e+03 4.273309e+03 -2.236492e+03
-1.849869e+09 -1.649870e+09 -1.809868e+09 5.993871e+03 3.863314e+03 -2.005615e+03
-3.298771e+09 -3.098770e+09 -3.258774e+09 4.375543e+03 3.317600e+03 -1.989319e+03
-2.409823e+09 -2.209829e+09 -2.369826e+09 -1.179014e+03 8.652012e+02 -6.003195e+03
-2.796495e+09 -2.596501e+09 -2.756498e+09 7.712003e+02 1.948698e+02 -3.311016e+03
-2.644783e+09 -2.444787e+09 -2.604786e+09 1.281810e+03 -1.730235e+02 -9.974084e+02
-2.400310e+09 -2.200314e+09 -2.360324e+09 -3.077119e+03 -1.429480e+04 -2.534500e+03
-2.005886e+09 -1.805913e+09 -1.965903e+09 5.266248e+03 -2.375399e+04 4.741670e+03
-2.695718e+09 -2.495704e+09 -2.655729e+09 -5.821389e+03 -1.777619e+03 -1.611274e+03
-2.484572e+09 -2.284563e+09 -2.444589e+09 -6.676895e+03 1.391855e+03 4.313376e+02
-2.277773e+09 -2.077764e+09 -2.237793e+09 -6.641817e+03 -1.872868e+04 -2.861808e+03
-3.472118e+09 -3.272120e+09 -3.432120e+09 3.282614e+02 2.840350e+01 6.826134e+01
-3.383018e+09 -3.183018e+09 -3.343018e+09 1.143100e+03 -7.338993e+01 -2.912468e+02
-1.993900e+09 -1.793899e+09 -1.953899e+09 6.555831e+02 -4.929208e+02 1.211548e+02
-2.500026e+09 -2.300023e+09 -2.460026e+09 -1.062245e+03 -5.236039e+02 7.650952e+02
-2.015890e+09 -1.815887e+09 -1.975888e+09 -2.686612e+01 -3.697064e+02 6.932793e+02
-2.941884e+09 -2.741885e+09 -2.901885e+09 -1.394281e+03 -7.028759e+01 -3.921337e+01
-1.989329e+09 -1.789324e+09 -1.949327e+09 4.262124e-01 -1.161118e+03 1.873004e+03
-1.786204e+09 -1.586201e+09 -1.746202e+09 -2.173320e+02 -4.795473e+02 6.804682e+02
-1.771513e+09 -1.571510e+09 -1.731511e+09 1.128568e+03 -1.470975e+03 1.480008e+03
-2.636264e+09 -2.436258e+09 -2.596266e+09 8.630583e+02 -1.232218e+03 -2.634644e+03
-2.894750e+09 -2.694744e+09 -2.854751e+09 -1.223358e+03 -2.121767e+03 -3.351131e+03
-3.539781e+09 -3.339775e+09 -3.499787e+09 -7.325292e+02 -4.010772e+03 -3.219626e+03
-3.269335e+09 -3.069332e+09 -3.229337e+09 -1.255247e+03 -3.159679e+03 -2.933661e+03
-2.700509e+09 -2.500507e+09 -2.660511e+09 -2.657134e+03 -3.110805e+03 -2.909994e+03
-3.096727e+09 -2.896725e+09 -3.056731e+09 -2.281496e+03 -4.335382e+03 -2.701443e+03
-2.060482e+09 -1.860482e+09 -2.020482e+09 -7.984953e+02 -1.357478e+02 4.335189e+01
-1.795999e+09 -1.595999e+09 -1.755999e+09 -4.943499e+02 -6.907722e+01 -4.583009e+01
-1.887597e+09 -1.687596e+09 -1.847597e+09 -4.188430e+02 -6.971537e+01 -1.808834e+00
-2.517009e+09 -2.317008e+09 -2.477009e+09 -6.402745e+02 -8.862514e+01 5.557698e+01
-2.685618e+09 -2.485617e+09 -2.645617e+09 -4.234159e+02 -8.444742e+01 -2.378789e+01
-2.479648e+09 -2.279647e+09 -2.439647e+09 -3.961614e+02 -1.140911e+02 -2.316333e+01
-2.594967e+09 -2.394967e+09 -2.554967e+09 -5.513307e+02 -7.829670e+01 -4.937876e+01
-3.157281e+09 -2.957280e+09 -3.117281e+09 -7.358001e+02 -9.918781e+01 4.703789e+01
-2.380082e+09 -2.180081e+09 -2.340082e+09 -5.857563e+02 -1.009932e+02 3.530714e+00
-3.390628e+09 -3.190627e+09 -3.350627e+09 -4.747228e+02 -1.740150e+01 1.969218e+01
-1.951669e+09 -1.751668e+09 -1.911668e+09 -6.732080e+02 -6.144201e+01 -2.721539e+00
-2.559883e+09 -2.359883e+09 -2.519883e+09 -5.352035e+02 -8.167336e+01 -1.520294e+01
-2.189765e+09 -1.989750e+09 -2.149760e+09 -3.298306e+03 1.188537e+03 5.777552e+03
-2.498357e+09 -2.298346e+09 -2.458378e+09 -1.287013e+04 2.066567e+04 1.506430e+04
-2.147647e+09 -1.947651e+09 -2.107651e+09 -1.471210e+04 2.169318e+04 1.204039e+04
-2.554319e+09 -2.354314e+09 -2.514322e+09 -9.183109e+03 4.366966e+03 7.968485e+03
-2.954140e+09 -2.754134e+09 -2.914150e+09 -8.857598e+03 9.255134e+03 9.027787e+03
-2.656312e+09 -2.456303e+09 -2.616312e+09 -1.508250e+02 -2.620850e+03 4.850800e+03
-1.758642e+09 -1.558638e+09 -1.718638e+09 3.549427e+03 -3.328638e+03 4.631635e+03
-3.061090e+09 -2.861085e+09 -3.021090e+09 -1.606761e+03 -5.746446e+01 1.436740e+03
-2.628722e+09 -2.428718e+09 -2.588723e+09 -1.720566e+03 -4.853937e+02 1.898187e+03
-1.922552e+09 -1.722543e+09 -1.882549e+09 -3.213202e+03 2.006044e+03 1.192328e+03
-1.989186e+09 -1.789174e+09 -1.949185e+09 3.195390e+03 -3.332534e+03 8.224095e+03
-1.895657e+09 -1.695661e+09 -1.855659e+09 2.198449e+03 -1.153027e+03 -7.648436e+03
-2.232918e+09 -2.032920e+09 -2.192904e+09 -1.117358e+03 -3.733639e+03 -1.551559e+04
-2.211860e+09 -2.011857e+09 -2.171852e+09 5.985034e+03 -4.744451e+03 -9.863361e+03
-3.029214e+09 -2.829217e+09 -2.989209e+09 4.253854e+02 -2.515359e+02 -5.394915e+03
-3.210941e+09 -3.010943e+09 -3.170934e+09 2.501906e+03 -1.896740e+03 -6.120104e+03
-3.295818e+09 -3.095821e+09 -3.255814e+09 -4.336948e+02 6.952460e+02 -3.686445e+03
-3.300954e+09 -3.100957e+09 -3.260952e+09 1.844534e+03 -7.297571e+02 -4.030921e+03
-3.390676e+09 -3.190674e+09 -3.350672e+09 3.931509e+03 -2.087012e+03 -2.436435e+03
-2.144161e+09 -1.944161e+09 -2.104159e+09 3.144727e+03 -2.672556e+03 -3.990216e+03
-2.791660e+09 -2.591654e+09 -2.751652e+09 2.665409e+03 -2.215519e+03 -3.734434e+03
-2.636649e+09 -2.436645e+09 -2.596645e+09 3.767283e+03 -2.827946e+03 -2.883635e+03
-2.247281e+09 -2.047277e+09 -2.207277e+09 4.004287e+03 -2.617439e+03 -4.179237e+03
-1.987465e+09 -1.787452e+09 -1.947431e+09 9.323211e+03 1.289816e+04 1.164849e+04
-2.392682e+09 -2.192662e+09 -2.352682e+09 3.161376e+03 1.318533e+03 -1.764162e+03
-1.789528e+09 -1.589536e+09 -1.749537e+09 9.049609e+03 9.639581e+03 1.990461e+04
-1.793933e+09 -1.593919e+09 -1.753934e+09 8.164269e+03 2.811694e+03 -1.980374e+02
-1.889531e+09 -1.689464e+09 -1.849460e+09 -6.740094e+03 1.718684e+04 -2.109060e+04
-2.094070e+09 -1.894010e+09 -2.053989e+09 1.389594e+04 1.507640e+04 -3.584249e+02
-3.203244e+09 -3.003252e+09 -3.163250e+09 -2.739941e+02 -3.567778e+03 5.580111e+02
-2.740257e+09 -2.540212e+09 -2.700210e+09 2.639318e+02 2.576122e+04 -4.589555e+03
-1.638270e+09 -1.438270e+09 -1.598269e+09 -2.448366e+03 1.026869e+03 3.323298e+02
-2.634492e+09 -2.434449e+09 -2.594337e+09 8.653896e+03 1.992296e+04 9.058096e+03
-1.800557e+09 -1.600473e+09 -1.760418e+09 -1.155826e+04 2.847835e+04 -1.622301e+04
-2.776843e+09 -2.576834e+09 -2.736859e+09 -1.610702e+03 -8.839233e+03 3.862978e+03
-2.437955e+09 -2.237936e+09 -2.397964e+09 -4.897713e+03 2.116840e+03 -2.030464e+03
-1.905599e+09 -1.705618e+09 -1.865618e+09 1.669591e+03 -1.835923e+04 6.998501e+03
-2.871659e+09 -2.671653e+09 -2.831655e+09 -4.600458e+03 5.862680e+03 -4.749655e+03
-2.495984e+09 -2.295981e+09 -2.455986e+09 2.715875e+03 -3.012650e+03 6.245548e+03
-3.086060e+09 -2.886051e+09 -3.046068e+09 -2.181017e+03 -2.914112e+03 2.995299e+03
-3.070662e+09 -2.870650e+09 -3.030666e+09 1.723765e+02 -1.729566e+02 5.224779e+03
-1.979670e+09 -1.779674e+09 -1.939673e+09 -1.350157e+03 5.728351e+02 -2.307680e+03
-2.063490e+09 -1.863487e+09 -2.023489e+09 -2.109339e+03 4.270824e+02 5.194518e+02
-2.381139e+09 -2.181136e+09 -2.341138e+09 -1.883458e+03 2.331667e+02 7.060335e+02
-2.964187e+09 -2.764188e+09 -2.924184e+09 -4.598641e+03 3.329496e+03 -3.697010e+03
-1.876211e+09 -1.676210e+09 -1.836212e+09 -3.305109e+03 1.579166e+03 -2.122919e+03
-2.141160e+09 -1.941163e+09 -2.101161e+09 -4.719054e+03 3.163399e+03 -4.499111e+03
-1.896841e+09 -1.696843e+09 -1.856843e+09 -3.055057e+03 1.158027e+03 -2.185845e+03
-2.489695e+09 -2.289701e+09 -2.449699e+09 -2.630891e+02 2.406892e+02 -1.957418e+03
-2.113267e+09 -1.913269e+09 -2.073269e+09 -6.577305e+02 -1.121219e+01 -9.248871e+01
-2.475804e+09 -2.275807e+09 -2.435807e+09 -6.924629e+02 1.148825e+01 -3.632340e+02
-1.659283e+09 -1.459285e+09 -1.619285e+09 -4.653775e+02 -2.151183e+01 -3.498445e+00
-2.528089e+09 -2.328092e+09 -2.488091e+09 -5.114993e+02 8.280670e+01 -4.342950e+02
-1.966006e+09 -1.766009e+09 -1.926008e+09 -8.872491e+01 4.991661e+00 -9.297839e+01
-1.745552e+09 -1.545556e+09 -1.705555e+09 -7.108941e+01 5.356294e+00 -3.118947e+02
-2.051388e+09 -1.851392e+09 -2.011391e+09 -7.845120e+01 7.519623e+00 -2.864407e+02
-3.287981e+09 -3.087977e+09 -3.247978e+09 2.489846e+03 -1.085857e+03 -8.834104e+02
-2.155985e+09 -1.955977e+09 -2.115983e+09 1.078723e+03 -3.013345e+02 5.014741e+02
-1.857537e+09 -1.657526e+09 -1.817533e+09 2.003359e+03 -1.680343e+03 -5.829607e+02
-2.119957e+09 -1.919942e+09 -2.079949e+09 2.823402e+03 -4.947161e+03 -1.791924e+02
-2.864966e+09 -2.664965e+09 -2.824965e+09 -3.848851e+02 1.403517e+02 -7.092989e+01
-2.611620e+09 -2.411618e+09 -2.571619e+09 1.896115e+01 8.052568e+01 -1.526388e+02
-2.394044e+09 -2.194042e+09 -2.354043e+09 -4.548355e+01 -2.540588e+01 -1.357789e+02
-2.563982e+09 -2.363981e+09 -2.523982e+09 7.878483e+01 1.620406e+02 1.536105e+01
-3.254812e+09 -3.054810e+09 -3.214811e+09 -4.447993e+02 2.285289e+02 6.885375e+01
-2.583281e+09 -2.383280e+09 -2.543280e+09 -1.693685e+02 2.365845e+01 -1.285387e+02
-3.430837e+09 -3.230836e+09 -3.390836e+09 -3.775647e+02 6.226126e+00 -1.069481e+02
-2.643985e+09 -2.443983e+09 -2.603984e+09 -4.300484e+02 1.386041e+02 -5.793803e+00
-3.437080e+09 -3.237079e+09 -3.397079e+09 -1.111758e+02 1.046907e+02 -7.262314e+01
-3.426878e+09 -3.226876e+09 -3.386876e+09 -6.123937e+02 5.205380e+01 -6.661412e+01
-2.718416e+09 -2.518415e+09 -2.678417e+09 -2.526544e+03 1.776507e+03 -4.843257e+02
-1.845908e+09 -1.645979e+09 -1.805936e+09 -8.058814e+03 3.867721e+04 4.627341e+03
-2.331717e+09 -2.131738e+09 -2.291743e+09 1.087789e+04 2.719699e+04 -7.257977e+03
-2.474349e+09 -2.274341e+09 -2.434353e+09 8.871138e+03 6.659212e+03 -8.906922e+03
-2.458024e+09 -2.258044e+09 -2.418038e+09 7.573043e+03 1.843828e+04 -5.312813e+03
-1.770687e+09 -1.570699e+09 -1.730694e+09 1.467885e+04 2.265500e+04 -1.027897e+04
-3.112187e+09 -2.912177e+09 -3.072191e+09 4.112106e+03 4.807262e+03 -5.564972e+03
-2.639468e+09 -2.439459e+09 -2.599465e+09 -3.185578e+03 -2.551336e+03 4.268422e+01
-3.119102e+09 -2.919096e+09 -3.079100e+09 -5.054170e+03 -3.849841e+03 1.117686e+03
-3.182029e+09 -2.982016e+09 -3.142027e+09 1.451323e+00 7.673238e+02 -5.248028e+03
-2.673410e+09 -2.473405e+09 -2.633411e+09 -2.809872e+03 -2.861644e+02 -3.151745e+02
-2.996391e+09 -2.796394e+09 -2.956390e+09 -5.874446e+03 -2.258185e+03 4.039754e+03
-1.594410e+09 -1.394417e+09 -1.554411e+09 -3.672746e+03 -3.813923e+03 -1.082297e+03
-3.343831e+09 -3.143822e+09 -3.303831e+09 -2.061519e+03 -4.194363e+02 -1.588818e+03
-2.736207e+09 -2.536211e+09 -2.696203e+09 5.982064e+02 -8.770000e+02 -5.576311e+03
-2.009625e+09 -1.809623e+09 -1.969617e+09 5.162601e+03 -5.478146e+03 -9.196589e+03
-3.259472e+09 -3.059478e+09 -3.219474e+09 1.105408e+02 1.353943e+02 -2.477852e+03
-2.570793e+09 -2.370799e+09 -2.530792e+09 1.251509e+03 7.683978e+01 -7.370911e+03
-3.289588e+09 -3.089590e+09 -3.249587e+09 -2.990043e+03 1.491909e+03 -1.742888e+03
-2.978069e+09 -2.778074e+09 -2.938071e+09 -1.917025e+03 8.189986e+02 -2.273064e+03
-2.317369e+09 -2.117369e+09 -2.277368e+09 6.397932e+02 -4.874500e+02 2.049912e+02
-3.009360e+09 -2.809362e+09 -2.969361e+09 -2.674505e+03 1.016969e+03 -1.839020e+03
-3.605925e+09 -3.405923e+09 -3.565926e+09 -1.868544e+03 1.224412e+03 7.744259e+02
-2.065390e+09 -1.865388e+09 -2.025390e+09 -3.273763e+03 1.350052e+03 -4.696838e+02
-3.012814e+09 -2.812810e+09 -2.972813e+09 -2.457604e+03 2.423519e+02 9.224152e+02
-2.462974e+09 -2.262971e+09 -2.422973e+09 -2.170416e+03 2.767822e+02 7.313143e+02
-2.158242e+09 -1.958242e+09 -2.118242e+09 -1.978689e+03 3.666576e+02 -6.222182e+02
-2.440595e+09 -2.240598e+09 -2.400597e+09 -1.100503e+02 1.362435e+01 -1.148040e+02
-2.695864e+09 -2.495868e+09 -2.655867e+09 -2.653099e+02 -6.758003e+00 -3.036226e+02
-2.723249e+09 -2.523252e+09 -2.683252e+09 -5.568912e+02 8.869717e+01 -2.197412e+02
-2.932012e+09 -2.732016e+09 -2.892015e+09 -5.459084e+02 1.817928e+02 -6.875686e+02
-2.928313e+09 -2.728317e+09 -2.888316e+09 -5.607321e+02 5.511104e+01 -2.926972e+02
-2.575468e+09 -2.375473e+09 -2.535469e+09 -1.985136e+03 9.234829e+02 1.639396e+02
-2.526245e+09 -2.326251e+09 -2.486246e+09 -2.038173e+03 9.433371e+02 2.644385e+02
-2.713632e+09 -2.513639e+09 -2.673634e+09 -1.505272e+03 1.546296e+03 2.435618e+02
-3.176608e+09 -2.976612e+09 -3.136610e+09 -2.001215e+03 7.135189e+02 2.648545e+02
-3.329647e+09 -3.129653e+09 -3.289650e+09 -2.345678e+03 1.554571e+03 7.145753e+02
-3.600536e+09 -3.400535e+09 -3.560535e+09 3.855093e+02 -5.028173e+01 -1.415049e+02
-2.616522e+09 -2.416519e+09 -2.576520e+09 -1.351442e+03 4.859064e+02 2.602906e+02
-1.807156e+09 -1.607154e+09 -1.767155e+09 -2.469938e+03 7.980065e+02 5.815209e+02
-1.995086e+09 -1.795083e+09 -1.955084e+09 -1.400363e+03 1.936754e+02 2.049226e+02
-2.018292e+09 -1.818290e+09 -1.978290e+09 -2.871496e+03 8.081097e+02 7.592312e+02
-2.964975e+09 -2.764977e+09 -2.924977e+09 1.565082e+02 1.439794e+01 2.100435e+01
-2.941593e+09 -2.741595e+09 -2.901595e+09 1.965300e+02 6.925580e+00 -5.383893e+01
-3.271095e+09 -3.071097e+09 -3.231097e+09 1.059296e+01 1.303060e+01 -1.690964e+01
-2.686864e+09 -2.486866e+09 -2.646866e+09 1.061128e+02 4.584236e+01 -1.739290e+01
-3.082813e+09 -2.882815e+09 -3.042815e+09 3.829622e+02 3.252669e+01 -6.577576e+00
-3.282775e+09 -3.082777e+09 -3.242776e+09 3.529716e+02 2.886875e+00 -1.422820e+01
-1.929265e+09 -1.729267e+09 -1.889267e+09 2.465682e+02 9.592275e+00 5.325498e+01
-3.630076e+09 -3.430078e+09 -3.590077e+09 1.294278e+02 1.349022e+01 -5.198565e+00
-3.004663e+09 -2.804665e+09 -2.964665e+09 1.280003e+02 9.427460e+00 1.540179e+01
-2.706490e+09 -2.506492e+09 -2.666491e+09 3.520751e+02 1.469298e+00 -2.893706e+00
-2.560318e+09 -2.360318e+09 -2.520317e+09 -9.970243e+02 8.538459e+01 -6.057528e+01
-2.631891e+09 -2.431891e+09 -2.591890e+09 -5.568264e+02 3.668387e+01 -1.002138e+02
-1.788178e+09 -1.588177e+09 -1.748177e+09 -6.496870e+02 3.369314e+01 -1.369984e+02
-1.777553e+09 -1.577553e+09 -1.737552e+09 -7.998752e+02 1.755508e+02 -5.505222e+01
-2.389772e+09 -2.189772e+09 -2.349771e+09 -6.848147e+02 8.302762e+01 -1.160035e+02
-2.626311e+09 -2.426316e+09 -2.586313e+09 1.933959e+03 -2.849204e+03 7.820277e+02
-3.436627e+09 -3.236629e+09 -3.396630e+09 1.645947e+03 -2.144574e+03 1.131313e+03
-2.819398e+09 -2.619404e+09 -2.779404e+09 2.541150e+03 -5.825758e+03 2.253815e+03
-3.405129e+09 -3.205132e+09 -3.365135e+09 1.816005e+03 -3.748813e+03 1.491684e+03
-2.827288e+09 -2.627291e+09 -2.787290e+09 2.524262e+03 -3.345207e+03 1.728515e+03
-3.377795e+09 -3.177793e+09 -3.337796e+09 -2.734733e+03 1.977397e+03 1.361283e+03
-2.604189e+09 -2.404189e+09 -2.564189e+09 -3.084016e+03 1.572926e+03 9.086997e+02
-2.818615e+09 -2.618614e+09 -2.778614e+09 -3.411505e+03 1.920959e+03 1.298569e+03
-2.803153e+09 -2.603151e+09 -2.763153e+09 -3.057771e+03 1.568909e+03 1.238288e+03
-1.860466e+09 -1.660481e+09 -1.820474e+09 -2.132435e+03 -8.992781e+03 -4.726971e+02
-1.975262e+09 -1.775277e+09 -1.935273e+09 -7.371395e+03 -1.230019e+04 -3.978538e+03
-2.619604e+09 -2.419608e+09 -2.579614e+09 -3.431269e+03 -9.960315e+03 -3.636560e+03
-2.962915e+09 -2.762918e+09 -2.922925e+09 -2.573794e+03 -6.954728e+03 -1.856560e+03
-3.091331e+09 -2.891328e+09 -3.051338e+09 -3.950000e+03 -5.753022e+03 -3.023316e+03
-1.589528e+09 -1.389530e+09 -1.549528e+09 -3.241257e+03 1.642020e+03 5.047220e+02
-2.403134e+09 -2.203137e+09 -2.363146e+09 -5.017873e+03 -1.403559e+04 -1.932495e+03
-2.452917e+09 -2.252910e+09 -2.412923e+09 -3.833869e+03 -7.814444e+03 -5.346145e+03
-2.868229e+09 -2.668225e+09 -2.828233e+09 -2.829349e+03 -3.466419e+03 -4.091582e+03
-2.348388e+09 -2.148396e+09 -2.308395e+09 -3.544101e+03 -7.415680e+03 -1.909144e+03
-2.660243e+09 -2.460247e+09 -2.620253e+09 -4.722653e+03 -1.034837e+04 -3.760166e+03
-2.363186e+09 -2.163189e+09 -2.323188e+09 -1.450986e+01 1.718849e+01 -7.907615e+01
-1.589528e+09 -1.389531e+09 -1.549528e+09 -3.236994e+03 1.516547e+03 5.042596e+02
-2.355212e+09 -2.155215e+09 -2.315214e+09 -8.721532e+01 1.898628e+01 -6.783500e+01
-1.765573e+09 -1.565576e+09 -1.725575e+09 4.959238e+00 1.949576e+01 -5.579023e+01
-1.684753e+09 -1.484754e+09 -1.644761e+09 5.286182e+03 1.667469e+03 1.337658e+03
-3.486727e+09 -3.286732e+09 -3.446729e+09 4.180646e+03 1.616844e+03 2.113158e+03
-1.884669e+09 -1.684672e+09 -1.844675e+09 2.521591e+03 1.981883e+03 4.326499e+03
-1.974933e+09 -1.774932e+09 -1.934939e+09 3.826613e+03 3.997108e+02 2.115382e+02
-3.284490e+09 -3.084489e+09 -3.244491e+09 5.663507e+03 2.823693e+03 1.289427e+03
-3.196693e+09 -2.996699e+09 -3.156697e+09 2.750756e+03 -4.735733e+01 2.478015e+03
-2.717559e+09 -2.517567e+09 -2.677562e+09 -1.538232e+03 1.850670e+03 3.956096e+02
-2.526979e+09 -2.326988e+09 -2.486982e+09 -1.535694e+03 3.055200e+03 3.731539e+02
-3.341017e+09 -3.141023e+09 -3.301021e+09 -3.028582e+03 2.877413e+03 1.340160e+03
-2.352472e+09 -2.152473e+09 -2.312473e+09 -9.424291e+02 -7.926383e+01 6.809005e-01
-1.904513e+09 -1.704515e+09 -1.864514e+09 -9.620892e+02 -1.131275e+02 4.127353e+01
-2.602137e+09 -2.402139e+09 -2.562139e+09 -1.063496e+03 5.823180e+00 -9.764182e+01
-2.479481e+09 -2.279483e+09 -2.439483e+09 -8.118455e+02 -6.268780e+01 1.796074e+01
-2.979986e+09 -2.779988e+09 -2.939987e+09 -1.102022e+03 -3.960342e+01 -4.862555e+01
-2.127322e+09 -1.927323e+09 -2.087323e+09 -8.297023e+02 -7.161536e+01 -1.232116e+01
-1.976870e+09 -1.776870e+09 -1.936870e+09 -5.823021e+02 -6.589959e+01 2.323480e+01
-2.909311e+09 -2.709312e+09 -2.869312e+09 -6.663740e+02 -4.826393e+01 3.411460e+01
-1.674320e+09 -1.474320e+09 -1.634320e+09 -5.873448e+02 -8.043594e+01 2.476958e+00
-1.746660e+09 -1.546660e+09 -1.706660e+09 -7.350096e+02 -7.814813e+01 -1.997320e+01
-2.657159e+09 -2.457146e+09 -2.617157e+09 2.381970e+03 2.498010e+03 -5.414525e+03
-2.689637e+09 -2.489637e+09 -2.649637e+09 -8.346468e+02 -7.589714e+01 -7.507962e+00
-2.660861e+09 -2.460862e+09 -2.620862e+09 -7.654010e+02 -3.712468e+01 3.309270e+01
-1.794069e+09 -1.594068e+09 -1.754069e+09 -5.439184e+02 -8.305665e+01 4.270152e+01
-1.783512e+09 -1.583513e+09 -1.743513e+09 -7.257017e+02 -6.781499e+01 3.391264e+01
-3.148674e+09 -2.948673e+09 -3.108674e+09 -6.615745e+02 -9.438331e+01 3.623935e+01
-3.512932e+09 -3.312934e+09 -3.472934e+09 1.779316e+03 -1.460326e+03 8.715753e+02
-2.802298e+09 -2.602298e+09 -2.762298e+09 -6.542462e+02 -4.456979e+01 4.182741e+00
-3.383082e+09 -3.183082e+09 -3.343082e+09 -7.736970e+02 -1.096174e+02 8.500852e+01
-3.302300e+09 -3.102300e+09 -3.262300e+09 -8.492903e+02 -7.549917e+01 -3.930415e+01
-2.707831e+09 -2.507830e+09 -2.667831e+09 -7.865101e+02 -1.071533e+02 4.155064e+01
-3.108558e+09 -2.908558e+09 -3.068558e+09 -8.338465e+02 -6.290146e+01 -9.227628e+00
-2.350417e+09 -2.150417e+09 -2.310417e+09 -6.845356e+02 -1.207235e+02 5.718599e+01
-3.241595e+09 -3.041596e+09 -3.201596e+09 -1.161399e+03 -5.189274e+01 7.639049e+01
-1.864773e+09 -1.664775e+09 -1.824775e+09 -8.330795e+02 -9.210563e+01 9.289267e+01
-3.071189e+09 -2.871193e+09 -3.031192e+09 -7.302076e+02 4.697206e+01 -2.515308e+02
-2.162641e+09 -1.962643e+09 -2.122643e+09 -1.105325e+03 1.038425e+02 -8.617002e+01
-2.405676e+09 -2.205678e+09 -2.365677e+09 -3.404796e+02 -2.343213e+01 -1.327575e+01
-2.465108e+09 -2.265110e+09 -2.425109e+09 -3.145194e+02 4.026216e+00 -6.878796e+01
-2.021533e+09 -1.821531e+09 -1.981531e+09 2.223835e+03 -1.712532e+03 1.555480e+03
-2.402644e+09 -2.202646e+09 -2.362646e+09 -1.910560e+00 -1.643280e+01 -4.012268e+01
-3.298001e+09 -3.098004e+09 -3.258004e+09 -2.693712e+03 -2.821320e+03 -1.097557e+03
-1.894680e+09 -1.694683e+09 -1.854683e+09 -2.431590e+02 1.166236e+01 -1.190916e+02
-2.492145e+09 -2.292148e+09 -2.452148e+09 -2.876217e+02 -5.529346e+01 -1.896405e+02
-1.817272e+09 -1.617274e+09 -1.777274e+09 7.681082e+00 7.024880e-02 -9.099370e+01
-2.465538e+09 -2.265534e+09 -2.425536e+09 -2.320142e+03 9.181804e+02 9.283636e+02
-2.441622e+09 -2.241624e+09 -2.401624e+09 -5.920643e+02 -1.150344e+01 -1.525627e+01
-1.811845e+09 -1.611846e+09 -1.771846e+09 -7.896480e+02 -5.763160e+01 5.915444e+01
-3.431906e+09 -3.231908e+09 -3.391907e+09 -9.066012e+02 -2.350162e+01 -6.980502e+01
-3.020889e+09 -2.820891e+09 -2.980890e+09 -6.339185e+02 -1.539792e+01 -2.066260e+01
-3.398737e+09 -3.198740e+09 -3.358739e+09 -5.891062e+02 -3.477755e+00 -4.668734e+01
-2.691102e+09 -2.491104e+09 -2.651104e+09 -6.100348e+02 -4.559592e+01 -1.627452e+01
-2.070238e+09 -1.870227e+09 -2.030237e+09 9.830371e+03 7.035497e+03 -8.791041e+03
-1.754137e+09 -1.554140e+09 -1.714136e+09 1.055250e+04 8.382718e+03 -5.869139e+03
-2.571078e+09 -2.371083e+09 -2.531079e+09 -7.352284e+02 3.502187e+02 -1.713134e+01
-2.334518e+09 -2.134517e+09 -2.294521e+09 8.152973e+03 7.903744e+03 -5.005814e+03
-2.662479e+09 -2.462491e+09 -2.622496e+09 2.660038e+03 1.955558e+04 -4.823827e+03
-2.471031e+09 -2.271035e+09 -2.431036e+09 8.357521e+03 9.896176e+03 -4.657512e+03
-1.947121e+09 -1.747103e+09 -1.907120e+09 -1.411819e+04 8.550705e+03 1.300044e+04
-3.092619e+09 -2.892625e+09 -3.052631e+09 5.150756e+03 9.628939e+03 -3.529317e+03
-1.759094e+09 -1.559113e+09 -1.719100e+09 8.421186e+03 1.283250e+04 -4.783153e+03
-2.602221e+09 -2.402223e+09 -2.562222e+09 1.172534e+03 -7.065013e+01 -6.898553e+02
-2.383863e+09 -2.183865e+09 -2.343865e+09 1.428034e+03 -4.389084e+01 -4.636609e+02
-1.855187e+09 -1.655189e+09 -1.815189e+09 1.127555e+03 3.615295e+01 -2.337412e+02
-1.875929e+09 -1.675928e+09 -1.835929e+09 1.914592e+03 -4.889775e+02 -8.320980e+02
-2.061701e+09 -1.861700e+09 -2.021701e+09 1.160678e+03 1.669507e+01 -2.871642e+02
-1.759339e+09 -1.559336e+09 -1.719337e+09 1.789204e+03 -5.059150e+02 -8.005208e+02
-3.002837e+09 -2.802838e+09 -2.962837e+09 2.131027e+03 -6.686141e+02 -1.653165e+03
-1.871243e+09 -1.671243e+09 -1.831244e+09 1.684908e+03 -9.206952e+01 -5.007264e+02
-2.576649e+09 -2.376648e+09 -2.536649e+09 2.447765e+03 -7.250820e+02 -1.159325e+03
-2.463698e+09 -2.263700e+09 -2.423699e+09 1.824151e+03 -2.382824e+02 -1.188383e+03
-2.058556e+09 -1.858554e+09 -2.018555e+09 1.841635e+03 -6.627593e+02 -7.970307e+02
-1.876088e+09 -1.676087e+09 -1.836089e+09 2.056510e+03 -3.457541e+02 -9.054918e+02
-3.401971e+09 -3.201966e+09 -3.361966e+09 6.257348e+03 5.727285e+03 2.095332e+03
-2.128540e+09 -1.928534e+09 -2.088539e+09 7.655012e+03 3.429656e+03 2.732380e+03
-2.610740e+09 -2.410733e+09 -2.570740e+09 4.962443e+03 3.979793e+03 2.811684e+03
-2.415733e+09 -2.215723e+09 -2.375733e+09 1.075777e+03 -1.202732e+03 -4.155568e+03
-2.569473e+09 -2.369483e+09 -2.529484e+09 -4.362806e+03 1.046417e+04 2.353958e+03
-3.408637e+09 -3.208638e+09 -3.368627e+09 8.050496e+02 -1.364479e+03 -6.189193e+03
-2.632905e+09 -2.432904e+09 -2.592892e+09 1.513055e+03 -3.698219e+03 -8.664697e+03
-2.232398e+09 -2.032402e+09 -2.192390e+09 -1.097539e+03 -1.342658e+01 -1.175608e+04
-1.973100e+09 -1.773099e+09 -1.933099e+09 2.761655e+02 3.132118e+01 -4.418022e+01
-1.748987e+09 -1.548987e+09 -1.708987e+09 2.649924e+02 5.346697e+01 -4.478176e+01
-1.687706e+09 -1.487705e+09 -1.647706e+09 1.369066e+02 3.373043e+01 -5.501151e+01
-1.781479e+09 -1.581477e+09 -1.741477e+09 -5.367692e+02 1.671167e+02 -8.677071e+01
-1.579116e+09 -1.379123e+09 -1.539117e+09 -3.732674e+03 2.981462e+03 6.045448e+02
-3.393795e+09 -3.193794e+09 -3.353794e+09 -8.830279e+02 8.748996e+01 1.136209e+01
-3.451175e+09 -3.251173e+09 -3.411174e+09 -5.069022e+02 1.985976e+02 1.217249e+02
-1.957379e+09 -1.757378e+09 -1.917378e+09 -1.387567e+03 2.167822e+02 6.551870e+01
-1.821302e+09 -1.621300e+09 -1.781301e+09 -3.987175e+02 1.429186e+02 -1.116614e+02
-2.019179e+09 -1.819177e+09 -1.979177e+09 -3.386859e+02 1.135698e+02 -5.702111e+00
-2.813726e+09 -2.613724e+09 -2.773725e+09 -1.514824e+02 1.532853e+02 9.991914e+00
-2.131886e+09 -1.931895e+09 -2.091889e+09 1.451929e+03 1.951996e+03 -5.069636e+02
-3.203699e+09 -3.003708e+09 -3.163704e+09 -1.424309e+02 2.442512e+03 1.962928e+02
-2.532361e+09 -2.332370e+09 -2.492364e+09 1.383274e+03 2.099955e+03 -2.059767e+02
-2.609249e+09 -2.409238e+09 -2.569281e+09 -8.446668e+03 1.327332e+04 1.286760e+04
-1.805271e+09 -1.605293e+09 -1.765325e+09 -6.346641e+03 5.463658e+04 -3.217546e+03
-3.029064e+09 -2.829045e+09 -2.989094e+09 8.686620e+03 -5.788641e+03 -1.180599e+04
-3.242950e+09 -3.042934e+09 -3.202980e+09 -9.248126e+03 8.864462e+03 7.803130e+03
-3.385584e+09 -3.185560e+09 -3.345589e+09 -1.593800e+03 -6.734965e+03 -5.752722e+03
-2.421126e+09 -2.221090e+09 -2.381127e+09 -7.376652e+03 -1.498702e+04 -4.437459e+03
-3.020830e+09 -2.820814e+09 -2.980856e+09 -9.056817e+03 1.273796e+04 1.049346e+04
-2.707044e+09 -2.507052e+09 -2.667046e+09 6.319330e+02 9.983576e+02 -1.231925e+02
-2.090617e+09 -1.890625e+09 -2.050618e+09 8.104074e+02 9.167479e+02 -6.962080e+01
-3.512932e+09 -3.312933e+09 -3.472934e+09 1.265171e+03 -1.516230e+03 6.250467e+02
-1.900759e+09 -1.700768e+09 -1.860762e+09 2.365253e+03 2.615740e+03 -3.471590e+02
-3.019413e+09 -2.819420e+09 -2.979415e+09 1.306721e+03 1.012516e+03 -1.202635e+02
-3.594254e+09 -3.394260e+09 -3.554260e+09 -1.953803e+03 3.160083e+03 8.890534e+02
-3.476881e+09 -3.276881e+09 -3.436880e+09 7.839328e+02 -5.788884e+02 2.117659e+02
-2.597884e+09 -2.397893e+09 -2.557887e+09 -4.658520e+02 1.968591e+03 6.683447e+01
-2.812488e+09 -2.612498e+09 -2.772492e+09 4.029903e+02 2.436096e+03 1.216292e+02
-3.059480e+09 -2.859490e+09 -3.019488e+09 8.087732e+02 4.113540e+03 -4.340750e+02
-2.664313e+09 -2.464325e+09 -2.624321e+09 -1.240240e+03 6.371869e+03 5.496777e+02
-3.061309e+09 -2.861320e+09 -3.021320e+09 -8.672122e+02 6.894284e+03 1.117304e+02
-3.376321e+09 -3.176329e+09 -3.336330e+09 2.475097e+02 5.778613e+03 -3.464963e+02
-3.384548e+09 -3.184557e+09 -3.344554e+09 -1.831229e+03 3.581270e+03 1.025312e+03
-2.760394e+09 -2.560388e+09 -2.720393e+09 -1.096738e+03 -4.725924e+02 2.368373e+03
-1.578247e+09 -1.378246e+09 -1.538247e+09 -9.395136e+02 -4.078124e+02 3.120512e+02
-3.067019e+09 -2.867013e+09 -3.027017e+09 -2.311012e+03 1.297164e+03 1.559515e+03
-2.269190e+09 -2.069183e+09 -2.229187e+09 -2.811308e+03 2.593791e+03 3.597185e+02
-2.267129e+09 -2.067123e+09 -2.227127e+09 -1.141118e+03 -2.390345e+02 1.763402e+03
-1.574661e+09 -1.374654e+09 -1.534662e+09 -3.660740e+03 1.744431e+03 9.572812e+02
-1.960770e+09 -1.760764e+09 -1.920768e+09 -1.345177e+03 2.894586e+02 1.820664e+03
-2.688495e+09 -2.488490e+09 -2.648493e+09 -2.488530e+03 8.041674e+02 1.516275e+03
-2.241257e+09 -2.041254e+09 -2.201255e+09 -9.739416e+02 5.482319e+02 5.961548e+02
-2.448982e+09 -2.248979e+09 -2.408980e+09 -1.174138e+03 4.565408e+02 4.525573e+02
-1.578246e+09 -1.378245e+09 -1.538247e+09 -1.552380e+03 -2.092235e+02 3.425546e+02
-2.393172e+09 -2.193165e+09 -2.353169e+09 5.387744e+02 -1.057355e+02 2.308621e+02
-2.700695e+09 -2.500689e+09 -2.660692e+09 -2.782448e+02 2.479114e+02 8.647554e+02
-2.094723e+09 -1.894717e+09 -2.054720e+09 2.075375e+02 -5.432449e+02 5.496277e+02
-1.895936e+09 -1.695939e+09 -1.855939e+09 2.355074e+03 -4.047085e+02 -1.998212e+03
-3.118833e+09 -2.918835e+09 -3.078833e+09 1.681131e+03 -2.436415e+02 -1.207904e+03
-2.082238e+09 -1.882241e+09 -2.042241e+09 2.518768e+03 -7.436001e+02 -2.322130e+03
-2.726485e+09 -2.526487e+09 -2.686486e+09 1.615444e+03 -3.382954e+02 -1.308587e+03
-1.829873e+09 -1.629878e+09 -1.789877e+09 3.104575e+03 -1.103538e+03 -3.744041e+03
-2.175145e+09 -1.975144e+09 -2.135146e+09 2.385230e+03 -5.093658e+02 -9.649507e+02
-1.979514e+09 -1.779517e+09 -1.939517e+09 9.811476e+02 2.649896e+02 -8.796741e+02
-1.749147e+09 -1.549149e+09 -1.709150e+09 1.584269e+03 -1.276411e+02 -8.679192e+02
-2.841848e+09 -2.641852e+09 -2.801850e+09 2.500527e+02 9.767773e+01 -1.502970e+03
-3.304436e+09 -3.104438e+09 -3.264437e+09 2.312326e+03 -5.930387e+02 -1.569077e+03
-3.417879e+09 -3.217881e+09 -3.377880e+09 1.455397e+03 -1.294214e+02 -1.118446e+03
-2.771038e+09 -2.571041e+09 -2.731040e+09 1.321896e+03 -1.023358e+02 -8.236343e+02
-2.139204e+09 -1.939215e+09 -2.099209e+09 2.107777e+03 -5.256486e+03 1.185690e+03
-3.256832e+09 -3.056838e+09 -3.216838e+09 1.404876e+03 -2.785444e+03 9.763625e+02
-2.813882e+09 -2.613889e+09 -2.773889e+09 2.182942e+03 -5.762325e+03 2.110768e+03
-3.205306e+09 -3.005312e+09 -3.165316e+09 1.987873e+03 -7.124774e+03 1.823782e+03
-2.776182e+09 -2.576189e+09 -2.736187e+09 2.067973e+03 -5.076399e+03 1.692124e+03
-3.527331e+09 -3.327337e+09 -3.487336e+09 1.354929e+03 -2.895923e+03 9.065350e+02
-2.035254e+09 -1.835264e+09 -1.995257e+09 2.616567e+03 -3.707775e+03 1.164256e+03
-2.488049e+09 -2.288066e+09 -2.448030e+09 -1.442947e+04 -2.003938e+04 3.549357e+04
-1.797608e+09 -1.597535e+09 -1.757574e+09 9.325010e+03 -2.779528e+04 5.361879e+04
-1.584328e+09 -1.384323e+09 -1.544378e+09 -1.607441e+04 -3.185689e+04 3.263793e+04
-2.602266e+09 -2.402298e+09 -2.562268e+09 -1.088755e+04 -9.264190e+03 3.944556e+04
-2.789809e+09 -2.589807e+09 -2.749751e+09 -6.587578e+03 -2.436242e+04 3.494221e+04
-1.584339e+09 -1.384322e+09 -1.544372e+09 -1.941905e+04 -2.846514e+04 2.548579e+04
-2.772964e+09 -2.572960e+09 -2.732906e+09 -1.123480e+04 -1.575337e+04 2.856803e+04
-2.376574e+09 -2.176572e+09 -2.336573e+09 -4.568690e+02 -2.572854e+02 1.334970e+02
-3.510203e+09 -3.310203e+09 -3.470203e+09 7.769848e+02 -5.273141e+02 3.577888e+02
-2.379724e+09 -2.179723e+09 -2.339724e+09 -4.079783e+02 -3.894748e+02 2.180117e+02
-1.771249e+09 -1.571248e+09 -1.731248e+09 -4.936263e+02 -3.742221e+02 8.228596e+01
-2.053423e+09 -1.853421e+09 -2.013422e+09 -6.615391e+02 -3.237679e+02 1.912607e+02
-2.068785e+09 -1.868773e+09 -2.028801e+09 -4.870745e+03 -8.103087e+03 -7.825579e+02
-2.688974e+09 -2.488971e+09 -2.648991e+09 4.412069e+02 -1.748056e+04 5.441217e+03
-2.013325e+09 -1.813354e+09 -1.973343e+09 -4.529806e+03 -2.595982e+04 -2.823405e+03
-2.179379e+09 -1.979392e+09 -2.139395e+09 3.141037e+03 -1.936882e+04 4.004139e+03
-3.428643e+09 -3.228642e+09 -3.388644e+09 1.336837e+03 -1.979658e+03 1.161928e+03
-2.499166e+09 -2.299138e+09 -2.459137e+09 3.189414e+02 2.599469e+04 8.077570e+03
-2.740630e+09 -2.540631e+09 -2.700631e+09 3.472774e+02 6.067065e+00 -1.424747e+01
-2.988549e+09 -2.788550e+09 -2.948550e+09 2.621480e+02 2.527219e+01 2.716985e+01
-3.630076e+09 -3.430077e+09 -3.590077e+09 3.418757e+02 1.315921e+01 1.907279e+01
-3.225905e+09 -3.025906e+09 -3.185906e+09 5.156762e+02 2.862787e+01 -1.635636e+01
-3.272157e+09 -3.072159e+09 -3.232158e+09 4.261051e+02 1.630705e+01 -2.282506e+01
-3.630075e+09 -3.430077e+09 -3.590077e+09 3.690871e+02 9.029665e+00 -1.673414e+01
-3.375775e+09 -3.175776e+09 -3.335776e+09 -9.244671e+02 -4.808072e+01 -2.556754e+01
-3.505862e+09 -3.305863e+09 -3.465863e+09 -1.060473e+03 -3.785071e+01 -1.274720e+01
-3.420567e+09 -3.220569e+09 -3.380568e+09 -7.956757e+02 -2.513487e+01 -2.482125e+01
-2.846347e+09 -2.646349e+09 -2.806348e+09 -5.950275e+02 -3.516174e+01 -1.393059e+01
-2.667221e+09 -2.467223e+09 -2.627222e+09 -7.576261e+02 -6.716549e+01 5.425185e+01
-2.953130e+09 -2.753130e+09 -2.913130e+09 -9.406406e+02 -1.031873e+02 4.758406e+01
-1.943857e+09 -1.743858e+09 -1.903858e+09 -8.838138e+02 -8.394005e+01 -2.255775e+01
-1.957442e+09 -1.757443e+09 -1.917443e+09 -9.981936e+02 -5.510318e+01 7.240752e+00
-2.412265e+09 -2.212251e+09 -2.372272e+09 5.783981e+03 4.108163e+03 -9.037799e+02
-2.196629e+09 -1.996625e+09 -2.156628e+09 4.153770e+02 -1.027684e+03 -2.445008e+03
-3.579260e+09 -3.379256e+09 -3.539262e+09 2.087923e+03 -1.099111e+03 -1.603112e+03
-2.294087e+09 -2.094084e+09 -2.254088e+09 9.628322e+02 -1.480375e+03 -1.705917e+03
-1.797401e+09 -1.597388e+09 -1.757401e+09 -1.060977e+03 -1.756534e+03 -4.944008e+03
-2.386295e+09 -2.186300e+09 -2.346296e+09 -2.028474e+03 9.293346e+02 1.501917e+02
-2.590252e+09 -2.390255e+09 -2.550252e+09 -2.547270e+03 9.583766e+02 4.217744e+02
-2.418928e+09 -2.218929e+09 -2.378929e+09 7.009334e+02 5.861033e+01 2.078484e+01
-2.613757e+09 -2.413760e+09 -2.573757e+09 -2.204950e+03 4.723996e+02 1.452348e+02
-3.205464e+09 -3.005467e+09 -3.165464e+09 -1.919801e+03 4.520112e+02 1.563049e+02
-3.400451e+09 -3.200454e+09 -3.360452e+09 -1.808430e+03 5.961426e+02 2.628285e+02
-3.596470e+09 -3.396474e+09 -3.556471e+09 -2.329608e+03 8.831125e+02 2.899046e+02
-3.401483e+09 -3.201486e+09 -3.361484e+09 -1.939442e+03 4.827330e+02 1.571638e+02
-2.755073e+09 -2.555082e+09 -2.715082e+09 -3.327494e+03 9.087625e+03 2.253584e+03
-2.541084e+09 -2.341087e+09 -2.501089e+09 -6.431192e+03 5.950607e+03 4.076451e+03
-2.344360e+09 -2.144362e+09 -2.304364e+09 -6.894759e+03 6.931711e+03 3.790514e+03
-1.966462e+09 -1.766475e+09 -1.926467e+09 -5.584207e+03 7.465930e+03 2.579637e+03
-2.474185e+09 -2.274192e+09 -2.434192e+09 -8.124976e+03 8.647438e+03 5.290810e+03
-1.942832e+09 -1.742837e+09 -1.902836e+09 -7.416906e+03 7.537670e+03 3.614683e+03
-3.369394e+09 -3.169394e+09 -3.329399e+09 -3.307345e+03 3.919510e+03 2.393804e+03
-2.065140e+09 -1.865142e+09 -2.025142e+09 2.690975e+02 1.528483e+01 -4.561028e+01
-3.155140e+09 -2.955149e+09 -3.115149e+09 -3.232661e+03 6.324878e+03 1.447586e+03
-1.610747e+09 -1.410751e+09 -1.570747e+09 4.360173e+03 -3.012364e+03 1.872061e+03
-2.672938e+09 -2.472944e+09 -2.632943e+09 -7.512888e+03 8.234403e+03 4.975484e+03
-3.400160e+09 -3.200164e+09 -3.360176e+09 -4.049417e+03 8.316413e+03 2.786494e+03
-3.294871e+09 -3.094879e+09 -3.254887e+09 -1.182308e+03 1.124372e+04 2.158981e+03
-3.106686e+09 -2.906692e+09 -3.066703e+09 -4.876624e+03 1.311575e+04 4.141937e+03
-2.168233e+09 -1.968233e+09 -2.128234e+09 1.738521e+03 -1.015844e+02 -5.335857e+02
-2.386740e+09 -2.186747e+09 -2.346746e+09 4.244684e+03 -7.569160e+03 3.540614e+03
-1.997543e+09 -1.797549e+09 -1.957545e+09 3.480490e+03 -4.065406e+03 1.981934e+03
-1.793923e+09 -1.593931e+09 -1.753926e+09 4.868321e+03 -5.761647e+03 2.498179e+03
-2.691802e+09 -2.491810e+09 -2.651808e+09 1.645662e+03 -4.931180e+03 1.259577e+03
-2.385897e+09 -2.185902e+09 -2.345901e+09 3.492546e+03 -4.706143e+03 2.357270e+03
-2.238772e+09 -2.038778e+09 -2.198774e+09 2.419537e+03 -3.117370e+03 1.097654e+03
-2.065607e+09 -1.865610e+09 -2.025607e+09 3.244455e+03 1.583886e+03 -6.247359e+02
-1.876447e+09 -1.676447e+09 -1.836446e+09 2.007227e+03 -1.312163e+03 6.120829e+02
-2.548704e+09 -2.348707e+09 -2.508705e+09 3.830743e+03 2.214482e+03 -9.670570e+02
-2.839210e+09 -2.639211e+09 -2.799210e+09 1.293039e+03 -1.000134e+03 3.743467e+02
-3.187205e+09 -2.987208e+09 -3.147206e+09 3.579737e+03 1.526384e+03 -8.847377e+02
-2.358269e+09 -2.158274e+09 -2.318270e+09 3.830392e+03 2.008993e+03 -1.027092e+03
-2.119461e+09 -1.919461e+09 -2.079461e+09 7.825333e+02 5.012264e+01 -1.111851e+02
-1.763448e+09 -1.563447e+09 -1.723448e+09 9.145556e+02 1.682371e+02 -6.803089e+01
-2.064624e+09 -1.864624e+09 -2.024624e+09 6.815118e+02 6.023564e+01 -8.372701e+01
-1.773384e+09 -1.573383e+09 -1.733384e+09 7.388682e+02 6.340798e+01 -1.078361e+02
-1.584923e+09 -1.384923e+09 -1.544923e+09 6.480273e+02 7.932095e+01 -1.236893e+02
-3.062489e+09 -2.862488e+09 -3.022489e+09 -8.580673e+02 -2.064679e+02 1.798638e+01
-2.578328e+09 -2.378327e+09 -2.538327e+09 -4.683419e+02 -2.691481e+02 1.523181e+02
-3.185254e+09 -2.985251e+09 -3.145253e+09 -7.112048e+02 -2.875588e+02 2.230789e+02
-1.979465e+09 -1.779464e+09 -1.939464e+09 -4.099640e+02 -2.912073e+02 1.461160e+02
-2.596709e+09 -2.396707e+09 -2.556708e+09 -3.479401e+02 -3.215325e+02 1.720706e+02
-2.493099e+09 -2.293097e+09 -2.453098e+09 -1.591439e+02 -3.456528e+02 1.934897e+02
-3.272163e+09 -3.072161e+09 -3.232162e+09 -8.449478e+02 -1.801298e+02 9.744046e+01
-2.744146e+09 -2.544137e+09 -2.704146e+09 -1.056564e+03 -2.692604e+02 3.540850e+03
-3.303739e+09 -3.103729e+09 -3.263746e+09 1.118162e+03 -4.065120e+03 5.640381e+03
-3.332079e+09 -3.132070e+09 -3.292080e+09 9.267782e+01 -1.303840e+03 4.101794e+03
-3.319787e+09 -3.119782e+09 -3.279787e+09 -2.056420e+03 3.468563e+02 1.514235e+03
-2.677417e+09 -2.477420e+09 -2.637420e+09 4.814810e+02 7.845006e+01 -3.427792e+02
-3.410549e+09 -3.210546e+09 -3.370551e+09 -1.226599e+02 -2.987353e+03 2.833057e+03
-1.561491e+09 -1.361493e+09 -1.521491e+09 -1.139938e+03 1.893261e+02 -1.225165e+02
-2.626499e+09 -2.426501e+09 -2.586499e+09 -2.157546e+03 8.320623e+02 3.398827e+02
-2.008609e+09 -1.808610e+09 -1.968608e+09 -2.051788e+03 4.201871e+02 2.316343e+02
-1.687706e+09 -1.487705e+09 -1.647705e+09 1.775779e+02 3.391920e+01 -3.687443e+01
-2.427835e+09 -2.227837e+09 -2.387835e+09 -1.884159e+03 7.389490e+02 4.336782e+01
-1.818839e+09 -1.618841e+09 -1.778838e+09 -1.843668e+03 3.450906e+02 -1.577910e+01
-2.404376e+09 -2.204379e+09 -2.364376e+09 -1.807393e+03 5.760503e+02 2.952531e+01
-1.795380e+09 -1.595382e+09 -1.755380e+09 -1.612141e+03 4.379109e+02 7.392885e+01
-2.674431e+09 -2.474433e+09 -2.634432e+09 5.273703e+02 2.512411e+01 -1.563464e+01
-2.607472e+09 -2.407464e+09 -2.567481e+09 -4.276386e+03 -9.312931e+03 -6.309773e+03
-1.922661e+09 -1.722669e+09 -1.882679e+09 -1.290077e+04 -1.706517e+04 -8.242668e+03
-2.425583e+09 -2.225562e+09 -2.385582e+09 -2.433365e+02 5.919166e+03 -4.844069e+03
-2.030800e+09 -1.830777e+09 -1.990810e+09 -9.153836e+01 -2.683530e+03 -6.106551e+03
-3.358258e+09 -3.158239e+09 -3.318244e+09 -6.002591e+03 -6.665486e+03 2.941067e+03
-1.832805e+09 -1.632851e+09 -1.792856e+09 -3.591124e+04 6.130372e+04 1.778580e+04
-1.826678e+09 -1.626640e+09 -1.786775e+09 -2.650037e+04 1.714935e+04 -8.741720e+03
-2.030229e+09 -1.830177e+09 -1.990230e+09 -1.043320e+04 1.399605e+03 2.024926e+04
-2.644459e+09 -2.444440e+09 -2.604479e+09 -1.242454e+04 1.332848e+04 1.532861e+04
-1.750214e+09 -1.550192e+09 -1.710243e+09 -4.233857e+04 3.562628e+04 2.092683e+04
-2.186268e+09 -1.986262e+09 -2.146271e+09 2.232944e+03 4.698546e+02 -1.514014e+03
-1.897694e+09 -1.697689e+09 -1.857696e+09 4.294393e+03 1.356148e+03 -1.020994e+03
-3.181191e+09 -2.981192e+09 -3.141192e+09 3.920598e+02 1.279582e+01 -2.918342e+01
-2.751826e+09 -2.551818e+09 -2.711826e+09 7.243760e+03 3.231029e+03 7.321918e+02
-3.580752e+09 -3.380754e+09 -3.540753e+09 6.679850e+02 1.050935e+01 -1.089389e+02
-2.546880e+09 -2.346895e+09 -2.506877e+09 5.194817e+03 4.979940e+03 1.844545e+04
-2.585632e+09 -2.385624e+09 -2.545631e+09 3.176652e+03 1.070017e+03 -2.894282e+03
-2.168522e+09 -1.968526e+09 -2.128524e+09 5.168081e+03 4.290348e+03 -1.902120e+03
-1.587677e+09 -1.387678e+09 -1.547675e+09 5.197303e+03 3.204588e+03 -1.570591e+03
-2.296110e+09 -2.096107e+09 -2.256111e+09 4.161235e+03 8.976568e+02 -4.230083e+02
-2.012903e+09 -1.812889e+09 -1.972905e+09 5.870065e+03 3.657367e+03 -1.703583e+03
-3.596147e+09 -3.396144e+09 -3.556147e+09 -9.194279e+02 -6.667031e+02 9.473462e+02
-2.503684e+09 -2.303677e+09 -2.463686e+09 -5.644486e+03 5.565968e+03 5.175316e+03
-1.847805e+09 -1.647796e+09 -1.807802e+09 -1.254405e+04 8.932801e+03 8.679731e+03
-2.166962e+09 -1.966949e+09 -2.126956e+09 -4.066988e+03 2.493291e+03 6.251129e+03
-2.427111e+09 -2.227107e+09 -2.387113e+09 -6.286669e+03 5.031563e+03 5.215779e+03
-1.824997e+09 -1.624991e+09 -1.784994e+09 -5.492760e+03 2.065122e+03 4.144877e+03
-2.539549e+09 -2.339553e+09 -2.499555e+09 -7.146221e+03 6.867602e+03 4.707628e+03
-1.769044e+09 -1.569058e+09 -1.729050e+09 -1.086451e+04 1.266693e+04 5.221041e+03
-1.875632e+09 -1.675635e+09 -1.835636e+09 -1.063755e+04 1.013256e+04 5.678442e+03
-2.595914e+09 -2.395903e+09 -2.555906e+09 -3.846185e+03 -1.113704e+01 4.842029e+03
-2.924306e+09 -2.724300e+09 -2.884309e+09 -5.426486e+03 4.909251e+03 5.369760e+03
-2.634924e+09 -2.434921e+09 -2.594923e+09 7.731728e+02 -1.256815e+02 -1.835993e+02
-3.402831e+09 -3.202828e+09 -3.362829e+09 1.932006e+03 -6.557014e+02 -8.595190e+02
-2.023670e+09 -1.823671e+09 -1.983671e+09 1.354799e+03 -3.438684e+00 -6.532228e+02
-2.401361e+09 -2.201365e+09 -2.361362e+09 -1.504244e+03 4.606348e+02 -4.651543e+01
-1.795675e+09 -1.595678e+09 -1.755674e+09 -1.558645e+03 2.238258e+02 -5.172982e+01
-2.164360e+09 -1.964363e+09 -2.124360e+09 -1.002017e+03 1.662627e+02 -4.105407e+01
-2.442104e+09 -2.242106e+09 -2.402104e+09 -1.357841e+03 2.171727e+02 -4.169717e+01
-2.592224e+09 -2.392225e+09 -2.552223e+09 -1.458269e+03 2.196448e+02 -8.675897e+01
-2.673666e+09 -2.473668e+09 -2.633666e+09 -1.353909e+03 2.242271e+02 2.809878e+01
-2.056527e+09 -1.856524e+09 -2.016525e+09 -1.105110e+03 5.121765e+02 2.790109e+02
-3.192675e+09 -2.992673e+09 -3.152676e+09 -3.035243e+03 1.791789e+03 1.305357e+03
-1.802324e+09 -1.602321e+09 -1.762320e+09 -3.930820e+03 1.071006e+03 1.402766e+03
-3.208137e+09 -3.008136e+09 -3.168138e+09 -3.392928e+03 2.222446e+03 1.381022e+03
-1.849406e+09 -1.649405e+09 -1.809403e+09 -2.743617e+03 7.382737e+02 4.611351e+02
-2.050517e+09 -1.850517e+09 -2.010516e+09 -2.925964e+03 9.909822e+02 6.518729e+02
-2.456616e+09 -2.256616e+09 -2.416616e+09 -2.849839e+03 1.492846e+03 5.975916e+02
-2.972669e+09 -2.772650e+09 -2.932661e+09 2.907966e+03 -6.184117e+03 2.908926e+03
-2.977372e+09 -2.777350e+09 -2.937361e+09 3.026279e+03 -5.723524e+03 3.784017e+03
-3.363138e+09 -3.163129e+09 -3.323095e+09 -5.418048e+03 -6.703152e+03 1.143197e+04
-3.172596e+09 -2.972596e+09 -3.132541e+09 -4.982712e+03 -1.960960e+04 2.215393e+04
-3.383492e+09 -3.183497e+09 -3.343476e+09 -9.440881e+03 -1.256406e+04 1.326705e+04
-3.061896e+09 -2.861905e+09 -3.021895e+09 -9.088297e+03 -1.120028e+04 1.678113e+04
-3.593738e+09 -3.393737e+09 -3.553737e+09 5.391603e+02 -4.109696e+01 -1.122890e+02
-2.291458e+09 -2.091458e+09 -2.251458e+09 -1.409747e+03 -2.691005e+00 -1.397854e+01
-3.167604e+09 -2.967609e+09 -3.127608e+09 2.041267e+03 -3.591547e+03 1.159771e+03
-3.405615e+09 -3.205618e+09 -3.365589e+09 2.549889e+03 6.855344e+03 1.155664e+04
-2.386827e+09 -2.186828e+09 -2.346828e+09 7.185806e+02 4.897685e+01 -5.205506e+01
-2.833369e+09 -2.633368e+09 -2.793369e+09 -1.928337e+03 -1.765937e+03 -1.111746e+03
-3.261979e+09 -3.061981e+09 -3.221981e+09 -2.727319e+03 -2.065254e+03 -1.254481e+03
-3.488263e+09 -3.288262e+09 -3.448263e+09 -2.061345e+03 -1.495049e+03 -7.034047e+02
-3.196129e+09 -2.996130e+09 -3.156130e+09 -1.665184e+03 -1.225769e+03 -3.568544e+02
-2.636482e+09 -2.436481e+09 -2.596482e+09 -2.873730e+03 -2.916163e+03 -1.478137e+03
-3.397606e+09 -3.197605e+09 -3.357608e+09 -1.773023e+03 -2.249989e+03 -1.123713e+03
-3.422676e+09 -3.222680e+09 -3.382678e+09 5.582747e+02 -5.918145e-01 -7.607628e+02
-2.760240e+09 -2.560245e+09 -2.720244e+09 -8.866989e+02 2.141948e+02 -1.111926e+03
-2.652103e+09 -2.452108e+09 -2.612106e+09 5.650388e+02 -9.569568e+01 -1.407623e+03
-2.428083e+09 -2.228087e+09 -2.388086e+09 -1.188492e+02 1.155682e+02 -1.258067e+03
-2.984371e+09 -2.784374e+09 -2.944373e+09 -8.687579e+02 1.994978e+02 -6.861685e+02
-2.431515e+09 -2.231519e+09 -2.391518e+09 -6.053752e+02 1.493827e+02 -6.936749e+02
-3.077759e+09 -2.877764e+09 -3.037762e+09 2.954493e+02 -7.718002e+01 -7.433736e+02
-3.033071e+09 -2.833069e+09 -2.993071e+09 -2.263131e+03 -2.198449e+03 -1.438254e+03
-2.126481e+09 -1.926480e+09 -2.086480e+09 -2.907137e+03 -2.200154e+03 -1.410305e+03
-1.934836e+09 -1.734835e+09 -1.894835e+09 -2.010100e+03 -1.328773e+03 -1.061275e+03
-2.232711e+09 -2.032710e+09 -2.192710e+09 -2.063359e+03 -1.553775e+03 -9.978204e+02
-3.192417e+09 -2.992415e+09 -3.152417e+09 4.296934e+02 -7.279021e+02 5.525953e+02
-3.432090e+09 -3.232088e+09 -3.392089e+09 4.824243e+02 -5.981754e+02 5.873801e+02
-3.196039e+09 -2.996039e+09 -3.156038e+09 7.783122e+02 -5.294567e+02 1.995637e+02
-1.576871e+09 -1.376869e+09 -1.536871e+09 1.892869e+03 -3.875382e+02 -6.950409e+02
-2.090684e+09 -1.890684e+09 -2.050683e+09 1.858472e+03 -1.243541e+03 8.773071e+02
-1.655548e+09 -1.455547e+09 -1.615547e+09 4.191266e+01 5.806125e+01 -7.538753e+01
-2.621947e+09 -2.421946e+09 -2.581946e+09 1.020744e+03 -8.977964e+02 5.514363e+02
-2.764827e+09 -2.564826e+09 -2.724826e+09 7.252587e+02 -8.621574e+02 5.427496e+02
-1.762799e+09 -1.562812e+09 -1.722802e+09 -5.603008e+03 7.215797e+03 2.890022e+03
-1.865065e+09 -1.665072e+09 -1.825066e+09 5.405141e+03 4.121570e+03 -1.592384e+03
-2.049127e+09 -1.849129e+09 -2.009125e+09 5.488660e+03 3.525725e+03 -1.890258e+03
-1.856056e+09 -1.656057e+09 -1.816057e+09 -5.739484e+02 -7.811727e+01 -5.732167e+00
-3.628737e+09 -3.428733e+09 -3.588735e+09 -1.876124e+03 2.508690e+02 -3.468407e+02
-2.678711e+09 -2.478711e+09 -2.638711e+09 4.368782e+03 2.535395e+03 -1.841958e+03
-2.183721e+09 -1.983727e+09 -2.143722e+09 4.982295e+03 4.493380e+03 -1.779188e+03
-1.698205e+09 -1.498213e+09 -1.658206e+09 2.230433e+03 -2.626483e+03 5.860544e+02
-2.998915e+09 -2.798919e+09 -2.958919e+09 4.960819e+03 3.792595e+03 -2.268058e+03
-3.080110e+09 -2.880111e+09 -3.040112e+09 4.295660e+03 2.622381e+03 -1.589736e+03
-1.980781e+09 -1.780785e+09 -1.940781e+09 3.862886e+03 2.610840e+03 -1.210266e+03
-2.707325e+09 -2.507324e+09 -2.667325e+09 3.858877e+03 2.478613e+03 -1.359083e+03
-3.290290e+09 -3.090288e+09 -3.250289e+09 1.807051e+03 -2.337013e+02 -3.649894e+02
-1.739456e+09 -1.539327e+09 -1.699229e+09 -1.345506e+04 5.925093e+04 -1.062470e+05
-2.534393e+09 -2.334396e+09 -2.494394e+09 2.353478e+03 -4.117676e+02 -2.796657e+03
-1.774752e+09 -1.574751e+09 -1.734751e+09 5.445627e+02 1.654253e+01 -1.489306e+02
-1.758759e+09 -1.558759e+09 -1.718760e+09 1.326862e+03 7.193157e+01 -2.310695e+02
-2.665267e+09 -2.465266e+09 -2.625267e+09 1.155660e+03 -7.529079e+01 -2.931729e+02
-3.600536e+09 -3.400535e+09 -3.560535e+09 1.873771e+02 5.186130e+00 -5.383143e+01
-1.864276e+09 -1.664275e+09 -1.824275e+09 5.141124e+02 5.820119e+01 -1.210426e+02
-2.048205e+09 -1.848207e+09 -2.008207e+09 1.802061e+03 -1.954022e+02 -1.098236e+03
-2.412983e+09 -2.212985e+09 -2.372985e+09 1.019766e+03 3.191909e+00 -5.549118e+02
-2.699183e+09 -2.499183e+09 -2.659183e+09 9.611533e+02 -2.422764e+01 -1.591563e+02
-2.757675e+09 -2.557678e+09 -2.717678e+09 1.298370e+03 -1.492185e+02 -7.538502e+02
-1.539593e+09 -1.339581e+09 -1.499587e+09 3.499566e+03 2.444598e+03 -4.017782e+03
-1.839896e+09 -1.639898e+09 -1.799898e+09 1.685296e+03 -1.576759e+02 -1.094005e+03
-1.981816e+09 -1.781818e+09 -1.941818e+09 1.438620e+03 -9.783609e+01 -3.784667e+02
-3.513299e+09 -3.313299e+09 -3.473253e+09 4.723111e+03 2.919494e+03 2.126320e+04
-3.397390e+09 -3.197391e+09 -3.357390e+09 -1.644018e+03 2.949789e+02 -1.790532e+01
-1.998706e+09 -1.798709e+09 -1.958706e+09 -1.806901e+03 3.321667e+02 1.167947e+02
-2.605983e+09 -2.405985e+09 -2.565983e+09 -1.856624e+03 5.807698e+02 1.810913e+02
-2.564540e+09 -2.364540e+09 -2.524539e+09 -1.495993e+03 2.789392e+02 -3.556800e+01
-3.301080e+09 -3.101081e+09 -3.261079e+09 -9.131645e+02 -4.719351e+00 -1.157219e+02
-3.386574e+09 -3.186575e+09 -3.346573e+09 -1.601231e+03 4.040044e+02 1.797412e+02
-3.316914e+09 -3.116916e+09 -3.276916e+09 1.620355e+02 2.797849e+00 -4.371049e+00
-1.858133e+09 -1.658135e+09 -1.818135e+09 -6.243546e+01 3.802861e+00 5.332709e+00
-3.624284e+09 -3.424279e+09 -3.584296e+09 -1.606426e+03 -7.941607e+03 -2.470563e+03
-2.465049e+09 -2.265052e+09 -2.425051e+09 -5.022582e+01 -1.287592e+00 -9.949407e+00
-2.523461e+09 -2.323463e+09 -2.483463e+09 5.743699e+02 -2.690360e+01 -2.057384e+02
-2.146434e+09 -1.946436e+09 -2.106436e+09 -4.759519e+01 1.032432e+01 -2.116160e+01
-2.848636e+09 -2.648638e+09 -2.808637e+09 -5.155821e+01 -2.041993e+01 -4.035988e-01
-3.259392e+09 -3.059395e+09 -3.219394e+09 3.190044e+02 1.395086e+01 -6.921919e+01
-3.000025e+09 -2.800027e+09 -2.960027e+09 1.167865e+02 1.384908e+01 -1.680348e+00
-1.590597e+09 -1.390597e+09 -1.550597e+09 -9.009166e+02 -2.069325e+02 5.546730e+01
-2.609955e+09 -2.409963e+09 -2.569958e+09 4.305689e+03 2.974468e+03 5.709062e+03
-1.980212e+09 -1.780216e+09 -1.940212e+09 -2.033674e+03 8.801507e+02 2.108971e+02
-3.208335e+09 -3.008339e+09 -3.168335e+09 -1.478673e+03 5.500392e+02 7.108924e+00
-2.484541e+09 -2.284545e+09 -2.444541e+09 -1.421209e+03 2.594523e+02 -5.064632e+01
-1.792790e+09 -1.592794e+09 -1.752790e+09 -1.739937e+03 6.130685e+02 8.990121e+01
-2.411560e+09 -2.211563e+09 -2.371561e+09 -2.420751e+03 9.671444e+02 1.667636e+02
-3.591433e+09 -3.391431e+09 -3.551432e+09 -5.292302e+02 -3.546196e+02 3.588612e+02
-2.589086e+09 -2.389090e+09 -2.549087e+09 -1.721696e+03 6.711079e+02 1.507270e+02
-2.343706e+09 -2.143650e+09 -2.303656e+09 -2.493539e+04 -4.804538e+04 2.120399e+03
-3.588894e+09 -3.388897e+09 -3.548896e+09 -2.683090e+02 -9.503960e+00 5.179963e+00
-1.773174e+09 -1.573036e+09 -1.733051e+09 2.894548e+04 -1.037731e+05 -4.625058e+04
-2.325470e+09 -2.125390e+09 -2.285426e+09 7.556226e+03 -3.969555e+04 -6.821417e+03
-2.102748e+09 -1.902657e+09 -2.062771e+09 -1.060226e+04 -6.539364e+03 -1.056511e+04
-3.131324e+09 -2.931297e+09 -3.091327e+09 7.118222e+01 -7.999422e+03 -6.253161e+03
-3.141490e+09 -2.941460e+09 -3.101453e+09 8.843873e+03 -2.928168e+04 -2.864670e+03
-3.526775e+09 -3.326775e+09 -3.486776e+09 -1.634397e+03 8.548484e+01 9.238683e+00
-2.369153e+09 -2.169152e+09 -2.329152e+09 -2.556376e+02 1.241503e+02 -5.729702e+01
-3.394661e+09 -3.194660e+09 -3.354660e+09 -4.229719e+01 -1.130542e+01 -1.138756e+02
-3.161099e+09 -2.961098e+09 -3.121098e+09 -2.560632e+02 -1.411116e+02 -7.692154e+00
-2.550294e+09 -2.350293e+09 -2.510293e+09 7.671454e+01 4.474006e+00 -9.942792e+01
-3.111110e+09 -2.911109e+09 -3.071109e+09 -7.859342e+01 7.695111e+01 -2.522335e+01
-2.515990e+09 -2.315997e+09 -2.475993e+09 -1.607876e+03 1.813570e+03 2.559140e+02
-3.119850e+09 -2.919857e+09 -3.079853e+09 -1.520679e+03 1.412407e+03 1.523559e+02
-3.058827e+09 -2.858826e+09 -3.018826e+09 -2.661063e+02 8.418381e+01 -4.813855e+01
-3.478686e+09 -3.278688e+09 -3.438687e+09 -1.600290e+02 -1.182481e+01 -7.791952e-01
-2.412005e+09 -2.212014e+09 -2.372008e+09 -3.535259e+02 2.068791e+03 7.234667e+01
-2.249552e+09 -2.049552e+09 -2.209552e+09 -4.486574e+02 -2.597211e+01 -5.156959e+00
-3.389852e+09 -3.189858e+09 -3.349854e+09 -1.316554e+03 9.046700e+02 2.836273e+02
-3.376598e+09 -3.176606e+09 -3.336602e+09 -1.654783e+03 1.872697e+03 7.861182e+02
-2.913276e+09 -2.713275e+09 -2.873285e+09 3.304643e+03 -7.174175e+03 4.938304e+03
-2.117100e+09 -1.917101e+09 -2.077101e+09 4.948169e+03 -7.541881e+03 4.526167e+03
-2.810436e+09 -2.610434e+09 -2.770438e+09 1.808271e+03 -3.543633e+03 2.934985e+03
-1.920828e+09 -1.720827e+09 -1.880828e+09 5.467377e+03 -6.351989e+03 4.717370e+03
-2.538231e+09 -2.338225e+09 -2.498230e+09 1.376141e+03 -1.653967e+03 2.897224e+03
-2.827486e+09 -2.627483e+09 -2.787487e+09 1.626508e+03 -3.503130e+03 3.050890e+03
-1.796382e+09 -1.596374e+09 -1.756380e+09 4.869670e+03 -4.883500e+03 5.586917e+03
-2.558772e+09 -2.358768e+09 -2.518772e+09 2.920196e+03 -3.155782e+03 3.846768e+03
-3.078058e+09 -2.878061e+09 -3.038058e+09 1.945126e+03 4.686433e+02 -7.335540e+01
-2.368185e+09 -2.168189e+09 -2.328185e+09 1.636803e+03 2.368841e+02 -8.086132e+01
-2.243870e+09 -2.043873e+09 -2.203869e+09 1.667641e+03 2.131981e+02 -8.470763e+01
-2.246782e+09 -2.046785e+09 -2.206781e+09 1.860237e+03 4.775308e+02 -7.362163e+01
-2.215062e+09 -2.015062e+09 -2.175063e+09 -3.422084e+03 -3.848482e+03 -1.802377e+03
-1.572648e+09 -1.372662e+09 -1.532653e+09 -6.491435e+03 -1.063423e+04 -3.053802e+03
-2.579686e+09 -2.379688e+09 -2.539686e+09 2.276830e+03 5.718071e+02 -8.169892e+01
-1.573036e+09 -1.373035e+09 -1.533035e+09 3.550941e+02 8.567793e+01 -1.305951e+02
-1.690359e+09 -1.490361e+09 -1.650358e+09 1.784496e+03 4.025775e+02 5.726382e+01
-2.993222e+09 -2.793224e+09 -2.953221e+09 2.198228e+03 4.703316e+02 -1.856232e+02
-3.600934e+09 -3.400935e+09 -3.560935e+09 -7.648164e+02 -3.664966e+01 -2.569987e+01
-1.998884e+09 -1.798887e+09 -1.958883e+09 1.480188e+03 3.235440e+02 -7.686176e+01
-2.662777e+09 -2.462773e+09 -2.622775e+09 6.965197e+02 -8.875551e+01 -1.113088e+02
-1.615807e+09 -1.415809e+09 -1.575807e+09 -2.219637e+03 8.200743e+02 9.938518e+01
-3.092623e+09 -2.892620e+09 -3.052620e+09 2.336194e+03 -8.435712e+02 -6.095736e+02
-3.095994e+09 -2.895987e+09 -3.055991e+09 -6.992420e+01 -2.383469e+02 1.171279e+03
-3.330731e+09 -3.130724e+09 -3.290729e+09 -2.263378e+02 4.313561e+01 1.045997e+03
-2.678269e+09 -2.478265e+09 -2.638265e+09 2.000465e+03 -1.265127e+03 -1.540659e+03
-2.985772e+09 -2.785765e+09 -2.945771e+09 2.642988e+03 -1.246539e+03 -2.685637e+02
-1.588441e+09 -1.388434e+09 -1.548437e+09 5.150894e+03 2.858268e+03 -3.579059e+03
-3.120654e+09 -2.920649e+09 -3.080652e+09 1.751394e+03 -7.384887e+02 -3.869214e+02
-3.585679e+09 -3.385660e+09 -3.545690e+09 -3.188736e+03 4.372180e+02 -7.131238e+03
-2.119811e+09 -1.919799e+09 -2.079813e+09 -1.775909e+04 7.498238e+03 1.820223e+04
-3.618092e+09 -3.418091e+09 -3.578094e+09 3.093907e+03 2.099897e+03 -1.221800e+03
-1.846118e+09 -1.646139e+09 -1.806127e+09 6.460491e+03 -1.531873e+04 5.991089e+03
-1.618105e+09 -1.418103e+09 -1.578102e+09 2.541458e+03 -1.635568e+03 1.505865e+03
-2.703879e+09 -2.503872e+09 -2.663891e+09 -2.990697e+03 -7.954158e+03 -6.098927e+03
-2.878614e+09 -2.678595e+09 -2.838617e+09 1.006030e+03 1.336302e+03 -3.701844e+03
-1.590351e+09 -1.390344e+09 -1.550348e+09 4.786783e+03 -3.992257e+03 5.027375e+03
-1.866742e+09 -1.666753e+09 -1.826753e+09 -1.034596e+04 -1.806747e+04 -5.389233e+03
-1.575501e+09 -1.375501e+09 -1.535501e+09 -6.136406e+02 -1.728296e+02 -5.765995e+01
-3.022316e+09 -2.822315e+09 -2.982335e+09 -1.078492e+03 -5.245173e+03 3.254736e+03
-1.894264e+09 -1.694264e+09 -1.854265e+09 -2.798132e+03 1.632995e+03 -2.383007e+03
-3.360626e+09 -3.160612e+09 -3.320636e+09 -1.483338e+03 -2.466911e+03 -2.793354e+03
-2.413390e+09 -2.213390e+09 -2.373389e+09 -3.166921e+02 7.697301e+01 -8.369579e+01
-3.426873e+09 -3.226862e+09 -3.386878e+09 -3.854739e+02 -3.777115e+03 -2.798576e+03
-3.332388e+09 -3.132388e+09 -3.292399e+09 -1.544279e+03 -1.063424e+04 -2.823126e+03
-2.059666e+09 -1.859679e+09 -2.019696e+09 -2.797455e+03 -2.213457e+04 -2.573598e+03
-2.545365e+09 -2.345358e+09 -2.505364e+09 -2.816018e+01 8.959327e+02 -1.173171e+03
-2.635053e+09 -2.435061e+09 -2.595065e+09 -1.870695e+03 -1.006933e+04 2.892886e+02
-2.572433e+09 -2.372426e+09 -2.532433e+09 1.931494e+03 1.963266e+03 -2.842449e+03
-2.280633e+09 -2.080624e+09 -2.240630e+09 4.709726e+03 3.120905e+03 -4.916672e+03
-2.571332e+09 -2.371349e+09 -2.531343e+09 -1.064677e+03 -1.310147e+02 1.156985e+04
-2.304978e+09 -2.104969e+09 -2.264977e+09 -1.032772e+03 7.975285e+02 -2.133381e+03
-1.946100e+09 -1.746091e+09 -1.906099e+09 -6.726013e+02 -2.248561e+02 -2.059986e+03
-1.715955e+09 -1.515944e+09 -1.675952e+09 2.329206e+03 2.303246e+03 -4.199742e+03
-1.920273e+09 -1.720263e+09 -1.880269e+09 3.666150e+03 3.061448e+03 -4.463796e+03
-3.498554e+09 -3.298560e+09 -3.458555e+09 1.424118e+03 3.517891e+02 -1.080195e+02
-2.432049e+09 -2.232050e+09 -2.392050e+09 -7.482500e+02 -7.708017e+01 1.835431e+00
-1.962322e+09 -1.762323e+09 -1.922323e+09 -5.156953e+02 -5.471540e+01 2.726433e+01
-2.196414e+09 -1.996415e+09 -2.156415e+09 -8.558663e+02 -9.813712e+01 2.300947e+01
-1.898105e+09 -1.698106e+09 -1.858106e+09 -5.711258e+02 -7.125623e+01 2.046136e+01
-3.019897e+09 -2.819898e+09 -2.979898e+09 -7.371143e+02 -4.683182e+01 1.136202e+01
-2.282462e+09 -2.082463e+09 -2.242463e+09 -4.993648e+02 -2.285478e+01 -2.915766e-01
-1.569021e+09 -1.369018e+09 -1.529018e+09 1.378528e+03 -1.099435e+03 1.270383e+03
-2.476334e+09 -2.276335e+09 -2.436335e+09 -6.979441e+02 -6.955759e+01 -1.170991e+01
-2.859365e+09 -2.659366e+09 -2.819365e+09 -5.726887e+02 -7.623146e+01 2.981380e+01
-3.086641e+09 -2.886642e+09 -3.046641e+09 1.366788e+03 -1.565196e+02 -9.346239e+02
-1.586331e+09 -1.386296e+09 -1.546317e+09 2.363375e+03 -2.056785e+03 3.894807e+02
-2.038960e+09 -1.838962e+09 -1.998962e+09 1.120129e+03 3.169976e+01 -3.042150e+02
-2.392174e+09 -2.192177e+09 -2.352176e+09 1.001879e+03 -1.828755e+01 -9.286087e+02
-3.219269e+09 -3.019271e+09 -3.179270e+09 1.328114e+03 -7.185946e+01 -1.192225e+03
-3.186168e+09 -2.986178e+09 -3.146172e+09 -3.905060e+02 1.188575e+03 4.150778e+03
-3.045981e+09 -2.845982e+09 -3.005982e+09 1.147583e+03 4.035628e+01 -2.526532e+02
-3.205906e+09 -3.005909e+09 -3.165908e+09 1.294842e+03 -1.093808e+02 -6.664286e+02
-3.290831e+09 -3.090832e+09 -3.250832e+09 1.790519e+03 -1.837160e+02 -8.262164e+02
-2.894744e+09 -2.694739e+09 -2.854745e+09 1.761904e+03 -6.275188e+02 -1.542711e+03
-2.005477e+09 -1.805478e+09 -1.965508e+09 -1.187035e+04 3.135978e+04 8.927833e+02
-2.252849e+09 -2.052845e+09 -2.212847e+09 2.569679e+03 1.260303e+03 -1.297840e+03
-2.927913e+09 -2.727916e+09 -2.887916e+09 -2.500489e+03 4.887902e+02 -5.776650e+02
-2.620864e+09 -2.420872e+09 -2.580867e+09 -6.003292e+02 1.323015e+03 5.570319e+01
-1.870041e+09 -1.670045e+09 -1.830045e+09 -1.997751e+03 5.413335e+02 -1.403065e+03
-2.183967e+09 -1.983973e+09 -2.143973e+09 -2.006184e+03 2.640844e+02 -2.835941e+03
-2.478972e+09 -2.278976e+09 -2.438974e+09 -1.553001e+03 4.904217e+02 -1.504367e+03
-1.873948e+09 -1.673923e+09 -1.833900e+09 -7.412772e+03 5.936041e+03 -4.024645e+04
-2.209444e+09 -2.009446e+09 -2.169474e+09 5.534853e+02 -2.419385e+04 5.085101e+03
-2.715976e+09 -2.515933e+09 -2.675926e+09 1.112764e+03 2.178710e+04 -5.243370e+03
-2.297240e+09 -2.097243e+09 -2.257240e+09 1.321197e+03 1.640299e+02 -3.356680e+01
-1.874568e+09 -1.674572e+09 -1.834568e+09 1.535041e+03 1.807509e+02 -4.081147e+01
-2.459425e+09 -2.259403e+09 -2.419436e+09 -6.092485e+03 4.861115e+02 1.140798e+03
-2.102421e+09 -1.902429e+09 -2.062423e+09 5.048024e+02 1.058234e+03 -8.892423e+01
-2.110217e+09 -1.910176e+09 -2.070163e+09 -8.393283e+03 1.879008e+04 -7.989810e+03
-3.043795e+09 -2.843763e+09 -3.003706e+09 -8.560558e+01 1.159250e+04 -8.373236e+03
-3.571720e+09 -3.371720e+09 -3.531719e+09 -1.184115e+03 1.131866e+02 3.408459e+01
-3.476825e+09 -3.276824e+09 -3.436824e+09 1.088745e+02 6.974211e+00 -2.643358e+01
-3.629239e+09 -3.429228e+09 -3.589241e+09 -1.114512e+03 2.158499e+03 -5.087540e+03
-2.992194e+09 -2.792156e+09 -2.952142e+09 -1.073949e+04 2.400367e+04 -2.221551e+04
-3.387236e+09 -3.187235e+09 -3.347235e+09 1.208651e+02 7.572117e+01 -2.806083e+01
-2.478438e+09 -2.278417e+09 -2.438441e+09 -9.166347e+03 -5.705537e+02 -1.860481e+03
-2.928527e+09 -2.728502e+09 -2.888478e+09 -1.379910e+04 4.873016e+03 -2.151487e+04
-3.234303e+09 -3.034290e+09 -3.194234e+09 -4.953009e+03 9.158410e+03 -2.937215e+03
-1.599203e+09 -1.399203e+09 -1.559202e+09 -5.459268e+02 1.191702e+02 -1.163992e+02
-3.075993e+09 -2.875969e+09 -3.036003e+09 1.556784e+03 9.275395e+03 1.433486e+03
-2.238276e+09 -2.038266e+09 -2.198294e+09 -6.631918e+03 -1.491443e+04 -1.851648e+03
-3.365008e+09 -3.165008e+09 -3.325005e+09 2.156572e+03 -1.335095e+03 -2.278722e+03
-2.293297e+09 -2.093307e+09 -2.253300e+09 4.242455e+03 6.961941e+03 -1.641607e+03
-3.076654e+09 -2.876657e+09 -3.036656e+09 4.111602e+03 2.833135e+03 -1.102356e+03
-2.668808e+09 -2.468819e+09 -2.628813e+09 2.422234e+03 4.181088e+03 -8.510801e+02
-3.174690e+09 -2.974696e+09 -3.134694e+09 2.883320e+03 2.007419e+03 -5.710503e+02
-1.586292e+09 -1.386290e+09 -1.546291e+09 1.132505e+02 1.235687e+02 -1.305166e+02
-2.662130e+09 -2.462138e+09 -2.622133e+09 1.934970e+03 2.658207e+03 -4.377882e+02
-3.584479e+09 -3.384479e+09 -3.544478e+09 -8.393146e+02 1.530440e+01 -2.959550e+01
-3.407335e+09 -3.207343e+09 -3.367339e+09 6.826051e+02 1.532250e+03 -1.158280e+02
-2.395034e+09 -2.195038e+09 -2.355034e+09 2.073262e+03 4.381590e+02 -1.878195e+02
-1.957631e+09 -1.757630e+09 -1.917630e+09 1.791444e+02 6.592743e+01 -9.294400e+01
-2.516080e+09 -2.316085e+09 -2.476080e+09 1.818215e+03 6.544726e+02 -1.406028e+02
-1.774814e+09 -1.574812e+09 -1.734813e+09 -1.167931e+03 4.726070e+02 1.859590e+02
-1.589008e+09 -1.389030e+09 -1.549012e+09 -8.083418e+03 1.142240e+04 2.812861e+03
-3.596487e+09 -3.396488e+09 -3.556488e+09 -2.832641e+03 1.121016e+03 7.845855e+02
-2.529226e+09 -2.329230e+09 -2.489226e+09 1.540875e+03 3.707780e+02 -9.199907e+01
-2.586961e+09 -2.386961e+09 -2.546961e+09 6.213739e+02 4.318843e+01 -4.654346e+01
-3.596470e+09 -3.396473e+09 -3.556471e+09 -1.904135e+03 6.179850e+02 1.633169e+02
-1.673760e+09 -1.473760e+09 -1.633759e+09 -2.805948e+02 7.307854e+01 -1.173294e+02
-3.376772e+09 -3.176775e+09 -3.336772e+09 1.982440e+03 3.750261e+02 -9.766179e+00
-2.027947e+09 -1.827946e+09 -1.987946e+09 -9.630286e+01 5.640743e+01 -7.971926e+01
-1.959677e+09 -1.759679e+09 -1.919679e+09 4.518784e+01 1.098802e+01 4.064895e+01
-2.405118e+09 -2.205120e+09 -2.365120e+09 -3.065052e+02 -2.967386e+01 4.055069e+01
-1.800664e+09 -1.600665e+09 -1.760664e+09 -3.724416e+03 1.969811e+03 9.871318e+02
-1.928107e+09 -1.728106e+09 -1.888106e+09 2.893573e+01 6.388082e+01 -8.364617e+01
-2.465964e+09 -2.265966e+09 -2.425965e+09 5.327289e+02 4.582560e+01 1.655580e+01
-1.619943e+09 -1.419943e+09 -1.579943e+09 4.938832e+02 1.124785e+02 -5.313186e+00
-1.795728e+09 -1.595730e+09 -1.755730e+09 -2.132514e+02 -1.282200e+01 5.988799e+01
-2.946193e+09 -2.746195e+09 -2.906195e+09 -2.618155e+02 -4.319110e+00 2.992518e+00
-2.247978e+09 -2.047980e+09 -2.207980e+09 -5.103503e+01 8.023820e+00 -5.791939e+00
-2.056696e+09 -1.856694e+09 -2.016695e+09 1.718011e+02 1.685043e+02 -5.325302e+01
-2.140729e+09 -1.940731e+09 -2.100731e+09 -3.952025e+02 -1.099255e+01 -2.650500e+00
-3.031032e+09 -2.831035e+09 -2.991034e+09 -1.398280e+03 3.731400e+02 -7.869816e+02
-3.253770e+09 -3.053772e+09 -3.213771e+09 -1.738971e+03 2.059716e+02 -5.003152e+02
-3.364511e+09 -3.164514e+09 -3.324513e+09 -9.373494e+02 6.250716e+01 -4.639667e+02
-2.593845e+09 -2.393846e+09 -2.553846e+09 6.199629e+02 5.256606e+01 -2.278540e+01
-3.595899e+09 -3.395900e+09 -3.555900e+09 8.688688e+02 6.172409e+00 -1.063594e+02
-1.696668e+09 -1.496669e+09 -1.656669e+09 3.961781e+02 6.414808e+01 5.505654e+00
-2.217761e+09 -2.017763e+09 -2.177763e+09 -1.481759e+03 -2.453467e+01 -2.791050e+02
-3.593738e+09 -3.393736e+09 -3.553737e+09 8.896204e+02 -1.300694e+02 -2.578996e+02
-1.963422e+09 -1.763425e+09 -1.923425e+09 -1.591025e+03 1.090816e+02 -4.220854e+02
-3.397375e+09 -3.197373e+09 -3.357374e+09 3.518691e+02 1.474750e+02 3.155065e+01
-3.233947e+09 -3.033950e+09 -3.193948e+09 -1.711940e+03 2.375964e+02 -9.229780e+02
-2.528336e+09 -2.328337e+09 -2.488337e+09 -1.753648e+03 2.347194e+02 -5.233553e+02
-3.368881e+09 -3.168873e+09 -3.328880e+09 5.275814e+01 1.389871e+03 -2.623612e+03
-1.570570e+09 -1.370560e+09 -1.530565e+09 9.675113e+03 6.365241e+03 -7.205446e+03
-1.679212e+09 -1.479208e+09 -1.639209e+09 2.971628e+03 1.143587e+03 -1.461126e+03
-2.956102e+09 -2.756104e+09 -2.916104e+09 -4.066504e+02 -2.828623e+01 1.043948e+01
-3.610657e+09 -3.410652e+09 -3.570658e+09 -1.442916e+03 6.093358e+02 -1.251447e+03
-3.629236e+09 -3.429226e+09 -3.589239e+09 1.066686e+03 3.387351e+03 -3.407261e+03
-3.460698e+09 -3.260699e+09 -3.420699e+09 -3.196779e+02 -7.348316e+00 8.830421e+00
-2.958739e+09 -2.758741e+09 -2.918740e+09 7.075741e+00 -9.345596e+00 -8.905744e+01
-1.831133e+09 -1.631135e+09 -1.791135e+09 -2.951391e+02 -2.952904e+01 4.021836e+01
-1.695553e+09 -1.495566e+09 -1.655566e+09 -1.122419e+03 -3.160696e+02 4.723178e+03
-1.855920e+09 -1.655900e+09 -1.815919e+09 1.261431e+04 8.928044e+03 -1.166510e+04
-1.783629e+09 -1.583631e+09 -1.743631e+09 -5.293378e+02 -5.509825e+01 2.731131e+01
-2.886714e+09 -2.686716e+09 -2.846716e+09 -3.135358e+02 -1.339712e+01 6.772062e+01
-2.235226e+09 -2.035228e+09 -2.195228e+09 -2.324722e+02 -8.885953e+00 -7.121038e+00
-1.947027e+09 -1.747028e+09 -1.907028e+09 -1.455382e+02 -1.570026e+01 2.973402e+01
-3.185962e+09 -2.985962e+09 -3.145962e+09 -1.705037e+03 -1.354930e+03 -3.852743e+02
-3.209778e+09 -3.009778e+09 -3.169781e+09 -2.809861e+03 -3.224931e+03 -1.569723e+03
-3.423808e+09 -3.223794e+09 -3.383806e+09 -2.556425e+02 1.446681e+03 -5.396311e+03
-3.212308e+09 -3.012306e+09 -3.172308e+09 -1.985323e+03 -2.208913e+03 -1.562931e+03
-3.281347e+09 -3.081343e+09 -3.241350e+09 -2.865282e+03 -3.798721e+03 -2.720050e+03
-2.973838e+09 -2.773833e+09 -2.933841e+09 -2.159250e+03 -3.293961e+03 -2.640878e+03
-2.705322e+09 -2.505318e+09 -2.665322e+09 -1.554866e+03 -2.376364e+03 -2.196139e+03
-2.284100e+09 -2.084101e+09 -2.244101e+09 -3.435361e+03 -3.955443e+03 -2.581404e+03
-2.284472e+09 -2.084470e+09 -2.244472e+09 -3.127957e+03 -3.468057e+03 -2.389207e+03
-2.263241e+09 -2.063239e+09 -2.223269e+09 7.714345e+02 -2.377183e+04 3.800923e+03
-3.224431e+09 -3.024440e+09 -3.184442e+09 1.095984e+03 -7.178280e+03 1.229300e+03
-2.677191e+09 -2.477199e+09 -2.637205e+09 -1.034130e+03 -1.208309e+04 5.662201e+02
-2.988629e+09 -2.788633e+09 -2.948646e+09 1.162568e+03 -1.056932e+04 4.265994e+03
-3.146388e+09 -2.946395e+09 -3.106402e+09 -9.202738e+02 -8.603114e+03 6.133275e+02
-3.360791e+09 -3.160795e+09 -3.320803e+09 1.740880e+01 -6.700399e+03 1.122655e+03
-3.104408e+09 -2.904368e+09 -3.064393e+09 6.323535e+02 -2.565473e+04 4.024285e+03
-1.557606e+09 -1.357605e+09 -1.517606e+09 1.515831e+02 6.948613e+01 -5.985433e+01
-1.588579e+09 -1.388579e+09 -1.548578e+09 -8.415619e+02 1.208535e+02 -1.301891e+02
-3.385406e+09 -3.185394e+09 -3.345374e+09 -9.098893e+03 -1.727790e+04 7.772419e+03
-2.730308e+09 -2.530282e+09 -2.690303e+09 -2.416198e+03 -1.622944e+04 -3.499755e+03
-2.131085e+09 -1.931048e+09 -2.091034e+09 -2.644445e+04 -5.922113e+04 1.187988e+04
-3.498812e+09 -3.298812e+09 -3.458812e+09 3.679486e+02 2.412464e+01 -1.535307e+01
-2.758797e+09 -2.558792e+09 -2.718660e+09 -9.216207e+03 -2.991977e+04 3.183747e+04
-3.312833e+09 -3.112832e+09 -3.272833e+09 -3.580393e+02 -5.280322e+01 -2.470742e+01
-3.329080e+09 -3.129080e+09 -3.289079e+09 -6.137230e+02 -3.801747e+01 -1.144862e+02
-2.592278e+09 -2.392277e+09 -2.552277e+09 -4.432883e+02 -1.173052e+02 -3.391164e+01
-3.592431e+09 -3.392433e+09 -3.552432e+09 1.291318e+03 -7.015009e+01 -6.296233e+02
-3.420445e+09 -3.220444e+09 -3.380444e+09 -4.980097e+02 -6.067797e+01 -2.927354e+00
-1.570150e+09 -1.370150e+09 -1.530151e+09 -6.969762e+02 -1.189495e+02 3.770759e+01
-1.561134e+09 -1.361172e+09 -1.521154e+09 -3.227928e+04 4.173497e+04 1.846027e+04
-3.048157e+09 -2.848157e+09 -3.008157e+09 -8.128500e+02 -7.063582e+01 1.201575e+01
-3.592432e+09 -3.392432e+09 -3.552432e+09 1.716760e+03 -1.036315e+02 -3.750740e+02
-3.285292e+09 -3.085294e+09 -3.245301e+09 -3.426897e+03 -6.941729e+03 -2.645177e+03
-3.308213e+09 -3.108213e+09 -3.268213e+09 -1.022629e+03 -1.042492e+02 1.767186e+02
-3.393457e+09 -3.193460e+09 -3.353451e+09 -6.983282e+03 -4.151405e+03 8.452728e+03
-3.269261e+09 -3.069277e+09 -3.229258e+09 -1.091044e+03 -2.901565e+02 2.122527e+04
-3.372764e+09 -3.172768e+09 -3.332713e+09 -4.598094e+03 -1.863633e+04 1.986740e+04
-3.622747e+09 -3.422748e+09 -3.582750e+09 1.433234e+03 -2.273089e+03 1.188323e+03
-3.518425e+09 -3.318431e+09 -3.478431e+09 -1.759688e+03 -3.405771e+03 -4.724810e+02
-3.613153e+09 -3.413146e+09 -3.573147e+09 -6.750819e+03 -6.881306e+03 3.699453e+03
-3.405782e+09 -3.205771e+09 -3.365768e+09 -7.539481e+03 -1.028253e+04 3.645638e+03
-1.586318e+09 -1.386256e+09 -1.546392e+09 3.025174e+04 2.886626e+04 2.357820e+04
-2.639693e+09 -2.439687e+09 -2.599685e+09 -6.888637e+03 -6.550583e+03 5.292468e+03
-2.382269e+09 -2.182255e+09 -2.342270e+09 8.586933e+03 9.213277e+03 -7.224522e+02
-2.552843e+09 -2.352811e+09 -2.512801e+09 1.130351e+04 2.716073e+04 6.802825e+03
-2.129957e+09 -1.929910e+09 -2.089834e+09 1.973035e+04 4.530820e+04 2.788330e+04
-1.807121e+09 -1.606978e+09 -1.767068e+09 9.800503e+03 4.550884e+04 -3.910464e+04
-3.268122e+09 -3.068124e+09 -3.228123e+09 1.052537e+03 -1.313480e+01 -2.657031e+02
-3.321663e+09 -3.121657e+09 -3.281677e+09 -2.414181e+03 -6.422438e+03 1.481800e+03
-1.596627e+09 -1.396626e+09 -1.556626e+09 9.329447e+01 1.046925e+02 -6.573313e+01
-3.189686e+09 -2.989686e+09 -3.149687e+09 -1.133803e+03 -8.843863e+01 7.061539e+01
-3.592431e+09 -3.392433e+09 -3.552432e+09 1.044956e+03 -3.216474e+01 -5.675204e+02
-3.052341e+09 -2.852344e+09 -3.012343e+09 3.255808e+02 -1.732376e+00 -3.399285e+02
-1.591792e+09 -1.391794e+09 -1.551794e+09 9.828201e+02 6.073098e+01 -1.514032e+02
-1.619943e+09 -1.419943e+09 -1.579943e+09 6.983214e+02 1.008908e+02 -1.231311e+01
-2.138952e+09 -1.938950e+09 -2.098951e+09 -2.228950e+03 -1.845657e+03 -1.607972e+03
-2.083801e+09 -1.883806e+09 -2.043804e+09 -5.167269e+03 -6.598587e+03 -3.363566e+03
-2.103639e+09 -1.903641e+09 -2.063641e+09 -3.689670e+03 -4.168721e+03 -1.993790e+03
-2.688994e+09 -2.488996e+09 -2.648997e+09 -3.549829e+03 -4.296434e+03 -1.991104e+03
-2.215433e+09 -2.015430e+09 -2.175433e+09 -3.156085e+03 -2.960536e+03 -1.799350e+03
-1.589083e+09 -1.389084e+09 -1.549084e+09 7.751377e+02 9.204994e+01 -4.690871e+01
-3.122590e+09 -2.922585e+09 -3.082549e+09 2.668373e+03 8.135315e+03 2.771752e+04
-2.175117e+09 -1.975122e+09 -2.135088e+09 -1.246959e+04 -1.633324e+04 4.279000e+04
-2.530651e+09 -2.330655e+09 -2.490562e+09 6.974792e+03 1.291880e+03 5.698026e+04
-1.753604e+09 -1.553541e+09 -1.713551e+09 3.045323e+04 -2.905713e+04 -1.113522e+04
-2.170543e+09 -1.970507e+09 -2.130503e+09 -4.501351e+02 -1.861717e+04 5.607382e+04
-1.758184e+09 -1.558143e+09 -1.718171e+09 -4.041184e+04 -7.614245e+04 -2.442079e+03
-3.168131e+09 -2.968123e+09 -3.128070e+09 -7.051347e+03 -2.355246e+04 8.233060e+03
-1.724611e+09 -1.524613e+09 -1.684613e+09 1.353150e+03 -3.400297e+01 -5.412131e+02
-3.595684e+09 -3.395684e+09 -3.555682e+09 2.634731e+03 -1.530129e+03 -2.196412e+03
-2.525407e+09 -2.325404e+09 -2.485406e+09 -2.145818e+03 -1.979031e+03 -1.735275e+03
-1.795214e+09 -1.595218e+09 -1.755214e+09 -2.148505e+03 5.945292e+02 1.118192e+02
-1.574709e+09 -1.374713e+09 -1.534713e+09 3.027854e+03 -8.853598e+02 -3.766293e+03
-1.814770e+09 -1.614821e+09 -1.774762e+09 1.104922e+03 -3.115391e+02 5.986617e+04
-2.522505e+09 -2.322444e+09 -2.482444e+09 -1.254962e+04 -4.539617e+04 8.732028e+03
-3.579263e+09 -3.379262e+09 -3.539262e+09 4.223577e+02 7.100023e+00 -4.058090e+01
-2.578443e+09 -2.378412e+09 -2.538444e+09 3.581736e+03 -1.565562e+04 -2.139639e+03
-1.660982e+09 -1.460987e+09 -1.620983e+09 2.204730e+03 7.962119e+02 -1.175723e+02
-1.598137e+09 -1.398137e+09 -1.558137e+09 3.786163e+02 5.022544e+01 -4.555263e+01
-2.537207e+09 -2.337213e+09 -2.497208e+09 1.906911e+03 8.249594e+02 -1.049833e+02
-2.361600e+09 -2.161600e+09 -2.321600e+09 4.638448e+02 6.260511e+01 -2.043502e+01
-1.753165e+09 -1.553169e+09 -1.713165e+09 2.018870e+03 7.027688e+02 -1.671615e+02
-1.586533e+09 -1.386534e+09 -1.546534e+09 6.362967e+02 7.943328e+01 7.354247e+00
-2.208390e+09 -2.008391e+09 -2.168389e+09 -6.316566e+02 2.805516e+01 -7.647246e+01
-1.851756e+09 -1.651761e+09 -1.811756e+09 1.491990e+03 4.264320e+02 -6.614989e+01
-1.582645e+09 -1.382644e+09 -1.542645e+09 4.261874e+02 1.135927e+02 -5.965539e+01
-3.596855e+09 -3.396854e+09 -3.556854e+09 -1.997437e+02 -1.400187e+00 -5.113361e+01
-1.589084e+09 -1.389084e+09 -1.549084e+09 5.636841e+02 1.047021e+02 1.450512e+01
-3.619844e+09 -3.419843e+09 -3.579843e+09 -5.035484e+02 5.679758e+01 -5.514973e+00
-2.025732e+09 -1.825737e+09 -1.985732e+09 2.137585e+03 6.345484e+02 -2.355543e+02
-3.379327e+09 -3.179330e+09 -3.339347e+09 3.703715e+03 1.334339e+04 -4.761900e+03
-1.735405e+09 -1.535451e+09 -1.695417e+09 7.529046e+03 2.645759e+04 -6.366941e+03
-1.876164e+09 -1.676170e+09 -1.836165e+09 -7.894427e+02 4.416866e+02 -3.599757e+01
-2.792449e+09 -2.592452e+09 -2.752449e+09 -2.108817e+03 7.881969e+02 2.439325e+02
-2.755722e+09 -2.555725e+09 -2.715739e+09 4.275377e+03 1.734135e+04 -7.023537e+03
-1.984330e+09 -1.784339e+09 -1.944332e+09 -8.900899e+02 1.697606e+03 1.332605e+02
-2.395751e+09 -2.195766e+09 -2.355762e+09 1.201965e+02 -1.048433e+04 1.003476e+03
-1.592078e+09 -1.392098e+09 -1.552083e+09 -3.707857e+03 6.977509e+03 6.778666e+02
-1.711946e+09 -1.511959e+09 -1.671951e+09 -6.737145e+02 -4.758216e+03 7.084952e+01
-2.819994e+09 -2.620002e+09 -2.780001e+09 -5.505214e+02 -7.111258e+03 3.047430e+01
-1.592076e+09 -1.392090e+09 -1.552080e+09 -2.885968e+03 5.171902e+03 5.701658e+02
-2.678975e+09 -2.478986e+09 -2.638983e+09 2.455339e+02 -6.478293e+03 6.820799e+02
-1.785745e+09 -1.585760e+09 -1.745750e+09 -2.242109e+03 -7.371392e+03 -9.113744e+02
-3.614633e+09 -3.414638e+09 -3.574637e+09 2.886750e+03 2.620420e+03 -5.058359e+02
-2.325462e+09 -2.125471e+09 -2.285467e+09 -1.233370e+03 -4.571008e+03 -2.532875e+02
-3.583668e+09 -3.383666e+09 -3.543667e+09 1.124861e+02 1.656031e+01 -2.060896e+01
-3.618499e+09 -3.418498e+09 -3.578499e+09 1.202676e+03 -6.236076e+00 -1.292271e+02
-3.592378e+09 -3.392378e+09 -3.552378e+09 -2.160389e+03 6.385234e+02 5.088502e+02
-1.593549e+09 -1.393548e+09 -1.553548e+09 -6.565439e+02 3.964803e+02 -2.317695e+00
-3.498920e+09 -3.298920e+09 -3.458920e+09 3.143235e+02 1.571900e+01 8.551726e+00
-1.782953e+09 -1.582952e+09 -1.742951e+09 6.246893e+03 3.520443e+03 -3.133136e+03
-1.584923e+09 -1.384923e+09 -1.544923e+09 7.968125e+02 1.206321e+02 -8.824370e+01
-2.085160e+09 -1.885168e+09 -2.045161e+09 8.338316e+03 6.821918e+03 -3.055730e+03
-1.600817e+09 -1.400818e+09 -1.560818e+09 9.195638e+02 1.185727e+02 -8.902610e+01
-3.177118e+09 -2.977114e+09 -3.137123e+09 5.170005e+03 5.249794e+03 -4.430056e+03
-3.594681e+09 -3.394679e+09 -3.554680e+09 2.925088e+02 2.912657e+01 -2.775037e+01
-3.619844e+09 -3.419844e+09 -3.579843e+09 -6.098398e+02 -4.694278e+01 -6.738167e+01
-1.948647e+09 -1.748646e+09 -1.908647e+09 8.197373e+03 5.883875e+03 -4.871937e+03
-2.475869e+09 -2.275848e+09 -2.435867e+09 -1.679643e+02 5.618221e+03 -5.670175e+03
-2.093635e+09 -1.893632e+09 -2.053634e+09 -4.716162e+02 -5.007324e+02 9.574523e+02
-2.153761e+09 -1.953758e+09 -2.113760e+09 -1.589128e+03 -2.899017e+01 3.090064e+02
-1.588694e+09 -1.388706e+09 -1.548696e+09 -3.005547e+03 3.817495e+03 7.012150e+02
-3.257295e+09 -3.057293e+09 -3.217295e+09 -2.679936e+03 6.369224e+02 3.482261e+02
-2.690829e+09 -2.490827e+09 -2.650827e+09 2.675776e+03 -1.422325e+03 -2.554176e+03
-3.599458e+09 -3.399443e+09 -3.559469e+09 4.694645e+03 -2.149436e+03 2.303866e+03
-3.206151e+09 -3.006152e+09 -3.166152e+09 -1.760412e+03 7.693515e+01 -8.184844e+01
-2.541747e+09 -2.341751e+09 -2.501750e+09 -5.466943e+02 1.940297e+02 -6.479331e+02
-3.086082e+09 -2.886069e+09 -3.046070e+09 2.286817e+03 -1.640664e+04 -1.072652e+04
-3.586390e+09 -3.386377e+09 -3.546336e+09 -5.665182e+03 -1.192735e+04 6.942910e+01
-2.562321e+09 -2.362321e+09 -2.522360e+09 1.255050e+04 3.275346e+04 -9.218908e+03
-3.579340e+09 -3.379343e+09 -3.539342e+09 -2.418095e+03 1.076538e+03 4.993042e+02
-2.539780e+09 -2.339779e+09 -2.499780e+09 -2.369145e+03 1.875994e+02 -7.645749e+01
-2.969206e+09 -2.769207e+09 -2.929207e+09 -2.128232e+03 3.468902e+02 -2.478148e+02
-1.576346e+09 -1.376344e+09 -1.536344e+09 -6.986188e+02 4.430831e+02 -3.375519e+01
-1.684743e+09 -1.484744e+09 -1.644744e+09 -5.635412e+02 -6.964708e+01 2.554129e+01
-3.054057e+09 -2.854059e+09 -3.014059e+09 -8.588745e+02 -1.748796e+01 -6.702281e+00
-2.241684e+09 -2.041686e+09 -2.201685e+09 -5.291420e+02 -3.057050e+01 2.584772e+00
-3.146670e+09 -2.946671e+09 -3.106671e+09 -5.735315e+02 -3.528266e+01 2.592342e+01
-1.849121e+09 -1.649122e+09 -1.809122e+09 -6.694655e+02 -5.050710e+01 5.171015e+01
-2.785632e+09 -2.585633e+09 -2.745633e+09 -9.230875e+02 -6.078382e+01 2.839164e+01
-1.972801e+09 -1.772802e+09 -1.932802e+09 -5.207404e+02 -4.724781e+01 4.114466e+01
-3.376053e+09 -3.176052e+09 -3.336053e+09 9.694324e+02 -5.008108e+00 -1.158670e+02
-2.604395e+09 -2.404399e+09 -2.564398e+09 5.880552e+02 -5.552980e+01 -8.426109e+02
-1.597983e+09 -1.397984e+09 -1.557984e+09 9.539919e+02 6.625974e+01 -3.021244e+02
-3.382582e+09 -3.182580e+09 -3.342581e+09 7.248198e+02 2.021069e+01 -1.490976e+02
-2.527852e+09 -2.327854e+09 -2.487854e+09 -4.094569e+02 -2.414301e+01 3.086643e+01
-2.549772e+09 -2.349771e+09 -2.509772e+09 8.791886e+02 -2.016654e+01 -1.954272e+02
-2.451202e+09 -2.251201e+09 -2.411202e+09 1.087061e+03 6.097953e+01 -1.281304e+02
-2.482405e+09 -2.282405e+09 -2.442405e+09 1.060654e+03 1.412437e+01 -2.686406e+02
-2.766551e+09 -2.566549e+09 -2.726550e+09 7.482580e+02 1.051660e+01 -1.566722e+00
-3.137597e+09 -2.937589e+09 -3.097598e+09 -1.643039e+03 1.136878e+03 2.669730e+03
-2.769429e+09 -2.569427e+09 -2.729427e+09 7.959170e+01 -3.800909e+01 -8.529088e+01
-2.293172e+09 -2.093171e+09 -2.253171e+09 -1.893068e+03 -1.201151e+03 -4.912715e+02
-3.105596e+09 -2.905600e+09 -3.065595e+09 2.633227e+03 -1.043763e+03 -3.702507e+03
-1.774523e+09 -1.574518e+09 -1.734521e+09 -3.107474e+02 -5.712263e+02 1.546822e+03
-1.689964e+09 -1.489964e+09 -1.649965e+09 -3.161008e+03 1.335489e+03 -2.260328e+03
-1.556713e+09 -1.356702e+09 -1.516704e+09 3.819452e+03 1.185625e+02 3.123493e+03
-3.308467e+09 -3.108467e+09 -3.268466e+09 -2.435115e+03 8.040573e+02 -2.908413e+02
-3.055039e+09 -2.855030e+09 -3.015039e+09 -4.244545e+02 -8.509067e+02 4.011213e+03
-3.423440e+09 -3.223438e+09 -3.383442e+09 1.133974e+03 -2.621782e+03 2.008870e+03
-3.414637e+09 -3.214630e+09 -3.374639e+09 -3.453594e+03 1.197410e+02 2.469303e+03
-3.151852e+09 -2.951848e+09 -3.111853e+09 9.059111e+02 -1.886626e+03 3.024804e+03
-2.521555e+09 -2.321546e+09 -2.481554e+09 -9.265771e+02 -6.243200e+02 3.335234e+03
-2.886213e+09 -2.686220e+09 -2.846218e+09 2.751820e+03 8.674276e+02 2.835404e+03
-3.019088e+09 -2.819086e+09 -2.979089e+09 -1.867702e+03 -3.779051e+02 8.964345e+02
-1.742954e+09 -1.542949e+09 -1.702951e+09 -2.728719e+02 -6.747727e+02 1.765091e+03
-3.506534e+09 -3.306528e+09 -3.466550e+09 -1.783203e+03 -6.695541e+03 9.991220e+02
-1.624539e+09 -1.424537e+09 -1.584537e+09 -2.774739e+03 -2.038112e+03 -1.297377e+03
-2.150687e+09 -1.950682e+09 -2.110685e+09 1.599245e+02 -1.341647e+03 2.267689e+03
-2.520350e+09 -2.320350e+09 -2.480350e+09 5.868334e+02 2.712315e+01 -5.249264e+01
-3.040846e+09 -2.840846e+09 -3.000846e+09 6.834420e+02 6.135439e+01 -2.055430e+01
-2.638721e+09 -2.438721e+09 -2.598721e+09 6.900058e+02 2.767457e+01 -1.196622e+02
-2.596649e+09 -2.396656e+09 -2.556651e+09 -8.030837e+02 8.447069e+02 3.102941e+00
-2.264733e+09 -2.064735e+09 -2.224733e+09 -2.237589e+03 -2.132684e+03 -4.953459e+02
-2.433464e+09 -2.233464e+09 -2.393464e+09 6.758556e+02 6.005801e+01 -5.882809e+01
-1.783864e+09 -1.583863e+09 -1.743864e+09 5.386726e+02 8.398812e+01 -2.123046e+01
-1.820612e+09 -1.620613e+09 -1.780613e+09 6.291057e+02 5.981934e+01 -5.097350e+01
-2.075937e+09 -1.875953e+09 -2.035945e+09 2.543620e+03 -2.795012e+03 1.754928e+04
-2.131475e+09 -1.931486e+09 -2.091493e+09 1.033573e+04 5.817053e+03 1.436281e+04
-2.824614e+09 -2.624609e+09 -2.784589e+09 8.057588e+03 1.266103e+04 8.261831e+03
-3.407533e+09 -3.207538e+09 -3.367534e+09 -1.159228e+03 3.531351e+02 9.771026e+00
-3.338995e+09 -3.139004e+09 -3.298997e+09 3.510111e+03 2.235761e+03 6.479430e+03
-3.034683e+09 -2.834692e+09 -2.994687e+09 4.969242e+03 1.628398e+03 6.197889e+03
-2.691910e+09 -2.491925e+09 -2.651906e+09 1.044181e+03 2.739223e+03 2.140519e+04
-1.980391e+09 -1.780399e+09 -1.940394e+09 4.315373e+03 -6.392122e+03 2.943296e+03
-3.216716e+09 -3.016713e+09 -3.176706e+09 8.441124e+03 7.892914e+03 4.735234e+03
-3.453953e+09 -3.253947e+09 -3.413957e+09 4.729930e+02 -2.336787e+03 -2.500270e+03
-3.139546e+09 -2.939541e+09 -3.099539e+09 7.277147e+03 4.393490e+03 3.154976e+03
-3.122162e+09 -2.922160e+09 -3.082143e+09 1.377678e+04 2.103005e+04 2.091867e+04
-2.735773e+09 -2.535781e+09 -2.695762e+09 3.583581e+03 2.233354e+03 2.294196e+04
-3.354664e+09 -3.154671e+09 -3.314677e+09 5.343516e+02 -9.930086e+03 1.870131e+03
-1.865661e+09 -1.665662e+09 -1.825660e+09 -2.616578e+03 9.807853e+02 4.571024e+02
-1.945248e+09 -1.745249e+09 -1.905247e+09 -1.452664e+03 1.694992e+02 1.861799e+01
-1.801272e+09 -1.601279e+09 -1.761274e+09 3.316062e+03 -3.494788e+03 1.708101e+03
-2.022606e+09 -1.822609e+09 -1.982606e+09 -2.437198e+03 8.310541e+02 3.294253e+02
-1.697171e+09 -1.497202e+09 -1.657192e+09 -1.161039e+04 -2.318874e+04 -4.769762e+03
-3.143235e+09 -2.943229e+09 -3.103235e+09 -1.084124e+03 -3.554522e+02 2.202045e+03
-3.384767e+09 -3.184771e+09 -3.344768e+09 -2.469151e+03 1.118702e+03 5.033974e+02
-3.617056e+09 -3.417051e+09 -3.577053e+09 2.845573e+03 -1.630904e+03 -7.500295e+02
-3.598928e+09 -3.398932e+09 -3.558928e+09 -1.362766e+03 3.228800e+02 7.630817e+01
-1.781217e+09 -1.581218e+09 -1.741216e+09 -1.834367e+03 5.199062e+02 2.005929e+02
-2.055430e+09 -1.855430e+09 -2.015429e+09 -2.018296e+03 3.319970e+02 2.229966e+02
-1.778909e+09 -1.578884e+09 -1.738908e+09 1.912230e+04 1.529945e+04 1.465367e+03
-1.796868e+09 -1.596877e+09 -1.756894e+09 1.240508e+04 3.120994e+03 1.491851e+04
-2.988730e+09 -2.788735e+09 -2.948732e+09 2.836920e+03 1.454012e+03 -4.862172e+02
-2.683172e+09 -2.483171e+09 -2.643172e+09 -5.939816e+02 -7.643511e+01 8.183902e+01
-2.289177e+09 -2.089175e+09 -2.249176e+09 -3.280408e+02 -2.701392e+01 -4.496047e+01
-2.529583e+09 -2.329587e+09 -2.489583e+09 1.357535e+03 4.335756e+02 -3.025785e+00
-3.231598e+09 -3.031602e+09 -3.191599e+09 2.064797e+03 7.377669e+02 -2.584028e+02
-2.274332e+09 -2.074334e+09 -2.234333e+09 -3.547056e+02 -2.041661e+01 -3.172115e+00
-3.476101e+09 -3.276100e+09 -3.436100e+09 -3.684986e+02 -3.456793e+01 -2.987212e+01
-2.182239e+09 -1.982246e+09 -2.142240e+09 2.182330e+03 1.537147e+03 -2.681783e+02
-1.676403e+09 -1.476403e+09 -1.636403e+09 -4.071710e+02 -7.012584e+01 -1.779705e+01
-2.571280e+09 -2.371285e+09 -2.531282e+09 2.812732e+03 1.356182e+03 -4.036284e+02
-3.478508e+09 -3.278509e+09 -3.438509e+09 -4.400224e+02 -1.861851e+01 5.075439e+00
-1.680659e+09 -1.480658e+09 -1.640659e+09 -2.581343e+02 -4.845848e+01 1.204627e+01
-2.161583e+09 -1.961579e+09 -2.121584e+09 -3.228394e+03 -4.733427e+03 -3.385579e+03
-2.676065e+09 -2.476054e+09 -2.635999e+09 6.127540e+03 -2.906769e+04 -2.968160e+04
-3.359443e+09 -3.159430e+09 -3.319422e+09 5.248038e+03 -1.610153e+04 -3.313804e+03
-3.047635e+09 -2.847590e+09 -3.007646e+09 -8.631565e+03 -2.108612e+04 6.303974e+03
-1.718572e+09 -1.518585e+09 -1.678577e+09 1.367019e+03 -4.449095e+03 6.740771e+02
-1.821659e+09 -1.621630e+09 -1.781696e+09 -1.989864e+04 3.766912e+04 1.209138e+04
-2.013377e+09 -1.813374e+09 -1.973376e+09 1.226666e+03 -2.021330e+03 1.905119e+03
-2.001199e+09 -1.801196e+09 -1.961197e+09 9.073759e+02 -1.229151e+03 1.350653e+03
-2.173082e+09 -1.973037e+09 -2.133154e+09 -2.010015e+04 1.843312e+04 1.275327e+03
-3.593598e+09 -3.393597e+09 -3.553598e+09 -5.021340e+02 -4.295183e+01 -5.650502e+01
-2.745055e+09 -2.545054e+09 -2.705055e+09 9.878818e+02 5.625622e+01 -1.649818e+02
-1.618103e+09 -1.418101e+09 -1.578102e+09 1.417334e+03 -1.368577e+03 9.270457e+02
-2.658452e+09 -2.458451e+09 -2.618451e+09 4.267675e+02 -5.325189e+02 2.983590e+02
-2.362724e+09 -2.162723e+09 -2.322723e+09 4.037868e+02 7.931705e+01 -1.198409e+02
-3.164735e+09 -2.964735e+09 -3.124735e+09 1.084322e+03 -4.647931e+00 -1.876650e+02
-2.478126e+09 -2.278126e+09 -2.438126e+09 6.509912e+02 5.408049e+01 -1.060464e+02
-1.876164e+09 -1.676163e+09 -1.836163e+09 6.199105e+02 8.873371e+01 -7.863351e+01
-1.594449e+09 -1.394446e+09 -1.554445e+09 2.955091e+03 -2.335027e+03 2.368017e+03
-1.606233e+09 -1.406228e+09 -1.566231e+09 -8.987762e+01 -4.718574e+02 1.343320e+03
-1.797326e+09 -1.597327e+09 -1.757327e+09 8.808710e+02 8.259145e+01 -7.098901e+01
-2.718335e+09 -2.518335e+09 -2.678335e+09 7.065635e+02 2.102209e+01 -8.072426e+01
-2.345288e+09 -2.145287e+09 -2.305287e+09 1.840687e+02 8.118832e+01 -5.634645e+01
-3.068951e+09 -2.868953e+09 -3.028952e+09 -5.758900e+02 -2.604115e+01 -4.735393e+01
-2.383357e+09 -2.183356e+09 -2.343356e+09 2.074677e+02 7.697322e+01 -7.345938e+01
-3.430114e+09 -3.230116e+09 -3.390115e+09 3.778124e+02 2.540715e+01 8.559878e+00
-2.074786e+09 -1.874786e+09 -2.034786e+09 4.915573e+02 5.698692e+01 -2.829694e+00
-3.040249e+09 -2.840248e+09 -3.000248e+09 9.223214e+01 1.596132e+01 -4.431619e+01
-2.696113e+09 -2.496112e+09 -2.656112e+09 -7.458605e+01 -2.430870e+00 -5.265506e+01
-2.607818e+09 -2.407817e+09 -2.567817e+09 -2.534804e+02 9.672425e+01 1.361419e+01
-2.030653e+09 -1.830653e+09 -1.990653e+09 -1.261308e+03 -1.158178e+02 5.001772e+01
-1.560820e+09 -1.360822e+09 -1.520822e+09 -2.873023e+02 -3.698033e+01 -5.011474e+01
-2.621943e+09 -2.421942e+09 -2.581942e+09 1.453485e+02 5.652206e+00 -1.045160e+02
-2.828881e+09 -2.628883e+09 -2.788882e+09 9.082884e+02 2.869599e+01 -9.935368e+01
-3.104673e+09 -2.904675e+09 -3.064675e+09 6.457819e+02 6.488644e+01 -1.606467e+02
-2.436455e+09 -2.236457e+09 -2.396457e+09 5.491943e+02 2.577982e+01 -2.440668e+02
-3.478585e+09 -3.278586e+09 -3.438586e+09 -3.258463e+02 -1.252722e+01 1.327706e+01
-1.829390e+09 -1.629391e+09 -1.789391e+09 1.238711e+03 6.228701e+00 -4.055561e+02
-2.505287e+09 -2.305290e+09 -2.465289e+09 9.790695e+02 6.796377e-01 -2.700491e+02
-2.461807e+09 -2.261808e+09 -2.421808e+09 1.125496e+03 2.206218e+01 -1.415033e+02
-2.446779e+09 -2.246782e+09 -2.406781e+09 2.924128e+02 -2.571043e+00 -2.422379e+02
-3.203867e+09 -3.003869e+09 -3.163869e+09 9.133475e+02 -3.060570e-01 -1.532834e+02
-3.116435e+09 -2.916438e+09 -3.076438e+09 6.585253e+02 1.297953e+01 -3.914329e+02
-3.478444e+09 -3.278445e+09 -3.438445e+09 -4.868798e+02 -1.493077e+01 1.196907e+01
-2.057573e+09 -1.857576e+09 -2.017575e+09 4.135402e+02 -7.023622e+01 -1.390605e+02
-3.597301e+09 -3.397302e+09 -3.557302e+09 -6.762336e+02 -6.016982e+01 9.911878e+01
-3.401285e+09 -3.201287e+09 -3.361286e+09 7.074730e+02 -1.497285e+00 -2.419172e+02
-3.163693e+09 -2.963694e+09 -3.123694e+09 -5.491231e+02 -4.660758e+01 4.934424e+01
-1.774178e+09 -1.574181e+09 -1.734182e+09 2.586648e+03 -9.565255e+02 -4.331685e+03
-2.434642e+09 -2.234646e+09 -2.394644e+09 3.094298e+03 -1.286004e+03 -3.960055e+03
-2.914673e+09 -2.714682e+09 -2.874678e+09 7.676268e+02 -3.318752e+03 3.668853e+02
-1.698308e+09 -1.498320e+09 -1.658311e+09 1.594096e+03 -3.501122e+03 5.361383e+02
-3.105187e+09 -2.905184e+09 -3.065185e+09 2.518817e+03 -1.203919e+03 -8.854534e+02
-1.686292e+09 -1.486293e+09 -1.646291e+09 -2.686723e+03 -1.758198e+03 -7.324015e+02
-3.294243e+09 -3.094245e+09 -3.254244e+09 2.462838e+03 -5.711883e+02 -2.261679e+03
-1.877302e+09 -1.677293e+09 -1.837300e+09 3.726877e+03 -2.265755e+03 -1.922079e+03
-1.861365e+09 -1.661363e+09 -1.821364e+09 5.065721e+03 -2.692723e+03 -3.726992e+03
-2.244162e+09 -2.044174e+09 -2.204166e+09 -1.265289e+03 -6.007526e+03 -2.568732e+02
-1.710961e+09 -1.510964e+09 -1.670961e+09 2.727480e+03 -1.891906e+03 9.433405e+02
-1.757181e+09 -1.557179e+09 -1.717182e+09 2.496375e+03 -1.080475e+03 -1.459826e+03
-1.783021e+09 -1.583023e+09 -1.743024e+09 2.198265e+03 -6.173798e+02 -2.169918e+03
-2.460060e+09 -2.260057e+09 -2.420059e+09 1.766662e+03 -6.651202e+02 -5.562600e+02
-2.345043e+09 -2.145051e+09 -2.305046e+09 1.619675e+03 -2.678663e+03 5.809031e+02
-3.504008e+09 -3.304001e+09 -3.464019e+09 -1.725862e+03 -5.665577e+03 3.709700e+03
-1.672620e+09 -1.472628e+09 -1.632626e+09 1.279228e+04 -1.255476e+04 8.731095e+03
-2.610282e+09 -2.410277e+09 -2.570282e+09 -1.034366e+03 -2.104879e+03 -2.178420e+03
-3.297182e+09 -3.097177e+09 -3.257182e+09 1.911508e+02 -1.027142e+03 -1.940387e+03
-2.922596e+09 -2.722592e+09 -2.882597e+09 -1.009988e+02 -1.108918e+03 -1.885373e+03
-1.581570e+09 -1.381585e+09 -1.541575e+09 -3.238693e+03 -6.891372e+03 -8.136154e+02
-3.101539e+09 -2.901535e+09 -3.061540e+09 -1.302427e+03 -1.842398e+03 -1.893282e+03
-1.592859e+09 -1.392860e+09 -1.552858e+09 -5.405640e+03 -3.898761e+03 -2.909503e+03
-2.173574e+09 -1.973569e+09 -2.133577e+09 -6.556360e+03 -7.456703e+03 -7.213925e+03
-2.577620e+09 -2.377616e+09 -2.537621e+09 -2.686778e+03 -2.628349e+03 -2.929497e+03
-1.686291e+09 -1.486290e+09 -1.646290e+09 -1.887588e+03 -1.056845e+03 -3.996011e+02
-3.242171e+09 -3.042163e+09 -3.202173e+09 1.360672e+03 -1.381609e+03 -2.678243e+03
-2.224102e+09 -2.024100e+09 -2.184100e+09 -3.970977e+03 1.394205e+03 -1.536814e+03
-1.922414e+09 -1.722412e+09 -1.882412e+09 -2.875900e+03 -2.204695e+03 -1.223329e+03
-1.984647e+09 -1.784646e+09 -1.944646e+09 -1.882486e+03 -9.920455e+02 -3.957084e+02
-2.633885e+09 -2.433893e+09 -2.593877e+09 7.013043e+02 1.538728e+03 -8.982406e+03
-2.728475e+09 -2.528472e+09 -2.688475e+09 -3.066736e+03 8.426727e+02 2.775731e+02
-2.394745e+09 -2.194746e+09 -2.354740e+09 -5.493454e+03 4.978740e+03 -7.841396e+03
-3.441558e+09 -3.241553e+09 -3.401557e+09 -5.235994e+03 2.260655e+03 -1.433419e+02
-3.197904e+09 -2.997902e+09 -3.157904e+09 -1.520289e+03 -1.177619e+03 -7.700800e+02
-3.008078e+09 -2.808083e+09 -2.968076e+09 2.400180e+03 -1.509999e+03 -5.311771e+03
-3.538274e+09 -3.338274e+09 -3.498274e+09 -2.946588e+03 6.972755e+02 -8.561328e+01
-2.652608e+09 -2.452603e+09 -2.612609e+09 -2.426776e+03 1.010651e+03 1.634773e+03
-3.163965e+09 -2.963966e+09 -3.123964e+09 2.164636e+03 4.317612e+02 -1.567850e+02
-1.877481e+09 -1.677484e+09 -1.837480e+09 2.029679e+03 2.895753e+02 -5.101063e+01
-3.286159e+09 -3.086154e+09 -3.246160e+09 -1.093966e+03 -1.238111e+03 -1.674934e+03
-3.586394e+09 -3.386402e+09 -3.546399e+09 -9.897200e+02 2.709022e+03 2.837971e+02
-2.140805e+09 -1.940810e+09 -2.100806e+09 1.994422e+03 7.902628e+02 -1.159295e+02
-1.582854e+09 -1.382862e+09 -1.542855e+09 -1.231748e+03 1.402098e+03 -1.977361e+01
-2.881212e+09 -2.681214e+09 -2.841211e+09 1.528746e+03 2.070225e+02 -3.988159e+01
-3.190030e+09 -2.990032e+09 -3.150029e+09 1.304625e+03 2.597864e+02 1.049051e+01
-1.698333e+09 -1.498335e+09 -1.658333e+09 -7.412374e+02 9.416786e+01 -1.219362e+02
-3.474853e+09 -3.274854e+09 -3.434852e+09 2.091130e+03 4.945654e+02 -1.727525e+02
-1.589658e+09 -1.389663e+09 -1.549658e+09 -9.684632e+02 2.373171e+02 -7.176895e+01
-3.591819e+09 -3.391820e+09 -3.551818e+09 -9.258178e+02 1.533636e+01 -1.696354e+01
-3.032484e+09 -2.832488e+09 -2.992485e+09 2.675088e+03 1.013776e+03 -3.060967e+02
-1.683968e+09 -1.483968e+09 -1.643967e+09 3.338310e+03 1.627774e+03 -7.517974e+02
-3.601154e+09 -3.401160e+09 -3.561155e+09 5.095739e+02 3.317531e+02 -7.889259e+01
-2.122466e+09 -1.922470e+09 -2.082466e+09 1.839640e+03 4.797549e+02 -1.041677e+02
-3.492330e+09 -3.292332e+09 -3.452330e+09 1.206388e+03 3.336600e+02 -7.290358e+01
-3.492331e+09 -3.292332e+09 -3.452330e+09 1.815396e+03 1.717733e+02 -1.473097e+02
-1.800015e+09 -1.600025e+09 -1.760017e+09 4.447736e+02 1.723619e+03 4.951959e+01
-2.206754e+09 -2.006766e+09 -2.166759e+09 4.475120e+03 8.024029e+03 -1.891298e+03
-2.966210e+09 -2.766215e+09 -2.926211e+09 1.823861e+03 6.437796e+02 -1.858749e+02
-2.594894e+09 -2.394896e+09 -2.554908e+09 8.420766e+03 1.643002e+04 -8.021083e+03
-2.888190e+09 -2.688205e+09 -2.848204e+09 3.157241e+03 1.083099e+04 -1.599883e+03
-1.958028e+09 -1.758032e+09 -1.918028e+09 3.794262e+03 2.004199e+03 -8.391198e+02
-3.281677e+09 -3.081675e+09 -3.241677e+09 3.157835e+03 1.368308e+03 -9.675137e+02
-2.640691e+09 -2.440686e+09 -2.600694e+09 4.537247e+03 5.183591e+03 -4.732510e+03
-2.280555e+09 -2.080556e+09 -2.240554e+09 1.529615e+03 2.035680e+02 3.101780e+01
-1.603576e+09 -1.403571e+09 -1.563573e+09 2.343696e+03 1.454549e+03 -1.339662e+03
-3.420223e+09 -3.220200e+09 -3.380205e+09 -6.964193e+03 1.001862e+04 -4.785488e+03
-3.294255e+09 -3.094259e+09 -3.254262e+09 4.448989e+03 6.037143e+03 -2.629143e+03
-1.678365e+09 -1.478364e+09 -1.638364e+09 2.897248e+03 9.041409e+02 -5.267333e+02
-2.250361e+09 -2.050370e+09 -2.210363e+09 2.190153e+03 2.396612e+03 -1.985377e+02
-3.297212e+09 -3.097210e+09 -3.257212e+09 -1.602876e+03 -1.784768e+02 5.291984e+02
-3.373022e+09 -3.173015e+09 -3.333030e+09 -2.427346e+03 -4.300365e+03 -4.723770e+03
-3.608128e+09 -3.408130e+09 -3.568128e+09 2.245643e+03 4.385181e+02 -2.292833e+02
-3.023850e+09 -2.823846e+09 -2.983849e+09 3.217565e+02 -7.258530e+02 1.597141e+03
-3.394821e+09 -3.194816e+09 -3.354820e+09 -2.440344e+02 -1.021883e+03 1.731966e+03
-3.112463e+09 -2.912461e+09 -3.072463e+09 -1.061071e+03 -3.159237e+02 4.569135e+02
-3.401930e+09 -3.201927e+09 -3.361929e+09 -1.705351e+03 -8.002053e+01 7.252326e+02
-2.800984e+09 -2.600983e+09 -2.760984e+09 2.327861e+02 3.235308e+01 -3.452964e+01
-2.020352e+09 -1.820355e+09 -1.980355e+09 -3.588339e+03 -9.094526e+02 2.106132e+03
-1.956377e+09 -1.756377e+09 -1.916377e+09 3.668178e+02 6.650507e+01 -7.203218e+00
-2.361246e+09 -2.161245e+09 -2.321245e+09 2.061139e+02 1.312867e+02 -9.278865e+01
-3.537805e+09 -3.337810e+09 -3.497808e+09 -2.121046e+03 1.920030e+03 4.821680e+02
-2.563404e+09 -2.363403e+09 -2.523403e+09 3.086517e+02 2.968119e+01 -1.334309e+02
-2.023560e+09 -1.823559e+09 -1.983559e+09 6.738938e+01 2.368053e+01 -7.593653e+01
-3.179859e+09 -2.979858e+09 -3.139858e+09 1.990592e+02 7.755267e+01 -1.007831e+02
-3.387305e+09 -3.187303e+09 -3.347304e+09 2.816530e+01 9.261359e+01 -8.273816e+00
-1.552335e+09 -1.352335e+09 -1.512335e+09 5.533040e+02 9.558113e+01 2.584039e+01
-1.969006e+09 -1.769005e+09 -1.929005e+09 -2.747027e+01 2.491390e+01 -8.674353e+01
-1.573036e+09 -1.373035e+09 -1.533035e+09 4.536053e+02 1.326506e+02 -1.291252e+02
-2.788932e+09 -2.588931e+09 -2.748931e+09 2.297060e+02 2.628971e+01 -4.700099e+01
-2.691102e+09 -2.491103e+09 -2.651102e+09 -1.088087e+03 1.438780e+02 -6.210656e+00
-1.973208e+09 -1.773207e+09 -1.933207e+09 2.110754e+02 2.445195e+01 -4.549159e+01
-3.237060e+09 -3.037058e+09 -3.197059e+09 -2.798046e+02 1.312620e+02 -4.522470e+01
-2.646432e+09 -2.446431e+09 -2.606432e+09 4.728082e+02 4.323373e+01 -6.661366e+01
-2.883894e+09 -2.683893e+09 -2.843893e+09 2.613511e+02 -3.946833e+02 8.853168e+01
-3.602038e+09 -3.402037e+09 -3.562037e+09 -1.510564e+02 8.772878e+01 -2.458305e+01
-3.596486e+09 -3.396486e+09 -3.556487e+09 -2.719225e+03 1.154077e+03 7.677390e+02
-1.975478e+09 -1.775477e+09 -1.935477e+09 3.298665e+02 1.940986e+01 -9.259313e+01
-3.406544e+09 -3.206532e+09 -3.366542e+09 5.934304e+03 3.849725e+03 -3.176978e+02
-1.967966e+09 -1.767964e+09 -1.927965e+09 1.950037e+02 -4.737384e+00 -1.122784e+02
-1.679655e+09 -1.479654e+09 -1.639655e+09 5.440289e+02 1.050826e+02 -9.238526e+01
-2.350911e+09 -2.150910e+09 -2.310910e+09 1.753385e+02 1.512167e+02 -7.783375e+01
-1.759754e+09 -1.559753e+09 -1.719753e+09 1.488477e+02 6.535875e+01 -1.202797e+02
-1.761496e+09 -1.561495e+09 -1.721496e+09 5.008058e+02 1.528622e+02 -2.387159e+01
-1.959373e+09 -1.759372e+09 -1.919372e+09 4.072430e+02 6.168391e+00 -1.284676e+02
-3.185376e+09 -2.985387e+09 -3.145381e+09 -2.111024e+02 2.976551e+03 9.458043e+00
-3.072440e+09 -2.872450e+09 -3.032446e+09 2.258894e+03 4.431843e+03 -8.577973e+02
-2.224487e+09 -2.024494e+09 -2.184490e+09 -1.992518e+03 -3.329237e+03 -2.478128e+02
-2.186895e+09 -1.986904e+09 -2.146899e+09 4.159511e+03 4.513084e+03 -1.368301e+03
-2.127517e+09 -1.927530e+09 -2.087523e+09 -1.361425e+02 -5.812529e+03 3.536044e+02
-2.137554e+09 -1.937567e+09 -2.097558e+09 7.192972e+02 6.454712e+03 -4.193859e+02
-3.577383e+09 -3.377385e+09 -3.537396e+09 -1.711762e+03 -8.211618e+03 -8.459349e+02
-2.477034e+09 -2.277041e+09 -2.437038e+09 3.189083e+03 3.555204e+03 -1.236660e+03
-3.063677e+09 -2.863659e+09 -3.023665e+09 -1.117091e+04 4.448976e+03 -7.697775e+03
-1.785457e+09 -1.585472e+09 -1.745462e+09 -2.407980e+03 5.832462e+03 3.014648e+02
-2.314015e+09 -2.114024e+09 -2.274018e+09 7.655035e+02 -3.280664e+03 4.528316e+02
-1.714802e+09 -1.514808e+09 -1.674802e+09 9.671068e+03 -7.741992e+03 6.011148e+03
-1.581570e+09 -1.381582e+09 -1.541574e+09 -5.489514e+03 -6.661306e+03 -2.073599e+03
-1.787230e+09 -1.587225e+09 -1.747228e+09 4.087956e+03 -3.278092e+03 3.052835e+03
-3.162878e+09 -2.962878e+09 -3.122878e+09 -4.965475e+02 -4.925325e+01 2.788763e+01
-1.590598e+09 -1.390597e+09 -1.550597e+09 -7.038779e+02 -2.057935e+02 1.220273e+02
-3.596827e+09 -3.396825e+09 -3.556828e+09 -2.576851e+03 2.693249e+02 9.383839e+02
-3.589750e+09 -3.389741e+09 -3.549750e+09 2.036364e+03 -1.060387e+03 -3.021852e+03
-1.590910e+09 -1.390907e+09 -1.550908e+09 1.856027e+03 -1.658202e+03 1.892621e+03
-1.748379e+09 -1.548396e+09 -1.708388e+09 3.821734e+03 -1.242182e+04 3.050629e+03
-1.765448e+09 -1.565465e+09 -1.725458e+09 1.065637e+03 -1.329528e+04 8.627887e+02
-2.334017e+09 -2.134034e+09 -2.294032e+09 2.459161e+03 -1.434983e+04 2.618403e+03
-2.141203e+09 -1.941203e+09 -2.101203e+09 -5.683708e+02 -3.757588e+01 -1.972982e-01
-2.609805e+09 -2.409807e+09 -2.569810e+09 4.353335e+03 -6.252807e+03 4.496086e+03
-2.295094e+09 -2.095105e+09 -2.255108e+09 9.774707e+02 -1.460828e+04 -7.531594e+02
-1.878063e+09 -1.678089e+09 -1.838082e+09 -8.645532e+02 -2.300247e+04 7.278287e+02
-1.970073e+09 -1.770073e+09 -1.930073e+09 5.670183e+02 2.369323e+01 -4.451658e+01
-2.612411e+09 -2.412411e+09 -2.572411e+09 5.080466e+02 5.810713e+01 2.819505e+01
-1.974684e+09 -1.774682e+09 -1.934683e+09 5.452926e+01 -2.309801e+02 7.525106e+01
-3.605437e+09 -3.405439e+09 -3.565437e+09 1.598722e+03 -3.716800e+02 -1.588128e+03
-3.596147e+09 -3.396143e+09 -3.556146e+09 -1.731341e+03 -7.825590e+01 9.581057e+02
-2.018731e+09 -1.818732e+09 -1.978732e+09 6.771330e+02 3.152730e+01 -6.327785e+01
-1.750454e+09 -1.550454e+09 -1.710454e+09 4.892251e+02 4.395881e+01 -3.405348e+01
-2.005810e+09 -1.805800e+09 -1.965815e+09 1.373771e+04 1.572762e+04 -1.806685e+04
-1.656496e+09 -1.456495e+09 -1.616496e+09 -1.231826e+03 -4.008550e+02 2.370194e+02
-3.395393e+09 -3.195393e+09 -3.355394e+09 -7.617258e+02 -4.866625e+01 5.333450e+01
-3.606296e+09 -3.406293e+09 -3.566295e+09 -7.568981e+02 -4.058846e+02 7.255445e+02
-1.564924e+09 -1.364924e+09 -1.524924e+09 -7.819174e+02 -1.412822e+02 6.340765e+01
-3.608900e+09 -3.408899e+09 -3.568900e+09 -5.406318e+02 -1.231094e+02 6.147626e+01
-1.702236e+09 -1.502236e+09 -1.662236e+09 -9.568051e+02 -1.386217e+02 3.589792e+01
-3.497819e+09 -3.297816e+09 -3.457818e+09 -1.638991e+03 -1.172715e+02 5.545931e+02
-3.074100e+09 -2.874099e+09 -3.034102e+09 3.768277e+03 3.165077e+03 -1.471687e+03
-3.591283e+09 -3.391280e+09 -3.551283e+09 2.527071e+02 -1.028232e+03 9.209724e+02
-1.766504e+09 -1.566513e+09 -1.726504e+09 8.449494e+03 7.264218e+03 -3.507420e+03
-2.604299e+09 -2.404300e+09 -2.564300e+09 7.920468e+02 2.925169e+01 -1.195556e+02
-3.386361e+09 -3.186360e+09 -3.346361e+09 4.587551e+02 -9.320902e+00 -1.514420e+02
-1.573036e+09 -1.373035e+09 -1.533035e+09 2.255653e+02 1.923310e+02 -6.602207e+01
-1.561491e+09 -1.361492e+09 -1.521491e+09 -1.103024e+03 1.891274e+02 -1.400021e+02
-2.845234e+09 -2.645224e+09 -2.805240e+09 5.107336e+03 8.481850e+03 -1.017667e+04
-3.273143e+09 -3.073144e+09 -3.233156e+09 6.891579e+02 -1.018619e+04 3.014769e+03
-1.781247e+09 -1.581246e+09 -1.741247e+09 2.853115e+02 9.254884e+01 -7.041318e+01
-3.364951e+09 -3.164955e+09 -3.324963e+09 -1.990932e+02 -7.221754e+03 4.549267e+02
-1.586533e+09 -1.386534e+09 -1.546534e+09 4.703571e+02 7.580710e+01 -1.170216e+01
-3.160689e+09 -2.960688e+09 -3.120689e+09 4.651417e+02 4.837702e+01 -2.896654e+01
-1.571284e+09 -1.371285e+09 -1.531284e+09 4.889041e+02 7.516680e+01 6.386320e+01
-2.837034e+09 -2.637038e+09 -2.797045e+09 -3.884987e+03 -9.940538e+03 -3.347286e+03
-3.580774e+09 -3.380770e+09 -3.540776e+09 3.619185e+03 3.209327e+03 -2.775743e+03
-3.218401e+09 -3.018399e+09 -3.178400e+09 -5.672328e+02 -8.860347e+01 -1.243961e+01
-2.423473e+09 -2.223471e+09 -2.383472e+09 -3.382144e+02 2.670940e+02 7.073760e+00
-3.619844e+09 -3.419843e+09 -3.579843e+09 -4.571367e+02 5.892064e+01 -2.467012e+01
-1.762147e+09 -1.562146e+09 -1.722147e+09 3.152413e+02 4.383348e+01 -5.876884e+01
-3.405620e+09 -3.205619e+09 -3.365619e+09 -4.588624e+02 -1.568627e+02 7.021821e+01
-2.381039e+09 -2.181038e+09 -2.341038e+09 -8.561600e+02 3.012321e+02 -5.361243e+01
-1.557303e+09 -1.357300e+09 -1.517301e+09 -1.548362e+03 6.138976e+02 3.429316e+02
-3.093561e+09 -2.893566e+09 -3.053571e+09 -7.572941e+03 9.168264e+03 4.288620e+03
-3.293929e+09 -3.093928e+09 -3.253928e+09 -2.219133e+02 -1.644153e+02 1.225029e+01
-3.111380e+09 -2.911379e+09 -3.071380e+09 9.432162e+02 2.083477e+01 -2.237110e+02
-3.588347e+09 -3.388347e+09 -3.548359e+09 -2.954996e+03 8.425140e+03 2.185162e+03
-2.192174e+09 -1.992173e+09 -2.152173e+09 -3.441637e+02 -1.174832e+02 2.887290e+01
-2.591704e+09 -2.391703e+09 -2.551703e+09 -2.216095e+02 -1.199196e+02 -2.421100e+01
-2.993857e+09 -2.793855e+09 -2.953856e+09 -2.268976e+02 -1.791527e+02 -2.081983e+00
-1.741188e+09 -1.541187e+09 -1.701187e+09 1.711377e+02 2.185462e+01 -5.826500e+01
-3.600833e+09 -3.400828e+09 -3.560829e+09 -5.044782e+03 -2.923651e+03 1.670322e+03
-1.932569e+09 -1.732568e+09 -1.892568e+09 2.983248e+02 2.114245e+01 -4.015710e+01
-3.342596e+09 -3.142595e+09 -3.302605e+09 -2.491160e+03 -7.221769e+03 -1.963677e+03
-3.301728e+09 -3.101718e+09 -3.261739e+09 -2.416659e+03 -5.518820e+03 -4.204606e+03
-3.379349e+09 -3.179348e+09 -3.339348e+09 1.642484e+02 2.738723e+01 -2.715970e+01
-2.990886e+09 -2.790885e+09 -2.950885e+09 7.268252e+01 3.235019e+01 -4.759390e+01
-2.007090e+09 -1.807089e+09 -1.967089e+09 2.319915e+02 2.886051e+01 -3.775755e+01
-3.324411e+09 -3.124410e+09 -3.284410e+09 3.879260e+01 1.875819e+01 -4.628575e+01
-2.591821e+09 -2.391820e+09 -2.551820e+09 3.722623e+02 2.789345e+01 -7.137445e+01
-2.722798e+09 -2.522797e+09 -2.682797e+09 2.874527e+02 3.207394e+01 -2.764901e+01
-3.133242e+09 -2.933241e+09 -3.093241e+09 8.566714e+01 1.871847e+01 -5.158009e+01
-3.606174e+09 -3.406165e+09 -3.566186e+09 -3.818029e+03 -3.946358e+03 5.428743e+02
-1.841209e+09 -1.641208e+09 -1.801208e+09 1.647551e+01 3.289549e+01 -8.933704e+01
-1.571860e+09 -1.371808e+09 -1.531873e+09 2.795488e+04 3.197336e+04 -4.341442e+04
-3.045825e+09 -2.845824e+09 -3.005824e+09 1.748250e+02 5.780763e+01 -2.102238e+01
-1.871287e+09 -1.671287e+09 -1.831287e+09 2.076866e+02 3.425995e+01 -2.775499e+01
-2.588621e+09 -2.388626e+09 -2.548625e+09 2.753721e+03 -5.007040e+03 2.557023e+03
-1.557982e+09 -1.358000e+09 -1.517996e+09 -9.294732e+03 -1.751564e+04 -7.726465e+03
-2.886615e+09 -2.686614e+09 -2.846614e+09 3.394916e+01 4.961118e+01 -5.673844e+01
-3.373774e+09 -3.173773e+09 -3.333773e+09 1.019146e+02 4.177720e+01 -4.391039e+01
-3.410623e+09 -3.210620e+09 -3.370635e+09 -2.077548e+03 -7.135726e+03 -1.097623e+03
-2.575889e+09 -2.375889e+09 -2.535889e+09 4.383062e+01 8.832644e+01 -5.130561e+01
-2.285958e+09 -2.085957e+09 -2.245957e+09 4.353268e+01 1.753461e+01 -5.514190e+01
-3.545501e+09 -3.345488e+09 -3.505509e+09 -2.346036e+03 -6.385727e+03 -1.685448e+03
-2.100600e+09 -1.900592e+09 -2.060597e+09 1.723926e+03 -2.225134e+03 4.182713e+03
-2.388634e+09 -2.188631e+09 -2.348637e+09 2.613811e+03 -3.486191e+02 8.394037e+01
-3.624286e+09 -3.424281e+09 -3.584298e+09 -2.354401e+03 -8.405231e+03 -3.163560e+03
-2.466430e+09 -2.266426e+09 -2.426433e+09 3.137706e+03 -1.924292e+02 -1.770129e+03
-3.499142e+09 -3.299132e+09 -3.459154e+09 -9.466269e+02 -6.105720e+03 -3.191109e+03
-2.867585e+09 -2.667577e+09 -2.827587e+09 5.800296e+02 -1.091099e+03 -3.039183e+03
-2.498533e+09 -2.298527e+09 -2.458532e+09 -1.639162e+03 -2.144264e+03 -3.047821e+03
-2.016373e+09 -1.816363e+09 -1.976373e+09 9.430847e+02 -2.658403e+03 -5.905880e+03
-3.175725e+09 -2.975718e+09 -3.135726e+09 2.465966e+03 -8.404529e+02 -2.384316e+03
-3.377965e+09 -3.177957e+09 -3.337967e+09 1.777196e+03 -9.313677e+02 -2.448194e+03
-2.769858e+09 -2.569859e+09 -2.729861e+09 3.071503e+03 -5.421680e+03 3.024706e+03
-2.499379e+09 -2.299378e+09 -2.459380e+09 3.434562e+03 -4.285723e+03 3.368097e+03
-2.612180e+09 -2.412177e+09 -2.572179e+09 1.428035e+02 -9.032840e+02 1.149448e+03
-1.913032e+09 -1.713029e+09 -1.873031e+09 -3.741487e+02 -6.767962e+02 7.747200e+02
-1.556711e+09 -1.356704e+09 -1.516708e+09 1.904479e+03 -3.022004e+03 3.552544e+03
-2.055356e+09 -1.855361e+09 -2.015359e+09 4.526981e+03 -8.268208e+03 4.467273e+03
-1.821394e+09 -1.621396e+09 -1.781393e+09 2.882658e+03 -2.375955e+03 1.410823e+03
-3.603665e+09 -3.403663e+09 -3.563667e+09 8.435397e+02 -2.016975e+03 1.467313e+03
-3.198810e+09 -2.998819e+09 -3.158815e+09 -5.006472e+01 -3.604674e+03 1.841262e+02
-3.292748e+09 -3.092749e+09 -3.252748e+09 1.253045e+03 -1.093453e+03 7.317295e+02
-3.094158e+09 -2.894163e+09 -3.054167e+09 3.452533e+03 -7.458029e+03 3.738118e+03
-2.582787e+09 -2.382787e+09 -2.542787e+09 2.450312e+03 -2.488921e+03 2.239722e+03
-3.491703e+09 -3.291698e+09 -3.451717e+09 -1.809425e+03 -7.076218e+03 3.335641e+03
-1.989722e+09 -1.789720e+09 -1.949720e+09 2.635164e+03 -2.466500e+03 2.680282e+03
-1.999000e+09 -1.799008e+09 -1.959002e+09 6.008343e+03 -9.099744e+03 6.019774e+03
-1.586292e+09 -1.386290e+09 -1.546291e+09 1.502875e+02 1.502361e+02 -1.161880e+02
-3.336542e+09 -3.136536e+09 -3.296547e+09 1.917946e+03 -3.950250e+03 4.124420e+03
-2.639067e+09 -2.439071e+09 -2.599069e+09 2.347483e+03 -2.810513e+03 1.193530e+03
-2.793922e+09 -2.593925e+09 -2.753927e+09 3.212078e+03 -5.445271e+03 3.043510e+03
-1.597983e+09 -1.397984e+09 -1.557984e+09 1.201568e+03 5.923447e+01 -2.007426e+02
-2.543189e+09 -2.343187e+09 -2.503191e+09 3.038833e+03 -2.789074e+03 4.487319e+03
-3.583668e+09 -3.383667e+09 -3.543667e+09 2.808248e+02 5.854070e+01 -1.370660e+01
-1.771156e+09 -1.571166e+09 -1.731158e+09 5.123469e+03 -6.888120e+03 3.709643e+03
-1.858781e+09 -1.658784e+09 -1.818784e+09 -8.512378e+02 -5.790637e+01 -3.522056e+01
-2.126687e+09 -1.926686e+09 -2.086686e+09 -1.210581e+02 3.836950e+00 -6.272367e+01
-1.838866e+09 -1.638861e+09 -1.798864e+09 -2.473778e+03 1.012281e+03 1.262534e+03
-3.328008e+09 -3.128015e+09 -3.288011e+09 -1.192771e+03 1.403156e+03 1.676966e+01
-3.586852e+09 -3.386852e+09 -3.546852e+09 1.313871e+03 -8.440319e+01 -4.538557e+02
-1.561123e+09 -1.361112e+09 -1.521154e+09 -3.969979e+04 3.597916e+04 2.661959e+04
-3.256023e+09 -3.056024e+09 -3.216035e+09 6.053664e+02 -7.467684e+03 3.494719e+03
-3.161537e+09 -2.961538e+09 -3.121538e+09 5.468839e+02 6.234410e+01 7.393503e+00
-1.586292e+09 -1.386290e+09 -1.546291e+09 3.058003e+02 1.061444e+02 -4.152338e+01
-3.326215e+09 -3.126215e+09 -3.286215e+09 5.423417e+02 4.675309e+01 -2.303197e+01
-3.580774e+09 -3.380771e+09 -3.540777e+09 2.708307e+03 3.259038e+03 -2.101920e+03
-3.236194e+09 -3.036192e+09 -3.196193e+09 -5.918648e+02 2.275889e+02 -1.392154e+01
-1.579116e+09 -1.379122e+09 -1.539116e+09 -3.437748e+03 2.238132e+03 5.261886e+02
-3.014949e+09 -2.814949e+09 -2.974949e+09 5.316442e+02 6.682469e+01 -5.647326e+00
-2.379960e+09 -2.179959e+09 -2.339959e+09 -9.091464e+02 9.152708e+01 -3.222509e+01
-1.590639e+09 -1.390633e+09 -1.550636e+09 7.882174e+03 -5.596391e+03 -7.491151e+03
-2.994225e+09 -2.794225e+09 -2.954225e+09 5.617019e+02 1.981129e+01 -4.645749e+01
-3.389486e+09 -3.189487e+09 -3.349487e+09 6.511862e+02 4.772413e+01 -1.698801e+00
-3.384078e+09 -3.184078e+09 -3.344078e+09 5.496619e+02 4.014948e+01 -2.846301e+01
-1.588308e+09 -1.388314e+09 -1.548317e+09 8.430497e+03 6.596513e+03 9.703382e+03
-1.712771e+09 -1.512767e+09 -1.672773e+09 -3.893219e+03 -1.332371e+03 5.340123e+02
-3.289465e+09 -3.089469e+09 -3.249465e+09 -5.800600e+03 -3.034124e+03 4.826084e+03
-3.194343e+09 -2.994343e+09 -3.154343e+09 6.228089e+02 6.075237e+01 3.943303e+00
-1.701837e+09 -1.501837e+09 -1.661832e+09 3.899617e+03 -5.175722e+03 -9.188738e+03
-2.775346e+09 -2.575314e+09 -2.735342e+09 -5.215382e+03 -1.675441e+04 8.521273e+02
-2.792735e+09 -2.592711e+09 -2.752736e+09 -4.045912e+02 3.801899e+03 -1.222716e+04
-3.144982e+09 -2.944958e+09 -3.104920e+09 4.969990e+03 2.518737e+04 1.443442e+04
-3.198366e+09 -2.998339e+09 -3.158354e+09 -5.222176e+02 -3.934412e+03 -6.329814e+03
-2.162550e+09 -1.962593e+09 -2.122588e+09 3.048005e+04 5.370349e+04 -2.860034e+04
-2.686423e+09 -2.486389e+09 -2.646441e+09 -9.217976e+03 1.638672e+03 -9.353605e+03
-3.000970e+09 -2.800975e+09 -2.960988e+09 -3.187208e+03 -1.158711e+04 -2.176536e+03
-3.407787e+09 -3.207752e+09 -3.367783e+09 -4.213722e+03 -1.004923e+04 -4.443935e+03
-2.137714e+09 -1.937742e+09 -2.097674e+09 7.469454e+03 6.270687e+03 5.107650e+04
-1.695608e+09 -1.495631e+09 -1.655614e+09 -1.798985e+04 1.885116e+04 9.286010e+03
-1.571994e+09 -1.372008e+09 -1.531995e+09 1.068975e+04 1.142358e+04 -4.420154e+03
-3.375503e+09 -3.175482e+09 -3.335522e+09 1.862672e+03 2.945741e+02 -6.045413e+03
-2.374458e+09 -2.174465e+09 -2.334459e+09 1.442414e+03 1.015266e+03 -1.674126e+02
-2.191388e+09 -1.991391e+09 -2.151392e+09 -5.366460e+03 -2.031891e+03 2.666805e+03
-2.993693e+09 -2.793699e+09 -2.953694e+09 1.091333e+03 4.738917e+02 -6.601921e+01
-2.868639e+09 -2.668645e+09 -2.828640e+09 1.174399e+03 3.728893e+02 -2.642888e+01
-3.578419e+09 -3.378415e+09 -3.538444e+09 -8.522587e+02 1.350734e+04 -1.317388e+03
-2.063052e+09 -1.863059e+09 -2.023053e+09 1.395948e+03 7.784524e+02 -8.172671e+01
-3.183582e+09 -2.983588e+09 -3.143583e+09 1.104754e+03 2.848927e+02 5.532023e+01
-3.390233e+09 -3.190238e+09 -3.350254e+09 -1.450633e+03 1.443672e+04 9.839424e+02
-2.177951e+09 -1.977951e+09 -2.137949e+09 3.791482e+03 1.387164e+03 -1.000794e+03
-1.773907e+09 -1.573683e+09 -1.733791e+09 -4.253812e+04 -1.061208e+05 8.323634e+04
-3.578420e+09 -3.378415e+09 -3.538444e+09 2.229891e+03 1.311385e+04 -2.922172e+03
-3.610819e+09 -3.410815e+09 -3.570823e+09 2.477578e+02 -2.796041e+03 2.746866e+03
-1.594454e+09 -1.394451e+09 -1.554448e+09 7.529116e+03 -3.478898e+03 4.459924e+03
-2.420798e+09 -2.220816e+09 -2.380823e+09 9.691747e+03 2.852145e+04 -6.458014e+03
-3.023975e+09 -2.823983e+09 -2.983995e+09 -3.653253e+02 1.590563e+04 2.940352e+03
-1.595634e+09 -1.395616e+09 -1.555623e+09 7.281373e+03 -6.611245e+02 6.439863e+03
-2.737959e+09 -2.537955e+09 -2.697958e+09 1.305960e+02 -1.298773e+03 1.887387e+03
-1.930562e+09 -1.730579e+09 -1.890575e+09 1.079228e+04 2.363478e+04 -9.646491e+03
-1.865993e+09 -1.666025e+09 -1.826005e+09 3.343580e+03 1.674172e+04 -1.927417e+03
-3.606173e+09 -3.406165e+09 -3.566183e+09 -2.428853e+03 -7.912019e+03 1.851336e+02
-2.046130e+09 -1.846157e+09 -2.006162e+09 2.474158e+03 4.155431e+04 -3.940008e+03
-3.589718e+09 -3.389714e+09 -3.549719e+09 -2.544952e+02 -1.326030e+03 1.585355e+03
-3.150796e+09 -2.950791e+09 -3.110797e+09 9.043987e+02 -1.889894e+03 3.090811e+03
-1.595624e+09 -1.395612e+09 -1.555620e+09 2.549750e+02 -6.794410e+02 3.027702e+03
-1.561779e+09 -1.361707e+09 -1.521772e+09 5.967534e+03 -1.712516e+04 6.530193e+03
-2.287557e+09 -2.087558e+09 -2.247568e+09 3.007619e+03 -1.670681e+04 6.492051e+03
-3.283921e+09 -3.083925e+09 -3.243921e+09 -8.883203e+02 3.282937e+02 -4.778895e+00
-1.579061e+09 -1.378980e+09 -1.538952e+09 -4.522623e+03 5.368256e+04 -3.488937e+04
-2.592041e+09 -2.392048e+09 -2.552047e+09 4.082368e+03 -7.658002e+03 3.575286e+03
-3.088757e+09 -2.888761e+09 -3.048757e+09 -1.398569e+03 4.437036e+02 6.233794e+01
-2.442938e+09 -2.242936e+09 -2.402931e+09 -4.434031e+03 6.143046e+03 -6.174015e+03
-3.390769e+09 -3.190774e+09 -3.350770e+09 -1.824853e+03 7.775450e+02 3.306595e+02
-2.808727e+09 -2.608731e+09 -2.768727e+09 -1.477631e+03 4.817084e+02 4.836982e+01
-2.775475e+09 -2.575482e+09 -2.735477e+09 -1.350359e+03 1.047958e+03 2.557165e+02
-3.545498e+09 -3.345482e+09 -3.505501e+09 -1.981663e+03 -8.825435e+01 -1.196008e+03
-1.945355e+09 -1.745357e+09 -1.905356e+09 -4.721150e+02 -5.245114e+01 1.958845e+01
-2.510691e+09 -2.310691e+09 -2.470690e+09 -7.459023e+02 6.055592e+01 -1.099701e+02
-2.754246e+09 -2.554246e+09 -2.714245e+09 -1.034513e+03 1.587498e+02 2.764392e+01
-1.681958e+09 -1.481829e+09 -1.641807e+09 2.494895e+03 1.134345e+05 -5.348566e+04
-3.602854e+09 -3.402855e+09 -3.562870e+09 -1.055753e+03 1.030001e+04 9.158517e+02
-1.622815e+09 -1.422849e+09 -1.582830e+09 -9.335249e+03 2.148662e+04 2.988987e+03
-2.227599e+09 -2.027615e+09 -2.187617e+09 -5.741840e+03 2.461833e+04 6.050639e+03
-2.752701e+09 -2.552697e+09 -2.712727e+09 2.418998e+03 2.162025e+04 -7.119289e+03
-3.580877e+09 -3.380864e+09 -3.540905e+09 -7.340504e+02 9.142068e+03 -3.703054e+03
-1.742217e+09 -1.542217e+09 -1.702216e+09 -1.191581e+03 3.332325e+02 -2.357342e+01
-2.534161e+09 -2.334162e+09 -2.494160e+09 -1.110449e+03 2.099014e+02 6.399034e-01
-3.560365e+09 -3.360365e+09 -3.520362e+09 3.056072e+03 -6.320785e+02 -1.999847e+03
-2.609822e+09 -2.409822e+09 -2.569821e+09 -6.364846e+02 1.262858e+02 -8.769335e+01
-2.071573e+09 -1.871574e+09 -2.031572e+09 -1.098305e+03 5.855173e+01 -3.215926e+01
-2.165757e+09 -1.965755e+09 -2.125756e+09 6.400421e+02 4.119838e+00 -9.574699e+01
-3.617694e+09 -3.417694e+09 -3.577691e+09 -3.599543e+03 1.394177e+03 -1.125736e+03
-1.570880e+09 -1.370878e+09 -1.530879e+09 2.106602e+03 -7.073690e+02 -1.401997e+03
-2.128402e+09 -1.928402e+09 -2.088391e+09 9.872192e+02 -1.610728e+03 -1.368850e+04
-2.133747e+09 -1.933753e+09 -2.093748e+09 -2.205707e+03 1.377467e+03 3.085084e+02
-1.796526e+09 -1.596533e+09 -1.756527e+09 -9.703272e+02 9.467942e+02 -2.603187e+01
-1.997770e+09 -1.797777e+09 -1.957771e+09 -9.449151e+02 8.157118e+02 6.277524e+01
-1.777710e+09 -1.577719e+09 -1.737712e+09 -9.830282e+02 1.551169e+03 1.786378e+02
-3.606693e+09 -3.406696e+09 -3.566695e+09 4.799155e+01 2.679354e+01 -7.059342e+01
-2.439291e+09 -2.239240e+09 -2.399296e+09 -9.142618e+03 1.225713e+03 2.351046e+04
-2.043837e+09 -1.843833e+09 -2.003835e+09 2.598260e+03 -8.200732e+02 -1.457605e+03
-1.574710e+09 -1.374709e+09 -1.534712e+09 4.689289e+03 -2.947239e+03 -3.493705e+03
-1.767851e+09 -1.567857e+09 -1.727852e+09 -1.703470e+03 1.021485e+03 1.620541e+02
-3.217771e+09 -3.017765e+09 -3.177769e+09 -3.064281e+03 1.446689e+03 2.109737e+03
-1.568451e+09 -1.368460e+09 -1.528452e+09 -1.287007e+04 7.852060e+03 6.154423e+03
-2.148770e+09 -1.948761e+09 -2.108764e+09 -1.894639e+03 -3.144641e+02 2.186098e+03
-3.232274e+09 -3.032277e+09 -3.192275e+09 1.650372e+03 -3.457253e+02 -1.439040e+03
-3.629236e+09 -3.429222e+09 -3.589236e+09 -2.459261e+03 -1.668051e+03 -3.235568e+03
-1.969095e+09 -1.769101e+09 -1.929096e+09 -1.669384e+03 7.435160e+02 2.272814e+02
-2.494358e+09 -2.294383e+09 -2.454347e+09 4.166585e+03 5.726118e+03 3.309262e+04
-2.721176e+09 -2.521174e+09 -2.681173e+09 -3.808955e+03 2.634121e+03 -3.292177e+03
-3.288005e+09 -3.088000e+09 -3.248002e+09 -1.605981e+03 -4.996546e+01 -9.073494e+02
-2.494132e+09 -2.294129e+09 -2.454127e+09 -3.278204e+03 8.421084e+03 -1.160475e+04
-2.643114e+09 -2.443104e+09 -2.603116e+09 -5.275346e+03 1.227873e+03 4.255932e+03
-2.754100e+09 -2.554104e+09 -2.714094e+09 -3.233968e+03 2.468269e+03 -6.819578e+03
-3.379713e+09 -3.179707e+09 -3.339714e+09 -3.422423e+03 2.654415e+03 2.893219e+03
-1.771224e+09 -1.571223e+09 -1.731221e+09 -6.327283e+03 2.685317e+03 3.470659e+03
-2.560774e+09 -2.360786e+09 -2.520782e+09 -3.610513e+03 8.503012e+03 1.667847e+03
-2.974942e+09 -2.774936e+09 -2.934946e+09 -9.213652e+03 4.529120e+03 7.616584e+03
-3.600829e+09 -3.400832e+09 -3.560826e+09 -6.259108e+03 -3.810323e+03 4.918224e+03
-2.735990e+09 -2.535998e+09 -2.695994e+09 -1.976942e+03 3.555477e+03 2.895374e+02
-3.497962e+09 -3.297969e+09 -3.457967e+09 -2.846472e+03 -2.894358e+02 2.376845e+03
-1.590648e+09 -1.390635e+09 -1.550651e+09 -1.564347e+04 -1.457632e+04 1.237397e+04
-1.783550e+09 -1.583560e+09 -1.743553e+09 -2.205277e+03 3.080693e+03 3.953504e+02
-1.779394e+09 -1.579404e+09 -1.739396e+09 -3.205780e+03 3.073979e+03 7.910833e+02
-2.126812e+09 -1.926821e+09 -2.086815e+09 -3.064563e+03 2.053508e+03 8.963246e+02
-3.120232e+09 -2.920239e+09 -3.080234e+09 -4.507151e+01 8.558861e+02 -9.838627e+01
-2.130008e+09 -1.930014e+09 -2.090009e+09 -2.312622e+03 1.985740e+03 1.627382e+02
-1.930273e+09 -1.730280e+09 -1.890275e+09 -2.268252e+03 1.516545e+03 3.250160e+02
-2.424871e+09 -2.224873e+09 -2.384872e+09 8.535487e+02 1.962420e+01 -1.267134e+02
-1.588298e+09 -1.388320e+09 -1.548317e+09 8.342167e+02 1.351404e+02 1.209999e+04
-2.481449e+09 -2.281451e+09 -2.441450e+09 2.708662e+02 1.922455e+01 -1.025244e+01
-2.860163e+09 -2.660165e+09 -2.820164e+09 4.181466e+02 4.331349e+01 -8.365427e-01
-3.481113e+09 -3.281110e+09 -3.441114e+09 2.275432e+03 -4.342929e+02 -1.091240e+03
-1.788444e+09 -1.588445e+09 -1.748445e+09 7.677858e+02 6.954327e+01 -1.125740e+02
-2.611071e+09 -2.411072e+09 -2.571072e+09 8.486947e+02 1.112179e+01 -1.684153e+02
-3.225904e+09 -3.025906e+09 -3.185906e+09 5.610636e+02 2.820987e+01 -7.646443e+01
-3.050452e+09 -2.850454e+09 -3.010453e+09 1.068459e+03 -1.394977e+01 -3.938836e+02
-2.412501e+09 -2.212479e+09 -2.372499e+09 2.991916e+03 3.870963e+03 -1.238064e+04
-3.388312e+09 -3.188316e+09 -3.348313e+09 -1.898735e+03 8.139110e+02 1.459093e+02
-2.672700e+09 -2.472699e+09 -2.632701e+09 3.948591e+03 2.558385e+03 -1.832240e+03
-2.001659e+09 -1.801659e+09 -1.961659e+09 7.393370e+02 8.010619e+01 9.590355e+00
-3.581561e+09 -3.381562e+09 -3.541560e+09 -1.233772e+03 4.861151e+01 1.785859e+01
-1.586885e+09 -1.386884e+09 -1.546883e+09 -1.444655e+03 4.083645e+02 6.200186e+01
-3.315215e+09 -3.115214e+09 -3.275214e+09 8.254008e+02 7.765762e+01 -5.891480e+01
-2.503515e+09 -2.303515e+09 -2.463515e+09 9.554979e+02 2.920244e+01 -2.979447e+02
-2.829046e+09 -2.629047e+09 -2.789047e+09 7.763391e+02 1.177416e+01 -1.897938e+02
-3.600350e+09 -3.400343e+09 -3.560350e+09 2.109558e+03 1.771621e+03 -2.483907e+03
-2.156915e+09 -1.956917e+09 -2.116915e+09 -8.683041e+02 9.474384e+01 -4.619211e+01
-3.245840e+09 -3.045840e+09 -3.205840e+09 9.428566e+02 2.615290e+01 -2.348695e+02
-3.136142e+09 -2.936141e+09 -3.096141e+09 1.012564e+03 -3.231868e+01 -2.058825e+02
-2.452216e+09 -2.252216e+09 -2.412216e+09 1.229008e+03 -9.811245e+01 -3.824826e+02
-2.654894e+09 -2.454895e+09 -2.614895e+09 1.126847e+03 -1.015823e+01 -2.869325e+02
-1.946925e+09 -1.746927e+09 -1.906927e+09 -3.037319e+02 -9.793311e+00 3.675993e+01
-3.414664e+09 -3.214664e+09 -3.374664e+09 1.199183e+03 -1.792156e+00 -1.469748e+02
-2.664760e+09 -2.464762e+09 -2.624806e+09 -8.817497e+03 3.863607e+04 -6.386258e+02
-3.500305e+09 -3.300306e+09 -3.460305e+09 -8.308640e+02 5.465511e+01 -3.239046e+01
-2.410600e+09 -2.210600e+09 -2.370599e+09 -2.093420e+03 7.719596e+02 2.241127e+02
-3.266409e+09 -3.066411e+09 -3.226409e+09 -1.167343e+03 2.212474e+01 -1.098360e+02
-2.080056e+09 -1.880087e+09 -2.040072e+09 -3.620090e+03 2.325660e+04 2.206951e+03
-3.370822e+09 -3.170813e+09 -3.330844e+09 9.256574e+02 1.065911e+04 -6.433110e+03
-1.983172e+09 -1.783171e+09 -1.943171e+09 -4.756375e+01 1.914318e+01 -6.764981e+01
-2.308705e+09 -2.108693e+09 -2.268772e+09 1.811745e+04 2.877018e+04 -2.163821e+04
-3.158194e+09 -2.958189e+09 -3.118217e+09 2.459776e+03 1.112907e+04 -3.929904e+03
-3.151572e+09 -2.951572e+09 -3.111572e+09 6.089193e+02 4.724137e+01 -1.108713e+02
-1.962005e+09 -1.761995e+09 -1.922007e+09 1.347724e+04 1.886668e+04 -1.434494e+04
-2.441437e+09 -2.241408e+09 -2.401426e+09 -5.729701e+03 -1.250406e+04 -3.023764e+03
-2.106692e+09 -1.906692e+09 -2.066692e+09 1.012701e+03 4.504893e+00 -1.814164e+02
-3.072385e+09 -2.872384e+09 -3.032385e+09 1.116605e+03 -5.760188e+01 -3.710884e+02
-2.085582e+09 -1.885582e+09 -2.045582e+09 1.036208e+03 4.042948e+01 -1.785268e+02
-2.233421e+09 -2.033417e+09 -2.193419e+09 7.928091e+02 -1.199519e+02 -5.854618e+01
-3.414307e+09 -3.214308e+09 -3.374307e+09 1.236552e+03 -9.490746e+01 -4.188015e+02
-1.894788e+09 -1.694788e+09 -1.854788e+09 4.613396e+02 3.897628e+01 -4.369440e+01
-2.189395e+09 -1.989394e+09 -2.149394e+09 1.054706e+02 2.781523e+00 -3.578841e+01
-1.571996e+09 -1.371996e+09 -1.531996e+09 2.173224e+02 5.132097e+01 -4.361798e+01
-3.425654e+09 -3.225654e+09 -3.385653e+09 -4.347485e+02 8.579434e+01 -4.094859e+01
-1.574076e+09 -1.374075e+09 -1.534075e+09 3.729433e+01 3.111044e+01 -9.452233e+01
-2.562768e+09 -2.362767e+09 -2.522767e+09 1.374737e+02 2.006707e+01 -2.578444e+01
-3.210473e+09 -3.010473e+09 -3.170473e+09 1.354903e+03 -5.030548e+01 -3.159058e+02
-2.366526e+09 -2.166526e+09 -2.326526e+09 3.693495e+02 1.433822e+01 -1.143723e+02
-2.577846e+09 -2.377846e+09 -2.537847e+09 1.407115e+03 -5.535363e+01 -3.022577e+02
-1.572186e+09 -1.372186e+09 -1.532187e+09 1.348561e+03 -1.284812e+02 -5.497087e+02
-2.292006e+09 -2.092005e+09 -2.252005e+09 1.616315e+02 8.864454e+00 -2.182057e+01
-3.612305e+09 -3.412304e+09 -3.572305e+09 2.829823e+02 8.233925e+00 -1.500625e+01
-1.764711e+09 -1.564710e+09 -1.724711e+09 9.025801e+02 -4.600418e+01 -2.990091e+02
-1.784557e+09 -1.584557e+09 -1.744558e+09 1.110959e+03 6.611182e+00 -2.655792e+02
-1.570766e+09 -1.370765e+09 -1.530765e+09 2.179073e+02 6.581309e+01 -8.941535e+01
-1.586995e+09 -1.386995e+09 -1.546994e+09 -3.099272e+02 8.248957e+01 -9.963161e+01
-2.658301e+09 -2.458300e+09 -2.618301e+09 1.142014e+03 -1.111714e+02 -2.651881e+02
-2.435427e+09 -2.235428e+09 -2.395428e+09 1.146794e+03 -1.898892e+01 -4.776679e+02
-2.469893e+09 -2.269897e+09 -2.429899e+09 4.345565e+03 -7.214210e+03 3.597404e+03
-3.577744e+09 -3.377743e+09 -3.537743e+09 4.774542e+01 -2.107725e+01 -4.567062e+01
-2.764959e+09 -2.564958e+09 -2.724958e+09 2.580290e+02 2.466597e+01 -5.245005e+01
-1.635758e+09 -1.435760e+09 -1.595760e+09 -4.658669e+02 -5.688617e+01 -2.635849e+01
-2.422428e+09 -2.222426e+09 -2.382426e+09 2.228176e+03 -1.669618e+03 1.550852e+03
-1.983499e+09 -1.783498e+09 -1.943500e+09 3.530891e+03 -4.437648e+03 3.613279e+03
-2.838665e+09 -2.638665e+09 -2.798666e+09 2.538493e+03 -2.936959e+03 2.220374e+03
-2.660305e+09 -2.460303e+09 -2.620305e+09 2.139066e+03 -1.808099e+03 1.624335e+03
-2.882018e+09 -2.682017e+09 -2.842019e+09 1.796026e+03 -2.458989e+03 1.584654e+03
-2.864156e+09 -2.664154e+09 -2.824154e+09 -2.778654e+02 1.234672e+02 -7.368129e+01
-3.211897e+09 -3.011896e+09 -3.171896e+09 -7.887647e+02 2.252746e+02 -1.699798e+00
-1.825309e+09 -1.625308e+09 -1.785308e+09 -4.095447e+02 7.758196e+01 -1.138948e+02
-2.026507e+09 -1.826507e+09 -1.986506e+09 -1.678465e+03 4.429533e+02 5.861547e+01
-2.993972e+09 -2.793970e+09 -2.953971e+09 -4.080615e+01 -2.658178e+02 6.215389e+01
-1.673921e+09 -1.473923e+09 -1.633920e+09 -9.306819e+02 1.473564e+02 -1.348011e+02
-3.404354e+09 -3.204358e+09 -3.364355e+09 -1.459845e+03 4.744984e+02 -1.097912e+02
-2.126590e+09 -1.926588e+09 -2.086588e+09 2.677190e+02 -4.145893e+02 2.414498e+02
-2.600294e+09 -2.400292e+09 -2.560293e+09 -3.960037e+02 -4.109166e+02 4.504801e+02
-3.400515e+09 -3.200512e+09 -3.360514e+09 -8.699121e+02 -4.270536e+02 5.524196e+02
-3.066382e+09 -2.866381e+09 -3.026382e+09 -7.502494e+02 -2.440953e+02 2.248594e+02
-2.076358e+09 -1.876363e+09 -2.036358e+09 -1.273249e+03 3.121559e+02 7.074525e+01
-1.674920e+09 -1.474924e+09 -1.634921e+09 -9.904371e+02 2.180290e+02 -1.162391e+02
-2.793830e+09 -2.593832e+09 -2.753830e+09 -1.456094e+03 3.165784e+02 2.919570e+01
-2.765482e+09 -2.565481e+09 -2.725481e+09 -7.158077e+02 -7.019274e+01 -6.046339e+01
-2.783538e+09 -2.583535e+09 -2.743537e+09 -3.867864e+02 -5.551657e+02 7.214732e+02
-2.777198e+09 -2.577196e+09 -2.737197e+09 2.372916e+02 -5.887223e+02 6.179728e+02
-2.691650e+09 -2.491644e+09 -2.651648e+09 -1.558769e+03 -8.281784e+02 2.477324e+03
-1.562203e+09 -1.362119e+09 -1.522214e+09 -9.485488e+03 -3.458946e+04 -2.412416e+04
-1.680553e+09 -1.480548e+09 -1.640552e+09 -7.248195e+02 3.031653e+02 -7.073016e+02
-3.591949e+09 -3.391947e+09 -3.551965e+09 2.869324e+03 9.674132e+03 -3.718940e+03
-1.586964e+09 -1.386954e+09 -1.546959e+09 8.705179e+03 5.417180e+03 -6.624107e+03
-3.588894e+09 -3.388897e+09 -3.548896e+09 2.868333e+01 1.063342e+01 2.461906e+01
-1.981337e+09 -1.781339e+09 -1.941335e+09 9.888863e+03 9.905267e+03 -6.443918e+03
-2.795342e+09 -2.595337e+09 -2.755341e+09 -2.879560e+03 1.253691e+03 1.837361e+03
-3.142036e+09 -2.942037e+09 -3.102030e+09 -4.071061e+03 3.927225e+03 -5.352263e+03
-2.516642e+09 -2.316640e+09 -2.476639e+09 -4.136565e+03 2.442216e+03 -3.613006e+03
-2.118927e+09 -1.918926e+09 -2.078926e+09 4.304774e+02 3.990960e+01 -4.152441e+01
-1.557606e+09 -1.357605e+09 -1.517606e+09 1.843848e+02 2.516174e+01 -3.825436e+01
-3.597489e+09 -3.397488e+09 -3.557489e+09 3.717671e+02 9.291057e+00 2.209767e+01
-3.512521e+09 -3.312520e+09 -3.472521e+09 8.109784e+02 2.014102e+01 -1.078617e+02
-3.607142e+09 -3.407141e+09 -3.567142e+09 6.918409e+02 -5.160179e+00 -5.492236e+01
-2.683873e+09 -2.483876e+09 -2.643875e+09 -1.165365e+03 1.136694e+02 -3.684461e+02
-3.526775e+09 -3.326776e+09 -3.486776e+09 -1.322726e+03 -1.556504e+02 1.802111e+02
-1.947814e+09 -1.747815e+09 -1.907815e+09 -1.212983e+03 -6.190887e+01 -9.593543e+01
-1.786776e+09 -1.586788e+09 -1.746779e+09 -6.479575e+02 3.465993e+03 4.707347e+01
-3.310177e+09 -3.110179e+09 -3.270179e+09 -1.046465e+03 5.921813e-01 -1.305011e+02
-1.674920e+09 -1.474926e+09 -1.634921e+09 -5.331368e+02 3.595025e+02 -8.265255e+01
-1.909089e+09 -1.709091e+09 -1.869091e+09 -1.053881e+03 6.099350e+01 -6.785071e+01
-2.383871e+09 -2.183875e+09 -2.343872e+09 -1.786389e+03 5.865100e+02 6.987324e+01
-2.550686e+09 -2.350687e+09 -2.510688e+09 -4.246399e+03 2.687608e+03 2.164521e+03
-1.674083e+09 -1.474090e+09 -1.634084e+09 -3.638221e+01 4.173913e+02 -4.172320e+01
-3.296257e+09 -3.096257e+09 -3.256267e+09 -7.324281e+03 8.689051e+03 5.974293e+03
-1.577590e+09 -1.377589e+09 -1.537590e+09 -1.868454e+03 -1.432637e+02 -1.980582e+02
-3.275229e+09 -3.075219e+09 -3.235228e+09 -1.564054e+03 8.112011e+02 3.045767e+03
-3.258699e+09 -3.058704e+09 -3.218700e+09 1.917001e+03 5.450947e+02 -1.264705e+02
-3.282979e+09 -3.082982e+09 -3.242981e+09 3.054145e+02 2.177632e+01 -1.565040e+02
-2.939109e+09 -2.739114e+09 -2.899110e+09 1.809917e+03 6.897414e+02 -6.157114e+01
-1.574987e+09 -1.374987e+09 -1.534987e+09 1.014895e+03 8.951010e+01 -3.567231e+02
-1.574987e+09 -1.374986e+09 -1.534987e+09 1.160359e+03 1.033569e+02 -2.910695e+02
-2.031312e+09 -1.831317e+09 -1.991312e+09 2.381196e+03 9.626424e+02 -1.877471e+02
-1.832637e+09 -1.632642e+09 -1.792637e+09 2.078295e+03 9.569210e+02 -2.136279e+02
-1.844190e+09 -1.644195e+09 -1.804191e+09 3.040212e+03 1.397023e+03 -3.388656e+02
-3.594747e+09 -3.394738e+09 -3.554740e+09 4.065589e+03 -3.689513e+03 -1.285730e+03
-3.067255e+09 -2.867257e+09 -3.027257e+09 -7.525980e+02 -2.062125e+01 1.671120e+01
-2.952613e+09 -2.752617e+09 -2.912613e+09 1.359159e+03 3.480324e+02 1.173304e+01
-1.978055e+09 -1.778062e+09 -1.938056e+09 1.443543e+03 9.905028e+02 -2.269108e+02
-1.832637e+09 -1.632644e+09 -1.792638e+09 2.354755e+03 1.393061e+03 -3.725185e+02
-2.929791e+09 -2.729795e+09 -2.889792e+09 2.539560e+03 -1.118746e+03 -3.301980e+03
-1.754884e+09 -1.554891e+09 -1.714885e+09 1.541774e+03 9.553429e+02 -1.454648e+02
-1.675069e+09 -1.475062e+09 -1.635066e+09 2.793209e+03 -2.059891e+03 -1.370905e+03
-2.154979e+09 -1.954976e+09 -2.114982e+09 -1.093722e+04 9.468420e+03 8.074085e+03
-3.072377e+09 -2.872371e+09 -3.032371e+09 3.150738e+03 -2.301050e+03 -8.944790e+02
-2.010584e+09 -1.810589e+09 -1.970585e+09 2.734925e+03 1.272950e+03 -5.223192e+02
-1.986209e+09 -1.786211e+09 -1.946211e+09 -3.524051e+02 -3.795249e+01 -1.050423e+01
-1.868238e+09 -1.668244e+09 -1.828238e+09 1.527590e+03 6.958369e+02 -6.591529e+00
-3.596825e+09 -3.396824e+09 -3.556826e+09 -3.076085e+03 7.367918e+02 1.326647e+01
-1.866592e+09 -1.666564e+09 -1.826591e+09 -1.092506e+03 1.452062e+03 6.517775e+03
-3.587210e+09 -3.387209e+09 -3.547209e+09 1.006243e+03 -3.487723e+01 -1.286569e+02
-3.344057e+09 -3.144056e+09 -3.304057e+09 -3.153280e+03 9.915634e+02 -9.055010e+01
-3.255306e+09 -3.055302e+09 -3.215306e+09 -2.214075e+03 -2.521381e+02 1.707123e+03
-1.573622e+09 -1.373622e+09 -1.533622e+09 5.432369e+02 1.016854e+02 -7.757416e+01
-2.612163e+09 -2.412151e+09 -2.572162e+09 2.966744e+03 -1.909942e+03 7.223004e+03
-2.482737e+09 -2.282724e+09 -2.442739e+09 -1.508765e+03 3.968219e+03 3.571001e+03
-2.058221e+09 -1.858212e+09 -2.018228e+09 5.934301e+02 -5.782411e+03 8.519199e+03
-1.787260e+09 -1.587256e+09 -1.747256e+09 6.802810e+03 -6.584971e+03 8.789246e+03
-3.109821e+09 -2.909802e+09 -3.069769e+09 8.393343e+02 -1.432526e+04 -1.735207e+04
-3.275360e+09 -3.075358e+09 -3.235390e+09 1.794946e+03 1.481489e+04 6.968491e+02
-2.755091e+09 -2.555054e+09 -2.715122e+09 2.338400e+03 -6.124850e+03 5.598993e+03
-3.568926e+09 -3.368918e+09 -3.528950e+09 -1.936733e+03 1.301647e+04 3.722985e+03
-3.224364e+09 -3.024357e+09 -3.184405e+09 7.018554e+03 1.080156e+04 -1.275739e+03
-2.001722e+09 -1.801714e+09 -1.961709e+09 6.425275e+03 -1.052555e+04 -9.516567e+03
-3.097801e+09 -2.897800e+09 -3.057796e+09 4.063986e+03 -2.487144e+03 -3.718639e+03
-3.341493e+09 -3.141474e+09 -3.301487e+09 -1.210989e+03 -4.558059e+03 -2.784380e+03
-2.979407e+09 -2.779388e+09 -2.939390e+09 5.156750e+03 -7.294185e+03 -6.958583e+03
-3.121237e+09 -2.921218e+09 -3.081248e+09 -1.577907e+02 -9.288699e+03 -2.098873e+03
-1.967202e+09 -1.767202e+09 -1.927244e+09 1.003474e+04 3.206474e+04 -1.497076e+04
-1.797985e+09 -1.597985e+09 -1.757985e+09 2.262306e+02 4.167198e+01 -3.927308e+01
-1.581654e+09 -1.381653e+09 -1.541653e+09 9.448863e+01 4.218214e+01 -4.842629e+01
-1.573622e+09 -1.373621e+09 -1.533622e+09 6.043399e+02 9.744489e+01 -7.732329e+01
-2.797287e+09 -2.597282e+09 -2.757286e+09 2.420745e+02 -6.387727e+02 -2.053726e+03
-3.005798e+09 -2.805797e+09 -2.965798e+09 6.991561e+02 4.459240e+01 -1.167631e+02
-3.389157e+09 -3.189156e+09 -3.349156e+09 2.140890e+02 2.782292e+01 -2.434277e+00
-1.591189e+09 -1.391188e+09 -1.551187e+09 -5.662483e+03 2.810352e+03 1.948378e+03
-3.596057e+09 -3.396058e+09 -3.556057e+09 -1.634061e+03 3.309792e+02 1.257682e+02
-3.287980e+09 -3.087975e+09 -3.247977e+09 1.699646e+03 -6.231624e+02 -1.128056e+03
-2.953921e+09 -2.753914e+09 -2.913922e+09 -4.328185e+03 4.864752e+03 5.522931e+03
-3.605925e+09 -3.405921e+09 -3.565925e+09 -2.105774e+03 6.028563e+02 1.053746e+03
-1.890104e+09 -1.690103e+09 -1.850103e+09 1.239194e+02 2.120709e+01 -3.465311e+01
-3.584479e+09 -3.384478e+09 -3.544478e+09 -6.668504e+02 4.324671e+01 -1.528384e+01
-3.402888e+09 -3.202881e+09 -3.362888e+09 -1.586802e+03 9.199850e+02 1.723138e+03
-2.290953e+09 -2.090952e+09 -2.250952e+09 1.200185e+02 1.367041e+01 -7.313450e+00
-1.601354e+09 -1.401345e+09 -1.561355e+09 -7.480137e+02 -3.416997e+03 -4.845053e+03
-2.553812e+09 -2.353810e+09 -2.513811e+09 -1.628509e+03 5.141754e+01 3.795495e+02
-2.509543e+09 -2.309540e+09 -2.469542e+09 -3.638125e+02 -5.643074e+02 1.050752e+03
-2.728990e+09 -2.528988e+09 -2.688989e+09 -9.848411e+02 -2.919802e+02 4.405383e+02
-3.263570e+09 -3.063567e+09 -3.223570e+09 -2.295509e+03 2.574232e+02 3.811630e+02
-2.196272e+09 -1.996270e+09 -2.156271e+09 4.424482e+02 -7.970765e+02 9.278404e+02
-3.497568e+09 -3.297563e+09 -3.457582e+09 -3.581925e+03 9.370909e+03 5.349604e+03
-3.606975e+09 -3.406978e+09 -3.566977e+09 -9.386826e+02 6.378791e+01 -2.712105e+02
-1.557606e+09 -1.357605e+09 -1.517605e+09 2.856566e+02 9.045764e+01 -1.334662e+01
-2.411905e+09 -2.211904e+09 -2.371905e+09 -3.042212e+02 -4.293903e+02 2.999634e+02
-1.804373e+09 -1.604370e+09 -1.764371e+09 -2.292189e+02 -4.538455e+02 5.037504e+02
-2.624626e+09 -2.424626e+09 -2.584626e+09 1.781984e+03 -1.549201e+03 9.091337e+02
-3.166435e+09 -2.966437e+09 -3.126436e+09 -7.506851e+01 3.428553e-01 1.852248e+01
-3.210821e+09 -3.010827e+09 -3.170828e+09 2.550323e+03 -5.697121e+03 2.116116e+03
-2.138218e+09 -1.938226e+09 -2.098220e+09 3.093755e+03 -4.166098e+03 1.464200e+03
-3.404372e+09 -3.204373e+09 -3.364375e+09 2.041876e+03 -3.040016e+03 1.734803e+03
-3.482631e+09 -3.282630e+09 -3.442631e+09 -2.683573e+02 -2.257844e+01 -6.814674e+01
-1.575275e+09 -1.375277e+09 -1.535277e+09 -5.305328e+01 -6.031419e+00 -1.088960e+01
-2.001007e+09 -1.801006e+09 -1.961007e+09 -5.597628e+02 -5.619018e+01 -1.073965e+01
-3.173037e+09 -2.973036e+09 -3.133037e+09 -5.180513e+02 -9.483123e+01 -1.190255e+01
-2.745111e+09 -2.545119e+09 -2.705122e+09 3.846534e+02 -1.053536e+04 1.294185e+03
-1.592588e+09 -1.392606e+09 -1.552595e+09 -2.587707e+03 -8.157178e+03 -2.089134e+02
-2.564009e+09 -2.364008e+09 -2.524009e+09 -3.842094e+02 -7.407808e+01 6.382043e+00
-1.775158e+09 -1.575158e+09 -1.735158e+09 -7.068371e+02 -9.238710e+01 6.465644e+01
-1.769932e+09 -1.569932e+09 -1.729932e+09 -6.295452e+02 -1.058152e+02 -2.711469e+01
-1.589061e+09 -1.389060e+09 -1.549061e+09 -4.853330e+02 -8.819498e+01 -2.825988e+01
-3.221000e+09 -3.021002e+09 -3.181002e+09 3.695832e+02 2.439710e+01 -4.971528e+01
-1.696183e+09 -1.496188e+09 -1.656186e+09 5.051751e+03 -4.945465e+03 -1.083107e+04
-3.621354e+09 -3.421354e+09 -3.581348e+09 1.733431e+03 -9.505519e+02 -3.305741e+03
-1.601776e+09 -1.401777e+09 -1.561777e+09 -5.711913e+02 -7.121491e+01 -2.745594e+01
-2.547334e+09 -2.347334e+09 -2.507329e+09 3.030716e+03 -2.054525e+03 -7.978368e+03
-1.943510e+09 -1.743501e+09 -1.903507e+09 -3.801500e+03 2.065107e+03 4.888420e+02
-3.377393e+09 -3.177395e+09 -3.337394e+09 7.704178e+02 3.701624e+01 -4.968567e+01
-2.776446e+09 -2.576444e+09 -2.736445e+09 -7.768540e+02 -1.563703e+02 1.323711e+02
-3.187087e+09 -2.987086e+09 -3.147087e+09 -8.433336e+02 -1.749252e+02 2.390780e+01
-2.992036e+09 -2.792036e+09 -2.952037e+09 -1.163518e+03 -8.819705e+01 5.699248e+01
-3.276565e+09 -3.076564e+09 -3.236565e+09 -1.171087e+03 -1.935626e+02 1.374936e+02
-1.577588e+09 -1.377587e+09 -1.537591e+09 -3.467473e+03 1.111331e+03 -4.305000e+02
-3.089945e+09 -2.889944e+09 -3.049941e+09 -4.509286e+03 3.442238e+03 -3.880309e+03
-3.012297e+09 -2.812297e+09 -2.972297e+09 -1.269224e+03 -1.365539e+02 1.104732e+02
-2.838936e+09 -2.638934e+09 -2.798945e+09 -1.487978e+03 -4.086775e+03 -2.398341e+03
-1.954194e+09 -1.754193e+09 -1.914194e+09 -8.254214e+02 -1.203511e+02 7.566647e+00
-1.777684e+09 -1.577684e+09 -1.737684e+09 -7.655213e+02 -1.749033e+02 7.246608e+01
-3.579262e+09 -3.379256e+09 -3.539263e+09 1.561919e+03 -9.886815e+02 -2.080180e+03
-3.589747e+09 -3.389735e+09 -3.549747e+09 3.972658e+03 3.313900e+03 -5.030524e+02
-3.593631e+09 -3.393619e+09 -3.553637e+09 3.655107e+02 -3.275601e+03 -2.627879e+03
-3.192790e+09 -2.992794e+09 -3.152797e+09 -3.091836e+03 -5.733598e+03 -1.856146e+03
-2.306539e+09 -2.106535e+09 -2.266542e+09 -4.762976e+03 -8.462774e+03 -4.570716e+03
-3.204674e+09 -3.004670e+09 -3.164676e+09 1.743541e+03 -9.381689e+02 -1.427237e+03
-2.348326e+09 -2.148325e+09 -2.308326e+09 -6.687444e+02 -2.247490e+02 1.015178e+02
-1.959782e+09 -1.759781e+09 -1.919781e+09 1.742556e+01 -2.391598e+02 -1.339118e+01
-3.331831e+09 -3.131829e+09 -3.291830e+09 1.327384e+02 -2.813538e+02 6.384140e+01
-2.502324e+09 -2.302312e+09 -2.462329e+09 -2.809655e+03 -7.184658e+03 -5.255873e+03
-3.577382e+09 -3.377380e+09 -3.537395e+09 -1.668722e+03 -7.530019e+03 -8.308884e+02
-3.032173e+09 -2.832179e+09 -2.992184e+09 -8.670012e+02 -7.122569e+03 -4.981002e+02
-2.861026e+09 -2.661025e+09 -2.821025e+09 -2.835589e+02 -2.282303e+02 -3.175889e+01
-2.182900e+09 -1.982899e+09 -2.142899e+09 -9.270696e+01 -3.625178e+02 1.210684e+02
-1.574665e+09 -1.374659e+09 -1.534662e+09 -2.108307e+02 -6.581509e+02 1.361263e+03
-1.581201e+09 -1.381201e+09 -1.541198e+09 5.135454e+03 -2.619194e+03 2.390678e+03
-1.594449e+09 -1.394446e+09 -1.554446e+09 4.083127e+03 -3.002814e+03 3.051580e+03
-1.919240e+09 -1.719223e+09 -1.879237e+09 -1.891293e+02 2.558758e+02 3.999232e+03
-3.532348e+09 -3.332343e+09 -3.492349e+09 -1.777734e+03 -8.065343e+02 2.073284e+03
-3.058087e+09 -2.858085e+09 -3.018086e+09 -8.770471e+02 -1.863115e+02 8.045267e+01
-3.136272e+09 -2.936267e+09 -3.096276e+09 1.511273e+03 -3.682880e+03 4.119033e+03
-3.603665e+09 -3.403663e+09 -3.563667e+09 1.126700e+03 -2.304173e+03 2.002590e+03
-3.175998e+09 -2.975997e+09 -3.135997e+09 -1.139821e+02 -1.996523e+02 4.071592e+01
-1.590355e+09 -1.390346e+09 -1.550348e+09 9.729092e+03 -3.688380e+03 8.230614e+03
-3.105666e+09 -2.905664e+09 -3.065664e+09 -1.546280e+02 -1.759420e+02 6.706252e+01
-3.403903e+09 -3.203900e+09 -3.363904e+09 1.230109e+03 -1.305696e+03 1.616684e+03
-2.042986e+09 -1.842984e+09 -2.002985e+09 1.300798e+03 -1.345253e+03 9.984872e+02
-1.999800e+09 -1.799801e+09 -1.959799e+09 3.706567e+03 -3.110742e+03 2.431348e+03
-3.572668e+09 -3.372667e+09 -3.532672e+09 1.497066e+03 -3.260035e+03 2.073415e+03
-3.386548e+09 -3.186548e+09 -3.346552e+09 2.339709e+03 -3.927946e+03 2.992343e+03
-3.134971e+09 -2.934964e+09 -3.094980e+09 -4.084264e+03 -6.676099e+03 -5.516118e+03
-2.088244e+09 -1.888243e+09 -2.048243e+09 -4.152915e+02 -4.932532e+01 5.405488e+00
-3.588074e+09 -3.388073e+09 -3.548073e+09 -5.140507e+02 -1.112753e+01 1.350227e+01
-3.197948e+09 -2.997947e+09 -3.157948e+09 -6.549710e+02 -8.094719e+01 2.490026e+01
-1.599065e+09 -1.399065e+09 -1.559063e+09 3.278659e+03 -1.790691e+03 1.241282e+03
-1.594905e+09 -1.394903e+09 -1.554903e+09 9.124191e+02 -6.829859e+02 3.963414e+02
-1.673561e+09 -1.473561e+09 -1.633561e+09 -5.732947e+02 -8.235234e+01 -2.307837e+00
-3.399856e+09 -3.199856e+09 -3.359856e+09 -6.589654e+02 -7.694045e+01 1.586268e+01
-1.581198e+09 -1.381197e+09 -1.541197e+09 2.864155e+03 -2.245073e+03 1.485660e+03
-1.870097e+09 -1.670095e+09 -1.830096e+09 2.701805e+03 -1.194506e+03 -1.470178e+03
-3.305342e+09 -3.105331e+09 -3.265336e+09 8.393063e+02 -1.206127e+03 1.791396e+03
-3.074977e+09 -2.874973e+09 -3.034975e+09 8.026952e+02 1.934903e+02 3.712322e+01
-3.146726e+09 -2.946727e+09 -3.106727e+09 -9.379628e+02 -4.275878e+01 2.193085e+01
-3.496234e+09 -3.296236e+09 -3.456235e+09 -1.547593e+03 5.637587e+01 -2.435805e+02
-3.265582e+09 -3.065586e+09 -3.225584e+09 1.785728e+02 1.940189e+01 -3.519772e+02
-2.794131e+09 -2.594129e+09 -2.754126e+09 3.195973e+03 -2.253133e+03 -3.398140e+03
-2.683200e+09 -2.483197e+09 -2.643199e+09 1.905728e+03 -4.329313e+02 -7.147853e+02
-1.724803e+09 -1.524804e+09 -1.684804e+09 -1.092041e+03 -2.261818e+02 2.674105e+01
-3.303053e+09 -3.103047e+09 -3.263049e+09 2.463810e+03 -1.671911e+03 -9.334230e+02
-2.567582e+09 -2.367574e+09 -2.527578e+09 2.009492e+03 -2.244779e+03 -5.282859e+02
-1.911065e+09 -1.711069e+09 -1.871068e+09 -5.362472e+02 4.487965e+01 -4.288658e+02
-2.710676e+09 -2.510684e+09 -2.670679e+09 1.366800e+03 2.128670e+03 -3.147738e+02
-3.254650e+09 -3.054657e+09 -3.214654e+09 1.666121e+03 1.549476e+03 -2.995755e+02
-2.501385e+09 -2.301393e+09 -2.461387e+09 8.146101e+02 9.342735e+02 -2.997201e+01
-1.630035e+09 -1.430036e+09 -1.590036e+09 -7.409541e+02 -1.131582e+02 1.196238e+01
-1.670588e+09 -1.470588e+09 -1.630588e+09 -8.475418e+02 -2.871128e+02 8.092800e+01
-3.474866e+09 -3.274867e+09 -3.434867e+09 -1.280363e+03 -5.087406e+01 -1.188404e+01
-2.247173e+09 -2.047175e+09 -2.207175e+09 1.053080e+02 7.220429e+00 8.393311e+00
-3.302922e+09 -3.102919e+09 -3.262921e+09 -1.149107e+03 -4.082676e+02 9.646887e+02
-3.504208e+09 -3.304208e+09 -3.464208e+09 -1.026986e+03 -3.907014e+01 3.002322e+00
-1.602653e+09 -1.402652e+09 -1.562651e+09 1.004534e+03 -8.706899e+02 3.271218e+02
-3.595048e+09 -3.395048e+09 -3.555048e+09 -1.246043e+03 -4.210105e+01 5.805642e+00
-2.260924e+09 -2.060925e+09 -2.220925e+09 -4.603336e+02 -2.307932e+01 2.220794e-02
-3.295243e+09 -3.095250e+09 -3.255245e+09 2.065354e+02 9.745154e+02 -3.496703e+01
-2.874989e+09 -2.674991e+09 -2.834991e+09 -3.524479e+02 -4.566719e+01 3.709089e+01
-2.613570e+09 -2.413578e+09 -2.573572e+09 1.419794e+03 1.017603e+03 -2.480462e+02
-3.174116e+09 -2.974117e+09 -3.134117e+09 -5.383409e+02 -4.180738e+01 -7.788385e+00
-3.400970e+09 -3.200977e+09 -3.360973e+09 1.106174e+03 9.842564e+02 -2.276664e+02
-1.768439e+09 -1.568437e+09 -1.728437e+09 -2.522004e+03 6.581900e+02 6.831994e+02
-3.391690e+09 -3.191689e+09 -3.351689e+09 -6.839509e+02 -4.543490e+01 -1.087795e+00
-3.348106e+09 -3.148101e+09 -3.308104e+09 -4.539773e+02 1.585099e+02 3.938326e+02
-3.029249e+09 -2.829247e+09 -2.989248e+09 -1.385949e+03 5.259570e+02 3.042516e+02
-3.397724e+09 -3.197720e+09 -3.357723e+09 -1.971346e+03 7.195875e+02 9.781951e+02
-2.761947e+09 -2.561943e+09 -2.721946e+09 -4.394056e+02 1.613582e+02 3.637029e+02
-2.059194e+09 -1.859192e+09 -2.019193e+09 -9.671453e+02 -3.201862e+02 2.267988e+02
-2.162196e+09 -1.962196e+09 -2.122196e+09 -5.242662e+02 -3.817911e+01 -6.591788e+00
-3.266780e+09 -3.066779e+09 -3.226780e+09 -9.768095e+02 -2.596745e+02 3.193376e+02
-3.608901e+09 -3.408899e+09 -3.568900e+09 -4.730737e+02 -1.099563e+02 7.625851e+01
-3.165293e+09 -2.965298e+09 -3.125296e+09 -9.225267e+02 1.849596e+02 -1.314524e+03
-3.313070e+09 -3.113067e+09 -3.273069e+09 -1.076176e+03 -3.431232e+02 5.061160e+02
-3.066174e+09 -2.866172e+09 -3.026173e+09 -1.253869e+03 -5.144117e+01 1.269601e+02
-3.007687e+09 -2.807686e+09 -2.967686e+09 -1.136874e+03 -1.884657e+02 2.172356e+02
-1.589061e+09 -1.389061e+09 -1.549061e+09 -4.556294e+02 -9.033093e+01 -1.974958e+01
-3.476292e+09 -3.276292e+09 -3.436292e+09 -6.403913e+02 -2.606607e+01 1.466213e+01
-2.848127e+09 -2.648127e+09 -2.808127e+09 -5.581235e+02 -7.103379e+01 -1.383413e+00
-1.914636e+09 -1.714635e+09 -1.874636e+09 -1.300447e+03 -9.961117e+01 9.896642e+01
-2.225210e+09 -2.025209e+09 -2.185210e+09 -1.696482e+03 5.466400e+01 8.720195e+01
-2.186063e+09 -1.986053e+09 -2.146058e+09 -1.408577e+03 -7.091119e+02 2.004201e+03
-3.600509e+09 -3.400493e+09 -3.560417e+09 -2.381473e+03 1.016904e+04 4.918548e+03
-2.074693e+09 -1.874686e+09 -2.034690e+09 -1.259827e+01 7.547502e+02 7.050701e+02
-2.945701e+09 -2.745709e+09 -2.905705e+09 1.610113e+03 -2.847204e+03 5.122500e+02
-3.604090e+09 -3.404096e+09 -3.564099e+09 -6.577077e+02 -5.490941e+03 7.798341e+01
-2.282971e+09 -2.082981e+09 -2.242975e+09 -4.085411e+02 -3.428620e+03 3.898450e+01
-3.475861e+09 -3.275868e+09 -3.435866e+09 -1.001604e+03 -2.811289e+03 -1.072892e+02
-3.298034e+09 -3.098023e+09 -3.258036e+09 -3.011156e+03 3.857104e+03 5.537095e+03
-2.773350e+09 -2.573340e+09 -2.733347e+09 1.708706e+02 -1.034370e+02 2.380769e+03
-2.467329e+09 -2.267340e+09 -2.427336e+09 -2.446311e+03 -7.209085e+03 -7.414295e+02
-1.938956e+09 -1.738964e+09 -1.898959e+09 -3.918121e+03 -3.844979e+03 -9.903931e+02
-1.696940e+09 -1.496942e+09 -1.656940e+09 -2.459720e+03 -1.731516e+03 -5.118071e+02
-3.087353e+09 -2.887343e+09 -3.047350e+09 6.681380e+02 2.610740e+02 2.985941e+03
-3.288223e+09 -3.088221e+09 -3.248222e+09 1.490430e+03 -3.716095e+02 -4.426987e+02
-3.038561e+09 -2.838556e+09 -2.998568e+09 -2.802326e+03 -5.531699e+03 -5.098351e+03
-1.964476e+09 -1.764474e+09 -1.924475e+09 4.808057e+02 1.601181e+01 -2.468773e+02
-2.353977e+09 -2.153975e+09 -2.313976e+09 4.870712e+02 2.395543e+02 -2.812117e+01
-1.968329e+09 -1.768330e+09 -1.928330e+09 1.427951e+03 -1.565956e+01 -1.611614e+02
-1.776015e+09 -1.576014e+09 -1.736014e+09 3.702977e+02 2.330828e+02 -6.964786e+01
-1.916121e+09 -1.716134e+09 -1.876126e+09 -8.594991e+02 -5.775803e+03 1.031114e+02
-2.569810e+09 -2.369808e+09 -2.529809e+09 3.232408e+02 5.401263e+01 -7.633158e+01
-2.346195e+09 -2.146198e+09 -2.306196e+09 -2.397456e+03 -1.998777e+03 -6.583800e+02
-3.603216e+09 -3.403216e+09 -3.563220e+09 -2.273378e+03 -3.602005e+03 -1.644849e+03
-3.579259e+09 -3.379253e+09 -3.539261e+09 3.211209e+03 6.774312e+02 -1.165590e+03
-1.575537e+09 -1.375540e+09 -1.535537e+09 2.328611e+03 6.152299e+02 -7.855137e+01
-1.696940e+09 -1.496944e+09 -1.656940e+09 1.309924e+03 2.745986e+02 2.638204e+01
-3.180363e+09 -2.980361e+09 -3.140362e+09 8.604572e+01 2.704244e+02 4.720670e+01
-3.246278e+09 -3.046274e+09 -3.206276e+09 1.926590e+02 5.914638e+01 2.291696e+02
-2.343275e+09 -2.143275e+09 -2.303274e+09 -1.426864e+03 3.368954e+02 -2.207260e+01
-1.658527e+09 -1.458542e+09 -1.618533e+09 9.087201e+02 5.927197e+03 -5.132623e+02
-1.860002e+09 -1.660004e+09 -1.820002e+09 2.440753e+03 7.312242e+02 -2.086640e+02
-2.576662e+09 -2.376661e+09 -2.536661e+09 -8.431447e+02 1.743750e+02 -8.499094e+01
-3.011088e+09 -2.811090e+09 -2.971089e+09 -2.423647e+03 6.215292e+02 5.068468e+02
-1.806400e+09 -1.606408e+09 -1.766402e+09 8.699554e+02 8.658225e+02 -7.988280e+01
-2.022165e+09 -1.822167e+09 -1.982165e+09 -1.891684e+03 4.765449e+02 1.315366e+02
-3.110674e+09 -2.910668e+09 -3.070674e+09 3.485709e+02 8.062471e+02 -1.650798e+03
-3.608776e+09 -3.408774e+09 -3.568775e+09 -8.097242e+02 1.980116e+02 7.758893e+01
-2.608274e+09 -2.408273e+09 -2.568273e+09 -8.769976e+02 2.644575e+02 2.784129e+01
-1.587677e+09 -1.387674e+09 -1.547675e+09 5.135598e+03 2.735727e+03 -2.476040e+03
-1.979947e+09 -1.779945e+09 -1.939946e+09 -6.208003e+02 2.550007e+02 -2.245515e+01
-3.473706e+09 -3.273702e+09 -3.433705e+09 2.102256e+03 1.556761e+03 -1.024750e+03
-2.267982e+09 -2.067987e+09 -2.227982e+09 1.176402e+03 3.443764e+02 -4.659358e+01
-2.677842e+09 -2.477844e+09 -2.637844e+09 5.590972e+03 5.988326e+03 -3.613165e+03
-1.828039e+09 -1.628039e+09 -1.788038e+09 -1.770824e+03 4.666333e+02 6.263409e+01
-2.853507e+09 -2.653502e+09 -2.813505e+09 2.576577e+03 1.044254e+03 -1.240296e+03
-3.380054e+09 -3.180051e+09 -3.340053e+09 -1.277697e+03 4.881176e+02 4.537623e+02
-3.331411e+09 -3.131395e+09 -3.291412e+09 -4.670495e+03 -6.872593e+03 -1.786526e+03
-3.593635e+09 -3.393621e+09 -3.553637e+09 3.620089e+03 -5.434022e+02 -3.517738e+03
-2.538223e+09 -2.338241e+09 -2.498202e+09 7.987493e+03 5.479040e+03 3.460536e+04
-2.736947e+09 -2.536916e+09 -2.696782e+09 -5.188133e+03 -2.220017e+04 2.023678e+04
-3.514742e+09 -3.314744e+09 -3.474743e+09 -4.538268e+03 -1.155031e+03 1.708128e+03
-3.186595e+09 -2.986604e+09 -3.146597e+09 -4.299097e+03 -1.922202e+03 4.879731e+03
-2.314490e+09 -2.114455e+09 -2.274475e+09 -3.351891e+03 -2.145555e+04 6.143928e+03
-3.146258e+09 -2.946236e+09 -3.106165e+09 -6.556192e+03 -2.051484e+04 8.792435e+02
-1.677692e+09 -1.477700e+09 -1.637702e+09 -3.812514e+03 -2.174783e+03 7.373321e+03
-3.336786e+09 -3.136766e+09 -3.296714e+09 -1.857947e+01 -1.184016e+04 6.444679e+03
-2.443729e+09 -2.243723e+09 -2.403727e+09 -3.431089e+03 1.848919e+03 2.358157e+03
-2.292434e+09 -2.092444e+09 -2.252443e+09 -2.559873e+03 -5.102902e+02 4.790598e+03
-3.290486e+09 -3.090482e+09 -3.250485e+09 1.898792e+03 1.806983e+03 -1.438392e+03
-2.053091e+09 -1.853084e+09 -2.013088e+09 -3.358362e+03 1.087782e+03 2.376027e+03
-2.663478e+09 -2.463473e+09 -2.623475e+09 -3.326361e+03 1.479006e+03 1.996898e+03
-3.442247e+09 -3.242253e+09 -3.402256e+09 1.012158e+03 -4.533387e+03 1.164010e+03
-3.513918e+09 -3.313925e+09 -3.473924e+09 -6.237621e+02 -3.642773e+03 1.790587e+02
-2.264754e+09 -2.064762e+09 -2.224758e+09 1.899300e+03 -4.656019e+03 7.392244e+02
-3.520544e+09 -3.320551e+09 -3.480550e+09 4.674126e+02 -3.449979e+03 6.799187e+02
-3.615857e+09 -3.415862e+09 -3.575866e+09 -2.245398e+02 -5.256295e+03 5.353706e+02
-3.544418e+09 -3.344417e+09 -3.504417e+09 -1.280759e+02 -2.436248e+01 -3.850877e+01
-3.274130e+09 -3.074126e+09 -3.234128e+09 2.434645e+02 -1.207784e+02 6.561583e+01
-2.278176e+09 -2.078170e+09 -2.238172e+09 -7.379024e+02 -6.764090e+02 7.084310e+02
-3.222154e+09 -3.022158e+09 -3.182156e+09 2.574374e+02 6.658280e+01 -1.291852e+03
-2.104340e+09 -1.904332e+09 -2.064335e+09 -5.302960e+03 3.716197e+03 3.999796e+03
-3.295692e+09 -3.095693e+09 -3.255705e+09 -2.876471e+03 -7.138219e+03 -2.001759e+03
-1.570885e+09 -1.370876e+09 -1.530878e+09 4.019024e+02 -2.134628e+03 -5.371841e+02
-3.151781e+09 -2.951790e+09 -3.111789e+09 -3.003314e+02 -4.989297e+03 3.545911e+02
-1.912257e+09 -1.712252e+09 -1.872254e+09 -6.489391e+02 -2.050707e+02 6.461901e+02
-1.872772e+09 -1.672771e+09 -1.832771e+09 -9.332104e+02 -2.289925e+02 1.013680e+02
-2.479678e+09 -2.279678e+09 -2.439678e+09 -7.809526e+02 -1.009787e+02 4.704571e+01
-2.056832e+09 -1.856831e+09 -2.016832e+09 -8.868800e+02 -2.598292e+02 1.234647e+02
-3.513857e+09 -3.313856e+09 -3.473856e+09 3.209672e+02 -3.251857e+02 1.502680e+02
-1.994205e+09 -1.794203e+09 -1.954204e+09 -5.380624e+02 -3.209319e+02 5.012602e+02
-1.596632e+09 -1.396631e+09 -1.556631e+09 -1.408721e+02 -2.946645e+02 -3.462458e+01
-2.703395e+09 -2.503394e+09 -2.663394e+09 -3.869355e+02 -1.475583e+02 5.431953e+01
-2.555192e+09 -2.355191e+09 -2.515191e+09 -6.667414e+02 -1.625826e+02 4.182624e+01
-1.854650e+09 -1.654648e+09 -1.814649e+09 -5.318947e+02 -2.547009e+02 2.688317e+02
-1.596632e+09 -1.396631e+09 -1.556631e+09 1.828656e+02 -3.800943e+02 1.269602e+02
-3.590438e+09 -3.390437e+09 -3.550438e+09 -1.570068e+03 -8.709270e+01 2.144799e+02
-1.989814e+09 -1.789828e+09 -1.949821e+09 2.255320e+03 -8.494345e+03 1.722477e+03
-1.590597e+09 -1.390597e+09 -1.550597e+09 -8.518710e+02 -1.216760e+02 3.546151e+00
-1.778421e+09 -1.578443e+09 -1.738430e+09 2.405551e+03 -1.286849e+04 1.736047e+03
-1.672894e+09 -1.472895e+09 -1.632895e+09 -1.178092e+03 -1.220288e+02 8.469357e+01
-2.001893e+09 -1.801891e+09 -1.961892e+09 -1.247851e+02 -3.498854e+02 2.432951e+02
-3.551373e+09 -3.351371e+09 -3.511373e+09 -1.416425e+02 -6.972974e+02 7.507818e+02
-1.951920e+09 -1.751937e+09 -1.911928e+09 2.498438e+03 -1.391259e+04 1.711514e+03
-3.407008e+09 -3.206995e+09 -3.367012e+09 -2.132113e+03 3.483259e+02 3.470597e+03
-2.500662e+09 -2.300627e+09 -2.460654e+09 -7.656920e+03 1.045945e+04 -1.526906e+04
-1.602654e+09 -1.402653e+09 -1.562652e+09 1.885799e+03 -1.153823e+03 7.501213e+02
-3.014192e+09 -2.814193e+09 -2.974199e+09 4.110188e+03 -6.361627e+03 4.532681e+03
-3.587764e+09 -3.387763e+09 -3.547763e+09 -4.141743e+02 -1.441756e+02 8.312857e+01
-1.595353e+09 -1.395352e+09 -1.555353e+09 -4.628392e+02 -9.816398e+01 -5.760502e+01
-1.986237e+09 -1.786241e+09 -1.946247e+09 9.632943e+03 -1.368390e+04 9.655056e+03
-1.790721e+09 -1.590725e+09 -1.750721e+09 6.340889e+03 -5.870619e+03 4.726585e+03
-2.647525e+09 -2.447531e+09 -2.607534e+09 2.306858e+03 -8.434402e+03 2.909738e+03
-1.670589e+09 -1.470588e+09 -1.630588e+09 -7.136978e+02 -2.043063e+02 1.804393e+02
-3.014636e+09 -2.814636e+09 -2.974636e+09 1.679803e+03 -1.210367e+03 7.970517e+02
-2.157252e+09 -1.957252e+09 -2.117252e+09 -9.215786e+02 -1.033828e+02 7.762086e+01
-2.791286e+09 -2.591288e+09 -2.751287e+09 2.150823e+03 -2.605208e+03 1.468141e+03
-1.585440e+09 -1.385451e+09 -1.545442e+09 2.361775e+03 3.412315e+03 -3.427578e+02
-3.612484e+09 -3.412482e+09 -3.572483e+09 7.154567e+02 -8.167077e+02 6.860167e+02
-1.599063e+09 -1.399063e+09 -1.559062e+09 1.930410e+03 -1.364029e+03 5.419884e+02
-1.997554e+09 -1.797553e+09 -1.957553e+09 5.540103e+02 -4.844688e+02 1.798676e+02
-2.102863e+09 -1.902861e+09 -2.062862e+09 -9.537348e+02 -3.557325e+02 3.200645e+02
-2.001930e+09 -1.801940e+09 -1.961934e+09 -3.064993e+03 -4.305200e+03 -1.034353e+03
-3.611807e+09 -3.411807e+09 -3.571810e+09 -1.979974e+03 -2.241652e+03 -1.003325e+03
-2.946853e+09 -2.746856e+09 -2.906854e+09 -2.365483e+03 -2.181651e+03 -5.408319e+02
-3.260345e+09 -3.060345e+09 -3.220347e+09 1.802184e+03 -2.148337e+03 1.345877e+03
-2.921624e+09 -2.721622e+09 -2.881624e+09 -1.892571e+03 -1.742393e+03 -1.609108e+03
-3.604679e+09 -3.404682e+09 -3.564686e+09 -1.774239e+03 -4.538038e+03 -7.492971e+02
-2.427452e+09 -2.227452e+09 -2.387453e+09 2.402592e+03 -2.324394e+03 1.891632e+03
-3.160743e+09 -2.960747e+09 -3.120748e+09 -2.918931e+03 -4.001161e+03 -1.472683e+03
-1.859832e+09 -1.659855e+09 -1.819841e+09 -9.172592e+02 -1.330100e+04 -2.401164e+02
-3.488263e+09 -3.288262e+09 -3.448263e+09 -1.546282e+03 -1.407662e+03 -8.021059e+02
-3.153608e+09 -2.953608e+09 -3.113608e+09 1.394663e+03 -1.016645e+03 6.275695e+02
-2.724177e+09 -2.524177e+09 -2.684177e+09 1.565776e+03 -1.544872e+03 9.272310e+02
-3.228881e+09 -3.028880e+09 -3.188881e+09 1.664419e+03 -1.419059e+03 1.273357e+03
-3.269329e+09 -3.069324e+09 -3.229331e+09 2.145605e+03 -6.355080e+02 -1.743612e+03
-3.237698e+09 -3.037697e+09 -3.197699e+09 1.072035e+03 -1.182029e+03 8.461523e+02
-1.594410e+09 -1.394419e+09 -1.554413e+09 -4.173742e+03 -4.782480e+03 -1.320528e+03
-1.572646e+09 -1.372654e+09 -1.532651e+09 -8.027035e+03 -8.866249e+03 -4.320051e+03
-1.693580e+09 -1.493586e+09 -1.653580e+09 -8.298759e+03 -5.965440e+03 -3.875384e+03
-3.416852e+09 -3.216854e+09 -3.376858e+09 -2.649271e+03 -4.374538e+03 -1.539754e+03
-2.346785e+09 -2.146798e+09 -2.306789e+09 -5.470437e+03 6.482540e+03 2.034231e+03
-2.076225e+09 -1.876235e+09 -2.036232e+09 -9.689829e+03 1.416374e+04 5.052071e+03
-3.599648e+09 -3.399654e+09 -3.559650e+09 -1.108707e+03 6.175862e+02 7.066540e+01
-2.739835e+09 -2.539839e+09 -2.699841e+09 -5.966815e+03 5.896582e+03 3.520434e+03
-2.780536e+09 -2.580540e+09 -2.740536e+09 -1.882814e+03 5.594388e+02 1.516393e+02
-2.416095e+09 -2.216113e+09 -2.376109e+09 -4.341026e+03 1.454395e+04 2.265454e+03
-1.592348e+09 -1.392351e+09 -1.552348e+09 -1.327386e+03 3.428691e+02 -9.879202e+01
-1.674065e+09 -1.474070e+09 -1.634065e+09 -8.467365e+02 2.931686e+02 -1.029650e+02
-2.769624e+09 -2.569625e+09 -2.729623e+09 -1.543320e+03 2.467181e+02 8.880301e+01
-3.602362e+09 -3.402365e+09 -3.562364e+09 -5.743708e+02 -3.346467e+01 -1.448622e+02
-2.611110e+09 -2.411106e+09 -2.571109e+09 1.332934e+03 -1.736072e+03 1.803692e+03
-1.810886e+09 -1.610885e+09 -1.770884e+09 2.330080e+03 -2.001822e+03 1.623847e+03
-3.196196e+09 -2.996200e+09 -3.156197e+09 -1.870965e+03 7.672915e+02 1.473679e+02
-2.443882e+09 -2.243880e+09 -2.403881e+09 1.302205e+03 -1.277423e+03 1.001603e+03
-3.148424e+09 -2.948412e+09 -3.108426e+09 -1.026991e+03 2.082629e+03 5.095444e+03
-3.587882e+09 -3.387880e+09 -3.547881e+09 -1.719647e+02 1.245824e+02 4.942571e+01
-1.971324e+09 -1.771330e+09 -1.931326e+09 -1.854767e+03 1.359853e+03 1.641574e+02
-2.130969e+09 -1.930979e+09 -2.090972e+09 -1.820497e+03 2.739615e+03 5.309468e+02
-3.216909e+09 -3.016891e+09 -3.176904e+09 2.933160e+03 -7.889831e+03 -1.448335e+02
-2.029556e+09 -1.829528e+09 -1.989561e+09 -1.544475e+04 1.084665e+04 1.038703e+04
-3.592378e+09 -3.392376e+09 -3.552377e+09 -1.520304e+03 3.163223e+02 2.165868e+02
-1.570168e+09 -1.370170e+09 -1.530168e+09 -4.836848e+03 2.949747e+03 1.140151e+03
-2.926308e+09 -2.726297e+09 -2.886316e+09 -7.865976e+03 5.396140e+03 1.140488e+04
-2.544442e+09 -2.344451e+09 -2.504472e+09 -6.439090e+03 2.621553e+04 8.242178e+03
-2.587505e+09 -2.387502e+09 -2.547504e+09 -1.207579e+03 -5.463847e+02 8.637893e+02
-3.265869e+09 -3.065863e+09 -3.225895e+09 -3.118419e+03 1.363729e+04 2.931612e+03
-1.840467e+09 -1.640459e+09 -1.800471e+09 -1.558938e+04 9.262954e+03 1.753545e+04
-2.372884e+09 -2.172869e+09 -2.332911e+09 -9.873658e+03 1.719989e+04 1.041511e+04
-2.438153e+09 -2.238156e+09 -2.398153e+09 4.194346e+03 2.726190e+03 -1.077085e+03
-3.190573e+09 -2.990572e+09 -3.150572e+09 -3.338748e+02 -3.993049e+01 -1.496542e+01
-1.767107e+09 -1.567107e+09 -1.727107e+09 -7.787375e+02 -1.352804e+02 4.187882e+01
-2.458375e+09 -2.258386e+09 -2.418380e+09 7.597605e+02 3.353018e+03 -3.994651e+01
-1.916782e+09 -1.716790e+09 -1.876784e+09 4.249776e+03 4.140518e+03 -1.260102e+03
-2.989609e+09 -2.789618e+09 -2.949616e+09 3.330839e+03 4.088983e+03 -9.093849e+02
-2.663312e+09 -2.463311e+09 -2.623312e+09 -3.373013e+02 -8.143631e+01 8.177179e+01
-2.963071e+09 -2.763074e+09 -2.923073e+09 -9.383453e+02 6.243455e+01 -2.008246e+02
-1.585440e+09 -1.385447e+09 -1.545441e+09 3.032295e+03 1.907864e+03 -4.756191e+02
-3.504208e+09 -3.304208e+09 -3.464208e+09 -9.951580e+02 -4.699625e+01 3.370754e+01
-2.817429e+09 -2.617427e+09 -2.777428e+09 -5.374227e+02 -5.276554e+02 5.250682e+02
-2.664498e+09 -2.464496e+09 -2.624497e+09 -7.630568e+02 -3.454658e+02 3.146963e+02
-3.576968e+09 -3.376967e+09 -3.536968e+09 -8.317696e+02 -1.564858e+02 5.989633e+01
-2.726915e+09 -2.526891e+09 -2.686905e+09 1.125061e+04 1.782873e+04 -1.092160e+02
-3.407380e+09 -3.207369e+09 -3.367363e+09 2.994897e+03 9.513165e+03 9.511188e+03
-3.572480e+09 -3.372479e+09 -3.532494e+09 -2.324500e+02 -8.291055e+03 2.032341e+03
-3.591881e+09 -3.391869e+09 -3.551877e+09 -5.333087e+03 -1.224040e+03 -1.627206e+03
-1.934595e+09 -1.734604e+09 -1.894598e+09 3.105769e+03 -4.148613e+03 1.163323e+03
-3.112272e+09 -2.912273e+09 -3.072276e+09 2.530728e+03 -4.771685e+03 3.137370e+03
-1.978360e+09 -1.778366e+09 -1.938361e+09 3.399105e+03 2.658475e+03 -7.719689e+02
-1.561917e+09 -1.361947e+09 -1.521927e+09 5.153977e+03 -1.840291e+04 3.580405e+03
-3.614908e+09 -3.414902e+09 -3.574909e+09 -3.337274e+03 3.544164e+02 2.365072e+03
-2.206920e+09 -2.006925e+09 -2.166931e+09 2.270640e+03 -1.400344e+04 5.055808e+03
-1.801363e+09 -1.601364e+09 -1.761364e+09 9.738856e+02 5.307766e+01 -2.176048e+02
-3.421080e+09 -3.221081e+09 -3.381081e+09 1.081585e+03 2.599963e+01 -1.633283e+02
-3.504008e+09 -3.304003e+09 -3.464019e+09 -4.235921e+02 -6.064111e+03 5.012497e+03
-3.388241e+09 -3.188242e+09 -3.348241e+09 1.410060e+03 -8.642833e+01 -3.612254e+02
-2.986623e+09 -2.786622e+09 -2.946622e+09 1.540829e+03 -2.800062e+02 -4.155664e+02
-2.117996e+09 -1.917976e+09 -2.077981e+09 -7.598045e+03 2.665866e+03 -2.501047e+04
-1.875128e+09 -1.675127e+09 -1.835128e+09 9.788881e+02 1.129679e+02 -1.708232e+02
-1.600817e+09 -1.400818e+09 -1.560818e+09 7.392896e+02 9.282090e+01 -1.488743e+02
-2.783438e+09 -2.583436e+09 -2.743437e+09 5.856437e+02 -6.849922e+01 -1.884926e+02
-1.810387e+09 -1.610388e+09 -1.770388e+09 1.052532e+03 8.584719e+01 -5.415224e+01
-1.976813e+09 -1.776812e+09 -1.936813e+09 5.396099e+02 6.407126e+01 -4.778064e+01
-3.607141e+09 -3.407141e+09 -3.567141e+09 7.760103e+02 1.443389e+01 -2.879682e+01
-3.297979e+09 -3.097947e+09 -3.257916e+09 -4.197316e+03 2.812690e+04 -1.228918e+04
-2.599095e+09 -2.399043e+09 -2.559073e+09 -1.236681e+04 1.916438e+04 -2.057948e+04
-1.600818e+09 -1.400818e+09 -1.560818e+09 8.212833e+02 7.851270e+01 -1.299233e+02
-1.968456e+09 -1.768458e+09 -1.928455e+09 -1.338071e+03 1.649487e+02 2.237340e+01
-2.124936e+09 -1.924845e+09 -2.084692e+09 6.964878e+03 -9.872992e+04 2.489023e+04
-3.633443e+09 -3.433442e+09 -3.593442e+09 -2.578622e+02 -2.663395e+01 -2.051954e+01
-3.591819e+09 -3.391819e+09 -3.551818e+09 -8.410266e+02 3.856012e+01 -7.872105e+00
-3.608777e+09 -3.408775e+09 -3.568775e+09 -5.650198e+02 1.667365e+02 6.729811e+01
-2.856799e+09 -2.656797e+09 -2.816798e+09 3.508219e+00 9.453599e+01 -9.663090e+01
-3.395871e+09 -3.195858e+09 -3.355792e+09 -7.802206e+03 -1.769823e+04 1.439865e+03
-2.838993e+09 -2.638992e+09 -2.798991e+09 -7.997102e+02 1.606809e+02 4.105459e+00
-3.350910e+09 -3.150881e+09 -3.310815e+09 -1.522617e+03 1.118001e+04 -6.424241e+03
-2.787220e+09 -2.587229e+09 -2.747230e+09 -3.151146e+03 9.575979e+03 2.858019e+03
-2.033000e+09 -1.832912e+09 -1.992768e+09 -2.264958e+04 6.255826e+04 -9.642653e+04
-2.264237e+09 -2.064235e+09 -2.224235e+09 2.852804e+03 1.058057e+03 -7.968440e+02
-3.224284e+09 -3.024284e+09 -3.184297e+09 5.621446e+03 8.339069e+03 -4.988295e+03
-1.568458e+09 -1.368462e+09 -1.528455e+09 -1.160613e+04 8.382385e+03 4.448837e+03
-1.562210e+09 -1.362222e+09 -1.522214e+09 -5.457595e+03 6.896314e+03 1.849007e+03
-2.504155e+09 -2.304111e+09 -2.464038e+09 2.492619e+04 3.905488e+04 2.400088e+04
-2.124244e+09 -1.924164e+09 -2.084082e+09 -4.231768e+03 -7.924014e+04 -2.184566e+04
-1.969319e+09 -1.769315e+09 -1.929320e+09 1.050104e+03 3.688874e+02 -1.532140e+03
-1.583456e+09 -1.383454e+09 -1.543451e+09 1.975185e+04 1.634664e+04 -1.183838e+04
-1.930119e+09 -1.730018e+09 -1.889984e+09 -1.057689e+04 4.886518e+04 -3.338369e+04
-1.758745e+09 -1.558749e+09 -1.718745e+09 2.614619e+03 8.124556e+02 -1.129814e+02
-2.193791e+09 -1.993797e+09 -2.153793e+09 2.818864e+03 1.404080e+03 -3.740727e+02
-3.605100e+09 -3.405085e+09 -3.565075e+09 -1.341152e+03 8.710736e+03 -5.773070e+03
-2.043210e+09 -1.843213e+09 -2.003210e+09 2.731740e+03 9.135434e+02 -4.317852e+02
-3.613266e+09 -3.413249e+09 -3.573226e+09 4.301126e+03 1.208714e+04 4.003177e+03
-2.171429e+09 -1.971407e+09 -2.131420e+09 -5.669262e+03 5.827021e+03 -2.497167e+04
-2.335517e+09 -2.135521e+09 -2.295517e+09 3.803290e+03 2.006377e+03 -1.021818e+03
-3.605109e+09 -3.405092e+09 -3.565082e+09 -6.060139e+03 5.506394e+03 -9.065464e+03
-3.291936e+09 -3.091937e+09 -3.251935e+09 2.166136e+03 4.985947e+02 -1.569625e+02
-2.558909e+09 -2.358911e+09 -2.518913e+09 5.257519e+03 5.295030e+03 -3.295332e+03
-2.546626e+09 -2.346611e+09 -2.506618e+09 2.926688e+03 -4.855384e+03 3.115590e+02
-2.972395e+09 -2.772398e+09 -2.932418e+09 -8.285683e+03 1.491196e+04 7.646458e+03
-2.677558e+09 -2.477529e+09 -2.637538e+09 8.932581e+02 -3.347339e+03 7.117142e+03
-1.694262e+09 -1.494264e+09 -1.654263e+09 -1.108569e+03 -1.239813e+02 -1.569447e+02
-1.702043e+09 -1.502056e+09 -1.662051e+09 1.398769e+04 -1.225837e+04 8.950068e+03
-2.752799e+09 -2.552806e+09 -2.712802e+09 3.504906e+03 3.647154e+03 -8.810978e+02
-3.572482e+09 -3.372479e+09 -3.532494e+09 -4.622013e+02 -8.176338e+03 1.788437e+03
-3.083986e+09 -2.883987e+09 -3.043990e+09 5.526450e+03 5.702148e+03 -2.859829e+03
-2.138341e+09 -1.938336e+09 -2.098338e+09 2.941826e+03 -2.883138e+03 4.113979e+03
-2.046384e+09 -1.846375e+09 -2.006383e+09 -3.217370e+03 9.366826e+02 1.863076e+03
-3.614907e+09 -3.414903e+09 -3.574910e+09 -3.887267e+03 -5.746965e+02 8.214383e+02
-2.770973e+09 -2.570968e+09 -2.730973e+09 5.199422e+03 3.802817e+03 -4.127154e+03
-3.425745e+09 -3.225750e+09 -3.385749e+09 2.511824e+03 2.367472e+03 -7.033016e+02
-2.675442e+09 -2.475446e+09 -2.635444e+09 4.165272e+03 2.818086e+03 -1.065262e+03
-2.041569e+09 -1.841570e+09 -2.001569e+09 4.557648e+03 2.230482e+03 -1.482859e+03
-3.163370e+09 -2.963367e+09 -3.123369e+09 2.676815e+03 1.552458e+03 -1.088431e+03
-2.858263e+09 -2.658261e+09 -2.818262e+09 2.762539e+03 1.442598e+03 -9.980373e+02
-2.890998e+09 -2.690996e+09 -2.850987e+09 -5.123729e+03 6.112977e+03 -8.422028e+03
-1.579047e+09 -1.378893e+09 -1.538895e+09 -7.543304e+03 -1.272508e+05 -2.994450e+04
-3.413831e+09 -3.213830e+09 -3.373831e+09 3.408439e+03 2.055216e+03 -1.196659e+03
-1.577516e+09 -1.377471e+09 -1.537529e+09 -4.225512e+04 2.459291e+04 2.214210e+04
-3.580879e+09 -3.380864e+09 -3.540906e+09 1.349050e+03 8.863900e+03 -3.089879e+03
-3.541420e+09 -3.341409e+09 -3.501346e+09 -4.025607e+03 -9.436876e+03 -4.233980e+03
-1.667784e+09 -1.467764e+09 -1.627776e+09 -1.422815e+04 9.473141e+03 1.571357e+04
-1.568460e+09 -1.368451e+09 -1.528461e+09 -1.104235e+04 8.387309e+03 8.650719e+03
-2.114996e+09 -1.915002e+09 -2.074991e+09 -4.635912e+02 5.899359e+02 -1.251251e+04
-3.610673e+09 -3.410677e+09 -3.570675e+09 -6.569486e+01 6.006191e+01 -1.027440e+03
-1.815621e+09 -1.615624e+09 -1.775624e+09 -4.877628e+02 4.165955e+01 -4.403154e+02
-2.613427e+09 -2.413431e+09 -2.573430e+09 1.787841e+02 7.070662e+01 -5.140540e+02
-3.184584e+09 -2.984587e+09 -3.144586e+09 4.729971e+02 -7.408875e+01 -7.762670e+02
-2.425717e+09 -2.225718e+09 -2.385718e+09 1.390340e+03 -5.903964e+01 -6.237446e+02
-3.606974e+09 -3.406978e+09 -3.566977e+09 -4.705464e+02 -5.004502e+01 -2.117312e+02
-3.509638e+09 -3.309642e+09 -3.469639e+09 -1.150743e+03 -1.244837e+02 -1.290999e+03
-3.259869e+09 -3.059872e+09 -3.219871e+09 -9.081639e+02 1.262317e+01 -3.424026e+02
-3.485939e+09 -3.285938e+09 -3.445939e+09 2.612143e+03 1.281164e+03 -6.809750e+02
-3.480710e+09 -3.280707e+09 -3.440709e+09 2.408253e+03 1.042627e+03 -8.499143e+02
-3.586783e+09 -3.386782e+09 -3.546784e+09 3.003929e+03 1.515763e+03 -8.750948e+02
-2.952462e+09 -2.752464e+09 -2.912463e+09 -1.736144e+03 5.920988e+01 -2.427852e+02
-1.781718e+09 -1.581718e+09 -1.741718e+09 3.200101e+02 4.573390e+01 -2.656427e+01
-1.598137e+09 -1.398137e+09 -1.558137e+09 3.067491e+02 6.508678e+01 -2.298560e+01
-1.762057e+09 -1.562057e+09 -1.722057e+09 4.330226e+02 3.999244e+01 -3.371272e+01
-2.769754e+09 -2.569753e+09 -2.729754e+09 4.596835e+02 1.638290e+01 -4.846538e+01
-2.177686e+09 -1.977682e+09 -2.137684e+09 2.064584e+03 1.938983e+03 -1.493971e+03
-2.574346e+09 -2.374346e+09 -2.534345e+09 3.577407e+03 1.623620e+03 -9.281342e+02
-3.280278e+09 -3.080282e+09 -3.240288e+09 1.891466e+03 -8.072296e+03 3.034486e+03
-2.273182e+09 -2.073183e+09 -2.233200e+09 8.284880e+02 -1.817038e+04 1.019401e+04
-3.029463e+09 -2.829458e+09 -2.989466e+09 3.360548e+03 -4.000415e+03 5.268711e+03
-2.095599e+09 -1.895591e+09 -2.055603e+09 3.850544e+03 -8.378707e+03 8.932219e+03
-3.061715e+09 -2.861720e+09 -3.021726e+09 2.446554e+03 -8.239266e+03 3.211028e+03
-1.916735e+09 -1.716733e+09 -1.876734e+09 9.551715e+03 -7.593761e+03 7.964706e+03
-3.229733e+09 -3.029735e+09 -3.189741e+09 1.571760e+03 -7.116173e+03 4.015756e+03
-2.402938e+09 -2.202936e+09 -2.362937e+09 -1.282904e+02 -4.393594e+02 3.431645e+02
-2.757268e+09 -2.557266e+09 -2.717267e+09 2.045136e+02 -4.719556e+02 2.296928e+02
-3.428625e+09 -3.228623e+09 -3.388624e+09 3.168741e+01 -3.854827e+02 3.764353e+02
-1.803120e+09 -1.603119e+09 -1.763119e+09 1.512443e+02 -3.790779e+02 1.359170e+02
-1.791845e+09 -1.591843e+09 -1.751844e+09 2.801324e+03 -1.943606e+03 1.432951e+03
-3.281542e+09 -3.081542e+09 -3.241541e+09 -3.463208e+02 2.403216e+00 -6.583039e+01
-1.605229e+09 -1.405232e+09 -1.565232e+09 -6.075137e+02 -3.144355e+01 -2.546172e+02
-2.389053e+09 -2.189050e+09 -2.349052e+09 2.639001e+03 -2.569843e+03 2.739955e+03
-1.777471e+09 -1.577473e+09 -1.737470e+09 4.554814e+03 -3.671448e+03 3.033170e+03
-3.174608e+09 -2.974606e+09 -3.134607e+09 -1.363277e+03 3.526884e+02 1.798184e+02
-1.896251e+09 -1.696251e+09 -1.856250e+09 -2.131362e+02 3.995776e+00 -1.011600e+02
-2.283237e+09 -2.083236e+09 -2.243235e+09 2.537822e+02 -2.582124e+02 4.433105e+01
-2.834843e+09 -2.634841e+09 -2.794842e+09 -1.102706e+02 -4.147928e+02 3.730823e+02
-2.970187e+09 -2.770186e+09 -2.930186e+09 1.439983e+02 3.681459e+01 -4.317643e+01
-1.955889e+09 -1.755887e+09 -1.915888e+09 3.383735e+02 -6.392935e+02 4.850199e+02
-2.601531e+09 -2.401530e+09 -2.561530e+09 -5.512882e+01 -2.843112e+02 2.724152e+01
-3.171367e+09 -2.971365e+09 -3.131366e+09 2.726094e+02 -5.096166e+02 4.896418e+02
-2.173074e+09 -1.973071e+09 -2.133072e+09 2.933653e+02 -6.332240e+02 6.598574e+02
-2.176542e+09 -1.976541e+09 -2.136541e+09 1.300733e+02 1.352000e+01 -4.020797e+01
-1.795405e+09 -1.595403e+09 -1.755404e+09 -1.306289e+02 -3.938524e+02 2.642911e+02
-2.794355e+09 -2.594356e+09 -2.754356e+09 6.159642e+02 3.620107e+01 -5.013792e+01
-2.776921e+09 -2.576922e+09 -2.736922e+09 8.080338e+02 2.076061e+01 -1.075592e+02
-2.355098e+09 -2.155099e+09 -2.315099e+09 5.687705e+02 6.982474e+01 2.148756e+01
-1.696866e+09 -1.496865e+09 -1.656865e+09 1.445930e+02 3.709984e+01 -3.948283e+01
-2.906981e+09 -2.706982e+09 -2.866982e+09 4.728229e+02 1.177314e+01 -3.154607e+01
-3.210235e+09 -3.010236e+09 -3.170236e+09 6.290086e+02 4.056312e+01 -9.966648e+00
-1.887755e+09 -1.687762e+09 -1.847756e+09 -2.544577e+02 4.784225e+02 -5.455497e+01
-3.305483e+09 -3.105482e+09 -3.265483e+09 3.094158e+02 9.412940e+00 -4.232290e+01
-1.832340e+09 -1.632337e+09 -1.792338e+09 1.428826e+03 -1.204341e+03 9.380984e+02
-2.143939e+09 -1.943940e+09 -2.103938e+09 2.774261e+03 -2.152661e+03 1.318143e+03
-2.838870e+09 -2.638869e+09 -2.798870e+09 1.670181e+03 -1.781938e+03 1.448661e+03
-3.114187e+09 -2.914186e+09 -3.074186e+09 1.303009e+03 -8.967174e+02 6.339445e+02
-1.565091e+09 -1.365090e+09 -1.525090e+09 3.533841e+02 4.706212e+01 -4.333807e+01
-2.907824e+09 -2.707826e+09 -2.867825e+09 1.842343e+03 -1.432140e+03 6.244248e+02
-3.437460e+09 -3.237459e+09 -3.397460e+09 1.042760e+03 -9.278069e+02 8.097212e+02
-1.772656e+09 -1.572655e+09 -1.732655e+09 -1.695036e+02 5.571133e+01 -6.974831e+01
-1.778978e+09 -1.578977e+09 -1.738977e+09 1.751118e+02 3.946623e+01 -7.374346e+01
-2.195239e+09 -1.995239e+09 -2.155239e+09 2.764790e+01 4.589635e+01 -6.886615e+01
-3.393904e+09 -3.193906e+09 -3.353906e+09 1.095114e+03 5.439120e+01 -2.879965e+02
-2.569777e+09 -2.369776e+09 -2.529776e+09 1.659519e+02 7.369385e+01 -5.630129e+01
-1.684264e+09 -1.484263e+09 -1.644263e+09 1.223410e+02 3.534730e+01 -3.030831e+01
-2.589960e+09 -2.389959e+09 -2.549959e+09 -2.889821e+02 6.172047e+01 -4.716863e+01
-1.760794e+09 -1.560793e+09 -1.720793e+09 -4.684820e+01 6.332390e+01 -1.036069e+02
-2.054499e+09 -1.854501e+09 -2.014501e+09 -5.762259e+02 -2.679529e+01 7.568471e+01
-3.216501e+09 -3.016503e+09 -3.176503e+09 -3.157558e+02 -2.771408e+01 -7.057565e+01
-1.995104e+09 -1.795103e+09 -1.955103e+09 1.752190e+02 1.934492e+01 -3.029664e+01
-1.574710e+09 -1.374713e+09 -1.534714e+09 3.145400e+03 -9.575365e+02 -3.311929e+03
-3.245687e+09 -3.045689e+09 -3.205688e+09 -6.990354e+01 5.731281e+00 -5.823303e+01
-1.674438e+09 -1.474440e+09 -1.634441e+09 -2.348634e+03 6.408838e+02 -9.057736e+02
-3.312276e+09 -3.112278e+09 -3.272278e+09 1.243785e+02 1.910347e+01 -1.671304e+01
-3.250191e+09 -3.050193e+09 -3.210190e+09 1.816911e+03 -3.853299e+02 -2.323763e+03
-3.603044e+09 -3.403046e+09 -3.563045e+09 1.490102e+03 -1.520307e+02 -7.208492e+02
-2.133889e+09 -1.933891e+09 -2.093890e+09 -2.625104e+02 5.010766e+00 9.146110e+01
-3.595683e+09 -3.395686e+09 -3.555683e+09 1.674344e+03 -5.358094e+02 -1.973104e+03
-2.755771e+09 -2.555776e+09 -2.715766e+09 -2.203300e+03 1.676670e+03 -9.016316e+03
-3.375360e+09 -3.175362e+09 -3.335361e+09 -3.107110e+02 -2.911051e+01 3.063557e+01
-3.420732e+09 -3.220734e+09 -3.380734e+09 -1.220298e+02 1.067294e+01 -2.190832e+02
-1.587872e+09 -1.387877e+09 -1.547877e+09 4.403419e+03 -2.076659e+03 -6.072410e+03
-2.602622e+09 -2.402626e+09 -2.562625e+09 -1.628565e+03 4.950898e+02 -1.760553e+03
-1.747683e+09 -1.547685e+09 -1.707684e+09 -3.038606e+02 -2.799130e+00 -2.512625e+01
-1.770981e+09 -1.570979e+09 -1.730980e+09 -4.140248e+02 -2.070065e+02 1.256287e+02
-1.596719e+09 -1.396722e+09 -1.556722e+09 2.198999e+03 -5.100406e+02 -1.655976e+03
-2.786628e+09 -2.586627e+09 -2.746627e+09 7.726306e+02 -9.745658e+02 8.393479e+02
-2.622786e+09 -2.422789e+09 -2.582789e+09 -2.680188e+01 2.038085e+01 -9.023609e+01
-3.331641e+09 -3.131641e+09 -3.291641e+09 6.273108e+02 -7.759864e+02 3.300352e+02
-3.209008e+09 -3.009006e+09 -3.169007e+09 -2.705464e+02 -2.684736e+02 1.786500e+02
-1.561492e+09 -1.361492e+09 -1.521491e+09 -1.203908e+03 2.162217e+02 -3.584724e+01
-1.774655e+09 -1.574661e+09 -1.734656e+09 -1.579313e+03 7.978452e+02 1.288043e+02
-3.370979e+09 -3.170978e+09 -3.330979e+09 1.651660e+02 -6.904441e+02 3.958041e+02
-2.260367e+09 -2.060365e+09 -2.220366e+09 -2.573636e+01 -3.026218e+02 2.746733e+01
-2.636904e+09 -2.436906e+09 -2.596907e+09 -3.989892e+03 -6.668277e+02 2.845584e+03
-1.889139e+09 -1.689133e+09 -1.849138e+09 -2.857794e+03 -1.488828e+03 -8.394584e+02
-1.591888e+09 -1.391893e+09 -1.551889e+09 -2.484636e+03 1.023696e+03 2.139888e+02
-3.199374e+09 -2.999380e+09 -3.159375e+09 -1.263211e+03 6.684004e+02 1.451742e+01
-2.496503e+09 -2.296509e+09 -2.456506e+09 -7.777769e+03 -4.699250e+03 9.117192e+03
-1.677698e+09 -1.477702e+09 -1.637705e+09 -4.484100e+03 -2.267009e+03 3.446231e+03
-2.361594e+09 -2.161600e+09 -2.321595e+09 -1.681186e+03 8.762626e+02 1.319598e+02
-1.695441e+09 -1.495443e+09 -1.655440e+09 3.212834e+03 1.063753e+03 -4.679447e+02
-1.575528e+09 -1.375544e+09 -1.535535e+09 1.712036e+04 2.014197e+04 -9.015403e+03
-1.588649e+09 -1.388708e+09 -1.548691e+09 1.388034e+04 5.518386e+04 -1.418496e+04
-2.601837e+09 -2.401840e+09 -2.561840e+09 -5.668980e+03 -1.594642e+03 3.317663e+03
-3.324532e+09 -3.124535e+09 -3.284533e+09 -4.759156e+03 -1.211306e+03 3.559003e+03
-2.490462e+09 -2.290455e+09 -2.450463e+09 -5.705910e+03 -1.925649e+03 3.516338e+01
-2.086915e+09 -1.886908e+09 -2.046911e+09 3.887554e+03 1.760404e+03 -2.895740e+03
-1.799193e+09 -1.599197e+09 -1.759196e+09 1.144255e+04 1.191044e+04 -7.661995e+03
-2.095238e+09 -1.895232e+09 -2.055242e+09 -5.363758e+03 -2.273621e+03 1.622209e+02
-2.405383e+09 -2.205372e+09 -2.365380e+09 -3.977701e+03 -1.746216e+03 -7.577338e+02
-2.446491e+09 -2.246482e+09 -2.406486e+09 -9.283746e+03 -1.024816e+04 5.229122e+03
-3.411398e+09 -3.211395e+09 -3.371397e+09 -6.570849e+02 -5.185380e+02 8.231105e+02
-1.660901e+09 -1.460889e+09 -1.620895e+09 1.598661e+04 7.605354e+03 -1.255925e+04
-3.638167e+09 -3.438154e+09 -3.598175e+09 1.784423e+03 4.775496e+03 -5.712452e+03
-2.406959e+09 -2.206956e+09 -2.366958e+09 8.321911e+02 -1.607518e+03 1.954027e+03
-3.331021e+09 -3.131018e+09 -3.291022e+09 -2.791760e+02 -1.597478e+03 1.932667e+03
-1.583465e+09 -1.383429e+09 -1.543449e+09 1.534701e+04 1.021113e+04 -1.727714e+04
-3.409493e+09 -3.209487e+09 -3.369494e+09 8.682193e+02 -1.710367e+03 2.962218e+03
-3.040427e+09 -2.840424e+09 -3.000427e+09 -5.358824e+02 -7.129621e+02 8.545974e+02
-1.979088e+09 -1.779086e+09 -1.939087e+09 6.259234e+02 -8.110794e+02 8.178296e+02
-2.847688e+09 -2.647686e+09 -2.807688e+09 1.055752e+03 -1.513494e+03 1.023001e+03
-2.364353e+09 -2.164352e+09 -2.324353e+09 3.347659e+02 1.091938e+02 -3.602712e+01
-2.599908e+09 -2.399915e+09 -2.559909e+09 -3.143381e+02 5.575019e+02 1.846744e+01
-1.575134e+09 -1.375133e+09 -1.535133e+09 -1.433133e+02 1.742103e+02 -1.014517e+02
-1.575133e+09 -1.375132e+09 -1.535132e+09 9.137689e+01 1.261946e+02 -1.402984e+02
-3.062469e+09 -2.862468e+09 -3.022468e+09 4.784867e+02 9.697662e+01 -6.311359e+01
-3.195742e+09 -2.995741e+09 -3.155742e+09 4.311098e+02 7.269262e+01 -6.950986e+01
-2.720759e+09 -2.520765e+09 -2.680761e+09 -2.431068e+03 1.501068e+03 5.617290e+02
-1.574076e+09 -1.374075e+09 -1.534075e+09 3.400899e+01 1.246730e+02 -7.919650e+01
-1.802199e+09 -1.602208e+09 -1.762182e+09 1.644391e+02 -3.456011e+04 4.279783e+04
-3.585679e+09 -3.385660e+09 -3.545690e+09 -2.107052e+03 5.236203e+02 -4.461108e+03
-3.000175e+09 -2.800187e+09 -2.960178e+09 -7.430471e+02 -3.867983e+02 5.576437e+03
-3.190554e+09 -2.990556e+09 -3.150554e+09 -1.453720e+03 2.940387e+02 -3.685435e+01
-2.603512e+09 -2.403515e+09 -2.563512e+09 -1.548404e+03 3.828273e+02 -2.429781e+01
-1.975705e+09 -1.775710e+09 -1.935705e+09 -1.390088e+03 5.389175e+02 8.230770e+01
-1.711278e+09 -1.511284e+09 -1.671252e+09 2.677121e+04 1.755892e+04 7.122158e+04
-2.224343e+09 -2.024283e+09 -2.184048e+09 1.088296e+04 2.361005e+04 2.615767e+04
-2.384246e+09 -2.184251e+09 -2.344247e+09 -1.398858e+03 5.911792e+02 -2.718567e+01
-1.562192e+09 -1.362110e+09 -1.522187e+09 -1.226636e+04 -3.969172e+04 5.442172e+03
-2.543892e+09 -2.343891e+09 -2.503848e+09 -4.080881e+03 -1.015484e+03 -3.510170e+04
-1.561119e+09 -1.361176e+09 -1.521164e+09 -1.390953e+04 4.973752e+04 6.036931e+03
-2.267282e+09 -2.067285e+09 -2.227285e+09 -1.242235e+03 -1.710741e+01 -6.612367e+01
-1.605230e+09 -1.405232e+09 -1.565231e+09 -1.310231e+03 1.976317e+02 -4.500321e+02
-3.227018e+09 -3.027024e+09 -3.187023e+09 -2.578317e+03 -3.290427e+03 -9.869831e+02
-2.699832e+09 -2.499802e+09 -2.659748e+09 1.760912e+03 -2.992506e+04 -3.128163e+04
-1.868767e+09 -1.668764e+09 -1.828766e+09 3.161333e+02 1.353128e+02 -1.291654e+02
-2.235366e+09 -2.035373e+09 -2.195368e+09 -3.424221e+03 -4.178319e+03 -1.613381e+03
-2.132110e+09 -1.932118e+09 -2.092113e+09 -3.610489e+03 -4.356511e+03 -1.449644e+03
-1.641964e+09 -1.441966e+09 -1.601966e+09 -7.765358e+02 -1.318381e+02 1.777648e+01
-3.594682e+09 -3.394680e+09 -3.554680e+09 1.715956e+02 8.420984e+01 4.171130e+01
-3.587883e+09 -3.387880e+09 -3.547881e+09 -5.014032e+02 1.559469e+02 1.562922e+02
-3.603215e+09 -3.403216e+09 -3.563220e+09 -2.169967e+03 -3.619825e+03 -1.148535e+03
-1.981148e+09 -1.781146e+09 -1.941147e+09 2.067505e+02 8.173819e+01 -5.679481e+01
-3.383525e+09 -3.183523e+09 -3.343524e+09 3.156647e+02 1.577087e+00 -1.295214e+02
-2.737607e+09 -2.537616e+09 -2.697614e+09 -2.264022e+03 -5.920663e+03 -1.108683e+03
-1.575531e+09 -1.375563e+09 -1.535538e+09 1.387555e+04 2.236836e+04 -6.710312e+03
-3.417726e+09 -3.217731e+09 -3.377735e+09 -2.128430e+03 -5.304335e+03 -8.230969e+02
-3.380618e+09 -3.180621e+09 -3.340625e+09 -2.586168e+03 -5.768369e+03 -1.580457e+03
-2.384547e+09 -2.184559e+09 -2.344553e+09 -1.525189e+03 5.119269e+03 4.630989e+02
-1.562213e+09 -1.362219e+09 -1.522213e+09 -8.409101e+03 6.050250e+03 3.590425e+03
-3.422944e+09 -3.222937e+09 -3.382938e+09 -4.810608e+03 -2.813356e+03 1.534607e+03
-2.580655e+09 -2.380658e+09 -2.540551e+09 -4.584939e+03 -1.744744e+04 5.625512e+04
-3.180041e+09 -2.980009e+09 -3.140023e+09 -5.099400e+03 -1.812895e+04 -1.380871e+03
-3.155761e+09 -2.955759e+09 -3.115737e+09 -1.063086e+04 -1.276898e+04 1.201174e+04
-2.739804e+09 -2.539804e+09 -2.699767e+09 6.250678e+03 3.192666e+03 3.813610e+04
-3.594254e+09 -3.394259e+09 -3.554260e+09 -2.275880e+03 3.703828e+03 8.838755e+02
-2.636729e+09 -2.436705e+09 -2.596728e+09 3.270073e+03 2.528802e+03 -1.123191e+04
-1.568451e+09 -1.368452e+09 -1.528448e+09 -7.939087e+03 4.498827e+03 1.911885e+03
-3.578167e+09 -3.378174e+09 -3.538178e+09 -1.670926e+03 6.356817e+03 1.005232e+03
-2.358099e+09 -2.158063e+09 -2.318097e+09 4.702845e+03 1.048051e+03 -1.898879e+04
-3.376255e+09 -3.176241e+09 -3.336258e+09 -2.301578e+02 3.996236e+03 -6.864610e+03
-3.020221e+09 -2.820221e+09 -2.980228e+09 -3.720746e+03 -5.965034e+03 -2.946353e+03
-3.047840e+09 -2.847845e+09 -3.007849e+09 -3.581488e+03 -6.893647e+03 -1.871601e+03
-2.516469e+09 -2.316470e+09 -2.476472e+09 -3.608318e+03 -4.227337e+03 -1.699434e+03
-1.671271e+09 -1.471273e+09 -1.631272e+09 5.169186e+01 4.084630e+00 1.963525e+01
-2.578451e+09 -2.378456e+09 -2.538457e+09 -3.333400e+03 -5.451316e+03 -1.525503e+03
-3.575411e+09 -3.375412e+09 -3.535412e+09 6.809260e+02 1.047982e+01 -6.004937e+01
-3.577507e+09 -3.377510e+09 -3.537509e+09 -3.567292e+02 -1.563141e+01 1.814763e+01
-3.409974e+09 -3.209975e+09 -3.369975e+09 6.622680e+02 2.111743e+01 -3.489956e+01
-3.118725e+09 -2.918726e+09 -3.078738e+09 -3.533271e+03 -1.091529e+04 -2.180487e+03
-2.487286e+09 -2.287290e+09 -2.447289e+09 1.390825e+03 -1.724301e+02 -1.809218e+03
-3.573224e+09 -3.373226e+09 -3.533234e+09 -5.258222e+01 -6.834229e+03 1.313372e+03
-3.506535e+09 -3.306532e+09 -3.466552e+09 -1.273146e+03 -1.106970e+04 8.805190e+02
-3.123784e+09 -2.923787e+09 -3.083786e+09 5.974900e+02 -5.423928e+01 -5.743449e+02
-1.584688e+09 -1.384691e+09 -1.544687e+09 4.482386e+03 -3.516668e+03 2.449227e+03
-1.689734e+09 -1.489764e+09 -1.649753e+09 8.235734e+03 -2.185070e+04 5.820174e+03
-3.606183e+09 -3.406164e+09 -3.566186e+09 -4.710293e+03 -2.014346e+03 5.322980e+01
-2.559966e+09 -2.359969e+09 -2.519968e+09 5.861901e+02 1.295066e+01 -4.970303e+02
-2.471393e+09 -2.271374e+09 -2.431414e+09 -4.530263e+03 -5.840547e+03 3.010739e+03
-1.863227e+09 -1.663242e+09 -1.823246e+09 5.358937e+03 -1.794189e+04 4.832322e+03
-2.030341e+09 -1.830345e+09 -1.990344e+09 -1.085713e+02 8.013037e+01 -9.928903e+02
-3.142462e+09 -2.942462e+09 -3.102462e+09 3.648216e+02 3.837997e+01 -1.500897e+02
-1.789518e+09 -1.589518e+09 -1.749518e+09 3.942889e+02 3.192605e+01 -4.254071e+01
-2.498544e+09 -2.298543e+09 -2.458543e+09 4.274360e+02 4.384919e+01 -3.016333e+01
-2.750946e+09 -2.550945e+09 -2.710946e+09 3.264267e+02 4.887873e+01 -2.733227e+00
-2.538541e+09 -2.338540e+09 -2.498541e+09 3.682202e+02 4.993633e+01 -4.238396e+01
-2.260369e+09 -2.060368e+09 -2.220368e+09 -2.812026e+02 -9.612591e+01 8.484955e+00
-3.402847e+09 -3.202846e+09 -3.362847e+09 -5.891103e+02 -9.441014e+01 8.677975e+00
-3.205340e+09 -3.005338e+09 -3.165339e+09 -4.584009e+02 -2.582371e+02 9.885931e+01
-2.510478e+09 -2.310477e+09 -2.470477e+09 2.071567e+02 3.274744e+01 -1.828329e+01
-1.959784e+09 -1.759783e+09 -1.919783e+09 -2.150304e+02 -1.246752e+02 -5.415525e+01
-3.120462e+09 -2.920461e+09 -3.080461e+09 2.430424e+02 4.095983e+01 -3.444590e+01
-3.593781e+09 -3.393780e+09 -3.553780e+09 3.362557e+02 1.560544e+01 -3.199728e+01
-3.400769e+09 -3.200768e+09 -3.360768e+09 2.994663e+02 3.120674e+01 1.118955e+00
-2.147431e+09 -1.947440e+09 -2.107447e+09 3.326877e+03 -1.700570e+04 5.300935e+03
-2.552128e+09 -2.352131e+09 -2.512130e+09 6.223867e+02 1.598915e+01 -3.874850e+02
-3.578612e+09 -3.378615e+09 -3.538623e+09 -5.163140e+02 -7.069036e+03 3.822048e+02
-2.594127e+09 -2.394108e+09 -2.554127e+09 5.584607e+03 4.284372e+03 -2.296853e+03
-3.410033e+09 -3.210032e+09 -3.370033e+09 3.131955e+02 3.046845e+01 -1.481490e+01
-1.580052e+09 -1.380045e+09 -1.540047e+09 1.537215e+04 -5.789201e+03 1.194316e+04
-1.951120e+09 -1.751120e+09 -1.911121e+09 -1.671057e+03 6.909970e+01 1.997310e+02
-3.290763e+09 -3.090765e+09 -3.250763e+09 -2.945931e+03 9.962332e+02 -1.780237e+03
-3.273448e+09 -3.073433e+09 -3.233445e+09 -1.095146e+03 -1.602849e+02 6.088386e+03
-3.514003e+09 -3.313999e+09 -3.474004e+09 -2.644327e+03 1.884391e+02 1.774243e+03
-2.782490e+09 -2.582500e+09 -2.742498e+09 1.043292e+03 -6.498627e+03 1.190930e+03
-2.673949e+09 -2.473946e+09 -2.633944e+09 3.922574e+03 -2.969874e+03 -3.305880e+03
-2.679969e+09 -2.479973e+09 -2.639975e+09 3.594341e+03 -8.251793e+03 3.545324e+03
-1.905618e+09 -1.705626e+09 -1.865611e+09 2.129993e+03 -1.593974e+03 -1.703642e+04
-2.552757e+09 -2.352764e+09 -2.512759e+09 3.102118e+03 -4.037442e+03 1.539444e+03
-3.133655e+09 -2.933659e+09 -3.093651e+09 -1.320476e+03 1.021588e+03 -6.471491e+03
-2.574247e+09 -2.374227e+09 -2.534236e+09 2.213974e+03 -7.313749e+03 1.479803e+03
-1.958067e+09 -1.758066e+09 -1.918066e+09 -5.611410e+02 -1.960421e+02 5.628129e+01
-3.590647e+09 -3.390645e+09 -3.550646e+09 -7.140254e+02 -1.958091e+02 1.156973e+02
-3.478389e+09 -3.278389e+09 -3.438389e+09 -4.713963e+02 -2.103405e+01 1.050367e+01
-3.602857e+09 -3.402863e+09 -3.562873e+09 -1.389830e+03 1.007038e+04 8.560522e+02
-1.962802e+09 -1.762765e+09 -1.922768e+09 4.797519e+03 -1.026653e+03 -9.297826e+03
-1.745667e+09 -1.545591e+09 -1.705711e+09 2.178694e+04 1.928042e+04 -3.530939e+04
-1.766861e+09 -1.566805e+09 -1.726849e+09 -1.216196e+03 1.054016e+03 -2.704974e+04
-1.766989e+09 -1.566981e+09 -1.727012e+09 2.300458e+04 2.835130e+04 -2.423692e+04
-2.696930e+09 -2.496931e+09 -2.656933e+09 -3.540944e+03 -4.179307e+03 -2.201503e+03
-1.592591e+09 -1.392609e+09 -1.552596e+09 -4.853646e+02 -8.279776e+03 4.024608e+02
-1.589036e+09 -1.389038e+09 -1.549038e+09 -6.918689e+02 -8.397913e+01 -2.452258e+01
-3.509956e+09 -3.309955e+09 -3.469955e+09 -3.364465e+02 -5.918321e+01 -2.420365e+01
-3.358663e+09 -3.158643e+09 -3.318614e+09 -2.917252e+03 -1.462067e+04 9.097058e+03
-3.589135e+09 -3.389135e+09 -3.549135e+09 -6.957515e+02 -5.353579e+01 2.255790e+01
-2.552756e+09 -2.352748e+09 -2.512772e+09 3.033189e+03 1.706287e+04 -1.189061e+04
-3.272563e+09 -3.072563e+09 -3.232563e+09 -5.602263e+02 -5.319190e+01 -1.277119e+01
-2.173191e+09 -1.973189e+09 -2.133190e+09 -2.414142e+02 -1.604447e+02 7.330701e+01
-1.680659e+09 -1.480658e+09 -1.640659e+09 -3.138160e+02 -7.030870e+01 -2.204798e+01
-2.959894e+09 -2.759894e+09 -2.919894e+09 -5.328593e+02 -4.563048e+01 -3.341453e+01
-1.887505e+09 -1.687504e+09 -1.847504e+09 -2.476510e+02 -1.952323e+02 5.711026e+00
-1.680659e+09 -1.480658e+09 -1.640659e+09 -4.277161e+02 -7.763384e+01 -1.335614e+01
-2.344648e+09 -2.144647e+09 -2.304648e+09 -5.653569e+02 -2.604094e+02 1.264103e+02
-1.982541e+09 -1.782540e+09 -1.942540e+09 -5.798631e+02 -1.090930e+02 4.728572e+01
-3.327812e+09 -3.127811e+09 -3.287811e+09 -3.475302e+02 -1.303306e+02 -4.140464e+00
-2.377145e+09 -2.177144e+09 -2.337144e+09 -5.774907e+02 -1.442361e+02 -7.857732e-01
-1.674101e+09 -1.474100e+09 -1.634100e+09 -2.938965e+02 -1.332778e+02 -8.082966e+01
-3.181892e+09 -2.981891e+09 -3.141891e+09 -3.267397e+02 -2.875547e+01 -2.005331e+01
-2.984401e+09 -2.784400e+09 -2.944401e+09 -4.416794e+02 -9.681388e+01 -2.939698e+01
-3.559688e+09 -3.359692e+09 -3.519688e+09 1.601627e+03 3.455656e+02 -7.953948e+01
-1.589463e+09 -1.389468e+09 -1.549464e+09 -1.276891e+03 2.340284e+02 -6.930897e+01
-1.994391e+09 -1.794392e+09 -1.954392e+09 5.693009e+02 4.644659e+01 -3.150113e+01
-2.357994e+09 -2.157995e+09 -2.317994e+09 4.900916e+02 2.372231e+01 4.936409e+00
-3.586783e+09 -3.386784e+09 -3.546784e+09 2.976513e+03 1.695663e+03 -7.446934e+02
-3.492331e+09 -3.292333e+09 -3.452330e+09 1.519023e+03 1.893551e+02 -1.255243e+02
-3.472119e+09 -3.272120e+09 -3.432120e+09 4.661335e+02 6.352661e+00 -2.734112e+01
-1.583229e+09 -1.383237e+09 -1.543230e+09 1.111102e+03 7.421457e+02 -3.320119e+01
-3.300753e+09 -3.100749e+09 -3.260752e+09 2.909399e+03 1.685387e+03 -1.670525e+03
-2.811442e+09 -2.611444e+09 -2.771443e+09 5.531164e+02 2.955460e+01 -8.189758e+01
-2.635147e+09 -2.435151e+09 -2.595147e+09 2.168413e+03 6.090330e+02 -2.481182e+02
-2.177083e+09 -1.977089e+09 -2.137084e+09 1.223227e+03 4.256163e+02 -1.325297e+02
-3.498555e+09 -3.298559e+09 -3.458555e+09 1.309101e+03 4.123530e+02 -1.514268e+01
-1.597651e+09 -1.397663e+09 -1.557654e+09 3.321231e+03 -5.627977e+03 1.341005e+03
-1.901827e+09 -1.701833e+09 -1.861829e+09 3.223494e+03 -2.876099e+03 1.189177e+03
-3.617433e+09 -3.417437e+09 -3.577441e+09 9.159408e+02 -4.591548e+03 1.376163e+03
-3.012217e+09 -2.812218e+09 -2.972218e+09 7.601544e+02 2.608403e+01 -7.867155e+01
-3.314214e+09 -3.114218e+09 -3.274217e+09 2.217854e+03 -2.190180e+03 1.234705e+03
-1.956756e+09 -1.756763e+09 -1.916766e+09 -3.129263e+03 -3.062782e+03 8.070394e+03
-2.010160e+09 -1.810150e+09 -1.970158e+09 -3.541072e+03 2.882321e+02 -1.487972e+03
-2.967863e+09 -2.767871e+09 -2.927860e+09 -5.998268e+03 -3.740419e+03 1.024696e+04
-2.224529e+09 -2.024533e+09 -2.184529e+09 2.695419e+03 -2.062086e+03 1.196505e+03
-3.034021e+09 -2.834013e+09 -2.994018e+09 -3.577753e+03 -1.993074e+03 -8.044590e+02
-3.071864e+09 -2.871867e+09 -3.031856e+09 -8.186467e+03 -4.070840e+03 9.263281e+03
-3.222221e+09 -3.022223e+09 -3.182222e+09 1.481866e+03 -1.365147e+03 4.689424e+02
-1.843397e+09 -1.643398e+09 -1.803398e+09 -7.612601e+02 -1.087092e+02 1.143457e+01
-1.901983e+09 -1.701988e+09 -1.861984e+09 2.263365e+03 -1.910363e+03 7.599591e+02
-3.475893e+09 -3.275895e+09 -3.435892e+09 -1.030174e+03 9.344652e+01 4.993176e+00
-2.575033e+09 -2.375034e+09 -2.535035e+09 -3.511112e+03 -3.581069e+03 -1.738322e+03
-1.971793e+09 -1.771801e+09 -1.931796e+09 -3.613229e+03 -6.110396e+03 -1.815157e+03
-1.787564e+09 -1.587574e+09 -1.747567e+09 -3.841954e+03 -4.916798e+03 -1.580864e+03
-1.798479e+09 -1.598483e+09 -1.758479e+09 -4.061653e+03 -3.408249e+03 -1.490212e+03
-3.386500e+09 -3.186499e+09 -3.346504e+09 -4.693042e+03 3.896504e+03 2.815673e+03
-1.591741e+09 -1.391745e+09 -1.551741e+09 -1.789772e+03 4.910518e+02 -2.276394e+01
-1.899573e+09 -1.699577e+09 -1.859575e+09 -6.023595e+03 -6.160137e+03 -2.855095e+03
-1.591447e+09 -1.391449e+09 -1.551446e+09 -1.606716e+03 3.659947e+02 -4.934031e+01
-2.243666e+09 -2.043670e+09 -2.203666e+09 -3.580786e+03 -3.032172e+03 -1.679272e+03
-2.893829e+09 -2.693829e+09 -2.853829e+09 -1.899006e+03 -1.374677e+03 -4.491532e+02
-2.527833e+09 -2.327837e+09 -2.487834e+09 -3.845958e+03 2.824264e+03 1.271632e+03
-3.404434e+09 -3.204436e+09 -3.364435e+09 1.408567e+03 -1.501793e+02 -8.240710e+02
-2.585996e+09 -2.385999e+09 -2.545998e+09 1.070085e+03 -7.176196e+01 -6.253135e+02
-3.166424e+09 -2.966427e+09 -3.126426e+09 5.825057e+02 1.117966e+00 -6.811905e+02
-1.954766e+09 -1.754760e+09 -1.914763e+09 2.651254e+03 9.732345e+02 -2.326488e+03
-2.617599e+09 -2.417600e+09 -2.577606e+09 -3.791618e+03 -7.553486e+03 -3.401292e+03
-2.400455e+09 -2.200444e+09 -2.360449e+09 3.283279e+03 2.111509e+03 -5.052787e+03
-3.278319e+09 -3.078318e+09 -3.238322e+09 3.732754e+03 6.081014e+02 -2.444311e+02
-1.678588e+09 -1.478584e+09 -1.638589e+09 3.231590e+03 2.410170e+03 6.739207e+01
-2.526378e+09 -2.326373e+09 -2.486379e+09 -2.527733e+02 -1.662187e+03 -1.667265e+03
-2.125094e+09 -1.925088e+09 -2.085093e+09 -6.809687e+01 1.131481e+03 -1.756372e+03
-3.588802e+09 -3.388799e+09 -3.548802e+09 3.920529e+03 7.084298e+02 -2.199169e+02
-3.307721e+09 -3.107721e+09 -3.267725e+09 -2.495264e+03 -4.234324e+03 -1.800767e+03
-3.244286e+09 -3.044286e+09 -3.204291e+09 -2.491316e+03 -5.760689e+03 -2.700506e+03
-2.549031e+09 -2.349022e+09 -2.509030e+09 -8.320293e+02 1.083356e+03 -1.722337e+03
-3.482631e+09 -3.282630e+09 -3.442630e+09 -3.518149e+02 -1.518608e+01 -1.324311e+00
-3.602177e+09 -3.402170e+09 -3.562181e+09 1.401161e+03 3.189535e+03 -3.025162e+03
-3.411482e+09 -3.211477e+09 -3.371483e+09 2.901199e+03 3.224916e+03 -3.192362e+03
-3.604925e+09 -3.404929e+09 -3.564929e+09 1.677156e+03 -2.294394e+03 1.035431e+03
-3.354727e+09 -3.154726e+09 -3.314727e+09 -6.987648e+02 -7.038965e+01 1.337912e+00
-2.136912e+09 -1.936915e+09 -2.096912e+09 2.915295e+03 -2.182619e+03 1.167106e+03
-1.916518e+09 -1.716517e+09 -1.876517e+09 -3.857724e+02 -1.188584e+02 -4.054804e+00
-3.195214e+09 -2.995214e+09 -3.155213e+09 5.261956e+02 -5.407630e+02 1.309106e+02
-3.588073e+09 -3.388073e+09 -3.548073e+09 -4.399006e+02 -3.336616e+01 5.189648e+01
-3.106305e+09 -2.906305e+09 -3.066305e+09 -7.775845e+02 -1.388490e+02 3.536181e+01
-1.933291e+09 -1.733293e+09 -1.893291e+09 2.821884e+03 -2.210737e+03 9.303004e+02
-3.050345e+09 -2.850350e+09 -3.010348e+09 2.662656e+03 -1.849599e+03 1.136033e+03
-2.569272e+09 -2.369275e+09 -2.529274e+09 2.561409e+03 -2.683286e+03 1.258270e+03
-1.814369e+09 -1.614374e+09 -1.774369e+09 4.139331e+03 -3.527927e+03 1.766527e+03
-1.592037e+09 -1.392044e+09 -1.552039e+09 3.165063e+03 -2.802036e+03 1.145923e+03
-2.211772e+09 -2.011778e+09 -2.171774e+09 1.993713e+03 -2.141843e+03 6.136312e+02
-2.656749e+09 -2.456749e+09 -2.616748e+09 -2.438836e+02 1.424322e+00 -7.968225e+01
-1.981796e+09 -1.781796e+09 -1.941795e+09 -2.465093e+02 -9.132567e+00 -9.584098e+01
-1.576875e+09 -1.376874e+09 -1.536875e+09 9.584230e+02 2.528708e+01 -2.718524e+02
-3.498838e+09 -3.298837e+09 -3.458837e+09 1.404148e+02 4.520039e+00 -2.258918e+01
-2.083128e+09 -1.883128e+09 -2.043127e+09 -4.336944e+02 1.325945e+01 -7.573052e+01
-1.872340e+09 -1.672340e+09 -1.832339e+09 -3.099721e+02 8.355239e+01 -7.057184e+01
-1.796136e+09 -1.596135e+09 -1.756135e+09 -2.625735e+02 1.784180e+01 -1.328806e+02
-2.006923e+09 -1.806922e+09 -1.966922e+09 -3.126452e+02 -2.378181e+01 -9.024107e+01
-3.209250e+09 -3.009248e+09 -3.169249e+09 -1.489374e+02 2.040895e+02 5.373234e+01
-1.641769e+09 -1.441771e+09 -1.601771e+09 1.994362e+02 2.361076e+01 3.540307e+00
-3.356697e+09 -3.156700e+09 -3.316702e+09 -4.590905e+03 4.201515e+03 2.440401e+03
-3.385093e+09 -3.185091e+09 -3.345092e+09 -6.827350e+02 2.450755e+02 1.606445e+02
-3.579888e+09 -3.379886e+09 -3.539887e+09 6.177942e+02 -1.014894e+01 7.785788e+00
-2.585061e+09 -2.385059e+09 -2.545060e+09 1.502657e+01 3.470771e+01 -1.305919e+02
-3.353145e+09 -3.153142e+09 -3.313143e+09 -4.653095e+01 -9.281312e+01 -5.975145e+01
-3.612272e+09 -3.412274e+09 -3.572273e+09 -6.072500e+02 -3.072960e+01 6.326504e+01
-3.632183e+09 -3.432185e+09 -3.592185e+09 -2.818046e+02 -2.840785e+00 -8.643243e+01
-3.177348e+09 -2.977345e+09 -3.137347e+09 9.592732e+02 -1.301583e+02 -1.783220e+02
-1.704563e+09 -1.504596e+09 -1.664583e+09 -1.250147e+03 -2.382873e+04 2.100864e+02
-3.509355e+09 -3.309354e+09 -3.469364e+09 -2.119485e+03 -7.188880e+03 -1.960335e+03
-2.042212e+09 -1.842219e+09 -2.002214e+09 -3.702677e+03 -3.820744e+03 -1.140006e+03
-3.604680e+09 -3.404682e+09 -3.564686e+09 -2.297366e+03 -4.407618e+03 -1.337336e+03
-1.766069e+09 -1.566067e+09 -1.726067e+09 -6.383178e+01 2.350679e+01 -5.017049e+01
-3.585612e+09 -3.385606e+09 -3.545611e+09 -3.261669e+03 3.073311e+02 -1.408997e+03
-2.084636e+09 -1.884633e+09 -2.044634e+09 -4.390640e+02 2.268662e+02 2.074133e+02
-1.888100e+09 -1.688117e+09 -1.848107e+09 8.237296e+03 1.116510e+04 -3.282878e+03
-1.539590e+09 -1.339584e+09 -1.499587e+09 4.590294e+03 2.653957e+03 -3.239681e+03
-3.221667e+09 -3.021668e+09 -3.181669e+09 -4.037667e+03 -1.452392e+03 1.702916e+03
-1.706896e+09 -1.506892e+09 -1.666894e+09 1.944957e+02 1.047861e+02 -9.487743e+01
-3.266935e+09 -3.066925e+09 -3.226939e+09 3.615822e+03 3.700856e+03 -5.196706e+03
-3.059074e+09 -2.859070e+09 -3.019072e+09 -1.005807e+03 7.182885e+02 7.861235e+02
-2.454191e+09 -2.254189e+09 -2.414190e+09 1.354372e+02 2.415699e+02 -6.149573e+00
-3.047124e+09 -2.847121e+09 -3.007123e+09 7.181646e+02 -1.474665e+02 6.196443e+01
-1.582934e+09 -1.382940e+09 -1.542934e+09 7.632952e+03 6.519718e+03 -2.665672e+03
-3.357154e+09 -3.157150e+09 -3.317152e+09 9.577159e+02 -4.240715e+00 6.398668e+01
-2.077819e+09 -1.877815e+09 -2.037817e+09 1.758186e+03 -9.258681e+02 -8.225551e+02
-3.612272e+09 -3.412274e+09 -3.572274e+09 -9.109380e+02 1.856301e+01 -4.284646e+01
-1.570883e+09 -1.370879e+09 -1.530882e+09 7.867704e+02 3.530060e+02 2.318329e+02
-3.600934e+09 -3.400935e+09 -3.560935e+09 -6.433845e+02 -3.990489e+01 2.369396e+01
-1.867501e+09 -1.667498e+09 -1.827500e+09 8.218355e+02 -9.900831e+01 -2.192397e+01
-3.247163e+09 -3.047165e+09 -3.207164e+09 -3.435103e+02 -3.461006e+00 -2.072604e+01
-3.603043e+09 -3.403046e+09 -3.563045e+09 7.814312e+02 -5.450819e+01 -8.567671e+02
-1.579734e+09 -1.379589e+09 -1.539402e+09 8.881999e+03 1.443117e+05 4.019258e+04
-2.059190e+09 -1.859192e+09 -2.019192e+09 -8.016451e+02 -5.211274e+01 9.159331e+01
-2.652522e+09 -2.452522e+09 -2.612522e+09 5.371778e+02 3.642438e+00 4.980327e+00
-3.593625e+09 -3.393626e+09 -3.553626e+09 1.097773e+03 1.700604e+01 -1.015437e+02
-1.902666e+09 -1.702656e+09 -1.862589e+09 6.431974e+03 -3.915054e+03 6.369464e+04
-2.568447e+09 -2.368424e+09 -2.528427e+09 -2.136743e+04 -2.245289e+04 1.519943e+04
-1.586533e+09 -1.386534e+09 -1.546534e+09 4.949249e+02 6.438143e+01 -1.916024e+01
-3.178037e+09 -2.978025e+09 -3.138014e+09 -8.446873e+03 -1.364978e+04 1.194191e+04
-2.004495e+09 -1.804482e+09 -1.964502e+09 -1.712831e+04 -2.629146e+04 1.307116e+04
-2.074668e+09 -1.874670e+09 -2.034670e+09 8.841928e+02 5.788600e+01 -2.076573e+02
-3.322759e+09 -3.122754e+09 -3.282702e+09 4.425280e+03 1.432320e+04 2.603924e+04
-3.615802e+09 -3.415803e+09 -3.575803e+09 8.343406e+02 2.157945e+01 -8.282148e+01
-1.579721e+09 -1.379521e+09 -1.539475e+09 3.668572e+04 -1.734458e+05 7.412625e+03
-2.052736e+09 -1.852735e+09 -2.012736e+09 6.634686e+02 7.421791e+01 -9.663184e+01
-3.108622e+09 -2.908596e+09 -3.068575e+09 -4.871444e+03 -2.916860e+04 -6.763645e+03
-2.386759e+09 -2.186758e+09 -2.346758e+09 7.522086e+02 1.313010e+02 3.910216e+01
-2.447968e+09 -2.247968e+09 -2.407968e+09 4.909884e+02 8.728235e+01 -9.857020e+01
-3.594682e+09 -3.394680e+09 -3.554680e+09 -4.049762e+01 5.871790e+01 -9.553407e+01
-2.369447e+09 -2.169407e+09 -2.329526e+09 -2.042741e+04 3.364394e+04 -4.602681e+03
-3.363354e+09 -3.163353e+09 -3.323354e+09 6.056192e+02 1.986166e+01 -1.086822e+02
-1.576875e+09 -1.376874e+09 -1.536875e+09 7.303912e+02 1.454311e+02 -1.450279e+02
-3.618498e+09 -3.418499e+09 -3.578499e+09 1.038298e+03 4.013331e+00 -1.948371e+02
-3.607142e+09 -3.407141e+09 -3.567141e+09 7.215495e+02 3.541653e+01 -2.471565e+01
-3.085943e+09 -2.885943e+09 -3.045943e+09 4.998748e+02 3.768135e+01 -1.174356e+02
-1.616168e+09 -1.416167e+09 -1.576167e+09 -3.094507e+02 1.504697e+02 -1.371076e+02
-3.395360e+09 -3.195360e+09 -3.355360e+09 5.160306e+02 2.831298e+01 -8.780501e+01
-3.042870e+09 -2.842869e+09 -3.002870e+09 6.869589e+02 1.924442e+01 -9.315247e+01
-1.594449e+09 -1.394451e+09 -1.554448e+09 6.884079e+03 -4.620370e+03 5.069078e+03
-1.859085e+09 -1.659097e+09 -1.819091e+09 6.872828e+03 -1.140911e+04 5.034649e+03
-2.153599e+09 -1.953601e+09 -2.113601e+09 3.695950e+02 8.678456e+00 1.721156e+01
-2.891820e+09 -2.691821e+09 -2.851821e+09 3.383309e+02 3.577100e+01 4.168516e+00
-1.771070e+09 -1.571074e+09 -1.731070e+09 4.273127e+03 2.326641e+03 -1.025061e+03
-2.466579e+09 -2.266580e+09 -2.426579e+09 3.841825e+03 2.059429e+03 -1.141885e+03
-1.796941e+09 -1.596938e+09 -1.756938e+09 2.278923e+03 -2.082290e+03 2.461160e+03
-2.051397e+09 -1.851388e+09 -2.011405e+09 2.453352e+03 -5.553175e+03 8.080379e+03
-1.774634e+09 -1.574634e+09 -1.734632e+09 4.532802e+03 2.241912e+03 -1.213175e+03
-3.609312e+09 -3.409315e+09 -3.569306e+09 -9.992421e+00 2.417547e+02 -5.071459e+03
-2.513312e+09 -2.313315e+09 -2.473308e+09 9.868705e+02 -1.488429e+02 -7.307049e+03
-1.595624e+09 -1.395613e+09 -1.555618e+09 -3.434844e+02 -2.020957e+03 1.690452e+03
-3.131985e+09 -2.931988e+09 -3.091983e+09 -1.949530e+03 1.281162e+03 -3.417432e+03
-1.715704e+09 -1.515687e+09 -1.675693e+09 -9.939037e+02 -8.644579e+03 -5.889432e+03
-3.570709e+09 -3.370711e+09 -3.530716e+09 -3.034919e+03 4.485534e+03 1.911825e+03
-2.637710e+09 -2.437705e+09 -2.597708e+09 -3.720877e+03 1.694752e+03 2.789598e+03
-3.069982e+09 -2.869984e+09 -3.029983e+09 3.246369e+03 1.652950e+03 -5.901529e+02
-3.108724e+09 -2.908723e+09 -3.068724e+09 3.592840e+03 1.944887e+03 -1.313210e+03
-1.631075e+09 -1.431057e+09 -1.591066e+09 -9.631726e+02 -2.172645e+03 2.752695e+03
-1.667762e+09 -1.467762e+09 -1.627765e+09 -2.172104e+04 9.328949e+03 1.277296e+04
-3.400827e+09 -3.200829e+09 -3.360827e+09 2.490581e+03 1.018813e+03 -4.053637e+02
-3.469739e+09 -3.269728e+09 -3.429740e+09 1.132287e+03 1.180883e+03 5.753526e+03
-1.763322e+09 -1.563309e+09 -1.723315e+09 -4.207936e+02 -2.862025e+02 -2.880917e+03
-2.694496e+09 -2.494498e+09 -2.654497e+09 -4.840931e+01 1.663136e+01 -7.816721e+00
-1.829946e+09 -1.629932e+09 -1.789946e+09 -4.162103e+03 -3.713252e+03 3.193165e+03
-2.036046e+09 -1.836036e+09 -1.996051e+09 -9.315097e+03 -7.287724e+03 2.335601e+03
-3.469737e+09 -3.269723e+09 -3.429739e+09 -3.877739e+02 2.338878e+03 5.142252e+03
-3.021506e+09 -2.821517e+09 -2.981513e+09 1.502039e+03 5.267657e+02 4.487516e+03
-3.568931e+09 -3.368919e+09 -3.528952e+09 1.045042e+03 1.140658e+04 4.814264e+03
-3.428116e+09 -3.228104e+09 -3.388133e+09 6.489412e+03 9.352614e+03 -9.676833e+03
-2.656318e+09 -2.456299e+09 -2.616315e+09 -5.548643e+02 -1.103777e+03 -7.553948e+03
-2.269527e+09 -2.069504e+09 -2.229526e+09 1.292711e+04 -4.856398e+04 -3.308338e+04
-1.778610e+09 -1.578614e+09 -1.738609e+09 1.732804e+04 1.745047e+04 -1.580382e+04
-3.619343e+09 -3.419332e+09 -3.579342e+09 -1.235691e+03 7.742611e+02 3.263910e+03
-3.247621e+09 -3.047608e+09 -3.207629e+09 -7.453876e+03 5.796962e+03 1.153724e+04
-3.440367e+09 -3.240359e+09 -3.400369e+09 1.784186e+03 2.163821e+03 -3.255021e+03
-3.605043e+09 -3.405052e+09 -3.565040e+09 1.538894e+03 1.355944e+03 5.442799e+03
-2.613704e+09 -2.413695e+09 -2.573703e+09 3.702986e+03 4.584239e+03 -5.295544e+03
-2.018673e+09 -1.818645e+09 -1.978671e+09 -6.067254e+03 -1.048404e+04 -3.123946e+03
-1.941575e+09 -1.741540e+09 -1.901562e+09 -3.579928e+03 -1.891197e+04 2.963080e+03
-2.159026e+09 -1.959030e+09 -2.119029e+09 -1.386852e+03 3.611579e+02 -6.147352e+02
-2.625979e+09 -2.425982e+09 -2.585982e+09 -1.339770e+03 3.537346e+02 -7.584780e+02
-3.402521e+09 -3.202525e+09 -3.362523e+09 3.661165e+02 1.332609e+02 -1.386571e+03
-2.913979e+09 -2.713984e+09 -2.873981e+09 4.896438e+02 -2.942313e+01 -2.323657e+03
-3.514744e+09 -3.314745e+09 -3.474744e+09 -3.453869e+03 2.005395e+02 7.258383e+02
-3.600832e+09 -3.400832e+09 -3.560828e+09 -4.559212e+03 -1.407964e+03 3.406229e+03
-2.637187e+09 -2.437191e+09 -2.597190e+09 -2.309770e+02 3.130454e+02 -1.060017e+03
-3.591081e+09 -3.391083e+09 -3.551082e+09 5.695756e+02 1.920458e+01 -1.666984e+01
-1.839745e+09 -1.639747e+09 -1.799748e+09 -1.739084e+03 6.844958e+01 -5.193276e+02
-3.568503e+09 -3.368504e+09 -3.528504e+09 5.214851e+02 4.500644e+01 5.365424e+00
-2.535013e+09 -2.335020e+09 -2.495013e+09 5.918195e+02 -3.220240e+01 -6.609018e+03
-3.169701e+09 -2.969693e+09 -3.129699e+09 2.270115e+03 4.764551e+02 -3.082276e+03
-2.456111e+09 -2.256104e+09 -2.416119e+09 9.957432e+03 1.144542e+04 -8.993410e+03
-3.549268e+09 -3.349260e+09 -3.509267e+09 -1.504505e+02 1.519037e+03 -2.758811e+03
-1.867366e+09 -1.667386e+09 -1.827380e+09 -2.489773e+03 -8.023785e+01 1.423697e+04
-1.962529e+09 -1.762526e+09 -1.922527e+09 3.080318e+03 1.786503e+03 -1.445099e+03
-3.486236e+09 -3.286235e+09 -3.446235e+09 1.070332e+02 3.554053e+00 -6.038789e+00
-2.144471e+09 -1.944470e+09 -2.104470e+09 7.021527e+01 5.853590e+00 -5.656503e+01
-2.373350e+09 -2.173349e+09 -2.333354e+09 5.138244e+03 1.194571e+03 5.115145e+02
-3.156533e+09 -2.956533e+09 -3.116530e+09 7.520133e+03 9.577868e+03 7.600775e+03
-3.276100e+09 -3.076101e+09 -3.236101e+09 3.862358e+02 -7.171721e-01 -2.074385e+01
-2.087577e+09 -1.887598e+09 -2.047598e+09 -1.290593e+04 -1.027690e+04 3.060843e+04
-2.397776e+09 -2.197763e+09 -2.357770e+09 -1.712929e+04 -2.681017e+04 1.304007e+04
-3.229262e+09 -3.029261e+09 -3.189261e+09 1.440964e+01 -6.884235e-01 -3.844911e+01
-2.673464e+09 -2.473467e+09 -2.633459e+09 -7.298195e+03 -4.247298e+03 1.111060e+04
-1.557606e+09 -1.357605e+09 -1.517606e+09 1.358053e+02 3.996709e+01 -1.064281e+02
-1.697671e+09 -1.497670e+09 -1.657670e+09 -9.336398e+01 5.101755e+01 -1.071545e+02
-2.730069e+09 -2.530066e+09 -2.690054e+09 1.250688e+04 2.437526e+04 2.388624e+04
-1.684753e+09 -1.484754e+09 -1.644761e+09 3.989851e+03 1.715429e+03 4.248752e+03
-3.486729e+09 -3.286732e+09 -3.446729e+09 5.025465e+03 1.662363e+03 3.259389e+03
-2.457421e+09 -2.257421e+09 -2.417420e+09 -2.039397e+03 6.180088e+02 1.959786e+02
-3.038785e+09 -2.838784e+09 -2.998784e+09 -1.744639e+03 7.460370e+02 3.310332e+02
-3.060563e+09 -2.860561e+09 -3.020563e+09 -2.589603e+03 1.144298e+03 8.525436e+02
-1.674853e+09 -1.474852e+09 -1.634852e+09 1.063086e+02 4.203452e+01 -6.491563e+01
-3.499643e+09 -3.299642e+09 -3.459642e+09 -1.163468e+02 -2.364370e+00 -3.411161e+01
-2.938115e+09 -2.738114e+09 -2.898114e+09 6.066326e+01 3.214059e+01 -4.512029e+01
-3.047016e+09 -2.847014e+09 -3.007015e+09 -2.506426e+03 6.303009e+02 8.031258e+02
-3.541425e+09 -3.341413e+09 -3.501353e+09 -1.238370e+03 1.117052e+04 -6.017845e+03
-1.909191e+09 -1.709192e+09 -1.869165e+09 2.434192e+04 4.191535e+04 6.222440e+04
-2.512601e+09 -2.312584e+09 -2.472612e+09 9.833733e+03 1.800235e+04 8.880002e+03
-2.123407e+09 -1.923360e+09 -2.083273e+09 1.502477e+04 4.089855e+04 2.519263e+04
-3.115621e+09 -2.915588e+09 -3.075550e+09 6.786736e+03 2.535097e+04 2.036459e+03
-3.335528e+09 -3.135506e+09 -3.295480e+09 2.296280e+03 1.330909e+04 2.452070e+03
-2.565366e+09 -2.365372e+09 -2.525367e+09 7.644188e+02 5.166797e+02 -4.437122e+01
-1.988715e+09 -1.788717e+09 -1.948714e+09 1.308434e+03 1.211416e+02 2.652123e+01
-3.286179e+09 -3.086186e+09 -3.246181e+09 5.548177e+02 4.771046e+02 -1.838955e+01
-2.587851e+09 -2.387857e+09 -2.547852e+09 1.148284e+03 5.847334e+02 -9.927183e+01
-1.895802e+09 -1.695810e+09 -1.855803e+09 7.545127e+02 9.651999e+02 -2.014815e+01
-2.146778e+09 -1.946783e+09 -2.106779e+09 1.800503e+03 6.230858e+02 -8.698874e+01
-3.476071e+09 -3.276077e+09 -3.436072e+09 9.773394e+02 3.031918e+02 -4.230920e+01
-2.969739e+09 -2.769746e+09 -2.929740e+09 5.665125e+02 5.799967e+02 -5.738329e+01
-3.586788e+09 -3.386794e+09 -3.546790e+09 1.603106e+03 8.052439e+02 -1.849886e+02
-1.982296e+09 -1.782302e+09 -1.942297e+09 1.314547e+03 2.764050e+02 2.653865e+01
-1.571624e+09 -1.371630e+09 -1.531624e+09 4.022960e+03 1.795022e+03 -6.305805e+02
-3.084530e+09 -2.884537e+09 -3.044532e+09 6.455785e+02 9.245093e+02 5.836074e+00
-3.309414e+09 -3.109417e+09 -3.269414e+09 2.045674e+03 5.180019e+02 -2.732908e+02
-2.664523e+09 -2.464526e+09 -2.624523e+09 1.961557e+03 5.903893e+02 -7.945031e+01
-1.576040e+09 -1.376041e+09 -1.536041e+09 7.733665e+02 7.701538e+01 -5.192013e+01
-2.014283e+09 -1.814283e+09 -1.974282e+09 -4.746266e+02 4.896972e+01 -6.638127e+01
-1.808343e+09 -1.608343e+09 -1.768342e+09 -4.619859e+02 1.256225e+02 -5.521942e+01
-2.631051e+09 -2.431050e+09 -2.591050e+09 -4.344587e+02 6.172359e+01 -6.749813e+01
-2.832754e+09 -2.632753e+09 -2.792753e+09 -5.587999e+02 1.135467e+02 -3.040409e+00
-2.334732e+09 -2.134731e+09 -2.294731e+09 1.989594e+02 4.487160e+01 -7.436231e+01
-1.833985e+09 -1.633984e+09 -1.793985e+09 8.994234e+01 4.631991e+01 -5.413321e+01
-1.784274e+09 -1.584273e+09 -1.744273e+09 -2.058202e+02 1.105449e+02 -8.602454e+01
-3.134890e+09 -2.934890e+09 -3.094889e+09 -4.248170e+02 4.911679e+01 -9.397398e+01
-1.673916e+09 -1.473916e+09 -1.633915e+09 -9.270177e+01 5.642228e+00 -7.651142e+01
-2.799961e+09 -2.599966e+09 -2.759962e+09 -1.260097e+03 7.010710e+02 6.877010e+01
-1.774461e+09 -1.574466e+09 -1.734461e+09 -1.459414e+03 4.099241e+02 9.620875e+00
-2.499099e+09 -2.299105e+09 -2.459101e+09 -8.382293e+02 4.703157e+02 1.900425e+01
-2.693112e+09 -2.493118e+09 -2.653113e+09 -1.157551e+03 4.870352e+02 7.737045e+01
-2.357291e+09 -2.157290e+09 -2.317290e+09 -9.349298e+01 8.765346e+01 -1.094494e+02
-1.673916e+09 -1.473915e+09 -1.633915e+09 3.416057e+01 6.141196e+01 -8.751403e+01
-1.969934e+09 -1.769933e+09 -1.929933e+09 -8.722326e+01 9.327868e+00 -9.527853e+01
-1.951232e+09 -1.751231e+09 -1.911232e+09 6.959897e+01 2.380700e+01 -6.283831e+01
-2.236734e+09 -2.036733e+09 -2.196733e+09 7.647355e+01 1.513592e+01 -5.631398e+01
-2.407033e+09 -2.207040e+09 -2.367034e+09 -9.496860e+02 8.406936e+02 -1.439069e+01
-3.610674e+09 -3.410677e+09 -3.570675e+09 4.923179e+02 -7.203470e+00 -7.923413e+02
-2.161815e+09 -1.961821e+09 -2.121816e+09 -7.384939e+02 3.725244e+02 -2.845317e+01
-1.875309e+09 -1.675314e+09 -1.835309e+09 -1.021681e+03 2.133272e+02 -3.126757e+01
-3.605877e+09 -3.405879e+09 -3.565878e+09 1.501584e+03 -1.134354e+02 -1.154547e+03
-3.173049e+09 -2.973048e+09 -3.133049e+09 7.744963e+02 -9.006221e+02 8.049844e+02
-3.470643e+09 -3.270646e+09 -3.430641e+09 1.477620e+03 -6.835628e+02 -2.908849e+03
-3.366623e+09 -3.166621e+09 -3.326623e+09 -4.237671e+02 -4.343634e+02 5.465400e+02
-3.351761e+09 -3.151758e+09 -3.311760e+09 -1.921237e+02 -4.544775e+02 6.799047e+02
-3.590860e+09 -3.390867e+09 -3.550863e+09 1.012602e+03 1.525958e+03 -8.893637e+01
-3.598928e+09 -3.398932e+09 -3.558928e+09 -1.453162e+03 4.432910e+02 8.234258e+01
-2.805996e+09 -2.605994e+09 -2.765996e+09 4.213771e+02 -7.740260e+02 5.837794e+02
-2.594219e+09 -2.394218e+09 -2.554218e+09 7.574918e+02 -9.223487e+02 8.243544e+02
-3.424637e+09 -3.224643e+09 -3.384639e+09 -6.583955e+02 3.735308e+02 -4.049654e+01
-2.599186e+09 -2.399187e+09 -2.559187e+09 7.528732e+02 4.076924e+01 -6.288663e+01
-1.996459e+09 -1.796461e+09 -1.956461e+09 7.220314e+02 4.250668e+01 -8.652910e+01
-2.389121e+09 -2.189122e+09 -2.349122e+09 8.971850e+02 6.250802e+01 -6.850468e+01
-3.372052e+09 -3.172053e+09 -3.332053e+09 6.754604e+02 1.279857e+01 -8.375671e+01
-3.404545e+09 -3.204548e+09 -3.364547e+09 2.474891e+01 1.225603e+01 -6.299436e+01
-2.386412e+09 -2.186412e+09 -2.346412e+09 7.138981e+02 8.181139e+01 -2.234997e+01
-1.776710e+09 -1.576710e+09 -1.736710e+09 6.958791e+02 3.708069e+01 -8.200601e+01
-2.559034e+09 -2.359035e+09 -2.519034e+09 7.283396e+02 7.382921e+01 -6.163631e+00
-1.959580e+09 -1.759580e+09 -1.919580e+09 7.141471e+02 2.011077e+01 -1.131387e+02
-3.260256e+09 -3.060255e+09 -3.220256e+09 1.273631e+02 2.957080e+01 -3.520526e+01
-1.779394e+09 -1.579406e+09 -1.739397e+09 -3.581284e+03 4.251669e+03 1.079078e+03
-3.571037e+09 -3.371036e+09 -3.531036e+09 3.640562e+01 7.586374e+00 -3.019101e+01
-3.253017e+09 -3.053016e+09 -3.213015e+09 -1.400900e+02 -3.850840e-01 -7.848623e+01
-3.593781e+09 -3.393780e+09 -3.553780e+09 1.347998e+02 3.567457e+01 -2.456430e+01
-2.250282e+09 -2.050281e+09 -2.210281e+09 -2.394498e+02 2.091470e+00 -5.594146e+01
-1.570766e+09 -1.370765e+09 -1.530765e+09 1.879374e+02 5.994990e+01 -1.017086e+02
-1.570766e+09 -1.370765e+09 -1.530765e+09 2.834465e+02 7.556639e+01 -5.432999e+01
-2.388257e+09 -2.188256e+09 -2.348256e+09 5.921747e+02 6.361220e+01 -8.983962e+01
-3.544418e+09 -3.344417e+09 -3.504417e+09 1.187837e+01 4.911955e+01 -4.117333e+01
-1.739957e+09 -1.539956e+09 -1.699957e+09 2.213509e+02 3.965928e+01 -4.547353e+01
-2.904983e+09 -2.704983e+09 -2.864982e+09 -9.971152e+00 5.799151e+00 -4.990780e+01
-2.597618e+09 -2.397625e+09 -2.557620e+09 -1.249733e+02 5.645849e+02 3.475281e+01
-2.844640e+09 -2.644647e+09 -2.804641e+09 2.447219e+02 5.010988e+02 -1.820338e+01
-2.243983e+09 -2.043990e+09 -2.203984e+09 2.447302e+02 4.777365e+02 -1.687018e+01
-2.664339e+09 -2.464321e+09 -2.624327e+09 2.300112e+03 -4.467301e+03 4.998769e+02
-3.596934e+09 -3.396929e+09 -3.556891e+09 4.554742e+03 -7.159430e+03 -1.132557e+04
-3.517677e+09 -3.317675e+09 -3.477663e+09 3.150430e+03 -5.195864e+03 -6.672408e+03
-2.563896e+09 -2.363903e+09 -2.523898e+09 5.921202e+02 5.259537e+02 -5.052917e+01
-1.688293e+09 -1.488269e+09 -1.648278e+09 1.032451e+04 -1.239352e+04 -5.775501e+03
-3.299591e+09 -3.099598e+09 -3.259593e+09 -8.002570e+01 4.108371e+02 -1.951194e+01
-2.050930e+09 -1.850932e+09 -2.010930e+09 -1.338471e+03 1.505969e+02 4.935716e-01
-3.579888e+09 -3.379886e+09 -3.539887e+09 9.368509e+02 5.872860e+01 -1.060619e+02
-2.819386e+09 -2.619386e+09 -2.779386e+09 1.362283e+03 -5.125182e+00 -1.153864e+02
-3.498920e+09 -3.298920e+09 -3.458920e+09 4.554351e+02 1.411855e+01 -6.028276e+01
-3.362237e+09 -3.162237e+09 -3.322236e+09 -1.228824e+03 6.384744e+01 -8.285990e+01
-3.587683e+09 -3.387685e+09 -3.547684e+09 8.398401e+02 8.840976e+00 -1.290306e+02
-3.547256e+09 -3.347255e+09 -3.507256e+09 5.582946e+02 8.828294e+00 -5.960223e+01
-3.277880e+09 -3.077880e+09 -3.237880e+09 4.530086e+02 1.640861e+01 -2.446087e+01
-3.163011e+09 -2.963011e+09 -3.123010e+09 -1.038045e+03 2.061437e+02 -5.101080e+01
-3.290822e+09 -3.090823e+09 -3.250821e+09 -1.061460e+03 2.078640e+02 5.071049e+01
-1.745614e+09 -1.545602e+09 -1.705701e+09 -3.358929e+03 2.232614e+04 -2.522931e+04
-2.223293e+09 -2.023328e+09 -2.183354e+09 -2.785801e+04 6.114298e+04 9.543154e+03
-2.975670e+09 -2.775672e+09 -2.935670e+09 -9.049144e+02 1.499341e+02 -7.371207e+01
-1.582568e+09 -1.382531e+09 -1.542596e+09 -5.874401e+04 2.145198e+04 6.668301e+03
-3.331118e+09 -3.131117e+09 -3.291117e+09 -9.293395e+01 4.170294e+01 -3.001449e+01
-2.012027e+09 -1.812026e+09 -1.972026e+09 -3.772311e+02 4.772012e+01 -9.677916e+01
-3.237870e+09 -3.037869e+09 -3.197869e+09 -3.915149e+02 1.684608e+02 -3.633714e+01
-2.165898e+09 -1.965911e+09 -2.125915e+09 -5.408923e+03 2.524172e+04 5.914557e+03
-1.562197e+09 -1.362214e+09 -1.522277e+09 -1.155463e+04 1.633088e+04 -1.008991e+04
-3.217536e+09 -3.017535e+09 -3.177535e+09 -2.436659e+02 1.067270e+02 -6.065904e+01
-1.583594e+09 -1.383600e+09 -1.543614e+09 2.638162e+04 2.646877e+04 -2.546442e+04
-2.579317e+09 -2.379320e+09 -2.539319e+09 -9.356431e+02 2.481691e+02 -1.052654e+03
-3.599452e+09 -3.399434e+09 -3.559466e+09 5.269569e+02 -1.990726e+03 1.858793e+03
-1.768231e+09 -1.568138e+09 -1.728257e+09 -2.976267e+04 -1.869001e+04 2.015755e+04
-1.896706e+09 -1.696703e+09 -1.856704e+09 3.049277e+02 -1.043518e+02 -9.772022e+01
-2.428498e+09 -2.228497e+09 -2.388497e+09 -1.711149e+03 5.605570e+02 2.276991e+02
-2.066773e+09 -1.866774e+09 -2.026772e+09 -2.932669e+03 9.722072e+02 6.366949e+02
-3.293812e+09 -3.093807e+09 -3.253810e+09 -1.109632e+03 6.968497e+02 8.325472e+02
-3.382578e+09 -3.182578e+09 -3.342578e+09 5.342073e+02 4.179687e+01 -1.097892e+01
-2.467879e+09 -2.267877e+09 -2.427876e+09 3.298641e+03 -3.035565e+03 -3.860769e+03
-2.839926e+09 -2.639929e+09 -2.799928e+09 1.650420e+03 -3.258864e+02 -1.363658e+03
-2.575696e+09 -2.375701e+09 -2.535697e+09 -1.433109e+03 5.154721e+02 -3.604988e+01
-3.237070e+09 -3.037075e+09 -3.197073e+09 6.450500e+02 -6.117324e+01 -1.550211e+03
-3.148341e+09 -2.948343e+09 -3.108343e+09 -2.179031e+02 -1.023206e+01 3.371241e+01
-2.787380e+09 -2.587389e+09 -2.747385e+09 -1.742631e+03 3.749663e+03 4.649571e+02
-3.181693e+09 -2.981699e+09 -3.141696e+09 -1.356991e+03 9.232817e+02 1.564372e+02
-1.981633e+09 -1.781644e+09 -1.941636e+09 -2.493208e+02 2.912014e+03 6.676004e+01
-1.672620e+09 -1.472640e+09 -1.632627e+09 9.436245e+03 -1.401692e+04 5.900415e+03
-1.976929e+09 -1.776940e+09 -1.936933e+09 -1.207455e+03 3.465673e+03 4.126927e+02
-2.502896e+09 -2.302904e+09 -2.462898e+09 5.223885e+02 1.011225e+03 -1.248605e+01
-2.714903e+09 -2.514908e+09 -2.674905e+09 -2.678287e+03 1.641772e+03 6.483023e+02
-2.035149e+09 -1.835157e+09 -1.995152e+09 1.375610e+03 -2.830580e+03 4.528451e+02
-2.125129e+09 -1.925137e+09 -2.085131e+09 -1.628104e+03 1.725785e+03 3.878310e+02
-1.674099e+09 -1.474098e+09 -1.634098e+09 1.710591e+02 -2.854496e+02 2.764569e+01
-1.813300e+09 -1.613300e+09 -1.773299e+09 1.771393e+03 -1.290755e+03 8.035533e+02
-3.389606e+09 -3.189613e+09 -3.349611e+09 -1.142502e+03 2.769370e+03 1.725105e+02
-2.272109e+09 -2.072109e+09 -2.232107e+09 1.301254e+03 -7.900613e+02 4.591126e+02
-2.014174e+09 -1.814174e+09 -1.974174e+09 2.432785e+03 -2.482876e+03 1.604272e+03
-3.224324e+09 -3.024328e+09 -3.184329e+09 2.399872e+03 -4.001449e+03 1.801905e+03
-3.604924e+09 -3.404927e+09 -3.564928e+09 1.581564e+03 -2.427300e+03 1.034714e+03
-3.337910e+09 -3.137910e+09 -3.297911e+09 1.591900e+03 -1.214672e+03 5.118556e+02
-2.307166e+09 -2.107169e+09 -2.267166e+09 1.830315e+03 -1.276763e+03 5.589305e+02
-1.665800e+09 -1.465801e+09 -1.625799e+09 2.018253e+03 -1.198708e+03 6.106006e+02
-2.194441e+09 -1.994441e+09 -2.154440e+09 -4.282825e+02 3.771657e+00 -7.374107e+01
-1.792018e+09 -1.592016e+09 -1.752016e+09 -7.808825e+02 2.207431e+02 -4.840531e+01
-1.884548e+09 -1.684548e+09 -1.844547e+09 -4.291418e+02 1.262451e+01 -1.183881e+02
-2.583701e+09 -2.383700e+09 -2.543700e+09 -7.161286e+02 1.589357e+02 -2.854176e+01
-3.613253e+09 -3.413236e+09 -3.573219e+09 3.028795e+03 8.498959e+03 2.120719e+03
-2.653310e+09 -2.453316e+09 -2.613313e+09 2.425201e+03 -3.092788e+03 1.202571e+03
-3.214840e+09 -3.014847e+09 -3.174842e+09 -7.521171e+02 8.213859e+02 2.032712e+01
-3.378913e+09 -3.178917e+09 -3.338924e+09 9.839787e+02 -7.144766e+03 1.963301e+03
-2.911837e+09 -2.711845e+09 -2.871842e+09 -1.682028e+03 -3.301371e+03 -3.225122e+02
-2.986892e+09 -2.786899e+09 -2.946894e+09 -2.792395e+02 4.020581e+02 -4.030010e+01
-1.879250e+09 -1.679258e+09 -1.839252e+09 8.661823e+01 9.029356e+02 -5.830064e+01
-1.784097e+09 -1.584104e+09 -1.744098e+09 -1.114437e+03 6.068778e+02 3.920508e+01
-1.807018e+09 -1.607019e+09 -1.767017e+09 3.842150e+03 -3.360962e+03 2.053971e+03
-3.127003e+09 -2.927009e+09 -3.087007e+09 -2.954804e+03 3.023854e+03 1.023592e+03
-2.174262e+09 -1.974268e+09 -2.134263e+09 -3.229201e+02 4.956443e+02 -1.430843e+01
-1.888593e+09 -1.688599e+09 -1.848594e+09 -5.952909e+02 3.393336e+02 1.481275e+01
-1.545120e+09 -1.345123e+09 -1.505122e+09 -1.762329e+01 3.953216e+01 -2.825031e+02
-3.265166e+09 -3.065169e+09 -3.225168e+09 -9.723843e+02 2.936931e+01 -9.358668e+01
-1.560820e+09 -1.360822e+09 -1.520822e+09 -5.008132e+02 -3.521590e+01 1.597480e+01
-3.479659e+09 -3.279658e+09 -3.439659e+09 -3.338739e+02 -1.672224e+01 -5.627879e+00
-2.111498e+09 -1.911501e+09 -2.071501e+09 -3.943965e+02 -4.509868e+01 -1.788130e+02
-2.570069e+09 -2.370072e+09 -2.530071e+09 5.742259e+02 4.231099e+01 -6.703623e+02
-1.969931e+09 -1.769930e+09 -1.929931e+09 -3.781836e+02 -4.539338e+01 -4.108867e+01
-3.352871e+09 -3.152872e+09 -3.312872e+09 5.379705e+02 7.982994e+00 -3.604505e+01
-1.842396e+09 -1.642399e+09 -1.802398e+09 -6.654189e+02 -2.596360e+00 -2.061213e+02
-2.746700e+09 -2.546702e+09 -2.706702e+09 -6.527705e+02 2.124234e+01 -8.416514e+01
-1.596949e+09 -1.396948e+09 -1.556949e+09 -4.449552e+02 -1.330122e+02 -5.357339e+01
-2.059213e+09 -1.859217e+09 -2.019216e+09 -7.200197e+02 2.945236e+00 -2.031766e+02
-2.006397e+09 -1.806398e+09 -1.966398e+09 3.713492e+02 2.341135e+01 2.651557e+00
-3.418295e+09 -3.218298e+09 -3.378297e+09 -4.255821e+02 -2.477138e+01 -2.840692e+02
-2.870507e+09 -2.670506e+09 -2.830506e+09 -2.881809e+02 -5.443570e+01 -3.159166e+01
-3.171246e+09 -2.971245e+09 -3.131245e+09 -3.501364e+02 -4.575980e+01 -1.624617e+00
-3.093508e+09 -2.893507e+09 -3.053508e+09 -4.123312e+02 -6.323066e+01 -2.666970e+01
-1.632550e+09 -1.432538e+09 -1.592613e+09 -3.571071e+04 4.352700e+04 1.494875e+04
-2.434158e+09 -2.234184e+09 -2.394186e+09 -5.311225e+03 3.015841e+04 -1.434056e+03
-2.601812e+09 -2.401798e+09 -2.561853e+09 -6.232085e+03 3.323479e+04 -6.763238e+01
-1.840458e+09 -1.640453e+09 -1.800458e+09 -2.004016e+04 1.343331e+04 1.423729e+04
-2.526191e+09 -2.326190e+09 -2.486215e+09 -1.283423e+04 2.568857e+04 1.228193e+04
-1.858712e+09 -1.658754e+09 -1.818742e+09 -1.544910e+04 3.530765e+04 6.639619e+03
-3.275452e+09 -3.075453e+09 -3.235469e+09 -4.609465e+03 1.301959e+04 6.356761e+03
-2.880041e+09 -2.680040e+09 -2.840040e+09 -3.446550e+02 -9.714772e+01 -2.469877e+01
-1.974684e+09 -1.774682e+09 -1.934683e+09 -1.654434e+02 -2.143665e+02 1.383739e+00
-2.253247e+09 -2.053246e+09 -2.213246e+09 -3.236205e+02 -6.016692e+01 -4.047668e+01
-1.956564e+09 -1.756562e+09 -1.916563e+09 -3.374091e+02 -6.387824e+01 -3.074539e+01
-1.582854e+09 -1.382861e+09 -1.542855e+09 -2.218356e+03 1.536871e+03 3.795960e+02
-3.112088e+09 -2.912092e+09 -3.072090e+09 -2.655826e+03 1.792548e+03 4.874438e+02
-1.980577e+09 -1.780576e+09 -1.940577e+09 -3.093469e+02 -4.792564e+01 -3.247505e+01
-2.279384e+09 -2.079382e+09 -2.239383e+09 -3.509476e+02 -4.903987e+01 -6.308928e+01
-2.889834e+09 -2.689833e+09 -2.849833e+09 -3.290107e+02 -5.203148e+01 -1.549230e+01
-1.983701e+09 -1.783705e+09 -1.943702e+09 -3.394977e+03 1.781456e+03 9.073475e+02
-2.370344e+09 -2.170348e+09 -2.330346e+09 -3.386058e+03 2.203026e+03 7.423960e+02
-2.842935e+09 -2.642934e+09 -2.802934e+09 -3.654806e+02 -7.353981e+01 -2.750772e+01
-1.819133e+09 -1.619136e+09 -1.779133e+09 -2.278407e+03 8.805309e+02 2.232675e+02
-2.585859e+09 -2.385865e+09 -2.545860e+09 -1.572419e+03 9.951944e+02 2.954141e+02
-1.793000e+09 -1.593004e+09 -1.753001e+09 -3.162766e+03 1.787045e+03 5.785036e+02
-1.695442e+09 -1.495443e+09 -1.655441e+09 2.814064e+03 1.003897e+03 -3.860537e+02
-3.166035e+09 -2.966036e+09 -3.126034e+09 1.994028e+03 5.831994e+02 -2.085604e+02
-3.186705e+09 -2.986704e+09 -3.146704e+09 2.490389e+03 7.123780e+02 -3.403874e+02
-3.497414e+09 -3.297414e+09 -3.457413e+09 2.478402e+03 9.435553e+02 -3.858076e+02
-3.280873e+09 -3.080876e+09 -3.240873e+09 -1.026815e+03 2.162014e+02 1.617514e+01
-3.595025e+09 -3.395028e+09 -3.555025e+09 -1.074055e+03 7.781380e+01 -4.914075e+01
-2.762517e+09 -2.562517e+09 -2.722516e+09 -1.039216e+03 1.053049e+02 -1.739940e+01
-3.498912e+09 -3.298916e+09 -3.458912e+09 1.318282e+03 1.847601e+02 -2.359066e+01
-2.897898e+09 -2.697900e+09 -2.857897e+09 1.323383e+03 2.168921e+02 5.878880e+01
-3.481183e+09 -3.281178e+09 -3.441182e+09 1.659931e+03 1.126110e+03 -1.113084e+03
-2.689149e+09 -2.489153e+09 -2.649149e+09 -1.387983e+03 3.059348e+02 4.788514e+01
-2.202074e+09 -2.002068e+09 -2.162072e+09 -3.684281e+02 5.692246e+02 -1.419653e+03
-1.996723e+09 -1.796727e+09 -1.956723e+09 -1.505506e+03 3.726724e+02 5.874717e+01
-2.079903e+09 -1.879907e+09 -2.039903e+09 -1.398415e+03 2.136651e+02 3.571005e+01
-2.965722e+09 -2.765725e+09 -2.925722e+09 -1.061781e+03 2.041346e+02 -3.166061e+01
-3.002186e+09 -2.802180e+09 -2.962180e+09 -6.987359e+03 6.623944e+03 -9.059860e+02
-2.389573e+09 -2.189560e+09 -2.349570e+09 3.254249e+03 -2.121535e+03 7.145222e+03
-3.178184e+09 -2.978177e+09 -3.138183e+09 1.158175e+03 1.435301e+03 -1.919270e+03
-3.360397e+09 -3.160387e+09 -3.320397e+09 1.088547e+03 1.048925e+03 -2.984894e+03
-1.974289e+09 -1.774288e+09 -1.934288e+09 3.300373e+03 1.625672e+03 -1.043496e+03
-3.462954e+09 -3.262958e+09 -3.422955e+09 2.152400e+03 6.293492e+02 -2.408462e+02
-3.285218e+09 -3.085218e+09 -3.245216e+09 -5.158353e+03 1.158171e+03 -1.137222e+02
-1.781978e+09 -1.581963e+09 -1.741978e+09 5.457647e+03 -4.419139e+03 8.321353e+03
-1.828977e+09 -1.628975e+09 -1.788977e+09 -3.297988e+03 -2.760090e+03 -2.259447e+03
-3.231838e+09 -3.031833e+09 -3.191839e+09 1.154632e+03 -1.234400e+03 -1.442950e+03
-3.214052e+09 -3.014052e+09 -3.174051e+09 -5.971925e+02 1.627588e+02 -4.505698e+01
-1.594412e+09 -1.394419e+09 -1.554413e+09 -6.043176e+03 -5.202821e+03 -2.182153e+03
-3.212354e+09 -3.012353e+09 -3.172352e+09 -3.900936e+02 1.151078e+02 -4.833174e+01
-3.305453e+09 -3.105452e+09 -3.265452e+09 -2.669421e+02 7.243931e+01 -1.519613e+01
-3.136927e+09 -2.936927e+09 -3.096926e+09 -1.192488e+02 6.506695e+01 -6.185259e+01
-3.006499e+09 -2.806494e+09 -2.966499e+09 -5.516162e+02 -1.086244e+03 -1.621488e+03
-1.693578e+09 -1.493580e+09 -1.653579e+09 -6.206808e+03 -5.172648e+03 -3.120865e+03
-3.606425e+09 -3.406420e+09 -3.566427e+09 -5.097327e+02 -2.051885e+03 -2.576461e+03
-3.271484e+09 -3.071483e+09 -3.231491e+09 -3.038280e+03 -4.997872e+03 -2.542029e+03
-1.997318e+09 -1.797318e+09 -1.957317e+09 -6.584133e+02 3.877681e+01 -7.040353e+01
-3.495549e+09 -3.295545e+09 -3.455553e+09 -2.047581e+03 -4.005723e+03 -2.447972e+03
-3.148240e+09 -2.948242e+09 -3.108241e+09 -3.225562e+02 -2.518950e+01 9.128787e+00
-1.986132e+09 -1.786134e+09 -1.946134e+09 -4.315484e+02 -3.423517e+01 4.369709e+01
-3.577508e+09 -3.377510e+09 -3.537509e+09 -5.673911e+02 -1.162064e+01 1.308549e+01
-2.588063e+09 -2.388063e+09 -2.548062e+09 -2.036611e+02 -1.581580e+01 -1.263471e+02
-2.734850e+09 -2.534849e+09 -2.694849e+09 -1.114149e+02 1.502812e+01 -6.081510e+01
-3.255288e+09 -3.055276e+09 -3.215290e+09 1.412660e+03 -1.793446e+03 -3.761419e+03
-3.495548e+09 -3.295546e+09 -3.455553e+09 -2.004567e+03 -4.263166e+03 -1.983938e+03
-1.557988e+09 -1.358002e+09 -1.517997e+09 -1.074436e+04 -1.620753e+04 -6.801357e+03
-2.804779e+09 -2.604763e+09 -2.764783e+09 3.418280e+03 4.460993e+03 -2.472750e+03
-1.765799e+09 -1.565808e+09 -1.725803e+09 -5.004974e+03 -7.766553e+03 -2.239020e+03
-1.785592e+09 -1.585592e+09 -1.745593e+09 7.218962e+02 6.755728e+01 -1.011792e+02
-2.641740e+09 -2.441740e+09 -2.601740e+09 1.030145e+03 -5.512676e+00 -2.800105e+02
-1.660983e+09 -1.460988e+09 -1.620983e+09 2.542768e+03 1.213856e+03 -1.496206e+02
-3.586789e+09 -3.386794e+09 -3.546790e+09 1.648417e+03 7.917352e+02 -5.894322e+01
-2.649492e+09 -2.449495e+09 -2.609492e+09 2.889181e+03 1.098036e+03 -5.218077e+02
-2.013767e+09 -1.813768e+09 -1.973768e+09 8.598867e+02 6.652596e+01 -1.355207e+02
-3.236757e+09 -3.036757e+09 -3.196757e+09 8.475584e+02 4.512273e+01 -7.865116e+01
-3.122484e+09 -2.922483e+09 -3.082484e+09 7.463885e+02 9.053473e+01 -8.661182e+01
-3.607519e+09 -3.407526e+09 -3.567523e+09 -1.402238e+02 1.744955e+03 6.787504e+01
-2.409346e+09 -2.209349e+09 -2.369347e+09 -2.573322e+03 1.222070e+03 2.585780e+02
-2.611972e+09 -2.411974e+09 -2.571973e+09 -2.875980e+03 1.695368e+03 6.304858e+02
-3.616032e+09 -3.416038e+09 -3.576034e+09 -5.134516e+02 7.784409e+02 3.930972e+01
-2.671041e+09 -2.471040e+09 -2.631041e+09 -2.986362e+03 1.850547e+03 9.418051e+02
-2.020392e+09 -1.820395e+09 -1.980392e+09 -2.578153e+03 1.115469e+03 3.953120e+02
-3.457324e+09 -3.257324e+09 -3.417327e+09 3.738061e+03 2.611607e+03 -1.489928e+03
-1.707070e+09 -1.507084e+09 -1.667076e+09 4.380483e+03 6.911802e+03 -1.833596e+03
-3.539988e+09 -3.339993e+09 -3.499991e+09 1.850352e+03 1.554047e+03 -2.058867e+02
-2.601394e+09 -2.401403e+09 -2.561398e+09 -4.263745e+02 2.173757e+03 3.693544e+01
-2.379842e+09 -2.179844e+09 -2.339843e+09 -3.973325e+03 2.865754e+03 1.489669e+03
-1.582931e+09 -1.382939e+09 -1.542933e+09 7.410665e+03 6.582307e+03 -3.164991e+03
-2.348622e+09 -2.148626e+09 -2.308624e+09 -3.711084e+03 2.461234e+03 7.549244e+02
-2.673750e+09 -2.473750e+09 -2.633749e+09 -2.319606e+03 3.749116e+02 2.468701e+02
-3.384782e+09 -3.184784e+09 -3.344783e+09 -2.559810e+03 9.149147e+02 3.350880e+02
-3.186037e+09 -2.986036e+09 -3.146036e+09 -5.504378e+02 -7.546313e+01 -5.399800e+01
-1.605600e+09 -1.405598e+09 -1.565599e+09 -7.425822e+01 -5.267190e+02 5.359846e+02
-1.590598e+09 -1.390597e+09 -1.550597e+09 -7.971303e+02 -1.273942e+02 3.442082e+01
-2.010639e+09 -1.810644e+09 -1.970640e+09 3.677671e+03 -4.105803e+03 2.027784e+03
-3.393256e+09 -3.193256e+09 -3.353258e+09 -3.571716e+03 2.273567e+03 1.432659e+03
-3.596732e+09 -3.396735e+09 -3.556742e+09 5.175802e+02 -6.264998e+03 1.816528e+03
-1.574885e+09 -1.374899e+09 -1.534891e+09 8.120899e+03 -1.084518e+04 4.345446e+03
-1.584691e+09 -1.384696e+09 -1.544691e+09 7.161461e+03 -5.541278e+03 3.920622e+03
-2.990141e+09 -2.790140e+09 -2.950140e+09 -2.157216e+02 5.859615e+01 -8.371210e+01
-3.516767e+09 -3.316764e+09 -3.476774e+09 8.691809e+02 -5.357735e+03 3.692025e+03
-1.995515e+09 -1.795526e+09 -1.955520e+09 2.724794e+03 -8.338237e+03 1.409149e+03
-3.411367e+09 -3.211366e+09 -3.371367e+09 -2.589014e+03 1.057854e+03 7.544194e+02
-2.472873e+09 -2.272873e+09 -2.432872e+09 -2.860211e+03 1.476569e+03 5.844164e+02
-3.615802e+09 -3.415802e+09 -3.575803e+09 9.784395e+02 -7.713617e+00 -7.858481e+01
-2.438159e+09 -2.238157e+09 -2.398158e+09 -6.335501e+02 2.259588e+02 -2.334861e+01
-3.611575e+09 -3.411577e+09 -3.571576e+09 1.022447e+03 3.853836e+00 -9.305624e+01
-1.997996e+09 -1.797996e+09 -1.957996e+09 8.953035e+02 6.926318e+01 1.169678e+01
-2.364796e+09 -2.164796e+09 -2.324796e+09 1.424970e+03 -4.629957e+01 -3.576215e+02
-1.572185e+09 -1.372186e+09 -1.532187e+09 1.532923e+03 -1.413739e+01 -4.641388e+02
-3.255121e+09 -3.055120e+09 -3.215121e+09 -2.164134e+03 1.025624e+03 3.965065e+02
-3.320299e+09 -3.120298e+09 -3.280299e+09 2.521770e+02 2.923530e+01 5.939785e+00
-2.679188e+09 -2.479187e+09 -2.639187e+09 1.723878e+02 1.217138e+01 -2.443777e+01
-2.007708e+09 -1.807707e+09 -1.967707e+09 3.292264e+02 3.611963e+01 -8.579421e+00
-1.694247e+09 -1.494251e+09 -1.654250e+09 -2.573061e+02 1.969412e+01 -3.963091e+02
-3.277575e+09 -3.077576e+09 -3.237576e+09 4.518723e+02 4.380524e+01 2.768000e+01
-3.035365e+09 -2.835364e+09 -2.995364e+09 3.151529e+02 3.801855e+01 -2.387463e+01
-2.403510e+09 -2.203510e+09 -2.363510e+09 9.006555e+02 4.898268e+01 -8.078313e+01
-3.087790e+09 -2.887790e+09 -3.047790e+09 2.093377e+02 3.724346e+01 -1.962247e+01
-1.572185e+09 -1.372187e+09 -1.532187e+09 1.143231e+03 8.405829e+01 -6.061087e+02
-3.027039e+09 -2.827039e+09 -2.987039e+09 1.978289e+02 3.413506e+01 -1.797710e+01
-3.017679e+09 -2.817679e+09 -2.977679e+09 2.326071e+02 2.845019e+01 -2.845583e+01
-1.576873e+09 -1.376871e+09 -1.536872e+09 8.497783e+02 2.826287e+02 3.245209e+01
-1.921802e+09 -1.721801e+09 -1.881801e+09 2.277173e+02 3.897945e+01 4.307807e+00
-1.540838e+09 -1.340840e+09 -1.500841e+09 1.528120e+03 -1.913373e+02 -8.489942e+02
-2.652371e+09 -2.452371e+09 -2.612371e+09 2.006632e+02 2.973301e+01 -4.359560e+01
-2.097277e+09 -1.897276e+09 -2.057276e+09 2.029052e+02 2.073844e+01 -2.036767e+01
-2.450752e+09 -2.250751e+09 -2.410751e+09 2.063751e+02 2.716679e+01 -5.095729e+01
-1.763378e+09 -1.563377e+09 -1.723377e+09 2.916286e+02 3.465431e+01 -3.659542e+01
-3.590859e+09 -3.390868e+09 -3.550831e+09 -1.106456e+03 -2.738016e+02 1.716897e+04
-3.061562e+09 -2.861552e+09 -3.021562e+09 -6.074860e+03 -1.671915e+03 4.428094e+02
-1.583593e+09 -1.383629e+09 -1.543609e+09 2.225851e+04 3.867542e+04 -1.383143e+04
-2.587646e+09 -2.387642e+09 -2.547644e+09 2.143657e+03 1.897726e+03 -1.192888e+03
-1.627690e+09 -1.427670e+09 -1.587685e+09 -2.699568e+03 -5.405964e+03 -1.180819e+03
-3.346124e+09 -3.146100e+09 -3.306084e+09 3.995472e+03 -2.436155e+04 -1.215640e+04
-3.536789e+09 -3.336770e+09 -3.496782e+09 5.835172e+02 -4.164192e+03 -1.043919e+03
-1.982210e+09 -1.782207e+09 -1.942208e+09 5.666429e+03 2.872677e+03 -2.973679e+03
-2.357685e+09 -2.157686e+09 -2.317715e+09 1.005130e+04 2.495145e+04 -9.479658e+03
-2.934529e+09 -2.734514e+09 -2.894490e+09 -4.629419e+03 9.085515e+03 -1.920946e+04
-3.434430e+09 -3.234427e+09 -3.394416e+09 -3.594951e+03 -3.734533e+03 -8.430542e+03
-2.461398e+09 -2.261395e+09 -2.421397e+09 3.822850e+03 2.679292e+03 -2.071547e+03
-1.787697e+09 -1.587693e+09 -1.747694e+09 5.147163e+03 3.089086e+03 -2.521639e+03
-3.434428e+09 -3.234422e+09 -3.394413e+09 -4.517187e+03 1.190689e+03 -8.289730e+03
-1.962355e+09 -1.762275e+09 -1.922406e+09 6.849361e+03 1.881476e+03 5.376312e+03
-1.619374e+09 -1.419323e+09 -1.579338e+09 8.702829e+03 -3.415305e+04 -1.635661e+04
-2.585124e+09 -2.385120e+09 -2.545125e+09 4.563590e+03 4.328517e+03 -3.372773e+03
-2.899785e+09 -2.699780e+09 -2.859785e+09 3.693455e+03 3.076433e+03 -2.860806e+03
-3.570710e+09 -3.370713e+09 -3.530717e+09 -3.292858e+03 4.358564e+03 1.938563e+03
-1.974952e+09 -1.774966e+09 -1.934958e+09 -1.780290e+04 1.688813e+04 1.126458e+04
-1.644964e+09 -1.444955e+09 -1.604959e+09 -4.747942e+03 1.446494e+03 3.278611e+03
-1.667779e+09 -1.467753e+09 -1.627770e+09 -1.094518e+04 3.877030e+03 1.207641e+04
-2.433830e+09 -2.233828e+09 -2.393829e+09 -2.902656e+03 1.401826e+03 1.033996e+03
-3.056022e+09 -2.855998e+09 -3.016024e+09 -6.959549e+03 -1.613934e+03 9.793414e+03
-3.497569e+09 -3.297567e+09 -3.457583e+09 -2.950093e+03 1.046716e+04 5.163676e+03
-3.469735e+09 -3.269724e+09 -3.429738e+09 -1.694177e+03 4.307974e+03 5.988095e+03
-1.833310e+09 -1.633294e+09 -1.793301e+09 -1.012387e+03 -2.814938e+03 2.531265e+03
-3.445354e+09 -3.245344e+09 -3.405350e+09 2.356030e+03 -2.133015e+03 1.306050e+03
-3.108692e+09 -2.908687e+09 -3.068690e+09 -1.494841e+03 6.815614e+02 1.192990e+03
-3.131352e+09 -2.931341e+09 -3.091346e+09 1.827155e+03 -2.443754e+03 6.714342e+02
-3.138998e+09 -2.938990e+09 -3.098993e+09 -1.400948e+02 -2.000097e+02 1.281593e+03
-2.714013e+09 -2.514022e+09 -2.674018e+09 2.054689e+03 2.984120e+03 -6.346844e+02
-2.529244e+09 -2.329251e+09 -2.489246e+09 1.685568e+03 1.199470e+03 -9.601443e+01
-3.361939e+09 -3.161918e+09 -3.321932e+09 1.038698e+04 -1.862459e+04 -6.698274e+03
-2.064170e+09 -1.864175e+09 -2.024172e+09 2.172697e+03 -1.011333e+03 -5.027413e+03
-3.226875e+09 -3.026882e+09 -3.186878e+09 -4.881405e+02 9.647357e+02 4.404005e+01
-1.611585e+09 -1.411593e+09 -1.571586e+09 8.279839e+02 9.017989e+02 -5.639528e+01
-3.411500e+09 -3.211508e+09 -3.371503e+09 3.142718e+02 9.663576e+02 7.824457e+01
-3.335733e+09 -3.135740e+09 -3.295736e+09 1.736561e+03 1.489656e+03 -2.546128e+02
-2.928037e+09 -2.728045e+09 -2.888040e+09 1.138168e+03 1.776688e+03 -2.454434e+02
-3.628734e+09 -3.428731e+09 -3.588734e+09 -3.735898e+03 -8.313129e+02 8.237314e+01
-2.769323e+09 -2.569317e+09 -2.729323e+09 -1.415812e+03 9.286475e+02 -1.299968e+03
-2.833938e+09 -2.633946e+09 -2.793941e+09 2.651893e+02 1.431529e+03 -1.682226e+02
-3.175603e+09 -2.975600e+09 -3.135602e+09 2.507419e+03 9.573186e+02 -7.260795e+02
-2.254490e+09 -2.054490e+09 -2.214489e+09 2.100970e+03 4.571934e+02 -9.148341e+01
-3.423124e+09 -3.223130e+09 -3.383133e+09 1.090376e+03 -5.964043e+03 1.511963e+03
-3.142232e+09 -2.942240e+09 -3.102246e+09 3.649913e+02 -9.741249e+03 1.429240e+03
-3.403428e+09 -3.203436e+09 -3.363439e+09 -4.513211e+02 -7.477314e+03 3.613693e+02
-2.566253e+09 -2.366263e+09 -2.526260e+09 1.892339e+03 -5.585160e+03 1.668081e+03
-3.216476e+09 -3.016484e+09 -3.176487e+09 -5.962845e+02 -7.445617e+03 1.020109e+02
-3.243419e+09 -3.043427e+09 -3.203426e+09 2.765804e+02 -3.351523e+03 4.655324e+02
-2.755300e+09 -2.555310e+09 -2.715308e+09 -5.219709e+02 -6.648930e+03 3.083708e+01
-2.552990e+09 -2.353001e+09 -2.512999e+09 -4.251090e+02 -6.481785e+03 6.628694e+02
-2.038186e+09 -1.838189e+09 -1.998188e+09 2.037938e+03 -4.041579e+02 -2.159904e+03
-3.616032e+09 -3.416038e+09 -3.576033e+09 -4.771342e+01 3.415226e+02 1.534173e+01
-2.394006e+09 -2.194014e+09 -2.354009e+09 -7.989552e+02 1.030937e+03 4.291963e+01
-2.939641e+09 -2.739646e+09 -2.899640e+09 2.407851e+02 -2.156022e+01 -3.961349e+03
-3.267199e+09 -3.067203e+09 -3.227199e+09 1.555002e+03 2.633574e+02 1.619751e+01
-1.596719e+09 -1.396722e+09 -1.556722e+09 2.076576e+03 -5.573390e+02 -1.789337e+03
-1.645617e+09 -1.445619e+09 -1.605619e+09 1.234954e+03 9.451771e+00 -3.281348e+02
-2.194996e+09 -1.994998e+09 -2.154998e+09 1.875532e+03 -1.670675e+02 -1.257864e+03
-2.160096e+09 -1.960094e+09 -2.120092e+09 2.489481e+03 -2.802683e+03 -4.072438e+03
-2.460097e+09 -2.260101e+09 -2.420100e+09 1.187406e+03 -2.696413e+02 -1.066252e+03
-2.479323e+09 -2.279319e+09 -2.439321e+09 1.904189e+03 -9.182918e+02 -5.153244e+02
-3.028522e+09 -2.828515e+09 -2.988519e+09 1.838543e+02 -2.576732e+02 4.213045e+02
-1.589464e+09 -1.389468e+09 -1.549464e+09 -1.370795e+03 4.749433e+02 -5.919991e+01
-2.780440e+09 -2.580440e+09 -2.740439e+09 -1.569823e+03 3.108606e+02 7.945436e+01
-2.948750e+09 -2.748752e+09 -2.908750e+09 2.608214e+03 -6.314936e+02 -2.071345e+03
-2.181596e+09 -1.981596e+09 -2.141595e+09 -1.822642e+02 1.656330e+01 -7.347604e+01
-3.596855e+09 -3.396854e+09 -3.556854e+09 -3.399609e+02 1.810841e+01 -5.811208e+01
-1.988341e+09 -1.788341e+09 -1.948340e+09 -6.828306e+02 4.689202e+01 -6.251848e+01
-1.602087e+09 -1.402094e+09 -1.562088e+09 -4.755542e+02 7.699852e+02 -4.764005e+01
-3.601153e+09 -3.401160e+09 -3.561155e+09 1.044345e+03 7.558418e+02 -1.144748e+02
-1.958299e+09 -1.758306e+09 -1.918300e+09 1.122709e+02 4.505802e+02 -2.099094e+01
-1.696840e+09 -1.496840e+09 -1.656840e+09 3.434660e+02 5.460162e+01 -2.826175e-01
-2.064526e+09 -1.864525e+09 -2.024525e+09 2.064338e+02 1.838056e+01 -3.698236e+01
-3.489678e+09 -3.289677e+09 -3.449677e+09 2.192295e+02 -2.927081e-01 -1.799795e+01
-1.674909e+09 -1.474910e+09 -1.634908e+09 1.144018e+03 -7.487930e+02 2.286781e+02
-3.385253e+09 -3.185253e+09 -3.345252e+09 -8.369212e+02 2.235427e+01 -1.063708e+02
-1.579796e+09 -1.379795e+09 -1.539796e+09 3.941611e+02 7.521349e+01 -3.572825e+01
-3.150174e+09 -2.950173e+09 -3.110173e+09 -9.084911e+02 1.996839e+02 -3.209562e+01
-1.805143e+09 -1.605143e+09 -1.765142e+09 -6.150305e+02 2.087741e+02 -4.103156e+01
-1.655355e+09 -1.455361e+09 -1.615355e+09 5.679497e+03 3.979512e+03 -1.649204e+03
-2.782698e+09 -2.582699e+09 -2.742699e+09 7.695319e+02 3.750846e+01 -1.325531e+02
-3.418384e+09 -3.218385e+09 -3.378385e+09 9.648417e+02 1.819985e+00 -2.072804e+02
-2.659201e+09 -2.459204e+09 -2.619201e+09 2.303020e+03 7.848602e+02 -2.217670e+02
-1.804196e+09 -1.604198e+09 -1.764198e+09 8.846067e+02 7.753327e+01 -7.950786e+01
-3.390266e+09 -3.190267e+09 -3.350267e+09 8.412159e+02 8.185203e+00 -1.701458e+02
-2.003145e+09 -1.803153e+09 -1.963147e+09 -7.954332e+02 1.027038e+03 8.989516e+01
-1.678739e+09 -1.478736e+09 -1.638736e+09 3.275276e+03 1.158740e+03 -1.031914e+03
-2.970491e+09 -2.770497e+09 -2.930492e+09 -7.168834e+02 3.757595e+02 -5.693683e+01
-3.391490e+09 -3.191496e+09 -3.351492e+09 -1.150279e+03 6.347536e+02 -4.459957e+01
-2.105740e+09 -1.905749e+09 -2.065743e+09 1.715448e+03 2.689219e+03 -3.540083e+02
-2.594248e+09 -2.394245e+09 -2.554247e+09 3.901542e+03 2.177786e+03 -1.713809e+03
-3.092526e+09 -2.892531e+09 -3.052527e+09 -1.138996e+03 5.149286e+02 3.772123e+01
-3.581246e+09 -3.381252e+09 -3.541249e+09 -1.093619e+03 9.676724e+02 1.809256e+02
-3.117645e+09 -2.917653e+09 -3.077650e+09 1.957518e+03 2.580592e+03 -4.512184e+02
-1.588440e+09 -1.388437e+09 -1.548437e+09 5.758690e+03 3.700470e+03 -2.679194e+03
-3.503815e+09 -3.303816e+09 -3.463805e+09 2.562422e+03 -1.834446e+03 -5.422884e+03
-3.503818e+09 -3.303815e+09 -3.463806e+09 3.120195e+03 -3.224572e+03 -3.852839e+03
-3.609314e+09 -3.409315e+09 -3.569306e+09 -1.251593e+02 4.947799e+01 -4.729525e+03
-2.484899e+09 -2.284904e+09 -2.444900e+09 -1.300768e+03 3.371334e+02 -1.839976e+01
-3.111869e+09 -2.911866e+09 -3.071867e+09 -2.485590e+03 1.289308e+03 -9.775356e+02
-3.593781e+09 -3.393780e+09 -3.553780e+09 1.526118e+02 1.412611e+01 -3.582976e+01
-1.579796e+09 -1.379795e+09 -1.539796e+09 2.540499e+02 6.775622e+01 -3.882674e+01
-2.460650e+09 -2.260642e+09 -2.420605e+09 -8.043199e+03 1.453419e+04 -2.441567e+04
-3.240317e+09 -3.040308e+09 -3.200291e+09 -5.972739e+03 9.469414e+03 -1.590696e+04
-3.064759e+09 -2.864749e+09 -3.024736e+09 -3.336009e+03 5.252295e+02 -6.512706e+03
-2.054110e+09 -1.854098e+09 -2.014102e+09 -8.475798e+03 3.688422e+03 -2.499539e+04
-1.946701e+09 -1.746679e+09 -1.906681e+09 -7.930586e+03 -5.648589e+03 -4.185870e+03
-1.765078e+09 -1.565075e+09 -1.725076e+09 7.956676e+03 5.962134e+03 -4.027525e+03
-1.926905e+09 -1.726913e+09 -1.886907e+09 1.844411e+03 1.828129e+03 -4.021146e+02
-1.568628e+09 -1.368649e+09 -1.528634e+09 -1.772465e+03 8.889657e+03 5.652026e+02
-2.612225e+09 -2.412227e+09 -2.572227e+09 2.548645e+02 2.040426e+01 -6.570599e+01
-2.541251e+09 -2.341243e+09 -2.501249e+09 4.678882e+03 4.169877e+03 -5.087778e+03
-2.396417e+09 -2.196407e+09 -2.356429e+09 1.380465e+04 1.649494e+04 -1.660405e+04
-1.704529e+09 -1.504550e+09 -1.664536e+09 6.891583e+03 1.118848e+04 -3.060842e+03
-3.576256e+09 -3.376258e+09 -3.536264e+09 3.584842e+03 6.274522e+03 -2.627023e+03
-2.800571e+09 -2.600566e+09 -2.760570e+09 3.495652e+03 3.565831e+03 -3.133222e+03
-2.720676e+09 -2.520688e+09 -2.680694e+09 9.201480e+02 1.633031e+04 7.741889e+02
-3.602855e+09 -3.402860e+09 -3.562872e+09 -2.354183e+02 1.071941e+04 8.114417e+02
-1.973916e+09 -1.773915e+09 -1.933914e+09 2.880146e+03 1.036798e+03 -5.089532e+02
-2.592625e+09 -2.392632e+09 -2.552634e+09 5.129712e+03 1.149557e+04 -4.182048e+03
-1.671735e+09 -1.471732e+09 -1.631733e+09 3.341239e+03 1.867950e+03 -1.194093e+03
-2.698567e+09 -2.498574e+09 -2.658569e+09 1.370983e+03 7.614286e+02 -6.143548e+01
-2.778100e+09 -2.578110e+09 -2.738104e+09 -2.247888e+02 3.814911e+03 -6.680883e+01
-2.965051e+09 -2.765052e+09 -2.925054e+09 4.723802e+03 3.138395e+03 -2.331230e+03
-2.065265e+09 -1.865273e+09 -2.025268e+09 3.293880e+03 4.023262e+03 -1.263476e+03
-3.201209e+09 -3.001204e+09 -3.161210e+09 3.484487e+03 3.257463e+03 -2.901155e+03
-1.980577e+09 -1.780576e+09 -1.940577e+09 -2.660811e+02 -4.170475e+01 -2.611153e+01
-3.414157e+09 -3.214159e+09 -3.374159e+09 9.320949e+02 7.678027e+00 -2.144007e+02
-3.611575e+09 -3.411577e+09 -3.571576e+09 7.055430e+02 -3.408293e+00 -2.418022e+02
-2.010852e+09 -1.810855e+09 -1.970855e+09 1.076885e+03 6.698052e+01 -4.449061e+02
-2.091234e+09 -1.891238e+09 -2.051237e+09 1.158561e+02 -2.138460e+00 -5.628936e+02
-3.413047e+09 -3.213050e+09 -3.373049e+09 7.668771e+02 -2.378119e+01 -4.893161e+02
-2.420313e+09 -2.220316e+09 -2.380315e+09 5.596709e+02 6.591047e+01 -6.666249e+02
-1.586920e+09 -1.386919e+09 -1.546919e+09 -3.257100e+02 -2.224881e+02 -6.282005e+01
-3.314963e+09 -3.114965e+09 -3.274965e+09 6.052940e+02 4.548162e+01 -1.370134e+02
-3.195059e+09 -2.995061e+09 -3.155060e+09 5.961840e+02 3.478135e+01 -3.561024e+01
-2.610182e+09 -2.410186e+09 -2.570185e+09 1.819299e+02 -6.633444e+00 -2.674750e+02
-2.140733e+09 -1.940733e+09 -2.100733e+09 5.918518e+02 2.904736e+01 -5.170865e+01
-2.269850e+09 -2.069849e+09 -2.229849e+09 -2.887070e+02 -1.857112e+01 -4.816876e+00
-1.561916e+09 -1.361949e+09 -1.521931e+09 6.427102e+02 -2.154751e+04 1.919886e+03
-3.335474e+09 -3.135474e+09 -3.295474e+09 5.135067e+02 4.363698e+01 -2.455784e+01
-1.575275e+09 -1.375277e+09 -1.535277e+09 -5.688398e+01 -3.155540e+00 1.144918e+02
-2.789315e+09 -2.589314e+09 -2.749315e+09 4.351837e+02 3.305133e+01 -1.563292e+01
-2.928311e+09 -2.728320e+09 -2.888316e+09 3.191540e+02 -3.399009e+03 4.619628e+02
-1.704559e+09 -1.504592e+09 -1.664581e+09 7.373018e+02 -2.274731e+04 9.865104e+02
-3.292873e+09 -3.092876e+09 -3.252890e+09 -4.104855e+03 -1.109642e+04 -1.746517e+03
-1.591981e+09 -1.392002e+09 -1.552011e+09 1.228852e+04 -2.680420e+04 1.302120e+04
-1.955006e+09 -1.755006e+09 -1.915006e+09 4.050082e+02 7.840266e+01 -3.270583e+01
-2.368428e+09 -2.168434e+09 -2.328452e+09 -4.040266e+03 -2.049545e+04 -1.776503e+03
-2.741725e+09 -2.541725e+09 -2.701725e+09 4.053600e+02 4.253885e+01 -9.649420e-01
-1.578247e+09 -1.378246e+09 -1.538247e+09 -6.920194e+02 -5.514489e+02 3.220076e+02
-1.803987e+09 -1.604004e+09 -1.763993e+09 3.345742e+02 -8.405489e+03 6.665485e+02
-2.362261e+09 -2.162269e+09 -2.322272e+09 -4.248652e+03 -1.435221e+04 -2.003879e+03
-3.428905e+09 -3.228910e+09 -3.388914e+09 -3.144767e+02 -5.223594e+03 3.125677e+02
-2.872766e+09 -2.672766e+09 -2.832766e+09 1.266501e+03 -1.076157e+03 5.383629e+02
-2.649660e+09 -2.449668e+09 -2.609666e+09 -2.491964e+03 -5.601952e+03 -9.909935e+02
-1.795137e+09 -1.595136e+09 -1.755136e+09 -2.455430e+02 -2.392874e+02 -4.782621e+01
-3.609019e+09 -3.409017e+09 -3.569018e+09 -3.126684e+02 -2.353509e+02 1.458522e+02
-3.590646e+09 -3.390645e+09 -3.550646e+09 -7.275131e+02 -2.127766e+02 1.834651e+02
-1.711885e+09 -1.511885e+09 -1.671884e+09 5.651151e+02 -4.607447e+02 1.834193e+02
-2.662400e+09 -2.462409e+09 -2.622408e+09 -8.531143e+02 -7.162548e+03 3.701528e+01
-3.233015e+09 -3.033014e+09 -3.193014e+09 5.420638e+02 -3.501584e+02 3.040795e+02
-1.979197e+09 -1.779196e+09 -1.939196e+09 -4.518009e+02 -2.230868e+02 5.225621e+01
-2.341227e+09 -2.141227e+09 -2.301228e+09 -1.404137e+03 -1.716524e+02 2.399028e+01
-3.630075e+09 -3.430077e+09 -3.590077e+09 1.676892e+02 1.162292e+01 -6.251568e+00
-3.282485e+09 -3.082487e+09 -3.242486e+09 -7.035354e+02 -3.979355e+01 2.003571e+01
-1.673891e+09 -1.473903e+09 -1.633894e+09 -1.253297e+03 -3.855407e+03 -1.553346e+02
-2.231134e+09 -2.031135e+09 -2.191135e+09 4.961955e+02 2.322727e+01 -1.174106e+01
-3.615858e+09 -3.415863e+09 -3.575866e+09 4.327030e+02 -5.204194e+03 6.144233e+02
-1.591950e+09 -1.391974e+09 -1.551960e+09 -3.199857e+01 -1.259623e+04 7.294646e+02
-3.576256e+09 -3.376253e+09 -3.536265e+09 3.584161e+03 6.025803e+03 -3.860823e+03
-3.113716e+09 -2.913719e+09 -3.073718e+09 -5.033488e+02 8.297423e+00 -1.794980e+02
-1.599810e+09 -1.399827e+09 -1.559816e+09 1.311757e+03 -7.503507e+03 9.942590e+02
-2.746163e+09 -2.546170e+09 -2.706172e+09 1.904187e+03 -8.473490e+03 2.956825e+03
-3.173933e+09 -2.973924e+09 -3.133949e+09 -3.552999e+03 4.328437e+03 2.739579e+03
-3.577383e+09 -3.377384e+09 -3.537396e+09 -1.568998e+03 -8.393822e+03 -8.485304e+02
-1.591953e+09 -1.391975e+09 -1.551961e+09 1.132022e+03 -1.277093e+04 9.591168e+02
-1.656295e+09 -1.456320e+09 -1.616304e+09 -3.115214e+03 -1.218740e+04 -7.766242e+02
-3.390911e+09 -3.190914e+09 -3.350913e+09 -2.555345e+02 2.031239e+01 -6.575803e+01
-3.430035e+09 -3.230038e+09 -3.390037e+09 -2.826122e+02 -3.605314e+00 -1.109400e+02
-3.610819e+09 -3.410815e+09 -3.570823e+09 1.012227e+02 -2.933986e+03 2.993238e+03
-3.516767e+09 -3.316764e+09 -3.476774e+09 6.507067e+02 -5.141407e+03 3.339253e+03
-3.330648e+09 -3.130648e+09 -3.290653e+09 1.596829e+03 -5.358971e+03 2.812689e+03
-3.590775e+09 -3.390770e+09 -3.550779e+09 -1.221756e+03 -3.053542e+03 3.824491e+03
-3.065265e+09 -2.865268e+09 -3.025267e+09 4.934541e+02 3.487292e+01 -3.391272e+02
-1.641964e+09 -1.441966e+09 -1.601966e+09 -8.118811e+02 -4.937563e+01 -1.569577e+01
-2.117787e+09 -1.917777e+09 -2.077775e+09 1.539638e+04 2.740964e+04 2.540253e+04
-1.564925e+09 -1.364924e+09 -1.524924e+09 -5.725593e+02 -1.502091e+02 -4.339466e+00
-1.698987e+09 -1.498988e+09 -1.658989e+09 -1.278522e+03 -2.160355e+02 -3.192013e+01
-3.422586e+09 -3.222583e+09 -3.382575e+09 9.689242e+03 8.949275e+03 5.045414e+03
-3.585264e+09 -3.385262e+09 -3.545263e+09 -1.009886e+03 -2.302459e+02 3.965779e+02
-3.307421e+09 -3.107412e+09 -3.267388e+09 1.347686e+04 2.187893e+04 1.567610e+04
-3.606295e+09 -3.406293e+09 -3.566295e+09 -1.024522e+03 -4.536206e+02 5.563736e+02
-2.166322e+09 -1.966321e+09 -2.126322e+09 -3.703995e+02 -2.993804e+01 -6.567678e+00
-1.707984e+09 -1.507983e+09 -1.667983e+09 -2.821674e+02 -1.302905e+02 -2.478603e+01
-2.053623e+09 -1.853635e+09 -2.013629e+09 -2.498855e+03 -8.603988e+03 -9.633607e+02
-3.128934e+09 -2.928935e+09 -3.088946e+09 -2.363303e+03 -7.868033e+03 -2.042823e+03
-2.633152e+09 -2.433160e+09 -2.593159e+09 -2.315902e+03 -5.700954e+03 -7.276121e+02
-3.145109e+09 -2.945117e+09 -3.105117e+09 -2.123352e+03 -4.968485e+03 -7.115171e+02
-2.113783e+09 -1.913793e+09 -2.073787e+09 -2.148910e+03 -5.542569e+03 -7.073260e+02
-3.244605e+09 -3.044609e+09 -3.204615e+09 -1.704796e+03 -7.730944e+03 -9.413558e+02
-3.534933e+09 -3.334937e+09 -3.494937e+09 -2.355176e+03 -2.840611e+03 -1.017431e+03
-3.198737e+09 -2.998745e+09 -3.158743e+09 -1.644634e+03 -3.457306e+03 -5.419649e+02
-1.587871e+09 -1.387877e+09 -1.547877e+09 4.046814e+03 -2.073147e+03 -6.768690e+03
-2.408094e+09 -2.208070e+09 -2.368113e+09 -1.347263e+04 1.748384e+04 1.427637e+04
-2.512863e+09 -2.312880e+09 -2.472879e+09 -5.281482e+02 1.451862e+04 9.586329e+02
-3.554111e+09 -3.354113e+09 -3.514114e+09 -1.945349e+03 -2.132318e+03 -5.499255e+02
-3.176253e+09 -2.976241e+09 -3.136260e+09 -5.829536e+03 4.140036e+03 6.547155e+03
-2.112657e+09 -1.912640e+09 -2.072645e+09 -2.020314e+02 -1.082773e+03 3.627855e+03
-1.875338e+09 -1.675333e+09 -1.835336e+09 -2.262830e+03 9.474253e+02 1.400420e+03
-2.794884e+09 -2.594874e+09 -2.754881e+09 -1.572499e+03 1.205816e+03 2.575527e+03
-1.697014e+09 -1.497013e+09 -1.657013e+09 -3.281780e+02 -7.077405e+01 -4.856191e+01
-1.647964e+09 -1.447963e+09 -1.607964e+09 -3.256473e+02 -9.687438e+01 -3.074551e+01
-3.166701e+09 -2.966705e+09 -3.126710e+09 -5.989254e+03 7.591051e+03 3.706299e+03
-3.488263e+09 -3.288261e+09 -3.448263e+09 -1.345610e+03 -1.317465e+03 -6.550198e+02
-3.612908e+09 -3.412902e+09 -3.572907e+09 -7.681845e+02 4.695085e+02 1.813050e+03
-1.847733e+09 -1.647728e+09 -1.807731e+09 -5.623777e+03 3.490154e+03 3.155038e+03
-3.166165e+09 -2.966165e+09 -3.126169e+09 -4.429509e+03 3.595920e+03 2.278150e+03
-2.734560e+09 -2.534562e+09 -2.694561e+09 -4.495455e+03 3.330555e+03 2.244881e+03
-2.590388e+09 -2.390386e+09 -2.550388e+09 -4.174777e+03 2.949771e+03 2.285020e+03
-3.176482e+09 -2.976480e+09 -3.136485e+09 -4.263664e+03 3.911039e+03 2.721453e+03
-1.743961e+09 -1.543965e+09 -1.703960e+09 -5.695482e+03 2.896283e+03 2.134828e+03
-1.956571e+09 -1.756579e+09 -1.916574e+09 -4.175076e+03 4.912765e+03 1.423701e+03
-3.185963e+09 -2.985960e+09 -3.145961e+09 -2.029891e+03 -8.165419e+02 -9.372269e+02
-2.381500e+09 -2.181500e+09 -2.341500e+09 -3.975684e+03 2.563367e+03 1.500397e+03
-3.153467e+09 -2.953469e+09 -3.113471e+09 -4.451720e+03 4.125443e+03 2.268823e+03
-1.772938e+09 -1.572939e+09 -1.732938e+09 -5.309252e+03 3.340634e+03 1.568616e+03
-1.945016e+09 -1.745018e+09 -1.905016e+09 -7.123272e+03 4.384346e+03 2.894936e+03
-1.742247e+09 -1.542250e+09 -1.702247e+09 -9.194556e+03 7.018208e+03 3.225417e+03
-2.327056e+09 -2.127058e+09 -2.287059e+09 -5.967872e+03 5.409724e+03 2.958221e+03
-2.779695e+09 -2.579696e+09 -2.739696e+09 -3.300056e+03 1.656846e+03 9.627780e+02
-3.179241e+09 -2.979242e+09 -3.139243e+09 -3.279717e+03 1.973590e+03 9.345851e+02
-3.397820e+09 -3.197820e+09 -3.357820e+09 -2.517489e+03 1.263863e+03 7.124338e+02
-2.785993e+09 -2.585997e+09 -2.745995e+09 3.650200e+03 2.155717e+03 -9.092475e+02
-2.185740e+09 -1.985734e+09 -2.145737e+09 1.852837e+03 1.208086e+03 -1.762849e+03
-1.894946e+09 -1.694941e+09 -1.854943e+09 1.828702e+03 1.269824e+03 -1.623607e+03
-3.395908e+09 -3.195904e+09 -3.355908e+09 -3.131627e+03 1.946148e+03 1.925578e+03
-1.984073e+09 -1.784073e+09 -1.944072e+09 -4.031528e+03 1.859360e+03 1.279306e+03
-2.947323e+09 -2.747318e+09 -2.907305e+09 2.667686e+03 -7.692422e+03 -9.363244e+03
-2.915444e+09 -2.715430e+09 -2.875440e+09 -1.762108e+03 9.809633e+01 6.560278e+03
-1.707073e+09 -1.507085e+09 -1.667076e+09 6.726927e+03 6.240134e+03 -2.223480e+03
-1.548301e+09 -1.348361e+09 -1.508320e+09 8.858744e+03 3.424150e+04 -6.562056e+03
-1.795152e+09 -1.595160e+09 -1.755154e+09 4.172512e+03 3.586441e+03 -1.003195e+03
-3.602177e+09 -3.402169e+09 -3.562180e+09 2.241231e+03 2.937055e+03 -3.854058e+03
-2.599310e+09 -2.399313e+09 -2.559312e+09 3.903068e+03 2.164149e+03 -1.117066e+03
-1.582934e+09 -1.382932e+09 -1.542933e+09 8.193206e+03 5.375511e+03 -3.845095e+03
-3.279873e+09 -3.079876e+09 -3.239873e+09 -1.328823e+03 2.907179e+02 1.017451e+02
-1.577536e+09 -1.377438e+09 -1.537534e+09 -2.469694e+04 4.190182e+03 3.596014e+04
-2.029133e+09 -1.829119e+09 -1.989122e+09 3.405955e+03 -9.560581e+03 -1.040053e+04
-3.070390e+09 -2.870392e+09 -3.030390e+09 -1.326967e+03 2.158498e+02 -3.487218e+01
-3.323574e+09 -3.123571e+09 -3.283545e+09 2.416706e+03 -8.248812e+03 -1.996415e+04
-1.841141e+09 -1.641091e+09 -1.801143e+09 -1.678926e+04 -1.289022e+03 2.422560e+04
-1.589658e+09 -1.389664e+09 -1.549659e+09 -1.069478e+03 6.157631e+02 -5.969175e+01
-3.024554e+09 -2.824555e+09 -2.984554e+09 -2.340135e+03 1.039528e+03 3.667638e+02
-1.557303e+09 -1.357301e+09 -1.517301e+09 -9.275904e+02 2.171762e+02 3.963541e+00
-2.717045e+09 -2.517052e+09 -2.677049e+09 -2.962836e+03 2.839530e+03 1.052631e+03
-1.573412e+09 -1.373417e+09 -1.533412e+09 -1.688623e+03 6.381933e+02 8.148189e+01
-3.606598e+09 -3.406597e+09 -3.566597e+09 -5.235445e+02 -6.411375e+01 3.200966e+01
-2.184011e+09 -1.984012e+09 -2.144012e+09 -6.135128e+02 -3.968438e+01 9.791433e+00
-2.544646e+09 -2.344647e+09 -2.504649e+09 -6.033998e+03 5.598700e+03 2.887584e+03
-3.204475e+09 -3.004474e+09 -3.164475e+09 -5.533331e+02 -5.355683e+01 1.004019e+02
-2.771223e+09 -2.571225e+09 -2.731224e+09 -3.266330e+03 1.738718e+03 9.591320e+02
-3.498986e+09 -3.298985e+09 -3.458985e+09 -3.523941e+02 -1.836884e+01 -2.334269e+01
-3.134993e+09 -2.934992e+09 -3.094992e+09 -3.619620e+02 -6.079906e+01 -3.459504e+01
-2.516651e+09 -2.316656e+09 -2.476654e+09 -3.007564e+03 2.771890e+03 7.179040e+02
-2.853905e+09 -2.653903e+09 -2.813904e+09 -3.149798e+02 -9.843008e+01 -7.180724e+00
-3.604892e+09 -3.404891e+09 -3.564891e+09 -4.904279e+02 -4.170498e+01 3.563391e+01
-3.423592e+09 -3.223595e+09 -3.383594e+09 -6.640115e+02 -2.360142e+01 -3.085159e+01
-1.575275e+09 -1.375277e+09 -1.535277e+09 -2.066669e+02 -6.108385e+00 2.007565e+01
-2.030974e+09 -1.830976e+09 -1.990976e+09 -5.759312e+02 -4.072164e+01 1.946035e+01
-2.857179e+09 -2.657181e+09 -2.817181e+09 -3.768240e+02 -3.251964e+01 4.873343e+01
-3.597302e+09 -3.397302e+09 -3.557302e+09 -5.920907e+02 -1.496136e+01 -7.131525e+01
-3.296478e+09 -3.096478e+09 -3.256478e+09 -4.129518e+02 -4.002395e+01 -2.565130e+01
-3.372189e+09 -3.172188e+09 -3.332189e+09 -5.784816e+02 -7.930203e+01 -1.282726e+01
-3.589135e+09 -3.389135e+09 -3.549135e+09 -7.799063e+02 -5.986190e+01 3.220435e+00
-2.788613e+09 -2.588612e+09 -2.748613e+09 -8.435076e+02 -1.326074e+02 2.549939e+01
-2.044021e+09 -1.844021e+09 -2.004021e+09 -8.646835e+02 -6.674723e+01 8.735459e+01
-2.247469e+09 -2.047470e+09 -2.207470e+09 -5.577459e+02 -3.583393e+01 -6.802877e+00
-3.286447e+09 -3.086449e+09 -3.246448e+09 -5.397443e+02 -2.327583e+01 -1.665416e+01
-3.170769e+09 -2.970771e+09 -3.130771e+09 -3.249279e+03 2.026773e+03 9.321263e+02
-1.772055e+09 -1.572086e+09 -1.732117e+09 2.058341e+04 5.579417e+04 -2.675129e+04
-3.127865e+09 -2.927872e+09 -3.087833e+09 3.558286e+03 3.306584e+03 2.279723e+04
-3.513299e+09 -3.313286e+09 -3.473250e+09 5.489000e+03 1.481079e+04 1.526486e+04
-2.779424e+09 -2.579428e+09 -2.739425e+09 -1.981237e+03 1.223510e+03 1.599564e+02
-1.683037e+09 -1.483036e+09 -1.643038e+09 -2.392462e+03 5.631747e+02 -1.792587e+02
-1.573412e+09 -1.373418e+09 -1.533413e+09 -1.850455e+03 9.617373e+02 5.714384e+01
-1.782589e+09 -1.582594e+09 -1.742589e+09 -2.861708e+03 1.334782e+03 5.384876e+02
-3.117944e+09 -2.917949e+09 -3.077946e+09 -2.427938e+03 1.518358e+03 4.717779e+02
-3.579590e+09 -3.379593e+09 -3.539592e+09 3.223877e+02 3.897500e+01 -1.307275e+02
-3.365326e+09 -3.165330e+09 -3.325329e+09 -3.200049e+03 2.127723e+03 1.171395e+03
-2.456087e+09 -2.256087e+09 -2.416087e+09 6.633357e+02 2.891204e+01 -2.275591e+02
-2.324761e+09 -2.124762e+09 -2.284762e+09 -1.072530e+03 -1.000067e+02 -9.383127e+01
-2.566154e+09 -2.366156e+09 -2.526155e+09 2.223669e+03 -8.379557e+02 -2.370040e+03
-2.356362e+09 -2.156361e+09 -2.316361e+09 -2.382547e+01 6.147858e+01 -9.996779e+01
-1.802887e+09 -1.602886e+09 -1.762886e+09 -1.159911e+02 4.627339e+01 -1.492794e+02
-2.577300e+09 -2.377303e+09 -2.537302e+09 1.605753e+03 -2.433178e+02 -1.299315e+03
-1.582592e+09 -1.382366e+09 -1.542562e+09 -3.242601e+04 -9.140647e+04 -5.327959e+03
-3.041528e+09 -2.841502e+09 -3.001484e+09 -6.329091e+03 7.824643e+03 -1.791741e+04
-3.216889e+09 -3.016890e+09 -3.176890e+09 1.149789e+03 -9.066504e+00 -2.553444e+02
-3.178747e+09 -2.978746e+09 -3.138746e+09 7.449549e+02 -2.309512e+01 -1.437828e+02
-3.580879e+09 -3.380863e+09 -3.540901e+09 2.068450e+03 4.777653e+03 -2.787277e+03
-3.599455e+09 -3.399442e+09 -3.559465e+09 2.317087e+03 -3.205229e+03 4.930239e+03
-1.579084e+09 -1.379010e+09 -1.539015e+09 -8.447907e+03 -4.083362e+03 -7.566802e+04
-3.377329e+09 -3.177304e+09 -3.337343e+09 2.487300e+03 1.613050e+03 2.367749e+03
-1.572476e+09 -1.372474e+09 -1.532475e+09 -5.041747e+02 -2.814434e+02 5.456116e+01
-1.582572e+09 -1.382396e+09 -1.542528e+09 -3.403608e+04 -5.888731e+04 2.697547e+04
-3.595752e+09 -3.395735e+09 -3.555750e+09 -2.958003e+03 -2.900230e+03 -2.636348e+03
-3.339976e+09 -3.139976e+09 -3.299976e+09 1.036041e+03 -3.778349e+01 -1.993450e+02
-3.617693e+09 -3.417693e+09 -3.577688e+09 -4.140283e+03 2.481070e+03 -2.967622e+03
-3.186218e+09 -2.986217e+09 -3.146218e+09 5.909881e+02 5.971759e+01 -1.433271e+02
-3.334334e+09 -3.134336e+09 -3.294331e+09 -2.018363e+03 1.688313e+03 -3.210748e+03
-3.590364e+09 -3.390366e+09 -3.550354e+09 -5.002881e+02 -1.847021e+03 -6.030363e+03
-1.791425e+09 -1.591424e+09 -1.751424e+09 -7.278258e+00 -3.655939e+01 -1.828129e+02
-2.385443e+09 -2.185441e+09 -2.345442e+09 2.068674e+02 1.045857e+02 -4.492750e+01
-3.189999e+09 -2.989997e+09 -3.149998e+09 1.266571e+02 6.996514e+01 -6.168558e+01
-1.575134e+09 -1.375133e+09 -1.535132e+09 -1.270008e+02 5.295295e+01 -1.049426e+02
-2.576841e+09 -2.376839e+09 -2.536840e+09 -6.368090e+02 2.622367e+02 1.487561e+02
-3.006754e+09 -2.806744e+09 -2.966748e+09 2.761048e+03 -3.571930e+03 1.670592e+03
-3.391519e+09 -3.191517e+09 -3.351518e+09 -8.724581e+01 1.695254e+02 1.451659e+02
-1.695813e+09 -1.495812e+09 -1.655812e+09 1.599189e+02 4.513255e+01 -3.042903e+01
-3.466766e+09 -3.266765e+09 -3.426765e+09 1.599061e+01 2.755671e+00 -3.576388e+01
-2.132522e+09 -1.932522e+09 -2.092523e+09 1.138662e+03 3.284913e+01 -1.402840e+02
-3.570003e+09 -3.370003e+09 -3.530003e+09 4.144286e+02 3.554675e+00 -3.411371e+01
-1.773010e+09 -1.573009e+09 -1.733009e+09 -4.510470e+01 1.834156e+02 -6.743193e+00
-2.567544e+09 -2.367543e+09 -2.527544e+09 2.604847e+02 1.548735e+02 2.215822e+01
-2.787274e+09 -2.587282e+09 -2.747277e+09 -5.695685e+02 2.063525e+03 -1.022314e+01
-3.023484e+09 -2.823492e+09 -2.983487e+09 1.071429e+03 1.058306e+03 -3.327190e+02
-3.589195e+09 -3.389203e+09 -3.549203e+09 -2.638499e+02 4.133656e+03 1.827593e+02
-3.588800e+09 -3.388799e+09 -3.548802e+09 3.754154e+03 7.560602e+02 -3.105281e+02
-3.539987e+09 -3.339994e+09 -3.499991e+09 1.915984e+03 1.750613e+03 -2.735553e+02
-1.593395e+09 -1.393405e+09 -1.553397e+09 4.670879e+02 1.720895e+03 -7.239335e+01
-3.607518e+09 -3.407525e+09 -3.567522e+09 3.912425e+02 1.650867e+03 -9.487225e+00
-2.377643e+09 -2.177654e+09 -2.337647e+09 -2.718347e+02 3.390760e+03 -6.046226e+01
-2.375191e+09 -2.175200e+09 -2.335193e+09 -8.901271e+02 1.632900e+03 7.765412e+01
-3.323790e+09 -3.123796e+09 -3.283794e+09 -2.303592e+03 1.779023e+03 4.123416e+02
-2.363823e+09 -2.163828e+09 -2.323825e+09 -1.844586e+03 9.102413e+02 1.243515e+02
-2.159935e+09 -1.959925e+09 -2.119953e+09 -5.281569e+03 -8.292548e+03 8.150087e+03
-2.386926e+09 -2.186937e+09 -2.346931e+09 -3.360550e+03 4.918486e+03 1.031944e+03
-2.782538e+09 -2.582548e+09 -2.742545e+09 -1.886919e+03 6.447694e+03 7.448884e+02
-3.187759e+09 -2.987768e+09 -3.147766e+09 -1.745301e+03 3.842039e+03 6.639240e+02
-3.205319e+09 -3.005313e+09 -3.165324e+09 -2.167089e+02 -4.057094e+03 -3.193076e+03
-3.012602e+09 -2.812583e+09 -2.972605e+09 -1.118604e+03 -1.181261e+03 -6.683860e+03
-1.575538e+09 -1.375541e+09 -1.535537e+09 2.173625e+03 5.566873e+02 -9.252330e+01
-1.690358e+09 -1.490360e+09 -1.650358e+09 1.221258e+03 -2.962411e+00 9.973430e+01
-3.588691e+09 -3.388694e+09 -3.548688e+09 -7.742475e+02 2.825197e+02 -3.510391e+03
-3.566980e+09 -3.366979e+09 -3.526988e+09 -1.953159e+03 -5.393103e+03 -1.837777e+03
-2.064004e+09 -1.864017e+09 -2.024011e+09 -1.740080e+03 -9.256819e+03 -3.087489e+02
-1.679043e+09 -1.479041e+09 -1.639042e+09 6.112123e+02 8.897515e+01 -2.227570e+02
-1.742211e+09 -1.542217e+09 -1.702218e+09 -6.218193e+03 -9.539338e+03 -4.396917e+03
-3.095197e+09 -2.895192e+09 -3.055201e+09 5.119048e+03 5.433572e+03 -5.983316e+03
-3.070704e+09 -2.870706e+09 -3.030706e+09 9.635011e+02 -9.708006e+00 -3.388417e+02
-1.869176e+09 -1.669176e+09 -1.829177e+09 1.387011e+03 -9.258863e+01 -5.738602e+02
-1.579763e+09 -1.379709e+09 -1.539745e+09 1.984638e+04 -4.889086e+03 4.350097e+04
-2.627903e+09 -2.427904e+09 -2.587904e+09 1.413848e+03 -5.310429e+01 -4.168573e+02
-1.944524e+09 -1.744527e+09 -1.904527e+09 5.881459e+02 -5.862169e+01 -7.893026e+01
-2.231347e+09 -2.031345e+09 -2.191345e+09 4.030042e+03 -2.581500e+03 -4.045718e+03
-2.443096e+09 -2.243098e+09 -2.403096e+09 3.213819e+03 1.483084e+03 -6.658539e+02
-2.600908e+09 -2.400908e+09 -2.560908e+09 -4.264733e+02 8.013338e+01 -4.085782e+01
-2.056888e+09 -1.856900e+09 -2.016893e+09 5.686439e+02 4.095718e+03 4.894117e+01
-2.423677e+09 -2.223676e+09 -2.383676e+09 -3.827651e+02 9.009612e+01 -8.127875e+01
-3.633444e+09 -3.433442e+09 -3.593442e+09 -5.508898e+02 -4.498529e+00 -3.093089e+01
-2.023183e+09 -1.823195e+09 -1.983187e+09 4.247307e+03 7.753079e+03 -2.031530e+03
-2.990778e+09 -2.790778e+09 -2.950777e+09 -4.001331e+02 4.039245e+01 -8.755371e+01
-1.597556e+09 -1.397555e+09 -1.557555e+09 -4.218459e+02 1.542418e+02 -9.509021e+01
-3.596471e+09 -3.396474e+09 -3.556471e+09 -1.842822e+03 4.770852e+02 1.570341e+02
-3.595025e+09 -3.395027e+09 -3.555025e+09 -1.405724e+03 2.750528e+02 5.483368e+01
-1.982416e+09 -1.782417e+09 -1.942415e+09 -4.067802e+03 2.031355e+03 1.292345e+03
-2.253560e+09 -2.053555e+09 -2.213557e+09 -7.195961e+02 2.347129e+02 4.648002e+02
-1.991823e+09 -1.791824e+09 -1.951824e+09 8.986805e+02 6.696360e+01 2.974830e+00
-2.164490e+09 -1.964488e+09 -2.124489e+09 1.347215e+03 -2.834554e+02 -4.479572e+02
-3.160992e+09 -2.960994e+09 -3.120993e+09 -6.374604e+01 -1.635329e+00 1.497250e+01
-3.167250e+09 -2.967251e+09 -3.127249e+09 -1.551503e+03 3.665167e+02 5.052698e+01
-1.591741e+09 -1.391745e+09 -1.551741e+09 -1.875585e+03 7.062162e+02 -1.047256e+01
-2.447382e+09 -2.247381e+09 -2.407381e+09 4.850111e+02 6.172400e+01 -8.896322e+01
-2.058506e+09 -1.858505e+09 -2.018506e+09 4.675791e+02 2.227571e+00 -6.669158e+01
-1.585439e+09 -1.385451e+09 -1.545442e+09 2.040535e+03 3.457478e+03 -7.714218e+02
-1.680255e+09 -1.480256e+09 -1.640254e+09 1.831553e+03 3.324534e+02 -8.244774e+01
-3.337279e+09 -3.137279e+09 -3.297280e+09 9.225590e+02 3.762878e+01 -1.078614e+02
-1.571820e+09 -1.371847e+09 -1.531843e+09 1.888664e+04 4.237017e+04 -3.468179e+04
-2.957087e+09 -2.757087e+09 -2.917087e+09 5.849092e+02 2.647414e+01 -5.702197e+01
-2.533528e+09 -2.333486e+09 -2.493412e+09 1.521609e+04 4.206478e+04 2.333963e+04
-1.576875e+09 -1.376874e+09 -1.536875e+09 6.827353e+02 1.414929e+02 -1.486893e+02
-1.770913e+09 -1.570911e+09 -1.730912e+09 3.379062e+02 2.993423e+01 -1.814959e+02
-3.395399e+09 -3.195394e+09 -3.355397e+09 -5.724389e+03 -3.258335e+03 1.125941e+03
-3.393160e+09 -3.193158e+09 -3.353159e+09 2.753239e+02 6.887215e+01 -5.721934e+01
-3.580992e+09 -3.380983e+09 -3.541013e+09 1.143324e+03 1.049332e+04 -6.486585e+03
-3.581625e+09 -3.381609e+09 -3.541629e+09 -1.176790e+03 3.321204e+03 -6.646141e+03
-3.297725e+09 -3.097724e+09 -3.257724e+09 7.083739e+02 5.280643e+01 -6.337164e+01
-1.632588e+09 -1.432639e+09 -1.592657e+09 -1.607794e+04 7.463376e+04 2.992838e+03
-3.381380e+09 -3.181388e+09 -3.341388e+09 -3.662726e+03 5.525692e+03 1.836610e+03
-2.702108e+09 -2.502077e+09 -2.662101e+09 -4.169113e+03 -2.265547e+04 4.000955e+03
-3.002256e+09 -2.802278e+09 -2.962282e+09 -1.109723e+02 1.830098e+04 2.705753e+02
-2.568597e+09 -2.368600e+09 -2.528598e+09 -2.836938e+03 1.277793e+03 5.563404e+02
-1.934662e+09 -1.734668e+09 -1.894663e+09 -5.170734e+03 4.185376e+03 1.894714e+03
-3.187286e+09 -2.987296e+09 -3.147295e+09 -3.000851e+03 6.751111e+03 2.273623e+03
-2.130584e+09 -1.930599e+09 -2.090596e+09 -8.241475e+03 1.437519e+04 5.527687e+03
-1.568634e+09 -1.368667e+09 -1.528642e+09 -2.437732e+03 1.395176e+04 9.237342e+02
-2.555348e+09 -2.355351e+09 -2.515350e+09 -4.156807e+03 2.983439e+03 1.536701e+03
-1.961979e+09 -1.761983e+09 -1.921980e+09 -3.711303e+03 2.057513e+03 9.263834e+02
-3.159906e+09 -2.959913e+09 -3.119911e+09 -3.428166e+03 3.636020e+03 9.885938e+02
-1.752909e+09 -1.552917e+09 -1.712910e+09 -4.971532e+03 4.092231e+03 1.350604e+03
-1.983057e+09 -1.783067e+09 -1.943060e+09 -3.363167e+03 4.969127e+03 1.207533e+03
-2.010860e+09 -1.810859e+09 -1.970860e+09 -2.716999e+02 -8.453925e+02 5.302163e+02
-3.510203e+09 -3.310202e+09 -3.470203e+09 4.117842e+02 -5.421712e+02 2.220092e+02
-1.828608e+09 -1.628610e+09 -1.788607e+09 -4.343571e+03 -3.235435e+03 -1.909654e+03
-3.052622e+09 -2.852620e+09 -3.012621e+09 4.186155e+02 -5.236676e+02 2.777842e+02
-3.616022e+09 -3.416021e+09 -3.576023e+09 8.717980e+02 -1.350227e+03 8.077884e+02
-2.244810e+09 -2.044807e+09 -2.204809e+09 -1.789378e+03 -1.474509e+03 -1.353283e+03
-2.170125e+09 -1.970124e+09 -2.130124e+09 4.660403e+02 -7.030385e+02 5.481973e+02
-3.630075e+09 -3.430077e+09 -3.590077e+09 1.401395e+02 1.186465e+01 -4.887081e+01
-2.238189e+09 -2.038187e+09 -2.198187e+09 4.555766e+02 -4.929695e+02 2.334498e+02
-3.274184e+09 -3.074194e+09 -3.234194e+09 -1.168284e+03 6.481396e+03 3.982411e+02
-3.576842e+09 -3.376838e+09 -3.536845e+09 -1.096559e+03 -2.254476e+03 -1.818395e+03
-2.445724e+09 -2.245743e+09 -2.405735e+09 -1.103813e+03 1.046324e+04 4.972086e+02
-3.506497e+09 -3.306501e+09 -3.466508e+09 2.667602e+03 7.251684e+03 -1.916885e+03
-3.291710e+09 -3.091713e+09 -3.251720e+09 4.237670e+03 6.939802e+03 -2.498774e+03
-1.854276e+09 -1.654297e+09 -1.814283e+09 -1.226829e+03 9.780025e+03 -9.413119e+02
-2.562734e+09 -2.362732e+09 -2.522735e+09 6.123727e+03 5.635147e+03 -4.836329e+03
-2.151633e+09 -1.951650e+09 -2.111643e+09 6.080102e+02 1.206614e+04 -1.075868e+03
-1.673962e+09 -1.473975e+09 -1.633966e+09 2.716861e+02 -3.868308e+03 2.667594e+02
-3.171750e+09 -2.971757e+09 -3.131757e+09 1.034900e+03 -4.393936e+03 1.148715e+03
-2.004121e+09 -1.804133e+09 -1.964125e+09 1.578719e+03 -4.194180e+03 8.389174e+02
-1.784117e+09 -1.584128e+09 -1.744121e+09 4.018080e+03 -6.572838e+03 1.892786e+03
-1.574881e+09 -1.374903e+09 -1.534890e+09 3.901550e+03 -1.105090e+04 3.162846e+03
-2.287531e+09 -2.087546e+09 -2.247540e+09 2.926339e+03 1.318851e+04 -2.359649e+03
-2.253502e+09 -2.053514e+09 -2.213507e+09 4.595058e+02 -5.774290e+03 3.428516e+02
-1.909608e+09 -1.709619e+09 -1.869613e+09 -2.637901e+03 -4.900755e+03 -1.627722e+02
-3.166946e+09 -2.966947e+09 -3.126947e+09 6.527773e+02 4.912099e+01 8.791812e+00
-2.985369e+09 -2.785369e+09 -2.945369e+09 3.536534e+02 6.515466e+01 2.476261e+01
-1.997423e+09 -1.797434e+09 -1.957427e+09 6.979953e+01 -4.126041e+03 3.326710e+02
-2.171043e+09 -1.971043e+09 -2.131043e+09 4.674601e+02 4.125376e+01 -5.977576e+01
-2.546404e+09 -2.346409e+09 -2.506409e+09 -3.452540e+03 -4.706493e+03 -1.548618e+03
-3.200310e+09 -3.000306e+09 -3.160319e+09 2.447762e+03 -5.897379e+03 4.548003e+03
-1.592038e+09 -1.392044e+09 -1.552039e+09 3.639662e+03 -3.221423e+03 1.220821e+03
-3.604924e+09 -3.404923e+09 -3.564930e+09 1.299328e+03 -4.696276e+03 2.668721e+03
-1.805151e+09 -1.605150e+09 -1.765151e+09 6.127842e+02 5.105715e+01 -6.837621e+01
-2.058880e+09 -1.858880e+09 -2.018880e+09 5.114906e+02 2.604933e+01 -1.513363e+01
-1.597649e+09 -1.397663e+09 -1.557654e+09 3.804489e+03 -5.694123e+03 2.004577e+03
-3.596733e+09 -3.396734e+09 -3.556742e+09 1.250774e+03 -6.006713e+03 2.459337e+03
-1.938733e+09 -1.738733e+09 -1.898733e+09 4.472610e+02 2.749010e+01 -3.222330e+01
-2.554033e+09 -2.354032e+09 -2.514032e+09 4.309464e+02 5.044575e+01 -5.656437e+01
-3.585177e+09 -3.385164e+09 -3.545170e+09 2.646368e+03 8.712443e+03 1.735085e+03
-3.622748e+09 -3.422748e+09 -3.582750e+09 1.866203e+03 -2.391869e+03 1.611457e+03
-2.635080e+09 -2.435083e+09 -2.595082e+09 2.744617e+03 -3.339020e+03 1.775678e+03
-2.599086e+09 -2.399086e+09 -2.559087e+09 2.530957e+03 -2.542419e+03 2.223960e+03
-2.130896e+09 -1.930895e+09 -2.090895e+09 3.529393e+02 3.570370e+01 -3.807425e+01
-3.132661e+09 -2.932660e+09 -3.092660e+09 4.089191e+02 6.448861e+01 9.387747e+00
-1.888820e+09 -1.688820e+09 -1.848821e+09 -1.475705e+03 -7.350252e+01 1.828759e+01
-2.753127e+09 -2.553120e+09 -2.713129e+09 1.281475e+03 -4.602941e+03 4.706433e+03
-2.660344e+09 -2.460343e+09 -2.620343e+09 4.688874e+02 8.312944e+00 -2.568283e+01
-3.411998e+09 -3.211998e+09 -3.371998e+09 7.671295e+02 6.113229e+01 -4.553488e+00
-3.500333e+09 -3.300336e+09 -3.460335e+09 1.402024e+03 -1.424447e+03 4.695187e+02
-3.376448e+09 -3.176448e+09 -3.336448e+09 4.290690e+02 3.543001e+01 -1.757024e+01
-3.582885e+09 -3.382890e+09 -3.542887e+09 -1.678114e+03 7.687276e+02 2.461211e+02
-1.997220e+09 -1.797223e+09 -1.957220e+09 1.660873e+03 -1.295762e+03 4.329402e+02
-1.611222e+09 -1.411223e+09 -1.571223e+09 -7.873470e+02 -5.917762e+01 4.107201e+01
-3.110486e+09 -2.910492e+09 -3.070487e+09 -6.529081e+02 5.340188e+02 -3.027655e+01
-2.161620e+09 -1.961624e+09 -2.121620e+09 -9.762294e+02 2.774883e+02 -2.203060e+01
-1.875114e+09 -1.675119e+09 -1.835115e+09 -1.147612e+03 4.065169e+02 2.004736e+00
-3.402909e+09 -3.202912e+09 -3.362909e+09 -1.445210e+03 2.963123e+02 -1.436367e+00
-2.969770e+09 -2.769774e+09 -2.929770e+09 -9.966492e+02 2.850129e+02 -4.937728e+01
-2.506833e+09 -2.306833e+09 -2.466833e+09 3.244886e+02 5.024150e+01 -3.634340e+00
-1.571996e+09 -1.371996e+09 -1.531996e+09 2.163404e+02 4.969251e+01 -4.301885e+01
-3.598032e+09 -3.398031e+09 -3.558032e+09 2.823333e+02 -6.325429e+00 -2.089662e+01
-1.776885e+09 -1.576890e+09 -1.736886e+09 -2.357767e+03 1.160809e+03 3.179927e+02
-1.860421e+09 -1.660419e+09 -1.820420e+09 -9.412832e+02 -2.753072e+02 2.336204e+02
-1.936410e+09 -1.736406e+09 -1.896408e+09 2.812829e+03 -2.486827e+03 3.312594e+03
-2.556445e+09 -2.356441e+09 -2.516443e+09 -2.211515e+02 -8.103328e+02 1.579739e+03
-1.786837e+09 -1.586832e+09 -1.746835e+09 2.130385e+02 -8.746850e+02 1.676797e+03
-2.395088e+09 -2.195083e+09 -2.355086e+09 -1.098799e+02 -6.141965e+02 1.333706e+03
-3.284406e+09 -3.084405e+09 -3.244405e+09 1.308103e+02 2.464305e+01 -3.961400e+01
-3.547256e+09 -3.347256e+09 -3.507256e+09 4.019451e+02 1.500354e+01 -4.726405e+01
-2.410484e+09 -2.210483e+09 -2.370483e+09 2.113776e+02 4.495902e+01 -7.595133e+01
-3.302222e+09 -3.102221e+09 -3.262221e+09 2.194734e+02 1.765838e+01 -2.367658e+01
-2.983040e+09 -2.783039e+09 -2.943039e+09 1.146795e+02 3.710846e+01 -3.642037e+01
-3.610659e+09 -3.410654e+09 -3.570658e+09 1.319656e+01 9.028915e+02 -1.118425e+03
-2.589378e+09 -2.389378e+09 -2.549378e+09 2.634233e+02 1.171017e+01 -6.899519e+01
-1.995362e+09 -1.795362e+09 -1.955361e+09 -8.733891e+02 1.677290e+02 2.011972e+00
-2.489595e+09 -2.289595e+09 -2.449594e+09 -4.460284e+02 4.715043e+01 -1.104010e+02
-3.181892e+09 -2.981891e+09 -3.141891e+09 -2.621691e+02 -1.759544e+01 -8.637002e+00
-2.109260e+09 -1.909260e+09 -2.069259e+09 -7.317504e+02 1.926875e+01 -6.298669e+01
-3.301055e+09 -3.101055e+09 -3.261054e+09 -7.038741e+02 1.444628e+02 4.850771e+00
-1.950629e+09 -1.750630e+09 -1.910629e+09 -1.011363e+03 5.729323e+01 -6.056462e+01
-3.482631e+09 -3.282630e+09 -3.442631e+09 -3.504744e+02 -1.510149e+01 8.037411e+00
-1.898472e+09 -1.698472e+09 -1.858471e+09 -6.900437e+02 -1.648581e+01 -1.372300e+02
-3.215570e+09 -3.015563e+09 -3.175566e+09 -9.025909e+03 -1.131421e+04 3.716830e+03
-3.031456e+09 -2.831457e+09 -2.991455e+09 -4.399229e+03 -2.946102e+03 3.173175e+03
-2.419189e+09 -2.219175e+09 -2.379179e+09 -6.623070e+03 -7.820337e+03 8.697443e+03
-3.187447e+09 -2.987449e+09 -3.147448e+09 -4.558950e+02 -4.209892e+01 -3.729653e+00
-2.861581e+09 -2.661582e+09 -2.821582e+09 -4.591629e+02 -5.294326e+01 2.814914e+01
-3.479669e+09 -3.279680e+09 -3.439671e+09 -3.058489e+03 -3.331773e+02 7.230029e+03
-3.296606e+09 -3.096607e+09 -3.256607e+09 -6.252599e+02 -2.029061e+01 9.142838e+00
-2.784668e+09 -2.584669e+09 -2.744669e+09 -6.246648e+02 -6.754900e+01 2.709819e+01
-3.600934e+09 -3.400935e+09 -3.560935e+09 -8.311295e+02 -5.071932e+01 4.903957e+01
-2.018553e+09 -1.818555e+09 -1.978555e+09 -3.404972e+02 -2.613536e+01 -1.182472e+01
-3.638168e+09 -3.438159e+09 -3.598178e+09 2.131722e+03 7.085353e+03 -6.377311e+03
-1.571986e+09 -1.372005e+09 -1.531993e+09 8.418084e+03 1.168105e+04 -4.325518e+03
-2.773343e+09 -2.573329e+09 -2.733338e+09 -8.753818e+03 -6.781128e+03 1.262048e+04
-1.570567e+09 -1.370569e+09 -1.530565e+09 1.052529e+04 8.396865e+03 -4.929972e+03
-3.602176e+09 -3.402171e+09 -3.562179e+09 3.160264e+03 3.614013e+03 -2.741735e+03
-2.517429e+09 -2.317415e+09 -2.477423e+09 2.044389e+03 1.429521e+03 -4.737157e+03
-1.786615e+09 -1.586594e+09 -1.746607e+09 -1.668755e+04 -1.391364e+04 1.196140e+04
-2.898675e+09 -2.698670e+09 -2.858674e+09 -2.998932e+03 1.853608e+03 2.367809e+03
-2.027768e+09 -1.827763e+09 -1.987765e+09 -6.431690e+03 3.306381e+03 4.747412e+03
-1.760868e+09 -1.560874e+09 -1.720870e+09 -4.637334e+03 3.754202e+03 1.166786e+03
-3.587814e+09 -3.387814e+09 -3.547816e+09 -3.331292e+03 2.366746e+03 1.515829e+03
-1.850321e+09 -1.650313e+09 -1.810315e+09 -2.027220e+03 -3.536629e+02 1.726933e+03
-2.367734e+09 -2.167732e+09 -2.327737e+09 2.831605e+03 -1.263597e+03 -1.702855e+03
-3.383554e+09 -3.183553e+09 -3.343553e+09 -1.868605e+02 1.462253e+01 -8.160669e+01
-3.589729e+09 -3.389728e+09 -3.549734e+09 -3.536001e+03 4.274145e+03 2.982910e+03
-2.398993e+09 -2.198997e+09 -2.358995e+09 3.609580e+03 -4.789526e+03 2.383957e+03
-2.749949e+09 -2.549956e+09 -2.709953e+09 -3.419664e+03 3.613945e+03 1.038348e+03
-2.952513e+09 -2.752516e+09 -2.912522e+09 -3.544465e+03 -6.648359e+03 -1.850306e+03
-1.809047e+09 -1.609063e+09 -1.769053e+09 2.450650e+03 -7.526249e+03 1.506133e+03
-1.597652e+09 -1.397660e+09 -1.557654e+09 5.048973e+03 -5.692147e+03 2.408172e+03
-2.586622e+09 -2.386629e+09 -2.546630e+09 5.507820e+03 1.117194e+04 -5.108939e+03
-2.765061e+09 -2.565029e+09 -2.725004e+09 1.956200e+03 1.835854e+04 2.298389e+03
-3.595761e+09 -3.395742e+09 -3.555753e+09 2.956322e+03 -2.146944e+03 -2.422601e+03
-3.055696e+09 -2.855685e+09 -3.015720e+09 -1.051501e+03 1.019353e+04 1.539638e+03
-2.464924e+09 -2.264904e+09 -2.424925e+09 -1.489382e+04 -5.732730e+03 4.370137e+03
-2.078108e+09 -1.878103e+09 -2.038106e+09 -2.869652e+03 5.802750e+02 1.920200e+03
-3.118172e+09 -2.918170e+09 -3.078172e+09 -7.644152e+02 -4.263690e+02 9.420236e+02
-3.462388e+09 -3.262392e+09 -3.422388e+09 2.613678e+02 1.776401e+02 -2.611524e+03
-3.605435e+09 -3.405439e+09 -3.565437e+09 6.364384e+02 2.557315e+01 -1.682975e+03
-3.306830e+09 -3.106826e+09 -3.266844e+09 -1.879864e+03 -6.037376e+03 1.242830e+03
-3.141990e+09 -2.941995e+09 -3.101990e+09 2.866770e+00 5.325054e+02 -2.986024e+03
-3.588126e+09 -3.388130e+09 -3.548127e+09 1.400569e+02 1.117074e+02 -1.431195e+03
-3.181565e+09 -2.981557e+09 -3.141568e+09 -1.522771e+03 -1.804638e+03 4.035164e+03
-3.617693e+09 -3.417694e+09 -3.577692e+09 -2.977286e+03 1.072763e+03 -1.755035e+03
-3.588690e+09 -3.388695e+09 -3.548687e+09 -8.716500e+02 2.484881e+02 -3.394498e+03
-3.029776e+09 -2.829776e+09 -2.989766e+09 1.230538e+03 -1.192937e+03 -7.394320e+03
-1.695990e+09 -1.495994e+09 -1.655995e+09 -2.358514e+03 -4.793781e+02 2.051750e+03
-2.382081e+09 -2.182082e+09 -2.342083e+09 3.663183e+03 -4.220520e+03 2.734729e+03
-3.043917e+09 -2.843915e+09 -3.003917e+09 -3.499780e+03 -1.637433e+03 4.567329e+02
-1.769739e+09 -1.569730e+09 -1.729735e+09 1.153349e+03 -1.041908e+01 -2.276240e+03
-3.139830e+09 -2.939824e+09 -3.099830e+09 -2.017721e+03 1.245000e+02 -1.137079e+03
-1.803597e+09 -1.603591e+09 -1.763593e+09 3.445779e+03 1.319075e+03 -2.357430e+03
-2.230350e+09 -2.030341e+09 -2.190354e+09 4.569979e+03 -1.121209e+04 8.713277e+03
-1.988715e+09 -1.788717e+09 -1.948714e+09 1.406142e+03 1.410703e+02 4.800492e+01
-2.656283e+09 -2.456285e+09 -2.616283e+09 3.293520e+03 1.753119e+03 -6.166834e+02
-3.480337e+09 -3.280335e+09 -3.440336e+09 2.480315e+03 8.183501e+02 -4.452949e+02
-3.183513e+09 -2.983515e+09 -3.143512e+09 1.653670e+03 1.888228e+02 -7.816098e-01
-1.882400e+09 -1.682402e+09 -1.842399e+09 3.576811e+03 1.268623e+03 -5.819712e+02
-3.410612e+09 -3.210614e+09 -3.370621e+09 2.164408e+03 -5.887938e+03 3.080947e+03
-2.867321e+09 -2.667322e+09 -2.827320e+09 1.820192e+03 4.471288e+02 -1.855770e+02
-3.186526e+09 -2.986527e+09 -3.146525e+09 2.532173e+03 9.704192e+02 -5.010290e+02
-3.590774e+09 -3.390769e+09 -3.550779e+09 -1.997164e+03 -2.868691e+03 3.197916e+03
-1.774658e+09 -1.574658e+09 -1.734658e+09 -7.036372e+02 -2.018820e+02 7.856326e+01
-3.385652e+09 -3.185650e+09 -3.345651e+09 -6.608890e+02 -2.775109e+02 2.503943e+02
-3.010316e+09 -2.810316e+09 -2.970315e+09 -6.324757e+02 1.120997e+02 -1.007039e+02
-1.909096e+09 -1.709096e+09 -1.869095e+09 -5.868780e+02 8.118957e+01 -6.996388e+01
-1.599203e+09 -1.399202e+09 -1.559202e+09 -4.242547e+02 1.129781e+02 -1.338571e+02
-3.577744e+09 -3.377743e+09 -3.537743e+09 -1.620202e+02 -7.916013e+00 -4.943417e+01
-1.616169e+09 -1.416168e+09 -1.576168e+09 -5.548637e+02 2.323777e+02 -8.556459e+01
-3.167011e+09 -2.967008e+09 -3.127010e+09 -3.994564e+02 -4.272691e+02 5.175602e+02
-3.500281e+09 -3.300281e+09 -3.460280e+09 -5.254126e+02 3.366613e+01 -4.308086e+01
-2.193324e+09 -1.993323e+09 -2.153323e+09 7.175631e+02 -9.132842e+02 8.567876e+02
-1.793677e+09 -1.593675e+09 -1.753676e+09 1.315107e+02 -4.637975e+02 3.538719e+02
-2.590389e+09 -2.390387e+09 -2.550388e+09 4.932177e+02 -6.686581e+02 6.087401e+02
-2.431798e+09 -2.231795e+09 -2.391797e+09 -1.310777e+02 -6.547526e+02 1.006304e+03
-3.609019e+09 -3.409017e+09 -3.569018e+09 -1.770774e+02 -2.842075e+02 2.333602e+02
-2.968843e+09 -2.768846e+09 -2.928843e+09 1.666396e+03 4.059113e+02 -7.827981e+01
-2.160282e+09 -1.960286e+09 -2.120282e+09 1.349166e+03 3.361685e+02 -5.170774e+01
-1.690359e+09 -1.490361e+09 -1.650358e+09 1.529380e+03 2.647928e+02 5.404979e+01
-3.062759e+09 -2.862747e+09 -3.022755e+09 1.828575e+03 -2.018493e+03 1.838131e+03
-1.618104e+09 -1.418102e+09 -1.578102e+09 1.171276e+03 -1.360166e+03 9.325071e+02
-2.606018e+09 -2.406017e+09 -2.566018e+09 1.905644e+03 -2.359748e+03 1.689758e+03
-3.588692e+09 -3.388695e+09 -3.548688e+09 -4.679991e+02 4.051426e+02 -3.712445e+03
-3.136124e+09 -2.936120e+09 -3.096124e+09 1.204371e+02 -1.266584e+03 1.861156e+03
-3.104731e+09 -2.904733e+09 -3.064724e+09 -4.541421e+03 3.298708e+03 -8.548452e+03
-3.275285e+09 -3.075288e+09 -3.235284e+09 2.310188e+03 -1.046535e+03 -2.829055e+03
-2.204879e+09 -2.004884e+09 -2.164883e+09 -1.565283e+03 3.511681e+02 -1.799592e+03
-1.820596e+09 -1.620591e+09 -1.780594e+09 1.666619e+03 -1.115542e+03 1.746736e+03
-3.199909e+09 -2.999906e+09 -3.159908e+09 -8.651603e+02 -4.145706e+02 5.518368e+02
-3.621351e+09 -3.421353e+09 -3.581345e+09 2.379897e+03 -1.868990e+03 -4.688730e+03
-2.620373e+09 -2.420369e+09 -2.580372e+09 -5.172118e+02 -8.383436e+02 1.088527e+03
-2.736035e+09 -2.536035e+09 -2.696035e+09 3.896267e+02 5.561241e+01 1.252154e+00
-3.085099e+09 -2.885094e+09 -3.045097e+09 -2.581180e+03 1.680709e+03 8.064760e+02
-2.651332e+09 -2.451335e+09 -2.611327e+09 5.291036e+02 -7.417021e+02 -5.662142e+03
-2.734968e+09 -2.534934e+09 -2.694955e+09 9.092931e+03 -2.178728e+04 3.352533e+03
-3.553543e+09 -3.353529e+09 -3.513526e+09 2.437064e+03 -1.274041e+04 -4.744168e+03
-1.999381e+09 -1.799381e+09 -1.959381e+09 5.875514e+02 3.350508e+01 -6.243503e+01
-2.610782e+09 -2.410781e+09 -2.570781e+09 6.585083e+02 7.518080e+01 -4.700738e+01
-1.822718e+09 -1.622693e+09 -1.782703e+09 -2.710796e+03 -5.194351e+03 -5.474333e+03
-3.593738e+09 -3.393737e+09 -3.553737e+09 4.790936e+02 -4.151359e+01 -1.311254e+02
-2.100392e+09 -1.900414e+09 -2.060407e+09 -3.125061e+03 2.075114e+04 -1.692877e+01
-3.191485e+09 -2.991495e+09 -3.151497e+09 2.447550e+03 7.776357e+03 -1.004635e+03
-1.901587e+09 -1.701594e+09 -1.861589e+09 7.346727e+03 6.075134e+03 -2.685654e+03
-3.148177e+09 -2.948167e+09 -3.108180e+09 3.929493e+03 5.819137e+03 -7.347737e+03
-1.985736e+09 -1.785748e+09 -1.945740e+09 -1.537714e+03 4.557819e+03 3.701641e+02
-3.241925e+09 -3.041901e+09 -3.201916e+09 2.043091e+01 -4.125826e+03 -5.770527e+03
-1.568629e+09 -1.368658e+09 -1.528641e+09 -8.543516e+03 1.563796e+04 2.374810e+03
-1.769221e+09 -1.569244e+09 -1.729229e+09 -5.324368e+03 1.220983e+04 2.709533e+03
-1.926534e+09 -1.726541e+09 -1.886536e+09 -2.487203e+03 2.068691e+03 3.558198e+02
-1.965097e+09 -1.765094e+09 -1.925094e+09 5.953948e+03 4.136345e+03 -3.289869e+03
-3.588348e+09 -3.388351e+09 -3.548360e+09 -2.861206e+03 8.123741e+03 2.141663e+03
-3.161046e+09 -2.961054e+09 -3.121055e+09 -3.506012e+03 5.777192e+03 1.509196e+03
-2.376886e+09 -2.176883e+09 -2.336886e+09 5.831579e+03 5.663227e+03 -4.121625e+03
-1.769109e+09 -1.569098e+09 -1.729105e+09 8.820556e+03 6.556324e+03 -7.356363e+03
-1.921755e+09 -1.721746e+09 -1.881750e+09 4.727128e+03 2.542905e+03 -4.705946e+03
-2.596889e+09 -2.396895e+09 -2.556892e+09 3.009024e+03 2.877249e+03 -5.218834e+02
-1.802731e+09 -1.602746e+09 -1.762736e+09 1.324487e+04 1.586960e+04 -9.177050e+03
-1.993698e+09 -1.793697e+09 -1.953697e+09 -3.297748e+02 -8.675721e+01 -5.346153e+01
-1.759562e+09 -1.559561e+09 -1.719561e+09 -5.975001e+02 -1.793947e+02 2.806263e+01
-3.551373e+09 -3.351370e+09 -3.511372e+09 -2.474072e+02 -6.061334e+02 5.752454e+02
-1.572476e+09 -1.372475e+09 -1.532475e+09 -3.702116e+02 -2.509909e+02 1.530692e+02
-1.587189e+09 -1.387187e+09 -1.547187e+09 -2.217917e+02 -4.221441e+02 1.800858e+02
-1.594904e+09 -1.394902e+09 -1.554903e+09 3.282886e+02 -4.602903e+02 8.748574e+01
-2.574118e+09 -2.374116e+09 -2.534117e+09 -4.474372e+01 -2.599348e+02 3.543076e+02
-3.610651e+09 -3.410650e+09 -3.570651e+09 3.780798e+00 -4.834812e+02 2.911193e+02
-3.387390e+09 -3.187384e+09 -3.347395e+09 4.875685e+03 5.621131e+03 -4.343880e+03
-1.922468e+09 -1.722467e+09 -1.882467e+09 1.062459e+03 -8.399469e+02 3.781340e+02
-1.914497e+09 -1.714484e+09 -1.874490e+09 2.129416e+03 2.364045e+03 -5.298301e+03
-1.893294e+09 -1.693293e+09 -1.853312e+09 1.634764e+04 -1.504383e+04 1.330553e+04
-2.007523e+09 -1.807537e+09 -1.967529e+09 1.522802e+02 -9.558931e+03 7.215714e+02
-1.599812e+09 -1.399828e+09 -1.559817e+09 1.773226e+03 -7.514002e+03 1.006706e+03
-3.059206e+09 -2.859201e+09 -3.019211e+09 4.738197e+03 4.691647e+03 -3.933770e+03
-1.574885e+09 -1.374904e+09 -1.534891e+09 4.510374e+03 -1.094869e+04 2.310964e+03
-3.578739e+09 -3.378742e+09 -3.538744e+09 1.712600e+03 -3.790204e+03 1.679702e+03
-3.037998e+09 -2.837996e+09 -2.997997e+09 -3.408875e+03 1.419467e+03 -3.392799e+02
-3.596146e+09 -3.396144e+09 -3.556147e+09 -1.931712e+03 -5.431917e+02 9.005637e+02
-3.338132e+09 -3.138127e+09 -3.298132e+09 -1.365679e+03 -5.573584e+02 2.378227e+03
-1.574661e+09 -1.374657e+09 -1.534660e+09 -2.102663e+03 8.034730e+01 2.501648e+02
-1.571993e+09 -1.371997e+09 -1.531996e+09 1.212157e+04 1.038767e+04 -6.780305e+03
-1.556708e+09 -1.356700e+09 -1.516705e+09 2.688143e+02 -1.247477e+03 2.126775e+03
-3.165448e+09 -2.965434e+09 -3.125460e+09 1.274403e+03 4.308771e+03 -8.932255e+03
-3.229021e+09 -3.029022e+09 -3.189036e+09 6.304177e+03 1.184908e+04 -6.067946e+03
-1.598137e+09 -1.398136e+09 -1.558137e+09 4.508160e+02 7.225061e+01 -1.747510e+01
-1.571996e+09 -1.371995e+09 -1.531996e+09 3.368072e+02 5.401619e+01 -7.357710e+00
-1.883797e+09 -1.683805e+09 -1.843802e+09 -6.379504e+03 -3.785508e+03 7.400580e+03
-3.210260e+09 -3.010260e+09 -3.170260e+09 2.306864e+02 1.102869e+02 2.687254e+01
-2.025904e+09 -1.825889e+09 -1.985905e+09 -7.534261e+03 -2.133416e+03 4.625517e+03
-3.197471e+09 -2.997470e+09 -3.157471e+09 1.362007e+02 1.778356e+01 -2.825324e+01
-1.619943e+09 -1.419943e+09 -1.579943e+09 5.676562e+02 7.374095e+01 -5.928753e+01
-1.859438e+09 -1.659428e+09 -1.819433e+09 6.776875e+03 6.778319e+03 -6.605093e+03
-3.166196e+09 -2.966180e+09 -3.126205e+09 3.658929e+03 3.904067e+03 -7.493854e+03
-3.198309e+09 -2.998312e+09 -3.158317e+09 3.168638e+03 -5.449342e+03 2.673721e+03
-2.599838e+09 -2.399835e+09 -2.559837e+09 2.889262e+03 -2.438541e+03 2.807253e+03
-2.756169e+09 -2.556163e+09 -2.716169e+09 9.099955e+02 -2.263101e+03 3.156535e+03
-2.459455e+09 -2.259461e+09 -2.419456e+09 1.344597e+03 8.446241e+02 3.275602e+01
-3.007644e+09 -2.807650e+09 -2.967646e+09 2.271211e+03 1.341822e+03 -4.445148e+02
-3.013359e+09 -2.813359e+09 -2.973359e+09 2.535739e+02 4.478322e+01 -1.652595e+01
-1.560069e+09 -1.360076e+09 -1.520070e+09 1.641262e+03 8.388308e+02 -1.714616e+02
-3.236465e+09 -3.036472e+09 -3.196468e+09 1.545095e+03 -2.911579e+03 5.432581e+02
-1.935042e+09 -1.735049e+09 -1.895043e+09 2.904455e+03 2.213414e+03 -3.710910e+02
-3.617434e+09 -3.417438e+09 -3.577441e+09 1.364440e+03 -4.471849e+03 1.173156e+03
-3.351099e+09 -3.151106e+09 -3.311103e+09 2.274052e+03 2.543385e+03 -5.342405e+02
-1.929969e+09 -1.729980e+09 -1.889973e+09 1.383349e+03 -5.258853e+03 6.712916e+02
-1.602086e+09 -1.402093e+09 -1.562087e+09 -4.626737e+02 2.699508e+02 -5.003253e+01
-1.582853e+09 -1.382860e+09 -1.542854e+09 -1.126245e+03 6.964579e+02 -4.235610e+01
-2.276507e+09 -2.076515e+09 -2.236509e+09 1.713612e+03 1.685627e+03 -3.561796e+02
-2.372939e+09 -2.172949e+09 -2.332943e+09 -1.218026e+03 3.046468e+03 3.132920e+02
-2.514221e+09 -2.314229e+09 -2.474223e+09 -1.887231e+02 1.225510e+03 7.159975e+01
-2.568998e+09 -2.369001e+09 -2.528998e+09 -1.023438e+03 4.320561e+01 -1.180141e+02
-2.132842e+09 -1.932850e+09 -2.092844e+09 1.766534e+03 1.614154e+03 -2.080695e+02
-1.579813e+09 -1.379701e+09 -1.539685e+09 3.048514e+03 -2.053060e+04 1.034065e+05
-1.595033e+09 -1.395041e+09 -1.555035e+09 -1.679896e+02 7.021520e+02 -8.998609e+00
-2.171972e+09 -1.971979e+09 -2.131973e+09 -1.096742e+02 5.142955e+02 -2.746039e+01
-3.600504e+09 -3.400498e+09 -3.560405e+09 -3.085981e+03 -3.664167e+03 1.337986e+04
-1.609151e+09 -1.409040e+09 -1.569088e+09 2.882016e+04 5.349438e+04 1.810771e+03
-3.339724e+09 -3.139738e+09 -3.299723e+09 5.100895e+03 4.676048e+03 1.644562e+04
-3.498911e+09 -3.298912e+09 -3.458912e+09 -1.733621e+03 -1.177039e+03 -4.870659e+02
-1.592485e+09 -1.392488e+09 -1.552485e+09 -3.554012e+03 -2.759406e+03 -9.582274e+02
-3.132074e+09 -2.932073e+09 -3.092073e+09 2.845040e+02 3.536063e+01 -3.004702e+01
-3.497785e+09 -3.297784e+09 -3.457784e+09 1.664498e+02 2.351687e+00 -4.963329e+00
-1.606207e+09 -1.406250e+09 -1.566221e+09 -1.675430e+04 -2.622575e+04 5.814156e+04
-3.600497e+09 -3.400497e+09 -3.560408e+09 -6.426057e+02 -4.529515e+03 1.711705e+04
-3.278870e+09 -3.078868e+09 -3.238872e+09 3.628263e+03 1.032341e+03 -7.234568e+01
-2.968389e+09 -2.768388e+09 -2.928392e+09 3.552044e+03 9.689750e+02 -7.095463e+01
-3.603588e+09 -3.403587e+09 -3.563588e+09 3.521102e+02 6.186013e+00 -5.004485e+01
-2.219276e+09 -2.019279e+09 -2.179282e+09 5.838810e+03 -1.248431e+03 3.630174e+03
-2.305062e+09 -2.105061e+09 -2.265062e+09 2.791622e+02 4.599703e+01 -7.419599e+01
-2.985648e+09 -2.785648e+09 -2.945648e+09 3.642409e+02 4.679379e+01 2.385645e+01
-1.552335e+09 -1.352335e+09 -1.512335e+09 3.819747e+02 8.805441e+01 1.978822e+01
-3.377020e+09 -3.177014e+09 -3.337021e+09 3.972798e+03 7.980987e+02 -1.196739e+03
-3.405593e+09 -3.205590e+09 -3.365590e+09 5.170691e+03 2.799618e+03 2.518831e+03
-3.570003e+09 -3.370003e+09 -3.530003e+09 6.004860e+02 -5.174020e+00 -6.692517e+01
-3.575411e+09 -3.375412e+09 -3.535412e+09 5.414486e+02 1.097011e+01 -3.801250e+01
-3.607838e+09 -3.407832e+09 -3.567831e+09 5.973182e+03 2.414531e+03 2.405034e+03
-3.581561e+09 -3.381562e+09 -3.541560e+09 -1.222979e+03 1.151292e+02 1.913352e+01
-2.787998e+09 -2.587992e+09 -2.747994e+09 2.522560e+03 1.310333e+01 -1.186507e+03
-1.894959e+09 -1.694960e+09 -1.854960e+09 4.566324e+02 4.687619e+01 3.256601e+01
-2.203214e+09 -2.003214e+09 -2.163214e+09 3.730238e+02 2.223786e+01 8.024653e+00
-1.787203e+09 -1.587203e+09 -1.747203e+09 6.237519e+02 6.855651e+01 -1.643425e+01
-1.577390e+09 -1.377389e+09 -1.537389e+09 -5.984679e+02 1.919798e+02 -1.099189e+02
-1.597556e+09 -1.397555e+09 -1.557555e+09 -2.389761e+02 1.430113e+02 -1.006241e+02
-1.577390e+09 -1.377390e+09 -1.537389e+09 -7.623842e+02 1.762972e+02 -1.260599e+02
-1.814174e+09 -1.614173e+09 -1.774173e+09 5.178360e+02 4.717980e+01 -6.033855e+01
-3.576064e+09 -3.376063e+09 -3.536063e+09 -1.113544e+03 1.062354e+02 6.617478e+01
-3.596855e+09 -3.396854e+09 -3.556854e+09 -3.301230e+02 1.434490e+01 -2.426212e+01
-1.767609e+09 -1.567608e+09 -1.727608e+09 -1.043972e+03 3.601802e+02 -1.115319e+01
-2.017121e+09 -1.817121e+09 -1.977121e+09 6.171009e+02 5.315825e+01 -5.937786e+01
-1.981983e+09 -1.781983e+09 -1.941983e+09 4.779199e+02 3.518835e+01 -7.235065e+01
-1.873516e+09 -1.673516e+09 -1.833516e+09 3.921760e+02 1.872517e+01 -2.992778e+01
-2.118250e+09 -1.918257e+09 -2.078251e+09 3.220548e+03 2.213208e+03 -6.481538e+02
-3.189780e+09 -2.989783e+09 -3.149781e+09 -2.098988e+03 1.294514e+03 3.448612e+02
-1.601340e+09 -1.401331e+09 -1.561348e+09 6.860621e+03 3.432650e+03 8.125481e+01
-1.578186e+09 -1.378186e+09 -1.538185e+09 -1.742614e+03 5.715435e+02 1.005874e+02
-1.578185e+09 -1.378185e+09 -1.538185e+09 -1.559050e+03 5.156075e+02 9.120698e+01
-3.589718e+09 -3.389714e+09 -3.549719e+09 -3.720344e+02 -1.452489e+03 1.843596e+03
-3.293151e+09 -3.093153e+09 -3.253152e+09 3.244718e+03 1.721948e+03 -7.945973e+02
-3.205064e+09 -3.005061e+09 -3.165066e+09 1.838061e+03 -3.062593e+03 2.382359e+03
-3.532348e+09 -3.332344e+09 -3.492349e+09 -1.498874e+03 -9.479274e+02 2.233256e+03
-3.602362e+09 -3.402365e+09 -3.562364e+09 -4.572108e+02 2.174048e+00 -1.639951e+02
-2.982786e+09 -2.782788e+09 -2.942787e+09 4.423542e+02 1.357661e+01 -6.836732e+01
-2.492563e+09 -2.292565e+09 -2.452565e+09 -2.419609e+03 7.345148e+02 -1.134537e+03
-3.332634e+09 -3.132640e+09 -3.292640e+09 3.767119e+03 4.443132e+03 -1.493139e+03
-1.763837e+09 -1.563835e+09 -1.723836e+09 -2.244192e+03 4.104366e+02 -2.472198e+02
-2.749268e+09 -2.549274e+09 -2.709280e+09 -8.995701e+02 -1.030434e+04 6.415848e+02
-3.526775e+09 -3.326775e+09 -3.486776e+09 -1.579105e+03 6.882249e+01 -9.304053e+01
-3.610674e+09 -3.410677e+09 -3.570675e+09 -5.670793e+02 1.821849e+02 -7.892483e+02
-1.703890e+09 -1.503891e+09 -1.663891e+09 -8.791168e+02 -1.415729e+02 2.668213e+01
-2.883629e+09 -2.683639e+09 -2.843634e+09 -3.955269e+02 -3.472934e+03 1.120232e+02
-3.604090e+09 -3.404094e+09 -3.564099e+09 -1.713747e+03 -5.423132e+03 -4.128377e+02
-2.574414e+09 -2.374428e+09 -2.534425e+09 4.040528e+02 -1.045821e+04 1.289415e+03
-1.792479e+09 -1.592474e+09 -1.752478e+09 -1.500261e+03 -3.980976e+02 1.091329e+03
-3.185608e+09 -2.985617e+09 -3.145619e+09 -2.225375e+01 -7.155655e+03 1.146828e+03
-2.246828e+09 -2.046843e+09 -2.206841e+09 -1.023029e+03 -1.423733e+04 -4.627803e+02
-2.617683e+09 -2.417693e+09 -2.577692e+09 -2.938542e+02 -6.933634e+03 6.601673e+02
-1.575520e+09 -1.375560e+09 -1.535537e+09 5.179371e+03 2.463921e+04 -5.097097e+03
-1.894369e+09 -1.694364e+09 -1.854367e+09 2.225477e+03 1.284411e+03 -1.503538e+03
-3.009710e+09 -2.809715e+09 -2.969718e+09 5.475637e+03 6.936954e+03 -2.883625e+03
-1.698309e+09 -1.498309e+09 -1.658308e+09 -4.973120e+02 4.827163e+01 -1.493737e+02
-1.772292e+09 -1.572311e+09 -1.732298e+09 -1.299392e+03 8.679291e+03 1.554848e+03
-3.591949e+09 -3.391953e+09 -3.551965e+09 2.321819e+03 1.038492e+04 -2.572474e+03
-2.893956e+09 -2.693966e+09 -2.853964e+09 4.283157e+03 7.393038e+03 -2.000946e+03
-3.476031e+09 -3.276038e+09 -3.436040e+09 1.896094e+03 6.767888e+03 -7.947717e+02
-1.872880e+09 -1.672906e+09 -1.832893e+09 6.612675e+03 1.676522e+04 -2.126307e+03
-3.172736e+09 -2.972750e+09 -3.132749e+09 3.530564e+03 1.082563e+04 -2.155537e+03
-2.666242e+09 -2.466256e+09 -2.626256e+09 -1.021426e+03 1.175235e+04 1.537732e+03
-1.566043e+09 -1.366047e+09 -1.526043e+09 1.586464e+03 3.025331e+02 -6.985828e+00
-3.474602e+09 -3.274609e+09 -3.434604e+09 2.277561e+02 5.133934e+02 -3.564272e+01
-2.835170e+09 -2.635178e+09 -2.795177e+09 1.109559e+03 -7.128360e+03 1.179371e+03
-3.611683e+09 -3.411691e+09 -3.571686e+09 3.212632e+02 8.121147e+02 7.167794e+01
-3.611683e+09 -3.411690e+09 -3.571686e+09 -1.723957e+02 9.114983e+02 5.718300e+01
-2.423662e+09 -2.223671e+09 -2.383664e+09 6.089595e+02 1.933458e+03 -1.042543e+01
-2.159492e+09 -1.959499e+09 -2.119501e+09 -4.642904e+03 -1.054457e+04 -3.285062e+03
-1.803346e+09 -1.603360e+09 -1.763352e+09 1.285507e+03 -8.496174e+03 1.016894e+03
-1.868914e+09 -1.668921e+09 -1.828915e+09 1.004942e+03 3.567016e+02 -4.191600e+01
-1.672630e+09 -1.472637e+09 -1.632632e+09 2.202657e+02 4.178106e+02 -7.958837e+00
-1.674097e+09 -1.474104e+09 -1.634098e+09 4.903079e+02 4.385764e+02 -5.844886e+00
-2.372654e+09 -2.172668e+09 -2.332664e+09 2.233491e+03 -8.596679e+03 2.351562e+03
-1.656294e+09 -1.456313e+09 -1.616303e+09 -7.829656e+03 -1.228210e+04 -2.514982e+03
-3.583670e+09 -3.383669e+09 -3.543656e+09 -6.855501e+03 -4.253672e+03 7.808521e+03
-2.564499e+09 -2.364486e+09 -2.524516e+09 1.172312e+04 1.360614e+04 -1.496280e+04
-1.868092e+09 -1.668091e+09 -1.828091e+09 9.795390e+01 3.107478e+01 -5.626068e+01
-1.996157e+09 -1.796156e+09 -1.956156e+09 1.347293e+02 2.143363e+01 -2.937884e+01
-1.748519e+09 -1.548549e+09 -1.708552e+09 8.792321e+03 3.924436e+04 -8.588431e+03
-3.368251e+09 -3.168244e+09 -3.328272e+09 -1.594574e+03 1.167060e+04 -6.965423e+02
-2.550456e+09 -2.350449e+09 -2.510443e+09 4.219559e+03 -6.151973e+03 -1.237044e+04
-1.561806e+09 -1.361759e+09 -1.521805e+09 -9.147695e+03 4.144031e+03 1.893942e+04
-3.322089e+09 -3.122090e+09 -3.282081e+09 1.374626e+02 2.691208e+02 -4.553671e+03
-2.137361e+09 -1.937359e+09 -2.097400e+09 2.126633e+03 -4.562376e+03 -4.282082e+04
-2.318601e+09 -2.118617e+09 -2.278625e+09 1.030674e+04 2.721923e+04 -7.093181e+03
-1.888105e+09 -1.688115e+09 -1.848106e+09 1.436806e+04 1.446426e+04 -1.041680e+04
-1.596944e+09 -1.396958e+09 -1.556964e+09 6.621776e+03 -1.400428e+03 2.231940e+04
-1.779381e+09 -1.579364e+09 -1.739380e+09 4.222292e+03 -2.298013e+03 6.215943e+03
-2.388499e+09 -2.188510e+09 -2.348518e+09 1.029942e+04 2.347781e+04 -9.631679e+03
-1.898497e+09 -1.698498e+09 -1.858496e+09 -8.556422e+02 1.410873e+02 -5.164246e+01
-2.083118e+09 -1.883107e+09 -2.043129e+09 6.137261e+03 1.568223e+04 -9.908637e+03
-2.842341e+09 -2.642343e+09 -2.802343e+09 -5.352503e+02 -5.559257e+01 1.034528e+01
-3.187524e+09 -2.987526e+09 -3.147525e+09 -3.855846e+02 -1.827758e+01 5.211415e+01
-1.592348e+09 -1.392351e+09 -1.552348e+09 -1.278098e+03 1.999677e+02 -1.076129e+02
-3.571721e+09 -3.371721e+09 -3.531720e+09 -1.299641e+03 1.033552e+02 4.413452e+01
-1.698010e+09 -1.498011e+09 -1.658011e+09 -4.476987e+02 -4.982567e+01 3.064305e+01
-2.408375e+09 -2.208374e+09 -2.368374e+09 -4.668558e+02 8.642033e+01 -1.273913e+02
-1.588579e+09 -1.388579e+09 -1.548578e+09 -7.519800e+02 1.685103e+02 -1.308127e+02
-1.879735e+09 -1.679738e+09 -1.839737e+09 -3.102860e+02 -8.825944e+00 -8.201389e+01
-3.397390e+09 -3.197392e+09 -3.357390e+09 -2.115150e+03 6.186386e+02 2.235517e+02
-1.589037e+09 -1.389038e+09 -1.549038e+09 -9.147118e+02 -7.074943e+01 1.066127e+01
-2.326581e+09 -2.126582e+09 -2.286581e+09 -1.454754e+03 2.387998e+02 -1.908261e+01
-1.871410e+09 -1.671411e+09 -1.831409e+09 -9.966525e+02 2.989716e+01 -8.450020e+01
-3.372495e+09 -3.172495e+09 -3.332494e+09 -1.050362e+03 2.410287e+02 7.571521e+01
-3.596057e+09 -3.396059e+09 -3.556057e+09 -1.701233e+03 2.431087e+02 1.194026e+02
-3.499982e+09 -3.299983e+09 -3.459983e+09 -4.997732e+02 -1.557491e+01 1.751499e+01
-2.933135e+09 -2.733137e+09 -2.893136e+09 -5.450282e+02 -4.843687e+01 2.034953e+01
-1.635759e+09 -1.435760e+09 -1.595760e+09 -6.806886e+02 -7.133450e+01 3.621779e+01
-1.878333e+09 -1.678333e+09 -1.838333e+09 -4.147534e+02 -6.571998e+01 1.992459e+01
-3.475533e+09 -3.275533e+09 -3.435533e+09 -5.892178e+02 -3.729720e+01 -4.428857e+00
-3.011517e+09 -2.811519e+09 -2.971518e+09 -2.514380e+03 1.076940e+03 5.222632e+02
-1.883972e+09 -1.683972e+09 -1.843973e+09 -7.424998e+02 -1.338425e+02 5.543098e+01
-3.281791e+09 -3.081791e+09 -3.241791e+09 -6.126642e+02 -3.278810e+01 3.453383e+00
-1.729011e+09 -1.529011e+09 -1.689011e+09 4.176285e+02 5.986541e+01 -1.341297e+01
-3.319046e+09 -3.119045e+09 -3.279045e+09 2.262122e+02 1.298669e+01 -3.392037e+01
-3.597489e+09 -3.397488e+09 -3.557489e+09 4.953115e+02 -4.871141e+00 -7.914696e+01
-2.850210e+09 -2.650210e+09 -2.810210e+09 -4.491645e+02 -6.431006e+01 1.199782e+01
-2.580823e+09 -2.380823e+09 -2.540823e+09 -6.844629e+02 -8.400859e+01 -3.921058e+01
-1.674059e+09 -1.474082e+09 -1.634067e+09 1.633065e+03 9.129562e+03 -9.772482e+01
-2.056457e+09 -1.856479e+09 -2.016468e+09 7.234081e+03 1.686371e+04 -3.860084e+03
-3.035598e+09 -2.835592e+09 -2.995598e+09 -3.659547e+03 2.196946e+03 3.382237e+03
-2.352943e+09 -2.152942e+09 -2.312943e+09 -8.260461e+02 -1.250308e+02 -6.525444e+00
-2.080291e+09 -1.880313e+09 -2.040314e+09 -8.645600e+03 2.612935e+04 4.183019e+03
-3.389982e+09 -3.189993e+09 -3.349993e+09 -1.328229e+03 8.288733e+03 1.083066e+03
-3.400160e+09 -3.200161e+09 -3.360175e+09 -4.051607e+03 9.713507e+03 2.474625e+03
-1.708232e+09 -1.508232e+09 -1.668231e+09 1.200915e+03 -7.525700e+02 3.578646e+02
-3.308946e+09 -3.108945e+09 -3.268945e+09 -8.188420e+01 -2.113158e+02 6.922307e+01
-1.674099e+09 -1.474098e+09 -1.634098e+09 1.027660e+02 -1.811364e+02 2.958855e+01
-2.327742e+09 -2.127748e+09 -2.287744e+09 -2.459422e+03 -2.796391e+03 -6.174351e+02
-1.581568e+09 -1.381579e+09 -1.541571e+09 -2.593572e+03 -4.514728e+03 -4.553624e+02
-2.360666e+09 -2.160681e+09 -2.320676e+09 -4.765211e+03 9.356004e+03 2.065684e+03
-3.299556e+09 -3.099562e+09 -3.259573e+09 -5.866611e+02 1.119247e+04 -2.450452e+02
-3.368364e+09 -3.168360e+09 -3.328387e+09 3.336517e+03 1.135658e+04 -4.414465e+03
-2.943124e+09 -2.743136e+09 -2.903145e+09 -6.310663e+03 1.571495e+04 3.766608e+03
-1.569020e+09 -1.369016e+09 -1.529018e+09 4.100182e+02 -8.841466e+02 8.606493e+02
-1.594904e+09 -1.394902e+09 -1.554903e+09 4.262978e+02 -5.403450e+02 5.142385e+02
-2.636290e+09 -2.436288e+09 -2.596289e+09 1.300122e+03 -1.050919e+03 9.957618e+02
-2.778594e+09 -2.578592e+09 -2.738594e+09 -4.239193e+03 3.216914e+03 2.835172e+03
-2.094267e+09 -1.894264e+09 -2.054266e+09 -9.662699e+02 -3.522802e+02 8.441562e+02
-3.200671e+09 -3.000660e+09 -3.160666e+09 5.843958e+03 3.768034e+03 2.169807e+03
-1.606233e+09 -1.406230e+09 -1.566232e+09 -3.337539e+02 -9.418156e+02 1.039864e+03
-1.548298e+09 -1.348357e+09 -1.508332e+09 -1.304830e+04 4.403891e+04 3.113229e+03
-2.522925e+09 -2.322919e+09 -2.482923e+09 -8.085320e+02 -6.756113e+02 2.317138e+03
-2.706618e+09 -2.506626e+09 -2.666629e+09 -4.471008e+03 9.564371e+03 3.251320e+03
-2.099731e+09 -1.899731e+09 -2.059731e+09 3.226925e+02 3.767446e+01 1.279331e+01
-3.600536e+09 -3.400535e+09 -3.560535e+09 1.637405e+02 -1.147058e+00 -4.306942e+01
-1.614404e+09 -1.414403e+09 -1.574404e+09 2.662759e+02 4.795905e+01 -3.047117e+01
-1.658725e+09 -1.458727e+09 -1.618727e+09 -1.359444e+02 -2.357264e+01 -2.062147e+01
-1.924627e+09 -1.724629e+09 -1.884629e+09 1.105137e+02 2.072579e+01 9.345632e+00
-1.873624e+09 -1.673624e+09 -1.833624e+09 2.994945e+02 4.197692e+01 -2.849731e+01
-1.596627e+09 -1.396626e+09 -1.556626e+09 2.552438e+02 9.273979e+01 -8.342724e+01
-1.923055e+09 -1.723055e+09 -1.883055e+09 2.312265e+02 4.981574e+01 -2.016042e+01
-1.674129e+09 -1.474128e+09 -1.634128e+09 -3.351307e+02 -9.641868e+01 -5.128315e+01
-3.353701e+09 -3.153701e+09 -3.313701e+09 4.636083e+02 3.463348e+01 -2.828162e+01
-3.354244e+09 -3.154244e+09 -3.314244e+09 3.886550e+02 1.749824e+01 -5.906053e+01
-2.146388e+09 -1.946387e+09 -2.106387e+09 4.188294e+02 6.261900e+01 -3.129774e+01
-1.674099e+09 -1.474098e+09 -1.634098e+09 -1.067752e+02 -2.285038e+02 -5.188968e+01
-2.095722e+09 -1.895720e+09 -2.055721e+09 -1.072617e+02 -2.701905e+02 7.475023e+01
-1.764996e+09 -1.564995e+09 -1.724996e+09 3.426024e+02 8.191643e+01 -2.936047e+01
-2.826771e+09 -2.626772e+09 -2.786772e+09 9.939373e+02 -8.103862e+00 -1.469653e+02
-3.580752e+09 -3.380754e+09 -3.540753e+09 6.053258e+02 1.468963e+01 -9.567488e+01
-2.855147e+09 -2.655148e+09 -2.815146e+09 2.099355e+03 4.954693e+02 -1.883881e+02
-3.179976e+09 -2.979977e+09 -3.139977e+09 7.707135e+02 4.186067e+01 -8.635499e+01
-3.190030e+09 -2.990031e+09 -3.150029e+09 1.468841e+03 1.269872e+02 -1.326699e+02
-2.261273e+09 -2.061270e+09 -2.221272e+09 7.114303e+02 -8.245096e+01 9.365021e-01
-3.217300e+09 -3.017300e+09 -3.177300e+09 7.768365e+02 7.585399e+01 -1.974971e+00
-3.200199e+09 -3.000201e+09 -3.160198e+09 1.420322e+03 1.277173e+02 5.481917e+01
-3.420659e+09 -3.220659e+09 -3.380659e+09 8.370108e+02 2.361699e+01 -8.468361e+01
-3.392540e+09 -3.192541e+09 -3.352541e+09 8.178662e+02 5.322918e+01 -3.783310e+01
-3.482227e+09 -3.282228e+09 -3.442226e+09 1.806206e+03 2.770328e+02 -5.424281e+01
-1.674128e+09 -1.474133e+09 -1.634128e+09 1.269655e+03 3.382128e+02 1.946791e+01
-2.615035e+09 -2.415039e+09 -2.575035e+09 2.620919e+03 1.264964e+03 -4.255671e+02
-3.380973e+09 -3.180972e+09 -3.340972e+09 -9.206407e+02 -1.356563e+02 1.400760e+01
-2.525920e+09 -2.325920e+09 -2.485919e+09 -1.367065e+03 3.531704e+02 1.487690e+02
-2.556954e+09 -2.356953e+09 -2.516954e+09 -1.494366e+03 -8.858201e+01 2.618439e+02
-2.459231e+09 -2.259231e+09 -2.419231e+09 -8.190889e+02 -1.128325e+02 -1.221485e+01
-3.403273e+09 -3.203272e+09 -3.363272e+09 2.431591e+02 4.744221e+01 -1.691534e+01
-3.167634e+09 -2.967633e+09 -3.127634e+09 -7.252137e+02 -2.103463e+02 9.349811e+01
-3.598927e+09 -3.398932e+09 -3.558928e+09 -9.102228e+02 1.691971e+02 -3.474773e+01
-1.752011e+09 -1.552010e+09 -1.712011e+09 -6.439610e+02 -1.392964e+02 -2.071970e+01
-3.286182e+09 -3.086188e+09 -3.246183e+09 1.049165e+03 4.590259e+02 -1.759160e+02
-1.672631e+09 -1.472639e+09 -1.632632e+09 3.335422e+02 8.460418e+02 -1.246374e+01
-2.089836e+09 -1.889843e+09 -2.049837e+09 -8.194819e+02 4.190589e+02 5.682988e+01
-3.599648e+09 -3.399654e+09 -3.559650e+09 -1.015150e+03 4.366173e+02 6.528586e+01
-3.285497e+09 -3.085503e+09 -3.245498e+09 -5.630254e+02 4.400992e+02 -4.945088e+00
-1.583270e+09 -1.383279e+09 -1.543273e+09 -1.060011e+03 1.718523e+03 1.361681e+02
-2.723501e+09 -2.523508e+09 -2.683503e+09 -6.957937e+02 6.495868e+02 5.216449e+01
-2.092923e+09 -1.892931e+09 -2.052925e+09 -1.255495e+02 1.006543e+03 1.818968e+01
-1.774006e+09 -1.574005e+09 -1.734006e+09 -5.514347e+02 -1.813331e+02 1.464930e+01
-3.591871e+09 -3.391879e+09 -3.551877e+09 4.437434e+02 3.098707e+03 -6.125318e+01
-3.141881e+09 -2.941880e+09 -3.101881e+09 3.448166e+02 4.384480e+01 -2.486012e+01
-1.774813e+09 -1.574812e+09 -1.734813e+09 3.343250e+02 3.957710e+01 -4.244051e+01
-2.443413e+09 -2.243412e+09 -2.403413e+09 -8.872713e+02 -2.277728e+02 1.328094e+02
-2.891610e+09 -2.691609e+09 -2.851609e+09 1.209967e+02 2.446854e+01 -3.476574e+01
-1.983555e+09 -1.783554e+09 -1.943554e+09 1.407236e+02 2.235539e+01 -3.257851e+00
-1.791080e+09 -1.591079e+09 -1.751079e+09 3.256434e+02 3.431808e+01 -1.208745e+01
-1.572475e+09 -1.372475e+09 -1.532475e+09 -5.737184e+02 -2.486354e+02 -1.443056e+01
-3.424454e+09 -3.224453e+09 -3.384453e+09 -5.050161e+02 -1.156006e+02 3.867790e+01
-2.404210e+09 -2.204209e+09 -2.364209e+09 7.054641e+01 7.245926e+01 -9.217639e+01
-2.514043e+09 -2.314043e+09 -2.474042e+09 -1.120170e+02 1.977600e+01 -7.016904e+01
-3.588894e+09 -3.388896e+09 -3.548896e+09 -8.933300e+01 -3.403335e+00 1.187868e+00
-2.820837e+09 -2.620836e+09 -2.780835e+09 -3.741872e+02 -1.282918e+01 -9.703760e+01
-2.304326e+09 -2.104325e+09 -2.264325e+09 -8.921780e+00 1.073730e+01 -5.947903e+01
-2.176068e+09 -1.976066e+09 -2.136067e+09 -4.621319e+02 -8.329233e+01 -1.442522e+01
-3.370915e+09 -3.170914e+09 -3.330914e+09 -7.064208e+02 -1.303110e+02 4.230069e+01
-3.602154e+09 -3.402160e+09 -3.562158e+09 2.047488e+03 2.716236e+03 -6.442838e+02
-2.808133e+09 -2.608136e+09 -2.768133e+09 -1.920086e+03 4.975344e+02 2.012570e+02
-2.019770e+09 -1.819769e+09 -1.979769e+09 -6.591963e+02 -6.444208e+01 -1.060277e+02
-1.581793e+09 -1.381806e+09 -1.541797e+09 -6.535175e+02 3.483484e+03 1.895148e+02
-1.961942e+09 -1.761942e+09 -1.921941e+09 -1.413668e+03 1.437842e+02 3.461899e+01
-3.476029e+09 -3.276037e+09 -3.436040e+09 5.692939e+02 6.853082e+03 8.311949e+01
-1.658529e+09 -1.458545e+09 -1.618534e+09 2.788613e+03 5.735423e+03 -7.623740e+02
-2.548089e+09 -2.348090e+09 -2.508089e+09 -8.961733e+02 7.875017e+01 -1.247858e+02
-2.595035e+09 -2.395047e+09 -2.555041e+09 -2.043014e+03 5.587976e+03 5.907648e+02
-3.373054e+09 -3.173053e+09 -3.333053e+09 -1.617290e+03 4.693362e+02 2.745815e+02
-3.270932e+09 -3.070923e+09 -3.230940e+09 -3.194914e+03 -2.252455e+03 3.006182e+03
-2.032583e+09 -1.832594e+09 -1.992590e+09 4.766894e+03 -1.196027e+04 5.116204e+03
-2.826019e+09 -2.626018e+09 -2.786018e+09 -2.368171e+02 4.825968e+01 -5.063914e+01
-3.091597e+09 -2.891597e+09 -3.051596e+09 -1.073343e+03 1.781315e+02 -5.519411e+01
-3.592514e+09 -3.392517e+09 -3.552516e+09 8.020988e+02 6.087917e+00 -4.548990e+02
-3.006876e+09 -2.806877e+09 -2.966877e+09 6.221760e+02 4.443486e+01 -3.076330e+01
-1.596819e+09 -1.396821e+09 -1.556821e+09 1.310083e+02 1.670053e+01 -5.359301e+01
-3.215576e+09 -3.015577e+09 -3.175577e+09 6.046557e+02 1.400837e+01 -9.907728e+01
-1.575376e+09 -1.375376e+09 -1.535374e+09 4.328044e+03 2.092544e+03 -1.264778e+03
-2.856178e+09 -2.656181e+09 -2.816181e+09 -4.154590e+01 -4.548390e+00 -1.100522e+02
-2.133034e+09 -1.933036e+09 -2.093036e+09 1.829329e+02 6.061137e+00 8.483786e+01
-3.253595e+09 -3.053587e+09 -3.213607e+09 -1.636940e+03 -6.007794e+03 -2.584664e+03
-2.184369e+09 -1.984318e+09 -2.144310e+09 -1.498920e+04 2.348959e+04 -2.949461e+04
-1.584015e+09 -1.384018e+09 -1.544018e+09 -1.355294e+03 2.198504e+02 -4.898634e+02
-2.524941e+09 -2.324893e+09 -2.484924e+09 -7.399131e+03 2.155148e+04 -1.080093e+04
-3.554112e+09 -3.354113e+09 -3.514114e+09 -2.214110e+03 -2.085398e+03 -9.423843e+02
-2.620305e+09 -2.420306e+09 -2.580306e+09 -2.585175e+03 -3.042788e+03 -1.174955e+03
-3.136151e+09 -2.936149e+09 -3.096151e+09 -1.810710e+03 -1.738867e+03 -1.262541e+03
-3.088821e+09 -2.888799e+09 -3.048819e+09 -1.871492e+03 9.762893e+03 -1.820224e+03
-3.624288e+09 -3.424280e+09 -3.584297e+09 -3.123965e+02 -6.606941e+03 -3.494748e+03
-1.873306e+09 -1.673189e+09 -1.833126e+09 4.548751e+04 1.010124e+05 1.004207e+05
-3.499981e+09 -3.299983e+09 -3.459983e+09 -5.429265e+02 -1.040859e+01 -3.380094e+00
-2.198884e+09 -1.998886e+09 -2.158883e+09 -2.954454e+03 -1.949293e+03 -1.034913e+03
-3.605782e+09 -3.405787e+09 -3.565764e+09 5.861162e+03 4.193680e+03 1.267561e+04
-2.790459e+09 -2.590460e+09 -2.750460e+09 -2.871836e+03 -3.061415e+03 -1.437155e+03
-1.584366e+09 -1.384341e+09 -1.544359e+09 -8.381217e+02 -1.519331e+03 7.343360e+03
-1.590659e+09 -1.390637e+09 -1.550643e+09 2.300395e+03 -6.088294e+03 3.945029e+02
-2.975418e+09 -2.775423e+09 -2.935418e+09 1.891973e+02 1.570032e+02 -4.347141e+03
-1.973980e+09 -1.773983e+09 -1.933982e+09 -1.758374e+01 4.726372e+01 -3.879771e+01
-1.644965e+09 -1.444957e+09 -1.604960e+09 -5.799073e+03 1.927814e+03 3.634497e+03
-1.667773e+09 -1.467767e+09 -1.627770e+09 -1.427928e+04 1.127833e+04 9.982371e+03
-1.588844e+09 -1.388847e+09 -1.548847e+09 -2.377324e+02 5.908227e+00 -1.314046e+02
-2.608392e+09 -2.408395e+09 -2.568394e+09 3.081197e+02 2.461950e+01 -2.748510e+02
-2.121457e+09 -1.921461e+09 -2.081460e+09 -4.972961e+02 1.264928e+02 -5.610365e+02
-2.728587e+09 -2.528590e+09 -2.688590e+09 6.488248e+02 2.805336e+01 -3.659478e+02
-1.674100e+09 -1.474106e+09 -1.634100e+09 9.636845e+02 3.943296e+02 2.299462e+01
-3.478791e+09 -3.278793e+09 -3.438793e+09 -7.394594e+01 7.370290e+00 3.316518e+01
-3.395242e+09 -3.195245e+09 -3.355244e+09 2.841407e+02 2.180131e+01 -1.716201e+02
-1.561913e+09 -1.361937e+09 -1.521924e+09 8.627562e+03 -1.729795e+04 4.627195e+03
-2.971208e+09 -2.771214e+09 -2.931209e+09 7.599980e+02 4.035838e+02 -3.539540e+01
-1.696582e+09 -1.496588e+09 -1.656583e+09 1.387392e+03 3.802827e+02 -1.930212e+01
-3.206573e+09 -3.006565e+09 -3.166572e+09 -4.940297e+02 7.106860e+02 -2.422449e+03
-1.679788e+09 -1.479782e+09 -1.639785e+09 1.685816e+03 9.364264e+02 -1.556212e+03
-2.633679e+09 -2.433667e+09 -2.593673e+09 -1.009843e+04 -9.302897e+03 7.124436e+03
-2.410273e+09 -2.210281e+09 -2.370279e+09 -3.824086e+03 -7.702873e+03 -2.677948e+03
-2.677448e+09 -2.477458e+09 -2.637455e+09 -2.469716e+03 -7.299395e+03 -1.050207e+03
-3.592377e+09 -3.392377e+09 -3.552377e+09 -2.140602e+03 5.906134e+02 2.213887e+02
-1.977787e+09 -1.777791e+09 -1.937788e+09 -1.785390e+03 5.775233e+02 1.473792e+02
-1.615808e+09 -1.415810e+09 -1.575807e+09 -2.259385e+03 7.775736e+02 1.069884e+02
-2.724542e+09 -2.524540e+09 -2.684527e+09 5.506486e+02 -4.551419e+03 -6.581176e+03
-2.004911e+09 -1.804905e+09 -1.964912e+09 -2.518622e+03 -2.631264e+01 -7.663411e+02
-3.422718e+09 -3.222698e+09 -3.382656e+09 6.165224e+03 2.430827e+04 1.006093e+04
-1.596923e+09 -1.396943e+09 -1.556971e+09 2.076690e+04 1.770103e+04 3.425166e+04
-1.576345e+09 -1.376343e+09 -1.536344e+09 -1.853844e+02 2.892707e+02 3.502230e+01
-2.000763e+09 -1.800762e+09 -1.960762e+09 -6.701552e+01 1.387425e+02 -6.458315e+01
-1.578138e+09 -1.378137e+09 -1.538137e+09 7.061406e+02 1.698350e+02 -2.631058e+02
-3.605878e+09 -3.405878e+09 -3.565878e+09 2.134047e+03 -3.699609e+02 -8.308882e+02
-1.687470e+09 -1.487470e+09 -1.647471e+09 2.191007e+03 -3.273825e+02 -8.988561e+02
-1.569141e+09 -1.369141e+09 -1.529140e+09 -1.108950e+03 2.901708e+02 -8.448612e+01
-2.660908e+09 -2.460907e+09 -2.620907e+09 5.513510e+02 2.967222e+01 -8.285186e+01
-3.165929e+09 -2.965929e+09 -3.125928e+09 -1.034621e+03 2.124262e+02 -3.017811e+01
-1.591447e+09 -1.391448e+09 -1.551446e+09 -1.591122e+03 4.551043e+02 -5.183770e+01
-3.158073e+09 -2.958073e+09 -3.118072e+09 -1.545270e+03 4.773505e+02 2.013712e+02
-2.675533e+09 -2.475541e+09 -2.635542e+09 5.335263e+03 1.207033e+04 -4.829034e+03
-1.809141e+09 -1.609140e+09 -1.769139e+09 8.466653e+02 -7.842900e+02 4.554071e+02
-3.086682e+09 -2.886695e+09 -3.046696e+09 -2.384410e+03 8.787939e+03 7.653208e+02
-1.997568e+09 -1.797567e+09 -1.957567e+09 2.103653e+02 -2.721120e+02 2.407558e+01
-1.803030e+09 -1.603054e+09 -1.763043e+09 -8.717363e+03 1.845913e+04 3.278490e+03
-2.422635e+09 -2.222635e+09 -2.382635e+09 6.242753e+02 9.124650e+01 -1.620163e+01
-2.764050e+09 -2.564058e+09 -2.724056e+09 -3.492601e+03 5.799847e+03 1.605997e+03
-2.071101e+09 -1.871115e+09 -2.031107e+09 -8.628210e+02 6.753779e+03 4.077112e+02
-1.571284e+09 -1.371285e+09 -1.531284e+09 6.255531e+02 7.834927e+01 2.702334e+00
-1.972881e+09 -1.772896e+09 -1.932888e+09 -4.713388e+03 9.855580e+03 2.644867e+03
-3.602856e+09 -3.402862e+09 -3.562873e+09 -3.497787e+02 1.015606e+04 6.271762e+02
-3.368016e+09 -3.168021e+09 -3.328026e+09 -6.092479e+03 7.826671e+03 3.435957e+03
-1.792667e+09 -1.592682e+09 -1.752672e+09 -7.481690e+03 8.456655e+03 1.821256e+03
-3.176892e+09 -2.976889e+09 -3.136890e+09 -9.860204e+02 6.823102e+02 4.194525e+02
-2.221093e+09 -2.021092e+09 -2.181092e+09 2.366905e+02 2.234891e+01 -4.583978e+00
-2.945631e+09 -2.745630e+09 -2.905630e+09 2.596452e+02 2.138460e+01 -1.187999e+01
-2.024667e+09 -1.824666e+09 -1.984666e+09 -1.458856e+03 1.708223e+02 1.477298e+02
-2.230453e+09 -2.030452e+09 -2.190452e+09 1.976475e+02 2.210157e+01 -4.481045e+00
-3.184870e+09 -2.984869e+09 -3.144869e+09 1.357019e+02 1.371349e+01 -3.499369e+01
-1.816567e+09 -1.616576e+09 -1.776569e+09 6.438618e+02 1.813609e+03 -2.022701e+02
-2.057940e+09 -1.857959e+09 -2.017948e+09 -6.983404e+02 9.597614e+03 6.916314e+01
-3.195013e+09 -2.995011e+09 -3.155012e+09 -3.363970e+02 -6.809678e+01 -1.754853e+01
-1.851908e+09 -1.651923e+09 -1.811913e+09 1.007742e+03 5.565716e+03 -2.546123e+02
-1.581795e+09 -1.381811e+09 -1.541799e+09 -6.269216e+02 4.841696e+03 1.747892e+02
-2.875817e+09 -2.675817e+09 -2.835816e+09 2.518530e+03 7.579556e+02 -4.562914e+02
-3.480158e+09 -3.280158e+09 -3.440157e+09 2.238333e+03 5.120073e+02 -2.932869e+02
-3.589195e+09 -3.389203e+09 -3.549203e+09 -3.269163e+02 5.039354e+03 9.583389e+01
-2.280941e+09 -2.080940e+09 -2.240939e+09 2.868365e+03 1.249901e+03 -5.387693e+02
-1.587862e+09 -1.387866e+09 -1.547862e+09 4.469222e+03 2.346329e+03 -1.111141e+03
-3.290111e+09 -3.090113e+09 -3.250111e+09 2.555395e+03 7.538525e+02 -3.033296e+02
-3.614635e+09 -3.414637e+09 -3.574639e+09 2.936326e+03 2.737585e+03 -7.895170e+02
-2.995647e+09 -2.795644e+09 -2.955646e+09 3.437967e+03 1.550244e+03 -1.490442e+03
-1.585441e+09 -1.385450e+09 -1.545443e+09 4.160776e+03 3.273642e+03 -9.301674e+02
-3.261328e+09 -3.061338e+09 -3.221335e+09 1.611272e+03 4.403375e+03 -5.574762e+02
-1.599553e+09 -1.399553e+09 -1.559552e+09 -3.664191e+03 1.736202e+03 9.459136e+02
-3.229782e+09 -3.029791e+09 -3.189786e+09 9.188907e+02 -3.443984e+03 3.825693e+02
-3.614636e+09 -3.414639e+09 -3.574639e+09 3.531769e+03 2.842021e+03 -1.065713e+03
-3.143745e+09 -2.943752e+09 -3.103750e+09 3.268614e+03 4.019403e+03 -1.277682e+03
-2.365412e+09 -2.165421e+09 -2.325416e+09 1.470001e+03 -4.042588e+03 8.634078e+02
-3.036102e+09 -2.836106e+09 -2.996105e+09 2.172851e+03 -2.288041e+03 1.136834e+03
-2.266663e+09 -2.066665e+09 -2.226662e+09 1.827185e+03 4.490629e+02 -4.005569e+01
-2.163113e+09 -1.963115e+09 -2.123113e+09 2.905679e+03 1.144231e+03 -4.845064e+02
-1.660982e+09 -1.460989e+09 -1.620983e+09 2.753638e+03 1.140597e+03 -4.198963e+02
-3.576613e+09 -3.376612e+09 -3.536612e+09 9.437038e+01 -1.055177e+01 -4.429857e+01
-2.424668e+09 -2.224672e+09 -2.384669e+09 2.519055e+03 1.370629e+03 -3.849610e+02
-2.487344e+09 -2.287343e+09 -2.447343e+09 9.606035e+01 -1.869776e+01 -7.008172e+01
-3.576613e+09 -3.376612e+09 -3.536612e+09 2.023218e+02 -2.011156e-01 -1.273161e+01
-3.489678e+09 -3.289677e+09 -3.449677e+09 1.328236e+02 -2.245695e+00 -2.377528e+01
-3.603588e+09 -3.403587e+09 -3.563588e+09 2.310121e+02 7.305268e+00 -1.262672e+01
-1.614404e+09 -1.414403e+09 -1.574404e+09 2.357836e+02 4.533162e+01 -3.691562e+01
-3.583743e+09 -3.383745e+09 -3.543743e+09 2.508942e+03 9.787219e+02 -3.400540e+02
-3.206409e+09 -3.006409e+09 -3.166409e+09 3.713831e+02 4.839737e+01 -1.635410e+01
-3.590860e+09 -3.390867e+09 -3.550863e+09 7.991894e+02 1.113155e+03 -8.518785e+01
-2.115829e+09 -1.915832e+09 -2.075831e+09 3.242098e+02 2.367734e+01 -1.149562e+02
-2.420909e+09 -2.220908e+09 -2.380908e+09 3.341344e+02 4.822395e+01 -4.137030e+01
-2.212123e+09 -2.012125e+09 -2.172125e+09 1.242962e+02 7.232336e+00 -6.980332e+00
-1.850175e+09 -1.650178e+09 -1.810177e+09 1.260857e+02 1.867162e+01 9.928102e+00
-2.386145e+09 -2.186148e+09 -2.346147e+09 1.065716e+03 -8.226751e+01 -6.031110e+02
-2.826278e+09 -2.626276e+09 -2.786277e+09 -5.705755e+02 -8.291028e+01 2.401425e+01
-3.584991e+09 -3.384990e+09 -3.544991e+09 -6.832792e+02 -6.549680e+01 4.136604e+01
-3.129855e+09 -2.929855e+09 -3.089854e+09 -7.587140e+02 8.893497e+01 -7.538815e+01
-2.337203e+09 -2.137202e+09 -2.297202e+09 -5.495667e+01 6.229315e+01 -6.936810e+01
-1.586995e+09 -1.386995e+09 -1.546994e+09 -1.723126e+02 7.060826e+01 -1.117048e+02
-3.602038e+09 -3.402036e+09 -3.562037e+09 -2.563381e+02 6.498703e+01 -2.991827e+01
-1.574076e+09 -1.374075e+09 -1.534075e+09 -1.335917e+02 1.118089e+02 -9.069319e+01
-3.544418e+09 -3.344417e+09 -3.504417e+09 4.123833e+00 -1.998050e+01 -4.401812e+01
-2.729687e+09 -2.529689e+09 -2.689689e+09 6.282042e+02 2.169461e+01 -2.186209e+02
-3.587684e+09 -3.387685e+09 -3.547684e+09 6.861052e+02 2.226330e+01 -8.563660e+01
-3.593625e+09 -3.393626e+09 -3.553626e+09 8.581068e+02 2.267449e+01 -1.580903e+02
-2.004134e+09 -1.804137e+09 -1.964136e+09 -3.667467e+00 2.371647e+00 -4.439478e+01
-3.327092e+09 -3.127093e+09 -3.287093e+09 -1.042106e+03 -4.620555e+01 6.095964e+01
-2.561667e+09 -2.361667e+09 -2.521667e+09 3.624733e+02 5.558998e+01 8.085537e+01
-2.384515e+09 -2.184516e+09 -2.344516e+09 3.683982e+02 2.091266e+01 -4.644496e+01
-3.206689e+09 -3.006689e+09 -3.166689e+09 3.669551e+02 4.422158e+01 -1.291621e+01
-2.133094e+09 -1.933096e+09 -2.093095e+09 5.014057e+02 3.082924e+01 -2.584868e+01
-1.605229e+09 -1.405232e+09 -1.565232e+09 -8.538784e+02 -5.870381e+01 -2.622780e+02
-3.632183e+09 -3.432185e+09 -3.592185e+09 -5.348607e+02 1.393529e+01 1.046703e+02
-3.632183e+09 -3.432186e+09 -3.592185e+09 -1.322915e+02 1.889932e+01 -9.052944e+01
-3.232052e+09 -3.032055e+09 -3.192054e+09 -2.254737e+02 2.244825e+01 -1.329480e+02
-3.606975e+09 -3.406977e+09 -3.566977e+09 -9.968992e+02 -3.725333e+01 -2.412287e+02
-1.641965e+09 -1.441966e+09 -1.601966e+09 -1.118785e+03 -1.238400e+01 -1.358894e+02
-3.447834e+09 -3.247837e+09 -3.407836e+09 -4.409811e+01 3.806200e+01 -1.320358e+01
-1.924627e+09 -1.724629e+09 -1.884629e+09 1.205143e+02 1.512740e+01 -8.618251e+00
-3.606693e+09 -3.406695e+09 -3.566695e+09 3.808585e+02 5.263866e+01 -1.185622e+01
-1.858133e+09 -1.658135e+09 -1.818135e+09 -9.722559e+00 -9.646621e-01 2.151602e+01
-1.641769e+09 -1.441771e+09 -1.601771e+09 1.135733e+02 1.485757e+01 -1.998816e+01
-1.586920e+09 -1.386919e+09 -1.546919e+09 -2.054800e+02 -2.108353e+02 1.792193e+01
-1.587189e+09 -1.387187e+09 -1.547188e+09 1.309748e+02 -4.402905e+02 3.347252e+02
-1.887619e+09 -1.687607e+09 -1.847614e+09 -5.336611e+03 1.867983e+03 4.951441e+03
-3.263748e+09 -3.063744e+09 -3.223747e+09 -1.275136e+03 5.614358e+02 6.234291e+02
-1.769403e+09 -1.569404e+09 -1.729404e+09 5.700481e+02 2.473952e+01 -3.366079e+01
-1.830658e+09 -1.630659e+09 -1.790659e+09 -8.281743e+02 -7.512471e+01 6.378395e+01
-3.016857e+09 -2.816855e+09 -2.976855e+09 3.162585e+02 -1.057671e+02 1.381156e+02
-1.605600e+09 -1.405598e+09 -1.565599e+09 -4.041324e+02 -5.117241e+02 4.318467e+02
-1.599552e+09 -1.399550e+09 -1.559551e+09 -3.140585e+03 1.001100e+03 8.870597e+02
-2.561914e+09 -2.361914e+09 -2.521914e+09 -9.240774e+02 -1.236936e+02 4.099571e+01
-2.438497e+09 -2.238497e+09 -2.398497e+09 5.278915e+02 7.500285e+01 8.629494e+00
-1.758910e+09 -1.558911e+09 -1.718911e+09 6.195611e+02 7.612018e+01 -5.752422e+00
-3.500960e+09 -3.300960e+09 -3.460960e+09 -1.947636e+03 1.433874e+02 4.182840e+01
-3.526776e+09 -3.326776e+09 -3.486776e+09 -1.214021e+03 -2.828361e+01 -7.881325e+01
-1.724804e+09 -1.524803e+09 -1.684804e+09 -1.330770e+03 -1.178919e+02 2.271020e+01
-3.605041e+09 -3.405052e+09 -3.565042e+09 1.941520e+03 1.244412e+03 8.838028e+03
-1.595034e+09 -1.395044e+09 -1.555036e+09 -1.562597e+02 1.468241e+03 -1.025186e+01
-3.586399e+09 -3.386386e+09 -3.546339e+09 5.256069e+02 -1.162674e+04 7.919729e+02
-1.947733e+09 -1.747687e+09 -1.907758e+09 -2.113957e+04 2.772573e+04 8.269900e+03
-2.633881e+09 -2.433851e+09 -2.593882e+09 3.706399e+03 -1.966968e+04 1.144791e+03
-3.586852e+09 -3.386851e+09 -3.546852e+09 1.552837e+03 -9.351571e+01 -2.451792e+02
-2.342673e+09 -2.142672e+09 -2.302672e+09 7.690608e+02 1.422809e+02 -8.269358e+01
-2.468993e+09 -2.268984e+09 -2.428994e+09 -3.264204e+02 -1.635386e+03 -3.858277e+03
-3.043115e+09 -2.843113e+09 -3.003114e+09 9.261526e+01 2.665868e+01 4.234659e+01
-1.873862e+09 -1.673860e+09 -1.833862e+09 1.421115e+03 -1.625269e+02 -4.584514e+02
-2.368697e+09 -2.168695e+09 -2.328696e+09 -4.183273e+02 4.168381e+02 8.990430e+01
-1.957148e+09 -1.757148e+09 -1.917147e+09 -7.645854e+03 -6.257989e+03 -5.283799e+03
-1.578138e+09 -1.378137e+09 -1.538138e+09 8.194043e+02 5.458111e+01 -1.943544e+02
-2.845468e+09 -2.645465e+09 -2.805468e+09 -1.772395e+03 -1.524072e+03 -1.269170e+03
-3.392222e+09 -3.192218e+09 -3.352224e+09 -8.695897e+02 -1.871010e+03 -1.893916e+03
-2.907195e+09 -2.707192e+09 -2.867198e+09 -3.561809e+03 -3.958645e+03 -3.491620e+03
-1.749321e+09 -1.549324e+09 -1.709324e+09 -1.611632e+03 2.646989e+02 -6.851559e+02
-3.241574e+09 -3.041573e+09 -3.201573e+09 -2.070064e+03 6.413135e+02 3.896648e+02
-3.315742e+09 -3.115738e+09 -3.275742e+09 -8.896969e+02 -1.767587e+03 -1.547273e+03
-3.589868e+09 -3.389868e+09 -3.549869e+09 -2.827017e+03 6.819666e+02 -5.148781e+02
-1.993693e+09 -1.793695e+09 -1.953696e+09 -2.396870e+03 6.215994e+02 -9.617135e+02
-3.491936e+09 -3.291938e+09 -3.451936e+09 -3.078780e+03 9.944293e+02 -1.819143e+03
-1.771280e+09 -1.571282e+09 -1.731279e+09 -3.681106e+03 1.683655e+03 8.202153e+02
-3.069595e+09 -2.869597e+09 -3.029596e+09 1.023135e+03 -7.188798e+01 -3.008909e+02
-3.425068e+09 -3.225073e+09 -3.385070e+09 5.371871e+02 -3.942164e+01 -1.546563e+03
-3.044788e+09 -2.844789e+09 -3.004789e+09 1.409746e+03 -3.859049e+01 -1.744703e+02
-3.239173e+09 -3.039171e+09 -3.199170e+09 -2.790757e+03 1.213255e+03 -3.561112e+02
-3.170379e+09 -2.970380e+09 -3.130380e+09 -2.434007e+03 5.163129e+02 -3.971461e+02
-1.922952e+09 -1.722952e+09 -1.882952e+09 8.813469e+02 5.999797e+01 -1.809838e+02
-2.825802e+09 -2.625803e+09 -2.785803e+09 1.142986e+03 -4.597494e+01 -2.935928e+02
-1.593777e+09 -1.393771e+09 -1.553774e+09 -1.509659e+03 4.554786e+02 9.958497e+02
-3.611575e+09 -3.411577e+09 -3.571576e+09 7.184793e+02 3.544141e+00 -2.586417e+02
-2.895603e+09 -2.695602e+09 -2.855603e+09 -1.936068e+03 -1.197484e+03 -8.054108e+02
-2.467996e+09 -2.267994e+09 -2.427995e+09 3.339639e+03 -1.521607e+03 -1.710957e+03
-1.624539e+09 -1.424538e+09 -1.584538e+09 -3.152982e+03 -2.295632e+03 -1.428832e+03
-2.086055e+09 -1.886062e+09 -2.046062e+09 -8.003164e+03 -2.997684e+03 9.364281e+03
-1.869702e+09 -1.669723e+09 -1.829709e+09 -1.230417e+04 -8.446578e+03 2.143584e+04
-2.119291e+09 -1.919283e+09 -2.079289e+09 -1.286141e+03 -2.881420e+02 -1.783910e+03
-1.618566e+09 -1.418559e+09 -1.578564e+09 -4.993243e+02 2.144399e+02 -9.952771e+02
-1.910703e+09 -1.710699e+09 -1.870702e+09 -8.741823e+02 6.494508e+00 -8.472483e+02
-1.909936e+09 -1.709929e+09 -1.869935e+09 -6.583921e+01 7.022066e+02 -1.660037e+03
-1.594508e+09 -1.394502e+09 -1.554512e+09 -7.730536e+03 -5.032871e+03 2.893254e+03
-1.739610e+09 -1.539602e+09 -1.699607e+09 4.193342e+03 2.547482e+03 -3.538592e+03
-1.846997e+09 -1.646999e+09 -1.806996e+09 -1.139023e+03 2.497065e+02 -2.712324e+01
-2.359630e+09 -2.159631e+09 -2.319629e+09 -1.352923e+03 3.382163e+02 -3.039380e+01
-3.400038e+09 -3.200040e+09 -3.360038e+09 -1.484624e+03 1.984784e+02 -9.309145e+01
-1.878854e+09 -1.678857e+09 -1.838854e+09 -1.218846e+03 3.099792e+02 -1.746621e+01
-3.062420e+09 -2.862409e+09 -3.022418e+09 -3.216755e+03 -3.294911e+03 -1.931081e+03
-3.198589e+09 -2.998579e+09 -3.158589e+09 1.804136e+03 1.829471e+03 -3.687810e+03
-2.021267e+09 -1.821243e+09 -1.981257e+09 2.672221e+03 2.161583e+03 -1.011639e+04
-3.588256e+09 -3.388255e+09 -3.548255e+09 -1.292660e+03 2.810775e+02 2.204321e+02
-2.566969e+09 -2.366978e+09 -2.526975e+09 -4.355078e+03 5.087882e+03 1.162029e+03
-3.585611e+09 -3.385601e+09 -3.545609e+09 -2.220582e+03 2.400231e+02 -1.691208e+03
-1.579115e+09 -1.379125e+09 -1.539117e+09 -4.752003e+03 3.337773e+03 1.585038e+03
-1.557304e+09 -1.357302e+09 -1.517302e+09 -1.979776e+03 1.254936e+03 4.690081e+02
-1.721735e+09 -1.521728e+09 -1.681729e+09 5.082829e+03 2.340737e+03 -4.167548e+03
-1.697664e+09 -1.497674e+09 -1.657667e+09 -2.370366e+03 -3.431631e+03 -4.746372e+02
-1.586969e+09 -1.386949e+09 -1.546959e+09 5.897994e+03 3.347398e+03 -7.884855e+03
-3.407192e+09 -3.207193e+09 -3.367193e+09 -7.825326e+02 -8.711404e+01 -1.703725e+01
-2.930815e+09 -2.730814e+09 -2.890814e+09 3.463460e+02 3.560332e+01 -3.051805e+01
-2.027224e+09 -1.827223e+09 -1.987223e+09 1.595736e+02 2.483851e+01 -4.055460e+01
-2.379417e+09 -2.179418e+09 -2.339418e+09 5.765890e+02 4.279285e+01 -5.474929e+01
-3.176909e+09 -2.976910e+09 -3.136910e+09 8.089604e+02 4.551855e+01 -3.275278e+01
-1.767852e+09 -1.567852e+09 -1.727852e+09 4.885980e+02 1.039709e+02 -2.277436e+01
-2.640858e+09 -2.440858e+09 -2.600858e+09 6.888108e+02 6.526194e+01 -4.362726e+01
-3.609019e+09 -3.409017e+09 -3.569018e+09 -4.170846e+01 -1.561310e+02 -2.402521e+01
-1.989113e+09 -1.789114e+09 -1.949114e+09 7.130197e+02 4.853474e+01 -8.075107e+01
-3.215025e+09 -3.015026e+09 -3.175026e+09 9.939142e+02 3.249148e+01 -1.204019e+02
-3.012840e+09 -2.812839e+09 -2.972839e+09 -3.770136e+02 -9.573318e+01 -5.103605e+01
-1.674099e+09 -1.474098e+09 -1.634098e+09 -1.201343e+02 -1.976407e+02 -4.150717e+01
-2.418415e+09 -2.218414e+09 -2.378414e+09 7.464116e+02 7.474501e+01 -8.667045e+01
-2.195291e+09 -1.995299e+09 -2.155301e+09 5.090955e+03 3.466726e+03 3.780103e+03
-3.311539e+09 -3.111551e+09 -3.271542e+09 -7.442414e+02 -1.323004e+03 5.147377e+03
-2.681747e+09 -2.481749e+09 -2.641749e+09 9.889004e+02 1.033880e+01 -2.736669e+02
-3.547256e+09 -3.347256e+09 -3.507256e+09 5.204848e+02 4.163294e+01 -1.820987e+01
-1.898939e+09 -1.698951e+09 -1.858952e+09 2.104388e+03 1.287961e+03 4.411203e+03
-2.061371e+09 -1.861371e+09 -2.021371e+09 6.445401e+02 6.715953e+01 -8.833783e+01
-1.699025e+09 -1.499035e+09 -1.659036e+09 2.049296e+03 1.182748e+02 3.952070e+03
-3.305365e+09 -3.105365e+09 -3.265365e+09 3.584314e+02 4.306621e+01 3.206280e+01
-2.272905e+09 -2.072905e+09 -2.232905e+09 5.702825e+02 3.015803e+01 -2.853998e+01
-3.239785e+09 -3.039790e+09 -3.199787e+09 2.382912e+03 1.143939e+03 -2.840902e+02
-2.269676e+09 -2.069677e+09 -2.229675e+09 2.445418e+03 8.603726e+02 -2.140804e+02
-2.958651e+09 -2.758652e+09 -2.918652e+09 4.882952e+02 4.012895e+01 -2.094485e+00
-3.585185e+09 -3.385175e+09 -3.545174e+09 7.484311e+03 5.209220e+03 3.538739e+03
-3.055060e+09 -2.855060e+09 -3.015060e+09 5.201088e+02 5.609953e+01 1.523755e+01
-3.605118e+09 -3.405118e+09 -3.565118e+09 6.880429e+02 8.961368e+00 -3.557330e+01
-3.596827e+09 -3.396824e+09 -3.556827e+09 -2.126280e+03 -3.746690e+02 8.858804e+02
-3.018986e+09 -2.818983e+09 -2.978985e+09 7.236921e+02 -1.165778e+03 1.522131e+03
-2.412707e+09 -2.212704e+09 -2.372706e+09 1.280254e+03 -1.652076e+03 1.729602e+03
-2.285556e+09 -2.085563e+09 -2.245563e+09 2.703768e+03 4.419359e+02 2.237160e+03
-2.138900e+09 -1.938894e+09 -2.098899e+09 1.331314e+03 -1.600840e+03 2.803539e+03
-3.595900e+09 -3.395900e+09 -3.555900e+09 6.567302e+02 1.627323e+01 -6.345235e+01
-2.625686e+09 -2.425683e+09 -2.585685e+09 8.459467e+02 -1.478565e+03 2.030062e+03
-3.337868e+09 -3.137864e+09 -3.297867e+09 -2.218161e+03 3.455759e+02 1.120055e+03
-2.695718e+09 -2.495720e+09 -2.655720e+09 9.627226e+02 1.022067e+01 -2.500579e+02
-1.638269e+09 -1.438268e+09 -1.598268e+09 -2.142833e+03 7.753633e+02 2.511676e+02
-2.532546e+09 -2.332547e+09 -2.492547e+09 5.876296e+02 5.929642e+01 3.669719e+00
-1.576040e+09 -1.376041e+09 -1.536041e+09 6.021339e+02 9.147474e+01 1.903715e+01
-2.502914e+09 -2.302912e+09 -2.462914e+09 -9.345398e+02 -3.216989e+02 5.325332e+02
-1.656497e+09 -1.456494e+09 -1.616496e+09 -1.166200e+03 -8.056845e+01 5.078521e+02
-3.306723e+09 -3.106726e+09 -3.266724e+09 -1.032925e+03 5.748828e+01 -1.254468e+03
-3.591283e+09 -3.391281e+09 -3.551284e+09 5.195124e+02 -1.166864e+03 1.191799e+03
-3.485009e+09 -3.285010e+09 -3.445010e+09 -2.387133e+03 2.457082e+02 -3.901839e+02
-3.590437e+09 -3.390436e+09 -3.550437e+09 -1.954111e+03 2.108052e+01 1.056788e+01
-3.612272e+09 -3.412274e+09 -3.572273e+09 -9.685697e+02 2.154167e+01 -7.887182e+01
-1.593549e+09 -1.393547e+09 -1.553547e+09 -3.069424e+02 1.428705e+02 -1.234381e+02
-1.776654e+09 -1.576654e+09 -1.736653e+09 -1.486143e+03 4.865670e+02 1.638829e+02
-2.768877e+09 -2.568879e+09 -2.728878e+09 -9.101355e+02 -2.719242e+01 9.997078e+01
-2.009284e+09 -1.809284e+09 -1.969285e+09 -1.242842e+03 -1.469100e+02 6.987882e+01
-3.582844e+09 -3.382841e+09 -3.542842e+09 -1.409428e+03 4.913408e+02 4.765979e+02
-3.505862e+09 -3.305863e+09 -3.465863e+09 -1.313805e+03 3.603279e+01 -4.167208e+01
-3.500959e+09 -3.300960e+09 -3.460960e+09 -1.909019e+03 9.887632e+01 -1.427144e+02
-2.005593e+09 -1.805598e+09 -1.965597e+09 -7.495258e+02 2.084680e+02 -1.313311e+03
-2.615149e+09 -2.415147e+09 -2.575147e+09 -2.070673e+03 6.427052e+02 6.070292e+02
-2.263291e+09 -2.063293e+09 -2.223292e+09 -1.072940e+03 -1.069128e+02 3.639426e+01
-1.553719e+09 -1.353720e+09 -1.513720e+09 -1.888849e+03 1.182048e+02 -1.388594e+02
-3.577029e+09 -3.377031e+09 -3.537032e+09 -3.009825e+03 2.296788e+03 1.082626e+03
-3.589733e+09 -3.389725e+09 -3.549733e+09 -2.699210e+03 3.227177e+03 2.877175e+03
-3.373920e+09 -3.173926e+09 -3.333926e+09 -2.211930e+03 3.866944e+03 6.365043e+02
-3.587813e+09 -3.387811e+09 -3.547815e+09 -3.159713e+03 1.967207e+03 1.480997e+03
-1.591189e+09 -1.391187e+09 -1.551187e+09 -5.361496e+03 2.604407e+03 1.867248e+03
-1.570168e+09 -1.370172e+09 -1.530168e+09 -4.912377e+03 3.114266e+03 1.150107e+03
-3.029010e+09 -2.829006e+09 -2.989008e+09 -1.026423e+03 5.895891e+02 7.191982e+02
-1.578139e+09 -1.378137e+09 -1.538138e+09 5.481263e+01 -3.216747e+01 -1.429391e+02
-1.946731e+09 -1.746733e+09 -1.906731e+09 -6.100159e+03 3.408704e+03 2.548959e+03
-1.606079e+09 -1.406075e+09 -1.566077e+09 -4.131173e+02 3.027084e+02 4.753392e+02
-3.605926e+09 -3.405924e+09 -3.565926e+09 -2.682887e+03 1.190987e+03 1.191424e+03
-1.971202e+09 -1.771200e+09 -1.931201e+09 -4.251782e+02 1.708711e+02 1.490766e+02
-1.910424e+09 -1.710405e+09 -1.870412e+09 2.961624e+02 -1.744435e+03 4.407363e+03
-1.816920e+09 -1.616922e+09 -1.776919e+09 -2.659074e+03 7.891071e+02 3.082174e+02
-3.582843e+09 -3.382839e+09 -3.542842e+09 -7.943899e+02 3.753796e+01 3.395392e+02
-3.589728e+09 -3.389724e+09 -3.549733e+09 -3.566365e+03 3.787628e+03 3.007267e+03
-2.816574e+09 -2.616566e+09 -2.776576e+09 4.934023e+03 3.963443e+03 1.239082e+02
-2.633224e+09 -2.433217e+09 -2.593221e+09 2.817915e+02 -8.881932e+01 7.336289e+02
-2.772536e+09 -2.572530e+09 -2.732543e+09 -1.914354e+03 -5.596356e+03 5.933974e+03
-3.619344e+09 -3.419335e+09 -3.579342e+09 1.029258e+03 -1.285635e+02 2.588445e+03
-3.386380e+09 -3.186374e+09 -3.346374e+09 3.295461e+03 -1.753735e+03 -7.414370e+02
-3.556307e+09 -3.356304e+09 -3.516306e+09 1.260444e+02 3.016024e+01 1.199509e+02
-2.663776e+09 -2.463772e+09 -2.623774e+09 -8.127498e+02 9.621712e+02 5.258126e+02
-1.675069e+09 -1.475060e+09 -1.635065e+09 2.498069e+03 -2.049843e+03 -1.413297e+03
-1.631078e+09 -1.431061e+09 -1.591068e+09 -2.755919e+03 -6.392142e+02 3.853190e+03
-1.861670e+09 -1.661633e+09 -1.821644e+09 6.792002e+03 -1.254669e+04 1.947291e+03
-3.601985e+09 -3.401980e+09 -3.561982e+09 2.097467e+03 -1.079548e+03 -4.497303e+02
-1.676472e+09 -1.476473e+09 -1.636473e+09 -4.568147e+02 -6.970906e+01 1.443634e+01
-2.150469e+09 -1.950465e+09 -2.110453e+09 1.817246e+03 -6.467025e+03 -1.925120e+04
-3.606425e+09 -3.406420e+09 -3.566426e+09 8.225239e+02 -1.838511e+03 -1.746666e+03
-1.701835e+09 -1.501825e+09 -1.661829e+09 5.928030e+03 -8.093198e+03 -1.105756e+04
-3.576843e+09 -3.376840e+09 -3.536845e+09 -1.094261e+03 -2.419089e+03 -1.564268e+03
-3.500686e+09 -3.300683e+09 -3.460686e+09 -1.485460e+03 -1.177311e+03 -9.919879e+02
-3.576843e+09 -3.376840e+09 -3.536845e+09 -1.576652e+03 -2.173733e+03 -1.762529e+03
-3.606424e+09 -3.406419e+09 -3.566426e+09 2.490792e+02 -1.890811e+03 -1.816261e+03
-2.953897e+09 -2.753887e+09 -2.913872e+09 -1.419897e+03 -4.517841e+03 -2.063961e+04
-1.750856e+09 -1.550785e+09 -1.710849e+09 2.846876e+03 -1.863751e+04 1.100291e+04
-3.052144e+09 -2.852136e+09 -3.012144e+09 -3.761432e+03 2.528021e+03 2.784149e+03
-3.284713e+09 -3.084720e+09 -3.244715e+09 5.373054e+02 4.108843e+02 -2.497543e+01
-1.868912e+09 -1.668919e+09 -1.828913e+09 6.956090e+02 4.862855e+02 -3.114780e+01
-3.599648e+09 -3.399654e+09 -3.559650e+09 -5.659965e+02 2.795803e+02 -9.053931e+00
-2.312492e+09 -2.112493e+09 -2.272494e+09 -2.983938e+03 -2.045915e+02 6.634710e+02
-2.828258e+09 -2.628269e+09 -2.788281e+09 -6.975405e+03 1.900168e+04 4.411857e+03
-2.445694e+09 -2.245683e+09 -2.405694e+09 6.024867e+03 6.829053e+03 -8.442495e+03
-1.601776e+09 -1.401777e+09 -1.561777e+09 -7.396482e+02 -9.444124e+01 2.068542e+01
-1.571833e+09 -1.371856e+09 -1.531857e+09 2.658344e+04 3.822657e+04 -2.137852e+04
-2.759959e+09 -2.559945e+09 -2.719981e+09 1.187147e+03 1.613536e+04 -1.164067e+04
-2.126532e+09 -1.926444e+09 -2.086435e+09 -1.061452e+04 -4.762447e+04 1.917496e+04
-3.086934e+09 -2.886943e+09 -3.046954e+09 1.487973e+02 1.460593e+04 -1.176487e+03
-3.638165e+09 -3.438161e+09 -3.598175e+09 3.367723e+03 8.435966e+03 -4.274901e+03
-1.615628e+09 -1.415639e+09 -1.575629e+09 1.582186e+04 1.559611e+04 -9.061606e+03
-1.548298e+09 -1.348342e+09 -1.508320e+09 1.386057e+04 3.483654e+04 -9.726779e+03
-3.461352e+09 -3.261351e+09 -3.421350e+09 -3.817922e+03 -4.838965e+02 -4.192249e+02
-1.931338e+09 -1.731338e+09 -1.891338e+09 1.972339e+02 3.025367e+01 -5.449971e+01
-3.262394e+09 -3.062393e+09 -3.222393e+09 9.484266e+01 1.469702e+01 -4.130432e+01
-2.528396e+09 -2.328393e+09 -2.488396e+09 -6.166714e+03 3.837596e+03 -3.471522e+03
-1.582645e+09 -1.382644e+09 -1.542645e+09 4.018872e+02 1.184444e+02 -6.305791e+01
-1.985211e+09 -1.785212e+09 -1.945210e+09 2.480177e+03 6.612548e+02 -1.721302e+02
-2.275160e+09 -2.075159e+09 -2.235158e+09 2.518250e+03 7.539355e+02 -3.416584e+02
-1.962055e+09 -1.762051e+09 -1.922053e+09 2.805277e+03 1.329140e+03 -1.030972e+03
-1.837899e+09 -1.637898e+09 -1.797898e+09 1.231377e+02 6.238681e+01 -4.575793e+01
-2.644430e+09 -2.444429e+09 -2.604429e+09 3.242828e+02 3.465112e+01 -4.248420e+01
-3.618093e+09 -3.418089e+09 -3.578094e+09 2.807157e+03 1.766786e+03 -1.510999e+03
-2.417053e+09 -2.217054e+09 -2.377054e+09 3.997288e+02 6.085929e+01 2.325285e+01
-2.070184e+09 -1.870184e+09 -2.030182e+09 3.980587e+03 1.763870e+03 -1.083819e+03
-2.988045e+09 -2.788045e+09 -2.948045e+09 3.422597e+03 1.284614e+03 -8.918705e+02
-2.881599e+09 -2.681598e+09 -2.841598e+09 2.865547e+03 1.218027e+03 -6.249870e+02
-1.575376e+09 -1.375378e+09 -1.535375e+09 4.119607e+03 1.994692e+03 -8.460942e+02
-3.567875e+09 -3.367879e+09 -3.527877e+09 2.871647e+03 1.247199e+03 -6.015771e+02
-2.703386e+09 -2.503385e+09 -2.663385e+09 2.347886e+02 2.044738e+01 -3.405152e+01
-1.790857e+09 -1.590856e+09 -1.750856e+09 3.181404e+02 3.555995e+01 -1.038289e+02
-1.854799e+09 -1.654802e+09 -1.814799e+09 4.531919e+03 2.675772e+03 -1.219911e+03
-1.860003e+09 -1.660006e+09 -1.820002e+09 2.933954e+03 8.134343e+02 -3.602677e+02
-3.497412e+09 -3.297413e+09 -3.457413e+09 2.720350e+03 9.221962e+02 -3.848538e+02
-2.870333e+09 -2.670335e+09 -2.830333e+09 2.456744e+03 8.878327e+02 -3.648330e+02
-3.567875e+09 -3.367880e+09 -3.527877e+09 2.313300e+03 9.293770e+02 -3.680966e+02
-3.608128e+09 -3.408131e+09 -3.568128e+09 2.039921e+03 3.917219e+02 -2.631294e+02
-1.972865e+09 -1.772866e+09 -1.932866e+09 -4.760757e+02 -4.733055e+01 -1.161196e+01
-2.120544e+09 -1.920550e+09 -2.080486e+09 5.086346e+03 1.064518e+04 6.277734e+04
-3.033948e+09 -2.833948e+09 -2.993948e+09 4.986899e+02 3.761047e+01 -1.005158e+00
-2.577652e+09 -2.377655e+09 -2.537655e+09 3.808079e+03 -5.028611e+03 2.934708e+03
-1.667440e+09 -1.467461e+09 -1.627463e+09 -6.057043e+03 -2.357484e+03 2.241509e+04
-2.530681e+09 -2.330688e+09 -2.490684e+09 -3.013562e+03 2.845181e+03 7.169244e+02
-3.474587e+09 -3.274586e+09 -3.434598e+09 7.720055e+02 -7.286732e+03 3.411405e+03
-3.373799e+09 -3.173800e+09 -3.333801e+09 -3.004491e+03 2.080366e+03 1.015543e+03
-3.577029e+09 -3.377033e+09 -3.537033e+09 -2.891845e+03 2.102516e+03 1.067521e+03
-2.573306e+09 -2.373316e+09 -2.533314e+09 2.930148e+03 -8.475295e+03 2.880847e+03
-3.604923e+09 -3.404923e+09 -3.564929e+09 1.362676e+03 -4.931049e+03 2.248862e+03
-1.570880e+09 -1.370876e+09 -1.530879e+09 2.378359e+03 -7.254462e+02 -1.125179e+03
-1.584688e+09 -1.384698e+09 -1.544691e+09 5.761053e+03 -6.208907e+03 3.049315e+03
-1.564925e+09 -1.364924e+09 -1.524924e+09 -6.386211e+02 -1.357104e+02 -6.797303e+01
-3.481015e+09 -3.281013e+09 -3.441014e+09 7.172686e+02 8.457781e+01 -1.037293e+02
-3.612907e+09 -3.412901e+09 -3.572906e+09 -5.080853e+02 9.754582e+01 1.080057e+03
-3.427788e+09 -3.227783e+09 -3.387786e+09 -1.589891e+03 6.331228e+02 1.005875e+03
-2.774013e+09 -2.574012e+09 -2.734012e+09 -5.483234e+02 -9.842702e+01 2.744424e+01
-2.533536e+09 -2.333535e+09 -2.493536e+09 -3.281804e+02 -1.492404e+02 -1.821320e+01
-3.595049e+09 -3.395048e+09 -3.555049e+09 -1.075068e+03 -6.778189e+01 9.446185e+01
-1.586920e+09 -1.386919e+09 -1.546919e+09 -3.776515e+02 -2.081055e+02 -7.789405e+01
-1.673946e+09 -1.473952e+09 -1.633948e+09 -2.744958e+03 -2.598434e+03 -6.060097e+02
-2.294946e+09 -2.094944e+09 -2.254945e+09 -1.934169e+03 -1.176811e+03 -7.413915e+02
-1.961550e+09 -1.761550e+09 -1.921550e+09 -4.941321e+02 -5.709571e+01 2.339712e+01
-3.381835e+09 -3.181826e+09 -3.341841e+09 -2.308669e+03 -6.506223e+02 3.923423e+03
-3.610652e+09 -3.410650e+09 -3.570651e+09 2.195274e+02 -5.090287e+02 4.316707e+02
-1.798706e+09 -1.598703e+09 -1.758705e+09 5.879998e+02 -1.109776e+03 1.035637e+03
-3.392621e+09 -3.192624e+09 -3.352626e+09 2.998412e+03 -3.695278e+03 2.037642e+03
-1.698361e+09 -1.498366e+09 -1.658362e+09 2.198308e+03 -1.850463e+03 5.184724e+02
-3.158516e+09 -2.958518e+09 -3.118518e+09 2.110213e+03 -2.070526e+03 1.137693e+03
-3.614906e+09 -3.414900e+09 -3.574906e+09 -4.256783e+03 1.653852e+03 3.588112e+02
-1.927382e+09 -1.727353e+09 -1.887332e+09 -6.459286e+03 8.719176e+03 -4.139808e+04
-3.591433e+09 -3.391431e+09 -3.551432e+09 -5.735123e+02 -3.191412e+02 2.813115e+02
-2.790424e+09 -2.590409e+09 -2.750420e+09 -3.268757e+03 9.452488e+02 6.154489e+03
-3.387366e+09 -3.187365e+09 -3.347365e+09 -5.754772e+02 -2.105626e+02 3.003239e+01
-3.384657e+09 -3.184656e+09 -3.344657e+09 -1.383452e+03 -2.115708e+02 1.666115e+02
-3.347321e+09 -3.147312e+09 -3.307249e+09 -4.051327e+03 1.157616e+03 -1.694581e+04
-1.838610e+09 -1.638615e+09 -1.798610e+09 1.894682e+03 4.982614e+02 -6.537336e+01
-3.391034e+09 -3.191032e+09 -3.351034e+09 -5.507767e+02 -2.858927e+02 3.449509e+02
-1.933598e+09 -1.733491e+09 -1.893385e+09 -8.097345e+03 -8.618084e+04 -4.173924e+04
-3.472561e+09 -3.272559e+09 -3.432560e+09 -1.089344e+03 -1.515200e+02 1.937627e+02
-3.541422e+09 -3.341413e+09 -3.501343e+09 -1.393396e+03 3.370990e+03 -1.056255e+04
-2.124154e+09 -1.924153e+09 -2.084162e+09 1.411660e+04 1.352072e+04 1.073491e+04
-2.182050e+09 -1.982050e+09 -2.142050e+09 3.312346e+02 1.095711e+01 -1.889128e+01
-2.037437e+09 -1.837437e+09 -1.997437e+09 3.977793e+02 1.746630e+01 -3.779142e+01
-1.949401e+09 -1.749402e+09 -1.909402e+09 5.139023e+02 5.804869e+01 -7.970886e+00
-3.539781e+09 -3.339773e+09 -3.499786e+09 -3.419198e+02 -3.300586e+03 -2.741415e+03
-3.040873e+09 -2.840866e+09 -3.000874e+09 1.258695e+03 -1.044314e+03 -1.657403e+03
-2.061179e+09 -1.861185e+09 -2.021188e+09 -4.794497e+03 -1.040855e+04 -3.389504e+03
-3.608901e+09 -3.408900e+09 -3.568900e+09 -2.377111e+02 -9.111171e+01 -3.887807e+01
-3.497532e+09 -3.297542e+09 -3.457537e+09 -3.655502e+02 2.372581e+02 3.756717e+03
-2.601796e+09 -2.401787e+09 -2.561794e+09 1.354015e+04 1.498885e+04 3.920077e+03
-3.392336e+09 -3.192323e+09 -3.352340e+09 1.506351e+03 7.140020e+02 -3.468836e+03
-2.462179e+09 -2.262184e+09 -2.422183e+09 5.255475e+02 2.459717e+01 -1.464389e+03
-3.556307e+09 -3.356303e+09 -3.516305e+09 6.163382e+02 -4.069872e+02 2.958482e+01
-3.501003e+09 -3.301011e+09 -3.461007e+09 2.646729e+03 5.505680e+02 2.818677e+03
-2.660120e+09 -2.460117e+09 -2.620119e+09 -4.501849e+01 4.957130e+02 3.259717e+02
-3.328036e+09 -3.128045e+09 -3.288002e+09 2.862171e+03 3.914219e+03 2.167342e+04
-3.605788e+09 -3.405795e+09 -3.565767e+09 1.831901e+03 3.023202e+03 1.206486e+04
-3.499038e+09 -3.299037e+09 -3.459038e+09 2.290708e+02 5.214257e+00 -2.163603e-02
-2.182275e+09 -1.982275e+09 -2.142275e+09 2.661907e+02 1.563541e+01 -9.224532e+00
-3.597489e+09 -3.397489e+09 -3.557489e+09 3.153365e+02 -6.582127e+00 -1.210119e+01
-3.487377e+09 -3.287375e+09 -3.447376e+09 1.008759e+03 -1.380583e+02 -1.722858e+02
-3.489444e+09 -3.289443e+09 -3.449443e+09 1.593595e+03 -1.904270e+02 -6.829681e+02
-2.610489e+09 -2.410491e+09 -2.570490e+09 1.923777e+03 -2.329631e+02 -1.224561e+03
-2.988848e+09 -2.788847e+09 -2.948848e+09 2.448749e+03 -7.092847e+02 -1.249345e+03
-3.476071e+09 -3.276069e+09 -3.436070e+09 -2.187916e+02 -1.113018e+02 -2.439022e+01
-2.545221e+09 -2.345219e+09 -2.505219e+09 2.689638e+02 -4.163226e+02 2.411296e+02
-1.679143e+09 -1.479139e+09 -1.639142e+09 3.668842e+01 -4.124998e+02 -1.494689e+03
-3.563306e+09 -3.363301e+09 -3.523271e+09 -5.597982e+03 -6.536032e+03 1.182911e+04
-1.918373e+09 -1.718372e+09 -1.878372e+09 4.340686e+02 -5.043146e+02 2.036291e+02
-1.897217e+09 -1.697215e+09 -1.857216e+09 -1.357513e+01 -2.881135e+02 7.883595e+01
-2.093879e+09 -1.893906e+09 -2.053891e+09 3.628814e+03 4.214747e+03 3.067810e+04
-2.812899e+09 -2.612897e+09 -2.772898e+09 -4.604089e+02 -2.657920e+02 1.583592e+02
-1.583447e+09 -1.383407e+09 -1.543467e+09 -1.564796e+03 -1.835960e+03 -1.393271e+04
-1.694263e+09 -1.494263e+09 -1.654264e+09 -1.479839e+03 1.762856e+01 -1.079780e+02
-2.437965e+09 -2.237966e+09 -2.397965e+09 4.541413e+03 2.208478e+03 -1.650617e+03
-3.509044e+09 -3.309045e+09 -3.469048e+09 4.049398e+03 4.358694e+03 -1.834331e+03
-1.598127e+09 -1.398135e+09 -1.558129e+09 4.679350e+03 3.755307e+03 -1.074173e+03
-1.854612e+09 -1.654615e+09 -1.814612e+09 5.337363e+03 3.145602e+03 -1.885582e+03
-2.610482e+09 -2.410485e+09 -2.570484e+09 -2.109053e+02 -1.403967e+01 -2.123424e+02
-1.675909e+09 -1.475911e+09 -1.635910e+09 1.971736e+02 3.122128e+01 3.468870e+01
-2.080168e+09 -1.880170e+09 -2.040170e+09 -3.038460e+02 -1.911602e+00 -8.885108e+01
-2.256522e+09 -2.056524e+09 -2.216523e+09 -3.690985e+02 -9.566866e+00 -6.324360e+00
-2.985172e+09 -2.785173e+09 -2.945173e+09 3.594917e+02 4.829116e+01 -5.647799e+00
-1.611585e+09 -1.411594e+09 -1.571587e+09 1.905987e+03 1.669539e+03 -3.342139e+02
-2.011225e+09 -1.811229e+09 -1.971228e+09 -6.086334e+02 -6.602644e+01 -3.897407e+02
-2.344606e+09 -2.144606e+09 -2.304606e+09 7.178991e+02 6.355726e+01 -7.803356e+00
-1.540838e+09 -1.340840e+09 -1.500840e+09 1.568085e+03 -1.739435e+02 -8.030195e+02
-1.953172e+09 -1.753171e+09 -1.913171e+09 7.691037e+02 -5.183918e+01 -1.614589e+02
-2.055750e+09 -1.855750e+09 -2.015750e+09 1.192944e+03 -2.085080e+01 -3.174910e+02
-1.917725e+09 -1.717713e+09 -1.877716e+09 1.668575e+03 -2.845067e+03 -1.359935e+02
-3.248978e+09 -3.048980e+09 -3.208980e+09 1.057355e+03 -1.187984e+01 -3.917395e+02
-3.586851e+09 -3.386852e+09 -3.546852e+09 1.362627e+03 -7.906081e+01 -3.645698e+02
-2.468333e+09 -2.268355e+09 -2.428361e+09 -4.925259e+03 3.220229e+04 -7.954507e+02
-3.591892e+09 -3.391888e+09 -3.551890e+09 1.407728e+03 -2.821820e+02 -2.580431e+01
-3.509042e+09 -3.309044e+09 -3.469048e+09 3.553700e+03 4.521197e+03 -1.844020e+03
-1.568632e+09 -1.368664e+09 -1.528645e+09 3.742101e+03 1.701166e+04 -1.518009e+03
-1.674061e+09 -1.474082e+09 -1.634067e+09 9.422206e+02 9.030553e+03 -4.899526e+02
-3.178497e+09 -2.978504e+09 -3.138504e+09 2.603999e+03 4.287907e+03 -7.155252e+02
-3.508869e+09 -3.308864e+09 -3.468866e+09 6.441012e+02 -6.267087e+01 1.694010e+01
-3.586394e+09 -3.386402e+09 -3.546400e+09 -8.789361e+02 2.219153e+03 3.066117e+02
-2.576892e+09 -2.376902e+09 -2.536897e+09 -1.206138e+03 3.354642e+03 3.282139e+02
-3.596937e+09 -3.396935e+09 -3.556890e+09 1.739094e+03 -1.795729e+03 -8.780165e+03
-1.593396e+09 -1.393409e+09 -1.553399e+09 7.133502e+02 2.863251e+03 -1.277145e+02
-1.776651e+09 -1.576662e+09 -1.736654e+09 -2.411748e+02 2.932963e+03 2.034419e+02
-1.611221e+09 -1.411223e+09 -1.571223e+09 -5.106084e+02 -6.574494e+01 -5.756654e+01
-1.588844e+09 -1.388847e+09 -1.548847e+09 -4.687851e+02 -1.567111e+01 -1.166672e+02
-3.147997e+09 -2.947993e+09 -3.107982e+09 1.383156e+03 -7.485256e+03 -1.582163e+04
-3.517680e+09 -3.317679e+09 -3.477666e+09 1.945068e+03 -8.476766e+03 -8.380823e+03
-1.985283e+09 -1.785286e+09 -1.945290e+09 -3.614518e+03 -1.620295e+03 2.414221e+03
-2.620760e+09 -2.420772e+09 -2.580765e+09 1.413096e+03 2.961007e+02 6.566549e+03
-1.608865e+09 -1.408868e+09 -1.568867e+09 -2.032915e+02 -1.995182e+01 -4.939676e+01
-1.608865e+09 -1.408868e+09 -1.568867e+09 -1.785248e+01 2.471357e+00 -5.470818e+01
-3.220674e+09 -3.020680e+09 -3.180674e+09 8.226815e+03 6.166741e+03 6.716419e+03
-1.583229e+09 -1.383235e+09 -1.543230e+09 8.684131e+02 3.177644e+02 -2.060942e+01
-1.895470e+09 -1.695482e+09 -1.855481e+09 4.560730e+02 -1.990414e+02 4.804815e+03
-1.566043e+09 -1.366047e+09 -1.526043e+09 1.859551e+03 5.387530e+02 -1.596087e+01
-2.154598e+09 -1.954604e+09 -2.114599e+09 7.683360e+02 4.835122e+02 -3.297619e+01
-3.588800e+09 -3.388797e+09 -3.548800e+09 5.531830e+03 3.190276e+03 1.256547e+03
-3.317825e+09 -3.117827e+09 -3.277826e+09 1.131019e+02 4.000469e+00 1.539395e+01
-1.560069e+09 -1.360076e+09 -1.520070e+09 1.638374e+03 7.333784e+02 -1.332835e+02
-1.988371e+09 -1.788372e+09 -1.948372e+09 -1.046857e+03 -7.227427e+01 -5.754946e+01
-2.632090e+09 -2.432093e+09 -2.592092e+09 5.214544e+00 4.115897e-01 -2.597002e+01
-1.565091e+09 -1.365090e+09 -1.525090e+09 2.918259e+02 5.016321e+01 -1.620074e+01
-2.125594e+09 -1.925594e+09 -2.085594e+09 -7.659132e+02 -7.516942e+01 5.598388e+01
-1.627689e+09 -1.427676e+09 -1.587684e+09 -2.994189e+03 -1.343979e+03 1.870769e+03
-1.564780e+09 -1.364773e+09 -1.524777e+09 -8.026837e+02 2.630376e+02 -8.032508e+02
-1.564780e+09 -1.364769e+09 -1.524777e+09 -3.049044e+02 -3.545239e+02 -1.679741e+03
-3.451347e+09 -3.251330e+09 -3.411337e+09 -5.382344e+03 -4.430755e+03 -9.289971e+02
-1.985869e+09 -1.785868e+09 -1.945867e+09 -9.064057e+02 1.287908e+02 -1.599431e+01
-2.533540e+09 -2.333540e+09 -2.493539e+09 -9.295013e+02 1.883368e+02 -2.134526e-01
-2.981585e+09 -2.781584e+09 -2.941585e+09 1.810524e+03 -2.530034e+02 -5.832782e+02
-1.586884e+09 -1.386883e+09 -1.546883e+09 -7.964427e+02 1.995837e+02 -2.149033e+02
-1.685404e+09 -1.485403e+09 -1.645404e+09 1.499788e+03 -1.125178e+02 -4.628437e+02
-3.144943e+09 -2.944939e+09 -3.104941e+09 -4.467550e+02 8.336648e+01 2.845726e+02
-1.579115e+09 -1.379124e+09 -1.539117e+09 -2.458347e+03 2.956486e+03 3.096719e+02
-1.611585e+09 -1.411595e+09 -1.571587e+09 9.802740e+02 1.591235e+03 -6.476871e+01
-1.583271e+09 -1.383283e+09 -1.543273e+09 -1.151778e+03 2.472692e+03 1.335556e+02
-2.854186e+09 -2.654179e+09 -2.814179e+09 -8.976965e+03 -8.243103e+03 4.068455e+03
-3.613154e+09 -3.413145e+09 -3.573143e+09 -5.086906e+03 -2.426466e+03 1.963132e+03
-2.940027e+09 -2.740012e+09 -2.900024e+09 -1.652392e+03 -8.008833e+02 5.015927e+03
-3.537805e+09 -3.337811e+09 -3.497808e+09 -1.962204e+03 1.558222e+03 4.706941e+02
-1.770882e+09 -1.570874e+09 -1.730883e+09 -2.423888e+03 -2.527826e+02 -1.004415e+03
-1.919870e+09 -1.719858e+09 -1.879860e+09 2.106924e+04 2.366459e+04 2.625171e+04
-2.772091e+09 -2.572061e+09 -2.732079e+09 -4.581545e+03 1.449965e+04 -1.314818e+04
-2.893091e+09 -2.693101e+09 -2.853098e+09 -2.552209e+03 -6.349250e+02 4.730324e+03
-2.037671e+09 -1.837676e+09 -1.997672e+09 -3.460137e+03 -2.831801e+03 -1.024045e+03
-2.794318e+09 -2.594322e+09 -2.754321e+09 4.816674e+02 -8.519463e+01 -9.233534e+02
-2.162203e+09 -1.962207e+09 -2.122204e+09 -3.705808e+03 -3.340608e+03 -1.318889e+03
-1.956209e+09 -1.756213e+09 -1.916209e+09 -3.667462e+03 -2.821197e+03 -9.387260e+02
-1.592485e+09 -1.392489e+09 -1.552485e+09 -4.114246e+03 -3.284732e+03 -1.177319e+03
-1.984647e+09 -1.784647e+09 -1.944646e+09 -1.745928e+03 -9.514353e+02 -4.373419e+02
-1.676417e+09 -1.476417e+09 -1.636417e+09 -4.511062e+02 -7.086668e+01 4.374295e+00
-1.770130e+09 -1.570130e+09 -1.730130e+09 6.891880e+02 1.182364e+02 -3.055590e+01
-3.579590e+09 -3.379593e+09 -3.539592e+09 1.710178e+02 2.622765e+00 -1.788137e+02
-2.758999e+09 -2.559000e+09 -2.719000e+09 5.566841e+02 1.231497e+01 -7.994636e+00
-1.595353e+09 -1.395352e+09 -1.555353e+09 -4.546564e+02 -8.905496e+01 -6.710764e+01
-3.591081e+09 -3.391082e+09 -3.551082e+09 4.940161e+02 3.842329e+01 -3.264074e+01
-3.605118e+09 -3.405118e+09 -3.565118e+09 5.107514e+02 1.795529e+01 -5.832772e+01
-1.877050e+09 -1.677049e+09 -1.837049e+09 -4.637743e+02 -5.200119e+01 -5.073054e+01
-1.677687e+09 -1.477686e+09 -1.637687e+09 -3.411955e+02 -6.146126e+01 -2.407805e+01
-2.159924e+09 -1.959929e+09 -2.119925e+09 1.533391e+03 3.579512e+02 -6.506277e+01
-2.952255e+09 -2.752260e+09 -2.912255e+09 1.559368e+03 2.509928e+02 -9.614590e+01
-2.578641e+09 -2.378648e+09 -2.538642e+09 2.211828e+03 1.232977e+03 -2.273618e+02
-3.267556e+09 -3.067560e+09 -3.227557e+09 1.599898e+03 4.567860e+02 -1.707739e+02
-3.316820e+09 -3.116825e+09 -3.276822e+09 2.738096e+03 1.299686e+03 -3.324237e+02
-1.674084e+09 -1.474084e+09 -1.634083e+09 5.742485e+02 -4.904870e+02 9.146778e+01
-3.396898e+09 -3.196905e+09 -3.356900e+09 1.162759e+03 6.432216e+02 -6.913146e+01
-1.560069e+09 -1.360077e+09 -1.520070e+09 1.946868e+03 1.138133e+03 -6.568484e+01
-1.962651e+09 -1.762652e+09 -1.922649e+09 2.314010e+03 8.169033e+02 -2.099208e+02
-1.982199e+09 -1.782200e+09 -1.942198e+09 1.699744e+03 4.166793e+02 -1.000548e+02
-3.176247e+09 -2.976252e+09 -3.136250e+09 4.421014e+03 2.822948e+03 2.464187e+03
-2.469912e+09 -2.269925e+09 -2.429919e+09 -5.343264e+02 5.247766e+03 5.626228e+02
-2.060535e+09 -1.860546e+09 -2.020538e+09 2.034678e+03 3.752037e+03 -2.570249e+02
-3.179533e+09 -2.979543e+09 -3.139540e+09 -1.917214e+03 4.918973e+03 6.066846e+02
-3.605045e+09 -3.405057e+09 -3.565046e+09 -6.689618e+02 -1.068033e+03 7.075278e+03
-3.480559e+09 -3.280562e+09 -3.440561e+09 3.262436e+03 7.432363e+02 1.017614e+03
-3.276100e+09 -3.076101e+09 -3.236101e+09 5.528065e+02 2.659784e+01 6.151965e+01
-1.792356e+09 -1.592367e+09 -1.752359e+09 -1.873612e+03 4.263653e+03 6.322440e+02
-2.258707e+09 -2.058708e+09 -2.218708e+09 -5.745778e+02 -3.222032e+01 -5.798368e+00
-2.561532e+09 -2.361532e+09 -2.521532e+09 4.165549e+02 4.953766e+01 -4.963230e+00
-3.500115e+09 -3.300116e+09 -3.460116e+09 3.648468e+02 3.871879e+00 -1.922441e+01
-3.610676e+09 -3.410677e+09 -3.570677e+09 -1.057988e+03 -5.724077e+01 9.318974e+01
-3.023346e+09 -2.823351e+09 -2.983349e+09 1.860590e+03 -2.142678e+03 5.887229e+02
-1.725360e+09 -1.525370e+09 -1.685363e+09 2.730323e+03 -3.593606e+03 1.247576e+03
-3.610676e+09 -3.410678e+09 -3.570677e+09 -8.095971e+02 -3.590036e+01 2.562017e+00
-3.136368e+09 -2.936376e+09 -3.096372e+09 -1.848356e+03 2.550142e+03 3.760386e+02
-3.193074e+09 -2.993082e+09 -3.153077e+09 -5.322247e+02 1.727517e+03 -2.555895e+01
-3.123360e+09 -2.923368e+09 -3.083364e+09 -1.577412e+03 2.040923e+03 4.905935e+02
-3.560403e+09 -3.360407e+09 -3.520406e+09 2.395507e+02 1.289276e+01 -3.884097e+02
-3.581246e+09 -3.381253e+09 -3.541249e+09 -1.192226e+03 1.290014e+03 1.821817e+02
-3.563302e+09 -3.363290e+09 -3.523262e+09 -4.571042e+03 -1.511088e+04 8.080430e+03
-1.802178e+09 -1.602197e+09 -1.762181e+09 -1.958916e+04 -3.162526e+04 5.196180e+04
-3.204299e+09 -3.004290e+09 -3.164301e+09 4.926808e+03 4.097934e+03 -5.868170e+01
-3.606693e+09 -3.406696e+09 -3.566695e+09 2.926046e+02 1.434297e+01 -4.776369e+01
-2.891311e+09 -2.691312e+09 -2.851312e+09 6.217791e+02 3.982503e+01 2.466674e+00
-1.581010e+09 -1.380991e+09 -1.541011e+09 -9.047455e+02 -3.347627e+03 -5.614071e+03
-3.478791e+09 -3.278793e+09 -3.438793e+09 1.714880e+01 -2.984562e+00 -9.844044e+00
-1.855552e+09 -1.655564e+09 -1.815556e+09 2.288352e+03 3.696578e+03 -5.169664e+02
-1.696668e+09 -1.496669e+09 -1.656669e+09 4.924385e+02 5.672374e+01 3.630765e+01
-3.348953e+09 -3.148956e+09 -3.308955e+09 1.753746e+02 -1.170149e+00 -3.747422e+02
-1.997890e+09 -1.797900e+09 -1.957895e+09 1.103787e+04 1.891767e+04 -1.036187e+04
-3.460498e+09 -3.260505e+09 -3.420505e+09 2.010812e+03 4.560584e+03 -5.344558e+02
-3.596057e+09 -3.396059e+09 -3.556057e+09 -2.209348e+03 6.015024e+02 3.488055e+02
-1.591888e+09 -1.391893e+09 -1.551889e+09 -2.600492e+03 1.359139e+03 2.019948e+02
-1.745233e+09 -1.545231e+09 -1.705231e+09 -1.326867e+03 3.077721e+02 1.661958e+02
-2.050001e+09 -1.849997e+09 -2.009999e+09 -2.425208e+03 1.279032e+03 1.036369e+03
-1.774965e+09 -1.574962e+09 -1.734963e+09 -8.957511e+02 5.084110e+02 3.175276e+02
-2.646015e+09 -2.446011e+09 -2.606013e+09 -1.020468e+03 5.195460e+02 8.118069e+02
-3.182748e+09 -2.982749e+09 -3.142749e+09 2.962002e+02 8.661399e+00 -1.591805e+01
-1.593777e+09 -1.393771e+09 -1.553774e+09 -1.212371e+03 1.576753e+02 7.478895e+02
-3.588256e+09 -3.388253e+09 -3.548254e+09 -9.064862e+02 1.182766e+02 1.685640e+02
-2.549342e+09 -2.349345e+09 -2.509344e+09 1.818374e+02 -1.669816e+00 8.993912e-01
-3.045015e+09 -2.845017e+09 -3.005017e+09 -2.989103e+02 -1.715998e+01 -8.345040e+00
-3.601986e+09 -3.401981e+09 -3.561982e+09 1.609684e+03 -7.445900e+02 -3.094433e+02
-1.845588e+09 -1.645590e+09 -1.805589e+09 -2.129822e+02 6.389373e+00 2.722070e+01
-1.658726e+09 -1.458727e+09 -1.618727e+09 -2.735002e+02 -2.533769e+01 4.598865e+01
-2.618702e+09 -2.418701e+09 -2.578701e+09 -7.515297e+02 4.027247e+02 7.043477e+01
-3.601984e+09 -3.401981e+09 -3.561982e+09 2.207033e+03 -4.228398e+02 -7.742924e+02
-2.015791e+09 -1.815742e+09 -1.975872e+09 -1.329909e+04 9.970849e+03 -4.313830e+02
-3.065192e+09 -2.865190e+09 -3.025221e+09 9.563252e+02 1.481170e+04 8.914021e+02
-3.169271e+09 -2.969275e+09 -3.129289e+09 4.432472e+03 1.229774e+04 -6.431432e+03
-1.580983e+09 -1.380968e+09 -1.541008e+09 1.649631e+04 1.678879e+04 5.975520e+03
-3.129647e+09 -2.929629e+09 -3.089620e+09 1.210885e+04 2.310311e+04 4.682810e+03
-1.958314e+09 -1.758321e+09 -1.918315e+09 3.554843e+02 4.464563e+02 -2.380361e+00
-3.616031e+09 -3.416038e+09 -3.576033e+09 -4.795657e+02 5.040876e+02 3.108450e+01
-2.824325e+09 -2.624333e+09 -2.784327e+09 -5.044297e+02 1.490425e+03 1.592722e+02
-1.678587e+09 -1.478587e+09 -1.638591e+09 2.334093e+03 2.313790e+02 2.995716e+02
-1.995376e+09 -1.795384e+09 -1.955384e+09 4.749590e+03 2.084247e+03 3.422758e+03
-1.877854e+09 -1.677857e+09 -1.837854e+09 -1.161026e+03 6.677501e+01 -9.440675e+01
-3.010700e+09 -2.810708e+09 -2.970703e+09 3.675311e+03 2.189931e+03 4.157605e+03
-3.067087e+09 -2.867083e+09 -3.027090e+09 3.489490e+03 8.809352e+02 -1.108004e+03
-1.875970e+09 -1.675974e+09 -1.835970e+09 -1.216121e+03 1.335460e+02 -5.429223e+01
-2.570162e+09 -2.370166e+09 -2.530162e+09 -9.897451e+02 1.443270e+02 -6.522208e+01
-3.619343e+09 -3.419336e+09 -3.579342e+09 5.134723e+02 -4.653388e+02 2.120482e+03
-2.216175e+09 -2.016165e+09 -2.176169e+09 -5.949781e+02 -5.686998e+02 1.873018e+03
-3.595025e+09 -3.395028e+09 -3.555025e+09 -1.372078e+03 2.131569e+02 5.403277e+01
-2.764164e+09 -2.564161e+09 -2.724162e+09 -9.937595e+02 3.143550e+02 2.375935e+02
-3.003133e+09 -2.803123e+09 -2.963128e+09 7.149429e+02 -1.222480e+03 1.711901e+03
-3.078628e+09 -2.878623e+09 -3.038627e+09 -1.452892e+03 3.712584e+02 8.557841e+02
-2.066569e+09 -1.866564e+09 -2.026568e+09 -1.306992e+03 -1.072067e+03 1.951308e+03
-2.524536e+09 -2.324525e+09 -2.484487e+09 -1.082594e+04 1.231819e+04 -3.031696e+04
-3.050456e+09 -2.850445e+09 -3.010447e+09 2.589559e+02 4.173677e+03 -2.384557e+03
-3.589870e+09 -3.389869e+09 -3.549869e+09 -2.132325e+03 5.718032e+02 -2.526875e+02
-3.613259e+09 -3.413242e+09 -3.573224e+09 -8.856490e+02 1.044632e+04 4.333097e+03
-1.783240e+09 -1.583248e+09 -1.743242e+09 1.622495e+03 1.358618e+03 -1.106819e+02
-2.582354e+09 -2.382356e+09 -2.542356e+09 -2.829972e+03 8.370524e+02 -7.491000e+02
-3.591870e+09 -3.391877e+09 -3.551876e+09 1.454932e+03 2.683538e+03 -3.244577e+02
-3.509637e+09 -3.309640e+09 -3.469638e+09 -2.442513e+03 5.654233e+02 -1.407252e+03
-3.476412e+09 -3.276414e+09 -3.436412e+09 -1.777421e+03 2.472805e+02 -7.784929e+02
-3.589869e+09 -3.389870e+09 -3.549869e+09 -2.545835e+03 4.977862e+02 -4.274445e+02
-2.198395e+09 -1.998397e+09 -2.158397e+09 -3.249873e+03 1.086472e+03 -2.180299e+03
-3.509042e+09 -3.309048e+09 -3.469049e+09 3.224094e+03 4.693087e+03 -1.587834e+03
-1.655354e+09 -1.455357e+09 -1.615354e+09 5.930353e+03 3.454415e+03 -1.913864e+03
-1.790421e+09 -1.590433e+09 -1.750424e+09 1.972011e+03 3.426424e+03 -4.129185e+02
-2.387541e+09 -2.187538e+09 -2.347539e+09 -1.388828e+03 6.428099e+02 3.309129e+02
-3.222113e+09 -3.022110e+09 -3.182114e+09 1.516577e+03 -1.981338e+03 2.164453e+03
-3.447725e+09 -3.247724e+09 -3.407726e+09 1.770015e+03 -1.612884e+03 1.335440e+03
-2.020907e+09 -1.820911e+09 -1.980908e+09 2.731824e+03 -1.978692e+03 9.904858e+02
-1.952060e+09 -1.752061e+09 -1.912059e+09 2.014048e+03 -1.306700e+03 6.391553e+02
-3.430114e+09 -3.230116e+09 -3.390116e+09 3.264062e+02 2.407108e+01 -7.849973e+00
-2.861024e+09 -2.661023e+09 -2.821023e+09 -2.552026e+01 -2.416039e+02 3.115802e+01
-2.771058e+09 -2.571064e+09 -2.731061e+09 2.934806e+03 2.537325e+03 -7.725630e+02
-1.900243e+09 -1.700245e+09 -1.860244e+09 2.793401e+02 2.735343e+01 -1.618752e+01
-3.271095e+09 -3.071097e+09 -3.231097e+09 -8.956881e+01 -3.628834e+00 9.280538e+00
-1.571623e+09 -1.371627e+09 -1.531623e+09 3.180047e+03 1.203564e+03 -2.390156e+02
-3.500362e+09 -3.300358e+09 -3.460362e+09 -7.691325e+02 -1.506878e+03 -1.382876e+03
-1.641769e+09 -1.441771e+09 -1.601771e+09 1.774291e+02 3.448844e+01 9.944340e+01
-2.842287e+09 -2.642289e+09 -2.802288e+09 5.708114e+02 -4.980526e+00 -7.214676e+01
-2.937860e+09 -2.737859e+09 -2.897859e+09 -5.416806e+01 3.921209e+01 -6.745924e+01
-2.837391e+09 -2.637390e+09 -2.797390e+09 7.643874e+01 4.434915e+01 -5.893445e+01
-3.220140e+09 -3.020139e+09 -3.180139e+09 -3.564861e+01 2.963671e+01 -4.195183e+01
-2.910270e+09 -2.710271e+09 -2.870271e+09 -9.327528e+02 -6.331692e+01 6.481169e+01
-3.612483e+09 -3.412482e+09 -3.572483e+09 4.039181e+02 -8.004098e+02 5.194703e+02
-2.205785e+09 -2.005783e+09 -2.165783e+09 2.671758e+02 -3.042752e+02 1.438792e+02
-1.575538e+09 -1.375541e+09 -1.535537e+09 2.919343e+03 6.903585e+02 -2.340217e+02
-3.556141e+09 -3.356142e+09 -3.516142e+09 -8.401820e+02 -5.633685e+01 -2.210640e+01
-2.735103e+09 -2.535102e+09 -2.695103e+09 -6.689274e+02 -1.051238e+02 -2.309504e+01
-1.570150e+09 -1.370150e+09 -1.530151e+09 -7.387857e+02 -1.325624e+02 3.407105e+01
-1.885316e+09 -1.685331e+09 -1.845341e+09 -5.621092e+03 -7.717680e+03 2.856539e+04
-1.962378e+09 -1.762379e+09 -1.922379e+09 -5.318337e+02 -5.532459e+01 -3.012745e+01
-1.593422e+09 -1.393422e+09 -1.553422e+09 -5.555411e+02 -8.040432e+01 -3.258608e+01
-3.595685e+09 -3.395684e+09 -3.555681e+09 2.099807e+03 -1.004527e+03 -2.203002e+03
-1.687628e+09 -1.487628e+09 -1.647630e+09 3.051668e+03 -9.383426e+02 -1.685864e+03
-3.199567e+09 -2.999566e+09 -3.159566e+09 -4.428778e+02 -2.055764e+02 1.079585e+02
-3.591890e+09 -3.391888e+09 -3.551889e+09 1.699602e+03 -3.003976e+02 -3.605660e+02
-1.576871e+09 -1.376870e+09 -1.536871e+09 1.738825e+03 -3.520957e+02 -9.615837e+02
-2.056398e+09 -1.856396e+09 -2.016399e+09 3.338901e+03 -1.551476e+03 -1.916911e+03
-1.575502e+09 -1.375501e+09 -1.535501e+09 -5.974797e+02 -1.756928e+02 -1.880105e+01
-3.606598e+09 -3.406597e+09 -3.566597e+09 -5.254558e+02 -7.293956e+01 4.496235e+01
-1.795454e+09 -1.595453e+09 -1.755453e+09 -4.030193e+02 -1.397121e+02 -2.320486e+01
-1.993670e+09 -1.793668e+09 -1.953669e+09 -2.987267e+02 -1.076802e+02 -3.019315e+01
-2.206094e+09 -2.006107e+09 -2.166105e+09 1.333096e+03 6.562287e+02 5.331225e+03
-1.596949e+09 -1.396948e+09 -1.556949e+09 -4.520735e+02 -1.272481e+02 -4.920759e+01
-3.604892e+09 -3.404891e+09 -3.564891e+09 -3.554139e+02 -4.089752e+01 -4.759655e+01
-1.974933e+09 -1.774932e+09 -1.934939e+09 4.383430e+03 1.355572e+03 5.568515e+01
-1.905214e+09 -1.705211e+09 -1.865214e+09 -1.690164e+02 -6.722575e+02 -1.665436e+03
-1.854903e+09 -1.654902e+09 -1.814902e+09 -4.181039e+02 -8.297652e+01 -1.633394e+01
-1.588317e+09 -1.388327e+09 -1.548330e+09 9.418812e+02 6.167445e+01 3.023705e+03
-1.833787e+09 -1.633778e+09 -1.793787e+09 -8.610401e+03 -4.576258e+03 2.099999e+03
-1.898020e+09 -1.698020e+09 -1.858019e+09 -4.889207e+03 -4.640612e+03 -3.080973e+03
-2.536003e+09 -2.335962e+09 -2.496001e+09 8.605695e+03 -5.009800e+03 -1.245026e+04
-1.667459e+09 -1.467467e+09 -1.627470e+09 -5.261758e+03 -3.444192e+03 9.705101e+03
-3.590864e+09 -3.390865e+09 -3.550830e+09 -4.869058e+03 -6.523965e+03 1.438212e+04
-1.985390e+09 -1.785390e+09 -1.945389e+09 2.878287e+03 1.119577e+03 -5.541034e+02
-2.153129e+09 -1.953135e+09 -2.113130e+09 5.693758e+02 4.936212e+02 -5.542193e+01
-1.982268e+09 -1.782274e+09 -1.942269e+09 1.208244e+03 4.599041e+02 -7.331514e+01
-3.559688e+09 -3.359692e+09 -3.519688e+09 1.866755e+03 4.544446e+02 -7.017104e+01
-1.624539e+09 -1.424538e+09 -1.584537e+09 -4.216402e+03 -2.104978e+03 -2.023724e+03
-1.941125e+09 -1.741121e+09 -1.901125e+09 -1.784762e+03 -2.686133e+03 -3.027565e+03
-2.051881e+09 -1.851876e+09 -2.011881e+09 -1.885177e+03 -2.476714e+03 -2.850820e+03
-1.927952e+09 -1.727947e+09 -1.887952e+09 -2.173904e+03 -2.794867e+03 -2.727029e+03
-2.092468e+09 -1.892463e+09 -2.052467e+09 -1.411968e+03 -1.880536e+03 -2.344722e+03
-2.151200e+09 -1.951195e+09 -2.111199e+09 -1.493887e+03 -1.629386e+03 -2.287971e+03
-2.349232e+09 -2.149227e+09 -2.309231e+09 -1.379811e+03 -1.393080e+03 -2.187273e+03
-1.627808e+09 -1.427803e+09 -1.587807e+09 -9.281800e+02 -1.157829e+03 -2.132942e+03
-1.853879e+09 -1.653874e+09 -1.813878e+09 -5.309171e+02 -1.531488e+03 -2.437867e+03
-2.051608e+09 -1.851605e+09 -2.011608e+09 -3.212012e+02 -1.210349e+03 -1.959652e+03
-1.482102e+09 -1.282096e+09 -1.442100e+09 -1.793973e+03 -1.709948e+03 -2.259453e+03
-1.708173e+09 -1.508167e+09 -1.668171e+09 -1.349133e+03 -2.066413e+03 -2.529611e+03
-1.829183e+09 -1.629177e+09 -1.789182e+09 -1.368359e+03 -1.878833e+03 -2.750652e+03
-1.704799e+09 -1.504796e+09 -1.664797e+09 -2.668022e+03 -2.356482e+03 -1.905046e+03
-1.592857e+09 -1.392854e+09 -1.552855e+09 -2.877461e+03 -2.369969e+03 -1.857960e+03
-1.592857e+09 -1.392854e+09 -1.552855e+09 -3.004835e+03 -2.484421e+03 -1.908810e+03
-1.859786e+09 -1.659782e+09 -1.819784e+09 -1.850777e+03 -1.460244e+03 -1.601520e+03
-1.902831e+09 -1.702828e+09 -1.862829e+09 -2.097672e+03 -1.507020e+03 -1.717823e+03
-2.057817e+09 -1.857814e+09 -2.017816e+09 -1.987790e+03 -1.714844e+03 -1.681205e+03
-1.806942e+09 -1.606939e+09 -1.766940e+09 -2.789928e+03 -2.593286e+03 -1.979507e+03
-1.695000e+09 -1.494997e+09 -1.654998e+09 -2.882564e+03 -2.607754e+03 -1.901020e+03
-1.490561e+09 -1.290558e+09 -1.450559e+09 -3.386871e+03 -2.974797e+03 -2.440242e+03
-1.965820e+09 -1.765816e+09 -1.925820e+09 -6.759521e+02 -1.814039e+03 -2.225325e+03
-2.222283e+09 -2.022278e+09 -2.182283e+09 -4.933221e+02 -1.118764e+03 -1.747395e+03
-2.163550e+09 -1.963546e+09 -2.123550e+09 -4.271357e+02 -1.287514e+03 -1.769663e+03
-1.544056e+09 -1.344058e+09 -1.504058e+09 2.834598e+02 3.392963e+01 -3.799423e+00
-1.855343e+09 -1.655344e+09 -1.815344e+09 2.985617e+02 4.118932e+01 7.858006e+00
-1.966571e+09 -1.766572e+09 -1.926572e+09 3.095361e+02 3.952829e+01 -9.589514e-02
-2.103181e+09 -1.903182e+09 -2.063182e+09 3.779556e+02 2.757360e+01 -4.493411e+01
-2.229271e+09 -2.029273e+09 -2.189272e+09 3.789683e+02 3.164503e+01 -2.755350e+01
-2.005042e+09 -1.805043e+09 -1.965043e+09 4.069286e+02 4.683931e+01 1.226949e+00
-2.146818e+09 -1.946819e+09 -2.106819e+09 3.451963e+02 1.903686e+01 -2.384751e+01
-2.272908e+09 -2.072909e+09 -2.232909e+09 3.465738e+02 2.452528e+01 -1.562354e+01
-2.446027e+09 -2.246029e+09 -2.406028e+09 3.355886e+02 1.674310e+01 3.573911e+00
-1.853008e+09 -1.653009e+09 -1.813008e+09 3.547396e+02 5.221034e+01 1.878870e+01
-1.698143e+09 -1.498144e+09 -1.658144e+09 4.178469e+02 5.647204e+01 2.801766e+00
-1.698143e+09 -1.498144e+09 -1.658144e+09 3.606294e+02 4.132929e+01 1.094637e+01
-1.893814e+09 -1.693816e+09 -1.853815e+09 4.492721e+02 5.231611e+01 8.782349e+00
-1.757204e+09 -1.557205e+09 -1.717205e+09 4.791917e+02 5.733998e+01 6.023793e+00
-1.475471e+09 -1.275472e+09 -1.435472e+09 4.861156e+02 5.795080e+01 6.372432e-01
-1.961622e+09 -1.761623e+09 -1.921623e+09 4.198227e+02 5.014400e+01 2.180252e+01
-1.979876e+09 -1.779877e+09 -1.939877e+09 4.789360e+02 4.608461e+01 1.133315e+01
-2.134741e+09 -1.934742e+09 -2.094742e+09 4.071013e+02 4.045553e+01 2.476780e+01
-1.887090e+09 -1.687091e+09 -1.847091e+09 4.652030e+02 3.639798e+01 -1.671532e+00
-2.106641e+09 -1.906642e+09 -2.066642e+09 4.655658e+02 3.951526e+01 1.080881e+00
-2.243918e+09 -2.043919e+09 -2.203919e+09 4.557888e+02 1.603815e+01 -1.126983e+01
-1.924883e+09 -1.724885e+09 -1.884884e+09 3.609427e+02 2.315414e+01 1.295527e+01
-1.813655e+09 -1.613657e+09 -1.773657e+09 3.304046e+02 2.095074e+01 1.184556e+01
-2.037989e+09 -1.837991e+09 -1.997991e+09 3.792140e+02 3.281015e+01 2.896401e+01
-1.862854e+09 -1.662855e+09 -1.822855e+09 4.958436e+02 5.747405e+01 3.836441e+01
-1.983541e+09 -1.783543e+09 -1.943542e+09 5.685006e+02 5.631057e+01 1.383256e+01
-2.175555e+09 -1.975556e+09 -2.135556e+09 5.690025e+02 5.292424e+01 1.813586e+01
-1.478133e+09 -1.278135e+09 -1.438134e+09 5.288190e+02 5.471193e+01 -7.433106e+00
-1.478133e+09 -1.278135e+09 -1.438134e+09 4.856186e+02 5.777575e+01 3.901324e+00
-1.661004e+09 -1.461005e+09 -1.621004e+09 5.232465e+02 4.854201e+01 -4.720419e+01
-1.837384e+09 -1.637385e+09 -1.797385e+09 3.853322e+02 5.081271e+01 -8.621297e+00
-1.726703e+09 -1.526705e+09 -1.686704e+09 3.752355e+02 4.356051e+01 1.017682e+01
-1.502369e+09 -1.302371e+09 -1.462370e+09 3.469600e+02 3.675221e+01 -3.619413e+01
-1.502369e+09 -1.302371e+09 -1.462370e+09 3.395162e+02 4.217639e+01 -1.457634e+00
-1.726703e+09 -1.526705e+09 -1.686704e+09 3.576436e+02 4.901888e+01 4.471495e+01
-1.502369e+09 -1.302371e+09 -1.462370e+09 3.371241e+02 4.415297e+01 1.971521e+00
-1.805223e+09 -1.605224e+09 -1.765224e+09 5.691778e+02 4.693431e+01 7.611326e+00
-1.743040e+09 -1.543041e+09 -1.703041e+09 5.720319e+02 6.024110e+01 3.236277e+00
-1.507559e+09 -1.307561e+09 -1.467560e+09 5.974715e+02 5.229651e+01 -2.458042e+01
-1.565191e+09 -1.365192e+09 -1.525192e+09 4.833263e+02 5.779627e+01 1.242854e+01
-1.940074e+09 -1.740075e+09 -1.900075e+09 4.669965e+02 5.553145e+01 -2.024535e+00
-1.748061e+09 -1.548062e+09 -1.708062e+09 5.211381e+02 4.742695e+01 -6.255841e+01
-1.919178e+09 -1.719180e+09 -1.879180e+09 4.831759e+02 3.336693e+01 -5.830981e+01
-2.081330e+09 -1.881331e+09 -2.041331e+09 4.794482e+02 1.586016e+01 -5.743127e+01
-1.956530e+09 -1.756531e+09 -1.916531e+09 4.704749e+02 1.891537e+01 -5.738976e+01
-1.775797e+09 -1.575798e+09 -1.735798e+09 5.169079e+02 3.924450e+01 8.960026e+00
-1.713614e+09 -1.513615e+09 -1.673615e+09 5.557139e+02 5.801531e+01 7.518544e+00
-1.896484e+09 -1.696485e+09 -1.856485e+09 5.749643e+02 5.282617e+01 1.509461e+00
-1.982388e+09 -1.782389e+09 -1.942389e+09 4.215021e+02 3.925087e+01 4.008394e+00
-2.206617e+09 -2.006618e+09 -2.166618e+09 3.987195e+02 1.106154e+01 -1.679565e+01
-2.319723e+09 -2.119724e+09 -2.279724e+09 4.051363e+02 9.564293e+00 1.090257e+01
-1.863049e+09 -1.663051e+09 -1.823050e+09 4.271585e+02 2.509542e+01 -1.003643e+01
-1.752368e+09 -1.552370e+09 -1.712369e+09 4.025000e+02 1.011163e+01 1.516268e-01
-2.005724e+09 -1.805726e+09 -1.965726e+09 3.708435e+02 9.667449e+00 -2.917061e+01
-1.955489e+09 -1.755491e+09 -1.915490e+09 5.250952e+02 1.277790e+01 -9.855157e+01
-2.067117e+09 -1.867119e+09 -2.027118e+09 5.512935e+02 2.894038e+01 -1.045899e+02
-1.912290e+09 -1.712292e+09 -1.872291e+09 6.158887e+02 5.946403e+01 -4.946379e+01
-1.979061e+09 -1.779063e+09 -1.939063e+09 5.140776e+02 2.142262e+01 -6.889246e+01
-2.090689e+09 -1.890691e+09 -2.050691e+09 5.085190e+02 5.790153e+01 -1.092043e+02
-2.213394e+09 -2.013396e+09 -2.173396e+09 5.254055e+02 6.465512e+00 -1.881149e+02
-1.993700e+09 -1.793701e+09 -1.953701e+09 4.490087e+02 3.713236e+01 -2.571004e+01
-2.222765e+09 -2.022766e+09 -2.182766e+09 4.007391e+02 1.872878e+01 -1.045667e+02
-2.100059e+09 -1.900061e+09 -2.060060e+09 4.593938e+02 5.218684e+01 -1.642998e+01
-1.493825e+09 -1.293827e+09 -1.453827e+09 3.817857e+02 3.569843e+01 -6.739545e+01
-1.708789e+09 -1.508791e+09 -1.668791e+09 4.097281e+02 3.167791e+01 -2.906010e+01
-1.824838e+09 -1.624840e+09 -1.784840e+09 4.538840e+02 3.458464e+01 -2.973881e+01
-1.848177e+09 -1.648179e+09 -1.808179e+09 6.430553e+02 6.891605e+01 -4.477065e+00
-1.717527e+09 -1.517528e+09 -1.677528e+09 6.516803e+02 6.879662e+01 -1.995654e+01
-1.905153e+09 -1.705155e+09 -1.865154e+09 7.043984e+02 2.554838e+01 -6.968789e+01
-1.633446e+09 -1.433448e+09 -1.593448e+09 3.760628e+02 4.043989e+01 -2.497950e+01
-1.848410e+09 -1.648412e+09 -1.808412e+09 4.096257e+02 3.694088e+01 1.963282e+01
-1.996354e+09 -1.796356e+09 -1.956356e+09 3.745441e+02 3.531295e+01 -1.926170e+01
-1.619632e+09 -1.419634e+09 -1.579634e+09 6.089456e+02 6.254099e+01 -4.252703e+01
-1.855113e+09 -1.655115e+09 -1.815114e+09 5.836297e+02 7.200928e+01 -1.075409e+01
-1.923594e+09 -1.723595e+09 -1.883595e+09 6.733880e+02 2.824501e+01 -6.124175e+01
-1.796241e+09 -1.596243e+09 -1.756243e+09 6.643030e+02 5.196101e+01 -3.717868e+01
-1.665591e+09 -1.465592e+09 -1.625592e+09 6.950147e+02 5.215155e+01 -5.900634e+01
-1.448550e+09 -1.248552e+09 -1.408552e+09 7.126977e+02 4.086923e+01 -9.361260e+01
-1.500486e+09 -1.300488e+09 -1.460488e+09 6.304970e+02 6.754485e+01 -3.827843e+01
-1.500486e+09 -1.300488e+09 -1.460488e+09 5.939615e+02 7.187818e+01 -4.151516e+01
-1.688113e+09 -1.488114e+09 -1.648114e+09 6.754346e+02 2.582494e+01 -1.053407e+02
-1.528034e+09 -1.328036e+09 -1.488035e+09 3.770548e+02 3.856364e+01 -7.090610e+00
-1.781390e+09 -1.581392e+09 -1.741392e+09 3.645551e+02 3.297059e+01 -2.533220e+01
-1.528034e+09 -1.328036e+09 -1.488035e+09 3.908226e+02 3.588259e+01 8.167358e+00
-1.973225e+09 -1.773226e+09 -1.933226e+09 5.197350e+02 2.561484e+01 -3.103220e+01
-2.079584e+09 -1.879586e+09 -2.039585e+09 5.187843e+02 4.355267e+01 -2.282874e+01
-2.184414e+09 -1.984416e+09 -2.144415e+09 5.297338e+02 2.590662e+01 -2.925452e+01
-1.967323e+09 -1.767325e+09 -1.927325e+09 6.129451e+02 9.246575e+01 3.541394e+01
-2.140634e+09 -1.940635e+09 -2.100635e+09 7.015020e+02 2.806082e+01 -2.477804e+01
-2.072153e+09 -1.872155e+09 -2.032155e+09 6.233411e+02 7.257208e+01 3.157615e+01
-1.892421e+09 -1.692423e+09 -1.852423e+09 6.845229e+02 5.762259e+01 -6.034693e+01
-2.057955e+09 -1.857957e+09 -2.017957e+09 7.071652e+02 9.373963e+01 1.646348e+01
-2.148433e+09 -1.948435e+09 -2.108434e+09 8.522736e+02 1.684632e+01 -1.118270e+02
-1.840914e+09 -1.640917e+09 -1.800916e+09 7.411137e+02 7.279557e+01 -6.615765e+01
-1.728013e+09 -1.528015e+09 -1.688015e+09 7.588281e+02 6.040399e+01 -9.780717e+01
-1.931393e+09 -1.731394e+09 -1.891394e+09 8.453026e+02 2.030836e+01 -1.671154e+02
-1.719425e+09 -1.519428e+09 -1.679427e+09 4.601566e+02 2.318144e+01 -5.475001e+01
-1.603377e+09 -1.403379e+09 -1.563379e+09 4.360347e+02 5.994473e+00 -4.867260e+01
-1.603377e+09 -1.403379e+09 -1.563379e+09 4.084884e+02 2.251534e+01 -5.698746e+01
-1.501314e+09 -1.301316e+09 -1.461316e+09 4.168780e+02 4.764099e+01 -2.226430e+02
-1.726985e+09 -1.526987e+09 -1.686987e+09 4.215208e+02 7.582252e+01 -2.260226e+02
-1.842976e+09 -1.642979e+09 -1.802978e+09 4.654007e+02 1.241962e+02 -2.477398e+02
-1.832327e+09 -1.632329e+09 -1.792329e+09 5.067568e+02 5.266684e+01 -6.499705e+01
-1.716279e+09 -1.516281e+09 -1.676280e+09 4.400441e+02 4.138552e+01 -1.129650e+02
-1.941949e+09 -1.741952e+09 -1.901951e+09 4.706872e+02 5.696156e+01 -7.449871e+01
-1.502342e+09 -1.302344e+09 -1.462344e+09 7.412428e+02 6.838567e+01 -1.131805e+02
-1.502342e+09 -1.302344e+09 -1.462344e+09 7.053748e+02 7.323131e+01 -1.066413e+02
-1.705722e+09 -1.505723e+09 -1.665723e+09 8.096056e+02 2.541967e+01 -2.025695e+02
-1.894540e+09 -1.694543e+09 -1.854542e+09 6.174260e+02 7.231519e+01 -1.661871e+01
-2.049367e+09 -1.849369e+09 -2.009369e+09 5.385667e+02 2.972380e+01 -1.114176e+02
-2.158990e+09 -1.958992e+09 -2.118992e+09 5.500615e+02 5.072477e+01 -8.678744e+01
-1.562479e+09 -1.362481e+09 -1.522481e+09 7.275772e+02 5.711590e+01 -8.257199e+01
-1.779520e+09 -1.579521e+09 -1.739521e+09 7.019915e+02 6.850427e+01 -5.513504e+01
-1.922762e+09 -1.722764e+09 -1.882763e+09 8.175785e+02 2.141878e+01 -1.537241e+02
-1.842976e+09 -1.642979e+09 -1.802978e+09 7.798539e+02 1.401714e+01 -1.412207e+02
-1.730075e+09 -1.530077e+09 -1.690077e+09 8.167543e+02 -1.422109e+00 -1.781322e+02
-1.504404e+09 -1.304406e+09 -1.464406e+09 8.432044e+02 3.381584e+01 -2.079688e+02
-1.700979e+09 -1.500982e+09 -1.660982e+09 4.479182e+02 6.484055e+01 -2.230450e+02
-1.648074e+09 -1.448077e+09 -1.608076e+09 3.943624e+02 6.139100e+01 -2.550429e+02
-1.860883e+09 -1.660886e+09 -1.820885e+09 3.985340e+02 7.586882e+01 -2.288193e+02
-1.846436e+09 -1.646439e+09 -1.806438e+09 4.547159e+02 6.037482e+01 -2.279153e+02
-2.006339e+09 -1.806342e+09 -1.966342e+09 4.621771e+02 7.198287e+01 -2.775121e+02
-2.207431e+09 -2.007434e+09 -2.167434e+09 4.617590e+02 5.727540e+01 -2.134260e+02
-1.824393e+09 -1.624396e+09 -1.784396e+09 8.792749e+02 4.367413e+01 -2.570255e+02
-1.721440e+09 -1.521442e+09 -1.681442e+09 8.742629e+02 2.607559e+01 -3.083633e+02
-1.978645e+09 -1.778647e+09 -1.938647e+09 9.543572e+02 2.286461e+01 -3.696292e+02
-1.940385e+09 -1.740388e+09 -1.900387e+09 8.022690e+02 8.837820e+01 -7.128023e+01
-2.094636e+09 -1.894638e+09 -2.054638e+09 9.427706e+02 2.552664e+01 -3.572523e+02
-2.200089e+09 -2.000091e+09 -2.160091e+09 1.000972e+03 -1.421096e+01 -1.284930e+02
-1.743482e+09 -1.543485e+09 -1.703484e+09 4.057338e+02 3.860399e+01 -2.009066e+02
-1.994622e+09 -1.794625e+09 -1.954625e+09 4.158985e+02 3.134243e+01 -2.227333e+02
-1.849166e+09 -1.649169e+09 -1.809168e+09 4.194822e+02 -4.302252e+00 -1.615617e+02
-1.489565e+09 -1.289568e+09 -1.449568e+09 1.021330e+03 -2.230190e+01 -5.088186e+02
-1.702374e+09 -1.502377e+09 -1.662377e+09 9.961915e+02 -8.643975e+01 -4.559411e+02
-1.805328e+09 -1.605331e+09 -1.765330e+09 9.007483e+02 -2.971323e+01 -3.871943e+02
-1.508631e+09 -1.308633e+09 -1.468633e+09 8.695214e+02 5.677487e+01 -3.127252e+02
-1.508631e+09 -1.308633e+09 -1.468633e+09 8.490404e+02 6.097137e+01 -3.077334e+02
-1.765835e+09 -1.565838e+09 -1.725837e+09 9.444546e+02 3.976498e+01 -3.773519e+02
-1.965622e+09 -1.765625e+09 -1.925625e+09 6.128818e+02 7.956981e+01 -2.742209e+02
-2.088340e+09 -1.888343e+09 -2.048342e+09 5.886896e+02 7.191482e+01 -1.615976e+02
-2.276394e+09 -2.076397e+09 -2.236397e+09 5.562530e+02 6.249483e+01 -2.208745e+02
-1.598026e+09 -1.398029e+09 -1.558028e+09 4.053294e+02 3.749210e+01 -2.018529e+02
-1.545120e+09 -1.345123e+09 -1.505122e+09 4.689068e+02 -1.805291e+01 -2.262671e+02
-1.545120e+09 -1.345123e+09 -1.505122e+09 3.321537e+02 1.932611e+01 -1.698503e+02
-1.805328e+09 -1.605331e+09 -1.765330e+09 4.327347e+02 1.442165e+02 -4.338114e+02
-1.704174e+09 -1.504177e+09 -1.664177e+09 3.501779e+02 9.732056e+01 -4.478188e+02
-1.491365e+09 -1.291368e+09 -1.451368e+09 3.487007e+02 8.011937e+01 -4.580993e+02
-1.624622e+09 -1.424625e+09 -1.584624e+09 8.591414e+02 5.217222e+01 -2.165766e+02
-1.987280e+09 -1.787282e+09 -1.947281e+09 8.699084e+02 3.592448e+01 -2.247869e+02
-1.881827e+09 -1.681829e+09 -1.841829e+09 9.258390e+02 4.422687e+01 -3.728146e+02
-1.875531e+09 -1.675534e+09 -1.835533e+09 5.533609e+02 3.907313e+01 -1.879308e+02
-1.918129e+09 -1.718132e+09 -1.878131e+09 5.002667e+02 3.346260e+01 -1.264824e+02
-2.063585e+09 -1.863588e+09 -2.023587e+09 5.194674e+02 3.444734e+01 -2.169953e+02
-1.892740e+09 -1.692744e+09 -1.852744e+09 6.883710e+02 -4.955558e+01 -7.263486e+02
-2.035923e+09 -1.835927e+09 -1.995926e+09 7.282911e+02 -1.253982e+01 -8.177517e+02
-1.969018e+09 -1.769022e+09 -1.929021e+09 6.211043e+02 7.347167e+01 -1.138299e+03
-1.798929e+09 -1.598932e+09 -1.758932e+09 1.004581e+03 5.945347e+01 -5.319079e+02
-1.971856e+09 -1.771859e+09 -1.931858e+09 1.025546e+03 1.610704e+01 -4.590042e+02
-2.101069e+09 -1.901072e+09 -2.061072e+09 1.020400e+03 5.320572e+01 -4.997230e+02
-1.697775e+09 -1.497778e+09 -1.657778e+09 9.668604e+02 8.083542e+01 -6.774073e+02
-1.888259e+09 -1.688263e+09 -1.848262e+09 9.606924e+02 8.714507e+01 -6.408820e+02
-1.771205e+09 -1.571208e+09 -1.731208e+09 9.074550e+02 1.010080e+02 -6.972834e+02
-1.681874e+09 -1.481878e+09 -1.641877e+09 1.023111e+03 2.388773e+01 -5.481036e+02
-1.641992e+09 -1.441995e+09 -1.601994e+09 1.132808e+03 5.245817e+01 -5.280983e+02
-1.854801e+09 -1.654804e+09 -1.814804e+09 1.082338e+03 3.793457e+01 -4.594102e+02
-1.580720e+09 -1.380724e+09 -1.540723e+09 9.840977e+02 4.609571e+01 -7.022764e+02
-1.540838e+09 -1.340841e+09 -1.500841e+09 1.006504e+03 1.151315e+02 -6.829859e+02
-1.540838e+09 -1.340841e+09 -1.500841e+09 1.020070e+03 1.324915e+02 -6.767922e+02
-1.880399e+09 -1.680402e+09 -1.840402e+09 6.272683e+02 6.972446e+01 -5.549405e+02
-2.135237e+09 -1.935241e+09 -2.095240e+09 5.668929e+02 1.217165e+02 -5.645376e+02
-2.006023e+09 -1.806027e+09 -1.966026e+09 5.542969e+02 1.402740e+02 -3.824290e+02
-1.763344e+09 -1.563347e+09 -1.723347e+09 5.403672e+02 2.479275e+01 -5.106310e+02
-1.888969e+09 -1.688972e+09 -1.848972e+09 4.845390e+02 4.072161e+01 -4.240817e+02
-1.787815e+09 -1.587819e+09 -1.747818e+09 4.489308e+02 2.706505e+00 -3.790073e+02
-1.855523e+09 -1.655526e+09 -1.815526e+09 1.167249e+03 -2.802478e+02 -8.803853e+02
-1.738468e+09 -1.538472e+09 -1.698471e+09 1.109627e+03 -1.942526e+02 -9.777853e+02
-1.508101e+09 -1.308105e+09 -1.468104e+09 1.187212e+03 -7.969017e+01 -1.019934e+03
-1.662190e+09 -1.462194e+09 -1.622193e+09 4.158535e+02 5.956529e+01 -4.568759e+02
-1.575006e+09 -1.375010e+09 -1.535009e+09 4.121000e+02 -4.463233e+01 -4.105196e+02
-1.575006e+09 -1.375009e+09 -1.535009e+09 7.902572e+01 7.261771e+01 -4.658112e+02
-1.501906e+09 -1.301910e+09 -1.461910e+09 7.399164e+01 1.115030e+02 -8.307077e+02
-1.688501e+09 -1.488505e+09 -1.648505e+09 9.061934e+01 1.066962e+02 -6.560439e+02
-1.775686e+09 -1.575690e+09 -1.735689e+09 4.527522e+02 6.496947e+01 -5.953538e+02
-1.607431e+09 -1.407436e+09 -1.567436e+09 1.660149e+02 1.617228e+01 -7.834243e+02
-1.817823e+09 -1.617828e+09 -1.777827e+09 1.609830e+02 4.668180e+01 -8.347045e+02
-1.898893e+09 -1.698898e+09 -1.858897e+09 1.392187e+02 5.987663e+01 -5.596150e+02
-1.494000e+09 -1.294006e+09 -1.454005e+09 1.246036e+03 -1.881491e+02 -2.410860e+03
-1.714351e+09 -1.514356e+09 -1.674355e+09 1.001440e+03 -3.026661e+02 -1.847466e+03
-1.822547e+09 -1.622552e+09 -1.782551e+09 1.010945e+03 -3.100553e+02 -1.807377e+03
-1.825152e+09 -1.625157e+09 -1.785156e+09 9.676142e+02 -1.248666e+02 -1.543629e+03
-1.716957e+09 -1.516961e+09 -1.676961e+09 9.333776e+02 -9.396159e+01 -1.624504e+03
-1.925266e+09 -1.725270e+09 -1.885269e+09 1.321477e+03 -2.192405e+02 -1.978753e+03
-1.932213e+09 -1.732218e+09 -1.892218e+09 5.403029e+02 6.433428e+01 -1.310837e+03
-2.047038e+09 -1.847043e+09 -2.007042e+09 6.337173e+02 5.291269e+01 -1.476114e+03
-2.169210e+09 -1.969215e+09 -2.129214e+09 5.377525e+02 9.140112e+01 -1.273484e+03
-1.937515e+09 -1.737519e+09 -1.897518e+09 5.613248e+02 -9.630573e+00 -1.217649e+03
-2.062356e+09 -1.862360e+09 -2.022359e+09 5.085170e+02 4.478019e+00 -1.223072e+03
-2.129261e+09 -1.929265e+09 -2.089264e+09 5.961404e+02 -5.702060e+01 -9.396794e+02
-1.944844e+09 -1.744848e+09 -1.904847e+09 7.888478e+02 -9.591029e+00 -1.143371e+03
-2.044957e+09 -1.844961e+09 -2.004960e+09 1.154195e+03 -1.175921e+02 -1.806057e+03
-2.167128e+09 -1.967132e+09 -2.127131e+09 1.191282e+03 -2.154319e+02 -1.097982e+03
-1.496606e+09 -1.296610e+09 -1.456610e+09 1.038075e+03 -9.176388e+01 -1.572748e+03
-1.496606e+09 -1.296610e+09 -1.456610e+09 1.251551e+03 -1.271047e+02 -1.643204e+03
-1.704915e+09 -1.504919e+09 -1.664918e+09 1.541040e+03 -2.461161e+02 -1.859067e+03
-1.822546e+09 -1.622552e+09 -1.782551e+09 -2.805834e+02 4.552918e+02 -2.005923e+03
-1.716954e+09 -1.516960e+09 -1.676959e+09 -2.915469e+02 2.888661e+02 -1.784768e+03
-1.496604e+09 -1.296609e+09 -1.456609e+09 -2.623010e+02 2.641744e+02 -1.761045e+03
-1.616297e+09 -1.416301e+09 -1.576301e+09 1.160743e+03 -5.486924e+01 -1.161328e+03
-1.946778e+09 -1.746781e+09 -1.906780e+09 1.194979e+03 -1.369108e+02 -1.119008e+03
-1.824606e+09 -1.624610e+09 -1.784609e+09 1.395895e+03 -1.352694e+02 -1.611544e+03
-1.812523e+09 -1.612528e+09 -1.772527e+09 2.036651e+02 8.520980e+01 -1.035597e+03
-1.706998e+09 -1.507002e+09 -1.667002e+09 -1.327016e+02 2.062377e+02 -1.124376e+03
-1.927349e+09 -1.727353e+09 -1.887352e+09 -1.509581e+02 2.231088e+02 -1.081256e+03
-1.493935e+09 -1.293940e+09 -1.453940e+09 1.428875e+02 -2.343943e+01 -8.081495e+02
-1.598802e+09 -1.398806e+09 -1.558806e+09 -2.753841e+02 1.313299e+02 -8.292442e+02
-1.704328e+09 -1.504332e+09 -1.664331e+09 1.142570e+02 7.353031e+01 -8.098418e+02
-2.011680e+09 -1.811686e+09 -1.971684e+09 5.994363e+02 7.454693e+01 -3.816002e+03
-2.166433e+09 -1.966440e+09 -2.126437e+09 4.284530e+02 -1.529026e+02 -3.717357e+03
-2.317672e+09 -2.117679e+09 -2.277676e+09 8.333618e+02 -8.253793e+01 -4.194676e+03
-2.044147e+09 -1.844155e+09 -2.004152e+09 2.787977e+02 8.850451e+01 -4.818868e+03
-2.199253e+09 -1.999260e+09 -2.159257e+09 7.248296e+02 -7.189506e+01 -4.309340e+03
-2.048014e+09 -1.848021e+09 -2.008017e+09 4.613478e+02 -4.682571e+02 -3.950121e+03
-1.611251e+09 -1.411258e+09 -1.571257e+09 1.210091e+03 -1.230938e+02 -2.673546e+03
-1.831603e+09 -1.631608e+09 -1.791608e+09 9.441209e+02 -2.228281e+02 -2.049893e+03
-1.981176e+09 -1.781181e+09 -1.941180e+09 1.517098e+03 -3.252648e+02 -2.513004e+03
-1.823056e+09 -1.623062e+09 -1.783061e+09 -1.970526e+02 1.939729e+02 -2.046485e+03
-1.717464e+09 -1.517470e+09 -1.677469e+09 -1.939394e+02 4.114364e+01 -1.777959e+03
-1.928651e+09 -1.728657e+09 -1.888656e+09 -3.745118e+02 2.333255e+02 -2.117656e+03
-1.882659e+09 -1.682665e+09 -1.842663e+09 8.539637e+02 -1.722883e+02 -3.174843e+03
-2.045667e+09 -1.845672e+09 -2.005671e+09 8.319958e+02 -1.081849e+02 -3.686038e+03
-1.923831e+09 -1.723837e+09 -1.883836e+09 4.959597e+02 -3.426308e+01 -3.801785e+03
-1.497113e+09 -1.297119e+09 -1.457118e+09 -2.310283e+02 -8.429061e+01 -1.712405e+03
-1.497114e+09 -1.297119e+09 -1.457118e+09 -1.298642e+03 4.174114e+02 -2.146448e+03
-1.708302e+09 -1.508306e+09 -1.668306e+09 -8.051321e+02 2.383905e+02 -1.488943e+03
-1.952077e+09 -1.752083e+09 -1.912083e+09 -8.362918e+01 2.544884e+02 -2.242461e+03
-2.057672e+09 -1.857679e+09 -2.017678e+09 -2.840275e+02 3.615913e+02 -2.566926e+03
-2.220973e+09 -2.020979e+09 -2.180977e+09 -3.238858e+02 2.074679e+02 -2.933404e+03
-1.626134e+09 -1.426140e+09 -1.586140e+09 -1.291214e+03 4.915524e+02 -2.431532e+03
-2.000624e+09 -1.800629e+09 -1.960628e+09 -1.294701e+03 4.871953e+02 -1.971150e+03
-1.837322e+09 -1.637328e+09 -1.797327e+09 -9.239509e+02 3.857517e+02 -1.861770e+03
-1.720738e+09 -1.520745e+09 -1.680743e+09 1.546575e+03 -1.758040e+02 -3.563867e+03
-1.582827e+09 -1.382834e+09 -1.542833e+09 1.377052e+03 -3.670715e+02 -3.190603e+03
-1.582827e+09 -1.382834e+09 -1.542833e+09 1.371623e+03 -1.791075e+02 -2.908434e+03
-1.837990e+09 -1.637998e+09 -1.797996e+09 1.544958e+03 -3.406828e+02 -3.387108e+03
-1.465574e+09 -1.265581e+09 -1.425580e+09 1.111721e+03 -1.723498e+02 -3.550157e+03
-1.465574e+09 -1.265581e+09 -1.425580e+09 1.340907e+03 -1.292043e+02 -3.508205e+03
-1.837992e+09 -1.637998e+09 -1.797996e+09 1.402050e+03 -1.741466e+02 -3.014209e+03
-1.720738e+09 -1.520745e+09 -1.680743e+09 1.134141e+03 5.274899e+01 -3.537561e+03
-1.960625e+09 -1.760630e+09 -1.920630e+09 1.918793e+02 1.891725e+01 -2.216867e+03
-2.264952e+09 -2.064957e+09 -2.224955e+09 5.254924e+02 -2.139272e+02 -2.573398e+03
-2.110198e+09 -1.910203e+09 -2.070201e+09 4.363360e+02 1.532353e+02 -2.788345e+03
-1.505307e+09 -1.305315e+09 -1.465313e+09 1.145362e+03 -2.391941e+02 -4.294077e+03
-1.785567e+09 -1.585574e+09 -1.745573e+09 1.104264e+03 -3.130736e+02 -4.390790e+03
-1.907402e+09 -1.707409e+09 -1.867407e+09 1.231844e+03 -3.084987e+02 -4.344164e+03
-1.926178e+09 -1.726185e+09 -1.886184e+09 -1.547014e+03 1.197181e+03 -3.535813e+03
-1.789434e+09 -1.589440e+09 -1.749439e+09 -1.343098e+03 4.789544e+02 -2.764707e+03
-1.517428e+09 -1.317434e+09 -1.477434e+09 -1.142768e+03 4.438688e+02 -2.850847e+03
-1.820774e+09 -1.620782e+09 -1.780781e+09 -2.538563e+03 1.213142e+03 -4.744232e+03
-2.001457e+09 -1.801463e+09 -1.961462e+09 -2.034823e+03 1.054865e+03 -4.033917e+03
-1.864709e+09 -1.664716e+09 -1.824716e+09 -3.791646e+03 1.148514e+03 -4.188046e+03
-1.922759e+09 -1.722766e+09 -1.882764e+09 -1.837492e+03 7.975707e+02 -4.950234e+03
-2.027468e+09 -1.827475e+09 -1.987473e+09 -1.605612e+03 1.361684e+03 -5.383865e+03
-2.197491e+09 -1.997498e+09 -2.157496e+09 -1.792557e+03 1.362653e+03 -3.904579e+03
-1.607290e+09 -1.407298e+09 -1.567297e+09 1.133749e+03 -9.520624e+01 -5.609730e+03
-1.887550e+09 -1.687558e+09 -1.847556e+09 1.172334e+03 -2.823414e+02 -5.422301e+03
-1.966684e+09 -1.766690e+09 -1.926688e+09 1.374631e+03 -5.034988e+02 -5.196724e+03
-1.880879e+09 -1.680888e+09 -1.840884e+09 -1.888495e+03 1.022680e+03 -8.463927e+03
-1.994278e+09 -1.794285e+09 -1.954282e+09 -1.212546e+03 5.909883e+02 -5.987130e+03
-1.889569e+09 -1.689576e+09 -1.849573e+09 -1.610864e+03 3.051759e+02 -5.716243e+03
-1.490384e+09 -1.290395e+09 -1.450394e+09 3.137685e+02 -2.174114e+02 -6.566586e+03
-1.490384e+09 -1.290395e+09 -1.450393e+09 1.202048e+03 -3.772940e+02 -7.746413e+03
-1.686417e+09 -1.486428e+09 -1.646424e+09 1.553752e+03 -9.254963e+02 -8.297513e+03
-1.787585e+09 -1.587593e+09 -1.747591e+09 -2.428570e+03 1.292689e+03 -5.587766e+03
-1.696259e+09 -1.496266e+09 -1.656265e+09 -3.108711e+03 8.360980e+02 -5.380737e+03
-1.491960e+09 -1.291967e+09 -1.451968e+09 -3.272461e+03 1.050555e+03 -5.424501e+03
-2.024295e+09 -1.824303e+09 -1.984301e+09 5.740493e+02 -2.244401e+02 -5.816458e+03
-2.273450e+09 -2.073458e+09 -2.233456e+09 9.532759e+02 -5.324080e+02 -4.886257e+03
-2.103427e+09 -1.903436e+09 -2.063432e+09 -2.755476e+01 -1.523339e+02 -6.273434e+03
-1.797157e+09 -1.597163e+09 -1.757162e+09 -1.557697e+03 1.289555e+03 -3.509689e+03
-1.660412e+09 -1.460418e+09 -1.620418e+09 -1.299574e+03 2.167926e+02 -3.006513e+03
-1.660412e+09 -1.460417e+09 -1.620416e+09 -3.085985e+03 1.348071e+03 -3.573323e+03
-1.490383e+09 -1.290394e+09 -1.450392e+09 5.763978e+02 -1.004952e+03 -7.221037e+03
-1.686419e+09 -1.486428e+09 -1.646424e+09 5.868663e+02 -1.169067e+03 -7.698312e+03
-1.777323e+09 -1.577332e+09 -1.737329e+09 -1.517261e+03 7.953999e+01 -7.679742e+03
-1.787039e+09 -1.587049e+09 -1.747044e+09 -2.442081e+03 2.319348e+03 -1.140686e+04
-1.918910e+09 -1.718920e+09 -1.878914e+09 -2.802253e+03 1.892348e+03 -1.068682e+04
-1.807208e+09 -1.607218e+09 -1.767213e+09 -2.919120e+03 2.255913e+03 -1.092714e+04
-1.807962e+09 -1.607967e+09 -1.767969e+09 -4.139165e+03 2.466369e+03 -5.305157e+03
-1.704407e+09 -1.504408e+09 -1.664411e+09 -6.243813e+03 3.899757e+03 -6.481418e+03
-1.927183e+09 -1.727184e+09 -1.887185e+09 -6.375772e+03 3.963443e+03 -6.345484e+03
-1.837265e+09 -1.637269e+09 -1.797265e+09 -5.658697e+03 4.199979e+03 -9.090715e+03
-1.722883e+09 -1.522885e+09 -1.682884e+09 -5.269060e+03 3.247121e+03 -7.431128e+03
-1.500108e+09 -1.300109e+09 -1.460110e+09 -5.052009e+03 3.327811e+03 -7.612887e+03
-1.491962e+09 -1.291965e+09 -1.451967e+09 -4.211978e+03 2.139780e+03 -4.993349e+03
-1.592704e+09 -1.392706e+09 -1.552706e+09 -6.200715e+03 3.849883e+03 -5.261783e+03
-1.696261e+09 -1.496265e+09 -1.656265e+09 -3.729595e+03 2.319682e+03 -4.313992e+03
-1.890600e+09 -1.690607e+09 -1.850603e+09 -2.129226e+03 1.267257e+03 -9.296441e+03
-2.003996e+09 -1.804003e+09 -1.964001e+09 -8.635000e+02 4.096873e+02 -6.569713e+03
-2.123216e+09 -1.923222e+09 -2.083219e+09 -1.060084e+03 5.621370e+02 -7.497436e+03
-1.675335e+09 -1.475348e+09 -1.635345e+09 -1.074538e+03 1.096189e+03 -1.106680e+04
-1.584430e+09 -1.384442e+09 -1.544440e+09 -1.226448e+03 6.727376e+02 -1.088355e+04
-1.584430e+09 -1.384443e+09 -1.544440e+09 1.093131e+03 -7.117697e+02 -1.103901e+04
-1.502781e+09 -1.302789e+09 -1.462781e+09 -2.597320e+03 1.135631e+03 -1.374930e+04
-1.725563e+09 -1.525566e+09 -1.685564e+09 -4.132660e+03 7.794259e+02 -8.807820e+03
-1.837266e+09 -1.637268e+09 -1.797265e+09 -3.639848e+03 4.959870e+02 -8.653255e+03
-1.811210e+09 -1.611210e+09 -1.771206e+09 -6.079791e+03 5.902134e+03 -8.469933e+03
-1.696827e+09 -1.496825e+09 -1.656825e+09 -5.521834e+03 4.846634e+03 -7.321802e+03
-1.876622e+09 -1.676623e+09 -1.836618e+09 -4.738827e+03 3.991177e+03 -6.468152e+03
-1.610277e+09 -1.410279e+09 -1.570269e+09 -5.816053e+02 1.624655e+03 -1.350443e+04
-1.833053e+09 -1.633054e+09 -1.793051e+09 -3.003038e+03 1.198051e+03 -9.013019e+03
-1.922456e+09 -1.722454e+09 -1.882453e+09 -3.431760e+03 -5.108287e+02 -9.412399e+03
-1.474056e+09 -1.274047e+09 -1.434057e+09 -5.841506e+03 3.984192e+03 -3.147923e+03
-1.474053e+09 -1.274041e+09 -1.434051e+09 -7.010575e+03 7.249397e+03 -3.792402e+03
-1.653849e+09 -1.453838e+09 -1.613846e+09 -5.958355e+03 4.498477e+03 -2.347895e+03
-1.495883e+09 -1.295889e+09 -1.455878e+09 -3.189216e+03 5.288844e+02 -1.508001e+04
-1.495881e+09 -1.295889e+09 -1.455873e+09 3.820253e+02 1.756409e+02 -2.020361e+04
-1.699666e+09 -1.499675e+09 -1.659669e+09 -3.525329e+03 -7.492081e+00 -1.480946e+04
-1.876580e+09 -1.676570e+09 -1.836567e+09 -3.005376e+03 6.066851e+03 -1.001226e+04
-1.971966e+09 -1.771950e+09 -1.931950e+09 -2.970973e+03 5.503949e+03 -6.136881e+03
-1.853817e+09 -1.653807e+09 -1.813813e+09 -4.276446e+03 4.570349e+03 -4.017526e+03
-1.495890e+09 -1.295878e+09 -1.455882e+09 -4.319651e+03 -1.105795e+03 -9.545684e+03
-1.699682e+09 -1.499668e+09 -1.659672e+09 -2.172092e+03 1.113108e+03 -1.149960e+04
-1.784100e+09 -1.584093e+09 -1.744088e+09 -2.925571e+03 5.197634e+03 -1.008910e+04
-1.918696e+09 -1.718698e+09 -1.878696e+09 -6.434319e+03 6.921803e+03 -9.995901e+03
-1.984105e+09 -1.784109e+09 -1.944105e+09 -6.139247e+03 5.804391e+03 -8.540125e+03
-2.102250e+09 -1.902251e+09 -2.062243e+09 -5.917947e+03 4.673310e+03 -1.035230e+04
-1.746328e+09 -1.546315e+09 -1.706326e+09 -5.794610e+03 4.809629e+03 -3.448316e+03
-1.653856e+09 -1.453841e+09 -1.613848e+09 -2.320055e+03 3.753360e+03 -2.086193e+03
-1.474062e+09 -1.274044e+09 -1.434054e+09 -2.104195e+03 5.515414e+03 -2.969105e+03
-1.981703e+09 -1.781691e+09 -1.941691e+09 -3.418366e+03 5.588520e+03 -7.281388e+03
-2.149036e+09 -1.949028e+09 -2.109035e+09 -5.586031e+00 2.649260e+03 -2.636696e+03
-2.255719e+09 -2.055713e+09 -2.215720e+09 -8.142546e+03 -3.563126e+03 -5.105854e+03
-1.798048e+09 -1.598037e+09 -1.758044e+09 -6.791082e+03 4.943877e+03 -2.578331e+03
-1.705573e+09 -1.505568e+09 -1.665571e+09 -1.959653e+03 3.073228e+02 -8.268206e+02
-1.976539e+09 -1.776534e+09 -1.936535e+09 -2.493451e+03 2.034432e+03 -1.208716e+03
-1.944802e+09 -1.744797e+09 -1.904795e+09 -2.513219e+03 2.766514e+03 -1.330994e+04
-2.044958e+09 -1.844952e+09 -2.004950e+09 -5.619551e+03 4.997816e+03 -1.256836e+04
-2.231515e+09 -2.031509e+09 -2.191511e+09 -3.295643e+03 2.384407e+03 -6.671157e+03
-2.013351e+09 -1.813331e+09 -1.973358e+09 -3.905904e+03 5.725448e+03 2.343156e+03
-2.076364e+09 -1.876350e+09 -2.036374e+09 -5.468183e+03 4.670990e+03 3.800861e+03
-2.225115e+09 -2.025092e+09 -2.185118e+09 -4.209814e+03 7.831746e+02 -3.445403e+02
-1.956990e+09 -1.756972e+09 -1.916999e+09 -3.682417e+03 -2.429694e+03 -2.701097e+03
-2.066052e+09 -1.866026e+09 -2.026057e+09 9.712096e+02 -4.628273e+03 4.547406e+03
-1.917297e+09 -1.717281e+09 -1.877312e+09 -5.807558e+02 -2.117526e+03 6.726068e+03
-1.479740e+09 -1.279708e+09 -1.439768e+09 -8.223420e+03 -4.686795e+03 4.463676e+03
-1.723769e+09 -1.523763e+09 -1.683781e+09 -8.970714e+03 6.882631e+03 -1.118791e+04
-1.845094e+09 -1.645077e+09 -1.805101e+09 -5.026549e+03 1.490191e+03 -2.636393e+03
-1.906453e+09 -1.706449e+09 -1.866443e+09 -3.410634e+03 4.223440e+03 -8.098374e+03
-2.001838e+09 -1.801829e+09 -1.961828e+09 -2.910706e+03 3.508383e+03 -4.313599e+03
-2.180326e+09 -1.980319e+09 -2.140320e+09 -2.596299e+03 4.335614e+02 -9.116502e+02
-1.892046e+09 -1.692027e+09 -1.852044e+09 -2.915404e+02 2.118076e+03 5.632025e+03
-1.754681e+09 -1.554661e+09 -1.714679e+09 9.407967e+02 2.575732e+03 5.807528e+03
-1.955060e+09 -1.755048e+09 -1.915063e+09 -1.237218e+03 9.316878e+01 5.292714e+03
-1.492027e+09 -1.292007e+09 -1.452034e+09 -8.601638e+03 6.831341e+03 -1.431560e+04
-1.492023e+09 -1.292020e+09 -1.452015e+09 1.650120e+02 -5.225630e+03 -2.096810e+04
-1.723011e+09 -1.523010e+09 -1.683011e+09 -2.044192e+02 -9.235654e+02 -2.095952e+04
-1.943689e+09 -1.743678e+09 -1.903685e+09 -8.182597e+03 1.581143e+02 -1.317144e+04
-1.696967e+09 -1.496959e+09 -1.656960e+09 -4.656395e+03 2.473054e+03 -1.483342e+04
-1.927952e+09 -1.727945e+09 -1.887946e+09 -4.457483e+03 6.100473e+02 -1.462869e+04
-2.028106e+09 -1.828098e+09 -1.988103e+09 -7.945408e+03 3.482246e+03 -1.347891e+04
-1.797121e+09 -1.597115e+09 -1.757114e+09 -9.351573e+03 3.097489e+03 -1.165022e+04
-1.712703e+09 -1.512691e+09 -1.672698e+09 -8.922814e+03 -1.352815e+03 -1.254879e+04
-1.612550e+09 -1.412539e+09 -1.572545e+09 -6.252088e+03 -1.632770e+03 -1.077972e+04
-1.843535e+09 -1.643522e+09 -1.803532e+09 -6.945599e+03 -6.131998e+02 -1.245155e+04
-1.525783e+09 -1.325758e+09 -1.485778e+09 -8.607641e+02 3.926696e+03 4.915173e+03
-1.659388e+09 -1.459366e+09 -1.619384e+09 6.754945e+02 2.573340e+03 5.587896e+03
-1.796753e+09 -1.596731e+09 -1.756748e+09 -3.186858e+02 2.128438e+03 5.497141e+03
-1.999227e+09 -1.799243e+09 -1.959228e+09 -1.407425e+04 3.618771e+03 -1.710336e+04
-1.749154e+09 -1.549148e+09 -1.709150e+09 -2.565069e+03 -4.017074e+02 -9.952256e+03
-1.627836e+09 -1.427823e+09 -1.587834e+09 -1.385217e+04 9.465692e+03 -1.168574e+04
-1.858824e+09 -1.658834e+09 -1.818815e+09 -8.074488e+03 7.897990e+03 -1.608526e+04
-1.889560e+09 -1.689558e+09 -1.849558e+09 -1.240666e+04 1.214301e+03 -1.166257e+04
-1.768244e+09 -1.568256e+09 -1.728247e+09 -1.641537e+04 5.948114e+03 -1.547660e+04
-1.980131e+09 -1.780125e+09 -1.940121e+09 -6.397100e+03 9.235715e+03 -1.411219e+04
-2.120538e+09 -1.920539e+09 -2.080534e+09 -1.393350e+04 2.782902e+03 -1.518898e+04
-1.795985e+09 -1.595967e+09 -1.755995e+09 -1.279295e+03 -5.851717e+03 7.475013e+03
-1.684107e+09 -1.484092e+09 -1.644111e+09 9.010790e+03 -1.155712e+04 1.282392e+04
-1.483725e+09 -1.283700e+09 -1.443722e+09 9.922240e+03 -5.559024e+03 1.150204e+04
-1.591525e+09 -1.391501e+09 -1.551571e+09 -2.489265e+04 -7.388050e+03 -7.062795e+03
-1.835570e+09 -1.635564e+09 -1.795580e+09 -1.535717e+04 7.099289e+03 -1.735221e+04
-1.988332e+09 -1.788323e+09 -1.948351e+09 -2.384878e+04 8.552224e+03 -2.173214e+04
-1.964539e+09 -1.764506e+09 -1.924556e+09 -3.401313e+03 -8.150576e+03 -1.828667e+03
-2.051098e+09 -1.851060e+09 -2.011114e+09 -9.709820e+03 -3.893471e+03 -2.438510e+02
-1.918879e+09 -1.718850e+09 -1.878912e+09 -9.773917e+03 -3.277137e+03 4.539689e+03
-1.947477e+09 -1.747459e+09 -1.907486e+09 -1.106620e+04 -5.706704e+02 -9.933015e+03
-2.056523e+09 -1.856513e+09 -2.016544e+09 -7.213498e+03 -5.813508e+03 -4.774187e+03
-2.188745e+09 -1.988726e+09 -2.148752e+09 -9.458411e+03 -6.726559e+03 -8.154986e+03
-1.500197e+09 -1.300115e+09 -1.460255e+09 -2.795643e+04 5.807428e+03 -2.165002e+04
-1.500187e+09 -1.300150e+09 -1.460174e+09 -3.049573e+04 1.444987e+03 -2.443570e+04
-1.744306e+09 -1.544278e+09 -1.704281e+09 -2.067101e+04 1.341704e+04 -3.511056e+04
-1.500192e+09 -1.300116e+09 -1.460266e+09 -2.314318e+04 1.647630e+04 -1.605013e+04
-1.744308e+09 -1.544222e+09 -1.704342e+09 -7.363044e+03 3.480588e+04 -1.432445e+04
-1.858158e+09 -1.658139e+09 -1.818169e+09 5.363966e+03 -5.218895e+03 -6.358365e+03
-1.700693e+09 -1.500667e+09 -1.660702e+09 1.336778e+03 -5.579656e+03 1.173093e+04
-1.588810e+09 -1.388792e+09 -1.548815e+09 1.035436e+04 -1.023746e+04 1.413846e+04
-1.588812e+09 -1.388806e+09 -1.548820e+09 1.569080e+04 -1.372262e+04 1.523063e+04
-1.807076e+09 -1.607054e+09 -1.767092e+09 -6.755416e+03 -6.970558e+03 1.005911e+04
-1.695190e+09 -1.495191e+09 -1.655208e+09 4.892796e+03 -1.544476e+04 1.247306e+04
-1.494816e+09 -1.294817e+09 -1.454842e+09 1.808409e+04 -3.067380e+04 1.775587e+04
-1.966318e+09 -1.766308e+09 -1.926350e+09 1.067622e+03 -1.687150e+04 -4.873696e+02
-2.052882e+09 -1.852860e+09 -2.012913e+09 -1.329052e+02 -1.376683e+04 5.250620e+03
-2.150060e+09 -1.950045e+09 -2.110090e+09 -1.618806e+03 -1.962713e+04 3.709741e+03
-1.608405e+09 -1.408409e+09 -1.568432e+09 1.549188e+04 -3.386929e+04 1.630385e+04
-1.905950e+09 -1.705950e+09 -1.865964e+09 4.734628e+03 -1.412536e+04 1.038280e+04
-1.808772e+09 -1.608764e+09 -1.768787e+09 5.610781e+03 -1.042812e+04 1.155772e+04
-1.961166e+09 -1.761150e+09 -1.921189e+09 -5.967316e+03 -1.768950e+04 3.332495e+03
-2.050903e+09 -1.850891e+09 -2.010936e+09 -4.003914e+03 -2.001655e+04 4.849988e+03
-2.144878e+09 -1.944863e+09 -2.104908e+09 -8.744302e+03 -2.469831e+04 1.590672e+03
-1.806791e+09 -1.606774e+09 -1.766825e+09 -1.375867e+03 -2.344158e+04 3.801937e+03
-1.693198e+09 -1.493245e+09 -1.653264e+09 -2.966363e+04 -4.456048e+04 -7.474863e+03
-1.900765e+09 -1.700778e+09 -1.860798e+09 -1.377019e+04 -2.643529e+04 -5.842304e+03
-1.502009e+09 -1.302028e+09 -1.462042e+09 1.646230e+04 -3.156832e+04 1.492979e+04
-1.591990e+09 -1.392026e+09 -1.552013e+09 1.861949e+04 -2.187171e+04 1.048659e+04
-1.705560e+09 -1.505549e+09 -1.665585e+09 1.407236e+04 -1.665981e+04 1.308891e+04
-1.490295e+09 -1.290200e+09 -1.450390e+09 -1.486771e+04 7.635888e+03 -4.278467e+04
-1.697843e+09 -1.497777e+09 -1.657878e+09 -2.949416e+04 2.233321e+04 -4.897594e+04
-1.799060e+09 -1.599072e+09 -1.759093e+09 -6.451354e+03 -9.134622e+03 -4.291787e+03
-1.697206e+09 -1.497180e+09 -1.657217e+09 -7.263009e+03 -1.561325e+04 -2.718203e+03
-1.595968e+09 -1.395836e+09 -1.556006e+09 -1.752247e+04 2.952867e+04 -3.284128e+04
-1.595976e+09 -1.395866e+09 -1.555994e+09 -3.653478e+04 2.639320e+04 -2.140885e+04
-1.847570e+09 -1.647566e+09 -1.807593e+09 -1.125755e+04 -8.287577e+03 -4.322607e+03
-1.941297e+09 -1.741281e+09 -1.901318e+09 -1.697032e+04 -9.091675e+03 -6.836514e+03
-1.840038e+09 -1.639960e+09 -1.800094e+09 -4.286082e+04 2.896015e+04 -2.829806e+04
-1.799064e+09 -1.599066e+09 -1.759111e+09 -5.212238e+03 -2.833071e+04 -2.904961e+02
-1.697196e+09 -1.497221e+09 -1.657252e+09 5.058915e+03 -4.109406e+04 1.039395e+03
-1.489650e+09 -1.289698e+09 -1.449731e+09 3.195794e+03 -6.576647e+04 9.592220e+03
-1.972721e+09 -1.772712e+09 -1.932744e+09 -1.139876e+04 -1.830734e+04 -1.039752e+04
-2.073124e+09 -1.873109e+09 -2.033142e+09 -5.610459e+03 -1.476359e+04 -7.512969e+03
-2.182129e+09 -1.982103e+09 -2.142141e+09 -5.422566e+03 -1.894770e+04 -8.575437e+03
-1.871664e+09 -1.671661e+09 -1.831696e+09 -1.945995e+04 -2.365794e+04 -5.956074e+03
-1.746588e+09 -1.546621e+09 -1.706624e+09 -2.021680e+04 -3.337606e+04 -6.148296e+03
-1.972085e+09 -1.772094e+09 -1.932109e+09 -7.618937e+03 -2.475986e+04 -4.147422e+03
-1.822925e+09 -1.622915e+09 -1.782958e+09 -3.457584e+03 -1.950744e+04 1.689492e+03
-1.721060e+09 -1.521078e+09 -1.681100e+09 3.260229e+03 -3.502539e+04 1.108602e+03
-1.990311e+09 -1.790312e+09 -1.950348e+09 1.151564e+03 -1.951523e+04 1.561504e+03
-1.618665e+09 -1.418571e+09 -1.578719e+09 6.242275e+03 1.510100e+04 -9.690440e+03
-1.826209e+09 -1.626147e+09 -1.786197e+09 -6.352476e+03 3.112409e+04 -1.417714e+04
-1.945048e+09 -1.745006e+09 -1.905007e+09 -2.379246e+03 2.592163e+04 -5.369573e+03
-1.815758e+09 -1.615736e+09 -1.775788e+09 1.266496e+03 -1.621823e+04 -2.616910e+02
-1.714705e+09 -1.514641e+09 -1.674722e+09 1.349154e+04 1.991481e+04 -4.009864e+03
-1.935431e+09 -1.735401e+09 -1.895427e+09 -1.664148e+02 7.336168e+03 2.440812e+03
-1.893049e+09 -1.693032e+09 -1.853070e+09 -8.030905e+03 -1.610802e+04 -1.171297e+04
-2.022868e+09 -1.822847e+09 -1.982887e+09 -8.530526e+03 -1.252266e+04 -8.812661e+03
-1.913860e+09 -1.713849e+09 -1.873884e+09 -8.120706e+03 -1.070214e+04 -9.125761e+03
-1.516814e+09 -1.316773e+09 -1.476837e+09 -9.070342e+02 3.530502e+02 -1.483958e+04
-1.516800e+09 -1.316696e+09 -1.476844e+09 -4.926086e+03 2.247934e+04 -9.003698e+03
-1.737507e+09 -1.537466e+09 -1.697482e+09 4.157769e+03 2.014574e+04 1.040430e+04
-1.812818e+09 -1.612814e+09 -1.772836e+09 -1.149244e+04 -1.739485e+04 -7.243796e+03
-1.702817e+09 -1.502829e+09 -1.662842e+09 -1.038864e+04 -2.160560e+04 -8.401646e+03
-1.477329e+09 -1.277363e+09 -1.437366e+09 -1.448394e+04 -3.846340e+04 -5.864140e+03
-1.513510e+09 -1.313547e+09 -1.473545e+09 -2.216167e+03 -4.055967e+04 -6.198483e+03
-1.657677e+09 -1.457713e+09 -1.617713e+09 7.234645e+02 -3.531129e+04 -5.360421e+03
-1.782756e+09 -1.582765e+09 -1.742789e+09 4.367926e+02 -2.685876e+04 -5.321246e+03
-2.012180e+09 -1.812149e+09 -1.972215e+09 -5.796469e+03 -7.289333e+02 -2.927466e+03
-2.085012e+09 -1.884976e+09 -2.045033e+09 -2.460446e+03 -9.538294e+02 6.194314e+02
-2.204696e+09 -2.004664e+09 -2.164726e+09 -4.396945e+03 5.207440e+03 3.284917e+03
-1.484103e+09 -1.284068e+09 -1.444108e+09 -8.531287e+02 2.049862e+03 -2.543968e+04
-1.682018e+09 -1.481988e+09 -1.641975e+09 -1.053635e+04 5.083627e+03 -2.140552e+04
-1.783055e+09 -1.583058e+09 -1.743067e+09 -6.384787e+03 -1.844949e+04 -1.070206e+04
-1.951328e+09 -1.751287e+09 -1.911358e+09 -1.141504e+04 -1.509064e+04 -1.969404e+04
-2.118703e+09 -1.918661e+09 -2.078720e+09 -8.158862e+03 -6.147703e+03 -1.411395e+04
-2.214339e+09 -2.014301e+09 -2.174362e+09 -4.981184e+03 6.079743e+02 -1.771032e+04
-1.792017e+09 -1.591995e+09 -1.752030e+09 -1.226216e+04 -1.540987e+04 -1.315933e+04
-1.921825e+09 -1.721805e+09 -1.881844e+09 -7.494961e+03 -1.324898e+04 -1.161392e+04
-1.811838e+09 -1.611810e+09 -1.771847e+09 -1.203624e+04 -1.487228e+04 -1.169346e+04
-1.513883e+09 -1.313861e+09 -1.473890e+09 -1.095565e+04 -1.348723e+04 -1.490486e+04
-1.739375e+09 -1.539347e+09 -1.699385e+09 -8.785242e+03 -1.800738e+04 -1.426123e+04
-1.849370e+09 -1.649353e+09 -1.809387e+09 -9.532765e+03 -1.400833e+04 -1.169438e+04
-1.723905e+09 -1.523909e+09 -1.683921e+09 -1.551466e+04 -1.869775e+04 -1.189602e+04
-1.613909e+09 -1.413935e+09 -1.573931e+09 -1.563152e+04 -2.476058e+04 -1.225453e+04
-1.613908e+09 -1.413933e+09 -1.573931e+09 -1.284737e+04 -2.501802e+04 -1.120978e+04
-1.849371e+09 -1.649373e+09 -1.809383e+09 -1.026805e+04 -1.976519e+04 -7.281559e+03
-1.739380e+09 -1.539396e+09 -1.699394e+09 -1.248237e+04 -2.526863e+04 -8.146629e+03
-1.513884e+09 -1.313901e+09 -1.473898e+09 -1.388666e+04 -2.339659e+04 -9.701236e+03
-1.644930e+09 -1.444913e+09 -1.604928e+09 -3.503494e+03 8.521564e+03 -5.937882e+02
-1.542705e+09 -1.342685e+09 -1.502706e+09 -1.283809e+04 -1.247682e+04 -1.188943e+04
-1.542688e+09 -1.342667e+09 -1.502715e+09 -2.467214e+02 -7.528257e+02 -2.934876e+03
-1.740600e+09 -1.540590e+09 -1.700602e+09 -4.712821e+03 3.421719e+03 4.973316e+03
-1.447036e+09 -1.247023e+09 -1.407058e+09 -1.454749e+04 -2.322125e+04 -1.215093e+04
-1.447014e+09 -1.246985e+09 -1.407014e+09 -3.252726e+03 4.947964e+03 -4.126750e+03
-1.740609e+09 -1.540593e+09 -1.700610e+09 -6.345200e+03 -4.242330e+03 -5.372113e+03
-1.644931e+09 -1.444914e+09 -1.604931e+09 -8.142329e+03 -6.953099e+03 -5.508433e+02
-1.848509e+09 -1.648503e+09 -1.808516e+09 -7.259070e+03 -1.123626e+04 -8.264362e+03
-2.063120e+09 -1.863116e+09 -2.023126e+09 -6.227256e+03 -6.479092e+03 -7.086609e+03
-2.175133e+09 -1.975128e+09 -2.135143e+09 -4.466697e+03 -9.054733e+03 -7.240924e+03
-1.723050e+09 -1.523049e+09 -1.683053e+09 -8.511207e+03 -1.090995e+04 -8.271409e+03
-1.671471e+09 -1.471473e+09 -1.631472e+09 -1.128280e+04 -1.220579e+04 -8.918625e+03
-1.937663e+09 -1.737662e+09 -1.897665e+09 -7.861001e+03 -8.238727e+03 -8.007311e+03
-1.735028e+09 -1.535023e+09 -1.695037e+09 -9.007550e+03 -1.258324e+04 -8.669617e+03
-1.908935e+09 -1.708931e+09 -1.868946e+09 -5.986374e+03 -1.153993e+04 -5.994390e+03
-1.683437e+09 -1.483435e+09 -1.643451e+09 -4.001925e+03 -1.274977e+04 -7.141480e+03
-1.609571e+09 -1.409569e+09 -1.569576e+09 -1.138432e+04 -1.318547e+04 -9.943184e+03
-1.557987e+09 -1.357994e+09 -1.517992e+09 -1.179996e+04 -1.231786e+04 -8.090729e+03
-1.557987e+09 -1.357992e+09 -1.517992e+09 -1.077539e+04 -1.164990e+04 -8.158030e+03
-2.008413e+09 -1.808402e+09 -1.968414e+09 -5.613556e+03 -5.700379e+03 -7.091275e+03
-2.113905e+09 -1.913892e+09 -2.073908e+09 -4.114947e+03 -6.256150e+03 -8.841642e+03
-2.224542e+09 -2.024528e+09 -2.184550e+09 -1.920991e+03 -9.353364e+03 -9.797041e+03
-1.904381e+09 -1.704378e+09 -1.864384e+09 -7.235670e+03 -8.580124e+03 -6.621074e+03
-1.768096e+09 -1.568095e+09 -1.728100e+09 -7.328416e+03 -8.644315e+03 -6.703043e+03
-1.501904e+09 -1.301907e+09 -1.461907e+09 -9.775551e+03 -1.277850e+04 -7.632430e+03
-1.963207e+09 -1.763195e+09 -1.923211e+09 -4.507597e+03 -6.735053e+03 -9.328262e+03
-2.124730e+09 -1.924717e+09 -2.084732e+09 -4.618484e+03 -6.093983e+03 -9.003437e+03
-2.019234e+09 -1.819225e+09 -1.979238e+09 -4.843541e+03 -5.887424e+03 -7.277495e+03
-1.493097e+09 -1.293081e+09 -1.453094e+09 -6.169087e+03 -4.333566e+03 -7.826553e+03
-1.712069e+09 -1.512052e+09 -1.672068e+09 -5.077396e+03 -5.358619e+03 -8.156953e+03
-1.826923e+09 -1.626911e+09 -1.786923e+09 -4.118787e+03 -4.989781e+03 -9.238239e+03
-1.628735e+09 -1.428716e+09 -1.588741e+09 -9.646816e+02 -6.500240e+03 -1.218125e+04
-1.958342e+09 -1.758329e+09 -1.918345e+09 1.713500e+02 -3.159983e+03 -7.677086e+03
-1.847706e+09 -1.647695e+09 -1.807702e+09 -2.793098e+03 -1.686445e+03 -7.358567e+03
-1.665427e+09 -1.465412e+09 -1.625428e+09 -3.448941e+03 -2.523004e+02 -6.122141e+03
-1.561312e+09 -1.361298e+09 -1.521311e+09 -6.596238e+03 -4.457187e+03 -8.728294e+03
-1.561307e+09 -1.361291e+09 -1.521321e+09 -1.426739e+03 -6.551734e+03 -9.635634e+03
-1.780279e+09 -1.580270e+09 -1.740283e+09 -3.182839e+03 -1.564293e+03 -4.962805e+03
-1.446459e+09 -1.246446e+09 -1.406461e+09 -6.465001e+03 -6.528789e+03 -8.182384e+03
-1.446455e+09 -1.246435e+09 -1.406458e+09 -3.508988e+03 -1.956625e+03 -7.713734e+03
-1.780279e+09 -1.580269e+09 -1.740281e+09 -2.609800e+03 -2.657774e+03 -6.781380e+03
-1.665427e+09 -1.465412e+09 -1.625427e+09 -4.346189e+03 -2.477963e+03 -6.007837e+03
-1.955197e+09 -1.755185e+09 -1.915198e+09 -1.950120e+03 -4.509538e+03 -7.067990e+03
-2.116718e+09 -1.916706e+09 -2.076719e+09 -1.585833e+03 -4.062670e+03 -6.109204e+03
-2.176480e+09 -1.976471e+09 -2.136481e+09 -2.786292e+02 -1.595712e+03 -4.184286e+03
-1.931327e+09 -1.731320e+09 -1.891329e+09 -4.895715e+03 -6.068278e+03 -5.207015e+03
-1.795043e+09 -1.595037e+09 -1.755045e+09 -5.492529e+03 -5.956977e+03 -5.440327e+03
-2.058608e+09 -1.858598e+09 -2.018611e+09 -3.607930e+03 -5.025098e+03 -4.209348e+03
-2.038176e+09 -1.838166e+09 -1.998176e+09 -4.155254e+03 -6.246325e+03 -6.187089e+03
-2.165455e+09 -1.965448e+09 -2.125458e+09 -2.936823e+03 -4.485487e+03 -4.418899e+03
-2.221075e+09 -2.021068e+09 -2.181076e+09 -2.138146e+03 -4.359524e+03 -4.787851e+03
-1.599941e+09 -1.399928e+09 -1.559939e+09 -1.348502e+03 -2.933983e+03 -6.206722e+03
-1.818914e+09 -1.618900e+09 -1.778914e+09 -1.286135e+03 -3.473851e+03 -7.019391e+03
-1.910284e+09 -1.710278e+09 -1.870286e+09 -2.191740e+02 -2.457506e+03 -4.671572e+03
-1.495267e+09 -1.295258e+09 -1.455264e+09 -3.469032e+03 -1.836824e+03 -4.109724e+03
-1.495266e+09 -1.295254e+09 -1.455269e+09 -1.731102e+03 -2.628060e+03 -5.629395e+03
-1.691314e+09 -1.491305e+09 -1.651315e+09 -2.363347e+03 -4.132599e+02 -3.250730e+03
-1.767802e+09 -1.567793e+09 -1.727800e+09 -3.729636e+03 -2.950386e+03 -4.784852e+03
-1.691315e+09 -1.491306e+09 -1.651313e+09 -3.299861e+03 -2.549973e+03 -4.679080e+03
-1.495267e+09 -1.295257e+09 -1.455263e+09 -3.594324e+03 -2.979557e+03 -4.702012e+03
-1.528850e+09 -1.328849e+09 -1.488849e+09 -5.792456e+03 -6.433528e+03 -4.880204e+03
-1.792414e+09 -1.592413e+09 -1.752414e+09 -4.520722e+03 -5.292718e+03 -3.772325e+03
-1.901275e+09 -1.701273e+09 -1.861275e+09 -4.554681e+03 -5.010653e+03 -4.059922e+03
-2.008122e+09 -1.808115e+09 -1.968122e+09 -4.457694e+03 -3.931879e+03 -4.843507e+03
-2.063743e+09 -1.863735e+09 -2.023741e+09 -3.785925e+03 -3.925837e+03 -4.938130e+03
-1.876663e+09 -1.676656e+09 -1.836662e+09 -3.930643e+03 -3.997494e+03 -4.918134e+03
-1.528850e+09 -1.328849e+09 -1.488848e+09 -7.997020e+03 -5.856411e+03 -5.998261e+03
-1.792415e+09 -1.592411e+09 -1.752412e+09 -7.461399e+03 -3.549076e+03 -5.200885e+03
-1.528849e+09 -1.328848e+09 -1.488846e+09 -8.014543e+03 -5.888014e+03 -7.170925e+03
-1.862988e+09 -1.662982e+09 -1.822986e+09 -3.301208e+03 -3.810437e+03 -3.395048e+03
-1.754127e+09 -1.554121e+09 -1.714125e+09 -3.726516e+03 -4.056957e+03 -3.383736e+03
-1.958565e+09 -1.758558e+09 -1.918564e+09 -2.888639e+03 -3.699926e+03 -2.942239e+03
-1.781964e+09 -1.581955e+09 -1.741962e+09 -1.379788e+03 -1.968414e+03 -3.601176e+03
-1.931547e+09 -1.731543e+09 -1.891546e+09 -7.546441e+02 -2.083584e+03 -2.499202e+03
-1.810537e+09 -1.610530e+09 -1.770536e+09 1.528893e+02 -1.133711e+03 -2.999586e+03
-1.983999e+09 -1.783993e+09 -1.943996e+09 -2.891733e+03 -3.754543e+03 -3.532033e+03
-2.079577e+09 -1.879571e+09 -2.039576e+09 -2.089808e+03 -3.040885e+03 -3.162120e+03
-2.203506e+09 -2.003500e+09 -2.163504e+09 -1.788310e+03 -2.654733e+03 -3.405877e+03
-1.490562e+09 -1.290558e+09 -1.450559e+09 -5.097883e+03 -2.665134e+03 -3.204983e+03
-1.695002e+09 -1.494997e+09 -1.654998e+09 -4.778068e+03 -2.117377e+03 -2.587508e+03
-1.490562e+09 -1.290558e+09 -1.450558e+09 -5.045514e+03 -2.765990e+03 -3.452431e+03
-1.890824e+09 -1.690817e+09 -1.850823e+09 -1.693808e+03 -2.317347e+03 -3.695893e+03
-2.077904e+09 -1.877896e+09 -2.037902e+09 -1.566593e+03 -2.561183e+03 -3.431335e+03
-2.195113e+09 -1.995107e+09 -2.155111e+09 -6.806605e+02 -9.605749e+02 -2.332981e+03
-1.735499e+09 -1.535494e+09 -1.695498e+09 -1.688380e+03 -1.589276e+03 -2.366558e+03
-1.614489e+09 -1.414484e+09 -1.574488e+09 -1.623025e+03 -1.730127e+03 -2.292276e+03
-1.614488e+09 -1.414481e+09 -1.574488e+09 -2.280880e+02 -9.170073e+02 -2.628884e+03
-1.490202e+09 -1.290197e+09 -1.450199e+09 -2.365209e+03 -1.843730e+03 -2.241886e+03
-1.479234e+09 -1.279229e+09 -1.439232e+09 -1.993148e+03 -1.705220e+03 -1.856628e+03
-1.541717e+09 -1.341713e+09 -1.501715e+09 -2.122129e+03 -1.625390e+03 -2.081447e+03
-1.526676e+09 -1.326672e+09 -1.486675e+09 -1.908602e+03 -1.711147e+03 -1.901747e+03
-1.620361e+09 -1.420357e+09 -1.580359e+09 -1.937713e+03 -2.055903e+03 -2.238185e+03
-1.693003e+09 -1.492998e+09 -1.653001e+09 -2.029512e+03 -1.820573e+03 -2.148153e+03
-1.653660e+09 -1.453655e+09 -1.613658e+09 -2.129925e+03 -1.864573e+03 -2.142260e+03
-1.590281e+09 -1.390276e+09 -1.550279e+09 -1.758784e+03 -1.499072e+03 -1.851406e+03
-1.735988e+09 -1.535984e+09 -1.695986e+09 -1.636655e+03 -1.755573e+03 -1.997413e+03
-1.775076e+09 -1.575072e+09 -1.735074e+09 -1.632493e+03 -1.559729e+03 -2.020140e+03
-1.878547e+09 -1.678542e+09 -1.838545e+09 -1.613800e+03 -1.449777e+03 -2.071291e+03
-1.500570e+09 -1.300566e+09 -1.460569e+09 -1.649344e+03 -1.336328e+03 -1.699731e+03
-1.500571e+09 -1.300566e+09 -1.460569e+09 -1.449371e+03 -1.238111e+03 -1.943836e+03
-1.594254e+09 -1.394250e+09 -1.554253e+09 -1.336309e+03 -1.421786e+03 -2.015667e+03
-1.700661e+09 -1.500657e+09 -1.660660e+09 -1.214002e+03 -1.276259e+03 -1.881829e+03
-1.435861e+09 -1.235857e+09 -1.395859e+09 -2.383768e+03 -1.975067e+03 -2.292527e+03
-1.427717e+09 -1.227713e+09 -1.387715e+09 -2.049137e+03 -1.706062e+03 -1.898782e+03
-1.475160e+09 -1.275156e+09 -1.435158e+09 -1.928578e+03 -1.658449e+03 -1.940588e+03
-1.427717e+09 -1.227713e+09 -1.387715e+09 -1.980517e+03 -1.616953e+03 -1.804236e+03
-1.427717e+09 -1.227712e+09 -1.387715e+09 -1.892406e+03 -1.647836e+03 -1.997088e+03
-1.521401e+09 -1.321396e+09 -1.481399e+09 -1.834658e+03 -1.704272e+03 -2.047048e+03
-1.568844e+09 -1.368839e+09 -1.528842e+09 -1.853584e+03 -1.628123e+03 -2.177357e+03
-1.439934e+09 -1.239931e+09 -1.399932e+09 -2.432195e+03 -2.305430e+03 -1.896267e+03
-1.551876e+09 -1.351872e+09 -1.511874e+09 -2.394897e+03 -2.019446e+03 -1.850599e+03
-1.500359e+09 -1.300355e+09 -1.460357e+09 -2.472150e+03 -2.108120e+03 -1.808165e+03
-1.500360e+09 -1.300356e+09 -1.460358e+09 -2.735601e+03 -2.405143e+03 -1.963585e+03
-1.517427e+09 -1.317424e+09 -1.477425e+09 -1.730712e+03 -1.536808e+03 -1.497985e+03
-1.629369e+09 -1.429366e+09 -1.589367e+09 -1.643152e+03 -1.428813e+03 -1.601120e+03
-1.655346e+09 -1.455343e+09 -1.615344e+09 -1.789872e+03 -1.572478e+03 -1.617014e+03
-1.732839e+09 -1.532836e+09 -1.692837e+09 -1.770544e+03 -1.622037e+03 -1.609853e+03
-1.442758e+09 -1.242754e+09 -1.402756e+09 -2.498221e+03 -1.924033e+03 -1.885434e+03
-1.439933e+09 -1.239930e+09 -1.399931e+09 -2.166569e+03 -1.930186e+03 -1.633933e+03
-1.442758e+09 -1.242754e+09 -1.402756e+09 -2.576426e+03 -1.977051e+03 -1.970503e+03
-1.494274e+09 -1.294271e+09 -1.454272e+09 -2.477433e+03 -1.857156e+03 -1.869615e+03
-1.606216e+09 -1.406213e+09 -1.566214e+09 -2.475559e+03 -2.088988e+03 -1.869625e+03
-1.554700e+09 -1.354697e+09 -1.514698e+09 -2.511414e+03 -2.171995e+03 -1.789234e+03
-1.442758e+09 -1.242755e+09 -1.402756e+09 -2.639314e+03 -2.195593e+03 -1.975663e+03
-1.552087e+09 -1.352083e+09 -1.512085e+09 -1.615882e+03 -1.292272e+03 -1.723063e+03
-1.645770e+09 -1.445766e+09 -1.605769e+09 -1.261166e+03 -1.610294e+03 -1.930137e+03
-1.791266e+09 -1.591262e+09 -1.751265e+09 -1.229272e+03 -1.329487e+03 -1.811479e+03
-1.752178e+09 -1.552173e+09 -1.712176e+09 -1.242255e+03 -1.365649e+03 -1.763074e+03
-1.453026e+09 -1.253027e+09 -1.413027e+09 3.526484e+02 4.904678e+01 2.373005e+01
-1.466235e+09 -1.266236e+09 -1.426236e+09 3.313521e+02 4.422095e+01 7.903193e+00
-1.530847e+09 -1.330849e+09 -1.490848e+09 3.546048e+02 4.830638e+01 2.279124e+01
-1.466235e+09 -1.266236e+09 -1.426236e+09 3.510235e+02 4.518948e+01 1.508916e+01
-1.466235e+09 -1.266236e+09 -1.426236e+09 3.155556e+02 3.834255e+01 3.785385e+00
-1.621878e+09 -1.421880e+09 -1.581879e+09 3.262235e+02 3.880817e+01 1.105119e+01
-1.686491e+09 -1.486492e+09 -1.646492e+09 3.227632e+02 3.634949e+01 1.535098e+01
-1.510041e+09 -1.310042e+09 -1.470042e+09 3.726157e+02 4.493631e+01 7.552664e+00
-1.538469e+09 -1.338470e+09 -1.498470e+09 3.304935e+02 4.145246e+01 1.040004e+01
-1.582275e+09 -1.382276e+09 -1.542276e+09 3.678455e+02 4.373772e+01 1.270786e+01
-1.603081e+09 -1.403083e+09 -1.563082e+09 3.626327e+02 4.157006e+01 1.915883e+01
-1.758725e+09 -1.558726e+09 -1.718726e+09 3.606811e+02 3.488201e+01 -1.361147e+01
-1.817513e+09 -1.617515e+09 -1.777514e+09 3.627885e+02 4.095849e+01 2.277950e+00
-1.718885e+09 -1.518886e+09 -1.678886e+09 3.693969e+02 5.096421e+01 1.380214e+01
-1.615901e+09 -1.415903e+09 -1.575902e+09 3.436687e+02 3.054281e+01 1.004645e+00
-1.771544e+09 -1.571546e+09 -1.731545e+09 3.432188e+02 2.596398e+01 -3.930047e+00
-1.830333e+09 -1.630334e+09 -1.790334e+09 3.424606e+02 3.416060e+01 7.565472e+00
-1.912964e+09 -1.712965e+09 -1.872965e+09 3.460612e+02 2.450205e+01 4.192117e+00
-1.465846e+09 -1.265847e+09 -1.425847e+09 3.582956e+02 5.736546e+01 9.849366e+00
-1.620710e+09 -1.420712e+09 -1.580711e+09 3.512570e+02 5.888073e+01 1.297448e+01
-1.543278e+09 -1.343279e+09 -1.503279e+09 3.846546e+02 5.647505e+01 7.414244e+00
-1.543278e+09 -1.343279e+09 -1.503279e+09 3.660022e+02 4.935998e+01 1.009255e+01
-1.445428e+09 -1.245430e+09 -1.405429e+09 4.020384e+02 5.152020e+01 2.466544e+01
-1.460647e+09 -1.260649e+09 -1.420648e+09 3.843124e+02 4.879530e+01 1.324015e+01
-1.445428e+09 -1.245430e+09 -1.405429e+09 3.874806e+02 5.233506e+01 3.755034e+01
-1.517662e+09 -1.317664e+09 -1.477663e+09 3.883616e+02 5.034882e+01 1.553447e+01
-1.654273e+09 -1.454274e+09 -1.614274e+09 3.887931e+02 5.707997e+01 1.756092e+01
-1.582039e+09 -1.382040e+09 -1.542040e+09 4.136475e+02 5.467712e+01 1.627581e+01
-1.445428e+09 -1.245430e+09 -1.405429e+09 4.245829e+02 4.629478e+01 5.111897e+00
-1.538080e+09 -1.338081e+09 -1.498081e+09 3.814037e+02 4.079013e+01 1.154802e+01
-1.674690e+09 -1.474691e+09 -1.634691e+09 3.719353e+02 5.332261e+01 2.498389e+01
-1.679888e+09 -1.479890e+09 -1.639889e+09 4.240227e+02 4.048263e+01 1.064873e+01
-1.757321e+09 -1.557322e+09 -1.717322e+09 3.940387e+02 4.292907e+01 1.698155e+01
-1.422511e+09 -1.222513e+09 -1.382512e+09 3.687968e+02 5.694138e+01 3.510316e+01
-1.426857e+09 -1.226859e+09 -1.386858e+09 3.794070e+02 5.049094e+01 3.023224e+01
-1.422511e+09 -1.222513e+09 -1.382512e+09 3.794973e+02 5.379901e+01 3.520684e+01
-1.460955e+09 -1.260956e+09 -1.420956e+09 3.775864e+02 5.181002e+01 3.896579e+01
-1.572183e+09 -1.372184e+09 -1.532184e+09 3.672380e+02 4.938833e+01 2.430967e+01
-1.533739e+09 -1.333740e+09 -1.493740e+09 3.568181e+02 4.720491e+01 2.792540e+01
-1.422511e+09 -1.222513e+09 -1.382512e+09 3.390483e+02 4.540387e+01 -1.228459e+01
-1.461594e+09 -1.261595e+09 -1.421595e+09 3.964419e+02 4.920383e+01 3.459576e+00
-1.460689e+09 -1.260690e+09 -1.420690e+09 4.241309e+02 5.144413e+01 8.064021e+00
-1.500037e+09 -1.300039e+09 -1.460039e+09 4.057446e+02 4.604743e+01 1.990922e+01
-1.499771e+09 -1.299773e+09 -1.459772e+09 4.157924e+02 4.880235e+01 2.193092e+01
-1.586829e+09 -1.386830e+09 -1.546830e+09 4.168956e+02 5.405534e+01 3.325824e+00
-1.664225e+09 -1.464226e+09 -1.624226e+09 4.165180e+02 4.703389e+01 6.422766e+00
-1.611265e+09 -1.411267e+09 -1.571267e+09 4.053342e+02 4.820301e+01 1.500120e+01
-1.427496e+09 -1.227497e+09 -1.387497e+09 4.169545e+02 5.821935e+01 2.829515e+01
-1.422245e+09 -1.222246e+09 -1.382246e+09 4.320692e+02 6.045680e+01 2.800749e+01
-1.461328e+09 -1.261329e+09 -1.421329e+09 4.152650e+02 5.890626e+01 2.347265e+01
-1.422245e+09 -1.222246e+09 -1.382246e+09 4.155294e+02 5.916066e+01 3.855336e+01
-1.422245e+09 -1.222246e+09 -1.382246e+09 4.573810e+02 4.726144e+01 2.024292e+01
-1.509302e+09 -1.309304e+09 -1.469303e+09 4.510269e+02 5.554136e+01 2.707995e+01
-1.548385e+09 -1.348386e+09 -1.508386e+09 4.290377e+02 5.206498e+01 1.587082e+01
-1.494755e+09 -1.294756e+09 -1.454756e+09 4.310628e+02 4.185840e+01 2.236618e+01
-1.556937e+09 -1.356939e+09 -1.516939e+09 4.415158e+02 4.451650e+01 1.101090e+01
-1.634470e+09 -1.434472e+09 -1.594471e+09 4.372095e+02 4.250673e+01 2.466437e+01
-1.714594e+09 -1.514596e+09 -1.674596e+09 4.366143e+02 3.399293e+01 3.631659e+01
-1.489842e+09 -1.289844e+09 -1.449844e+09 3.955822e+02 3.874843e+01 3.860961e+01
-1.601070e+09 -1.401072e+09 -1.561071e+09 3.922872e+02 4.037656e+01 3.123685e+01
-1.562626e+09 -1.362628e+09 -1.522628e+09 3.609777e+02 2.828592e+01 2.253519e+01
-1.676582e+09 -1.476584e+09 -1.636583e+09 3.951519e+02 3.603015e+01 4.601088e+01
-1.465629e+09 -1.265630e+09 -1.425630e+09 5.179594e+02 7.043745e+01 1.781459e+02
-1.527812e+09 -1.327813e+09 -1.487813e+09 4.629347e+02 5.150329e+01 4.001299e+01
-1.608007e+09 -1.408009e+09 -1.568008e+09 4.986817e+02 2.858890e+01 8.601005e+00
-1.661205e+09 -1.461206e+09 -1.621206e+09 5.074482e+02 4.318004e+01 7.720478e+01
-1.422273e+09 -1.222274e+09 -1.382274e+09 4.376921e+02 4.725364e+01 8.965099e+00
-1.422273e+09 -1.222274e+09 -1.382274e+09 4.760743e+02 4.504903e+01 1.588694e+01
-1.422273e+09 -1.222274e+09 -1.382274e+09 4.606627e+02 4.248860e+01 2.296038e+01
-1.511993e+09 -1.311994e+09 -1.471994e+09 4.797510e+02 3.807604e+01 -1.053301e+01
-1.434773e+09 -1.234774e+09 -1.394774e+09 4.218826e+02 4.888821e+01 2.403504e+01
-1.451398e+09 -1.251400e+09 -1.411400e+09 4.096211e+02 4.872157e+01 3.045654e+01
-1.497758e+09 -1.297760e+09 -1.457759e+09 4.234578e+02 4.846310e+01 3.419333e+01
-1.451398e+09 -1.251400e+09 -1.411400e+09 4.248569e+02 4.950027e+01 3.799440e+01
-1.451398e+09 -1.251400e+09 -1.411400e+09 3.904584e+02 3.756370e+01 6.395883e+00
-1.565354e+09 -1.365356e+09 -1.525356e+09 4.006662e+02 4.481694e+01 1.931570e+01
-1.611714e+09 -1.411716e+09 -1.571715e+09 4.076862e+02 4.879789e+01 1.861882e+01
-1.451399e+09 -1.251400e+09 -1.411400e+09 3.968134e+02 5.204489e+01 3.418880e+01
-1.451398e+09 -1.251400e+09 -1.411400e+09 3.767681e+02 4.132158e+01 1.453548e+01
-1.565354e+09 -1.365356e+09 -1.525356e+09 3.844822e+02 6.126451e+01 4.853304e+01
-1.451398e+09 -1.251400e+09 -1.411400e+09 3.712916e+02 4.674541e+01 1.533721e+01
-1.420638e+09 -1.220640e+09 -1.380640e+09 4.827343e+02 4.938736e+01 4.728439e+01
-1.397938e+09 -1.197939e+09 -1.357939e+09 4.678850e+02 5.955822e+01 2.883610e+01
-1.420638e+09 -1.220640e+09 -1.380640e+09 4.666477e+02 5.399336e+01 4.715328e+01
-1.430163e+09 -1.230164e+09 -1.390164e+09 4.643161e+02 5.569606e+01 4.165124e+01
-1.492346e+09 -1.292347e+09 -1.452347e+09 4.716897e+02 5.002600e+01 3.335798e+01
-1.482821e+09 -1.282823e+09 -1.442822e+09 4.801609e+02 4.513124e+01 2.802154e+01
-1.420638e+09 -1.220640e+09 -1.380640e+09 5.151509e+02 3.034962e+01 -3.929100e+01
-1.456104e+09 -1.256106e+09 -1.416105e+09 4.250949e+02 6.071823e+01 3.077313e+01
-1.456104e+09 -1.256106e+09 -1.416105e+09 4.543988e+02 4.745641e+01 1.768607e+01
-1.599022e+09 -1.399024e+09 -1.559023e+09 4.495573e+02 5.044154e+01 1.776764e+01
-1.545824e+09 -1.345826e+09 -1.505825e+09 4.698460e+02 4.162896e+01 -2.313177e+01
-1.466998e+09 -1.267000e+09 -1.426999e+09 4.327560e+02 4.036989e+01 1.551184e+01
-1.460923e+09 -1.260925e+09 -1.420924e+09 4.598820e+02 4.232017e+01 5.961745e+00
-1.529983e+09 -1.329985e+09 -1.489985e+09 4.388313e+02 4.106834e+01 2.403549e+01
-1.493148e+09 -1.293150e+09 -1.453149e+09 4.531483e+02 4.553115e+01 2.915014e+01
-1.643939e+09 -1.443941e+09 -1.603940e+09 4.511583e+02 4.000461e+01 -4.402807e+00
-1.659762e+09 -1.459764e+09 -1.619764e+09 4.505680e+02 3.796488e+01 -5.654414e+00
-1.555331e+09 -1.355332e+09 -1.515332e+09 4.604552e+02 4.406249e+01 2.425759e+01
-1.431797e+09 -1.231799e+09 -1.391798e+09 4.669346e+02 4.063900e+01 4.631249e+01
-1.493980e+09 -1.293981e+09 -1.453981e+09 4.773863e+02 5.096643e+01 2.116700e+01
-1.484455e+09 -1.284457e+09 -1.444457e+09 4.846622e+02 3.900533e+01 2.257846e+01
-1.574175e+09 -1.374177e+09 -1.534177e+09 5.043897e+02 2.661072e+01 7.429563e+00
-1.523674e+09 -1.323676e+09 -1.483675e+09 4.300616e+02 4.304736e+01 1.835891e+01
-1.610731e+09 -1.410733e+09 -1.570732e+09 4.264954e+02 4.141480e+01 2.813166e+01
-1.688127e+09 -1.488129e+09 -1.648129e+09 4.184023e+02 3.819985e+01 1.602082e+01
-1.763639e+09 -1.563641e+09 -1.723641e+09 4.165381e+02 3.475034e+01 2.652743e+01
-1.439602e+09 -1.239603e+09 -1.399603e+09 4.398996e+02 4.738236e+01 2.408483e+01
-1.444797e+09 -1.244799e+09 -1.404798e+09 4.524328e+02 4.575922e+01 1.498258e+00
-1.439602e+09 -1.239603e+09 -1.399603e+09 4.548171e+02 4.565521e+01 2.685881e+01
-1.495985e+09 -1.295987e+09 -1.455987e+09 4.545345e+02 4.509397e+01 2.057840e+01
-1.606666e+09 -1.406668e+09 -1.566668e+09 4.338867e+02 4.522273e+01 -5.863359e-01
-1.550282e+09 -1.350284e+09 -1.510284e+09 4.167424e+02 4.441164e+01 1.411515e+00
-1.439601e+09 -1.239603e+09 -1.399603e+09 4.075339e+02 4.116923e+01 -1.460317e+01
-1.445967e+09 -1.245969e+09 -1.405969e+09 5.037768e+02 4.846518e+01 2.742996e+01
-1.437919e+09 -1.237921e+09 -1.397920e+09 5.272636e+02 5.133801e+01 1.246668e+01
-1.495473e+09 -1.295475e+09 -1.455475e+09 5.078453e+02 5.183493e+01 2.817334e+01
-1.437919e+09 -1.237921e+09 -1.397920e+09 5.034562e+02 5.558240e+01 1.862412e+01
-1.437919e+09 -1.237921e+09 -1.397920e+09 5.527832e+02 4.508918e+01 -1.279450e+01
-1.557065e+09 -1.357067e+09 -1.517066e+09 5.358859e+02 5.070730e+01 4.222731e+00
-1.614619e+09 -1.414621e+09 -1.574621e+09 5.429622e+02 3.433824e+01 1.757432e+01
-1.497156e+09 -1.297158e+09 -1.457157e+09 4.713042e+02 3.326200e+01 2.996217e+00
-1.494303e+09 -1.294305e+09 -1.454304e+09 4.997725e+02 3.277875e+01 -1.535108e+01
-1.553540e+09 -1.353541e+09 -1.513541e+09 4.732587e+02 3.424478e+01 1.149186e+01
-1.551857e+09 -1.351859e+09 -1.511859e+09 4.876587e+02 3.424040e+01 1.049457e+01
-1.671003e+09 -1.471005e+09 -1.631005e+09 4.905123e+02 3.632065e+01 -2.068048e+01
-1.732178e+09 -1.532180e+09 -1.692179e+09 4.882823e+02 2.735309e+01 -2.594189e+01
-1.664220e+09 -1.464222e+09 -1.624222e+09 4.712740e+02 2.813849e+01 -1.990174e+01
-1.514036e+09 -1.314038e+09 -1.474037e+09 4.604552e+02 2.983131e+01 2.234530e+00
-1.624716e+09 -1.424718e+09 -1.584718e+09 4.598393e+02 2.941316e+01 -4.715808e+00
-1.568332e+09 -1.368334e+09 -1.528334e+09 4.477469e+02 2.207081e+01 -6.363721e-01
-1.707953e+09 -1.507955e+09 -1.667955e+09 4.284837e+02 2.015640e+01 -1.838649e+01
-1.531366e+09 -1.331368e+09 -1.491368e+09 5.385757e+02 3.808856e+01 -2.534459e+01
-1.508561e+09 -1.308563e+09 -1.468562e+09 5.217164e+02 4.079996e+01 -2.433973e+01
-1.600506e+09 -1.400508e+09 -1.560507e+09 5.300582e+02 4.063711e+01 -1.646671e+01
-1.596337e+09 -1.396339e+09 -1.556338e+09 5.164844e+02 4.037745e+01 -1.227041e+01
-1.701749e+09 -1.501751e+09 -1.661751e+09 5.093724e+02 2.871359e+01 -4.570364e+01
-1.781392e+09 -1.581394e+09 -1.741393e+09 5.236952e+02 4.023244e+01 -7.880985e+01
-1.731157e+09 -1.531159e+09 -1.691158e+09 5.435288e+02 5.059513e+01 -3.551465e+01
-1.577800e+09 -1.377802e+09 -1.537801e+09 5.068410e+02 4.252771e+01 -3.700402e+01
-1.683212e+09 -1.483214e+09 -1.643214e+09 5.046562e+02 2.882344e+01 -3.233589e+01
-1.762855e+09 -1.562857e+09 -1.722856e+09 4.967082e+02 6.217888e+01 -5.442326e+01
-1.833336e+09 -1.633338e+09 -1.793337e+09 5.058401e+02 2.928827e+01 -1.104234e+02
-1.583175e+09 -1.383177e+09 -1.543177e+09 4.801098e+02 4.130273e+01 -1.133508e+01
-1.693856e+09 -1.493858e+09 -1.653858e+09 4.817527e+02 3.789577e+01 -2.222597e+01
-1.838604e+09 -1.638606e+09 -1.798606e+09 4.560109e+02 2.972340e+01 -5.807194e+01
-1.768123e+09 -1.568125e+09 -1.728125e+09 4.908358e+02 4.957420e+01 -1.118408e+01
-1.476189e+09 -1.276191e+09 -1.436190e+09 4.964689e+02 4.448779e+01 -5.885446e+00
-1.439421e+09 -1.239423e+09 -1.399423e+09 4.818550e+02 4.856423e+01 8.393088e+00
-1.527197e+09 -1.327199e+09 -1.487199e+09 4.960000e+02 4.454916e+01 1.295576e+00
-1.439421e+09 -1.239423e+09 -1.399423e+09 4.996143e+02 4.542966e+01 7.375655e-01
-1.439421e+09 -1.239423e+09 -1.399423e+09 4.507619e+02 4.130442e+01 -3.203263e+01
-1.544834e+09 -1.344836e+09 -1.504835e+09 4.734404e+02 3.730723e+01 -7.373594e+00
-1.632609e+09 -1.432611e+09 -1.592611e+09 4.759681e+02 3.633418e+01 -7.684718e+00
-1.513285e+09 -1.313287e+09 -1.473287e+09 5.543206e+02 5.388028e+01 -8.570154e+00
-1.643936e+09 -1.443938e+09 -1.603938e+09 5.712890e+02 6.306780e+01 2.812634e+00
-1.574797e+09 -1.374798e+09 -1.534798e+09 5.841128e+02 6.789897e+01 -4.769127e+00
-1.686870e+09 -1.486872e+09 -1.646871e+09 6.214485e+02 5.544189e+01 -2.913599e+01
-1.508660e+09 -1.308662e+09 -1.468662e+09 4.756756e+02 5.188214e+01 -2.389412e+00
-1.508660e+09 -1.308662e+09 -1.468662e+09 4.406219e+02 4.976618e+01 -6.333250e+00
-1.614073e+09 -1.414075e+09 -1.574074e+09 4.575440e+02 4.423400e+01 1.602035e+01
-1.702685e+09 -1.502687e+09 -1.662687e+09 4.244813e+02 4.593321e+01 -1.698329e+01
-1.493652e+09 -1.293654e+09 -1.453653e+09 5.334414e+02 5.599993e+01 -1.767141e+01
-1.493652e+09 -1.293654e+09 -1.453653e+09 5.687951e+02 5.641247e+01 -2.122402e+01
-1.612798e+09 -1.412800e+09 -1.572799e+09 5.547388e+02 5.957204e+01 -7.245992e+00
-1.675365e+09 -1.475367e+09 -1.635366e+09 5.989732e+02 5.580192e+01 -4.763149e+01
-1.443590e+09 -1.243592e+09 -1.403592e+09 5.754559e+02 5.706079e+01 -5.114548e-01
-1.457553e+09 -1.257554e+09 -1.417554e+09 5.622283e+02 5.537915e+01 -1.470633e+01
-1.443590e+09 -1.243592e+09 -1.403592e+09 5.586538e+02 5.984097e+01 1.041302e+01
-1.512730e+09 -1.312732e+09 -1.472731e+09 5.593445e+02 5.755933e+01 -5.203240e+00
-1.643381e+09 -1.443383e+09 -1.603382e+09 5.860982e+02 5.768035e+01 -1.530522e+01
-1.574241e+09 -1.374243e+09 -1.534243e+09 6.031302e+02 6.269215e+01 -2.357372e+01
-1.443590e+09 -1.243592e+09 -1.403592e+09 6.175860e+02 4.677555e+01 -3.444714e+01
-1.444146e+09 -1.244147e+09 -1.404147e+09 5.356302e+02 5.206580e+01 -2.819622e+01
-1.444146e+09 -1.244147e+09 -1.404147e+09 5.706172e+02 6.718106e+01 -1.514462e+01
-1.444146e+09 -1.244147e+09 -1.404147e+09 5.588436e+02 6.387584e+01 -1.588119e+01
-1.556219e+09 -1.356221e+09 -1.516220e+09 5.978796e+02 5.303274e+01 -5.351810e+01
-1.457652e+09 -1.257654e+09 -1.417653e+09 4.654922e+02 4.631630e+01 -6.982791e+00
-1.457652e+09 -1.257654e+09 -1.417653e+09 4.361662e+02 4.688982e+01 -2.139827e+00
-1.597273e+09 -1.397275e+09 -1.557274e+09 4.202463e+02 4.152976e+01 -1.686026e+01
-1.457652e+09 -1.257654e+09 -1.417653e+09 4.368220e+02 4.437891e+01 3.210998e+00
-1.563443e+09 -1.363444e+09 -1.523444e+09 5.171713e+02 3.772747e+01 -1.062512e+01
-1.682589e+09 -1.482590e+09 -1.642590e+09 5.173516e+02 3.243771e+01 -1.120178e+01
-1.743763e+09 -1.543765e+09 -1.703765e+09 5.063764e+02 2.102217e+01 -3.051531e+01
-1.818030e+09 -1.618032e+09 -1.778032e+09 5.186168e+02 4.059594e+01 -1.247849e+01
-1.562792e+09 -1.362793e+09 -1.522793e+09 5.460780e+02 5.549822e+01 -1.715214e+00
-1.681938e+09 -1.481939e+09 -1.641939e+09 5.479982e+02 4.868805e+01 -9.171623e+00
-1.763082e+09 -1.563084e+09 -1.723084e+09 5.583664e+02 6.721639e+01 1.350287e+01
-1.806016e+09 -1.606018e+09 -1.766017e+09 6.207426e+02 5.764117e+01 -2.361028e+01
-1.453919e+09 -1.253921e+09 -1.413921e+09 5.685992e+02 4.049517e+01 -8.143964e+01
-1.450862e+09 -1.250864e+09 -1.410864e+09 5.974343e+02 4.830877e+01 -5.710085e+01
-1.496020e+09 -1.296022e+09 -1.456022e+09 5.623910e+02 4.789556e+01 -3.011232e+01
-1.461824e+09 -1.261826e+09 -1.421826e+09 5.765319e+02 5.452259e+01 -1.983636e+01
-1.521962e+09 -1.321964e+09 -1.481964e+09 5.925759e+02 4.995841e+01 -5.904591e+01
-1.617662e+09 -1.417664e+09 -1.577664e+09 5.929876e+02 5.252785e+01 -4.021058e+01
-1.612069e+09 -1.412071e+09 -1.572071e+09 5.574126e+02 5.137621e+01 -1.888261e+01
-1.442957e+09 -1.242959e+09 -1.402959e+09 5.081037e+02 5.091075e+01 -1.167803e+01
-1.430514e+09 -1.230516e+09 -1.390516e+09 5.115704e+02 4.971660e+01 -2.743383e+01
-1.442957e+09 -1.242959e+09 -1.402959e+09 5.139035e+02 4.222387e+01 -1.863085e+01
-1.485058e+09 -1.285060e+09 -1.445060e+09 5.174704e+02 4.686920e+01 -6.075743e+00
-1.601107e+09 -1.401109e+09 -1.561109e+09 4.954468e+02 5.584239e+01 -2.830010e+01
-1.559005e+09 -1.359008e+09 -1.519007e+09 4.434590e+02 5.004530e+01 -5.511109e+01
-1.442957e+09 -1.242959e+09 -1.402959e+09 4.530515e+02 4.079712e+01 -3.731996e+01
-1.399375e+09 -1.199377e+09 -1.359376e+09 5.923220e+02 9.295078e+01 9.543031e+00
-1.408761e+09 -1.208763e+09 -1.368762e+09 6.065534e+02 7.047952e+01 -2.189894e+01
-1.419723e+09 -1.219725e+09 -1.379725e+09 5.821642e+02 8.206585e+01 1.232438e+01
-1.408761e+09 -1.208763e+09 -1.368762e+09 5.829462e+02 7.753812e+01 -2.265217e+01
-1.408761e+09 -1.208763e+09 -1.368762e+09 6.517013e+02 4.213076e+01 -8.406151e+01
-1.468898e+09 -1.268900e+09 -1.428900e+09 6.298926e+02 6.369231e+01 -1.574362e+01
-1.479860e+09 -1.279862e+09 -1.439862e+09 6.044491e+02 6.153753e+01 -4.475989e+01
-1.509907e+09 -1.309909e+09 -1.469908e+09 6.205581e+02 7.334012e+01 -4.084737e+01
-1.570044e+09 -1.370046e+09 -1.530046e+09 6.275368e+02 6.372218e+01 -6.541197e+01
-1.662598e+09 -1.462600e+09 -1.622599e+09 6.313914e+02 8.482688e+01 -2.746850e+01
-1.726611e+09 -1.526613e+09 -1.686612e+09 6.901467e+02 4.980667e+01 -1.026433e+02
-1.489558e+09 -1.289560e+09 -1.449560e+09 6.423177e+02 6.939635e+01 -5.774014e+01
-1.602460e+09 -1.402462e+09 -1.562462e+09 6.548522e+02 7.733267e+01 -4.890737e+01
-1.552544e+09 -1.352546e+09 -1.512546e+09 6.554338e+02 6.525488e+01 -6.514264e+01
-1.666473e+09 -1.466475e+09 -1.626475e+09 6.943907e+02 4.915162e+01 -1.099703e+02
-1.430514e+09 -1.230516e+09 -1.390516e+09 5.081677e+02 2.408115e+01 -2.135819e+01
-1.546562e+09 -1.346565e+09 -1.506564e+09 4.985688e+02 3.693121e+01 -3.286517e+01
-1.504461e+09 -1.304463e+09 -1.464463e+09 4.809923e+02 1.755351e+01 -3.787130e+01
-1.504461e+09 -1.304463e+09 -1.464463e+09 4.628893e+02 1.944502e+01 -5.173518e+01
-1.448041e+09 -1.248044e+09 -1.408043e+09 5.390239e+02 6.242043e+01 -8.517452e+01
-1.438329e+09 -1.238331e+09 -1.398330e+09 5.302429e+02 6.128293e+01 -5.991682e+01
-1.497957e+09 -1.297960e+09 -1.457959e+09 5.477289e+02 5.922818e+01 -5.473661e+01
-1.438328e+09 -1.238331e+09 -1.398330e+09 5.488206e+02 5.941857e+01 -3.869541e+01
-1.438328e+09 -1.238331e+09 -1.398330e+09 4.876491e+02 4.441978e+01 -1.314150e+02
-1.551230e+09 -1.351233e+09 -1.511232e+09 5.051654e+02 6.382640e+01 -9.338726e+01
-1.610859e+09 -1.410861e+09 -1.570861e+09 5.096831e+02 9.223120e+01 -1.118496e+02
-1.480430e+09 -1.280432e+09 -1.440432e+09 5.388822e+02 5.760789e+01 -2.045475e+01
-1.596479e+09 -1.396481e+09 -1.556480e+09 5.327926e+02 5.067374e+01 -3.972188e+01
-1.554377e+09 -1.354380e+09 -1.514379e+09 5.004504e+02 4.147652e+01 -8.520401e+01
-1.667279e+09 -1.467281e+09 -1.627281e+09 5.275590e+02 5.549062e+01 -3.670504e+01
-1.439642e+09 -1.239644e+09 -1.399644e+09 6.215830e+02 6.354890e+01 -8.184993e+01
-1.439642e+09 -1.239644e+09 -1.399644e+09 6.600876e+02 6.236329e+01 -7.136952e+01
-1.439642e+09 -1.239644e+09 -1.399644e+09 6.645442e+02 5.934503e+01 -7.231489e+01
-1.553571e+09 -1.353573e+09 -1.513573e+09 7.038018e+02 4.519251e+01 -1.141544e+02
-1.500778e+09 -1.300780e+09 -1.460780e+09 6.088342e+02 6.456551e+01 -3.529367e+01
-1.560916e+09 -1.360918e+09 -1.520918e+09 6.154152e+02 5.377465e+01 -5.199440e+01
-1.656616e+09 -1.456618e+09 -1.616618e+09 6.177561e+02 5.523351e+01 -3.923429e+01
-1.727417e+09 -1.527419e+09 -1.687418e+09 6.268717e+02 7.235467e+01 -3.872429e+01
-1.459990e+09 -1.259992e+09 -1.419992e+09 6.076615e+02 7.319013e+01 -4.893841e+01
-1.459990e+09 -1.259992e+09 -1.419992e+09 6.606813e+02 6.069821e+01 -6.235204e+01
-1.520128e+09 -1.320130e+09 -1.480130e+09 6.454176e+02 6.722746e+01 -3.638535e+01
-1.613709e+09 -1.413711e+09 -1.573711e+09 6.966883e+02 5.150996e+01 -8.554860e+01
-1.448041e+09 -1.248044e+09 -1.408043e+09 6.526162e+02 5.457501e+01 -7.733365e+01
-1.438329e+09 -1.238331e+09 -1.398330e+09 6.435443e+02 5.858860e+01 -7.296175e+01
-1.448041e+09 -1.248044e+09 -1.408043e+09 6.339245e+02 6.572513e+01 -5.812635e+01
-1.497958e+09 -1.297960e+09 -1.457959e+09 6.424771e+02 6.287025e+01 -5.725559e+01
-1.610859e+09 -1.410861e+09 -1.570861e+09 6.715034e+02 5.179237e+01 -8.694634e+01
-1.560943e+09 -1.360945e+09 -1.520945e+09 6.845262e+02 3.717981e+01 -1.092775e+02
-1.448041e+09 -1.248043e+09 -1.408043e+09 7.146136e+02 3.207717e+01 -1.510434e+02
-1.442518e+09 -1.242521e+09 -1.402520e+09 5.499909e+02 7.856148e+01 -1.257484e+02
-1.443756e+09 -1.243759e+09 -1.403759e+09 5.595594e+02 9.513578e+01 -2.036960e+02
-1.442518e+09 -1.242521e+09 -1.402520e+09 5.696825e+02 7.820442e+01 -1.029773e+02
-1.497863e+09 -1.297865e+09 -1.457865e+09 5.780969e+02 8.483553e+01 -1.464335e+02
-1.613854e+09 -1.413857e+09 -1.573856e+09 5.472617e+02 1.148918e+02 -2.068586e+02
-1.558509e+09 -1.358512e+09 -1.518512e+09 5.106453e+02 8.187279e+01 -2.033504e+02
-1.442518e+09 -1.242521e+09 -1.402520e+09 4.991736e+02 6.645311e+01 -2.200769e+02
-1.442518e+09 -1.242520e+09 -1.402520e+09 6.656950e+02 7.392352e+01 -8.829821e+01
-1.443757e+09 -1.243759e+09 -1.403759e+09 6.777118e+02 9.628391e+01 -1.178649e+02
-1.497863e+09 -1.297865e+09 -1.457865e+09 6.755000e+02 8.521966e+01 -1.038904e+02
-1.443757e+09 -1.243759e+09 -1.403759e+09 6.480217e+02 1.048001e+02 -1.015204e+02
-1.443757e+09 -1.243759e+09 -1.403759e+09 7.526408e+02 5.402842e+01 -1.718584e+02
-1.559748e+09 -1.359751e+09 -1.519750e+09 7.250720e+02 3.656005e+01 -1.256341e+02
-1.613854e+09 -1.413857e+09 -1.573856e+09 7.113499e+02 5.497003e+01 -1.312789e+02
-1.459594e+09 -1.259597e+09 -1.419597e+09 5.853917e+02 9.591688e+01 -1.243276e+02
-1.512500e+09 -1.312503e+09 -1.472502e+09 5.439943e+02 8.028638e+01 -1.778739e+02
-1.487684e+09 -1.287687e+09 -1.447686e+09 4.835370e+02 7.597050e+01 -2.063015e+02
-1.590638e+09 -1.390641e+09 -1.550640e+09 5.007720e+02 7.677180e+01 -1.548078e+02
-1.530980e+09 -1.330983e+09 -1.490983e+09 6.343170e+02 8.831309e+01 -1.787759e+02
-1.583886e+09 -1.383889e+09 -1.543888e+09 5.572813e+02 7.724229e+01 -1.934808e+02
-1.662024e+09 -1.462027e+09 -1.622026e+09 5.550296e+02 7.550043e+01 -1.890897e+02
-1.761113e+09 -1.561116e+09 -1.721116e+09 5.605477e+02 6.290223e+01 -1.943472e+02
-1.491541e+09 -1.291544e+09 -1.451544e+09 7.390289e+02 4.519451e+01 -2.239515e+02
-1.594495e+09 -1.394498e+09 -1.554497e+09 7.680639e+02 5.349993e+01 -2.031688e+02
-1.548129e+09 -1.348131e+09 -1.508131e+09 7.657885e+02 4.632046e+01 -2.269887e+02
-1.668347e+09 -1.468350e+09 -1.628350e+09 8.147763e+02 2.208669e+01 -2.997161e+02
-1.546886e+09 -1.346889e+09 -1.506889e+09 6.892190e+02 7.695161e+01 -1.208652e+02
-1.649840e+09 -1.449843e+09 -1.609842e+09 6.940045e+02 9.340178e+01 -7.861949e+01
-1.723692e+09 -1.523695e+09 -1.683694e+09 7.831580e+02 3.610129e+01 -2.940680e+02
-1.782921e+09 -1.582923e+09 -1.742923e+09 7.970450e+02 3.242667e+01 -1.169910e+02
-1.484614e+09 -1.284617e+09 -1.444616e+09 5.818439e+02 6.850199e+01 -1.511199e+02
-1.537519e+09 -1.337522e+09 -1.497522e+09 4.971567e+02 5.980213e+01 -1.708884e+02
-1.658160e+09 -1.458163e+09 -1.618162e+09 5.202536e+02 4.929283e+01 -1.973253e+02
-1.586774e+09 -1.386777e+09 -1.546776e+09 5.346707e+02 8.007363e+00 -1.734196e+02
-1.437090e+09 -1.237093e+09 -1.397093e+09 7.320862e+02 3.923266e+01 -2.427569e+02
-1.434778e+09 -1.234781e+09 -1.394781e+09 7.283966e+02 5.113123e+01 -2.275621e+02
-1.437090e+09 -1.237093e+09 -1.397093e+09 7.226978e+02 6.462470e+01 -2.178440e+02
-1.483457e+09 -1.283460e+09 -1.443460e+09 7.294762e+02 6.125304e+01 -2.094428e+02
-1.586411e+09 -1.386414e+09 -1.546413e+09 7.505549e+02 3.831432e+01 -2.454764e+02
-1.540044e+09 -1.340047e+09 -1.500047e+09 7.880145e+02 1.932212e+01 -2.827138e+02
-1.437090e+09 -1.237093e+09 -1.397093e+09 8.282153e+02 9.715967e+00 -3.643672e+02
-1.445175e+09 -1.245177e+09 -1.405177e+09 7.029515e+02 5.522567e+01 -2.449420e+02
-1.445175e+09 -1.245177e+09 -1.405177e+09 7.446021e+02 5.887952e+01 -2.397234e+02
-1.445175e+09 -1.245177e+09 -1.405177e+09 7.806390e+02 3.288947e+01 -2.536372e+02
-1.565394e+09 -1.365396e+09 -1.525396e+09 8.369767e+02 1.962240e+01 -3.055811e+02
-1.561509e+09 -1.361512e+09 -1.521512e+09 6.428117e+02 1.089636e+02 -1.910391e+02
-1.664463e+09 -1.464466e+09 -1.624465e+09 6.418092e+02 9.447792e+01 -1.999567e+02
-1.734088e+09 -1.534090e+09 -1.694090e+09 6.266854e+02 9.680811e+01 -1.439283e+02
-1.824199e+09 -1.624202e+09 -1.784202e+09 5.922730e+02 7.062596e+01 -2.101386e+02
-1.413228e+09 -1.213230e+09 -1.373230e+09 5.387134e+02 6.995054e+01 -1.021902e+02
-1.466133e+09 -1.266136e+09 -1.426136e+09 4.940160e+02 5.256594e+01 -1.663022e+02
-1.441317e+09 -1.241320e+09 -1.401320e+09 5.184944e+02 2.492657e+01 -1.616714e+02
-1.441317e+09 -1.241320e+09 -1.401320e+09 4.334080e+02 4.424586e+01 -1.570082e+02
-1.437090e+09 -1.237093e+09 -1.397093e+09 5.537601e+02 6.645452e+01 -2.557265e+02
-1.434778e+09 -1.234781e+09 -1.394781e+09 5.681897e+02 1.050137e+02 -1.456686e+02
-1.483457e+09 -1.283460e+09 -1.443460e+09 5.515974e+02 6.872175e+01 -1.729373e+02
-1.434778e+09 -1.234781e+09 -1.394781e+09 5.702652e+02 8.464239e+01 -1.667646e+02
-1.434778e+09 -1.234781e+09 -1.394781e+09 4.683637e+02 8.258816e+01 -2.949416e+02
-1.537732e+09 -1.337735e+09 -1.497734e+09 4.880234e+02 8.261600e+01 -2.401383e+02
-1.586411e+09 -1.386414e+09 -1.546413e+09 5.231698e+02 9.481834e+01 -2.162117e+02
-1.500520e+09 -1.300522e+09 -1.460522e+09 6.622584e+02 9.135075e+01 -1.483624e+02
-1.500520e+09 -1.300522e+09 -1.460522e+09 7.478181e+02 5.924193e+01 -1.943828e+02
-1.679967e+09 -1.479969e+09 -1.639969e+09 7.373633e+02 4.406386e+01 -1.715133e+02
-1.620738e+09 -1.420741e+09 -1.580740e+09 7.971509e+02 4.127087e+01 -2.927267e+02
-1.515142e+09 -1.315145e+09 -1.475145e+09 5.938134e+02 8.351908e+01 -1.410025e+02
-1.631134e+09 -1.431137e+09 -1.591136e+09 6.001499e+02 7.364518e+01 -1.538356e+02
-1.649860e+09 -1.449862e+09 -1.609862e+09 5.399248e+02 5.365897e+01 -1.402271e+02
-1.721246e+09 -1.521249e+09 -1.681248e+09 5.720645e+02 5.301759e+01 -1.980780e+02
-1.446001e+09 -1.246004e+09 -1.406003e+09 7.149738e+02 5.731192e+01 -2.892131e+02
-1.433100e+09 -1.233103e+09 -1.393103e+09 7.005873e+02 8.031218e+01 -3.608273e+02
-1.490689e+09 -1.290693e+09 -1.450692e+09 7.286243e+02 7.468641e+01 -2.932234e+02
-1.433100e+09 -1.233103e+09 -1.393103e+09 7.022383e+02 9.874355e+01 -3.424559e+02
-1.433100e+09 -1.233103e+09 -1.393103e+09 8.665333e+02 -2.633106e+00 -4.727284e+02
-1.534254e+09 -1.334257e+09 -1.494257e+09 8.175685e+02 1.146843e+01 -3.612737e+02
-1.591843e+09 -1.391846e+09 -1.551846e+09 8.267495e+02 1.475015e+01 -3.577527e+02
-1.446000e+09 -1.246004e+09 -1.406003e+09 5.447118e+02 7.327114e+01 -3.538804e+02
-1.433100e+09 -1.233103e+09 -1.393103e+09 5.259477e+02 9.930827e+01 -5.125247e+02
-1.446000e+09 -1.246004e+09 -1.406003e+09 5.353235e+02 6.147667e+01 -3.584293e+02
-1.490689e+09 -1.290693e+09 -1.450692e+09 5.521968e+02 7.605633e+01 -3.806420e+02
-1.591843e+09 -1.391846e+09 -1.551846e+09 4.662110e+02 1.316757e+02 -5.473779e+02
-1.547154e+09 -1.347157e+09 -1.507157e+09 4.406457e+02 1.108012e+02 -5.400079e+02
-1.446000e+09 -1.246004e+09 -1.406003e+09 4.463133e+02 7.561434e+01 -5.077922e+02
-1.502457e+09 -1.302461e+09 -1.462460e+09 6.798535e+02 -1.408024e+01 -7.084994e+02
-1.478484e+09 -1.278488e+09 -1.438487e+09 6.246734e+02 5.685408e+01 -6.481383e+02
-1.555441e+09 -1.355445e+09 -1.515445e+09 6.204883e+02 1.405105e+01 -6.565504e+02
-1.534937e+09 -1.334941e+09 -1.494940e+09 6.329523e+02 1.100698e+01 -6.563104e+02
-1.622121e+09 -1.422125e+09 -1.582125e+09 6.397421e+02 -8.910010e-01 -6.748791e+02
-1.702087e+09 -1.502091e+09 -1.662090e+09 6.717479e+02 3.243028e+01 -7.188298e+02
-1.672496e+09 -1.472500e+09 -1.632499e+09 6.213793e+02 5.631030e+01 -7.825511e+02
-1.501073e+09 -1.301076e+09 -1.461076e+09 6.456686e+02 1.422082e+02 -4.905658e+02
-1.540955e+09 -1.340959e+09 -1.500958e+09 6.347810e+02 1.646147e+02 -5.035755e+02
-1.627121e+09 -1.427124e+09 -1.587124e+09 6.418254e+02 1.289215e+02 -5.276682e+02
-1.699486e+09 -1.499490e+09 -1.659489e+09 7.180550e+02 1.334100e+02 -5.196268e+02
-1.456383e+09 -1.256387e+09 -1.416387e+09 6.458643e+02 1.399170e+02 -5.219456e+02
-1.496266e+09 -1.296270e+09 -1.456269e+09 6.324571e+02 1.590755e+02 -5.106490e+02
-1.598333e+09 -1.398336e+09 -1.558335e+09 6.933154e+02 1.408724e+02 -5.194812e+02
-1.545348e+09 -1.345351e+09 -1.505351e+09 7.222001e+02 1.694409e+02 -5.420672e+02
-1.448088e+09 -1.248092e+09 -1.408092e+09 7.224987e+02 1.037821e+02 -4.309162e+02
-1.487971e+09 -1.287974e+09 -1.447974e+09 7.218169e+02 1.089535e+02 -4.436800e+02
-1.472982e+09 -1.272986e+09 -1.432986e+09 8.939525e+02 3.601752e+01 -5.625024e+02
-1.574136e+09 -1.374140e+09 -1.534139e+09 8.349238e+02 6.274711e+01 -4.220093e+02
-1.403399e+09 -1.203403e+09 -1.363402e+09 7.230687e+02 1.015980e+02 -4.716326e+02
-1.443282e+09 -1.243285e+09 -1.403285e+09 7.213235e+02 1.060424e+02 -4.688378e+02
-1.428294e+09 -1.228297e+09 -1.388297e+09 8.237723e+02 7.077602e+01 -4.939907e+02
-1.428293e+09 -1.228297e+09 -1.388297e+09 8.810402e+02 4.222188e+01 -5.302598e+02
-1.523173e+09 -1.323177e+09 -1.483176e+09 6.013914e+02 8.359345e+01 -5.306769e+02
-1.610358e+09 -1.410361e+09 -1.570361e+09 5.995902e+02 7.842369e+01 -5.622129e+02
-1.746788e+09 -1.546791e+09 -1.706791e+09 6.135530e+02 1.192312e+02 -5.757931e+02
-1.674422e+09 -1.474426e+09 -1.634425e+09 5.875937e+02 8.695860e+01 -5.367005e+02
-1.470189e+09 -1.270192e+09 -1.430192e+09 5.331819e+02 6.146394e+01 -5.016493e+02
-1.557373e+09 -1.357377e+09 -1.517376e+09 5.423408e+02 4.337665e+01 -5.357001e+02
-1.621438e+09 -1.421442e+09 -1.581441e+09 5.320089e+02 5.057002e+01 -4.995609e+02
-1.576749e+09 -1.376753e+09 -1.536752e+09 5.203096e+02 3.731339e+01 -4.528731e+02
-1.446004e+09 -1.246008e+09 -1.406007e+09 7.303468e+02 3.366614e+01 -6.748647e+02
-1.441395e+09 -1.241399e+09 -1.401398e+09 7.108985e+02 7.625099e+01 -5.912614e+02
-1.446004e+09 -1.246008e+09 -1.406007e+09 6.964094e+02 7.381565e+01 -6.390702e+02
-1.498988e+09 -1.298992e+09 -1.458992e+09 6.971234e+02 7.694322e+01 -6.174218e+02
-1.616043e+09 -1.416047e+09 -1.576046e+09 8.233320e+02 -5.375292e+00 -6.732531e+02
-1.563059e+09 -1.363062e+09 -1.523062e+09 8.168748e+02 5.771004e+00 -6.988986e+02
-1.446004e+09 -1.246008e+09 -1.406007e+09 8.822261e+02 -1.234299e+01 -7.510909e+02
-1.425500e+09 -1.225504e+09 -1.385503e+09 4.956495e+02 8.237414e+01 -4.798249e+02
-1.512684e+09 -1.312688e+09 -1.472687e+09 4.894602e+02 7.667433e+01 -5.120422e+02
-1.475595e+09 -1.275599e+09 -1.435598e+09 4.958581e+02 5.515579e+00 -4.780369e+02
-1.475595e+09 -1.275599e+09 -1.435598e+09 3.369179e+02 6.436772e+01 -5.109402e+02
-1.444863e+09 -1.244867e+09 -1.404867e+09 5.191463e+02 4.399328e+01 -6.248363e+02
-1.425499e+09 -1.225503e+09 -1.385503e+09 5.256367e+02 9.273967e+01 -6.010310e+02
-1.444864e+09 -1.244867e+09 -1.404867e+09 5.376349e+02 4.255751e+01 -6.069828e+02
-1.481953e+09 -1.281956e+09 -1.441956e+09 5.338653e+02 4.850079e+01 -6.080918e+02
-1.444863e+09 -1.244867e+09 -1.404867e+09 3.638139e+02 8.997255e+01 -7.275183e+02
-1.532048e+09 -1.332052e+09 -1.492051e+09 3.669375e+02 9.246008e+01 -6.746656e+02
-1.569137e+09 -1.369141e+09 -1.529140e+09 5.446069e+02 6.321768e+01 -6.367537e+02
-1.494501e+09 -1.294505e+09 -1.454505e+09 6.399997e+02 3.588735e+01 -8.474666e+02
-1.499607e+09 -1.299612e+09 -1.459612e+09 6.482279e+02 3.636357e+01 -9.461274e+02
-1.552525e+09 -1.352529e+09 -1.512529e+09 6.095825e+02 9.919532e+00 -8.858602e+02
-1.555348e+09 -1.355353e+09 -1.515353e+09 6.073074e+02 5.110409e+01 -9.277484e+02
-1.675039e+09 -1.475044e+09 -1.635043e+09 6.187556e+02 5.843567e+01 -1.120150e+03
-1.735361e+09 -1.535366e+09 -1.695365e+09 6.720248e+02 2.489813e+01 -9.234139e+02
-1.666021e+09 -1.466025e+09 -1.626024e+09 6.156226e+02 -3.106497e+01 -8.966288e+02
-1.444151e+09 -1.244155e+09 -1.404155e+09 6.985372e+02 2.661078e+01 -7.797007e+02
-1.441584e+09 -1.241588e+09 -1.401588e+09 6.699651e+02 2.118362e+01 -8.712753e+02
-1.497325e+09 -1.297329e+09 -1.457329e+09 7.026520e+02 4.455354e+01 -8.339604e+02
-1.441584e+09 -1.241588e+09 -1.401588e+09 6.615049e+02 6.827378e+01 -8.507399e+02
-1.441584e+09 -1.241588e+09 -1.401588e+09 9.006481e+02 -8.850825e+01 -1.003183e+03
-1.561275e+09 -1.361279e+09 -1.521278e+09 8.318421e+02 -8.444075e+01 -8.878319e+02
-1.617016e+09 -1.417020e+09 -1.577019e+09 8.796718e+02 -7.232690e+01 -9.065372e+02
-1.438760e+09 -1.238764e+09 -1.398764e+09 4.672706e+02 6.138353e+01 -7.322155e+02
-1.446433e+09 -1.246438e+09 -1.406438e+09 3.910060e+02 8.015225e+01 -8.609407e+02
-1.438760e+09 -1.238764e+09 -1.398764e+09 3.985108e+02 7.767243e+01 -7.751452e+02
-1.496784e+09 -1.296788e+09 -1.456788e+09 3.899844e+02 6.529223e+01 -8.038071e+02
-1.610280e+09 -1.410284e+09 -1.570284e+09 4.018105e+02 5.902290e+01 -8.083066e+02
-1.552255e+09 -1.352260e+09 -1.512260e+09 2.963048e+02 5.752976e+01 -7.304842e+02
-1.438760e+09 -1.238764e+09 -1.398764e+09 2.376000e+02 9.369148e+01 -8.910137e+02
-1.508915e+09 -1.308920e+09 -1.468919e+09 2.999525e+02 1.168768e+02 -8.923096e+02
-1.622412e+09 -1.422416e+09 -1.582416e+09 4.101008e+02 6.803878e+01 -7.778734e+02
-1.564388e+09 -1.364392e+09 -1.524392e+09 2.141358e+02 7.535816e+01 -7.912651e+02
-1.669913e+09 -1.469918e+09 -1.629917e+09 1.696730e+02 9.632650e+01 -8.237756e+02
-1.435744e+09 -1.235749e+09 -1.395749e+09 5.882128e+02 -3.441481e+01 -1.358418e+03
-1.436582e+09 -1.236587e+09 -1.396586e+09 6.277630e+02 -4.518996e+01 -1.171021e+03
-1.435744e+09 -1.235749e+09 -1.395749e+09 6.194479e+02 -1.544355e+01 -1.363554e+03
-1.483917e+09 -1.283922e+09 -1.443922e+09 6.353239e+02 -2.150234e+01 -1.219918e+03
-1.592113e+09 -1.392117e+09 -1.552117e+09 7.204893e+02 -1.254763e+02 -1.356559e+03
-1.543940e+09 -1.343945e+09 -1.503944e+09 7.365241e+02 -9.857379e+01 -1.376237e+03
-1.435744e+09 -1.235749e+09 -1.395749e+09 8.243025e+02 -8.076302e+01 -1.612429e+03
-1.488707e+09 -1.288712e+09 -1.448712e+09 7.048337e+02 -5.615971e+01 -1.235216e+03
-1.596903e+09 -1.396908e+09 -1.556908e+09 7.140540e+02 -5.314858e+01 -1.258335e+03
-1.548730e+09 -1.348735e+09 -1.508735e+09 7.303161e+02 -3.015064e+01 -1.298548e+03
-1.656927e+09 -1.456932e+09 -1.616931e+09 9.363895e+02 -1.390324e+02 -1.561321e+03
-1.552238e+09 -1.352243e+09 -1.512243e+09 5.081700e+02 1.079075e+02 -1.085493e+03
-1.657764e+09 -1.457768e+09 -1.617768e+09 5.004741e+02 5.004741e+00 -1.188562e+03
-1.703477e+09 -1.503482e+09 -1.663482e+09 5.219126e+02 1.181949e+02 -1.255189e+03
-1.774995e+09 -1.575000e+09 -1.734999e+09 5.402586e+02 1.280583e+02 -1.303020e+03
-1.562090e+09 -1.362094e+09 -1.522093e+09 4.660164e+02 1.373483e+02 -1.067843e+03
-1.822238e+09 -1.622243e+09 -1.782242e+09 5.855526e+02 6.098596e+01 -9.815365e+02
-1.657206e+09 -1.457210e+09 -1.617210e+09 4.541353e+02 9.311980e+01 -9.638352e+02
-1.704708e+09 -1.504712e+09 -1.664711e+09 4.197266e+02 5.977138e+01 -9.348664e+02
-1.761916e+09 -1.561921e+09 -1.721920e+09 5.705507e+02 6.392479e+01 -1.106788e+03
-1.717528e+09 -1.517532e+09 -1.677531e+09 4.916879e+02 5.582587e+01 -8.788525e+02
-1.765030e+09 -1.565034e+09 -1.725033e+09 5.148934e+02 9.797342e+00 -8.309058e+02
-1.714414e+09 -1.514419e+09 -1.674418e+09 5.971798e+02 2.932213e+01 -1.108245e+03
-1.774736e+09 -1.574741e+09 -1.734740e+09 6.036749e+02 2.603562e+01 -9.183064e+02
-1.541882e+09 -1.341887e+09 -1.501887e+09 5.636536e+02 2.477564e+01 -9.679589e+02
-1.650078e+09 -1.450082e+09 -1.610082e+09 5.646729e+02 4.574343e+01 -9.617937e+02
-1.710102e+09 -1.510106e+09 -1.670106e+09 7.922283e+02 -6.035541e+01 -1.478519e+03
-1.777667e+09 -1.577671e+09 -1.737671e+09 7.851199e+02 -5.162763e+01 -1.020095e+03
-1.440535e+09 -1.240540e+09 -1.400539e+09 7.172847e+02 -8.079945e+01 -1.270080e+03
-1.440535e+09 -1.240540e+09 -1.400539e+09 7.335416e+02 -2.487242e+01 -1.296338e+03
-1.440535e+09 -1.240540e+09 -1.400539e+09 9.877543e+02 -1.728415e+02 -1.393952e+03
-1.548732e+09 -1.348736e+09 -1.508736e+09 1.113713e+03 -2.114131e+02 -1.513780e+03
-1.435744e+09 -1.235749e+09 -1.395749e+09 2.481044e+02 8.455578e+01 -1.416507e+03
-1.436581e+09 -1.236587e+09 -1.396586e+09 3.217921e+02 1.295092e+02 -1.070229e+03
-1.483917e+09 -1.283922e+09 -1.443922e+09 2.559838e+02 8.218623e+01 -1.156513e+03
-1.436582e+09 -1.236587e+09 -1.396586e+09 2.870262e+02 1.079383e+02 -1.127714e+03
-1.436581e+09 -1.236587e+09 -1.396586e+09 7.731726e+01 1.573923e+02 -1.399279e+03
-1.544777e+09 -1.344782e+09 -1.504782e+09 9.983239e+01 1.364106e+02 -1.325272e+03
-1.592113e+09 -1.392118e+09 -1.552117e+09 1.799526e+02 1.486732e+02 -1.272588e+03
-1.493710e+09 -1.293714e+09 -1.453714e+09 6.244861e+02 6.449581e+00 -9.517490e+02
-1.493709e+09 -1.293714e+09 -1.453714e+09 8.733035e+02 -7.440039e+01 -1.109943e+03
-1.669472e+09 -1.469475e+09 -1.629475e+09 8.246710e+02 -7.909547e+01 -1.024203e+03
-1.601906e+09 -1.401911e+09 -1.561910e+09 9.882842e+02 -1.218469e+02 -1.354817e+03
-1.499064e+09 -1.299069e+09 -1.459068e+09 3.200978e+02 1.304679e+02 -9.428327e+02
-1.604590e+09 -1.404595e+09 -1.564594e+09 1.112886e+02 2.425028e+02 -1.022924e+03
-1.542108e+09 -1.342113e+09 -1.502112e+09 1.064791e+02 1.513413e+02 -1.183175e+03
-1.650303e+09 -1.450308e+09 -1.610308e+09 1.238764e+02 1.356037e+02 -1.108091e+03
-1.450891e+09 -1.250896e+09 -1.410896e+09 2.754811e+02 7.864049e+01 -9.209139e+02
-1.450891e+09 -1.250896e+09 -1.410896e+09 3.028486e+02 -8.881143e+00 -8.803072e+02
-1.493935e+09 -1.293940e+09 -1.453939e+09 1.297185e+01 1.032956e+02 -9.560599e+02
-1.556417e+09 -1.356422e+09 -1.516421e+09 2.010573e+02 6.707449e+01 -9.245160e+02
-1.444867e+09 -1.244873e+09 -1.404873e+09 4.345678e+02 4.366919e+00 -1.596074e+03
-1.430600e+09 -1.230606e+09 -1.390605e+09 3.168419e+02 -4.290338e+01 -1.955853e+03
-1.487060e+09 -1.287065e+09 -1.447065e+09 4.348149e+02 2.108094e+01 -1.687129e+03
-1.430599e+09 -1.230606e+09 -1.390606e+09 3.835231e+02 4.555034e+01 -1.936440e+03
-1.430600e+09 -1.230606e+09 -1.390605e+09 7.835935e+02 -1.793604e+02 -2.348834e+03
-1.536192e+09 -1.336198e+09 -1.496197e+09 6.139064e+02 -1.731964e+02 -1.868074e+03
-1.592652e+09 -1.392657e+09 -1.552657e+09 6.660872e+02 -1.931171e+02 -1.858220e+03
-1.444867e+09 -1.244873e+09 -1.404873e+09 1.075006e+02 1.759775e+02 -1.697563e+03
-1.430599e+09 -1.230606e+09 -1.390605e+09 -3.026728e+01 2.250849e+02 -2.207263e+03
-1.444867e+09 -1.244873e+09 -1.404873e+09 -7.437997e+00 1.948782e+02 -1.772086e+03
-1.487059e+09 -1.287065e+09 -1.447065e+09 -8.907824e+00 2.080453e+02 -1.826082e+03
-1.592651e+09 -1.392657e+09 -1.552656e+09 -1.493197e+02 3.487869e+02 -2.068394e+03
-1.550459e+09 -1.350465e+09 -1.510464e+09 -1.421068e+02 2.726650e+02 -1.974028e+03
-1.444867e+09 -1.244873e+09 -1.404872e+09 -1.599185e+02 2.522514e+02 -2.014715e+03
-1.561100e+09 -1.361106e+09 -1.521106e+09 2.223040e+02 9.878372e+01 -2.508767e+03
-1.678352e+09 -1.478358e+09 -1.638357e+09 2.823091e+02 9.535893e+01 -2.948446e+03
-1.758870e+09 -1.558876e+09 -1.718875e+09 2.543733e+02 -6.937606e+00 -2.875815e+03
-1.817452e+09 -1.617459e+09 -1.777458e+09 5.381942e+02 4.153404e+01 -2.921150e+03
-1.489587e+09 -1.289594e+09 -1.449594e+09 1.714301e+02 -3.768745e+01 -3.002845e+03
-1.512596e+09 -1.312603e+09 -1.472602e+09 3.667223e+02 7.978099e+01 -2.651761e+03
-1.550524e+09 -1.350531e+09 -1.510530e+09 9.334475e+01 7.587265e+01 -2.836135e+03
-1.568877e+09 -1.368883e+09 -1.528883e+09 2.549988e+02 3.392382e+01 -2.749174e+03
-1.697898e+09 -1.497905e+09 -1.657904e+09 2.413712e+02 -9.647068e+01 -2.800990e+03
-1.756481e+09 -1.556487e+09 -1.716486e+09 5.062441e+02 4.659722e+01 -2.897376e+03
-1.672359e+09 -1.472366e+09 -1.632365e+09 1.885398e+02 2.069421e+02 -3.256409e+03
-1.479103e+09 -1.279109e+09 -1.439109e+09 2.873060e+02 -3.984833e+01 -2.156434e+03
-1.479102e+09 -1.279109e+09 -1.439109e+09 7.042275e+02 -1.594907e+02 -2.522665e+03
-1.584695e+09 -1.384701e+09 -1.544701e+09 5.838824e+02 -2.052069e+02 -2.221753e+03
-1.659755e+09 -1.459761e+09 -1.619761e+09 8.411748e+02 -2.286051e+02 -2.436980e+03
-1.482976e+09 -1.282982e+09 -1.442981e+09 -1.172442e+02 1.691213e+02 -2.266401e+03
-1.588568e+09 -1.388574e+09 -1.548574e+09 -1.749693e+02 1.923835e+02 -2.207921e+03
-1.546376e+09 -1.346382e+09 -1.506381e+09 -1.167170e+02 9.743806e+01 -2.001084e+03
-1.655081e+09 -1.455087e+09 -1.615086e+09 -1.760199e+02 1.847296e+02 -2.210944e+03
-1.497846e+09 -1.297853e+09 -1.457852e+09 -1.987570e+01 1.947046e+02 -2.770255e+03
-1.615099e+09 -1.415105e+09 -1.575105e+09 2.497167e+02 4.025108e+01 -2.843889e+03
-1.688431e+09 -1.488437e+09 -1.648436e+09 3.976727e+02 6.887702e+01 -2.889313e+03
-1.627494e+09 -1.427500e+09 -1.587499e+09 9.059862e+01 3.014138e+02 -3.108623e+03
-1.440784e+09 -1.240790e+09 -1.400789e+09 -2.420954e+02 2.476760e+02 -2.061863e+03
-1.440784e+09 -1.240790e+09 -1.400790e+09 -9.695194e+01 3.682205e+01 -1.961961e+03
-1.440784e+09 -1.240790e+09 -1.400789e+09 -6.419581e+02 3.650432e+02 -2.208278e+03
-1.549490e+09 -1.349495e+09 -1.509495e+09 -3.919308e+02 2.604730e+02 -1.874877e+03
-1.546228e+09 -1.346235e+09 -1.506235e+09 -2.342153e+01 2.592686e+02 -2.401955e+03
-1.651820e+09 -1.451827e+09 -1.611826e+09 -3.164426e+01 2.511087e+02 -2.350937e+03
-1.718333e+09 -1.518340e+09 -1.678339e+09 -7.284319e+01 2.217348e+02 -2.449025e+03
-1.794979e+09 -1.594985e+09 -1.754984e+09 -7.112424e+01 2.249382e+02 -2.573817e+03
-1.504036e+09 -1.304043e+09 -1.464043e+09 -1.954401e+02 3.112484e+02 -2.183348e+03
-1.504036e+09 -1.304043e+09 -1.464042e+09 -6.039787e+02 4.378235e+02 -2.374591e+03
-1.689387e+09 -1.489393e+09 -1.649393e+09 -4.360996e+02 3.273648e+02 -2.098007e+03
-1.612742e+09 -1.412748e+09 -1.572748e+09 -3.987443e+02 3.436879e+02 -2.042221e+03
-1.436909e+09 -1.236916e+09 -1.396916e+09 3.673035e+02 -3.282456e+01 -2.576335e+03
-1.543026e+09 -1.343033e+09 -1.503033e+09 9.389373e+02 -1.517126e+02 -3.076580e+03
-1.474278e+09 -1.274285e+09 -1.434284e+09 7.729308e+02 -1.851256e+02 -2.676145e+03
-1.474277e+09 -1.274285e+09 -1.434284e+09 8.442589e+02 -1.740222e+02 -2.722075e+03
-1.591529e+09 -1.391537e+09 -1.551536e+09 9.433974e+02 -2.741141e+02 -3.005250e+03
-1.425774e+09 -1.225781e+09 -1.385780e+09 4.340197e+02 1.456763e+01 -3.153958e+03
-1.425774e+09 -1.225781e+09 -1.385780e+09 8.736137e+02 -2.164069e+02 -3.075410e+03
-1.591530e+09 -1.391537e+09 -1.551536e+09 6.662984e+02 -6.195051e+01 -2.735153e+03
-1.543026e+09 -1.343033e+09 -1.503033e+09 5.749808e+02 7.364055e+01 -3.039455e+03
-1.542356e+09 -1.342362e+09 -1.502362e+09 1.515379e+01 1.222632e+02 -2.348668e+03
-1.647948e+09 -1.447954e+09 -1.607953e+09 1.243594e+00 1.238312e+02 -2.276567e+03
-1.803527e+09 -1.603532e+09 -1.763532e+09 1.967767e+02 2.842036e+01 -2.350055e+03
-1.723009e+09 -1.523014e+09 -1.683013e+09 1.337472e+02 1.611889e+02 -2.497312e+03
-1.433306e+09 -1.233313e+09 -1.393313e+09 1.752969e+01 9.222395e+01 -3.151637e+03
-1.449343e+09 -1.249349e+09 -1.409349e+09 3.626035e+01 1.841637e+02 -2.783704e+03
-1.433306e+09 -1.233313e+09 -1.393313e+09 9.902046e+01 1.428173e+02 -3.131809e+03
-1.494243e+09 -1.294250e+09 -1.454249e+09 4.582187e+01 1.978589e+02 -2.860709e+03
-1.616078e+09 -1.416085e+09 -1.576084e+09 6.093019e+02 3.372919e+01 -3.135986e+03
-1.555141e+09 -1.355148e+09 -1.515147e+09 3.793254e+02 1.994953e+02 -3.496343e+03
-1.433306e+09 -1.233313e+09 -1.393313e+09 3.735946e+02 7.920856e+01 -3.317889e+03
-1.444686e+09 -1.244693e+09 -1.404693e+09 -3.483798e+02 2.376846e+02 -2.880924e+03
-1.451659e+09 -1.251666e+09 -1.411666e+09 -1.807885e+02 3.220859e+02 -2.423088e+03
-1.507940e+09 -1.307947e+09 -1.467947e+09 -3.848583e+02 2.392270e+02 -2.506132e+03
-1.451659e+09 -1.251666e+09 -1.411666e+09 -2.864336e+02 3.264595e+02 -2.510638e+03
-1.451659e+09 -1.251666e+09 -1.411666e+09 -5.124820e+02 4.456268e+02 -2.716258e+03
-1.580680e+09 -1.380688e+09 -1.540687e+09 -4.962590e+02 3.657510e+02 -2.549320e+03
-1.636962e+09 -1.436968e+09 -1.596968e+09 -4.019322e+02 3.943647e+02 -2.599224e+03
-1.511143e+09 -1.311151e+09 -1.471150e+09 1.326898e+02 4.746427e+01 -3.549128e+03
-1.499989e+09 -1.299997e+09 -1.459996e+09 -2.174948e+02 1.271859e+01 -3.959035e+03
-1.575811e+09 -1.375819e+09 -1.535818e+09 4.283850e+01 -3.197143e+01 -3.690117e+03
-1.559603e+09 -1.359612e+09 -1.519611e+09 -3.004785e+02 1.273403e+02 -4.092774e+03
-1.676505e+09 -1.476513e+09 -1.636512e+09 -4.979845e+01 1.183657e+02 -4.697762e+03
-1.766335e+09 -1.566343e+09 -1.726341e+09 2.982676e+02 -1.103475e+02 -4.098819e+03
-1.712556e+09 -1.512564e+09 -1.672562e+09 6.371593e+01 -2.006266e+02 -4.055337e+03
-1.448020e+09 -1.248027e+09 -1.408027e+09 -2.172475e+02 2.205158e+02 -3.810020e+03
-1.435321e+09 -1.235328e+09 -1.395328e+09 -4.475925e+02 1.961267e+02 -4.107976e+03
-1.494935e+09 -1.294944e+09 -1.454943e+09 -3.099792e+02 2.420178e+02 -4.054094e+03
-1.435320e+09 -1.235329e+09 -1.395328e+09 -2.900322e+02 1.974579e+02 -4.238218e+03
-1.435321e+09 -1.235329e+09 -1.395328e+09 3.822720e+02 -1.171766e+02 -4.418597e+03
-1.552223e+09 -1.352231e+09 -1.512229e+09 3.335631e+02 -9.769541e+01 -4.450524e+03
-1.611838e+09 -1.411846e+09 -1.571845e+09 5.960485e+02 -2.908476e+02 -4.081103e+03
-1.451527e+09 -1.251535e+09 -1.411535e+09 -6.622177e+02 3.227447e+02 -3.374946e+03
-1.453071e+09 -1.253080e+09 -1.413080e+09 -9.853199e+02 4.123115e+02 -4.038108e+03
-1.451528e+09 -1.251535e+09 -1.411535e+09 -9.596233e+02 5.105043e+02 -3.358560e+03
-1.516196e+09 -1.316203e+09 -1.476203e+09 -1.059207e+03 4.641534e+02 -3.473724e+03
-1.652941e+09 -1.452948e+09 -1.612948e+09 -1.252351e+03 7.038264e+02 -3.746962e+03
-1.588273e+09 -1.388281e+09 -1.548280e+09 -1.186849e+03 4.378460e+02 -3.458267e+03
-1.451528e+09 -1.251535e+09 -1.411535e+09 -1.137160e+03 5.597035e+02 -3.519328e+03
-1.492027e+09 -1.292035e+09 -1.452036e+09 -1.407532e+03 9.089573e+02 -4.587522e+03
-1.583352e+09 -1.383360e+09 -1.543360e+09 -1.614474e+03 9.938518e+02 -4.776208e+03
-1.681144e+09 -1.481151e+09 -1.641151e+09 -1.170804e+03 8.230001e+02 -4.228561e+03
-1.616475e+09 -1.416482e+09 -1.576483e+09 -2.322622e+03 1.197235e+03 -4.632043e+03
-1.540785e+09 -1.340793e+09 -1.500793e+09 -9.974772e+02 6.508143e+02 -4.538139e+03
-1.632111e+09 -1.432118e+09 -1.592118e+09 -1.205265e+03 6.594826e+02 -4.782087e+03
-1.695139e+09 -1.495147e+09 -1.655147e+09 -1.160228e+03 9.589094e+02 -4.867363e+03
-1.783127e+09 -1.583134e+09 -1.743135e+09 -1.229391e+03 8.622363e+02 -4.187010e+03
-1.484077e+09 -1.284086e+09 -1.444086e+09 -5.430380e+02 2.952486e+02 -5.012797e+03
-1.484078e+09 -1.284086e+09 -1.444086e+09 4.251241e+02 -7.293334e+00 -5.324554e+03
-1.600980e+09 -1.400988e+09 -1.560987e+09 4.428366e+02 -7.230297e+01 -5.277610e+03
-1.656047e+09 -1.456055e+09 -1.616054e+09 4.143747e+02 -1.279345e+01 -5.417428e+03
-1.479292e+09 -1.279301e+09 -1.439301e+09 -1.203192e+03 4.994298e+02 -5.703841e+03
-1.476116e+09 -1.276125e+09 -1.436125e+09 -9.000937e+02 6.618730e+02 -5.152919e+03
-1.528050e+09 -1.328059e+09 -1.488059e+09 -1.191514e+03 6.499609e+02 -5.626634e+03
-1.518948e+09 -1.318956e+09 -1.478956e+09 -1.212235e+03 6.086447e+02 -5.465703e+03
-1.610273e+09 -1.410281e+09 -1.570280e+09 -1.179389e+03 5.742558e+02 -5.314070e+03
-1.673301e+09 -1.473309e+09 -1.633309e+09 -1.015265e+03 6.791422e+02 -5.430946e+03
-1.630033e+09 -1.430042e+09 -1.590041e+09 -1.249792e+03 7.580934e+02 -6.290955e+03
-1.437159e+09 -1.237169e+09 -1.397169e+09 -4.240445e+02 9.606176e+01 -5.598229e+03
-1.437159e+09 -1.237169e+09 -1.397169e+09 -4.377157e+02 9.668433e+01 -5.538683e+03
-1.437159e+09 -1.237169e+09 -1.397168e+09 4.989670e+02 -1.978265e+02 -6.602727e+03
-1.539142e+09 -1.339153e+09 -1.499151e+09 5.788530e+02 -3.136798e+02 -6.720767e+03
-1.431232e+09 -1.231241e+09 -1.391242e+09 -2.169042e+03 1.003818e+03 -5.557447e+03
-1.427357e+09 -1.227367e+09 -1.387367e+09 -1.605339e+03 1.012589e+03 -5.097189e+03
-1.431234e+09 -1.231242e+09 -1.391243e+09 -2.073894e+03 9.690887e+02 -5.114877e+03
-1.470189e+09 -1.270198e+09 -1.430198e+09 -1.913184e+03 9.433037e+02 -5.347429e+03
-1.431233e+09 -1.231242e+09 -1.391242e+09 -2.396303e+03 1.245777e+03 -5.616787e+03
-1.522559e+09 -1.322567e+09 -1.482567e+09 -2.371250e+03 1.239048e+03 -5.218481e+03
-1.561514e+09 -1.361523e+09 -1.521523e+09 -1.763499e+03 1.025718e+03 -5.233574e+03
-1.548745e+09 -1.348754e+09 -1.508755e+09 -2.212126e+02 -1.011116e+02 -4.687950e+03
-1.665647e+09 -1.465656e+09 -1.625654e+09 1.132730e+02 -4.740567e+01 -5.565739e+03
-1.808702e+09 -1.608711e+09 -1.768710e+09 4.246501e+02 -4.037031e+02 -4.940266e+03
-1.720714e+09 -1.520723e+09 -1.680722e+09 5.655562e+01 -1.973576e+02 -5.661268e+03
-1.453072e+09 -1.253079e+09 -1.413080e+09 -1.479354e+03 8.037218e+02 -3.924452e+03
-1.589818e+09 -1.389825e+09 -1.549825e+09 -1.188118e+03 7.879151e+02 -3.683367e+03
-1.525150e+09 -1.325157e+09 -1.485157e+09 -1.153785e+03 4.247106e+02 -3.504538e+03
-1.525150e+09 -1.325157e+09 -1.485157e+09 -2.278871e+03 1.133287e+03 -3.920976e+03
-1.436460e+09 -1.236470e+09 -1.396469e+09 -1.652784e+03 6.096644e+02 -6.206976e+03
-1.437160e+09 -1.237169e+09 -1.397170e+09 -9.664618e+02 3.826738e+02 -5.243116e+03
-1.485218e+09 -1.285228e+09 -1.445227e+09 -1.599048e+03 7.275854e+02 -6.162926e+03
-1.437158e+09 -1.237169e+09 -1.397169e+09 -1.017065e+03 4.402037e+02 -5.602442e+03
-1.587202e+09 -1.387212e+09 -1.547211e+09 -1.188101e+03 4.610302e+02 -6.206539e+03
-1.539144e+09 -1.339153e+09 -1.499152e+09 -3.206913e+02 -6.294907e+01 -6.053531e+03
-1.437159e+09 -1.237169e+09 -1.397169e+09 -3.511889e+02 -1.498658e+01 -5.629134e+03
-1.499623e+09 -1.299632e+09 -1.459631e+09 -1.775195e+03 8.020719e+02 -6.782232e+03
-1.479637e+09 -1.279647e+09 -1.439645e+09 -2.522313e+03 8.107129e+02 -7.409201e+03
-1.546935e+09 -1.346943e+09 -1.506942e+09 -2.282861e+03 9.526224e+02 -6.986080e+03
-1.532812e+09 -1.332822e+09 -1.492821e+09 -2.745694e+03 1.238090e+03 -7.509345e+03
-1.623716e+09 -1.423726e+09 -1.583723e+09 -2.745995e+03 1.335806e+03 -8.605448e+03
-1.683349e+09 -1.483358e+09 -1.643355e+09 -2.190659e+03 1.027541e+03 -6.998278e+03
-1.650491e+09 -1.450499e+09 -1.610496e+09 -2.307913e+03 7.258202e+02 -6.762654e+03
-1.446447e+09 -1.246457e+09 -1.406457e+09 -2.726615e+03 1.149052e+03 -6.345359e+03
-1.435710e+09 -1.235720e+09 -1.395720e+09 -3.197653e+03 1.282462e+03 -7.343895e+03
-1.446448e+09 -1.246456e+09 -1.406456e+09 -3.356444e+03 1.694009e+03 -6.496119e+03
-1.493758e+09 -1.293767e+09 -1.453767e+09 -3.639002e+03 1.408882e+03 -6.463248e+03
-1.597315e+09 -1.397324e+09 -1.557323e+09 -3.364089e+03 1.531695e+03 -6.303202e+03
-1.550005e+09 -1.350014e+09 -1.510013e+09 -3.052630e+03 1.186370e+03 -5.954854e+03
-1.446449e+09 -1.246457e+09 -1.406457e+09 -3.058662e+03 1.495416e+03 -6.317574e+03
-1.441576e+09 -1.241586e+09 -1.401584e+09 -2.454760e+03 1.111626e+03 -7.182558e+03
-1.432326e+09 -1.232336e+09 -1.392334e+09 -2.950567e+03 1.159397e+03 -7.831308e+03
-1.485502e+09 -1.285512e+09 -1.445511e+09 -2.473385e+03 1.137279e+03 -7.379201e+03
-1.432325e+09 -1.232336e+09 -1.392334e+09 -2.479822e+03 1.136850e+03 -8.192055e+03
-1.432325e+09 -1.232336e+09 -1.392333e+09 -1.842745e+03 3.605401e+02 -8.269225e+03
-1.523230e+09 -1.323241e+09 -1.483238e+09 -1.791714e+03 6.648971e+02 -8.387348e+03
-1.576406e+09 -1.376416e+09 -1.536414e+09 -1.506431e+03 5.981082e+02 -8.126362e+03
-1.484012e+09 -1.284023e+09 -1.444020e+09 -3.305140e+03 1.947022e+03 -9.608567e+03
-1.574918e+09 -1.374927e+09 -1.534923e+09 -2.805967e+03 1.861194e+03 -1.016007e+04
-1.642693e+09 -1.442703e+09 -1.602698e+09 -3.042836e+03 1.693567e+03 -9.978815e+03
-1.591004e+09 -1.391015e+09 -1.551012e+09 -3.324168e+03 2.426023e+03 -1.049571e+04
-1.487398e+09 -1.287406e+09 -1.447407e+09 -4.863127e+03 2.470354e+03 -7.234690e+03
-1.590957e+09 -1.390963e+09 -1.550966e+09 -3.918384e+03 1.916226e+03 -6.106764e+03
-1.543648e+09 -1.343652e+09 -1.503653e+09 -5.531949e+03 3.284558e+03 -6.824238e+03
-1.655349e+09 -1.455354e+09 -1.615356e+09 -5.492714e+03 3.061173e+03 -6.636118e+03
-1.438006e+09 -1.238012e+09 -1.398013e+09 -4.928312e+03 3.048173e+03 -9.388675e+03
-1.440088e+09 -1.240095e+09 -1.400096e+09 -4.315697e+03 2.337416e+03 -8.366334e+03
-1.489695e+09 -1.289700e+09 -1.449701e+09 -5.135787e+03 3.141737e+03 -8.707395e+03
-1.440089e+09 -1.240094e+09 -1.400095e+09 -5.048968e+03 3.187524e+03 -8.642200e+03
-1.440090e+09 -1.240095e+09 -1.400095e+09 -4.746976e+03 3.076428e+03 -8.486021e+03
-1.551791e+09 -1.351797e+09 -1.511796e+09 -4.758965e+03 2.803188e+03 -8.206969e+03
-1.601397e+09 -1.401403e+09 -1.561402e+09 -4.917026e+03 3.044736e+03 -8.529840e+03
-1.435713e+09 -1.235718e+09 -1.395718e+09 -4.339290e+03 2.858354e+03 -7.281299e+03
-1.539271e+09 -1.339276e+09 -1.499277e+09 -3.190009e+03 2.084484e+03 -5.964259e+03
-1.491961e+09 -1.291965e+09 -1.451966e+09 -3.547439e+03 1.764197e+03 -5.806691e+03
-1.491960e+09 -1.291964e+09 -1.451964e+09 -5.242007e+03 3.454202e+03 -6.299669e+03
-1.531326e+09 -1.331334e+09 -1.491332e+09 -2.677355e+03 1.058030e+03 -7.635028e+03
-1.622231e+09 -1.422239e+09 -1.582236e+09 -2.627458e+03 1.298822e+03 -8.448061e+03
-1.681862e+09 -1.481870e+09 -1.641868e+09 -2.038602e+03 1.080904e+03 -7.100454e+03
-1.746254e+09 -1.546261e+09 -1.706259e+09 -2.332825e+03 9.734496e+02 -7.704669e+03
-1.432324e+09 -1.232335e+09 -1.392335e+09 -2.735745e+03 1.452803e+03 -9.367459e+03
-1.507920e+09 -1.307933e+09 -1.467930e+09 -1.226687e+03 8.157891e+02 -1.081345e+04
-1.460944e+09 -1.260955e+09 -1.420953e+09 -1.777341e+03 9.345403e+02 -9.656123e+03
-1.551849e+09 -1.351859e+09 -1.511856e+09 -1.981406e+03 1.083662e+03 -9.956818e+03
-1.507920e+09 -1.307932e+09 -1.467930e+09 -2.518389e+03 1.759000e+03 -1.050248e+04
-1.460943e+09 -1.260955e+09 -1.420953e+09 -1.390890e+03 7.334220e+02 -1.003279e+04
-1.551847e+09 -1.351859e+09 -1.511855e+09 -1.136664e+03 2.171417e+02 -1.059219e+04
-1.417016e+09 -1.217027e+09 -1.377024e+09 -2.933897e+03 2.012456e+03 -1.122195e+04
-1.417016e+09 -1.217028e+09 -1.377025e+09 -1.254756e+03 5.913014e+02 -1.085581e+04
-1.438007e+09 -1.238013e+09 -1.398013e+09 -4.832738e+03 2.681311e+03 -9.224753e+03
-1.440088e+09 -1.240096e+09 -1.400095e+09 -4.053393e+03 1.949774e+03 -8.199942e+03
-1.438004e+09 -1.238013e+09 -1.398011e+09 -3.971542e+03 2.370473e+03 -1.053289e+04
-1.489696e+09 -1.289703e+09 -1.449702e+09 -3.671196e+03 2.182251e+03 -8.738604e+03
-1.601397e+09 -1.401402e+09 -1.561401e+09 -3.866156e+03 9.686476e+02 -8.440928e+03
-1.549708e+09 -1.349715e+09 -1.509714e+09 -4.235937e+03 1.785223e+03 -8.846172e+03
-1.438004e+09 -1.238013e+09 -1.398011e+09 -3.664152e+03 2.281254e+03 -1.081355e+04
-1.447775e+09 -1.247779e+09 -1.407779e+09 -5.884046e+03 4.341890e+03 -1.020999e+04
-1.442676e+09 -1.242678e+09 -1.402677e+09 -5.754865e+03 5.038119e+03 -1.041239e+04
-1.447776e+09 -1.247778e+09 -1.407777e+09 -6.679117e+03 5.622890e+03 -1.050237e+04
-1.502049e+09 -1.302051e+09 -1.462050e+09 -6.594531e+03 5.722367e+03 -1.073605e+04
-1.616434e+09 -1.416437e+09 -1.576435e+09 -6.213123e+03 4.843347e+03 -1.037788e+04
-1.562163e+09 -1.362164e+09 -1.522164e+09 -5.879874e+03 4.312031e+03 -9.152439e+03
-1.447778e+09 -1.247780e+09 -1.407780e+09 -5.822353e+03 4.518330e+03 -9.248497e+03
-1.447775e+09 -1.247779e+09 -1.407779e+09 -6.020794e+03 4.140453e+03 -1.015711e+04
-1.442675e+09 -1.242676e+09 -1.402677e+09 -6.608650e+03 5.162333e+03 -1.067465e+04
-1.502050e+09 -1.302053e+09 -1.462052e+09 -5.430805e+03 4.365077e+03 -1.008564e+04
-1.442672e+09 -1.242677e+09 -1.402674e+09 -5.615799e+03 4.505012e+03 -1.236443e+04
-1.442672e+09 -1.242676e+09 -1.402672e+09 -4.929114e+03 3.579643e+03 -1.266107e+04
-1.557060e+09 -1.357062e+09 -1.517062e+09 -5.774476e+03 3.732097e+03 -1.001838e+04
-1.616434e+09 -1.416435e+09 -1.576435e+09 -5.935094e+03 3.404663e+03 -9.780172e+03
-1.488612e+09 -1.288614e+09 -1.448610e+09 -6.753269e+03 6.234090e+03 -9.878039e+03
-1.602997e+09 -1.402998e+09 -1.562994e+09 -6.843447e+03 6.431762e+03 -9.735705e+03
-1.548725e+09 -1.348725e+09 -1.508723e+09 -6.378513e+03 5.883004e+03 -8.786735e+03
-1.634369e+09 -1.434369e+09 -1.594365e+09 -6.497690e+03 6.393582e+03 -8.998303e+03
-1.501566e+09 -1.301566e+09 -1.461567e+09 -6.700298e+03 5.101889e+03 -1.076790e+04
-1.501566e+09 -1.301567e+09 -1.461563e+09 -4.276671e+03 3.687741e+03 -1.253217e+04
-1.615951e+09 -1.415952e+09 -1.575952e+09 -5.380079e+03 3.839589e+03 -1.017074e+04
-1.669166e+09 -1.469166e+09 -1.629165e+09 -5.132597e+03 3.383904e+03 -1.033365e+04
-1.434343e+09 -1.234337e+09 -1.394341e+09 -6.914039e+03 5.640675e+03 -6.898352e+03
-1.434344e+09 -1.234337e+09 -1.394343e+09 -6.388834e+03 5.119967e+03 -5.941737e+03
-1.434343e+09 -1.234336e+09 -1.394340e+09 -7.096756e+03 6.588197e+03 -6.261136e+03
-1.519991e+09 -1.319984e+09 -1.479990e+09 -6.123786e+03 4.453019e+03 -4.180016e+03
-1.447289e+09 -1.247291e+09 -1.407288e+09 -5.200959e+03 3.707107e+03 -1.336595e+04
-1.447288e+09 -1.247291e+09 -1.407287e+09 -5.596181e+03 3.379857e+03 -1.303922e+04
-1.447286e+09 -1.247291e+09 -1.407283e+09 -2.925627e+03 2.386817e+03 -1.589277e+04
-1.554772e+09 -1.354776e+09 -1.514769e+09 -3.447108e+03 7.959526e+02 -1.561145e+04
-1.494511e+09 -1.294499e+09 -1.454505e+09 -4.865869e+03 4.076891e+03 -6.727510e+03
-1.493232e+09 -1.293227e+09 -1.453227e+09 -4.814468e+03 4.613815e+03 -9.427215e+03
-1.553397e+09 -1.353393e+09 -1.513392e+09 -5.469464e+03 4.787707e+03 -9.333543e+03
-1.546083e+09 -1.346079e+09 -1.506078e+09 -4.964590e+03 4.574899e+03 -8.780205e+03
-1.631729e+09 -1.431724e+09 -1.591724e+09 -4.685083e+03 3.594331e+03 -7.265104e+03
-1.693281e+09 -1.493276e+09 -1.653277e+09 -5.115930e+03 2.974633e+03 -7.730550e+03
-1.660885e+09 -1.460881e+09 -1.620881e+09 -5.515740e+03 3.352638e+03 -8.909059e+03
-1.441657e+09 -1.241647e+09 -1.401651e+09 -6.970738e+03 4.979202e+03 -8.568993e+03
-1.447294e+09 -1.247288e+09 -1.407290e+09 -6.854364e+03 5.292311e+03 -1.083463e+04
-1.500543e+09 -1.300542e+09 -1.460539e+09 -6.651473e+03 4.851970e+03 -1.073911e+04
-1.447293e+09 -1.247288e+09 -1.407290e+09 -6.055722e+03 5.482514e+03 -1.175595e+04
-1.608029e+09 -1.408027e+09 -1.568026e+09 -7.607668e+03 4.623186e+03 -1.076804e+04
-1.554778e+09 -1.354772e+09 -1.514775e+09 -8.084981e+03 2.238598e+03 -1.054778e+04
-1.447292e+09 -1.247286e+09 -1.407288e+09 -6.584815e+03 3.981806e+03 -1.112028e+04
-1.547501e+09 -1.347503e+09 -1.507500e+09 -6.830961e+03 6.843592e+03 -1.120041e+04
-1.661886e+09 -1.461888e+09 -1.621885e+09 -6.822954e+03 7.073824e+03 -1.098753e+04
-1.693256e+09 -1.493259e+09 -1.653255e+09 -6.697321e+03 7.345563e+03 -1.048247e+04
-1.754809e+09 -1.554811e+09 -1.714808e+09 -6.692893e+03 7.268150e+03 -1.131280e+04
-1.441261e+09 -1.241251e+09 -1.401256e+09 -4.839157e+03 5.381143e+03 -7.027493e+03
-1.434343e+09 -1.234338e+09 -1.394340e+09 -5.108122e+03 5.607387e+03 -9.652065e+03
-1.487192e+09 -1.287185e+09 -1.447190e+09 -7.475285e+03 6.006295e+03 -8.078908e+03
-1.434345e+09 -1.234334e+09 -1.394337e+09 -5.757320e+03 7.971265e+03 -9.520619e+03
-1.434348e+09 -1.234338e+09 -1.394341e+09 -3.667067e+03 6.258118e+03 -7.741025e+03
-1.519993e+09 -1.319986e+09 -1.479988e+09 -3.526748e+03 3.834561e+03 -6.145060e+03
-1.572839e+09 -1.372834e+09 -1.532838e+09 -5.640448e+03 4.000322e+03 -6.324615e+03
-1.466709e+09 -1.266693e+09 -1.426701e+09 -4.762195e+03 3.790819e+03 -4.469208e+03
-1.477899e+09 -1.277879e+09 -1.437889e+09 -2.613761e+03 4.518293e+03 -2.079043e+03
-1.510812e+09 -1.310796e+09 -1.470803e+09 -5.154155e+03 3.556802e+03 -3.953942e+03
-1.511877e+09 -1.311864e+09 -1.471869e+09 -3.966055e+03 3.909530e+03 -4.427732e+03
-1.596291e+09 -1.396279e+09 -1.556281e+09 -3.916374e+03 4.524198e+03 -6.363822e+03
-1.643395e+09 -1.443379e+09 -1.603385e+09 -3.838562e+03 4.576148e+03 -3.174785e+03
-1.603293e+09 -1.403277e+09 -1.563286e+09 -5.503537e+03 4.674090e+03 -2.771437e+03
-1.422390e+09 -1.222377e+09 -1.382383e+09 -6.423131e+03 4.296017e+03 -5.718312e+03
-1.433793e+09 -1.233774e+09 -1.393781e+09 -4.070582e+03 5.921173e+03 -4.169065e+03
-1.467773e+09 -1.267759e+09 -1.427765e+09 -5.785661e+03 4.533345e+03 -5.666955e+03
-1.433793e+09 -1.233778e+09 -1.393783e+09 -4.148444e+03 3.236362e+03 -5.950560e+03
-1.433789e+09 -1.233771e+09 -1.393778e+09 -5.832189e+03 7.596193e+02 -4.941250e+03
-1.518205e+09 -1.318191e+09 -1.478196e+09 -6.206001e+03 3.809643e+03 -6.268418e+03
-1.552188e+09 -1.352175e+09 -1.512178e+09 -5.346993e+03 4.187308e+03 -6.674605e+03
-1.432730e+09 -1.232715e+09 -1.392722e+09 -3.838604e+03 5.326165e+03 -4.975889e+03
-1.432519e+09 -1.232501e+09 -1.392508e+09 -1.014395e+03 4.717367e+03 -2.249634e+03
-1.432729e+09 -1.232713e+09 -1.392719e+09 -3.771300e+03 7.330972e+03 -4.132804e+03
-1.476831e+09 -1.276815e+09 -1.436823e+09 -5.450466e+03 5.395181e+03 -3.834627e+03
-1.569311e+09 -1.369294e+09 -1.529305e+09 -4.839139e+03 5.397316e+03 -2.940406e+03
-1.525214e+09 -1.325197e+09 -1.485206e+09 -1.871397e+03 3.544954e+03 -1.107967e+03
-1.432734e+09 -1.232716e+09 -1.392725e+09 -1.525438e+03 4.943778e+03 -1.306227e+03
-1.579861e+09 -1.379848e+09 -1.539857e+09 -4.860376e+03 4.028308e+03 -1.174724e+03
-1.683492e+09 -1.483479e+09 -1.643486e+09 -3.118759e+03 2.979925e+03 -5.155003e+03
-1.774940e+09 -1.574926e+09 -1.734939e+09 -2.283192e+03 3.799886e+03 -1.349371e+03
-1.827190e+09 -1.627176e+09 -1.787187e+09 -4.957460e+03 1.556080e+03 -1.014299e+03
-1.501579e+09 -1.301566e+09 -1.461571e+09 -1.263444e+03 1.227801e+03 -9.031037e+02
-1.594053e+09 -1.394038e+09 -1.554047e+09 -5.612112e+03 5.072408e+03 -2.373156e+03
-1.549955e+09 -1.349948e+09 -1.509953e+09 -1.745673e+03 -7.214796e+01 -1.990264e+02
-1.687318e+09 -1.487308e+09 -1.647312e+09 -3.204059e+03 2.176891e+03 -1.632202e+03
-1.548772e+09 -1.348759e+09 -1.508770e+09 -3.542869e+03 2.080732e+03 -3.885694e+03
-1.652404e+09 -1.452391e+09 -1.612400e+09 -2.206036e+03 1.056223e+03 -7.806781e+03
-1.690900e+09 -1.490889e+09 -1.650891e+09 -5.625759e+03 5.362391e+03 -9.696811e+03
-1.782886e+09 -1.582875e+09 -1.742882e+09 -4.490833e+03 2.528044e+03 -5.688247e+03
-1.581448e+09 -1.381429e+09 -1.541444e+09 -4.201274e+03 6.435989e+03 -9.627881e+02
-1.718814e+09 -1.518795e+09 -1.678815e+09 -3.742285e+03 5.223462e+03 1.999788e+02
-1.745048e+09 -1.545032e+09 -1.705048e+09 -4.118118e+03 5.700421e+03 2.451223e+03
-1.818852e+09 -1.618832e+09 -1.778853e+09 -5.096815e+03 3.799365e+03 3.666363e+02
-1.483052e+09 -1.283023e+09 -1.443049e+09 3.469940e+03 -2.888589e+03 8.899922e+03
-1.512397e+09 -1.312375e+09 -1.472391e+09 2.734701e+03 1.532687e+03 2.675342e+03
-1.559514e+09 -1.359492e+09 -1.519509e+09 -1.504766e+03 1.545870e+03 4.058808e+03
-1.563040e+09 -1.363023e+09 -1.523037e+09 1.292754e+03 1.329523e+03 4.228760e+03
-1.658339e+09 -1.458321e+09 -1.618338e+09 1.709252e+03 4.501316e+02 5.432316e+03
-1.732141e+09 -1.532118e+09 -1.692141e+09 -2.288334e+03 -1.000553e+03 3.475838e+03
-1.680824e+09 -1.480802e+09 -1.640824e+09 -2.874696e+03 -5.928354e+02 2.597588e+03
-1.432398e+09 -1.232375e+09 -1.392397e+09 -1.101890e+03 -2.568394e+02 5.763899e+03
-1.464883e+09 -1.264864e+09 -1.424880e+09 -1.869213e+03 2.696052e+03 1.010909e+03
-1.432396e+09 -1.232376e+09 -1.392391e+09 -1.322793e+03 -2.771643e+03 2.843317e+03
-1.508860e+09 -1.308843e+09 -1.468860e+09 -6.699753e+03 1.902294e+03 2.422843e+03
-1.630170e+09 -1.430147e+09 -1.590171e+09 -8.161246e+03 2.605546e+03 3.103778e+01
-1.553695e+09 -1.353682e+09 -1.513701e+09 -3.477325e+03 3.833619e+02 -1.934806e+03
-1.432393e+09 -1.232374e+09 -1.392399e+09 -5.506102e+03 -1.641195e+03 5.722516e+03
-1.546957e+09 -1.346943e+09 -1.506951e+09 -3.501753e+03 9.234658e+02 -6.140186e+02
-1.631367e+09 -1.431358e+09 -1.591359e+09 -4.251930e+03 4.587256e+03 -5.695054e+03
-1.678471e+09 -1.478458e+09 -1.638462e+09 -3.921202e+03 4.491109e+03 -2.484234e+03
-1.771732e+09 -1.571721e+09 -1.731727e+09 -4.503854e+03 1.478525e+03 -1.065487e+03
-1.504983e+09 -1.304966e+09 -1.464975e+09 -1.047439e+03 4.884587e+03 1.243006e+03
-1.642350e+09 -1.442331e+09 -1.602344e+09 -3.793253e+02 2.788643e+03 3.361630e+03
-1.573289e+09 -1.373270e+09 -1.533283e+09 1.638565e+01 4.801672e+03 3.678118e+03
-1.668584e+09 -1.468569e+09 -1.628580e+09 -8.807021e+02 3.672611e+03 3.934880e+03
-1.434329e+09 -1.234314e+09 -1.394327e+09 -3.207175e+02 2.898917e+02 -5.636045e+03
-1.434323e+09 -1.234309e+09 -1.394323e+09 -4.078796e+03 3.182263e+03 -7.277840e+03
-1.434320e+09 -1.234308e+09 -1.394316e+09 -9.278725e+02 -3.298305e+03 -9.161388e+03
-1.537958e+09 -1.337946e+09 -1.497957e+09 3.828296e+02 -1.171200e+03 -1.123810e+04
-1.479709e+09 -1.279693e+09 -1.439705e+09 -5.809029e+03 5.408227e+03 -6.850709e+03
-1.479708e+09 -1.279690e+09 -1.439701e+09 -5.683756e+03 1.128629e+03 -6.902334e+03
-1.621842e+09 -1.421827e+09 -1.581833e+09 -7.927653e+03 3.040723e+03 -1.103711e+04
-1.583343e+09 -1.383325e+09 -1.543340e+09 -4.416223e+03 1.472656e+03 -9.279566e+03
-1.457477e+09 -1.257459e+09 -1.417467e+09 -9.159724e+02 4.865215e+03 1.727989e+03
-1.457477e+09 -1.257455e+09 -1.417469e+09 -6.426398e+02 5.171503e+03 3.315074e+03
-1.525783e+09 -1.325763e+09 -1.485776e+09 -8.054468e+02 4.713695e+03 3.239273e+03
-1.594843e+09 -1.394824e+09 -1.554837e+09 -1.107610e+03 2.795829e+03 2.942103e+03
-1.510794e+09 -1.310785e+09 -1.470793e+09 4.211797e+02 3.173915e+02 -3.626356e+03
-1.680849e+09 -1.480849e+09 -1.640849e+09 -2.694541e+03 1.947705e+02 -8.753767e+03
-1.578299e+09 -1.378285e+09 -1.538296e+09 -1.955673e+03 -7.100265e+02 -3.819763e+03
-1.501828e+09 -1.301822e+09 -1.461827e+09 -5.836255e+03 2.019946e+03 -5.739091e+03
-1.605462e+09 -1.405461e+09 -1.565459e+09 -1.132509e+03 7.639045e+02 -8.422600e+03
-1.653693e+09 -1.453684e+09 -1.613689e+09 -6.320271e+03 1.069634e+03 -3.151711e+03
-1.577213e+09 -1.377215e+09 -1.537215e+09 -4.544666e+03 6.922844e+02 -7.625215e+03
-1.681931e+09 -1.481922e+09 -1.641928e+09 -2.064163e+03 2.520961e+03 -6.908232e+03
-1.757321e+09 -1.557314e+09 -1.717318e+09 -4.312676e+03 -6.896484e+02 -6.753716e+03
-1.439072e+09 -1.239048e+09 -1.399066e+09 4.720815e+03 -2.596678e+03 9.637681e+03
-1.435929e+09 -1.235909e+09 -1.395918e+09 4.337244e+03 9.656479e+02 2.874681e+03
-1.486570e+09 -1.286551e+09 -1.446566e+09 3.393817e+02 -6.371595e+00 4.935297e+03
-1.435929e+09 -1.235906e+09 -1.395918e+09 4.836156e+03 2.606871e+03 4.677579e+03
-1.435934e+09 -1.235911e+09 -1.395924e+09 7.377959e+03 -6.022275e+02 7.058151e+03
-1.531231e+09 -1.331212e+09 -1.491223e+09 6.890694e+03 -3.375089e+03 7.997146e+03
-1.581868e+09 -1.381849e+09 -1.541866e+09 1.240558e+03 -1.555317e+03 5.961343e+03
-1.492417e+09 -1.292393e+09 -1.452421e+09 3.438209e+03 -9.037245e+03 1.407116e+04
-1.461194e+09 -1.261179e+09 -1.421216e+09 -6.489945e+02 -1.135121e+04 1.780698e+04
-1.539158e+09 -1.339142e+09 -1.499172e+09 -7.711259e+02 -1.175557e+04 1.359276e+04
-1.514004e+09 -1.313991e+09 -1.474020e+09 -5.089471e+02 -1.199421e+04 1.316080e+04
-1.605342e+09 -1.405326e+09 -1.565358e+09 -7.771208e+02 -1.318957e+04 1.093612e+04
-1.691211e+09 -1.491190e+09 -1.651230e+09 -2.661860e+03 -8.728601e+03 1.181404e+04
-1.651057e+09 -1.451040e+09 -1.611075e+09 -6.308006e+02 -8.217513e+03 1.212491e+04
-1.441232e+09 -1.241215e+09 -1.401234e+09 -5.664743e+02 -7.216702e+03 9.177934e+03
-1.414442e+09 -1.214436e+09 -1.374457e+09 -6.019372e+02 -1.689277e+04 1.352124e+04
-1.467253e+09 -1.267239e+09 -1.427261e+09 -4.746574e+03 -8.957833e+03 8.770510e+03
-1.414443e+09 -1.214428e+09 -1.374455e+09 -1.357337e+02 -1.657858e+04 1.313937e+04
-1.414438e+09 -1.214426e+09 -1.374453e+09 -4.440134e+03 -1.677149e+04 1.646279e+04
-1.505768e+09 -1.305762e+09 -1.465786e+09 -3.032807e+03 -1.268800e+04 9.190224e+03
-1.558587e+09 -1.358570e+09 -1.518597e+09 -5.241770e+03 -7.891454e+03 7.393496e+03
-1.439603e+09 -1.239580e+09 -1.399605e+09 4.874535e+03 -8.734164e+03 1.369966e+04
-1.435171e+09 -1.235155e+09 -1.395189e+09 2.604834e+03 -1.397019e+04 1.833518e+04
-1.439601e+09 -1.239582e+09 -1.399605e+09 5.597644e+03 -1.028647e+04 1.286550e+04
-1.486344e+09 -1.286329e+09 -1.446355e+09 1.550692e+03 -1.265671e+04 1.312349e+04
-1.598239e+09 -1.398221e+09 -1.558255e+09 3.163187e+02 -1.173957e+04 1.251854e+04
-1.551502e+09 -1.351485e+09 -1.511513e+09 7.348286e+03 -1.533294e+04 1.570486e+04
-1.439605e+09 -1.239585e+09 -1.399611e+09 7.523198e+03 -1.264101e+04 1.541632e+04
-1.464102e+09 -1.264099e+09 -1.424133e+09 -3.606775e+03 -1.837156e+04 7.281939e+03
-1.464095e+09 -1.264086e+09 -1.424128e+09 -1.085919e+04 -2.097165e+04 1.104968e+04
-1.555422e+09 -1.355423e+09 -1.515448e+09 -9.568300e+03 -1.464459e+04 1.267929e+03
-1.641194e+09 -1.441184e+09 -1.601224e+09 -1.603200e+04 -1.484499e+04 -3.275096e+03
-1.483831e+09 -1.283803e+09 -1.443869e+09 1.362721e+03 -1.487312e+04 1.228445e+04
-1.484817e+09 -1.284775e+09 -1.444844e+09 1.450068e+02 -4.707518e+03 1.315003e+04
-1.533495e+09 -1.333471e+09 -1.493530e+09 -2.219473e+03 -1.713250e+04 1.147924e+04
-1.534997e+09 -1.334970e+09 -1.495029e+09 -3.619740e+03 -1.792812e+04 1.316444e+04
-1.646889e+09 -1.446863e+09 -1.606914e+09 -4.304491e+03 -3.602593e+03 1.022789e+04
-1.711942e+09 -1.511911e+09 -1.671973e+09 -1.228646e+04 -1.244372e+04 6.369404e+03
-1.645296e+09 -1.445271e+09 -1.605332e+09 -2.538245e+03 -2.349998e+04 6.723428e+03
-1.510852e+09 -1.310836e+09 -1.470882e+09 -6.684722e+03 -1.127838e+04 1.024618e+04
-1.602180e+09 -1.402165e+09 -1.562199e+09 -5.952523e+03 -1.227110e+04 5.656309e+03
-1.688049e+09 -1.488031e+09 -1.648072e+09 -4.874214e+03 -8.050955e+03 5.907504e+03
-1.753102e+09 -1.553078e+09 -1.713128e+09 -1.172282e+04 -1.652080e+04 2.866218e+03
-1.438078e+09 -1.238074e+09 -1.398102e+09 1.897462e+03 -2.300533e+04 6.355846e+03
-1.438068e+09 -1.238035e+09 -1.398103e+09 -6.762544e+03 -1.171692e+04 -1.650962e+02
-1.438066e+09 -1.238053e+09 -1.398074e+09 -1.215250e+04 -1.833035e+04 2.078395e+03
-1.549869e+09 -1.349848e+09 -1.509875e+09 -9.800110e+03 -2.133602e+04 -3.676966e+03
-1.433662e+09 -1.233651e+09 -1.393698e+09 3.769749e+03 -1.973898e+04 1.047446e+04
-1.438074e+09 -1.238059e+09 -1.398096e+09 5.179755e+03 -1.591041e+04 1.107093e+04
-1.483325e+09 -1.283315e+09 -1.443355e+09 8.938088e+02 -2.146450e+04 9.593433e+03
-1.438072e+09 -1.238058e+09 -1.398097e+09 1.471887e+03 -1.711373e+04 9.714697e+03
-1.595130e+09 -1.395109e+09 -1.555158e+09 2.788435e+03 -2.164066e+04 6.068362e+03
-1.549867e+09 -1.349827e+09 -1.509893e+09 -4.626559e+03 -6.022530e+03 2.713021e+03
-1.438065e+09 -1.238028e+09 -1.398100e+09 -5.031875e+03 -6.248286e+03 3.651869e+03
-1.435172e+09 -1.235149e+09 -1.395189e+09 3.241988e+03 -1.490005e+04 1.699940e+04
-1.547064e+09 -1.347038e+09 -1.507077e+09 1.411292e+03 -1.083843e+04 1.495485e+04
-1.500324e+09 -1.300303e+09 -1.460334e+09 7.602642e+03 -1.384444e+04 1.702126e+04
-1.500325e+09 -1.300310e+09 -1.460337e+09 9.143016e+03 -1.604005e+04 1.775131e+04
-1.438587e+09 -1.238576e+09 -1.398611e+09 8.322545e+03 -2.366453e+04 1.696755e+04
-1.435169e+09 -1.235149e+09 -1.395188e+09 8.543691e+03 -1.290092e+04 1.743063e+04
-1.438588e+09 -1.238577e+09 -1.398611e+09 9.179492e+03 -2.352355e+04 1.713311e+04
-1.485346e+09 -1.285336e+09 -1.445365e+09 4.788653e+03 -2.284808e+04 1.766623e+04
-1.438595e+09 -1.238586e+09 -1.398617e+09 1.279850e+04 -2.725241e+04 2.009772e+04
-1.550486e+09 -1.350478e+09 -1.510507e+09 3.493650e+03 -1.692200e+04 1.732615e+04
-1.597231e+09 -1.397207e+09 -1.557248e+09 -2.063108e+03 -1.103717e+04 1.465927e+04
-1.509046e+09 -1.309028e+09 -1.469093e+09 1.789708e+03 -2.559087e+04 9.819052e+03
-1.491357e+09 -1.291341e+09 -1.451408e+09 2.727862e+03 -3.013720e+04 7.624157e+03
-1.561574e+09 -1.361559e+09 -1.521623e+09 6.148693e+02 -2.832546e+04 8.890773e+03
-1.557551e+09 -1.357532e+09 -1.517597e+09 -1.349434e+03 -2.953444e+04 9.190827e+03
-1.671376e+09 -1.471352e+09 -1.631411e+09 -9.097386e+02 -2.082624e+04 3.386111e+03
-1.727347e+09 -1.527319e+09 -1.687378e+09 -1.029182e+03 -1.881558e+04 3.760402e+03
-1.667958e+09 -1.467938e+09 -1.627998e+09 -1.262638e+02 -1.644191e+04 7.684847e+03
-1.454595e+09 -1.254581e+09 -1.414642e+09 -1.763234e+03 -1.897827e+04 6.112495e+03
-1.438827e+09 -1.238821e+09 -1.398876e+09 -1.506612e+02 -2.432591e+04 2.878072e+03
-1.505020e+09 -1.305002e+09 -1.465064e+09 -5.452180e+03 -2.101046e+04 5.621213e+03
-1.438831e+09 -1.238816e+09 -1.398878e+09 -1.394034e+03 -2.372715e+04 5.125611e+03
-1.438828e+09 -1.238787e+09 -1.398905e+09 -9.784318e+03 -2.427506e+04 1.107324e+03
-1.552644e+09 -1.352632e+09 -1.512692e+09 -1.526612e+04 -9.413424e+03 -1.124842e+04
-1.618859e+09 -1.418849e+09 -1.578891e+09 4.159806e+03 -1.720560e+04 2.214859e+03
-1.442861e+09 -1.242854e+09 -1.402891e+09 5.802257e+03 -3.020738e+04 1.309276e+04
-1.440939e+09 -1.240942e+09 -1.400982e+09 6.432608e+03 -3.280000e+04 1.137432e+04
-1.442859e+09 -1.242860e+09 -1.402893e+09 5.783289e+03 -3.339407e+04 1.509289e+04
-1.495393e+09 -1.295391e+09 -1.455431e+09 6.250202e+03 -3.272616e+04 9.150966e+03
-1.601773e+09 -1.401754e+09 -1.561804e+09 3.343903e+03 -2.114570e+04 7.408991e+03
-1.549257e+09 -1.349248e+09 -1.509279e+09 1.218738e+04 -2.444153e+04 1.312718e+04
-1.442868e+09 -1.242873e+09 -1.402903e+09 1.107941e+04 -3.905243e+04 1.895100e+04
-1.550377e+09 -1.350365e+09 -1.510432e+09 8.112208e+02 -3.458187e+04 5.937997e+03
-1.664199e+09 -1.464189e+09 -1.624244e+09 8.488550e+02 -2.517187e+04 2.300489e+03
-1.720174e+09 -1.520159e+09 -1.680214e+09 1.570543e+03 -2.425275e+04 3.806303e+03
-1.781235e+09 -1.581224e+09 -1.741281e+09 1.958414e+03 -2.797707e+04 4.836442e+03
-1.499954e+09 -1.299955e+09 -1.459995e+09 7.169159e+03 -3.094140e+04 1.199679e+04
-1.606341e+09 -1.406332e+09 -1.566377e+09 1.019940e+03 -2.527734e+04 8.483481e+03
-1.553832e+09 -1.353847e+09 -1.513870e+09 8.227767e+03 -3.882702e+04 1.188947e+04
-1.667406e+09 -1.467407e+09 -1.627435e+09 7.180514e+03 -2.740188e+04 1.103853e+04
-1.546914e+09 -1.346895e+09 -1.506961e+09 -7.480621e+03 -4.042553e+04 5.658281e+03
-1.660739e+09 -1.460722e+09 -1.620776e+09 -5.389336e+03 -2.603525e+04 4.481196e+03
-1.723899e+09 -1.523889e+09 -1.683943e+09 -4.076224e+03 -2.940452e+04 8.080728e+03
-1.766119e+09 -1.566105e+09 -1.726159e+09 -7.578309e+03 -3.284996e+04 4.941082e+03
-1.496496e+09 -1.296492e+09 -1.456539e+09 -8.948323e+03 -4.147107e+04 3.248106e+03
-1.610069e+09 -1.410055e+09 -1.570112e+09 -2.337640e+03 -3.275336e+04 6.791616e+03
-1.551052e+09 -1.351075e+09 -1.511114e+09 -2.162576e+04 -4.907007e+04 7.816658e+02
-1.652293e+09 -1.452292e+09 -1.612330e+09 -8.818391e+03 -3.480530e+04 1.108736e+03
-1.447427e+09 -1.247434e+09 -1.407470e+09 7.202281e+03 -3.018016e+04 1.191088e+04
-1.447436e+09 -1.247444e+09 -1.407477e+09 1.273329e+04 -3.538217e+04 1.498419e+04
-1.502005e+09 -1.302025e+09 -1.462039e+09 1.387943e+04 -2.938507e+04 1.347290e+04
-1.561012e+09 -1.361006e+09 -1.521047e+09 1.177128e+04 -2.568041e+04 1.434814e+04
-1.438646e+09 -1.238662e+09 -1.398701e+09 -4.494119e+03 -3.676268e+04 -5.821432e+03
-1.437464e+09 -1.237463e+09 -1.397525e+09 -2.572857e+03 -2.997021e+04 -3.453805e+03
-1.438649e+09 -1.238647e+09 -1.398701e+09 -3.192223e+03 -3.421214e+04 -1.656132e+03
-1.487702e+09 -1.287701e+09 -1.447758e+09 -5.581877e+03 -3.327274e+04 -2.193442e+02
-1.588935e+09 -1.388947e+09 -1.548983e+09 -2.326890e+03 -2.623646e+04 -3.032443e+03
-1.539880e+09 -1.339868e+09 -1.499936e+09 -1.611280e+04 -2.083332e+04 -1.894274e+04
-1.438655e+09 -1.238617e+09 -1.398741e+09 -7.055708e+03 -3.627171e+04 -1.285756e+04
-1.437478e+09 -1.237460e+09 -1.397526e+09 -8.552401e+03 -3.199082e+04 6.836735e+02
-1.538704e+09 -1.338690e+09 -1.498737e+09 -5.932371e+03 -3.237275e+04 2.893435e+02
-1.489644e+09 -1.289590e+09 -1.449697e+09 -1.247881e+04 -2.318811e+04 -9.711236e+03
-1.489647e+09 -1.289591e+09 -1.449698e+09 -2.119170e+04 -2.299912e+04 -1.639552e+03
-1.487887e+09 -1.287877e+09 -1.447941e+09 -1.134791e+04 -3.092657e+04 -3.533402e+03
-1.665803e+09 -1.465782e+09 -1.625853e+09 -2.182407e+04 -8.979210e+03 -8.424844e+03
-1.550234e+09 -1.350225e+09 -1.510285e+09 -9.889878e+03 -3.062112e+04 -3.140978e+03
-1.664052e+09 -1.464035e+09 -1.624096e+09 -1.414548e+04 -1.561684e+04 -5.615786e+03
-1.714862e+09 -1.514839e+09 -1.674897e+09 -1.728087e+04 -1.909129e+04 -3.320300e+03
-1.501181e+09 -1.301132e+09 -1.461236e+09 -4.521722e+03 -2.232362e+04 8.771567e+03
-1.614998e+09 -1.414979e+09 -1.575037e+09 -1.659939e+04 -8.737374e+03 -3.606023e+03
-1.601053e+09 -1.401039e+09 -1.561093e+09 -4.260488e+03 -3.298265e+04 4.598431e+03
-1.551975e+09 -1.351931e+09 -1.512040e+09 -2.420372e+04 -2.168250e+04 -4.919366e+03
-1.438650e+09 -1.238674e+09 -1.398713e+09 -4.879309e+03 -5.133578e+04 -2.904272e+02
-1.437462e+09 -1.237472e+09 -1.397520e+09 -3.586719e+03 -4.353966e+04 3.544606e+03
-1.487714e+09 -1.287733e+09 -1.447773e+09 -2.456074e+03 -5.251113e+04 2.624771e+03
-1.437461e+09 -1.237489e+09 -1.397533e+09 -3.566879e+03 -5.312306e+04 5.228255e+03
-1.437465e+09 -1.237496e+09 -1.397536e+09 -9.345917e+02 -5.629960e+04 7.457124e+03
-1.538694e+09 -1.338711e+09 -1.498749e+09 -1.852598e+03 -4.342084e+04 -2.073105e+03
-1.588932e+09 -1.388938e+09 -1.548987e+09 -6.045311e+03 -3.927297e+04 -1.609460e+03
-1.441749e+09 -1.241758e+09 -1.401796e+09 -6.794874e+03 -3.952814e+04 -7.028362e+03
-1.430858e+09 -1.230863e+09 -1.390891e+09 -6.478108e+03 -3.539963e+04 -8.369372e+03
-1.484205e+09 -1.284207e+09 -1.444240e+09 -3.387579e+03 -3.766457e+04 -6.477392e+03
-1.430857e+09 -1.230860e+09 -1.390890e+09 -5.297312e+03 -3.592796e+04 -8.745934e+03
-1.430860e+09 -1.230826e+09 -1.390926e+09 -1.068500e+04 -2.630577e+04 -2.068351e+04
-1.532731e+09 -1.332712e+09 -1.492763e+09 -1.872470e+04 -1.849177e+04 -2.357322e+04
-1.586082e+09 -1.386098e+09 -1.546117e+09 -2.497950e+03 -3.334172e+04 -4.958419e+03
-1.441759e+09 -1.241786e+09 -1.401819e+09 -4.922633e+03 -5.734143e+04 -1.363755e+03
-1.430871e+09 -1.230889e+09 -1.390928e+09 -5.055409e+03 -5.330301e+04 -3.733207e+03
-1.441755e+09 -1.241780e+09 -1.401810e+09 -3.759037e+03 -5.386071e+04 6.441252e+02
-1.484216e+09 -1.284233e+09 -1.444268e+09 -3.922995e+03 -5.398994e+04 -5.766012e+03
-1.586082e+09 -1.386088e+09 -1.546124e+09 -2.310698e+03 -4.014459e+04 -2.974973e+03
-1.543639e+09 -1.343661e+09 -1.503696e+09 2.247152e+03 -5.216339e+04 -1.067393e+03
-1.441765e+09 -1.241801e+09 -1.401827e+09 6.176679e+02 -6.667094e+04 4.812374e+03
-1.528311e+09 -1.328310e+09 -1.488342e+09 -1.534171e+04 -4.050188e+04 -1.227159e+04
-1.653394e+09 -1.453391e+09 -1.613420e+09 -9.598991e+03 -2.399382e+04 -8.469542e+03
-1.680142e+09 -1.480143e+09 -1.640171e+09 -1.550114e+04 -2.738181e+04 -1.054193e+04
-1.744015e+09 -1.544009e+09 -1.704037e+09 -1.475652e+04 -2.945888e+04 -1.229827e+04
-1.487754e+09 -1.287772e+09 -1.447788e+09 -9.731806e+03 -3.892584e+04 -6.333614e+03
-1.612832e+09 -1.412816e+09 -1.572861e+09 -1.985994e+04 -2.567935e+04 -7.536680e+03
-1.550684e+09 -1.350707e+09 -1.510717e+09 -1.942220e+04 -3.810402e+04 -7.031373e+03
-1.639590e+09 -1.439610e+09 -1.599624e+09 -1.307031e+04 -3.443454e+04 -4.602757e+03
-1.493021e+09 -1.293019e+09 -1.453055e+09 1.424800e+03 -3.033689e+04 -5.198691e+02
-1.594902e+09 -1.394894e+09 -1.554930e+09 2.835358e+03 -3.122638e+04 5.296867e+02
-1.552452e+09 -1.352458e+09 -1.512491e+09 5.051612e+03 -3.809096e+04 1.419725e+02
-1.677541e+09 -1.477536e+09 -1.637579e+09 4.136570e+03 -2.849511e+04 3.177108e+03
-1.491854e+09 -1.291847e+09 -1.451883e+09 -8.779477e+03 -3.683914e+04 -1.772871e+04
-1.491845e+09 -1.291803e+09 -1.451891e+09 -4.036279e+03 -2.287090e+04 -1.616637e+04
-1.593717e+09 -1.393689e+09 -1.553730e+09 -1.079990e+04 -1.483152e+04 -1.626344e+04
-1.679654e+09 -1.479621e+09 -1.639664e+09 -7.509869e+03 -1.437481e+04 -1.991624e+04
-1.489943e+09 -1.289935e+09 -1.449990e+09 -1.500525e+04 -2.930142e+04 -1.130118e+04
-1.590986e+09 -1.390978e+09 -1.551027e+09 -8.538526e+03 -2.713026e+04 -7.530505e+03
-1.550433e+09 -1.350393e+09 -1.510470e+09 -9.811677e+03 -1.939486e+04 -1.233773e+04
-1.678814e+09 -1.478784e+09 -1.638853e+09 -1.029533e+04 -1.488112e+04 -1.138141e+04
-1.468511e+09 -1.268515e+09 -1.428551e+09 -1.727699e+04 -3.399980e+04 -1.365447e+04
-1.466142e+09 -1.266146e+09 -1.426186e+09 -1.585391e+04 -3.879727e+04 -1.244118e+04
-1.509062e+09 -1.309064e+09 -1.469105e+09 -1.324355e+04 -3.775961e+04 -1.198389e+04
-1.504179e+09 -1.304185e+09 -1.464225e+09 -1.347413e+04 -3.761455e+04 -1.206748e+04
-1.593090e+09 -1.393094e+09 -1.553131e+09 -1.348889e+04 -2.879636e+04 -9.304697e+03
-1.656964e+09 -1.456961e+09 -1.616998e+09 -1.303889e+04 -3.060197e+04 -1.020534e+04
-1.610098e+09 -1.410100e+09 -1.570133e+09 -1.350049e+04 -3.086557e+04 -1.375864e+04
-1.449397e+09 -1.249397e+09 -1.409445e+09 -1.825114e+04 -3.240818e+04 -1.218438e+04
-1.449399e+09 -1.249377e+09 -1.409441e+09 -1.500877e+04 -2.758700e+04 -1.468864e+04
-1.449397e+09 -1.249354e+09 -1.409450e+09 -1.782428e+04 -1.528080e+04 -1.162143e+04
-1.577776e+09 -1.377750e+09 -1.537810e+09 -1.285041e+04 -1.236862e+04 -9.245658e+03
-1.426456e+09 -1.226474e+09 -1.386491e+09 -1.784616e+04 -3.360056e+04 -9.011312e+03
-1.425588e+09 -1.225606e+09 -1.385623e+09 -1.653184e+04 -3.406838e+04 -6.173871e+03
-1.463629e+09 -1.263648e+09 -1.423664e+09 -1.528352e+04 -3.516753e+04 -9.454133e+03
-1.425585e+09 -1.225606e+09 -1.385621e+09 -1.563663e+04 -3.549271e+04 -7.887624e+03
-1.425587e+09 -1.225616e+09 -1.385628e+09 -1.605709e+04 -4.082897e+04 -7.068021e+03
-1.514495e+09 -1.314518e+09 -1.474534e+09 -1.328587e+04 -3.463799e+04 -5.477319e+03
-1.552538e+09 -1.352548e+09 -1.512572e+09 -1.426590e+04 -3.115166e+04 -8.333208e+03
-1.450581e+09 -1.250599e+09 -1.410615e+09 -6.141827e+03 -3.766519e+04 -6.562149e+03
-1.450587e+09 -1.250621e+09 -1.410626e+09 -4.473662e+03 -4.593646e+04 -6.483732e+03
-1.513508e+09 -1.313536e+09 -1.473544e+09 -3.036386e+03 -3.773824e+04 -5.115064e+03
-1.575663e+09 -1.375671e+09 -1.535695e+09 -7.722422e+02 -2.904579e+04 -4.048761e+03
-1.552111e+09 -1.352099e+09 -1.512151e+09 -1.363650e+04 -2.798687e+04 -1.082759e+04
-1.677196e+09 -1.477179e+09 -1.637235e+09 -8.048088e+03 -1.357645e+04 -8.305794e+03
-1.716077e+09 -1.516054e+09 -1.676107e+09 -1.277000e+04 -1.704412e+04 -6.529606e+03
-1.803908e+09 -1.603878e+09 -1.763954e+09 -1.035481e+04 -1.750215e+04 -8.872527e+03
-1.430467e+09 -1.230472e+09 -1.390500e+09 -1.756373e+04 -3.061671e+04 -1.597812e+04
-1.428964e+09 -1.228964e+09 -1.389001e+09 -1.708324e+04 -3.093696e+04 -1.566029e+04
-1.430467e+09 -1.230466e+09 -1.390501e+09 -1.660485e+04 -2.810951e+04 -1.320460e+04
-1.471017e+09 -1.271017e+09 -1.431052e+09 -1.485626e+04 -3.033617e+04 -1.342981e+04
-1.572060e+09 -1.372069e+09 -1.532092e+09 -1.393105e+04 -2.647123e+04 -1.428253e+04
-1.531514e+09 -1.331499e+09 -1.491534e+09 -1.949722e+04 -1.874040e+04 -1.890513e+04
-1.430472e+09 -1.230448e+09 -1.390509e+09 -1.422352e+04 -2.651917e+04 -2.018364e+04
-1.554014e+09 -1.353992e+09 -1.514050e+09 -1.148125e+04 -3.190109e+04 -1.745318e+04
-1.655889e+09 -1.455865e+09 -1.615919e+09 -1.218428e+04 -3.218509e+04 -1.500255e+04
-1.738525e+09 -1.538497e+09 -1.698549e+09 -7.619788e+03 -1.976545e+04 -1.196216e+04
-1.804751e+09 -1.604709e+09 -1.764782e+09 -9.337826e+03 -2.410032e+04 -2.179545e+04
-1.482865e+09 -1.282864e+09 -1.442891e+09 -1.590135e+04 -2.708824e+04 -1.421961e+04
-1.478914e+09 -1.278905e+09 -1.438929e+09 -1.573169e+04 -1.916253e+04 -1.424540e+04
-1.531844e+09 -1.331837e+09 -1.491866e+09 -1.105759e+04 -2.352150e+04 -1.290314e+04
-1.526543e+09 -1.326533e+09 -1.486565e+09 -1.235997e+04 -2.284347e+04 -1.151632e+04
-1.622219e+09 -1.422208e+09 -1.582239e+09 -1.222770e+04 -2.337923e+04 -1.309305e+04
-1.690699e+09 -1.490681e+09 -1.650715e+09 -1.500903e+04 -1.617235e+04 -1.177738e+04
-1.641841e+09 -1.441835e+09 -1.601862e+09 -1.128260e+04 -1.465959e+04 -1.202587e+04
-1.435236e+09 -1.235252e+09 -1.395260e+09 -1.689403e+04 -2.954938e+04 -9.424338e+03
-1.437397e+09 -1.237410e+09 -1.397415e+09 -1.571916e+04 -2.478721e+04 -1.087867e+04
-1.435237e+09 -1.235253e+09 -1.395261e+09 -1.698363e+04 -3.070843e+04 -1.023940e+04
-1.484220e+09 -1.284232e+09 -1.444238e+09 -1.273198e+04 -2.802925e+04 -1.002171e+04
-1.594214e+09 -1.394216e+09 -1.554232e+09 -1.369424e+04 -2.148668e+04 -9.631773e+03
-1.545234e+09 -1.345247e+09 -1.505255e+09 -1.236442e+04 -2.406809e+04 -1.092936e+04
-1.435241e+09 -1.235265e+09 -1.395269e+09 -1.581864e+04 -3.658874e+04 -1.033770e+04
-1.436043e+09 -1.236048e+09 -1.396067e+09 -1.630418e+04 -2.859038e+04 -1.669733e+04
-1.429937e+09 -1.229938e+09 -1.389952e+09 -1.518398e+04 -2.507759e+04 -1.659952e+04
-1.477567e+09 -1.277569e+09 -1.437587e+09 -1.235748e+04 -2.854664e+04 -1.387631e+04
-1.429938e+09 -1.229939e+09 -1.389953e+09 -1.552218e+04 -2.367618e+04 -1.558538e+04
-1.429942e+09 -1.229930e+09 -1.389957e+09 -1.306898e+04 -1.572086e+04 -2.055591e+04
-1.525615e+09 -1.325604e+09 -1.485613e+09 -1.516094e+04 -1.750915e+04 -2.023531e+04
-1.573245e+09 -1.373247e+09 -1.533263e+09 -1.094508e+04 -2.906750e+04 -1.393162e+04
-1.478917e+09 -1.278905e+09 -1.438928e+09 -1.500443e+04 -1.893452e+04 -1.109884e+04
-1.574598e+09 -1.374584e+09 -1.534613e+09 -1.727992e+04 -2.257662e+04 -1.401011e+04
-1.643071e+09 -1.443053e+09 -1.603088e+09 -1.069757e+04 -1.625154e+04 -1.208069e+04
-1.594101e+09 -1.394078e+09 -1.554110e+09 -1.501606e+04 -1.889898e+04 -1.292333e+04
-1.441228e+09 -1.241221e+09 -1.401236e+09 -1.574698e+04 -1.760551e+04 -1.254456e+04
-1.437402e+09 -1.237397e+09 -1.397415e+09 -1.750824e+04 -2.404486e+04 -1.436685e+04
-1.441227e+09 -1.241222e+09 -1.401237e+09 -1.561017e+04 -1.678268e+04 -1.208102e+04
-1.490204e+09 -1.290200e+09 -1.450214e+09 -1.298899e+04 -1.685037e+04 -1.236744e+04
-1.600203e+09 -1.400194e+09 -1.560217e+09 -1.352327e+04 -1.873678e+04 -1.347507e+04
-1.551228e+09 -1.351210e+09 -1.511238e+09 -1.509661e+04 -2.267668e+04 -1.574652e+04
-1.441229e+09 -1.241212e+09 -1.401240e+09 -1.491606e+04 -2.173948e+04 -1.661924e+04
-1.437397e+09 -1.237409e+09 -1.397416e+09 -1.519432e+04 -2.770138e+04 -1.317042e+04
-1.547394e+09 -1.347400e+09 -1.507411e+09 -1.586235e+04 -2.358288e+04 -1.273198e+04
-1.498418e+09 -1.298438e+09 -1.458438e+09 -1.597343e+04 -2.737709e+04 -1.358063e+04
-1.498416e+09 -1.298434e+09 -1.458438e+09 -1.447686e+04 -2.734320e+04 -1.293087e+04
-1.441227e+09 -1.241231e+09 -1.401237e+09 -1.657274e+04 -2.152023e+04 -1.024965e+04
-1.437402e+09 -1.237409e+09 -1.397416e+09 -1.877290e+04 -2.880623e+04 -1.162977e+04
-1.441225e+09 -1.241230e+09 -1.401236e+09 -1.753703e+04 -2.147389e+04 -1.049556e+04
-1.490200e+09 -1.290201e+09 -1.450212e+09 -1.541512e+04 -2.119115e+04 -9.991157e+03
-1.441227e+09 -1.241240e+09 -1.401244e+09 -1.743494e+04 -2.672524e+04 -1.140020e+04
-1.551228e+09 -1.351239e+09 -1.511243e+09 -1.650417e+04 -2.786062e+04 -1.064473e+04
-1.600201e+09 -1.400205e+09 -1.560215e+09 -1.458997e+04 -2.412445e+04 -9.625973e+03
-1.429945e+09 -1.229939e+09 -1.389953e+09 -1.901675e+04 -2.577598e+04 -1.295624e+04
-1.512008e+09 -1.311996e+09 -1.472011e+09 -1.606403e+04 -1.485491e+04 -9.811625e+03
-1.457854e+09 -1.257841e+09 -1.417863e+09 -1.791528e+04 -2.254387e+04 -1.504892e+04
-1.457850e+09 -1.257838e+09 -1.417863e+09 -1.519892e+04 -1.700935e+04 -1.011543e+04
-1.553524e+09 -1.353514e+09 -1.513528e+09 -1.689111e+04 -1.676542e+04 -7.734565e+03
-1.416340e+09 -1.216327e+09 -1.376359e+09 -1.741320e+04 -2.608847e+04 -1.292549e+04
-1.416332e+09 -1.216317e+09 -1.376336e+09 -1.589803e+04 -1.555500e+04 -1.071384e+04
-1.553525e+09 -1.353514e+09 -1.513534e+09 -1.613186e+04 -1.984364e+04 -1.175512e+04
-1.512009e+09 -1.311995e+09 -1.472015e+09 -1.619726e+04 -2.132489e+04 -9.518645e+03
-1.456127e+09 -1.256120e+09 -1.416132e+09 -1.402604e+04 -1.330817e+04 -1.230823e+04
-1.442919e+09 -1.242910e+09 -1.402921e+09 -1.184457e+04 -1.172894e+04 -1.095472e+04
-1.510623e+09 -1.310617e+09 -1.470627e+09 -1.132345e+04 -1.088741e+04 -1.127585e+04
-1.442920e+09 -1.242913e+09 -1.402923e+09 -1.209361e+04 -1.048348e+04 -1.064784e+04
-1.442921e+09 -1.242905e+09 -1.402927e+09 -1.200952e+04 -1.325424e+04 -1.356724e+04
-1.568381e+09 -1.368366e+09 -1.528383e+09 -1.325490e+04 -1.268453e+04 -1.247002e+04
-1.636081e+09 -1.436073e+09 -1.596086e+09 -1.263564e+04 -1.190707e+04 -1.051769e+04
-1.456127e+09 -1.256128e+09 -1.416132e+09 -1.484724e+04 -1.619095e+04 -1.040461e+04
-1.442920e+09 -1.242916e+09 -1.402923e+09 -1.219030e+04 -1.415260e+04 -9.926201e+03
-1.456124e+09 -1.256123e+09 -1.416130e+09 -1.322838e+04 -1.447063e+04 -9.823575e+03
-1.510622e+09 -1.310620e+09 -1.470627e+09 -1.261248e+04 -1.395256e+04 -1.019241e+04
-1.636083e+09 -1.436083e+09 -1.596089e+09 -1.175660e+04 -1.593679e+04 -9.247616e+03
-1.581584e+09 -1.381590e+09 -1.541593e+09 -1.173404e+04 -1.694542e+04 -9.579331e+03
-1.456127e+09 -1.256134e+09 -1.416135e+09 -1.280357e+04 -1.885319e+04 -1.055533e+04
-1.503171e+09 -1.303163e+09 -1.463174e+09 -8.734849e+03 -1.134148e+04 -9.689168e+03
-1.554754e+09 -1.354746e+09 -1.514757e+09 -8.839796e+03 -1.128338e+04 -9.866058e+03
-1.652896e+09 -1.452889e+09 -1.612900e+09 -8.435734e+03 -8.334846e+03 -8.796349e+03
-1.733439e+09 -1.533433e+09 -1.693445e+09 -6.767476e+03 -1.035611e+04 -8.990146e+03
-1.448675e+09 -1.248669e+09 -1.408674e+09 -9.676345e+03 -1.058646e+04 -9.606075e+03
-1.500257e+09 -1.300254e+09 -1.460258e+09 -9.112300e+03 -1.132616e+04 -9.327184e+03
-1.484921e+09 -1.284920e+09 -1.444923e+09 -9.878921e+03 -1.321124e+04 -9.749643e+03
-1.598400e+09 -1.398396e+09 -1.558400e+09 -8.871535e+03 -1.003597e+04 -8.322729e+03
-1.458256e+09 -1.258248e+09 -1.418260e+09 -1.048654e+04 -1.263082e+04 -1.016815e+04
-1.509839e+09 -1.309831e+09 -1.469843e+09 -1.068527e+04 -1.238221e+04 -1.039708e+04
-1.619961e+09 -1.419953e+09 -1.579965e+09 -9.929019e+03 -1.281029e+04 -9.721959e+03
-1.565462e+09 -1.365460e+09 -1.525469e+09 -9.773107e+03 -1.369775e+04 -9.963426e+03
-1.403760e+09 -1.203754e+09 -1.363761e+09 -1.179788e+04 -1.257888e+04 -1.065405e+04
-1.455344e+09 -1.255338e+09 -1.415345e+09 -1.190286e+04 -1.313791e+04 -1.107734e+04
-1.440006e+09 -1.240007e+09 -1.400009e+09 -1.269902e+04 -1.404374e+04 -1.085159e+04
-1.440005e+09 -1.240004e+09 -1.400009e+09 -1.131964e+04 -1.415670e+04 -1.033971e+04
-1.542437e+09 -1.342428e+09 -1.502438e+09 -7.929343e+03 -1.170201e+04 -9.302499e+03
-1.655918e+09 -1.455908e+09 -1.615920e+09 -7.794105e+03 -8.989186e+03 -8.138050e+03
-1.725857e+09 -1.525847e+09 -1.685858e+09 -7.205845e+03 -9.346185e+03 -9.273829e+03
-1.796714e+09 -1.596703e+09 -1.756716e+09 -6.032921e+03 -1.138465e+04 -9.164121e+03
-1.446389e+09 -1.246383e+09 -1.406389e+09 -9.938826e+03 -8.921702e+03 -7.602436e+03
-1.433338e+09 -1.233332e+09 -1.393337e+09 -1.120769e+04 -1.011834e+04 -8.550693e+03
-1.491304e+09 -1.291298e+09 -1.451303e+09 -9.706888e+03 -8.944620e+03 -8.224109e+03
-1.433338e+09 -1.233332e+09 -1.393337e+09 -1.126130e+04 -1.069967e+04 -9.020635e+03
-1.433339e+09 -1.233336e+09 -1.393340e+09 -1.138826e+04 -1.271694e+04 -9.081058e+03
-1.546817e+09 -1.346812e+09 -1.506818e+09 -9.821325e+03 -9.792681e+03 -7.615590e+03
-1.604785e+09 -1.404780e+09 -1.564785e+09 -9.600610e+03 -9.471703e+03 -8.062470e+03
-1.495879e+09 -1.295869e+09 -1.455878e+09 -9.042431e+03 -8.121107e+03 -8.797593e+03
-1.487941e+09 -1.287932e+09 -1.447941e+09 -1.076412e+04 -1.023149e+04 -9.815384e+03
-1.550479e+09 -1.350470e+09 -1.510480e+09 -7.996245e+03 -8.496124e+03 -8.794687e+03
-1.545905e+09 -1.345897e+09 -1.505907e+09 -8.508563e+03 -8.373958e+03 -8.931518e+03
-1.659386e+09 -1.459378e+09 -1.619389e+09 -8.440848e+03 -8.750696e+03 -8.786933e+03
-1.729327e+09 -1.529318e+09 -1.689328e+09 -7.986726e+03 -8.925245e+03 -9.569333e+03
-1.665335e+09 -1.465325e+09 -1.625336e+09 -7.946644e+03 -8.982280e+03 -9.747783e+03
-1.437911e+09 -1.237902e+09 -1.397910e+09 -9.243613e+03 -7.963907e+03 -9.156002e+03
-1.443026e+09 -1.243016e+09 -1.403024e+09 -1.036949e+04 -9.229633e+03 -1.005245e+04
-1.437911e+09 -1.237902e+09 -1.397910e+09 -9.072504e+03 -7.108907e+03 -8.540572e+03
-1.492512e+09 -1.292504e+09 -1.452511e+09 -8.142117e+03 -7.816287e+03 -9.130364e+03
-1.607368e+09 -1.407358e+09 -1.567367e+09 -7.515440e+03 -7.628961e+03 -9.773672e+03
-1.552766e+09 -1.352753e+09 -1.512764e+09 -8.438679e+03 -7.630614e+03 -9.628613e+03
-1.437912e+09 -1.237899e+09 -1.397910e+09 -8.424664e+03 -7.301488e+03 -9.555399e+03
-1.497522e+09 -1.297513e+09 -1.457521e+09 -7.021264e+03 -8.721395e+03 -9.208482e+03
-1.497522e+09 -1.297508e+09 -1.457526e+09 -5.202391e+03 -8.935021e+03 -1.142965e+04
-1.683232e+09 -1.483220e+09 -1.643231e+09 -4.788929e+03 -6.636016e+03 -8.540860e+03
-1.612375e+09 -1.412365e+09 -1.572372e+09 -6.084807e+03 -5.335516e+03 -8.955319e+03
-1.443025e+09 -1.243016e+09 -1.403025e+09 -9.681958e+03 -7.231067e+03 -8.687038e+03
-1.534652e+09 -1.334640e+09 -1.494652e+09 -7.263680e+03 -4.274741e+03 -8.251492e+03
-1.474401e+09 -1.274391e+09 -1.434401e+09 -9.004760e+03 -6.892229e+03 -9.504206e+03
-1.474399e+09 -1.274386e+09 -1.434407e+09 -5.763881e+03 -8.831856e+03 -9.677677e+03
-1.589253e+09 -1.389244e+09 -1.549254e+09 -6.881205e+03 -4.811776e+03 -7.434019e+03
-1.419799e+09 -1.219789e+09 -1.379800e+09 -8.806096e+03 -7.556396e+03 -8.994311e+03
-1.419798e+09 -1.219783e+09 -1.379800e+09 -7.572559e+03 -5.279877e+03 -8.874489e+03
-1.589253e+09 -1.389243e+09 -1.549253e+09 -6.435939e+03 -5.472370e+03 -8.141091e+03
-1.534652e+09 -1.334639e+09 -1.494651e+09 -7.788374e+03 -5.360575e+03 -8.066144e+03
-1.461446e+09 -1.261440e+09 -1.421445e+09 -8.438325e+03 -6.981259e+03 -6.397127e+03
-1.458939e+09 -1.258932e+09 -1.418938e+09 -7.345995e+03 -5.545552e+03 -5.366411e+03
-1.461446e+09 -1.261439e+09 -1.421444e+09 -8.023447e+03 -6.524717e+03 -6.218002e+03
-1.531962e+09 -1.331956e+09 -1.491962e+09 -6.879413e+03 -5.672538e+03 -6.088206e+03
-1.668246e+09 -1.468241e+09 -1.628247e+09 -6.771081e+03 -6.549918e+03 -5.936880e+03
-1.597728e+09 -1.397723e+09 -1.557730e+09 -6.821899e+03 -6.676549e+03 -5.851825e+03
-1.461446e+09 -1.261442e+09 -1.421446e+09 -7.945603e+03 -7.844233e+03 -6.361648e+03
-1.521899e+09 -1.321889e+09 -1.481897e+09 -7.386653e+03 -5.954036e+03 -7.550177e+03
-1.513180e+09 -1.313171e+09 -1.473178e+09 -6.429837e+03 -4.455446e+03 -5.896413e+03
-1.592414e+09 -1.392406e+09 -1.552414e+09 -5.346074e+03 -4.557234e+03 -6.503828e+03
-1.573630e+09 -1.373621e+09 -1.533630e+09 -5.533363e+03 -4.679956e+03 -6.223508e+03
-1.678305e+09 -1.478295e+09 -1.638307e+09 -5.469654e+03 -5.836868e+03 -7.789929e+03
-1.760349e+09 -1.560338e+09 -1.720349e+09 -5.571753e+03 -5.121932e+03 -7.282973e+03
-1.728698e+09 -1.528690e+09 -1.688700e+09 -5.359850e+03 -4.822630e+03 -6.615727e+03
-1.448874e+09 -1.248866e+09 -1.408873e+09 -7.871058e+03 -6.330461e+03 -8.064711e+03
-1.442662e+09 -1.242653e+09 -1.402661e+09 -6.882405e+03 -4.493513e+03 -6.373218e+03
-1.503112e+09 -1.303105e+09 -1.463112e+09 -6.131129e+03 -5.475159e+03 -7.052668e+03
-1.442662e+09 -1.242654e+09 -1.402661e+09 -7.166933e+03 -4.516045e+03 -6.334411e+03
-1.442663e+09 -1.242650e+09 -1.402661e+09 -6.612049e+03 -3.747260e+03 -7.113428e+03
-1.547336e+09 -1.347323e+09 -1.507334e+09 -5.948365e+03 -4.205550e+03 -7.504450e+03
-1.607786e+09 -1.407776e+09 -1.567786e+09 -5.425542e+03 -4.545364e+03 -7.921570e+03
-1.572505e+09 -1.372495e+09 -1.532503e+09 -3.957825e+03 -2.667920e+03 -4.188207e+03
-1.677180e+09 -1.477169e+09 -1.637180e+09 -3.604525e+03 -4.401926e+03 -6.459409e+03
-1.759222e+09 -1.559211e+09 -1.719222e+09 -3.198326e+03 -3.747655e+03 -5.287346e+03
-1.795549e+09 -1.595539e+09 -1.755549e+09 -2.154512e+03 -2.018142e+03 -4.273885e+03
-1.530729e+09 -1.330719e+09 -1.490728e+09 -6.037062e+03 -4.029901e+03 -5.017852e+03
-1.667013e+09 -1.467005e+09 -1.627013e+09 -5.448502e+03 -5.230154e+03 -5.027622e+03
-1.596494e+09 -1.396485e+09 -1.556494e+09 -5.818904e+03 -4.754813e+03 -5.172339e+03
-1.736923e+09 -1.536913e+09 -1.696924e+09 -5.108084e+03 -4.547113e+03 -4.657718e+03
-1.590057e+09 -1.390048e+09 -1.550056e+09 -5.261028e+03 -4.118806e+03 -4.772028e+03
-1.726341e+09 -1.526332e+09 -1.686340e+09 -5.352943e+03 -5.446972e+03 -5.252941e+03
-1.796252e+09 -1.596243e+09 -1.756252e+09 -4.418269e+03 -4.151148e+03 -4.684380e+03
-1.831307e+09 -1.631298e+09 -1.791305e+09 -4.155326e+03 -4.126493e+03 -4.449073e+03
-1.501986e+09 -1.301979e+09 -1.461986e+09 -4.151373e+03 -3.671563e+03 -4.547234e+03
-1.501988e+09 -1.301977e+09 -1.461987e+09 -3.510371e+03 -2.794944e+03 -5.670498e+03
-1.606662e+09 -1.406650e+09 -1.566661e+09 -3.398043e+03 -3.481938e+03 -6.358014e+03
-1.659265e+09 -1.459258e+09 -1.619266e+09 -2.179373e+03 -3.186248e+03 -4.921450e+03
-1.447747e+09 -1.247739e+09 -1.407745e+09 -5.601300e+03 -2.443159e+03 -4.550824e+03
-1.447748e+09 -1.247740e+09 -1.407745e+09 -5.048039e+03 -2.553303e+03 -4.598199e+03
-1.447747e+09 -1.247737e+09 -1.407748e+09 -3.858285e+03 -2.562637e+03 -5.213639e+03
-1.554594e+09 -1.354586e+09 -1.514593e+09 -4.102793e+03 -7.869433e+02 -3.918902e+03
-1.430666e+09 -1.230659e+09 -1.390662e+09 -5.458229e+03 -2.914116e+03 -4.654349e+03
-1.447748e+09 -1.247741e+09 -1.407745e+09 -6.434538e+03 -3.723601e+03 -5.528696e+03
-1.489993e+09 -1.289985e+09 -1.449990e+09 -4.921278e+03 -3.096578e+03 -4.692256e+03
-1.447747e+09 -1.247740e+09 -1.407744e+09 -5.309613e+03 -3.301409e+03 -4.678466e+03
-1.596839e+09 -1.396832e+09 -1.556837e+09 -4.837477e+03 -3.187183e+03 -4.676659e+03
-1.554594e+09 -1.354586e+09 -1.514591e+09 -4.484902e+03 -2.586137e+03 -4.633384e+03
-1.447748e+09 -1.247740e+09 -1.407744e+09 -4.953038e+03 -3.290575e+03 -5.102764e+03
-1.463425e+09 -1.263419e+09 -1.423422e+09 -5.732252e+03 -3.877540e+03 -4.555413e+03
-1.460212e+09 -1.260206e+09 -1.420209e+09 -6.743989e+03 -4.548586e+03 -5.267890e+03
-1.535216e+09 -1.335211e+09 -1.495213e+09 -5.617133e+03 -3.925895e+03 -4.723281e+03
-1.460212e+09 -1.260206e+09 -1.420209e+09 -6.593798e+03 -4.655824e+03 -5.404351e+03
-1.460213e+09 -1.260209e+09 -1.420211e+09 -6.556743e+03 -5.792485e+03 -5.395537e+03
-1.600640e+09 -1.400636e+09 -1.560638e+09 -5.644741e+03 -4.320162e+03 -4.560507e+03
-1.675645e+09 -1.475641e+09 -1.635643e+09 -5.556277e+03 -4.187745e+03 -4.711111e+03
-1.505671e+09 -1.305665e+09 -1.465668e+09 -5.584286e+03 -3.462415e+03 -4.812250e+03
-1.519540e+09 -1.319533e+09 -1.479537e+09 -6.769538e+03 -3.912308e+03 -5.755848e+03
-1.564998e+09 -1.364991e+09 -1.524995e+09 -5.041361e+03 -3.351916e+03 -4.827782e+03
-1.594543e+09 -1.394536e+09 -1.554541e+09 -5.492405e+03 -3.092318e+03 -5.271100e+03
-1.734973e+09 -1.534966e+09 -1.694972e+09 -5.473751e+03 -3.668613e+03 -5.486406e+03
-1.770028e+09 -1.570022e+09 -1.730026e+09 -4.952969e+03 -3.502229e+03 -5.048890e+03
-1.671845e+09 -1.471838e+09 -1.631842e+09 -4.995019e+03 -3.364731e+03 -4.842306e+03
-1.460212e+09 -1.260206e+09 -1.420208e+09 -7.712967e+03 -4.309125e+03 -6.274051e+03
-1.460213e+09 -1.260209e+09 -1.420210e+09 -7.739756e+03 -5.532617e+03 -6.158804e+03
-1.600641e+09 -1.400635e+09 -1.560637e+09 -7.771903e+03 -3.608916e+03 -6.022061e+03
-1.460212e+09 -1.260208e+09 -1.420208e+09 -7.869999e+03 -5.121550e+03 -6.759339e+03
-1.494296e+09 -1.294290e+09 -1.454294e+09 -2.823193e+03 -2.153609e+03 -2.629370e+03
-1.505467e+09 -1.305461e+09 -1.465465e+09 -3.428389e+03 -2.485101e+03 -3.030924e+03
-1.560315e+09 -1.360309e+09 -1.520312e+09 -2.736784e+03 -2.203518e+03 -2.661352e+03
-1.559650e+09 -1.359644e+09 -1.519648e+09 -3.132985e+03 -2.240512e+03 -2.903905e+03
-1.661793e+09 -1.461787e+09 -1.621792e+09 -3.146232e+03 -2.688064e+03 -3.139330e+03
-1.731773e+09 -1.531768e+09 -1.691771e+09 -2.870133e+03 -2.425304e+03 -3.115167e+03
-1.681325e+09 -1.481320e+09 -1.641323e+09 -2.804171e+03 -2.535083e+03 -3.124584e+03
-1.440113e+09 -1.240108e+09 -1.400111e+09 -2.794300e+03 -2.301687e+03 -2.648147e+03
-1.454438e+09 -1.254432e+09 -1.414435e+09 -3.221224e+03 -2.530806e+03 -2.985780e+03
-1.440112e+09 -1.240107e+09 -1.400110e+09 -2.554449e+03 -2.129948e+03 -2.533753e+03
-1.506132e+09 -1.306126e+09 -1.466129e+09 -2.645540e+03 -2.077539e+03 -2.668463e+03
-1.627142e+09 -1.427136e+09 -1.587140e+09 -2.430820e+03 -2.130230e+03 -3.026042e+03
-1.561123e+09 -1.361117e+09 -1.521121e+09 -2.293503e+03 -2.309632e+03 -2.670409e+03
-1.440112e+09 -1.240107e+09 -1.400110e+09 -2.464687e+03 -2.165835e+03 -2.560040e+03
-1.442601e+09 -1.242597e+09 -1.402599e+09 -2.916457e+03 -2.212407e+03 -2.265715e+03
-1.439448e+09 -1.239444e+09 -1.399445e+09 -3.341666e+03 -2.238177e+03 -2.724616e+03
-1.493631e+09 -1.293627e+09 -1.453629e+09 -3.287879e+03 -2.199624e+03 -2.614146e+03
-1.439449e+09 -1.239444e+09 -1.399445e+09 -3.395816e+03 -2.365601e+03 -2.841524e+03
-1.439449e+09 -1.239445e+09 -1.399446e+09 -3.498599e+03 -2.891654e+03 -2.757787e+03
-1.541591e+09 -1.341587e+09 -1.501588e+09 -3.238116e+03 -2.494338e+03 -2.419635e+03
-1.595774e+09 -1.395770e+09 -1.555771e+09 -3.380631e+03 -2.417385e+03 -2.662405e+03
-1.417946e+09 -1.217939e+09 -1.377943e+09 -4.672226e+03 -2.743223e+03 -3.856752e+03
-1.422223e+09 -1.222216e+09 -1.382220e+09 -4.016927e+03 -2.525298e+03 -3.308862e+03
-1.451748e+09 -1.251742e+09 -1.411746e+09 -3.802084e+03 -2.738430e+03 -3.395008e+03
-1.422222e+09 -1.222216e+09 -1.382220e+09 -3.980359e+03 -2.526862e+03 -3.320518e+03
-1.422223e+09 -1.222215e+09 -1.382221e+09 -3.774877e+03 -2.657369e+03 -4.068817e+03
-1.498710e+09 -1.298702e+09 -1.458707e+09 -3.937033e+03 -2.584460e+03 -3.874890e+03
-1.528235e+09 -1.328228e+09 -1.488233e+09 -3.637365e+03 -2.975719e+03 -3.520538e+03
-1.433624e+09 -1.233619e+09 -1.393621e+09 -4.849931e+03 -3.531902e+03 -3.785646e+03
-1.434490e+09 -1.234485e+09 -1.394488e+09 -4.219990e+03 -3.090065e+03 -3.118564e+03
-1.433624e+09 -1.233618e+09 -1.393621e+09 -4.659471e+03 -3.413595e+03 -3.745563e+03
-1.479694e+09 -1.279689e+09 -1.439692e+09 -4.232949e+03 -3.069974e+03 -3.465404e+03
-1.588556e+09 -1.388551e+09 -1.548554e+09 -4.155045e+03 -3.761065e+03 -3.386265e+03
-1.542484e+09 -1.342479e+09 -1.502482e+09 -4.209422e+03 -3.839419e+03 -3.278566e+03
-1.433624e+09 -1.233620e+09 -1.393622e+09 -4.612682e+03 -4.349512e+03 -3.749443e+03
-1.463150e+09 -1.263145e+09 -1.423148e+09 -4.765454e+03 -3.230116e+03 -4.032645e+03
-1.468294e+09 -1.268287e+09 -1.428291e+09 -4.026533e+03 -2.771050e+03 -3.372327e+03
-1.509220e+09 -1.309214e+09 -1.469218e+09 -3.906003e+03 -2.733217e+03 -3.674974e+03
-1.497820e+09 -1.297813e+09 -1.457817e+09 -3.910881e+03 -2.793923e+03 -3.477853e+03
-1.574307e+09 -1.374300e+09 -1.534305e+09 -3.800728e+03 -3.133916e+03 -3.602920e+03
-1.649364e+09 -1.449357e+09 -1.609362e+09 -3.762292e+03 -3.083753e+03 -3.618702e+03
-1.618081e+09 -1.418075e+09 -1.578080e+09 -3.978567e+03 -3.053197e+03 -3.513160e+03
-1.485520e+09 -1.285513e+09 -1.445518e+09 -3.976032e+03 -2.768846e+03 -3.177578e+03
-1.594381e+09 -1.394375e+09 -1.554378e+09 -3.595979e+03 -3.201873e+03 -3.175422e+03
-1.548309e+09 -1.348303e+09 -1.508307e+09 -3.775432e+03 -3.167637e+03 -3.160384e+03
-1.650452e+09 -1.450445e+09 -1.610450e+09 -3.675435e+03 -3.069068e+03 -3.050126e+03
-1.488241e+09 -1.288234e+09 -1.448238e+09 -3.244369e+03 -1.893639e+03 -2.999430e+03
-1.488241e+09 -1.288233e+09 -1.448239e+09 -2.783059e+03 -1.845781e+03 -3.669340e+03
-1.564728e+09 -1.364720e+09 -1.524726e+09 -2.748818e+03 -2.249998e+03 -3.421398e+03
-1.651935e+09 -1.451927e+09 -1.611932e+09 -2.092517e+03 -1.570005e+03 -2.785472e+03
-1.551539e+09 -1.351533e+09 -1.511536e+09 -3.548721e+03 -2.503782e+03 -3.121317e+03
-1.660400e+09 -1.460394e+09 -1.620397e+09 -3.355246e+03 -3.110388e+03 -3.156518e+03
-1.716471e+09 -1.516465e+09 -1.676469e+09 -3.099877e+03 -2.771009e+03 -3.113584e+03
-1.786451e+09 -1.586445e+09 -1.746448e+09 -2.918788e+03 -2.479776e+03 -3.076951e+03
-1.439449e+09 -1.239444e+09 -1.399446e+09 -4.522639e+03 -2.384458e+03 -3.390815e+03
-1.439449e+09 -1.239445e+09 -1.399446e+09 -4.682081e+03 -3.043726e+03 -3.261304e+03
-1.541592e+09 -1.341586e+09 -1.501588e+09 -4.834318e+03 -1.901978e+03 -3.160805e+03
-1.439450e+09 -1.239445e+09 -1.399446e+09 -4.804247e+03 -2.569939e+03 -3.362832e+03
-1.534312e+09 -1.334306e+09 -1.494309e+09 -3.167380e+03 -2.011017e+03 -2.962703e+03
-1.610799e+09 -1.410792e+09 -1.570797e+09 -2.605947e+03 -2.803688e+03 -3.100785e+03
-1.685856e+09 -1.485849e+09 -1.645854e+09 -2.609963e+03 -2.304466e+03 -2.963635e+03
-1.760795e+09 -1.560788e+09 -1.720792e+09 -2.296584e+03 -1.596495e+03 -2.943838e+03
-1.454437e+09 -1.254431e+09 -1.414434e+09 -2.721508e+03 -2.009449e+03 -2.638650e+03
-1.545345e+09 -1.345339e+09 -1.505344e+09 -1.699261e+03 -1.592758e+03 -2.689808e+03
-1.490355e+09 -1.290349e+09 -1.450353e+09 -2.458000e+03 -1.887670e+03 -2.887661e+03
-1.611365e+09 -1.411359e+09 -1.571363e+09 -2.235580e+03 -1.765661e+03 -2.941814e+03
-1.545345e+09 -1.345340e+09 -1.505344e+09 -2.052726e+03 -1.991376e+03 -2.465022e+03
-1.490354e+09 -1.290347e+09 -1.450353e+09 -1.726209e+03 -2.081475e+03 -3.005088e+03
-1.611365e+09 -1.411358e+09 -1.571363e+09 -1.756179e+03 -1.547713e+03 -2.797961e+03
-1.424336e+09 -1.224331e+09 -1.384335e+09 -2.610571e+03 -2.688229e+03 -2.893619e+03
-1.424335e+09 -1.224328e+09 -1.384334e+09 -1.705727e+03 -2.108919e+03 -3.063917e+03
-1.548636e+09 -1.348631e+09 -1.508634e+09 -2.548891e+03 -1.885924e+03 -2.490824e+03
-1.669647e+09 -1.469641e+09 -1.629645e+09 -2.540212e+03 -2.393129e+03 -2.949645e+03
-1.720095e+09 -1.520089e+09 -1.680093e+09 -2.552905e+03 -2.247429e+03 -2.919659e+03
-1.777853e+09 -1.577847e+09 -1.737851e+09 -2.215312e+03 -1.762076e+03 -2.438764e+03
-1.541896e+09 -1.341891e+09 -1.501894e+09 -2.154049e+03 -1.866967e+03 -2.176081e+03
-1.662906e+09 -1.462902e+09 -1.622905e+09 -2.168779e+03 -2.475219e+03 -2.691510e+03
-1.723153e+09 -1.523149e+09 -1.683152e+09 -1.779413e+03 -2.007035e+03 -2.244821e+03
-1.762496e+09 -1.562492e+09 -1.722495e+09 -1.669186e+03 -1.952217e+03 -2.221206e+03
-1.487555e+09 -1.287551e+09 -1.447553e+09 -2.151504e+03 -1.829163e+03 -2.198160e+03
-1.487555e+09 -1.287550e+09 -1.447553e+09 -1.987325e+03 -1.814922e+03 -2.373067e+03
-1.608565e+09 -1.408560e+09 -1.568564e+09 -1.952707e+03 -2.167454e+03 -2.614432e+03
-1.650554e+09 -1.450550e+09 -1.610553e+09 -1.694154e+03 -1.834725e+03 -2.255339e+03
-1.435861e+09 -1.235856e+09 -1.395859e+09 -2.196781e+03 -1.796007e+03 -2.167428e+03
-1.435861e+09 -1.235856e+09 -1.395859e+09 -2.051883e+03 -1.767646e+03 -2.335508e+03
-1.529544e+09 -1.329540e+09 -1.489543e+09 -1.970532e+03 -1.608119e+03 -2.157902e+03
-1.482101e+09 -1.282097e+09 -1.442100e+09 -1.961959e+03 -1.686034e+03 -2.026463e+03
-1.442601e+09 -1.242597e+09 -1.402599e+09 -3.089039e+03 -2.396748e+03 -2.412686e+03
-1.544744e+09 -1.344739e+09 -1.504741e+09 -3.163867e+03 -2.219016e+03 -2.487317e+03
-1.490561e+09 -1.290556e+09 -1.450558e+09 -3.166010e+03 -2.375813e+03 -2.362614e+03
-1.490561e+09 -1.290557e+09 -1.450558e+09 -3.270926e+03 -2.497439e+03 -2.405153e+03
-1.496941e+09 -1.296937e+09 -1.456939e+09 -2.693398e+03 -1.905251e+03 -1.938803e+03
-1.599084e+09 -1.399080e+09 -1.559081e+09 -2.774700e+03 -1.765771e+03 -2.019800e+03
-1.544901e+09 -1.344897e+09 -1.504899e+09 -2.980804e+03 -2.157789e+03 -2.196116e+03
-1.656842e+09 -1.456839e+09 -1.616840e+09 -2.808996e+03 -2.011734e+03 -1.991222e+03
-1.487124e+09 -1.287125e+09 -1.447125e+09 3.732097e+02 5.276674e+01 2.921535e+01
-1.487124e+09 -1.287125e+09 -1.447125e+09 3.436867e+02 4.101616e+01 9.336191e+00
-1.598351e+09 -1.398353e+09 -1.558353e+09 3.554163e+02 4.579095e+01 3.298936e+01
-1.719897e+09 -1.519898e+09 -1.679898e+09 3.508109e+02 3.943124e+01 2.899354e+01
-1.453026e+09 -1.253027e+09 -1.413027e+09 3.641532e+02 4.669801e+01 2.104725e+01
-1.453026e+09 -1.253027e+09 -1.413027e+09 3.392140e+02 3.801932e+01 1.367541e+01
-1.608669e+09 -1.408670e+09 -1.568670e+09 3.420861e+02 3.456525e+01 1.745672e+01
-1.544056e+09 -1.344058e+09 -1.504058e+09 3.382401e+02 3.605390e+01 1.568762e+01
-1.518609e+09 -1.318610e+09 -1.478610e+09 3.962666e+02 4.526872e+01 1.412936e+01
-1.629837e+09 -1.429838e+09 -1.589838e+09 3.984991e+02 4.702166e+01 2.318672e+01
-1.682796e+09 -1.482797e+09 -1.642797e+09 4.097233e+02 4.433545e+01 1.256035e+01
-1.780324e+09 -1.580325e+09 -1.740325e+09 4.056810e+02 4.667920e+01 2.074977e+01
-1.544139e+09 -1.344140e+09 -1.504140e+09 3.860633e+02 4.399705e+01 1.401629e+01
-1.655366e+09 -1.455368e+09 -1.615368e+09 3.879488e+02 4.621612e+01 2.432675e+01
-1.757879e+09 -1.557880e+09 -1.717880e+09 3.863153e+02 4.834585e+01 2.234798e+01
-1.856507e+09 -1.656509e+09 -1.816508e+09 3.833654e+02 3.471794e+01 1.840278e+01
-1.427496e+09 -1.227497e+09 -1.387497e+09 4.065390e+02 5.560185e+01 3.772174e+01
-1.514553e+09 -1.314554e+09 -1.474554e+09 4.182386e+02 5.504812e+01 3.175042e+01
-1.475471e+09 -1.275472e+09 -1.435472e+09 4.386256e+02 6.192206e+01 3.627862e+01
-1.475471e+09 -1.275472e+09 -1.435472e+09 4.233969e+02 6.894193e+01 4.282883e+01
-1.484511e+09 -1.284512e+09 -1.444512e+09 4.074325e+02 5.324666e+01 2.080916e+01
-1.571568e+09 -1.371569e+09 -1.531569e+09 4.158982e+02 5.424689e+01 1.740141e+01
-1.532485e+09 -1.332487e+09 -1.492487e+09 4.382957e+02 4.942594e+01 8.995961e+00
-1.669096e+09 -1.469097e+09 -1.629097e+09 4.238014e+02 5.984658e+01 2.542004e+01
-1.491995e+09 -1.292006e+09 -1.452042e+09 -8.151227e+03 -4.008143e+04 -5.176409e+03
-1.491993e+09 -1.291957e+09 -1.452083e+09 -1.478471e+04 -4.231366e+04 -1.066227e+04
-1.593216e+09 -1.393208e+09 -1.553267e+09 -1.162764e+04 -1.834442e+04 -9.640359e+03
-1.644848e+09 -1.444845e+09 -1.604880e+09 -6.208559e+03 -1.712786e+04 -5.748363e+03
-1.441754e+09 -1.241763e+09 -1.401799e+09 -9.923378e+03 -3.899778e+04 -6.545041e+03
-1.516860e+09 -1.316828e+09 -1.476889e+09 -8.670006e+03 -1.384835e+04 -1.784077e+04
-1.468335e+09 -1.268325e+09 -1.428401e+09 -1.407574e+04 -3.598085e+04 -1.191088e+04
-1.414985e+09 -1.214957e+09 -1.375031e+09 -1.204759e+04 -2.121032e+04 -1.277129e+04
-1.414980e+09 -1.214937e+09 -1.375025e+09 -1.643972e+04 -2.423046e+04 -1.076615e+04
-1.570205e+09 -1.370186e+09 -1.530246e+09 5.656420e+03 -2.231034e+04 3.503221e+03
-1.516859e+09 -1.316814e+09 -1.476894e+09 -1.156740e+04 -1.141404e+04 -1.583494e+04
-1.468337e+09 -1.268301e+09 -1.428429e+09 -6.086550e+03 -4.694713e+04 -5.463503e+03
-1.570200e+09 -1.370196e+09 -1.530233e+09 -8.084239e+02 -2.223402e+04 -5.209854e+03
-1.438648e+09 -1.238681e+09 -1.398718e+09 -4.583212e+03 -5.566121e+04 1.788020e+03
-1.539869e+09 -1.339892e+09 -1.499937e+09 -8.092698e+03 -4.507865e+04 -4.562873e+02
-1.489637e+09 -1.289677e+09 -1.449705e+09 -2.758529e+03 -5.373110e+04 9.863531e+02
-1.489638e+09 -1.289680e+09 -1.449707e+09 -1.103497e+03 -5.546790e+04 3.355646e+03
-1.492005e+09 -1.292029e+09 -1.452063e+09 -5.651455e+03 -5.697101e+04 -1.638941e+02
-1.593227e+09 -1.393240e+09 -1.553283e+09 -8.248540e+03 -4.614040e+04 -9.799619e+02
-1.542992e+09 -1.343026e+09 -1.503051e+09 -9.646809e+03 -6.159134e+04 2.312198e+03
-1.644865e+09 -1.444883e+09 -1.604916e+09 -5.303906e+03 -4.359435e+04 -2.625913e+03
-1.534224e+09 -1.334201e+09 -1.494227e+09 -8.355452e+02 -5.967207e+03 1.000879e+04
-1.655534e+09 -1.455511e+09 -1.615537e+09 -8.927249e+01 -5.980905e+02 5.984818e+03
-1.706850e+09 -1.506827e+09 -1.666852e+09 4.625985e+02 -5.987815e+02 6.652721e+03
-1.768094e+09 -1.568079e+09 -1.728107e+09 1.028153e+02 -4.654561e+03 8.420478e+03
-1.536392e+09 -1.336372e+09 -1.496396e+09 -3.601826e+02 -6.396369e+03 1.063584e+04
-1.657699e+09 -1.457680e+09 -1.617705e+09 -1.191780e+03 -1.226035e+03 5.768756e+03
-1.725603e+09 -1.525593e+09 -1.685622e+09 -4.450973e+03 -3.202832e+03 5.121504e+03
-1.765759e+09 -1.565745e+09 -1.725777e+09 -5.684430e+03 -3.690112e+03 5.009297e+03
-1.485209e+09 -1.285189e+09 -1.445210e+09 -5.273556e+03 -2.543630e+03 7.527021e+03
-1.485209e+09 -1.285188e+09 -1.445209e+09 -7.811758e+03 -3.446241e+03 9.995072e+03
-1.606519e+09 -1.406503e+09 -1.566524e+09 -5.966442e+03 2.029480e+03 3.930378e+03
-1.653863e+09 -1.453846e+09 -1.613874e+09 -1.253637e+04 1.472120e+03 2.660042e+03
-1.441231e+09 -1.241211e+09 -1.401233e+09 3.099483e+02 -6.811837e+03 9.498645e+03
-1.507722e+09 -1.307704e+09 -1.467738e+09 -3.792417e+03 -1.269514e+04 9.033610e+03
-1.469205e+09 -1.269182e+09 -1.429211e+09 -3.169107e+03 -7.329329e+03 1.032633e+04
-1.416389e+09 -1.216374e+09 -1.376400e+09 -4.352140e+03 -1.163323e+04 8.848793e+03
-1.416388e+09 -1.216372e+09 -1.376399e+09 -2.313939e+03 -1.180379e+04 8.232951e+03
-1.560542e+09 -1.360519e+09 -1.520549e+09 -7.303886e+03 -9.357506e+03 7.085559e+03
-1.507724e+09 -1.307712e+09 -1.467738e+09 -4.384159e+03 -1.403245e+04 8.961159e+03
-1.469206e+09 -1.269186e+09 -1.429207e+09 -4.888315e+03 -5.685937e+03 9.949678e+03
-1.560542e+09 -1.360516e+09 -1.520552e+09 -5.358588e+03 -9.857113e+03 8.408583e+03
-1.439070e+09 -1.239047e+09 -1.399065e+09 5.489956e+03 -1.746313e+03 1.034271e+04
-1.534366e+09 -1.334340e+09 -1.494362e+09 4.338230e+03 -1.294066e+03 1.013875e+04
-1.483723e+09 -1.283700e+09 -1.443717e+09 8.052167e+03 -1.453589e+03 1.008810e+04
-1.483723e+09 -1.283700e+09 -1.443718e+09 9.228013e+03 -4.066367e+03 9.963783e+03
-1.490244e+09 -1.290224e+09 -1.450246e+09 -3.164069e+01 -5.514283e+03 1.011504e+04
-1.585537e+09 -1.385512e+09 -1.545540e+09 -2.280293e+03 -3.072347e+03 9.075442e+03
-1.534888e+09 -1.334874e+09 -1.494897e+09 1.049788e+02 -7.828838e+03 8.918281e+03
-1.646785e+09 -1.446770e+09 -1.606794e+09 3.681951e+02 -7.487251e+03 8.516100e+03
-1.434773e+09 -1.234774e+09 -1.394774e+09 4.368965e+02 4.559651e+01 2.947712e+01
-1.548729e+09 -1.348730e+09 -1.508730e+09 4.362670e+02 4.646757e+01 2.788643e+01
-1.502369e+09 -1.302371e+09 -1.462370e+09 4.158943e+02 3.918931e+01 2.455592e+01
-1.502369e+09 -1.302371e+09 -1.462370e+09 4.091679e+02 4.589407e+01 2.070502e+01
-1.485961e+09 -1.285963e+09 -1.445963e+09 4.393101e+02 4.800159e+01 2.780279e+01
-1.599917e+09 -1.399919e+09 -1.559918e+09 4.382586e+02 4.945931e+01 2.479956e+01
-1.553557e+09 -1.353559e+09 -1.513559e+09 4.049763e+02 4.361320e+01 6.612766e+00
-1.664238e+09 -1.464240e+09 -1.624240e+09 4.129064e+02 4.650681e+01 1.994295e+01
-1.445967e+09 -1.245969e+09 -1.405969e+09 4.860282e+02 5.443386e+01 2.649225e+01
-1.445967e+09 -1.245969e+09 -1.405969e+09 5.161623e+02 5.129569e+01 4.645952e+00
-1.565113e+09 -1.365115e+09 -1.525115e+09 5.179693e+02 5.290407e+01 2.573699e+01
-1.507559e+09 -1.307561e+09 -1.467560e+09 5.192399e+02 6.426735e+01 1.838380e+01
-1.478193e+09 -1.278194e+09 -1.438194e+09 4.867941e+02 5.491621e+01 3.833750e+01
-1.478193e+09 -1.278194e+09 -1.438194e+09 5.222980e+02 4.802034e+01 1.026746e+01
-1.540375e+09 -1.340377e+09 -1.500377e+09 4.953643e+02 5.902457e+01 6.925695e+01
-1.627296e+09 -1.427298e+09 -1.587297e+09 5.082172e+02 5.803785e+01 5.776053e+01
-1.524552e+09 -1.324554e+09 -1.484553e+09 4.437096e+02 4.329841e+01 7.020393e+00
-1.638508e+09 -1.438510e+09 -1.598509e+09 4.433600e+02 4.277375e+01 9.859911e+00
-1.741252e+09 -1.541254e+09 -1.701253e+09 4.554714e+02 4.468205e+01 5.801241e+00
-1.654331e+09 -1.454333e+09 -1.614332e+09 4.505324e+02 4.015559e+01 4.701459e+00
-1.543515e+09 -1.343517e+09 -1.503517e+09 4.699278e+02 3.439308e+01 9.802737e+00
-1.657471e+09 -1.457473e+09 -1.617473e+09 4.701156e+02 3.461067e+01 1.168848e+01
-1.721793e+09 -1.521794e+09 -1.681794e+09 4.668681e+02 3.063901e+01 -2.609749e-01
-1.789750e+09 -1.589752e+09 -1.749751e+09 4.738516e+02 3.558424e+01 -3.307701e+00
-1.509097e+09 -1.309099e+09 -1.469098e+09 5.354900e+02 3.652415e+01 -3.552392e+01
-1.625145e+09 -1.425147e+09 -1.585147e+09 5.349226e+02 5.150382e+01 8.075611e+00
-1.630738e+09 -1.430740e+09 -1.590740e+09 5.922386e+02 5.065049e+01 -2.324343e+01
-1.750427e+09 -1.550429e+09 -1.710429e+09 5.894290e+02 5.924102e+01 -2.070596e+01
-1.585910e+09 -1.385912e+09 -1.545912e+09 5.330692e+02 3.428154e+01 -2.945504e+01
-1.701959e+09 -1.501961e+09 -1.661960e+09 5.335987e+02 5.143763e+01 1.097255e+01
-1.778065e+09 -1.578068e+09 -1.738067e+09 5.457985e+02 5.202490e+01 -1.411186e+01
-1.828300e+09 -1.628303e+09 -1.788302e+09 5.328049e+02 3.096532e+01 -4.622092e+01
-1.530733e+09 -1.330735e+09 -1.490734e+09 5.159572e+02 4.914181e+01 -1.237083e+01
-1.530733e+09 -1.330735e+09 -1.490734e+09 4.711533e+02 3.547194e+01 -2.343597e+01
-1.646781e+09 -1.446784e+09 -1.606783e+09 4.613455e+02 3.335589e+01 -3.881610e+01
-1.697649e+09 -1.497652e+09 -1.657651e+09 4.959997e+02 3.635599e+01 8.567286e+00
-1.476189e+09 -1.276191e+09 -1.436190e+09 5.083936e+02 4.399194e+01 -5.944087e+00
-1.476188e+09 -1.276191e+09 -1.436190e+09 4.629555e+02 2.996490e+01 -2.023374e+01
-1.581601e+09 -1.381603e+09 -1.541603e+09 4.761891e+02 3.171203e+01 -1.265023e+01
-1.493825e+09 -1.293827e+09 -1.453827e+09 4.738943e+02 3.256317e+01 -1.174353e+01
-1.399375e+09 -1.199377e+09 -1.359376e+09 5.760886e+02 7.576409e+01 6.078326e+01
-1.399375e+09 -1.199377e+09 -1.359377e+09 6.151551e+02 2.028380e+01 -1.008052e+02
-1.459512e+09 -1.259514e+09 -1.419514e+09 6.074244e+02 5.812071e+01 -1.548965e+01
-1.448550e+09 -1.248552e+09 -1.408552e+09 6.104206e+02 6.988274e+01 5.354346e+00
-1.454552e+09 -1.254554e+09 -1.414554e+09 5.780114e+02 6.025350e+01 -5.588510e+00
-1.454552e+09 -1.254554e+09 -1.414554e+09 6.105041e+02 4.808221e+01 -4.544884e+01
-1.634378e+09 -1.434380e+09 -1.594380e+09 6.041120e+02 7.507456e+01 -1.242224e+01
-1.514690e+09 -1.314692e+09 -1.474691e+09 6.060207e+02 6.584569e+01 -1.426924e+01
-1.502147e+09 -1.302150e+09 -1.462149e+09 5.675863e+02 6.905334e+01 -9.521194e+01
-1.502147e+09 -1.302150e+09 -1.462149e+09 5.209730e+02 5.650029e+01 -1.664171e+02
-1.618138e+09 -1.418141e+09 -1.578141e+09 5.282395e+02 7.510001e+01 -1.442453e+02
-1.676934e+09 -1.476937e+09 -1.636936e+09 5.520089e+02 8.053050e+01 -9.898533e+01
-1.448041e+09 -1.248044e+09 -1.408043e+09 5.458411e+02 5.338356e+01 -7.752161e+01
-1.448041e+09 -1.248044e+09 -1.408043e+09 5.005558e+02 4.227731e+01 -1.408536e+02
-1.560943e+09 -1.360945e+09 -1.520945e+09 5.261792e+02 5.609693e+01 -9.738283e+01
-1.501314e+09 -1.301316e+09 -1.461316e+09 5.180274e+02 3.498253e+01 -7.963313e+01
-1.442518e+09 -1.242520e+09 -1.402520e+09 6.525821e+02 7.976519e+01 -7.342496e+01
-1.442518e+09 -1.242520e+09 -1.402520e+09 7.106352e+02 5.947152e+01 -1.416518e+02
-1.558509e+09 -1.358512e+09 -1.518512e+09 6.980323e+02 8.717991e+01 -8.993862e+01
-1.504404e+09 -1.304406e+09 -1.464406e+09 6.970541e+02 7.657043e+01 -8.480625e+01
-1.502147e+09 -1.302149e+09 -1.462149e+09 6.687067e+02 7.040326e+01 -7.902703e+01
-1.502147e+09 -1.302149e+09 -1.462149e+09 7.274279e+02 4.938938e+01 -1.502323e+02
-1.676934e+09 -1.476937e+09 -1.636936e+09 6.951670e+02 7.915456e+01 -6.120178e+01
-1.618138e+09 -1.418141e+09 -1.578141e+09 7.017245e+02 8.745345e+01 -7.415314e+01
-1.494679e+09 -1.294682e+09 -1.454682e+09 7.440043e+02 5.812515e+01 -2.531038e+02
-1.494679e+09 -1.294682e+09 -1.454682e+09 8.401890e+02 3.673563e+01 -3.661977e+02
-1.597633e+09 -1.397636e+09 -1.557636e+09 8.088772e+02 3.869392e+01 -2.878957e+02
-1.650108e+09 -1.450111e+09 -1.610111e+09 8.050970e+02 6.455758e+01 -2.635344e+02
-1.446000e+09 -1.246004e+09 -1.406003e+09 7.208426e+02 6.677881e+01 -2.833092e+02
-1.515581e+09 -1.315584e+09 -1.475583e+09 7.924804e+02 7.649733e+01 -3.128880e+02
-1.472016e+09 -1.272019e+09 -1.432019e+09 7.900122e+02 5.151028e+01 -3.442607e+02
-1.414427e+09 -1.214430e+09 -1.374430e+09 7.969545e+02 6.247788e+01 -3.272119e+02
-1.414427e+09 -1.214430e+09 -1.374430e+09 8.024885e+02 9.175307e+01 -3.298872e+02
-1.573170e+09 -1.373173e+09 -1.533172e+09 8.175395e+02 6.488135e+01 -3.265627e+02
-1.515581e+09 -1.315583e+09 -1.475583e+09 7.988458e+02 5.943602e+01 -3.176848e+02
-1.472016e+09 -1.272019e+09 -1.432019e+09 8.240381e+02 4.158048e+01 -3.818330e+02
-1.573170e+09 -1.373173e+09 -1.533172e+09 7.995675e+02 8.269531e+01 -3.102584e+02
-1.437090e+09 -1.237093e+09 -1.397093e+09 5.489061e+02 5.430108e+01 -2.630503e+02
-1.540044e+09 -1.340047e+09 -1.500047e+09 5.779959e+02 6.879058e+01 -2.149319e+02
-1.491365e+09 -1.291368e+09 -1.451368e+09 5.263941e+02 3.323342e+01 -2.421652e+02
-1.491365e+09 -1.291368e+09 -1.451368e+09 4.719091e+02 7.527533e+01 -2.937084e+02
-1.494679e+09 -1.294682e+09 -1.454682e+09 5.610795e+02 6.727645e+01 -2.917608e+02
-1.597633e+09 -1.397636e+09 -1.557636e+09 5.901097e+02 8.324525e+01 -2.453740e+02
-1.548954e+09 -1.348958e+09 -1.508957e+09 4.664717e+02 7.092082e+01 -3.860453e+02
-1.650108e+09 -1.450111e+09 -1.610111e+09 5.039907e+02 9.385273e+01 -3.176600e+02
-1.552094e+09 -1.352099e+09 -1.512098e+09 6.273510e+02 3.842607e+01 -8.107649e+02
-1.665590e+09 -1.465594e+09 -1.625594e+09 6.234525e+02 -1.253848e+01 -8.635962e+02
-1.734931e+09 -1.534935e+09 -1.694935e+09 6.628857e+02 4.828558e+01 -9.017982e+02
-1.796245e+09 -1.596249e+09 -1.756248e+09 6.309760e+02 5.849493e+01 -8.567742e+02
-1.552807e+09 -1.352811e+09 -1.512810e+09 6.643404e+02 -5.340428e+00 -7.314206e+02
-1.666303e+09 -1.466307e+09 -1.626306e+09 6.576865e+02 -5.790164e+01 -7.943053e+02
-1.733007e+09 -1.533011e+09 -1.693011e+09 6.182124e+02 -4.965930e+00 -7.885834e+02
-1.762599e+09 -1.562603e+09 -1.722602e+09 6.896946e+02 -5.168948e+01 -6.924614e+02
-1.444151e+09 -1.244155e+09 -1.404155e+09 7.034900e+02 6.151134e+01 -7.579430e+02
-1.444151e+09 -1.244155e+09 -1.404155e+09 8.499052e+02 1.905416e+01 -8.701203e+02
-1.563842e+09 -1.363846e+09 -1.523845e+09 8.539591e+02 4.907485e+01 -8.217027e+02
-1.508101e+09 -1.308105e+09 -1.468104e+09 8.080695e+02 3.127566e+01 -7.955740e+02
-1.501744e+09 -1.301748e+09 -1.461748e+09 7.334738e+02 4.943439e+01 -7.343933e+02
-1.501745e+09 -1.301748e+09 -1.461748e+09 8.793440e+02 7.703804e+00 -8.415798e+02
-1.682749e+09 -1.482753e+09 -1.642752e+09 8.322901e+02 4.968593e+01 -7.486218e+02
-1.621435e+09 -1.421439e+09 -1.581439e+09 8.585824e+02 5.501750e+01 -7.722880e+02
-1.438760e+09 -1.238764e+09 -1.398764e+09 4.869081e+02 5.240179e+01 -6.221812e+02
-1.438760e+09 -1.238764e+09 -1.398764e+09 2.446132e+02 8.576391e+01 -7.934425e+02
-1.552256e+09 -1.352260e+09 -1.512260e+09 3.259617e+02 6.499377e+01 -6.835350e+02
-1.501906e+09 -1.301910e+09 -1.461910e+09 3.431855e+02 4.632095e+01 -6.370775e+02
-1.495213e+09 -1.295217e+09 -1.455217e+09 5.052899e+02 4.818232e+01 -6.403842e+02
-1.608709e+09 -1.408713e+09 -1.568713e+09 4.209193e+02 7.536082e+01 -7.186567e+02
-1.645544e+09 -1.445548e+09 -1.605547e+09 4.347658e+02 4.965717e+01 -5.916168e+02
-1.558359e+09 -1.358363e+09 -1.518363e+09 4.167660e+02 5.303767e+01 -6.825383e+02
-1.492203e+09 -1.292209e+09 -1.452208e+09 6.144812e+02 7.765080e-01 -1.447308e+03
-1.492203e+09 -1.292209e+09 -1.452208e+09 8.425206e+02 -4.609233e+01 -1.728717e+03
-1.600399e+09 -1.400404e+09 -1.560404e+09 7.497863e+02 -9.132732e+01 -1.477078e+03
-1.658656e+09 -1.458661e+09 -1.618660e+09 8.051595e+02 -9.472608e+01 -1.574113e+03
-1.444867e+09 -1.244873e+09 -1.404873e+09 5.322395e+02 3.219644e+01 -1.627378e+03
-1.444867e+09 -1.244873e+09 -1.404873e+09 7.688126e+02 -1.771051e+01 -1.867698e+03
-1.550459e+09 -1.350465e+09 -1.510464e+09 7.600826e+02 -4.056117e+01 -1.851456e+03
-1.494000e+09 -1.294005e+09 -1.454005e+09 6.938752e+02 -3.637096e+01 -1.832970e+03
-1.435744e+09 -1.235749e+09 -1.395749e+09 1.443040e+02 9.964830e+01 -1.494208e+03
-1.543940e+09 -1.343945e+09 -1.503945e+09 2.552060e+02 9.527834e+01 -1.311192e+03
-1.496604e+09 -1.296610e+09 -1.456609e+09 1.519352e+02 3.872518e+01 -1.357115e+03
-1.496604e+09 -1.296609e+09 -1.456609e+09 -9.300332e+01 1.938791e+02 -1.561412e+03
-1.492203e+09 -1.292209e+09 -1.452208e+09 1.740238e+02 1.421069e+02 -1.527013e+03
-1.600399e+09 -1.400404e+09 -1.560404e+09 2.723128e+02 1.489482e+02 -1.393090e+03
-1.553063e+09 -1.353069e+09 -1.513068e+09 -7.701868e+01 2.145320e+02 -1.728385e+03
-1.658655e+09 -1.458661e+09 -1.618660e+09 -2.560049e+01 2.056691e+02 -1.610943e+03
-1.552711e+09 -1.352717e+09 -1.512717e+09 1.150911e+02 -7.232757e+01 -3.180232e+03
-1.674545e+09 -1.474552e+09 -1.634551e+09 1.964260e+02 8.389784e+01 -3.556889e+03
-1.758667e+09 -1.558674e+09 -1.718672e+09 5.663313e+02 -1.450194e+02 -3.126991e+03
-1.839132e+09 -1.639138e+09 -1.799137e+09 4.069482e+02 -2.635335e+02 -3.350707e+03
-1.556044e+09 -1.356051e+09 -1.516051e+09 8.149248e+01 6.201185e+01 -3.408362e+03
-1.677878e+09 -1.477886e+09 -1.637885e+09 1.038722e+02 2.157554e+02 -3.942287e+03
-1.769723e+09 -1.569731e+09 -1.729729e+09 -9.077995e+01 -3.503937e+00 -3.959578e+03
-1.823503e+09 -1.623510e+09 -1.783509e+09 1.537611e+02 8.880240e+01 -4.003452e+03
-1.492921e+09 -1.292928e+09 -1.452928e+09 7.132952e+01 1.450504e+02 -3.399252e+03
-1.492921e+09 -1.292928e+09 -1.452928e+09 3.905662e+02 1.261813e+02 -3.628920e+03
-1.614756e+09 -1.414763e+09 -1.574762e+09 4.507789e+02 1.322601e+02 -3.823683e+03
-1.686757e+09 -1.486764e+09 -1.646763e+09 4.441269e+02 1.300296e+02 -3.860734e+03
-1.448019e+09 -1.248027e+09 -1.408027e+09 -3.085027e+01 2.043193e+02 -3.872523e+03
-1.448020e+09 -1.248027e+09 -1.408027e+09 2.985465e+02 1.869993e+02 -3.994469e+03
-1.564922e+09 -1.364929e+09 -1.524929e+09 5.015301e+02 7.968499e+01 -3.892993e+03
-1.505306e+09 -1.305314e+09 -1.465313e+09 2.717835e+02 2.061140e+02 -4.175436e+03
-1.444687e+09 -1.244693e+09 -1.404693e+09 -5.926649e+02 3.804840e+02 -2.918515e+03
-1.573709e+09 -1.373715e+09 -1.533715e+09 -2.723467e+02 3.398639e+02 -2.707787e+03
-1.517428e+09 -1.317435e+09 -1.477434e+09 -4.672578e+02 2.436855e+02 -2.661302e+03
-1.517428e+09 -1.317434e+09 -1.477434e+09 -1.075502e+03 5.976518e+02 -2.845764e+03
-1.507809e+09 -1.307816e+09 -1.467817e+09 -6.920191e+02 3.238404e+02 -2.987336e+03
-1.636831e+09 -1.436838e+09 -1.596838e+09 -4.121598e+02 3.568340e+02 -2.848378e+03
-1.580551e+09 -1.380557e+09 -1.540557e+09 -1.151045e+03 5.671076e+02 -3.160122e+03
-1.717296e+09 -1.517303e+09 -1.677303e+09 -1.132590e+03 4.450788e+02 -2.995585e+03
-1.537339e+09 -1.337348e+09 -1.497346e+09 -1.907422e+03 9.119049e+02 -6.084751e+03
-1.639322e+09 -1.439331e+09 -1.599329e+09 -1.857517e+03 9.607609e+02 -6.694619e+03
-1.682591e+09 -1.482598e+09 -1.642597e+09 -1.392155e+03 8.319512e+02 -5.408997e+03
-1.743317e+09 -1.543324e+09 -1.703322e+09 -1.687090e+03 8.650808e+02 -6.252744e+03
-1.547682e+09 -1.347692e+09 -1.507690e+09 -1.786731e+03 9.559607e+02 -6.743551e+03
-1.649666e+09 -1.449675e+09 -1.609674e+09 -1.728580e+03 1.044044e+03 -7.254742e+03
-1.705163e+09 -1.505173e+09 -1.665170e+09 -1.944393e+03 1.032189e+03 -7.586888e+03
-1.738021e+09 -1.538031e+09 -1.698029e+09 -1.909753e+03 1.250415e+03 -7.706698e+03
-1.489279e+09 -1.289288e+09 -1.449288e+09 -2.632061e+03 1.188773e+03 -5.866573e+03
-1.489280e+09 -1.289288e+09 -1.449288e+09 -2.477776e+03 1.106874e+03 -5.592709e+03
-1.641331e+09 -1.441340e+09 -1.601339e+09 -3.094769e+03 1.416588e+03 -5.911191e+03
-1.580606e+09 -1.380614e+09 -1.540614e+09 -2.423128e+03 1.186450e+03 -5.146189e+03
-1.446449e+09 -1.246457e+09 -1.406457e+09 -2.790534e+03 1.091893e+03 -5.647516e+03
-1.446449e+09 -1.246457e+09 -1.406457e+09 -2.554926e+03 9.697863e+02 -5.475845e+03
-1.446449e+09 -1.246457e+09 -1.406457e+09 -3.380190e+03 1.456182e+03 -5.877742e+03
-1.550006e+09 -1.350014e+09 -1.510014e+09 -3.014887e+03 1.084021e+03 -5.336931e+03
-1.436458e+09 -1.236469e+09 -1.396469e+09 -1.622541e+03 7.040521e+02 -7.137845e+03
-1.436458e+09 -1.236469e+09 -1.396468e+09 -1.485738e+03 5.076834e+02 -7.135942e+03
-1.490383e+09 -1.290394e+09 -1.450394e+09 -3.799035e+02 6.972998e+01 -7.146112e+03
-1.538442e+09 -1.338453e+09 -1.498452e+09 -1.350849e+03 7.218409e+02 -7.213639e+03
-1.489634e+09 -1.289645e+09 -1.449643e+09 -2.256056e+03 1.160692e+03 -7.373799e+03
-1.632922e+09 -1.432932e+09 -1.592931e+09 -2.137801e+03 1.168089e+03 -7.686612e+03
-1.541268e+09 -1.341278e+09 -1.501276e+09 -1.943297e+03 1.075753e+03 -7.580036e+03
-1.488093e+09 -1.288103e+09 -1.448101e+09 -2.323168e+03 9.873083e+02 -7.588706e+03
-1.590077e+09 -1.390087e+09 -1.550085e+09 -2.155082e+03 1.178057e+03 -7.708693e+03
-1.584115e+09 -1.384124e+09 -1.544122e+09 -1.947693e+03 1.088678e+03 -7.484480e+03
-1.530939e+09 -1.330949e+09 -1.490947e+09 -2.352231e+03 1.103173e+03 -7.505103e+03
-1.643252e+09 -1.443262e+09 -1.603260e+09 -1.948655e+03 1.152688e+03 -7.540720e+03
-1.686098e+09 -1.486108e+09 -1.646106e+09 -1.962927e+03 1.160770e+03 -7.680484e+03
-1.438008e+09 -1.238011e+09 -1.398011e+09 -5.987212e+03 4.442504e+03 -1.002449e+04
-1.549712e+09 -1.349715e+09 -1.509715e+09 -4.935264e+03 3.584212e+03 -8.561848e+03
-1.500105e+09 -1.300108e+09 -1.460108e+09 -5.307892e+03 3.511693e+03 -8.581076e+03
-1.500105e+09 -1.300107e+09 -1.460106e+09 -6.363580e+03 4.512096e+03 -9.353258e+03
-1.497380e+09 -1.297385e+09 -1.457385e+09 -6.125430e+03 4.425563e+03 -1.002098e+04
-1.609084e+09 -1.409088e+09 -1.569088e+09 -5.143436e+03 3.660676e+03 -8.741026e+03
-1.559479e+09 -1.359481e+09 -1.519481e+09 -6.156590e+03 4.686031e+03 -9.701250e+03
-1.673863e+09 -1.473865e+09 -1.633865e+09 -6.259160e+03 4.632141e+03 -9.702103e+03
-1.497383e+09 -1.297387e+09 -1.457387e+09 -4.308241e+03 2.953975e+03 -9.434561e+03
-1.497383e+09 -1.297388e+09 -1.457384e+09 -2.652521e+03 2.785775e+03 -1.123782e+04
-1.609085e+09 -1.409090e+09 -1.569088e+09 -3.590276e+03 2.082226e+03 -8.720165e+03
-1.673865e+09 -1.473869e+09 -1.633866e+09 -2.929363e+03 1.926418e+03 -9.526597e+03
-1.447772e+09 -1.247779e+09 -1.407777e+09 -4.922242e+03 3.338819e+03 -1.156254e+04
-1.530244e+09 -1.330253e+09 -1.490247e+09 -3.533150e+03 3.017536e+03 -1.328790e+04
-1.475235e+09 -1.275242e+09 -1.435238e+09 -3.681793e+03 2.669242e+03 -1.225226e+04
-1.415860e+09 -1.215868e+09 -1.375863e+09 -4.559160e+03 3.211112e+03 -1.294651e+04
-1.415860e+09 -1.215869e+09 -1.375862e+09 -3.249106e+03 2.859363e+03 -1.382233e+04
-1.589620e+09 -1.389627e+09 -1.549622e+09 -3.813810e+03 2.627829e+03 -1.204453e+04
-1.530244e+09 -1.330253e+09 -1.490248e+09 -4.226345e+03 3.031999e+03 -1.269932e+04
-1.475235e+09 -1.275243e+09 -1.435238e+09 -3.417688e+03 3.212897e+03 -1.304354e+04
-1.589619e+09 -1.389627e+09 -1.549621e+09 -3.494503e+03 2.579320e+03 -1.295651e+04
-1.538828e+09 -1.338816e+09 -1.498819e+09 -5.425683e+03 4.746601e+03 -5.984842e+03
-1.646316e+09 -1.446303e+09 -1.606306e+09 -5.432013e+03 6.049609e+03 -7.296164e+03
-1.678711e+09 -1.478698e+09 -1.638702e+09 -4.797837e+03 5.447781e+03 -6.168356e+03
-1.718338e+09 -1.518329e+09 -1.678332e+09 -4.238302e+03 3.769761e+03 -4.320186e+03
-1.519957e+09 -1.319947e+09 -1.479949e+09 -4.456907e+03 5.125963e+03 -7.190292e+03
-1.627445e+09 -1.427434e+09 -1.587435e+09 -4.258182e+03 5.819128e+03 -8.414855e+03
-1.666671e+09 -1.466664e+09 -1.626666e+09 -4.118454e+03 4.066810e+03 -6.666694e+03
-1.706773e+09 -1.506765e+09 -1.666766e+09 -3.146358e+03 4.109083e+03 -6.334675e+03
-1.441656e+09 -1.241647e+09 -1.401651e+09 -5.279818e+03 5.369301e+03 -9.510754e+03
-1.441656e+09 -1.241646e+09 -1.401649e+09 -5.356392e+03 4.297154e+03 -9.018665e+03
-1.495893e+09 -1.295885e+09 -1.455887e+09 -3.621219e+03 1.798171e+03 -1.014680e+04
-1.549143e+09 -1.349134e+09 -1.509137e+09 -3.811878e+03 4.519125e+03 -9.877331e+03
-1.475638e+09 -1.275630e+09 -1.435630e+09 -5.999186e+03 5.581893e+03 -8.777306e+03
-1.621411e+09 -1.421405e+09 -1.581404e+09 -5.663030e+03 4.803352e+03 -8.886465e+03
-1.516741e+09 -1.316733e+09 -1.476732e+09 -5.809367e+03 5.467599e+03 -8.573688e+03
-1.482759e+09 -1.282751e+09 -1.442750e+09 -6.112659e+03 4.596078e+03 -8.485175e+03
-1.590247e+09 -1.390239e+09 -1.550239e+09 -5.300360e+03 5.397363e+03 -9.729273e+03
-1.547905e+09 -1.347899e+09 -1.507897e+09 -6.430641e+03 5.350013e+03 -9.282477e+03
-1.513924e+09 -1.313918e+09 -1.473916e+09 -6.060370e+03 4.547967e+03 -8.658772e+03
-1.624229e+09 -1.424220e+09 -1.584220e+09 -6.036501e+03 5.957580e+03 -1.014709e+04
-1.655391e+09 -1.455386e+09 -1.615385e+09 -6.173162e+03 5.180557e+03 -9.116750e+03
-1.441263e+09 -1.241248e+09 -1.401252e+09 -5.538631e+03 8.108034e+03 -6.696163e+03
-1.526909e+09 -1.326893e+09 -1.486900e+09 -4.829557e+03 7.097289e+03 -5.385044e+03
-1.474059e+09 -1.274043e+09 -1.434049e+09 -3.868018e+03 7.181635e+03 -5.452732e+03
-1.474058e+09 -1.274041e+09 -1.434047e+09 -3.851950e+03 8.209653e+03 -5.404182e+03
-1.485575e+09 -1.285564e+09 -1.445571e+09 -7.582125e+03 6.319156e+03 -6.270910e+03
-1.571222e+09 -1.371210e+09 -1.531220e+09 -6.483061e+03 4.845687e+03 -4.595951e+03
-1.518369e+09 -1.318357e+09 -1.478366e+09 -5.876113e+03 6.169977e+03 -4.020361e+03
-1.610849e+09 -1.410837e+09 -1.570845e+09 -6.224866e+03 5.733664e+03 -4.253756e+03
-1.538286e+09 -1.338270e+09 -1.498332e+09 -2.317581e+03 -2.521831e+04 1.017902e+04
-1.650082e+09 -1.450067e+09 -1.610122e+09 -2.117335e+03 -2.708744e+04 8.219096e+03
-1.716723e+09 -1.516690e+09 -1.676757e+09 -8.171318e+03 -1.038390e+04 9.281272e+03
-1.772945e+09 -1.572917e+09 -1.732981e+09 -9.872408e+03 -1.649690e+04 7.547668e+03
-1.554305e+09 -1.354285e+09 -1.514347e+09 -2.572884e+03 -2.520891e+04 1.068525e+04
-1.666100e+09 -1.466081e+09 -1.626137e+09 -1.816062e+03 -2.699191e+04 7.748611e+03
-1.727236e+09 -1.527210e+09 -1.687272e+09 -5.575657e+02 -1.786349e+04 8.819342e+03
-1.786625e+09 -1.586591e+09 -1.746652e+09 -2.463090e+03 -2.025735e+04 6.038588e+03
-1.433658e+09 -1.233648e+09 -1.393697e+09 -3.351323e+03 -2.006991e+04 6.964401e+03
-1.433651e+09 -1.233615e+09 -1.393710e+09 -1.113840e+04 -1.603076e+04 2.165440e+03
-1.500194e+09 -1.300161e+09 -1.460230e+09 -1.359055e+04 -6.789458e+03 -4.595775e+02
-1.545453e+09 -1.345440e+09 -1.505495e+09 -9.519381e+03 -2.195426e+04 -9.751317e+02
-1.499848e+09 -1.299835e+09 -1.459891e+09 -4.216339e+03 -2.192447e+04 4.011496e+03
-1.678115e+09 -1.478087e+09 -1.638144e+09 -7.724526e+03 -1.128069e+04 -3.881585e+03
-1.563930e+09 -1.363906e+09 -1.523974e+09 -5.484321e+03 -2.449304e+04 1.442555e+03
-1.497732e+09 -1.297681e+09 -1.457776e+09 -1.109934e+04 -6.199553e+03 1.282236e+03
-1.609535e+09 -1.409508e+09 -1.569566e+09 -1.060254e+04 -1.450688e+04 -2.068417e+03
-1.632516e+09 -1.432477e+09 -1.592548e+09 8.130148e+01 -2.055467e+04 7.172509e+03
-1.566311e+09 -1.366265e+09 -1.526356e+09 -1.330900e+04 -1.258639e+04 -3.089305e+03
-1.675727e+09 -1.475705e+09 -1.635763e+09 -7.012920e+03 -2.086234e+04 8.578298e+02
-1.744305e+09 -1.544276e+09 -1.704327e+09 -4.990905e+03 -1.480580e+04 -1.219613e+03
-1.493038e+09 -1.293034e+09 -1.453063e+09 4.978858e+03 -2.932372e+04 1.576135e+04
-1.493046e+09 -1.293043e+09 -1.453069e+09 9.307639e+03 -3.255691e+04 1.856927e+04
-1.661157e+09 -1.461153e+09 -1.621178e+09 2.464446e+03 -2.127084e+04 1.489410e+04
-1.604934e+09 -1.404921e+09 -1.564951e+09 3.283074e+03 -1.468808e+04 1.596038e+04
-1.442860e+09 -1.242854e+09 -1.402888e+09 8.631354e+03 -2.944428e+04 1.570772e+04
-1.442867e+09 -1.242865e+09 -1.402894e+09 1.305182e+04 -3.261570e+04 1.793647e+04
-1.442870e+09 -1.242874e+09 -1.402903e+09 1.574174e+04 -3.758464e+04 2.002463e+04
-1.549248e+09 -1.349244e+09 -1.509276e+09 9.509995e+03 -2.413993e+04 1.217044e+04
-1.515330e+09 -1.315330e+09 -1.475366e+09 -1.302958e+04 -2.925884e+04 -1.200740e+04
-1.616369e+09 -1.416370e+09 -1.576404e+09 -1.287056e+04 -3.076574e+04 -1.339462e+04
-1.663232e+09 -1.463230e+09 -1.623268e+09 -1.164560e+04 -3.077994e+04 -1.056840e+04
-1.735189e+09 -1.535180e+09 -1.695218e+09 -6.950174e+03 -2.077542e+04 -1.102385e+04
-1.524921e+09 -1.324917e+09 -1.484954e+09 -1.224213e+04 -2.994013e+04 -1.018799e+04
-1.625961e+09 -1.425957e+09 -1.585992e+09 -1.212155e+04 -3.147469e+04 -1.157433e+04
-1.693904e+09 -1.493897e+09 -1.653933e+09 -5.764080e+03 -2.194176e+04 -1.069822e+04
-1.742760e+09 -1.542741e+09 -1.702785e+09 -8.464799e+03 -2.519708e+04 -1.127568e+04
-1.426456e+09 -1.226475e+09 -1.386494e+09 -1.780345e+04 -3.598762e+04 -1.077978e+04
-1.515366e+09 -1.315379e+09 -1.475399e+09 -1.789010e+04 -3.136922e+04 -1.049238e+04
-1.477327e+09 -1.277359e+09 -1.437363e+09 -1.830630e+04 -3.681631e+04 -7.718896e+03
-1.477325e+09 -1.277356e+09 -1.437361e+09 -1.604356e+04 -3.534792e+04 -6.904382e+03
-1.473277e+09 -1.273294e+09 -1.433304e+09 -1.375894e+04 -3.194208e+04 -8.061809e+03
-1.562191e+09 -1.362205e+09 -1.522216e+09 -1.259441e+04 -3.099208e+04 -6.521996e+03
-1.524158e+09 -1.324180e+09 -1.484184e+09 -1.666647e+04 -3.596343e+04 -8.612877e+03
-1.634152e+09 -1.434162e+09 -1.594173e+09 -1.131314e+04 -2.512544e+04 -8.327792e+03
-1.478098e+09 -1.278101e+09 -1.438125e+09 -1.255690e+04 -2.951487e+04 -1.281029e+04
-1.478097e+09 -1.278075e+09 -1.438133e+09 -1.009877e+04 -2.543490e+04 -1.791179e+04
-1.579136e+09 -1.379122e+09 -1.539160e+09 -1.124183e+04 -1.908440e+04 -1.422872e+04
-1.632762e+09 -1.432753e+09 -1.592778e+09 -6.999070e+03 -2.031177e+04 -1.077570e+04
-1.436043e+09 -1.236046e+09 -1.396068e+09 -1.565754e+04 -2.562409e+04 -1.445562e+04
-1.436042e+09 -1.236018e+09 -1.396068e+09 -1.574167e+04 -1.792204e+04 -2.061017e+04
-1.531720e+09 -1.331713e+09 -1.491744e+09 -5.812445e+03 -2.206712e+04 -1.110243e+04
-1.484090e+09 -1.284073e+09 -1.444098e+09 -9.301338e+03 -1.254399e+04 -1.627445e+04
-1.508931e+09 -1.308925e+09 -1.468937e+09 -1.102478e+04 -1.196536e+04 -1.117612e+04
-1.508932e+09 -1.308917e+09 -1.468943e+09 -8.936017e+03 -1.453908e+04 -1.558367e+04
-1.618930e+09 -1.418915e+09 -1.578940e+09 -9.589932e+03 -1.485623e+04 -1.401561e+04
-1.691582e+09 -1.491574e+09 -1.651591e+09 -8.708100e+03 -1.092951e+04 -1.030606e+04
-1.456127e+09 -1.256121e+09 -1.416133e+09 -1.385679e+04 -1.180138e+04 -1.128817e+04
-1.542720e+09 -1.342707e+09 -1.502728e+09 -1.152303e+04 -1.038437e+04 -1.219615e+04
-1.484967e+09 -1.284957e+09 -1.444974e+09 -1.316762e+04 -1.233234e+04 -1.310592e+04
-1.417263e+09 -1.217251e+09 -1.377269e+09 -1.285648e+04 -1.234154e+04 -1.291625e+04
-1.417262e+09 -1.217246e+09 -1.377270e+09 -1.137811e+04 -1.212722e+04 -1.356538e+04
-1.610420e+09 -1.410414e+09 -1.570430e+09 -1.032533e+04 -1.003252e+04 -1.078793e+04
-1.542720e+09 -1.342707e+09 -1.502726e+09 -1.172207e+04 -1.097943e+04 -1.204405e+04
-1.484964e+09 -1.284951e+09 -1.444976e+09 -9.888965e+03 -1.455907e+04 -1.477222e+04
-1.610421e+09 -1.410415e+09 -1.570431e+09 -1.055653e+04 -9.495462e+03 -1.022579e+04
-1.508927e+09 -1.308924e+09 -1.468935e+09 -1.336085e+04 -1.539932e+04 -9.122109e+03
-1.508926e+09 -1.308928e+09 -1.468939e+09 -1.361297e+04 -1.851909e+04 -1.033676e+04
-1.691579e+09 -1.491576e+09 -1.651591e+09 -1.219428e+04 -1.663770e+04 -8.308414e+03
-1.618926e+09 -1.418928e+09 -1.578938e+09 -1.289756e+04 -1.974291e+04 -9.306160e+03
-1.456125e+09 -1.256127e+09 -1.416132e+09 -1.561513e+04 -1.616820e+04 -1.023725e+04
-1.456125e+09 -1.256134e+09 -1.416136e+09 -1.667640e+04 -1.944784e+04 -1.155381e+04
-1.456124e+09 -1.256133e+09 -1.416134e+09 -1.545431e+04 -1.873485e+04 -1.034180e+04
-1.581582e+09 -1.381586e+09 -1.541592e+09 -1.597866e+04 -1.455284e+04 -9.579415e+03
-1.446389e+09 -1.246383e+09 -1.406389e+09 -9.686310e+03 -8.887560e+03 -7.648829e+03
-1.559870e+09 -1.359864e+09 -1.519869e+09 -9.677887e+03 -9.220258e+03 -7.786015e+03
-1.501902e+09 -1.301897e+09 -1.461902e+09 -1.014330e+04 -9.611609e+03 -7.589019e+03
-1.501902e+09 -1.301898e+09 -1.461902e+09 -9.991333e+03 -9.582499e+03 -7.477450e+03
-1.519412e+09 -1.319407e+09 -1.479411e+09 -7.654082e+03 -7.127362e+03 -6.600611e+03
-1.632892e+09 -1.432888e+09 -1.592892e+09 -7.570875e+03 -7.478779e+03 -6.716767e+03
-1.574926e+09 -1.374922e+09 -1.534926e+09 -7.889395e+03 -7.818569e+03 -6.912657e+03
-1.711208e+09 -1.511203e+09 -1.671209e+09 -6.873971e+03 -6.546855e+03 -6.373223e+03
-1.568901e+09 -1.368892e+09 -1.528900e+09 -6.664219e+03 -6.069767e+03 -7.654994e+03
-1.683755e+09 -1.483746e+09 -1.643757e+09 -6.135657e+03 -7.801061e+03 -8.909113e+03
-1.747748e+09 -1.547738e+09 -1.707749e+09 -6.122886e+03 -7.728284e+03 -8.736844e+03
-1.826062e+09 -1.626053e+09 -1.786064e+09 -4.978448e+03 -5.047473e+03 -7.045638e+03
-1.571387e+09 -1.371377e+09 -1.531385e+09 -6.524637e+03 -6.175181e+03 -7.454007e+03
-1.686241e+09 -1.486231e+09 -1.646242e+09 -6.027795e+03 -7.912228e+03 -8.790731e+03
-1.773034e+09 -1.573026e+09 -1.733036e+09 -4.556707e+03 -5.317957e+03 -6.966059e+03
-1.804685e+09 -1.604673e+09 -1.764686e+09 -4.688321e+03 -5.724109e+03 -7.721488e+03
-1.498362e+09 -1.298354e+09 -1.458361e+09 -6.815804e+03 -6.639421e+03 -8.118919e+03
-1.498362e+09 -1.298351e+09 -1.458362e+09 -5.628135e+03 -5.731657e+03 -9.097454e+03
-1.613216e+09 -1.413205e+09 -1.573215e+09 -5.658975e+03 -6.318859e+03 -9.037805e+03
-1.668401e+09 -1.468392e+09 -1.628400e+09 -5.088172e+03 -5.689120e+03 -8.322203e+03
-1.448874e+09 -1.248866e+09 -1.408873e+09 -7.897926e+03 -5.999521e+03 -7.780125e+03
-1.522330e+09 -1.322319e+09 -1.482329e+09 -6.763655e+03 -3.717522e+03 -7.491226e+03
-1.478109e+09 -1.278099e+09 -1.438107e+09 -7.219557e+03 -5.253387e+03 -8.428678e+03
-1.417657e+09 -1.217646e+09 -1.377656e+09 -7.161335e+03 -5.052553e+03 -7.976760e+03
-1.417657e+09 -1.217645e+09 -1.377656e+09 -6.753477e+03 -4.071174e+03 -7.858783e+03
-1.582781e+09 -1.382772e+09 -1.542780e+09 -5.986622e+03 -4.674852e+03 -7.951376e+03
-1.522330e+09 -1.322318e+09 -1.482329e+09 -6.722459e+03 -4.244128e+03 -7.514928e+03
-1.478108e+09 -1.278096e+09 -1.438108e+09 -6.078865e+03 -5.494642e+03 -8.616515e+03
-1.582781e+09 -1.382772e+09 -1.542781e+09 -6.302978e+03 -4.202467e+03 -7.612737e+03
-1.460191e+09 -1.260184e+09 -1.420188e+09 -4.325103e+03 -3.165798e+03 -4.132359e+03
-1.536678e+09 -1.336671e+09 -1.496675e+09 -4.197909e+03 -2.792211e+03 -3.884603e+03
-1.507151e+09 -1.307143e+09 -1.467149e+09 -3.406132e+03 -2.635424e+03 -4.232118e+03
-1.613998e+09 -1.413990e+09 -1.573996e+09 -3.595330e+03 -2.623727e+03 -4.058755e+03
-1.430665e+09 -1.230659e+09 -1.390662e+09 -4.711552e+03 -3.044423e+03 -3.931867e+03
-1.525627e+09 -1.325619e+09 -1.485623e+09 -4.005537e+03 -2.557472e+03 -4.104629e+03
-1.461026e+09 -1.261018e+09 -1.421023e+09 -4.521367e+03 -3.112131e+03 -4.440704e+03
-1.461026e+09 -1.261018e+09 -1.421023e+09 -4.216354e+03 -2.672006e+03 -4.315477e+03
-1.567872e+09 -1.367865e+09 -1.527869e+09 -4.278449e+03 -2.928182e+03 -4.191833e+03
-1.567873e+09 -1.367865e+09 -1.527870e+09 -4.633491e+03 -3.151917e+03 -4.707849e+03
-1.525627e+09 -1.325619e+09 -1.485624e+09 -4.295492e+03 -2.540991e+03 -4.559900e+03
-1.418781e+09 -1.218772e+09 -1.378777e+09 -4.278756e+03 -2.551880e+03 -4.516576e+03
-1.418780e+09 -1.218772e+09 -1.378776e+09 -4.100227e+03 -2.553829e+03 -3.797666e+03
-1.508628e+09 -1.308623e+09 -1.468626e+09 -4.756860e+03 -3.593027e+03 -4.159575e+03
-1.508629e+09 -1.308624e+09 -1.468626e+09 -4.956683e+03 -4.108538e+03 -4.279031e+03
-1.617489e+09 -1.417484e+09 -1.577487e+09 -4.642032e+03 -3.671784e+03 -3.731220e+03
-1.712713e+09 -1.512709e+09 -1.672711e+09 -4.756394e+03 -3.631234e+03 -4.234558e+03
-1.463425e+09 -1.263419e+09 -1.423422e+09 -5.645240e+03 -4.049927e+03 -4.710116e+03
-1.463425e+09 -1.263420e+09 -1.423423e+09 -5.803455e+03 -4.546704e+03 -4.731405e+03
-1.603854e+09 -1.403850e+09 -1.563852e+09 -5.760247e+03 -4.475230e+03 -5.020506e+03
-1.528849e+09 -1.328844e+09 -1.488847e+09 -5.842138e+03 -4.606924e+03 -4.876165e+03
-1.505395e+09 -1.305389e+09 -1.465393e+09 -4.377955e+03 -3.620309e+03 -4.304899e+03
-1.614256e+09 -1.414250e+09 -1.574254e+09 -4.269003e+03 -3.020260e+03 -3.699320e+03
-1.645538e+09 -1.445532e+09 -1.605536e+09 -4.104179e+03 -3.078847e+03 -3.856602e+03
-1.722859e+09 -1.522853e+09 -1.682858e+09 -3.751816e+03 -3.336607e+03 -4.208082e+03
-1.550874e+09 -1.350868e+09 -1.510872e+09 -4.801050e+03 -3.268195e+03 -4.810918e+03
-1.659734e+09 -1.459729e+09 -1.619732e+09 -4.625215e+03 -2.737092e+03 -4.254987e+03
-1.721377e+09 -1.521370e+09 -1.681375e+09 -4.230718e+03 -2.975552e+03 -4.878729e+03
-1.819561e+09 -1.619554e+09 -1.779559e+09 -4.202929e+03 -3.187482e+03 -5.177191e+03
